supercell of 100% icsd_608626.cif, 0% i 
   1.00000000000000     
    -9.5546135264747409    0.0100087589585205    0.0010871935687377
    -4.7859495464996176    8.2579136192766676    0.0141280191230480
     0.0010980144996255   -0.0169245472634526   -9.9518467188946662
   Al   Be   Zr   N 
    28     4     4    36
Direct
  0.1068417197929108  0.0984005589624815  0.2974470893893582
  0.2252423088084257  0.2019737415100735  0.0399336530155381
  0.7691476874011016  0.1124174611783175  0.7964327836353675
  0.8962335032965285  0.2072781650122479  0.5460036794544862
  0.4443712873161232  0.0991592353407071  0.2965530284657234
  0.5502792611761578  0.2056059147986318  0.0417346668367600
  0.1166848605944821  0.0898791844415570  0.7933157883347874
  0.2246643046355814  0.1955922204999467  0.5517132269266085
  0.7772101054359339  0.0963479342688771  0.2985408527704294
  0.8908219975104501  0.2089520475912252  0.0447857078851399
  0.5538790902341262  0.2043456204002467  0.5477530958401147
  0.1104094413153405  0.4252514761469470  0.2921064179864601
  0.2262257705171749  0.5350636308704537  0.0367857306045920
  0.7791129115251039  0.4313549183819276  0.7974148133587491
  0.8840573324603795  0.5333013347575388  0.5479155550861421
  0.4471385990257559  0.4208980280181081  0.2902991549978537
  0.5562628504524838  0.5392280036093311  0.0417246622921539
  0.1061828309387991  0.4250683033018419  0.8032012054339148
  0.7820868995790988  0.4221836090540307  0.2952048109614722
  0.8849064605231405  0.5361951422170250  0.0433792216177480
  0.4490285568495125  0.4230200287510044  0.8048519919080874
  0.5642955609263822  0.5339957611824460  0.5534082554997042
  0.1078094220704173  0.7630949817903456  0.2966223848569669
  0.2251582350942201  0.8727615475831527  0.0398391179527877
  0.5497725057750813  0.8743013876056125  0.0320392286100244
  0.7788115869996801  0.7610954474216314  0.2993100665668038
  0.4392258420651984  0.7662978382662473  0.7885477760722566
  0.5503448458193390  0.8790240369505469  0.5625512344614307
  0.4451454092199398  0.0932216358218412  0.7919699995428502
  0.7557823062306568  0.7456056752125804  0.7875773188015174
  0.1267975467498275  0.7675825509982559  0.7903724551215348
  0.2183902529772581  0.8831459023072483  0.5479036022709565
  0.2278691570302414  0.5355831913869764  0.5637231676415695
  0.8895890429206048  0.8723600950587027  0.5827535384858962
  0.4412018350571856  0.7649407202784957  0.3170601596585882
  0.8897094248794701  0.8661619892418813  0.0257180993017627
  0.2226149193969817  0.2052642799651849  0.3548102318590907
  0.1116961793606919  0.0939064521534902  0.1044334076387585
  0.8904948250176119  0.2097935514583540  0.8544735695893451
  0.7673396485552431  0.1209633376512897  0.6045331926609947
  0.5550004218383719  0.2063700986915009  0.3542296034089460
  0.4450710732904852  0.0923512137553644  0.1050118997989031
  0.2273236578946651  0.2012259155089353  0.8512573302843762
  0.1145593718365276  0.0871720376584904  0.6016802113053359
  0.8887229913693915  0.2059748092600131  0.3535046285648562
  0.7722592665594874  0.1056974893802547  0.1043850727387436
  0.5532709739465105  0.2020602561744056  0.8542094457062177
  0.4435211964098755  0.1001002384064265  0.6103680871295012
  0.2234705517566695  0.5372765380196185  0.3470216074083226
  0.1102726611676346  0.4286141521924947  0.0991845617146865
  0.8821281058983459  0.5473327254837415  0.8548546169446496
  0.7807453219237246  0.4243381311940482  0.6058056855514238
  0.5657075335496415  0.5160969467922101  0.3592895610785050
  0.4450044682727565  0.4274851448568739  0.0990082193663184
  0.2198363643381569  0.5430660016551556  0.8421124619160878
  0.0990832174101186  0.4170867269211485  0.6095521804292403
  0.8884273468089461  0.5377177444607426  0.3539453576912095
  0.7759240397665508  0.4277205394458150  0.1044808024458277
  0.5554228663376719  0.5411243835348500  0.8508905266766504
  0.4678714411462863  0.4165915780068659  0.6129587005737775
  0.1983519563565963  0.8845945905457526  0.3628452662667883
  0.1267175045828921  0.7526396999642486  0.1047763257694214
  0.8959921834202618  0.8798389544206557  0.8179635321697631
  0.7671703255883031  0.7449373885289390  0.6138515474577062
  0.5653598910880504  0.8861080286528775  0.3660604584299705
  0.4443640994607847  0.7615127614109127  0.1005888740953083
  0.2218899786936248  0.8699515618656974  0.8523352373467716
  0.1348391042809354  0.7724724183170366  0.6137501135372005
  0.8884893264636702  0.8715681122641072  0.3506673811645555
  0.7656821025513949  0.7544576681544441  0.1077234413261507
  0.5557530752030999  0.8729361600910437  0.8427059066395515
  0.4389312552538840  0.7629630429385585  0.5882374116688496
 
  0.00000000E+00  0.00000000E+00  0.00000000E+00
  0.00000000E+00  0.00000000E+00  0.00000000E+00
  0.00000000E+00  0.00000000E+00  0.00000000E+00
  0.00000000E+00  0.00000000E+00  0.00000000E+00
  0.00000000E+00  0.00000000E+00  0.00000000E+00
  0.00000000E+00  0.00000000E+00  0.00000000E+00
  0.00000000E+00  0.00000000E+00  0.00000000E+00
  0.00000000E+00  0.00000000E+00  0.00000000E+00
  0.00000000E+00  0.00000000E+00  0.00000000E+00
  0.00000000E+00  0.00000000E+00  0.00000000E+00
  0.00000000E+00  0.00000000E+00  0.00000000E+00
  0.00000000E+00  0.00000000E+00  0.00000000E+00
  0.00000000E+00  0.00000000E+00  0.00000000E+00
  0.00000000E+00  0.00000000E+00  0.00000000E+00
  0.00000000E+00  0.00000000E+00  0.00000000E+00
  0.00000000E+00  0.00000000E+00  0.00000000E+00
  0.00000000E+00  0.00000000E+00  0.00000000E+00
  0.00000000E+00  0.00000000E+00  0.00000000E+00
  0.00000000E+00  0.00000000E+00  0.00000000E+00
  0.00000000E+00  0.00000000E+00  0.00000000E+00
  0.00000000E+00  0.00000000E+00  0.00000000E+00
  0.00000000E+00  0.00000000E+00  0.00000000E+00
  0.00000000E+00  0.00000000E+00  0.00000000E+00
  0.00000000E+00  0.00000000E+00  0.00000000E+00
  0.00000000E+00  0.00000000E+00  0.00000000E+00
  0.00000000E+00  0.00000000E+00  0.00000000E+00
  0.00000000E+00  0.00000000E+00  0.00000000E+00
  0.00000000E+00  0.00000000E+00  0.00000000E+00
  0.00000000E+00  0.00000000E+00  0.00000000E+00
  0.00000000E+00  0.00000000E+00  0.00000000E+00
  0.00000000E+00  0.00000000E+00  0.00000000E+00
  0.00000000E+00  0.00000000E+00  0.00000000E+00
  0.00000000E+00  0.00000000E+00  0.00000000E+00
  0.00000000E+00  0.00000000E+00  0.00000000E+00
  0.00000000E+00  0.00000000E+00  0.00000000E+00
  0.00000000E+00  0.00000000E+00  0.00000000E+00
  0.00000000E+00  0.00000000E+00  0.00000000E+00
  0.00000000E+00  0.00000000E+00  0.00000000E+00
  0.00000000E+00  0.00000000E+00  0.00000000E+00
  0.00000000E+00  0.00000000E+00  0.00000000E+00
  0.00000000E+00  0.00000000E+00  0.00000000E+00
  0.00000000E+00  0.00000000E+00  0.00000000E+00
  0.00000000E+00  0.00000000E+00  0.00000000E+00
  0.00000000E+00  0.00000000E+00  0.00000000E+00
  0.00000000E+00  0.00000000E+00  0.00000000E+00
  0.00000000E+00  0.00000000E+00  0.00000000E+00
  0.00000000E+00  0.00000000E+00  0.00000000E+00
  0.00000000E+00  0.00000000E+00  0.00000000E+00
  0.00000000E+00  0.00000000E+00  0.00000000E+00
  0.00000000E+00  0.00000000E+00  0.00000000E+00
  0.00000000E+00  0.00000000E+00  0.00000000E+00
  0.00000000E+00  0.00000000E+00  0.00000000E+00
  0.00000000E+00  0.00000000E+00  0.00000000E+00
  0.00000000E+00  0.00000000E+00  0.00000000E+00
  0.00000000E+00  0.00000000E+00  0.00000000E+00
  0.00000000E+00  0.00000000E+00  0.00000000E+00
  0.00000000E+00  0.00000000E+00  0.00000000E+00
  0.00000000E+00  0.00000000E+00  0.00000000E+00
  0.00000000E+00  0.00000000E+00  0.00000000E+00
  0.00000000E+00  0.00000000E+00  0.00000000E+00
  0.00000000E+00  0.00000000E+00  0.00000000E+00
  0.00000000E+00  0.00000000E+00  0.00000000E+00
  0.00000000E+00  0.00000000E+00  0.00000000E+00
  0.00000000E+00  0.00000000E+00  0.00000000E+00
  0.00000000E+00  0.00000000E+00  0.00000000E+00
  0.00000000E+00  0.00000000E+00  0.00000000E+00
  0.00000000E+00  0.00000000E+00  0.00000000E+00
  0.00000000E+00  0.00000000E+00  0.00000000E+00
  0.00000000E+00  0.00000000E+00  0.00000000E+00
  0.00000000E+00  0.00000000E+00  0.00000000E+00
  0.00000000E+00  0.00000000E+00  0.00000000E+00
  0.00000000E+00  0.00000000E+00  0.00000000E+00
