POSCAR                                  
  0.988000000000000     
     2.6509222416100000   -5.2341228933100004    7.8770693117899997
     2.6802083112299999  -10.4234921602000004   -7.8583831624500000
    10.5441324966999996   10.3982391967000005   -0.0271334007217000
   Pr   Al   N 
    42     6    48
Direct
  0.6827133370527676  0.9929632787409446  0.0787710165490552
  0.7703762988980358  0.7419539700351621  0.1230967045095355
  0.9023711303291364  0.2481349201333529  0.2107348460690943
  0.0183392014002663  0.0026580383956798  0.2516176947410216
  0.1029268267517409  0.7524988691300720  0.2933821458017931
  0.1809624549243125  0.5086543738973930  0.0932638529409573
  0.2668952843057255  0.2446583686879080  0.1321317063895293
  0.5166024872850485  0.4970502767934306  0.2557224533817433
  0.6863112971856395  0.0035789243423494  0.3333972312162743
  0.7589714934002671  0.7355352423775798  0.3643807248859261
  0.9225026209992393  0.2452222317354469  0.4623176073483251
  0.0032163809796373  0.9963558052980162  0.5042716586531384
  0.0813307548556423  0.7442803259898767  0.5406179900022252
  0.1420922433169594  0.5008022709101567  0.3314330453526679
  0.2603632055016618  0.2436814747316660  0.3704303992996429
  0.3332136456536432  0.0031355040509382  0.4255236699303424
  0.4167691484736835  0.7434429017449702  0.4468274817838136
  0.4919985329716212  0.5014767114408301  0.4985679722518412
  0.5898776654612021  0.2538547308298575  0.5446217011730283
  0.6715116555058245  0.9985192740908175  0.5868881405746009
  0.7517744417329908  0.7397042176253805  0.6187438126309601
  0.8333610123622037  0.5093354319386023  0.6714356958210246
  0.9196674278746357  0.2527655445158317  0.7140490429615340
  0.0041018358230573  0.0031164615657531  0.7559571358679946
  0.0939883928857910  0.7494730982685809  0.7900543571884100
  0.1594812795278244  0.5002741235672730  0.5829480937412228
  0.2554296334628745  0.2530468303676869  0.6285525336552880
  0.3366872276720372  0.9961257679115576  0.6706387522864219
  0.4295430147464216  0.7478503679923136  0.7111649054290368
  0.5099061280915578  0.5071528345450815  0.7584848969195406
  0.5834139791555089  0.2467568960640847  0.7925477363419589
  0.6741881734956650  0.9922527805268899  0.8369935258866477
  0.8384914445609297  0.5060606023548786  0.9226842488390616
  0.9151322411111806  0.2663883546919479  0.9720746940187368
  0.0214478478981448  0.0046935339579974  0.0075687405555485
  0.1129399759209875  0.7577728706462494  0.0480822605985409
  0.1784483517019169  0.4999259829484259  0.8374620171125571
  0.2545884210627634  0.2512027890247381  0.8815264258814040
  0.3390333996099955  0.9963815588045506  0.9210562852145472
  0.4286759663061090  0.7521223985990275  0.9650874404710734
  0.5194081203206338  0.5009382109280125  0.0135281461704722
  0.5894852381618492  0.2508936806671400  0.0473860202573846
  0.8814349884314225  0.5417397323084359  0.1860338866189650
  0.4284278601674529  0.0474270534485370  0.1889667807465756
  0.4098179676401230  0.8450304884066000  0.2301939091337175
  0.5549513197369507  0.2821403156145692  0.3194834252743988
  0.7923660681545357  0.4178997680126031  0.3889049910515112
  0.8388571706867083  0.7721341069199497  0.8949616232576574
  0.6724382937813758  0.3450981360887013  0.2576799935285976
  0.8084742620703196  0.0980631656710713  0.2537587719903414
  0.8729100298961825  0.8700222993490954  0.3044505009339886
  0.9662275270842997  0.6326552462851609  0.3373452288412864
  0.9815804009162221  0.3821828720479346  0.3950438803292826
  0.1215778863665165  0.1198718192286918  0.4298471498178671
  0.2225201399893706  0.8751692763069556  0.2292029426999633
  0.2806762856724490  0.6071364663842473  0.2747215580406248
  0.3821320408274929  0.3631215086271951  0.3114349316860512
  0.4745219826062552  0.1462567114811719  0.3288361017582275
  0.5150557616887497  0.8680328179694285  0.3600520477666436
  0.6073763124335940  0.6286644143348781  0.4326460736565210
  0.6884608226691071  0.3640511214116486  0.4608427232997201
  0.7832245156878344  0.1238075164470516  0.5160511616617001
  0.8647643065732353  0.8664803239085472  0.5523643133033360
  0.9608695465168751  0.6341223802609903  0.6171308339025217
  0.0312870781091164  0.3702634903887159  0.6403777522064544
  0.1132889951963065  0.1205868304986240  0.6865656348940945
  0.2087641165292169  0.8827177300211630  0.4779941618063077
  0.2764130312808675  0.6198894199507237  0.5150796623640872
  0.3607801073498891  0.3690681048783517  0.5532552463965175
  0.4532213637843725  0.1232076217184215  0.5962017259638941
  0.5364750161510301  0.8733301207254556  0.6438549402373042
  0.6122304183876608  0.6113216200811493  0.6690622538631956
  0.7015220582207249  0.3745345655942742  0.7234198252752151
  0.7806087041948828  0.1125353514416929  0.7599256208714493
  0.8677655700535993  0.8646804916398949  0.8248420969332955
  0.9352334054506599  0.6379842833985947  0.8565209662800299
  0.0286501798980083  0.3769147180889192  0.8946443993290742
  0.1125754547764899  0.1258988973959063  0.9373494543501053
  0.1993906828736485  0.8735631819297396  0.7214428501549008
  0.2908261561076770  0.6204081676770414  0.7684180425959042
  0.3646030085679257  0.3705466467073251  0.8068427078755676
  0.4495772260109661  0.1264796332651628  0.8574643712506642
  0.5226668126084064  0.8768224280692394  0.8929639114719095
  0.6118652884238358  0.6170085700370436  0.9468649224311392
  0.6917579933391309  0.3573758939396257  0.9615144401668658
  0.7774479950834348  0.1243259000611232  0.0219868205879834
  0.8705320496796887  0.8563867108422727  0.0401394156659194
  0.9598300814187439  0.6273956199977917  0.1111722044866497
  0.9889938367326110  0.4064242901147495  0.1499267620698959
  0.1093778834633454  0.1450750353525621  0.1922327657046523
  0.1958738250249326  0.8673568762415940  0.9669738591487800
  0.2853664230250175  0.6197752598847543  0.0108725528884577
  0.3668106474743666  0.3716354659089731  0.0653842454129006
  0.4464591441291574  0.1152638412957430  0.1015492547310473
  0.5046187751863229  0.9048042541127259  0.1572262965488420
  0.6879819631337654  0.5826196073586445  0.1819531960334828
 
  0.00000000E+00  0.00000000E+00  0.00000000E+00
  0.00000000E+00  0.00000000E+00  0.00000000E+00
  0.00000000E+00  0.00000000E+00  0.00000000E+00
  0.00000000E+00  0.00000000E+00  0.00000000E+00
  0.00000000E+00  0.00000000E+00  0.00000000E+00
  0.00000000E+00  0.00000000E+00  0.00000000E+00
  0.00000000E+00  0.00000000E+00  0.00000000E+00
  0.00000000E+00  0.00000000E+00  0.00000000E+00
  0.00000000E+00  0.00000000E+00  0.00000000E+00
  0.00000000E+00  0.00000000E+00  0.00000000E+00
  0.00000000E+00  0.00000000E+00  0.00000000E+00
  0.00000000E+00  0.00000000E+00  0.00000000E+00
  0.00000000E+00  0.00000000E+00  0.00000000E+00
  0.00000000E+00  0.00000000E+00  0.00000000E+00
  0.00000000E+00  0.00000000E+00  0.00000000E+00
  0.00000000E+00  0.00000000E+00  0.00000000E+00
  0.00000000E+00  0.00000000E+00  0.00000000E+00
  0.00000000E+00  0.00000000E+00  0.00000000E+00
  0.00000000E+00  0.00000000E+00  0.00000000E+00
  0.00000000E+00  0.00000000E+00  0.00000000E+00
  0.00000000E+00  0.00000000E+00  0.00000000E+00
  0.00000000E+00  0.00000000E+00  0.00000000E+00
  0.00000000E+00  0.00000000E+00  0.00000000E+00
  0.00000000E+00  0.00000000E+00  0.00000000E+00
  0.00000000E+00  0.00000000E+00  0.00000000E+00
  0.00000000E+00  0.00000000E+00  0.00000000E+00
  0.00000000E+00  0.00000000E+00  0.00000000E+00
  0.00000000E+00  0.00000000E+00  0.00000000E+00
  0.00000000E+00  0.00000000E+00  0.00000000E+00
  0.00000000E+00  0.00000000E+00  0.00000000E+00
  0.00000000E+00  0.00000000E+00  0.00000000E+00
  0.00000000E+00  0.00000000E+00  0.00000000E+00
  0.00000000E+00  0.00000000E+00  0.00000000E+00
  0.00000000E+00  0.00000000E+00  0.00000000E+00
  0.00000000E+00  0.00000000E+00  0.00000000E+00
  0.00000000E+00  0.00000000E+00  0.00000000E+00
  0.00000000E+00  0.00000000E+00  0.00000000E+00
  0.00000000E+00  0.00000000E+00  0.00000000E+00
  0.00000000E+00  0.00000000E+00  0.00000000E+00
  0.00000000E+00  0.00000000E+00  0.00000000E+00
  0.00000000E+00  0.00000000E+00  0.00000000E+00
  0.00000000E+00  0.00000000E+00  0.00000000E+00
  0.00000000E+00  0.00000000E+00  0.00000000E+00
  0.00000000E+00  0.00000000E+00  0.00000000E+00
  0.00000000E+00  0.00000000E+00  0.00000000E+00
  0.00000000E+00  0.00000000E+00  0.00000000E+00
  0.00000000E+00  0.00000000E+00  0.00000000E+00
  0.00000000E+00  0.00000000E+00  0.00000000E+00
  0.00000000E+00  0.00000000E+00  0.00000000E+00
  0.00000000E+00  0.00000000E+00  0.00000000E+00
  0.00000000E+00  0.00000000E+00  0.00000000E+00
  0.00000000E+00  0.00000000E+00  0.00000000E+00
  0.00000000E+00  0.00000000E+00  0.00000000E+00
  0.00000000E+00  0.00000000E+00  0.00000000E+00
  0.00000000E+00  0.00000000E+00  0.00000000E+00
  0.00000000E+00  0.00000000E+00  0.00000000E+00
  0.00000000E+00  0.00000000E+00  0.00000000E+00
  0.00000000E+00  0.00000000E+00  0.00000000E+00
  0.00000000E+00  0.00000000E+00  0.00000000E+00
  0.00000000E+00  0.00000000E+00  0.00000000E+00
  0.00000000E+00  0.00000000E+00  0.00000000E+00
  0.00000000E+00  0.00000000E+00  0.00000000E+00
  0.00000000E+00  0.00000000E+00  0.00000000E+00
  0.00000000E+00  0.00000000E+00  0.00000000E+00
  0.00000000E+00  0.00000000E+00  0.00000000E+00
  0.00000000E+00  0.00000000E+00  0.00000000E+00
  0.00000000E+00  0.00000000E+00  0.00000000E+00
  0.00000000E+00  0.00000000E+00  0.00000000E+00
  0.00000000E+00  0.00000000E+00  0.00000000E+00
  0.00000000E+00  0.00000000E+00  0.00000000E+00
  0.00000000E+00  0.00000000E+00  0.00000000E+00
  0.00000000E+00  0.00000000E+00  0.00000000E+00
  0.00000000E+00  0.00000000E+00  0.00000000E+00
  0.00000000E+00  0.00000000E+00  0.00000000E+00
  0.00000000E+00  0.00000000E+00  0.00000000E+00
  0.00000000E+00  0.00000000E+00  0.00000000E+00
  0.00000000E+00  0.00000000E+00  0.00000000E+00
  0.00000000E+00  0.00000000E+00  0.00000000E+00
  0.00000000E+00  0.00000000E+00  0.00000000E+00
  0.00000000E+00  0.00000000E+00  0.00000000E+00
  0.00000000E+00  0.00000000E+00  0.00000000E+00
  0.00000000E+00  0.00000000E+00  0.00000000E+00
  0.00000000E+00  0.00000000E+00  0.00000000E+00
  0.00000000E+00  0.00000000E+00  0.00000000E+00
  0.00000000E+00  0.00000000E+00  0.00000000E+00
  0.00000000E+00  0.00000000E+00  0.00000000E+00
  0.00000000E+00  0.00000000E+00  0.00000000E+00
  0.00000000E+00  0.00000000E+00  0.00000000E+00
  0.00000000E+00  0.00000000E+00  0.00000000E+00
  0.00000000E+00  0.00000000E+00  0.00000000E+00
  0.00000000E+00  0.00000000E+00  0.00000000E+00
  0.00000000E+00  0.00000000E+00  0.00000000E+00
  0.00000000E+00  0.00000000E+00  0.00000000E+00
  0.00000000E+00  0.00000000E+00  0.00000000E+00
  0.00000000E+00  0.00000000E+00  0.00000000E+00
  0.00000000E+00  0.00000000E+00  0.00000000E+00
