supercell of POSCAR                     
   1.03600000000000     
     9.6051007291200001   -5.6678653607799996   -9.9907275475200006
     9.5551777488200003    5.5783510108199996    9.9928581731800001
    -1.5573508785200001   -8.3719044994900003    4.9655686364999996
   Al   Gd   N 
    72    24    95
Direct
  0.3017758465581650  0.2873986668313364  0.5407173664363825
  0.1414522669727845  0.2468002233660300  0.3113631256580689
  0.3053379541849353  0.4100698088995429  0.3093119679784806
  0.4640302181423479  0.3209667069242883  0.7832704213352955
  0.1420023794308847  0.4987747660612953  0.7863085096539493
  0.2986849610897693  0.1634142661368259  0.7731482255911075
  0.4716597739664579  0.4501151424924714  0.5394417829792530
  0.1399055316176927  0.1184478330112100  0.5449210964431401
  0.5079295586876711  0.0395785152395831  0.2706029172822042
  0.2329704309125660  0.0948541380184409  0.3260566861249572
  0.1138922252752650  0.0683103852762841  0.0935404685457186
  0.1160464376690342  0.1967245937046158  0.8173138965792930
  0.2733693961090111  0.3562393542397473  0.8138873516851604
  0.1115912409063640  0.3250859314626524  0.5908262643748898
  0.2706877117837010  0.4850846334439396  0.5780661407080103
  0.4610084200393061  0.3192926974201811  0.3278201543371679
  0.1103943711972732  0.4469965305772163  0.3423442701524735
  0.4483182855536754  0.4034519272882591  0.0951622060910395
  0.8015397627104477  0.2888645938189711  0.5399210756653474
  0.6459621738913341  0.2432406826420177  0.3109907567977572
  0.8097308548010886  0.4092579924720354  0.3112779485473851
  0.9634593990763420  0.3249101525076199  0.7910064361297984
  0.6425804947549238  0.4991669474017826  0.7860901408984731
  0.7954931774461542  0.1654774854401424  0.7801080500713908
  0.9696690821232679  0.4464060992175192  0.5357981365556341
  0.6443001907452413  0.1178093472485457  0.5382768130774664
  0.9789932854001364  0.0718871445718179  0.2989497886554560
  0.7777450981751812  0.1089089266840944  0.3355457439302754
  0.6186430770261566  0.0739351384623461  0.0936320309316940
  0.6124372339842381  0.1954742934663329  0.8134535108453207
  0.7748080797253181  0.3554432338209850  0.8124865329932405
  0.6111766645777124  0.3255206317808614  0.5909566947965601
  0.7711071038884469  0.4850621480682022  0.5787864820781863
  0.9483326909117906  0.2803474488642976  0.3376964549394614
  0.6172341917181683  0.4511778304364711  0.3390773359583150
  0.9481495686725125  0.4050629127510348  0.1057980235232918
  0.3010906655394479  0.7885137805623614  0.5390751521911596
  0.1432381384539241  0.7425298230900097  0.3123513909974776
  0.3085045869478193  0.9079620642446287  0.3095049037377322
  0.4628467643995933  0.8268405366884650  0.7890782010768902
  0.1422718416018398  0.9973889536852809  0.7838681467446236
  0.2952552019945145  0.6651711803740028  0.7808953464755675
  0.4704788089432981  0.9460210449637287  0.5285478957655627
  0.1434188697371397  0.6196946814470365  0.5405886509530049
  0.4781088982791104  0.5711739723895803  0.2985229462709356
  0.2757810680434645  0.6086547308874444  0.3375881171580062
  0.1143548397557410  0.5709960855212017  0.1034098263711840
  0.1149282994903089  0.6961923202238438  0.8185688152634256
  0.2747108512836220  0.8555041232029836  0.8116291867786600
  0.1121904265284925  0.8244781954147626  0.5905169440943823
  0.2701766423106307  0.9862645939900574  0.5740337331786733
  0.4481523641913654  0.7784055972055341  0.3354256777988240
  0.1051670857293132  0.9386943501181548  0.3391136346004444
  0.4440798875924443  0.9008630044133170  0.0961103890381381
  0.8010966986092072  0.7884509812986522  0.5404543512931994
  0.6429998756275523  0.7407704753075492  0.3122030705994874
  0.8110871491100013  0.9094705442891922  0.3114158978599590
  0.9626192718602056  0.8254526083407114  0.7903106886069509
  0.6416354976505048  0.9977752505726656  0.7835283781659754
  0.7953479927652296  0.6655498200658911  0.7811990941891196
  0.9691768071712872  0.9456315664166226  0.5350736508850673
  0.6439109879483738  0.6201062851909143  0.5408342227482237
  0.9783942109856554  0.5721747090820912  0.2997480233210297
  0.7778089536875470  0.6096838027746330  0.3376764933610517
  0.6150815053391199  0.5700966764663917  0.1018229783320521
  0.6143134554862044  0.6967206667153860  0.8184668878401382
  0.7740782193493416  0.8556856864627989  0.8138621173625893
  0.6118326863832024  0.8231873565464980  0.5906748345093007
  0.7721261234462133  0.9851876924634055  0.5791440036630533
  0.9470991818317103  0.7781602440494950  0.3380256217273612
  0.6214834256259536  0.9360166488284705  0.3451821787821814
  0.9481321857607767  0.9039930488606771  0.1036823879936719
  0.4835752634480315  0.1935460364362740  0.0380053521523536
  0.1343192009702463  0.3676329936543468  0.0350218543973995
  0.3107088345491320  0.0205192394755827  0.0366955425327120
  0.2824227101604535  0.2335892423094279  0.0777174623961159
  0.4478976029992481  0.0227317514824747  0.8061751770051160
  0.4415210730279213  0.1555240355887051  0.5292110619960013
  0.9841930697931716  0.1948592577685844  0.0420245075261221
  0.6378350915072275  0.3644320283219997  0.0311175659861291
  0.8093444626603628  0.0211349206845597  0.0397468040849844
  0.7866429436870135  0.2348739603930952  0.0801970805896417
  0.9489614650330580  0.0205562421923915  0.8202497508981281
  0.9421790708699618  0.1557368459215809  0.5730111294698403
  0.4833539869260406  0.6942723042434338  0.0388302317784124
  0.1372965378527411  0.8640741776990168  0.0316816045843211
  0.3081806393344380  0.5214011675193433  0.0426226249167598
  0.2831713649944945  0.7311304397774734  0.0839295758317959
  0.4474128097587524  0.5184337227664599  0.8206931836585056
  0.4423993678149145  0.6563970326139312  0.5734906917175664
  0.9815124877363672  0.6963577180828153  0.0415455091842745
  0.6329124823419505  0.8689253326785931  0.0339807398049032
  0.8075214124886045  0.5228124657881850  0.0421053182361462
  0.7818729817038630  0.7354784983695026  0.0846810212333224
  0.9481272199305195  0.5198362500622906  0.8228497078212413
  0.9439873576876536  0.6549167701157756  0.5757207819717820
  0.2391019457024015  0.3664589228921926  0.6268158864390330
  0.0753590602778260  0.3256768498459337  0.4016238328833523
  0.2386153056060181  0.4896543564711706  0.3921601980498721
  0.4260893718257677  0.2904310659419949  0.1543338747839513
  0.0690609184261959  0.4579526182005083  0.1547787212191736
  0.2359053038996990  0.1025409654414347  0.1523546413465340
  0.3996268540790382  0.3892226998914694  0.9041493786703114
  0.0946807032804102  0.0834544779545539  0.9017167666423660
  0.2361854734712665  0.2425178730456921  0.8603907403806375
  0.3961925735287934  0.0246752960782217  0.5919476017474423
  0.0885834211530607  0.2037882884890223  0.6330089448455851
  0.2177242192008677  0.1904356220197059  0.4366894256039586
  0.0660965111320380  0.1436181154385778  0.2111131256979064
  0.2158693820511246  0.3193916824153220  0.2096252938090757
  0.3669876263576768  0.1171005288054943  0.9067838540371298
  0.0430287729696062  0.2684910727596161  0.8881041550104243
  0.2105888587386318  0.4356509253040173  0.8909773876358926
  0.3733907732430950  0.2377686742342462  0.6688901112221615
  0.0405536931035329  0.4062505457290158  0.6849470423005855
  0.2121161479871603  0.0673327310997323  0.6701118557242012
  0.3825594874168416  0.3530220944762235  0.4351187408540298
  0.0488161640909581  0.0251143863482568  0.4402896449300542
  0.3922649901222854  0.4707045851522125  0.2104538632387687
  0.7360345376318875  0.3667854204948142  0.6263878509833987
  0.5780069430807799  0.3274390105364802  0.3999234336584365
  0.7412143368726589  0.4909638071207070  0.3921692670298498
  0.9295654332866192  0.2927580702748926  0.1577719975800278
  0.5699347912490822  0.4550364562057183  0.1508976821255246
  0.7361405673072383  0.1041876460181541  0.1550275968987620
  0.8996876449794158  0.3922624110273318  0.9102685681831346
  0.5908548505381788  0.0830527341601197  0.9012932086523762
  0.7309262659483835  0.2437221914685566  0.8644383902193269
  0.8958959467055507  0.0164299477136964  0.6112356501111407
  0.5806609231357100  0.1994743628879334  0.6259941511613221
  0.9051581616070621  0.1557753903120442  0.3545879365790867
  0.7193192700656184  0.1904357743885612  0.4362518241153310
  0.5621858188005291  0.1451088820938722  0.2111368304219141
  0.7171209536337386  0.3194403005597550  0.2105794000529144
  0.8660401774735149  0.1190595384118964  0.9107541470698806
  0.5419792483310957  0.2683314541861535  0.8866529529312999
  0.7108652761607814  0.4360700174137264  0.8891253722479249
  0.8668197604014409  0.2468089351734832  0.6833855330586900
  0.5400101640257233  0.4061123018542716  0.6834111124506705
  0.7119245366799944  0.0684953676846831  0.6722665061992785
  0.8822061570243847  0.3526055383068680  0.4347729628705252
  0.5555628127548644  0.0202637266039645  0.4399920943806492
  0.8904491343410044  0.4754243134197580  0.2107927087442008
  0.2391327660253708  0.8698029181180260  0.6260893049563805
  0.0738153357999565  0.8227287089776070  0.4013606063955564
  0.2332863366133182  0.9856446777856220  0.3882144263885721
  0.4273722035016121  0.7920284217830798  0.1552670428376715
  0.0703087710049175  0.9556698713862275  0.1507734659887916
  0.2342602761592971  0.6011860892860739  0.1576771903903023
  0.4005858772705508  0.8983405527347657  0.9069088704091541
  0.0938714720561862  0.5833252582007091  0.9035601580705332
  0.2339936633241280  0.7452559469123230  0.8693728744824512
  0.3952374342506744  0.5166539161697870  0.6104521468854358
  0.0908612393011836  0.7041198233839623  0.6339308279812528
  0.4036559168438174  0.6544002906518500  0.3544572373285959
  0.2194805958618744  0.6907477249452540  0.4364938950431565
  0.0611771236833007  0.6461537548012757  0.2099857071125797
  0.2164361425413119  0.8192154734950705  0.2111558778367950
  0.3652984080582655  0.6167237959427254  0.9102474645662113
  0.0413632812058609  0.7688394200285913  0.8868205248578818
  0.2109360693643723  0.9358687070040759  0.8890280682275105
  0.3664822288817575  0.7476608452888271  0.6840516388648865
  0.0399866207870971  0.9069348832743103  0.6844780885932096
  0.2123842671660938  0.5677831364218235  0.6723074918378913
  0.3820671724805251  0.8523921478791721  0.4327533155664725
  0.0485279598434332  0.5265181974838669  0.4423181608718778
  0.3926364967742657  0.9762141030156073  0.2123895260708579
  0.7367197733056940  0.8682342639933935  0.6279022335060063
  0.5750103842234608  0.8213500816303210  0.4017700948329193
  0.7430963525620200  0.9902728139522807  0.3927189104053710
  0.9252170125138903  0.7928823497293891  0.1589408476725396
  0.5658008780984787  0.9626968206681425  0.1593161168107002
  0.7343620627174730  0.6046983545567741  0.1581537293047717
  0.8992421463678610  0.8946228862663261  0.9095023886558522
  0.5919250914692071  0.5832830037931771  0.9030131664666143
  0.7327765496186771  0.7448428343580247  0.8687790239933975
  0.8951527604033060  0.5153983113012259  0.6128945103934385
  0.5887639160661919  0.7029091427381289  0.6336525840443628
  0.9043668094211270  0.6552080114904655  0.3581704512320201
  0.7193470857125988  0.6907492790125787  0.4364480776920701
  0.5608713422311311  0.6440532440965185  0.2093241485706869
  0.7119173860499330  0.8237783132709069  0.2126797087620602
  0.8651597549122840  0.6179520767339000  0.9107376334287096
  0.5415989789511642  0.7709369594261943  0.8870259524089903
  0.7088011161382397  0.9359727517039289  0.8906232250068129
  0.8665865061517763  0.7466776330611395  0.6835934039409963
  0.5375687424435611  0.9085053525019333  0.6830583806114561
  0.7118406540223106  0.5682586275468111  0.6721920330638582
  0.8817812101248066  0.8521788752155359  0.4347463405146925
  0.5493000529535479  0.5253668424488183  0.4398875827578479
  0.8918554414245321  0.9754423218810757  0.2102432981317790
 
  0.00000000E+00  0.00000000E+00  0.00000000E+00
  0.00000000E+00  0.00000000E+00  0.00000000E+00
  0.00000000E+00  0.00000000E+00  0.00000000E+00
  0.00000000E+00  0.00000000E+00  0.00000000E+00
  0.00000000E+00  0.00000000E+00  0.00000000E+00
  0.00000000E+00  0.00000000E+00  0.00000000E+00
  0.00000000E+00  0.00000000E+00  0.00000000E+00
  0.00000000E+00  0.00000000E+00  0.00000000E+00
  0.00000000E+00  0.00000000E+00  0.00000000E+00
  0.00000000E+00  0.00000000E+00  0.00000000E+00
  0.00000000E+00  0.00000000E+00  0.00000000E+00
  0.00000000E+00  0.00000000E+00  0.00000000E+00
  0.00000000E+00  0.00000000E+00  0.00000000E+00
  0.00000000E+00  0.00000000E+00  0.00000000E+00
  0.00000000E+00  0.00000000E+00  0.00000000E+00
  0.00000000E+00  0.00000000E+00  0.00000000E+00
  0.00000000E+00  0.00000000E+00  0.00000000E+00
  0.00000000E+00  0.00000000E+00  0.00000000E+00
  0.00000000E+00  0.00000000E+00  0.00000000E+00
  0.00000000E+00  0.00000000E+00  0.00000000E+00
  0.00000000E+00  0.00000000E+00  0.00000000E+00
  0.00000000E+00  0.00000000E+00  0.00000000E+00
  0.00000000E+00  0.00000000E+00  0.00000000E+00
  0.00000000E+00  0.00000000E+00  0.00000000E+00
  0.00000000E+00  0.00000000E+00  0.00000000E+00
  0.00000000E+00  0.00000000E+00  0.00000000E+00
  0.00000000E+00  0.00000000E+00  0.00000000E+00
  0.00000000E+00  0.00000000E+00  0.00000000E+00
  0.00000000E+00  0.00000000E+00  0.00000000E+00
  0.00000000E+00  0.00000000E+00  0.00000000E+00
  0.00000000E+00  0.00000000E+00  0.00000000E+00
  0.00000000E+00  0.00000000E+00  0.00000000E+00
  0.00000000E+00  0.00000000E+00  0.00000000E+00
  0.00000000E+00  0.00000000E+00  0.00000000E+00
  0.00000000E+00  0.00000000E+00  0.00000000E+00
  0.00000000E+00  0.00000000E+00  0.00000000E+00
  0.00000000E+00  0.00000000E+00  0.00000000E+00
  0.00000000E+00  0.00000000E+00  0.00000000E+00
  0.00000000E+00  0.00000000E+00  0.00000000E+00
  0.00000000E+00  0.00000000E+00  0.00000000E+00
  0.00000000E+00  0.00000000E+00  0.00000000E+00
  0.00000000E+00  0.00000000E+00  0.00000000E+00
  0.00000000E+00  0.00000000E+00  0.00000000E+00
  0.00000000E+00  0.00000000E+00  0.00000000E+00
  0.00000000E+00  0.00000000E+00  0.00000000E+00
  0.00000000E+00  0.00000000E+00  0.00000000E+00
  0.00000000E+00  0.00000000E+00  0.00000000E+00
  0.00000000E+00  0.00000000E+00  0.00000000E+00
  0.00000000E+00  0.00000000E+00  0.00000000E+00
  0.00000000E+00  0.00000000E+00  0.00000000E+00
  0.00000000E+00  0.00000000E+00  0.00000000E+00
  0.00000000E+00  0.00000000E+00  0.00000000E+00
  0.00000000E+00  0.00000000E+00  0.00000000E+00
  0.00000000E+00  0.00000000E+00  0.00000000E+00
  0.00000000E+00  0.00000000E+00  0.00000000E+00
  0.00000000E+00  0.00000000E+00  0.00000000E+00
  0.00000000E+00  0.00000000E+00  0.00000000E+00
  0.00000000E+00  0.00000000E+00  0.00000000E+00
  0.00000000E+00  0.00000000E+00  0.00000000E+00
  0.00000000E+00  0.00000000E+00  0.00000000E+00
  0.00000000E+00  0.00000000E+00  0.00000000E+00
  0.00000000E+00  0.00000000E+00  0.00000000E+00
  0.00000000E+00  0.00000000E+00  0.00000000E+00
  0.00000000E+00  0.00000000E+00  0.00000000E+00
  0.00000000E+00  0.00000000E+00  0.00000000E+00
  0.00000000E+00  0.00000000E+00  0.00000000E+00
  0.00000000E+00  0.00000000E+00  0.00000000E+00
  0.00000000E+00  0.00000000E+00  0.00000000E+00
  0.00000000E+00  0.00000000E+00  0.00000000E+00
  0.00000000E+00  0.00000000E+00  0.00000000E+00
  0.00000000E+00  0.00000000E+00  0.00000000E+00
  0.00000000E+00  0.00000000E+00  0.00000000E+00
  0.00000000E+00  0.00000000E+00  0.00000000E+00
  0.00000000E+00  0.00000000E+00  0.00000000E+00
  0.00000000E+00  0.00000000E+00  0.00000000E+00
  0.00000000E+00  0.00000000E+00  0.00000000E+00
  0.00000000E+00  0.00000000E+00  0.00000000E+00
  0.00000000E+00  0.00000000E+00  0.00000000E+00
  0.00000000E+00  0.00000000E+00  0.00000000E+00
  0.00000000E+00  0.00000000E+00  0.00000000E+00
  0.00000000E+00  0.00000000E+00  0.00000000E+00
  0.00000000E+00  0.00000000E+00  0.00000000E+00
  0.00000000E+00  0.00000000E+00  0.00000000E+00
  0.00000000E+00  0.00000000E+00  0.00000000E+00
  0.00000000E+00  0.00000000E+00  0.00000000E+00
  0.00000000E+00  0.00000000E+00  0.00000000E+00
  0.00000000E+00  0.00000000E+00  0.00000000E+00
  0.00000000E+00  0.00000000E+00  0.00000000E+00
  0.00000000E+00  0.00000000E+00  0.00000000E+00
  0.00000000E+00  0.00000000E+00  0.00000000E+00
  0.00000000E+00  0.00000000E+00  0.00000000E+00
  0.00000000E+00  0.00000000E+00  0.00000000E+00
  0.00000000E+00  0.00000000E+00  0.00000000E+00
  0.00000000E+00  0.00000000E+00  0.00000000E+00
  0.00000000E+00  0.00000000E+00  0.00000000E+00
  0.00000000E+00  0.00000000E+00  0.00000000E+00
  0.00000000E+00  0.00000000E+00  0.00000000E+00
  0.00000000E+00  0.00000000E+00  0.00000000E+00
  0.00000000E+00  0.00000000E+00  0.00000000E+00
  0.00000000E+00  0.00000000E+00  0.00000000E+00
  0.00000000E+00  0.00000000E+00  0.00000000E+00
  0.00000000E+00  0.00000000E+00  0.00000000E+00
  0.00000000E+00  0.00000000E+00  0.00000000E+00
  0.00000000E+00  0.00000000E+00  0.00000000E+00
  0.00000000E+00  0.00000000E+00  0.00000000E+00
  0.00000000E+00  0.00000000E+00  0.00000000E+00
  0.00000000E+00  0.00000000E+00  0.00000000E+00
  0.00000000E+00  0.00000000E+00  0.00000000E+00
  0.00000000E+00  0.00000000E+00  0.00000000E+00
  0.00000000E+00  0.00000000E+00  0.00000000E+00
  0.00000000E+00  0.00000000E+00  0.00000000E+00
  0.00000000E+00  0.00000000E+00  0.00000000E+00
  0.00000000E+00  0.00000000E+00  0.00000000E+00
  0.00000000E+00  0.00000000E+00  0.00000000E+00
  0.00000000E+00  0.00000000E+00  0.00000000E+00
  0.00000000E+00  0.00000000E+00  0.00000000E+00
  0.00000000E+00  0.00000000E+00  0.00000000E+00
  0.00000000E+00  0.00000000E+00  0.00000000E+00
  0.00000000E+00  0.00000000E+00  0.00000000E+00
  0.00000000E+00  0.00000000E+00  0.00000000E+00
  0.00000000E+00  0.00000000E+00  0.00000000E+00
  0.00000000E+00  0.00000000E+00  0.00000000E+00
  0.00000000E+00  0.00000000E+00  0.00000000E+00
  0.00000000E+00  0.00000000E+00  0.00000000E+00
  0.00000000E+00  0.00000000E+00  0.00000000E+00
  0.00000000E+00  0.00000000E+00  0.00000000E+00
  0.00000000E+00  0.00000000E+00  0.00000000E+00
  0.00000000E+00  0.00000000E+00  0.00000000E+00
  0.00000000E+00  0.00000000E+00  0.00000000E+00
  0.00000000E+00  0.00000000E+00  0.00000000E+00
  0.00000000E+00  0.00000000E+00  0.00000000E+00
  0.00000000E+00  0.00000000E+00  0.00000000E+00
  0.00000000E+00  0.00000000E+00  0.00000000E+00
  0.00000000E+00  0.00000000E+00  0.00000000E+00
  0.00000000E+00  0.00000000E+00  0.00000000E+00
  0.00000000E+00  0.00000000E+00  0.00000000E+00
  0.00000000E+00  0.00000000E+00  0.00000000E+00
  0.00000000E+00  0.00000000E+00  0.00000000E+00
  0.00000000E+00  0.00000000E+00  0.00000000E+00
  0.00000000E+00  0.00000000E+00  0.00000000E+00
  0.00000000E+00  0.00000000E+00  0.00000000E+00
  0.00000000E+00  0.00000000E+00  0.00000000E+00
  0.00000000E+00  0.00000000E+00  0.00000000E+00
  0.00000000E+00  0.00000000E+00  0.00000000E+00
  0.00000000E+00  0.00000000E+00  0.00000000E+00
  0.00000000E+00  0.00000000E+00  0.00000000E+00
  0.00000000E+00  0.00000000E+00  0.00000000E+00
  0.00000000E+00  0.00000000E+00  0.00000000E+00
  0.00000000E+00  0.00000000E+00  0.00000000E+00
  0.00000000E+00  0.00000000E+00  0.00000000E+00
  0.00000000E+00  0.00000000E+00  0.00000000E+00
  0.00000000E+00  0.00000000E+00  0.00000000E+00
  0.00000000E+00  0.00000000E+00  0.00000000E+00
  0.00000000E+00  0.00000000E+00  0.00000000E+00
  0.00000000E+00  0.00000000E+00  0.00000000E+00
  0.00000000E+00  0.00000000E+00  0.00000000E+00
  0.00000000E+00  0.00000000E+00  0.00000000E+00
  0.00000000E+00  0.00000000E+00  0.00000000E+00
  0.00000000E+00  0.00000000E+00  0.00000000E+00
  0.00000000E+00  0.00000000E+00  0.00000000E+00
  0.00000000E+00  0.00000000E+00  0.00000000E+00
  0.00000000E+00  0.00000000E+00  0.00000000E+00
  0.00000000E+00  0.00000000E+00  0.00000000E+00
  0.00000000E+00  0.00000000E+00  0.00000000E+00
  0.00000000E+00  0.00000000E+00  0.00000000E+00
  0.00000000E+00  0.00000000E+00  0.00000000E+00
  0.00000000E+00  0.00000000E+00  0.00000000E+00
  0.00000000E+00  0.00000000E+00  0.00000000E+00
  0.00000000E+00  0.00000000E+00  0.00000000E+00
  0.00000000E+00  0.00000000E+00  0.00000000E+00
  0.00000000E+00  0.00000000E+00  0.00000000E+00
  0.00000000E+00  0.00000000E+00  0.00000000E+00
  0.00000000E+00  0.00000000E+00  0.00000000E+00
  0.00000000E+00  0.00000000E+00  0.00000000E+00
  0.00000000E+00  0.00000000E+00  0.00000000E+00
  0.00000000E+00  0.00000000E+00  0.00000000E+00
  0.00000000E+00  0.00000000E+00  0.00000000E+00
  0.00000000E+00  0.00000000E+00  0.00000000E+00
  0.00000000E+00  0.00000000E+00  0.00000000E+00
  0.00000000E+00  0.00000000E+00  0.00000000E+00
  0.00000000E+00  0.00000000E+00  0.00000000E+00
  0.00000000E+00  0.00000000E+00  0.00000000E+00
  0.00000000E+00  0.00000000E+00  0.00000000E+00
  0.00000000E+00  0.00000000E+00  0.00000000E+00
  0.00000000E+00  0.00000000E+00  0.00000000E+00
  0.00000000E+00  0.00000000E+00  0.00000000E+00
  0.00000000E+00  0.00000000E+00  0.00000000E+00
  0.00000000E+00  0.00000000E+00  0.00000000E+00
  0.00000000E+00  0.00000000E+00  0.00000000E+00
  0.00000000E+00  0.00000000E+00  0.00000000E+00
  0.00000000E+00  0.00000000E+00  0.00000000E+00
