generated by phonopy                    
   1.00000000000000     
    10.0351470768999995   -0.0000022330999784   -0.0000001056124209
    -5.0175765436399997    8.6906901959899994    0.0000001395531216
    -0.0000001735893656    0.0000001431815548   14.9533752540999991
   Pb   P    O 
    21    12    49
Direct
  0.0050776020700027  0.7903133654748729  0.1146716497173657
  0.9909201784935959  0.7689988718184679  0.6066365418381565
  0.0153218149219185  0.1534903554804217  0.3059434045907565
  0.9985964725893339  0.2663290934801879  0.8767438049295606
  0.2374930922461118  0.2353292920847636  0.1073066609499520
  0.2078141332394381  0.1761351017786197  0.6786413049498918
  0.7500576119062927  0.7468928037364151  0.3688552604195507
  0.7508114047036543  0.7520383292773403  0.8721699802042977
  0.7718775245968033  0.0045397016814235  0.1112657932713432
  0.7481886964061673  0.9958063675467201  0.6159394314064173
  0.2582567862265179  0.9898581957977797  0.3637082484400409
  0.2617517649717911  0.9982809163092838  0.8772212206868559
  0.6704504310682324  0.3413245874936948  0.9998859866233474
  0.6538887108565419  0.3428501514226667  0.4981238085033723
  0.3427669965130349  0.6772957338169050  0.0090777716085171
  0.3453627939449788  0.6681931013428368  0.4991766792246040
  0.3072972025118403  0.6366641778372184  0.2534034974272998
  0.3295591347681537  0.6669627220093588  0.7444046365625852
  0.6786363582834056  0.3421087842978139  0.2487370873064094
  0.6678989617124813  0.3343516479830697  0.7490498120005213
  0.1223938354934972  0.2205054264586508  0.4978096426097949
  0.6362570985629930  0.6095659544803382  0.1225749727923571
  0.6138300180405523  0.5852408056956548  0.6302976624599808
  0.4392482618130131  0.4059891414484014  0.3354379776027727
  0.3781568443279539  0.4107637568126634  0.8759579922851159
  0.4090923069275476  0.0331372766476008  0.1235144636006922
  0.4122176095531671  0.0211663730025506  0.6309140632649601
  0.6056954425747492  0.9733510172435444  0.3776965973886206
  0.6094361235152022  0.9780528172213749  0.8773271773694091
  0.9669668857105833  0.3839819549637795  0.1138415945456401
  0.9677292074803319  0.3876436416901683  0.6310187165626076
  0.0333291207268758  0.6281289818526403  0.3746646088986907
  0.0285510002196574  0.6373329019411145  0.8760367715944497
  0.5128256060853644  0.6598426790526304  0.1236165802705997
  0.4990908590835588  0.6472604074594486  0.6264490179942044
  0.3942337457907925  0.2955366212441533  0.4196866278986988
  0.4669855665920650  0.3218894199516669  0.8670186807787204
  0.3560730545896291  0.8591931723978945  0.1238235799544967
  0.3768047037998983  0.8518151306442974  0.6226831352405569
  0.6414863718044757  0.1417437257568395  0.3806793750945090
  0.6886272315851656  0.1563225453236328  0.8737483949712370
  0.1443051119510983  0.4917362723371923  0.1145682832688806
  0.1415941149936728  0.5115376375225296  0.6266143841245366
  0.8544338884100355  0.5302853969560388  0.3696577069884626
  0.8498312791133600  0.5383742062585455  0.8733236548874856
  0.7464307387853069  0.6771824472193089  0.0395296906238585
  0.7215560263470522  0.6421333408177219  0.5453853684930010
  0.2600788131578327  0.3463090990556665  0.9549196619275406
  0.3399328304541100  0.0769939889027000  0.0411423318655864
  0.2963617748692684  0.0438782406620888  0.5729760867389118
  0.6431826077929443  0.9126049954135880  0.4661086319183667
  0.6730454118408105  0.9250645386093552  0.9575197645019173
  0.9130680116841958  0.2736874581509028  0.0301664977241032
  0.9214910918767387  0.2668992245910218  0.5535151864383963
  0.0825889030583653  0.7395596549171088  0.4579632859849170
  0.0846110637892821  0.7497340054596364  0.9583255300859506
  0.2829256737376369  0.3574912558334020  0.2809258299986652
  0.2824743938609373  0.3980480919099705  0.7905697481256695
  0.7435405140040032  0.6736841231132971  0.2069985095602291
  0.7187881121898414  0.6472579126280493  0.7148828159439944
  0.6969132759094947  0.9451719115227633  0.3019404116115396
  0.6389555164345779  0.9075165326168246  0.7919806952237707
  0.3532812058939570  0.0807742139558840  0.2092968213962862
  0.4019091518623412  0.0651894509948576  0.7300296838119209
  0.0997621238920559  0.7351945802427906  0.2899100673462769
  0.0977823190403839  0.7407923557975593  0.7914389365967764
  0.9130562025829008  0.2801750653047392  0.1986100774222308
  0.9240560881724278  0.2969529262635007  0.7213154252857450
  0.5583002729821516  0.4298373985246826  0.1195896067468780
  0.5263242840667530  0.4045810125456484  0.6313888099079819
  0.4815320573407078  0.5769642032111619  0.3724952913792379
  0.4920706188862241  0.5866510615527787  0.8931864169672892
  0.5884748947765388  0.1340029703428343  0.1170003887875879
  0.5827249871824662  0.1325406563488158  0.6013489755280261
  0.4263044779474114  0.8644336997324231  0.3631387799379979
  0.4308986881603047  0.9049886326368863  0.8924381432618986
  0.8802036638903843  0.4772249284172787  0.1107299819126624
  0.8656887375503004  0.4645944889766014  0.6201032988318715
  0.1127652147400795  0.5285249710433959  0.3800766752801508
  0.1005759399823276  0.5296633348678412  0.8848175425867737
  0.0039992230002781  0.0166552532814848  0.0868283668248679
  0.9782644644828196  0.9969161106327604  0.5867864412231327
 
  0.00000000E+00  0.00000000E+00  0.00000000E+00
  0.00000000E+00  0.00000000E+00  0.00000000E+00
  0.00000000E+00  0.00000000E+00  0.00000000E+00
  0.00000000E+00  0.00000000E+00  0.00000000E+00
  0.00000000E+00  0.00000000E+00  0.00000000E+00
  0.00000000E+00  0.00000000E+00  0.00000000E+00
  0.00000000E+00  0.00000000E+00  0.00000000E+00
  0.00000000E+00  0.00000000E+00  0.00000000E+00
  0.00000000E+00  0.00000000E+00  0.00000000E+00
  0.00000000E+00  0.00000000E+00  0.00000000E+00
  0.00000000E+00  0.00000000E+00  0.00000000E+00
  0.00000000E+00  0.00000000E+00  0.00000000E+00
  0.00000000E+00  0.00000000E+00  0.00000000E+00
  0.00000000E+00  0.00000000E+00  0.00000000E+00
  0.00000000E+00  0.00000000E+00  0.00000000E+00
  0.00000000E+00  0.00000000E+00  0.00000000E+00
  0.00000000E+00  0.00000000E+00  0.00000000E+00
  0.00000000E+00  0.00000000E+00  0.00000000E+00
  0.00000000E+00  0.00000000E+00  0.00000000E+00
  0.00000000E+00  0.00000000E+00  0.00000000E+00
  0.00000000E+00  0.00000000E+00  0.00000000E+00
  0.00000000E+00  0.00000000E+00  0.00000000E+00
  0.00000000E+00  0.00000000E+00  0.00000000E+00
  0.00000000E+00  0.00000000E+00  0.00000000E+00
  0.00000000E+00  0.00000000E+00  0.00000000E+00
  0.00000000E+00  0.00000000E+00  0.00000000E+00
  0.00000000E+00  0.00000000E+00  0.00000000E+00
  0.00000000E+00  0.00000000E+00  0.00000000E+00
  0.00000000E+00  0.00000000E+00  0.00000000E+00
  0.00000000E+00  0.00000000E+00  0.00000000E+00
  0.00000000E+00  0.00000000E+00  0.00000000E+00
  0.00000000E+00  0.00000000E+00  0.00000000E+00
  0.00000000E+00  0.00000000E+00  0.00000000E+00
  0.00000000E+00  0.00000000E+00  0.00000000E+00
  0.00000000E+00  0.00000000E+00  0.00000000E+00
  0.00000000E+00  0.00000000E+00  0.00000000E+00
  0.00000000E+00  0.00000000E+00  0.00000000E+00
  0.00000000E+00  0.00000000E+00  0.00000000E+00
  0.00000000E+00  0.00000000E+00  0.00000000E+00
  0.00000000E+00  0.00000000E+00  0.00000000E+00
  0.00000000E+00  0.00000000E+00  0.00000000E+00
  0.00000000E+00  0.00000000E+00  0.00000000E+00
  0.00000000E+00  0.00000000E+00  0.00000000E+00
  0.00000000E+00  0.00000000E+00  0.00000000E+00
  0.00000000E+00  0.00000000E+00  0.00000000E+00
  0.00000000E+00  0.00000000E+00  0.00000000E+00
  0.00000000E+00  0.00000000E+00  0.00000000E+00
  0.00000000E+00  0.00000000E+00  0.00000000E+00
  0.00000000E+00  0.00000000E+00  0.00000000E+00
  0.00000000E+00  0.00000000E+00  0.00000000E+00
  0.00000000E+00  0.00000000E+00  0.00000000E+00
  0.00000000E+00  0.00000000E+00  0.00000000E+00
  0.00000000E+00  0.00000000E+00  0.00000000E+00
  0.00000000E+00  0.00000000E+00  0.00000000E+00
  0.00000000E+00  0.00000000E+00  0.00000000E+00
  0.00000000E+00  0.00000000E+00  0.00000000E+00
  0.00000000E+00  0.00000000E+00  0.00000000E+00
  0.00000000E+00  0.00000000E+00  0.00000000E+00
  0.00000000E+00  0.00000000E+00  0.00000000E+00
  0.00000000E+00  0.00000000E+00  0.00000000E+00
  0.00000000E+00  0.00000000E+00  0.00000000E+00
  0.00000000E+00  0.00000000E+00  0.00000000E+00
  0.00000000E+00  0.00000000E+00  0.00000000E+00
  0.00000000E+00  0.00000000E+00  0.00000000E+00
  0.00000000E+00  0.00000000E+00  0.00000000E+00
  0.00000000E+00  0.00000000E+00  0.00000000E+00
  0.00000000E+00  0.00000000E+00  0.00000000E+00
  0.00000000E+00  0.00000000E+00  0.00000000E+00
  0.00000000E+00  0.00000000E+00  0.00000000E+00
  0.00000000E+00  0.00000000E+00  0.00000000E+00
  0.00000000E+00  0.00000000E+00  0.00000000E+00
  0.00000000E+00  0.00000000E+00  0.00000000E+00
  0.00000000E+00  0.00000000E+00  0.00000000E+00
  0.00000000E+00  0.00000000E+00  0.00000000E+00
  0.00000000E+00  0.00000000E+00  0.00000000E+00
  0.00000000E+00  0.00000000E+00  0.00000000E+00
  0.00000000E+00  0.00000000E+00  0.00000000E+00
  0.00000000E+00  0.00000000E+00  0.00000000E+00
  0.00000000E+00  0.00000000E+00  0.00000000E+00
  0.00000000E+00  0.00000000E+00  0.00000000E+00
  0.00000000E+00  0.00000000E+00  0.00000000E+00
  0.00000000E+00  0.00000000E+00  0.00000000E+00
