Al   B    N                             
   1.00000000000000     
    -9.3276705114309415    0.0184789571397033    0.0095561290765227
    -4.6417545555430575    8.0886247746417030   -0.0041829664534388
    -0.0812649412157532    0.0268023841252067  -10.1133354004079639
   Al   B    N 
    34     2    36
Direct
  0.1034804770362427  0.0899672905877296  0.3216347351399023
  0.2311894990331425  0.2003944225687633  0.1432731592671530
  0.7746777309438997  0.0928631414625158  0.8262275817247513
  0.8867041693873574  0.2022961925672675  0.5689807587333746
  0.4493839039487000  0.0898594963699466  0.3824049130504932
  0.5621496408614348  0.2013454566924011  0.0846046488491652
  0.1052013375768865  0.0918437098104832  0.8221744660198738
  0.2273461187743635  0.2075411289562155  0.6406335066371156
  0.8879946608469638  0.2040275503503963  0.0754528579673064
  0.4438440263058610  0.0846220831009745  0.8992965943303446
  0.5637310039117409  0.2057843107323336  0.5669783478764785
  0.1160625199537648  0.4218155858903714  0.3852557518179367
  0.2275387569258598  0.5423810804847378  0.0732725808138355
  0.7776414606274002  0.4271603408352433  0.8224041651676046
  0.8838625332109871  0.5384923484802187  0.5791164901955241
  0.4512592545670842  0.4251211266047434  0.3209106733607925
  0.5572474852449574  0.5437309991516699  0.0692213342464640
  0.1098442835180506  0.4230601868729806  0.8934002513282024
  0.2248002032963683  0.5427636241826193  0.5733304064534224
  0.7745730220696316  0.4212615109654365  0.3206114054937714
  0.8836967788917249  0.5412383663690719  0.1070553039122828
  0.4451487614056759  0.4234959519460730  0.8235247658419240
  0.5537267449058021  0.5403047975460709  0.5706652387613218
  0.1103728918520162  0.7660778709761971  0.3205030409995260
  0.2276412759178683  0.8744026743874755  0.0697607426440428
  0.7656225029737342  0.7647036574462049  0.9006477999700522
  0.8886768037249482  0.8812108035496280  0.5657175708952380
  0.4441212501997853  0.7602610777546417  0.3159977032507229
  0.1056885560061573  0.7618602443353240  0.8233562444318281
  0.2227577598649546  0.8735571237201256  0.5705797033411244
  0.7729834645175302  0.7699404728544863  0.3735580306739834
  0.8854063287359182  0.8794253150050864  0.0861885020120781
  0.4408672644445772  0.7573017646867939  0.8205575521339057
  0.5591784450608870  0.8766757842110451  0.6391028042404585
  0.7791200376475445  0.0961070806125974  0.3189759005099759
  0.5573564349664153  0.8757891518999443  0.1500273769980680
  0.2269099185595493  0.2040496367465536  0.3311586704750766
  0.1079109321270835  0.0914637651357779  0.1315278728445293
  0.8859946930251965  0.2048440620051792  0.8858627772583674
  0.7763563852545303  0.0936054696328625  0.6383489070724266
  0.5849688303538869  0.1958953362152940  0.3736218194453969
  0.4566767716439841  0.0646080872834602  0.0908691430157020
  0.2273458144552905  0.2050497124406974  0.8323145321435561
  0.1061539331325250  0.0935771125788278  0.6300755259022210
  0.8767623184485700  0.1940156791657017  0.3774142499385746
  0.7784801354720017  0.0963424943787388  0.1566652912210600
  0.5572632580944017  0.2061754149449513  0.8924514964192980
  0.4431560730688417  0.0921884488774296  0.5722987559034038
  0.2279547388274779  0.5430896404502974  0.3812398593683710
  0.1156736849158975  0.4218143386226245  0.0879545901221945
  0.8838990760338632  0.5398145159599963  0.8745689874778506
  0.7760081998877624  0.4247429957360040  0.6299876756804821
  0.5554838254304144  0.5418500349823887  0.3825115646131465
  0.4465648831610807  0.4287867515709678  0.1337779740072307
  0.2247285324125272  0.5416970877057423  0.8816612569449731
  0.1114741263076908  0.4238591273403145  0.5801078853447592
  0.8889037106676270  0.5370314114811947  0.3553597943026148
  0.7741183678195611  0.4239262308978695  0.1336121955593228
  0.5549750150344295  0.5377228936696383  0.8811595545268887
  0.4457471349241189  0.4241479770888077  0.6327872637462661
  0.2256738279690964  0.8716836789929303  0.3823732794899612
  0.1133913945338278  0.7618290843252709  0.1335354691930490
  0.8887188838949953  0.8758209770006573  0.8933669382155927
  0.7709931036102304  0.7661781741650131  0.5682179621254804
  0.5585072329528984  0.8788398802938531  0.3093572976916334
  0.4536870870138827  0.7695348590009345  0.1261702871397290
  0.2211429903664879  0.8717662775062394  0.8818863461465796
  0.1067802301282512  0.7637339547115971  0.6322923200003459
  0.8810379077453590  0.9017748463759716  0.3716217001185740
  0.7476827919952527  0.7766410088356466  0.0963926198790190
  0.5575083307792781  0.8751022852081505  0.8264529513837857
  0.4414549418061497  0.7588401314178910  0.6300806187578942
 
  0.00000000E+00  0.00000000E+00  0.00000000E+00
  0.00000000E+00  0.00000000E+00  0.00000000E+00
  0.00000000E+00  0.00000000E+00  0.00000000E+00
  0.00000000E+00  0.00000000E+00  0.00000000E+00
  0.00000000E+00  0.00000000E+00  0.00000000E+00
  0.00000000E+00  0.00000000E+00  0.00000000E+00
  0.00000000E+00  0.00000000E+00  0.00000000E+00
  0.00000000E+00  0.00000000E+00  0.00000000E+00
  0.00000000E+00  0.00000000E+00  0.00000000E+00
  0.00000000E+00  0.00000000E+00  0.00000000E+00
  0.00000000E+00  0.00000000E+00  0.00000000E+00
  0.00000000E+00  0.00000000E+00  0.00000000E+00
  0.00000000E+00  0.00000000E+00  0.00000000E+00
  0.00000000E+00  0.00000000E+00  0.00000000E+00
  0.00000000E+00  0.00000000E+00  0.00000000E+00
  0.00000000E+00  0.00000000E+00  0.00000000E+00
  0.00000000E+00  0.00000000E+00  0.00000000E+00
  0.00000000E+00  0.00000000E+00  0.00000000E+00
  0.00000000E+00  0.00000000E+00  0.00000000E+00
  0.00000000E+00  0.00000000E+00  0.00000000E+00
  0.00000000E+00  0.00000000E+00  0.00000000E+00
  0.00000000E+00  0.00000000E+00  0.00000000E+00
  0.00000000E+00  0.00000000E+00  0.00000000E+00
  0.00000000E+00  0.00000000E+00  0.00000000E+00
  0.00000000E+00  0.00000000E+00  0.00000000E+00
  0.00000000E+00  0.00000000E+00  0.00000000E+00
  0.00000000E+00  0.00000000E+00  0.00000000E+00
  0.00000000E+00  0.00000000E+00  0.00000000E+00
  0.00000000E+00  0.00000000E+00  0.00000000E+00
  0.00000000E+00  0.00000000E+00  0.00000000E+00
  0.00000000E+00  0.00000000E+00  0.00000000E+00
  0.00000000E+00  0.00000000E+00  0.00000000E+00
  0.00000000E+00  0.00000000E+00  0.00000000E+00
  0.00000000E+00  0.00000000E+00  0.00000000E+00
  0.00000000E+00  0.00000000E+00  0.00000000E+00
  0.00000000E+00  0.00000000E+00  0.00000000E+00
  0.00000000E+00  0.00000000E+00  0.00000000E+00
  0.00000000E+00  0.00000000E+00  0.00000000E+00
  0.00000000E+00  0.00000000E+00  0.00000000E+00
  0.00000000E+00  0.00000000E+00  0.00000000E+00
  0.00000000E+00  0.00000000E+00  0.00000000E+00
  0.00000000E+00  0.00000000E+00  0.00000000E+00
  0.00000000E+00  0.00000000E+00  0.00000000E+00
  0.00000000E+00  0.00000000E+00  0.00000000E+00
  0.00000000E+00  0.00000000E+00  0.00000000E+00
  0.00000000E+00  0.00000000E+00  0.00000000E+00
  0.00000000E+00  0.00000000E+00  0.00000000E+00
  0.00000000E+00  0.00000000E+00  0.00000000E+00
  0.00000000E+00  0.00000000E+00  0.00000000E+00
  0.00000000E+00  0.00000000E+00  0.00000000E+00
  0.00000000E+00  0.00000000E+00  0.00000000E+00
  0.00000000E+00  0.00000000E+00  0.00000000E+00
  0.00000000E+00  0.00000000E+00  0.00000000E+00
  0.00000000E+00  0.00000000E+00  0.00000000E+00
  0.00000000E+00  0.00000000E+00  0.00000000E+00
  0.00000000E+00  0.00000000E+00  0.00000000E+00
  0.00000000E+00  0.00000000E+00  0.00000000E+00
  0.00000000E+00  0.00000000E+00  0.00000000E+00
  0.00000000E+00  0.00000000E+00  0.00000000E+00
  0.00000000E+00  0.00000000E+00  0.00000000E+00
  0.00000000E+00  0.00000000E+00  0.00000000E+00
  0.00000000E+00  0.00000000E+00  0.00000000E+00
  0.00000000E+00  0.00000000E+00  0.00000000E+00
  0.00000000E+00  0.00000000E+00  0.00000000E+00
  0.00000000E+00  0.00000000E+00  0.00000000E+00
  0.00000000E+00  0.00000000E+00  0.00000000E+00
  0.00000000E+00  0.00000000E+00  0.00000000E+00
  0.00000000E+00  0.00000000E+00  0.00000000E+00
  0.00000000E+00  0.00000000E+00  0.00000000E+00
  0.00000000E+00  0.00000000E+00  0.00000000E+00
  0.00000000E+00  0.00000000E+00  0.00000000E+00
  0.00000000E+00  0.00000000E+00  0.00000000E+00
