Al   B    N                             
   1.00000000000000     
    -9.3269105042610736   -0.0011667324415782    0.0015669211352297
    -4.6649784321607450    8.0536671859767743    0.0013334363817228
    -0.0086180914716874    0.0604797677636091  -10.0660986171165288
   Al   B    N 
    34     2    36
Direct
  0.1041888786957585  0.0935671638440070  0.3170147333345810
  0.2185466860766994  0.2039168941960057  0.0763179781168191
  0.7773425489128272  0.0939556954676277  0.8212893644301147
  0.8868398781667821  0.2028563791743068  0.5652015594861695
  0.4489440237723841  0.0930788590700615  0.3746733428741038
  0.5619316155143608  0.2018506429789468  0.0843745694270481
  0.1115117429386387  0.0946679239357593  0.8193962883560602
  0.2163890431580668  0.2081184796611737  0.5651310608151334
  0.8867092944562884  0.2049781242093474  0.0731163410081663
  0.4545847421289864  0.0777066315425685  0.8985201935811773
  0.5654604170675626  0.2058755021157239  0.5627882332904832
  0.1081372008057997  0.4313817683793459  0.3160562966789513
  0.2217339347587313  0.5401101300965294  0.0672081512642890
  0.7791581741499769  0.4255888456814887  0.8179151730516168
  0.8892610126991443  0.5392471000977324  0.5667290841216399
  0.4485044486044316  0.4267794736950634  0.3172143792493500
  0.5567241927541602  0.5444961536652215  0.0671474594012409
  0.1145830228654248  0.4235487991270332  0.8194553305358596
  0.2228690210758728  0.5378920992029776  0.5693808481473113
  0.7755632237156860  0.4253934172840417  0.3175127950481880
  0.8808873692500185  0.5455733716002058  0.0674653602940296
  0.4470751079561381  0.4218773686141262  0.8202918753664505
  0.5558178666119744  0.5390376667694667  0.5672027953047660
  0.1069163500724315  0.7666093170668660  0.3173641385540620
  0.2262611772403957  0.8732977034333587  0.0675430317217902
  0.7865967339040054  0.7575350575322943  0.8187961962207737
  0.8872388581424531  0.8771313746001894  0.5631981091109708
  0.4401455774169065  0.7604713656548867  0.3150981119572123
  0.1102581941792025  0.7615425946865599  0.8183651962073881
  0.2219884494303130  0.8718101263369888  0.5670324354806482
  0.7791908845301094  0.7668847106384504  0.3153723256792986
  0.8822206950398126  0.8760439297471905  0.0744711390914503
  0.4420372382358764  0.7566619318310401  0.8181505231900772
  0.5530755988661014  0.8796479610978096  0.6347640974884285
  0.7782076523390984  0.0968063759731237  0.3147763020609702
  0.5514125374545884  0.8781725192420780  0.1517827828763103
  0.2116057745758866  0.2103155478115113  0.3724326124580912
  0.1086604780206102  0.0929992028724058  0.1297543175861122
  0.8891720889750019  0.2036145316930913  0.8821178004557453
  0.7788017378065675  0.0935247570217399  0.6331379913710862
  0.5839116942016389  0.1973460113454450  0.3671207650106965
  0.4583606615273368  0.0649172343327180  0.0942964653285898
  0.2218701736554394  0.2039589891306690  0.8832605621173997
  0.1097723684405381  0.0947469495953470  0.6277700669045956
  0.8758507551595969  0.1940130156534323  0.3722351622338991
  0.7805446894939863  0.0939553409550058  0.1516293319408319
  0.5609380170356388  0.2040560888872989  0.8898039253230010
  0.4480928396725261  0.0921051462815541  0.5684762502765182
  0.2223597922298097  0.5389999547808060  0.3786564922979281
  0.1080297522427287  0.4313577820417507  0.1273634776232058
  0.8905324208857763  0.5365931292956390  0.8778997699936397
  0.7792519268420079  0.4257937690889193  0.6262896000429095
  0.5547494221796683  0.5409460106944906  0.3780961552700859
  0.4435233611669247  0.4312165802142900  0.1290214942341805
  0.2234690927183394  0.5377049911687450  0.8773095742621777
  0.1119328325985762  0.4261914985271034  0.6291854890962441
  0.8859480787699781  0.5421094377806952  0.3767502759315917
  0.7772361334161531  0.4282756940455315  0.1287758627083164
  0.5569058731527576  0.5361809221093878  0.8778992820665223
  0.4468621264406281  0.4242403522558078  0.6283504204771546
  0.2213109198511276  0.8724744135397913  0.3780360610705813
  0.1108640079281358  0.7620123021269194  0.1281533316947048
  0.8897249200928030  0.8727372296603662  0.8837531182238081
  0.7858386396327006  0.7591521228040108  0.6236534290119664
  0.5498280402181024  0.8801766236611499  0.3140959960424965
  0.4530928389780655  0.7707801600799371  0.1238337725386174
  0.2222993963621036  0.8713459658320275  0.8782971203085737
  0.1093835584847085  0.7618805527448913  0.6269773802535070
  0.8762037106001728  0.8979610617684557  0.3708919071494137
  0.7578484733674244  0.7716219848961643  0.1245573089278338
  0.5562894875252198  0.8730439029388393  0.8252391836673993
  0.4415114652682419  0.7582572896242965  0.6251318839909956
 
  0.00000000E+00  0.00000000E+00  0.00000000E+00
  0.00000000E+00  0.00000000E+00  0.00000000E+00
  0.00000000E+00  0.00000000E+00  0.00000000E+00
  0.00000000E+00  0.00000000E+00  0.00000000E+00
  0.00000000E+00  0.00000000E+00  0.00000000E+00
  0.00000000E+00  0.00000000E+00  0.00000000E+00
  0.00000000E+00  0.00000000E+00  0.00000000E+00
  0.00000000E+00  0.00000000E+00  0.00000000E+00
  0.00000000E+00  0.00000000E+00  0.00000000E+00
  0.00000000E+00  0.00000000E+00  0.00000000E+00
  0.00000000E+00  0.00000000E+00  0.00000000E+00
  0.00000000E+00  0.00000000E+00  0.00000000E+00
  0.00000000E+00  0.00000000E+00  0.00000000E+00
  0.00000000E+00  0.00000000E+00  0.00000000E+00
  0.00000000E+00  0.00000000E+00  0.00000000E+00
  0.00000000E+00  0.00000000E+00  0.00000000E+00
  0.00000000E+00  0.00000000E+00  0.00000000E+00
  0.00000000E+00  0.00000000E+00  0.00000000E+00
  0.00000000E+00  0.00000000E+00  0.00000000E+00
  0.00000000E+00  0.00000000E+00  0.00000000E+00
  0.00000000E+00  0.00000000E+00  0.00000000E+00
  0.00000000E+00  0.00000000E+00  0.00000000E+00
  0.00000000E+00  0.00000000E+00  0.00000000E+00
  0.00000000E+00  0.00000000E+00  0.00000000E+00
  0.00000000E+00  0.00000000E+00  0.00000000E+00
  0.00000000E+00  0.00000000E+00  0.00000000E+00
  0.00000000E+00  0.00000000E+00  0.00000000E+00
  0.00000000E+00  0.00000000E+00  0.00000000E+00
  0.00000000E+00  0.00000000E+00  0.00000000E+00
  0.00000000E+00  0.00000000E+00  0.00000000E+00
  0.00000000E+00  0.00000000E+00  0.00000000E+00
  0.00000000E+00  0.00000000E+00  0.00000000E+00
  0.00000000E+00  0.00000000E+00  0.00000000E+00
  0.00000000E+00  0.00000000E+00  0.00000000E+00
  0.00000000E+00  0.00000000E+00  0.00000000E+00
  0.00000000E+00  0.00000000E+00  0.00000000E+00
  0.00000000E+00  0.00000000E+00  0.00000000E+00
  0.00000000E+00  0.00000000E+00  0.00000000E+00
  0.00000000E+00  0.00000000E+00  0.00000000E+00
  0.00000000E+00  0.00000000E+00  0.00000000E+00
  0.00000000E+00  0.00000000E+00  0.00000000E+00
  0.00000000E+00  0.00000000E+00  0.00000000E+00
  0.00000000E+00  0.00000000E+00  0.00000000E+00
  0.00000000E+00  0.00000000E+00  0.00000000E+00
  0.00000000E+00  0.00000000E+00  0.00000000E+00
  0.00000000E+00  0.00000000E+00  0.00000000E+00
  0.00000000E+00  0.00000000E+00  0.00000000E+00
  0.00000000E+00  0.00000000E+00  0.00000000E+00
  0.00000000E+00  0.00000000E+00  0.00000000E+00
  0.00000000E+00  0.00000000E+00  0.00000000E+00
  0.00000000E+00  0.00000000E+00  0.00000000E+00
  0.00000000E+00  0.00000000E+00  0.00000000E+00
  0.00000000E+00  0.00000000E+00  0.00000000E+00
  0.00000000E+00  0.00000000E+00  0.00000000E+00
  0.00000000E+00  0.00000000E+00  0.00000000E+00
  0.00000000E+00  0.00000000E+00  0.00000000E+00
  0.00000000E+00  0.00000000E+00  0.00000000E+00
  0.00000000E+00  0.00000000E+00  0.00000000E+00
  0.00000000E+00  0.00000000E+00  0.00000000E+00
  0.00000000E+00  0.00000000E+00  0.00000000E+00
  0.00000000E+00  0.00000000E+00  0.00000000E+00
  0.00000000E+00  0.00000000E+00  0.00000000E+00
  0.00000000E+00  0.00000000E+00  0.00000000E+00
  0.00000000E+00  0.00000000E+00  0.00000000E+00
  0.00000000E+00  0.00000000E+00  0.00000000E+00
  0.00000000E+00  0.00000000E+00  0.00000000E+00
  0.00000000E+00  0.00000000E+00  0.00000000E+00
  0.00000000E+00  0.00000000E+00  0.00000000E+00
  0.00000000E+00  0.00000000E+00  0.00000000E+00
  0.00000000E+00  0.00000000E+00  0.00000000E+00
  0.00000000E+00  0.00000000E+00  0.00000000E+00
  0.00000000E+00  0.00000000E+00  0.00000000E+00
