Al   B    N                             
   1.00000000000000     
    -9.2981044410065969   -0.0010119144636376    0.0015435502052023
    -4.6494986167649497    8.0498913053190595    0.0004228870351950
    -0.0066879042980896    0.0192250653707584   -9.9693634101888495
   Al   B    N 
    34     2    36
Direct
  0.1068833419392590  0.0926371106565469  0.3961745574241391
  0.2255321645382153  0.2009906235836709  0.1466215440488909
  0.7774235447519899  0.0944122800982115  0.8899093851056818
  0.8875663356179047  0.2042979791003816  0.6433426362866683
  0.4517551481209665  0.0902291786329599  0.3892117360625420
  0.5622374300640374  0.1979136353033155  0.1453976608397625
  0.1108805735742138  0.0947684245811331  0.8961977666718681
  0.2240860873314219  0.2041210598877186  0.6450592328951643
  0.8863750009503448  0.2029351201423211  0.1453898599314840
  0.4470555937799574  0.0893461031533676  0.9001564288980788
  0.5572463754123262  0.2033096635651077  0.6428638555257535
  0.1110654575418053  0.4274859584007302  0.3970976167198330
  0.2221078010364579  0.5386538483652856  0.1473376010257965
  0.7780232607450088  0.4276114321171463  0.8962320594268718
  0.8872923854629633  0.5409085758542105  0.6447056097259605
  0.4511084734986497  0.4229397643089854  0.3957870386360653
  0.5571513936203729  0.5427955655736412  0.1462816389726811
  0.1110464924911057  0.4279639301139184  0.8953226203549605
  0.2223960262346694  0.5391839139028320  0.6451496270397072
  0.7761956371719165  0.4232098715182957  0.3961843132523626
  0.8842629106449422  0.5422160598620565  0.1465656359575362
  0.4441428570950023  0.4273415308115105  0.8965094005100198
  0.5551435540538208  0.5398225073350673  0.6457851750734420
  0.1065701176570570  0.7675013377084170  0.3954631526456254
  0.2263118029912263  0.8737820417121469  0.1462352941875480
  0.7725589286408479  0.7637095278590209  0.8997837929828805
  0.8865031587485390  0.8741325468480525  0.6426707929865501
  0.4459997096435657  0.7622256158354048  0.3904480791537281
  0.1108407511147007  0.7608652339813631  0.8960566557211678
  0.2231651269586408  0.8718862132293737  0.6455067915346149
  0.7739363294265118  0.7682621169256478  0.3887750720574630
  0.8815940915638976  0.8786671376494581  0.1443872219493585
  0.4471379874749246  0.7639162515181539  0.8994932755118086
  0.5559191780113579  0.8726727227390825  0.6436538234358906
  0.7780510758224253  0.0941385409501194  0.3820057998970015
  0.5554673902433578  0.8723317575154539  0.1499107086937741
  0.2221558852621683  0.2049548075426415  0.3368035834875727
  0.1095133773600949  0.0955502115634630  0.0874566191853390
  0.8894393017053162  0.2062880200457968  0.8349001350900309
  0.7775000447674785  0.0944492026118979  0.5806115005697663
  0.5837197987252623  0.1915820929587113  0.3390734873397392
  0.4572821058978462  0.0701822434971078  0.0950816383633466
  0.2246249957775035  0.2041350499037193  0.8379284595365846
  0.1110025449793994  0.0946263741562845  0.5862503301240523
  0.8754126749320434  0.1917531738836900  0.3399294452425039
  0.7779368826174178  0.0950207048917804  0.0783655162151007
  0.5528162976906543  0.2051553829286590  0.8363617678369835
  0.4452341095787915  0.0931756409740387  0.5805156891114436
  0.2226896416455020  0.5390784830070317  0.3379655261290253
  0.1107863513062526  0.4276980073672547  0.0867414741589343
  0.8872232412995373  0.5414190856313894  0.8376014498196298
  0.7776398008153649  0.4278732932558000  0.5862506211771716
  0.5558042431607220  0.5389726538235280  0.3356226935113682
  0.4454938279593321  0.4264033434222156  0.0887471087375289
  0.2224226502541597  0.5391315373675880  0.8364000458915370
  0.1108207826348746  0.4276837445814508  0.5876869935400677
  0.8884488761337650  0.5385789817897120  0.3367597831484730
  0.7787642870199960  0.4262581871462174  0.0874946957746516
  0.5543615495037741  0.5408495823025845  0.8385437105284907
  0.4449441533556850  0.4273517615944442  0.5861605154437370
  0.2226371689775064  0.8722969707341690  0.3355948462788376
  0.1101311194185683  0.7621085182233145  0.0882909623509818
  0.8882924740792362  0.8697625720521955  0.8363574090056218
  0.7761969861507581  0.7623014906566183  0.5802054403115946
  0.5554215944247360  0.8719023300835929  0.3143597465894672
  0.4571937649699080  0.7739507279556008  0.0932792484768399
  0.2241237997115633  0.8712871403332585  0.8382318830632940
  0.1104275008621798  0.7618686205871157  0.5859458384270795
  0.8753953942600390  0.9000158140584205  0.3383841371350513
  0.7534445426403664  0.7739626900146632  0.0947253341649841
  0.5555843396533433  0.8725853549589715  0.8326318648045046
  0.4452854641794985  0.7619966152010988  0.5824519740741536
 
  0.00000000E+00  0.00000000E+00  0.00000000E+00
  0.00000000E+00  0.00000000E+00  0.00000000E+00
  0.00000000E+00  0.00000000E+00  0.00000000E+00
  0.00000000E+00  0.00000000E+00  0.00000000E+00
  0.00000000E+00  0.00000000E+00  0.00000000E+00
  0.00000000E+00  0.00000000E+00  0.00000000E+00
  0.00000000E+00  0.00000000E+00  0.00000000E+00
  0.00000000E+00  0.00000000E+00  0.00000000E+00
  0.00000000E+00  0.00000000E+00  0.00000000E+00
  0.00000000E+00  0.00000000E+00  0.00000000E+00
  0.00000000E+00  0.00000000E+00  0.00000000E+00
  0.00000000E+00  0.00000000E+00  0.00000000E+00
  0.00000000E+00  0.00000000E+00  0.00000000E+00
  0.00000000E+00  0.00000000E+00  0.00000000E+00
  0.00000000E+00  0.00000000E+00  0.00000000E+00
  0.00000000E+00  0.00000000E+00  0.00000000E+00
  0.00000000E+00  0.00000000E+00  0.00000000E+00
  0.00000000E+00  0.00000000E+00  0.00000000E+00
  0.00000000E+00  0.00000000E+00  0.00000000E+00
  0.00000000E+00  0.00000000E+00  0.00000000E+00
  0.00000000E+00  0.00000000E+00  0.00000000E+00
  0.00000000E+00  0.00000000E+00  0.00000000E+00
  0.00000000E+00  0.00000000E+00  0.00000000E+00
  0.00000000E+00  0.00000000E+00  0.00000000E+00
  0.00000000E+00  0.00000000E+00  0.00000000E+00
  0.00000000E+00  0.00000000E+00  0.00000000E+00
  0.00000000E+00  0.00000000E+00  0.00000000E+00
  0.00000000E+00  0.00000000E+00  0.00000000E+00
  0.00000000E+00  0.00000000E+00  0.00000000E+00
  0.00000000E+00  0.00000000E+00  0.00000000E+00
  0.00000000E+00  0.00000000E+00  0.00000000E+00
  0.00000000E+00  0.00000000E+00  0.00000000E+00
  0.00000000E+00  0.00000000E+00  0.00000000E+00
  0.00000000E+00  0.00000000E+00  0.00000000E+00
  0.00000000E+00  0.00000000E+00  0.00000000E+00
  0.00000000E+00  0.00000000E+00  0.00000000E+00
  0.00000000E+00  0.00000000E+00  0.00000000E+00
  0.00000000E+00  0.00000000E+00  0.00000000E+00
  0.00000000E+00  0.00000000E+00  0.00000000E+00
  0.00000000E+00  0.00000000E+00  0.00000000E+00
  0.00000000E+00  0.00000000E+00  0.00000000E+00
  0.00000000E+00  0.00000000E+00  0.00000000E+00
  0.00000000E+00  0.00000000E+00  0.00000000E+00
  0.00000000E+00  0.00000000E+00  0.00000000E+00
  0.00000000E+00  0.00000000E+00  0.00000000E+00
  0.00000000E+00  0.00000000E+00  0.00000000E+00
  0.00000000E+00  0.00000000E+00  0.00000000E+00
  0.00000000E+00  0.00000000E+00  0.00000000E+00
  0.00000000E+00  0.00000000E+00  0.00000000E+00
  0.00000000E+00  0.00000000E+00  0.00000000E+00
  0.00000000E+00  0.00000000E+00  0.00000000E+00
  0.00000000E+00  0.00000000E+00  0.00000000E+00
  0.00000000E+00  0.00000000E+00  0.00000000E+00
  0.00000000E+00  0.00000000E+00  0.00000000E+00
  0.00000000E+00  0.00000000E+00  0.00000000E+00
  0.00000000E+00  0.00000000E+00  0.00000000E+00
  0.00000000E+00  0.00000000E+00  0.00000000E+00
  0.00000000E+00  0.00000000E+00  0.00000000E+00
  0.00000000E+00  0.00000000E+00  0.00000000E+00
  0.00000000E+00  0.00000000E+00  0.00000000E+00
  0.00000000E+00  0.00000000E+00  0.00000000E+00
  0.00000000E+00  0.00000000E+00  0.00000000E+00
  0.00000000E+00  0.00000000E+00  0.00000000E+00
  0.00000000E+00  0.00000000E+00  0.00000000E+00
  0.00000000E+00  0.00000000E+00  0.00000000E+00
  0.00000000E+00  0.00000000E+00  0.00000000E+00
  0.00000000E+00  0.00000000E+00  0.00000000E+00
  0.00000000E+00  0.00000000E+00  0.00000000E+00
  0.00000000E+00  0.00000000E+00  0.00000000E+00
  0.00000000E+00  0.00000000E+00  0.00000000E+00
  0.00000000E+00  0.00000000E+00  0.00000000E+00
  0.00000000E+00  0.00000000E+00  0.00000000E+00
