generated by phonopy                    
   1.00000000000000     
    10.0351470768999995   -0.0000022330999784   -0.0000001056124209
    -5.0175765436399997    8.6906901959899994    0.0000001395531216
    -0.0000001735893656    0.0000001431815548   14.9533752540999991
   Pb   P    O    Cu
    20    12    49     1
Direct
  0.9907019968145718  0.7689103446879031  0.1230771051001156
  0.0070797883010272  0.7816345353828140  0.6154983258511706
  0.9991558995345571  0.2606929273798357  0.3726050462349946
  0.0029328215147615  0.2548170370806773  0.8624405658675229
  0.2253661534892686  0.2254322278310852  0.1175481168162236
  0.2303270317930171  0.2248442752562738  0.6160488710608263
  0.7380809961877333  0.7425936962273596  0.3701778657538952
  0.8476584480086231  0.8428540463768712  0.8461581095321762
  0.7699865511059016  0.9986999686107936  0.1220432987638844
  0.7820365573871726  0.0068244713181684  0.6163843239848603
  0.2574467374792491  0.9984544347775568  0.3753726958489096
  0.2559605393046951  0.0015247894688528  0.8702903464997576
  0.6726296770063200  0.3217563977755447  0.0007892706696850
  0.6740343064987115  0.3385181381646376  0.5049164568071802
  0.3207233912914944  0.6721366379474105  0.0047094517708359
  0.3332501100959746  0.6712920945587300  0.5078164632427971
  0.3304347901950990  0.6587104815346265  0.2460954358877743
  0.3614055832690539  0.6577462377421242  0.7530257352352194
  0.6548516095197883  0.3295691265605711  0.2473946530120230
  0.6707092582735754  0.3380823381778910  0.7534596743224711
  0.6112058217018586  0.5908022787549285  0.1177874635332117
  0.6379045735840378  0.6064429152389721  0.6207698673990905
  0.3675016225077243  0.3955951516730494  0.3788867758019663
  0.3633576022229548  0.3849563702418095  0.8799840108189514
  0.3998597719773613  0.0260513868223597  0.1308020884429482
  0.4079200226690318  0.0282072927806496  0.6282963238122150
  0.6039916993206660  0.9743813080024921  0.3771210327470271
  0.5996426281968326  0.9657670934987479  0.8767578989517943
  0.9640260414785118  0.3711634000283155  0.1284854075512740
  0.9769803387081879  0.3816066068835511  0.6233079208075338
  0.0208430874046144  0.6315488110261001  0.3744108072433647
  0.0295225862113355  0.6244086726120202  0.8776250972048416
  0.4784253795540394  0.6308483000079903  0.1322542831341593
  0.5163344037654838  0.6593404848264015  0.6161519913890174
  0.4657510528286508  0.3153719863948083  0.3797646146868630
  0.4645204114141492  0.3072898555973111  0.8730376528492627
  0.3450737571558378  0.8507259989504306  0.1304258058299794
  0.3574101000732384  0.8542693953315563  0.6257223713927971
  0.6840020182195090  0.1527590660502156  0.3773164420425417
  0.6700422096953744  0.1435768442308216  0.8708396222012809
  0.1387835871421146  0.4928035260511621  0.1266339096140356
  0.1524542797559150  0.4993282938502190  0.6226519353059530
  0.8422740680912355  0.5327718232615837  0.3762061265966494
  0.8603555391329110  0.4910344007630627  0.8825807658807250
  0.7387192452845852  0.6508531303676364  0.5335538131064368
  0.2636924335928157  0.3558016864957239  0.4640943151237096
  0.2399713203770517  0.3058143336102930  0.9556862110013071
  0.3336996700125994  0.0692475403436035  0.0481510278301442
  0.3497914418743306  0.0774585906929630  0.5435054400426012
  0.6518232122820038  0.9120070076368592  0.4601176096741355
  0.6524040215274880  0.9194258995912179  0.9632020801057308
  0.9139564487896905  0.2652932662121330  0.0434903655143231
  0.9218914920934225  0.2808178334944671  0.5358643983291955
  0.0885540898472286  0.7330749415369553  0.4604269790167734
  0.0903532384600396  0.7177014492981186  0.9668130777849484
  0.2575784806561572  0.3492061517602707  0.2964308385984111
  0.2694753055901487  0.3633134996232315  0.7914661948097219
  0.7305720011359114  0.6659205070854952  0.1985235454472871
  0.7516928783113102  0.6879365864430369  0.7005271685729610
  0.6446639946283739  0.9095616818605308  0.2928142571960635
  0.6445265071672779  0.9012433291925959  0.7935479553875027
  0.3455273777461443  0.0737048093313319  0.2173297508899523
  0.3364746800737279  0.0651496704666172  0.7115242483390318
  0.0788796060987096  0.7457253210492070  0.2935371491510566
  0.0512540722636601  0.7429822150796497  0.8029323093925811
  0.9230920628049617  0.2637775935465214  0.2122889056851704
  0.9360839367577043  0.2655485824753185  0.7028642863455943
  0.5394639137060295  0.4097093999120816  0.1287111816144204
  0.5560681026606318  0.4275196740395657  0.6317130100826347
  0.4767035868674441  0.5765438253283506  0.3757755627569281
  0.4651065480733649  0.5621048624719762  0.8969499884429339
  0.5804672898375856  0.1236885451831924  0.1282199616642572
  0.5876337443988788  0.1312683857494790  0.6318308525767051
  0.4232691137803286  0.9022633205403991  0.3799381373505071
  0.4174209645592910  0.8846481553099963  0.8765175088494743
  0.8646106231718278  0.4523787393076120  0.1307755132719066
  0.8799508740942414  0.4641970574377581  0.6313615385856863
  0.0922881073626485  0.5228154980847108  0.3686087377429672
  0.1331637498673715  0.5499199268820760  0.8582196623919032
  0.9968568316234183  0.9976309092662063  0.1148156154070605
  0.0050871892389921  0.0059118822700128  0.5837416638110327
  0.6756540744991497  0.6573128218328605  0.9750989360518787
 
  0.00000000E+00  0.00000000E+00  0.00000000E+00
  0.00000000E+00  0.00000000E+00  0.00000000E+00
  0.00000000E+00  0.00000000E+00  0.00000000E+00
  0.00000000E+00  0.00000000E+00  0.00000000E+00
  0.00000000E+00  0.00000000E+00  0.00000000E+00
  0.00000000E+00  0.00000000E+00  0.00000000E+00
  0.00000000E+00  0.00000000E+00  0.00000000E+00
  0.00000000E+00  0.00000000E+00  0.00000000E+00
  0.00000000E+00  0.00000000E+00  0.00000000E+00
  0.00000000E+00  0.00000000E+00  0.00000000E+00
  0.00000000E+00  0.00000000E+00  0.00000000E+00
  0.00000000E+00  0.00000000E+00  0.00000000E+00
  0.00000000E+00  0.00000000E+00  0.00000000E+00
  0.00000000E+00  0.00000000E+00  0.00000000E+00
  0.00000000E+00  0.00000000E+00  0.00000000E+00
  0.00000000E+00  0.00000000E+00  0.00000000E+00
  0.00000000E+00  0.00000000E+00  0.00000000E+00
  0.00000000E+00  0.00000000E+00  0.00000000E+00
  0.00000000E+00  0.00000000E+00  0.00000000E+00
  0.00000000E+00  0.00000000E+00  0.00000000E+00
  0.00000000E+00  0.00000000E+00  0.00000000E+00
  0.00000000E+00  0.00000000E+00  0.00000000E+00
  0.00000000E+00  0.00000000E+00  0.00000000E+00
  0.00000000E+00  0.00000000E+00  0.00000000E+00
  0.00000000E+00  0.00000000E+00  0.00000000E+00
  0.00000000E+00  0.00000000E+00  0.00000000E+00
  0.00000000E+00  0.00000000E+00  0.00000000E+00
  0.00000000E+00  0.00000000E+00  0.00000000E+00
  0.00000000E+00  0.00000000E+00  0.00000000E+00
  0.00000000E+00  0.00000000E+00  0.00000000E+00
  0.00000000E+00  0.00000000E+00  0.00000000E+00
  0.00000000E+00  0.00000000E+00  0.00000000E+00
  0.00000000E+00  0.00000000E+00  0.00000000E+00
  0.00000000E+00  0.00000000E+00  0.00000000E+00
  0.00000000E+00  0.00000000E+00  0.00000000E+00
  0.00000000E+00  0.00000000E+00  0.00000000E+00
  0.00000000E+00  0.00000000E+00  0.00000000E+00
  0.00000000E+00  0.00000000E+00  0.00000000E+00
  0.00000000E+00  0.00000000E+00  0.00000000E+00
  0.00000000E+00  0.00000000E+00  0.00000000E+00
  0.00000000E+00  0.00000000E+00  0.00000000E+00
  0.00000000E+00  0.00000000E+00  0.00000000E+00
  0.00000000E+00  0.00000000E+00  0.00000000E+00
  0.00000000E+00  0.00000000E+00  0.00000000E+00
  0.00000000E+00  0.00000000E+00  0.00000000E+00
  0.00000000E+00  0.00000000E+00  0.00000000E+00
  0.00000000E+00  0.00000000E+00  0.00000000E+00
  0.00000000E+00  0.00000000E+00  0.00000000E+00
  0.00000000E+00  0.00000000E+00  0.00000000E+00
  0.00000000E+00  0.00000000E+00  0.00000000E+00
  0.00000000E+00  0.00000000E+00  0.00000000E+00
  0.00000000E+00  0.00000000E+00  0.00000000E+00
  0.00000000E+00  0.00000000E+00  0.00000000E+00
  0.00000000E+00  0.00000000E+00  0.00000000E+00
  0.00000000E+00  0.00000000E+00  0.00000000E+00
  0.00000000E+00  0.00000000E+00  0.00000000E+00
  0.00000000E+00  0.00000000E+00  0.00000000E+00
  0.00000000E+00  0.00000000E+00  0.00000000E+00
  0.00000000E+00  0.00000000E+00  0.00000000E+00
  0.00000000E+00  0.00000000E+00  0.00000000E+00
  0.00000000E+00  0.00000000E+00  0.00000000E+00
  0.00000000E+00  0.00000000E+00  0.00000000E+00
  0.00000000E+00  0.00000000E+00  0.00000000E+00
  0.00000000E+00  0.00000000E+00  0.00000000E+00
  0.00000000E+00  0.00000000E+00  0.00000000E+00
  0.00000000E+00  0.00000000E+00  0.00000000E+00
  0.00000000E+00  0.00000000E+00  0.00000000E+00
  0.00000000E+00  0.00000000E+00  0.00000000E+00
  0.00000000E+00  0.00000000E+00  0.00000000E+00
  0.00000000E+00  0.00000000E+00  0.00000000E+00
  0.00000000E+00  0.00000000E+00  0.00000000E+00
  0.00000000E+00  0.00000000E+00  0.00000000E+00
  0.00000000E+00  0.00000000E+00  0.00000000E+00
  0.00000000E+00  0.00000000E+00  0.00000000E+00
  0.00000000E+00  0.00000000E+00  0.00000000E+00
  0.00000000E+00  0.00000000E+00  0.00000000E+00
  0.00000000E+00  0.00000000E+00  0.00000000E+00
  0.00000000E+00  0.00000000E+00  0.00000000E+00
  0.00000000E+00  0.00000000E+00  0.00000000E+00
  0.00000000E+00  0.00000000E+00  0.00000000E+00
  0.00000000E+00  0.00000000E+00  0.00000000E+00
  0.00000000E+00  0.00000000E+00  0.00000000E+00
