supercell of icsd_608626.cif            
   1.14557275840605     
     9.2556848476593174   -0.3252821359855564    0.0543931055355516
    -4.9064399769601588    8.7217871910594500   -0.0838985561446413
     0.0588902797255158   -0.0692235275342077    9.0819283081489992
   La   Al   N 
    16    20    36
Direct
  0.1532081998571542  0.0795204686467130  0.2560991355602980
  0.5537334146494004  0.1071252870534494  0.1980831963763876
  0.4529592758061156  0.2298102433074902  0.5180047664134690
  0.1449886526476831  0.0982715196589439  0.7075205867154253
  0.4205981791200628  0.2346607958240412  0.9471354094139670
  0.8709612647242224  0.3989291325925706  0.7285303639521672
  0.8266987398957468  0.5794815880346817  0.0010031613744559
  0.5510678566484657  0.4324255737794545  0.2231349385946189
  0.4697568586290402  0.5891855376355792  0.4670118910813699
  0.2544051703056454  0.4592146638857599  0.7440428898481173
  0.2417678660562999  0.7550430885047135  0.2353260299317057
  0.8439259917338191  0.7528254299694694  0.7262063483509067
  0.6122428446584252  0.8104701531295149  0.1634911067746927
  0.4684249697489591  0.9088471664219497  0.5331709434928911
  0.1384702365328110  0.8949540286657438  0.9761249538032573
  0.8229256914642278  0.9363248434748428  0.4665712625288450
  0.0531897688402481  0.2891172551148671  0.4949955536949986
  0.8599484258285699  0.1099400995649731  0.7460046261005644
  0.8105481754384698  0.2483016222666521  0.9986396502824562
  0.1066434841470780  0.2537522261566920  0.0142241838259665
  0.9105845645653119  0.1659763438503319  0.2333817569787371
  0.7585277179198613  0.2110870993226612  0.4838843338035019
  0.5881455500014638  0.0648120576775852  0.8041115077484875
  0.2108099581159166  0.4464454137372229  0.2462157965884018
  0.1090557901613849  0.5629942859043027  0.5016259111380208
  0.1079435659624792  0.5220278328319665  0.0097818743463236
  0.9038766922596793  0.4311771798729680  0.2574414549252779
  0.7718475728370890  0.5273750743308980  0.5055894294863066
  0.5530016516492537  0.4745014965916283  0.7571856490161650
  0.4234195678556532  0.5413200007832586  0.0130667640796602
  0.1128408108594527  0.8430403195751808  0.5307064542453688
  0.9226230540926110  0.9926313751922962  0.0043239025628168
  0.1915933614117975  0.7298958485441034  0.7639841576252380
  0.9339001437895575  0.7119841065504033  0.2999917379516006
  0.5771795207134645  0.7822802595296636  0.7815070606223813
  0.4011543315797041  0.8024000203320369  0.9550536294562306
  0.1830379385047607  0.0317538727186246  0.4964993957097121
  0.1113274865827023  0.2652047768042323  0.1948686694779340
  0.9015607610620009  0.1462408825305914  0.9306981480222163
  0.7197776477819247  0.1501049497067797  0.6687561860847424
  0.5656900347444918  0.1180064120038722  0.4324497688572393
  0.4014344206072309  0.2011461286839236  0.1843956387350971
  0.1404050968425565  0.1077536809815527  0.9753858908530617
  0.0412334222614490  0.2340157302413743  0.6601995604854238
  0.8890735580318108  0.1626253198545697  0.4129731653718807
  0.8135840637894347  0.2546614894613768  0.1793111096315982
  0.6103208775647460  0.1722764630093820  0.9400699631256160
  0.3804166743461437  0.2965598861536378  0.7249870369568114
  0.1953465225416835  0.4573268483890871  0.4377247401431603
  0.1006220987776842  0.5225191091368089  0.1929365608652560
  0.9166521613807816  0.4314821267353750  0.9479002030416837
  0.7371120960543891  0.5073262037594262  0.6929700177412457
  0.5773788901694061  0.4529075475227202  0.4432514886049859
  0.4189679277727620  0.5497672778397273  0.2000140034782589
  0.2194917418609066  0.4357072468004688  0.9648783880562561
  0.1287483346683445  0.5679331374028393  0.6784782325526706
  0.8816697419020798  0.4251558831408460  0.4602990473770774
  0.8240017299381890  0.5437244309764395  0.2215352522968104
  0.5527117081179327  0.4759471921456324  0.9536666206121609
  0.5302243862647131  0.6184803705384851  0.6932087286008581
  0.2050336797878103  0.7512056244533696  0.4630812410224721
  0.0810752346108998  0.8381120935406372  0.1997832622561617
  0.8933956514082340  0.8212901326859239  0.9444692355688176
  0.7686843585127718  0.9207241014952032  0.7072850161993216
  0.5837750654803884  0.8204721122460867  0.4057345156031218
  0.4555142515579433  0.8897104526892363  0.1128372457150633
  0.1942404995066198  0.7034147331108471  0.9438494715854091
  0.1183630113895759  0.8413101099609435  0.7197632301996535
  0.8990705635141438  0.7257627594765665  0.4726393308548325
  0.8668316957840290  0.9891831917729093  0.1805819420107326
  0.5054609092620126  0.7151862816943577  0.9456356223188109
  0.4547968371103295  0.8768520020216002  0.7817096512927222
 
  0.00000000E+00  0.00000000E+00  0.00000000E+00
  0.00000000E+00  0.00000000E+00  0.00000000E+00
  0.00000000E+00  0.00000000E+00  0.00000000E+00
  0.00000000E+00  0.00000000E+00  0.00000000E+00
  0.00000000E+00  0.00000000E+00  0.00000000E+00
  0.00000000E+00  0.00000000E+00  0.00000000E+00
  0.00000000E+00  0.00000000E+00  0.00000000E+00
  0.00000000E+00  0.00000000E+00  0.00000000E+00
  0.00000000E+00  0.00000000E+00  0.00000000E+00
  0.00000000E+00  0.00000000E+00  0.00000000E+00
  0.00000000E+00  0.00000000E+00  0.00000000E+00
  0.00000000E+00  0.00000000E+00  0.00000000E+00
  0.00000000E+00  0.00000000E+00  0.00000000E+00
  0.00000000E+00  0.00000000E+00  0.00000000E+00
  0.00000000E+00  0.00000000E+00  0.00000000E+00
  0.00000000E+00  0.00000000E+00  0.00000000E+00
  0.00000000E+00  0.00000000E+00  0.00000000E+00
  0.00000000E+00  0.00000000E+00  0.00000000E+00
  0.00000000E+00  0.00000000E+00  0.00000000E+00
  0.00000000E+00  0.00000000E+00  0.00000000E+00
  0.00000000E+00  0.00000000E+00  0.00000000E+00
  0.00000000E+00  0.00000000E+00  0.00000000E+00
  0.00000000E+00  0.00000000E+00  0.00000000E+00
  0.00000000E+00  0.00000000E+00  0.00000000E+00
  0.00000000E+00  0.00000000E+00  0.00000000E+00
  0.00000000E+00  0.00000000E+00  0.00000000E+00
  0.00000000E+00  0.00000000E+00  0.00000000E+00
  0.00000000E+00  0.00000000E+00  0.00000000E+00
  0.00000000E+00  0.00000000E+00  0.00000000E+00
  0.00000000E+00  0.00000000E+00  0.00000000E+00
  0.00000000E+00  0.00000000E+00  0.00000000E+00
  0.00000000E+00  0.00000000E+00  0.00000000E+00
  0.00000000E+00  0.00000000E+00  0.00000000E+00
  0.00000000E+00  0.00000000E+00  0.00000000E+00
  0.00000000E+00  0.00000000E+00  0.00000000E+00
  0.00000000E+00  0.00000000E+00  0.00000000E+00
  0.00000000E+00  0.00000000E+00  0.00000000E+00
  0.00000000E+00  0.00000000E+00  0.00000000E+00
  0.00000000E+00  0.00000000E+00  0.00000000E+00
  0.00000000E+00  0.00000000E+00  0.00000000E+00
  0.00000000E+00  0.00000000E+00  0.00000000E+00
  0.00000000E+00  0.00000000E+00  0.00000000E+00
  0.00000000E+00  0.00000000E+00  0.00000000E+00
  0.00000000E+00  0.00000000E+00  0.00000000E+00
  0.00000000E+00  0.00000000E+00  0.00000000E+00
  0.00000000E+00  0.00000000E+00  0.00000000E+00
  0.00000000E+00  0.00000000E+00  0.00000000E+00
  0.00000000E+00  0.00000000E+00  0.00000000E+00
  0.00000000E+00  0.00000000E+00  0.00000000E+00
  0.00000000E+00  0.00000000E+00  0.00000000E+00
  0.00000000E+00  0.00000000E+00  0.00000000E+00
  0.00000000E+00  0.00000000E+00  0.00000000E+00
  0.00000000E+00  0.00000000E+00  0.00000000E+00
  0.00000000E+00  0.00000000E+00  0.00000000E+00
  0.00000000E+00  0.00000000E+00  0.00000000E+00
  0.00000000E+00  0.00000000E+00  0.00000000E+00
  0.00000000E+00  0.00000000E+00  0.00000000E+00
  0.00000000E+00  0.00000000E+00  0.00000000E+00
  0.00000000E+00  0.00000000E+00  0.00000000E+00
  0.00000000E+00  0.00000000E+00  0.00000000E+00
  0.00000000E+00  0.00000000E+00  0.00000000E+00
  0.00000000E+00  0.00000000E+00  0.00000000E+00
  0.00000000E+00  0.00000000E+00  0.00000000E+00
  0.00000000E+00  0.00000000E+00  0.00000000E+00
  0.00000000E+00  0.00000000E+00  0.00000000E+00
  0.00000000E+00  0.00000000E+00  0.00000000E+00
  0.00000000E+00  0.00000000E+00  0.00000000E+00
  0.00000000E+00  0.00000000E+00  0.00000000E+00
  0.00000000E+00  0.00000000E+00  0.00000000E+00
  0.00000000E+00  0.00000000E+00  0.00000000E+00
  0.00000000E+00  0.00000000E+00  0.00000000E+00
  0.00000000E+00  0.00000000E+00  0.00000000E+00
