Al   Gd   N                             
   1.00000000000000     
    -9.7464999178482969    0.0185309036933642   -0.0110936430438337
    -4.8031323304087419    8.4478409403127444   -0.0203732333703378
    -0.0738389880918347   -0.0205303167616650  -10.3915960353538033
   Al   Gd   N 
    31     5    36
Direct
  0.1174187591043676  0.0949677459578524  0.3098834769583192
  0.2215224952501558  0.2026580369352473  0.0604730207676809
  0.7782209297767011  0.0934315245894624  0.8198096056855064
  0.4369051750584632  0.1003986336527873  0.3034994268475657
  0.5561865201589242  0.1988050377197581  0.0600514266232324
  0.1218981884810972  0.0866687615957815  0.8151319548433307
  0.2333040187115216  0.1985804094276205  0.5621369090933825
  0.7600744056041364  0.1050483357759688  0.3208162163161745
  0.8939280482822340  0.2031176069431524  0.1295166908333130
  0.4511215861108298  0.0960682583435286  0.8103981339854158
  0.5415112224244041  0.2103869274358416  0.5537165574876184
  0.1110415244498881  0.4231455357260714  0.3174695338869427
  0.7987899441256445  0.4097198265685762  0.8785758791458917
  0.8707378461236033  0.5460045429798299  0.6251550943963764
  0.4336129292819066  0.4240715856583037  0.3129072223952249
  0.1174029246278039  0.4205047947388394  0.7971360041276228
  0.2276866080298277  0.5339505606747039  0.5630419048257664
  0.7734848686012370  0.4381642808367019  0.3694998713960871
  0.8930293941105845  0.5328303436818800  0.1304380033897843
  0.4564133726546444  0.4163852458036672  0.7972292386284536
  0.5418914551497522  0.5448875775919930  0.5407614012850317
  0.1113950698036348  0.7659345925263494  0.3180927397191127
  0.2090042227140643  0.8883352108521763  0.0665933648804611
  0.7929265258971157  0.7591068840061368  0.8849693926664628
  0.4315089434861932  0.7779519077798014  0.3090882228264249
  0.5499604822527289  0.8855195295370279  0.0635784031184059
  0.1201460448359839  0.7583889086458484  0.8031543664423779
  0.2372556876043319  0.8667270479237317  0.5544323532415518
  0.7690710099627509  0.7562560157226912  0.3705543322287213
  0.8808019679369181  0.8766840129092870  0.1385208128995146
  0.5415235314946401  0.8806890226287720  0.5450841507763187
  0.9005750567499433  0.2067214112027926  0.5908287602220526
  0.2101840310570040  0.5457786460430611  0.0551951036451612
  0.5608164093647190  0.5357229711169964  0.0864364779936508
  0.8917179151291066  0.8627822402987562  0.5907519000228874
  0.4514734394779438  0.7586266944746995  0.8040068271955079
  0.2207966605866787  0.2050288584631446  0.3751400673513388
  0.1156652478032925  0.0964385519006896  0.1259333404008629
  0.8977771944397546  0.1989911006730054  0.8225857720611316
  0.7448073166601503  0.1130252116326318  0.6049066509888021
  0.5421493781760844  0.2086067676099645  0.3699802036428395
  0.4415779092010297  0.0981768903311107  0.1191003715149961
  0.2257639290939650  0.2057399618726521  0.8717833686107213
  0.1639824900690741  0.0645956621463171  0.6327348635646786
  0.8839354593188631  0.2128966236201606  0.3296713776447859
  0.7685896753694692  0.0998780511869697  0.1244448116384049
  0.5586078532239895  0.2041771802671164  0.8704047768787078
  0.4468218527668881  0.0933779676929660  0.6207095686857045
  0.2134152419361044  0.5432211586091427  0.3719348116859393
  0.1121854725922091  0.4054767067559268  0.1340367207212978
  0.8837443339901583  0.5423325311355569  0.8139218252690483
  0.7600762215426826  0.4567943121391806  0.5505235842007110
  0.5416869628700738  0.5454902600024738  0.3466008725934699
  0.4460275395841080  0.3984952902753207  0.1347453276925492
  0.2284878146269662  0.5311974356213582  0.8379963467787235
  0.1097755599329204  0.4225314804469420  0.6109247582540860
  0.8786479832132414  0.5447528185279751  0.3135245764170023
  0.8205133449663151  0.4046356889602478  0.0621677675787211
  0.5733466368843878  0.5064734888770559  0.8642376560678215
  0.4458669004834590  0.4254030750267859  0.6080062472019776
  0.2138250336334409  0.8813167665654760  0.3717894233898562
  0.1003257227925118  0.7906027000449427  0.1383124203665886
  0.8954997749949953  0.8670320955106590  0.8243575886049967
  0.7589922261037003  0.7451700224167155  0.5535213732680688
  0.5421078116299256  0.8855443123273190  0.3585903527363357
  0.4246657380150864  0.7979218069834104  0.1234927695610040
  0.2006672261709852  0.8787792139075350  0.8850285479195534
  0.1552862332342571  0.7436313728785038  0.6207104004575399
  0.8778096508826962  0.8742845107247916  0.3368297585493920
  0.7909552959229913  0.7526167803604551  0.0749207174273963
  0.5687446552792252  0.8890742116037345  0.8800683946325520
  0.4511970848361244  0.7563902207635138  0.5869309685781303
 
  0.00000000E+00  0.00000000E+00  0.00000000E+00
  0.00000000E+00  0.00000000E+00  0.00000000E+00
  0.00000000E+00  0.00000000E+00  0.00000000E+00
  0.00000000E+00  0.00000000E+00  0.00000000E+00
  0.00000000E+00  0.00000000E+00  0.00000000E+00
  0.00000000E+00  0.00000000E+00  0.00000000E+00
  0.00000000E+00  0.00000000E+00  0.00000000E+00
  0.00000000E+00  0.00000000E+00  0.00000000E+00
  0.00000000E+00  0.00000000E+00  0.00000000E+00
  0.00000000E+00  0.00000000E+00  0.00000000E+00
  0.00000000E+00  0.00000000E+00  0.00000000E+00
  0.00000000E+00  0.00000000E+00  0.00000000E+00
  0.00000000E+00  0.00000000E+00  0.00000000E+00
  0.00000000E+00  0.00000000E+00  0.00000000E+00
  0.00000000E+00  0.00000000E+00  0.00000000E+00
  0.00000000E+00  0.00000000E+00  0.00000000E+00
  0.00000000E+00  0.00000000E+00  0.00000000E+00
  0.00000000E+00  0.00000000E+00  0.00000000E+00
  0.00000000E+00  0.00000000E+00  0.00000000E+00
  0.00000000E+00  0.00000000E+00  0.00000000E+00
  0.00000000E+00  0.00000000E+00  0.00000000E+00
  0.00000000E+00  0.00000000E+00  0.00000000E+00
  0.00000000E+00  0.00000000E+00  0.00000000E+00
  0.00000000E+00  0.00000000E+00  0.00000000E+00
  0.00000000E+00  0.00000000E+00  0.00000000E+00
  0.00000000E+00  0.00000000E+00  0.00000000E+00
  0.00000000E+00  0.00000000E+00  0.00000000E+00
  0.00000000E+00  0.00000000E+00  0.00000000E+00
  0.00000000E+00  0.00000000E+00  0.00000000E+00
  0.00000000E+00  0.00000000E+00  0.00000000E+00
  0.00000000E+00  0.00000000E+00  0.00000000E+00
  0.00000000E+00  0.00000000E+00  0.00000000E+00
  0.00000000E+00  0.00000000E+00  0.00000000E+00
  0.00000000E+00  0.00000000E+00  0.00000000E+00
  0.00000000E+00  0.00000000E+00  0.00000000E+00
  0.00000000E+00  0.00000000E+00  0.00000000E+00
  0.00000000E+00  0.00000000E+00  0.00000000E+00
  0.00000000E+00  0.00000000E+00  0.00000000E+00
  0.00000000E+00  0.00000000E+00  0.00000000E+00
  0.00000000E+00  0.00000000E+00  0.00000000E+00
  0.00000000E+00  0.00000000E+00  0.00000000E+00
  0.00000000E+00  0.00000000E+00  0.00000000E+00
  0.00000000E+00  0.00000000E+00  0.00000000E+00
  0.00000000E+00  0.00000000E+00  0.00000000E+00
  0.00000000E+00  0.00000000E+00  0.00000000E+00
  0.00000000E+00  0.00000000E+00  0.00000000E+00
  0.00000000E+00  0.00000000E+00  0.00000000E+00
  0.00000000E+00  0.00000000E+00  0.00000000E+00
  0.00000000E+00  0.00000000E+00  0.00000000E+00
  0.00000000E+00  0.00000000E+00  0.00000000E+00
  0.00000000E+00  0.00000000E+00  0.00000000E+00
  0.00000000E+00  0.00000000E+00  0.00000000E+00
  0.00000000E+00  0.00000000E+00  0.00000000E+00
  0.00000000E+00  0.00000000E+00  0.00000000E+00
  0.00000000E+00  0.00000000E+00  0.00000000E+00
  0.00000000E+00  0.00000000E+00  0.00000000E+00
  0.00000000E+00  0.00000000E+00  0.00000000E+00
  0.00000000E+00  0.00000000E+00  0.00000000E+00
  0.00000000E+00  0.00000000E+00  0.00000000E+00
  0.00000000E+00  0.00000000E+00  0.00000000E+00
  0.00000000E+00  0.00000000E+00  0.00000000E+00
  0.00000000E+00  0.00000000E+00  0.00000000E+00
  0.00000000E+00  0.00000000E+00  0.00000000E+00
  0.00000000E+00  0.00000000E+00  0.00000000E+00
  0.00000000E+00  0.00000000E+00  0.00000000E+00
  0.00000000E+00  0.00000000E+00  0.00000000E+00
  0.00000000E+00  0.00000000E+00  0.00000000E+00
  0.00000000E+00  0.00000000E+00  0.00000000E+00
  0.00000000E+00  0.00000000E+00  0.00000000E+00
  0.00000000E+00  0.00000000E+00  0.00000000E+00
  0.00000000E+00  0.00000000E+00  0.00000000E+00
  0.00000000E+00  0.00000000E+00  0.00000000E+00
