Al   Gd   N                             
   1.00000000000000     
    -9.7241100491724897    0.0146827286123973   -0.0243829460406919
    -4.8964526198008640    8.4288260417816723   -0.0324023207864228
     0.0158694158165793   -0.0029867444200467  -10.3990942048767945
   Al   Gd   N 
    31     5    36
Direct
  0.1135678419639845  0.1025206253265836  0.3906064632398198
  0.2237541469245272  0.2007671587201258  0.1467844156047988
  0.7772011357561794  0.0968482614408472  0.9168193452446474
  0.4424797830070517  0.0982024031085018  0.3988497833290694
  0.5549307726606969  0.1901984380728621  0.1502215249705259
  0.1072710860308703  0.1058919053622418  0.9132000471833095
  0.2293475822806101  0.2036272693647589  0.6497733713466189
  0.7708780431054336  0.0977129180867848  0.3909563207907780
  0.8981122419265617  0.1976754109849210  0.1549403574320536
  0.4518173227780764  0.0939884346917665  0.8957677976116969
  0.5496784250000815  0.2102905823686356  0.6476778387364348
  0.1095687400196752  0.4265470491523331  0.4117383989772634
  0.7918290338209957  0.4178837275064780  0.9142207190800136
  0.8810070961700447  0.5443890606163393  0.6484782617307374
  0.4387904038120141  0.4197571062086425  0.4074587246076078
  0.1093962418357677  0.4240287115001564  0.8911007096790726
  0.2275650336149866  0.5401352864725055  0.6505341034088659
  0.7857588675360105  0.4298617916076140  0.3918028851354691
  0.8941990699177111  0.5308956543536567  0.1493860454786997
  0.4491035218823285  0.4106776331013791  0.8969837266786058
  0.5496934611247752  0.5528521904656358  0.5673688220705912
  0.1096001048299584  0.7582446397125011  0.4020875669858484
  0.2159470063906852  0.8817785658091282  0.0901910396290972
  0.7791248351901103  0.7625500486100165  0.9084015356513078
  0.4330474213569673  0.7743953839499937  0.3307389926085449
  0.5566987326429498  0.8783663584246426  0.1520393294004947
  0.1022006902950139  0.7652417801678126  0.9131109699716049
  0.2370777085118903  0.8711836915834184  0.5666541158529270
  0.7756978508134011  0.7588271029586338  0.3937722799009293
  0.8843721764337502  0.8759546201178665  0.1536858825786354
  0.5581332531491583  0.8799722050287571  0.6368102511415259
  0.8881761116850626  0.2118131253987627  0.6497490002312816
  0.2106640211897002  0.5304953966565762  0.1536463534529204
  0.5571801015439490  0.5215420867464502  0.1295083563836599
  0.8844777496887843  0.8712259359540937  0.6549412747756875
  0.4463519910216931  0.7528701494534147  0.8391930288204748
  0.2235412593843336  0.2125802887620694  0.3354988185246057
  0.1110259747328115  0.1002448787992307  0.1017761981352052
  0.8921412958570514  0.2021041425172854  0.8671841606860795
  0.7496761667262106  0.1099561404043570  0.5698625730824673
  0.5491366819537546  0.2083460415730016  0.3354209694323416
  0.4462127279107051  0.0863320323149566  0.0848541097021780
  0.2266648818177188  0.2008881455239120  0.8373027299079610
  0.1375449876802577  0.0928029652595654  0.5755659790095109
  0.8887514228735043  0.2068797033781138  0.3430098181655481
  0.7748781567910186  0.0960258686129407  0.1038217880393120
  0.5628809912605490  0.1991151823023145  0.8338783576226092
  0.4432510579318247  0.1011414082753532  0.5851915081236712
  0.2197634758548688  0.5354710169396455  0.3690852558283026
  0.0971352693864489  0.4071993500743289  0.0720760861705045
  0.8843012290222418  0.5414807552977905  0.8376503940020683
  0.7705160656265519  0.4534494912127300  0.5732548288182997
  0.5480629241434656  0.5434082554275577  0.3719537733950986
  0.4437237105306266  0.3844155769048427  0.0748686932844862
  0.2204277568471582  0.5422909640439642  0.8426970141221375
  0.1084559122884627  0.4293258922874372  0.5988242037546385
  0.8959514584348156  0.5379252326261366  0.3354323376661910
  0.8109510836513181  0.4075975246764330  0.0979675602379615
  0.5748257376169619  0.5043019930310280  0.8948722378967133
  0.4458070525701174  0.4279657003178130  0.5927617550107556
  0.2189722680719228  0.8753317170491144  0.3784115524655647
  0.0955268569956900  0.7817781030822459  0.0988269387794176
  0.8864899428594768  0.8751643300855818  0.8722345386855892
  0.7661859209155892  0.7488752670527532  0.5743760735006376
  0.5562421350468725  0.8804873604111449  0.3395732148749744
  0.4273729336460548  0.7864167418036985  0.1426514568473181
  0.1987925630187419  0.8873976419761007  0.9001295134365535
  0.1355504791454294  0.7513044403578988  0.5869077377156842
  0.8876699351219273  0.8710613808183396  0.3433996940534030
  0.7774154119368433  0.7558824078152853  0.0963084266186058
  0.5788525313492556  0.8872150312938416  0.8263516109215701
  0.4476804614431273  0.7649193059292827  0.6174808942158947
 
  0.00000000E+00  0.00000000E+00  0.00000000E+00
  0.00000000E+00  0.00000000E+00  0.00000000E+00
  0.00000000E+00  0.00000000E+00  0.00000000E+00
  0.00000000E+00  0.00000000E+00  0.00000000E+00
  0.00000000E+00  0.00000000E+00  0.00000000E+00
  0.00000000E+00  0.00000000E+00  0.00000000E+00
  0.00000000E+00  0.00000000E+00  0.00000000E+00
  0.00000000E+00  0.00000000E+00  0.00000000E+00
  0.00000000E+00  0.00000000E+00  0.00000000E+00
  0.00000000E+00  0.00000000E+00  0.00000000E+00
  0.00000000E+00  0.00000000E+00  0.00000000E+00
  0.00000000E+00  0.00000000E+00  0.00000000E+00
  0.00000000E+00  0.00000000E+00  0.00000000E+00
  0.00000000E+00  0.00000000E+00  0.00000000E+00
  0.00000000E+00  0.00000000E+00  0.00000000E+00
  0.00000000E+00  0.00000000E+00  0.00000000E+00
  0.00000000E+00  0.00000000E+00  0.00000000E+00
  0.00000000E+00  0.00000000E+00  0.00000000E+00
  0.00000000E+00  0.00000000E+00  0.00000000E+00
  0.00000000E+00  0.00000000E+00  0.00000000E+00
  0.00000000E+00  0.00000000E+00  0.00000000E+00
  0.00000000E+00  0.00000000E+00  0.00000000E+00
  0.00000000E+00  0.00000000E+00  0.00000000E+00
  0.00000000E+00  0.00000000E+00  0.00000000E+00
  0.00000000E+00  0.00000000E+00  0.00000000E+00
  0.00000000E+00  0.00000000E+00  0.00000000E+00
  0.00000000E+00  0.00000000E+00  0.00000000E+00
  0.00000000E+00  0.00000000E+00  0.00000000E+00
  0.00000000E+00  0.00000000E+00  0.00000000E+00
  0.00000000E+00  0.00000000E+00  0.00000000E+00
  0.00000000E+00  0.00000000E+00  0.00000000E+00
  0.00000000E+00  0.00000000E+00  0.00000000E+00
  0.00000000E+00  0.00000000E+00  0.00000000E+00
  0.00000000E+00  0.00000000E+00  0.00000000E+00
  0.00000000E+00  0.00000000E+00  0.00000000E+00
  0.00000000E+00  0.00000000E+00  0.00000000E+00
  0.00000000E+00  0.00000000E+00  0.00000000E+00
  0.00000000E+00  0.00000000E+00  0.00000000E+00
  0.00000000E+00  0.00000000E+00  0.00000000E+00
  0.00000000E+00  0.00000000E+00  0.00000000E+00
  0.00000000E+00  0.00000000E+00  0.00000000E+00
  0.00000000E+00  0.00000000E+00  0.00000000E+00
  0.00000000E+00  0.00000000E+00  0.00000000E+00
  0.00000000E+00  0.00000000E+00  0.00000000E+00
  0.00000000E+00  0.00000000E+00  0.00000000E+00
  0.00000000E+00  0.00000000E+00  0.00000000E+00
  0.00000000E+00  0.00000000E+00  0.00000000E+00
  0.00000000E+00  0.00000000E+00  0.00000000E+00
  0.00000000E+00  0.00000000E+00  0.00000000E+00
  0.00000000E+00  0.00000000E+00  0.00000000E+00
  0.00000000E+00  0.00000000E+00  0.00000000E+00
  0.00000000E+00  0.00000000E+00  0.00000000E+00
  0.00000000E+00  0.00000000E+00  0.00000000E+00
  0.00000000E+00  0.00000000E+00  0.00000000E+00
  0.00000000E+00  0.00000000E+00  0.00000000E+00
  0.00000000E+00  0.00000000E+00  0.00000000E+00
  0.00000000E+00  0.00000000E+00  0.00000000E+00
  0.00000000E+00  0.00000000E+00  0.00000000E+00
  0.00000000E+00  0.00000000E+00  0.00000000E+00
  0.00000000E+00  0.00000000E+00  0.00000000E+00
  0.00000000E+00  0.00000000E+00  0.00000000E+00
  0.00000000E+00  0.00000000E+00  0.00000000E+00
  0.00000000E+00  0.00000000E+00  0.00000000E+00
  0.00000000E+00  0.00000000E+00  0.00000000E+00
  0.00000000E+00  0.00000000E+00  0.00000000E+00
  0.00000000E+00  0.00000000E+00  0.00000000E+00
  0.00000000E+00  0.00000000E+00  0.00000000E+00
  0.00000000E+00  0.00000000E+00  0.00000000E+00
  0.00000000E+00  0.00000000E+00  0.00000000E+00
  0.00000000E+00  0.00000000E+00  0.00000000E+00
  0.00000000E+00  0.00000000E+00  0.00000000E+00
  0.00000000E+00  0.00000000E+00  0.00000000E+00
