Al   Gd   N                             
   1.00000000000000     
    -9.6939307182846317    0.0224253957594015   -0.0156436369892968
    -4.8342250781927971    8.4256333022000245   -0.0249974540645557
    -0.1310999925905650   -0.0018169667781366  -10.5156556578621672
   Al   Gd   N 
    31     5    36
Direct
  0.1122069286161462  0.0983331353860990  0.3085893683857535
  0.2237763375147566  0.1992458240390675  0.0533054257757755
  0.7959373806024388  0.0818426312067331  0.8936074585267733
  0.4332956341728291  0.1024476070762574  0.3013705560541453
  0.5499696633229476  0.2015434490329113  0.0586524444278069
  0.1274077512821705  0.0801794098692099  0.8158977732033676
  0.2318227069504175  0.1944478076828347  0.5633942201080160
  0.7646414466981213  0.1016887831498821  0.3686844361087438
  0.8905945837707492  0.2025501279050630  0.1294229688591741
  0.4576645187460429  0.0909343453609139  0.8087803646206169
  0.5358406243037024  0.2127152114411572  0.5472968296106160
  0.1016435617769247  0.4334296454043169  0.3856986820270905
  0.8009665516380124  0.4087232989733280  0.8879072429447774
  0.8761372099784097  0.5430437427876313  0.6227532642598135
  0.4318068477947392  0.4253412413720383  0.3118592906641027
  0.1133605997623022  0.4191482560882420  0.8510927419409597
  0.2279414086350400  0.5400736836962565  0.5686835622611000
  0.7781218753039525  0.4316877266072154  0.3661140264118998
  0.9011451728127966  0.5304104643800329  0.1304290829548620
  0.4619862377838757  0.4104532478221827  0.7971276203423727
  0.5427492095314435  0.5468716827892379  0.5350940754717399
  0.1066314639763632  0.7712769471267649  0.3182513935958298
  0.2094270599693573  0.8912240877725708  0.0681542721967148
  0.7963943833211928  0.7531756791465440  0.8942777548614558
  0.4292974128401355  0.7800076537615439  0.3088395130022477
  0.5504752608008801  0.8848740133786350  0.0650576800176097
  0.1249934251224616  0.7547867788874711  0.8048233682118848
  0.2287598554262331  0.8713984407874804  0.5527661260430463
  0.7726141354366618  0.7573415123776996  0.3685011867241528
  0.8776439444675361  0.8816952347859726  0.1400576793573762
  0.5416488459921425  0.8779030929176912  0.5400631741057964
  0.8809716578785327  0.2159397465889370  0.6210889944863993
  0.2173335385887682  0.5553940332645411  0.0530005995760732
  0.5580771830063895  0.5391182639661452  0.0878805185890599
  0.8735322235193763  0.8718340055682745  0.6205606869133433
  0.4591265479686513  0.7532798334258999  0.8013308599167246
  0.2183889436715916  0.2041170493048270  0.3749583511612542
  0.1154279318851010  0.1004493222132012  0.1253129272023870
  0.9012586423217925  0.1935946043124730  0.8384941609883043
  0.7533654961252196  0.1087079331995255  0.5468074838891823
  0.5328507319895976  0.2122719053495956  0.3657940935960795
  0.4398571426179814  0.0987460461145844  0.1185296927202018
  0.2358932751947975  0.1900497935488801  0.8654671909457718
  0.1505434527575815  0.0702929510359738  0.6315166760769628
  0.8777404088491636  0.2113777505679622  0.3174901354806252
  0.7789391358122515  0.0934648524333710  0.0767336691057352
  0.5610156359974638  0.2005608481865764  0.8690082338218801
  0.4506407891494817  0.0891929289410598  0.6202592586147375
  0.2145779578482774  0.5503858522051246  0.3756331723841768
  0.1010545655951276  0.4188135303234546  0.0569760586540724
  0.8866410545063772  0.5375236696789614  0.8110050388522581
  0.7639099458878675  0.4553508735319696  0.5452674121986334
  0.5422557813233908  0.5464824154350154  0.3455028977442680
  0.4486862763406663  0.3963831740922501  0.1366425313275030
  0.2325426868298166  0.5279805517186915  0.8339985723457133
  0.1041277962266847  0.4283669689403737  0.5768626916060313
  0.8917161408849807  0.5377347088639084  0.3124600188898938
  0.8161269368685993  0.4084805952200767  0.0688568341328377
  0.5766222414633688  0.5025803322096891  0.8660458128712634
  0.4511580906553547  0.4241022358619375  0.6093685279915846
  0.2105933500195505  0.8845261789766496  0.3724972029272422
  0.0990551505125765  0.7965573491998228  0.1405582735675424
  0.9002408140830553  0.8635771614009400  0.8396039687163466
  0.7623078006548880  0.7436704730789430  0.5497442806173041
  0.5420038063027235  0.8852433391332113  0.3575940208169825
  0.4236042834944840  0.8005510936389015  0.1261955792699752
  0.2077912769141435  0.8723445324796799  0.8861906900043550
  0.1423582749913592  0.7520127888020625  0.6224353066301020
  0.8722520873581487  0.8790761905411486  0.3271666108550662
  0.7880442856881942  0.7533456833273107  0.0798012953744731
  0.5728731309182393  0.8842713143976297  0.8815713200171160
  0.4463887892520049  0.7582304863009881  0.5860061884297636
 
  0.00000000E+00  0.00000000E+00  0.00000000E+00
  0.00000000E+00  0.00000000E+00  0.00000000E+00
  0.00000000E+00  0.00000000E+00  0.00000000E+00
  0.00000000E+00  0.00000000E+00  0.00000000E+00
  0.00000000E+00  0.00000000E+00  0.00000000E+00
  0.00000000E+00  0.00000000E+00  0.00000000E+00
  0.00000000E+00  0.00000000E+00  0.00000000E+00
  0.00000000E+00  0.00000000E+00  0.00000000E+00
  0.00000000E+00  0.00000000E+00  0.00000000E+00
  0.00000000E+00  0.00000000E+00  0.00000000E+00
  0.00000000E+00  0.00000000E+00  0.00000000E+00
  0.00000000E+00  0.00000000E+00  0.00000000E+00
  0.00000000E+00  0.00000000E+00  0.00000000E+00
  0.00000000E+00  0.00000000E+00  0.00000000E+00
  0.00000000E+00  0.00000000E+00  0.00000000E+00
  0.00000000E+00  0.00000000E+00  0.00000000E+00
  0.00000000E+00  0.00000000E+00  0.00000000E+00
  0.00000000E+00  0.00000000E+00  0.00000000E+00
  0.00000000E+00  0.00000000E+00  0.00000000E+00
  0.00000000E+00  0.00000000E+00  0.00000000E+00
  0.00000000E+00  0.00000000E+00  0.00000000E+00
  0.00000000E+00  0.00000000E+00  0.00000000E+00
  0.00000000E+00  0.00000000E+00  0.00000000E+00
  0.00000000E+00  0.00000000E+00  0.00000000E+00
  0.00000000E+00  0.00000000E+00  0.00000000E+00
  0.00000000E+00  0.00000000E+00  0.00000000E+00
  0.00000000E+00  0.00000000E+00  0.00000000E+00
  0.00000000E+00  0.00000000E+00  0.00000000E+00
  0.00000000E+00  0.00000000E+00  0.00000000E+00
  0.00000000E+00  0.00000000E+00  0.00000000E+00
  0.00000000E+00  0.00000000E+00  0.00000000E+00
  0.00000000E+00  0.00000000E+00  0.00000000E+00
  0.00000000E+00  0.00000000E+00  0.00000000E+00
  0.00000000E+00  0.00000000E+00  0.00000000E+00
  0.00000000E+00  0.00000000E+00  0.00000000E+00
  0.00000000E+00  0.00000000E+00  0.00000000E+00
  0.00000000E+00  0.00000000E+00  0.00000000E+00
  0.00000000E+00  0.00000000E+00  0.00000000E+00
  0.00000000E+00  0.00000000E+00  0.00000000E+00
  0.00000000E+00  0.00000000E+00  0.00000000E+00
  0.00000000E+00  0.00000000E+00  0.00000000E+00
  0.00000000E+00  0.00000000E+00  0.00000000E+00
  0.00000000E+00  0.00000000E+00  0.00000000E+00
  0.00000000E+00  0.00000000E+00  0.00000000E+00
  0.00000000E+00  0.00000000E+00  0.00000000E+00
  0.00000000E+00  0.00000000E+00  0.00000000E+00
  0.00000000E+00  0.00000000E+00  0.00000000E+00
  0.00000000E+00  0.00000000E+00  0.00000000E+00
  0.00000000E+00  0.00000000E+00  0.00000000E+00
  0.00000000E+00  0.00000000E+00  0.00000000E+00
  0.00000000E+00  0.00000000E+00  0.00000000E+00
  0.00000000E+00  0.00000000E+00  0.00000000E+00
  0.00000000E+00  0.00000000E+00  0.00000000E+00
  0.00000000E+00  0.00000000E+00  0.00000000E+00
  0.00000000E+00  0.00000000E+00  0.00000000E+00
  0.00000000E+00  0.00000000E+00  0.00000000E+00
  0.00000000E+00  0.00000000E+00  0.00000000E+00
  0.00000000E+00  0.00000000E+00  0.00000000E+00
  0.00000000E+00  0.00000000E+00  0.00000000E+00
  0.00000000E+00  0.00000000E+00  0.00000000E+00
  0.00000000E+00  0.00000000E+00  0.00000000E+00
  0.00000000E+00  0.00000000E+00  0.00000000E+00
  0.00000000E+00  0.00000000E+00  0.00000000E+00
  0.00000000E+00  0.00000000E+00  0.00000000E+00
  0.00000000E+00  0.00000000E+00  0.00000000E+00
  0.00000000E+00  0.00000000E+00  0.00000000E+00
  0.00000000E+00  0.00000000E+00  0.00000000E+00
  0.00000000E+00  0.00000000E+00  0.00000000E+00
  0.00000000E+00  0.00000000E+00  0.00000000E+00
  0.00000000E+00  0.00000000E+00  0.00000000E+00
  0.00000000E+00  0.00000000E+00  0.00000000E+00
  0.00000000E+00  0.00000000E+00  0.00000000E+00
