Al   Gd   N                             
   1.00000000000000     
    -9.7447387000827792    0.0142783318452392   -0.0246727053613021
    -4.8989963170518251    8.4365084366248855   -0.0326335066143621
     0.0663447442261122    0.0423112842474550  -10.3296491083399591
   Al   Gd   N 
    31     5    36
Direct
  0.1144467491993595  0.1021601855328100  0.3889460432338225
  0.2232554494883843  0.2012589983108768  0.1473935171029837
  0.7771030646631019  0.0959259515110773  0.9149833597063477
  0.4426667569929421  0.0988914863730130  0.3984501571457031
  0.5558152837964911  0.1916468096805843  0.1484747913284181
  0.1050305655116759  0.1067434407278895  0.9137830865227272
  0.2303088053163904  0.2025949453347309  0.6488337394770056
  0.7697372504895199  0.0992991098347531  0.3895936535763838
  0.8962071787762440  0.1998947899156676  0.1537148425392516
  0.4511384248842560  0.0963542755028683  0.8957522938272930
  0.5507115301020633  0.2072732419432768  0.6476839602119568
  0.1091072844397871  0.4270817982644886  0.4100879902670158
  0.7889672762966953  0.4189786206865662  0.9063373017608924
  0.8816164839068179  0.5440016165960770  0.6487139227036920
  0.4409364111801821  0.4243908423280871  0.4101740727836969
  0.1084727306939541  0.4240699227837936  0.8909433904104844
  0.2259029913001598  0.5399885049296316  0.6501038505176027
  0.7791925493990917  0.4336958398806772  0.3966567656931446
  0.8933376474243246  0.5309040373990115  0.1483137899824527
  0.4504569809523673  0.4114991287866516  0.8897322801461840
  0.5523547112983849  0.5461252259097051  0.6046696087227872
  0.1110796927150517  0.7577285734928267  0.3999385249823177
  0.2120162469985445  0.8826202431660093  0.0930982015244695
  0.7803546282459308  0.7628578565885320  0.9072969096418859
  0.4355111515929622  0.7720255107457206  0.3306793969156416
  0.5564396263780367  0.8795004970076405  0.1502254395576514
  0.1008236465050913  0.7646835544038382  0.9125943635576590
  0.2413274287547296  0.8680638251391599  0.5676451172022325
  0.7741034933281341  0.7588529757152003  0.3937540620397328
  0.8838977937463710  0.8748840011971879  0.1544658376762342
  0.5580886687735287  0.8786956771413799  0.6415161496721851
  0.8937193867353415  0.2059349357685605  0.6476596251378339
  0.2175046726669123  0.5265590088719065  0.1511187222709083
  0.5601035763474584  0.5200696682175092  0.1354872048089959
  0.8862814604244775  0.8697070528075983  0.6511083954627850
  0.4440627438414069  0.7619669747097220  0.8548938335676013
  0.2237504238349786  0.2130331920176474  0.3356209691784642
  0.1096854244884540  0.1010633459339019  0.1037540644448782
  0.8915288072123531  0.2014235644104545  0.8656637630599917
  0.7489996277777564  0.1103690434325770  0.5694496046950235
  0.5476005969036351  0.2115172935929266  0.3348894012447943
  0.4447279565109454  0.0891910012327983  0.0851809399398462
  0.2256190236642510  0.2006036299342426  0.8377210837267199
  0.1414136263137991  0.0897189912328074  0.5741078982399657
  0.8872462494378581  0.2093959714697178  0.3434777895496097
  0.7756367292876334  0.0949205583820216  0.1035227661218698
  0.5628982317290365  0.1978998325543486  0.8334631951755611
  0.4439834615853044  0.0994448804457093  0.5856190319334473
  0.2208775602589910  0.5350584216145720  0.3682334020110574
  0.0970980533063681  0.4079666682307916  0.0735490880796092
  0.8847193697909148  0.5423107464680541  0.8374162531989526
  0.7697313987944554  0.4516584268842365  0.5788145779187772
  0.5483723280286767  0.5433895491297349  0.3670583620816785
  0.4510168031366746  0.3856630028325867  0.0686777954651134
  0.2185859270746136  0.5421271651770638  0.8428555553918713
  0.1079928736931066  0.4290227069308514  0.5981371757396587
  0.8929841478323368  0.5377849754650441  0.3361271782840731
  0.8087053734699339  0.4093736504891652  0.0906691599217666
  0.5755048719683344  0.5035305121003546  0.8650449073377260
  0.4448727805318953  0.4264070023722226  0.5964890211013412
  0.2213582102296527  0.8742846598875005  0.3757232796132541
  0.0947965046850427  0.7795419264286494  0.1007587027031462
  0.8864975206123518  0.8750067329781928  0.8698270297690271
  0.7642402697837198  0.7487282213441020  0.5752824210719822
  0.5551530208825923  0.8810009455983518  0.3378841646775186
  0.4284876523995749  0.7853890045928580  0.1350999226365630
  0.1927897066226336  0.8896114803695809  0.9010628992539722
  0.1375709696915663  0.7504656870240467  0.5856230569421896
  0.8868574456895004  0.8713729817832032  0.3448044866460975
  0.7767314134899195  0.7564195697387035  0.0958561463731797
  0.5797172882063606  0.8900589137629922  0.8285011825833450
  0.4472469281766038  0.7646151001980144  0.6281451263514910
 
  0.00000000E+00  0.00000000E+00  0.00000000E+00
  0.00000000E+00  0.00000000E+00  0.00000000E+00
  0.00000000E+00  0.00000000E+00  0.00000000E+00
  0.00000000E+00  0.00000000E+00  0.00000000E+00
  0.00000000E+00  0.00000000E+00  0.00000000E+00
  0.00000000E+00  0.00000000E+00  0.00000000E+00
  0.00000000E+00  0.00000000E+00  0.00000000E+00
  0.00000000E+00  0.00000000E+00  0.00000000E+00
  0.00000000E+00  0.00000000E+00  0.00000000E+00
  0.00000000E+00  0.00000000E+00  0.00000000E+00
  0.00000000E+00  0.00000000E+00  0.00000000E+00
  0.00000000E+00  0.00000000E+00  0.00000000E+00
  0.00000000E+00  0.00000000E+00  0.00000000E+00
  0.00000000E+00  0.00000000E+00  0.00000000E+00
  0.00000000E+00  0.00000000E+00  0.00000000E+00
  0.00000000E+00  0.00000000E+00  0.00000000E+00
  0.00000000E+00  0.00000000E+00  0.00000000E+00
  0.00000000E+00  0.00000000E+00  0.00000000E+00
  0.00000000E+00  0.00000000E+00  0.00000000E+00
  0.00000000E+00  0.00000000E+00  0.00000000E+00
  0.00000000E+00  0.00000000E+00  0.00000000E+00
  0.00000000E+00  0.00000000E+00  0.00000000E+00
  0.00000000E+00  0.00000000E+00  0.00000000E+00
  0.00000000E+00  0.00000000E+00  0.00000000E+00
  0.00000000E+00  0.00000000E+00  0.00000000E+00
  0.00000000E+00  0.00000000E+00  0.00000000E+00
  0.00000000E+00  0.00000000E+00  0.00000000E+00
  0.00000000E+00  0.00000000E+00  0.00000000E+00
  0.00000000E+00  0.00000000E+00  0.00000000E+00
  0.00000000E+00  0.00000000E+00  0.00000000E+00
  0.00000000E+00  0.00000000E+00  0.00000000E+00
  0.00000000E+00  0.00000000E+00  0.00000000E+00
  0.00000000E+00  0.00000000E+00  0.00000000E+00
  0.00000000E+00  0.00000000E+00  0.00000000E+00
  0.00000000E+00  0.00000000E+00  0.00000000E+00
  0.00000000E+00  0.00000000E+00  0.00000000E+00
  0.00000000E+00  0.00000000E+00  0.00000000E+00
  0.00000000E+00  0.00000000E+00  0.00000000E+00
  0.00000000E+00  0.00000000E+00  0.00000000E+00
  0.00000000E+00  0.00000000E+00  0.00000000E+00
  0.00000000E+00  0.00000000E+00  0.00000000E+00
  0.00000000E+00  0.00000000E+00  0.00000000E+00
  0.00000000E+00  0.00000000E+00  0.00000000E+00
  0.00000000E+00  0.00000000E+00  0.00000000E+00
  0.00000000E+00  0.00000000E+00  0.00000000E+00
  0.00000000E+00  0.00000000E+00  0.00000000E+00
  0.00000000E+00  0.00000000E+00  0.00000000E+00
  0.00000000E+00  0.00000000E+00  0.00000000E+00
  0.00000000E+00  0.00000000E+00  0.00000000E+00
  0.00000000E+00  0.00000000E+00  0.00000000E+00
  0.00000000E+00  0.00000000E+00  0.00000000E+00
  0.00000000E+00  0.00000000E+00  0.00000000E+00
  0.00000000E+00  0.00000000E+00  0.00000000E+00
  0.00000000E+00  0.00000000E+00  0.00000000E+00
  0.00000000E+00  0.00000000E+00  0.00000000E+00
  0.00000000E+00  0.00000000E+00  0.00000000E+00
  0.00000000E+00  0.00000000E+00  0.00000000E+00
  0.00000000E+00  0.00000000E+00  0.00000000E+00
  0.00000000E+00  0.00000000E+00  0.00000000E+00
  0.00000000E+00  0.00000000E+00  0.00000000E+00
  0.00000000E+00  0.00000000E+00  0.00000000E+00
  0.00000000E+00  0.00000000E+00  0.00000000E+00
  0.00000000E+00  0.00000000E+00  0.00000000E+00
  0.00000000E+00  0.00000000E+00  0.00000000E+00
  0.00000000E+00  0.00000000E+00  0.00000000E+00
  0.00000000E+00  0.00000000E+00  0.00000000E+00
  0.00000000E+00  0.00000000E+00  0.00000000E+00
  0.00000000E+00  0.00000000E+00  0.00000000E+00
  0.00000000E+00  0.00000000E+00  0.00000000E+00
  0.00000000E+00  0.00000000E+00  0.00000000E+00
  0.00000000E+00  0.00000000E+00  0.00000000E+00
  0.00000000E+00  0.00000000E+00  0.00000000E+00
