Al   Gd   N                             
   1.00000000000000     
    -9.7273426277681327    0.0131999404661512   -0.0254453968829292
    -4.8878368106607892    8.4220131910008043   -0.0332500021555336
     0.0372805560921179    0.0506460663735560  -10.2985398605230873
   Al   Gd   N 
    31     5    36
Direct
  0.1179782353914973  0.0966828209606732  0.3882655997099320
  0.2225320030707252  0.2022379555746525  0.1462648656734444
  0.7755262990035519  0.0959092856675881  0.9152272677831732
  0.4431516178170227  0.0984683150418704  0.3956623624069309
  0.5569761277176681  0.1975776035431238  0.1465530582234322
  0.1022484126076861  0.1071005068260860  0.9098316502978179
  0.2296232746494766  0.2026902102252919  0.6475857688735900
  0.7713578384830129  0.0979049213608505  0.3871763068165706
  0.8916815370883953  0.2045570806344372  0.1496682718738498
  0.4492656916814965  0.0975259180747656  0.8957566498515490
  0.5496273545632491  0.2049474071190645  0.6469908461742193
  0.1109394305355451  0.4257666601161532  0.4070356078928157
  0.7816851545605132  0.4241437941125028  0.9018283804429714
  0.8827921330421020  0.5416674650728552  0.6475019606071939
  0.4440791208250872  0.4238289596957827  0.4135628268513472
  0.1062893614350742  0.4251029804532322  0.8905362715205030
  0.2249208879775395  0.5371311976839550  0.6503354294906032
  0.7821431363355629  0.4286949027597373  0.4014347074243858
  0.8913540801722988  0.5320783755214009  0.1470473599168045
  0.4521376637596362  0.4138569984892158  0.8847781036474274
  0.5601935408543923  0.5316543119793806  0.6397885832960739
  0.1152814907272628  0.7557829980952846  0.3987869253435150
  0.2147825754792336  0.8840878396042697  0.1025558757679050
  0.7773078731191632  0.7637747984059970  0.9074025523169595
  0.4534978525406572  0.7601027323579999  0.4044333760990497
  0.5509014800635086  0.8797282538826252  0.1505724224558875
  0.0993819269021969  0.7681956776137113  0.9068685261678624
  0.2306196307094837  0.8706238060993741  0.5830042642337716
  0.7777646111873509  0.7563558570417328  0.3904136325397189
  0.8850096568075685  0.8747805054240914  0.1516288427477264
  0.5584212478600605  0.8781332639592208  0.6390254721917970
  0.8942258140447308  0.2006026022802700  0.6502784138274649
  0.2216959136660464  0.5270169312789363  0.1452814348196227
  0.5529527862149948  0.5394532776147614  0.1514929046403708
  0.8831592483953870  0.8683456945845691  0.6507827867245553
  0.4402058605006474  0.7677743824549452  0.8650417804605794
  0.2242175594537770  0.2109480647321433  0.3343385371577128
  0.1081365606596663  0.1020892619807015  0.0992251424798241
  0.8857732440288117  0.2060729677395017  0.8684952343532615
  0.7479646928308625  0.1085584599592835  0.5676275468336343
  0.5483515066567364  0.2118303367561225  0.3335760212243528
  0.4444660741092861  0.0945404852628826  0.0866759820328653
  0.2239582850201316  0.2021516070861296  0.8368474218030926
  0.1403808825328667  0.0894879119305401  0.5740006421315655
  0.8900115517981035  0.2069523561414783  0.3412818137821034
  0.7764519633021720  0.0944259968465673  0.1029415050078839
  0.5619685727537345  0.1979381131715954  0.8338540654062925
  0.4431369431246992  0.0981550333911443  0.5833727440551897
  0.2243384608714862  0.5333976413478112  0.3639883113932427
  0.0961999445165063  0.4095615635458216  0.0738677232915066
  0.8828355183499070  0.5443785613673953  0.8367651315085851
  0.7724166942779433  0.4461751835763437  0.5831541687335431
  0.5549303990803978  0.5373929132763990  0.3707221471993947
  0.4620098577107044  0.3951550545856719  0.0655287959126554
  0.2178431126092235  0.5419721756602698  0.8434452676726707
  0.1083871434495336  0.4280153176025152  0.5962102480699656
  0.8938459871157747  0.5348031583669695  0.3354583292210265
  0.7979792761829785  0.4176606801077511  0.0866700633227850
  0.5744211612409629  0.5050533764130165  0.8281401846465215
  0.4432186481588829  0.4238380112469216  0.5986795452178981
  0.2285529593285389  0.8686806818211821  0.3736687937313121
  0.0978141379999258  0.7820580858779920  0.0946917651393449
  0.8828890961375251  0.8755976262931497  0.8700548113959883
  0.7644924311543377  0.7460466751326464  0.5723640583655580
  0.5544649849169403  0.8752992298117448  0.3391487867215233
  0.4322367226646904  0.7910429445869980  0.0894893006639279
  0.1831874082736249  0.8959627650114257  0.8704876605950886
  0.1346954236852227  0.7474802695881593  0.5854181075274028
  0.8903157422403325  0.8691151776833692  0.3423329959615273
  0.7753290917862401  0.7582314908711751  0.0966946982639243
  0.5769963232956528  0.8914223409891662  0.8236600123405466
  0.4517979218353858  0.7602355667915717  0.6024229662690459
 
  0.00000000E+00  0.00000000E+00  0.00000000E+00
  0.00000000E+00  0.00000000E+00  0.00000000E+00
  0.00000000E+00  0.00000000E+00  0.00000000E+00
  0.00000000E+00  0.00000000E+00  0.00000000E+00
  0.00000000E+00  0.00000000E+00  0.00000000E+00
  0.00000000E+00  0.00000000E+00  0.00000000E+00
  0.00000000E+00  0.00000000E+00  0.00000000E+00
  0.00000000E+00  0.00000000E+00  0.00000000E+00
  0.00000000E+00  0.00000000E+00  0.00000000E+00
  0.00000000E+00  0.00000000E+00  0.00000000E+00
  0.00000000E+00  0.00000000E+00  0.00000000E+00
  0.00000000E+00  0.00000000E+00  0.00000000E+00
  0.00000000E+00  0.00000000E+00  0.00000000E+00
  0.00000000E+00  0.00000000E+00  0.00000000E+00
  0.00000000E+00  0.00000000E+00  0.00000000E+00
  0.00000000E+00  0.00000000E+00  0.00000000E+00
  0.00000000E+00  0.00000000E+00  0.00000000E+00
  0.00000000E+00  0.00000000E+00  0.00000000E+00
  0.00000000E+00  0.00000000E+00  0.00000000E+00
  0.00000000E+00  0.00000000E+00  0.00000000E+00
  0.00000000E+00  0.00000000E+00  0.00000000E+00
  0.00000000E+00  0.00000000E+00  0.00000000E+00
  0.00000000E+00  0.00000000E+00  0.00000000E+00
  0.00000000E+00  0.00000000E+00  0.00000000E+00
  0.00000000E+00  0.00000000E+00  0.00000000E+00
  0.00000000E+00  0.00000000E+00  0.00000000E+00
  0.00000000E+00  0.00000000E+00  0.00000000E+00
  0.00000000E+00  0.00000000E+00  0.00000000E+00
  0.00000000E+00  0.00000000E+00  0.00000000E+00
  0.00000000E+00  0.00000000E+00  0.00000000E+00
  0.00000000E+00  0.00000000E+00  0.00000000E+00
  0.00000000E+00  0.00000000E+00  0.00000000E+00
  0.00000000E+00  0.00000000E+00  0.00000000E+00
  0.00000000E+00  0.00000000E+00  0.00000000E+00
  0.00000000E+00  0.00000000E+00  0.00000000E+00
  0.00000000E+00  0.00000000E+00  0.00000000E+00
  0.00000000E+00  0.00000000E+00  0.00000000E+00
  0.00000000E+00  0.00000000E+00  0.00000000E+00
  0.00000000E+00  0.00000000E+00  0.00000000E+00
  0.00000000E+00  0.00000000E+00  0.00000000E+00
  0.00000000E+00  0.00000000E+00  0.00000000E+00
  0.00000000E+00  0.00000000E+00  0.00000000E+00
  0.00000000E+00  0.00000000E+00  0.00000000E+00
  0.00000000E+00  0.00000000E+00  0.00000000E+00
  0.00000000E+00  0.00000000E+00  0.00000000E+00
  0.00000000E+00  0.00000000E+00  0.00000000E+00
  0.00000000E+00  0.00000000E+00  0.00000000E+00
  0.00000000E+00  0.00000000E+00  0.00000000E+00
  0.00000000E+00  0.00000000E+00  0.00000000E+00
  0.00000000E+00  0.00000000E+00  0.00000000E+00
  0.00000000E+00  0.00000000E+00  0.00000000E+00
  0.00000000E+00  0.00000000E+00  0.00000000E+00
  0.00000000E+00  0.00000000E+00  0.00000000E+00
  0.00000000E+00  0.00000000E+00  0.00000000E+00
  0.00000000E+00  0.00000000E+00  0.00000000E+00
  0.00000000E+00  0.00000000E+00  0.00000000E+00
  0.00000000E+00  0.00000000E+00  0.00000000E+00
  0.00000000E+00  0.00000000E+00  0.00000000E+00
  0.00000000E+00  0.00000000E+00  0.00000000E+00
  0.00000000E+00  0.00000000E+00  0.00000000E+00
  0.00000000E+00  0.00000000E+00  0.00000000E+00
  0.00000000E+00  0.00000000E+00  0.00000000E+00
  0.00000000E+00  0.00000000E+00  0.00000000E+00
  0.00000000E+00  0.00000000E+00  0.00000000E+00
  0.00000000E+00  0.00000000E+00  0.00000000E+00
  0.00000000E+00  0.00000000E+00  0.00000000E+00
  0.00000000E+00  0.00000000E+00  0.00000000E+00
  0.00000000E+00  0.00000000E+00  0.00000000E+00
  0.00000000E+00  0.00000000E+00  0.00000000E+00
  0.00000000E+00  0.00000000E+00  0.00000000E+00
  0.00000000E+00  0.00000000E+00  0.00000000E+00
  0.00000000E+00  0.00000000E+00  0.00000000E+00
