Al   Gd   N                             
   1.00000000000000     
    -9.7071790082215212    0.0126607447766072   -0.0258317426437428
    -4.8718161488519156    8.4015463637610104   -0.0335582499261193
     0.0214474665071617    0.0469807656609814  -10.2756864389159865
   Al   Gd   N 
    31     5    36
Direct
  0.1186523809087277  0.0944389596187634  0.3891852352765497
  0.2221863111085582  0.2017138601515640  0.1447978850725846
  0.7741529142077397  0.0964896710743943  0.9153056128387576
  0.4428993135583141  0.0982899633437526  0.3954989748340978
  0.5562839459741298  0.1978330073371382  0.1468009105547026
  0.1056427068409036  0.0987894925610675  0.9081466047508684
  0.2298668229093934  0.2015858095035057  0.6461861700504699
  0.7717871466230406  0.0976739033649139  0.3865906912871040
  0.8929076378269230  0.2036215174054732  0.1478474978923359
  0.4489161225606324  0.0973559748788091  0.8955055247331387
  0.5498973085443026  0.2046588110106171  0.6466400613396459
  0.1109961585888826  0.4258338213602926  0.4058237259889736
  0.7826357687190679  0.4234834842895907  0.9020115472664614
  0.8828338799031812  0.5415865402514584  0.6473360107321042
  0.4437957348549233  0.4239213606510148  0.4132783251668286
  0.1064024347323738  0.4244928698494377  0.8899812365331243
  0.2251570870628541  0.5373194774105841  0.6488539509419837
  0.7816380429949703  0.4289515100857955  0.4015971305527941
  0.8915363743040956  0.5320075113777065  0.1473400501781299
  0.4516929150809617  0.4144122267352728  0.8843149012115958
  0.5593601748726016  0.5331236658552001  0.6395480227139956
  0.1170478433704147  0.7577695703745349  0.3985258382028718
  0.2179041307660228  0.8829889767513919  0.1506258978283839
  0.7782571281924078  0.7631040880759272  0.9073840371277626
  0.4459980695576604  0.7638213433253327  0.4073070882712599
  0.5508762656299808  0.8797207729867367  0.1513095550094263
  0.1016925124934716  0.7728551550373979  0.9037353213642447
  0.2249738923895066  0.8735536071286845  0.6315592670452617
  0.7772791709178577  0.7566533894525449  0.3901792236358119
  0.8865386158202995  0.8751515134794801  0.1494047423516633
  0.5576641488639851  0.8771938312063554  0.6389865794466942
  0.8958623186090975  0.1994239631478152  0.6507028611373045
  0.2197907526108338  0.5306845397647280  0.1428329397389092
  0.5532583977042265  0.5389066238559010  0.1528138288810084
  0.8851618544573938  0.8674706943495210  0.6504205643885967
  0.4397472235891300  0.7681353996458569  0.8735654921247757
  0.2237957143766920  0.2103936768978656  0.3336266144343085
  0.1113917040427950  0.0961038784105099  0.0960556206871885
  0.8866989231618803  0.2044960356106529  0.8700113983825233
  0.7488881693535347  0.1080698738007015  0.5677687853545450
  0.5484839296512760  0.2116693771384561  0.3338208264329552
  0.4446143960399525  0.0942671455844035  0.0862841191039720
  0.2239413408661690  0.2005689414909071  0.8362408072203493
  0.1433996047993418  0.0838216615852758  0.5713233444478760
  0.8903419315988756  0.2068920527023579  0.3406295224094009
  0.7755476795579099  0.0951223688889584  0.1029026469514989
  0.5616982680568583  0.1979240764271211  0.8336485010529486
  0.4435315030907603  0.0977766110006044  0.5834401720870943
  0.2244075493360427  0.5339728676354696  0.3622655618752191
  0.0964319003421750  0.4095560831548397  0.0736079674074475
  0.8832984426622872  0.5440176052907191  0.8366089588996957
  0.7725288524305967  0.4456667988570686  0.5836646865856636
  0.5535650574050308  0.5387665971263402  0.3718441452327141
  0.4612025981409218  0.3955706434781519  0.0654157835074543
  0.2176348989268035  0.5432240996766211  0.8427380471652768
  0.1085268131800134  0.4276260101844613  0.5956413764904696
  0.8936108034692936  0.5349225200642067  0.3355292337854650
  0.7981234114705984  0.4177179708110756  0.0867630704494502
  0.5741965289463096  0.5070353502538083  0.8287508171740683
  0.4434905616392584  0.4235570180643080  0.5987838744397820
  0.2263119480056233  0.8699661112095853  0.3425257600313643
  0.1013901440937843  0.7880761333021553  0.0892991466583695
  0.8832799307148278  0.8759616139744679  0.8705855215560021
  0.7645634958409033  0.7463814121535179  0.5726887673289198
  0.5532804910389402  0.8752931775482651  0.3399766458553231
  0.4287168826747774  0.7926865452730141  0.0917586688466514
  0.1805686414352152  0.8973766274672101  0.8250499890224603
  0.1375098216315394  0.7484718332912763  0.5813455018773013
  0.8913320811478229  0.8686239544213166  0.3410926285853435
  0.7757825031548649  0.7579748064996039  0.0966817122589561
  0.5765448281143364  0.8893603626633606  0.8242893392108783
  0.4477999425090502  0.7620857625520330  0.6012697079814942
 
  0.00000000E+00  0.00000000E+00  0.00000000E+00
  0.00000000E+00  0.00000000E+00  0.00000000E+00
  0.00000000E+00  0.00000000E+00  0.00000000E+00
  0.00000000E+00  0.00000000E+00  0.00000000E+00
  0.00000000E+00  0.00000000E+00  0.00000000E+00
  0.00000000E+00  0.00000000E+00  0.00000000E+00
  0.00000000E+00  0.00000000E+00  0.00000000E+00
  0.00000000E+00  0.00000000E+00  0.00000000E+00
  0.00000000E+00  0.00000000E+00  0.00000000E+00
  0.00000000E+00  0.00000000E+00  0.00000000E+00
  0.00000000E+00  0.00000000E+00  0.00000000E+00
  0.00000000E+00  0.00000000E+00  0.00000000E+00
  0.00000000E+00  0.00000000E+00  0.00000000E+00
  0.00000000E+00  0.00000000E+00  0.00000000E+00
  0.00000000E+00  0.00000000E+00  0.00000000E+00
  0.00000000E+00  0.00000000E+00  0.00000000E+00
  0.00000000E+00  0.00000000E+00  0.00000000E+00
  0.00000000E+00  0.00000000E+00  0.00000000E+00
  0.00000000E+00  0.00000000E+00  0.00000000E+00
  0.00000000E+00  0.00000000E+00  0.00000000E+00
  0.00000000E+00  0.00000000E+00  0.00000000E+00
  0.00000000E+00  0.00000000E+00  0.00000000E+00
  0.00000000E+00  0.00000000E+00  0.00000000E+00
  0.00000000E+00  0.00000000E+00  0.00000000E+00
  0.00000000E+00  0.00000000E+00  0.00000000E+00
  0.00000000E+00  0.00000000E+00  0.00000000E+00
  0.00000000E+00  0.00000000E+00  0.00000000E+00
  0.00000000E+00  0.00000000E+00  0.00000000E+00
  0.00000000E+00  0.00000000E+00  0.00000000E+00
  0.00000000E+00  0.00000000E+00  0.00000000E+00
  0.00000000E+00  0.00000000E+00  0.00000000E+00
  0.00000000E+00  0.00000000E+00  0.00000000E+00
  0.00000000E+00  0.00000000E+00  0.00000000E+00
  0.00000000E+00  0.00000000E+00  0.00000000E+00
  0.00000000E+00  0.00000000E+00  0.00000000E+00
  0.00000000E+00  0.00000000E+00  0.00000000E+00
  0.00000000E+00  0.00000000E+00  0.00000000E+00
  0.00000000E+00  0.00000000E+00  0.00000000E+00
  0.00000000E+00  0.00000000E+00  0.00000000E+00
  0.00000000E+00  0.00000000E+00  0.00000000E+00
  0.00000000E+00  0.00000000E+00  0.00000000E+00
  0.00000000E+00  0.00000000E+00  0.00000000E+00
  0.00000000E+00  0.00000000E+00  0.00000000E+00
  0.00000000E+00  0.00000000E+00  0.00000000E+00
  0.00000000E+00  0.00000000E+00  0.00000000E+00
  0.00000000E+00  0.00000000E+00  0.00000000E+00
  0.00000000E+00  0.00000000E+00  0.00000000E+00
  0.00000000E+00  0.00000000E+00  0.00000000E+00
  0.00000000E+00  0.00000000E+00  0.00000000E+00
  0.00000000E+00  0.00000000E+00  0.00000000E+00
  0.00000000E+00  0.00000000E+00  0.00000000E+00
  0.00000000E+00  0.00000000E+00  0.00000000E+00
  0.00000000E+00  0.00000000E+00  0.00000000E+00
  0.00000000E+00  0.00000000E+00  0.00000000E+00
  0.00000000E+00  0.00000000E+00  0.00000000E+00
  0.00000000E+00  0.00000000E+00  0.00000000E+00
  0.00000000E+00  0.00000000E+00  0.00000000E+00
  0.00000000E+00  0.00000000E+00  0.00000000E+00
  0.00000000E+00  0.00000000E+00  0.00000000E+00
  0.00000000E+00  0.00000000E+00  0.00000000E+00
  0.00000000E+00  0.00000000E+00  0.00000000E+00
  0.00000000E+00  0.00000000E+00  0.00000000E+00
  0.00000000E+00  0.00000000E+00  0.00000000E+00
  0.00000000E+00  0.00000000E+00  0.00000000E+00
  0.00000000E+00  0.00000000E+00  0.00000000E+00
  0.00000000E+00  0.00000000E+00  0.00000000E+00
  0.00000000E+00  0.00000000E+00  0.00000000E+00
  0.00000000E+00  0.00000000E+00  0.00000000E+00
  0.00000000E+00  0.00000000E+00  0.00000000E+00
  0.00000000E+00  0.00000000E+00  0.00000000E+00
  0.00000000E+00  0.00000000E+00  0.00000000E+00
  0.00000000E+00  0.00000000E+00  0.00000000E+00
