Al   Gd   N                             
   1.00000000000000     
    -9.7441503500983799    0.0192082066613707   -0.0118849463386968
    -4.8030747167647538    8.4463798302678175   -0.0211774456649844
    -0.0804185719447373   -0.0268840007399829  -10.3994330113531639
   Al   Gd   N 
    31     5    36
Direct
  0.1167998339751364  0.0952265179353518  0.3097402128902331
  0.2210986418709879  0.2026336876697883  0.0606319093070908
  0.7845978233827253  0.0899838807683651  0.8514693822948871
  0.4360611713889568  0.1005412616197177  0.3026065554683228
  0.5548520104380685  0.1994923512273843  0.0616756771673579
  0.1229999570238789  0.0861558861343852  0.8151231987120653
  0.2333521369735081  0.1984932711349146  0.5617655220192788
  0.7621013959509213  0.1037747985516262  0.3468363639489667
  0.8927956344538117  0.2026821602366624  0.1314047820608764
  0.4515801878091423  0.0958979528553456  0.8103771696384499
  0.5385874745651762  0.2118280353183977  0.5501523358009166
  0.1110188660161526  0.4230534553842347  0.3174648109225373
  0.7985597801531270  0.4105906225201892  0.8793756027024386
  0.8710424191373534  0.5459743202071508  0.6245499484322039
  0.4327047538939226  0.4245476371788186  0.3117140088670141
  0.1177187067525338  0.4204003001795087  0.7969402060875339
  0.2276705350367223  0.5339964179298704  0.5626507483320964
  0.7740545127839340  0.4372695499700967  0.3694167760582374
  0.8929985155011977  0.5327942231597120  0.1307328612831640
  0.4568156362112816  0.4161551821038998  0.7973406518523873
  0.5420915557237080  0.5448343996619727  0.5401493353881364
  0.1108541405438501  0.7661169344340806  0.3180324580861438
  0.2088953454190516  0.8884074238582542  0.0669840438661424
  0.7926852225452450  0.7583871323770168  0.8860152950552234
  0.4313907405491477  0.7780043274355677  0.3089303937059356
  0.5501437532078057  0.8853433458089768  0.0636958344648448
  0.1213951936674107  0.7577878242530574  0.8030426007122031
  0.2368474416932074  0.8669240032972354  0.5539697907462084
  0.7695801072014845  0.7564285539570790  0.3705180066506557
  0.8795333949947945  0.8790195007713422  0.1406088987520064
  0.5417311020785789  0.8803802525688695  0.5445203882219474
  0.8986613999487076  0.2080126543439391  0.5957001218998812
  0.2092869961146491  0.5464884092786306  0.0552082264042539
  0.5611941498730744  0.5356388770896388  0.0868214128282929
  0.8893737792186158  0.8641161001250097  0.5962758014540341
  0.4518730505914448  0.7583818706399086  0.8039562841028172
  0.2202313426747295  0.2049307115155443  0.3752893697550306
  0.1156226425844693  0.0964508790628145  0.1256955291997883
  0.8967800941023398  0.1982913746356374  0.8230273657319316
  0.7501258376363040  0.1108765805345584  0.5622325412967726
  0.5363393351591839  0.2111937270677231  0.3663009232387111
  0.4410094386264234  0.0979984779831398  0.1184695942545488
  0.2256706313649985  0.2057915330248008  0.8715976493277253
  0.1637219696346364  0.0648481703774948  0.6325283558093133
  0.8838099726397175  0.2133011570652172  0.3271323128420818
  0.7712533799845573  0.0986797924063936  0.1102117249234311
  0.5589184973309074  0.2040154204241134  0.8694914099854998
  0.4480877591779944  0.0931467154791434  0.6211389491218853
  0.2130888242211100  0.5435445578946485  0.3721018737299602
  0.1122892018460533  0.4054063182563183  0.1341648824339572
  0.8839451865112977  0.5422982536155061  0.8135555354241220
  0.7603110318556148  0.4568783737643898  0.5503289461467347
  0.5416009536447390  0.5453793442242585  0.3465391194555352
  0.4451257561303592  0.3997938949472370  0.1336692575430476
  0.2284857656592223  0.5313363174787114  0.8378769655934093
  0.1101693777773107  0.4223222710224945  0.6110538371867023
  0.8785625859135493  0.5446957927602654  0.3136339714362180
  0.8210780532014894  0.4042746646608677  0.0619259285976241
  0.5736796056235249  0.5063184697844818  0.8641874742168838
  0.4468338378937560  0.4246106796365581  0.6086747128141710
  0.2137746517940684  0.8812960331193551  0.3717364117274471
  0.1004685588148249  0.7906616805206923  0.1382995136892973
  0.8948332307700753  0.8683110476445108  0.8253103106412141
  0.7593223477350577  0.7451523346938842  0.5532835607689535
  0.5420001541506423  0.8855594685702783  0.3585088071078530
  0.4247988055872582  0.7978320912900969  0.1233185206325871
  0.2004644604517551  0.8789412451895728  0.8849086018612624
  0.1544579267568764  0.7439346161309928  0.6203670303955988
  0.8779026164037944  0.8733747452963598  0.3346307032137403
  0.7911495182213031  0.7525427036332033  0.0748592659031502
  0.5689759860323562  0.8889842135635604  0.8799392222328066
  0.4510312821110531  0.7563849769066948  0.5871153693092452
 
  0.00000000E+00  0.00000000E+00  0.00000000E+00
  0.00000000E+00  0.00000000E+00  0.00000000E+00
  0.00000000E+00  0.00000000E+00  0.00000000E+00
  0.00000000E+00  0.00000000E+00  0.00000000E+00
  0.00000000E+00  0.00000000E+00  0.00000000E+00
  0.00000000E+00  0.00000000E+00  0.00000000E+00
  0.00000000E+00  0.00000000E+00  0.00000000E+00
  0.00000000E+00  0.00000000E+00  0.00000000E+00
  0.00000000E+00  0.00000000E+00  0.00000000E+00
  0.00000000E+00  0.00000000E+00  0.00000000E+00
  0.00000000E+00  0.00000000E+00  0.00000000E+00
  0.00000000E+00  0.00000000E+00  0.00000000E+00
  0.00000000E+00  0.00000000E+00  0.00000000E+00
  0.00000000E+00  0.00000000E+00  0.00000000E+00
  0.00000000E+00  0.00000000E+00  0.00000000E+00
  0.00000000E+00  0.00000000E+00  0.00000000E+00
  0.00000000E+00  0.00000000E+00  0.00000000E+00
  0.00000000E+00  0.00000000E+00  0.00000000E+00
  0.00000000E+00  0.00000000E+00  0.00000000E+00
  0.00000000E+00  0.00000000E+00  0.00000000E+00
  0.00000000E+00  0.00000000E+00  0.00000000E+00
  0.00000000E+00  0.00000000E+00  0.00000000E+00
  0.00000000E+00  0.00000000E+00  0.00000000E+00
  0.00000000E+00  0.00000000E+00  0.00000000E+00
  0.00000000E+00  0.00000000E+00  0.00000000E+00
  0.00000000E+00  0.00000000E+00  0.00000000E+00
  0.00000000E+00  0.00000000E+00  0.00000000E+00
  0.00000000E+00  0.00000000E+00  0.00000000E+00
  0.00000000E+00  0.00000000E+00  0.00000000E+00
  0.00000000E+00  0.00000000E+00  0.00000000E+00
  0.00000000E+00  0.00000000E+00  0.00000000E+00
  0.00000000E+00  0.00000000E+00  0.00000000E+00
  0.00000000E+00  0.00000000E+00  0.00000000E+00
  0.00000000E+00  0.00000000E+00  0.00000000E+00
  0.00000000E+00  0.00000000E+00  0.00000000E+00
  0.00000000E+00  0.00000000E+00  0.00000000E+00
  0.00000000E+00  0.00000000E+00  0.00000000E+00
  0.00000000E+00  0.00000000E+00  0.00000000E+00
  0.00000000E+00  0.00000000E+00  0.00000000E+00
  0.00000000E+00  0.00000000E+00  0.00000000E+00
  0.00000000E+00  0.00000000E+00  0.00000000E+00
  0.00000000E+00  0.00000000E+00  0.00000000E+00
  0.00000000E+00  0.00000000E+00  0.00000000E+00
  0.00000000E+00  0.00000000E+00  0.00000000E+00
  0.00000000E+00  0.00000000E+00  0.00000000E+00
  0.00000000E+00  0.00000000E+00  0.00000000E+00
  0.00000000E+00  0.00000000E+00  0.00000000E+00
  0.00000000E+00  0.00000000E+00  0.00000000E+00
  0.00000000E+00  0.00000000E+00  0.00000000E+00
  0.00000000E+00  0.00000000E+00  0.00000000E+00
  0.00000000E+00  0.00000000E+00  0.00000000E+00
  0.00000000E+00  0.00000000E+00  0.00000000E+00
  0.00000000E+00  0.00000000E+00  0.00000000E+00
  0.00000000E+00  0.00000000E+00  0.00000000E+00
  0.00000000E+00  0.00000000E+00  0.00000000E+00
  0.00000000E+00  0.00000000E+00  0.00000000E+00
  0.00000000E+00  0.00000000E+00  0.00000000E+00
  0.00000000E+00  0.00000000E+00  0.00000000E+00
  0.00000000E+00  0.00000000E+00  0.00000000E+00
  0.00000000E+00  0.00000000E+00  0.00000000E+00
  0.00000000E+00  0.00000000E+00  0.00000000E+00
  0.00000000E+00  0.00000000E+00  0.00000000E+00
  0.00000000E+00  0.00000000E+00  0.00000000E+00
  0.00000000E+00  0.00000000E+00  0.00000000E+00
  0.00000000E+00  0.00000000E+00  0.00000000E+00
  0.00000000E+00  0.00000000E+00  0.00000000E+00
  0.00000000E+00  0.00000000E+00  0.00000000E+00
  0.00000000E+00  0.00000000E+00  0.00000000E+00
  0.00000000E+00  0.00000000E+00  0.00000000E+00
  0.00000000E+00  0.00000000E+00  0.00000000E+00
  0.00000000E+00  0.00000000E+00  0.00000000E+00
  0.00000000E+00  0.00000000E+00  0.00000000E+00
