Al   Gd   N                             
   1.00000000000000     
    -9.7405242124624198    0.0166683205313463   -0.0089175589829601
    -4.8086439162397063    8.4370144952209323   -0.0181616495600597
    -0.0626209669188948   -0.0475619104190327  -10.3622099647978505
   Al   Gd   N 
    31     5    36
Direct
  0.1171753530985882  0.0953262073159991  0.3091571234509729
  0.2232095250756174  0.2018375649910098  0.0606558775973340
  0.7712323804787431  0.0975014070909310  0.8174563864593836
  0.4390963202673461  0.1010102289054942  0.3064082336552616
  0.5554909929298049  0.1990397333075933  0.0592883168108571
  0.1197758473019945  0.0884696725565774  0.8139318209635604
  0.2300589779554443  0.2000111294770903  0.5620818899733138
  0.7652621364496568  0.0962867063510515  0.3030310853781302
  0.8962878155819567  0.2036549739580238  0.1251483532551987
  0.4490494873393587  0.0965638910349824  0.8103351405591468
  0.5451011914132735  0.2056607659664706  0.5597091545386306
  0.1122881363993642  0.4240436211731833  0.3178788644949719
  0.7990460828327670  0.4076640431810361  0.8790344801181220
  0.8724282303422228  0.5432874313879452  0.6292716026495953
  0.4384683153145090  0.4215489808228199  0.3179175387370350
  0.1189946392545735  0.4195968021387131  0.7995962871354791
  0.2258994175150164  0.5358030026926031  0.5641297299326027
  0.7754731943913953  0.4379009910358675  0.3692444864724109
  0.8943823610304023  0.5331280956590234  0.1289006169755140
  0.4549427319777095  0.4172746610753464  0.7979968427403605
  0.5432416435136105  0.5446583981822783  0.5402976547132212
  0.1027342934736453  0.7715876991729758  0.3097124053331299
  0.2133001668064551  0.8880319983012228  0.0656658933366288
  0.7867292152636907  0.7539860735957760  0.8810931258668759
  0.4312032342840340  0.7771871907907055  0.3131430183364756
  0.5495528230192122  0.8856721488355248  0.0656378071458903
  0.1184813427801856  0.7600560401199346  0.8094322126223261
  0.2317856701028731  0.8676467800005412  0.5537593907082652
  0.7696811897841798  0.7650396828459662  0.3437954304543283
  0.8918703674462733  0.8819980628601911  0.0618498122394300
  0.5449904992454151  0.8784206457839190  0.5464448205376726
  0.8938768257795218  0.2004604820512270  0.5875527769421467
  0.2179360615742212  0.5398821717172808  0.0586719847176127
  0.5611570729356430  0.5365171563756519  0.0873406112053914
  0.8904537452599328  0.8643337423629376  0.5740525059249322
  0.4519968577630138  0.7579540856882758  0.7999600781345890
  0.2216310790007583  0.2054307546314718  0.3748714528480335
  0.1172652703751709  0.0964259523853244  0.1249505107237923
  0.8973968189720267  0.1982120445946052  0.8236660153811357
  0.7383600334146863  0.1064947595202241  0.6374662290383526
  0.5526638890992999  0.2027601538580868  0.3738062007297884
  0.4423534363533790  0.0985810796973183  0.1215443781957930
  0.2256363671345056  0.2051116568881994  0.8717715688112477
  0.1560630405221985  0.0684789180715626  0.6298730768009335
  0.8832274971702105  0.2116720547648683  0.3270980836820740
  0.7725712073009277  0.0976294993614601  0.1150045476232009
  0.5517788846872804  0.2076830071894662  0.8734441057964233
  0.4428575254924425  0.0934697398476416  0.6202673083199457
  0.2135384765597905  0.5456480687711505  0.3707319787960728
  0.1129400946923766  0.4051657597508935  0.1338731381461642
  0.8870300206435218  0.5374449783526885  0.8184644853802823
  0.7629140097444633  0.4532035380547867  0.5516968948665379
  0.5443744032131477  0.5449687085573558  0.3477408570074587
  0.4526260838022296  0.3946180094984726  0.1401289172894238
  0.2283372913826653  0.5318620009627537  0.8411090514941435
  0.1100672132136822  0.4235430265016333  0.6124553251798091
  0.8798182136886865  0.5461147670579862  0.3143080794678923
  0.8198672752958700  0.4060774675570329  0.0628074739094657
  0.5729697470208350  0.5069910711354879  0.8640814216922408
  0.4462131582050048  0.4254223440187843  0.6071378876632068
  0.2104977532647112  0.8813337844149132  0.3698981897523339
  0.0977561909494113  0.7924953206654948  0.1293538604672264
  0.8978740572698598  0.8699291390450909  0.8671368275226499
  0.7549889239520553  0.7497691633713615  0.5816323462259803
  0.5461203725603028  0.8840050650761313  0.3594816812486030
  0.4252426682995818  0.7981627046938300  0.1271318126745982
  0.2040555492260907  0.8802073640720423  0.8838511087568861
  0.1487718189849190  0.7464418221954787  0.6276886709931020
  0.8800519466291945  0.8786254477922384  0.3514626202243036
  0.7860669676481749  0.7541788903054041  0.0792819634870838
  0.5655401214298053  0.8897531539876269  0.8812031898158708
  0.4467487103767738  0.7581773089921100  0.5813958023814934
 
  0.00000000E+00  0.00000000E+00  0.00000000E+00
  0.00000000E+00  0.00000000E+00  0.00000000E+00
  0.00000000E+00  0.00000000E+00  0.00000000E+00
  0.00000000E+00  0.00000000E+00  0.00000000E+00
  0.00000000E+00  0.00000000E+00  0.00000000E+00
  0.00000000E+00  0.00000000E+00  0.00000000E+00
  0.00000000E+00  0.00000000E+00  0.00000000E+00
  0.00000000E+00  0.00000000E+00  0.00000000E+00
  0.00000000E+00  0.00000000E+00  0.00000000E+00
  0.00000000E+00  0.00000000E+00  0.00000000E+00
  0.00000000E+00  0.00000000E+00  0.00000000E+00
  0.00000000E+00  0.00000000E+00  0.00000000E+00
  0.00000000E+00  0.00000000E+00  0.00000000E+00
  0.00000000E+00  0.00000000E+00  0.00000000E+00
  0.00000000E+00  0.00000000E+00  0.00000000E+00
  0.00000000E+00  0.00000000E+00  0.00000000E+00
  0.00000000E+00  0.00000000E+00  0.00000000E+00
  0.00000000E+00  0.00000000E+00  0.00000000E+00
  0.00000000E+00  0.00000000E+00  0.00000000E+00
  0.00000000E+00  0.00000000E+00  0.00000000E+00
  0.00000000E+00  0.00000000E+00  0.00000000E+00
  0.00000000E+00  0.00000000E+00  0.00000000E+00
  0.00000000E+00  0.00000000E+00  0.00000000E+00
  0.00000000E+00  0.00000000E+00  0.00000000E+00
  0.00000000E+00  0.00000000E+00  0.00000000E+00
  0.00000000E+00  0.00000000E+00  0.00000000E+00
  0.00000000E+00  0.00000000E+00  0.00000000E+00
  0.00000000E+00  0.00000000E+00  0.00000000E+00
  0.00000000E+00  0.00000000E+00  0.00000000E+00
  0.00000000E+00  0.00000000E+00  0.00000000E+00
  0.00000000E+00  0.00000000E+00  0.00000000E+00
  0.00000000E+00  0.00000000E+00  0.00000000E+00
  0.00000000E+00  0.00000000E+00  0.00000000E+00
  0.00000000E+00  0.00000000E+00  0.00000000E+00
  0.00000000E+00  0.00000000E+00  0.00000000E+00
  0.00000000E+00  0.00000000E+00  0.00000000E+00
  0.00000000E+00  0.00000000E+00  0.00000000E+00
  0.00000000E+00  0.00000000E+00  0.00000000E+00
  0.00000000E+00  0.00000000E+00  0.00000000E+00
  0.00000000E+00  0.00000000E+00  0.00000000E+00
  0.00000000E+00  0.00000000E+00  0.00000000E+00
  0.00000000E+00  0.00000000E+00  0.00000000E+00
  0.00000000E+00  0.00000000E+00  0.00000000E+00
  0.00000000E+00  0.00000000E+00  0.00000000E+00
  0.00000000E+00  0.00000000E+00  0.00000000E+00
  0.00000000E+00  0.00000000E+00  0.00000000E+00
  0.00000000E+00  0.00000000E+00  0.00000000E+00
  0.00000000E+00  0.00000000E+00  0.00000000E+00
  0.00000000E+00  0.00000000E+00  0.00000000E+00
  0.00000000E+00  0.00000000E+00  0.00000000E+00
  0.00000000E+00  0.00000000E+00  0.00000000E+00
  0.00000000E+00  0.00000000E+00  0.00000000E+00
  0.00000000E+00  0.00000000E+00  0.00000000E+00
  0.00000000E+00  0.00000000E+00  0.00000000E+00
  0.00000000E+00  0.00000000E+00  0.00000000E+00
  0.00000000E+00  0.00000000E+00  0.00000000E+00
  0.00000000E+00  0.00000000E+00  0.00000000E+00
  0.00000000E+00  0.00000000E+00  0.00000000E+00
  0.00000000E+00  0.00000000E+00  0.00000000E+00
  0.00000000E+00  0.00000000E+00  0.00000000E+00
  0.00000000E+00  0.00000000E+00  0.00000000E+00
  0.00000000E+00  0.00000000E+00  0.00000000E+00
  0.00000000E+00  0.00000000E+00  0.00000000E+00
  0.00000000E+00  0.00000000E+00  0.00000000E+00
  0.00000000E+00  0.00000000E+00  0.00000000E+00
  0.00000000E+00  0.00000000E+00  0.00000000E+00
  0.00000000E+00  0.00000000E+00  0.00000000E+00
  0.00000000E+00  0.00000000E+00  0.00000000E+00
  0.00000000E+00  0.00000000E+00  0.00000000E+00
  0.00000000E+00  0.00000000E+00  0.00000000E+00
  0.00000000E+00  0.00000000E+00  0.00000000E+00
  0.00000000E+00  0.00000000E+00  0.00000000E+00
