Al   Gd   N                             
   1.00000000000000     
    -9.7325952467015231    0.0159910175633398   -0.0081262556880969
    -4.8056273880962257    8.4358109313643510   -0.0173574372654131
    -0.0563069558440790   -0.0525541765607776  -10.3552754271029350
   Al   Gd   N 
    31     5    36
Direct
  0.1172081494774986  0.0953651061865344  0.3090878497434275
  0.2236664422233048  0.2013897158906062  0.0608190594541540
  0.7716872578845084  0.0967664471436791  0.8170157117662740
  0.4395103926206048  0.1006410419955017  0.3073042138716531
  0.5555182990610916  0.1990053657025896  0.0593535108166137
  0.1200315610825058  0.0880795191912398  0.8138833039997522
  0.2303343896922172  0.1997371876855851  0.5621563129024523
  0.7652396419842304  0.0970629786232919  0.3030427952322370
  0.8961659561688293  0.2032146494017724  0.1253409714897415
  0.4492536773502067  0.0964097352047588  0.8104183283807700
  0.5456085854461534  0.2051317515683877  0.5599322758738552
  0.1119165327579026  0.4244118374529648  0.3182670996208969
  0.7994372653274837  0.4066878033517156  0.8798103860498969
  0.8723448315088760  0.5421442955119460  0.6321883355896674
  0.4385079488739478  0.4215808637049108  0.3178945246216216
  0.1200909114255424  0.4185435315376722  0.8004269031176392
  0.2257094925356569  0.5359641631065770  0.5643223738838330
  0.7758510520558701  0.4390659512858548  0.3692955373047724
  0.8955970236275874  0.5302546342485641  0.1280794385388759
  0.4551536913533809  0.4174001907653491  0.7980283798978931
  0.5431951654325005  0.5446505132725576  0.5398403643976835
  0.1029091839175038  0.7717260400282555  0.3091854157630536
  0.2134285656980524  0.8878475915973851  0.0655711960058838
  0.7831417753017220  0.7577982054444519  0.8561620742710403
  0.4319335244388043  0.7770418658980347  0.3144619781966185
  0.5493539538573415  0.8859489271664742  0.0660755134983262
  0.1182128142084977  0.7601904064367915  0.8091516457285763
  0.2309702547171071  0.8679959568766193  0.5533971998215605
  0.7689894161364919  0.7704566439694460  0.3061684512749920
  0.8906188252039797  0.8817548775865376  0.0614622702719601
  0.5495375566762561  0.8755441021604469  0.5474354226514464
  0.8939520689871614  0.2004856326671245  0.5872099474140668
  0.2180308014036072  0.5399010134903293  0.0583276028953179
  0.5604920960495150  0.5372262721170245  0.0874150443068515
  0.8878757854800909  0.8608127853814551  0.5694797337831403
  0.4535222136776866  0.7579421687606427  0.7983939880791127
  0.2218948819713660  0.2052655780593113  0.3749746622735586
  0.1171376154677972  0.0964273602658423  0.1247632670700938
  0.8974597740579497  0.1975660732149507  0.8236855441840305
  0.7405800171143824  0.1035266853992169  0.6364940224783737
  0.5527567859844496  0.2030274984111529  0.3739844166912718
  0.4421506656516812  0.0988600516954463  0.1222540464182345
  0.2265598270626512  0.2041815059813317  0.8718725472579507
  0.1557594288752711  0.0686543460817859  0.6298185930643143
  0.8833270767992261  0.2119385874218764  0.3274493566347729
  0.7724311605319514  0.0978320099763508  0.1148539298906925
  0.5521694442184568  0.2075246589704136  0.8731442990192377
  0.4430241090789337  0.0932711090740028  0.6202638521211057
  0.2136407551146533  0.5458270944745109  0.3708376645465137
  0.1133942999200812  0.4048855558366000  0.1336585932664605
  0.8909003116608218  0.5328978619396025  0.8228674278982879
  0.7629135375904923  0.4546141157355734  0.5516984216338017
  0.5447217372897555  0.5446116041866276  0.3475477107100886
  0.4525371962586533  0.3947551810911278  0.1399767253963873
  0.2288663842303649  0.5318508531366462  0.8407220965177942
  0.1096436884273118  0.4238684763155760  0.6127998146365243
  0.8806110879866864  0.5464265439142793  0.3153129182434427
  0.8190790971847051  0.4054558696154729  0.0633534513636818
  0.5731585381441278  0.5074338870184576  0.8637322110587604
  0.4465377693974943  0.4252901603317412  0.6072168876907824
  0.2102044423692817  0.8816525594432463  0.3696540928320147
  0.0974987826865785  0.7923870620815805  0.1287429653097618
  0.8976386334695476  0.8689075116653981  0.8693567352615617
  0.7478387932072721  0.7557526576265516  0.6187561153650236
  0.5511351644144611  0.8816488093459540  0.3604686583967265
  0.4249529551043025  0.7986192060103008  0.1281175123820120
  0.2049412589747490  0.8795709999692605  0.8833396484686418
  0.1458902702368832  0.7480511216637282  0.6271313471758830
  0.8792881990355994  0.8785081498013270  0.3494297992497550
  0.7813109362021891  0.7596032946111464  0.0992949578365696
  0.5657717818862409  0.8898750577293981  0.8841037283374220
  0.4461467523076976  0.7583819239383160  0.5793172413131487
 
  0.00000000E+00  0.00000000E+00  0.00000000E+00
  0.00000000E+00  0.00000000E+00  0.00000000E+00
  0.00000000E+00  0.00000000E+00  0.00000000E+00
  0.00000000E+00  0.00000000E+00  0.00000000E+00
  0.00000000E+00  0.00000000E+00  0.00000000E+00
  0.00000000E+00  0.00000000E+00  0.00000000E+00
  0.00000000E+00  0.00000000E+00  0.00000000E+00
  0.00000000E+00  0.00000000E+00  0.00000000E+00
  0.00000000E+00  0.00000000E+00  0.00000000E+00
  0.00000000E+00  0.00000000E+00  0.00000000E+00
  0.00000000E+00  0.00000000E+00  0.00000000E+00
  0.00000000E+00  0.00000000E+00  0.00000000E+00
  0.00000000E+00  0.00000000E+00  0.00000000E+00
  0.00000000E+00  0.00000000E+00  0.00000000E+00
  0.00000000E+00  0.00000000E+00  0.00000000E+00
  0.00000000E+00  0.00000000E+00  0.00000000E+00
  0.00000000E+00  0.00000000E+00  0.00000000E+00
  0.00000000E+00  0.00000000E+00  0.00000000E+00
  0.00000000E+00  0.00000000E+00  0.00000000E+00
  0.00000000E+00  0.00000000E+00  0.00000000E+00
  0.00000000E+00  0.00000000E+00  0.00000000E+00
  0.00000000E+00  0.00000000E+00  0.00000000E+00
  0.00000000E+00  0.00000000E+00  0.00000000E+00
  0.00000000E+00  0.00000000E+00  0.00000000E+00
  0.00000000E+00  0.00000000E+00  0.00000000E+00
  0.00000000E+00  0.00000000E+00  0.00000000E+00
  0.00000000E+00  0.00000000E+00  0.00000000E+00
  0.00000000E+00  0.00000000E+00  0.00000000E+00
  0.00000000E+00  0.00000000E+00  0.00000000E+00
  0.00000000E+00  0.00000000E+00  0.00000000E+00
  0.00000000E+00  0.00000000E+00  0.00000000E+00
  0.00000000E+00  0.00000000E+00  0.00000000E+00
  0.00000000E+00  0.00000000E+00  0.00000000E+00
  0.00000000E+00  0.00000000E+00  0.00000000E+00
  0.00000000E+00  0.00000000E+00  0.00000000E+00
  0.00000000E+00  0.00000000E+00  0.00000000E+00
  0.00000000E+00  0.00000000E+00  0.00000000E+00
  0.00000000E+00  0.00000000E+00  0.00000000E+00
  0.00000000E+00  0.00000000E+00  0.00000000E+00
  0.00000000E+00  0.00000000E+00  0.00000000E+00
  0.00000000E+00  0.00000000E+00  0.00000000E+00
  0.00000000E+00  0.00000000E+00  0.00000000E+00
  0.00000000E+00  0.00000000E+00  0.00000000E+00
  0.00000000E+00  0.00000000E+00  0.00000000E+00
  0.00000000E+00  0.00000000E+00  0.00000000E+00
  0.00000000E+00  0.00000000E+00  0.00000000E+00
  0.00000000E+00  0.00000000E+00  0.00000000E+00
  0.00000000E+00  0.00000000E+00  0.00000000E+00
  0.00000000E+00  0.00000000E+00  0.00000000E+00
  0.00000000E+00  0.00000000E+00  0.00000000E+00
  0.00000000E+00  0.00000000E+00  0.00000000E+00
  0.00000000E+00  0.00000000E+00  0.00000000E+00
  0.00000000E+00  0.00000000E+00  0.00000000E+00
  0.00000000E+00  0.00000000E+00  0.00000000E+00
  0.00000000E+00  0.00000000E+00  0.00000000E+00
  0.00000000E+00  0.00000000E+00  0.00000000E+00
  0.00000000E+00  0.00000000E+00  0.00000000E+00
  0.00000000E+00  0.00000000E+00  0.00000000E+00
  0.00000000E+00  0.00000000E+00  0.00000000E+00
  0.00000000E+00  0.00000000E+00  0.00000000E+00
  0.00000000E+00  0.00000000E+00  0.00000000E+00
  0.00000000E+00  0.00000000E+00  0.00000000E+00
  0.00000000E+00  0.00000000E+00  0.00000000E+00
  0.00000000E+00  0.00000000E+00  0.00000000E+00
  0.00000000E+00  0.00000000E+00  0.00000000E+00
  0.00000000E+00  0.00000000E+00  0.00000000E+00
  0.00000000E+00  0.00000000E+00  0.00000000E+00
  0.00000000E+00  0.00000000E+00  0.00000000E+00
  0.00000000E+00  0.00000000E+00  0.00000000E+00
  0.00000000E+00  0.00000000E+00  0.00000000E+00
  0.00000000E+00  0.00000000E+00  0.00000000E+00
  0.00000000E+00  0.00000000E+00  0.00000000E+00
