Al   Sc   N    O                        
   1.00000000000000     
   -10.0559154920556075    0.0183787539727086   -0.0018042851750508
    -5.0789020482656291    8.7356821946294545   -0.0030959819178311
     0.0415125285573223   -0.1271364966638153   -9.8253519135878946
   Al   Sc   N    O 
    23    13    35     1
Direct
  0.1105154193862674  0.0939706103328817  0.4001662067437124
  0.2205757537821853  0.1996346071005632  0.1407138378130313
  0.7703302783672612  0.1057911698664853  0.8926769688833787
  0.8791131120710887  0.2056397486534465  0.6435383503798420
  0.5513962317608829  0.2110427802977242  0.1375481040347282
  0.2256600141621519  0.2101223118787843  0.6414388617230387
  0.8911436540467506  0.2074656419259853  0.1407799444090827
  0.5573257312105042  0.2112587634247660  0.6432355346194925
  0.2230350481181915  0.5419824976353667  0.1460834519391909
  0.4388868343723047  0.4391134704518080  0.3952556183408689
  0.5546780909780864  0.5469572044869579  0.1444716493894873
  0.2281147509221029  0.5349617170610088  0.6409755002464550
  0.8875269509887715  0.5331217430655713  0.1571011595363316
  0.4422999747292877  0.4341330651089024  0.8850463887356455
  0.5542153500403018  0.5305204031736395  0.6475840753597666
  0.1117105156549343  0.7580949227030445  0.3951650272620597
  0.7712215092489672  0.7667029107174130  0.8252865363318449
  0.8863150965516127  0.8808519434146760  0.6470017821244838
  0.4386298426534552  0.7571240957727028  0.3733066481494163
  0.5628474637900496  0.8559462105844915  0.0796436366296618
  0.1220212016059321  0.7526583207592026  0.8839821048561447
  0.4459650212846356  0.7552581338380691  0.8473663725636342
  0.5526662691408077  0.8724632755459822  0.5900777049795991
  0.4443679057622916  0.0935720952432817  0.3728756674239548
  0.1079616748037040  0.0945377545119754  0.8722687919555057
  0.7804452979791989  0.0930527106576022  0.3767872954315408
  0.4520575711654189  0.0925277508540177  0.8704935539143008
  0.1299733162605605  0.4192862439436311  0.3742166130155695
  0.7729985425100239  0.4340503477095012  0.8878829616226653
  0.8933318282041967  0.5337072198586341  0.6166521949734687
  0.1101347668636237  0.4397146979605751  0.8926137981334108
  0.7682057273542355  0.4197628402210043  0.3811439879572944
  0.2198122966444203  0.8735851367550680  0.1357340925839594
  0.2219137394299082  0.8676160394522796  0.6201818900155658
  0.7774341170865782  0.7652076516145243  0.3638022269151548
  0.8870525745557458  0.8656955376785405  0.1084038638262896
  0.2165510128314381  0.1856018046592780  0.3331702191746970
  0.1004562534114299  0.1123162588886970  0.0860545672321678
  0.8743822668972996  0.2014459229483450  0.8348144149101699
  0.7767001203551587  0.0926404366049596  0.5957679407298784
  0.5395877239307652  0.2364248482998121  0.3274395225256441
  0.4481777637761510  0.0919612644656524  0.1033559676951370
  0.2210789551628736  0.2131283158203487  0.8338956413582892
  0.0992187293773554  0.1168310755588138  0.5981549002938067
  0.9113720062629724  0.1891807203148943  0.3323271322115815
  0.7637137830200516  0.1188489239475956  0.0896056153153140
  0.5602519559609220  0.2235793479841348  0.8391295812049435
  0.4481553963229459  0.0959716659025105  0.6104082068938084
  0.2350356607496593  0.5536390149706065  0.3341384972041794
  0.1153202455620601  0.4261333461116976  0.1182311116610251
  0.8826695217712768  0.5554619274438792  0.8348190923727898
  0.7644480572175141  0.4159000451037045  0.6008751216368182
  0.5309629436555880  0.5483673182774638  0.3346936350153200
  0.2355616046100977  0.5439755540457156  0.8328287342292171
  0.1378522563034394  0.4166657569894170  0.5927486816771435
  0.8932604421817061  0.5296599865372684  0.3618030213200072
  0.7750942063406114  0.4279719377024875  0.1140643814610627
  0.5393323413139299  0.5421350821078406  0.8446195284138796
  0.4449469287084327  0.4284452276508190  0.5888602359012864
  0.2196797629585987  0.8714728454878653  0.3719405212003366
  0.1265556504872904  0.7355732028473270  0.0744922962465040
  0.8849880793958604  0.8782345187019232  0.8524489036103944
  0.7672677050108661  0.7844451803315593  0.6207509882062467
  0.5426422863342850  0.8609050219917336  0.3951401846553608
  0.4544046483156947  0.7546669819511465  0.1115591189841396
  0.2287439844285686  0.8561066307915155  0.8443948108891135
  0.0967149676761849  0.7485455521441793  0.5905187056722667
  0.9130353649435037  0.8638174135046199  0.3265179771122035
  0.7685215075900800  0.7461942842179425  0.1357774132893041
  0.5657206614494257  0.8497688314825993  0.8809734634363124
  0.4653061568157639  0.7464284433470993  0.6242868579499543
  0.4399827150874245  0.4291096563947079  0.0817178461202701
 
  0.00000000E+00  0.00000000E+00  0.00000000E+00
  0.00000000E+00  0.00000000E+00  0.00000000E+00
  0.00000000E+00  0.00000000E+00  0.00000000E+00
  0.00000000E+00  0.00000000E+00  0.00000000E+00
  0.00000000E+00  0.00000000E+00  0.00000000E+00
  0.00000000E+00  0.00000000E+00  0.00000000E+00
  0.00000000E+00  0.00000000E+00  0.00000000E+00
  0.00000000E+00  0.00000000E+00  0.00000000E+00
  0.00000000E+00  0.00000000E+00  0.00000000E+00
  0.00000000E+00  0.00000000E+00  0.00000000E+00
  0.00000000E+00  0.00000000E+00  0.00000000E+00
  0.00000000E+00  0.00000000E+00  0.00000000E+00
  0.00000000E+00  0.00000000E+00  0.00000000E+00
  0.00000000E+00  0.00000000E+00  0.00000000E+00
  0.00000000E+00  0.00000000E+00  0.00000000E+00
  0.00000000E+00  0.00000000E+00  0.00000000E+00
  0.00000000E+00  0.00000000E+00  0.00000000E+00
  0.00000000E+00  0.00000000E+00  0.00000000E+00
  0.00000000E+00  0.00000000E+00  0.00000000E+00
  0.00000000E+00  0.00000000E+00  0.00000000E+00
  0.00000000E+00  0.00000000E+00  0.00000000E+00
  0.00000000E+00  0.00000000E+00  0.00000000E+00
  0.00000000E+00  0.00000000E+00  0.00000000E+00
  0.00000000E+00  0.00000000E+00  0.00000000E+00
  0.00000000E+00  0.00000000E+00  0.00000000E+00
  0.00000000E+00  0.00000000E+00  0.00000000E+00
  0.00000000E+00  0.00000000E+00  0.00000000E+00
  0.00000000E+00  0.00000000E+00  0.00000000E+00
  0.00000000E+00  0.00000000E+00  0.00000000E+00
  0.00000000E+00  0.00000000E+00  0.00000000E+00
  0.00000000E+00  0.00000000E+00  0.00000000E+00
  0.00000000E+00  0.00000000E+00  0.00000000E+00
  0.00000000E+00  0.00000000E+00  0.00000000E+00
  0.00000000E+00  0.00000000E+00  0.00000000E+00
  0.00000000E+00  0.00000000E+00  0.00000000E+00
  0.00000000E+00  0.00000000E+00  0.00000000E+00
  0.00000000E+00  0.00000000E+00  0.00000000E+00
  0.00000000E+00  0.00000000E+00  0.00000000E+00
  0.00000000E+00  0.00000000E+00  0.00000000E+00
  0.00000000E+00  0.00000000E+00  0.00000000E+00
  0.00000000E+00  0.00000000E+00  0.00000000E+00
  0.00000000E+00  0.00000000E+00  0.00000000E+00
  0.00000000E+00  0.00000000E+00  0.00000000E+00
  0.00000000E+00  0.00000000E+00  0.00000000E+00
  0.00000000E+00  0.00000000E+00  0.00000000E+00
  0.00000000E+00  0.00000000E+00  0.00000000E+00
  0.00000000E+00  0.00000000E+00  0.00000000E+00
  0.00000000E+00  0.00000000E+00  0.00000000E+00
  0.00000000E+00  0.00000000E+00  0.00000000E+00
  0.00000000E+00  0.00000000E+00  0.00000000E+00
  0.00000000E+00  0.00000000E+00  0.00000000E+00
  0.00000000E+00  0.00000000E+00  0.00000000E+00
  0.00000000E+00  0.00000000E+00  0.00000000E+00
  0.00000000E+00  0.00000000E+00  0.00000000E+00
  0.00000000E+00  0.00000000E+00  0.00000000E+00
  0.00000000E+00  0.00000000E+00  0.00000000E+00
  0.00000000E+00  0.00000000E+00  0.00000000E+00
  0.00000000E+00  0.00000000E+00  0.00000000E+00
  0.00000000E+00  0.00000000E+00  0.00000000E+00
  0.00000000E+00  0.00000000E+00  0.00000000E+00
  0.00000000E+00  0.00000000E+00  0.00000000E+00
  0.00000000E+00  0.00000000E+00  0.00000000E+00
  0.00000000E+00  0.00000000E+00  0.00000000E+00
  0.00000000E+00  0.00000000E+00  0.00000000E+00
  0.00000000E+00  0.00000000E+00  0.00000000E+00
  0.00000000E+00  0.00000000E+00  0.00000000E+00
  0.00000000E+00  0.00000000E+00  0.00000000E+00
  0.00000000E+00  0.00000000E+00  0.00000000E+00
  0.00000000E+00  0.00000000E+00  0.00000000E+00
  0.00000000E+00  0.00000000E+00  0.00000000E+00
  0.00000000E+00  0.00000000E+00  0.00000000E+00
  0.00000000E+00  0.00000000E+00  0.00000000E+00
