Al   Sc   N    O                        
   1.00000000000000     
   -10.0936396075261268    0.0206511684301917   -0.0108443803412320
    -5.0468948697969136    8.7904965505056865   -0.0086407650469693
     0.0679367621129641   -0.0139835623562707   -9.7096656951701625
   Al   Sc   N    O 
    23    13    35     1
Direct
  0.1089559440929406  0.0921230695470143  0.3075632130109440
  0.2215961634482753  0.2087294017863286  0.0704198347899450
  0.7765964493349244  0.0978470449566373  0.8030490298158242
  0.8946852838358481  0.2054986185186536  0.5625894727824416
  0.5474620078466330  0.2193458374027060  0.1310184652814925
  0.2231465199463614  0.2019875960264415  0.5630715943792026
  0.8773757005856737  0.2089950713674398  0.0625739985090448
  0.5521866929059414  0.2078633271065371  0.6017701917257980
  0.2261287095783686  0.5401199775685015  0.1212653762007392
  0.4328624821366276  0.4419397821688946  0.3777367891049934
  0.5506569279407358  0.5397176258610017  0.0585558139553157
  0.2195229595863495  0.5444987193416608  0.6114381569091165
  0.8848862719748425  0.5424877838808868  0.0538341926689938
  0.4467571031395678  0.4367076845926405  0.8017035165449400
  0.5579640006718165  0.5428705008774060  0.5606832932941757
  0.1126055580971723  0.7610091027371411  0.3642876635492982
  0.7712569017839783  0.7668678897231871  0.8110357539785440
  0.8909535439658995  0.8708513755778782  0.6115314067009905
  0.4427984333372876  0.7548524386762239  0.3129929575880297
  0.5622374043225093  0.8566676959671042  0.0621652362781262
  0.1202815792021354  0.7543848762494605  0.8614601693325028
  0.4502400025606477  0.7531870457493284  0.8134536872401128
  0.5538404770174168  0.8694428791439321  0.5655974985865981
  0.4415637617873927  0.0867525312858248  0.3337055650241254
  0.1094961554546146  0.0946038401275331  0.8338893320327401
  0.7797021082735256  0.0941551103068718  0.3440083747947540
  0.4573815582694536  0.0900971567879338  0.8368755355288897
  0.1169733378423246  0.4253452308303807  0.3366009925175533
  0.7670747219448586  0.4245095963146497  0.8294529357980167
  0.8893465697923446  0.5347956698333007  0.5892219769494105
  0.1232070381221533  0.4315934553630925  0.8394051482373044
  0.7722541211342175  0.4253672244460134  0.3153360269510088
  0.2277455800418124  0.8665693579580491  0.0850175873067798
  0.2257900663827357  0.8735960062730044  0.5823551969192806
  0.7770880971584759  0.7565582268943061  0.3285161619079204
  0.8833679450428704  0.8771508666269412  0.0850287553013160
  0.2119544735253100  0.1916135346217729  0.3638950539165435
  0.0973650325596012  0.1136915087113124  0.1055503277356138
  0.8776136724816297  0.1918511840571355  0.8692107604384844
  0.7829582984274808  0.0911193803770516  0.5925878471592085
  0.5324786948570051  0.2360458926799325  0.3345716884817378
  0.4508963291689909  0.0911770734326254  0.0992823902480353
  0.2297918241564503  0.2038470155074990  0.8765546507312862
  0.1035385914034563  0.1134906609217907  0.6158642598721187
  0.9091797561363961  0.1965738337563039  0.3685229199631763
  0.7589594570068101  0.1216497181048339  0.1147463945553611
  0.5624280762449558  0.2232422702892549  0.8045643964199414
  0.4449930369631758  0.0905122245379104  0.5948747261408798
  0.2319278052521057  0.5539143734039769  0.3166930423521919
  0.1124347542629494  0.4312545955045550  0.0941499931113583
  0.8820274840794937  0.5550103354094134  0.8474753718808614
  0.7650258885717562  0.4141552102269728  0.6064997063667477
  0.5362322768337648  0.5501780021367750  0.3655393591353970
  0.2349217866906841  0.5522239804506484  0.8062901661981243
  0.1355749982776047  0.4153904044615402  0.5938484252709699
  0.8892553638971421  0.5314978482121901  0.3733491972183245
  0.7740776267069336  0.4297658081275344  0.0866371536203587
  0.5327216055498525  0.5487172899348209  0.8660046698262320
  0.4413595409277349  0.4347401730046414  0.5842591948431703
  0.2216757528563491  0.8722530606940424  0.3384688345438249
  0.1225131790392737  0.7370258948873882  0.0559168151046379
  0.8883206673258925  0.8754805053304224  0.8282157229390350
  0.7660563103714040  0.7813407874176477  0.6078096822973862
  0.5438168450141205  0.8558338726821120  0.3720686462570271
  0.4647964974698908  0.7446687697944299  0.1166889187596283
  0.2340495427612694  0.8565198150830327  0.8415148660571816
  0.1006021872037266  0.7539203728442914  0.5645582528310484
  0.9087209235758635  0.8616119897419665  0.3143681222110430
  0.7715393633614624  0.7481470224166031  0.1049357594262190
  0.5641523679243505  0.8505179802720164  0.8660619350716274
  0.4674003110709393  0.7477496707447528  0.6192210788919112
  0.4414903147804807  0.4282054629896663  0.0870852739260499
 
  0.00000000E+00  0.00000000E+00  0.00000000E+00
  0.00000000E+00  0.00000000E+00  0.00000000E+00
  0.00000000E+00  0.00000000E+00  0.00000000E+00
  0.00000000E+00  0.00000000E+00  0.00000000E+00
  0.00000000E+00  0.00000000E+00  0.00000000E+00
  0.00000000E+00  0.00000000E+00  0.00000000E+00
  0.00000000E+00  0.00000000E+00  0.00000000E+00
  0.00000000E+00  0.00000000E+00  0.00000000E+00
  0.00000000E+00  0.00000000E+00  0.00000000E+00
  0.00000000E+00  0.00000000E+00  0.00000000E+00
  0.00000000E+00  0.00000000E+00  0.00000000E+00
  0.00000000E+00  0.00000000E+00  0.00000000E+00
  0.00000000E+00  0.00000000E+00  0.00000000E+00
  0.00000000E+00  0.00000000E+00  0.00000000E+00
  0.00000000E+00  0.00000000E+00  0.00000000E+00
  0.00000000E+00  0.00000000E+00  0.00000000E+00
  0.00000000E+00  0.00000000E+00  0.00000000E+00
  0.00000000E+00  0.00000000E+00  0.00000000E+00
  0.00000000E+00  0.00000000E+00  0.00000000E+00
  0.00000000E+00  0.00000000E+00  0.00000000E+00
  0.00000000E+00  0.00000000E+00  0.00000000E+00
  0.00000000E+00  0.00000000E+00  0.00000000E+00
  0.00000000E+00  0.00000000E+00  0.00000000E+00
  0.00000000E+00  0.00000000E+00  0.00000000E+00
  0.00000000E+00  0.00000000E+00  0.00000000E+00
  0.00000000E+00  0.00000000E+00  0.00000000E+00
  0.00000000E+00  0.00000000E+00  0.00000000E+00
  0.00000000E+00  0.00000000E+00  0.00000000E+00
  0.00000000E+00  0.00000000E+00  0.00000000E+00
  0.00000000E+00  0.00000000E+00  0.00000000E+00
  0.00000000E+00  0.00000000E+00  0.00000000E+00
  0.00000000E+00  0.00000000E+00  0.00000000E+00
  0.00000000E+00  0.00000000E+00  0.00000000E+00
  0.00000000E+00  0.00000000E+00  0.00000000E+00
  0.00000000E+00  0.00000000E+00  0.00000000E+00
  0.00000000E+00  0.00000000E+00  0.00000000E+00
  0.00000000E+00  0.00000000E+00  0.00000000E+00
  0.00000000E+00  0.00000000E+00  0.00000000E+00
  0.00000000E+00  0.00000000E+00  0.00000000E+00
  0.00000000E+00  0.00000000E+00  0.00000000E+00
  0.00000000E+00  0.00000000E+00  0.00000000E+00
  0.00000000E+00  0.00000000E+00  0.00000000E+00
  0.00000000E+00  0.00000000E+00  0.00000000E+00
  0.00000000E+00  0.00000000E+00  0.00000000E+00
  0.00000000E+00  0.00000000E+00  0.00000000E+00
  0.00000000E+00  0.00000000E+00  0.00000000E+00
  0.00000000E+00  0.00000000E+00  0.00000000E+00
  0.00000000E+00  0.00000000E+00  0.00000000E+00
  0.00000000E+00  0.00000000E+00  0.00000000E+00
  0.00000000E+00  0.00000000E+00  0.00000000E+00
  0.00000000E+00  0.00000000E+00  0.00000000E+00
  0.00000000E+00  0.00000000E+00  0.00000000E+00
  0.00000000E+00  0.00000000E+00  0.00000000E+00
  0.00000000E+00  0.00000000E+00  0.00000000E+00
  0.00000000E+00  0.00000000E+00  0.00000000E+00
  0.00000000E+00  0.00000000E+00  0.00000000E+00
  0.00000000E+00  0.00000000E+00  0.00000000E+00
  0.00000000E+00  0.00000000E+00  0.00000000E+00
  0.00000000E+00  0.00000000E+00  0.00000000E+00
  0.00000000E+00  0.00000000E+00  0.00000000E+00
  0.00000000E+00  0.00000000E+00  0.00000000E+00
  0.00000000E+00  0.00000000E+00  0.00000000E+00
  0.00000000E+00  0.00000000E+00  0.00000000E+00
  0.00000000E+00  0.00000000E+00  0.00000000E+00
  0.00000000E+00  0.00000000E+00  0.00000000E+00
  0.00000000E+00  0.00000000E+00  0.00000000E+00
  0.00000000E+00  0.00000000E+00  0.00000000E+00
  0.00000000E+00  0.00000000E+00  0.00000000E+00
  0.00000000E+00  0.00000000E+00  0.00000000E+00
  0.00000000E+00  0.00000000E+00  0.00000000E+00
  0.00000000E+00  0.00000000E+00  0.00000000E+00
  0.00000000E+00  0.00000000E+00  0.00000000E+00
