Al   Sc   N    O                        
   1.00000000000000     
    -9.9762742280855097    0.0159939926490253   -0.0142951836199167
    -4.9850050708052267    8.6691080981678628   -0.0106580929320221
     0.0111214871337829   -0.0222957778806221   -9.9838184340655012
   Al   Sc   N    O 
    23    13    35     1
Direct
  0.1107653605492516  0.0930425479845383  0.3079977553243012
  0.2211047011067109  0.2077416714663514  0.0632745337138516
  0.7747262297339148  0.0952834135774125  0.8024588645344082
  0.8900932812447806  0.2052774043547885  0.5614052282964863
  0.5594646164954966  0.2073979026123638  0.0574700938390578
  0.2242041986963486  0.2027557686385890  0.5580240695448140
  0.8822443106805267  0.2088721168450220  0.0604831167336428
  0.5471761927954475  0.2162082976506952  0.5645294567652002
  0.2199840960017880  0.5417544140505726  0.0619972983035666
  0.4388211343865791  0.4384845438785092  0.3191790689140603
  0.5574859724049475  0.5454066218539282  0.0595601632016027
  0.2283604893463504  0.5368453867861405  0.5603284013488405
  0.8851125368375961  0.5433350803240273  0.0490433804156112
  0.4421807451237925  0.4364703644929833  0.8113395751917238
  0.5512188061358216  0.5367215622143675  0.5604138688334572
  0.1174466200115987  0.7580487783091883  0.3109900915296251
  0.7720769285380271  0.7692700650486515  0.8059204880600888
  0.8908303802771940  0.8700980044239515  0.5670580759637147
  0.4433506181624836  0.7576081712017952  0.3121175873709916
  0.5621988056583831  0.8604534255789460  0.0573540608100345
  0.1134182966175885  0.7564524786205311  0.8104422435377643
  0.4481058762978662  0.7523264217406975  0.8103257107818749
  0.5530930454789598  0.8705788546529831  0.5640011468215818
  0.4448928239971011  0.0911926514971313  0.3201880384676699
  0.1088207315682368  0.0912879924515337  0.8208705565627454
  0.7771613932852546  0.0975456861212294  0.3328816811175344
  0.4536125440629846  0.0888264851493688  0.8207539014547720
  0.1158770429736720  0.4268691163892981  0.3185282722392202
  0.7663469676703158  0.4247191476797312  0.8246091187143350
  0.8890345129794213  0.5366035475380073  0.5843024983068048
  0.1225211565567932  0.4291101691286983  0.8232562954715803
  0.7737476852114042  0.4262049403285175  0.3147528224286091
  0.2286534488723859  0.8683572749404362  0.0730488322197544
  0.2237988894557574  0.8688123092248219  0.5647392247890934
  0.7767443167258961  0.7582072483131981  0.3236483291578907
  0.8832583050831246  0.8776882186676858  0.0632972496934556
  0.2149853534925015  0.1935746373314728  0.3664414397550573
  0.0985078415712977  0.1145378329895266  0.1129225891418315
  0.8783946698534919  0.1903387970825037  0.8728350031558350
  0.7755089066673406  0.0957210029161857  0.6058721136924774
  0.5374246635902722  0.2342252210965583  0.3747361660798916
  0.4510908423603297  0.0924811508413654  0.0984777601254194
  0.2266766822654986  0.2012955315928693  0.8771540824932984
  0.1039268951694652  0.1099644631786916  0.6109716212428182
  0.9085352875704515  0.1967615283193069  0.3724447939469968
  0.7635127891254712  0.1180232175067601  0.1200022941854826
  0.5619127607324685  0.2227607518804646  0.8671130438333776
  0.4450188488355025  0.0934156521095630  0.6013562347110337
  0.2316651526825027  0.5504830083224022  0.3664100474589134
  0.1108826452416380  0.4307248614515586  0.0959723985355367
  0.8807286342835710  0.5562293236016487  0.8512173132892897
  0.7631922574310011  0.4159293482757676  0.6082674225589741
  0.5347147202894078  0.5494631935105261  0.3681196211922639
  0.2359431782443764  0.5490792812364802  0.8762454184140935
  0.1373690605631452  0.4148960454735757  0.6051303744114591
  0.8902875216529580  0.5331845695555941  0.3757283004461414
  0.7767916724184545  0.4298555266971533  0.0912631047635415
  0.5324717907771941  0.5490244603338823  0.8755658377416609
  0.4416267104453127  0.4325656887188174  0.6204751877548631
  0.2226080902734537  0.8727083036816197  0.3426823144649873
  0.1171348512206905  0.7442216696282387  0.1210175701011877
  0.8841243601378892  0.8763764281744031  0.8503242210230511
  0.7648066327617258  0.7833532550378308  0.6130499168333898
  0.5435021382033156  0.8603515507452926  0.3757998194175798
  0.4661800729101913  0.7488205752836308  0.1222152919077715
  0.2318896712155194  0.8531141358223877  0.8535641692198084
  0.1044110156099833  0.7470831433442910  0.6205442899461957
  0.9109612811811942  0.8604608570805823  0.3727508226257115
  0.7728790535149415  0.7509305866661933  0.1090127633573417
  0.5631510215811701  0.8500431602345486  0.8674242788735285
  0.4639895018972950  0.7472699316471108  0.6204663285495187
  0.4441074636824922  0.4289058764480771  0.1211879707477337
 
  0.00000000E+00  0.00000000E+00  0.00000000E+00
  0.00000000E+00  0.00000000E+00  0.00000000E+00
  0.00000000E+00  0.00000000E+00  0.00000000E+00
  0.00000000E+00  0.00000000E+00  0.00000000E+00
  0.00000000E+00  0.00000000E+00  0.00000000E+00
  0.00000000E+00  0.00000000E+00  0.00000000E+00
  0.00000000E+00  0.00000000E+00  0.00000000E+00
  0.00000000E+00  0.00000000E+00  0.00000000E+00
  0.00000000E+00  0.00000000E+00  0.00000000E+00
  0.00000000E+00  0.00000000E+00  0.00000000E+00
  0.00000000E+00  0.00000000E+00  0.00000000E+00
  0.00000000E+00  0.00000000E+00  0.00000000E+00
  0.00000000E+00  0.00000000E+00  0.00000000E+00
  0.00000000E+00  0.00000000E+00  0.00000000E+00
  0.00000000E+00  0.00000000E+00  0.00000000E+00
  0.00000000E+00  0.00000000E+00  0.00000000E+00
  0.00000000E+00  0.00000000E+00  0.00000000E+00
  0.00000000E+00  0.00000000E+00  0.00000000E+00
  0.00000000E+00  0.00000000E+00  0.00000000E+00
  0.00000000E+00  0.00000000E+00  0.00000000E+00
  0.00000000E+00  0.00000000E+00  0.00000000E+00
  0.00000000E+00  0.00000000E+00  0.00000000E+00
  0.00000000E+00  0.00000000E+00  0.00000000E+00
  0.00000000E+00  0.00000000E+00  0.00000000E+00
  0.00000000E+00  0.00000000E+00  0.00000000E+00
  0.00000000E+00  0.00000000E+00  0.00000000E+00
  0.00000000E+00  0.00000000E+00  0.00000000E+00
  0.00000000E+00  0.00000000E+00  0.00000000E+00
  0.00000000E+00  0.00000000E+00  0.00000000E+00
  0.00000000E+00  0.00000000E+00  0.00000000E+00
  0.00000000E+00  0.00000000E+00  0.00000000E+00
  0.00000000E+00  0.00000000E+00  0.00000000E+00
  0.00000000E+00  0.00000000E+00  0.00000000E+00
  0.00000000E+00  0.00000000E+00  0.00000000E+00
  0.00000000E+00  0.00000000E+00  0.00000000E+00
  0.00000000E+00  0.00000000E+00  0.00000000E+00
  0.00000000E+00  0.00000000E+00  0.00000000E+00
  0.00000000E+00  0.00000000E+00  0.00000000E+00
  0.00000000E+00  0.00000000E+00  0.00000000E+00
  0.00000000E+00  0.00000000E+00  0.00000000E+00
  0.00000000E+00  0.00000000E+00  0.00000000E+00
  0.00000000E+00  0.00000000E+00  0.00000000E+00
  0.00000000E+00  0.00000000E+00  0.00000000E+00
  0.00000000E+00  0.00000000E+00  0.00000000E+00
  0.00000000E+00  0.00000000E+00  0.00000000E+00
  0.00000000E+00  0.00000000E+00  0.00000000E+00
  0.00000000E+00  0.00000000E+00  0.00000000E+00
  0.00000000E+00  0.00000000E+00  0.00000000E+00
  0.00000000E+00  0.00000000E+00  0.00000000E+00
  0.00000000E+00  0.00000000E+00  0.00000000E+00
  0.00000000E+00  0.00000000E+00  0.00000000E+00
  0.00000000E+00  0.00000000E+00  0.00000000E+00
  0.00000000E+00  0.00000000E+00  0.00000000E+00
  0.00000000E+00  0.00000000E+00  0.00000000E+00
  0.00000000E+00  0.00000000E+00  0.00000000E+00
  0.00000000E+00  0.00000000E+00  0.00000000E+00
  0.00000000E+00  0.00000000E+00  0.00000000E+00
  0.00000000E+00  0.00000000E+00  0.00000000E+00
  0.00000000E+00  0.00000000E+00  0.00000000E+00
  0.00000000E+00  0.00000000E+00  0.00000000E+00
  0.00000000E+00  0.00000000E+00  0.00000000E+00
  0.00000000E+00  0.00000000E+00  0.00000000E+00
  0.00000000E+00  0.00000000E+00  0.00000000E+00
  0.00000000E+00  0.00000000E+00  0.00000000E+00
  0.00000000E+00  0.00000000E+00  0.00000000E+00
  0.00000000E+00  0.00000000E+00  0.00000000E+00
  0.00000000E+00  0.00000000E+00  0.00000000E+00
  0.00000000E+00  0.00000000E+00  0.00000000E+00
  0.00000000E+00  0.00000000E+00  0.00000000E+00
  0.00000000E+00  0.00000000E+00  0.00000000E+00
  0.00000000E+00  0.00000000E+00  0.00000000E+00
  0.00000000E+00  0.00000000E+00  0.00000000E+00
