Al   Sc   N    O                        
   1.00000000000000     
    -9.9614603989076826    0.0158775632544961   -0.0143814537018838
    -4.9826751037013457    8.6563536262623835   -0.0107085261291484
     0.0009262991055561   -0.0106383908214542  -10.0197467182723692
   Al   Sc   N    O 
    23    13    35     1
Direct
  0.1105714066021903  0.0933449654888321  0.3075758245417575
  0.2209285678323596  0.2081130452716593  0.0627171235981834
  0.7747243616170110  0.0952097791172122  0.8027906759114884
  0.8897703691882839  0.2053744274918472  0.5613711664410559
  0.5590921675835006  0.2072683780984335  0.0573874594311476
  0.2239643494467458  0.2027803696341124  0.5571148388284897
  0.8822292656967932  0.2088046582663665  0.0600664078920801
  0.5470945151632947  0.2161295065331643  0.5643059729822895
  0.2201587513723879  0.5411308972269779  0.0600660356959182
  0.4383956410716365  0.4389354160697394  0.3197318136365439
  0.5574234698348874  0.5455748608600217  0.0593540074585164
  0.2283798721878298  0.5372895170579781  0.5600350546994051
  0.8863778955661630  0.5427518864538143  0.0485474306892968
  0.4423852970446234  0.4363605399402957  0.8107735566941940
  0.5512825568449955  0.5367071412673283  0.5602855657596493
  0.1177286150752153  0.7576111184569072  0.3124418563118638
  0.7725267262962063  0.7688437769405638  0.8061253141745226
  0.8902715450689769  0.8704905520006747  0.5670636989248337
  0.4435047648740209  0.7577514109459074  0.3120747319231683
  0.5622133653601082  0.8606151579732852  0.0569207674926275
  0.1132146087909263  0.7567681314120236  0.8094329457601503
  0.4477742790785157  0.7523662134654430  0.8104510231625071
  0.5531054387936436  0.8706670783217234  0.5640962584155389
  0.4447596556211195  0.0912095909803838  0.3195356174178841
  0.1090457687579445  0.0911459493488778  0.8206705013282729
  0.7770426303432956  0.0976395570565529  0.3322824036183079
  0.4535858633948990  0.0887551952992212  0.8201593274336574
  0.1164709569653226  0.4275512453992789  0.3184095081712215
  0.7665653679206272  0.4249585153036364  0.8243811280344246
  0.8883592702249601  0.5370021043840580  0.5826651853909652
  0.1228607252877154  0.4289696035763697  0.8199979848758900
  0.7739725050332638  0.4261757236522001  0.3135030150043434
  0.2284239966483028  0.8676998479814912  0.0735693983522125
  0.2237248988945097  0.8692426427957116  0.5640790910098872
  0.7766246580094958  0.7584929121781556  0.3223257187322091
  0.8845571679337993  0.8769007129058721  0.0631772100888170
  0.2146842015092005  0.1939571120894712  0.3663626729444189
  0.0985210949373254  0.1143667804989406  0.1131860460082805
  0.8784108602466603  0.1903382147082766  0.8731863169660201
  0.7752134362786833  0.0958639529087506  0.6067124763475036
  0.5371683371286480  0.2342085747364422  0.3750714182842927
  0.4509045039868766  0.0922599153771699  0.0986503669765497
  0.2263850879177127  0.2019054981334349  0.8771877707419762
  0.1037910813584446  0.1101413629218015  0.6113565441463109
  0.9083160988389665  0.1968907210635180  0.3729958603285723
  0.7635353199769455  0.1176760392048948  0.1201088328108852
  0.5616326710820445  0.2227752165698078  0.8676455953533164
  0.4446311790172643  0.0935783649841468  0.6015956322359273
  0.2319984492009581  0.5509561090972994  0.3697137709378282
  0.1116098760459820  0.4304405824724782  0.0968229795048288
  0.8816650943169861  0.5557516234132791  0.8516844838003976
  0.7631916374522092  0.4160256283507238  0.6088524696876689
  0.5350628923871668  0.5494316301498259  0.3684704833710484
  0.2355576558044490  0.5491835691179929  0.8751415488862548
  0.1368485310622205  0.4152088159314502  0.6035766211109888
  0.8902404256254286  0.5333895118583882  0.3749715897487320
  0.7769559637925667  0.4298270608676447  0.0910891762752755
  0.5323252827294382  0.5488844970393814  0.8760657961038376
  0.4417199322269383  0.4324112712158978  0.6206674378957828
  0.2225647211705279  0.8729390716898493  0.3430456465894522
  0.1182646295605068  0.7420740427755490  0.1232644577069806
  0.8845666657149707  0.8760458921617840  0.8509287440784448
  0.7647080924487639  0.7833889630245849  0.6140492306168071
  0.5436368580468098  0.8603671409846925  0.3764696766441773
  0.4663140107158128  0.7488858630413517  0.1227511505421859
  0.2315854898383662  0.8529221640109199  0.8548269923330238
  0.1041702255664205  0.7477087313336099  0.6205117169375072
  0.9105581696780405  0.8605574849590951  0.3735831964352201
  0.7733062834176252  0.7508017686224520  0.1085878107362106
  0.5631471481973875  0.8498365274633244  0.8677345809576948
  0.4638046923675461  0.7472974249321069  0.6210758262486209
  0.4427392053532984  0.4291030946780481  0.1219224960956922
 
  0.00000000E+00  0.00000000E+00  0.00000000E+00
  0.00000000E+00  0.00000000E+00  0.00000000E+00
  0.00000000E+00  0.00000000E+00  0.00000000E+00
  0.00000000E+00  0.00000000E+00  0.00000000E+00
  0.00000000E+00  0.00000000E+00  0.00000000E+00
  0.00000000E+00  0.00000000E+00  0.00000000E+00
  0.00000000E+00  0.00000000E+00  0.00000000E+00
  0.00000000E+00  0.00000000E+00  0.00000000E+00
  0.00000000E+00  0.00000000E+00  0.00000000E+00
  0.00000000E+00  0.00000000E+00  0.00000000E+00
  0.00000000E+00  0.00000000E+00  0.00000000E+00
  0.00000000E+00  0.00000000E+00  0.00000000E+00
  0.00000000E+00  0.00000000E+00  0.00000000E+00
  0.00000000E+00  0.00000000E+00  0.00000000E+00
  0.00000000E+00  0.00000000E+00  0.00000000E+00
  0.00000000E+00  0.00000000E+00  0.00000000E+00
  0.00000000E+00  0.00000000E+00  0.00000000E+00
  0.00000000E+00  0.00000000E+00  0.00000000E+00
  0.00000000E+00  0.00000000E+00  0.00000000E+00
  0.00000000E+00  0.00000000E+00  0.00000000E+00
  0.00000000E+00  0.00000000E+00  0.00000000E+00
  0.00000000E+00  0.00000000E+00  0.00000000E+00
  0.00000000E+00  0.00000000E+00  0.00000000E+00
  0.00000000E+00  0.00000000E+00  0.00000000E+00
  0.00000000E+00  0.00000000E+00  0.00000000E+00
  0.00000000E+00  0.00000000E+00  0.00000000E+00
  0.00000000E+00  0.00000000E+00  0.00000000E+00
  0.00000000E+00  0.00000000E+00  0.00000000E+00
  0.00000000E+00  0.00000000E+00  0.00000000E+00
  0.00000000E+00  0.00000000E+00  0.00000000E+00
  0.00000000E+00  0.00000000E+00  0.00000000E+00
  0.00000000E+00  0.00000000E+00  0.00000000E+00
  0.00000000E+00  0.00000000E+00  0.00000000E+00
  0.00000000E+00  0.00000000E+00  0.00000000E+00
  0.00000000E+00  0.00000000E+00  0.00000000E+00
  0.00000000E+00  0.00000000E+00  0.00000000E+00
  0.00000000E+00  0.00000000E+00  0.00000000E+00
  0.00000000E+00  0.00000000E+00  0.00000000E+00
  0.00000000E+00  0.00000000E+00  0.00000000E+00
  0.00000000E+00  0.00000000E+00  0.00000000E+00
  0.00000000E+00  0.00000000E+00  0.00000000E+00
  0.00000000E+00  0.00000000E+00  0.00000000E+00
  0.00000000E+00  0.00000000E+00  0.00000000E+00
  0.00000000E+00  0.00000000E+00  0.00000000E+00
  0.00000000E+00  0.00000000E+00  0.00000000E+00
  0.00000000E+00  0.00000000E+00  0.00000000E+00
  0.00000000E+00  0.00000000E+00  0.00000000E+00
  0.00000000E+00  0.00000000E+00  0.00000000E+00
  0.00000000E+00  0.00000000E+00  0.00000000E+00
  0.00000000E+00  0.00000000E+00  0.00000000E+00
  0.00000000E+00  0.00000000E+00  0.00000000E+00
  0.00000000E+00  0.00000000E+00  0.00000000E+00
  0.00000000E+00  0.00000000E+00  0.00000000E+00
  0.00000000E+00  0.00000000E+00  0.00000000E+00
  0.00000000E+00  0.00000000E+00  0.00000000E+00
  0.00000000E+00  0.00000000E+00  0.00000000E+00
  0.00000000E+00  0.00000000E+00  0.00000000E+00
  0.00000000E+00  0.00000000E+00  0.00000000E+00
  0.00000000E+00  0.00000000E+00  0.00000000E+00
  0.00000000E+00  0.00000000E+00  0.00000000E+00
  0.00000000E+00  0.00000000E+00  0.00000000E+00
  0.00000000E+00  0.00000000E+00  0.00000000E+00
  0.00000000E+00  0.00000000E+00  0.00000000E+00
  0.00000000E+00  0.00000000E+00  0.00000000E+00
  0.00000000E+00  0.00000000E+00  0.00000000E+00
  0.00000000E+00  0.00000000E+00  0.00000000E+00
  0.00000000E+00  0.00000000E+00  0.00000000E+00
  0.00000000E+00  0.00000000E+00  0.00000000E+00
  0.00000000E+00  0.00000000E+00  0.00000000E+00
  0.00000000E+00  0.00000000E+00  0.00000000E+00
  0.00000000E+00  0.00000000E+00  0.00000000E+00
  0.00000000E+00  0.00000000E+00  0.00000000E+00
