Al   Sc   N    O                        
   1.00000000000000     
   -10.1122129723832543    0.0221678147299397   -0.0078281504324475
    -5.0818465540978952    8.7820982324040990   -0.0068316094832760
     0.0698431704438131   -0.0342140563690173   -9.7117579930130624
   Al   Sc   N    O 
    23    13    35     1
Direct
  0.1111439923514368  0.0906874725741531  0.3333266023975412
  0.2214319290795430  0.2070142842547753  0.0927320738553803
  0.7675884909678672  0.1014935807337594  0.8964761514980211
  0.8903745561352494  0.2024582978426963  0.5836583532325221
  0.5457135496026027  0.2121757411432128  0.1420796934849591
  0.2227902378432418  0.2026532159126475  0.5877753998743103
  0.8828475729151961  0.2129346834190216  0.0907618860189601
  0.5597571702993065  0.2122151942516268  0.6420244610110899
  0.2220649728909052  0.5383399844561794  0.1427672427356868
  0.4351639527397566  0.4376080546399166  0.3956448209430548
  0.5621490685551507  0.5504707152823229  0.0903385628317039
  0.2302353457574071  0.5379595578114760  0.6391436811497542
  0.8855730262066430  0.5407885646056485  0.0785799398740679
  0.4417603076073817  0.4337609357319465  0.8858209264891173
  0.5534367075239714  0.5392987940360428  0.5812627459148771
  0.1126515518933431  0.7594117292658851  0.3908460943340799
  0.7694362496963123  0.7669327886223556  0.8369798603288814
  0.8849081364197957  0.8823730782315238  0.6481089081320732
  0.4418962670480582  0.7586770598356622  0.3398328385453127
  0.5603047131234504  0.8611135289514991  0.0854632509079778
  0.1221953084466776  0.7529015839188204  0.8825852495349622
  0.4498451226821771  0.7516405331969835  0.8361780016093121
  0.5545325409916302  0.8702225572658904  0.5918394643409641
  0.4432653239841287  0.0901042146745112  0.3593728654542403
  0.1074207538930807  0.0947903334645659  0.8542940984249441
  0.7775801852029787  0.0930378444560844  0.3672311604058152
  0.4535311033718870  0.0882555491401789  0.8560539133803360
  0.1182491745614058  0.4258339227052161  0.3621066396606167
  0.7640181306956890  0.4256017556046956  0.8460030767111135
  0.8893764857636626  0.5382516924363543  0.6137561296742504
  0.1209724505393766  0.4310725925244512  0.8602213864550592
  0.7738869694958908  0.4273909135650698  0.3476847812073700
  0.2276437001004012  0.8657249776275506  0.1088237372728855
  0.2249539516046468  0.8721328256175127  0.6064526157181902
  0.7775444740950874  0.7594388650803836  0.3545483828761604
  0.8909075571474716  0.8647946562302664  0.1097913382736593
  0.2133280503864086  0.1915348651823194  0.3885122536393979
  0.1001976431111586  0.1115909959782613  0.1306456927839150
  0.8783620248093484  0.1983905883632175  0.8949749593351513
  0.7771325710894885  0.0935638898998263  0.5989894424448394
  0.5352998626075092  0.2370948677845703  0.3345703743588757
  0.4488530463382432  0.0875144137268151  0.1198271225509728
  0.2269660517507859  0.2037883347639280  0.8985819015474945
  0.1009412848294957  0.1137287857065630  0.6359417317645892
  0.9078076469308130  0.1948498725692005  0.3842819456241529
  0.7583902659597328  0.1152437571562217  0.1054245231558966
  0.5613085940149958  0.2238985406950889  0.8418827377694953
  0.4462062646302556  0.0939151644880880  0.6210342838230929
  0.2331890751098555  0.5531555517616624  0.3355410827413294
  0.1103760857173910  0.4299216172467197  0.1175566632820519
  0.8798547676265756  0.5543365480477078  0.8712651564140401
  0.7641720467169648  0.4151631995031480  0.6226198521299864
  0.5348546279226483  0.5509319571269558  0.3818374801772535
  0.2385836158288157  0.5478117788375414  0.8331969529158698
  0.1357876910215197  0.4162612569020112  0.6194403413396330
  0.8910717295851072  0.5350454466849754  0.3990307495002483
  0.7776009887094801  0.4303977667703052  0.1185507654019560
  0.5339334216830949  0.5509191274124987  0.8999874016443243
  0.4438988922413643  0.4280384379096418  0.5939429649553247
  0.2214049806578799  0.8714661056073822  0.3650771540760473
  0.1271921369833251  0.7332727630293832  0.0760922736865624
  0.8854188991923237  0.8787577044476862  0.8578291278845924
  0.7661503327966983  0.7844526387809836  0.6353933657211499
  0.5441680060481886  0.8587259821770274  0.3983445969132333
  0.4628922685853638  0.7530592242800722  0.1440888928724462
  0.2337122435532848  0.8562298877603709  0.8632092249785686
  0.0984840967699370  0.7530683977182377  0.5928207021410827
  0.9117576693016787  0.8612818930824417  0.3300303721439519
  0.7699639588064997  0.7467438333400622  0.1292008477997015
  0.5623319921490904  0.8498847493591271  0.8890744402279651
  0.4683801188180112  0.7448196040768877  0.6417948123721899
  0.4325922553118247  0.4203423184582888  0.0857153627351792
 
  0.00000000E+00  0.00000000E+00  0.00000000E+00
  0.00000000E+00  0.00000000E+00  0.00000000E+00
  0.00000000E+00  0.00000000E+00  0.00000000E+00
  0.00000000E+00  0.00000000E+00  0.00000000E+00
  0.00000000E+00  0.00000000E+00  0.00000000E+00
  0.00000000E+00  0.00000000E+00  0.00000000E+00
  0.00000000E+00  0.00000000E+00  0.00000000E+00
  0.00000000E+00  0.00000000E+00  0.00000000E+00
  0.00000000E+00  0.00000000E+00  0.00000000E+00
  0.00000000E+00  0.00000000E+00  0.00000000E+00
  0.00000000E+00  0.00000000E+00  0.00000000E+00
  0.00000000E+00  0.00000000E+00  0.00000000E+00
  0.00000000E+00  0.00000000E+00  0.00000000E+00
  0.00000000E+00  0.00000000E+00  0.00000000E+00
  0.00000000E+00  0.00000000E+00  0.00000000E+00
  0.00000000E+00  0.00000000E+00  0.00000000E+00
  0.00000000E+00  0.00000000E+00  0.00000000E+00
  0.00000000E+00  0.00000000E+00  0.00000000E+00
  0.00000000E+00  0.00000000E+00  0.00000000E+00
  0.00000000E+00  0.00000000E+00  0.00000000E+00
  0.00000000E+00  0.00000000E+00  0.00000000E+00
  0.00000000E+00  0.00000000E+00  0.00000000E+00
  0.00000000E+00  0.00000000E+00  0.00000000E+00
  0.00000000E+00  0.00000000E+00  0.00000000E+00
  0.00000000E+00  0.00000000E+00  0.00000000E+00
  0.00000000E+00  0.00000000E+00  0.00000000E+00
  0.00000000E+00  0.00000000E+00  0.00000000E+00
  0.00000000E+00  0.00000000E+00  0.00000000E+00
  0.00000000E+00  0.00000000E+00  0.00000000E+00
  0.00000000E+00  0.00000000E+00  0.00000000E+00
  0.00000000E+00  0.00000000E+00  0.00000000E+00
  0.00000000E+00  0.00000000E+00  0.00000000E+00
  0.00000000E+00  0.00000000E+00  0.00000000E+00
  0.00000000E+00  0.00000000E+00  0.00000000E+00
  0.00000000E+00  0.00000000E+00  0.00000000E+00
  0.00000000E+00  0.00000000E+00  0.00000000E+00
  0.00000000E+00  0.00000000E+00  0.00000000E+00
  0.00000000E+00  0.00000000E+00  0.00000000E+00
  0.00000000E+00  0.00000000E+00  0.00000000E+00
  0.00000000E+00  0.00000000E+00  0.00000000E+00
  0.00000000E+00  0.00000000E+00  0.00000000E+00
  0.00000000E+00  0.00000000E+00  0.00000000E+00
  0.00000000E+00  0.00000000E+00  0.00000000E+00
  0.00000000E+00  0.00000000E+00  0.00000000E+00
  0.00000000E+00  0.00000000E+00  0.00000000E+00
  0.00000000E+00  0.00000000E+00  0.00000000E+00
  0.00000000E+00  0.00000000E+00  0.00000000E+00
  0.00000000E+00  0.00000000E+00  0.00000000E+00
  0.00000000E+00  0.00000000E+00  0.00000000E+00
  0.00000000E+00  0.00000000E+00  0.00000000E+00
  0.00000000E+00  0.00000000E+00  0.00000000E+00
  0.00000000E+00  0.00000000E+00  0.00000000E+00
  0.00000000E+00  0.00000000E+00  0.00000000E+00
  0.00000000E+00  0.00000000E+00  0.00000000E+00
  0.00000000E+00  0.00000000E+00  0.00000000E+00
  0.00000000E+00  0.00000000E+00  0.00000000E+00
  0.00000000E+00  0.00000000E+00  0.00000000E+00
  0.00000000E+00  0.00000000E+00  0.00000000E+00
  0.00000000E+00  0.00000000E+00  0.00000000E+00
  0.00000000E+00  0.00000000E+00  0.00000000E+00
  0.00000000E+00  0.00000000E+00  0.00000000E+00
  0.00000000E+00  0.00000000E+00  0.00000000E+00
  0.00000000E+00  0.00000000E+00  0.00000000E+00
  0.00000000E+00  0.00000000E+00  0.00000000E+00
  0.00000000E+00  0.00000000E+00  0.00000000E+00
  0.00000000E+00  0.00000000E+00  0.00000000E+00
  0.00000000E+00  0.00000000E+00  0.00000000E+00
  0.00000000E+00  0.00000000E+00  0.00000000E+00
  0.00000000E+00  0.00000000E+00  0.00000000E+00
  0.00000000E+00  0.00000000E+00  0.00000000E+00
  0.00000000E+00  0.00000000E+00  0.00000000E+00
  0.00000000E+00  0.00000000E+00  0.00000000E+00
