Al   Sc   N    O                        
   1.00000000000000     
   -10.1643936400263328    0.0218069518006796   -0.0072544489793621
    -5.1097430459372228    8.8196801016431081   -0.0064758354294241
     0.0710921176913079   -0.0205682508503015   -9.5607055669856891
   Al   Sc   N    O 
    23    13    35     1
Direct
  0.1133573603979485  0.0891528216891260  0.3310103814037930
  0.2243736178741216  0.2064127485554437  0.0921097251255318
  0.7669804065256756  0.1027941881875805  0.8961468906683692
  0.8846321046689170  0.2026668306637163  0.6188714185314836
  0.5467640668545855  0.2116207833959933  0.1404517587421381
  0.2213541579913212  0.2026573073324442  0.5895083821866152
  0.8844339952657805  0.2111147074907933  0.1107624568117274
  0.5575179727166031  0.2129228948315571  0.6404400030806272
  0.2221134415962922  0.5380358541545931  0.1416091886678288
  0.4352640707211819  0.4372493392506058  0.3940679077295073
  0.5609002407983823  0.5502697635887444  0.0948958409370491
  0.2297979581581586  0.5379330268508369  0.6373439393939435
  0.8862144154370242  0.5416916429086882  0.0809791378881428
  0.4419187325718070  0.4337676412360665  0.8837489001515593
  0.5521677023191529  0.5393723681310689  0.5824324883260417
  0.1124419563544237  0.7595731673224009  0.3901962896460347
  0.7697718939141396  0.7674072302928749  0.8385822611056142
  0.8851010142055458  0.8811614150238398  0.6470240727703640
  0.4418747404688759  0.7590522906823409  0.3414419788940180
  0.5609158643721202  0.8606951962745981  0.0866875372124198
  0.1217957826648828  0.7527858759546930  0.8799489801110241
  0.4495746979161908  0.7513724609366008  0.8371176068871122
  0.5541456129168267  0.8699140984633758  0.5930852628949523
  0.4435229627263766  0.0902568687900072  0.3609431303931032
  0.1090687013908465  0.0943036389178431  0.8626164990756280
  0.7785873511943251  0.0942296522486572  0.3683810340652300
  0.4549147924541685  0.0879473843708283  0.8575136064783564
  0.1182781679020835  0.4252583021176051  0.3632375216512216
  0.7632301146944371  0.4291222191259365  0.8557855430556671
  0.8896450663093347  0.5377102468928925  0.6161499918028710
  0.1216281821622331  0.4317510739653727  0.8614587480573235
  0.7743857049549447  0.4270381823115059  0.3522376412164263
  0.2292793011727170  0.8625157041035862  0.1091414170360778
  0.2233557933516295  0.8732878107117443  0.6088792213270651
  0.7777878311634367  0.7603134375352028  0.3580574476067540
  0.8908647890417072  0.8653334534303312  0.1092952094979296
  0.2133580585437969  0.1907547808997521  0.3861647419954011
  0.1072557576766542  0.1068985344811253  0.1205398337470172
  0.8772849581966966  0.1982489513140138  0.8809400007452126
  0.7771749710668132  0.0941921617353643  0.6007386538792616
  0.5361649620749844  0.2360391420015588  0.3364764433977356
  0.4503752353034685  0.0875441823816416  0.1179490688323597
  0.2287386807565781  0.2047766589377389  0.8939048211089045
  0.0981907744831787  0.1146170563757138  0.6345693870517692
  0.9054540975718055  0.1950966055628598  0.3461878628213952
  0.7582947265838982  0.1151345242642492  0.1022916726452792
  0.5602823702556492  0.2239828745838395  0.8425042977605912
  0.4460096328459215  0.0939444660878479  0.6191311518437885
  0.2325834744422224  0.5528258722511623  0.3376352096600641
  0.1114520388102420  0.4292847082278826  0.1165489512667435
  0.8811814434770042  0.5552419292133521  0.8699150536098941
  0.7630695328709720  0.4160857733938883  0.6216569403450620
  0.5341353451379049  0.5501628846589313  0.3778088587262474
  0.2385480742640027  0.5474081432180071  0.8342671064079425
  0.1357937289445061  0.4163660228839134  0.6174562122070242
  0.8915729742899003  0.5351813715608174  0.3974778483187578
  0.7774821846213555  0.4319584141527386  0.1141461254562586
  0.5321665436823011  0.5513039484952813  0.9001300285166920
  0.4437936660220885  0.4287552724607835  0.5953778821270532
  0.2212700688883871  0.8710631845307404  0.3641407760304176
  0.1262289311438920  0.7333755570273439  0.0769142813187926
  0.8846064459930219  0.8789374895150246  0.8575846345576821
  0.7663409784672126  0.7843652760385638  0.6323750687015846
  0.5441203571505397  0.8590510015730715  0.3962790735554691
  0.4630266979680115  0.7537488547918372  0.1427455632466490
  0.2336222390112681  0.8555416396372806  0.8612328557852109
  0.0985450918981954  0.7534934404529352  0.5952554367523888
  0.9108648055165034  0.8622314548667021  0.3332571696853677
  0.7704696682552310  0.7478608550260759  0.1279835346978260
  0.5624045082475817  0.8493406477467218  0.8866046196918305
  0.4673459495320103  0.7449299090842274  0.6392910589451475
  0.4325466996059362  0.4203287285735655  0.0872322415433686
 
  0.00000000E+00  0.00000000E+00  0.00000000E+00
  0.00000000E+00  0.00000000E+00  0.00000000E+00
  0.00000000E+00  0.00000000E+00  0.00000000E+00
  0.00000000E+00  0.00000000E+00  0.00000000E+00
  0.00000000E+00  0.00000000E+00  0.00000000E+00
  0.00000000E+00  0.00000000E+00  0.00000000E+00
  0.00000000E+00  0.00000000E+00  0.00000000E+00
  0.00000000E+00  0.00000000E+00  0.00000000E+00
  0.00000000E+00  0.00000000E+00  0.00000000E+00
  0.00000000E+00  0.00000000E+00  0.00000000E+00
  0.00000000E+00  0.00000000E+00  0.00000000E+00
  0.00000000E+00  0.00000000E+00  0.00000000E+00
  0.00000000E+00  0.00000000E+00  0.00000000E+00
  0.00000000E+00  0.00000000E+00  0.00000000E+00
  0.00000000E+00  0.00000000E+00  0.00000000E+00
  0.00000000E+00  0.00000000E+00  0.00000000E+00
  0.00000000E+00  0.00000000E+00  0.00000000E+00
  0.00000000E+00  0.00000000E+00  0.00000000E+00
  0.00000000E+00  0.00000000E+00  0.00000000E+00
  0.00000000E+00  0.00000000E+00  0.00000000E+00
  0.00000000E+00  0.00000000E+00  0.00000000E+00
  0.00000000E+00  0.00000000E+00  0.00000000E+00
  0.00000000E+00  0.00000000E+00  0.00000000E+00
  0.00000000E+00  0.00000000E+00  0.00000000E+00
  0.00000000E+00  0.00000000E+00  0.00000000E+00
  0.00000000E+00  0.00000000E+00  0.00000000E+00
  0.00000000E+00  0.00000000E+00  0.00000000E+00
  0.00000000E+00  0.00000000E+00  0.00000000E+00
  0.00000000E+00  0.00000000E+00  0.00000000E+00
  0.00000000E+00  0.00000000E+00  0.00000000E+00
  0.00000000E+00  0.00000000E+00  0.00000000E+00
  0.00000000E+00  0.00000000E+00  0.00000000E+00
  0.00000000E+00  0.00000000E+00  0.00000000E+00
  0.00000000E+00  0.00000000E+00  0.00000000E+00
  0.00000000E+00  0.00000000E+00  0.00000000E+00
  0.00000000E+00  0.00000000E+00  0.00000000E+00
  0.00000000E+00  0.00000000E+00  0.00000000E+00
  0.00000000E+00  0.00000000E+00  0.00000000E+00
  0.00000000E+00  0.00000000E+00  0.00000000E+00
  0.00000000E+00  0.00000000E+00  0.00000000E+00
  0.00000000E+00  0.00000000E+00  0.00000000E+00
  0.00000000E+00  0.00000000E+00  0.00000000E+00
  0.00000000E+00  0.00000000E+00  0.00000000E+00
  0.00000000E+00  0.00000000E+00  0.00000000E+00
  0.00000000E+00  0.00000000E+00  0.00000000E+00
  0.00000000E+00  0.00000000E+00  0.00000000E+00
  0.00000000E+00  0.00000000E+00  0.00000000E+00
  0.00000000E+00  0.00000000E+00  0.00000000E+00
  0.00000000E+00  0.00000000E+00  0.00000000E+00
  0.00000000E+00  0.00000000E+00  0.00000000E+00
  0.00000000E+00  0.00000000E+00  0.00000000E+00
  0.00000000E+00  0.00000000E+00  0.00000000E+00
  0.00000000E+00  0.00000000E+00  0.00000000E+00
  0.00000000E+00  0.00000000E+00  0.00000000E+00
  0.00000000E+00  0.00000000E+00  0.00000000E+00
  0.00000000E+00  0.00000000E+00  0.00000000E+00
  0.00000000E+00  0.00000000E+00  0.00000000E+00
  0.00000000E+00  0.00000000E+00  0.00000000E+00
  0.00000000E+00  0.00000000E+00  0.00000000E+00
  0.00000000E+00  0.00000000E+00  0.00000000E+00
  0.00000000E+00  0.00000000E+00  0.00000000E+00
  0.00000000E+00  0.00000000E+00  0.00000000E+00
  0.00000000E+00  0.00000000E+00  0.00000000E+00
  0.00000000E+00  0.00000000E+00  0.00000000E+00
  0.00000000E+00  0.00000000E+00  0.00000000E+00
  0.00000000E+00  0.00000000E+00  0.00000000E+00
  0.00000000E+00  0.00000000E+00  0.00000000E+00
  0.00000000E+00  0.00000000E+00  0.00000000E+00
  0.00000000E+00  0.00000000E+00  0.00000000E+00
  0.00000000E+00  0.00000000E+00  0.00000000E+00
  0.00000000E+00  0.00000000E+00  0.00000000E+00
  0.00000000E+00  0.00000000E+00  0.00000000E+00
