Al   Sc   N    O                        
   1.00000000000000     
    -9.9957959406059409    0.0229797563207749   -0.0091189787018897
    -5.0051433413465496    8.6989117433790994   -0.0076321011044428
     0.0887014067434431   -0.0494729649329794  -10.0622796295042001
   Al   Sc   N    O 
    23    13    35     1
Direct
  0.1098707297210879  0.0916233702970359  0.3205483710116539
  0.2203041506672605  0.2070132419791619  0.0772008852959587
  0.7682907554824183  0.1010551473377532  0.8874114783704528
  0.8907631952580672  0.2037890903880992  0.5690492584175857
  0.5468785471454964  0.2115260273537629  0.1325127287208048
  0.2232252319108952  0.2041357437219276  0.5724594442651778
  0.8839295598293759  0.2133559941503478  0.0737369962552492
  0.5601502848138509  0.2126650675886239  0.6325242736804313
  0.2231528134005316  0.5376745035320809  0.1320743618125633
  0.4352159272414369  0.4372289989519871  0.3854063439368360
  0.5647163974501481  0.5526038884619027  0.0710856496444521
  0.2305207202621204  0.5386267914100458  0.6293846709195279
  0.8864718830349929  0.5396114723459959  0.0625034007261362
  0.4410831227989078  0.4335757154030659  0.8780983953445656
  0.5541455425394375  0.5396687989897018  0.5683445675519323
  0.1121336872500436  0.7578301260987601  0.3780309543914271
  0.7698707588901499  0.7661557349163957  0.8245858700830695
  0.8865891611386658  0.8812487224451004  0.6400479482919295
  0.4421784463265652  0.7581482662994077  0.3257416819362220
  0.5588934646945276  0.8632019184721926  0.0701896085018276
  0.1222026800917888  0.7532581333434933  0.8760744522878312
  0.4489416885466682  0.7531418170296433  0.8219809335101473
  0.5558010565655209  0.8707696325789200  0.5779743028102970
  0.4420363656508854  0.0900583900581111  0.3413369154451971
  0.1085770331364060  0.0938231096087279  0.8324300743751962
  0.7778124784211258  0.0902920264062672  0.3640088644559611
  0.4526318048241009  0.0883555684589652  0.8366825796385982
  0.1156122882082968  0.4254494403756155  0.3398345505210116
  0.7645311192438911  0.4251792175622739  0.8282856653438770
  0.8879897331506115  0.5401089775571464  0.5947654574237475
  0.1199609768743031  0.4305067960003655  0.8409555574631398
  0.7718034232023783  0.4265161635084525  0.3285356205934420
  0.2286179851239680  0.8684286248424513  0.0914153601244365
  0.2267429932943230  0.8718712428732687  0.5830937864007097
  0.7750888704155727  0.7572467962147513  0.3309112210469181
  0.8910669663641642  0.8664783786591954  0.0998542312619719
  0.2126948332265002  0.1927805897652917  0.3824912824880897
  0.0983112989368209  0.1139416984819022  0.1269101298098292
  0.8815302205756836  0.1987985458897796  0.8860495099935406
  0.7776468185359064  0.0918241876986130  0.5849409327373607
  0.5378921594296955  0.2372569885980056  0.3180375831612565
  0.4466804160413531  0.0872682199726000  0.1130987213362147
  0.2267651988366524  0.2031899427682831  0.8913401052524890
  0.1022310277683829  0.1125231255624755  0.6235699426904091
  0.9070234985222854  0.1957523082340273  0.3784053014221982
  0.7572157768551762  0.1159594160351745  0.0864958508010218
  0.5629494553210748  0.2248870675385817  0.8253884443476522
  0.4456389890837400  0.0940425631136748  0.6128279833214307
  0.2343446523078683  0.5520055070022707  0.3186777488096055
  0.1095821483372106  0.4290283785862741  0.1093389448026585
  0.8794004776885842  0.5543224312674866  0.8658033529830007
  0.7645593595236946  0.4147729830787981  0.6157331863913953
  0.5356489540621823  0.5528779354541626  0.3782403020590550
  0.2392040609752115  0.5500358981686873  0.8174896548180826
  0.1338405513585315  0.4163131679012224  0.6152064731671842
  0.8890004972973529  0.5351345416880022  0.3887008782702281
  0.7773259357470366  0.4299427671044569  0.1092386894710344
  0.5347563122066532  0.5522646356537138  0.8895096600783248
  0.4427932475128671  0.4262590159453197  0.5769464968629237
  0.2215630529953430  0.8718857300292697  0.3555064020471050
  0.1285236439919046  0.7318531094482594  0.0625449161029650
  0.8886604768416362  0.8783622081650364  0.8444769109700161
  0.7650711707367606  0.7842823461327058  0.6324394429534266
  0.5444090455564989  0.8591484718965106  0.3914377469042947
  0.4648098016367541  0.7516795168538692  0.1368321315841854
  0.2349135822117177  0.8573500317509755  0.8605828751253171
  0.0982643038692572  0.7520240943704479  0.5741651581223692
  0.9114690840272530  0.8600390286684316  0.3124731349764076
  0.7694294075691488  0.7463096130166349  0.1168292252483880
  0.5620037815780847  0.8511487534732893  0.8815681037184149
  0.4682642513768585  0.7456116349325441  0.6344230392570296
  0.4320826106346161  0.4183126160749566  0.0701474449641708
 
  0.00000000E+00  0.00000000E+00  0.00000000E+00
  0.00000000E+00  0.00000000E+00  0.00000000E+00
  0.00000000E+00  0.00000000E+00  0.00000000E+00
  0.00000000E+00  0.00000000E+00  0.00000000E+00
  0.00000000E+00  0.00000000E+00  0.00000000E+00
  0.00000000E+00  0.00000000E+00  0.00000000E+00
  0.00000000E+00  0.00000000E+00  0.00000000E+00
  0.00000000E+00  0.00000000E+00  0.00000000E+00
  0.00000000E+00  0.00000000E+00  0.00000000E+00
  0.00000000E+00  0.00000000E+00  0.00000000E+00
  0.00000000E+00  0.00000000E+00  0.00000000E+00
  0.00000000E+00  0.00000000E+00  0.00000000E+00
  0.00000000E+00  0.00000000E+00  0.00000000E+00
  0.00000000E+00  0.00000000E+00  0.00000000E+00
  0.00000000E+00  0.00000000E+00  0.00000000E+00
  0.00000000E+00  0.00000000E+00  0.00000000E+00
  0.00000000E+00  0.00000000E+00  0.00000000E+00
  0.00000000E+00  0.00000000E+00  0.00000000E+00
  0.00000000E+00  0.00000000E+00  0.00000000E+00
  0.00000000E+00  0.00000000E+00  0.00000000E+00
  0.00000000E+00  0.00000000E+00  0.00000000E+00
  0.00000000E+00  0.00000000E+00  0.00000000E+00
  0.00000000E+00  0.00000000E+00  0.00000000E+00
  0.00000000E+00  0.00000000E+00  0.00000000E+00
  0.00000000E+00  0.00000000E+00  0.00000000E+00
  0.00000000E+00  0.00000000E+00  0.00000000E+00
  0.00000000E+00  0.00000000E+00  0.00000000E+00
  0.00000000E+00  0.00000000E+00  0.00000000E+00
  0.00000000E+00  0.00000000E+00  0.00000000E+00
  0.00000000E+00  0.00000000E+00  0.00000000E+00
  0.00000000E+00  0.00000000E+00  0.00000000E+00
  0.00000000E+00  0.00000000E+00  0.00000000E+00
  0.00000000E+00  0.00000000E+00  0.00000000E+00
  0.00000000E+00  0.00000000E+00  0.00000000E+00
  0.00000000E+00  0.00000000E+00  0.00000000E+00
  0.00000000E+00  0.00000000E+00  0.00000000E+00
  0.00000000E+00  0.00000000E+00  0.00000000E+00
  0.00000000E+00  0.00000000E+00  0.00000000E+00
  0.00000000E+00  0.00000000E+00  0.00000000E+00
  0.00000000E+00  0.00000000E+00  0.00000000E+00
  0.00000000E+00  0.00000000E+00  0.00000000E+00
  0.00000000E+00  0.00000000E+00  0.00000000E+00
  0.00000000E+00  0.00000000E+00  0.00000000E+00
  0.00000000E+00  0.00000000E+00  0.00000000E+00
  0.00000000E+00  0.00000000E+00  0.00000000E+00
  0.00000000E+00  0.00000000E+00  0.00000000E+00
  0.00000000E+00  0.00000000E+00  0.00000000E+00
  0.00000000E+00  0.00000000E+00  0.00000000E+00
  0.00000000E+00  0.00000000E+00  0.00000000E+00
  0.00000000E+00  0.00000000E+00  0.00000000E+00
  0.00000000E+00  0.00000000E+00  0.00000000E+00
  0.00000000E+00  0.00000000E+00  0.00000000E+00
  0.00000000E+00  0.00000000E+00  0.00000000E+00
  0.00000000E+00  0.00000000E+00  0.00000000E+00
  0.00000000E+00  0.00000000E+00  0.00000000E+00
  0.00000000E+00  0.00000000E+00  0.00000000E+00
  0.00000000E+00  0.00000000E+00  0.00000000E+00
  0.00000000E+00  0.00000000E+00  0.00000000E+00
  0.00000000E+00  0.00000000E+00  0.00000000E+00
  0.00000000E+00  0.00000000E+00  0.00000000E+00
  0.00000000E+00  0.00000000E+00  0.00000000E+00
  0.00000000E+00  0.00000000E+00  0.00000000E+00
  0.00000000E+00  0.00000000E+00  0.00000000E+00
  0.00000000E+00  0.00000000E+00  0.00000000E+00
  0.00000000E+00  0.00000000E+00  0.00000000E+00
  0.00000000E+00  0.00000000E+00  0.00000000E+00
  0.00000000E+00  0.00000000E+00  0.00000000E+00
  0.00000000E+00  0.00000000E+00  0.00000000E+00
  0.00000000E+00  0.00000000E+00  0.00000000E+00
  0.00000000E+00  0.00000000E+00  0.00000000E+00
  0.00000000E+00  0.00000000E+00  0.00000000E+00
  0.00000000E+00  0.00000000E+00  0.00000000E+00
