Al   Sc   N    O                        
   1.00000000000000     
    -9.9740855266744184    0.0172747159888461   -0.0133462127182784
    -4.9798215046327963    8.6843658072972918   -0.0101033277636326
     0.0328809285654616   -0.0626439331234983  -10.0396521554561939
   Al   Sc   N    O 
    23    13    35     1
Direct
  0.1098413963494309  0.0931057882472786  0.3074721800677906
  0.2205917479207287  0.2074014744427046  0.0644393193320738
  0.7749655171970247  0.0954925462414948  0.8010743689709230
  0.8896806070140215  0.2056689185451788  0.5609929267225198
  0.5591920521048266  0.2089966641551584  0.0555574598448132
  0.2255847069649306  0.2005419164664488  0.5595682505001349
  0.8827305895910982  0.2083991490027159  0.0593110232747946
  0.5492265632608166  0.2127772897352500  0.5636933888709805
  0.2218909830309670  0.5375785224051199  0.1191812810868456
  0.4418454800547664  0.4362808722345761  0.3296361597503434
  0.5559585754668390  0.5435766935723692  0.0582529797185103
  0.2278861677913824  0.5372613894467690  0.6220505553993263
  0.8842134654672407  0.5439744161082487  0.0508206836719012
  0.4492460307307269  0.4326688199804636  0.8088508911743517
  0.5544069282261859  0.5369173298713363  0.5611556594909217
  0.1141900038123893  0.7635894066216622  0.3069723952918295
  0.7714475057421595  0.7702712005015755  0.8052404221708258
  0.8892794668133277  0.8721515108269315  0.5636706079919378
  0.4435677842592511  0.7568783495998375  0.3107500172240449
  0.5622507660767937  0.8591966661286534  0.0564457211268774
  0.1085986834882178  0.7651137804852297  0.8078266609389573
  0.4478724215397492  0.7522987884569332  0.8097438980183966
  0.5533779279237834  0.8706895116304665  0.5636937978433210
  0.4449258094470565  0.0897829198172744  0.3174591584687647
  0.1089319844454764  0.0912565541162778  0.8188196865474993
  0.7768876669108238  0.0977255822477119  0.3296000994434323
  0.4535045436684868  0.0882892003563782  0.8213574208372307
  0.1159630887559899  0.4241671720640241  0.3357687328072529
  0.7673672580602471  0.4248023240418775  0.8262139504759176
  0.8872139001781960  0.5377318265915534  0.5859549268177986
  0.1198341653625761  0.4292136130583799  0.8362780771941729
  0.7734778803193834  0.4257032586561991  0.3118082826225432
  0.2289242673253185  0.8694687939430210  0.0703058232913349
  0.2252852715554354  0.8697976856864500  0.5611119966367539
  0.7760063352297735  0.7575718537741807  0.3221053658808373
  0.8814980675657154  0.8784558646449270  0.0601915910447559
  0.2168554895906922  0.1894810566488019  0.3686925701315786
  0.0979202826008247  0.1150389469413184  0.1144404198659430
  0.8790890662975173  0.1900193400168959  0.8727073415785256
  0.7757288136220666  0.0956949659797246  0.6055147468468220
  0.5381910888322778  0.2310374533478523  0.3752512432585178
  0.4512377692849654  0.0924550426852875  0.0977789570650032
  0.2272231694752804  0.1991140485050309  0.8788837722945004
  0.1037880578909025  0.1096909688372136  0.6105352618698916
  0.9074889828145061  0.1975578285717603  0.3727759412017164
  0.7634148068991280  0.1184495227618640  0.1186030558109437
  0.5629397863137058  0.2216882636037525  0.8657243888134758
  0.4453030801759610  0.0927889104370507  0.6033048530430563
  0.2321234861843777  0.5479592331574992  0.3162709906564203
  0.1101411381840265  0.4298271310428490  0.0954395206376191
  0.8786421433707261  0.5586455087908462  0.8532055246276400
  0.7646997501717010  0.4151243701193224  0.6115379585296523
  0.5356663572772078  0.5499570880725599  0.3706098905945225
  0.2340557723180012  0.5502073995722228  0.8264873895694507
  0.1353348627457862  0.4146163271420278  0.6011788187554501
  0.8865123313374568  0.5341385004128654  0.3775825407502609
  0.7763602216356134  0.4296645901596960  0.0901752400637079
  0.5326353705767062  0.5493290590710274  0.8749688892150544
  0.4490666521126983  0.4283609685036538  0.6152684368184111
  0.2224710796692477  0.8726215055765465  0.3413367649226799
  0.1137602713436934  0.7504345171570961  0.1117808747125295
  0.8828017243674395  0.8781103405564181  0.8487126796519107
  0.7648690026112845  0.7843585686442438  0.6133760102454104
  0.5429468990513655  0.8603454711585670  0.3762224972285466
  0.4667090685760229  0.7470455346492813  0.1221833387552209
  0.2321185830774652  0.8546029628739191  0.8538486388731101
  0.1014018594223884  0.7558249955462841  0.6142897695054330
  0.9093070761112685  0.8611782316828354  0.3702444761902797
  0.7721895198919739  0.7511036501064154  0.1094197525903766
  0.5630877649442638  0.8499711820770344  0.8677415309154455
  0.4649194791587448  0.7471423889543303  0.6211179813070018
  0.4501817618338464  0.4256495351118090  0.1145876747173631
 
  0.00000000E+00  0.00000000E+00  0.00000000E+00
  0.00000000E+00  0.00000000E+00  0.00000000E+00
  0.00000000E+00  0.00000000E+00  0.00000000E+00
  0.00000000E+00  0.00000000E+00  0.00000000E+00
  0.00000000E+00  0.00000000E+00  0.00000000E+00
  0.00000000E+00  0.00000000E+00  0.00000000E+00
  0.00000000E+00  0.00000000E+00  0.00000000E+00
  0.00000000E+00  0.00000000E+00  0.00000000E+00
  0.00000000E+00  0.00000000E+00  0.00000000E+00
  0.00000000E+00  0.00000000E+00  0.00000000E+00
  0.00000000E+00  0.00000000E+00  0.00000000E+00
  0.00000000E+00  0.00000000E+00  0.00000000E+00
  0.00000000E+00  0.00000000E+00  0.00000000E+00
  0.00000000E+00  0.00000000E+00  0.00000000E+00
  0.00000000E+00  0.00000000E+00  0.00000000E+00
  0.00000000E+00  0.00000000E+00  0.00000000E+00
  0.00000000E+00  0.00000000E+00  0.00000000E+00
  0.00000000E+00  0.00000000E+00  0.00000000E+00
  0.00000000E+00  0.00000000E+00  0.00000000E+00
  0.00000000E+00  0.00000000E+00  0.00000000E+00
  0.00000000E+00  0.00000000E+00  0.00000000E+00
  0.00000000E+00  0.00000000E+00  0.00000000E+00
  0.00000000E+00  0.00000000E+00  0.00000000E+00
  0.00000000E+00  0.00000000E+00  0.00000000E+00
  0.00000000E+00  0.00000000E+00  0.00000000E+00
  0.00000000E+00  0.00000000E+00  0.00000000E+00
  0.00000000E+00  0.00000000E+00  0.00000000E+00
  0.00000000E+00  0.00000000E+00  0.00000000E+00
  0.00000000E+00  0.00000000E+00  0.00000000E+00
  0.00000000E+00  0.00000000E+00  0.00000000E+00
  0.00000000E+00  0.00000000E+00  0.00000000E+00
  0.00000000E+00  0.00000000E+00  0.00000000E+00
  0.00000000E+00  0.00000000E+00  0.00000000E+00
  0.00000000E+00  0.00000000E+00  0.00000000E+00
  0.00000000E+00  0.00000000E+00  0.00000000E+00
  0.00000000E+00  0.00000000E+00  0.00000000E+00
  0.00000000E+00  0.00000000E+00  0.00000000E+00
  0.00000000E+00  0.00000000E+00  0.00000000E+00
  0.00000000E+00  0.00000000E+00  0.00000000E+00
  0.00000000E+00  0.00000000E+00  0.00000000E+00
  0.00000000E+00  0.00000000E+00  0.00000000E+00
  0.00000000E+00  0.00000000E+00  0.00000000E+00
  0.00000000E+00  0.00000000E+00  0.00000000E+00
  0.00000000E+00  0.00000000E+00  0.00000000E+00
  0.00000000E+00  0.00000000E+00  0.00000000E+00
  0.00000000E+00  0.00000000E+00  0.00000000E+00
  0.00000000E+00  0.00000000E+00  0.00000000E+00
  0.00000000E+00  0.00000000E+00  0.00000000E+00
  0.00000000E+00  0.00000000E+00  0.00000000E+00
  0.00000000E+00  0.00000000E+00  0.00000000E+00
  0.00000000E+00  0.00000000E+00  0.00000000E+00
  0.00000000E+00  0.00000000E+00  0.00000000E+00
  0.00000000E+00  0.00000000E+00  0.00000000E+00
  0.00000000E+00  0.00000000E+00  0.00000000E+00
  0.00000000E+00  0.00000000E+00  0.00000000E+00
  0.00000000E+00  0.00000000E+00  0.00000000E+00
  0.00000000E+00  0.00000000E+00  0.00000000E+00
  0.00000000E+00  0.00000000E+00  0.00000000E+00
  0.00000000E+00  0.00000000E+00  0.00000000E+00
  0.00000000E+00  0.00000000E+00  0.00000000E+00
  0.00000000E+00  0.00000000E+00  0.00000000E+00
  0.00000000E+00  0.00000000E+00  0.00000000E+00
  0.00000000E+00  0.00000000E+00  0.00000000E+00
  0.00000000E+00  0.00000000E+00  0.00000000E+00
  0.00000000E+00  0.00000000E+00  0.00000000E+00
  0.00000000E+00  0.00000000E+00  0.00000000E+00
  0.00000000E+00  0.00000000E+00  0.00000000E+00
  0.00000000E+00  0.00000000E+00  0.00000000E+00
  0.00000000E+00  0.00000000E+00  0.00000000E+00
  0.00000000E+00  0.00000000E+00  0.00000000E+00
  0.00000000E+00  0.00000000E+00  0.00000000E+00
  0.00000000E+00  0.00000000E+00  0.00000000E+00
