Al   Sc   N    O                        
   1.00000000000000     
    -9.9309861579991434    0.0151789868873212   -0.0148990741936865
    -4.9779372490691021    8.6293991877896499   -0.0110111253119064
    -0.0169643961567437    0.0044319290308632  -10.0990063830314352
   Al   Sc   N    O 
    23    13    35     1
Direct
  0.1101256947835836  0.0941451448150588  0.3008896131222727
  0.2206616267061037  0.2083705699959282  0.0554901089854738
  0.7748481076612634  0.0952653777836403  0.7965309448930711
  0.8889704046046560  0.2057477931670562  0.5546908314139003
  0.5588243015360064  0.2069271367236709  0.0504736965985515
  0.2236982431442556  0.2029305125737935  0.5496234997371729
  0.8826472314081286  0.2085964040847514  0.0528395212639836
  0.5472911232578852  0.2157047303808994  0.5575708196616915
  0.2201862733920947  0.5406794814828189  0.0523795747318871
  0.4386439417420789  0.4391149026813039  0.3137667322879949
  0.5574361220617021  0.5454886644721810  0.0519994581393277
  0.2284125935373780  0.5377209599834458  0.5537473943469848
  0.8876965638158865  0.5421433898628933  0.0416531978052319
  0.4426905103748311  0.4360238897152087  0.8042482554468862
  0.5516080757310746  0.5365738331202934  0.5542439173897264
  0.1175668707248860  0.7576331154964890  0.3064373309398434
  0.7729258207669858  0.7682282953225581  0.7999364644209237
  0.8896281816413207  0.8709532511573315  0.5610500460509869
  0.4440725983852900  0.7576097139674545  0.3054296839747224
  0.5620911343242270  0.8608171700562153  0.0497320460118260
  0.1133098596595516  0.7571424979740016  0.8023756360422567
  0.4471563077725591  0.7525926533853493  0.8040342932793862
  0.5531839846023843  0.8707860342000870  0.5576617929830192
  0.4446371254511590  0.0911886205220256  0.3119361959492934
  0.1095726665269936  0.0905891326160599  0.8126066022771354
  0.7772592472924202  0.0975224507491745  0.3243392126308109
  0.4534595644248043  0.0886593676258656  0.8124579754232499
  0.1170552266041867  0.4282006461832566  0.3112721740790718
  0.7673877574417247  0.4251767167618823  0.8177148167843384
  0.8873407974555363  0.5377201332216899  0.5733883304610714
  0.1229140123258929  0.4289316630174298  0.8104923905597232
  0.7741297811385977  0.4263599311081308  0.3044221307751513
  0.2282776435826221  0.8677137120073937  0.0676678251844933
  0.2236797729748190  0.8695162932558773  0.5552970504689725
  0.7766224487318780  0.7592052587968396  0.3132927445772324
  0.8855286380815670  0.8765491588375909  0.0548951609439854
  0.2144459005019357  0.1944314602798443  0.3607047072078018
  0.0983400639783909  0.1147591979541289  0.1083349012539969
  0.8789925315409022  0.1899123515844394  0.8676195131078899
  0.7748699990188612  0.0961503416852807  0.6019149105240942
  0.5372544856473738  0.2338022200584504  0.3695514242148761
  0.4505749120388245  0.0920400014887122  0.0928655287945048
  0.2258389263893008  0.2022410882291439  0.8713424593606760
  0.1036727375734685  0.1099673832857277  0.6048753207104482
  0.9075343589004135  0.1976177237227148  0.3676892996106318
  0.7637357234843734  0.1172444939412571  0.1138088368769061
  0.5615180123588601  0.2223622080609360  0.8622176762175187
  0.4441293529764465  0.0937706926021562  0.5958539404903220
  0.2323338303803126  0.5514116607342103  0.3654652407521013
  0.1123431409158187  0.4299605272850826  0.0917921976135858
  0.8826365908756202  0.5554803835109112  0.8472100754210103
  0.7634592104453120  0.4161879506882897  0.6042402073563267
  0.5358643833111216  0.5491982719958770  0.3635298573538748
  0.2350722218318779  0.5491013351901799  0.8686938926757080
  0.1358992575480897  0.4157505878148058  0.5963282968150807
  0.8897383318366110  0.5340115804395325  0.3674647789214234
  0.7771981547133535  0.4296651782279355  0.0843233167785868
  0.5324131933723564  0.5486952297026022  0.8701760257691049
  0.4419215003255914  0.4319625851719806  0.6152522211643046
  0.2224940783950800  0.8732649133430428  0.3364993197788451
  0.1186767994262894  0.7408712552886030  0.1187489834629787
  0.8849267029735159  0.8757756893345743  0.8446986016216442
  0.7645020320670071  0.7833931028060377  0.6097164614020087
  0.5440407633886792  0.8602637588048978  0.3712675546356508
  0.4669779353977361  0.7483806607793682  0.1174413788478574
  0.2312838741570360  0.8528075216818962  0.8510830284339050
  0.1043473087727520  0.7483841166593805  0.6149114279103429
  0.9102072428762966  0.8605737886631601  0.3692476688351150
  0.7737461018736624  0.7509861056728937  0.1015626048593390
  0.5628419615564013  0.8497475611005214  0.8621154339281816
  0.4632377428711720  0.7476441421518842  0.6157794226392141
  0.4425741916485748  0.4290329275031723  0.1161360350533016
 
  0.00000000E+00  0.00000000E+00  0.00000000E+00
  0.00000000E+00  0.00000000E+00  0.00000000E+00
  0.00000000E+00  0.00000000E+00  0.00000000E+00
  0.00000000E+00  0.00000000E+00  0.00000000E+00
  0.00000000E+00  0.00000000E+00  0.00000000E+00
  0.00000000E+00  0.00000000E+00  0.00000000E+00
  0.00000000E+00  0.00000000E+00  0.00000000E+00
  0.00000000E+00  0.00000000E+00  0.00000000E+00
  0.00000000E+00  0.00000000E+00  0.00000000E+00
  0.00000000E+00  0.00000000E+00  0.00000000E+00
  0.00000000E+00  0.00000000E+00  0.00000000E+00
  0.00000000E+00  0.00000000E+00  0.00000000E+00
  0.00000000E+00  0.00000000E+00  0.00000000E+00
  0.00000000E+00  0.00000000E+00  0.00000000E+00
  0.00000000E+00  0.00000000E+00  0.00000000E+00
  0.00000000E+00  0.00000000E+00  0.00000000E+00
  0.00000000E+00  0.00000000E+00  0.00000000E+00
  0.00000000E+00  0.00000000E+00  0.00000000E+00
  0.00000000E+00  0.00000000E+00  0.00000000E+00
  0.00000000E+00  0.00000000E+00  0.00000000E+00
  0.00000000E+00  0.00000000E+00  0.00000000E+00
  0.00000000E+00  0.00000000E+00  0.00000000E+00
  0.00000000E+00  0.00000000E+00  0.00000000E+00
  0.00000000E+00  0.00000000E+00  0.00000000E+00
  0.00000000E+00  0.00000000E+00  0.00000000E+00
  0.00000000E+00  0.00000000E+00  0.00000000E+00
  0.00000000E+00  0.00000000E+00  0.00000000E+00
  0.00000000E+00  0.00000000E+00  0.00000000E+00
  0.00000000E+00  0.00000000E+00  0.00000000E+00
  0.00000000E+00  0.00000000E+00  0.00000000E+00
  0.00000000E+00  0.00000000E+00  0.00000000E+00
  0.00000000E+00  0.00000000E+00  0.00000000E+00
  0.00000000E+00  0.00000000E+00  0.00000000E+00
  0.00000000E+00  0.00000000E+00  0.00000000E+00
  0.00000000E+00  0.00000000E+00  0.00000000E+00
  0.00000000E+00  0.00000000E+00  0.00000000E+00
  0.00000000E+00  0.00000000E+00  0.00000000E+00
  0.00000000E+00  0.00000000E+00  0.00000000E+00
  0.00000000E+00  0.00000000E+00  0.00000000E+00
  0.00000000E+00  0.00000000E+00  0.00000000E+00
  0.00000000E+00  0.00000000E+00  0.00000000E+00
  0.00000000E+00  0.00000000E+00  0.00000000E+00
  0.00000000E+00  0.00000000E+00  0.00000000E+00
  0.00000000E+00  0.00000000E+00  0.00000000E+00
  0.00000000E+00  0.00000000E+00  0.00000000E+00
  0.00000000E+00  0.00000000E+00  0.00000000E+00
  0.00000000E+00  0.00000000E+00  0.00000000E+00
  0.00000000E+00  0.00000000E+00  0.00000000E+00
  0.00000000E+00  0.00000000E+00  0.00000000E+00
  0.00000000E+00  0.00000000E+00  0.00000000E+00
  0.00000000E+00  0.00000000E+00  0.00000000E+00
  0.00000000E+00  0.00000000E+00  0.00000000E+00
  0.00000000E+00  0.00000000E+00  0.00000000E+00
  0.00000000E+00  0.00000000E+00  0.00000000E+00
  0.00000000E+00  0.00000000E+00  0.00000000E+00
  0.00000000E+00  0.00000000E+00  0.00000000E+00
  0.00000000E+00  0.00000000E+00  0.00000000E+00
  0.00000000E+00  0.00000000E+00  0.00000000E+00
  0.00000000E+00  0.00000000E+00  0.00000000E+00
  0.00000000E+00  0.00000000E+00  0.00000000E+00
  0.00000000E+00  0.00000000E+00  0.00000000E+00
  0.00000000E+00  0.00000000E+00  0.00000000E+00
  0.00000000E+00  0.00000000E+00  0.00000000E+00
  0.00000000E+00  0.00000000E+00  0.00000000E+00
  0.00000000E+00  0.00000000E+00  0.00000000E+00
  0.00000000E+00  0.00000000E+00  0.00000000E+00
  0.00000000E+00  0.00000000E+00  0.00000000E+00
  0.00000000E+00  0.00000000E+00  0.00000000E+00
  0.00000000E+00  0.00000000E+00  0.00000000E+00
  0.00000000E+00  0.00000000E+00  0.00000000E+00
  0.00000000E+00  0.00000000E+00  0.00000000E+00
  0.00000000E+00  0.00000000E+00  0.00000000E+00
