Al   Sc   N    O                        
   1.00000000000000     
    -9.9983360523228040    0.0225140387426583   -0.0094640590297582
    -5.0074622850239008    8.7005109296524665   -0.0078338338929481
     0.0886635364108082   -0.0491501285827195  -10.0547080465757492
   Al   Sc   N    O 
    23    13    35     1
Direct
  0.1099590519549594  0.0916091249127717  0.3127350980473906
  0.2203720396989155  0.2070428292484934  0.0694507609978317
  0.7682841288406621  0.1010835662465084  0.8795926220796275
  0.8907912910040352  0.2037629818249158  0.5612314775383140
  0.5468674183335409  0.2115607228944540  0.1246596973801957
  0.2232302207066326  0.2041286245198322  0.5646935672074633
  0.8839417244446111  0.2133767017829769  0.0660295321548574
  0.5602039605134692  0.2126755315031019  0.6246295695794757
  0.2231674892051316  0.5377003158913141  0.1242352030674496
  0.4352586551913475  0.4372692487352481  0.3775375171273296
  0.5647207462569028  0.5526096829002611  0.0633881303216342
  0.2305564637631292  0.5386162185678174  0.6215072466725360
  0.8864812060756506  0.5396593629546729  0.0547414611170538
  0.4411264465536320  0.4335962420573196  0.8702148758442831
  0.5541725672134490  0.5396782251204613  0.5605155399815374
  0.1122238405059335  0.7579023184078864  0.3702418277599904
  0.7698822309730531  0.7662121379371740  0.8167528451708890
  0.8865907457079913  0.8813150346171170  0.6321325965264109
  0.4422154316374858  0.7581923046036465  0.3179599006538467
  0.5589623943906048  0.8632008222088174  0.0624502702979086
  0.1222559699517447  0.7532591283248635  0.8681064836851533
  0.4490327115109736  0.7531252959503973  0.8141821422298392
  0.5558358201904099  0.8707799809059580  0.5701564958281793
  0.4421042037691123  0.0900928679404416  0.3336936595822664
  0.1085522500472962  0.0938974322764210  0.8248145638040256
  0.7778711671611092  0.0903937514613631  0.3558778068359132
  0.4526718721679259  0.0883800916915476  0.8289811876527295
  0.1157155595203605  0.4255101355532886  0.3323058170536228
  0.7645362593444247  0.4251846607774326  0.8205448016082784
  0.8880313946664629  0.5401008305721433  0.5871490212038921
  0.1200172796370893  0.4305507629735175  0.8333000214294444
  0.7719014653560379  0.4266018302214931  0.3208740897490259
  0.2286385183379096  0.8683896726146116  0.0836871423793752
  0.2267596925154010  0.8718740513371301  0.5756277082615924
  0.7752346582354406  0.7573320338391056  0.3233482131290941
  0.8911383883237889  0.8664187571676294  0.0919511750800979
  0.2127289048385563  0.1927792565482420  0.3745511546217770
  0.0984047371196723  0.1139024192572862  0.1189011630294701
  0.8814532373370909  0.1988057630667512  0.8781918375092630
  0.7776803288462304  0.0918710340931241  0.5770815626199877
  0.5378491496933151  0.2372836326481007  0.3103092079037637
  0.4467640716079444  0.0873007149274940  0.1051723607551196
  0.2267950144459761  0.2032292533641140  0.8834253670393224
  0.1022235727664267  0.1125844808990166  0.6157750122064414
  0.9070896311815204  0.1957744184196315  0.3704301475393947
  0.7572972624980139  0.1159514765682133  0.0788955324834433
  0.5629507551418413  0.2248748613022329  0.8176505387502786
  0.4456892847519143  0.0940694034866993  0.6048841446358466
  0.2343613696360052  0.5520696557118967  0.3109493053579371
  0.1096239381815636  0.4290817325599079  0.1014272882145946
  0.8794151104545662  0.5543437807953637  0.8577944733972345
  0.7645860597078098  0.4147708498350084  0.6077916437505735
  0.5356712064240696  0.5528677129789941  0.3702443252610266
  0.2392302356367466  0.5499907520810225  0.8097222628251544
  0.1339132068684421  0.4163402016719502  0.6071911852911001
  0.8890822137797798  0.5351863177091332  0.3809173139636712
  0.7773755894672902  0.4299818788056200  0.1013720289907312
  0.5347619318786343  0.5522643688377613  0.8816548293711080
  0.4428583886599426  0.4263206682143661  0.5692097710958706
  0.2216225851153482  0.8719071196925086  0.3476661265151435
  0.1285851296741356  0.7318861495907285  0.0547117413825973
  0.8886185515128702  0.8783938259475832  0.8367161630384672
  0.7651385147962984  0.7843405559895231  0.6244317432323498
  0.5444702251143809  0.8591465635682738  0.3834945845983029
  0.4648011023987166  0.7517520746982385  0.1289088101581797
  0.2349122463490048  0.8573393038555963  0.8524091082290468
  0.0983163393292870  0.7520667698583452  0.5664807387356134
  0.9115793143790398  0.8600785707078558  0.3047118986555759
  0.7694849601855012  0.7463252333974424  0.1090464573458405
  0.5620461992115082  0.8511508608953093  0.8736749360019189
  0.4683803286676707  0.7455965341043438  0.6265034330772679
  0.4321248202149661  0.4183523524503414  0.0623881931956873
 
  0.00000000E+00  0.00000000E+00  0.00000000E+00
  0.00000000E+00  0.00000000E+00  0.00000000E+00
  0.00000000E+00  0.00000000E+00  0.00000000E+00
  0.00000000E+00  0.00000000E+00  0.00000000E+00
  0.00000000E+00  0.00000000E+00  0.00000000E+00
  0.00000000E+00  0.00000000E+00  0.00000000E+00
  0.00000000E+00  0.00000000E+00  0.00000000E+00
  0.00000000E+00  0.00000000E+00  0.00000000E+00
  0.00000000E+00  0.00000000E+00  0.00000000E+00
  0.00000000E+00  0.00000000E+00  0.00000000E+00
  0.00000000E+00  0.00000000E+00  0.00000000E+00
  0.00000000E+00  0.00000000E+00  0.00000000E+00
  0.00000000E+00  0.00000000E+00  0.00000000E+00
  0.00000000E+00  0.00000000E+00  0.00000000E+00
  0.00000000E+00  0.00000000E+00  0.00000000E+00
  0.00000000E+00  0.00000000E+00  0.00000000E+00
  0.00000000E+00  0.00000000E+00  0.00000000E+00
  0.00000000E+00  0.00000000E+00  0.00000000E+00
  0.00000000E+00  0.00000000E+00  0.00000000E+00
  0.00000000E+00  0.00000000E+00  0.00000000E+00
  0.00000000E+00  0.00000000E+00  0.00000000E+00
  0.00000000E+00  0.00000000E+00  0.00000000E+00
  0.00000000E+00  0.00000000E+00  0.00000000E+00
  0.00000000E+00  0.00000000E+00  0.00000000E+00
  0.00000000E+00  0.00000000E+00  0.00000000E+00
  0.00000000E+00  0.00000000E+00  0.00000000E+00
  0.00000000E+00  0.00000000E+00  0.00000000E+00
  0.00000000E+00  0.00000000E+00  0.00000000E+00
  0.00000000E+00  0.00000000E+00  0.00000000E+00
  0.00000000E+00  0.00000000E+00  0.00000000E+00
  0.00000000E+00  0.00000000E+00  0.00000000E+00
  0.00000000E+00  0.00000000E+00  0.00000000E+00
  0.00000000E+00  0.00000000E+00  0.00000000E+00
  0.00000000E+00  0.00000000E+00  0.00000000E+00
  0.00000000E+00  0.00000000E+00  0.00000000E+00
  0.00000000E+00  0.00000000E+00  0.00000000E+00
  0.00000000E+00  0.00000000E+00  0.00000000E+00
  0.00000000E+00  0.00000000E+00  0.00000000E+00
  0.00000000E+00  0.00000000E+00  0.00000000E+00
  0.00000000E+00  0.00000000E+00  0.00000000E+00
  0.00000000E+00  0.00000000E+00  0.00000000E+00
  0.00000000E+00  0.00000000E+00  0.00000000E+00
  0.00000000E+00  0.00000000E+00  0.00000000E+00
  0.00000000E+00  0.00000000E+00  0.00000000E+00
  0.00000000E+00  0.00000000E+00  0.00000000E+00
  0.00000000E+00  0.00000000E+00  0.00000000E+00
  0.00000000E+00  0.00000000E+00  0.00000000E+00
  0.00000000E+00  0.00000000E+00  0.00000000E+00
  0.00000000E+00  0.00000000E+00  0.00000000E+00
  0.00000000E+00  0.00000000E+00  0.00000000E+00
  0.00000000E+00  0.00000000E+00  0.00000000E+00
  0.00000000E+00  0.00000000E+00  0.00000000E+00
  0.00000000E+00  0.00000000E+00  0.00000000E+00
  0.00000000E+00  0.00000000E+00  0.00000000E+00
  0.00000000E+00  0.00000000E+00  0.00000000E+00
  0.00000000E+00  0.00000000E+00  0.00000000E+00
  0.00000000E+00  0.00000000E+00  0.00000000E+00
  0.00000000E+00  0.00000000E+00  0.00000000E+00
  0.00000000E+00  0.00000000E+00  0.00000000E+00
  0.00000000E+00  0.00000000E+00  0.00000000E+00
  0.00000000E+00  0.00000000E+00  0.00000000E+00
  0.00000000E+00  0.00000000E+00  0.00000000E+00
  0.00000000E+00  0.00000000E+00  0.00000000E+00
  0.00000000E+00  0.00000000E+00  0.00000000E+00
  0.00000000E+00  0.00000000E+00  0.00000000E+00
  0.00000000E+00  0.00000000E+00  0.00000000E+00
  0.00000000E+00  0.00000000E+00  0.00000000E+00
  0.00000000E+00  0.00000000E+00  0.00000000E+00
  0.00000000E+00  0.00000000E+00  0.00000000E+00
  0.00000000E+00  0.00000000E+00  0.00000000E+00
  0.00000000E+00  0.00000000E+00  0.00000000E+00
  0.00000000E+00  0.00000000E+00  0.00000000E+00
