Al   Sc   N    O                        
   1.00000000000000     
   -10.1060474683041459    0.0194868744849001   -0.0117070811609032
    -5.0497699787764718    8.8023375714008250   -0.0091450970182325
     0.0704473499746543   -0.0731547708284731   -9.6555125544528035
   Al   Sc   N    O 
    23    13    35     1
Direct
  0.1096973143987370  0.0923848434013834  0.3060835799508865
  0.2216305143085009  0.2078054214731324  0.0705155883716486
  0.7795622042264156  0.0918316960250394  0.7992567191822744
  0.8947394482928317  0.2052189321798608  0.5629035636934816
  0.5487881083199824  0.2181517309791658  0.1304218585068355
  0.2234313604327696  0.2016753610109419  0.5638311835468883
  0.8785666842824043  0.2079942176893326  0.0621848982444604
  0.5526510743332622  0.2082907795405617  0.6036230508885723
  0.2287164472563745  0.5349435290945408  0.1162286083325981
  0.4324109487543382  0.4417679267199546  0.3803385417101950
  0.5526658421333721  0.5400612443428514  0.0591992255232583
  0.2215935968532818  0.5416287204600962  0.6167860356985528
  0.8837688479574126  0.5433906099323025  0.0542659520271513
  0.4474481653219300  0.4346491709562699  0.8102004465466166
  0.5565817085569478  0.5437473867192963  0.5627500918025561
  0.1167522991311998  0.7611263879315544  0.3091087308529126
  0.7729429308950415  0.7704602619517331  0.8075353590175780
  0.8925469445369956  0.8688388329648404  0.5613475260934635
  0.4426657472299382  0.7549394294985703  0.3115581069036466
  0.5633904144895041  0.8565810597687289  0.0616786163441034
  0.1092562681922757  0.7635879379028054  0.8151901242302770
  0.4496814616403455  0.7535042377324288  0.8131160900391379
  0.5532608487897690  0.8699886641320234  0.5665959827746647
  0.4422405586095408  0.0871117287658976  0.3349237096403996
  0.1094775300189852  0.0937484793383732  0.8315003679061945
  0.7780887616292063  0.0980959989238173  0.3433580003632883
  0.4579825849660466  0.0897837347879644  0.8377361114507380
  0.1169071156400108  0.4254315405824798  0.3376799150579330
  0.7677476458412684  0.4234753774049338  0.8289407939071936
  0.8889741826583375  0.5364339779886791  0.5908545050909240
  0.1217710812247930  0.4302978173586212  0.8413847025838663
  0.7717118471721065  0.4256090320508008  0.3180731620162334
  0.2293635592367522  0.8667407156479499  0.0742260376124548
  0.2240442953446475  0.8720509929538096  0.5723228748855078
  0.7752740584689946  0.7557054529777503  0.3290959682086552
  0.8801844860427011  0.8791468328276153  0.0716290143400755
  0.2126851881343512  0.1916983501787755  0.3628112081370958
  0.0979055001437956  0.1131465532671854  0.1042473152825707
  0.8775908597395485  0.1903765067620427  0.8673811262753688
  0.7827544923687242  0.0912126904122488  0.5918741551993136
  0.5330827992925080  0.2364679062853696  0.3351352882179128
  0.4516561448297693  0.0913275936947500  0.0986810173797750
  0.2300266021895467  0.2021212608239296  0.8755533114453300
  0.1043014997767102  0.1118064399384764  0.6133202415100527
  0.9099134817881449  0.1967800375563797  0.3673150937162646
  0.7616874605350361  0.1189989165650118  0.1178503176285943
  0.5644194253752701  0.2214876035092672  0.8071151292334022
  0.4449249204941950  0.0914151958975751  0.5944836577576496
  0.2335126848200773  0.5490947067422027  0.3204424282369089
  0.1113609105703048  0.4307829472919948  0.0934525087358864
  0.8801820626458010  0.5570266951065150  0.8464694384474853
  0.7648636272530709  0.4150092399364382  0.6043788051532033
  0.5346283872799447  0.5507432594835038  0.3655185099038931
  0.2360257593851713  0.5492894246866342  0.8230206815290799
  0.1355166130765681  0.4153812198313034  0.5962503240983423
  0.8889784083021581  0.5318150961704475  0.3732672106696882
  0.7747451308682614  0.4291493250541052  0.0870714420650813
  0.5341505766984085  0.5489870211349981  0.8655451426845744
  0.4407791213785615  0.4353512884502067  0.5882075909529547
  0.2219390623545365  0.8729895290602769  0.3387251837001770
  0.1171741647986693  0.7453825660151239  0.1017987180042823
  0.8829313832665733  0.8780361157481593  0.8482731146388787
  0.7664508998893851  0.7836003634983300  0.6057365979308571
  0.5428678908305500  0.8563103630559468  0.3715985501767136
  0.4657324130893272  0.7450972435453806  0.1152963994749570
  0.2329910898643419  0.8552496089388981  0.8462651766838221
  0.1006125602359873  0.7560088839792272  0.6101389489765197
  0.9096384874916339  0.8600484351063500  0.3579085405527351
  0.7724353623848401  0.7492797473064527  0.1077794175787758
  0.5651154619306737  0.8503167916435430  0.8645561833956847
  0.4648842483946467  0.7495294490156112  0.6183473135827100
  0.4438571716761430  0.4265095757783826  0.0847204414881659
 
  0.00000000E+00  0.00000000E+00  0.00000000E+00
  0.00000000E+00  0.00000000E+00  0.00000000E+00
  0.00000000E+00  0.00000000E+00  0.00000000E+00
  0.00000000E+00  0.00000000E+00  0.00000000E+00
  0.00000000E+00  0.00000000E+00  0.00000000E+00
  0.00000000E+00  0.00000000E+00  0.00000000E+00
  0.00000000E+00  0.00000000E+00  0.00000000E+00
  0.00000000E+00  0.00000000E+00  0.00000000E+00
  0.00000000E+00  0.00000000E+00  0.00000000E+00
  0.00000000E+00  0.00000000E+00  0.00000000E+00
  0.00000000E+00  0.00000000E+00  0.00000000E+00
  0.00000000E+00  0.00000000E+00  0.00000000E+00
  0.00000000E+00  0.00000000E+00  0.00000000E+00
  0.00000000E+00  0.00000000E+00  0.00000000E+00
  0.00000000E+00  0.00000000E+00  0.00000000E+00
  0.00000000E+00  0.00000000E+00  0.00000000E+00
  0.00000000E+00  0.00000000E+00  0.00000000E+00
  0.00000000E+00  0.00000000E+00  0.00000000E+00
  0.00000000E+00  0.00000000E+00  0.00000000E+00
  0.00000000E+00  0.00000000E+00  0.00000000E+00
  0.00000000E+00  0.00000000E+00  0.00000000E+00
  0.00000000E+00  0.00000000E+00  0.00000000E+00
  0.00000000E+00  0.00000000E+00  0.00000000E+00
  0.00000000E+00  0.00000000E+00  0.00000000E+00
  0.00000000E+00  0.00000000E+00  0.00000000E+00
  0.00000000E+00  0.00000000E+00  0.00000000E+00
  0.00000000E+00  0.00000000E+00  0.00000000E+00
  0.00000000E+00  0.00000000E+00  0.00000000E+00
  0.00000000E+00  0.00000000E+00  0.00000000E+00
  0.00000000E+00  0.00000000E+00  0.00000000E+00
  0.00000000E+00  0.00000000E+00  0.00000000E+00
  0.00000000E+00  0.00000000E+00  0.00000000E+00
  0.00000000E+00  0.00000000E+00  0.00000000E+00
  0.00000000E+00  0.00000000E+00  0.00000000E+00
  0.00000000E+00  0.00000000E+00  0.00000000E+00
  0.00000000E+00  0.00000000E+00  0.00000000E+00
  0.00000000E+00  0.00000000E+00  0.00000000E+00
  0.00000000E+00  0.00000000E+00  0.00000000E+00
  0.00000000E+00  0.00000000E+00  0.00000000E+00
  0.00000000E+00  0.00000000E+00  0.00000000E+00
  0.00000000E+00  0.00000000E+00  0.00000000E+00
  0.00000000E+00  0.00000000E+00  0.00000000E+00
  0.00000000E+00  0.00000000E+00  0.00000000E+00
  0.00000000E+00  0.00000000E+00  0.00000000E+00
  0.00000000E+00  0.00000000E+00  0.00000000E+00
  0.00000000E+00  0.00000000E+00  0.00000000E+00
  0.00000000E+00  0.00000000E+00  0.00000000E+00
  0.00000000E+00  0.00000000E+00  0.00000000E+00
  0.00000000E+00  0.00000000E+00  0.00000000E+00
  0.00000000E+00  0.00000000E+00  0.00000000E+00
  0.00000000E+00  0.00000000E+00  0.00000000E+00
  0.00000000E+00  0.00000000E+00  0.00000000E+00
  0.00000000E+00  0.00000000E+00  0.00000000E+00
  0.00000000E+00  0.00000000E+00  0.00000000E+00
  0.00000000E+00  0.00000000E+00  0.00000000E+00
  0.00000000E+00  0.00000000E+00  0.00000000E+00
  0.00000000E+00  0.00000000E+00  0.00000000E+00
  0.00000000E+00  0.00000000E+00  0.00000000E+00
  0.00000000E+00  0.00000000E+00  0.00000000E+00
  0.00000000E+00  0.00000000E+00  0.00000000E+00
  0.00000000E+00  0.00000000E+00  0.00000000E+00
  0.00000000E+00  0.00000000E+00  0.00000000E+00
  0.00000000E+00  0.00000000E+00  0.00000000E+00
  0.00000000E+00  0.00000000E+00  0.00000000E+00
  0.00000000E+00  0.00000000E+00  0.00000000E+00
  0.00000000E+00  0.00000000E+00  0.00000000E+00
  0.00000000E+00  0.00000000E+00  0.00000000E+00
  0.00000000E+00  0.00000000E+00  0.00000000E+00
  0.00000000E+00  0.00000000E+00  0.00000000E+00
  0.00000000E+00  0.00000000E+00  0.00000000E+00
  0.00000000E+00  0.00000000E+00  0.00000000E+00
  0.00000000E+00  0.00000000E+00  0.00000000E+00
