Al   Sc   N    O                        
   1.00000000000000     
    -9.9979786586040209    0.0227993248561448   -0.0088321279753470
    -5.0069574025576742    8.7004142732368894   -0.0074542140775169
     0.0880825859878592   -0.0491294673439062  -10.0557318525865398
   Al   Sc   N    O 
    23    13    35     1
Direct
  0.1098843819603701  0.0915770859313056  0.3254368812678976
  0.2202999795438103  0.2070066833925281  0.0821459698750573
  0.7682251065377415  0.1010437964513073  0.8922872525288597
  0.8907264724110604  0.2037322627285363  0.5739397020864132
  0.5468120334876971  0.2115249528940737  0.1373566268743005
  0.2231697359465841  0.2040946136181105  0.5773783550343481
  0.8838794993433297  0.2133396106306051  0.0787104148049522
  0.5601352378225073  0.2126348139953507  0.6373429348230175
  0.2231123403296635  0.5376602533747246  0.1369348459452411
  0.4351948200370330  0.4372282684829045  0.3902510035257905
  0.5646519688447640  0.5525693267779985  0.0760610892347771
  0.2304863219481490  0.5385846262568705  0.6342108074310460
  0.8864196041350141  0.5396184644104451  0.0674389098771258
  0.4410601664111127  0.4335607739298979  0.8829043255132873
  0.5541095115686900  0.5396419402999584  0.5732263742899946
  0.1121545814938614  0.7578582348748171  0.3829346699071223
  0.7698213198007622  0.7661690396598999  0.8294544516836950
  0.8865335066915137  0.8812701367691744  0.6448498956838904
  0.4421539141322555  0.7581493019517680  0.3306604227903804
  0.5588950385227491  0.8631612765064887  0.0751382935846578
  0.1221908659270525  0.7532231146644861  0.8808291686955556
  0.4489614576616532  0.7530953174932549  0.8268706040362730
  0.5557721981657266  0.8707492777503987  0.5828545910441107
  0.4420357039554119  0.0900543310560167  0.3463584722166217
  0.1084963999919069  0.0938519229158317  0.8374874482929471
  0.7778034667358398  0.0903474076146082  0.3686205134790512
  0.4526013147927799  0.0883429947562604  0.8416724306238379
  0.1156423145372685  0.4254699016774950  0.3449648420538978
  0.7644803376716283  0.4251513586544320  0.8332376855665231
  0.8879622498180169  0.5400694494008889  0.5998143991034439
  0.1199469621481128  0.4305101553115023  0.8459735000935638
  0.7718243991140810  0.4265568802376762  0.3335525964353607
  0.2285792405142644  0.8683606958642898  0.0963745404508956
  0.2266978065484508  0.8718394896001342  0.5882796109005497
  0.7751571243253466  0.7572885646794276  0.3360102297846410
  0.8910713848895995  0.8663926099626451  0.1046601700724707
  0.2126649032063099  0.1927451642869258  0.3872603812993134
  0.0983300154417890  0.1138732977840462  0.1316282928177586
  0.8814022303921973  0.1987691296174248  0.8908927012120671
  0.7776157773498369  0.0918293322603816  0.5897916266782559
  0.5377948392888570  0.2372478095711799  0.3229911705954294
  0.4466949254899077  0.0872623400710282  0.1178799715280832
  0.2267249358172592  0.2031922640258585  0.8961429729542090
  0.1021667684535714  0.1125416465812137  0.6284720273476196
  0.9070190634304041  0.1957394635645571  0.3831584113661606
  0.7572298677882046  0.1159167010488034  0.0915626482420109
  0.5628880557435991  0.2248385096622343  0.8303416257486944
  0.4456204350116408  0.0940330183765781  0.6176021969146248
  0.2343033415573785  0.5520258454319418  0.3236356955127846
  0.1095603053889036  0.4290410529182154  0.1141422687860043
  0.8793536709720371  0.5543087831929796  0.8705254522208037
  0.7645238053593459  0.4147371219037126  0.6205135781528526
  0.5356085473724477  0.5528347294874365  0.3829790328209199
  0.2391611768202750  0.5499636432961026  0.8224110694774822
  0.1338398404571208  0.4163023162466644  0.6199113143483785
  0.8890088482618452  0.5351467058666870  0.3936065049454811
  0.7773040279306471  0.4299422273786746  0.1140748883232874
  0.5347005568390202  0.5522315449154576  0.8943460684192530
  0.4427898284669070  0.4262756473710496  0.5819057771458205
  0.2215566013356636  0.8718708101228714  0.3603702871297969
  0.1285213217022942  0.7318475384930565  0.0674144883352028
  0.8885657752130527  0.8783529772185261  0.8494110488783946
  0.7650711386718214  0.7842988001479227  0.6371573892437965
  0.5444042167503227  0.8591153139654395  0.3962092707758131
  0.4647457039509248  0.7517007088957612  0.1416245746025453
  0.2348535443660253  0.8573050830935429  0.8651519890341035
  0.0982494743566562  0.7520268132809207  0.5791596273801431
  0.9115066304271622  0.8600419563586073  0.3174016453516870
  0.7694184546084912  0.7462901176948833  0.1217413525448379
  0.5619806912391923  0.8511150319439906  0.8863842178011581
  0.4683064877353686  0.7455683361028136  0.6392116751462140
  0.4320684459652995  0.4183201467059590  0.0750718372213512
 
  0.00000000E+00  0.00000000E+00  0.00000000E+00
  0.00000000E+00  0.00000000E+00  0.00000000E+00
  0.00000000E+00  0.00000000E+00  0.00000000E+00
  0.00000000E+00  0.00000000E+00  0.00000000E+00
  0.00000000E+00  0.00000000E+00  0.00000000E+00
  0.00000000E+00  0.00000000E+00  0.00000000E+00
  0.00000000E+00  0.00000000E+00  0.00000000E+00
  0.00000000E+00  0.00000000E+00  0.00000000E+00
  0.00000000E+00  0.00000000E+00  0.00000000E+00
  0.00000000E+00  0.00000000E+00  0.00000000E+00
  0.00000000E+00  0.00000000E+00  0.00000000E+00
  0.00000000E+00  0.00000000E+00  0.00000000E+00
  0.00000000E+00  0.00000000E+00  0.00000000E+00
  0.00000000E+00  0.00000000E+00  0.00000000E+00
  0.00000000E+00  0.00000000E+00  0.00000000E+00
  0.00000000E+00  0.00000000E+00  0.00000000E+00
  0.00000000E+00  0.00000000E+00  0.00000000E+00
  0.00000000E+00  0.00000000E+00  0.00000000E+00
  0.00000000E+00  0.00000000E+00  0.00000000E+00
  0.00000000E+00  0.00000000E+00  0.00000000E+00
  0.00000000E+00  0.00000000E+00  0.00000000E+00
  0.00000000E+00  0.00000000E+00  0.00000000E+00
  0.00000000E+00  0.00000000E+00  0.00000000E+00
  0.00000000E+00  0.00000000E+00  0.00000000E+00
  0.00000000E+00  0.00000000E+00  0.00000000E+00
  0.00000000E+00  0.00000000E+00  0.00000000E+00
  0.00000000E+00  0.00000000E+00  0.00000000E+00
  0.00000000E+00  0.00000000E+00  0.00000000E+00
  0.00000000E+00  0.00000000E+00  0.00000000E+00
  0.00000000E+00  0.00000000E+00  0.00000000E+00
  0.00000000E+00  0.00000000E+00  0.00000000E+00
  0.00000000E+00  0.00000000E+00  0.00000000E+00
  0.00000000E+00  0.00000000E+00  0.00000000E+00
  0.00000000E+00  0.00000000E+00  0.00000000E+00
  0.00000000E+00  0.00000000E+00  0.00000000E+00
  0.00000000E+00  0.00000000E+00  0.00000000E+00
  0.00000000E+00  0.00000000E+00  0.00000000E+00
  0.00000000E+00  0.00000000E+00  0.00000000E+00
  0.00000000E+00  0.00000000E+00  0.00000000E+00
  0.00000000E+00  0.00000000E+00  0.00000000E+00
  0.00000000E+00  0.00000000E+00  0.00000000E+00
  0.00000000E+00  0.00000000E+00  0.00000000E+00
  0.00000000E+00  0.00000000E+00  0.00000000E+00
  0.00000000E+00  0.00000000E+00  0.00000000E+00
  0.00000000E+00  0.00000000E+00  0.00000000E+00
  0.00000000E+00  0.00000000E+00  0.00000000E+00
  0.00000000E+00  0.00000000E+00  0.00000000E+00
  0.00000000E+00  0.00000000E+00  0.00000000E+00
  0.00000000E+00  0.00000000E+00  0.00000000E+00
  0.00000000E+00  0.00000000E+00  0.00000000E+00
  0.00000000E+00  0.00000000E+00  0.00000000E+00
  0.00000000E+00  0.00000000E+00  0.00000000E+00
  0.00000000E+00  0.00000000E+00  0.00000000E+00
  0.00000000E+00  0.00000000E+00  0.00000000E+00
  0.00000000E+00  0.00000000E+00  0.00000000E+00
  0.00000000E+00  0.00000000E+00  0.00000000E+00
  0.00000000E+00  0.00000000E+00  0.00000000E+00
  0.00000000E+00  0.00000000E+00  0.00000000E+00
  0.00000000E+00  0.00000000E+00  0.00000000E+00
  0.00000000E+00  0.00000000E+00  0.00000000E+00
  0.00000000E+00  0.00000000E+00  0.00000000E+00
  0.00000000E+00  0.00000000E+00  0.00000000E+00
  0.00000000E+00  0.00000000E+00  0.00000000E+00
  0.00000000E+00  0.00000000E+00  0.00000000E+00
  0.00000000E+00  0.00000000E+00  0.00000000E+00
  0.00000000E+00  0.00000000E+00  0.00000000E+00
  0.00000000E+00  0.00000000E+00  0.00000000E+00
  0.00000000E+00  0.00000000E+00  0.00000000E+00
  0.00000000E+00  0.00000000E+00  0.00000000E+00
  0.00000000E+00  0.00000000E+00  0.00000000E+00
  0.00000000E+00  0.00000000E+00  0.00000000E+00
  0.00000000E+00  0.00000000E+00  0.00000000E+00
