Al   Sc   N    O                        
   1.00000000000000     
   -10.1456378959801636    0.0198222056897490   -0.0040990909873924
    -5.1539127899898389    8.7745903739069391   -0.0045190781332387
     0.0111001073602353   -0.0612177982087885   -9.6563943199126960
   Al   Sc   N    O 
    23    13    35     1
Direct
  0.1109655081670482  0.0927653631092227  0.3965201823521625
  0.2174929698547459  0.2027968405554290  0.1384229318406227
  0.7685682627527299  0.1057914895338499  0.8933758313050575
  0.8798959473159513  0.2010452127241678  0.6392988545054692
  0.5467595749061616  0.2103519773607516  0.1399753653587439
  0.2285751816106298  0.2061431862302427  0.6392439625194228
  0.8916721659859874  0.2102813755562423  0.1377876497988240
  0.5582286074275657  0.2119881683376832  0.6390440908394055
  0.2187941118184540  0.5384060822321146  0.1445982516800584
  0.4379609383063610  0.4384871664154417  0.3862075425586227
  0.5611606768594228  0.5543493130417119  0.1167761732079882
  0.2297260971444501  0.5378037829230635  0.6370126448728044
  0.8870407882462885  0.5414294853829986  0.0848215795420160
  0.4408070538534048  0.4337798984967023  0.8932553677990427
  0.5529377199193348  0.5342459454247788  0.6096855050598577
  0.1109151430651494  0.7594486049063818  0.3924771291689311
  0.7707009106165046  0.7672990152138084  0.8375797478240941
  0.8847259722841798  0.8804769992301615  0.6481671683941812
  0.4401360423944780  0.7613719970314250  0.3355560609242971
  0.5588747569854959  0.8653202601748120  0.0836998945017555
  0.1229628891378169  0.7523661028297681  0.8827486394884829
  0.4488851052913674  0.7518556219272128  0.8460390244077090
  0.5563476732537396  0.8665153347279286  0.5951486239887558
  0.4440888330224126  0.0897999104777014  0.3729214266854868
  0.1086780903981435  0.0939650251192745  0.8680053875485783
  0.7794342633669942  0.0943984579411250  0.3718566885694656
  0.4561048701288755  0.0904048540455022  0.8670316635312574
  0.1224044126547739  0.4226516163150578  0.3758539580043134
  0.7664053686184715  0.4270413279303753  0.8717860372615789
  0.8913962520688443  0.5360594094354383  0.6197155103571035
  0.1235509548844362  0.4323483925372713  0.8764300806033276
  0.7741823181870444  0.4262680584442720  0.3651472705492793
  0.2170116824327053  0.8749493134603625  0.1233072896853642
  0.2272804269605544  0.8640957663088500  0.6166013591258022
  0.7784879341810722  0.7591828052911183  0.3571182119558358
  0.8884822308996760  0.8682379475267510  0.1077968438995924
  0.2146496141633634  0.1887155435020134  0.3361088671659758
  0.1001963301497355  0.1131597845024999  0.0864282855015119
  0.8767786425483663  0.1943388517355373  0.8347289323522276
  0.7762950558630948  0.0916582030384063  0.5947035872503506
  0.5376084634398666  0.2325500588739473  0.3335548798014827
  0.4478132777842632  0.0912615117321920  0.1070078606946581
  0.2271136116922463  0.2051133104457961  0.8353208877229932
  0.1013201468363647  0.1133218044111217  0.5997326936528182
  0.9101111300722522  0.1922354474415897  0.3347371717926535
  0.7610557992408289  0.1223243912703253  0.0942287647055977
  0.5601869926437004  0.2261505416077725  0.8378253445115433
  0.4506033895753987  0.0930890510178557  0.6118792077519046
  0.2309885971541803  0.5526672099272147  0.3370495397820079
  0.1119190374722265  0.4275777986902796  0.1104781345285417
  0.8824814165639410  0.5544562114876825  0.8692166313895200
  0.7627432145461484  0.4162368478589542  0.6137286511388282
  0.5337995227995478  0.5456906247416669  0.3308301525572119
  0.2399556290493479  0.5466168243569953  0.8307600939740851
  0.1382047939851674  0.4175849213139387  0.6067539688261121
  0.8925386398458812  0.5343400093232802  0.3999035067519756
  0.7833733370858837  0.4292796176047986  0.1116034324241468
  0.5325382088108128  0.5504067655720988  0.9096795776478359
  0.4450482841684433  0.4311294441849043  0.5860933183278902
  0.2206370122636017  0.8705292253657220  0.3692307921806517
  0.1262521593173815  0.7342019301060674  0.0767022589790400
  0.8843148375374028  0.8791101411507682  0.8572372593927540
  0.7677188687835184  0.7827241183607683  0.6340286512518745
  0.5440992358128938  0.8551229970818568  0.4000439654644126
  0.4533311220622807  0.7686389532795062  0.1367612280331088
  0.2309755071664625  0.8557679450128077  0.8531005903757389
  0.0969382935768408  0.7523621676541481  0.5933119048338256
  0.9102327576754803  0.8631540410015788  0.3294356448610358
  0.7686998232811391  0.7493837352671449  0.1292512946240834
  0.5629459680792621  0.8502991727204119  0.8852435754555259
  0.4713471066950916  0.7402796639558318  0.6452552862281280
  0.4231495519206447  0.4134994053313221  0.0850171475521151
 
  0.00000000E+00  0.00000000E+00  0.00000000E+00
  0.00000000E+00  0.00000000E+00  0.00000000E+00
  0.00000000E+00  0.00000000E+00  0.00000000E+00
  0.00000000E+00  0.00000000E+00  0.00000000E+00
  0.00000000E+00  0.00000000E+00  0.00000000E+00
  0.00000000E+00  0.00000000E+00  0.00000000E+00
  0.00000000E+00  0.00000000E+00  0.00000000E+00
  0.00000000E+00  0.00000000E+00  0.00000000E+00
  0.00000000E+00  0.00000000E+00  0.00000000E+00
  0.00000000E+00  0.00000000E+00  0.00000000E+00
  0.00000000E+00  0.00000000E+00  0.00000000E+00
  0.00000000E+00  0.00000000E+00  0.00000000E+00
  0.00000000E+00  0.00000000E+00  0.00000000E+00
  0.00000000E+00  0.00000000E+00  0.00000000E+00
  0.00000000E+00  0.00000000E+00  0.00000000E+00
  0.00000000E+00  0.00000000E+00  0.00000000E+00
  0.00000000E+00  0.00000000E+00  0.00000000E+00
  0.00000000E+00  0.00000000E+00  0.00000000E+00
  0.00000000E+00  0.00000000E+00  0.00000000E+00
  0.00000000E+00  0.00000000E+00  0.00000000E+00
  0.00000000E+00  0.00000000E+00  0.00000000E+00
  0.00000000E+00  0.00000000E+00  0.00000000E+00
  0.00000000E+00  0.00000000E+00  0.00000000E+00
  0.00000000E+00  0.00000000E+00  0.00000000E+00
  0.00000000E+00  0.00000000E+00  0.00000000E+00
  0.00000000E+00  0.00000000E+00  0.00000000E+00
  0.00000000E+00  0.00000000E+00  0.00000000E+00
  0.00000000E+00  0.00000000E+00  0.00000000E+00
  0.00000000E+00  0.00000000E+00  0.00000000E+00
  0.00000000E+00  0.00000000E+00  0.00000000E+00
  0.00000000E+00  0.00000000E+00  0.00000000E+00
  0.00000000E+00  0.00000000E+00  0.00000000E+00
  0.00000000E+00  0.00000000E+00  0.00000000E+00
  0.00000000E+00  0.00000000E+00  0.00000000E+00
  0.00000000E+00  0.00000000E+00  0.00000000E+00
  0.00000000E+00  0.00000000E+00  0.00000000E+00
  0.00000000E+00  0.00000000E+00  0.00000000E+00
  0.00000000E+00  0.00000000E+00  0.00000000E+00
  0.00000000E+00  0.00000000E+00  0.00000000E+00
  0.00000000E+00  0.00000000E+00  0.00000000E+00
  0.00000000E+00  0.00000000E+00  0.00000000E+00
  0.00000000E+00  0.00000000E+00  0.00000000E+00
  0.00000000E+00  0.00000000E+00  0.00000000E+00
  0.00000000E+00  0.00000000E+00  0.00000000E+00
  0.00000000E+00  0.00000000E+00  0.00000000E+00
  0.00000000E+00  0.00000000E+00  0.00000000E+00
  0.00000000E+00  0.00000000E+00  0.00000000E+00
  0.00000000E+00  0.00000000E+00  0.00000000E+00
  0.00000000E+00  0.00000000E+00  0.00000000E+00
  0.00000000E+00  0.00000000E+00  0.00000000E+00
  0.00000000E+00  0.00000000E+00  0.00000000E+00
  0.00000000E+00  0.00000000E+00  0.00000000E+00
  0.00000000E+00  0.00000000E+00  0.00000000E+00
  0.00000000E+00  0.00000000E+00  0.00000000E+00
  0.00000000E+00  0.00000000E+00  0.00000000E+00
  0.00000000E+00  0.00000000E+00  0.00000000E+00
  0.00000000E+00  0.00000000E+00  0.00000000E+00
  0.00000000E+00  0.00000000E+00  0.00000000E+00
  0.00000000E+00  0.00000000E+00  0.00000000E+00
  0.00000000E+00  0.00000000E+00  0.00000000E+00
  0.00000000E+00  0.00000000E+00  0.00000000E+00
  0.00000000E+00  0.00000000E+00  0.00000000E+00
  0.00000000E+00  0.00000000E+00  0.00000000E+00
  0.00000000E+00  0.00000000E+00  0.00000000E+00
  0.00000000E+00  0.00000000E+00  0.00000000E+00
  0.00000000E+00  0.00000000E+00  0.00000000E+00
  0.00000000E+00  0.00000000E+00  0.00000000E+00
  0.00000000E+00  0.00000000E+00  0.00000000E+00
  0.00000000E+00  0.00000000E+00  0.00000000E+00
  0.00000000E+00  0.00000000E+00  0.00000000E+00
  0.00000000E+00  0.00000000E+00  0.00000000E+00
  0.00000000E+00  0.00000000E+00  0.00000000E+00
