Al   Sc   N    O                        
   1.00000000000000     
   -10.1328885779885560    0.0214460888714195   -0.0066807475262767
    -5.1023153243485231    8.7949026941280568   -0.0061200613755722
     0.0752369389166589   -0.0283437264443786   -9.6643620615058623
   Al   Sc   N    O 
    23    13    35     1
Direct
  0.1141216279204542  0.0878795515341082  0.3428761131840261
  0.2242072973626961  0.2066290973000164  0.0897284029673955
  0.7678693396119414  0.1042307988251210  0.8948635632788822
  0.8812541445609483  0.2011179979850297  0.6444361230764528
  0.5500235563465807  0.2118096617476013  0.1393331051083351
  0.2223764571935831  0.2020288395045355  0.5892157206826312
  0.8869462269762849  0.2108685497985689  0.1343315084997201
  0.5560842465947005  0.2127319682007069  0.6422972759746912
  0.2219353506031752  0.5384746973069667  0.1423699466178050
  0.4355473300709178  0.4369282583598419  0.3945602706083307
  0.5610166403446328  0.5496440988236131  0.0935682674447236
  0.2293350166907473  0.5379053762312296  0.6383762402653090
  0.8866855267974145  0.5408988622465429  0.0804234883966970
  0.4413333373177153  0.4342664206594904  0.8852955285682427
  0.5513920897218370  0.5398084113498740  0.5834357844751423
  0.1115050018638541  0.7592877941131206  0.3909465911514047
  0.7693921917490059  0.7670672748935274  0.8384026862389788
  0.8844872591345663  0.8802167091656585  0.6491278602868960
  0.4421059342669125  0.7588937639392128  0.3416103806797963
  0.5609558109486414  0.8601049327961050  0.0862561217047713
  0.1212719409426981  0.7532074081486684  0.8827557913038930
  0.4493660266005577  0.7517888327161444  0.8367788181536184
  0.5538412696021169  0.8703736359535839  0.5919813460582048
  0.4445958841170352  0.0906126344663107  0.3581612831202392
  0.1094639234066861  0.0935779353879340  0.8631834156870042
  0.7794875794722458  0.0944039864693309  0.3763461884657886
  0.4555833205983504  0.0871895021645841  0.8569027536025828
  0.1181500799748036  0.4254388184557527  0.3623760805631377
  0.7631562253310449  0.4296438261368891  0.8574323120438976
  0.8894047241952237  0.5377011255418580  0.6161343455220702
  0.1218046284367702  0.4320117582478034  0.8603096762748592
  0.7733929525562857  0.4274942500971690  0.3597058941667939
  0.2279871714580324  0.8643960543465923  0.1118998521535204
  0.2230931346589315  0.8716090325273598  0.6108702421061025
  0.7778029289531219  0.7602110852462687  0.3555690340632651
  0.8895812102788057  0.8677800782973151  0.1092615450219441
  0.2145258482718475  0.1912258472692869  0.3873378903304356
  0.1065208959422961  0.1075480784083993  0.1151960947942001
  0.8755958299580016  0.1958131562808845  0.8457007207482832
  0.7752250862919965  0.0926889589711806  0.5995286860870834
  0.5392825975710807  0.2357619892460860  0.3331185330927440
  0.4514557245471806  0.0877780992904675  0.1178532658733431
  0.2290883400089072  0.2048944825698058  0.8935059254055275
  0.0997338992459973  0.1122875234033742  0.6297342019751966
  0.9050490092715791  0.1951682783153146  0.3343841108878394
  0.7615017897268501  0.1193076977989449  0.0948133361161752
  0.5592640951500627  0.2247949697967684  0.8422174421629762
  0.4463562045069693  0.0937830715977128  0.6201027268929380
  0.2327884413422083  0.5527015392804628  0.3360382875907391
  0.1118287881607571  0.4290217533755012  0.1166314660739047
  0.8812147123286351  0.5549809106088759  0.8712157066087656
  0.7629364842689057  0.4167123631764582  0.6196599901044735
  0.5334281675742005  0.5512694552014210  0.3813816068539708
  0.2383716787306298  0.5486154566954440  0.8333320738337449
  0.1358553688451849  0.4159111313303470  0.6188484550258195
  0.8915988894508757  0.5357426061923718  0.3992690797545393
  0.7782712863485273  0.4299778639343259  0.1129826720576190
  0.5319847693992017  0.5519609446312046  0.9007868408222635
  0.4429659914932031  0.4278804807320000  0.5937301237660719
  0.2211008447912803  0.8705714573082801  0.3653757377047029
  0.1257049795962573  0.7339803816282142  0.0770609029027440
  0.8848457975007520  0.8784417555660582  0.8578677372914143
  0.7652806583529852  0.7841112545263229  0.6352226089597863
  0.5440001372276484  0.8596185114215800  0.3973961935302412
  0.4631975546170750  0.7529671799470350  0.1449333528934531
  0.2331404124121477  0.8553233739298634  0.8610780574590251
  0.0969102465546925  0.7524912990060670  0.5928849323924297
  0.9098701646259428  0.8640281874827380  0.3307958080077711
  0.7709055510377922  0.7473888338738135  0.1290822107309779
  0.5624066139739199  0.8486524045377593  0.8891545836644781
  0.4674762600096543  0.7454491515019654  0.6412240948062120
  0.4333436091826073  0.4216515495514557  0.0868032606131450
 
  0.00000000E+00  0.00000000E+00  0.00000000E+00
  0.00000000E+00  0.00000000E+00  0.00000000E+00
  0.00000000E+00  0.00000000E+00  0.00000000E+00
  0.00000000E+00  0.00000000E+00  0.00000000E+00
  0.00000000E+00  0.00000000E+00  0.00000000E+00
  0.00000000E+00  0.00000000E+00  0.00000000E+00
  0.00000000E+00  0.00000000E+00  0.00000000E+00
  0.00000000E+00  0.00000000E+00  0.00000000E+00
  0.00000000E+00  0.00000000E+00  0.00000000E+00
  0.00000000E+00  0.00000000E+00  0.00000000E+00
  0.00000000E+00  0.00000000E+00  0.00000000E+00
  0.00000000E+00  0.00000000E+00  0.00000000E+00
  0.00000000E+00  0.00000000E+00  0.00000000E+00
  0.00000000E+00  0.00000000E+00  0.00000000E+00
  0.00000000E+00  0.00000000E+00  0.00000000E+00
  0.00000000E+00  0.00000000E+00  0.00000000E+00
  0.00000000E+00  0.00000000E+00  0.00000000E+00
  0.00000000E+00  0.00000000E+00  0.00000000E+00
  0.00000000E+00  0.00000000E+00  0.00000000E+00
  0.00000000E+00  0.00000000E+00  0.00000000E+00
  0.00000000E+00  0.00000000E+00  0.00000000E+00
  0.00000000E+00  0.00000000E+00  0.00000000E+00
  0.00000000E+00  0.00000000E+00  0.00000000E+00
  0.00000000E+00  0.00000000E+00  0.00000000E+00
  0.00000000E+00  0.00000000E+00  0.00000000E+00
  0.00000000E+00  0.00000000E+00  0.00000000E+00
  0.00000000E+00  0.00000000E+00  0.00000000E+00
  0.00000000E+00  0.00000000E+00  0.00000000E+00
  0.00000000E+00  0.00000000E+00  0.00000000E+00
  0.00000000E+00  0.00000000E+00  0.00000000E+00
  0.00000000E+00  0.00000000E+00  0.00000000E+00
  0.00000000E+00  0.00000000E+00  0.00000000E+00
  0.00000000E+00  0.00000000E+00  0.00000000E+00
  0.00000000E+00  0.00000000E+00  0.00000000E+00
  0.00000000E+00  0.00000000E+00  0.00000000E+00
  0.00000000E+00  0.00000000E+00  0.00000000E+00
  0.00000000E+00  0.00000000E+00  0.00000000E+00
  0.00000000E+00  0.00000000E+00  0.00000000E+00
  0.00000000E+00  0.00000000E+00  0.00000000E+00
  0.00000000E+00  0.00000000E+00  0.00000000E+00
  0.00000000E+00  0.00000000E+00  0.00000000E+00
  0.00000000E+00  0.00000000E+00  0.00000000E+00
  0.00000000E+00  0.00000000E+00  0.00000000E+00
  0.00000000E+00  0.00000000E+00  0.00000000E+00
  0.00000000E+00  0.00000000E+00  0.00000000E+00
  0.00000000E+00  0.00000000E+00  0.00000000E+00
  0.00000000E+00  0.00000000E+00  0.00000000E+00
  0.00000000E+00  0.00000000E+00  0.00000000E+00
  0.00000000E+00  0.00000000E+00  0.00000000E+00
  0.00000000E+00  0.00000000E+00  0.00000000E+00
  0.00000000E+00  0.00000000E+00  0.00000000E+00
  0.00000000E+00  0.00000000E+00  0.00000000E+00
  0.00000000E+00  0.00000000E+00  0.00000000E+00
  0.00000000E+00  0.00000000E+00  0.00000000E+00
  0.00000000E+00  0.00000000E+00  0.00000000E+00
  0.00000000E+00  0.00000000E+00  0.00000000E+00
  0.00000000E+00  0.00000000E+00  0.00000000E+00
  0.00000000E+00  0.00000000E+00  0.00000000E+00
  0.00000000E+00  0.00000000E+00  0.00000000E+00
  0.00000000E+00  0.00000000E+00  0.00000000E+00
  0.00000000E+00  0.00000000E+00  0.00000000E+00
  0.00000000E+00  0.00000000E+00  0.00000000E+00
  0.00000000E+00  0.00000000E+00  0.00000000E+00
  0.00000000E+00  0.00000000E+00  0.00000000E+00
  0.00000000E+00  0.00000000E+00  0.00000000E+00
  0.00000000E+00  0.00000000E+00  0.00000000E+00
  0.00000000E+00  0.00000000E+00  0.00000000E+00
  0.00000000E+00  0.00000000E+00  0.00000000E+00
  0.00000000E+00  0.00000000E+00  0.00000000E+00
  0.00000000E+00  0.00000000E+00  0.00000000E+00
  0.00000000E+00  0.00000000E+00  0.00000000E+00
  0.00000000E+00  0.00000000E+00  0.00000000E+00
