Al   Sc   N    O                        
   1.00000000000000     
   -10.0808309589708127    0.0211168860083084   -0.0104993000133636
    -5.0460974797956899    8.7762636748688969   -0.0084390322584640
     0.0658738957553851   -0.0084290949814639   -9.7614765508698866
   Al   Sc   N    O 
    23    13    35     1
Direct
  0.1086913835971970  0.0922434383584871  0.3085873197402904
  0.2206258064122508  0.2085565649481680  0.0696962272633357
  0.7766160921948355  0.0982494572710948  0.8058421418695971
  0.8936213039111465  0.2050977462332000  0.5625731920710066
  0.5479006792580137  0.2166598922792033  0.1262677644396177
  0.2231760249673442  0.2025265460170829  0.5629813985496099
  0.8779436449941542  0.2093615886631710  0.0625925200641859
  0.5496655148853193  0.2133359087564344  0.6101315251316848
  0.2235854344554369  0.5406233806754059  0.1188030303751120
  0.4332387586236734  0.4407209783836308  0.3766978021352330
  0.5554219322603515  0.5440592293567477  0.0605369526705601
  0.2262255613251227  0.5408047873924673  0.6151927837016800
  0.8853410756355231  0.5421136695074438  0.0535744232610327
  0.4442888926048312  0.4342400275635541  0.8409159946992801
  0.5560582800238336  0.5403297616694545  0.5607826443828401
  0.1129726704467728  0.7599330181993338  0.3645232612385954
  0.7705465483225638  0.7663005348789369  0.8116128785689938
  0.8914220038135099  0.8706451164172506  0.6165921857406786
  0.4432490180037263  0.7556893895566006  0.3143913563216003
  0.5613688725549153  0.8581688905085585  0.0615812695981361
  0.1209138261464275  0.7544418983159389  0.8615966267607291
  0.4499599036973052  0.7533307070991881  0.8116447862142167
  0.5544146145845801  0.8698953377765548  0.5654862319424652
  0.4414933054982129  0.0881607075303350  0.3324480180514513
  0.1092059435781891  0.0941774189780418  0.8319992407317685
  0.7779926272625062  0.0943346417452275  0.3424710625908247
  0.4558087709233618  0.0888109848532821  0.8360256488081887
  0.1181480362974980  0.4258965660075091  0.3359488710570986
  0.7668767553918059  0.4248421170306429  0.8270805770567051
  0.8891890428184652  0.5357828203953545  0.5878376190064358
  0.1215766386365260  0.4310149862534445  0.8368423882889147
  0.7732415791709784  0.4251484930799094  0.3166579583514135
  0.2275658702905474  0.8671148061898180  0.0856895945904625
  0.2256774537687463  0.8730520545080367  0.5808706757675779
  0.7775934947836518  0.7570268773525868  0.3264301825877496
  0.8841593620284129  0.8767598777552337  0.0842732892734048
  0.2117317623745123  0.1921692219689533  0.3651748521552918
  0.0970612463874332  0.1139020197501495  0.1074539478832648
  0.8776423747688540  0.1929177646293070  0.8701812106162876
  0.7811037533397069  0.0921585191245171  0.5954036842706856
  0.5310553587232363  0.2379374175047033  0.3233692864232154
  0.4500863179618477  0.0894578945924351  0.0978562059682702
  0.2284575690146440  0.2038084267668054  0.8771702969556614
  0.1032866753708532  0.1134181825807303  0.6155772595466402
  0.9084005681762832  0.1955335997505401  0.3695335624735989
  0.7598917142350814  0.1208839453822748  0.1121874742837008
  0.5613718752214538  0.2238191501315114  0.8102736510851543
  0.4454025873019702  0.0920050213046721  0.5965893787898509
  0.2336187418599707  0.5540513610592157  0.3112230665284699
  0.1115833304984974  0.4309318918712179  0.0940550306594332
  0.8812903799208271  0.5548602125731890  0.8485161793660936
  0.7648911100578033  0.4144533842008329  0.6060422638485221
  0.5369786450769709  0.5500061536428760  0.3640920369025693
  0.2362031685016035  0.5507613063856027  0.8088026953891898
  0.1358535129747125  0.4158819130718427  0.5959703639882292
  0.8902628465180982  0.5321734383473071  0.3736592417187836
  0.7754840919459198  0.4296575862968410  0.0888774900068938
  0.5342751739570133  0.5509923801555203  0.8696387482695016
  0.4414804856254619  0.4319645371834326  0.5760597910834306
  0.2218304785847494  0.8722461464333122  0.3397753196215092
  0.1230391168765479  0.7373929478843735  0.0541207648142574
  0.8890239727268110  0.8750543597717098  0.8281554337363914
  0.7659828779995905  0.7815892056346456  0.6101666801128687
  0.5445703129280588  0.8570454846695625  0.3732407795965429
  0.4644327830979833  0.7471324683307756  0.1192238875011782
  0.2343693795339732  0.8563881870009169  0.8413413399788539
  0.1011645456262755  0.7516133193633863  0.5645897115080416
  0.9099033919604835  0.8615658074616661  0.3104806325205729
  0.7711526826168935  0.7482772128181310  0.1041827755652918
  0.5635283050346089  0.8500752137823824  0.8664380656770376
  0.4676527879295449  0.7469137251543501  0.6185582196177961
  0.4389195467344535  0.4254928223668486  0.0671111377822484
 
  0.00000000E+00  0.00000000E+00  0.00000000E+00
  0.00000000E+00  0.00000000E+00  0.00000000E+00
  0.00000000E+00  0.00000000E+00  0.00000000E+00
  0.00000000E+00  0.00000000E+00  0.00000000E+00
  0.00000000E+00  0.00000000E+00  0.00000000E+00
  0.00000000E+00  0.00000000E+00  0.00000000E+00
  0.00000000E+00  0.00000000E+00  0.00000000E+00
  0.00000000E+00  0.00000000E+00  0.00000000E+00
  0.00000000E+00  0.00000000E+00  0.00000000E+00
  0.00000000E+00  0.00000000E+00  0.00000000E+00
  0.00000000E+00  0.00000000E+00  0.00000000E+00
  0.00000000E+00  0.00000000E+00  0.00000000E+00
  0.00000000E+00  0.00000000E+00  0.00000000E+00
  0.00000000E+00  0.00000000E+00  0.00000000E+00
  0.00000000E+00  0.00000000E+00  0.00000000E+00
  0.00000000E+00  0.00000000E+00  0.00000000E+00
  0.00000000E+00  0.00000000E+00  0.00000000E+00
  0.00000000E+00  0.00000000E+00  0.00000000E+00
  0.00000000E+00  0.00000000E+00  0.00000000E+00
  0.00000000E+00  0.00000000E+00  0.00000000E+00
  0.00000000E+00  0.00000000E+00  0.00000000E+00
  0.00000000E+00  0.00000000E+00  0.00000000E+00
  0.00000000E+00  0.00000000E+00  0.00000000E+00
  0.00000000E+00  0.00000000E+00  0.00000000E+00
  0.00000000E+00  0.00000000E+00  0.00000000E+00
  0.00000000E+00  0.00000000E+00  0.00000000E+00
  0.00000000E+00  0.00000000E+00  0.00000000E+00
  0.00000000E+00  0.00000000E+00  0.00000000E+00
  0.00000000E+00  0.00000000E+00  0.00000000E+00
  0.00000000E+00  0.00000000E+00  0.00000000E+00
  0.00000000E+00  0.00000000E+00  0.00000000E+00
  0.00000000E+00  0.00000000E+00  0.00000000E+00
  0.00000000E+00  0.00000000E+00  0.00000000E+00
  0.00000000E+00  0.00000000E+00  0.00000000E+00
  0.00000000E+00  0.00000000E+00  0.00000000E+00
  0.00000000E+00  0.00000000E+00  0.00000000E+00
  0.00000000E+00  0.00000000E+00  0.00000000E+00
  0.00000000E+00  0.00000000E+00  0.00000000E+00
  0.00000000E+00  0.00000000E+00  0.00000000E+00
  0.00000000E+00  0.00000000E+00  0.00000000E+00
  0.00000000E+00  0.00000000E+00  0.00000000E+00
  0.00000000E+00  0.00000000E+00  0.00000000E+00
  0.00000000E+00  0.00000000E+00  0.00000000E+00
  0.00000000E+00  0.00000000E+00  0.00000000E+00
  0.00000000E+00  0.00000000E+00  0.00000000E+00
  0.00000000E+00  0.00000000E+00  0.00000000E+00
  0.00000000E+00  0.00000000E+00  0.00000000E+00
  0.00000000E+00  0.00000000E+00  0.00000000E+00
  0.00000000E+00  0.00000000E+00  0.00000000E+00
  0.00000000E+00  0.00000000E+00  0.00000000E+00
  0.00000000E+00  0.00000000E+00  0.00000000E+00
  0.00000000E+00  0.00000000E+00  0.00000000E+00
  0.00000000E+00  0.00000000E+00  0.00000000E+00
  0.00000000E+00  0.00000000E+00  0.00000000E+00
  0.00000000E+00  0.00000000E+00  0.00000000E+00
  0.00000000E+00  0.00000000E+00  0.00000000E+00
  0.00000000E+00  0.00000000E+00  0.00000000E+00
  0.00000000E+00  0.00000000E+00  0.00000000E+00
  0.00000000E+00  0.00000000E+00  0.00000000E+00
  0.00000000E+00  0.00000000E+00  0.00000000E+00
  0.00000000E+00  0.00000000E+00  0.00000000E+00
  0.00000000E+00  0.00000000E+00  0.00000000E+00
  0.00000000E+00  0.00000000E+00  0.00000000E+00
  0.00000000E+00  0.00000000E+00  0.00000000E+00
  0.00000000E+00  0.00000000E+00  0.00000000E+00
  0.00000000E+00  0.00000000E+00  0.00000000E+00
  0.00000000E+00  0.00000000E+00  0.00000000E+00
  0.00000000E+00  0.00000000E+00  0.00000000E+00
  0.00000000E+00  0.00000000E+00  0.00000000E+00
  0.00000000E+00  0.00000000E+00  0.00000000E+00
  0.00000000E+00  0.00000000E+00  0.00000000E+00
  0.00000000E+00  0.00000000E+00  0.00000000E+00
