Al   Sc   N    O                        
   1.00000000000000     
   -10.1551772987648938    0.0206341472805842   -0.0053899192568346
    -5.1330929896609625    8.8081268154605130   -0.0053195697544054
     0.0494884478653303   -0.0528605373649172   -9.5763501158807358
   Al   Sc   N    O 
    23    13    35     1
Direct
  0.1106611913773818  0.0926041932433392  0.3972359093240101
  0.2186792974240177  0.2045267541200602  0.1274289811001950
  0.7693888528466530  0.1041489645113813  0.8940095508916457
  0.8786921235109446  0.2012614006858513  0.6385905209107818
  0.5488306584966480  0.2126281800021701  0.1369811452494787
  0.2280890112625258  0.2056053865306851  0.6362532392528024
  0.8924472125976664  0.2086416607244388  0.1359973621073678
  0.5574041100286493  0.2120181390291407  0.6412523535753820
  0.2214331880776612  0.5399094410459213  0.1416862342233429
  0.4355733621080944  0.4368066189093014  0.3925563616190004
  0.5584239315077255  0.5504538792839213  0.0980866912133109
  0.2292977463084114  0.5375252624764286  0.6388288906168356
  0.8849720894549336  0.5408971989975342  0.0825324035732677
  0.4421756909691510  0.4348501067359365  0.8842660548464636
  0.5528205853669093  0.5382944551384057  0.5819584092504755
  0.1111279878181222  0.7591272952690318  0.3918371308511510
  0.7694303273054359  0.7667606446430852  0.8392350415713210
  0.8839871518612199  0.8800671943690475  0.6476815540098855
  0.4413907521725733  0.7597832674749512  0.3433831245840651
  0.5591077066280690  0.8604491520647812  0.0869569061375159
  0.1228353597906562  0.7535890019707239  0.8830869761137166
  0.4502704939914395  0.7507214386898724  0.8384644366305238
  0.5548200216068437  0.8693119149847632  0.5932194825608121
  0.4434641026025048  0.0920237683918472  0.3668156659063513
  0.1085788194453841  0.0926330923340117  0.8657685649826590
  0.7789494667057966  0.0944798342142761  0.3709317989059713
  0.4572145006323254  0.0875607008964323  0.8655938405625108
  0.1213266531670669  0.4237896890988750  0.3718254798940492
  0.7641318581018908  0.4273272469682112  0.8592409254471036
  0.8893923149719569  0.5374324628239080  0.6175183287063817
  0.1211789505598801  0.4333563556120836  0.8707575355729702
  0.7756740701354659  0.4257260176002973  0.3596644428855456
  0.2203222066120603  0.8741974410523454  0.1240883713979173
  0.2270738763549005  0.8631066170818471  0.6162329876662582
  0.7781296376877620  0.7599870768651442  0.3574210368515196
  0.8893322547191147  0.8672021990763454  0.1080775517725314
  0.2137218777733878  0.1911003832332057  0.3434186223777473
  0.1012252087244150  0.1122540154455081  0.0879158083283826
  0.8763391060478511  0.1938484082042322  0.8369587906559346
  0.7746882035666331  0.0916448766764191  0.5962252320241817
  0.5378712278995081  0.2354527722402366  0.3322032526117411
  0.4483736505284668  0.0907510720224778  0.1092948985086011
  0.2277438580433966  0.2045358684286072  0.8436962699364159
  0.1008575347367966  0.1115151052411107  0.6039689523696907
  0.9102192338694692  0.1915770518902633  0.3358555582101062
  0.7630684026624976  0.1195619417214218  0.0962496175358325
  0.5603245664852992  0.2248186555649028  0.8431200090608897
  0.4497995352956110  0.0934809553595102  0.6149826001083838
  0.2324184123384825  0.5528472653716747  0.3363753410732784
  0.1130502700591336  0.4285974980870790  0.1093877368193148
  0.8802384788589421  0.5543135428738921  0.8692646980594390
  0.7637091629636430  0.4160699571260480  0.6157671197785177
  0.5340776726729644  0.5499725958599200  0.3761321142355101
  0.2383046821692290  0.5478916829039377  0.8351066137429370
  0.1357258221476414  0.4182098648176691  0.6116495837044766
  0.8923789605381458  0.5349222086116541  0.3968965947956136
  0.7781353333298711  0.4291290928024480  0.1132533057703426
  0.5329482266493102  0.5514014212325264  0.9016995499700755
  0.4436857617579406  0.4283301172586249  0.5940902518769349
  0.2202589763231089  0.8713339424213942  0.3702171621336845
  0.1263999276992038  0.7370505031967127  0.0789925318099804
  0.8841851158065452  0.8784794826157309  0.8580918203922749
  0.7661202811370131  0.7834187411206912  0.6334806465986205
  0.5439388565149770  0.8594922964972369  0.3963132042548096
  0.4582377328926910  0.7566497934165000  0.1438296648746160
  0.2331304030489392  0.8546742478115661  0.8540055606281456
  0.0966448899160781  0.7510562245175763  0.5946810537135221
  0.9099287015447359  0.8632035294666665  0.3315316155549297
  0.7695335854301035  0.7481405379745354  0.1277542275921704
  0.5620190655759743  0.8485276668791286  0.8872103563260936
  0.4704350950248113  0.7427072726725044  0.6399764363025184
  0.4332672194789993  0.4229481951954810  0.0875331937842390
 
  0.00000000E+00  0.00000000E+00  0.00000000E+00
  0.00000000E+00  0.00000000E+00  0.00000000E+00
  0.00000000E+00  0.00000000E+00  0.00000000E+00
  0.00000000E+00  0.00000000E+00  0.00000000E+00
  0.00000000E+00  0.00000000E+00  0.00000000E+00
  0.00000000E+00  0.00000000E+00  0.00000000E+00
  0.00000000E+00  0.00000000E+00  0.00000000E+00
  0.00000000E+00  0.00000000E+00  0.00000000E+00
  0.00000000E+00  0.00000000E+00  0.00000000E+00
  0.00000000E+00  0.00000000E+00  0.00000000E+00
  0.00000000E+00  0.00000000E+00  0.00000000E+00
  0.00000000E+00  0.00000000E+00  0.00000000E+00
  0.00000000E+00  0.00000000E+00  0.00000000E+00
  0.00000000E+00  0.00000000E+00  0.00000000E+00
  0.00000000E+00  0.00000000E+00  0.00000000E+00
  0.00000000E+00  0.00000000E+00  0.00000000E+00
  0.00000000E+00  0.00000000E+00  0.00000000E+00
  0.00000000E+00  0.00000000E+00  0.00000000E+00
  0.00000000E+00  0.00000000E+00  0.00000000E+00
  0.00000000E+00  0.00000000E+00  0.00000000E+00
  0.00000000E+00  0.00000000E+00  0.00000000E+00
  0.00000000E+00  0.00000000E+00  0.00000000E+00
  0.00000000E+00  0.00000000E+00  0.00000000E+00
  0.00000000E+00  0.00000000E+00  0.00000000E+00
  0.00000000E+00  0.00000000E+00  0.00000000E+00
  0.00000000E+00  0.00000000E+00  0.00000000E+00
  0.00000000E+00  0.00000000E+00  0.00000000E+00
  0.00000000E+00  0.00000000E+00  0.00000000E+00
  0.00000000E+00  0.00000000E+00  0.00000000E+00
  0.00000000E+00  0.00000000E+00  0.00000000E+00
  0.00000000E+00  0.00000000E+00  0.00000000E+00
  0.00000000E+00  0.00000000E+00  0.00000000E+00
  0.00000000E+00  0.00000000E+00  0.00000000E+00
  0.00000000E+00  0.00000000E+00  0.00000000E+00
  0.00000000E+00  0.00000000E+00  0.00000000E+00
  0.00000000E+00  0.00000000E+00  0.00000000E+00
  0.00000000E+00  0.00000000E+00  0.00000000E+00
  0.00000000E+00  0.00000000E+00  0.00000000E+00
  0.00000000E+00  0.00000000E+00  0.00000000E+00
  0.00000000E+00  0.00000000E+00  0.00000000E+00
  0.00000000E+00  0.00000000E+00  0.00000000E+00
  0.00000000E+00  0.00000000E+00  0.00000000E+00
  0.00000000E+00  0.00000000E+00  0.00000000E+00
  0.00000000E+00  0.00000000E+00  0.00000000E+00
  0.00000000E+00  0.00000000E+00  0.00000000E+00
  0.00000000E+00  0.00000000E+00  0.00000000E+00
  0.00000000E+00  0.00000000E+00  0.00000000E+00
  0.00000000E+00  0.00000000E+00  0.00000000E+00
  0.00000000E+00  0.00000000E+00  0.00000000E+00
  0.00000000E+00  0.00000000E+00  0.00000000E+00
  0.00000000E+00  0.00000000E+00  0.00000000E+00
  0.00000000E+00  0.00000000E+00  0.00000000E+00
  0.00000000E+00  0.00000000E+00  0.00000000E+00
  0.00000000E+00  0.00000000E+00  0.00000000E+00
  0.00000000E+00  0.00000000E+00  0.00000000E+00
  0.00000000E+00  0.00000000E+00  0.00000000E+00
  0.00000000E+00  0.00000000E+00  0.00000000E+00
  0.00000000E+00  0.00000000E+00  0.00000000E+00
  0.00000000E+00  0.00000000E+00  0.00000000E+00
  0.00000000E+00  0.00000000E+00  0.00000000E+00
  0.00000000E+00  0.00000000E+00  0.00000000E+00
  0.00000000E+00  0.00000000E+00  0.00000000E+00
  0.00000000E+00  0.00000000E+00  0.00000000E+00
  0.00000000E+00  0.00000000E+00  0.00000000E+00
  0.00000000E+00  0.00000000E+00  0.00000000E+00
  0.00000000E+00  0.00000000E+00  0.00000000E+00
  0.00000000E+00  0.00000000E+00  0.00000000E+00
  0.00000000E+00  0.00000000E+00  0.00000000E+00
  0.00000000E+00  0.00000000E+00  0.00000000E+00
  0.00000000E+00  0.00000000E+00  0.00000000E+00
  0.00000000E+00  0.00000000E+00  0.00000000E+00
  0.00000000E+00  0.00000000E+00  0.00000000E+00
