Al   Sc   N    O                        
   1.00000000000000     
   -10.0304635967966647    0.0182061511450793   -0.0126560520625415
    -5.0103247381184763    8.7445779553433827   -0.0096998621866220
     0.0618375790309725   -0.0555304818931682   -9.8549991708292382
   Al   Sc   N    O 
    23    13    35     1
Direct
  0.1094629605640236  0.0929368069419496  0.3061378892319908
  0.2214081673108481  0.2077932053792111  0.0672652760069994
  0.7778379053040396  0.0928260681402264  0.7995599240583715
  0.8920443900521988  0.2056015912081932  0.5614044075736118
  0.5562291145304812  0.2126659851964021  0.0568981960024288
  0.2240496155344331  0.2010301183614871  0.5608477300082981
  0.8808188704470368  0.2078200693141525  0.0605469040163982
  0.5528364856632351  0.2059592638047079  0.5710017458729126
  0.2309606256969587  0.5325101350477510  0.1234563924668137
  0.4341536517583933  0.4402621922462799  0.3833416563281347
  0.5518747260344838  0.5406315574745690  0.0564893369940904
  0.2210066626221519  0.5418030735260544  0.6188796098505946
  0.8841925415718492  0.5437331143335129  0.0524592539270046
  0.4479839791398845  0.4346352741175679  0.8045443822023302
  0.5582069595399659  0.5440606551671934  0.5643580160625277
  0.1160617265667483  0.7614342021983305  0.3090949300949930
  0.7725731066637778  0.7705799190011859  0.8064640446717988
  0.8903123045711681  0.8713041561693444  0.5609851886951560
  0.4431314041283869  0.7556486866653387  0.3106301912607776
  0.5629618258155560  0.8577506181731493  0.0587249021039398
  0.1087804361365130  0.7652085699968509  0.8090272977478961
  0.4488292122334769  0.7537116093273255  0.8115055190718365
  0.5534225238731381  0.8708129009924193  0.5638206508580339
  0.4446361789471922  0.0904831455759592  0.3224709420337177
  0.1093208389552345  0.0924901275796302  0.8254462882324987
  0.7747079180529042  0.0994694811956478  0.3336955211091777
  0.4539060798762335  0.0875646070478595  0.8240966067063695
  0.1148950493156349  0.4246753157657253  0.3380416614310633
  0.7687683983875502  0.4233972295605426  0.8291271053217315
  0.8878628952868581  0.5370527203508075  0.5893544545700777
  0.1215920058957352  0.4308172393100733  0.8407091830350168
  0.7703077383962835  0.4260445792835910  0.3134132869075117
  0.2290089930101544  0.8669999873750669  0.0725930391626761
  0.2247059256584407  0.8722012403878594  0.5654101586943057
  0.7752400380222824  0.7563925738010084  0.3253495295261146
  0.8827648419864005  0.8771982283404185  0.0666876269240788
  0.2152360875510198  0.1901733596373703  0.3657068468882159
  0.0981539424919333  0.1136237340629620  0.1090814425647153
  0.8787650566001446  0.1892227836480842  0.8704789304068541
  0.7795682400950952  0.0932529345130604  0.6010090017345249
  0.5382591818335101  0.2293580022525390  0.3786041022249620
  0.4519339068303552  0.0928819669440983  0.0973826861961271
  0.2280376419448515  0.2016251874786263  0.8775511326615089
  0.1036988393690237  0.1110952740033113  0.6123218297065449
  0.9080042540316597  0.1975035646309422  0.3697285852348884
  0.7608830020815347  0.1194343302123428  0.1176547586279639
  0.5634859942829493  0.2215747417688192  0.8511200749782049
  0.4444065535315005  0.0911238606257001  0.6014517119009923
  0.2347785537959126  0.5465501859098509  0.3235660487100418
  0.1117976938090877  0.4304335006463305  0.0955385644600284
  0.8800926552459742  0.5579308292696865  0.8496410781976991
  0.7655236730807289  0.4143914922824266  0.6101967967573287
  0.5347938767845335  0.5517132241574316  0.3716385235172268
  0.2349499325728601  0.5506954056367732  0.8198420031996676
  0.1348917244728298  0.4149280223522851  0.5974018309705826
  0.8858531693099962  0.5327376266510626  0.3762838063222702
  0.7747266365272907  0.4294026095574424  0.0872381032804057
  0.5336194460158765  0.5492688255919020  0.8673644322914171
  0.4434027932148510  0.4348141562264161  0.5983138355153557
  0.2222088989887041  0.8729918860587276  0.3399579863838582
  0.1175718916186597  0.7446790987966594  0.1101557715174835
  0.8839598006412075  0.8773660435946624  0.8496152237057615
  0.7656598625245863  0.7844919704726649  0.6096100705228551
  0.5420033409089342  0.8598470075994555  0.3731247464844216
  0.4666027351338897  0.7447091285465319  0.1184353905588722
  0.2327144430887955  0.8547296111481018  0.8506953713410041
  0.0999484584713883  0.7580717934531336  0.6106626990518862
  0.9087975420977941  0.8612262794405012  0.3634563461926348
  0.7726523837288539  0.7498810760929686  0.1087803662565179
  0.5647309459541532  0.8498797126052011  0.8667880869748998
  0.4647330743913400  0.7507521299170961  0.6205106588952987
  0.4455366420576965  0.4261605441850378  0.0921883203180229
 
  0.00000000E+00  0.00000000E+00  0.00000000E+00
  0.00000000E+00  0.00000000E+00  0.00000000E+00
  0.00000000E+00  0.00000000E+00  0.00000000E+00
  0.00000000E+00  0.00000000E+00  0.00000000E+00
  0.00000000E+00  0.00000000E+00  0.00000000E+00
  0.00000000E+00  0.00000000E+00  0.00000000E+00
  0.00000000E+00  0.00000000E+00  0.00000000E+00
  0.00000000E+00  0.00000000E+00  0.00000000E+00
  0.00000000E+00  0.00000000E+00  0.00000000E+00
  0.00000000E+00  0.00000000E+00  0.00000000E+00
  0.00000000E+00  0.00000000E+00  0.00000000E+00
  0.00000000E+00  0.00000000E+00  0.00000000E+00
  0.00000000E+00  0.00000000E+00  0.00000000E+00
  0.00000000E+00  0.00000000E+00  0.00000000E+00
  0.00000000E+00  0.00000000E+00  0.00000000E+00
  0.00000000E+00  0.00000000E+00  0.00000000E+00
  0.00000000E+00  0.00000000E+00  0.00000000E+00
  0.00000000E+00  0.00000000E+00  0.00000000E+00
  0.00000000E+00  0.00000000E+00  0.00000000E+00
  0.00000000E+00  0.00000000E+00  0.00000000E+00
  0.00000000E+00  0.00000000E+00  0.00000000E+00
  0.00000000E+00  0.00000000E+00  0.00000000E+00
  0.00000000E+00  0.00000000E+00  0.00000000E+00
  0.00000000E+00  0.00000000E+00  0.00000000E+00
  0.00000000E+00  0.00000000E+00  0.00000000E+00
  0.00000000E+00  0.00000000E+00  0.00000000E+00
  0.00000000E+00  0.00000000E+00  0.00000000E+00
  0.00000000E+00  0.00000000E+00  0.00000000E+00
  0.00000000E+00  0.00000000E+00  0.00000000E+00
  0.00000000E+00  0.00000000E+00  0.00000000E+00
  0.00000000E+00  0.00000000E+00  0.00000000E+00
  0.00000000E+00  0.00000000E+00  0.00000000E+00
  0.00000000E+00  0.00000000E+00  0.00000000E+00
  0.00000000E+00  0.00000000E+00  0.00000000E+00
  0.00000000E+00  0.00000000E+00  0.00000000E+00
  0.00000000E+00  0.00000000E+00  0.00000000E+00
  0.00000000E+00  0.00000000E+00  0.00000000E+00
  0.00000000E+00  0.00000000E+00  0.00000000E+00
  0.00000000E+00  0.00000000E+00  0.00000000E+00
  0.00000000E+00  0.00000000E+00  0.00000000E+00
  0.00000000E+00  0.00000000E+00  0.00000000E+00
  0.00000000E+00  0.00000000E+00  0.00000000E+00
  0.00000000E+00  0.00000000E+00  0.00000000E+00
  0.00000000E+00  0.00000000E+00  0.00000000E+00
  0.00000000E+00  0.00000000E+00  0.00000000E+00
  0.00000000E+00  0.00000000E+00  0.00000000E+00
  0.00000000E+00  0.00000000E+00  0.00000000E+00
  0.00000000E+00  0.00000000E+00  0.00000000E+00
  0.00000000E+00  0.00000000E+00  0.00000000E+00
  0.00000000E+00  0.00000000E+00  0.00000000E+00
  0.00000000E+00  0.00000000E+00  0.00000000E+00
  0.00000000E+00  0.00000000E+00  0.00000000E+00
  0.00000000E+00  0.00000000E+00  0.00000000E+00
  0.00000000E+00  0.00000000E+00  0.00000000E+00
  0.00000000E+00  0.00000000E+00  0.00000000E+00
  0.00000000E+00  0.00000000E+00  0.00000000E+00
  0.00000000E+00  0.00000000E+00  0.00000000E+00
  0.00000000E+00  0.00000000E+00  0.00000000E+00
  0.00000000E+00  0.00000000E+00  0.00000000E+00
  0.00000000E+00  0.00000000E+00  0.00000000E+00
  0.00000000E+00  0.00000000E+00  0.00000000E+00
  0.00000000E+00  0.00000000E+00  0.00000000E+00
  0.00000000E+00  0.00000000E+00  0.00000000E+00
  0.00000000E+00  0.00000000E+00  0.00000000E+00
  0.00000000E+00  0.00000000E+00  0.00000000E+00
  0.00000000E+00  0.00000000E+00  0.00000000E+00
  0.00000000E+00  0.00000000E+00  0.00000000E+00
  0.00000000E+00  0.00000000E+00  0.00000000E+00
  0.00000000E+00  0.00000000E+00  0.00000000E+00
  0.00000000E+00  0.00000000E+00  0.00000000E+00
  0.00000000E+00  0.00000000E+00  0.00000000E+00
  0.00000000E+00  0.00000000E+00  0.00000000E+00
