Al   Sc   N    O                        
   1.00000000000000     
    -9.9903076220227049    0.0162268514380836   -0.0141226434559825
    -4.9879968941181501    8.6817736899349693   -0.0105572265377695
     0.0204621384688115   -0.0356852020760156   -9.9596644808663726
   Al   Sc   N    O 
    23    13    35     1
Direct
  0.1107750754813850  0.0929363428453058  0.3083173116129103
  0.2211599107477795  0.2070788821452680  0.0639254402064751
  0.7747505111828872  0.0954311505692118  0.8019972989598756
  0.8901959589013373  0.2053208063073839  0.5613200693546574
  0.5600867484478727  0.2074661477609254  0.0572600512591492
  0.2246198146794640  0.2023241250641874  0.5588891661138504
  0.8823457491584321  0.2088501646562975  0.0607335331530336
  0.5475791797516933  0.2156902860834435  0.5645229108205143
  0.2199093189470531  0.5421723297656698  0.0681564549347087
  0.4401830678034031  0.4375131822218350  0.3177655862862636
  0.5577519293819009  0.5448891824816968  0.0595151089942334
  0.2284148900516882  0.5359605869138164  0.5702135783543270
  0.8836437886637185  0.5437950761407038  0.0497803592247834
  0.4427775014204443  0.4360501838519255  0.8133654359148608
  0.5515063785291900  0.5368864352811045  0.5605257382465751
  0.1165002384457452  0.7596223730663780  0.3073878617609438
  0.7715169623224938  0.7697302830079593  0.8057633745797332
  0.8909493046715724  0.8699828125655245  0.5667580891010644
  0.4432634183755084  0.7572632923564271  0.3120323166547507
  0.5621934653950689  0.8600957452727300  0.0576239857808218
  0.1130069871542076  0.7571773358744309  0.8130014772809062
  0.4483682035641152  0.7523749288458816  0.8101480477515963
  0.5531293876765773  0.8705016865586614  0.5638190261642464
  0.4450042204756386  0.0911143312971987  0.3204810317334363
  0.1085722511039364  0.0914022269019412  0.8206563625694940
  0.7773403261286305  0.0974428750950764  0.3329562212464339
  0.4537238406127813  0.0887531972360165  0.8211998095296806
  0.1153721195565893  0.4260726502359020  0.3192861074740421
  0.7663266061050962  0.4245194234168679  0.8248720202598463
  0.8891381983893609  0.5365537855568263  0.5857250286963236
  0.1214190432278954  0.4289993978109052  0.8292506020190800
  0.7736077159943946  0.4262361020317584  0.3154244219727573
  0.2291161561218473  0.8695716207593946  0.0720160626655044
  0.2240021243687309  0.8686593056806942  0.5646556197392272
  0.7768540651812756  0.7579592465958669  0.3242969427593891
  0.8811489854347201  0.8790656055510624  0.0625286682399206
  0.2155184266235182  0.1927501213232503  0.3669793692989103
  0.0983051158340302  0.1148624600505030  0.1130264823305467
  0.8784497965911271  0.1903018197871305  0.8725606669586554
  0.7757636458446697  0.0956144681424078  0.6051925827179829
  0.5378302384538287  0.2340609377571212  0.3746655645680690
  0.4512967757595092  0.0926642900191368  0.0983952985599004
  0.2272914464739415  0.1998796275503949  0.8774288059107889
  0.1039341790663286  0.1098415758538351  0.6105360987079251
  0.9085575539342585  0.1967886663377456  0.3720774189316174
  0.7635569348288982  0.1184042779550154  0.1198716865786622
  0.5625800118981346  0.2221890901798602  0.8665900868736003
  0.4453456968995724  0.0932780532185546  0.6012960786725543
  0.2312699492514270  0.5496367904414754  0.3508398388040135
  0.1093820366880891  0.4304848883611072  0.0946201363994987
  0.8792657541069957  0.5570410110695860  0.8511745707900431
  0.7632425380414531  0.4158128560044290  0.6081207171705358
  0.5346216826916290  0.5493071412596393  0.3683247477764411
  0.2360258626469047  0.5487642279237193  0.8774012949229757
  0.1374831728084658  0.4143828239946359  0.6076058788311940
  0.8897890413485570  0.5333266356679189  0.3766574139295074
  0.7766973410765274  0.4297255865536087  0.0913635361347929
  0.5329153622953910  0.5493457428413677  0.8750531330850961
  0.4424317877412349  0.4322424830442699  0.6211821952822092
  0.2225384091743550  0.8726192728829218  0.3421853661013472
  0.1145574116961896  0.7489728870726609  0.1160311576610980
  0.8832847128694397  0.8770585324436411  0.8493524152586645
  0.7648174974415696  0.7834432572482655  0.6124306257186447
  0.5433913929985721  0.8602788761052622  0.3753054755510519
  0.4663599622990660  0.7483265078567953  0.1218766027224092
  0.2323336275297123  0.8536343520150140  0.8524555489014602
  0.1045247026487672  0.7471930944231673  0.6212115631095187
  0.9113841866685064  0.8603546584229349  0.3720842195316152
  0.7724186533247774  0.7509786432374455  0.1092738844536285
  0.5630619326472299  0.8502829037485355  0.8672057620770843
  0.4640814648030727  0.7473470525326391  0.6199967430889899
  0.4482853520263674  0.4273739304239186  0.1188089360262339
 
  0.00000000E+00  0.00000000E+00  0.00000000E+00
  0.00000000E+00  0.00000000E+00  0.00000000E+00
  0.00000000E+00  0.00000000E+00  0.00000000E+00
  0.00000000E+00  0.00000000E+00  0.00000000E+00
  0.00000000E+00  0.00000000E+00  0.00000000E+00
  0.00000000E+00  0.00000000E+00  0.00000000E+00
  0.00000000E+00  0.00000000E+00  0.00000000E+00
  0.00000000E+00  0.00000000E+00  0.00000000E+00
  0.00000000E+00  0.00000000E+00  0.00000000E+00
  0.00000000E+00  0.00000000E+00  0.00000000E+00
  0.00000000E+00  0.00000000E+00  0.00000000E+00
  0.00000000E+00  0.00000000E+00  0.00000000E+00
  0.00000000E+00  0.00000000E+00  0.00000000E+00
  0.00000000E+00  0.00000000E+00  0.00000000E+00
  0.00000000E+00  0.00000000E+00  0.00000000E+00
  0.00000000E+00  0.00000000E+00  0.00000000E+00
  0.00000000E+00  0.00000000E+00  0.00000000E+00
  0.00000000E+00  0.00000000E+00  0.00000000E+00
  0.00000000E+00  0.00000000E+00  0.00000000E+00
  0.00000000E+00  0.00000000E+00  0.00000000E+00
  0.00000000E+00  0.00000000E+00  0.00000000E+00
  0.00000000E+00  0.00000000E+00  0.00000000E+00
  0.00000000E+00  0.00000000E+00  0.00000000E+00
  0.00000000E+00  0.00000000E+00  0.00000000E+00
  0.00000000E+00  0.00000000E+00  0.00000000E+00
  0.00000000E+00  0.00000000E+00  0.00000000E+00
  0.00000000E+00  0.00000000E+00  0.00000000E+00
  0.00000000E+00  0.00000000E+00  0.00000000E+00
  0.00000000E+00  0.00000000E+00  0.00000000E+00
  0.00000000E+00  0.00000000E+00  0.00000000E+00
  0.00000000E+00  0.00000000E+00  0.00000000E+00
  0.00000000E+00  0.00000000E+00  0.00000000E+00
  0.00000000E+00  0.00000000E+00  0.00000000E+00
  0.00000000E+00  0.00000000E+00  0.00000000E+00
  0.00000000E+00  0.00000000E+00  0.00000000E+00
  0.00000000E+00  0.00000000E+00  0.00000000E+00
  0.00000000E+00  0.00000000E+00  0.00000000E+00
  0.00000000E+00  0.00000000E+00  0.00000000E+00
  0.00000000E+00  0.00000000E+00  0.00000000E+00
  0.00000000E+00  0.00000000E+00  0.00000000E+00
  0.00000000E+00  0.00000000E+00  0.00000000E+00
  0.00000000E+00  0.00000000E+00  0.00000000E+00
  0.00000000E+00  0.00000000E+00  0.00000000E+00
  0.00000000E+00  0.00000000E+00  0.00000000E+00
  0.00000000E+00  0.00000000E+00  0.00000000E+00
  0.00000000E+00  0.00000000E+00  0.00000000E+00
  0.00000000E+00  0.00000000E+00  0.00000000E+00
  0.00000000E+00  0.00000000E+00  0.00000000E+00
  0.00000000E+00  0.00000000E+00  0.00000000E+00
  0.00000000E+00  0.00000000E+00  0.00000000E+00
  0.00000000E+00  0.00000000E+00  0.00000000E+00
  0.00000000E+00  0.00000000E+00  0.00000000E+00
  0.00000000E+00  0.00000000E+00  0.00000000E+00
  0.00000000E+00  0.00000000E+00  0.00000000E+00
  0.00000000E+00  0.00000000E+00  0.00000000E+00
  0.00000000E+00  0.00000000E+00  0.00000000E+00
  0.00000000E+00  0.00000000E+00  0.00000000E+00
  0.00000000E+00  0.00000000E+00  0.00000000E+00
  0.00000000E+00  0.00000000E+00  0.00000000E+00
  0.00000000E+00  0.00000000E+00  0.00000000E+00
  0.00000000E+00  0.00000000E+00  0.00000000E+00
  0.00000000E+00  0.00000000E+00  0.00000000E+00
  0.00000000E+00  0.00000000E+00  0.00000000E+00
  0.00000000E+00  0.00000000E+00  0.00000000E+00
  0.00000000E+00  0.00000000E+00  0.00000000E+00
  0.00000000E+00  0.00000000E+00  0.00000000E+00
  0.00000000E+00  0.00000000E+00  0.00000000E+00
  0.00000000E+00  0.00000000E+00  0.00000000E+00
  0.00000000E+00  0.00000000E+00  0.00000000E+00
  0.00000000E+00  0.00000000E+00  0.00000000E+00
  0.00000000E+00  0.00000000E+00  0.00000000E+00
  0.00000000E+00  0.00000000E+00  0.00000000E+00
