Al   Sc   N    O                        
   1.00000000000000     
    -9.9276915372635415    0.0167548707910381    0.0007773713638335
    -4.9779981609339981    8.6235498764869245   -0.0014949986754975
     0.0012225485015607    0.0024366387775927  -10.0982833333672612
   Al   Sc   N    O 
    23    13    35     1
Direct
  0.1089374205833025  0.0949368564378119  0.4067915161941258
  0.2207777386169454  0.2008098387937878  0.1522455451357203
  0.7704372066649867  0.1033535715159886  0.8971552630410784
  0.8814934350919188  0.2046231274557329  0.6505730409300412
  0.5513270654841236  0.2104649046886209  0.1460340144817920
  0.2239186997930105  0.2087842218917402  0.6482755242062623
  0.8894106833413602  0.2087715399490762  0.1494158438001634
  0.5566079364936130  0.2107238205269510  0.6509066996858834
  0.2232949956360102  0.5422109402641198  0.1523957088764760
  0.4383772020331378  0.4399185578430576  0.3989847454999449
  0.5554073107638473  0.5470388682962053  0.1491837186619875
  0.2271860145864721  0.5350039649694693  0.6470727028166081
  0.8853381109875187  0.5376415241680093  0.1541174551812716
  0.4425389596190712  0.4342065296237010  0.8885587826348456
  0.5531750582234451  0.5360136138005771  0.6504309104373220
  0.1109053366384458  0.7585670998505094  0.4043311454759788
  0.7723977910271671  0.7585081733621593  0.9003885223128520
  0.8828276851263865  0.8754064977182026  0.6593302522908289
  0.4458763681461306  0.7563390540532069  0.4018815852033200
  0.5529724519862427  0.8654814649531701  0.1432052707083287
  0.1225225563602308  0.7531417609129747  0.8908574378529934
  0.4453232739887056  0.7536346681108483  0.8945509119465456
  0.5606314506311350  0.8666269090593062  0.6529161697828627
  0.4438869301887607  0.0914378794335846  0.3939607006317161
  0.1105330229063171  0.0887577558172765  0.8859038307433451
  0.7796953459772382  0.0926456692592481  0.3915118734448981
  0.4516991028217348  0.0897531678974346  0.8858990265266300
  0.1228301169796779  0.4238496647286993  0.3821877603330890
  0.7716484628877538  0.4293254706512499  0.8946214709078717
  0.8901928253407405  0.5407768984795212  0.6386294919695459
  0.1146046332726911  0.4338780355838807  0.9025680018380768
  0.7678733960075306  0.4244578029502577  0.3896855651254754
  0.2256245763308726  0.8695735761746590  0.1569546328320612
  0.2255658270732255  0.8662399570590722  0.6279467863599990
  0.7746567538366875  0.7683695405928574  0.3879868148302990
  0.8911034842118468  0.8714571159543425  0.1201306675025293
  0.2163413946805974  0.1880899741794337  0.3385851541188458
  0.1029010781532236  0.1075232163840880  0.0952590254980024
  0.8779586844731213  0.1975087102951747  0.8365261219523319
  0.7768219162566652  0.0914561606509139  0.6038518217875151
  0.5396404424972516  0.2337486272586915  0.3314703514364723
  0.4451651668556593  0.0947130487645254  0.1037987751222076
  0.2210954759824517  0.2096484457140306  0.8347189816927809
  0.0988693145064943  0.1159496406787852  0.5981289889515793
  0.9079902272378604  0.1920040544494199  0.3360121530777676
  0.7620067933264352  0.1216553328622609  0.0895427076928499
  0.5590493232201510  0.2228381377837749  0.8410761661016650
  0.4485112546552230  0.0914125397070009  0.6127483027669172
  0.2330846368816992  0.5549757435320544  0.3361248396898731
  0.1163257565397089  0.4264662346824508  0.1200789672387970
  0.8840996992549108  0.5530873499438371  0.8462840272698600
  0.7666071868491215  0.4176684496292111  0.6039906526229899
  0.5291050933949037  0.5531305487780003  0.3322434368541991
  0.2343878459997200  0.5436852210484844  0.8352750795096284
  0.1338892656353252  0.4179581780692629  0.5952040909519027
  0.8871434878067959  0.5377638883732772  0.3443668362528740
  0.7741219960436538  0.4284710838638048  0.1126682055320316
  0.5376333015775785  0.5456239075508975  0.8396296202279103
  0.4446354654963542  0.4295495161344434  0.5894452952770166
  0.2212712671462782  0.8715932208077035  0.3780453299996580
  0.1310700484231972  0.7379706393925716  0.0777055982822432
  0.8845258631324242  0.8746976747442829  0.8588576048556149
  0.7681564690457208  0.7838908193345233  0.5980604830225857
  0.5413859095544495  0.8615989772759605  0.3293432357639858
  0.4570390073962187  0.7512221564238075  0.0833240368116037
  0.2337065210980356  0.8524450992030808  0.8407880273816843
  0.0952026125904339  0.7492316263605545  0.5941906758541506
  0.9114279160597221  0.8633514537475477  0.3282066842141091
  0.7683587399927276  0.7495439443638432  0.0933732157632150
  0.5628537197464567  0.8495296761273181  0.8414715374090349
  0.4724005242595268  0.7452354451253953  0.5884824557401629
  0.4411676296973539  0.4295627769763044  0.0843948210705747
 
  0.00000000E+00  0.00000000E+00  0.00000000E+00
  0.00000000E+00  0.00000000E+00  0.00000000E+00
  0.00000000E+00  0.00000000E+00  0.00000000E+00
  0.00000000E+00  0.00000000E+00  0.00000000E+00
  0.00000000E+00  0.00000000E+00  0.00000000E+00
  0.00000000E+00  0.00000000E+00  0.00000000E+00
  0.00000000E+00  0.00000000E+00  0.00000000E+00
  0.00000000E+00  0.00000000E+00  0.00000000E+00
  0.00000000E+00  0.00000000E+00  0.00000000E+00
  0.00000000E+00  0.00000000E+00  0.00000000E+00
  0.00000000E+00  0.00000000E+00  0.00000000E+00
  0.00000000E+00  0.00000000E+00  0.00000000E+00
  0.00000000E+00  0.00000000E+00  0.00000000E+00
  0.00000000E+00  0.00000000E+00  0.00000000E+00
  0.00000000E+00  0.00000000E+00  0.00000000E+00
  0.00000000E+00  0.00000000E+00  0.00000000E+00
  0.00000000E+00  0.00000000E+00  0.00000000E+00
  0.00000000E+00  0.00000000E+00  0.00000000E+00
  0.00000000E+00  0.00000000E+00  0.00000000E+00
  0.00000000E+00  0.00000000E+00  0.00000000E+00
  0.00000000E+00  0.00000000E+00  0.00000000E+00
  0.00000000E+00  0.00000000E+00  0.00000000E+00
  0.00000000E+00  0.00000000E+00  0.00000000E+00
  0.00000000E+00  0.00000000E+00  0.00000000E+00
  0.00000000E+00  0.00000000E+00  0.00000000E+00
  0.00000000E+00  0.00000000E+00  0.00000000E+00
  0.00000000E+00  0.00000000E+00  0.00000000E+00
  0.00000000E+00  0.00000000E+00  0.00000000E+00
  0.00000000E+00  0.00000000E+00  0.00000000E+00
  0.00000000E+00  0.00000000E+00  0.00000000E+00
  0.00000000E+00  0.00000000E+00  0.00000000E+00
  0.00000000E+00  0.00000000E+00  0.00000000E+00
  0.00000000E+00  0.00000000E+00  0.00000000E+00
  0.00000000E+00  0.00000000E+00  0.00000000E+00
  0.00000000E+00  0.00000000E+00  0.00000000E+00
  0.00000000E+00  0.00000000E+00  0.00000000E+00
  0.00000000E+00  0.00000000E+00  0.00000000E+00
  0.00000000E+00  0.00000000E+00  0.00000000E+00
  0.00000000E+00  0.00000000E+00  0.00000000E+00
  0.00000000E+00  0.00000000E+00  0.00000000E+00
  0.00000000E+00  0.00000000E+00  0.00000000E+00
  0.00000000E+00  0.00000000E+00  0.00000000E+00
  0.00000000E+00  0.00000000E+00  0.00000000E+00
  0.00000000E+00  0.00000000E+00  0.00000000E+00
  0.00000000E+00  0.00000000E+00  0.00000000E+00
  0.00000000E+00  0.00000000E+00  0.00000000E+00
  0.00000000E+00  0.00000000E+00  0.00000000E+00
  0.00000000E+00  0.00000000E+00  0.00000000E+00
  0.00000000E+00  0.00000000E+00  0.00000000E+00
  0.00000000E+00  0.00000000E+00  0.00000000E+00
  0.00000000E+00  0.00000000E+00  0.00000000E+00
  0.00000000E+00  0.00000000E+00  0.00000000E+00
  0.00000000E+00  0.00000000E+00  0.00000000E+00
  0.00000000E+00  0.00000000E+00  0.00000000E+00
  0.00000000E+00  0.00000000E+00  0.00000000E+00
  0.00000000E+00  0.00000000E+00  0.00000000E+00
  0.00000000E+00  0.00000000E+00  0.00000000E+00
  0.00000000E+00  0.00000000E+00  0.00000000E+00
  0.00000000E+00  0.00000000E+00  0.00000000E+00
  0.00000000E+00  0.00000000E+00  0.00000000E+00
  0.00000000E+00  0.00000000E+00  0.00000000E+00
  0.00000000E+00  0.00000000E+00  0.00000000E+00
  0.00000000E+00  0.00000000E+00  0.00000000E+00
  0.00000000E+00  0.00000000E+00  0.00000000E+00
  0.00000000E+00  0.00000000E+00  0.00000000E+00
  0.00000000E+00  0.00000000E+00  0.00000000E+00
  0.00000000E+00  0.00000000E+00  0.00000000E+00
  0.00000000E+00  0.00000000E+00  0.00000000E+00
  0.00000000E+00  0.00000000E+00  0.00000000E+00
  0.00000000E+00  0.00000000E+00  0.00000000E+00
  0.00000000E+00  0.00000000E+00  0.00000000E+00
  0.00000000E+00  0.00000000E+00  0.00000000E+00
