Al   Sc   N    O                        
   1.00000000000000     
   -10.0054963985654535    0.0172961651849283   -0.0000831808157946
    -5.0237132405509284    8.6818064128667736   -0.0020286597562754
     0.0361050563654775   -0.0520037123189429   -9.9163674789100931
   Al   Sc   N    O 
    23    13    35     1
Direct
  0.1095549368940922  0.0944536457389944  0.4014269004929290
  0.2201824791912657  0.2001553968809020  0.1444003758868817
  0.7698734600778678  0.1049480495960680  0.8923574946730923
  0.8794995122742790  0.2050065409827582  0.6439756467134004
  0.5510102059378710  0.2112612805680953  0.1393906726150576
  0.2255123562756935  0.2089875363788778  0.6425478990645956
  0.8906733503905073  0.2076824691962713  0.1416743706391799
  0.5571186738121625  0.2106664053330078  0.6436280618234349
  0.2235082521794425  0.5421249308039222  0.1461086522510584
  0.4383668838310797  0.4407398011969619  0.3937569411243302
  0.5549002855262657  0.5478469030466115  0.1420823102287159
  0.2279998203117373  0.5349666667934585  0.6409998991832921
  0.8857694040676733  0.5362173873921066  0.1540422439790561
  0.4429412835093132  0.4341007981258187  0.8827761023725245
  0.5523407014785136  0.5359544741726268  0.6456003375234829
  0.1116590342671273  0.7586242700444714  0.3969627597506786
  0.7736394306065080  0.7613363078194979  0.8696493828041127
  0.8843533270883412  0.8774048753828581  0.6490606671013168
  0.4441077053289320  0.7561417676577236  0.3957640450951203
  0.5545475456655495  0.8632739255173405  0.1401256318608617
  0.1238725328005472  0.7528045506685288  0.8842244078693255
  0.4457578327852900  0.7545708407524856  0.8890758495178162
  0.5573410767717846  0.8682052203049437  0.6426080717362410
  0.4438157113207524  0.0928526933975533  0.3839477641882567
  0.1095111114662899  0.0915148449115009  0.8750569425551049
  0.7800148515503125  0.0927199400146534  0.3794935180223220
  0.4522733809298245  0.0901747578692849  0.8799491322131274
  0.1266783603801613  0.4216793642445253  0.3748155304134997
  0.7721398761818605  0.4322751322222942  0.8865397902785332
  0.8920150555980726  0.5366283073098757  0.6215482015591078
  0.1124251958266527  0.4368609111772699  0.8942781959014638
  0.7659441627946180  0.4222100939544120  0.3814012878403119
  0.2236178350839211  0.8712291499347344  0.1459654269537296
  0.2253852124384750  0.8659710921099091  0.6222701583619568
  0.7749895060208019  0.7684936308922588  0.3791980076334696
  0.8897213455957882  0.8676260313926392  0.1113621652109344
  0.2161637154393858  0.1870117861041578  0.3343846674283100
  0.1021931848372049  0.1086788804485010  0.0879971749010977
  0.8758092625279730  0.1995641415073095  0.8337504529910476
  0.7764581069438279  0.0919672207635926  0.5961864458991855
  0.5390657897684576  0.2358598715377553  0.3274359745541986
  0.4462611335397497  0.0934286945255849  0.1020038108110057
  0.2223698519805737  0.2110080285847005  0.8328620447928614
  0.0989474080088186  0.1159560554692618  0.5973686877399373
  0.9098774894610600  0.1906130553531327  0.3316841582095762
  0.7625672272364383  0.1196873001612815  0.0879332012966785
  0.5594895842264833  0.2226617520682694  0.8374060229935765
  0.4484979941212117  0.0920699867509711  0.6069912920635758
  0.2339891499115296  0.5546149336610640  0.3325970891853771
  0.1152804381744090  0.4265248461956048  0.1173441736922314
  0.8843564078109836  0.5531521672871307  0.8348658302155343
  0.7642397208473710  0.4166398262068967  0.5997162948538843
  0.5278243927005164  0.5533535286244344  0.3277216927742899
  0.2353371337328483  0.5437279891841484  0.8318311046270637
  0.1370989308057062  0.4165805811870911  0.5914327131535302
  0.8891684645841949  0.5341247051741931  0.3530242482878947
  0.7747323398079686  0.4281384381531836  0.1106657187033306
  0.5374842192230815  0.5460020951427467  0.8381900488213532
  0.4447400680984970  0.4296179607329620  0.5865868330197586
  0.2207279002052758  0.8718561447937958  0.3716549156894402
  0.1296898635391415  0.7372745133443672  0.0736462373187763
  0.8850948119220163  0.8766484143677218  0.8521209545184476
  0.7684810024624156  0.7834266031474826  0.5994672858522847
  0.5402159100518418  0.8617587326572433  0.3307193645311699
  0.4570850969205225  0.7520963362851205  0.0805668277362201
  0.2335790929993280  0.8534565728723607  0.8394794961831877
  0.0966945246079476  0.7491486848668956  0.5902161336455478
  0.9122243108260335  0.8624608525658815  0.3248802512549602
  0.7694701275160725  0.7467302492218408  0.1018615605360296
  0.5605180128133185  0.8513061185166748  0.8352298561722691
  0.4700901761188021  0.7445154281976656  0.5855517648900346
  0.4406965977549646  0.4293134498853632  0.0795017244122960
 
  0.00000000E+00  0.00000000E+00  0.00000000E+00
  0.00000000E+00  0.00000000E+00  0.00000000E+00
  0.00000000E+00  0.00000000E+00  0.00000000E+00
  0.00000000E+00  0.00000000E+00  0.00000000E+00
  0.00000000E+00  0.00000000E+00  0.00000000E+00
  0.00000000E+00  0.00000000E+00  0.00000000E+00
  0.00000000E+00  0.00000000E+00  0.00000000E+00
  0.00000000E+00  0.00000000E+00  0.00000000E+00
  0.00000000E+00  0.00000000E+00  0.00000000E+00
  0.00000000E+00  0.00000000E+00  0.00000000E+00
  0.00000000E+00  0.00000000E+00  0.00000000E+00
  0.00000000E+00  0.00000000E+00  0.00000000E+00
  0.00000000E+00  0.00000000E+00  0.00000000E+00
  0.00000000E+00  0.00000000E+00  0.00000000E+00
  0.00000000E+00  0.00000000E+00  0.00000000E+00
  0.00000000E+00  0.00000000E+00  0.00000000E+00
  0.00000000E+00  0.00000000E+00  0.00000000E+00
  0.00000000E+00  0.00000000E+00  0.00000000E+00
  0.00000000E+00  0.00000000E+00  0.00000000E+00
  0.00000000E+00  0.00000000E+00  0.00000000E+00
  0.00000000E+00  0.00000000E+00  0.00000000E+00
  0.00000000E+00  0.00000000E+00  0.00000000E+00
  0.00000000E+00  0.00000000E+00  0.00000000E+00
  0.00000000E+00  0.00000000E+00  0.00000000E+00
  0.00000000E+00  0.00000000E+00  0.00000000E+00
  0.00000000E+00  0.00000000E+00  0.00000000E+00
  0.00000000E+00  0.00000000E+00  0.00000000E+00
  0.00000000E+00  0.00000000E+00  0.00000000E+00
  0.00000000E+00  0.00000000E+00  0.00000000E+00
  0.00000000E+00  0.00000000E+00  0.00000000E+00
  0.00000000E+00  0.00000000E+00  0.00000000E+00
  0.00000000E+00  0.00000000E+00  0.00000000E+00
  0.00000000E+00  0.00000000E+00  0.00000000E+00
  0.00000000E+00  0.00000000E+00  0.00000000E+00
  0.00000000E+00  0.00000000E+00  0.00000000E+00
  0.00000000E+00  0.00000000E+00  0.00000000E+00
  0.00000000E+00  0.00000000E+00  0.00000000E+00
  0.00000000E+00  0.00000000E+00  0.00000000E+00
  0.00000000E+00  0.00000000E+00  0.00000000E+00
  0.00000000E+00  0.00000000E+00  0.00000000E+00
  0.00000000E+00  0.00000000E+00  0.00000000E+00
  0.00000000E+00  0.00000000E+00  0.00000000E+00
  0.00000000E+00  0.00000000E+00  0.00000000E+00
  0.00000000E+00  0.00000000E+00  0.00000000E+00
  0.00000000E+00  0.00000000E+00  0.00000000E+00
  0.00000000E+00  0.00000000E+00  0.00000000E+00
  0.00000000E+00  0.00000000E+00  0.00000000E+00
  0.00000000E+00  0.00000000E+00  0.00000000E+00
  0.00000000E+00  0.00000000E+00  0.00000000E+00
  0.00000000E+00  0.00000000E+00  0.00000000E+00
  0.00000000E+00  0.00000000E+00  0.00000000E+00
  0.00000000E+00  0.00000000E+00  0.00000000E+00
  0.00000000E+00  0.00000000E+00  0.00000000E+00
  0.00000000E+00  0.00000000E+00  0.00000000E+00
  0.00000000E+00  0.00000000E+00  0.00000000E+00
  0.00000000E+00  0.00000000E+00  0.00000000E+00
  0.00000000E+00  0.00000000E+00  0.00000000E+00
  0.00000000E+00  0.00000000E+00  0.00000000E+00
  0.00000000E+00  0.00000000E+00  0.00000000E+00
  0.00000000E+00  0.00000000E+00  0.00000000E+00
  0.00000000E+00  0.00000000E+00  0.00000000E+00
  0.00000000E+00  0.00000000E+00  0.00000000E+00
  0.00000000E+00  0.00000000E+00  0.00000000E+00
  0.00000000E+00  0.00000000E+00  0.00000000E+00
  0.00000000E+00  0.00000000E+00  0.00000000E+00
  0.00000000E+00  0.00000000E+00  0.00000000E+00
  0.00000000E+00  0.00000000E+00  0.00000000E+00
  0.00000000E+00  0.00000000E+00  0.00000000E+00
  0.00000000E+00  0.00000000E+00  0.00000000E+00
  0.00000000E+00  0.00000000E+00  0.00000000E+00
  0.00000000E+00  0.00000000E+00  0.00000000E+00
  0.00000000E+00  0.00000000E+00  0.00000000E+00
