Al   Sc   N    O                        
   1.00000000000000     
   -10.0669024201392041    0.0191004798312288   -0.0029516880812216
    -5.0948811414365789    8.7440772519330121   -0.0038075300255349
     0.0044595277904678   -0.1052107197845145   -9.8227099768021855
   Al   Sc   N    O 
    23    13    35     1
Direct
  0.1099547676667996  0.0944090600347138  0.3972595857816046
  0.2179388855205602  0.2033928021982661  0.1408251264549207
  0.7699331198025661  0.1042319236234874  0.8938335375986242
  0.8812230635880240  0.2009166200965780  0.6420985477254604
  0.5501974965254561  0.2118806808688518  0.1393096149275621
  0.2282195210983318  0.2062750523051378  0.6399321446175250
  0.8895487227094492  0.2120155464433537  0.1408496904588148
  0.5574836380129682  0.2109447912515279  0.6422137150421676
  0.2205834758002041  0.5415569928426507  0.1457626372187093
  0.4390026150620159  0.4393427210172121  0.3940700424382015
  0.5583820927916179  0.5430914291539466  0.1419186143705531
  0.2293527269889424  0.5366856055786187  0.6401836039240436
  0.8843977239092169  0.5412652575266890  0.0876632048602204
  0.4418459838924065  0.4340153774350384  0.8866631312566540
  0.5518190801196496  0.5318671741115253  0.6484466822984274
  0.1109722566639988  0.7585835450469958  0.3937476790096710
  0.7693324959940924  0.7677236980658435  0.8353651927151517
  0.8850982942538010  0.8799767520706112  0.6497699023296803
  0.4404662805456852  0.7603022864894058  0.3395722411758086
  0.5583215850768397  0.8605545436262787  0.0837111436504117
  0.1221514655906191  0.7530590385427587  0.8844776894387536
  0.4472636304609310  0.7568939515792579  0.8358438980769307
  0.5554261071216615  0.8688439372491743  0.5885623667112441
  0.4439669921572715  0.0933967696604796  0.3736700838639564
  0.1092778576933711  0.0923026101195674  0.8719385055006157
  0.7800037865593481  0.0931685649213634  0.3759447484919889
  0.4550129918953729  0.0893761686068473  0.8704775699347067
  0.1227311776666156  0.4231337014930290  0.3777339506458972
  0.7700152423643800  0.4249913375106402  0.8761997851480459
  0.8919770005108916  0.5367486015951783  0.6202841382729716
  0.1221636884021748  0.4315499677805690  0.8811934597587339
  0.7701702644799937  0.4240416935102758  0.3857382058855450
  0.2159977014516272  0.8759188724072189  0.1296580949529869
  0.2256128922261524  0.8660715605459544  0.6152087400655049
  0.7794012596077593  0.7573540507979359  0.3536364975374156
  0.8873031427502625  0.8688509786722420  0.1084194874241504
  0.2146635967853783  0.1892440718707888  0.3336614101616817
  0.0992710997378978  0.1145419239738743  0.0862596749323643
  0.8781560920681031  0.1926189821812088  0.8326923649054336
  0.7765453368888160  0.0909854526092246  0.5948235801175699
  0.5389915683734401  0.2356103163487049  0.3289691601874836
  0.4469389701578095  0.0937332438104690  0.1048831289690355
  0.2262327276633798  0.2050130913075563  0.8319765762338847
  0.1007120459039967  0.1146473148826743  0.5960415290454435
  0.9088900516119409  0.1932318838184486  0.3328754832967462
  0.7626322492886928  0.1214244853860080  0.0908516075244989
  0.5600470853280513  0.2239570739538479  0.8387990277179185
  0.4502482166994710  0.0940271102828660  0.6090018456490398
  0.2333653793824126  0.5525543527444086  0.3345076055319751
  0.1138168846151331  0.4278725616915438  0.1103139769813382
  0.8823017673940257  0.5557785300820086  0.8696724241344711
  0.7646190010815772  0.4152955871873942  0.6129889141437985
  0.5345262941714779  0.5447895239067577  0.3338268951791150
  0.2372770428629707  0.5463023159820111  0.8319352956938886
  0.1386617204584155  0.4166244401593175  0.6035465985797046
  0.8915786120674980  0.5334720306085501  0.4011627488222587
  0.7756129577981028  0.4296886672032869  0.1050514889616920
  0.5355790383761985  0.5445280170261952  0.8496659951793291
  0.4452517469582986  0.4292341941403350  0.5882531300284555
  0.2197712531709115  0.8716068737634970  0.3685144355062917
  0.1261677054948933  0.7355802671497216  0.0751120597407322
  0.8849219367248864  0.8783777592190276  0.8566225584983158
  0.7655319159286051  0.7839933829946730  0.6361017458167453
  0.5443491828972640  0.8584582137382029  0.3957921649222840
  0.4547188591367188  0.7585801693865477  0.1365252808265538
  0.2303474960259493  0.8553091194686004  0.8484500057331061
  0.0965520012401058  0.7501054499551572  0.5906496810391033
  0.9113171367108350  0.8629951053954414  0.3263395591539293
  0.7678545427880366  0.7484062606204702  0.1316998479920883
  0.5627690897234814  0.8489526348260554  0.8894161387620017
  0.4679774992190389  0.7478869444951357  0.6374794025290527
  0.4387907284992423  0.4285269077474254  0.0824733526479733
 
  0.00000000E+00  0.00000000E+00  0.00000000E+00
  0.00000000E+00  0.00000000E+00  0.00000000E+00
  0.00000000E+00  0.00000000E+00  0.00000000E+00
  0.00000000E+00  0.00000000E+00  0.00000000E+00
  0.00000000E+00  0.00000000E+00  0.00000000E+00
  0.00000000E+00  0.00000000E+00  0.00000000E+00
  0.00000000E+00  0.00000000E+00  0.00000000E+00
  0.00000000E+00  0.00000000E+00  0.00000000E+00
  0.00000000E+00  0.00000000E+00  0.00000000E+00
  0.00000000E+00  0.00000000E+00  0.00000000E+00
  0.00000000E+00  0.00000000E+00  0.00000000E+00
  0.00000000E+00  0.00000000E+00  0.00000000E+00
  0.00000000E+00  0.00000000E+00  0.00000000E+00
  0.00000000E+00  0.00000000E+00  0.00000000E+00
  0.00000000E+00  0.00000000E+00  0.00000000E+00
  0.00000000E+00  0.00000000E+00  0.00000000E+00
  0.00000000E+00  0.00000000E+00  0.00000000E+00
  0.00000000E+00  0.00000000E+00  0.00000000E+00
  0.00000000E+00  0.00000000E+00  0.00000000E+00
  0.00000000E+00  0.00000000E+00  0.00000000E+00
  0.00000000E+00  0.00000000E+00  0.00000000E+00
  0.00000000E+00  0.00000000E+00  0.00000000E+00
  0.00000000E+00  0.00000000E+00  0.00000000E+00
  0.00000000E+00  0.00000000E+00  0.00000000E+00
  0.00000000E+00  0.00000000E+00  0.00000000E+00
  0.00000000E+00  0.00000000E+00  0.00000000E+00
  0.00000000E+00  0.00000000E+00  0.00000000E+00
  0.00000000E+00  0.00000000E+00  0.00000000E+00
  0.00000000E+00  0.00000000E+00  0.00000000E+00
  0.00000000E+00  0.00000000E+00  0.00000000E+00
  0.00000000E+00  0.00000000E+00  0.00000000E+00
  0.00000000E+00  0.00000000E+00  0.00000000E+00
  0.00000000E+00  0.00000000E+00  0.00000000E+00
  0.00000000E+00  0.00000000E+00  0.00000000E+00
  0.00000000E+00  0.00000000E+00  0.00000000E+00
  0.00000000E+00  0.00000000E+00  0.00000000E+00
  0.00000000E+00  0.00000000E+00  0.00000000E+00
  0.00000000E+00  0.00000000E+00  0.00000000E+00
  0.00000000E+00  0.00000000E+00  0.00000000E+00
  0.00000000E+00  0.00000000E+00  0.00000000E+00
  0.00000000E+00  0.00000000E+00  0.00000000E+00
  0.00000000E+00  0.00000000E+00  0.00000000E+00
  0.00000000E+00  0.00000000E+00  0.00000000E+00
  0.00000000E+00  0.00000000E+00  0.00000000E+00
  0.00000000E+00  0.00000000E+00  0.00000000E+00
  0.00000000E+00  0.00000000E+00  0.00000000E+00
  0.00000000E+00  0.00000000E+00  0.00000000E+00
  0.00000000E+00  0.00000000E+00  0.00000000E+00
  0.00000000E+00  0.00000000E+00  0.00000000E+00
  0.00000000E+00  0.00000000E+00  0.00000000E+00
  0.00000000E+00  0.00000000E+00  0.00000000E+00
  0.00000000E+00  0.00000000E+00  0.00000000E+00
  0.00000000E+00  0.00000000E+00  0.00000000E+00
  0.00000000E+00  0.00000000E+00  0.00000000E+00
  0.00000000E+00  0.00000000E+00  0.00000000E+00
  0.00000000E+00  0.00000000E+00  0.00000000E+00
  0.00000000E+00  0.00000000E+00  0.00000000E+00
  0.00000000E+00  0.00000000E+00  0.00000000E+00
  0.00000000E+00  0.00000000E+00  0.00000000E+00
  0.00000000E+00  0.00000000E+00  0.00000000E+00
  0.00000000E+00  0.00000000E+00  0.00000000E+00
  0.00000000E+00  0.00000000E+00  0.00000000E+00
  0.00000000E+00  0.00000000E+00  0.00000000E+00
  0.00000000E+00  0.00000000E+00  0.00000000E+00
  0.00000000E+00  0.00000000E+00  0.00000000E+00
  0.00000000E+00  0.00000000E+00  0.00000000E+00
  0.00000000E+00  0.00000000E+00  0.00000000E+00
  0.00000000E+00  0.00000000E+00  0.00000000E+00
  0.00000000E+00  0.00000000E+00  0.00000000E+00
  0.00000000E+00  0.00000000E+00  0.00000000E+00
  0.00000000E+00  0.00000000E+00  0.00000000E+00
  0.00000000E+00  0.00000000E+00  0.00000000E+00
