Al   Sc   N    O                        
   1.00000000000000     
   -10.0900765805160635    0.0202732843513241   -0.0048162178037492
    -5.1122403797693510    8.7417430706149020   -0.0049637957005535
     0.0297096296982837   -0.0470529810355608   -9.8043267527487767
   Al   Sc   N    O 
    23    13    35     1
Direct
  0.1104874469289641  0.0939298931196433  0.3975905211552586
  0.2172382644757960  0.2034270449708657  0.1402796938649900
  0.7695437170644936  0.1047479485655387  0.8941339163473856
  0.8812863705190566  0.2005931104502494  0.6397086403675871
  0.5479804128669485  0.2107500275875722  0.1396879281298524
  0.2281668148990121  0.2059962192225555  0.6409033454482795
  0.8904778315584991  0.2091007785444035  0.1372336383380670
  0.5575800447406039  0.2127367205395174  0.6432194285524631
  0.2196893373985702  0.5389247747932018  0.1440993360059579
  0.4360857922181580  0.4367366906776553  0.3928643100503635
  0.5604861233736784  0.5541731326579011  0.0944922643537538
  0.2303855060741782  0.5365820914309012  0.6407595375064901
  0.8844137763757800  0.5407068630744405  0.0802842166465609
  0.4406561546252874  0.4344232151500123  0.8900419117743326
  0.5532032951324339  0.5384849438945167  0.5796381576403036
  0.1108783833855895  0.7589623123034812  0.3939303911035097
  0.7690594549486249  0.7667576553503324  0.8379247973671298
  0.8850511479364158  0.8797414072563541  0.6509418205912780
  0.4422036418487494  0.7602191239269800  0.3429776025218132
  0.5572600949949589  0.8626859356621779  0.0852507290893030
  0.1231946541074080  0.7531508089348335  0.8851017784753452
  0.4491935708097330  0.7511472616248795  0.8359306429153435
  0.5566248375911584  0.8680826320227908  0.5928187305693413
  0.4434764330251753  0.0932268219429062  0.3762489339762567
  0.1097513893709561  0.0917292898796376  0.8715600432042834
  0.7800079391119326  0.0937535780797916  0.3754142656740598
  0.4558574274607849  0.0889267532807168  0.8694125649262148
  0.1233812840613950  0.4235536367381698  0.3782301593154713
  0.7630285225394502  0.4277094081748061  0.8549286331969199
  0.8909696884710741  0.5372903589104752  0.6169871180402851
  0.1222815214775252  0.4314025525641014  0.8779414614417078
  0.7763867348782796  0.4266752781366137  0.3577733026738841
  0.2174269278960566  0.8743447176877552  0.1323815941553477
  0.2261328852412632  0.8649146104191914  0.6167409340772423
  0.7785449038409098  0.7591018971757819  0.3517270989929315
  0.8884085366601155  0.8684016805428740  0.1076665549808666
  0.2140051380604220  0.1901308900966256  0.3343933245367836
  0.1005034012938211  0.1120857244901003  0.0864087887451745
  0.8781864833911328  0.1925458586164481  0.8330541853661799
  0.7764383760112281  0.0910410112524929  0.5949854136166763
  0.5389863937323724  0.2342263164656089  0.3298309387670812
  0.4467488035913050  0.0915278381255007  0.1060975249242588
  0.2268062378729496  0.2042743314473228  0.8334043769083763
  0.1011399183931729  0.1139809878849931  0.5969351708846915
  0.9104148248910491  0.1911058300318658  0.3317222290438551
  0.7614025424514352  0.1213529390489754  0.0912951049493032
  0.5603092135809220  0.2255480879524612  0.8393277751463870
  0.4503067230877349  0.0937546822973232  0.6121318519932970
  0.2326590716274168  0.5531786147479494  0.3332736316695062
  0.1119609070262442  0.4275882838789613  0.1081799941414232
  0.8807544700249679  0.5535805602648551  0.8712583132736853
  0.7640686912653862  0.4163684664649878  0.6179452967133869
  0.5350369792779333  0.5508800187139826  0.3803574799899110
  0.2379917831830980  0.5470081345371511  0.8321077210310648
  0.1379964826010038  0.4172232773270323  0.6058426937207813
  0.8929658352187033  0.5355577719165936  0.4014459034357287
  0.7778121779981717  0.4299932128633515  0.1149077112064063
  0.5313347256725578  0.5528461259136890  0.9055365466436029
  0.4436320389498505  0.4275280996882458  0.5895642484579753
  0.2202559757030045  0.8716792969780656  0.3700634558007891
  0.1274472207919572  0.7353443166157376  0.0759311567370133
  0.8850405361829274  0.8781230236870314  0.8579098610453002
  0.7662380233570545  0.7834967414117457  0.6390102977594836
  0.5452084302630738  0.8588111766293665  0.4003273107879011
  0.4573840052481373  0.7585296157725310  0.1477653439897040
  0.2314479062644139  0.8546378412220363  0.8476607931097533
  0.0964577315773241  0.7505735721814588  0.5911159078838182
  0.9110070531070846  0.8631911224092619  0.3264391510431324
  0.7684180846424695  0.7481033181271499  0.1292319561688871
  0.5612534927970287  0.8482497648131186  0.8901370014171590
  0.4716533325255270  0.7422969436239910  0.6425833526152616
  0.4295193970209894  0.4192391015136607  0.0855078433639775
 
  0.00000000E+00  0.00000000E+00  0.00000000E+00
  0.00000000E+00  0.00000000E+00  0.00000000E+00
  0.00000000E+00  0.00000000E+00  0.00000000E+00
  0.00000000E+00  0.00000000E+00  0.00000000E+00
  0.00000000E+00  0.00000000E+00  0.00000000E+00
  0.00000000E+00  0.00000000E+00  0.00000000E+00
  0.00000000E+00  0.00000000E+00  0.00000000E+00
  0.00000000E+00  0.00000000E+00  0.00000000E+00
  0.00000000E+00  0.00000000E+00  0.00000000E+00
  0.00000000E+00  0.00000000E+00  0.00000000E+00
  0.00000000E+00  0.00000000E+00  0.00000000E+00
  0.00000000E+00  0.00000000E+00  0.00000000E+00
  0.00000000E+00  0.00000000E+00  0.00000000E+00
  0.00000000E+00  0.00000000E+00  0.00000000E+00
  0.00000000E+00  0.00000000E+00  0.00000000E+00
  0.00000000E+00  0.00000000E+00  0.00000000E+00
  0.00000000E+00  0.00000000E+00  0.00000000E+00
  0.00000000E+00  0.00000000E+00  0.00000000E+00
  0.00000000E+00  0.00000000E+00  0.00000000E+00
  0.00000000E+00  0.00000000E+00  0.00000000E+00
  0.00000000E+00  0.00000000E+00  0.00000000E+00
  0.00000000E+00  0.00000000E+00  0.00000000E+00
  0.00000000E+00  0.00000000E+00  0.00000000E+00
  0.00000000E+00  0.00000000E+00  0.00000000E+00
  0.00000000E+00  0.00000000E+00  0.00000000E+00
  0.00000000E+00  0.00000000E+00  0.00000000E+00
  0.00000000E+00  0.00000000E+00  0.00000000E+00
  0.00000000E+00  0.00000000E+00  0.00000000E+00
  0.00000000E+00  0.00000000E+00  0.00000000E+00
  0.00000000E+00  0.00000000E+00  0.00000000E+00
  0.00000000E+00  0.00000000E+00  0.00000000E+00
  0.00000000E+00  0.00000000E+00  0.00000000E+00
  0.00000000E+00  0.00000000E+00  0.00000000E+00
  0.00000000E+00  0.00000000E+00  0.00000000E+00
  0.00000000E+00  0.00000000E+00  0.00000000E+00
  0.00000000E+00  0.00000000E+00  0.00000000E+00
  0.00000000E+00  0.00000000E+00  0.00000000E+00
  0.00000000E+00  0.00000000E+00  0.00000000E+00
  0.00000000E+00  0.00000000E+00  0.00000000E+00
  0.00000000E+00  0.00000000E+00  0.00000000E+00
  0.00000000E+00  0.00000000E+00  0.00000000E+00
  0.00000000E+00  0.00000000E+00  0.00000000E+00
  0.00000000E+00  0.00000000E+00  0.00000000E+00
  0.00000000E+00  0.00000000E+00  0.00000000E+00
  0.00000000E+00  0.00000000E+00  0.00000000E+00
  0.00000000E+00  0.00000000E+00  0.00000000E+00
  0.00000000E+00  0.00000000E+00  0.00000000E+00
  0.00000000E+00  0.00000000E+00  0.00000000E+00
  0.00000000E+00  0.00000000E+00  0.00000000E+00
  0.00000000E+00  0.00000000E+00  0.00000000E+00
  0.00000000E+00  0.00000000E+00  0.00000000E+00
  0.00000000E+00  0.00000000E+00  0.00000000E+00
  0.00000000E+00  0.00000000E+00  0.00000000E+00
  0.00000000E+00  0.00000000E+00  0.00000000E+00
  0.00000000E+00  0.00000000E+00  0.00000000E+00
  0.00000000E+00  0.00000000E+00  0.00000000E+00
  0.00000000E+00  0.00000000E+00  0.00000000E+00
  0.00000000E+00  0.00000000E+00  0.00000000E+00
  0.00000000E+00  0.00000000E+00  0.00000000E+00
  0.00000000E+00  0.00000000E+00  0.00000000E+00
  0.00000000E+00  0.00000000E+00  0.00000000E+00
  0.00000000E+00  0.00000000E+00  0.00000000E+00
  0.00000000E+00  0.00000000E+00  0.00000000E+00
  0.00000000E+00  0.00000000E+00  0.00000000E+00
  0.00000000E+00  0.00000000E+00  0.00000000E+00
  0.00000000E+00  0.00000000E+00  0.00000000E+00
  0.00000000E+00  0.00000000E+00  0.00000000E+00
  0.00000000E+00  0.00000000E+00  0.00000000E+00
  0.00000000E+00  0.00000000E+00  0.00000000E+00
  0.00000000E+00  0.00000000E+00  0.00000000E+00
  0.00000000E+00  0.00000000E+00  0.00000000E+00
  0.00000000E+00  0.00000000E+00  0.00000000E+00
