Al   Sc   N    O                        
   1.00000000000000     
   -10.0379759116317633    0.0191375863013126   -0.0119658914068045
    -5.0178602935351488    8.7553173644475351   -0.0092963966096115
     0.0805150201649342   -0.0970130978788597   -9.8551385127090896
   Al   Sc   N    O 
    23    13    35     1
Direct
  0.1090725442855671  0.0932321805358072  0.3054131545371206
  0.2212397930962666  0.2079208286131049  0.0681051026939556
  0.7815963323270338  0.0912778114077994  0.7971236356972469
  0.8939880406210321  0.2060629280460091  0.5610700311562411
  0.5488128821833484  0.2185475989372705  0.1319343319310562
  0.2238590107637606  0.2016006696128940  0.5625159919567793
  0.8799293432542470  0.2073488313053318  0.0602256027601413
  0.5535012574671043  0.2075129537848071  0.6080239588120193
  0.2288966116624991  0.5345089191855621  0.1217892377491339
  0.4327850542893543  0.4406750614869850  0.3826543874692518
  0.5522847201308920  0.5406549195862098  0.0556810315310798
  0.2219445116149359  0.5410176567296361  0.6174111861195470
  0.8842249664165678  0.5435568973497880  0.0519806095955744
  0.4474690697636277  0.4356204801787058  0.8097663136003277
  0.5578308689792095  0.5434677823869833  0.5622234878680885
  0.1154221768841381  0.7619159854578825  0.3074947036728659
  0.7727364525970444  0.7702047197107262  0.8063050605361113
  0.8918325864656609  0.8687111901306679  0.5599311331390879
  0.4432277836353009  0.7542405107445731  0.3101460011470536
  0.5626994271251604  0.8569824208085706  0.0599589534227007
  0.1090907763642122  0.7652793478392468  0.8086400462245962
  0.4486729988743789  0.7542774366192475  0.8111570690518874
  0.5537524128707076  0.8701734175926106  0.5651749802526069
  0.4420433352509292  0.0866997155616858  0.3321374649476567
  0.1106963996813519  0.0922787143369348  0.8263852809750105
  0.7783052178589998  0.0972963502235942  0.3419129596497044
  0.4578681289677249  0.0894786240044994  0.8363143781162137
  0.1156645763257060  0.4247039881261543  0.3364834952076947
  0.7689713202556590  0.4228669093245685  0.8282138383340651
  0.8877023824111916  0.5367790652247351  0.5883270041270308
  0.1217409048053355  0.4307957276589462  0.8394367210251161
  0.7705500291420080  0.4255872605164512  0.3121870794507942
  0.2285009491543590  0.8673155796504233  0.0726238208664043
  0.2246037198058275  0.8721624975424405  0.5648955336867161
  0.7755061328986983  0.7551163839987041  0.3245367285192557
  0.8801843653352392  0.8795661169275135  0.0664307897037517
  0.2127447064276637  0.1912684734303483  0.3671320113743093
  0.0979064650926347  0.1141288266387050  0.1084945115237801
  0.8793992466567673  0.1888108908311921  0.8699930818386434
  0.7828787993524529  0.0913685211157329  0.5930610537101657
  0.5327621995200573  0.2366501536086147  0.3305980160283752
  0.4509456897241364  0.0908439242026091  0.0998713459819740
  0.2293224188457899  0.2020698368410052  0.8778523180072710
  0.1045138855576582  0.1109699939863091  0.6134818379599096
  0.9089483888178762  0.1982868763593544  0.3699604733349133
  0.7636898983549685  0.1183416540487414  0.1202040067085974
  0.5651044815379009  0.2218313568807062  0.8063138332943751
  0.4451567879811762  0.0914274074792658  0.5968499889551708
  0.2335103642991356  0.5484268237217762  0.3211383357033810
  0.1114711088015738  0.4306701514668347  0.0949869425002703
  0.8802034237829091  0.5576999277413108  0.8494024988420747
  0.7650692414010436  0.4144068682664042  0.6096064873667970
  0.5353125558754925  0.5510975372476636  0.3695780256264172
  0.2356514859694840  0.5505565256269662  0.8181181489870113
  0.1343642521200650  0.4152859173430485  0.5982615451624227
  0.8868038078319742  0.5318489005711484  0.3753716862736027
  0.7746591223075256  0.4292086702899383  0.0862635800228375
  0.5341374822716176  0.5499782589938249  0.8665720651880164
  0.4418173506720819  0.4335125930827317  0.5867624176881421
  0.2217362655526713  0.8733935316615486  0.3391314057595523
  0.1158709368868145  0.7461710356884979  0.1081659054963566
  0.8838069963222779  0.8778964653197932  0.8484487763598167
  0.7661528428205528  0.7838400349921884  0.6098899496389834
  0.5434602778922653  0.8558084983636292  0.3744194930249236
  0.4661324733199592  0.7444577504660899  0.1179729063958206
  0.2328064312977460  0.8547736999377520  0.8507232109770797
  0.1008320273975514  0.7572794723643028  0.6104722708355439
  0.9093944629118980  0.8590035757896572  0.3630727741837418
  0.7724279955672557  0.7496744463130511  0.1084166822729031
  0.5647847068205607  0.8501711823551048  0.8670642394840513
  0.4644976927619666  0.7500814978970567  0.6203890658887090
  0.4433548527736448  0.4273490917715321  0.0844205392202468
 
  0.00000000E+00  0.00000000E+00  0.00000000E+00
  0.00000000E+00  0.00000000E+00  0.00000000E+00
  0.00000000E+00  0.00000000E+00  0.00000000E+00
  0.00000000E+00  0.00000000E+00  0.00000000E+00
  0.00000000E+00  0.00000000E+00  0.00000000E+00
  0.00000000E+00  0.00000000E+00  0.00000000E+00
  0.00000000E+00  0.00000000E+00  0.00000000E+00
  0.00000000E+00  0.00000000E+00  0.00000000E+00
  0.00000000E+00  0.00000000E+00  0.00000000E+00
  0.00000000E+00  0.00000000E+00  0.00000000E+00
  0.00000000E+00  0.00000000E+00  0.00000000E+00
  0.00000000E+00  0.00000000E+00  0.00000000E+00
  0.00000000E+00  0.00000000E+00  0.00000000E+00
  0.00000000E+00  0.00000000E+00  0.00000000E+00
  0.00000000E+00  0.00000000E+00  0.00000000E+00
  0.00000000E+00  0.00000000E+00  0.00000000E+00
  0.00000000E+00  0.00000000E+00  0.00000000E+00
  0.00000000E+00  0.00000000E+00  0.00000000E+00
  0.00000000E+00  0.00000000E+00  0.00000000E+00
  0.00000000E+00  0.00000000E+00  0.00000000E+00
  0.00000000E+00  0.00000000E+00  0.00000000E+00
  0.00000000E+00  0.00000000E+00  0.00000000E+00
  0.00000000E+00  0.00000000E+00  0.00000000E+00
  0.00000000E+00  0.00000000E+00  0.00000000E+00
  0.00000000E+00  0.00000000E+00  0.00000000E+00
  0.00000000E+00  0.00000000E+00  0.00000000E+00
  0.00000000E+00  0.00000000E+00  0.00000000E+00
  0.00000000E+00  0.00000000E+00  0.00000000E+00
  0.00000000E+00  0.00000000E+00  0.00000000E+00
  0.00000000E+00  0.00000000E+00  0.00000000E+00
  0.00000000E+00  0.00000000E+00  0.00000000E+00
  0.00000000E+00  0.00000000E+00  0.00000000E+00
  0.00000000E+00  0.00000000E+00  0.00000000E+00
  0.00000000E+00  0.00000000E+00  0.00000000E+00
  0.00000000E+00  0.00000000E+00  0.00000000E+00
  0.00000000E+00  0.00000000E+00  0.00000000E+00
  0.00000000E+00  0.00000000E+00  0.00000000E+00
  0.00000000E+00  0.00000000E+00  0.00000000E+00
  0.00000000E+00  0.00000000E+00  0.00000000E+00
  0.00000000E+00  0.00000000E+00  0.00000000E+00
  0.00000000E+00  0.00000000E+00  0.00000000E+00
  0.00000000E+00  0.00000000E+00  0.00000000E+00
  0.00000000E+00  0.00000000E+00  0.00000000E+00
  0.00000000E+00  0.00000000E+00  0.00000000E+00
  0.00000000E+00  0.00000000E+00  0.00000000E+00
  0.00000000E+00  0.00000000E+00  0.00000000E+00
  0.00000000E+00  0.00000000E+00  0.00000000E+00
  0.00000000E+00  0.00000000E+00  0.00000000E+00
  0.00000000E+00  0.00000000E+00  0.00000000E+00
  0.00000000E+00  0.00000000E+00  0.00000000E+00
  0.00000000E+00  0.00000000E+00  0.00000000E+00
  0.00000000E+00  0.00000000E+00  0.00000000E+00
  0.00000000E+00  0.00000000E+00  0.00000000E+00
  0.00000000E+00  0.00000000E+00  0.00000000E+00
  0.00000000E+00  0.00000000E+00  0.00000000E+00
  0.00000000E+00  0.00000000E+00  0.00000000E+00
  0.00000000E+00  0.00000000E+00  0.00000000E+00
  0.00000000E+00  0.00000000E+00  0.00000000E+00
  0.00000000E+00  0.00000000E+00  0.00000000E+00
  0.00000000E+00  0.00000000E+00  0.00000000E+00
  0.00000000E+00  0.00000000E+00  0.00000000E+00
  0.00000000E+00  0.00000000E+00  0.00000000E+00
  0.00000000E+00  0.00000000E+00  0.00000000E+00
  0.00000000E+00  0.00000000E+00  0.00000000E+00
  0.00000000E+00  0.00000000E+00  0.00000000E+00
  0.00000000E+00  0.00000000E+00  0.00000000E+00
  0.00000000E+00  0.00000000E+00  0.00000000E+00
  0.00000000E+00  0.00000000E+00  0.00000000E+00
  0.00000000E+00  0.00000000E+00  0.00000000E+00
  0.00000000E+00  0.00000000E+00  0.00000000E+00
  0.00000000E+00  0.00000000E+00  0.00000000E+00
  0.00000000E+00  0.00000000E+00  0.00000000E+00
