Al   Sc   N    O                        
   1.00000000000000     
   -10.0781315852448881    0.0216990329809542   -0.0100679496035280
    -5.0637196383510901    8.7620263940524783   -0.0081868662728324
     0.0676479288887624   -0.0238895931902987   -9.8040001978606419
   Al   Sc   N    O 
    23    13    35     1
Direct
  0.1095303531153107  0.0917047501802273  0.3096084692641341
  0.2202171493020160  0.2079684611497825  0.0689280411936295
  0.7725662609047319  0.0987504698650383  0.8408989241718103
  0.8913396552277248  0.2033596562987299  0.5621718314313426
  0.5476140008334696  0.2123782116318225  0.1206026849416162
  0.2232739923635876  0.2028489926188755  0.5630467536935484
  0.8803173428681745  0.2113447827886077  0.0631530421062578
  0.5548618249730737  0.2141930474005775  0.6172511362092195
  0.2213932431247017  0.5395070621461286  0.1191793306322779
  0.4346722825919755  0.4386271640388557  0.3725942492535879
  0.5625266331031114  0.5508672603189737  0.0642189250050151
  0.2305735148191204  0.5383943922040686  0.6164350028545371
  0.8862777931247692  0.5410432253562476  0.0533711261317507
  0.4418561849582687  0.4337381113022118  0.8639634518671642
  0.5544252502418558  0.5392558804356042  0.5576311901831374
  0.1127288992559770  0.7593635506342764  0.3661395130925698
  0.7698272207281320  0.7660732222826994  0.8124468636835971
  0.8883327958477594  0.8766575311610225  0.6220757182465277
  0.4426414413619284  0.7580321575957996  0.3155185583867564
  0.5602525497249857  0.8613298870037482  0.0606827908250906
  0.1226992315007820  0.7528758951627026  0.8613195090267638
  0.4496341736993585  0.7521965765934198  0.8115489544564056
  0.5549242662427645  0.8702985648419315  0.5670070665785900
  0.4423060389591882  0.0894742977336733  0.3327981172312917
  0.1090597165847882  0.0943358970293176  0.8291508148542022
  0.7773890406076731  0.0934934549642108  0.3435512491458539
  0.4537073611725901  0.0884085853461229  0.8325290511953867
  0.1183580530265402  0.4260641548402475  0.3364904308563439
  0.7644007280118998  0.4263194864569755  0.8225315806025009
  0.8890984448352697  0.5376721259176449  0.5878621394650096
  0.1211558618397675  0.4309051723917534  0.8344853858436494
  0.7746567264159054  0.4255521127001458  0.3202362255953233
  0.2274017404211222  0.8671656039393838  0.0851645764313886
  0.2255504836217312  0.8722982729283402  0.5802565783869298
  0.7772334523572582  0.7579821250939318  0.3259477004843347
  0.8876582089386034  0.8711320184247526  0.0850230001191079
  0.2123816173495072  0.1921073269259708  0.3664266396946374
  0.0978282235081309  0.1133701534972360  0.1092242513461628
  0.8789505194872120  0.1972483235368188  0.8705302986227892
  0.7785787541075848  0.0932430697784454  0.5880168788836428
  0.5337109721534574  0.2374446527536449  0.3129403735480238
  0.4488312423237133  0.0877360097396149  0.0973975101331845
  0.2271805067178363  0.2040587307298836  0.8773672407812896
  0.1025503852632497  0.1134028813718331  0.6140203948152703
  0.9078161109664791  0.1945192150126900  0.3674947682031515
  0.7596770000567332  0.1174091712014302  0.0925528398321802
  0.5599018469918988  0.2253060206211543  0.8156729577859494
  0.4459399404676319  0.0935561116366372  0.5984752901465313
  0.2335440060841449  0.5537925290526999  0.3097443333682079
  0.1102069160546009  0.4303176193431781  0.0949254305300187
  0.8804200030978251  0.5543121233330766  0.8490220586048167
  0.7642398825781598  0.4151867159593721  0.6028385900697657
  0.5365638753905273  0.5507962682205800  0.3607799143431478
  0.2389106038855928  0.5486379849576224  0.8089753458441891
  0.1359427271765412  0.4162657007029651  0.5974635744900070
  0.8907670143464372  0.5340076174964281  0.3754557889954810
  0.7779913983148106  0.4298629097900317  0.0935671640177915
  0.5339039082848132  0.5516540255536242  0.8763945508585351
  0.4429696408140984  0.4288125991588387  0.5686537037084278
  0.2216368592043736  0.8719600893136459  0.3414902681014169
  0.1257832735347861  0.7350056465160719  0.0526536273705602
  0.8884642361266515  0.8755825995285704  0.8314873448605056
  0.7660312183264111  0.7831029797776878  0.6133136143658007
  0.5445924126557600  0.8584232427045890  0.3758016822385741
  0.4636227639604726  0.7524028308266040  0.1217037476684339
  0.2341155942553286  0.8564324739639204  0.8415108235132109
  0.1000199166878701  0.7516769362580575  0.5660318373609599
  0.9107452938223588  0.8614770825440488  0.3069834840791401
  0.7703333220919646  0.7474993526090614  0.1044344193541349
  0.5625418845016696  0.8499526370297801  0.8664871132355429
  0.4684580401568894  0.7451431151604311  0.6191594090628598
  0.4329636819384959  0.4205550023531046  0.0617087599980124
 
  0.00000000E+00  0.00000000E+00  0.00000000E+00
  0.00000000E+00  0.00000000E+00  0.00000000E+00
  0.00000000E+00  0.00000000E+00  0.00000000E+00
  0.00000000E+00  0.00000000E+00  0.00000000E+00
  0.00000000E+00  0.00000000E+00  0.00000000E+00
  0.00000000E+00  0.00000000E+00  0.00000000E+00
  0.00000000E+00  0.00000000E+00  0.00000000E+00
  0.00000000E+00  0.00000000E+00  0.00000000E+00
  0.00000000E+00  0.00000000E+00  0.00000000E+00
  0.00000000E+00  0.00000000E+00  0.00000000E+00
  0.00000000E+00  0.00000000E+00  0.00000000E+00
  0.00000000E+00  0.00000000E+00  0.00000000E+00
  0.00000000E+00  0.00000000E+00  0.00000000E+00
  0.00000000E+00  0.00000000E+00  0.00000000E+00
  0.00000000E+00  0.00000000E+00  0.00000000E+00
  0.00000000E+00  0.00000000E+00  0.00000000E+00
  0.00000000E+00  0.00000000E+00  0.00000000E+00
  0.00000000E+00  0.00000000E+00  0.00000000E+00
  0.00000000E+00  0.00000000E+00  0.00000000E+00
  0.00000000E+00  0.00000000E+00  0.00000000E+00
  0.00000000E+00  0.00000000E+00  0.00000000E+00
  0.00000000E+00  0.00000000E+00  0.00000000E+00
  0.00000000E+00  0.00000000E+00  0.00000000E+00
  0.00000000E+00  0.00000000E+00  0.00000000E+00
  0.00000000E+00  0.00000000E+00  0.00000000E+00
  0.00000000E+00  0.00000000E+00  0.00000000E+00
  0.00000000E+00  0.00000000E+00  0.00000000E+00
  0.00000000E+00  0.00000000E+00  0.00000000E+00
  0.00000000E+00  0.00000000E+00  0.00000000E+00
  0.00000000E+00  0.00000000E+00  0.00000000E+00
  0.00000000E+00  0.00000000E+00  0.00000000E+00
  0.00000000E+00  0.00000000E+00  0.00000000E+00
  0.00000000E+00  0.00000000E+00  0.00000000E+00
  0.00000000E+00  0.00000000E+00  0.00000000E+00
  0.00000000E+00  0.00000000E+00  0.00000000E+00
  0.00000000E+00  0.00000000E+00  0.00000000E+00
  0.00000000E+00  0.00000000E+00  0.00000000E+00
  0.00000000E+00  0.00000000E+00  0.00000000E+00
  0.00000000E+00  0.00000000E+00  0.00000000E+00
  0.00000000E+00  0.00000000E+00  0.00000000E+00
  0.00000000E+00  0.00000000E+00  0.00000000E+00
  0.00000000E+00  0.00000000E+00  0.00000000E+00
  0.00000000E+00  0.00000000E+00  0.00000000E+00
  0.00000000E+00  0.00000000E+00  0.00000000E+00
  0.00000000E+00  0.00000000E+00  0.00000000E+00
  0.00000000E+00  0.00000000E+00  0.00000000E+00
  0.00000000E+00  0.00000000E+00  0.00000000E+00
  0.00000000E+00  0.00000000E+00  0.00000000E+00
  0.00000000E+00  0.00000000E+00  0.00000000E+00
  0.00000000E+00  0.00000000E+00  0.00000000E+00
  0.00000000E+00  0.00000000E+00  0.00000000E+00
  0.00000000E+00  0.00000000E+00  0.00000000E+00
  0.00000000E+00  0.00000000E+00  0.00000000E+00
  0.00000000E+00  0.00000000E+00  0.00000000E+00
  0.00000000E+00  0.00000000E+00  0.00000000E+00
  0.00000000E+00  0.00000000E+00  0.00000000E+00
  0.00000000E+00  0.00000000E+00  0.00000000E+00
  0.00000000E+00  0.00000000E+00  0.00000000E+00
  0.00000000E+00  0.00000000E+00  0.00000000E+00
  0.00000000E+00  0.00000000E+00  0.00000000E+00
  0.00000000E+00  0.00000000E+00  0.00000000E+00
  0.00000000E+00  0.00000000E+00  0.00000000E+00
  0.00000000E+00  0.00000000E+00  0.00000000E+00
  0.00000000E+00  0.00000000E+00  0.00000000E+00
  0.00000000E+00  0.00000000E+00  0.00000000E+00
  0.00000000E+00  0.00000000E+00  0.00000000E+00
  0.00000000E+00  0.00000000E+00  0.00000000E+00
  0.00000000E+00  0.00000000E+00  0.00000000E+00
  0.00000000E+00  0.00000000E+00  0.00000000E+00
  0.00000000E+00  0.00000000E+00  0.00000000E+00
  0.00000000E+00  0.00000000E+00  0.00000000E+00
  0.00000000E+00  0.00000000E+00  0.00000000E+00
