Al   Sc   N    O                        
   1.00000000000000     
    -9.9446917006044213    0.0157611338599670   -0.0144677237838509
    -4.9801170905655301    8.6417210468838430   -0.0107589593262748
    -0.0096655775724971   -0.0008827424171936  -10.0631828446413749
   Al   Sc   N    O 
    23    13    35     1
Direct
  0.1103004725262622  0.0937574319978722  0.3073029523895627
  0.2207576366588526  0.2082793265776317  0.0622190753214440
  0.7747530414035850  0.0952152467498095  0.8029066078168725
  0.8893057835842768  0.2055739817750961  0.5612280942049708
  0.5588909101039192  0.2070522651487181  0.0571089414205304
  0.2237674516222086  0.2028365767521620  0.5563935822484822
  0.8823846681599932  0.2086763447655002  0.0595732801968794
  0.5471308754002493  0.2159151372048242  0.5640866909881410
  0.2201902289403321  0.5407548513904459  0.0591481079330833
  0.4384431578659047  0.4390907097355452  0.3199672534468050
  0.5574360391369950  0.5455446168235127  0.0588675699113139
  0.2283970494502370  0.5376061372772512  0.5601278535355050
  0.8872722130453070  0.5422946163105138  0.0481913716465101
  0.4425663779868927  0.4361660042323336  0.8106479006867957
  0.5514356094622457  0.5366404162362954  0.5603921316272249
  0.1176816157166272  0.7575751291877353  0.3128357370264965
  0.7728039430257496  0.7684624292913824  0.8062700784836565
  0.8898168651697134  0.8707995933285986  0.5671883670275264
  0.4437799280354611  0.7577049680647221  0.3119526410095048
  0.5621663391366596  0.8606946294026159  0.0564393131157814
  0.1131622259645866  0.7570360816289181  0.8089677064414289
  0.4474095856164269  0.7524641527092442  0.8104439254138782
  0.5531319661140088  0.8707413753327984  0.5640881094403127
  0.4446555266454695  0.0911874696474797  0.3188146484801280
  0.1092960340758324  0.0908857848375177  0.8198919386473378
  0.7770729488742774  0.0976231920250541  0.3314372862948503
  0.4535213825490843  0.0886642111166793  0.8194281144886020
  0.1168582174550323  0.4279822589031426  0.3181208049927235
  0.7669606077309865  0.4251165781796900  0.8241885056579861
  0.8876930910823475  0.5374475054532226  0.5809996721061168
  0.1229506069440731  0.4288881190244211  0.8178947667043559
  0.7741115865660291  0.4262331555331826  0.3119808867524370
  0.2283370991834559  0.8675410679320024  0.0738458130659012
  0.2236538845728475  0.8695084061635967  0.5628588747140242
  0.7765673778641187  0.7588665526149541  0.3207730674804310
  0.8852398764370477  0.8765782316194830  0.0622849735216349
  0.2144959169789615  0.1942095827697159  0.3666532361436552
  0.0984225090763857  0.1144686344489543  0.1138934453424199
  0.8786253984440009  0.1901607081984267  0.8736148624413218
  0.7749607038045241  0.0960262870712754  0.6075957775488732
  0.5371038386212561  0.2340235596028322  0.3755265771977889
  0.4507210534846138  0.0920669340950724  0.0989416962228802
  0.2260854274812303  0.2021640023848903  0.8774440555481533
  0.1036601344622241  0.1101454817575487  0.6114296269802892
  0.9079059314447804  0.1972280797152592  0.3735985357737306
  0.7636123296424628  0.1173959929607591  0.1201682569986104
  0.5615129242147958  0.2225557299698835  0.8681843116392116
  0.4442845426771598  0.0936998216184932  0.6019359945071656
  0.2322224505246382  0.5512714999207162  0.3711490857821929
  0.1120778612840923  0.4301094850401554  0.0976427277107064
  0.8823084669973085  0.5555012944814237  0.8526238076363342
  0.7632881562484002  0.4161217825570489  0.6097788420221590
  0.5355184977881322  0.5492870831830032  0.3691837980665866
  0.2352191029590571  0.5491488038877250  0.8748988169460787
  0.1362769504201466  0.4155324301580876  0.6027949892484301
  0.8899608633219174  0.5337359761947909  0.3743022212786968
  0.7771158166209062  0.4297151966243220  0.0908634180268848
  0.5323200067004876  0.5487712074353510  0.8764044612002380
  0.4418385255592483  0.4321662181851806  0.6211848472483865
  0.2225021966681311  0.8731409243980508  0.3430564749037899
  0.1186690518961697  0.7411156714315226  0.1244817759134591
  0.8847884999166880  0.8758689746555746  0.8511446610019249
  0.7645672938008730  0.7834256809508773  0.6152127108728749
  0.5438351387587090  0.8603145483308836  0.3771453141482155
  0.4666565009731443  0.7486360265617407  0.1233618382979600
  0.2313730289832421  0.8528371921577644  0.8562688562165732
  0.1041575717150991  0.7481961015422343  0.6208764904215869
  0.9102785939650246  0.8605853852246099  0.3746397792001730
  0.7736107076532903  0.7508023976774183  0.1081530184936597
  0.5630029409309358  0.8497173236986768  0.8681328533763093
  0.4634959100592937  0.7474537243642203  0.6216823591506540
  0.4424707866460267  0.4290283223098328  0.1222827235614545
 
  0.00000000E+00  0.00000000E+00  0.00000000E+00
  0.00000000E+00  0.00000000E+00  0.00000000E+00
  0.00000000E+00  0.00000000E+00  0.00000000E+00
  0.00000000E+00  0.00000000E+00  0.00000000E+00
  0.00000000E+00  0.00000000E+00  0.00000000E+00
  0.00000000E+00  0.00000000E+00  0.00000000E+00
  0.00000000E+00  0.00000000E+00  0.00000000E+00
  0.00000000E+00  0.00000000E+00  0.00000000E+00
  0.00000000E+00  0.00000000E+00  0.00000000E+00
  0.00000000E+00  0.00000000E+00  0.00000000E+00
  0.00000000E+00  0.00000000E+00  0.00000000E+00
  0.00000000E+00  0.00000000E+00  0.00000000E+00
  0.00000000E+00  0.00000000E+00  0.00000000E+00
  0.00000000E+00  0.00000000E+00  0.00000000E+00
  0.00000000E+00  0.00000000E+00  0.00000000E+00
  0.00000000E+00  0.00000000E+00  0.00000000E+00
  0.00000000E+00  0.00000000E+00  0.00000000E+00
  0.00000000E+00  0.00000000E+00  0.00000000E+00
  0.00000000E+00  0.00000000E+00  0.00000000E+00
  0.00000000E+00  0.00000000E+00  0.00000000E+00
  0.00000000E+00  0.00000000E+00  0.00000000E+00
  0.00000000E+00  0.00000000E+00  0.00000000E+00
  0.00000000E+00  0.00000000E+00  0.00000000E+00
  0.00000000E+00  0.00000000E+00  0.00000000E+00
  0.00000000E+00  0.00000000E+00  0.00000000E+00
  0.00000000E+00  0.00000000E+00  0.00000000E+00
  0.00000000E+00  0.00000000E+00  0.00000000E+00
  0.00000000E+00  0.00000000E+00  0.00000000E+00
  0.00000000E+00  0.00000000E+00  0.00000000E+00
  0.00000000E+00  0.00000000E+00  0.00000000E+00
  0.00000000E+00  0.00000000E+00  0.00000000E+00
  0.00000000E+00  0.00000000E+00  0.00000000E+00
  0.00000000E+00  0.00000000E+00  0.00000000E+00
  0.00000000E+00  0.00000000E+00  0.00000000E+00
  0.00000000E+00  0.00000000E+00  0.00000000E+00
  0.00000000E+00  0.00000000E+00  0.00000000E+00
  0.00000000E+00  0.00000000E+00  0.00000000E+00
  0.00000000E+00  0.00000000E+00  0.00000000E+00
  0.00000000E+00  0.00000000E+00  0.00000000E+00
  0.00000000E+00  0.00000000E+00  0.00000000E+00
  0.00000000E+00  0.00000000E+00  0.00000000E+00
  0.00000000E+00  0.00000000E+00  0.00000000E+00
  0.00000000E+00  0.00000000E+00  0.00000000E+00
  0.00000000E+00  0.00000000E+00  0.00000000E+00
  0.00000000E+00  0.00000000E+00  0.00000000E+00
  0.00000000E+00  0.00000000E+00  0.00000000E+00
  0.00000000E+00  0.00000000E+00  0.00000000E+00
  0.00000000E+00  0.00000000E+00  0.00000000E+00
  0.00000000E+00  0.00000000E+00  0.00000000E+00
  0.00000000E+00  0.00000000E+00  0.00000000E+00
  0.00000000E+00  0.00000000E+00  0.00000000E+00
  0.00000000E+00  0.00000000E+00  0.00000000E+00
  0.00000000E+00  0.00000000E+00  0.00000000E+00
  0.00000000E+00  0.00000000E+00  0.00000000E+00
  0.00000000E+00  0.00000000E+00  0.00000000E+00
  0.00000000E+00  0.00000000E+00  0.00000000E+00
  0.00000000E+00  0.00000000E+00  0.00000000E+00
  0.00000000E+00  0.00000000E+00  0.00000000E+00
  0.00000000E+00  0.00000000E+00  0.00000000E+00
  0.00000000E+00  0.00000000E+00  0.00000000E+00
  0.00000000E+00  0.00000000E+00  0.00000000E+00
  0.00000000E+00  0.00000000E+00  0.00000000E+00
  0.00000000E+00  0.00000000E+00  0.00000000E+00
  0.00000000E+00  0.00000000E+00  0.00000000E+00
  0.00000000E+00  0.00000000E+00  0.00000000E+00
  0.00000000E+00  0.00000000E+00  0.00000000E+00
  0.00000000E+00  0.00000000E+00  0.00000000E+00
  0.00000000E+00  0.00000000E+00  0.00000000E+00
  0.00000000E+00  0.00000000E+00  0.00000000E+00
  0.00000000E+00  0.00000000E+00  0.00000000E+00
  0.00000000E+00  0.00000000E+00  0.00000000E+00
  0.00000000E+00  0.00000000E+00  0.00000000E+00
