Al   Sc   N    O                        
   1.00000000000000     
    -9.9751332700160020    0.0171157337202982    0.0002036699107481
    -5.0067156986165724    8.6593867147218582   -0.0018507727293494
     0.0196228946474010   -0.0291509014186936   -9.9814665768842463
   Al   Sc   N    O 
    23    13    35     1
Direct
  0.1093321531641678  0.0946318899753251  0.4015842297722187
  0.2203265109411205  0.2006129793277580  0.1451700429369609
  0.7700299873026992  0.1041096975556357  0.8921053462180666
  0.8801903281536596  0.2047255015748490  0.6442537965888206
  0.5510537897488845  0.2110976495933983  0.1399859571032422
  0.2250433779440328  0.2088372887139371  0.6425044132348106
  0.8902162670149281  0.2084401182604125  0.1425107286812946
  0.5569702213239580  0.2105399114028756  0.6443199829288275
  0.2234872041594969  0.5422401916482258  0.1463815897967038
  0.4383264723778666  0.4403655033251468  0.3937925698386948
  0.5548958953625984  0.5472994176922015  0.1425672678084311
  0.2275017618705206  0.5351417210463865  0.6411997999576187
  0.8856284825198557  0.5369741273164834  0.1506930207092125
  0.4428122659317566  0.4341980326629340  0.8827213947327550
  0.5527586622879426  0.5361088531621903  0.6450747129329670
  0.1111271889056056  0.7586308742146315  0.3977827098587881
  0.7725025019849383  0.7583808892761326  0.8914523096705409
  0.8827640828575127  0.8758465916782967  0.6525388175933742
  0.4452591557731651  0.7561891738185764  0.3957068280451779
  0.5535441617159620  0.8644005660619598  0.1378778943240704
  0.1230714457302398  0.7531225030643398  0.8845361705985724
  0.4455237249437189  0.7541711485396405  0.8888099571275774
  0.5602444606057873  0.8667216864607212  0.6458292623111461
  0.4441538687077013  0.0916355057101583  0.3855912271863815
  0.1098681267497028  0.0905838559057344  0.8765025850436530
  0.7799312384408879  0.0925379285465695  0.3822555821096714
  0.4523321239613693  0.0898685018224086  0.8798548140882758
  0.1246800532243739  0.4227898270593187  0.3754479320003341
  0.7719317320871752  0.4308195446570124  0.8870553112931461
  0.8904655232139689  0.5398520565163452  0.6272915485813684
  0.1135203510876721  0.4355336651265986  0.8948508820997816
  0.7669570221133313  0.4234989897657471  0.3822081891766089
  0.2245876114129217  0.8708890264666209  0.1478674019365727
  0.2256559532308984  0.8658297394327690  0.6221855222502768
  0.7747372302474318  0.7688687667097440  0.3810720754482730
  0.8911110130159940  0.8701416454965454  0.1125007376146527
  0.2162752999340327  0.1874356250323430  0.3339532558741283
  0.1023800020837413  0.1085547397890636  0.0883203665302190
  0.8764928886467160  0.1985837045807486  0.8325975084966117
  0.7766670444603747  0.0913057497375291  0.5973341589096819
  0.5391795488934932  0.2348715743401115  0.3271418346254791
  0.4458604574329144  0.0940552880355057  0.1005103941433205
  0.2222363445673423  0.2103212685278493  0.8313411715793109
  0.0990684015639545  0.1156980647732979  0.5958384292685182
  0.9091406385210874  0.1912345399199822  0.3313679894282373
  0.7623241638173823  0.1208463781321498  0.0867269744786370
  0.5592802821058811  0.2228353445838067  0.8368306406958368
  0.4488358335087810  0.0913631891241451  0.6072664969364823
  0.2335390308749368  0.5546978168885488  0.3319510871494060
  0.1157977181606071  0.4266937061918910  0.1158809078565923
  0.8839843273547459  0.5535381580129339  0.8378538636435309
  0.7654931411342432  0.4172081368003475  0.5991986993646137
  0.5283945073988789  0.5530792850524691  0.3273746423061894
  0.2350223101661513  0.5438659514182831  0.8310797691907226
  0.1352847716207464  0.4174089704444413  0.5909197657473158
  0.8879373473204524  0.5365250605553769  0.3451721136654697
  0.7743109573115916  0.4285426918673920  0.1089977396148072
  0.5374795194935302  0.5459019114637087  0.8363650818691468
  0.4446663395927288  0.4296499070060094  0.5856714781306067
  0.2210434925780831  0.8716972739726643  0.3719763496258537
  0.1306023237792147  0.7376836392712391  0.0731521641737203
  0.8842119021351920  0.8754099856438202  0.8540866694403206
  0.7680391348876867  0.7840890274340495  0.5935904299981800
  0.5415337526801807  0.8609436701336364  0.3261481798273564
  0.4571237628927918  0.7514468421870930  0.0792660214739271
  0.2336003451176438  0.8531038608404842  0.8377646854161398
  0.0955633904590556  0.7493911131853466  0.5899271034988729
  0.9118812122939062  0.8625679477662871  0.3230594018272797
  0.7689386584857871  0.7479400269133691  0.0897510208329493
  0.5623533175121835  0.8500187284105181  0.8366408457265209
  0.4715116429193671  0.7450279478973627  0.5844558752740099
  0.4409853759660720  0.4295134438101798  0.0793451709754365
 
  0.00000000E+00  0.00000000E+00  0.00000000E+00
  0.00000000E+00  0.00000000E+00  0.00000000E+00
  0.00000000E+00  0.00000000E+00  0.00000000E+00
  0.00000000E+00  0.00000000E+00  0.00000000E+00
  0.00000000E+00  0.00000000E+00  0.00000000E+00
  0.00000000E+00  0.00000000E+00  0.00000000E+00
  0.00000000E+00  0.00000000E+00  0.00000000E+00
  0.00000000E+00  0.00000000E+00  0.00000000E+00
  0.00000000E+00  0.00000000E+00  0.00000000E+00
  0.00000000E+00  0.00000000E+00  0.00000000E+00
  0.00000000E+00  0.00000000E+00  0.00000000E+00
  0.00000000E+00  0.00000000E+00  0.00000000E+00
  0.00000000E+00  0.00000000E+00  0.00000000E+00
  0.00000000E+00  0.00000000E+00  0.00000000E+00
  0.00000000E+00  0.00000000E+00  0.00000000E+00
  0.00000000E+00  0.00000000E+00  0.00000000E+00
  0.00000000E+00  0.00000000E+00  0.00000000E+00
  0.00000000E+00  0.00000000E+00  0.00000000E+00
  0.00000000E+00  0.00000000E+00  0.00000000E+00
  0.00000000E+00  0.00000000E+00  0.00000000E+00
  0.00000000E+00  0.00000000E+00  0.00000000E+00
  0.00000000E+00  0.00000000E+00  0.00000000E+00
  0.00000000E+00  0.00000000E+00  0.00000000E+00
  0.00000000E+00  0.00000000E+00  0.00000000E+00
  0.00000000E+00  0.00000000E+00  0.00000000E+00
  0.00000000E+00  0.00000000E+00  0.00000000E+00
  0.00000000E+00  0.00000000E+00  0.00000000E+00
  0.00000000E+00  0.00000000E+00  0.00000000E+00
  0.00000000E+00  0.00000000E+00  0.00000000E+00
  0.00000000E+00  0.00000000E+00  0.00000000E+00
  0.00000000E+00  0.00000000E+00  0.00000000E+00
  0.00000000E+00  0.00000000E+00  0.00000000E+00
  0.00000000E+00  0.00000000E+00  0.00000000E+00
  0.00000000E+00  0.00000000E+00  0.00000000E+00
  0.00000000E+00  0.00000000E+00  0.00000000E+00
  0.00000000E+00  0.00000000E+00  0.00000000E+00
  0.00000000E+00  0.00000000E+00  0.00000000E+00
  0.00000000E+00  0.00000000E+00  0.00000000E+00
  0.00000000E+00  0.00000000E+00  0.00000000E+00
  0.00000000E+00  0.00000000E+00  0.00000000E+00
  0.00000000E+00  0.00000000E+00  0.00000000E+00
  0.00000000E+00  0.00000000E+00  0.00000000E+00
  0.00000000E+00  0.00000000E+00  0.00000000E+00
  0.00000000E+00  0.00000000E+00  0.00000000E+00
  0.00000000E+00  0.00000000E+00  0.00000000E+00
  0.00000000E+00  0.00000000E+00  0.00000000E+00
  0.00000000E+00  0.00000000E+00  0.00000000E+00
  0.00000000E+00  0.00000000E+00  0.00000000E+00
  0.00000000E+00  0.00000000E+00  0.00000000E+00
  0.00000000E+00  0.00000000E+00  0.00000000E+00
  0.00000000E+00  0.00000000E+00  0.00000000E+00
  0.00000000E+00  0.00000000E+00  0.00000000E+00
  0.00000000E+00  0.00000000E+00  0.00000000E+00
  0.00000000E+00  0.00000000E+00  0.00000000E+00
  0.00000000E+00  0.00000000E+00  0.00000000E+00
  0.00000000E+00  0.00000000E+00  0.00000000E+00
  0.00000000E+00  0.00000000E+00  0.00000000E+00
  0.00000000E+00  0.00000000E+00  0.00000000E+00
  0.00000000E+00  0.00000000E+00  0.00000000E+00
  0.00000000E+00  0.00000000E+00  0.00000000E+00
  0.00000000E+00  0.00000000E+00  0.00000000E+00
  0.00000000E+00  0.00000000E+00  0.00000000E+00
  0.00000000E+00  0.00000000E+00  0.00000000E+00
  0.00000000E+00  0.00000000E+00  0.00000000E+00
  0.00000000E+00  0.00000000E+00  0.00000000E+00
  0.00000000E+00  0.00000000E+00  0.00000000E+00
  0.00000000E+00  0.00000000E+00  0.00000000E+00
  0.00000000E+00  0.00000000E+00  0.00000000E+00
  0.00000000E+00  0.00000000E+00  0.00000000E+00
  0.00000000E+00  0.00000000E+00  0.00000000E+00
  0.00000000E+00  0.00000000E+00  0.00000000E+00
  0.00000000E+00  0.00000000E+00  0.00000000E+00
