Al   Sc   N    O                        
   1.00000000000000     
    -9.9276872573523924    0.0169353022556682    0.0004905206372908
    -4.9778320406948309    8.6236354965812279   -0.0016728857024234
     0.0015159260475942    0.0023901903130137  -10.0982954886864729
   Al   Sc   N    O 
    23    13    35     1
Direct
  0.1089596884480173  0.0949489520999620  0.4025758739012630
  0.2208002711915071  0.2008222187621911  0.1480329853080562
  0.7704588264769683  0.1033670065883996  0.8929428671967372
  0.8815152653992868  0.2046360629275981  0.6463554392126625
  0.5513480756342162  0.2104783054450010  0.1418239060149062
  0.2239398199573728  0.2087976690073745  0.6440640095090018
  0.8894324564584011  0.2087840230841707  0.1452010788789906
  0.5566301101573501  0.2107360500839377  0.6466909937350991
  0.2233170165691973  0.5422246993481394  0.1481819299822646
  0.4383974296924293  0.4399325788871096  0.3947705575974467
  0.5554273987364624  0.5470510484927544  0.1449713596362514
  0.2272072714655309  0.5350161707216259  0.6428630620144062
  0.8853580279355242  0.5376568899038148  0.1499091436158082
  0.4425617434610842  0.4342188087193151  0.8843406030424532
  0.5531975166815286  0.5360266166748033  0.6462130321177071
  0.1109270576556796  0.7585797688664258  0.4001225530071792
  0.7724203502756737  0.7585205515398314  0.8961738714118610
  0.8828497605310801  0.8754198631079007  0.6551213174664809
  0.4458978311482156  0.7563533039172796  0.3976676341749936
  0.5529954357773050  0.8654936587190249  0.1389895690748943
  0.1225431452786836  0.7531552556250816  0.8866454223603526
  0.4453447032470592  0.7536466525485537  0.8903398246218188
  0.5606524862436899  0.8666397926524780  0.6487083836350749
  0.4439080942770062  0.0914499439142986  0.3897506898745391
  0.1105534260017151  0.0887715193071585  0.8816925332797041
  0.7797171765949358  0.0926585213438784  0.3872971944519037
  0.4517201684953562  0.0897677833738229  0.8816883515607188
  0.1228520384137042  0.4238629122313284  0.3779727757207212
  0.7716688933083589  0.4293381109537719  0.8904116201049774
  0.8902163532932335  0.5407862065658264  0.6344196279349603
  0.1146254081963178  0.4338906893846612  0.8983602919216196
  0.7678956057364346  0.4244703300449757  0.3854691736770732
  0.2256457341456652  0.8695858519812489  0.1527425120170349
  0.2255880949680886  0.8662537602903981  0.6237370972794167
  0.7746767967979551  0.7683834566738170  0.3837828035971782
  0.8911240423014277  0.8714692213765503  0.1159214237669488
  0.2163638712881379  0.1881023068523220  0.3343716901580081
  0.1029229300717773  0.1075360935493919  0.0910466488122879
  0.8779796477078534  0.1975223911915691  0.8323101174131722
  0.7768439989120424  0.0914679198489523  0.5996366585607618
  0.5396609985936678  0.2337616060480840  0.3272593419987615
  0.4451867851314972  0.0947268225401174  0.0995859677084425
  0.2211161276858178  0.2096622940337056  0.8305074199849685
  0.0988914038454354  0.1159627128240359  0.5939138888912510
  0.9080126665704498  0.1920158825032701  0.3317968750364884
  0.7620277553443700  0.1216682572665846  0.0853302564679126
  0.5590719911161059  0.2228503472017778  0.8368608537314799
  0.4485328132371507  0.0914245681232373  0.6085371406955957
  0.2331056014478534  0.5549902034579333  0.3319111524707949
  0.1163469492585349  0.4264795089301145  0.1158693423224264
  0.8841216712677067  0.5530979405859142  0.8420733053346225
  0.7666289236437152  0.4176808832739169  0.5997727802661430
  0.5291262453654824  0.5531439648436063  0.3280308793074056
  0.2344085173495429  0.5436975910643369  0.8310647219069622
  0.1339117507641632  0.4179706392646949  0.5909898686984789
  0.8871643265748190  0.5377792662844598  0.3401564370020154
  0.7741430745288582  0.4284844438259228  0.1084578699337087
  0.5376555015556903  0.5456372615485705  0.8354129720695269
  0.4446559345789183  0.4295629377487771  0.5852314843850905
  0.2212927892983387  0.8716056959715459  0.3738324487011795
  0.1310897562606641  0.7379846891369581  0.0734930651655361
  0.8845478362549315  0.8747111397208513  0.8546459486294822
  0.7681788797192084  0.7839017916236628  0.5938556445954006
  0.5414089696973647  0.8616120363782329  0.3251284834135362
  0.4570603559336277  0.7512339577637306  0.0791122044669805
  0.2337278569827674  0.8524585065248971  0.8365776474754156
  0.0952250342828833  0.7492446428206989  0.5899815711871383
  0.9114490192391074  0.8633625251947450  0.3239973989210796
  0.7683809457519430  0.7495561017330701  0.0891583063670964
  0.5628740223862749  0.8495435337856634  0.8372626683597844
  0.4724221461555658  0.7452499835575637  0.5842689110787660
  0.4411901683129500  0.4295759745457843  0.0801810343555118
 
  0.00000000E+00  0.00000000E+00  0.00000000E+00
  0.00000000E+00  0.00000000E+00  0.00000000E+00
  0.00000000E+00  0.00000000E+00  0.00000000E+00
  0.00000000E+00  0.00000000E+00  0.00000000E+00
  0.00000000E+00  0.00000000E+00  0.00000000E+00
  0.00000000E+00  0.00000000E+00  0.00000000E+00
  0.00000000E+00  0.00000000E+00  0.00000000E+00
  0.00000000E+00  0.00000000E+00  0.00000000E+00
  0.00000000E+00  0.00000000E+00  0.00000000E+00
  0.00000000E+00  0.00000000E+00  0.00000000E+00
  0.00000000E+00  0.00000000E+00  0.00000000E+00
  0.00000000E+00  0.00000000E+00  0.00000000E+00
  0.00000000E+00  0.00000000E+00  0.00000000E+00
  0.00000000E+00  0.00000000E+00  0.00000000E+00
  0.00000000E+00  0.00000000E+00  0.00000000E+00
  0.00000000E+00  0.00000000E+00  0.00000000E+00
  0.00000000E+00  0.00000000E+00  0.00000000E+00
  0.00000000E+00  0.00000000E+00  0.00000000E+00
  0.00000000E+00  0.00000000E+00  0.00000000E+00
  0.00000000E+00  0.00000000E+00  0.00000000E+00
  0.00000000E+00  0.00000000E+00  0.00000000E+00
  0.00000000E+00  0.00000000E+00  0.00000000E+00
  0.00000000E+00  0.00000000E+00  0.00000000E+00
  0.00000000E+00  0.00000000E+00  0.00000000E+00
  0.00000000E+00  0.00000000E+00  0.00000000E+00
  0.00000000E+00  0.00000000E+00  0.00000000E+00
  0.00000000E+00  0.00000000E+00  0.00000000E+00
  0.00000000E+00  0.00000000E+00  0.00000000E+00
  0.00000000E+00  0.00000000E+00  0.00000000E+00
  0.00000000E+00  0.00000000E+00  0.00000000E+00
  0.00000000E+00  0.00000000E+00  0.00000000E+00
  0.00000000E+00  0.00000000E+00  0.00000000E+00
  0.00000000E+00  0.00000000E+00  0.00000000E+00
  0.00000000E+00  0.00000000E+00  0.00000000E+00
  0.00000000E+00  0.00000000E+00  0.00000000E+00
  0.00000000E+00  0.00000000E+00  0.00000000E+00
  0.00000000E+00  0.00000000E+00  0.00000000E+00
  0.00000000E+00  0.00000000E+00  0.00000000E+00
  0.00000000E+00  0.00000000E+00  0.00000000E+00
  0.00000000E+00  0.00000000E+00  0.00000000E+00
  0.00000000E+00  0.00000000E+00  0.00000000E+00
  0.00000000E+00  0.00000000E+00  0.00000000E+00
  0.00000000E+00  0.00000000E+00  0.00000000E+00
  0.00000000E+00  0.00000000E+00  0.00000000E+00
  0.00000000E+00  0.00000000E+00  0.00000000E+00
  0.00000000E+00  0.00000000E+00  0.00000000E+00
  0.00000000E+00  0.00000000E+00  0.00000000E+00
  0.00000000E+00  0.00000000E+00  0.00000000E+00
  0.00000000E+00  0.00000000E+00  0.00000000E+00
  0.00000000E+00  0.00000000E+00  0.00000000E+00
  0.00000000E+00  0.00000000E+00  0.00000000E+00
  0.00000000E+00  0.00000000E+00  0.00000000E+00
  0.00000000E+00  0.00000000E+00  0.00000000E+00
  0.00000000E+00  0.00000000E+00  0.00000000E+00
  0.00000000E+00  0.00000000E+00  0.00000000E+00
  0.00000000E+00  0.00000000E+00  0.00000000E+00
  0.00000000E+00  0.00000000E+00  0.00000000E+00
  0.00000000E+00  0.00000000E+00  0.00000000E+00
  0.00000000E+00  0.00000000E+00  0.00000000E+00
  0.00000000E+00  0.00000000E+00  0.00000000E+00
  0.00000000E+00  0.00000000E+00  0.00000000E+00
  0.00000000E+00  0.00000000E+00  0.00000000E+00
  0.00000000E+00  0.00000000E+00  0.00000000E+00
  0.00000000E+00  0.00000000E+00  0.00000000E+00
  0.00000000E+00  0.00000000E+00  0.00000000E+00
  0.00000000E+00  0.00000000E+00  0.00000000E+00
  0.00000000E+00  0.00000000E+00  0.00000000E+00
  0.00000000E+00  0.00000000E+00  0.00000000E+00
  0.00000000E+00  0.00000000E+00  0.00000000E+00
  0.00000000E+00  0.00000000E+00  0.00000000E+00
  0.00000000E+00  0.00000000E+00  0.00000000E+00
  0.00000000E+00  0.00000000E+00  0.00000000E+00
