Al   Sc   N    O                        
   1.00000000000000     
   -10.0927979996954225    0.0204183096411334   -0.0110169205051663
    -5.0498214437237641    8.7924929859610472   -0.0087416314412219
     0.0607782948553108   -0.0228967073425136   -9.7007114380572776
   Al   Sc   N    O 
    23    13    35     1
Direct
  0.1090681967260707  0.0923171961175271  0.3074347251135379
  0.2216273838968021  0.2087008564732784  0.0702880084136694
  0.7791190666456131  0.0934262100233525  0.8009980623456912
  0.8948905431321066  0.2057302078254892  0.5626588068851248
  0.5473034033291952  0.2192789266915227  0.1304164108547283
  0.2232604369398885  0.2020717045149070  0.5633324088768674
  0.8775467175035203  0.2086353740468638  0.0620367912366362
  0.5519973410495425  0.2081714739112499  0.6026290363423215
  0.2262090172382827  0.5398410028460674  0.1205466317745234
  0.4323797171115089  0.4422277450155576  0.3780797275258649
  0.5509744071113900  0.5396691669933276  0.0584296957803687
  0.2201081782118379  0.5442062208825433  0.6130156587386892
  0.8848699008851497  0.5426576480439280  0.0531824884538281
  0.4470133457440397  0.4361282867945349  0.8032392626912497
  0.5578323584229707  0.5428273130886865  0.5611189313303555
  0.1151617500454734  0.7598413289295536  0.3642306806301363
  0.7735005719559780  0.7687590894013283  0.8093391113153956
  0.8895600495334719  0.8711402451356989  0.5840962841647439
  0.4424154619844316  0.7548439637499982  0.3128085883515368
  0.5628189081632442  0.8563991464048542  0.0614997453918278
  0.1171322893666513  0.7559570859348597  0.8616343187934845
  0.4506361711279538  0.7530732508714948  0.8139394607741721
  0.5535469792159589  0.8696228452501842  0.5661004148380258
  0.4416921722451193  0.0866918742553295  0.3338025394465376
  0.1093395185505912  0.0945703480981024  0.8341264668737907
  0.7775106725403447  0.0978591377539786  0.3431890210747497
  0.4580026069356506  0.0897873927527044  0.8371688945278919
  0.1171213857749080  0.4253076549745600  0.3368048051225898
  0.7673319792447870  0.4239506932069830  0.8293543353537771
  0.8893343368173348  0.5348233925542516  0.5898096876117336
  0.1230970280826185  0.4313563939061709  0.8394609734629768
  0.7722435758303874  0.4255504098019145  0.3153343852563779
  0.2280283217586145  0.8666620828997296  0.0843797187605233
  0.2262065387497714  0.8735387168734903  0.5833812397788094
  0.7750858520118697  0.7554490361461035  0.3282182309735049
  0.8820049995035717  0.8777960740036761  0.0825384040238646
  0.2121128563776438  0.1916500849227489  0.3638127525213335
  0.0974106413302138  0.1137288781964827  0.1052890097793195
  0.8772298622507648  0.1910193676876659  0.8686059353681301
  0.7828142440757873  0.0913982095926968  0.5916354884975874
  0.5311730561874910  0.2369704673235802  0.3338974719376608
  0.4513156388226065  0.0908753766250854  0.0989789376657342
  0.2300407792650105  0.2035670351217078  0.8763587952739442
  0.1036184881034430  0.1135974456406146  0.6158862131817600
  0.9093705986273477  0.1972440191182230  0.3684637610387540
  0.7598185421051369  0.1209163906257871  0.1165049117778096
  0.5635643387776952  0.2224657931065295  0.8048384518946392
  0.4451149946503747  0.0906389745020775  0.5948618419597125
  0.2319920077806614  0.5536337931664121  0.3159598465661801
  0.1123213202613016  0.4312388256626747  0.0939199360924405
  0.8816960064109480  0.5556616484275452  0.8468560725731322
  0.7649764704655908  0.4142276116216621  0.6063566350200915
  0.5358967819747988  0.5502795577522122  0.3656065678748632
  0.2347581100071494  0.5523914380245358  0.8082493058867257
  0.1357578385956444  0.4155349972038636  0.5941110345469909
  0.8894436803084247  0.5309535868773807  0.3737009000829161
  0.7742972156153414  0.4295517571135434  0.0863349436535970
  0.5330110922970803  0.5486086181607988  0.8659057747174614
  0.4413877221830873  0.4345595465586243  0.5846745960653692
  0.2214009670206423  0.8726003111946312  0.3378568962038386
  0.1212904175042340  0.7381685204103832  0.0587304995531213
  0.8866023477250593  0.8761536564265668  0.8377872809345988
  0.7664384759790863  0.7818116842868434  0.6066915736072005
  0.5425848264759452  0.8560704600444780  0.3725457170460444
  0.4652881268675131  0.7445717462463222  0.1164175173909499
  0.2337757914067566  0.8562767402448799  0.8422184099375798
  0.1040191008595954  0.7523725446619665  0.5654346571696252
  0.9054339440073562  0.8627204874863423  0.3325588188462802
  0.7721246897213234  0.7480907816247395  0.1063551745670424
  0.5654148666877106  0.8500351617112116  0.8654499094566361
  0.4675883403459622  0.7476666656326145  0.6195692326211812
  0.4417834527254811  0.4279054493378069  0.0860491283371019
 
  0.00000000E+00  0.00000000E+00  0.00000000E+00
  0.00000000E+00  0.00000000E+00  0.00000000E+00
  0.00000000E+00  0.00000000E+00  0.00000000E+00
  0.00000000E+00  0.00000000E+00  0.00000000E+00
  0.00000000E+00  0.00000000E+00  0.00000000E+00
  0.00000000E+00  0.00000000E+00  0.00000000E+00
  0.00000000E+00  0.00000000E+00  0.00000000E+00
  0.00000000E+00  0.00000000E+00  0.00000000E+00
  0.00000000E+00  0.00000000E+00  0.00000000E+00
  0.00000000E+00  0.00000000E+00  0.00000000E+00
  0.00000000E+00  0.00000000E+00  0.00000000E+00
  0.00000000E+00  0.00000000E+00  0.00000000E+00
  0.00000000E+00  0.00000000E+00  0.00000000E+00
  0.00000000E+00  0.00000000E+00  0.00000000E+00
  0.00000000E+00  0.00000000E+00  0.00000000E+00
  0.00000000E+00  0.00000000E+00  0.00000000E+00
  0.00000000E+00  0.00000000E+00  0.00000000E+00
  0.00000000E+00  0.00000000E+00  0.00000000E+00
  0.00000000E+00  0.00000000E+00  0.00000000E+00
  0.00000000E+00  0.00000000E+00  0.00000000E+00
  0.00000000E+00  0.00000000E+00  0.00000000E+00
  0.00000000E+00  0.00000000E+00  0.00000000E+00
  0.00000000E+00  0.00000000E+00  0.00000000E+00
  0.00000000E+00  0.00000000E+00  0.00000000E+00
  0.00000000E+00  0.00000000E+00  0.00000000E+00
  0.00000000E+00  0.00000000E+00  0.00000000E+00
  0.00000000E+00  0.00000000E+00  0.00000000E+00
  0.00000000E+00  0.00000000E+00  0.00000000E+00
  0.00000000E+00  0.00000000E+00  0.00000000E+00
  0.00000000E+00  0.00000000E+00  0.00000000E+00
  0.00000000E+00  0.00000000E+00  0.00000000E+00
  0.00000000E+00  0.00000000E+00  0.00000000E+00
  0.00000000E+00  0.00000000E+00  0.00000000E+00
  0.00000000E+00  0.00000000E+00  0.00000000E+00
  0.00000000E+00  0.00000000E+00  0.00000000E+00
  0.00000000E+00  0.00000000E+00  0.00000000E+00
  0.00000000E+00  0.00000000E+00  0.00000000E+00
  0.00000000E+00  0.00000000E+00  0.00000000E+00
  0.00000000E+00  0.00000000E+00  0.00000000E+00
  0.00000000E+00  0.00000000E+00  0.00000000E+00
  0.00000000E+00  0.00000000E+00  0.00000000E+00
  0.00000000E+00  0.00000000E+00  0.00000000E+00
  0.00000000E+00  0.00000000E+00  0.00000000E+00
  0.00000000E+00  0.00000000E+00  0.00000000E+00
  0.00000000E+00  0.00000000E+00  0.00000000E+00
  0.00000000E+00  0.00000000E+00  0.00000000E+00
  0.00000000E+00  0.00000000E+00  0.00000000E+00
  0.00000000E+00  0.00000000E+00  0.00000000E+00
  0.00000000E+00  0.00000000E+00  0.00000000E+00
  0.00000000E+00  0.00000000E+00  0.00000000E+00
  0.00000000E+00  0.00000000E+00  0.00000000E+00
  0.00000000E+00  0.00000000E+00  0.00000000E+00
  0.00000000E+00  0.00000000E+00  0.00000000E+00
  0.00000000E+00  0.00000000E+00  0.00000000E+00
  0.00000000E+00  0.00000000E+00  0.00000000E+00
  0.00000000E+00  0.00000000E+00  0.00000000E+00
  0.00000000E+00  0.00000000E+00  0.00000000E+00
  0.00000000E+00  0.00000000E+00  0.00000000E+00
  0.00000000E+00  0.00000000E+00  0.00000000E+00
  0.00000000E+00  0.00000000E+00  0.00000000E+00
  0.00000000E+00  0.00000000E+00  0.00000000E+00
  0.00000000E+00  0.00000000E+00  0.00000000E+00
  0.00000000E+00  0.00000000E+00  0.00000000E+00
  0.00000000E+00  0.00000000E+00  0.00000000E+00
  0.00000000E+00  0.00000000E+00  0.00000000E+00
  0.00000000E+00  0.00000000E+00  0.00000000E+00
  0.00000000E+00  0.00000000E+00  0.00000000E+00
  0.00000000E+00  0.00000000E+00  0.00000000E+00
  0.00000000E+00  0.00000000E+00  0.00000000E+00
  0.00000000E+00  0.00000000E+00  0.00000000E+00
  0.00000000E+00  0.00000000E+00  0.00000000E+00
  0.00000000E+00  0.00000000E+00  0.00000000E+00
