Al   Sc   N    O                        
   1.00000000000000     
   -10.0749794533726966    0.0214661741918958   -0.0102404897674622
    -5.0608400284189630    8.7610919833039773   -0.0082877326670850
     0.0642123273024095   -0.0160036600579582   -9.8131385841258965
   Al   Sc   N    O 
    23    13    35     1
Direct
  0.1090689510835503  0.0918346641483794  0.3095215818754156
  0.2199507427062457  0.2082146740190751  0.0690342178237628
  0.7756379752232192  0.0986705900512135  0.8141881946151059
  0.8924658661038265  0.2040419821481763  0.5625660431179966
  0.5480065878910310  0.2128687255286223  0.1226088191665582
  0.2231969657154167  0.2028208575487156  0.5631974711619492
  0.8787493929655668  0.2101846559532419  0.0627162957920504
  0.5502901230729762  0.2161610378603029  0.6157551968594532
  0.2208652826087345  0.5400939364018384  0.1189944936581426
  0.4339630680939734  0.4394143600863742  0.3728184243669546
  0.5625104789312516  0.5507800974883850  0.0640989757819455
  0.2305558509368808  0.5385271671248830  0.6169480513697820
  0.8864682076046080  0.5413149892021210  0.0531177445064230
  0.4423463316564025  0.4332613301623596  0.8641435639058486
  0.5547363588790262  0.5392495040133625  0.5577771067554735
  0.1128742686688327  0.7594020586361268  0.3657592108912127
  0.7702186110179028  0.7659887045289864  0.8123773665366514
  0.8907396015288356  0.8722852020992278  0.6199157998623903
  0.4428491671001495  0.7577850240803272  0.3154718412496536
  0.5604934923512133  0.8611683276780937  0.0604913749502742
  0.1222749026864207  0.7531250542494092  0.8616427953800212
  0.4496937009843691  0.7522370458166208  0.8115639596019477
  0.5548996899417773  0.8701135957218042  0.5668287516224737
  0.4416811345144467  0.0889435388583664  0.3324208690690966
  0.1088450062393989  0.0943840461471908  0.8302358525829021
  0.7771130025145041  0.0944529662511400  0.3402502398944804
  0.4544478420036455  0.0886228435536083  0.8336995217007868
  0.1185843816367225  0.4260368692170786  0.3364587599563009
  0.7646924777957693  0.4258282345004432  0.8238416497817340
  0.8890101293631574  0.5370740756253127  0.5877540379741504
  0.1212953433143511  0.4307968934814994  0.8344971585901391
  0.7751551093447659  0.4247881618843223  0.3192004157878188
  0.2273273089570935  0.8672523985455243  0.0853401120229194
  0.2256834120478857  0.8724828906788176  0.5804398051230422
  0.7772824380622367  0.7575496606802332  0.3250151024425421
  0.8857856497655092  0.8746233949623132  0.0838679985113799
  0.2117850476055168  0.1921810232717860  0.3667663151678155
  0.0972181357440647  0.1136384812788762  0.1092383282166125
  0.8775870252147087  0.1953269291064288  0.8710745583797888
  0.7799415980829636  0.0931698763007418  0.5975249039831496
  0.5314651124527359  0.2376668009688530  0.3160612923427664
  0.4492377385883728  0.0878848684286169  0.0975517603614406
  0.2274258820391282  0.2039388279472263  0.8777408194010334
  0.1029220882519368  0.1134391820714598  0.6152946309777931
  0.9081300735862783  0.1942575846476160  0.3700314649703103
  0.7606450744956206  0.1192980653895503  0.1066030776413101
  0.5598477496817011  0.2256389769486162  0.8144137013163970
  0.4457049941362072  0.0932867643137669  0.5985013673462234
  0.2333655638817120  0.5542327980462147  0.3092223529885203
  0.1102510261229241  0.4303955772535275  0.0949873481619647
  0.8805971080353387  0.5541550396924677  0.8490265150170444
  0.7641317040022244  0.4149914427125196  0.6041914195065701
  0.5371975920604939  0.5504082900837446  0.3609393603271656
  0.2390450354724365  0.5487203494301269  0.8093816122764679
  0.1361038861576276  0.4162462318909803  0.5976787939871997
  0.8907931565628502  0.5334601852130874  0.3754059084590367
  0.7782929951990241  0.4296776780234737  0.0927141317514000
  0.5339162610323598  0.5517313187900044  0.8764842907779880
  0.4422236224974867  0.4299244905547823  0.5685137550965820
  0.2217387188797701  0.8720377895704274  0.3414487147522962
  0.1245630161951681  0.7360325655103708  0.0529199209175673
  0.8892469840405681  0.8747917558330798  0.8300137203596734
  0.7660004652292614  0.7823703733301954  0.6129147617181872
  0.5447991909001786  0.8579878004008492  0.3759639928959473
  0.4637933102475671  0.7522690138483128  0.1218009206439064
  0.2341568383576274  0.8564544004568830  0.8416949582300930
  0.1011774697964327  0.7508466318876046  0.5654004841981504
  0.9103105938534739  0.8613939731834108  0.3087298564786352
  0.7707203534920239  0.7480864734111208  0.1038688315726688
  0.5627556350962450  0.8499011041692555  0.8664327831690102
  0.4684001404575611  0.7451400036292455  0.6192631517141081
  0.4333274686286543  0.4205116832084599  0.0621674038854323
 
  0.00000000E+00  0.00000000E+00  0.00000000E+00
  0.00000000E+00  0.00000000E+00  0.00000000E+00
  0.00000000E+00  0.00000000E+00  0.00000000E+00
  0.00000000E+00  0.00000000E+00  0.00000000E+00
  0.00000000E+00  0.00000000E+00  0.00000000E+00
  0.00000000E+00  0.00000000E+00  0.00000000E+00
  0.00000000E+00  0.00000000E+00  0.00000000E+00
  0.00000000E+00  0.00000000E+00  0.00000000E+00
  0.00000000E+00  0.00000000E+00  0.00000000E+00
  0.00000000E+00  0.00000000E+00  0.00000000E+00
  0.00000000E+00  0.00000000E+00  0.00000000E+00
  0.00000000E+00  0.00000000E+00  0.00000000E+00
  0.00000000E+00  0.00000000E+00  0.00000000E+00
  0.00000000E+00  0.00000000E+00  0.00000000E+00
  0.00000000E+00  0.00000000E+00  0.00000000E+00
  0.00000000E+00  0.00000000E+00  0.00000000E+00
  0.00000000E+00  0.00000000E+00  0.00000000E+00
  0.00000000E+00  0.00000000E+00  0.00000000E+00
  0.00000000E+00  0.00000000E+00  0.00000000E+00
  0.00000000E+00  0.00000000E+00  0.00000000E+00
  0.00000000E+00  0.00000000E+00  0.00000000E+00
  0.00000000E+00  0.00000000E+00  0.00000000E+00
  0.00000000E+00  0.00000000E+00  0.00000000E+00
  0.00000000E+00  0.00000000E+00  0.00000000E+00
  0.00000000E+00  0.00000000E+00  0.00000000E+00
  0.00000000E+00  0.00000000E+00  0.00000000E+00
  0.00000000E+00  0.00000000E+00  0.00000000E+00
  0.00000000E+00  0.00000000E+00  0.00000000E+00
  0.00000000E+00  0.00000000E+00  0.00000000E+00
  0.00000000E+00  0.00000000E+00  0.00000000E+00
  0.00000000E+00  0.00000000E+00  0.00000000E+00
  0.00000000E+00  0.00000000E+00  0.00000000E+00
  0.00000000E+00  0.00000000E+00  0.00000000E+00
  0.00000000E+00  0.00000000E+00  0.00000000E+00
  0.00000000E+00  0.00000000E+00  0.00000000E+00
  0.00000000E+00  0.00000000E+00  0.00000000E+00
  0.00000000E+00  0.00000000E+00  0.00000000E+00
  0.00000000E+00  0.00000000E+00  0.00000000E+00
  0.00000000E+00  0.00000000E+00  0.00000000E+00
  0.00000000E+00  0.00000000E+00  0.00000000E+00
  0.00000000E+00  0.00000000E+00  0.00000000E+00
  0.00000000E+00  0.00000000E+00  0.00000000E+00
  0.00000000E+00  0.00000000E+00  0.00000000E+00
  0.00000000E+00  0.00000000E+00  0.00000000E+00
  0.00000000E+00  0.00000000E+00  0.00000000E+00
  0.00000000E+00  0.00000000E+00  0.00000000E+00
  0.00000000E+00  0.00000000E+00  0.00000000E+00
  0.00000000E+00  0.00000000E+00  0.00000000E+00
  0.00000000E+00  0.00000000E+00  0.00000000E+00
  0.00000000E+00  0.00000000E+00  0.00000000E+00
  0.00000000E+00  0.00000000E+00  0.00000000E+00
  0.00000000E+00  0.00000000E+00  0.00000000E+00
  0.00000000E+00  0.00000000E+00  0.00000000E+00
  0.00000000E+00  0.00000000E+00  0.00000000E+00
  0.00000000E+00  0.00000000E+00  0.00000000E+00
  0.00000000E+00  0.00000000E+00  0.00000000E+00
  0.00000000E+00  0.00000000E+00  0.00000000E+00
  0.00000000E+00  0.00000000E+00  0.00000000E+00
  0.00000000E+00  0.00000000E+00  0.00000000E+00
  0.00000000E+00  0.00000000E+00  0.00000000E+00
  0.00000000E+00  0.00000000E+00  0.00000000E+00
  0.00000000E+00  0.00000000E+00  0.00000000E+00
  0.00000000E+00  0.00000000E+00  0.00000000E+00
  0.00000000E+00  0.00000000E+00  0.00000000E+00
  0.00000000E+00  0.00000000E+00  0.00000000E+00
  0.00000000E+00  0.00000000E+00  0.00000000E+00
  0.00000000E+00  0.00000000E+00  0.00000000E+00
  0.00000000E+00  0.00000000E+00  0.00000000E+00
  0.00000000E+00  0.00000000E+00  0.00000000E+00
  0.00000000E+00  0.00000000E+00  0.00000000E+00
  0.00000000E+00  0.00000000E+00  0.00000000E+00
  0.00000000E+00  0.00000000E+00  0.00000000E+00
