Al   Sc   N    O                        
   1.00000000000000     
    -9.9276913255030870    0.0166646550587231    0.0009207967271048
    -4.9780712349661842    8.6235036653184860   -0.0014060551620345
     0.0010751895164932    0.0024522617841486  -10.0982852063500985
   Al   Sc   N    O 
    23    13    35     1
Direct
  0.1089274003230116  0.0949301856200577  0.4088965520502796
  0.2207671631272845  0.2008032965902444  0.1543489904383293
  0.7704260298362229  0.1033481693940530  0.8992630954544651
  0.8814819016371587  0.2046167056354946  0.6526755196889411
  0.5513150964703541  0.2104591452684446  0.1481411367159353
  0.2239080499664894  0.2087782679228667  0.6503844153612235
  0.8894006067670972  0.2087651466558569  0.1515217861432347
  0.5565978141738626  0.2107169627261314  0.6530095475995878
  0.2232844388228585  0.5422051470802529  0.1545005803594108
  0.4383646725160020  0.4399129687427035  0.4010907643409070
  0.5553955711331113  0.5470325926112451  0.1512912913155517
  0.2271748898432904  0.5349971580834918  0.6491824805424855
  0.8853262916507276  0.5376369643599190  0.1562273370748315
  0.4425294466551861  0.4341994755029290  0.8906629132742765
  0.5531648811936734  0.5360069764620476  0.6525328357405940
  0.1108943385047851  0.7585603885471244  0.4064393939917679
  0.7723875524912316  0.7585011866887257  0.9024913488841335
  0.8828172137413546  0.8754008468901233  0.6614376817743803
  0.4458651463732508  0.7563337323840145  0.4039850026409368
  0.5529628131743820  0.8654742613519630  0.1453076187465712
  0.1225115583399656  0.7531358426718597  0.8929652929196550
  0.4453127062836444  0.7536272428121507  0.8966555667915230
  0.5606201677525249  0.8666204368279082  0.6550231831212727
  0.4438750401474465  0.0914309259924480  0.3960670758751021
  0.1105208611580153  0.0887519615412771  0.8880077049082402
  0.7796843373415143  0.0926392570180496  0.3936140386099893
  0.4516891260744629  0.0897471759110999  0.8880048162947602
  0.1228201283101598  0.4238428337898199  0.3842929874817145
  0.7716366255159883  0.4293190001443605  0.8967301773895784
  0.8901832567496086  0.5407678275184580  0.6407370918297062
  0.1145928501879894  0.4338718686993772  0.9046775343363649
  0.7678628440029556  0.4244513901672846  0.3917896211678524
  0.2256133370992899  0.8695681394607178  0.1590592194152904
  0.2255558133258759  0.8662333104713724  0.6300532670390879
  0.7746448894312365  0.7683641336230664  0.3900982614778243
  0.8910917198993360  0.8714499416769854  0.1222370852625119
  0.2163307037055802  0.1880830550571488  0.3406886554130963
  0.1028894795989075  0.1075176058215774  0.0973627619601203
  0.8779462476828357  0.1975033765047698  0.8386296618851503
  0.7768113055488612  0.0914489525546074  0.6059541657195027
  0.5396277064943646  0.2337427315004561  0.3335771737418369
  0.4451546465193346  0.0947069608447038  0.1059034714414082
  0.2210847284827580  0.2096426594134471  0.8368274608084860
  0.0988592847985288  0.1159431857876214  0.6002348780349180
  0.9079805011813491  0.1919971361467958  0.3381175522712141
  0.7619954710296284  0.1216494494853819  0.0916503934008048
  0.5590396227073668  0.2228313054162072  0.8431799990458586
  0.4485001781712725  0.0914057391559808  0.6148548384360595
  0.2330731485999280  0.5549701550322510  0.3382300003983119
  0.1163142901923138  0.4264605890119171  0.1221868849478511
  0.8840890347102999  0.5530789194950785  0.8483909790233355
  0.7665964507427034  0.4176615106039705  0.6060930054634213
  0.5290936017711516  0.5531241722668341  0.3343503144302602
  0.2343767392050538  0.5436785653699729  0.8373843852084164
  0.1338794187698511  0.4179511437465280  0.5973102767529923
  0.8871325883032384  0.5377591668212602  0.3464757275956671
  0.7741108021428715  0.4284652328041929  0.1147772622732930
  0.5376232302016959  0.5456171736081288  0.8417323222073847
  0.4446233939164159  0.4295435827550520  0.5915510936324466
  0.2212600208501314  0.8715868960357440  0.3801506141768485
  0.1310581281356278  0.7379655240306420  0.0798126511577522
  0.8845152469120308  0.8746920485535483  0.8609644418989220
  0.7681465312845006  0.7838830426436729  0.6001714347227960
  0.5413762259527033  0.8615924087337063  0.3314464253900056
  0.4570282767150360  0.7512146097431796  0.0854290175663550
  0.2336956638252019  0.8524385594611843  0.8428945431183976
  0.0951923449635572  0.7492248532615378  0.5962988954283261
  0.9114167281186809  0.8633435953444319  0.3303136572034830
  0.7683484897136452  0.7495364976045451  0.0954765286656922
  0.5628422186455140  0.8495234617132539  0.8435780320132267
  0.4723898557466342  0.7452297990104171  0.5905864144407360
  0.4411573114422893  0.4295565622638335  0.0865002394103840
 
  0.00000000E+00  0.00000000E+00  0.00000000E+00
  0.00000000E+00  0.00000000E+00  0.00000000E+00
  0.00000000E+00  0.00000000E+00  0.00000000E+00
  0.00000000E+00  0.00000000E+00  0.00000000E+00
  0.00000000E+00  0.00000000E+00  0.00000000E+00
  0.00000000E+00  0.00000000E+00  0.00000000E+00
  0.00000000E+00  0.00000000E+00  0.00000000E+00
  0.00000000E+00  0.00000000E+00  0.00000000E+00
  0.00000000E+00  0.00000000E+00  0.00000000E+00
  0.00000000E+00  0.00000000E+00  0.00000000E+00
  0.00000000E+00  0.00000000E+00  0.00000000E+00
  0.00000000E+00  0.00000000E+00  0.00000000E+00
  0.00000000E+00  0.00000000E+00  0.00000000E+00
  0.00000000E+00  0.00000000E+00  0.00000000E+00
  0.00000000E+00  0.00000000E+00  0.00000000E+00
  0.00000000E+00  0.00000000E+00  0.00000000E+00
  0.00000000E+00  0.00000000E+00  0.00000000E+00
  0.00000000E+00  0.00000000E+00  0.00000000E+00
  0.00000000E+00  0.00000000E+00  0.00000000E+00
  0.00000000E+00  0.00000000E+00  0.00000000E+00
  0.00000000E+00  0.00000000E+00  0.00000000E+00
  0.00000000E+00  0.00000000E+00  0.00000000E+00
  0.00000000E+00  0.00000000E+00  0.00000000E+00
  0.00000000E+00  0.00000000E+00  0.00000000E+00
  0.00000000E+00  0.00000000E+00  0.00000000E+00
  0.00000000E+00  0.00000000E+00  0.00000000E+00
  0.00000000E+00  0.00000000E+00  0.00000000E+00
  0.00000000E+00  0.00000000E+00  0.00000000E+00
  0.00000000E+00  0.00000000E+00  0.00000000E+00
  0.00000000E+00  0.00000000E+00  0.00000000E+00
  0.00000000E+00  0.00000000E+00  0.00000000E+00
  0.00000000E+00  0.00000000E+00  0.00000000E+00
  0.00000000E+00  0.00000000E+00  0.00000000E+00
  0.00000000E+00  0.00000000E+00  0.00000000E+00
  0.00000000E+00  0.00000000E+00  0.00000000E+00
  0.00000000E+00  0.00000000E+00  0.00000000E+00
  0.00000000E+00  0.00000000E+00  0.00000000E+00
  0.00000000E+00  0.00000000E+00  0.00000000E+00
  0.00000000E+00  0.00000000E+00  0.00000000E+00
  0.00000000E+00  0.00000000E+00  0.00000000E+00
  0.00000000E+00  0.00000000E+00  0.00000000E+00
  0.00000000E+00  0.00000000E+00  0.00000000E+00
  0.00000000E+00  0.00000000E+00  0.00000000E+00
  0.00000000E+00  0.00000000E+00  0.00000000E+00
  0.00000000E+00  0.00000000E+00  0.00000000E+00
  0.00000000E+00  0.00000000E+00  0.00000000E+00
  0.00000000E+00  0.00000000E+00  0.00000000E+00
  0.00000000E+00  0.00000000E+00  0.00000000E+00
  0.00000000E+00  0.00000000E+00  0.00000000E+00
  0.00000000E+00  0.00000000E+00  0.00000000E+00
  0.00000000E+00  0.00000000E+00  0.00000000E+00
  0.00000000E+00  0.00000000E+00  0.00000000E+00
  0.00000000E+00  0.00000000E+00  0.00000000E+00
  0.00000000E+00  0.00000000E+00  0.00000000E+00
  0.00000000E+00  0.00000000E+00  0.00000000E+00
  0.00000000E+00  0.00000000E+00  0.00000000E+00
  0.00000000E+00  0.00000000E+00  0.00000000E+00
  0.00000000E+00  0.00000000E+00  0.00000000E+00
  0.00000000E+00  0.00000000E+00  0.00000000E+00
  0.00000000E+00  0.00000000E+00  0.00000000E+00
  0.00000000E+00  0.00000000E+00  0.00000000E+00
  0.00000000E+00  0.00000000E+00  0.00000000E+00
  0.00000000E+00  0.00000000E+00  0.00000000E+00
  0.00000000E+00  0.00000000E+00  0.00000000E+00
  0.00000000E+00  0.00000000E+00  0.00000000E+00
  0.00000000E+00  0.00000000E+00  0.00000000E+00
  0.00000000E+00  0.00000000E+00  0.00000000E+00
  0.00000000E+00  0.00000000E+00  0.00000000E+00
  0.00000000E+00  0.00000000E+00  0.00000000E+00
  0.00000000E+00  0.00000000E+00  0.00000000E+00
  0.00000000E+00  0.00000000E+00  0.00000000E+00
  0.00000000E+00  0.00000000E+00  0.00000000E+00
