Al   Sc   N    O                        
   1.00000000000000     
   -10.1452497329697202    0.0199124214220640   -0.0042425163506638
    -5.1526058867468034    8.7734099407860171   -0.0046080216467016
     0.0129069637492650   -0.0554212367561747   -9.6595669603129082
   Al   Sc   N    O 
    23    13    35     1
Direct
  0.1111031489751113  0.0926313283359832  0.3967082021628698
  0.2174381507984933  0.2027678125959369  0.1383606913411128
  0.7685393180930831  0.1058792581401136  0.8933055194471820
  0.8797322373584961  0.2013719628357578  0.6391457350833889
  0.5468209660913672  0.2099792257764435  0.1396263785402425
  0.2285817322313051  0.2061582235789174  0.6394701837008370
  0.8917395031987851  0.2097330326143947  0.1372651311415964
  0.5580291273518299  0.2126215950292618  0.6395632867455845
  0.2184631737358060  0.5384319187884472  0.1441836214320205
  0.4369806506215781  0.4375048337047289  0.3864632989369099
  0.5615981994738917  0.5549894136706115  0.1153940125183937
  0.2301633477744573  0.5375627873679747  0.6374716504665443
  0.8868006360522998  0.5412874071494826  0.0841232070861153
  0.4409888671114714  0.4342984888115566  0.8935356849660110
  0.5530098672844446  0.5356030319225766  0.5956426016635348
  0.1108240242747556  0.7594948984308942  0.3926288765208525
  0.7704964496347202  0.7671134463040801  0.8378199723682727
  0.8846835690071302  0.8804235083113099  0.6484138865477505
  0.4398703660325154  0.7623902237639442  0.3374172324641265
  0.5586258223446023  0.8649506066066763  0.0838602555408698
  0.1230892673578055  0.7524065874409871  0.8828269520777710
  0.4493831061215232  0.7503887881808495  0.8443152396404727
  0.5563871606760671  0.8667222762062465  0.5954642421957956
  0.4439779612250874  0.0901384663395319  0.3733199715457260
  0.1086288374687072  0.0939536087288602  0.8679404873355949
  0.7794695764034927  0.0943209273799610  0.3720695385881925
  0.4561615977473821  0.0901670895290536  0.8670155107378719
  0.1227215025991555  0.4226830682271512  0.3760704471625260
  0.7642694844426856  0.4280751917056662  0.8690567727394338
  0.8913342605461878  0.5360951149772433  0.6194823401664920
  0.1234071034405915  0.4322718342899066  0.8762064147967550
  0.7767729403396118  0.4252933110396313  0.3631738843029311
  0.2173769294466013  0.8746644509364501  0.1237142056883229
  0.2271032695285911  0.8640950680788606  0.6168144252048506
  0.7784482682690381  0.7593908589137754  0.3568179192358585
  0.8884651802503427  0.8682428135773606  0.1076683968375178
  0.2145178502009912  0.1888394716465953  0.3360375215481071
  0.1003509815974724  0.1128596770484478  0.0862796176261753
  0.8765127119494167  0.1948182371278477  0.8347964280876283
  0.7762254057438014  0.0917227098663886  0.5948931315340360
  0.5378257374139821  0.2323260778646699  0.3329880527516593
  0.4477350206932940  0.0909256438109125  0.1069065529223820
  0.2271788250183704  0.2050075224884651  0.8354586091888692
  0.1012971472546198  0.1133929033399141  0.5998167711663953
  0.9106781838039808  0.1912880288923660  0.3342453835031307
  0.7610735930343040  0.1221432455575950  0.0940226896782761
  0.5600379839295684  0.2264478051209338  0.8383136810680938
  0.4505732254817971  0.0932928308273091  0.6122421711976571
  0.2308589519204247  0.5529209916097102  0.3363859200295707
  0.1117160775345170  0.4275341269850088  0.1101621101833885
  0.8820974198489608  0.5540890079351612  0.8693853370945490
  0.7628008607227983  0.4163752785823931  0.6132803663810407
  0.5344948648654508  0.5467104997648207  0.3415838116732886
  0.2400276191877140  0.5465856758802943  0.8311827790714759
  0.1382059944539691  0.4176283424697402  0.6069841965845058
  0.8931168049843592  0.5346940109693179  0.3999697603573296
  0.7828883050698678  0.4293443558318870  0.1129382740838594
  0.5318731238971992  0.5512769018284942  0.9133522202604496
  0.4446732048383097  0.4305938814894859  0.5859557760629599
  0.2204241857717335  0.8707448130631619  0.3696266302098365
  0.1262533200505018  0.7344598823523611  0.0767008902882225
  0.8842847283281117  0.8790818715741153  0.8573499977997301
  0.7676718244513907  0.7827228958702932  0.6344982107165436
  0.5443603233565000  0.8558709901632966  0.4005186139194450
  0.4539196505154166  0.7677546607637069  0.1396964931016456
  0.2313185089516239  0.8555775793417766  0.8527961984628121
  0.0969095629036758  0.7521697687226236  0.5933428186186021
  0.9102333197391275  0.8631688851939430  0.3293065917266276
  0.7686462631062696  0.7492512076200768  0.1289987150937648
  0.5625075312922405  0.8497683259609516  0.8853987636940701
  0.4716229186236376  0.7396429174905705  0.6443413953284960
  0.4232094808199633  0.4135668947825266  0.0858743812544418
 
  0.00000000E+00  0.00000000E+00  0.00000000E+00
  0.00000000E+00  0.00000000E+00  0.00000000E+00
  0.00000000E+00  0.00000000E+00  0.00000000E+00
  0.00000000E+00  0.00000000E+00  0.00000000E+00
  0.00000000E+00  0.00000000E+00  0.00000000E+00
  0.00000000E+00  0.00000000E+00  0.00000000E+00
  0.00000000E+00  0.00000000E+00  0.00000000E+00
  0.00000000E+00  0.00000000E+00  0.00000000E+00
  0.00000000E+00  0.00000000E+00  0.00000000E+00
  0.00000000E+00  0.00000000E+00  0.00000000E+00
  0.00000000E+00  0.00000000E+00  0.00000000E+00
  0.00000000E+00  0.00000000E+00  0.00000000E+00
  0.00000000E+00  0.00000000E+00  0.00000000E+00
  0.00000000E+00  0.00000000E+00  0.00000000E+00
  0.00000000E+00  0.00000000E+00  0.00000000E+00
  0.00000000E+00  0.00000000E+00  0.00000000E+00
  0.00000000E+00  0.00000000E+00  0.00000000E+00
  0.00000000E+00  0.00000000E+00  0.00000000E+00
  0.00000000E+00  0.00000000E+00  0.00000000E+00
  0.00000000E+00  0.00000000E+00  0.00000000E+00
  0.00000000E+00  0.00000000E+00  0.00000000E+00
  0.00000000E+00  0.00000000E+00  0.00000000E+00
  0.00000000E+00  0.00000000E+00  0.00000000E+00
  0.00000000E+00  0.00000000E+00  0.00000000E+00
  0.00000000E+00  0.00000000E+00  0.00000000E+00
  0.00000000E+00  0.00000000E+00  0.00000000E+00
  0.00000000E+00  0.00000000E+00  0.00000000E+00
  0.00000000E+00  0.00000000E+00  0.00000000E+00
  0.00000000E+00  0.00000000E+00  0.00000000E+00
  0.00000000E+00  0.00000000E+00  0.00000000E+00
  0.00000000E+00  0.00000000E+00  0.00000000E+00
  0.00000000E+00  0.00000000E+00  0.00000000E+00
  0.00000000E+00  0.00000000E+00  0.00000000E+00
  0.00000000E+00  0.00000000E+00  0.00000000E+00
  0.00000000E+00  0.00000000E+00  0.00000000E+00
  0.00000000E+00  0.00000000E+00  0.00000000E+00
  0.00000000E+00  0.00000000E+00  0.00000000E+00
  0.00000000E+00  0.00000000E+00  0.00000000E+00
  0.00000000E+00  0.00000000E+00  0.00000000E+00
  0.00000000E+00  0.00000000E+00  0.00000000E+00
  0.00000000E+00  0.00000000E+00  0.00000000E+00
  0.00000000E+00  0.00000000E+00  0.00000000E+00
  0.00000000E+00  0.00000000E+00  0.00000000E+00
  0.00000000E+00  0.00000000E+00  0.00000000E+00
  0.00000000E+00  0.00000000E+00  0.00000000E+00
  0.00000000E+00  0.00000000E+00  0.00000000E+00
  0.00000000E+00  0.00000000E+00  0.00000000E+00
  0.00000000E+00  0.00000000E+00  0.00000000E+00
  0.00000000E+00  0.00000000E+00  0.00000000E+00
  0.00000000E+00  0.00000000E+00  0.00000000E+00
  0.00000000E+00  0.00000000E+00  0.00000000E+00
  0.00000000E+00  0.00000000E+00  0.00000000E+00
  0.00000000E+00  0.00000000E+00  0.00000000E+00
  0.00000000E+00  0.00000000E+00  0.00000000E+00
  0.00000000E+00  0.00000000E+00  0.00000000E+00
  0.00000000E+00  0.00000000E+00  0.00000000E+00
  0.00000000E+00  0.00000000E+00  0.00000000E+00
  0.00000000E+00  0.00000000E+00  0.00000000E+00
  0.00000000E+00  0.00000000E+00  0.00000000E+00
  0.00000000E+00  0.00000000E+00  0.00000000E+00
  0.00000000E+00  0.00000000E+00  0.00000000E+00
  0.00000000E+00  0.00000000E+00  0.00000000E+00
  0.00000000E+00  0.00000000E+00  0.00000000E+00
  0.00000000E+00  0.00000000E+00  0.00000000E+00
  0.00000000E+00  0.00000000E+00  0.00000000E+00
  0.00000000E+00  0.00000000E+00  0.00000000E+00
  0.00000000E+00  0.00000000E+00  0.00000000E+00
  0.00000000E+00  0.00000000E+00  0.00000000E+00
  0.00000000E+00  0.00000000E+00  0.00000000E+00
  0.00000000E+00  0.00000000E+00  0.00000000E+00
  0.00000000E+00  0.00000000E+00  0.00000000E+00
  0.00000000E+00  0.00000000E+00  0.00000000E+00
