Al   Sc   N    O                        
   1.00000000000000     
    -9.9490243013632540    0.0170255179879832    0.0003470952740194
    -4.9914677139948562    8.6398551898596132   -0.0017618292158864
     0.0086912814512542   -0.0112401606611240  -10.0454468381917490
   Al   Sc   N    O 
    23    13    35     1
Direct
  0.1091475079172852  0.0947955436071766  0.4014609879187248
  0.2206026259743936  0.2007820602241779  0.1459792456607829
  0.7701993165748533  0.1037202144667191  0.8918970257298895
  0.8809312213620188  0.2046257824035891  0.6446607700070714
  0.5511998515936440  0.2107686116796259  0.1403388533306043
  0.2244279733056658  0.2088120127711832  0.6426230390160939
  0.8897957850468288  0.2087166783570353  0.1432755613074832
  0.5567745758625975  0.2106456124693352  0.6449236509792868
  0.2234034092446606  0.5422872220548740  0.1466734895665098
  0.4383603966207659  0.4400829462920726  0.3936348350595793
  0.5551739291476920  0.5471107921539016  0.1431715424665256
  0.2272762754937645  0.5351124234947875  0.6414048543732989
  0.8855344067834423  0.5373224861691668  0.1492891272804755
  0.4426600727844914  0.4342345583253788  0.8829028989628256
  0.5530311087639319  0.5360526117108080  0.6449198231253916
  0.1109595226756923  0.7586115349320863  0.3983861204832593
  0.7723614760662798  0.7582826283889617  0.8941997636023515
  0.8826645208170518  0.8755479503189392  0.6534843047437633
  0.4457240500617914  0.7562257450131398  0.3960435462942158
  0.5531276497458109  0.8650710143102884  0.1375917547993595
  0.1227865167247373  0.7531602126909007  0.8850097845770648
  0.4453948776811174  0.7538279844397877  0.8888958411752341
  0.5606432843295721  0.8665661303236760  0.6468712744738454
  0.4440599580730975  0.0913859793489848  0.3872071799810186
  0.1102601479541221  0.0895819707174894  0.8785013070773076
  0.7798333959204484  0.0925926023458956  0.3843842069524754
  0.4520476584547239  0.0897911447546207  0.8800653805177987
  0.1235976621678248  0.4234010294553272  0.3761198492661251
  0.7717661931269291  0.4298914690438664  0.8880877866862065
  0.8901638199647053  0.5406557936030723  0.6307488505323420
  0.1142035802115231  0.4345832022999687  0.8959885992007486
  0.7675746960609118  0.4241177935537692  0.3832640521544661
  0.2252090195989638  0.8702821388501292  0.1498825504436780
  0.2256686879242125  0.8659724455449123  0.6222508687229507
  0.7747236836155196  0.7686326249047184  0.3815572622358374
  0.8912267816451163  0.8710485199071130  0.1135668162301542
  0.2163289878768566  0.1877931312159191  0.3334422429802899
  0.1026719926368642  0.1080903576965540  0.0889832294216291
  0.8772955622102003  0.1978979195203863  0.8316561443091075
  0.7767652649124912  0.0913231797439309  0.5979530444280456
  0.5394062758954021  0.2341864887308560  0.3265491054742427
  0.4454948761256645  0.0944593766213870  0.0991917363956389
  0.2216863650409095  0.2099281288100698  0.8300999431157408
  0.0990245496416549  0.1157594136403191  0.5941048969853142
  0.9085364453211255  0.1917049065841780  0.3309048099407619
  0.7621256954887841  0.1214461219116387  0.0852701075805484
  0.5591333086259738  0.2228917976479821  0.8361333124016568
  0.4487147019542306  0.0913212807181125  0.6073189997387729
  0.2332705250791776  0.5548426846373218  0.3312467530357992
  0.1161940495129201  0.4265998374456927  0.1150243143325866
  0.8839912469318492  0.5533472937712958  0.8396960357401468
  0.7662240929753068  0.4174866081711528  0.5988123354577013
  0.5288499903707233  0.5530295934487626  0.3270345623846751
  0.2346795712470993  0.5438207374709307  0.8303478814758591
  0.1343718467234112  0.4177953915362451  0.5902954813569181
  0.8875265764937552  0.5372848695434627  0.3412468978452523
  0.7741915693652430  0.4285503644580544  0.1078396350326756
  0.5375514024363781  0.5457421923480155  0.8350233138167056
  0.4446359980045500  0.4296116698659205  0.5847067594382480
  0.2212261368949058  0.8716018936124854  0.3723381084078170
  0.1310117518977520  0.7379050272638068  0.0726415546252639
  0.8842565300359482  0.8749566521671710  0.8539825108616839
  0.7680529748381133  0.7840957588201505  0.5926647205315234
  0.5414667343243877  0.8612404004202361  0.3246073748777931
  0.4570976830106090  0.7512575572324636  0.0783876351563677
  0.2336744731791782  0.8527233713092528  0.8362887499403229
  0.0952393124818443  0.7493462471182895  0.5892965321524883
  0.9116980965082178  0.8630647776729177  0.3226852108291141
  0.7686318740556004  0.7489210472472934  0.0887273171006342
  0.5627571993243805  0.8496354896530036  0.8364516769749741
  0.4721507360334840  0.7451413889143197  0.5836158821847306
  0.4411311010301873  0.4295835114485342  0.0791092788004590
 
  0.00000000E+00  0.00000000E+00  0.00000000E+00
  0.00000000E+00  0.00000000E+00  0.00000000E+00
  0.00000000E+00  0.00000000E+00  0.00000000E+00
  0.00000000E+00  0.00000000E+00  0.00000000E+00
  0.00000000E+00  0.00000000E+00  0.00000000E+00
  0.00000000E+00  0.00000000E+00  0.00000000E+00
  0.00000000E+00  0.00000000E+00  0.00000000E+00
  0.00000000E+00  0.00000000E+00  0.00000000E+00
  0.00000000E+00  0.00000000E+00  0.00000000E+00
  0.00000000E+00  0.00000000E+00  0.00000000E+00
  0.00000000E+00  0.00000000E+00  0.00000000E+00
  0.00000000E+00  0.00000000E+00  0.00000000E+00
  0.00000000E+00  0.00000000E+00  0.00000000E+00
  0.00000000E+00  0.00000000E+00  0.00000000E+00
  0.00000000E+00  0.00000000E+00  0.00000000E+00
  0.00000000E+00  0.00000000E+00  0.00000000E+00
  0.00000000E+00  0.00000000E+00  0.00000000E+00
  0.00000000E+00  0.00000000E+00  0.00000000E+00
  0.00000000E+00  0.00000000E+00  0.00000000E+00
  0.00000000E+00  0.00000000E+00  0.00000000E+00
  0.00000000E+00  0.00000000E+00  0.00000000E+00
  0.00000000E+00  0.00000000E+00  0.00000000E+00
  0.00000000E+00  0.00000000E+00  0.00000000E+00
  0.00000000E+00  0.00000000E+00  0.00000000E+00
  0.00000000E+00  0.00000000E+00  0.00000000E+00
  0.00000000E+00  0.00000000E+00  0.00000000E+00
  0.00000000E+00  0.00000000E+00  0.00000000E+00
  0.00000000E+00  0.00000000E+00  0.00000000E+00
  0.00000000E+00  0.00000000E+00  0.00000000E+00
  0.00000000E+00  0.00000000E+00  0.00000000E+00
  0.00000000E+00  0.00000000E+00  0.00000000E+00
  0.00000000E+00  0.00000000E+00  0.00000000E+00
  0.00000000E+00  0.00000000E+00  0.00000000E+00
  0.00000000E+00  0.00000000E+00  0.00000000E+00
  0.00000000E+00  0.00000000E+00  0.00000000E+00
  0.00000000E+00  0.00000000E+00  0.00000000E+00
  0.00000000E+00  0.00000000E+00  0.00000000E+00
  0.00000000E+00  0.00000000E+00  0.00000000E+00
  0.00000000E+00  0.00000000E+00  0.00000000E+00
  0.00000000E+00  0.00000000E+00  0.00000000E+00
  0.00000000E+00  0.00000000E+00  0.00000000E+00
  0.00000000E+00  0.00000000E+00  0.00000000E+00
  0.00000000E+00  0.00000000E+00  0.00000000E+00
  0.00000000E+00  0.00000000E+00  0.00000000E+00
  0.00000000E+00  0.00000000E+00  0.00000000E+00
  0.00000000E+00  0.00000000E+00  0.00000000E+00
  0.00000000E+00  0.00000000E+00  0.00000000E+00
  0.00000000E+00  0.00000000E+00  0.00000000E+00
  0.00000000E+00  0.00000000E+00  0.00000000E+00
  0.00000000E+00  0.00000000E+00  0.00000000E+00
  0.00000000E+00  0.00000000E+00  0.00000000E+00
  0.00000000E+00  0.00000000E+00  0.00000000E+00
  0.00000000E+00  0.00000000E+00  0.00000000E+00
  0.00000000E+00  0.00000000E+00  0.00000000E+00
  0.00000000E+00  0.00000000E+00  0.00000000E+00
  0.00000000E+00  0.00000000E+00  0.00000000E+00
  0.00000000E+00  0.00000000E+00  0.00000000E+00
  0.00000000E+00  0.00000000E+00  0.00000000E+00
  0.00000000E+00  0.00000000E+00  0.00000000E+00
  0.00000000E+00  0.00000000E+00  0.00000000E+00
  0.00000000E+00  0.00000000E+00  0.00000000E+00
  0.00000000E+00  0.00000000E+00  0.00000000E+00
  0.00000000E+00  0.00000000E+00  0.00000000E+00
  0.00000000E+00  0.00000000E+00  0.00000000E+00
  0.00000000E+00  0.00000000E+00  0.00000000E+00
  0.00000000E+00  0.00000000E+00  0.00000000E+00
  0.00000000E+00  0.00000000E+00  0.00000000E+00
  0.00000000E+00  0.00000000E+00  0.00000000E+00
  0.00000000E+00  0.00000000E+00  0.00000000E+00
  0.00000000E+00  0.00000000E+00  0.00000000E+00
  0.00000000E+00  0.00000000E+00  0.00000000E+00
  0.00000000E+00  0.00000000E+00  0.00000000E+00
