Al   Sc   N    O                        
   1.00000000000000     
    -9.9982473750540954    0.0228633269262458   -0.0092052487838568
    -5.0070904708927513    8.7006352397274718   -0.0076825343015692
     0.0884172417872332   -0.0491469476579054  -10.0549409680262709
   Al   Sc   N    O 
    23    13    35     1
Direct
  0.1099255068814884  0.0915939232029146  0.3186114017999984
  0.2203391336417866  0.2070277271031600  0.0753260139774810
  0.7682561444325415  0.1010656695556165  0.8854692112005580
  0.8907621850062526  0.2037475328634955  0.5671148202237362
  0.5468406359503177  0.2115455797493055  0.1305356648929035
  0.2232020801772236  0.2041109035072992  0.5705662728461292
  0.8839114350129691  0.2133600551245607  0.0719050358319464
  0.5601723139506944  0.2126556480301858  0.6305155794003312
  0.2231418850758260  0.5376803319839283  0.1301143627151902
  0.4352296623361980  0.4372502675388574  0.3834222213635670
  0.5646875810899559  0.5525894365546193  0.0692554107922945
  0.2305224874915339  0.5386029657164002  0.6273814146179646
  0.8864533200749136  0.5396398004929637  0.0606192229956974
  0.4410950116722674  0.4335805700052688  0.8760824220500538
  0.5541426782700469  0.5396613398897614  0.5664006415485972
  0.1121921070967815  0.7578841298107264  0.3761149215556756
  0.7698537336403746  0.7661921391559545  0.8226352022608836
  0.8865632129243153  0.8812955663229758  0.6380200560221141
  0.4421877309717388  0.7581722765794368  0.3238418262126288
  0.5589322593733925  0.8631798137495537  0.0683223911923818
  0.1222269818772475  0.7532406330335277  0.8739957326050174
  0.4489999601349410  0.7531103243031936  0.8200533636904481
  0.5558060191759893  0.8707669305279282  0.5760331845629167
  0.4420724304838046  0.0900753096064051  0.3395572183213176
  0.1085248462292867  0.0938764332782327  0.8306907093470670
  0.7778393436116602  0.0903743821027589  0.3617705135578291
  0.4526403135712300  0.0883620249610644  0.8348622023689600
  0.1156833958067764  0.4254917596604315  0.3381759129922273
  0.7645108101394626  0.4251679094677314  0.8264214561105945
  0.8879977723566626  0.5400878943757306  0.5930149735788817
  0.1199854662767592  0.4305320583574215  0.8391656092309816
  0.7718661817140742  0.4265822468715186  0.3267476896396957
  0.2286128206815619  0.8683729233568158  0.0895644439653793
  0.2267280616501708  0.8718597627876008  0.5814919564749630
  0.7752005818173942  0.7573132963139741  0.3292129498401835
  0.8911081771172391  0.8664058067812093  0.0978327381049766
  0.2126995057196766  0.1927613810803024  0.3804298040432528
  0.0983725328715153  0.1138871216687107  0.1247841605286482
  0.8814262133508137  0.1987890911878836  0.8840714383981449
  0.7776507165311628  0.0918530534355639  0.5829671487809165
  0.5378210164609740  0.2372672916122909  0.3161825945757428
  0.4467338252804680  0.0872832360020155  0.1110478460667537
  0.2267622719699816  0.2032137316006697  0.8893066226587578
  0.1021958948343880  0.1125665682929622  0.6216558389289872
  0.9070582773855236  0.1957570255157108  0.3763171724912340
  0.7572672943590533  0.1159351098839210  0.0847665773348680
  0.5629207998334280  0.2248566355027535  0.8235296618315644
  0.4456575871235913  0.0940529907073824  0.6107691315773351
  0.2343340228802973  0.5520496880204391  0.3168262010916152
  0.1095951656793375  0.4290631357353263  0.1073104844582318
  0.8793874905045982  0.5543260816233229  0.8636813531635568
  0.7645573653442526  0.4147553316540353  0.6136758210149154
  0.5356413607827832  0.5528513924379084  0.3761358124797241
  0.2391963119775582  0.5499775222871861  0.8155946976335926
  0.1338795235774128  0.4163239611268708  0.6130681562097990
  0.8890481243898378  0.5351691307415294  0.3867891175960239
  0.7773421897653705  0.4299645411134705  0.1072506596131646
  0.5347328630046349  0.5522480495004700  0.8875251234183850
  0.4428281737163289  0.4263003859178980  0.5750909280097929
  0.2215921067509896  0.8718907678222365  0.3535429411067526
  0.1285567634331315  0.7318678229187228  0.0605952955142683
  0.8885923737555643  0.8783748306356998  0.8425971303162285
  0.7651072963268035  0.7843231613840516  0.6303191933085088
  0.5444403277709853  0.8591324880044198  0.3893753019885935
  0.4647762130060400  0.7517275305623414  0.1347927026929483
  0.2348845207926047  0.8573211148069717  0.8583005363219129
  0.0982844686281155  0.7520507693475835  0.5723515814219908
  0.9115453056357907  0.8600626626910994  0.3105886510913152
  0.7694553320363013  0.7463089855187022  0.1149194827316222
  0.5620151484825726  0.8511321804464345  0.8795536016222272
  0.4683458281852921  0.7455843723478992  0.6323801821491131
  0.4320990352474894  0.4183392779536277  0.0682602040395821
 
  0.00000000E+00  0.00000000E+00  0.00000000E+00
  0.00000000E+00  0.00000000E+00  0.00000000E+00
  0.00000000E+00  0.00000000E+00  0.00000000E+00
  0.00000000E+00  0.00000000E+00  0.00000000E+00
  0.00000000E+00  0.00000000E+00  0.00000000E+00
  0.00000000E+00  0.00000000E+00  0.00000000E+00
  0.00000000E+00  0.00000000E+00  0.00000000E+00
  0.00000000E+00  0.00000000E+00  0.00000000E+00
  0.00000000E+00  0.00000000E+00  0.00000000E+00
  0.00000000E+00  0.00000000E+00  0.00000000E+00
  0.00000000E+00  0.00000000E+00  0.00000000E+00
  0.00000000E+00  0.00000000E+00  0.00000000E+00
  0.00000000E+00  0.00000000E+00  0.00000000E+00
  0.00000000E+00  0.00000000E+00  0.00000000E+00
  0.00000000E+00  0.00000000E+00  0.00000000E+00
  0.00000000E+00  0.00000000E+00  0.00000000E+00
  0.00000000E+00  0.00000000E+00  0.00000000E+00
  0.00000000E+00  0.00000000E+00  0.00000000E+00
  0.00000000E+00  0.00000000E+00  0.00000000E+00
  0.00000000E+00  0.00000000E+00  0.00000000E+00
  0.00000000E+00  0.00000000E+00  0.00000000E+00
  0.00000000E+00  0.00000000E+00  0.00000000E+00
  0.00000000E+00  0.00000000E+00  0.00000000E+00
  0.00000000E+00  0.00000000E+00  0.00000000E+00
  0.00000000E+00  0.00000000E+00  0.00000000E+00
  0.00000000E+00  0.00000000E+00  0.00000000E+00
  0.00000000E+00  0.00000000E+00  0.00000000E+00
  0.00000000E+00  0.00000000E+00  0.00000000E+00
  0.00000000E+00  0.00000000E+00  0.00000000E+00
  0.00000000E+00  0.00000000E+00  0.00000000E+00
  0.00000000E+00  0.00000000E+00  0.00000000E+00
  0.00000000E+00  0.00000000E+00  0.00000000E+00
  0.00000000E+00  0.00000000E+00  0.00000000E+00
  0.00000000E+00  0.00000000E+00  0.00000000E+00
  0.00000000E+00  0.00000000E+00  0.00000000E+00
  0.00000000E+00  0.00000000E+00  0.00000000E+00
  0.00000000E+00  0.00000000E+00  0.00000000E+00
  0.00000000E+00  0.00000000E+00  0.00000000E+00
  0.00000000E+00  0.00000000E+00  0.00000000E+00
  0.00000000E+00  0.00000000E+00  0.00000000E+00
  0.00000000E+00  0.00000000E+00  0.00000000E+00
  0.00000000E+00  0.00000000E+00  0.00000000E+00
  0.00000000E+00  0.00000000E+00  0.00000000E+00
  0.00000000E+00  0.00000000E+00  0.00000000E+00
  0.00000000E+00  0.00000000E+00  0.00000000E+00
  0.00000000E+00  0.00000000E+00  0.00000000E+00
  0.00000000E+00  0.00000000E+00  0.00000000E+00
  0.00000000E+00  0.00000000E+00  0.00000000E+00
  0.00000000E+00  0.00000000E+00  0.00000000E+00
  0.00000000E+00  0.00000000E+00  0.00000000E+00
  0.00000000E+00  0.00000000E+00  0.00000000E+00
  0.00000000E+00  0.00000000E+00  0.00000000E+00
  0.00000000E+00  0.00000000E+00  0.00000000E+00
  0.00000000E+00  0.00000000E+00  0.00000000E+00
  0.00000000E+00  0.00000000E+00  0.00000000E+00
  0.00000000E+00  0.00000000E+00  0.00000000E+00
  0.00000000E+00  0.00000000E+00  0.00000000E+00
  0.00000000E+00  0.00000000E+00  0.00000000E+00
  0.00000000E+00  0.00000000E+00  0.00000000E+00
  0.00000000E+00  0.00000000E+00  0.00000000E+00
  0.00000000E+00  0.00000000E+00  0.00000000E+00
  0.00000000E+00  0.00000000E+00  0.00000000E+00
  0.00000000E+00  0.00000000E+00  0.00000000E+00
  0.00000000E+00  0.00000000E+00  0.00000000E+00
  0.00000000E+00  0.00000000E+00  0.00000000E+00
  0.00000000E+00  0.00000000E+00  0.00000000E+00
  0.00000000E+00  0.00000000E+00  0.00000000E+00
  0.00000000E+00  0.00000000E+00  0.00000000E+00
  0.00000000E+00  0.00000000E+00  0.00000000E+00
  0.00000000E+00  0.00000000E+00  0.00000000E+00
  0.00000000E+00  0.00000000E+00  0.00000000E+00
  0.00000000E+00  0.00000000E+00  0.00000000E+00
