Al   Sc   N    O                        
   1.00000000000000     
   -10.0843665056228922    0.0193704450903709   -0.0117933512428703
    -5.0382332236794118    8.7864988013586398   -0.0091955302153588
     0.0749390296282723   -0.0819752334005064   -9.7217448897522161
   Al   Sc   N    O 
    23    13    35     1
Direct
  0.1096055606944191  0.0925702242696218  0.3056130975296512
  0.2216202223413006  0.2078063091165276  0.0696477815192154
  0.7801797702795952  0.0916835622499121  0.7983724180480678
  0.8945950204429209  0.2055067852746575  0.5622023702227139
  0.5488730418198031  0.2182455529617968  0.1313485294407570
  0.2235020696434376  0.2016148512772844  0.5633610732060959
  0.8789755834230633  0.2077756857000566  0.0614947100938821
  0.5530478668272565  0.2079559389962213  0.6047208557721291
  0.2288563434592916  0.5346445774761790  0.1184677403527417
  0.4326249104286291  0.4413929161772998  0.3812539808009490
  0.5524913494547476  0.5402068873855299  0.0579735433254527
  0.2215957077828605  0.5413777915614517  0.6167691010141638
  0.8838026364829759  0.5435080023494550  0.0534389317544637
  0.4473809718141908  0.4350635650247483  0.8093754751986069
  0.5569932120700400  0.5438168689469975  0.5625117222379572
  0.1164320876532301  0.7612812680992604  0.3082189688807944
  0.7727652998158874  0.7704909525526986  0.8070850987779750
  0.8923256540841109  0.8687563378241734  0.5606503602626702
  0.4428433735299464  0.7547342492131150  0.3109273385126414
  0.5631266605725003  0.8568222870644178  0.0611002407003340
  0.1090253231400169  0.7642438220800258  0.8121123978294165
  0.4492297997109347  0.7538060685320644  0.8124049503305244
  0.5534051714881656  0.8700257529386661  0.5660098733909891
  0.4421932798174311  0.0869921973520391  0.3343064114942109
  0.1098392708632616  0.0932832048978938  0.8298747538197588
  0.7784616792413246  0.0976543485844559  0.3429921733639034
  0.4579500939122880  0.0897923042674407  0.8370941949975261
  0.1163663611752881  0.4251812384322093  0.3375446588790751
  0.7680296342006443  0.4232713028339248  0.8286605070190376
  0.8885259091256543  0.5365846676431119  0.5902433474736952
  0.1217635458897774  0.4305946468668580  0.8409917112283125
  0.7713270867116577  0.4256166596683144  0.3161908759229135
  0.2290945117305725  0.8667509028128393  0.0734208667826763
  0.2241585185604720  0.8721434387116958  0.5695386240642009
  0.7753994676961113  0.7555223980651391  0.3276159787988391
  0.8802797521959107  0.8792400614209797  0.0698707016792284
  0.2126903703538829  0.1915073239637408  0.3642622764477323
  0.0979925921644806  0.1133496976513868  0.1054301516678322
  0.8781035283570944  0.1898779728656379  0.8682724373747206
  0.7829291337934308  0.0912140995512516  0.5921310995082010
  0.5333111257610454  0.2363237062138310  0.3342032353798103
  0.4514159495909027  0.0913019598669180  0.0992575367102830
  0.2298673010966894  0.2021252339929518  0.8762841245621686
  0.1043705214802628  0.1115077702285774  0.6134786411821125
  0.9098135063912878  0.1972207126350369  0.3681607907005642
  0.7623650523118215  0.1187577605799603  0.1187939414275405
  0.5646545107070153  0.2216252944259907  0.8065268616520811
  0.4449765380381336  0.0914235029800921  0.5950366764828559
  0.2335203337834173  0.5486858533349519  0.3211864940216103
  0.1113638899124041  0.4307771981123310  0.0939343587652672
  0.8801075884249414  0.5572788562625988  0.8473146207047506
  0.7648849059332221  0.4148143128719113  0.6060867646765900
  0.5348092994018359  0.5509318940428045  0.3669199130220377
  0.2358233183758713  0.5498342817791624  0.8213359643649412
  0.1350849759882351  0.4152986133553114  0.5968606483558290
  0.8881772680354771  0.5318903769139354  0.3742041438909212
  0.7746851652618432  0.4291859615449667  0.0868568373092344
  0.5340359871031950  0.5493062685877277  0.8658780715315118
  0.4410966298135861  0.4349105034877780  0.5879030289251119
  0.2219466108056380  0.8730986050368514  0.3388823860523260
  0.1168019468780841  0.7455576693715997  0.1048253217099457
  0.8832374681430295  0.8780058722217348  0.8484230457841520
  0.7662804319703866  0.7837879988917251  0.6071085090239237
  0.5431043435780722  0.8560832433416579  0.3724878576379425
  0.4658376650080100  0.7449147062273127  0.1161042211637522
  0.2327890856850701  0.8550364062032045  0.8476472403129449
  0.1005480877672156  0.7564539738874956  0.6102942929062820
  0.9097839787249953  0.8595487821632091  0.3597410557270848
  0.7724083876154140  0.7494518348761261  0.1080455788929982
  0.5649169142809853  0.8503605302298993  0.8654164007850724
  0.4646571799529582  0.7498333733515352  0.6190336856317700
  0.4437603997706034  0.4267882358068462  0.0852479947725016
 
  0.00000000E+00  0.00000000E+00  0.00000000E+00
  0.00000000E+00  0.00000000E+00  0.00000000E+00
  0.00000000E+00  0.00000000E+00  0.00000000E+00
  0.00000000E+00  0.00000000E+00  0.00000000E+00
  0.00000000E+00  0.00000000E+00  0.00000000E+00
  0.00000000E+00  0.00000000E+00  0.00000000E+00
  0.00000000E+00  0.00000000E+00  0.00000000E+00
  0.00000000E+00  0.00000000E+00  0.00000000E+00
  0.00000000E+00  0.00000000E+00  0.00000000E+00
  0.00000000E+00  0.00000000E+00  0.00000000E+00
  0.00000000E+00  0.00000000E+00  0.00000000E+00
  0.00000000E+00  0.00000000E+00  0.00000000E+00
  0.00000000E+00  0.00000000E+00  0.00000000E+00
  0.00000000E+00  0.00000000E+00  0.00000000E+00
  0.00000000E+00  0.00000000E+00  0.00000000E+00
  0.00000000E+00  0.00000000E+00  0.00000000E+00
  0.00000000E+00  0.00000000E+00  0.00000000E+00
  0.00000000E+00  0.00000000E+00  0.00000000E+00
  0.00000000E+00  0.00000000E+00  0.00000000E+00
  0.00000000E+00  0.00000000E+00  0.00000000E+00
  0.00000000E+00  0.00000000E+00  0.00000000E+00
  0.00000000E+00  0.00000000E+00  0.00000000E+00
  0.00000000E+00  0.00000000E+00  0.00000000E+00
  0.00000000E+00  0.00000000E+00  0.00000000E+00
  0.00000000E+00  0.00000000E+00  0.00000000E+00
  0.00000000E+00  0.00000000E+00  0.00000000E+00
  0.00000000E+00  0.00000000E+00  0.00000000E+00
  0.00000000E+00  0.00000000E+00  0.00000000E+00
  0.00000000E+00  0.00000000E+00  0.00000000E+00
  0.00000000E+00  0.00000000E+00  0.00000000E+00
  0.00000000E+00  0.00000000E+00  0.00000000E+00
  0.00000000E+00  0.00000000E+00  0.00000000E+00
  0.00000000E+00  0.00000000E+00  0.00000000E+00
  0.00000000E+00  0.00000000E+00  0.00000000E+00
  0.00000000E+00  0.00000000E+00  0.00000000E+00
  0.00000000E+00  0.00000000E+00  0.00000000E+00
  0.00000000E+00  0.00000000E+00  0.00000000E+00
  0.00000000E+00  0.00000000E+00  0.00000000E+00
  0.00000000E+00  0.00000000E+00  0.00000000E+00
  0.00000000E+00  0.00000000E+00  0.00000000E+00
  0.00000000E+00  0.00000000E+00  0.00000000E+00
  0.00000000E+00  0.00000000E+00  0.00000000E+00
  0.00000000E+00  0.00000000E+00  0.00000000E+00
  0.00000000E+00  0.00000000E+00  0.00000000E+00
  0.00000000E+00  0.00000000E+00  0.00000000E+00
  0.00000000E+00  0.00000000E+00  0.00000000E+00
  0.00000000E+00  0.00000000E+00  0.00000000E+00
  0.00000000E+00  0.00000000E+00  0.00000000E+00
  0.00000000E+00  0.00000000E+00  0.00000000E+00
  0.00000000E+00  0.00000000E+00  0.00000000E+00
  0.00000000E+00  0.00000000E+00  0.00000000E+00
  0.00000000E+00  0.00000000E+00  0.00000000E+00
  0.00000000E+00  0.00000000E+00  0.00000000E+00
  0.00000000E+00  0.00000000E+00  0.00000000E+00
  0.00000000E+00  0.00000000E+00  0.00000000E+00
  0.00000000E+00  0.00000000E+00  0.00000000E+00
  0.00000000E+00  0.00000000E+00  0.00000000E+00
  0.00000000E+00  0.00000000E+00  0.00000000E+00
  0.00000000E+00  0.00000000E+00  0.00000000E+00
  0.00000000E+00  0.00000000E+00  0.00000000E+00
  0.00000000E+00  0.00000000E+00  0.00000000E+00
  0.00000000E+00  0.00000000E+00  0.00000000E+00
  0.00000000E+00  0.00000000E+00  0.00000000E+00
  0.00000000E+00  0.00000000E+00  0.00000000E+00
  0.00000000E+00  0.00000000E+00  0.00000000E+00
  0.00000000E+00  0.00000000E+00  0.00000000E+00
  0.00000000E+00  0.00000000E+00  0.00000000E+00
  0.00000000E+00  0.00000000E+00  0.00000000E+00
  0.00000000E+00  0.00000000E+00  0.00000000E+00
  0.00000000E+00  0.00000000E+00  0.00000000E+00
  0.00000000E+00  0.00000000E+00  0.00000000E+00
  0.00000000E+00  0.00000000E+00  0.00000000E+00
