Al   Sc   N    O                        
   1.00000000000000     
   -10.0228912331762494    0.0174765966495583   -0.0003700315423373
    -5.0348987144349167    8.6945334728730117   -0.0022065467832013
     0.0471875662126206   -0.0659813600581066   -9.8855591101497531
   Al   Sc   N    O 
    23    13    35     1
Direct
  0.1097713463286283  0.0942986910319448  0.4011680317964164
  0.2202295543290234  0.1998760989823651  0.1437482611780752
  0.7699871542645056  0.1051966566674523  0.8924450723552866
  0.8793109866522144  0.2051519101496524  0.6438978692503525
  0.5511762310157025  0.2112225136899681  0.1388023187264267
  0.2253210259385909  0.2092605860611414  0.6425515940743338
  0.8908443101478483  0.2073103112255055  0.1413185186094594
  0.5572339187817619  0.2110592778180731  0.6433317547698607
  0.2234950139490053  0.5420727693294083  0.1460241833681977
  0.4384568197111633  0.4407982173970453  0.3936162901789260
  0.5550200889136718  0.5481679883724127  0.1420653810436150
  0.2282405506134708  0.5348365928370029  0.6409498791541210
  0.8862209730061750  0.5351497472766624  0.1559566058552875
  0.4429024497988152  0.4340551477835177  0.8830020066130473
  0.5520968426772299  0.5355814141700534  0.6462000520903075
  0.1120036706549215  0.7586068522013107  0.3964959792607345
  0.7739876803580614  0.7638903580571537  0.8425359769124157
  0.8861439050668736  0.8791406548476388  0.6469887452811989
  0.4434414899891479  0.7559729609836481  0.3962622102058759
  0.5550959471958024  0.8630649772658359  0.1406195831731409
  0.1240206705659261  0.7526518525207706  0.8842677782297983
  0.4458402945211546  0.7546822223162337  0.8891472079061984
  0.5540029710593970  0.8699320151796996  0.6393504866475652
  0.4435478767596592  0.0938009707350886  0.3829491946075692
  0.1093760720081320  0.0918381799259436  0.8746888296410660
  0.7801550233659214  0.0928837771670246  0.3780216506239356
  0.4522498023984909  0.0903469761132101  0.8789005136266326
  0.1278378323452003  0.4209229477857619  0.3745053783593448
  0.7722549196325446  0.4330524431757681  0.8863286355235687
  0.8934275536459850  0.5336879710631592  0.6183769447576566
  0.1115514303601444  0.4378189787081510  0.8939860060914313
  0.7655321541702733  0.4215296448024475  0.3811693920632919
  0.2231584434436868  0.8713439765819757  0.1453553488015729
  0.2249246296299887  0.8661172389638807  0.6225255636160796
  0.7756952623841045  0.7675250115035652  0.3747395922035963
  0.8885924391557651  0.8658578837295607  0.1102183213094179
  0.2161175064434602  0.1867719076273175  0.3343508081612114
  0.1021032641894521  0.1086662517614485  0.0880492490461364
  0.8756505886861916  0.1998944848198789  0.8342603615574760
  0.7763470678105833  0.0924186379510985  0.5956324079010074
  0.5392062523830887  0.2363376145015792  0.3272997158411215
  0.4466263098097230  0.0929874316755175  0.1021725657998473
  0.2219534783324590  0.2115457230366289  0.8334949625803887
  0.0988513739524493  0.1161363109286242  0.5978782175550919
  0.9102121843858981  0.1904454641347684  0.3319132904416762
  0.7628095355279001  0.1190885792305849  0.0883492620723274
  0.5597749088037176  0.2226826864988283  0.8375759001702008
  0.4481101239350807  0.0929169692869323  0.6071224835052291
  0.2342051643814642  0.5544859282105037  0.3330037856657242
  0.1151492275247463  0.4263290006514993  0.1179227824759153
  0.8841589981861517  0.5533311205264368  0.8339905105285794
  0.7635878340666622  0.4163432629783159  0.6002576319043271
  0.5276356517245020  0.5534178905758864  0.3281210574580413
  0.2354186894900252  0.5436720833861344  0.8321764280579629
  0.1379026489632764  0.4162532339167555  0.5917898428295274
  0.8904810641171750  0.5318684351303276  0.3579216205461293
  0.7749544376903472  0.4279096400450868  0.1113930871466664
  0.5374711759995421  0.5458580139853666  0.8393050656166423
  0.4447387548433497  0.4295468017449622  0.5869608226465743
  0.2206584250614867  0.8717846249019274  0.3717582411964457
  0.1293012659586878  0.7370555102485028  0.0740495849674829
  0.8857571106098803  0.8772031526613020  0.8511983254546607
  0.7689201895932811  0.7829611343860705  0.6079480034196934
  0.5389947687880507  0.8628108606332745  0.3354143528474509
  0.4571493418352830  0.7524321621478194  0.0813959110254743
  0.2333520685219028  0.8535454440661709  0.8404122946488428
  0.0972341445340561  0.7489316716889931  0.5903078288020751
  0.9127876928574779  0.8629759307335405  0.3261372028802825
  0.7700104235083387  0.7461601467834171  0.1194523713041278
  0.5593178834305377  0.8520541779007047  0.8350167144427445
  0.4689686190424069  0.7439634395789909  0.5867417104811921
  0.4405156279577014  0.4291943945763848  0.0796553403101967
 
  0.00000000E+00  0.00000000E+00  0.00000000E+00
  0.00000000E+00  0.00000000E+00  0.00000000E+00
  0.00000000E+00  0.00000000E+00  0.00000000E+00
  0.00000000E+00  0.00000000E+00  0.00000000E+00
  0.00000000E+00  0.00000000E+00  0.00000000E+00
  0.00000000E+00  0.00000000E+00  0.00000000E+00
  0.00000000E+00  0.00000000E+00  0.00000000E+00
  0.00000000E+00  0.00000000E+00  0.00000000E+00
  0.00000000E+00  0.00000000E+00  0.00000000E+00
  0.00000000E+00  0.00000000E+00  0.00000000E+00
  0.00000000E+00  0.00000000E+00  0.00000000E+00
  0.00000000E+00  0.00000000E+00  0.00000000E+00
  0.00000000E+00  0.00000000E+00  0.00000000E+00
  0.00000000E+00  0.00000000E+00  0.00000000E+00
  0.00000000E+00  0.00000000E+00  0.00000000E+00
  0.00000000E+00  0.00000000E+00  0.00000000E+00
  0.00000000E+00  0.00000000E+00  0.00000000E+00
  0.00000000E+00  0.00000000E+00  0.00000000E+00
  0.00000000E+00  0.00000000E+00  0.00000000E+00
  0.00000000E+00  0.00000000E+00  0.00000000E+00
  0.00000000E+00  0.00000000E+00  0.00000000E+00
  0.00000000E+00  0.00000000E+00  0.00000000E+00
  0.00000000E+00  0.00000000E+00  0.00000000E+00
  0.00000000E+00  0.00000000E+00  0.00000000E+00
  0.00000000E+00  0.00000000E+00  0.00000000E+00
  0.00000000E+00  0.00000000E+00  0.00000000E+00
  0.00000000E+00  0.00000000E+00  0.00000000E+00
  0.00000000E+00  0.00000000E+00  0.00000000E+00
  0.00000000E+00  0.00000000E+00  0.00000000E+00
  0.00000000E+00  0.00000000E+00  0.00000000E+00
  0.00000000E+00  0.00000000E+00  0.00000000E+00
  0.00000000E+00  0.00000000E+00  0.00000000E+00
  0.00000000E+00  0.00000000E+00  0.00000000E+00
  0.00000000E+00  0.00000000E+00  0.00000000E+00
  0.00000000E+00  0.00000000E+00  0.00000000E+00
  0.00000000E+00  0.00000000E+00  0.00000000E+00
  0.00000000E+00  0.00000000E+00  0.00000000E+00
  0.00000000E+00  0.00000000E+00  0.00000000E+00
  0.00000000E+00  0.00000000E+00  0.00000000E+00
  0.00000000E+00  0.00000000E+00  0.00000000E+00
  0.00000000E+00  0.00000000E+00  0.00000000E+00
  0.00000000E+00  0.00000000E+00  0.00000000E+00
  0.00000000E+00  0.00000000E+00  0.00000000E+00
  0.00000000E+00  0.00000000E+00  0.00000000E+00
  0.00000000E+00  0.00000000E+00  0.00000000E+00
  0.00000000E+00  0.00000000E+00  0.00000000E+00
  0.00000000E+00  0.00000000E+00  0.00000000E+00
  0.00000000E+00  0.00000000E+00  0.00000000E+00
  0.00000000E+00  0.00000000E+00  0.00000000E+00
  0.00000000E+00  0.00000000E+00  0.00000000E+00
  0.00000000E+00  0.00000000E+00  0.00000000E+00
  0.00000000E+00  0.00000000E+00  0.00000000E+00
  0.00000000E+00  0.00000000E+00  0.00000000E+00
  0.00000000E+00  0.00000000E+00  0.00000000E+00
  0.00000000E+00  0.00000000E+00  0.00000000E+00
  0.00000000E+00  0.00000000E+00  0.00000000E+00
  0.00000000E+00  0.00000000E+00  0.00000000E+00
  0.00000000E+00  0.00000000E+00  0.00000000E+00
  0.00000000E+00  0.00000000E+00  0.00000000E+00
  0.00000000E+00  0.00000000E+00  0.00000000E+00
  0.00000000E+00  0.00000000E+00  0.00000000E+00
  0.00000000E+00  0.00000000E+00  0.00000000E+00
  0.00000000E+00  0.00000000E+00  0.00000000E+00
  0.00000000E+00  0.00000000E+00  0.00000000E+00
  0.00000000E+00  0.00000000E+00  0.00000000E+00
  0.00000000E+00  0.00000000E+00  0.00000000E+00
  0.00000000E+00  0.00000000E+00  0.00000000E+00
  0.00000000E+00  0.00000000E+00  0.00000000E+00
  0.00000000E+00  0.00000000E+00  0.00000000E+00
  0.00000000E+00  0.00000000E+00  0.00000000E+00
  0.00000000E+00  0.00000000E+00  0.00000000E+00
  0.00000000E+00  0.00000000E+00  0.00000000E+00
