Al   Sc   N    O                        
   1.00000000000000     
   -10.0391972032107653    0.0176570281141884   -0.0006568822688800
    -5.0479294533135448    8.7075187123145259   -0.0023844338101273
     0.0588495718956075   -0.0808656027346525   -9.8556813947050390
   Al   Sc   N    O 
    23    13    35     1
Direct
  0.1100447232828898  0.0941123492120752  0.4010144274115746
  0.2199666203685382  0.1997671754924326  0.1429180612334946
  0.7703088473968336  0.1051115181983704  0.8922563118078557
  0.8792891443914783  0.2052256877812084  0.6438159785814648
  0.5515816069952209  0.2112966701166172  0.1380055938481348
  0.2245169310726496  0.2098835474256120  0.6423517124039151
  0.8908876190100159  0.2072034665782425  0.1411759703145066
  0.5574814341190546  0.2117241314848783  0.6430920477607174
  0.2235004787182078  0.5420135982330976  0.1459866414580802
  0.4385738389917293  0.4406601944349333  0.3935358404843257
  0.5551126633922223  0.5480647971383306  0.1425213462205690
  0.2282843197969910  0.5347907476465181  0.6408726824443960
  0.8868364646675531  0.5337864906892946  0.1566786388200470
  0.4427871644089407  0.4339295337743962  0.8833226924913760
  0.5519783119509256  0.5347043907249613  0.6472266542283194
  0.1120885259626831  0.7585468980295715  0.3962648727122300
  0.7729909198865528  0.7650345062246728  0.8308927610851953
  0.8869599255194416  0.8799257953879405  0.6467246714489150
  0.4426616091058193  0.7549520621912080  0.3979360262701377
  0.5570461849862980  0.8637937255729540  0.1239580711611197
  0.1236210210003250  0.7526069934903887  0.8842563616276422
  0.4452194484969496  0.7541203421421372  0.8884782395108388
  0.5528181108920975  0.8714326476076266  0.6260785076192903
  0.4434787455178721  0.0947456411104781  0.3808341286410482
  0.1092198469680810  0.0920399072714559  0.8745242071486317
  0.7803276016862029  0.0929245247236992  0.3772904043775753
  0.4519567803359905  0.0911165787094674  0.8743512125935666
  0.1284325989183301  0.4204099058843980  0.3742624878671066
  0.7725047430334584  0.4334457937977731  0.8859536293776955
  0.8939175714959973  0.5325875175390422  0.6170253171892242
  0.1107749183061983  0.4386552234814260  0.8934419458439606
  0.7654736551548851  0.4212239593237825  0.3811833592595875
  0.2226600088050148  0.8716710092207975  0.1454474431762875
  0.2239754642632406  0.8663675251283749  0.6232448269045747
  0.7766284842463236  0.7666393482745377  0.3699535763365276
  0.8887685501901430  0.8654545365266983  0.1093040433546406
  0.2158701056366610  0.1866198952713845  0.3339675814650249
  0.1018950544880255  0.1086973908163458  0.0881964727016538
  0.8756618080208440  0.2000077454240099  0.8346479675701204
  0.7763909235871012  0.0924544796206490  0.5955761268877069
  0.5397830150425662  0.2368490343981193  0.3267984864098494
  0.4470949883292974  0.0925386436646392  0.1016643936508785
  0.2207067894861865  0.2123539831012025  0.8338247339989522
  0.0987864776072271  0.1162995962586066  0.5981455049037478
  0.9103777820931711  0.1903813226000182  0.3322675730334126
  0.7632088688064869  0.1186688773743256  0.0885762003415991
  0.5603437753926954  0.2230581941643521  0.8377441306030704
  0.4474269180253074  0.0947394541411271  0.6084367819146124
  0.2343107430745803  0.5542820851088237  0.3334337992171967
  0.1151227355968203  0.4262425254220759  0.1180698899698669
  0.8837227740693976  0.5539688158936329  0.8339137234432599
  0.7632518805434501  0.4162558388343598  0.6009098456589257
  0.5276336757051041  0.5531416133059182  0.3288981544303340
  0.2354973323433640  0.5436496982796584  0.8324952484475219
  0.1379568915487539  0.4163796016730146  0.5920668741122341
  0.8914941588044343  0.5302374847688540  0.3598047477905197
  0.7749120611419968  0.4279063439089938  0.1118553229507384
  0.5375989960394136  0.5451140904298697  0.8406841133118661
  0.4447080833056773  0.4293504326102493  0.5872672901120453
  0.2206081538273352  0.8714922905356275  0.3721334723298639
  0.1292148475481127  0.7368699927108793  0.0745301538527841
  0.8859694830579130  0.8772211507161529  0.8513798040376983
  0.7693232354572146  0.7827111226804320  0.6134290867581811
  0.5402199671584711  0.8631539974896256  0.3524233817277036
  0.4565462376161378  0.7521739706228416  0.0829594804243499
  0.2326159940932371  0.8536532202972964  0.8414939535632300
  0.0971880234208200  0.7487804359840879  0.5905282532533462
  0.9135161654667456  0.8636269667098659  0.3259903977472476
  0.7705463602938920  0.7456820074069199  0.1278909320227015
  0.5599718359713108  0.8522363448424315  0.8444072524295478
  0.4671006050595281  0.7428355521665324  0.5904006766293008
  0.4403295067909454  0.4290829995293350  0.0799483984786775
 
  0.00000000E+00  0.00000000E+00  0.00000000E+00
  0.00000000E+00  0.00000000E+00  0.00000000E+00
  0.00000000E+00  0.00000000E+00  0.00000000E+00
  0.00000000E+00  0.00000000E+00  0.00000000E+00
  0.00000000E+00  0.00000000E+00  0.00000000E+00
  0.00000000E+00  0.00000000E+00  0.00000000E+00
  0.00000000E+00  0.00000000E+00  0.00000000E+00
  0.00000000E+00  0.00000000E+00  0.00000000E+00
  0.00000000E+00  0.00000000E+00  0.00000000E+00
  0.00000000E+00  0.00000000E+00  0.00000000E+00
  0.00000000E+00  0.00000000E+00  0.00000000E+00
  0.00000000E+00  0.00000000E+00  0.00000000E+00
  0.00000000E+00  0.00000000E+00  0.00000000E+00
  0.00000000E+00  0.00000000E+00  0.00000000E+00
  0.00000000E+00  0.00000000E+00  0.00000000E+00
  0.00000000E+00  0.00000000E+00  0.00000000E+00
  0.00000000E+00  0.00000000E+00  0.00000000E+00
  0.00000000E+00  0.00000000E+00  0.00000000E+00
  0.00000000E+00  0.00000000E+00  0.00000000E+00
  0.00000000E+00  0.00000000E+00  0.00000000E+00
  0.00000000E+00  0.00000000E+00  0.00000000E+00
  0.00000000E+00  0.00000000E+00  0.00000000E+00
  0.00000000E+00  0.00000000E+00  0.00000000E+00
  0.00000000E+00  0.00000000E+00  0.00000000E+00
  0.00000000E+00  0.00000000E+00  0.00000000E+00
  0.00000000E+00  0.00000000E+00  0.00000000E+00
  0.00000000E+00  0.00000000E+00  0.00000000E+00
  0.00000000E+00  0.00000000E+00  0.00000000E+00
  0.00000000E+00  0.00000000E+00  0.00000000E+00
  0.00000000E+00  0.00000000E+00  0.00000000E+00
  0.00000000E+00  0.00000000E+00  0.00000000E+00
  0.00000000E+00  0.00000000E+00  0.00000000E+00
  0.00000000E+00  0.00000000E+00  0.00000000E+00
  0.00000000E+00  0.00000000E+00  0.00000000E+00
  0.00000000E+00  0.00000000E+00  0.00000000E+00
  0.00000000E+00  0.00000000E+00  0.00000000E+00
  0.00000000E+00  0.00000000E+00  0.00000000E+00
  0.00000000E+00  0.00000000E+00  0.00000000E+00
  0.00000000E+00  0.00000000E+00  0.00000000E+00
  0.00000000E+00  0.00000000E+00  0.00000000E+00
  0.00000000E+00  0.00000000E+00  0.00000000E+00
  0.00000000E+00  0.00000000E+00  0.00000000E+00
  0.00000000E+00  0.00000000E+00  0.00000000E+00
  0.00000000E+00  0.00000000E+00  0.00000000E+00
  0.00000000E+00  0.00000000E+00  0.00000000E+00
  0.00000000E+00  0.00000000E+00  0.00000000E+00
  0.00000000E+00  0.00000000E+00  0.00000000E+00
  0.00000000E+00  0.00000000E+00  0.00000000E+00
  0.00000000E+00  0.00000000E+00  0.00000000E+00
  0.00000000E+00  0.00000000E+00  0.00000000E+00
  0.00000000E+00  0.00000000E+00  0.00000000E+00
  0.00000000E+00  0.00000000E+00  0.00000000E+00
  0.00000000E+00  0.00000000E+00  0.00000000E+00
  0.00000000E+00  0.00000000E+00  0.00000000E+00
  0.00000000E+00  0.00000000E+00  0.00000000E+00
  0.00000000E+00  0.00000000E+00  0.00000000E+00
  0.00000000E+00  0.00000000E+00  0.00000000E+00
  0.00000000E+00  0.00000000E+00  0.00000000E+00
  0.00000000E+00  0.00000000E+00  0.00000000E+00
  0.00000000E+00  0.00000000E+00  0.00000000E+00
  0.00000000E+00  0.00000000E+00  0.00000000E+00
  0.00000000E+00  0.00000000E+00  0.00000000E+00
  0.00000000E+00  0.00000000E+00  0.00000000E+00
  0.00000000E+00  0.00000000E+00  0.00000000E+00
  0.00000000E+00  0.00000000E+00  0.00000000E+00
  0.00000000E+00  0.00000000E+00  0.00000000E+00
  0.00000000E+00  0.00000000E+00  0.00000000E+00
  0.00000000E+00  0.00000000E+00  0.00000000E+00
  0.00000000E+00  0.00000000E+00  0.00000000E+00
  0.00000000E+00  0.00000000E+00  0.00000000E+00
  0.00000000E+00  0.00000000E+00  0.00000000E+00
  0.00000000E+00  0.00000000E+00  0.00000000E+00
