Al   Sc   N    O                        
   1.00000000000000     
   -10.0622384719929236    0.0188298326342837   -0.0025214119914076
    -5.0927263649114227    8.7446887399539648   -0.0035406994851459
     0.0058710564367283   -0.1199494477546229   -9.8159289599485575
   Al   Sc   N    O 
    23    13    35     1
Direct
  0.1102795407366415  0.0937398158418645  0.3977770212306098
  0.2193420471275473  0.2012734254414426  0.1409674726268904
  0.7698476359809376  0.1051214379799106  0.8933153401435092
  0.8804643048448497  0.2026392815942302  0.6425873602798973
  0.5503899923524287  0.2114657978486179  0.1391089759954198
  0.2272484792633662  0.2078880693276304  0.6405515576848160
  0.8900819289430899  0.2099386588721686  0.1409213677303072
  0.5574237151911134  0.2109762631879804  0.6426650984368081
  0.2214860575933599  0.5418611137739759  0.1462210767400904
  0.4389324764647782  0.4395868231263620  0.3948299108306941
  0.5569222658316946  0.5428765090405818  0.1416865853931739
  0.2287009565042268  0.5360465035415132  0.6405522148917626
  0.8872744863837454  0.5352007057437831  0.1321880784724385
  0.4418169717066860  0.4338110523424277  0.8859175463515356
  0.5532087702864317  0.5311860204404866  0.6491729220154738
  0.1116377806640401  0.7587870022653149  0.3936779400632631
  0.7699495950123705  0.7667804371162887  0.8308107435742969
  0.8855272932265876  0.8806867432452705  0.6485180552872407
  0.4399058000272618  0.7604841373742772  0.3387379833824440
  0.5602731792820279  0.8587938279944396  0.0832904171084081
  0.1218898006874554  0.7526232007989790  0.8836131127754001
  0.4478422767351091  0.7563912048909458  0.8364111494261550
  0.5534852415024005  0.8699177573203443  0.5885139089598468
  0.4438874962749964  0.0933140649027280  0.3739357905911618
  0.1087190077653659  0.0933735027969504  0.8708027010967498
  0.7799735772688123  0.0934891433225005  0.3761976219597116
  0.4539053317696258  0.0903149081031600  0.8706544998977677
  0.1267572451831569  0.4209775681568004  0.3767754186996726
  0.7729066868288754  0.4294143874886274  0.8810474380781059
  0.8923159967352277  0.5361071661419388  0.6188042205581183
  0.1151135980187732  0.4358164159526723  0.8863409332205308
  0.7682956604605593  0.4224995451981997  0.3847399844816621
  0.2157610151978915  0.8758173091545984  0.1282432326438894
  0.2260886148760335  0.8657098201701814  0.6154196395005300
  0.7779315053716118  0.7626414040472298  0.3603244747880012
  0.8866669780958958  0.8675522323471014  0.1083565589768085
  0.2154560876349763  0.1875519187101986  0.3334818197102933
  0.0993070880352818  0.1143780263809617  0.0855882339180312
  0.8764645784612526  0.1963626257602016  0.8335620378405011
  0.7765549776117524  0.0918599156069746  0.5951861944645174
  0.5386957232379856  0.2359439473472378  0.3289741706866351
  0.4474044526098453  0.0930991258314222  0.1047389799957443
  0.2242396271572318  0.2086198410825730  0.8329179453217108
  0.1007524593096463  0.1146405937996349  0.5969456607071564
  0.9096243447647936  0.1919704420708754  0.3327783214243638
  0.7628012536821984  0.1206345973492020  0.0906008107154364
  0.5599436280688224  0.2235996504922539  0.8390698088455650
  0.4494825480678415  0.0945514590721004  0.6097038917366717
  0.2340361055619837  0.5531000988185966  0.3345462248665001
  0.1142055808671927  0.4270156475682683  0.1145802115951611
  0.8827665838049228  0.5554349487620058  0.8464292265191844
  0.7648002687831337  0.4156094926731839  0.6081177125274948
  0.5332007622423234  0.5453779916375154  0.3334367862631353
  0.2363299397477476  0.5450557199226367  0.8323636146238869
  0.1382614907376833  0.4166457406300381  0.5982940408990984
  0.8923889856518343  0.5316103101641829  0.3788492229940985
  0.7758775064734778  0.4286864071004288  0.1090043019460012
  0.5373737309815283  0.5435822974989293  0.8505885897092327
  0.4453228065071784  0.4292109622852962  0.5891433664038033
  0.2198520621030653  0.8715625898432577  0.3683997132259762
  0.1257290529343038  0.7351446593382249  0.0745597911414535
  0.8843950970876548  0.8784492889213027  0.8548573908344466
  0.7657509082849145  0.7851564817905583  0.6278719043329772
  0.5424545971546735  0.8591652630294462  0.3957919739125444
  0.4547329876644284  0.7582414623990559  0.1354119324749377
  0.2303416248076573  0.8553776406291220  0.8489947615838958
  0.0970715841898482  0.7498233188839762  0.5906925229121995
  0.9121982706822749  0.8639350414607847  0.3262868183091285
  0.7681314546017717  0.7474756145527905  0.1347201584307740
  0.5641972094379355  0.8486850133921990  0.8884793675699072
  0.4682785421271802  0.7474593808739414  0.6380949188453897
  0.4388606289228605  0.4285671521257797  0.0823791735279258
 
  0.00000000E+00  0.00000000E+00  0.00000000E+00
  0.00000000E+00  0.00000000E+00  0.00000000E+00
  0.00000000E+00  0.00000000E+00  0.00000000E+00
  0.00000000E+00  0.00000000E+00  0.00000000E+00
  0.00000000E+00  0.00000000E+00  0.00000000E+00
  0.00000000E+00  0.00000000E+00  0.00000000E+00
  0.00000000E+00  0.00000000E+00  0.00000000E+00
  0.00000000E+00  0.00000000E+00  0.00000000E+00
  0.00000000E+00  0.00000000E+00  0.00000000E+00
  0.00000000E+00  0.00000000E+00  0.00000000E+00
  0.00000000E+00  0.00000000E+00  0.00000000E+00
  0.00000000E+00  0.00000000E+00  0.00000000E+00
  0.00000000E+00  0.00000000E+00  0.00000000E+00
  0.00000000E+00  0.00000000E+00  0.00000000E+00
  0.00000000E+00  0.00000000E+00  0.00000000E+00
  0.00000000E+00  0.00000000E+00  0.00000000E+00
  0.00000000E+00  0.00000000E+00  0.00000000E+00
  0.00000000E+00  0.00000000E+00  0.00000000E+00
  0.00000000E+00  0.00000000E+00  0.00000000E+00
  0.00000000E+00  0.00000000E+00  0.00000000E+00
  0.00000000E+00  0.00000000E+00  0.00000000E+00
  0.00000000E+00  0.00000000E+00  0.00000000E+00
  0.00000000E+00  0.00000000E+00  0.00000000E+00
  0.00000000E+00  0.00000000E+00  0.00000000E+00
  0.00000000E+00  0.00000000E+00  0.00000000E+00
  0.00000000E+00  0.00000000E+00  0.00000000E+00
  0.00000000E+00  0.00000000E+00  0.00000000E+00
  0.00000000E+00  0.00000000E+00  0.00000000E+00
  0.00000000E+00  0.00000000E+00  0.00000000E+00
  0.00000000E+00  0.00000000E+00  0.00000000E+00
  0.00000000E+00  0.00000000E+00  0.00000000E+00
  0.00000000E+00  0.00000000E+00  0.00000000E+00
  0.00000000E+00  0.00000000E+00  0.00000000E+00
  0.00000000E+00  0.00000000E+00  0.00000000E+00
  0.00000000E+00  0.00000000E+00  0.00000000E+00
  0.00000000E+00  0.00000000E+00  0.00000000E+00
  0.00000000E+00  0.00000000E+00  0.00000000E+00
  0.00000000E+00  0.00000000E+00  0.00000000E+00
  0.00000000E+00  0.00000000E+00  0.00000000E+00
  0.00000000E+00  0.00000000E+00  0.00000000E+00
  0.00000000E+00  0.00000000E+00  0.00000000E+00
  0.00000000E+00  0.00000000E+00  0.00000000E+00
  0.00000000E+00  0.00000000E+00  0.00000000E+00
  0.00000000E+00  0.00000000E+00  0.00000000E+00
  0.00000000E+00  0.00000000E+00  0.00000000E+00
  0.00000000E+00  0.00000000E+00  0.00000000E+00
  0.00000000E+00  0.00000000E+00  0.00000000E+00
  0.00000000E+00  0.00000000E+00  0.00000000E+00
  0.00000000E+00  0.00000000E+00  0.00000000E+00
  0.00000000E+00  0.00000000E+00  0.00000000E+00
  0.00000000E+00  0.00000000E+00  0.00000000E+00
  0.00000000E+00  0.00000000E+00  0.00000000E+00
  0.00000000E+00  0.00000000E+00  0.00000000E+00
  0.00000000E+00  0.00000000E+00  0.00000000E+00
  0.00000000E+00  0.00000000E+00  0.00000000E+00
  0.00000000E+00  0.00000000E+00  0.00000000E+00
  0.00000000E+00  0.00000000E+00  0.00000000E+00
  0.00000000E+00  0.00000000E+00  0.00000000E+00
  0.00000000E+00  0.00000000E+00  0.00000000E+00
  0.00000000E+00  0.00000000E+00  0.00000000E+00
  0.00000000E+00  0.00000000E+00  0.00000000E+00
  0.00000000E+00  0.00000000E+00  0.00000000E+00
  0.00000000E+00  0.00000000E+00  0.00000000E+00
  0.00000000E+00  0.00000000E+00  0.00000000E+00
  0.00000000E+00  0.00000000E+00  0.00000000E+00
  0.00000000E+00  0.00000000E+00  0.00000000E+00
  0.00000000E+00  0.00000000E+00  0.00000000E+00
  0.00000000E+00  0.00000000E+00  0.00000000E+00
  0.00000000E+00  0.00000000E+00  0.00000000E+00
  0.00000000E+00  0.00000000E+00  0.00000000E+00
  0.00000000E+00  0.00000000E+00  0.00000000E+00
  0.00000000E+00  0.00000000E+00  0.00000000E+00
