Al   Sc   N    O                        
   1.00000000000000     
   -10.0460389639590062    0.0187882981177251   -0.0122247016527059
    -5.0124802495013165    8.7583830290958922   -0.0094476962009904
     0.0757332985944133   -0.0710431705288730   -9.8278588401478579
   Al   Sc   N    O 
    23    13    35     1
Direct
  0.1093883120758861  0.0928821149788845  0.3053834602870396
  0.2212921690763139  0.2081599420380584  0.0682924506301035
  0.7794192770200539  0.0923463215878613  0.7951839001695973
  0.8939180063003604  0.2057142599375155  0.5608996339961578
  0.5505300646508005  0.2147757434689765  0.1148287768758749
  0.2228782026570215  0.2014048459434292  0.5616282457617743
  0.8799999807913679  0.2078801435606366  0.0607596185863244
  0.5535530171387180  0.2075162319046839  0.5895305450009545
  0.2291360260623421  0.5336938731888381  0.1227581886352596
  0.4327530373827813  0.4419281753988074  0.3848823375105042
  0.5522262001441831  0.5403924101952384  0.0563710461874436
  0.2201380954228398  0.5424947997113989  0.6173764579892378
  0.8839979932995519  0.5437300489685200  0.0520461330917854
  0.4480396575741636  0.4352668641383488  0.8014833310317542
  0.5579472013680871  0.5449614489603078  0.5626440242789954
  0.1163300006966068  0.7611570684023974  0.3085848362577579
  0.7725578909347632  0.7706386032683383  0.8067775079602484
  0.8919283962305897  0.8691428515318265  0.5602854518482374
  0.4431587892792166  0.7548808632153836  0.3100826473570066
  0.5630356495258511  0.8575903301348617  0.0593845945641363
  0.1090465750645180  0.7650479264842929  0.8091424505720042
  0.4488617649417179  0.7540450183969867  0.8120192756893587
  0.5537609342623213  0.8695465358707040  0.5644662123837634
  0.4425683028910541  0.0876338639358778  0.3325377175280977
  0.1097567761915101  0.0928668262405736  0.8270176600005641
  0.7790204243986736  0.0967040552301768  0.3413583265443734
  0.4563747400535902  0.0898644825750878  0.8260169574343266
  0.1147973683779213  0.4250240932791129  0.3380225912572996
  0.7681624559593132  0.4226224120599369  0.8287474350537920
  0.8875735477746645  0.5370144719914123  0.5896229899839085
  0.1220719952938012  0.4306779202562083  0.8404670016489248
  0.7703819945638273  0.4258771307426770  0.3133826899771464
  0.2289068851955918  0.8669234139344368  0.0725278092432404
  0.2247137719075880  0.8723566786890160  0.5661157604594820
  0.7754997568014659  0.7555831170082996  0.3250084292449884
  0.8816098791039906  0.8786084118436222  0.0665922604837590
  0.2127590174889136  0.1913570309385264  0.3658600462730845
  0.0980703487790677  0.1135757921866940  0.1079474142556052
  0.8785073220750945  0.1885061889723332  0.8704588048806414
  0.7848393506573004  0.0904223740468595  0.5934784189423041
  0.5370999868770312  0.2318444079536874  0.3600783030445172
  0.4508628370742471  0.0929911914645558  0.1022262279872237
  0.2298068582140473  0.2015400824341569  0.8779450160880984
  0.1039257782470457  0.1112288142738791  0.6133594527242892
  0.9093344957184968  0.1982306510270107  0.3690607755245097
  0.7621201798056561  0.1192445838013043  0.1207504024362862
  0.5642298570074757  0.2215897721828242  0.8073740039677446
  0.4434587720924057  0.0900304082279959  0.5960944104142953
  0.2341166712319165  0.5472468062038089  0.3225837748590195
  0.1112791820735097  0.4307128606872865  0.0952669882419031
  0.8800329973949275  0.5574548574528961  0.8490327841545096
  0.7649513507034129  0.4143130258883190  0.6093141564436522
  0.5351332625472267  0.5517327144206519  0.3695340954639192
  0.2355638626676111  0.5504508795752798  0.8190340102352138
  0.1344653133617086  0.4151636320010397  0.5974131955077269
  0.8861354195098343  0.5324725002558353  0.3759937541519278
  0.7745424896404174  0.4293488094829314  0.0867378978078861
  0.5332171140565265  0.5491542058794749  0.8670706653621281
  0.4401194164166498  0.4386191252036724  0.5906992537604125
  0.2221837861361919  0.8730946417819752  0.3394372666680354
  0.1169466261303285  0.7452103834889456  0.1086714424222350
  0.8839100240344280  0.8778685578846961  0.8486521875344195
  0.7658340304069000  0.7843086511324771  0.6095480174104821
  0.5434644586516271  0.8563587035467108  0.3733545480113989
  0.4663335785552647  0.7448153467876040  0.1174117498163625
  0.2327287736716386  0.8549887004690788  0.8501703019699889
  0.1003742793045816  0.7578673919709544  0.6103609270054946
  0.9101956319272873  0.8584498036695862  0.3625311390185715
  0.7726752917922610  0.7500231330962990  0.1079842447008161
  0.5644662489126944  0.8511549256380491  0.8668112203294385
  0.4647490969878305  0.7504620528209358  0.6206995947026641
  0.4450701220645215  0.4252418424065070  0.0917607656702799
 
  0.00000000E+00  0.00000000E+00  0.00000000E+00
  0.00000000E+00  0.00000000E+00  0.00000000E+00
  0.00000000E+00  0.00000000E+00  0.00000000E+00
  0.00000000E+00  0.00000000E+00  0.00000000E+00
  0.00000000E+00  0.00000000E+00  0.00000000E+00
  0.00000000E+00  0.00000000E+00  0.00000000E+00
  0.00000000E+00  0.00000000E+00  0.00000000E+00
  0.00000000E+00  0.00000000E+00  0.00000000E+00
  0.00000000E+00  0.00000000E+00  0.00000000E+00
  0.00000000E+00  0.00000000E+00  0.00000000E+00
  0.00000000E+00  0.00000000E+00  0.00000000E+00
  0.00000000E+00  0.00000000E+00  0.00000000E+00
  0.00000000E+00  0.00000000E+00  0.00000000E+00
  0.00000000E+00  0.00000000E+00  0.00000000E+00
  0.00000000E+00  0.00000000E+00  0.00000000E+00
  0.00000000E+00  0.00000000E+00  0.00000000E+00
  0.00000000E+00  0.00000000E+00  0.00000000E+00
  0.00000000E+00  0.00000000E+00  0.00000000E+00
  0.00000000E+00  0.00000000E+00  0.00000000E+00
  0.00000000E+00  0.00000000E+00  0.00000000E+00
  0.00000000E+00  0.00000000E+00  0.00000000E+00
  0.00000000E+00  0.00000000E+00  0.00000000E+00
  0.00000000E+00  0.00000000E+00  0.00000000E+00
  0.00000000E+00  0.00000000E+00  0.00000000E+00
  0.00000000E+00  0.00000000E+00  0.00000000E+00
  0.00000000E+00  0.00000000E+00  0.00000000E+00
  0.00000000E+00  0.00000000E+00  0.00000000E+00
  0.00000000E+00  0.00000000E+00  0.00000000E+00
  0.00000000E+00  0.00000000E+00  0.00000000E+00
  0.00000000E+00  0.00000000E+00  0.00000000E+00
  0.00000000E+00  0.00000000E+00  0.00000000E+00
  0.00000000E+00  0.00000000E+00  0.00000000E+00
  0.00000000E+00  0.00000000E+00  0.00000000E+00
  0.00000000E+00  0.00000000E+00  0.00000000E+00
  0.00000000E+00  0.00000000E+00  0.00000000E+00
  0.00000000E+00  0.00000000E+00  0.00000000E+00
  0.00000000E+00  0.00000000E+00  0.00000000E+00
  0.00000000E+00  0.00000000E+00  0.00000000E+00
  0.00000000E+00  0.00000000E+00  0.00000000E+00
  0.00000000E+00  0.00000000E+00  0.00000000E+00
  0.00000000E+00  0.00000000E+00  0.00000000E+00
  0.00000000E+00  0.00000000E+00  0.00000000E+00
  0.00000000E+00  0.00000000E+00  0.00000000E+00
  0.00000000E+00  0.00000000E+00  0.00000000E+00
  0.00000000E+00  0.00000000E+00  0.00000000E+00
  0.00000000E+00  0.00000000E+00  0.00000000E+00
  0.00000000E+00  0.00000000E+00  0.00000000E+00
  0.00000000E+00  0.00000000E+00  0.00000000E+00
  0.00000000E+00  0.00000000E+00  0.00000000E+00
  0.00000000E+00  0.00000000E+00  0.00000000E+00
  0.00000000E+00  0.00000000E+00  0.00000000E+00
  0.00000000E+00  0.00000000E+00  0.00000000E+00
  0.00000000E+00  0.00000000E+00  0.00000000E+00
  0.00000000E+00  0.00000000E+00  0.00000000E+00
  0.00000000E+00  0.00000000E+00  0.00000000E+00
  0.00000000E+00  0.00000000E+00  0.00000000E+00
  0.00000000E+00  0.00000000E+00  0.00000000E+00
  0.00000000E+00  0.00000000E+00  0.00000000E+00
  0.00000000E+00  0.00000000E+00  0.00000000E+00
  0.00000000E+00  0.00000000E+00  0.00000000E+00
  0.00000000E+00  0.00000000E+00  0.00000000E+00
  0.00000000E+00  0.00000000E+00  0.00000000E+00
  0.00000000E+00  0.00000000E+00  0.00000000E+00
  0.00000000E+00  0.00000000E+00  0.00000000E+00
  0.00000000E+00  0.00000000E+00  0.00000000E+00
  0.00000000E+00  0.00000000E+00  0.00000000E+00
  0.00000000E+00  0.00000000E+00  0.00000000E+00
  0.00000000E+00  0.00000000E+00  0.00000000E+00
  0.00000000E+00  0.00000000E+00  0.00000000E+00
  0.00000000E+00  0.00000000E+00  0.00000000E+00
  0.00000000E+00  0.00000000E+00  0.00000000E+00
  0.00000000E+00  0.00000000E+00  0.00000000E+00
