Al   Sc   N    O                        
   1.00000000000000     
    -9.9981489563479666    0.0226304681371874   -0.0093777889477910
    -5.0072238859886342    8.7004327001188173   -0.0077834006958218
     0.0886082908236438   -0.0491722906157805  -10.0552604331013686
   Al   Sc   N    O 
    23    13    35     1
Direct
  0.1099438409943616  0.0916066289833211  0.3147023615109319
  0.2203573562444276  0.2070371997020430  0.0714163031215165
  0.7682774799268515  0.1010756181888581  0.8815497226760911
  0.8907798689817596  0.2037612580498944  0.5631997188878302
  0.5468624787509668  0.2115553699531105  0.1266195674107280
  0.2232228781651244  0.2041244200541854  0.5666487965194236
  0.8839343440968861  0.2133696611786604  0.0679777723523500
  0.5601914256161393  0.2126675092286803  0.6265960181053671
  0.2231612307695627  0.5376941175957697  0.1261969213953691
  0.4352494010825936  0.4372623513447920  0.3795073409951968
  0.5647076930251487  0.5526029307462110  0.0653369743269678
  0.2305446737941352  0.5386116876154006  0.6234760746898189
  0.8864722211573977  0.5396527490180318  0.0567058105357532
  0.4411163443234258  0.4335905201475612  0.8721739923815477
  0.5541646456983287  0.5396723844020244  0.5624842068784019
  0.1122120922448175  0.7578927649046037  0.3722030354961419
  0.7698736487725171  0.7662040948343147  0.8187127518848811
  0.8865842612770152  0.8813050167550003  0.6341007259104643
  0.4422071181069498  0.7581840320377324  0.3199215103963766
  0.5589510504346791  0.8631942259051257  0.0644104128908864
  0.1222449209512888  0.7532551704034915  0.8700770544858045
  0.4490198502881100  0.7531238455172442  0.8161399427171432
  0.5558253764559211  0.8707773257550002  0.5721197754917284
  0.4420934701287251  0.0900871046805705  0.3356397400182232
  0.1085486489000189  0.0938876678554692  0.8267596093635632
  0.7778610570661399  0.0903841232076346  0.3578595799863962
  0.4526587297213212  0.0883751370512513  0.8309406795170418
  0.1157016277767440  0.4255049345443211  0.3342514247993051
  0.7645305813066585  0.4251817828280835  0.8225082910012489
  0.8880195933511601  0.5400957722465023  0.5890976514495918
  0.1200045852406504  0.4305428576267474  0.8352537822555348
  0.7718859907651705  0.4265925095400291  0.3228241435749482
  0.2286291185011748  0.8683890014412228  0.0856429989441949
  0.2267527675432603  0.8718680101393872  0.5775654677867124
  0.7752189907843672  0.7573241745978478  0.3252952079755076
  0.8911265589023998  0.8664176320069856  0.0939165766988168
  0.2127200569269121  0.1927763948700303  0.3765194894879684
  0.0983881909295761  0.1139009869076801  0.1208813187938560
  0.8814525763792389  0.1987979678077636  0.8801519011313914
  0.7776697209029280  0.0918623218347108  0.5790465130492066
  0.5378459106544184  0.2372792867601632  0.3122612495048003
  0.4467517512285752  0.0872942472334941  0.1071414815110643
  0.2267826735524636  0.2032228774489369  0.8854020219137126
  0.1022184682946872  0.1125750243620445  0.6177339845512719
  0.9070762195586966  0.1957719827600499  0.3724098834100076
  0.7572858500314226  0.1159466434295737  0.0808379505986636
  0.5629422829075139  0.2248697124721559  0.8196061338116394
  0.4456769099805840  0.0940636856585755  0.6068568768509195
  0.2343556828359183  0.5520616087967838  0.3129037235500647
  0.1096134159477202  0.4290747927219130  0.1034001090260475
  0.8794066690215558  0.5543407563749483  0.8597749202924305
  0.7645768084318618  0.4147664436141909  0.6097706894821400
  0.5356636394679555  0.5528643505628423  0.3722256487727904
  0.2392188706849510  0.5499890800385288  0.8116812064011825
  0.1338992272703692  0.4163331988001531  0.6091674186669920
  0.8890678296520775  0.5351791784291606  0.3828779582933777
  0.7773619080529954  0.4299740350249195  0.1033337795459630
  0.5347526779288287  0.5522615807283486  0.8836141807605387
  0.4428458172784957  0.4263111909154205  0.5711699261704695
  0.2216123376733279  0.8719017342637372  0.3496327993058088
  0.1285744285898573  0.7318797763724092  0.0566720790995277
  0.8886143561991204  0.8783861037161600  0.8386727481051039
  0.7651270099155241  0.7843316432108196  0.6264056220079510
  0.5444590883509548  0.8591443050851240  0.3854661347397226
  0.4647941757062739  0.7517396636459637  0.1308794991367677
  0.2349052272742114  0.8573358798332507  0.8543928573359452
  0.0983059018804227  0.7520580971009423  0.5684337202015115
  0.9115672596754223  0.8600731161065625  0.3066674495690123
  0.7694730883477021  0.7463202957228532  0.1110112197294555
  0.5620368568742649  0.8511462145327897  0.8756449296763691
  0.4683662812132354  0.7455948960152199  0.6284720054495097
  0.4321188012780084  0.4183487582482570  0.0643424866531461
 
  0.00000000E+00  0.00000000E+00  0.00000000E+00
  0.00000000E+00  0.00000000E+00  0.00000000E+00
  0.00000000E+00  0.00000000E+00  0.00000000E+00
  0.00000000E+00  0.00000000E+00  0.00000000E+00
  0.00000000E+00  0.00000000E+00  0.00000000E+00
  0.00000000E+00  0.00000000E+00  0.00000000E+00
  0.00000000E+00  0.00000000E+00  0.00000000E+00
  0.00000000E+00  0.00000000E+00  0.00000000E+00
  0.00000000E+00  0.00000000E+00  0.00000000E+00
  0.00000000E+00  0.00000000E+00  0.00000000E+00
  0.00000000E+00  0.00000000E+00  0.00000000E+00
  0.00000000E+00  0.00000000E+00  0.00000000E+00
  0.00000000E+00  0.00000000E+00  0.00000000E+00
  0.00000000E+00  0.00000000E+00  0.00000000E+00
  0.00000000E+00  0.00000000E+00  0.00000000E+00
  0.00000000E+00  0.00000000E+00  0.00000000E+00
  0.00000000E+00  0.00000000E+00  0.00000000E+00
  0.00000000E+00  0.00000000E+00  0.00000000E+00
  0.00000000E+00  0.00000000E+00  0.00000000E+00
  0.00000000E+00  0.00000000E+00  0.00000000E+00
  0.00000000E+00  0.00000000E+00  0.00000000E+00
  0.00000000E+00  0.00000000E+00  0.00000000E+00
  0.00000000E+00  0.00000000E+00  0.00000000E+00
  0.00000000E+00  0.00000000E+00  0.00000000E+00
  0.00000000E+00  0.00000000E+00  0.00000000E+00
  0.00000000E+00  0.00000000E+00  0.00000000E+00
  0.00000000E+00  0.00000000E+00  0.00000000E+00
  0.00000000E+00  0.00000000E+00  0.00000000E+00
  0.00000000E+00  0.00000000E+00  0.00000000E+00
  0.00000000E+00  0.00000000E+00  0.00000000E+00
  0.00000000E+00  0.00000000E+00  0.00000000E+00
  0.00000000E+00  0.00000000E+00  0.00000000E+00
  0.00000000E+00  0.00000000E+00  0.00000000E+00
  0.00000000E+00  0.00000000E+00  0.00000000E+00
  0.00000000E+00  0.00000000E+00  0.00000000E+00
  0.00000000E+00  0.00000000E+00  0.00000000E+00
  0.00000000E+00  0.00000000E+00  0.00000000E+00
  0.00000000E+00  0.00000000E+00  0.00000000E+00
  0.00000000E+00  0.00000000E+00  0.00000000E+00
  0.00000000E+00  0.00000000E+00  0.00000000E+00
  0.00000000E+00  0.00000000E+00  0.00000000E+00
  0.00000000E+00  0.00000000E+00  0.00000000E+00
  0.00000000E+00  0.00000000E+00  0.00000000E+00
  0.00000000E+00  0.00000000E+00  0.00000000E+00
  0.00000000E+00  0.00000000E+00  0.00000000E+00
  0.00000000E+00  0.00000000E+00  0.00000000E+00
  0.00000000E+00  0.00000000E+00  0.00000000E+00
  0.00000000E+00  0.00000000E+00  0.00000000E+00
  0.00000000E+00  0.00000000E+00  0.00000000E+00
  0.00000000E+00  0.00000000E+00  0.00000000E+00
  0.00000000E+00  0.00000000E+00  0.00000000E+00
  0.00000000E+00  0.00000000E+00  0.00000000E+00
  0.00000000E+00  0.00000000E+00  0.00000000E+00
  0.00000000E+00  0.00000000E+00  0.00000000E+00
  0.00000000E+00  0.00000000E+00  0.00000000E+00
  0.00000000E+00  0.00000000E+00  0.00000000E+00
  0.00000000E+00  0.00000000E+00  0.00000000E+00
  0.00000000E+00  0.00000000E+00  0.00000000E+00
  0.00000000E+00  0.00000000E+00  0.00000000E+00
  0.00000000E+00  0.00000000E+00  0.00000000E+00
  0.00000000E+00  0.00000000E+00  0.00000000E+00
  0.00000000E+00  0.00000000E+00  0.00000000E+00
  0.00000000E+00  0.00000000E+00  0.00000000E+00
  0.00000000E+00  0.00000000E+00  0.00000000E+00
  0.00000000E+00  0.00000000E+00  0.00000000E+00
  0.00000000E+00  0.00000000E+00  0.00000000E+00
  0.00000000E+00  0.00000000E+00  0.00000000E+00
  0.00000000E+00  0.00000000E+00  0.00000000E+00
  0.00000000E+00  0.00000000E+00  0.00000000E+00
  0.00000000E+00  0.00000000E+00  0.00000000E+00
  0.00000000E+00  0.00000000E+00  0.00000000E+00
  0.00000000E+00  0.00000000E+00  0.00000000E+00
