Al   Sc   N    O                        
   1.00000000000000     
   -10.0820657913206873    0.0208840272192500   -0.0106718401772978
    -5.0408853170697476    8.7795089905099619   -0.0085398986527166
     0.0695168707522168   -0.0085947177396106   -9.7507055825643789
   Al   Sc   N    O 
    23    13    35     1
Direct
  0.1086530536863677  0.0922631052481009  0.3083414945716996
  0.2208715795217344  0.2086973524142195  0.0700443803853545
  0.7764999358818017  0.0984284923570939  0.8053970404056230
  0.8939076830371491  0.2052838495154106  0.5626313311173519
  0.5473805539582415  0.2189124672017684  0.1286149548032469
  0.2231307480868026  0.2022424193300623  0.5629269482248915
  0.8776450204115633  0.2093297629024065  0.0626984118283360
  0.5517880625841229  0.2090790799757514  0.6064695747014568
  0.2260185347929635  0.5399824049890256  0.1204990706226354
  0.4332808105815431  0.4410541081367754  0.3779730514891995
  0.5518191087978153  0.5409416995824188  0.0589409961268217
  0.2215204002320448  0.5433116048138444  0.6128738194637151
  0.8850665440808285  0.5422020070447786  0.0538573737002253
  0.4460437143660769  0.4363197965281032  0.8126182474671424
  0.5575402464220858  0.5418572134641764  0.5610366921323546
  0.1125078991026740  0.7605696061438891  0.3644343633096767
  0.7705574041404475  0.7663788469728203  0.8119817844120263
  0.8912827517949822  0.8707442318452792  0.6168397039303457
  0.4432726603439292  0.7550268212796638  0.3139035471535649
  0.5615675499920059  0.8571991035680071  0.0620465120507134
  0.1212604755134805  0.7541895367968863  0.8621180147755680
  0.4499922989146938  0.7535131402944515  0.8123390273347439
  0.5543619503356041  0.8697384187138582  0.5654473036765069
  0.4414377309846458  0.0874971348564983  0.3326583665808514
  0.1093116823287517  0.0942892545888157  0.8324933221438116
  0.7790765648687099  0.0936934719092690  0.3428762484546013
  0.4562502641839998  0.0895020243784970  0.8369088568328991
  0.1173657107147505  0.4256059484530823  0.3358824234620812
  0.7672599439167485  0.4248478467676833  0.8286123409825024
  0.8891494108855227  0.5355095815116826  0.5882855137728384
  0.1224010712062906  0.4314345149428860  0.8383776976184123
  0.7724741760017508  0.4253286789280963  0.3156238137062530
  0.2277827061944180  0.8669303818682152  0.0856561033052401
  0.2256596792396692  0.8733610702456431  0.5811131375533733
  0.7776436257776354  0.7569001543769147  0.3266429811002993
  0.8840904688221300  0.8768540282193555  0.0842702382433558
  0.2118083354930604  0.1919002708166744  0.3649961231756436
  0.0970408322085703  0.1139384074543628  0.1071896341191234
  0.8778004202530170  0.1925577690684364  0.8701462430015141
  0.7821048392460099  0.0914229498160424  0.5945916319521771
  0.5320108587371664  0.2368298428639619  0.3292091145547786
  0.4502023159301416  0.0904303032439628  0.0987351056514996
  0.2287322840260231  0.2039096116139660  0.8771857706069000
  0.1033248990101683  0.1133554366156133  0.6157022708964419
  0.9085067440573198  0.1961117126690155  0.3693973937344666
  0.7592788915936026  0.1213550683457925  0.1132734265510678
  0.5619532962721081  0.2231935110444283  0.8077023016157838
  0.4451261828140645  0.0911755972738248  0.5961239086397327
  0.2329185311974342  0.5538323394553188  0.3147425253636200
  0.1121756277122259  0.4311077391900540  0.0944368910933306
  0.8818170320954479  0.5549213197441460  0.8486052202362515
  0.7651840599293607  0.4142331879411287  0.6069465972668198
  0.5366082500296798  0.5499672681115797  0.3661208804914509
  0.2349338016327067  0.5520522932779173  0.8067463777174666
  0.1354977907627415  0.4155525318325957  0.5950883326264105
  0.8894983076794887  0.5320359917805533  0.3735930867273183
  0.7743277059284068  0.4298613301727414  0.0878140126189635
  0.5333821857973007  0.5498457180695340  0.8672839540954556
  0.4418096373183147  0.4331925778984527  0.5830271098980617
  0.2218978861327869  0.8722022450228692  0.3395110463404905
  0.1234295872087543  0.7367656631380299  0.0549368258381691
  0.8889466867112006  0.8752486935441581  0.8284027182949956
  0.7659374657612403  0.7815705857198338  0.6101098294659550
  0.5446242194897621  0.8563585137417959  0.3728418511888094
  0.4647925356512559  0.7451745427939898  0.1184377799892289
  0.2343749717697960  0.8565020644368815  0.8416281517271358
  0.1000650104968273  0.7532189450474576  0.5641719483466474
  0.9099110441986795  0.8613342587580775  0.3101979313848275
  0.7712355479126103  0.7482495348445042  0.1042916700629561
  0.5635342819900870  0.8503529753930152  0.8667891113898136
  0.4674758521394295  0.7475971995759352  0.6190122384425507
  0.4406202537405264  0.4276052899722274  0.0798482064616337
 
  0.00000000E+00  0.00000000E+00  0.00000000E+00
  0.00000000E+00  0.00000000E+00  0.00000000E+00
  0.00000000E+00  0.00000000E+00  0.00000000E+00
  0.00000000E+00  0.00000000E+00  0.00000000E+00
  0.00000000E+00  0.00000000E+00  0.00000000E+00
  0.00000000E+00  0.00000000E+00  0.00000000E+00
  0.00000000E+00  0.00000000E+00  0.00000000E+00
  0.00000000E+00  0.00000000E+00  0.00000000E+00
  0.00000000E+00  0.00000000E+00  0.00000000E+00
  0.00000000E+00  0.00000000E+00  0.00000000E+00
  0.00000000E+00  0.00000000E+00  0.00000000E+00
  0.00000000E+00  0.00000000E+00  0.00000000E+00
  0.00000000E+00  0.00000000E+00  0.00000000E+00
  0.00000000E+00  0.00000000E+00  0.00000000E+00
  0.00000000E+00  0.00000000E+00  0.00000000E+00
  0.00000000E+00  0.00000000E+00  0.00000000E+00
  0.00000000E+00  0.00000000E+00  0.00000000E+00
  0.00000000E+00  0.00000000E+00  0.00000000E+00
  0.00000000E+00  0.00000000E+00  0.00000000E+00
  0.00000000E+00  0.00000000E+00  0.00000000E+00
  0.00000000E+00  0.00000000E+00  0.00000000E+00
  0.00000000E+00  0.00000000E+00  0.00000000E+00
  0.00000000E+00  0.00000000E+00  0.00000000E+00
  0.00000000E+00  0.00000000E+00  0.00000000E+00
  0.00000000E+00  0.00000000E+00  0.00000000E+00
  0.00000000E+00  0.00000000E+00  0.00000000E+00
  0.00000000E+00  0.00000000E+00  0.00000000E+00
  0.00000000E+00  0.00000000E+00  0.00000000E+00
  0.00000000E+00  0.00000000E+00  0.00000000E+00
  0.00000000E+00  0.00000000E+00  0.00000000E+00
  0.00000000E+00  0.00000000E+00  0.00000000E+00
  0.00000000E+00  0.00000000E+00  0.00000000E+00
  0.00000000E+00  0.00000000E+00  0.00000000E+00
  0.00000000E+00  0.00000000E+00  0.00000000E+00
  0.00000000E+00  0.00000000E+00  0.00000000E+00
  0.00000000E+00  0.00000000E+00  0.00000000E+00
  0.00000000E+00  0.00000000E+00  0.00000000E+00
  0.00000000E+00  0.00000000E+00  0.00000000E+00
  0.00000000E+00  0.00000000E+00  0.00000000E+00
  0.00000000E+00  0.00000000E+00  0.00000000E+00
  0.00000000E+00  0.00000000E+00  0.00000000E+00
  0.00000000E+00  0.00000000E+00  0.00000000E+00
  0.00000000E+00  0.00000000E+00  0.00000000E+00
  0.00000000E+00  0.00000000E+00  0.00000000E+00
  0.00000000E+00  0.00000000E+00  0.00000000E+00
  0.00000000E+00  0.00000000E+00  0.00000000E+00
  0.00000000E+00  0.00000000E+00  0.00000000E+00
  0.00000000E+00  0.00000000E+00  0.00000000E+00
  0.00000000E+00  0.00000000E+00  0.00000000E+00
  0.00000000E+00  0.00000000E+00  0.00000000E+00
  0.00000000E+00  0.00000000E+00  0.00000000E+00
  0.00000000E+00  0.00000000E+00  0.00000000E+00
  0.00000000E+00  0.00000000E+00  0.00000000E+00
  0.00000000E+00  0.00000000E+00  0.00000000E+00
  0.00000000E+00  0.00000000E+00  0.00000000E+00
  0.00000000E+00  0.00000000E+00  0.00000000E+00
  0.00000000E+00  0.00000000E+00  0.00000000E+00
  0.00000000E+00  0.00000000E+00  0.00000000E+00
  0.00000000E+00  0.00000000E+00  0.00000000E+00
  0.00000000E+00  0.00000000E+00  0.00000000E+00
  0.00000000E+00  0.00000000E+00  0.00000000E+00
  0.00000000E+00  0.00000000E+00  0.00000000E+00
  0.00000000E+00  0.00000000E+00  0.00000000E+00
  0.00000000E+00  0.00000000E+00  0.00000000E+00
  0.00000000E+00  0.00000000E+00  0.00000000E+00
  0.00000000E+00  0.00000000E+00  0.00000000E+00
  0.00000000E+00  0.00000000E+00  0.00000000E+00
  0.00000000E+00  0.00000000E+00  0.00000000E+00
  0.00000000E+00  0.00000000E+00  0.00000000E+00
  0.00000000E+00  0.00000000E+00  0.00000000E+00
  0.00000000E+00  0.00000000E+00  0.00000000E+00
  0.00000000E+00  0.00000000E+00  0.00000000E+00
