Al   Sc   N    O                        
   1.00000000000000     
   -10.0999402860726644    0.0193711270281739   -0.0033819641710357
    -5.1175157229804711    8.7611917596213935   -0.0040743605659238
     0.0052823804725248   -0.0933380174297441   -9.7385410243006465
   Al   Sc   N    O 
    23    13    35     1
Direct
  0.1100984130676608  0.0939745351250423  0.3964536240074992
  0.2174456167179812  0.2037599357861666  0.1396508135554839
  0.7695885170618411  0.1042315000182370  0.8938934083918326
  0.8806462961442065  0.2007479793323554  0.6407538854823187
  0.5493223822871158  0.2122669062908997  0.1392101058347990
  0.2285797464903609  0.2058526054126872  0.6390254279271517
  0.8900225650725559  0.2122852735141905  0.1402769238544934
  0.5576261985003867  0.2110198974872830  0.6405857685860497
  0.2205117725045369  0.5408422603540615  0.1452280438586158
  0.4389643129331162  0.4397844913490871  0.3931168796404378
  0.5589533327072118  0.5439868906200047  0.1369307307606178
  0.2293815144029523  0.5372146953063037  0.6389372547626593
  0.8848251165473755  0.5419317406075805  0.0847864505422038
  0.4416106329233713  0.4333218615156014  0.8865749977468553
  0.5514111659696042  0.5323091851383595  0.6496325977773765
  0.1110564936465153  0.7589885913420531  0.3928451998213305
  0.7698955380617178  0.7678343457830152  0.8363313754449848
  0.8847727164639210  0.8802306701471707  0.6485144594863854
  0.4401956083173815  0.7598298253747515  0.3376747252510697
  0.5589731321970106  0.8615518706896239  0.0841650712847439
  0.1219108365925621  0.7529500497544248  0.8837231649892843
  0.4474076922659123  0.7569020656659760  0.8396434570384415
  0.5553158610251998  0.8680801061313730  0.5896548212230144
  0.4440590493345979  0.0922167717700404  0.3718419373728139
  0.1089701110743349  0.0929002102428811  0.8698766659121091
  0.7794760521976514  0.0938562538544687  0.3736838412545467
  0.4556283938081691  0.0892147382705915  0.8689245461130284
  0.1220292132409000  0.4232827161872663  0.3769170724599178
  0.7708685123474979  0.4239772857850923  0.8747217884598086
  0.8914670603017143  0.5367471097747440  0.6207862200946934
  0.1230367505630312  0.4312967921180686  0.8782845111319091
  0.7692590732136395  0.4255873618865138  0.3831879916434531
  0.2168466348602465  0.8755170474254825  0.1250324416412596
  0.2266155790182793  0.8652918691367901  0.6151842623856325
  0.7793119451698800  0.7574011129003466  0.3550105632568474
  0.8878270501508325  0.8686188806720310  0.1084752382193699
  0.2144309356997454  0.1894818785303229  0.3347942681095617
  0.0991740220703647  0.1147811281375013  0.0864218210773871
  0.8780008389541649  0.1919599764859967  0.8333396289778534
  0.7761234190952564  0.0912652128821136  0.5944466692702761
  0.5379038944060639  0.2355910343934653  0.3306447096950649
  0.4472223332116840  0.0933112121789108  0.1061198171707218
  0.2270066928901500  0.2043935412657376  0.8331330001145076
  0.1010604807833744  0.1138335851905410  0.5975356591055672
  0.9085089036693930  0.1941688837255811  0.3343784768871387
  0.7623875813692038  0.1216456651123821  0.0928901010033485
  0.5602238322758382  0.2238237159633130  0.8389872136322225
  0.4505114512599633  0.0935026578445459  0.6093966734633440
  0.2328208598986308  0.5523548137601466  0.3359021443934651
  0.1138347427291819  0.4278948479017544  0.1099456687985310
  0.8826145667171588  0.5555807951254152  0.8701714522194521
  0.7638504207397006  0.4158322908197647  0.6145377755176256
  0.5338073269983994  0.5447759213138426  0.3309008135801292
  0.2377047018891432  0.5465770536634693  0.8321804699996278
  0.1382246089465298  0.4170605643491072  0.6056449598215536
  0.8914521513606601  0.5333254539929300  0.4011867485060350
  0.7769344128434312  0.4298649051272179  0.1052718585446328
  0.5356784502875129  0.5445400145675379  0.8550140545207512
  0.4454343260131424  0.4300730520064420  0.5890828353524213
  0.2200047710513431  0.8713784909923419  0.3676597499138055
  0.1259224847934206  0.7354064117326331  0.0761460695911111
  0.8846931246339338  0.8785252135055757  0.8569587286277667
  0.7659992556190787  0.7837408132785910  0.6348774099831047
  0.5440661091311441  0.8572413728514832  0.3950006446221082
  0.4550965062030201  0.7592279237201254  0.1332013503815475
  0.2306106348767258  0.8554813192397148  0.8520030010941824
  0.0968467718584378  0.7509950294653009  0.5919244421510967
  0.9106609942071913  0.8629726920987437  0.3281349145223800
  0.7685111183624542  0.7486975868589170  0.1305201248122572
  0.5633212672570025  0.8495955211132227  0.8881887420896746
  0.4680752221511568  0.7471995601384478  0.6392336375625618
  0.4369770132295585  0.4267948070241445  0.0826751368736680
 
  0.00000000E+00  0.00000000E+00  0.00000000E+00
  0.00000000E+00  0.00000000E+00  0.00000000E+00
  0.00000000E+00  0.00000000E+00  0.00000000E+00
  0.00000000E+00  0.00000000E+00  0.00000000E+00
  0.00000000E+00  0.00000000E+00  0.00000000E+00
  0.00000000E+00  0.00000000E+00  0.00000000E+00
  0.00000000E+00  0.00000000E+00  0.00000000E+00
  0.00000000E+00  0.00000000E+00  0.00000000E+00
  0.00000000E+00  0.00000000E+00  0.00000000E+00
  0.00000000E+00  0.00000000E+00  0.00000000E+00
  0.00000000E+00  0.00000000E+00  0.00000000E+00
  0.00000000E+00  0.00000000E+00  0.00000000E+00
  0.00000000E+00  0.00000000E+00  0.00000000E+00
  0.00000000E+00  0.00000000E+00  0.00000000E+00
  0.00000000E+00  0.00000000E+00  0.00000000E+00
  0.00000000E+00  0.00000000E+00  0.00000000E+00
  0.00000000E+00  0.00000000E+00  0.00000000E+00
  0.00000000E+00  0.00000000E+00  0.00000000E+00
  0.00000000E+00  0.00000000E+00  0.00000000E+00
  0.00000000E+00  0.00000000E+00  0.00000000E+00
  0.00000000E+00  0.00000000E+00  0.00000000E+00
  0.00000000E+00  0.00000000E+00  0.00000000E+00
  0.00000000E+00  0.00000000E+00  0.00000000E+00
  0.00000000E+00  0.00000000E+00  0.00000000E+00
  0.00000000E+00  0.00000000E+00  0.00000000E+00
  0.00000000E+00  0.00000000E+00  0.00000000E+00
  0.00000000E+00  0.00000000E+00  0.00000000E+00
  0.00000000E+00  0.00000000E+00  0.00000000E+00
  0.00000000E+00  0.00000000E+00  0.00000000E+00
  0.00000000E+00  0.00000000E+00  0.00000000E+00
  0.00000000E+00  0.00000000E+00  0.00000000E+00
  0.00000000E+00  0.00000000E+00  0.00000000E+00
  0.00000000E+00  0.00000000E+00  0.00000000E+00
  0.00000000E+00  0.00000000E+00  0.00000000E+00
  0.00000000E+00  0.00000000E+00  0.00000000E+00
  0.00000000E+00  0.00000000E+00  0.00000000E+00
  0.00000000E+00  0.00000000E+00  0.00000000E+00
  0.00000000E+00  0.00000000E+00  0.00000000E+00
  0.00000000E+00  0.00000000E+00  0.00000000E+00
  0.00000000E+00  0.00000000E+00  0.00000000E+00
  0.00000000E+00  0.00000000E+00  0.00000000E+00
  0.00000000E+00  0.00000000E+00  0.00000000E+00
  0.00000000E+00  0.00000000E+00  0.00000000E+00
  0.00000000E+00  0.00000000E+00  0.00000000E+00
  0.00000000E+00  0.00000000E+00  0.00000000E+00
  0.00000000E+00  0.00000000E+00  0.00000000E+00
  0.00000000E+00  0.00000000E+00  0.00000000E+00
  0.00000000E+00  0.00000000E+00  0.00000000E+00
  0.00000000E+00  0.00000000E+00  0.00000000E+00
  0.00000000E+00  0.00000000E+00  0.00000000E+00
  0.00000000E+00  0.00000000E+00  0.00000000E+00
  0.00000000E+00  0.00000000E+00  0.00000000E+00
  0.00000000E+00  0.00000000E+00  0.00000000E+00
  0.00000000E+00  0.00000000E+00  0.00000000E+00
  0.00000000E+00  0.00000000E+00  0.00000000E+00
  0.00000000E+00  0.00000000E+00  0.00000000E+00
  0.00000000E+00  0.00000000E+00  0.00000000E+00
  0.00000000E+00  0.00000000E+00  0.00000000E+00
  0.00000000E+00  0.00000000E+00  0.00000000E+00
  0.00000000E+00  0.00000000E+00  0.00000000E+00
  0.00000000E+00  0.00000000E+00  0.00000000E+00
  0.00000000E+00  0.00000000E+00  0.00000000E+00
  0.00000000E+00  0.00000000E+00  0.00000000E+00
  0.00000000E+00  0.00000000E+00  0.00000000E+00
  0.00000000E+00  0.00000000E+00  0.00000000E+00
  0.00000000E+00  0.00000000E+00  0.00000000E+00
  0.00000000E+00  0.00000000E+00  0.00000000E+00
  0.00000000E+00  0.00000000E+00  0.00000000E+00
  0.00000000E+00  0.00000000E+00  0.00000000E+00
  0.00000000E+00  0.00000000E+00  0.00000000E+00
  0.00000000E+00  0.00000000E+00  0.00000000E+00
  0.00000000E+00  0.00000000E+00  0.00000000E+00
