Al   Sc   N    O                        
   1.00000000000000     
    -9.9276843179188852    0.0165744393264081    0.0010642220903762
    -4.9781451319624344    8.6234520199072531   -0.0013171116485715
     0.0009312235081926    0.0024729553826425  -10.0983045302961347
   Al   Sc   N    O 
    23    13    35     1
Direct
  0.1089160784927046  0.0949230989759187  0.4110000500091004
  0.2207569076149838  0.2007966006231570  0.1564584511373681
  0.7704154189458379  0.1033410489708615  0.9013665824367436
  0.8814719457006888  0.2046102897801987  0.6547800289782799
  0.5513049328120445  0.2104525830575952  0.1502485044656154
  0.2238964229059093  0.2087718531960263  0.6524870189105769
  0.8893888930561289  0.2087583469003107  0.1536246022128651
  0.5565865372143932  0.2107102552696958  0.6551160205107536
  0.2232736592045086  0.5421991073002062  0.1566066622599180
  0.4383544896189022  0.4399068712825951  0.4031946131592363
  0.5553839929494302  0.5470251026327233  0.1533949064480069
  0.2271639415166931  0.5349905574096852  0.6512862649664157
  0.8853149867073711  0.5376307594744461  0.1583329194941498
  0.4425180427727824  0.4341932416277672  0.8927642785778573
  0.5531541131656681  0.5360009759571227  0.6546379885363720
  0.1108837018483086  0.7585543982030813  0.4085468658849152
  0.7723769564184479  0.7584947204608241  0.9045995584813937
  0.8828061265792968  0.8753939193021480  0.6635460369816641
  0.4458545414153079  0.7563273621077755  0.4060929285077606
  0.5529518053810634  0.8654681418175159  0.1474149690423303
  0.1224996563505485  0.7531295081102627  0.8950690156764125
  0.4453011352282346  0.7536212090784389  0.8987654087539738
  0.5606093275183568  0.8666139732289366  0.6571336185061938
  0.4438650357205489  0.0914241836598180  0.3981750795076806
  0.1105101264238399  0.0887461855001490  0.8901172066764715
  0.7796739448177448  0.0926328687902753  0.3957221762832290
  0.4516763631176843  0.0897422272068908  0.8901132049343161
  0.1228087173997210  0.4238373575330954  0.3863964852296249
  0.7716257334299215  0.4293125633809254  0.8988348509436861
  0.8901727752692210  0.5407608426562192  0.6428428070951284
  0.1145821911858818  0.4338650199132701  0.9067835004671778
  0.7678522172019768  0.4244444765051938  0.3938928616558144
  0.2256022392352577  0.8695601421334587  0.1611669707398349
  0.2255446465338409  0.8662282085541264  0.6321618704221734
  0.7746335635920261  0.7683576118659659  0.3922060786682593
  0.8910809766529439  0.8714436891534518  0.1243459918284628
  0.2163205208114221  0.1880766120622539  0.3427967577556714
  0.1028798559041917  0.1075104963096223  0.0994712059282747
  0.8779364151219369  0.1974965354578373  0.8407345275447042
  0.7768005341623692  0.0914421695384107  0.6080616361278217
  0.5396179629604134  0.2337358926859565  0.3356836576014928
  0.4451433507055285  0.0947011349863516  0.1080108994290754
  0.2210727294251384  0.2096366587970593  0.8389304567362572
  0.0988477613572556  0.1159369259406162  0.6023378826072303
  0.9079691854332879  0.1919901045722128  0.3402204482708697
  0.7619843858376854  0.1216424451074261  0.0937539495467732
  0.5590283042313544  0.2228246464226373  0.8452854358879023
  0.4484896319166651  0.0913986639372482  0.6169613671553122
  0.2330623573328978  0.5549647203240298  0.3403356667266166
  0.1163038359701005  0.4264536992863412  0.1242932725530608
  0.8840782440456962  0.5530727773739414  0.8504968305223244
  0.7665854590089083  0.4176551358601301  0.6081970827641570
  0.5290830214415934  0.5531183552299481  0.3364546276947777
  0.2343650843165719  0.5436720255777132  0.8394878152754330
  0.1338683028529317  0.4179450775774214  0.5994133810185076
  0.8871210184960105  0.5377532974454411  0.3485802789581740
  0.7740997931041491  0.4284587655273953  0.1168812051895856
  0.5376118952241740  0.5456118897167741  0.8438377816926561
  0.4446128770241558  0.4295371551292604  0.5936556321394235
  0.2212495727644281  0.8715799251717087  0.3822568016095573
  0.1310465645976393  0.7379587412134683  0.0819167983990923
  0.8845042313572833  0.8746852562047778  0.8630704192998309
  0.7681352286884646  0.7838763129799631  0.6022791380227801
  0.5413653307986692  0.8615863067925815  0.3335534791387147
  0.4570168986224701  0.7512085570553992  0.0875371472376116
  0.2336844267420517  0.8524331283814490  0.8450023681898600
  0.0951815080108531  0.7492192887522080  0.5984057886171854
  0.9114057858660658  0.8633371196379329  0.3324217423977700
  0.7683375941668871  0.7495305181401903  0.0975836675463029
  0.5628307113640858  0.8495178799832459  0.8456878024567303
  0.4723787201934044  0.7452242460216993  0.5926939221841963
  0.4411466729840612  0.4295504661437732  0.0886051987215808
 
  0.00000000E+00  0.00000000E+00  0.00000000E+00
  0.00000000E+00  0.00000000E+00  0.00000000E+00
  0.00000000E+00  0.00000000E+00  0.00000000E+00
  0.00000000E+00  0.00000000E+00  0.00000000E+00
  0.00000000E+00  0.00000000E+00  0.00000000E+00
  0.00000000E+00  0.00000000E+00  0.00000000E+00
  0.00000000E+00  0.00000000E+00  0.00000000E+00
  0.00000000E+00  0.00000000E+00  0.00000000E+00
  0.00000000E+00  0.00000000E+00  0.00000000E+00
  0.00000000E+00  0.00000000E+00  0.00000000E+00
  0.00000000E+00  0.00000000E+00  0.00000000E+00
  0.00000000E+00  0.00000000E+00  0.00000000E+00
  0.00000000E+00  0.00000000E+00  0.00000000E+00
  0.00000000E+00  0.00000000E+00  0.00000000E+00
  0.00000000E+00  0.00000000E+00  0.00000000E+00
  0.00000000E+00  0.00000000E+00  0.00000000E+00
  0.00000000E+00  0.00000000E+00  0.00000000E+00
  0.00000000E+00  0.00000000E+00  0.00000000E+00
  0.00000000E+00  0.00000000E+00  0.00000000E+00
  0.00000000E+00  0.00000000E+00  0.00000000E+00
  0.00000000E+00  0.00000000E+00  0.00000000E+00
  0.00000000E+00  0.00000000E+00  0.00000000E+00
  0.00000000E+00  0.00000000E+00  0.00000000E+00
  0.00000000E+00  0.00000000E+00  0.00000000E+00
  0.00000000E+00  0.00000000E+00  0.00000000E+00
  0.00000000E+00  0.00000000E+00  0.00000000E+00
  0.00000000E+00  0.00000000E+00  0.00000000E+00
  0.00000000E+00  0.00000000E+00  0.00000000E+00
  0.00000000E+00  0.00000000E+00  0.00000000E+00
  0.00000000E+00  0.00000000E+00  0.00000000E+00
  0.00000000E+00  0.00000000E+00  0.00000000E+00
  0.00000000E+00  0.00000000E+00  0.00000000E+00
  0.00000000E+00  0.00000000E+00  0.00000000E+00
  0.00000000E+00  0.00000000E+00  0.00000000E+00
  0.00000000E+00  0.00000000E+00  0.00000000E+00
  0.00000000E+00  0.00000000E+00  0.00000000E+00
  0.00000000E+00  0.00000000E+00  0.00000000E+00
  0.00000000E+00  0.00000000E+00  0.00000000E+00
  0.00000000E+00  0.00000000E+00  0.00000000E+00
  0.00000000E+00  0.00000000E+00  0.00000000E+00
  0.00000000E+00  0.00000000E+00  0.00000000E+00
  0.00000000E+00  0.00000000E+00  0.00000000E+00
  0.00000000E+00  0.00000000E+00  0.00000000E+00
  0.00000000E+00  0.00000000E+00  0.00000000E+00
  0.00000000E+00  0.00000000E+00  0.00000000E+00
  0.00000000E+00  0.00000000E+00  0.00000000E+00
  0.00000000E+00  0.00000000E+00  0.00000000E+00
  0.00000000E+00  0.00000000E+00  0.00000000E+00
  0.00000000E+00  0.00000000E+00  0.00000000E+00
  0.00000000E+00  0.00000000E+00  0.00000000E+00
  0.00000000E+00  0.00000000E+00  0.00000000E+00
  0.00000000E+00  0.00000000E+00  0.00000000E+00
  0.00000000E+00  0.00000000E+00  0.00000000E+00
  0.00000000E+00  0.00000000E+00  0.00000000E+00
  0.00000000E+00  0.00000000E+00  0.00000000E+00
  0.00000000E+00  0.00000000E+00  0.00000000E+00
  0.00000000E+00  0.00000000E+00  0.00000000E+00
  0.00000000E+00  0.00000000E+00  0.00000000E+00
  0.00000000E+00  0.00000000E+00  0.00000000E+00
  0.00000000E+00  0.00000000E+00  0.00000000E+00
  0.00000000E+00  0.00000000E+00  0.00000000E+00
  0.00000000E+00  0.00000000E+00  0.00000000E+00
  0.00000000E+00  0.00000000E+00  0.00000000E+00
  0.00000000E+00  0.00000000E+00  0.00000000E+00
  0.00000000E+00  0.00000000E+00  0.00000000E+00
  0.00000000E+00  0.00000000E+00  0.00000000E+00
  0.00000000E+00  0.00000000E+00  0.00000000E+00
  0.00000000E+00  0.00000000E+00  0.00000000E+00
  0.00000000E+00  0.00000000E+00  0.00000000E+00
  0.00000000E+00  0.00000000E+00  0.00000000E+00
  0.00000000E+00  0.00000000E+00  0.00000000E+00
  0.00000000E+00  0.00000000E+00  0.00000000E+00
