Al   Sc   N    O                        
   1.00000000000000     
   -10.0546136327629512    0.0184689697050236   -0.0019477105383222
    -5.0783604731563621    8.7359305046088860   -0.0031849254312940
     0.0369161651991519   -0.1291552286025360   -9.8289630624366318
   Al   Sc   N    O 
    23    13    35     1
Direct
  0.1104931939904290  0.0939273190808123  0.4000016679464622
  0.2205882756114761  0.1996946466645895  0.1407737220578937
  0.7702923063053007  0.1057954182817298  0.8927070071214587
  0.8791534126356879  0.2055301250933255  0.6435624158464748
  0.5513639042686123  0.2109203075364903  0.1377395745306487
  0.2257441780781591  0.2100928978196492  0.6414597270739435
  0.8910016827266674  0.2076424081822239  0.1407902586278098
  0.5573236521494138  0.2111511576996961  0.6433421160414241
  0.2229418359197766  0.5419407882860270  0.1462056343660976
  0.4389030061909267  0.4390753642687031  0.3954820545196753
  0.5550636143050482  0.5455410397967881  0.1443424963619790
  0.2280807215197456  0.5349769657996220  0.6410140574746279
  0.8875295633761766  0.5331578747156840  0.1572070302467807
  0.4422324128291137  0.4341067339582523  0.8850969656669463
  0.5543606274351802  0.5304203541884505  0.6475539200688303
  0.1118060602895525  0.7581135630578046  0.3950443912970840
  0.7709419838531559  0.7667402973027677  0.8255275385781289
  0.8862959577836023  0.8808696514444421  0.6470838343467378
  0.4386754476691337  0.7585713448816449  0.3601640418394325
  0.5626368095933785  0.8559701634619117  0.0802351599398961
  0.1220765474841912  0.7526060560723451  0.8838147230906657
  0.4466685734576501  0.7556029493560885  0.8406218070186640
  0.5523682343392196  0.8719724780783622  0.5895997247765408
  0.4443600543682962  0.0935029940103149  0.3732067620910797
  0.1079781122125709  0.0945343346743712  0.8719347514043889
  0.7804214622879826  0.0930711685429202  0.3768473904524754
  0.4521053271888249  0.0922889728091789  0.8707019960719151
  0.1299787053239356  0.4192556302749679  0.3742628543815059
  0.7730555909305608  0.4340056072328480  0.8878511764508161
  0.8932883367878972  0.5338357957799289  0.6167861907866339
  0.1101123377222706  0.4397122566135963  0.8926787962295748
  0.7681541109354839  0.4198438686860939  0.3814364791795128
  0.2182419490812890  0.8744228439458723  0.1343151454372205
  0.2228152496270113  0.8672304061135208  0.6189141613066198
  0.7774473507276056  0.7652068178599407  0.3639704378261257
  0.8868501878061608  0.8656936207560193  0.1084231533680367
  0.2165896863028536  0.1855617000773435  0.3331192549694819
  0.1002047089498959  0.1127534241126895  0.0858039001792150
  0.8743611582661259  0.2013948990257575  0.8347440732594791
  0.7766950822295584  0.0926382726821373  0.5957583501289605
  0.5395110592287296  0.2362741226992000  0.3275650659410587
  0.4481173178729705  0.0920598916827444  0.1034596135720065
  0.2211895551876637  0.2131155953436092  0.8338499552422647
  0.0993589593699724  0.1166363862095636  0.5980891521101555
  0.9113134082187813  0.1892630582957082  0.3322440794624910
  0.7636780600935680  0.1189070432956640  0.0896035590088218
  0.5601843459672722  0.2234974943031887  0.8391861082752499
  0.4482398273830484  0.0957977469883460  0.6104545345728951
  0.2350429994601910  0.5535944808556295  0.3341518288613869
  0.1153263576639816  0.4261199026620446  0.1182411751479080
  0.8826894268279588  0.5555055943648881  0.8348127259184466
  0.7645214398032252  0.4158729759604256  0.6010903156350835
  0.5315298266070414  0.5472365073293730  0.3349966340375872
  0.2355287570777307  0.5439373208481371  0.8327797086613415
  0.1378616719499348  0.4166439268694333  0.5927167158732942
  0.8932758654790902  0.5297095529190301  0.3617977467668183
  0.7751760246388955  0.4280260682855968  0.1138595054909430
  0.5392267098242414  0.5423083536643176  0.8458761886484112
  0.4449621020383319  0.4284572701473479  0.5890954412393441
  0.2195410377492095  0.8715637643097409  0.3715846277935597
  0.1263857584557471  0.7353458943476738  0.0743196861962900
  0.8848631616827731  0.8782650255218840  0.8524821368641113
  0.7670289628738516  0.7846156550620123  0.6210009209973322
  0.5424733488848474  0.8605538055281343  0.3958141670136754
  0.4543930403999781  0.7559924325252894  0.1218592807276693
  0.2290758725657085  0.8560182306612560  0.8451948797001378
  0.0968519489129136  0.7486172813511018  0.5905117852636863
  0.9130353553845509  0.8638202557023433  0.3264871791359667
  0.7685131733474719  0.7462035490734422  0.1359942832708185
  0.5654999536982075  0.8492191770545858  0.8827744307988965
  0.4659921978721968  0.7470161026139905  0.6299870010007353
  0.4399882006236595  0.4291189350897326  0.0818220650405266
 
  0.00000000E+00  0.00000000E+00  0.00000000E+00
  0.00000000E+00  0.00000000E+00  0.00000000E+00
  0.00000000E+00  0.00000000E+00  0.00000000E+00
  0.00000000E+00  0.00000000E+00  0.00000000E+00
  0.00000000E+00  0.00000000E+00  0.00000000E+00
  0.00000000E+00  0.00000000E+00  0.00000000E+00
  0.00000000E+00  0.00000000E+00  0.00000000E+00
  0.00000000E+00  0.00000000E+00  0.00000000E+00
  0.00000000E+00  0.00000000E+00  0.00000000E+00
  0.00000000E+00  0.00000000E+00  0.00000000E+00
  0.00000000E+00  0.00000000E+00  0.00000000E+00
  0.00000000E+00  0.00000000E+00  0.00000000E+00
  0.00000000E+00  0.00000000E+00  0.00000000E+00
  0.00000000E+00  0.00000000E+00  0.00000000E+00
  0.00000000E+00  0.00000000E+00  0.00000000E+00
  0.00000000E+00  0.00000000E+00  0.00000000E+00
  0.00000000E+00  0.00000000E+00  0.00000000E+00
  0.00000000E+00  0.00000000E+00  0.00000000E+00
  0.00000000E+00  0.00000000E+00  0.00000000E+00
  0.00000000E+00  0.00000000E+00  0.00000000E+00
  0.00000000E+00  0.00000000E+00  0.00000000E+00
  0.00000000E+00  0.00000000E+00  0.00000000E+00
  0.00000000E+00  0.00000000E+00  0.00000000E+00
  0.00000000E+00  0.00000000E+00  0.00000000E+00
  0.00000000E+00  0.00000000E+00  0.00000000E+00
  0.00000000E+00  0.00000000E+00  0.00000000E+00
  0.00000000E+00  0.00000000E+00  0.00000000E+00
  0.00000000E+00  0.00000000E+00  0.00000000E+00
  0.00000000E+00  0.00000000E+00  0.00000000E+00
  0.00000000E+00  0.00000000E+00  0.00000000E+00
  0.00000000E+00  0.00000000E+00  0.00000000E+00
  0.00000000E+00  0.00000000E+00  0.00000000E+00
  0.00000000E+00  0.00000000E+00  0.00000000E+00
  0.00000000E+00  0.00000000E+00  0.00000000E+00
  0.00000000E+00  0.00000000E+00  0.00000000E+00
  0.00000000E+00  0.00000000E+00  0.00000000E+00
  0.00000000E+00  0.00000000E+00  0.00000000E+00
  0.00000000E+00  0.00000000E+00  0.00000000E+00
  0.00000000E+00  0.00000000E+00  0.00000000E+00
  0.00000000E+00  0.00000000E+00  0.00000000E+00
  0.00000000E+00  0.00000000E+00  0.00000000E+00
  0.00000000E+00  0.00000000E+00  0.00000000E+00
  0.00000000E+00  0.00000000E+00  0.00000000E+00
  0.00000000E+00  0.00000000E+00  0.00000000E+00
  0.00000000E+00  0.00000000E+00  0.00000000E+00
  0.00000000E+00  0.00000000E+00  0.00000000E+00
  0.00000000E+00  0.00000000E+00  0.00000000E+00
  0.00000000E+00  0.00000000E+00  0.00000000E+00
  0.00000000E+00  0.00000000E+00  0.00000000E+00
  0.00000000E+00  0.00000000E+00  0.00000000E+00
  0.00000000E+00  0.00000000E+00  0.00000000E+00
  0.00000000E+00  0.00000000E+00  0.00000000E+00
  0.00000000E+00  0.00000000E+00  0.00000000E+00
  0.00000000E+00  0.00000000E+00  0.00000000E+00
  0.00000000E+00  0.00000000E+00  0.00000000E+00
  0.00000000E+00  0.00000000E+00  0.00000000E+00
  0.00000000E+00  0.00000000E+00  0.00000000E+00
  0.00000000E+00  0.00000000E+00  0.00000000E+00
  0.00000000E+00  0.00000000E+00  0.00000000E+00
  0.00000000E+00  0.00000000E+00  0.00000000E+00
  0.00000000E+00  0.00000000E+00  0.00000000E+00
  0.00000000E+00  0.00000000E+00  0.00000000E+00
  0.00000000E+00  0.00000000E+00  0.00000000E+00
  0.00000000E+00  0.00000000E+00  0.00000000E+00
  0.00000000E+00  0.00000000E+00  0.00000000E+00
  0.00000000E+00  0.00000000E+00  0.00000000E+00
  0.00000000E+00  0.00000000E+00  0.00000000E+00
  0.00000000E+00  0.00000000E+00  0.00000000E+00
  0.00000000E+00  0.00000000E+00  0.00000000E+00
  0.00000000E+00  0.00000000E+00  0.00000000E+00
  0.00000000E+00  0.00000000E+00  0.00000000E+00
  0.00000000E+00  0.00000000E+00  0.00000000E+00
