Zn   Sb   N
1.0
  -10.174109840201265 0.0842570044382077 0.0002760943232004
  -0.0485014560028894 -5.858989702296097 -6.31927707595e-05
  -3.17187270343e-05 -0.0005565909738025 -5.49514509895439
 Zn  Sb  N 
8 4 12 
direct
   -0.8230621922373023   0.6381280227026020   0.0613717568504130
   -0.1840812232897735   0.6381282922126039   0.0613671641337938
   -0.3326837777793206   0.1400744293415201   0.0418149579827504
   -0.6744604636156563   0.1400755490698026   0.0418122396684000
   -0.8309438482641868   0.3127784556150046   0.5427088104786495
   -0.1762004701164973   0.3127777089424501   0.5427059954210858
   -0.6743171571718468   0.8184523318118059   0.5443049329135959
   -0.3328272349444357   0.8184535929853699   0.5443076568530423
   -0.0035716861042866   0.1689414508966064   0.0558729493612472
   -0.0035718257210459   0.7966907831644537   0.6737527851629828
   -0.5035716922321395   0.6551246535725226   0.0546178227452793
   -0.5035717390729406   0.3013162546573143   0.5553968986260593
   -0.0035708834236364   0.8189353842077356   0.0660927920317048
   -0.0035711781838461   0.1536855010309451   0.6709536257089541
   -0.1713948349794046   0.3089461003087847   0.1699742033226161
   -0.8357458834585142   0.3089459041276628   0.1699755681398182
   -0.1766272624086067   0.6386577302625643   0.6651761883352478
   -0.8305164868869922   0.6386600837370100   0.6651765339643877
   -0.6649602852954917   0.8139595660984487   0.1712448921263463
   -0.3421801931290025   0.8139586022419298   0.1712464168924346
   -0.6673047588792698   0.1459792623788701   0.6684679618598754
   -0.3398369643447188   0.1459799277258894   0.6684695872783510
   -0.5035709883430390   0.3211320764822813   0.1778720246444907
   -0.5035713379035753   0.6359321060408307   0.6780611771641749
