Zn   Sb   N
1.0
  10.140156931787505 -0.1581142261737994 0.0200707060960544
  0.0906478467678625 5.860432007836599 0.0001943607066903
  9.26871458148e-05 0.0110107923581793 5.55084652607744
 Zn  Sb  N 
8 4 12 
direct
    0.8364123021488147  -0.6332176461387340  -0.1765578137275345
    0.1704475438244719  -0.6357605763344542  -0.1742336154927091
    0.3358348098950346  -0.1346316616970621  -0.0449068153113662
    0.6701799845769667  -0.1336512342306596  -0.0468804367931783
    0.8365093333333947  -0.3223183218702418  -0.6764753360985821
    0.1717229609822693  -0.3216210990401327  -0.6638550518936485
    0.6706025499020252  -0.8231027245861038  -0.5464430976106913
    0.3373020298841851  -0.8238486278763857  -0.5451521105002384
    0.0035767174071883  -0.1537572170713341  -0.1698491998499702
    0.0034273158089823  -0.8025940286337041  -0.6710957125853827
    0.5035061437223667  -0.6539015209645587  -0.0513323148234779
    0.5038783015896490  -0.3039402709381085  -0.5511124226110186
    0.0030154113767028  -0.8211073928449344  -0.0450807724689541
    0.0027841093780019  -0.1349751302801475  -0.5447020722575060
    0.1650839134315219  -0.3125926196844483  -0.0571058644236236
    0.8422011555918457  -0.3120680392457171  -0.0536148844321797
    0.1649435344443260  -0.6468708250013320  -0.5535195526283697
    0.8425056238259865  -0.6440871709396906  -0.5537794457576208
    0.6644610684358319  -0.8118808428360128  -0.1691991939820876
    0.3428359030904569  -0.8129063935337258  -0.1679461159664083
    0.6642605174674172  -0.1442610921394003  -0.6693798588483983
    0.3428852687615823  -0.1452642174780856  -0.6678449508551131
    0.5035753313723891  -0.3214101337487630  -0.1771062078398082
    0.5037625361011474  -0.6359449823985934  -0.6772658474622708
