Zn   Sb   N
1.0
  10.194647420224019 -0.0844151713416639 -0.0002893477954244
  0.0485033689012167 5.85844967184469 6.7715803033e-05
  3.38210863026e-05 -0.0124460771755202 5.4970658378207
 Zn  Sb  N 
8 4 12 
direct
    0.8222735636107416  -0.6380887540895377  -0.0567339752758874
    0.1848716239053341  -0.6380879784610162  -0.0567318380906190
    0.3334367352736609  -0.1391217087543032  -0.0416115606182338
    0.6737071188179250  -0.1391218126061805  -0.0416110931109852
    0.8295525821770064  -0.3134187557989458  -0.5479136348013188
    0.1775890851577164  -0.3134197506903771  -0.5479132228062301
    0.6748130275985326  -0.8177924127571174  -0.5436987406541655
    0.3323292185679072  -0.8177950593340896  -0.5436988483289589
    0.0035715461149945  -0.1677024129301793  -0.0687366483453400
    0.0035711996466278  -0.7996875245906220  -0.6729571882604330
    0.5035719900004291  -0.6548229383222920  -0.0544362632098455
    0.5035709894593657  -0.3012371256928061  -0.5549908416615010
    0.0035719794929400  -0.8184119534706643  -0.0661318959245888
    0.0035708924467497  -0.1520202231764519  -0.6582841124582416
    0.1730578920571031  -0.3102889266712957  -0.1704425184396242
    0.8340849538146491  -0.3102890014836033  -0.1704425901776176
    0.1761620594610215  -0.6400927201418711  -0.6656920829800155
    0.8309809030456080  -0.6400921874284256  -0.6656927800697191
    0.6648381354223708  -0.8134274792686071  -0.1709936617749755
    0.3423053137801089  -0.8134278146502816  -0.1709939803218057
    0.6664664472480506  -0.1452627716360518  -0.6687413782531296
    0.3406749415669379  -0.1452641864796668  -0.6687418261579888
    0.5035712547864407  -0.3209277058991190  -0.1777185787633031
    0.5035709143332940  -0.6359125652814813  -0.6778356811811647
