Zn   Sb   N
1.0
  -10.138894808451866 0.0839420404172692 -0.0002796190951618
  -0.048340050676598 -5.837907657101326 -3.60545771187e-05
  -1.91045714245e-05 -0.0230417417602326 -5.48362066575651
 Zn  Sb  N 
8 4 12 
direct
   -0.8287714837315174   0.6421460426242159   0.0554724370648138
   -0.1783689037203108   0.6421469729530924   0.0554723516242112
   -0.3318308981804198   0.1414865990865709   0.0429238029153296
   -0.6753148191912430   0.1414858271239754   0.0429227280347645
   -0.8308961057162658   0.3133067522534160   0.5425705455290504
   -0.1762496423098492   0.3133073242762687   0.5425699290606906
   -0.6741076069179592   0.8178807016337624   0.5439650958827644
   -0.3330347068718253   0.8178807460763530   0.5439657071664813
   -0.0035719284056510   0.1587236043317120   0.0581053927128442
   -0.0035709120201374   0.7982213911295835   0.5808446874182055
   -0.5035707126937274   0.6563742803708630   0.0547550148983934
   -0.5035720399749993   0.3015756259230035   0.5550420137677564
   -0.0035703225097528   0.8170722867143144   0.1521203400165632
   -0.0035717137663435   0.1431040816385867   0.6775773436845323
   -0.1698360848924691   0.3100750855714636   0.1694484228608290
   -0.8373075788228501   0.3100751564484370   0.1694490497205143
   -0.1725645472659535   0.6424338104571485   0.6709944721617837
   -0.8345765833877726   0.6424334185264755   0.6709945885556904
   -0.6664000262526272   0.8130506946191418   0.1703381207830862
   -0.3407413188781803   0.8130504620226625   0.1703382870290084
   -0.6676963368346209   0.1461003584865548   0.6689014796584707
   -0.3394473584749720   0.1461001372499381   0.6689022093230984
   -0.5035718640317188   0.3210468638728248   0.1774496835788128
   -0.5035708729343550   0.6366355462247347   0.6776212382180513
