Zn   Sb   N
1.0
  10.149418061896425 -0.0840297983203929 0.0002790521431168
  0.0483898809178245 5.843969643598639 4.51006416656e-05
  2.33092899611e-05 0.023078205893903 5.48746214348914
 Zn  Sb  N 
8 4 12 
direct
    0.8276972667866103  -0.6417166080305171  -0.0587209974447932
    0.1794434130473113  -0.6417178347055741  -0.0587207642284132
    0.3318789014354295  -0.1414112297496600  -0.0426964439017844
    0.6752664552790372  -0.1414104367852513  -0.0426955039854695
    0.8309216527969582  -0.3126410530850199  -0.5417214653026100
    0.1762239964930215  -0.3126416446936813  -0.5417209770584367
    0.6738278112857421  -0.8183761370931933  -0.5436061159520936
    0.3333144897168548  -0.8183762835687145  -0.5436065820604739
    0.0035720174208782  -0.1603220415459671  -0.0586031056061465
    0.0035708659436801  -0.7974621645006441  -0.6110302864420507
    0.5035706556697215  -0.6561658398307390  -0.0546080213655111
    0.5035718572424480  -0.3016068547085007  -0.5550229824398110
    0.0035705102574747  -0.8169418716539886  -0.1231607901328158
    0.0035719517651925  -0.1473127229735597  -0.6763061001753059
    0.1702932763762561  -0.3101112241979989  -0.1692303462264505
    0.8368504460982520  -0.3101110117527413  -0.1692309325058821
    0.1745796294003393  -0.6404668845425568  -0.6694336797871936
    0.8325618898425194  -0.6404664986404937  -0.6694337959500761
    0.6659954649061594  -0.8133515981517004  -0.1703420383993754
    0.3411458888200349  -0.8133515159018315  -0.1703422155826036
    0.6676150026540849  -0.1460514699158219  -0.6687178208682797
    0.3395286075392460  -0.1460512636362638  -0.6687185020967195
    0.5035716249783306  -0.3211431273590306  -0.1774834957416087
    0.5035706920299688  -0.6365064525916555  -0.6775919784118083
