Zn   Sb   N
1.0
  10.180226172935539 -0.0747185097292129 -0.0708221630297097
  0.052855275353984 5.879115643971852 0.0001310382548617
  6.32541160587e-05 0.0176014627575887 5.52395618194907
 Zn  Sb  N 
8 4 12 
direct
    0.8353928970375405  -0.6450266835825131  -0.1728058519905820
    0.1853785590038535  -0.6322077874358997  -0.0481127514986140
    0.3324513964262478  -0.1370459216078069  -0.0426608947947446
    0.6725754756212905  -0.1385608688306020  -0.0440525352883906
    0.8285707510818416  -0.3134503101561287  -0.6024912915263946
    0.1838679978410168  -0.3220590057261821  -0.5505500531379821
    0.6678190620908423  -0.8228727037388656  -0.5476033291962481
    0.3307010295597799  -0.8192622790564733  -0.5415918496448077
    0.0020486957108222  -0.1530064786567075  -0.1719573708088082
    0.0004400825074534  -0.8012810419393306  -0.6760794987868762
    0.5037806814324535  -0.6551625141526896  -0.0542453474160424
    0.5025297846433080  -0.3036644084462468  -0.5531861407792317
    0.9998238764555418  -0.8237952551119585  -0.0507389172702178
    0.0018763821104886  -0.1285112098788785  -0.5510077589264091
    0.1756602681743719  -0.3121259379416584  -0.1686266255129282
    0.8359546430248866  -0.3131852917610211  -0.1135608207185874
    0.1738395863434549  -0.6426261892702398  -0.6683485894349481
    0.8399881121616576  -0.6471820915134788  -0.5603269438943781
    0.6625570140858451  -0.8168138259772292  -0.1693072732239299
    0.3406335101504822  -0.8112065328481716  -0.1701399059355993
    0.6630563182974895  -0.1447024187233494  -0.6700938393424395
    0.3407769243117476  -0.1442120458764505  -0.6706598639490950
    0.5033628899563514  -0.3221522409218697  -0.1779153551704097
    0.5026284280585961  -0.6356006767670500  -0.6783930719249192
