Zn   Sb   N
1.0
  -10.15360085582892 0.1016746266865808 -0.0122558418370149
  -0.0369378205437202 -5.878775242859488 -0.0001672225130495
  -8.00729902051e-05 -0.0184322937551795 -5.53932209287957
 Zn  Sb  N 
8 4 12 
direct
   -0.8356640657208622   0.6333351163697386   0.1779782627958094
   -0.1731078582640357   0.6434830812571691   0.1484065827388060
   -0.3320312068394303   0.1394095017073234   0.0388355242330647
   -0.6689632104863413   0.1343722047367905   0.0470474765999730
   -0.8358356136345459   0.3201540171343936   0.6760118472542576
   -0.1811508309691638   0.3147893801717832   0.5562298848835022
   -0.6703959265647788   0.8226118210744426   0.5473597116309914
   -0.3364587413437330   0.8258813224611082   0.5453072577602747
   -0.9997538249458837   0.1501600004124392   0.1727893640155425
   -0.0022453676275410   0.7994991228471882   0.6714723444418397
   -0.5034671600624625   0.6550667709660880   0.0516233390463922
   -0.5039427979556458   0.3050310646389400   0.5518916928857784
   -0.0017334007688186   0.8197898998614908   0.0470057851759608
   -0.9971996476117656   0.1298850861649610   0.5484206068914002
   -0.1726692040206417   0.3057728265803625   0.1576514867840934
   -0.8414446554318969   0.3138081290963661   0.0528635295686312
   -0.1685493454997328   0.6515026508288244   0.5790297344011772
   -0.8417214491342658   0.6410828704974998   0.5547134139595994
   -0.6639601951211804   0.8129443744300906   0.1691622908030483
   -0.3429419402011400   0.8161741456971977   0.1669502614939136
   -0.6633540716287645   0.1432045126626669   0.6697559756782102
   -0.3416938231907621   0.1483745824657325   0.6696737556753739
   -0.5033423941634488   0.3228572356135285   0.1772420559456980
   -0.5040876351528523   0.6365240518044446   0.6770165014567865
