Zn   Sb   N
1.0
  -10.102788616583426 0.0469980991996075 3.66593621538e-05
  -0.0270802481588137 -5.821044999558154 -8.9163834778e-06
  -6.4904158148e-06 3.7772506418e-06 -5.47209623255864
 Zn  Sb  N 
8 4 12 
direct
   -0.8315272383353320   0.6411850570374440   0.0607005087766994
   -0.1756168909772656   0.6411846248962583   0.0606986870144607
   -0.3315272863603805   0.1411850838203509   0.0607003831983934
   -0.6756170195652644   0.1411845789509067   0.0606987541674152
   -0.8315278737009307   0.3159570280568951   0.5607001837296015
   -0.1756177647350972   0.3159581646679936   0.5606978292103312
   -0.6756177844450809   0.8159581994527310   0.5606980792879935
   -0.3315279235585175   0.8159570092646832   0.5607000003368440
   -0.0035708283210909   0.1566281414564152   0.0720211926025693
   -0.0035711453631834   0.8005149771554998   0.5720215112740444
   -0.5035708729440561   0.6566281462270159   0.0720211957741859
   -0.5035711724153529   0.3005149719880519   0.5720215304039614
   -0.0035704735671677   0.8202056483691174   0.1940063985911396
   -0.0035708886937955   0.1369375647144894   0.6940062487655917
   -0.1685617019701993   0.3110153222921460   0.1857737769546276
   -0.8385799158272149   0.3110158342834491   0.1857750209179296
   -0.1685620226346017   0.6461276111222038   0.6857740380859653
   -0.8385802532468440   0.6461268446578883   0.6857752724971179
   -0.6685617099663844   0.8110154199818020   0.1857737702618388
   -0.3385799430420437   0.8110158418770421   0.1857750312904519
   -0.6685620075643740   0.1461275509412200   0.6857741245211653
   -0.3385802817931954   0.1461268136479821   0.6857752916131946
   -0.5035705694035230   0.3202056539229463   0.1940064347531830
   -0.5035709458245382   0.6369375837017448   0.6940062308300694
