Zn   Sb   N
1.0
  10.13926724433226 -0.0860957251070874 -0.0001721441848463
  0.0497109911069256 5.853980290487573 0.0002034067712373
  9.68918643514e-05 -0.0001908564736773 5.55468800381007
 Zn  Sb  N 
8 4 12 
direct
    0.8366799785668877  -0.6337881078444211  -0.1677932458856244
    0.1704625711642466  -0.6337876381267908  -0.1677936256123876
    0.3366806707737240  -0.1337858501173628  -0.0384073887112525
    0.6704627134616862  -0.1337873137131390  -0.0384082319957322
    0.8366803932960134  -0.3233621951756385  -0.6677927025363709
    0.1704620299662097  -0.3233621029735773  -0.6677942553909645
    0.6704619595771254  -0.8233632857235288  -0.5384082342491693
    0.3366813067646486  -0.8233633739866464  -0.5384073598939016
    0.0035714976383557  -0.1536089832986200  -0.1621860167791984
    0.0035715033612695  -0.8035362151472599  -0.6621859597650573
    0.5035714838000415  -0.6536077930141205  -0.0440235632352552
    0.5035713184869808  -0.3035375367204453  -0.5440235480201048
    0.0035713130598627  -0.8210379968254082  -0.0360955641423455
    0.0035712155321108  -0.1361068386942833  -0.5360955407931400
    0.1645219439996353  -0.3120582388510089  -0.0448694727961140
    0.8426214862275618  -0.3120590424910342  -0.0448686159492192
    0.1645221538633445  -0.6450883255135945  -0.5448689868695956
    0.8426207715965389  -0.6450883719581892  -0.5448685657721702
    0.6645213939723161  -0.8120596102848175  -0.1613387613634039
    0.3426214430578971  -0.8120587626632879  -0.1613384457252313
    0.6645216643478100  -0.1450876030398422  -0.6613390889706393
    0.3426208855103385  -0.1450875687233880  -0.6613385992045114
    0.5035715015939694  -0.3210373881903440  -0.1701145759215520
    0.5035714278697268  -0.6361073129819385  -0.6701147734138241
