Zn   Sb   N
1.0
  -10.175794536834509 0.0770483903610691 0.0709381315230034
  -0.0514616264343187 -5.8764955311597395 -0.0001355612871351
  -6.5356475327e-05 -0.0167984993815222 -5.52587692081538
 Zn  Sb  N 
8 4 12 
direct
   -0.8355523755999764   0.6433675204561338   0.1740203405649682
   -0.1851787757125265   0.6321926580482068   0.0481588305460035
   -0.3322107847973231   0.1370462089262421   0.0425854494771068
   -0.6720104498550934   0.1378777421121872   0.0452196120694609
   -0.8301522747979176   0.3147461082942202   0.6226831291823396
   -0.1838251353197211   0.3222852630419981   0.5499547578364150
   -0.6678749492740790   0.8225717199829418   0.5474796973008003
   -0.3306900113005904   0.8193320489516831   0.5415780783191465
   -0.0013630392601435   0.1535842008023293   0.1720104008660031
   -0.0002670413563616   0.8015699260864092   0.6759922380550887
   -0.5037460070141012   0.6550985212902988   0.0542018403028912
   -0.5025472976183051   0.3035184572598076   0.5532071960301331
   -0.9996896573726231   0.8242949159798861   0.0504792170483010
   -0.0009243614567731   0.1291189789811079   0.5503379180935095
   -0.1753054915020850   0.3119961536449585   0.1688143848329712
   -0.8376407737308240   0.3147244231806144   0.0939777987733627
   -0.1737547428864244   0.6428513810237565   0.6683907726206200
   -0.8403045767906475   0.6459797049100858   0.5585805659927060
   -0.6626885834674315   0.8163341361015036   0.1695247222321332
   -0.3405463236650569   0.8111641573745610   0.1702189296344998
   -0.6628064111949542   0.1441156312980102   0.6698632569778924
   -0.3406066462705045   0.1443425864058140   0.6707025823965151
   -0.5033481674410318   0.3220664434968671   0.1779927464971902
   -0.5026804884028702   0.6355348322711712   0.6784814145225270
