Zn   Sb   N                             
   1.00000000000000     
     0.0119647255959804   -0.0000443328826441   -5.5066695321522596
    -5.8578018156170577   -0.0484973903164527   -0.0000903309644004
    -0.0845764507830406   10.2139951295104279   -0.0002909511322073
   Zn   Sb   N 
     8     4    12
Direct
  0.0531916815841335  0.6375625790256760  0.8216001081955719
  0.0531903584542368  0.6375616639457352  0.1855452277641437
  0.0412230786001726  0.1387369665529232  0.3337119606758746
  0.0412227185309892  0.1387370625851594  0.6734317944929507
  0.5543612749562412  0.3167306960487954  0.8259157966849111
  0.5543616291693307  0.3167309695089838  0.1812256127718646
  0.5434658722001274  0.8174484141137068  0.6750223984583621
  0.5434656568943265  0.8174511000800846  0.3321193082766635
  0.1564934798599815  0.1574570010093005  0.0035716586681985
  0.6744015744091411  0.8047028726263861  0.0035713406810371
  0.0545596168042169  0.6550111310296775  0.5035719902729888
  0.5545418745587081  0.3014341176935846  0.5035709041746119
  0.0588842197712222  0.8223354229623908  0.0035719469472746
  0.5768412395954702  0.1393768594739244  0.0035708566671887
  0.1667626668996439  0.3139013814336270  0.1761745872453306
  0.1667624920234236  0.3139016121384687  0.8309682939461649
  0.6664581409455519  0.6416836618157393  0.1754698626239573
  0.6664585464426872  0.6416833309257105  0.8316730178379038
  0.1709828569597104  0.8134844149649484  0.6648378233616687
  0.1709830994934665  0.8134847459061620  0.3423058955878316
  0.6691471766984503  0.1446551345748765  0.6657142202520286
  0.6691475888137040  0.1446564815575019  0.3414273684771858
  0.1778016920911688  0.3210580656192959  0.5035713875017958
  0.6780364059095657  0.6359280840222864  0.5035710062199992
 
             NaN             NaN             NaN
             NaN             NaN             NaN
             NaN             NaN             NaN
             NaN             NaN             NaN
             NaN             NaN             NaN
             NaN             NaN             NaN
             NaN             NaN             NaN
             NaN             NaN             NaN
             NaN             NaN             NaN
             NaN             NaN             NaN
             NaN             NaN             NaN
             NaN             NaN             NaN
             NaN             NaN             NaN
             NaN             NaN             NaN
             NaN             NaN             NaN
             NaN             NaN             NaN
             NaN             NaN             NaN
             NaN             NaN             NaN
             NaN             NaN             NaN
             NaN             NaN             NaN
             NaN             NaN             NaN
             NaN             NaN             NaN
             NaN             NaN             NaN
             NaN             NaN             NaN
