Zn   Sb   N
1.0
  10.201458987333353 -0.0711771479919292 -0.0556694399501461
  0.0549818527430734 5.875555413754109 0.0001039000612208
  5.0639960449e-05 0.014762562006907 5.5124317487512
 Zn  Sb  N 
8 4 12 
direct
    0.8267535096773549  -0.6412819504649581  -0.0862760739132435
    0.1859149933820630  -0.6343896012939827  -0.0492984098592617
    0.3331469911124723  -0.1382281545491214  -0.0425507135718639
    0.6741395331490816  -0.1409854078258981  -0.0413692353732391
    0.8234996538430490  -0.3167842780118572  -0.5570152745602790
    0.1846494564664353  -0.3210146216845158  -0.5523587359158139
    0.6725205393465027  -0.8207437947940058  -0.5446160030531367
    0.3318056389310113  -0.8187640128280849  -0.5422310375686215
    0.0040928257483279  -0.1523264700948049  -0.1742380427659948
    0.0021374417223483  -0.8009831301183342  -0.6734711432078768
    0.5039132554914284  -0.6558274051638516  -0.0539927166965010
    0.5031576791664752  -0.3032538717818358  -0.5543683935984604
    0.0024942587916341  -0.8253933542417680  -0.0520759535239604
    0.0037750093723780  -0.1284386476578029  -0.5522464812726681
    0.1763901835210790  -0.3137156981663932  -0.1670654778878313
    0.8322809823615046  -0.3122709386384722  -0.1624742447244328
    0.1750841364615472  -0.6418763524469092  -0.6674324635804847
    0.8318681588316575  -0.6431174795398215  -0.6445199002720823
    0.6643334435284567  -0.8161336340649864  -0.1700362226014795
    0.3417654152947944  -0.8125245450422488  -0.1701770517711780
    0.6640288353224986  -0.1448941881321812  -0.6704064316335765
    0.3413808623244662  -0.1439599583586127  -0.6703356458471957
    0.5037956472711820  -0.3225464790478184  -0.1780318046757605
    0.5027859149696621  -0.6362597459725410  -0.6778684222976483
