Zn   Sb   N
1.0
  -10.195813024260286 0.0662682795090039 0.0635111815587893
  -0.0578347513364779 -5.880847150509253 -0.0001174691580412
  -5.69470382538e-05 -0.0179271804555185 -5.5181939653501395
 Zn  Sb  N 
8 4 12 
direct
   -0.8316260854906915   0.6452961113345137   0.1431833525160647
   -0.1859026952711010   0.6333595497695546   0.0483153074727297
   -0.3331294821310699   0.1377281455340371   0.0425489953715780
   -0.6737377770776442   0.1409830844096059   0.0409626892423900
   -0.8246427651595886   0.3124580332871236   0.5627542563747956
   -0.1842057725028196   0.3213682858977707   0.5526082161728286
   -0.6698226757420030   0.8232911484898130   0.5468038124536300
   -0.3312029004973894   0.8189660616541632   0.5419634217863148
   -0.0039345941586714   0.1514625272981495   0.1738534306617582
   -0.0010007016073319   0.8001311467271881   0.6743374639482620
   -0.5037795896771148   0.6556597380112668   0.0536267539606008
   -0.5027943082931883   0.3038694622400610   0.5536902390048983
   -0.0006816800129405   0.8234455985219179   0.0516176810004636
   -0.0040081856980262   0.1276427916313858   0.5524592457216754
   -0.1763887786813870   0.3129835267852892   0.1675492758363289
   -0.8327770297877334   0.3097149457778390   0.1549651284604698
   -0.1744557387026416   0.6421591312817579   0.6683003372021742
   -0.8362708826554281   0.6467616571144025   0.5896096927233215
   -0.6629493954075926   0.8176625703188253   0.1687480191639145
   -0.3413567001928580   0.8120247634985607   0.1700917508280431
   -0.6635179412026537   0.1457745219662480   0.6705504509928086
   -0.3412120778211816   0.1440436859570133   0.6703780564386228
   -0.5037251037247084   0.3227022514035932   0.1778226771366155
   -0.5025915045916379   0.6362249810107272   0.6777156257023024
