Zn   Sb   N
1.0
  10.200812904388432 -0.0844678234549266 -0.0002914078575114
  0.0485031728161705 5.858541866829556 7.22388353065e-05
  3.59234455709e-05 -0.0136721966758764 5.49898657668701
 Zn  Sb  N 
8 4 12 
direct
    0.8219994421289657  -0.6382185413391203  -0.0552668663272181
    0.1851459970835838  -0.6382174978717775  -0.0552650975253149
    0.3337280471510736  -0.1388311506210021  -0.0413087218269495
    0.6734157220065514  -0.1388311939042967  -0.0413084087619099
    0.8289671001426190  -0.3138035451269903  -0.5503146836879005
    0.1781739497230930  -0.3138047244069274  -0.5503145355868460
    0.6749985651183863  -0.8176203487906396  -0.5437226328837602
    0.3321434131531663  -0.8176231355446706  -0.5437225708499657
    0.0035716561533561  -0.1659174352605413  -0.0847199386134670
    0.0035712726635283  -0.8015715311946752  -0.6727867726033363
    0.5035720022398256  -0.6548633452884434  -0.0543984869905444
    0.5035708447561243  -0.3013084310746930  -0.5549183471242584
    0.0035720309504356  -0.8183070048857116  -0.0655768145646042
    0.0035707682913882  -0.1494447082596706  -0.6420230106412129
    0.1741624446882351  -0.3113089480564694  -0.1699136410061526
    0.8329804919270813  -0.3113091243699547  -0.1699135139646606
    0.1759344948885325  -0.6404253243616846  -0.6660373929383736
    0.8312084755614558  -0.6404245889083912  -0.6660378934298685
    0.6648206537178656  -0.8134064702329644  -0.1710357103099583
    0.3423231207422173  -0.8134068318697359  -0.1710359745538066
    0.6662017291248268  -0.1450740680816799  -0.6687738360469050
    0.3409397100483987  -0.1450756408021870  -0.6687741721930165
    0.5035713958371778  -0.3209734637589317  -0.1777159619102598
    0.5035710396876347  -0.6359467156038224  -0.6778599573253981
