Zn   Sb   N                             
   1.00000000000000     
    -0.0183723164354588   -0.0000779706309368   -5.5374013540132596
    -5.8779034504778123   -0.0374420952995954   -0.0001626994807760
    -0.1007865458542648   10.1532570470128931    0.0120443499067870
   Zn   Sb   N 
     8     4    12
Direct
  0.1779538275233569  0.6337202179620884  0.8355910091721001
  0.1271465563297915  0.6417506598710783  0.1749289576984949
  0.0386307608397087  0.1394996527663281  0.3319131042154073
  0.0470168622453580  0.1345861256785113  0.6689136361176042
  0.6760049364186668  0.3201033275719351  0.8358150559627527
  0.5545913415492486  0.3163258640445992  0.1813812577881417
  0.5475022970399903  0.8225527580160640  0.6702508369002931
  0.5444320103445925  0.8253104672873558  0.3353371152608733
  0.1731979170175690  0.1504804072180403  0.9995194799514010
  0.6712022883756127  0.7996850297498044  0.0020335194764314
  0.0515183697687656  0.6551003169926413  0.5033960588119485
  0.5520867955455718  0.3048874974035081  0.5038280571022030
  0.0474536674825723  0.8205794269186572  0.0011277122217157
  0.5484560748117466  0.1301207605140988  0.9972889312398302
  0.1599499819953204  0.3065443927707807  0.1727477453620093
  0.0528375205835832  0.3142270426606644  0.8413917517449172
  0.6000743378460814  0.6496825575744223  0.1703636425317772
  0.5545522187267685  0.6409041571518150  0.8416157882558760
  0.1692676571214649  0.8131949402228119  0.6637025771836637
  0.1673285350520325  0.8157039455757016  0.3423409015984171
  0.6696887670258681  0.1432000589739182  0.6633720965922447
  0.6694033125362150  0.1481082200084314  0.3415514055307485
  0.1772211011126419  0.3228758323873028  0.5032298284699533
  0.6769215488275877  0.6365701101600151  0.5040738971508503
 
             NaN             NaN             NaN
             NaN             NaN             NaN
             NaN             NaN             NaN
             NaN             NaN             NaN
             NaN             NaN             NaN
             NaN             NaN             NaN
             NaN             NaN             NaN
             NaN             NaN             NaN
             NaN             NaN             NaN
             NaN             NaN             NaN
             NaN             NaN             NaN
             NaN             NaN             NaN
             NaN             NaN             NaN
             NaN             NaN             NaN
             NaN             NaN             NaN
             NaN             NaN             NaN
             NaN             NaN             NaN
             NaN             NaN             NaN
             NaN             NaN             NaN
             NaN             NaN             NaN
             NaN             NaN             NaN
             NaN             NaN             NaN
             NaN             NaN             NaN
             NaN             NaN             NaN
