Zn   Sb   N
1.0
  10.213995129510428 -0.0845764507830406 -0.0002909511322073
  0.0484973903164527 5.857801815617058 9.03309644004e-05
  4.43328826441e-05 -0.0119647255959804 5.50666953215226
 Zn  Sb  N 
8 4 12 
direct
    0.8216001081955719  -0.6375625790256759  -0.0531916815841335
    0.1855452277641437  -0.6375616639457352  -0.0531903584542368
    0.3337119606758746  -0.1387369665529232  -0.0412230786001726
    0.6734317944929509  -0.1387370625851594  -0.0412227185309892
    0.8259157966849112  -0.3167306960487954  -0.5543612749562410
    0.1812256127718646  -0.3167309695089837  -0.5543616291693307
    0.6750223984583622  -0.8174484141137069  -0.5434658722001272
    0.3321193082766636  -0.8174511000800849  -0.5434656568943262
    0.0035716586681985  -0.1574570010093005  -0.1564934798599815
    0.0035713406810371  -0.8047028726263864  -0.6744015744091408
    0.5035719902729888  -0.6550111310296776  -0.0545596168042169
    0.5035709041746119  -0.3014341176935846  -0.5545418745587080
    0.0035719469472746  -0.8223354229623908  -0.0588842197712222
    0.0035708566671887  -0.1393768594739244  -0.5768412395954700
    0.1761745872453306  -0.3139013814336272  -0.1667626668996439
    0.8309682939461651  -0.3139016121384687  -0.1667624920234236
    0.1754698626239573  -0.6416836618157393  -0.6664581409455518
    0.8316730178379038  -0.6416833309257105  -0.6664585464426870
    0.6648378233616689  -0.8134844149649485  -0.1709828569597104
    0.3423058955878316  -0.8134847459061624  -0.1709830994934665
    0.6657142202520289  -0.1446551345748765  -0.6691471766984500
    0.3414273684771858  -0.1446564815575019  -0.6691475888137040
    0.5035713875017958  -0.3210580656192959  -0.1778016920911688
    0.5035710062199993  -0.6359280840222864  -0.6780364059095657
