Zn   Sb   N
1.0
  -10.20833334319995 0.0845334071117281 0.0002905513116559
  -0.0484975356027498 -5.858091515806504 -8.12848998534e-05
  -4.01281641075e-05 0.0137438137560323 -5.5028280544196395
 Zn  Sb  N 
8 4 12 
direct
   -0.8217203485496529   0.6382170127873130   0.0537809237111277
   -0.1854253729489971   0.6382158021230913   0.0537792252868011
   -0.3339243240172188   0.1386318532535513   0.0410129763439323
   -0.6732194123478004   0.1386319904884272   0.0410128681086256
   -0.8278929757904837   0.3147202910840537   0.5530732019083618
   -0.1792475216337918   0.3147212785339222   0.5530732146248745
   -0.6751225087548522   0.8174622153445740   0.5436987387829590
   -0.3320192437265000   0.8174651177778781   0.5436985291114578
   -0.0035716839830281   0.1620099337138579   0.1203771152676363
   -0.0035712972808441   0.8040642749597148   0.6729158093387123
   -0.5035720833257191   0.6549359245267152   0.0543837791977604
   -0.5035707584772344   0.3013844840892753   0.5547649727346254
   -0.0035720604589653   0.8194116282282636   0.0630774817991773
   -0.0035707232393566   0.1445591356663432   0.6100296927704586
   -0.1755773524863156   0.3129057828597248   0.1680723042094058
   -0.8315657231851065   0.3129059518222443   0.1680721020626848
   -0.1756680776920808   0.6408949083983297   0.6663056200849713
   -0.8314750790211840   0.6408943246315755   0.6663061055994350
   -0.6648149395276709   0.8134582560297087   0.1710426549244064
   -0.3423289270772997   0.8134586638486068   0.1710429143656775
   -0.6659443352767883   0.1448857683818502   0.6687948091542550
   -0.3411970666773645   0.1448873828963626   0.6687950834137492
   -0.5035714507316805   0.3210248873686423   0.1777217153836032
   -0.5035711015755597   0.6359669008009465   0.6779131034809719
