Zn   Sb   N
1.0
  -10.138303212828017 0.1124105191182154 0.0001811667279986
  -0.0649030484299087 -5.8533126286252655 -0.0002079298035107
  -9.89942236197e-05 0.000198349105798 -5.55660874267638
 Zn  Sb  N 
8 4 12 
direct
   -0.8366836997765207   0.6338073328204256   0.1613405309597813
   -0.1704589839491939   0.6338073336114316   0.1613423018195007
   -0.3366840694588237   0.1338080440534250   0.0320486013688986
   -0.6704589490112572   0.1338089994746265   0.0320468543101863
   -0.8366842469594549   0.3233390791843154   0.6613417278329546
   -0.1704587498288664   0.3233392006843072   0.6613446361916034
   -0.6704583706619072   0.8233380806530853   0.5320449413250332
   -0.3366847014175511   0.8233380682905067   0.5320465658218823
   -0.0035713411011183   0.1536082425386690   0.1557135055277480
   -0.0035713488990464   0.8035336186333499   0.6557127009341995
   -0.5035713669774601   0.6536091532027408   0.0376697789766616
   -0.5035713088165549   0.3035324123690011   0.5376705632001973
   -0.0035713410442061   0.8210393970291526   0.0295415663469945
   -0.0035713709292598   0.1361023227569436   0.5295419806071299
   -0.1645139384027036   0.3120850019115929   0.0383444598596022
   -0.8426292703860787   0.3120853031254552   0.0383426168553392
   -0.1645141432410604   0.6450580318358238   0.5383432751004266
   -0.8426286695916340   0.6450581309672496   0.5383418969172026
   -0.6645138327302750   0.8120852789488764   0.1550401061172712
   -0.3426290814794742   0.8120846342762627   0.1550413498455712
   -0.6645141769274611   0.1450580249865512   0.6550411406731064
   -0.3426286169203464   0.1450580002959147   0.6550423478922648
   -0.5035714093442000   0.3210400029788063   0.1638412776217422
   -0.5035713791889562   0.6361013717247119   0.6638409252201017
