Zn   Sb   N                             
   1.00000000000000     
    -0.0228750019306756   -0.0000254116492294   -5.4893828823554500
    -5.8465100175174269   -0.0484109555661276   -0.0000496236739391
    -0.0840639247806820   10.1535470072161811    0.0002785320155543
   Zn   Sb   N 
     8     4    12
Direct
  0.0599316646955984  0.6413270368631522  0.8271011733378085
  0.0599312408567879  0.6413284315518205  0.1800397277895763
  0.0425718100817545  0.1413678275385192  0.3319276364295095
  0.0425709316561842  0.1413670781867450  0.6752175290926860
  0.5415013435153720  0.3124898772592313  0.8309678280830143
  0.5415009001944536  0.3124906215906805  0.1761778401764024
  0.5435203123177719  0.8185199061770794  0.6737811841933425
  0.5435206937687418  0.8185201239087879  0.3333610039751314
  0.0584652524608493  0.1613091266103106  0.0035721031299955
  0.6275236904013382  0.7970980703044727  0.0035711606604883
  0.0545119997457772  0.6560881594969747  0.5035705408206371
  0.5550504119271317  0.3016124290652856  0.5035717668117592
  0.1089338799025711  0.8169903027352123  0.0035706204464972
  0.6753747898011888  0.1490693092939109  0.0035720937343908
  0.1691385893659081  0.3100151724965125  0.1704453619225533
  0.1691391627933007  0.3100147649422916  0.8366984256928622
  0.6682607143074977  0.6397377609594430  0.1753261834495984
  0.6682608685972935  0.6397371659079497  0.8318152419160145
  0.1703344869849719  0.8134636864212449  0.6658539994768743
  0.1703346727156712  0.8134637052835366  0.3412873899387741
  0.6686347121548570  0.1460286152992213  0.6675832708741307
  0.6686353948430340  0.1460283589589534  0.3395602498505387
  0.1775088048662057  0.3211913188933174  0.5035714723281268
  0.6775886137114583  0.6364549198704560  0.5035705636548515
 
             NaN             NaN             NaN
             NaN             NaN             NaN
             NaN             NaN             NaN
             NaN             NaN             NaN
             NaN             NaN             NaN
             NaN             NaN             NaN
             NaN             NaN             NaN
             NaN             NaN             NaN
             NaN             NaN             NaN
             NaN             NaN             NaN
             NaN             NaN             NaN
             NaN             NaN             NaN
             NaN             NaN             NaN
             NaN             NaN             NaN
             NaN             NaN             NaN
             NaN             NaN             NaN
             NaN             NaN             NaN
             NaN             NaN             NaN
             NaN             NaN             NaN
             NaN             NaN             NaN
             NaN             NaN             NaN
             NaN             NaN             NaN
             NaN             NaN             NaN
             NaN             NaN             NaN
