Zn   Sb   N
1.0
  10.185115150512665 -0.071653821630132 -0.0688302862326438
  0.0546707913907601 5.881235675364304 0.0001265152225882
  6.11517567904e-05 0.018240718027028 5.52203544308276
 Zn  Sb  N 
8 4 12 
direct
    0.8350763517999528  -0.6464373966186662  -0.1710236529889343
    0.1856030351825642  -0.6323064217331320  -0.0479705349423193
    0.3327202112918314  -0.1370897900899327  -0.0426820664719200
    0.6730930217719319  -0.1394431096958108  -0.0428107678366581
    0.8269138306545940  -0.3122390018577690  -0.5828248792802241
    0.1839135378458880  -0.3217944250694110  -0.5512586539540673
    0.6678921151690077  -0.8232714151998761  -0.5478047660426102
    0.3307313604205875  -0.8191781473287639  -0.5416344109339374
    0.0027906012318236  -0.1522553810578668  -0.1722232636861054
    0.0005798283132899  -0.8009210492140707  -0.6758371693716316
    0.5038043992286264  -0.6553016758335978  -0.0542283019291508
    0.5025527833387466  -0.3037841486851782  -0.5532987007439748
    0.9999166040560443  -0.8233252984748779  -0.0508139559739722
    0.0029120504627239  -0.1278963831185711  -0.5515293833498149
    0.1759690327402654  -0.3122911360852361  -0.1682443971928887
    0.8343410269790658  -0.3114511885890560  -0.1331037416912267
    0.1739284231594696  -0.6423858854844502  -0.6682944056992961
    0.8395698903865836  -0.6481840014146463  -0.5624914618906440
    0.6624662886434166  -0.8173485106340980  -0.1690655672918422
    0.3407417440704893  -0.8113035813466393  -0.1700751474456272
    0.6632989637832181  -0.1453717239175173  -0.6704584362138281
    0.3409247169923411  -0.1441030290685576  -0.6705864288733894
    0.5034088459148656  -0.3223057958658581  -0.1779073085559449
    0.5025657026500472  -0.6357252235371966  -0.6782884778125791
