Zn   Sb   N
1.0
  10.152310302786482 -0.0923497219145163 -0.0033754329838357
  0.0422509540626548 5.87042945307237 0.0001491303839556
  7.16635531319e-05 0.013397998000721 5.53163913741432
 Zn  Sb  N 
8 4 12 
direct
    0.8355196603773071  -0.6351927889904592  -0.1767316925252005
    0.1808162363610830  -0.6361334600484545  -0.0629269485994175
    0.3312733557799886  -0.1389152711623297  -0.0399522705519566
    0.6689627280996091  -0.1352545841661465  -0.0474046112810878
    0.8357400426143687  -0.3197574300508105  -0.6760037930900824
    0.1827830549396688  -0.3221866219842713  -0.5493697884006484
    0.6697633280337609  -0.8221215580106184  -0.5475893316792457
    0.3322764340257817  -0.8217820445893680  -0.5420662449028658
    0.9995173539937833  -0.1521494220341315  -0.1728889078574179
    0.0006462310042642  -0.8015684470926253  -0.6720116332847138
    0.5030456561821460  -0.6553922879024339  -0.0528648632830946
    0.5034528886232593  -0.3037865466070006  -0.5530852718605136
    0.9987027751631982  -0.8236059903210102  -0.0474968744352525
    0.9978067624305947  -0.1306295328019290  -0.5476084640265628
    0.1731233387577109  -0.3106662400932663  -0.1662347614544312
    0.8414573731216901  -0.3156282568165719  -0.0525731720022546
    0.1742469132464051  -0.6450459328880216  -0.6601137127134090
    0.8418656598610093  -0.6401332026610882  -0.5531768531821850
    0.6633230645657355  -0.8138216499483130  -0.1698407821777468
    0.3403716346993645  -0.8133700433359369  -0.1695050835124651
    0.6633743471464115  -0.1430026729800318  -0.6698511282089575
    0.3407038167486563  -0.1467391791010172  -0.6695432729843287
    0.5031467380285510  -0.3225645522759962  -0.1778335351985367
    0.5037949725353411  -0.6362660536218949  -0.6777656882754390
