Zn   Sb   N                             
   1.00000000000000     
    -0.0000030675423392   -0.0000022856972782   -5.4682547548260203
    -5.8220463819460484   -0.0111050557200960    0.0000001296810691
    -0.0192716569149084   10.1045514126287230   -0.0000391106600702
   Zn   Sb   N 
     8     4    12
Direct
  0.0686534757541415  0.6411784784236649  0.8315122277258578
  0.0686517320512561  0.6411778823572084  0.1756322150766486
  0.0686534980956965  0.1411784785283116  0.3315122180567879
  0.0686516900278419  0.1411778879454309  0.6756322172088051
  0.5686531933126536  0.3159631217849619  0.8315127788917839
  0.5686512318832849  0.3159640869226664  0.1756325172005139
  0.5686511640819417  0.8159640829190901  0.6756325773386384
  0.5686532599408256  0.8159631256265243  0.3315127453472079
  0.0799769692186533  0.1566551981005317  0.0035709740823740
  0.5799771070389649  0.8004883834327444  0.0035711541555660
  0.0799769626608712  0.6566552006605749  0.5035709658115981
  0.5799771067351864  0.3004883902598952  0.5035711451845483
  0.2017940673217103  0.8202298801302434  0.0035706558372960
  0.7017939018215535  0.1369139804955951  0.0035708627450680
  0.1936103290454611  0.3110194931656575  0.1685583059319042
  0.1936115050777253  0.3110199661827348  0.8385834736025974
  0.6936104727950174  0.6461235337967831  0.1685583657688625
  0.6936116075995554  0.6461228981995902  0.8385837467700956
  0.1936102975958457  0.8110194948880700  0.6685583017399427
  0.1936115955964561  0.8110199507228880  0.3385834741840909
  0.6936104457587550  0.1461235237206323  0.6685583531197106
  0.6936116441543756  0.1461228765904740  0.3385837511202543
  0.2017940944328553  0.3202298894221569  0.5035706612951062
  0.7017939393365036  0.6369139637523583  0.5035708575308465
 
             NaN             NaN             NaN
             NaN             NaN             NaN
             NaN             NaN             NaN
             NaN             NaN             NaN
             NaN             NaN             NaN
             NaN             NaN             NaN
             NaN             NaN             NaN
             NaN             NaN             NaN
             NaN             NaN             NaN
             NaN             NaN             NaN
             NaN             NaN             NaN
             NaN             NaN             NaN
             NaN             NaN             NaN
             NaN             NaN             NaN
             NaN             NaN             NaN
             NaN             NaN             NaN
             NaN             NaN             NaN
             NaN             NaN             NaN
             NaN             NaN             NaN
             NaN             NaN             NaN
             NaN             NaN             NaN
             NaN             NaN             NaN
             NaN             NaN             NaN
             NaN             NaN             NaN
