Zn   Sb   N
1.0
  -10.163469533347946 0.0803964916857381 0.0700285925196028
  -0.049394107093585 -5.867925138007073 -0.0001446073516821
  -6.95611938636e-05 -0.0131236778192934 -5.52971839854801
 Zn  Sb  N 
8 4 12 
direct
   -0.8357998873281239   0.6390793200573203   0.1759350696825955
   -0.1847638989630234   0.6323672275441210   0.0470344818887262
   -0.3315704135377415   0.1370251067174713   0.0422991235088147
   -0.6703917836107879   0.1368332080647037   0.0475370168215180
   -0.8340168889459806   0.3183774780708891   0.6652777103914509
   -0.1836897647722179   0.3230053251029234   0.5482472716853514
   -0.6684733660831587   0.8218999302307207   0.5476726825422364
   -0.3306420393196803   0.8193916475773215   0.5416621307761226
   -0.0000781100688735   0.1544058061742154   0.1722553143421429
   -0.9996491529560401   0.8024595265253877   0.6742285140307923
   -0.5036594121374723   0.6550496770087795   0.0542282847743360
   -0.5028196298320794   0.3027874704115053   0.5540387182671224
   -0.9989770400755714   0.8256350478381301   0.0486383974656295
   -0.9987348910763679   0.1307090287253494   0.5478178434456054
   -0.1743466373854128   0.3121390538548897   0.1686312822577037
   -0.8413897146829269   0.3174358315546564   0.0571190106342107
   -0.1734071386606316   0.6434672394710158   0.6683743426997244
   -0.8410958503200825   0.6422541649052212   0.5543591166039850
   -0.6631900596885177   0.8151996281273450   0.1701269298050687
   -0.3402501272969999   0.8110659729702415   0.1705174977111743
   -0.6626404488234339   0.1430366361112380   0.6700780425854896
   -0.3399466506974303   0.1447823393710752   0.6707564316528641
   -0.5034073755897072   0.3219063108009357   0.1787219782297189
   -0.5027740842083607   0.6354007378670190   0.6789002767364051
