Zn   Sb   N                             
   1.00000000000000     
    -0.0142933961979214   -0.0000884824272782   -5.5470050483448201
    -5.8702240854070471   -0.0914249008717414   -0.0001853146421434
    -0.1674829053711192   10.1457280830083025    0.0275658687276229
   Zn   Sb   N 
     8     4    12
Direct
  0.1773095668741255  0.6327942051496601  0.8361085681592020
  0.1716087681454323  0.6406555782952001  0.1704375621267846
  0.0427441757217999  0.1358266347056376  0.3340558292674626
  0.0472237957940082  0.1335382083931518  0.6697629708299290
  0.6770287485087966  0.3215346702960502  0.8361930193528251
  0.6168513458313976  0.3178363067330641  0.1755081347259924
  0.5465044353845218  0.8229273784198178  0.6705746458078335
  0.5450460106929131  0.8245539657402389  0.3379067865630930
  0.1703962885245402  0.1527186542194458  0.0024424969445692
  0.6728792854408463  0.8015126454586137  0.0027052033338458
  0.0515363441279839  0.6539580261295627  0.5034656614213429
  0.5506580674778926  0.3045309362850048  0.5040834207360063
  0.0466634695100369  0.8202647038003418  0.0024025662148046
  0.5471485392312541  0.1328913608486912  0.0005559124582351
  0.0972220115397978  0.3102560842810447  0.1686367118767405
  0.0538323242118985  0.3124063078076216  0.8416370552748788
  0.5572514272308290  0.6508326831266071  0.1655254204280715
  0.5545351593521061  0.6429704841621151  0.8422064091730308
  0.1690250906088920  0.8118935581485509  0.6644130916589781
  0.1674071319053200  0.8141704459450154  0.3433202849432575
  0.6695706246324086  0.1436349005084174  0.6636796985744113
  0.6681669900965845  0.1464298930471619  0.3424739275184385
  0.1767373747896120  0.3216374554469699  0.5037551764870403
  0.6770917189208078  0.6359386825656870  0.5038638124762955
 
             NaN             NaN             NaN
             NaN             NaN             NaN
             NaN             NaN             NaN
             NaN             NaN             NaN
             NaN             NaN             NaN
             NaN             NaN             NaN
             NaN             NaN             NaN
             NaN             NaN             NaN
             NaN             NaN             NaN
             NaN             NaN             NaN
             NaN             NaN             NaN
             NaN             NaN             NaN
             NaN             NaN             NaN
             NaN             NaN             NaN
             NaN             NaN             NaN
             NaN             NaN             NaN
             NaN             NaN             NaN
             NaN             NaN             NaN
             NaN             NaN             NaN
             NaN             NaN             NaN
             NaN             NaN             NaN
             NaN             NaN             NaN
             NaN             NaN             NaN
             NaN             NaN             NaN
