Zn   Sb   N                             
   1.00000000000000     
     0.0000110946248781   -0.0000085927750831   -5.4740169714249500
    -5.8204851417925179   -0.0378250983724408   -0.0000134394157513
    -0.0656448704792292   10.1018149907040566   -0.0000564164675003
   Zn   Sb   N 
     8     4    12
Direct
  0.0567506837270248  0.6411886868046270  0.8315339238451309
  0.0567497461890155  0.6411880446194330  0.1756103499153004
  0.0567508798802141  0.1411886660539018  0.3315339722804123
  0.0567495240325065  0.1411880618797717  0.6756104604952761
  0.5567505767122748  0.3159528771778639  0.8315345702538874
  0.5567496774674117  0.3159540323593817  0.1756110167466512
  0.5567495673983481  0.8159540143344189  0.6756110505154356
  0.5567507525962099  0.8159528928054423  0.3315346304011492
  0.0681244576702083  0.1566122950800121  0.0035709230202100
  0.5681243834455604  0.8005309458202929  0.0035711974481557
  0.0681244750567807  0.6566122877028060  0.5035709305940379
  0.5681244048513050  0.3005309487100559  0.5035711988579183
  0.1901978690747047  0.8201929092919498  0.0035704986569676
  0.6901979318370247  0.1369503703819846  0.0035708076843135
  0.1819163732008269  0.3110169792842136  0.1685659742576778
  0.1819171615103698  0.3110175529258933  0.8385756526255606
  0.6819163595329658  0.6461260629804144  0.1685661492123690
  0.6819172660940057  0.6461251039962425  0.8385760472531465
  0.1819163746589350  0.8110169832325298  0.6685659591260892
  0.1819171952362304  0.8110175804838918  0.3385756413182834
  0.6819163812817405  0.1461260493864819  0.6685661281437100
  0.6819173313251309  0.1461250854548940  0.3385760404151770
  0.1901979274551751  0.3201929248627712  0.5035705221711859
  0.6901979549992673  0.6369503760945427  0.5035708389963695
 
             NaN             NaN             NaN
             NaN             NaN             NaN
             NaN             NaN             NaN
             NaN             NaN             NaN
             NaN             NaN             NaN
             NaN             NaN             NaN
             NaN             NaN             NaN
             NaN             NaN             NaN
             NaN             NaN             NaN
             NaN             NaN             NaN
             NaN             NaN             NaN
             NaN             NaN             NaN
             NaN             NaN             NaN
             NaN             NaN             NaN
             NaN             NaN             NaN
             NaN             NaN             NaN
             NaN             NaN             NaN
             NaN             NaN             NaN
             NaN             NaN             NaN
             NaN             NaN             NaN
             NaN             NaN             NaN
             NaN             NaN             NaN
             NaN             NaN             NaN
             NaN             NaN             NaN
