Zn   Sb   N
1.0
  -10.144688647311 0.0839907588574862 -0.0002795163120643
  -0.0483669149945942 -5.841204485838383 -4.05776093922e-05
  -2.12069306928e-05 -0.0231532320502096 -5.48554140462283
 Zn  Sb  N 
8 4 12 
direct
   -0.8282357495264390   0.6419895099219561   0.0572762561508550
   -0.1789047825046351   0.6419905753613362   0.0572761148771430
   -0.3318483338420808   0.1414470612721315   0.0428085567835644
   -0.6752972321435672   0.1414462878857579   0.0428075091708016
   -0.8308927292130693   0.3129024015118249   0.5420678293925891
   -0.1762529413832700   0.3129029306055732   0.5420672791973261
   -0.6739287283132595   0.8181708027869408   0.5437504493135692
   -0.3332136099675351   0.8181709008849507   0.5437510384521120
   -0.0035718109280812   0.1595117382290500   0.0584777671145740
   -0.0035706087716204   0.7978383334618164   0.5953703551798949
   -0.5035708932561768   0.6562591642583142   0.0546857351488402
   -0.5035721117020006   0.3015984265745025   0.5550198579857325
   -0.0035704571395596   0.8169193229108925   0.1375583804662625
   -0.0035718691458064   0.1453486648469033   0.6770496356076207
   -0.1700961878364057   0.3101250593171414   0.1693372585640916
   -0.8370476365827082   0.3101249090051807   0.1693378135465050
   -0.1736703926165148   0.6413561035067440   0.6703671209920735
   -0.8334712078338292   0.6413559158884197   0.6703671719631642
   -0.6661671528645435   0.8132217389271209   0.1703464836662899
   -0.3409739843468194   0.8132217059761621   0.1703466971647488
   -0.6676494784760882   0.1460761635774847   0.6688050704525593
   -0.3394940009967173   0.1460758562157223   0.6688058025253838
   -0.5035717132664498   0.3210969698692757   0.1774621829131581
   -0.5035707551283612   0.6365632268199469   0.6776025750368619
