Zn   Sb   N                             
   1.00000000000000     
    -0.0176014627575887   -0.0000632541160587   -5.5239561819490701
    -5.8791156439718524   -0.0528552753539840   -0.0001310382548617
    -0.0747185097292129   10.1802261729355390   -0.0708221630297097
   Zn   Sb   N 
     8     4    12
Direct
  0.1728058519905820  0.6450266835825131  0.8353928970375407
  0.0481127514986140  0.6322077874358997  0.1853785590038535
  0.0426608947947446  0.1370459216078069  0.3324513964262478
  0.0440525352883906  0.1385608688306020  0.6725754756212906
  0.6024912915263947  0.3134503101561285  0.8285707510818420
  0.5505500531379821  0.3220590057261821  0.1838679978410168
  0.5476033291962481  0.8228727037388656  0.6678190620908423
  0.5415918496448077  0.8192622790564733  0.3307010295597799
  0.1719573708088082  0.1530064786567075  0.0020486957108222
  0.6760794987868762  0.8012810419393308  0.0004400825074534
  0.0542453474160424  0.6551625141526896  0.5037806814324536
  0.5531861407792318  0.3036644084462468  0.5025297846433082
  0.0507389172702178  0.8237952551119587  0.9998238764555422
  0.5510077589264092  0.1285112098788785  0.0018763821104886
  0.1686266255129282  0.3121259379416584  0.1756602681743719
  0.1135608207185874  0.3131852917610210  0.8359546430248869
  0.6683485894349481  0.6426261892702398  0.1738395863434549
  0.5603269438943782  0.6471820915134791  0.8399881121616579
  0.1693072732239299  0.8168138259772292  0.6625570140858454
  0.1701399059355993  0.8112065328481716  0.3406335101504824
  0.6700938393424395  0.1447024187233494  0.6630563182974897
  0.6706598639490952  0.1442120458764505  0.3407769243117476
  0.1779153551704097  0.3221522409218698  0.5033628899563516
  0.6783930719249192  0.6356006767670498  0.5026284280585961
 
             NaN             NaN             NaN
             NaN             NaN             NaN
             NaN             NaN             NaN
             NaN             NaN             NaN
             NaN             NaN             NaN
             NaN             NaN             NaN
             NaN             NaN             NaN
             NaN             NaN             NaN
             NaN             NaN             NaN
             NaN             NaN             NaN
             NaN             NaN             NaN
             NaN             NaN             NaN
             NaN             NaN             NaN
             NaN             NaN             NaN
             NaN             NaN             NaN
             NaN             NaN             NaN
             NaN             NaN             NaN
             NaN             NaN             NaN
             NaN             NaN             NaN
             NaN             NaN             NaN
             NaN             NaN             NaN
             NaN             NaN             NaN
             NaN             NaN             NaN
             NaN             NaN             NaN
