Zn   Sb   N
1.0
  10.204943526019838 -0.0746820032444854 -0.0466191146398489
  0.0529476066303902 5.8716820135018395 9.93770289473e-05
  4.85376011807e-05 0.0119479845971834 5.51051100988489
 Zn  Sb  N 
8 4 12 
direct
    0.8244961280135423  -0.6391236552148342  -0.0670089699170341
    0.1858184453785308  -0.6350305043879970  -0.0500220109147775
    0.3330755733106475  -0.1385435313842667  -0.0426971300695574
    0.6743960408542742  -0.1406256599101217  -0.0421247376692653
    0.8227828562198459  -0.3188882104028149  -0.5547942655718290
    0.1849231598048744  -0.3207690021246862  -0.5519644221630586
    0.6734697797850632  -0.8194035086240894  -0.5439988683586950
    0.3321093132360943  -0.8185590726873493  -0.5423893909341067
    0.0039516896417947  -0.1528885423284596  -0.1740896354057630
    0.0027168343942438  -0.8017905713827469  -0.6737921123212757
    0.5039508919330374  -0.6559085613313225  -0.0546161697278961
    0.5033349796705311  -0.3027624139312076  -0.5548260984409901
    0.0032264470323242  -0.8262639080573450  -0.0520178397717641
    0.0036041617188523  -0.1287687701811652  -0.5519470784926995
    0.1762641066450843  -0.3141236172021862  -0.1668501350072516
    0.8320095498737925  -0.3136168023211721  -0.1651359894609869
    0.1752560774915715  -0.6417506066063722  -0.6667937440297222
    0.8309725420917614  -0.6422590921902563  -0.6603263680566611
    0.6648734572766485  -0.8151558740870620  -0.1707589643383549
    0.3418493374365915  -0.8127845424047970  -0.1703226020117350
    0.6643922804660088  -0.1444076494300089  -0.6706785131908157
    0.3415024361307309  -0.1438574307287128  -0.6704795141637198
    0.5037654007374482  -0.3223232980638370  -0.1783665193288164
    0.5029728798355794  -0.6361094319407602  -0.6782851738449478
