Zn   Sb   N
1.0
  -10.15736048864961 0.0840953711848809 -0.0002777905648308
  -0.0484320055248672 -5.849042341835228 -5.41467062126e-05
  -2.75140084977e-05 -0.0225755550881467 -5.49130362122176
 Zn  Sb  N 
8 4 12 
direct
   -0.8263889523365699   0.6407918932631742   0.0609736426260285
   -0.1807521227852367   0.6407935224874987   0.0609728627287257
   -0.3320004744032151   0.1413061685519529   0.0424221389949005
   -0.6751444685747047   0.1413054618212943   0.0424213014936875
   -0.8310249316956474   0.3124372637329604   0.5413997879285284
   -0.1761207523352963   0.3124382710695227   0.5413993709142874
   -0.6737830262686608   0.8186178634745803   0.5434922269816747
   -0.3333590763973928   0.8186181430968102   0.5434926474084194
   -0.0035720279257232   0.1626623646071710   0.0580457337418140
   -0.0035709076239565   0.7967595665895159   0.6444664691094731
   -0.5035706212740069   0.6560217013782070   0.0543939767022918
   -0.5035717927310951   0.3016209585661714   0.5551051532229545
   -0.0035707495502147   0.8169758627926149   0.0947048801296740
   -0.0035722449660864   0.1506456729209532   0.6743569493240281
   -0.1705672586782125   0.3098091513314201   0.1691027280317210
   -0.8365766415701767   0.3098084474986741   0.1691032605155402
   -0.1759312318298095   0.6391453446876899   0.6669828804630341
   -0.8312105671933580   0.6391448277167976   0.6669830806586365
   -0.6657231801516867   0.8135714218286070   0.1703421872170327
   -0.3414181470310777   0.8135715399107912   0.1703424533580137
   -0.6675507565184585   0.1460106653586828   0.6685553670992953
   -0.3395926486399570   0.1460103992471924   0.6685560376027739
   -0.5035713516456631   0.3212439373554475   0.1775373667329203
   -0.5035704356593542   0.6364033203273955   0.6775924386802502
