Zn   Sb   N                             
   1.00000000000000     
    -0.0147625620069070   -0.0000506399604490   -5.5124317487512000
    -5.8755554137541086   -0.0549818527430734   -0.0001039000612208
    -0.0711771479919292   10.2014589873333534   -0.0556694399501461
   Zn   Sb   N 
     8     4    12
Direct
  0.0862760739132435  0.6412819504649585  0.8267535096773549
  0.0492984098592617  0.6343896012939827  0.1859149933820630
  0.0425507135718639  0.1382281545491214  0.3331469911124722
  0.0413692353732391  0.1409854078258981  0.6741395331490816
  0.5570152745602790  0.3167842780118572  0.8234996538430489
  0.5523587359158139  0.3210146216845158  0.1846494564664353
  0.5446160030531368  0.8207437947940058  0.6725205393465027
  0.5422310375686217  0.8187640128280854  0.3318056389310112
  0.1742380427659948  0.1523264700948049  0.0040928257483279
  0.6734711432078768  0.8009831301183346  0.0021374417223483
  0.0539927166965010  0.6558274051638519  0.5039132554914284
  0.5543683935984604  0.3032538717818360  0.5031576791664751
  0.0520759535239604  0.8253933542417682  0.0024942587916341
  0.5522464812726682  0.1284386476578029  0.0037750093723780
  0.1670654778878313  0.3137156981663934  0.1763901835210790
  0.1624742447244328  0.3122709386384724  0.8322809823615044
  0.6674324635804848  0.6418763524469094  0.1750841364615472
  0.6445199002720823  0.6431174795398219  0.8318681588316572
  0.1700362226014795  0.8161336340649866  0.6643334435284566
  0.1701770517711780  0.8125245450422490  0.3417654152947944
  0.6704064316335766  0.1448941881321812  0.6640288353224985
  0.6703356458471960  0.1439599583586127  0.3413808623244662
  0.1780318046757605  0.3225464790478186  0.5037956472711820
  0.6778684222976482  0.6362597459725411  0.5027859149696621
 
             NaN             NaN             NaN
             NaN             NaN             NaN
             NaN             NaN             NaN
             NaN             NaN             NaN
             NaN             NaN             NaN
             NaN             NaN             NaN
             NaN             NaN             NaN
             NaN             NaN             NaN
             NaN             NaN             NaN
             NaN             NaN             NaN
             NaN             NaN             NaN
             NaN             NaN             NaN
             NaN             NaN             NaN
             NaN             NaN             NaN
             NaN             NaN             NaN
             NaN             NaN             NaN
             NaN             NaN             NaN
             NaN             NaN             NaN
             NaN             NaN             NaN
             NaN             NaN             NaN
             NaN             NaN             NaN
             NaN             NaN             NaN
             NaN             NaN             NaN
             NaN             NaN             NaN
