Zn   Sb   N
1.0
  10.21127609475727 -0.0845563114532306 -0.0002907015872265
  0.0484971441530032 5.857940371494671 8.58079321269e-05
  4.22305233758e-05 -0.012997460927039 5.50474879328595
 Zn  Sb  N 
8 4 12 
direct
    0.8216378757641460  -0.6379825411462099  -0.0534297973054897
    0.1855077090573120  -0.6379814083435084  -0.0534283090634301
    0.3338719740794612  -0.1386585545560040  -0.0410445515394238
    0.6732717396998219  -0.1386586923862005  -0.0410443588835831
    0.8270748407002178  -0.3155254986770851  -0.5538218755587413
    0.1800660199156380  -0.3155261292088045  -0.5538221022009564
    0.6750959874456389  -0.8174453088916691  -0.5436141249186762
    0.3320457230151511  -0.8174481493104138  -0.5436139045713734
    0.0035716724097253  -0.1598048110633027  -0.1387298036404254
    0.0035713289045483  -0.8045337014233748  -0.6734485860440345
    0.5035720404774521  -0.6549687590785959  -0.0544419598143162
    0.5035708065304835  -0.3014049994245729  -0.5546637592025554
    0.0035720493472402  -0.8206408998571916  -0.0610917404143125
    0.0035708094862138  -0.1421844219063758  -0.5938149270660760
    0.1759695050147968  -0.3134849135149509  -0.1672467441279900
    0.8311735450919575  -0.3134850996645593  -0.1672465550891781
    0.1755718098057842  -0.6412136009636772  -0.6663494885098112
    0.8315712857485815  -0.6412131618081558  -0.6663499613662863
    0.6648201198211992  -0.8134824627048410  -0.1710162274583013
    0.3423236652641095  -0.8134828596440800  -0.1710164843055259
    0.6658439024097541  -0.1447941971715586  -0.6689001756175623
    0.3412975367065946  -0.1447956834159470  -0.6689005043645393
    0.5035713898181837  -0.3210450372926524  -0.1777489092319721
    0.5035710312714815  -0.6359528781612425  -0.6779600913711286
