Zn   Sb   N
1.0
  10.130505081372561 -0.0838723521022623 0.0002790374238715
  0.0483011554606314 5.83319258080352 3.15315448452e-05
  1.70022121563e-05 0.0224686020793506 5.4816999268902
 Zn  Sb  N 
8 4 12 
direct
    0.8294346675138202  -0.6421376753732021  -0.0528770758086094
    0.1777055950535535  -0.6421385149478377  -0.0528770747127813
    0.3318108881131991  -0.1415508149884667  -0.0431036033545117
    0.6753350953108886  -0.1415500348576327  -0.0431023653433031
    0.8309777672995586  -0.3139778451102501  -0.5433362370249656
    0.1761682145494250  -0.3139786992891527  -0.5433356581550851
    0.6744478389057399  -0.8174264362228081  -0.5442849970428982
    0.3326945051057241  -0.8174263462763923  -0.5442857864551153
    0.0035719129911317  -0.1577741617941159  -0.0574682175702632
    0.0035708161440726  -0.7986564307989747  -0.5679292168125279
    0.5035706408897014  -0.6565426002934296  -0.0548664693565364
    0.5035720515812632  -0.3015055038985104  -0.5551034206141224
    0.0035702939137372  -0.8176856557333186  -0.1666036724416879
    0.0035717625701360  -0.1403479013951380  -0.6779641309900171
    0.1694572152091151  -0.3099926339201048  -0.1695951549743751
    0.8376865686801418  -0.3099927625467918  -0.1695957080953517
    0.1711501653773390  -0.6437813209665267  -0.6713058146934083
    0.8359910472332996  -0.6437810390818266  -0.6713058537698364
    0.6667957159215528  -0.8127483698244804  -0.1703020302215461
    0.3403453609489678  -0.8127481512943610  -0.1703022740254301
    0.6677931248736801  -0.1461241144722909  -0.6690378576724935
    0.3393505216314059  -0.1461238011713144  -0.6690386424401742
    0.5035718105375846  -0.3209652056247281  -0.1774651183801086
    0.5035707874304932  -0.6367577497334275  -0.6776585617105534
