Zn   Sb   N
1.0
  -10.217061091802282 0.0846623792206875 -1.36279138076e-05
  -0.0484759869661773 -5.858327519993986 -9.48539966739e-05
  -4.64352419124e-05 0.0098151535935579 -5.50859027101857
 Zn  Sb  N 
8 4 12 
direct
   -0.8216350738222039   0.6366372371842666   0.0528884383605605
   -0.1854887796767767   0.6366656123676041   0.0529866418061142
   -0.3332006114934242   0.1389237786551102   0.0419453191203951
   -0.6739407017198216   0.1389086893040928   0.0419479830925892
   -0.8237017426063870   0.3191357304056113   0.5542213829216072
   -0.1834357932498457   0.3191245997844343   0.5542408094540272
   -0.6748228716421615   0.8175481699451806   0.5431855170854728
   -0.3323298263262480   0.8175556983353471   0.5431972199373242
   -0.0035688482223533   0.1548910224850952   0.1719906245993945
   -0.0035773390176146   0.8044921805653609   0.6756789746838556
   -0.5035689877551762   0.6551258041388519   0.0548898724819777
   -0.5035727249149717   0.3014916034294853   0.5545978034991352
   -0.0035734374198099   0.8251468318633514   0.0557320139315366
   -0.0035706591313903   0.1343322088010320   0.5593128357422695
   -0.1760452501113371   0.3142011963366045   0.1669504648941158
   -0.8310896900294272   0.3142029359796307   0.1669591758515166
   -0.1754662515927855   0.6424949763650165   0.6669296718705466
   -0.8316851220175508   0.6424928142051238   0.6669533321002211
   -0.6649408437060580   0.8133802312344292   0.1709752990373383
   -0.3422048698250520   0.8133976416760098   0.1709803514772519
   -0.6654322882125846   0.1443143174709046   0.6699375340655622
   -0.3417174809362984   0.1443196282522446   0.6699398162430199
   -0.5035698179653053   0.3210721230688093   0.1780670001583302
   -0.5035753570032200   0.6358588668139684   0.6783064789217242
