Zn   Sb   N
1.0
  10.103676620586196 -0.0313360017678455 -4.64315123355e-05
  0.0180553629381763 5.82155554408927 4.3933512044e-06
  4.3880565465e-06 5.2392611e-08 5.47017549369233
 Zn  Sb  N 
8 4 12 
direct
    0.8315197755792186  -0.6411814226913686  -0.0646599810475546
    0.1756246073821801  -0.6411809257506330  -0.0646587360342791
    0.3315196890193555  -0.1411814343420202  -0.0646598843053120
    0.6756246135629744  -0.1411809265297325  -0.0646587417667422
    0.8315203977006002  -0.3159605563684084  -0.5646598613238326
    0.1756251558668420  -0.3159617381436737  -0.5646588915557537
    0.6756251931021990  -0.8159617221918989  -0.5646588745423631
    0.3315204738053684  -0.8159605765442676  -0.5646599456457789
    0.0035709220583147  -0.1566417103155413  -0.0759766010805007
    0.0035712086707514  -0.8005015206989390  -0.5759767499963003
    0.5035709168713324  -0.6566417062149427  -0.0759765698042155
    0.5035712129630837  -0.3005015213675867  -0.5759767202657377
    0.0035704844922137  -0.8202173519712183  -0.1978773763410161
    0.0035708497582330  -0.1369259603460225  -0.6978772543316057
    0.1685597273197631  -0.3110167068228405  -0.1896733565394391
    0.8385818522127192  -0.3110172410800386  -0.1896742332504398
    0.1685600348678283  -0.6461263608803114  -0.6896734850386796
    0.8385822468348064  -0.6461253957721180  -0.6896744394812802
    0.6685597268368512  -0.8110167087832340  -0.1896733479066625
    0.3385818478915761  -0.8110172442741886  -0.1896742260262730
    0.6685600183257915  -0.1461263510927351  -0.6896735038067318
    0.3385822471359833  -0.1461253825075839  -0.6896744333479236
    0.5035704713868948  -0.3202173666911898  -0.1978773871765819
    0.5035708545230771  -0.6369259658258430  -0.6978772234418747
