Zn   Sb   N                             
   1.00000000000000     
     0.0000037772506418   -0.0000064904158148   -5.4720962325586404
    -5.8210449995581541   -0.0270802481588137   -0.0000089163834778
    -0.0469980991996075   10.1027886165834264   -0.0000366593621538
   Zn   Sb   N 
     8     4    12
Direct
  0.0607005087766994  0.6411850570374440  0.8315272383353320
  0.0606986870144607  0.6411846248962582  0.1756168909772656
  0.0607003831983934  0.1411850838203509  0.3315272863603805
  0.0606987541674152  0.1411845789509067  0.6756170195652643
  0.5607001837296014  0.3159570280568951  0.8315278737009307
  0.5606978292103312  0.3159581646679936  0.1756177647350972
  0.5606980792879935  0.8159581994527308  0.6756177844450809
  0.5607000003368440  0.8159570092646830  0.3315279235585174
  0.0720211926025693  0.1566281414564152  0.0035708283210909
  0.5720215112740444  0.8005149771554998  0.0035711453631834
  0.0720211957741859  0.6566281462270159  0.5035708729440560
  0.5720215304039614  0.3005149719880520  0.5035711724153528
  0.1940063985911396  0.8202056483691174  0.0035704735671677
  0.6940062487655917  0.1369375647144894  0.0035708886937955
  0.1857737769546276  0.3110153222921460  0.1685617019701993
  0.1857750209179296  0.3110158342834491  0.8385799158272148
  0.6857740380859653  0.6461276111222037  0.1685620226346017
  0.6857752724971178  0.6461268446578883  0.8385802532468439
  0.1857737702618388  0.8110154199818022  0.6685617099663843
  0.1857750312904519  0.8110158418770420  0.3385799430420437
  0.6857741245211653  0.1461275509412200  0.6685620075643739
  0.6857752916131945  0.1461268136479821  0.3385802817931954
  0.1940064347531830  0.3202056539229463  0.5035705694035228
  0.6940062308300694  0.6369375837017447  0.5035709458245382
 
             NaN             NaN             NaN
             NaN             NaN             NaN
             NaN             NaN             NaN
             NaN             NaN             NaN
             NaN             NaN             NaN
             NaN             NaN             NaN
             NaN             NaN             NaN
             NaN             NaN             NaN
             NaN             NaN             NaN
             NaN             NaN             NaN
             NaN             NaN             NaN
             NaN             NaN             NaN
             NaN             NaN             NaN
             NaN             NaN             NaN
             NaN             NaN             NaN
             NaN             NaN             NaN
             NaN             NaN             NaN
             NaN             NaN             NaN
             NaN             NaN             NaN
             NaN             NaN             NaN
             NaN             NaN             NaN
             NaN             NaN             NaN
             NaN             NaN             NaN
             NaN             NaN             NaN
