Zn   Sb   N                             
   1.00000000000000     
    -0.0171725962545622   -0.0000821753494734   -5.5412428317458797
    -5.8777946457679828   -0.0442765715738659   -0.0001717455453229
    -0.1021386802071608   10.1546578283139208    0.0078477403010867
   Zn   Sb   N 
     8     4    12
Direct
  0.1775217462360702  0.6322938202796599  0.8358216575949964
  0.1695630367907515  0.6461081301262828  0.1704728052807376
  0.0400262454684728  0.1389344962000543  0.3324112615835785
  0.0471460443338805  0.1335965138937744  0.6692562133484072
  0.6756952285251483  0.3202537551043785  0.8358099154807980
  0.5604062645256409  0.3137830380945025  0.1804828534556993
  0.5467727515979575  0.8226752836659903  0.6705965461993775
  0.5466766525890366  0.8258814368026878  0.3379920758428470
  0.1713645547925492  0.1502138894267540  0.0004749554640632
  0.6716696104051657  0.7999661072794387  0.0021446962993020
  0.0521921345651809  0.6547311421638142  0.5035031157477968
  0.5518132507974324  0.3049203232633447  0.5040223079358199
  0.0459350431679130  0.8191518552200518  0.0023141805237638
  0.5476171371211997  0.1301137491385146  0.9972217064084488
  0.1520715504754886  0.3062857920729845  0.1726149346472272
  0.0524484384061470  0.3128540189333053  0.8417210132296918
  0.5598363264304166  0.6538121495783094  0.1662071446282793
  0.5544714973110723  0.6413559231581326  0.8417666867482662
  0.1687974328780340  0.8120531262022602  0.6645586752410357
  0.1673791374238040  0.8163270406609249  0.3436693289756310
  0.6698671459651759  0.1431036502583080  0.6632146189431234
  0.6702374920549530  0.1486290536816877  0.3415934183617876
  0.1774506077881020  0.3224030270728076  0.5038023053298117
  0.6774793570400681  0.6362664472047491  0.5040419490699711
 
             NaN             NaN             NaN
             NaN             NaN             NaN
             NaN             NaN             NaN
             NaN             NaN             NaN
             NaN             NaN             NaN
             NaN             NaN             NaN
             NaN             NaN             NaN
             NaN             NaN             NaN
             NaN             NaN             NaN
             NaN             NaN             NaN
             NaN             NaN             NaN
             NaN             NaN             NaN
             NaN             NaN             NaN
             NaN             NaN             NaN
             NaN             NaN             NaN
             NaN             NaN             NaN
             NaN             NaN             NaN
             NaN             NaN             NaN
             NaN             NaN             NaN
             NaN             NaN             NaN
             NaN             NaN             NaN
             NaN             NaN             NaN
             NaN             NaN             NaN
             NaN             NaN             NaN
