Zn   Sb   N
1.0
  -10.19938776575704 0.0689699086954545 0.0599744206426195
  -0.0562671301531095 -5.877876531741296 -0.0001084230934943
  -5.27423197172e-05 -0.0162832465582761 -5.51435248761751
 Zn  Sb  N 
8 4 12 
direct
   -0.8284577941727990   0.6428011743245611   0.1052974560846978
   -0.1859393362561025   0.6340093101437477   0.0488635609245455
   -0.3331614446575049   0.1380450044553448   0.0425040317363989
   -0.6739671999918156   0.1411063601104177   0.0409995268794055
   -0.8239690362738874   0.3151172752806520   0.5588830352983313
   -0.1844668212933487   0.3211764096599521   0.5525621495633428
   -0.6716739017376625   0.8217763802933998   0.5452798449058478
   -0.3315894035972440   0.8188510856160336   0.5421563004104880
   -0.0041247301255755   0.1519641306132115   0.1742646539978021
   -0.0016936603956426   0.8004997221178071   0.6734515590307486
   -0.5038501537307246   0.6557371489778562   0.0536744449447269
   -0.5030304969269669   0.3035281874877601   0.5541017628654181
   -0.0018315037095589   0.8246803163677947   0.0520411086946214
   -0.0038854944698152   0.1282146432880941   0.5524161012451240
   -0.1764296045720302   0.3134552048972273   0.1672288285428343
   -0.8324529431179433   0.3112345190719796   0.1600780457700900
   -0.1749187696849994   0.6419940449256666   0.6678877824211562
   -0.8331265424811591   0.6441984277328728   0.6269233814844617
   -0.6638477878571853   0.8167785487088671   0.1694685374151350
   -0.3416720506484694   0.8123611993945326   0.1701374282204614
   -0.6638088888811821   0.1452362591459406   0.6703485843478522
   -0.3413150542652051   0.1440080397673345   0.6703071662613056
   -0.5038002383146771   0.3226412577659262   0.1778922932000979
   -0.5027015089258643   0.6362990697738254   0.6776882959276873
