Zn   Sb   N
1.0
  -10.192743926265944 0.066437002043297 0.0636657217459737
  -0.0577291437160396 -5.881830258476998 -0.0001219921903147
  -5.90493975221e-05 -0.0183415375065748 -5.52011470421645
 Zn  Sb  N 
8 4 12 
direct
   -0.8336245770191593   0.6466469232307964   0.1621859739767682
   -0.1858448214436442   0.6328247281158764   0.0479945502028685
   -0.3330581860821580   0.1374518250893506   0.0426382369554940
   -0.6736082372421717   0.1406686333984127   0.0414220061614112
   -0.8250767885718282   0.3114652116766072   0.5659363266080768
   -0.1840549492672269   0.3214322678453604   0.5523283019521519
   -0.6686245405058810   0.8237277012859358   0.5476648230389880
   -0.3309268739699379   0.8190398836278668   0.5417915319451289
   -0.0036487285697084   0.1513562831116828   0.1731889262423698
   -0.0007294503108479   0.8002525785285464   0.6750849761561051
   -0.5037880902183450   0.6556328838942930   0.0539545911178945
   -0.5026409831740000   0.3039682796104117   0.5535213448899188
   -0.0001419443385541   0.8229318406904642   0.0510425817232010
   -0.0039463351453889   0.1273575954990158   0.5521848768081017
   -0.1762875958035886   0.3126273448328021   0.1677294800925026
   -0.8330749598281347   0.3095536959829585   0.1505471467705006
   -0.1741365674463465   0.6421715917494638   0.6682904102143828
   -0.8382117934073573   0.6482071486729218   0.5710369954220622
   -0.6625558271139738   0.8179226343433601   0.1687081421743350
   -0.3410524844466264   0.8117080564965162   0.1700619445036421
   -0.6634238293796944   0.1459958617110075   0.6707783696908873
   -0.3411246378477102   0.1440367077378274   0.6704779876788398
   -0.5036001498971501   0.3226482281966508   0.1778957278254110
   -0.5025320150579550   0.6360858145926626   0.6779906280215422
