supercell of POSCAR                     
   1.01800000000000     
     3.1310994802600001   -5.4896946145000003   10.0244832682999991
    -9.4821132118399998   -5.5089477087900001    0.0170740616273000
     6.3359946057599998  -11.0114127993000004  -10.0652216442999993
   Al   Gd   N 
    84    12    95
Direct
  0.0881683452335054  0.5864331884739542  0.3348961665465779
  0.4997021048145953  0.3223284387084462  0.2555250852554707
  0.0844422881771791  0.0845149600215152  0.3339393667622517
  0.2509391612824601  0.5800368597518499  0.4940384366679851
  0.3322071261340866  0.3182585345293276  0.0790493337400093
  0.4171824734313390  0.0865286525345113  0.1697713152487168
  0.0065145758077847  0.8433270191354580  0.2549490243260522
  0.1584658547454580  0.3333099858334734  0.4134560788156136
  0.2471578772811682  0.0868745146965395  0.4962786026279105
  0.1612825259915169  0.8370811820683031  0.4162850324863001
  0.3363861792918925  0.6741850053315090  0.3398062216955040
  0.1544956426374000  0.6746239495902557  0.1654920397118431
  0.2506164033404588  0.4023893993674079  0.2566075642815662
  0.3362916256611044  0.1512188675408694  0.3323627851927640
  0.0057227483452706  0.6737400085210297  0.4949016312349741
  0.1673226758462363  0.1588689476582914  0.1695030057096858
  0.2521850382580269  0.9177113995331965  0.2552523680783807
  0.4144704512935036  0.4201413513617069  0.4154908017009333
  0.4988230801742617  0.1612604512961298  0.4961691492811227
  0.0835737794917506  0.9239457612222850  0.0795967034484377
  0.4202357206773755  0.9175519030949957  0.4120180064301451
  0.0899137099330218  0.5853941815640269  0.8349024311562303
  0.5000846320646986  0.3229228625668199  0.7552837904774847
  0.0865266337047075  0.0855637802347147  0.8344874830463951
  0.2520674286175435  0.5787242407721891  0.9949864526651879
  0.3314095879678263  0.3178171115559465  0.5772662965781237
  0.4172163105488877  0.0875196443409862  0.6710334894291918
  0.0078216300389542  0.8438445550767639  0.7552814584825072
  0.1685429558414313  0.3325130580038618  0.9126240293073593
  0.2481662570159315  0.0870342556387271  0.9959002495275726
  0.1627022428220712  0.8371190310828425  0.9162908754637442
  0.3372452178211702  0.6741047540233609  0.8404037295771900
  0.1545962115374735  0.6750947746686435  0.6661778310241573
  0.2506143078766243  0.4022435788191103  0.7522749355383596
  0.3348098349757862  0.1645743315920001  0.8341590373235661
  0.0072960281152277  0.6729085028914454  0.9944398491059943
  0.1670426015326569  0.1594282128077609  0.6695711025424416
  0.2531799580041323  0.9206763352386886  0.7560390868459308
  0.4132422034313592  0.4152950118089223  0.9156212769378129
  0.4990203266585667  0.1623129285745293  0.9968160875744729
  0.0828204706025630  0.9239366528016077  0.5799344155438177
  0.4205816371395841  0.9203982945566409  0.9117312887199773
  0.5892241884101921  0.5865697389073929  0.3341821285155433
  0.9981778543715123  0.3221107861353261  0.2556176484929722
  0.5870131389025346  0.0843989183475813  0.3347066218119750
  0.7511419916971960  0.5796455623074834  0.4949768775395782
  0.8328718697545554  0.3185138860050074  0.0778833987437864
  0.9168360039069299  0.0870104119599162  0.1706571868648368
  0.5071888938461271  0.8435821020447847  0.2547469242595852
  0.6679047063292813  0.3321362371412278  0.4124400589194792
  0.7476382287769567  0.0873245648510661  0.4962629885422771
  0.6623191990700832  0.8372339751882834  0.4161339480547923
  0.8361900263788229  0.6739066812347758  0.3400251606045330
  0.6543684012509203  0.6754798415029910  0.1654178532256694
  0.7498205138403051  0.4023135261076902  0.2519642812322829
  0.8337531883494904  0.1641316431616318  0.3340947157763594
  0.5074409524452150  0.6738730991847106  0.4952685494689320
  0.6671824346772581  0.1593342761158709  0.1691176263948577
  0.7526385137439178  0.9201596649991117  0.2554560968895103
  0.9100719671905324  0.4159389527295616  0.4161871321104158
  0.9976692101099900  0.1615376649599298  0.4974534759655924
  0.5834801464976351  0.9240157277079817  0.0794384982440306
  0.9195712589174860  0.9199316303019955  0.4117836889952144
  0.5897584836520409  0.5855931020249372  0.8346367307311837
  0.0003281346190676  0.3231056103146841  0.7556422282834845
  0.5862727706056248  0.0857083937179084  0.8343792105553476
  0.7524270753547029  0.5793512363349578  0.9942490912985988
  0.8325587970179740  0.3189827167341619  0.5786706044776153
  0.9174637726811028  0.0873982737774384  0.6713138368533365
  0.5075584334895140  0.8439577399739022  0.7551539069021374
  0.6687743762949694  0.3325618219255020  0.9118249477900946
  0.7479923083432567  0.0875008860690869  0.9957241273888684
  0.6623872406517890  0.8373063804072345  0.9160441034525917
  0.8374545124770876  0.6743005733830358  0.8403386468932510
  0.6548150878953862  0.6751553400975467  0.6659773840853660
  0.7507842582372106  0.4026155927297737  0.7521251179099764
  0.8350335498490509  0.1645458811291221  0.8340839324057470
  0.5070161226074035  0.6733596855431401  0.9943450463672505
  0.6674722249689324  0.1596366102987830  0.6695519802455010
  0.7530936412917413  0.9206508196685732  0.7560439483836987
  0.9136665458779234  0.4153181370509103  0.9156122771747164
  0.9993001894735158  0.1620001251766254  0.9967672885502594
  0.5828645701113686  0.9244366347079875  0.5801001767746996
  0.9207518762190645  0.9202422671122079  0.9117505443845033
  0.3983606079994360  0.5778109378929415  0.1787064668489577
  0.3328253707328912  0.8355257713443578  0.0833308764584260
  0.0837337139997985  0.4175779551449921  0.0869202534373272
  0.3981354399390966  0.5797669437736275  0.6788585189502143
  0.3307470357456594  0.8361705363432037  0.5839562113799204
  0.0829399906021706  0.4202703729990702  0.5853913113091522
  0.8977026745652381  0.5797903189297529  0.1780036657345647
  0.8321425852190245  0.8366784091351960  0.0828278166550120
  0.5839556449265899  0.4196003963229629  0.0843698768561225
  0.8975947804082267  0.5806115818026782  0.6788811649299547
  0.8314596777702477  0.8375985248564604  0.5836317135058238
  0.5806377222937300  0.4173974333277144  0.5842803351060795
  0.2179713208561154  0.5808453904678075  0.2683697000328067
  0.0335568194394611  0.6095265201636622  0.1005524183363349
  0.1316080829627211  0.3162881638467141  0.2044868609870036
  0.2114522520276552  0.0811786711072884  0.2721414654720533
  0.3818039605682131  0.5853136436651454  0.4373766251659603
  0.4492718652032153  0.3201991765846799  0.0114730678142223
  0.0409759123167319  0.0862602004274251  0.1040758402087221
  0.1318131717418396  0.8420298710931462  0.1861020759289289
  0.3762594379934114  0.0799162724361082  0.4350892883178332
  0.4764017449265410  0.8380942189340317  0.0078979309883280
  0.2921594187316288  0.8350752329766067  0.3565181491817171
  0.4703997577258292  0.6853919774421442  0.2863623530772159
  0.2642427586738165  0.6544497221852552  0.0959732741465871
  0.3715495886616438  0.3801618959964870  0.1886209808714412
  0.4615198290440148  0.1623543057221752  0.2743620085677634
  0.1334411719798112  0.6660746127147021  0.4332956798046155
  0.2246117498939952  0.4119308614637944  0.0101159282566954
  0.2899534665756107  0.1576455744091447  0.1024063429185063
  0.3840882034877779  0.9284028095773991  0.2021032627853359
  0.0405725125214929  0.4206026622586734  0.3516167947135358
  0.1272228646821034  0.1711917550781550  0.4334914628189708
  0.1975473295454719  0.9318501581344023  0.0106561842003714
  0.0481062339345328  0.9239506283357599  0.3524642158870250
  0.2188108179853927  0.5813950930389211  0.7666095347084934
  0.0327651590060256  0.6113413557641820  0.6008572766507569
  0.1303193903265765  0.3179589584603875  0.7000649428811698
  0.2128033185286498  0.0832549999864582  0.7721132218871816
  0.3824363338320538  0.5839798269076724  0.9375695715132295
  0.4457224291174597  0.3189891431766867  0.5066147159710965
  0.0406787763035013  0.0861714310489745  0.6035127970453829
  0.1328263874796107  0.8429673383148142  0.6856431123144162
  0.2968568968035186  0.3301202171588073  0.8524078378924571
  0.3772506729408889  0.0813319588775130  0.9352806207320299
  0.4751092197026736  0.8380102943238583  0.5086843367582574
  0.2932032555034425  0.8356478564004703  0.8564820526405796
  0.4717143532188501  0.6855922523501405  0.7867564772408286
  0.2632539096565836  0.6538327431364834  0.5949018298695918
  0.3744608380093410  0.3820969070293572  0.6839138294529832
  0.4621099215968414  0.1632551824303548  0.7738407635794715
  0.1353027351495868  0.6658094237185921  0.9334608036049019
  0.2245449327278664  0.4115420748047640  0.5058608036927481
  0.2896653726962199  0.1577675825892442  0.6014316644612805
  0.3847774122347616  0.9284082954212849  0.7017372586209447
  0.0436991307509658  0.4199543251798019  0.8521646526445394
  0.1274875682914995  0.1711852494079409  0.9347231003844669
  0.1961765873119177  0.9322769206055881  0.5100370557605842
  0.0494358241169621  0.9244708792037457  0.8527010351232676
  0.7175721291529342  0.5811962100827159  0.2666836561917094
  0.5325847830794714  0.6110066678355182  0.1007225648795540
  0.6290685541769534  0.3175160827352386  0.2004570978415288
  0.7119285053767541  0.0827982674768535  0.2720843446490377
  0.8814314640689034  0.5843667695527586  0.4373989133896359
  0.9505528048481793  0.3200482996995788  0.0109556879190436
  0.5406158694784651  0.0859390980572172  0.1037457346457629
  0.6317664607224955  0.8428918708034914  0.1858092936429330
  0.7954718669595096  0.3300367050388004  0.3521977298976111
  0.8766436428252788  0.0811343996777225  0.4351434899136848
  0.9766797822252471  0.8378530862106217  0.0080764741162582
  0.7923686394793137  0.8354936308229810  0.3562530194200022
  0.9704952833115499  0.6851759858978070  0.2865289243015070
  0.7634133430883452  0.6555234811543968  0.0949235555348196
  0.8739238116034116  0.3822334781059027  0.1853274343782942
  0.9610182016527276  0.1624813712003430  0.2741055044042255
  0.6338636745893140  0.6659931845770899  0.4330139148969820
  0.7255754752791290  0.4122873764821335  0.0088017104775986
  0.7900472007990018  0.1579595098729882  0.1019652480521316
  0.8842498473693610  0.9280413037597697  0.2016655437388337
  0.5415512464517249  0.4199858083549088  0.3517545530391573
  0.6266554414345080  0.1711965347304911  0.4343470548145376
  0.6968367713720838  0.9325138484999727  0.0101172388565587
  0.5481424381110713  0.9238587186623874  0.3526221145310657
  0.7187515464601830  0.5817312254838356  0.7666474336675080
  0.5336271083870088  0.6095805078958279  0.6005990075308247
  0.6302215414254064  0.3182545975127624  0.6999303777725530
  0.7126782522565307  0.0833229304330487  0.7721421646246043
  0.8828419895279538  0.5842078483446898  0.9373130264492318
  0.9500981018096937  0.3202336483039261  0.5104098345892751
  0.5402379633051453  0.0872704323500670  0.6031964909656509
  0.6322849568849236  0.8431526050449207  0.6856910884499854
  0.7971053012645939  0.3300699236480966  0.8521425466714661
  0.8773382976996231  0.0811916486630011  0.9352576554467191
  0.9755260240065553  0.8383927490794179  0.5080550545151254
  0.7931687312623694  0.8356784298513347  0.8565430704320960
  0.9721329476875979  0.6855699591197464  0.7869463245984747
  0.7636048639911905  0.6563678028403217  0.5949793197034623
  0.8750743648895138  0.3829612385227605  0.6851805943934224
  0.9625323785635231  0.1632118537580638  0.7740323234257147
  0.6348398172008274  0.6658912851503089  0.9331621156972929
  0.7242081571579249  0.4122124638173688  0.5092491156446641
  0.7903634555185306  0.1579845800449675  0.6019539857690646
  0.8849804037487772  0.9283609682410230  0.7021789223048103
  0.5431141649281130  0.4200030305334366  0.8518448448704632
  0.6270524125040282  0.1717275559282498  0.9345522478975070
  0.6957827891123927  0.9325741648003785  0.5100158138637809
  0.5490653564275760  0.9246457912336012  0.8525005828142511
 
  0.00000000E+00  0.00000000E+00  0.00000000E+00
  0.00000000E+00  0.00000000E+00  0.00000000E+00
  0.00000000E+00  0.00000000E+00  0.00000000E+00
  0.00000000E+00  0.00000000E+00  0.00000000E+00
  0.00000000E+00  0.00000000E+00  0.00000000E+00
  0.00000000E+00  0.00000000E+00  0.00000000E+00
  0.00000000E+00  0.00000000E+00  0.00000000E+00
  0.00000000E+00  0.00000000E+00  0.00000000E+00
  0.00000000E+00  0.00000000E+00  0.00000000E+00
  0.00000000E+00  0.00000000E+00  0.00000000E+00
  0.00000000E+00  0.00000000E+00  0.00000000E+00
  0.00000000E+00  0.00000000E+00  0.00000000E+00
  0.00000000E+00  0.00000000E+00  0.00000000E+00
  0.00000000E+00  0.00000000E+00  0.00000000E+00
  0.00000000E+00  0.00000000E+00  0.00000000E+00
  0.00000000E+00  0.00000000E+00  0.00000000E+00
  0.00000000E+00  0.00000000E+00  0.00000000E+00
  0.00000000E+00  0.00000000E+00  0.00000000E+00
  0.00000000E+00  0.00000000E+00  0.00000000E+00
  0.00000000E+00  0.00000000E+00  0.00000000E+00
  0.00000000E+00  0.00000000E+00  0.00000000E+00
  0.00000000E+00  0.00000000E+00  0.00000000E+00
  0.00000000E+00  0.00000000E+00  0.00000000E+00
  0.00000000E+00  0.00000000E+00  0.00000000E+00
  0.00000000E+00  0.00000000E+00  0.00000000E+00
  0.00000000E+00  0.00000000E+00  0.00000000E+00
  0.00000000E+00  0.00000000E+00  0.00000000E+00
  0.00000000E+00  0.00000000E+00  0.00000000E+00
  0.00000000E+00  0.00000000E+00  0.00000000E+00
  0.00000000E+00  0.00000000E+00  0.00000000E+00
  0.00000000E+00  0.00000000E+00  0.00000000E+00
  0.00000000E+00  0.00000000E+00  0.00000000E+00
  0.00000000E+00  0.00000000E+00  0.00000000E+00
  0.00000000E+00  0.00000000E+00  0.00000000E+00
  0.00000000E+00  0.00000000E+00  0.00000000E+00
  0.00000000E+00  0.00000000E+00  0.00000000E+00
  0.00000000E+00  0.00000000E+00  0.00000000E+00
  0.00000000E+00  0.00000000E+00  0.00000000E+00
  0.00000000E+00  0.00000000E+00  0.00000000E+00
  0.00000000E+00  0.00000000E+00  0.00000000E+00
  0.00000000E+00  0.00000000E+00  0.00000000E+00
  0.00000000E+00  0.00000000E+00  0.00000000E+00
  0.00000000E+00  0.00000000E+00  0.00000000E+00
  0.00000000E+00  0.00000000E+00  0.00000000E+00
  0.00000000E+00  0.00000000E+00  0.00000000E+00
  0.00000000E+00  0.00000000E+00  0.00000000E+00
  0.00000000E+00  0.00000000E+00  0.00000000E+00
  0.00000000E+00  0.00000000E+00  0.00000000E+00
  0.00000000E+00  0.00000000E+00  0.00000000E+00
  0.00000000E+00  0.00000000E+00  0.00000000E+00
  0.00000000E+00  0.00000000E+00  0.00000000E+00
  0.00000000E+00  0.00000000E+00  0.00000000E+00
  0.00000000E+00  0.00000000E+00  0.00000000E+00
  0.00000000E+00  0.00000000E+00  0.00000000E+00
  0.00000000E+00  0.00000000E+00  0.00000000E+00
  0.00000000E+00  0.00000000E+00  0.00000000E+00
  0.00000000E+00  0.00000000E+00  0.00000000E+00
  0.00000000E+00  0.00000000E+00  0.00000000E+00
  0.00000000E+00  0.00000000E+00  0.00000000E+00
  0.00000000E+00  0.00000000E+00  0.00000000E+00
  0.00000000E+00  0.00000000E+00  0.00000000E+00
  0.00000000E+00  0.00000000E+00  0.00000000E+00
  0.00000000E+00  0.00000000E+00  0.00000000E+00
  0.00000000E+00  0.00000000E+00  0.00000000E+00
  0.00000000E+00  0.00000000E+00  0.00000000E+00
  0.00000000E+00  0.00000000E+00  0.00000000E+00
  0.00000000E+00  0.00000000E+00  0.00000000E+00
  0.00000000E+00  0.00000000E+00  0.00000000E+00
  0.00000000E+00  0.00000000E+00  0.00000000E+00
  0.00000000E+00  0.00000000E+00  0.00000000E+00
  0.00000000E+00  0.00000000E+00  0.00000000E+00
  0.00000000E+00  0.00000000E+00  0.00000000E+00
  0.00000000E+00  0.00000000E+00  0.00000000E+00
  0.00000000E+00  0.00000000E+00  0.00000000E+00
  0.00000000E+00  0.00000000E+00  0.00000000E+00
  0.00000000E+00  0.00000000E+00  0.00000000E+00
  0.00000000E+00  0.00000000E+00  0.00000000E+00
  0.00000000E+00  0.00000000E+00  0.00000000E+00
  0.00000000E+00  0.00000000E+00  0.00000000E+00
  0.00000000E+00  0.00000000E+00  0.00000000E+00
  0.00000000E+00  0.00000000E+00  0.00000000E+00
  0.00000000E+00  0.00000000E+00  0.00000000E+00
  0.00000000E+00  0.00000000E+00  0.00000000E+00
  0.00000000E+00  0.00000000E+00  0.00000000E+00
  0.00000000E+00  0.00000000E+00  0.00000000E+00
  0.00000000E+00  0.00000000E+00  0.00000000E+00
  0.00000000E+00  0.00000000E+00  0.00000000E+00
  0.00000000E+00  0.00000000E+00  0.00000000E+00
  0.00000000E+00  0.00000000E+00  0.00000000E+00
  0.00000000E+00  0.00000000E+00  0.00000000E+00
  0.00000000E+00  0.00000000E+00  0.00000000E+00
  0.00000000E+00  0.00000000E+00  0.00000000E+00
  0.00000000E+00  0.00000000E+00  0.00000000E+00
  0.00000000E+00  0.00000000E+00  0.00000000E+00
  0.00000000E+00  0.00000000E+00  0.00000000E+00
  0.00000000E+00  0.00000000E+00  0.00000000E+00
  0.00000000E+00  0.00000000E+00  0.00000000E+00
  0.00000000E+00  0.00000000E+00  0.00000000E+00
  0.00000000E+00  0.00000000E+00  0.00000000E+00
  0.00000000E+00  0.00000000E+00  0.00000000E+00
  0.00000000E+00  0.00000000E+00  0.00000000E+00
  0.00000000E+00  0.00000000E+00  0.00000000E+00
  0.00000000E+00  0.00000000E+00  0.00000000E+00
  0.00000000E+00  0.00000000E+00  0.00000000E+00
  0.00000000E+00  0.00000000E+00  0.00000000E+00
  0.00000000E+00  0.00000000E+00  0.00000000E+00
  0.00000000E+00  0.00000000E+00  0.00000000E+00
  0.00000000E+00  0.00000000E+00  0.00000000E+00
  0.00000000E+00  0.00000000E+00  0.00000000E+00
  0.00000000E+00  0.00000000E+00  0.00000000E+00
  0.00000000E+00  0.00000000E+00  0.00000000E+00
  0.00000000E+00  0.00000000E+00  0.00000000E+00
  0.00000000E+00  0.00000000E+00  0.00000000E+00
  0.00000000E+00  0.00000000E+00  0.00000000E+00
  0.00000000E+00  0.00000000E+00  0.00000000E+00
  0.00000000E+00  0.00000000E+00  0.00000000E+00
  0.00000000E+00  0.00000000E+00  0.00000000E+00
  0.00000000E+00  0.00000000E+00  0.00000000E+00
  0.00000000E+00  0.00000000E+00  0.00000000E+00
  0.00000000E+00  0.00000000E+00  0.00000000E+00
  0.00000000E+00  0.00000000E+00  0.00000000E+00
  0.00000000E+00  0.00000000E+00  0.00000000E+00
  0.00000000E+00  0.00000000E+00  0.00000000E+00
  0.00000000E+00  0.00000000E+00  0.00000000E+00
  0.00000000E+00  0.00000000E+00  0.00000000E+00
  0.00000000E+00  0.00000000E+00  0.00000000E+00
  0.00000000E+00  0.00000000E+00  0.00000000E+00
  0.00000000E+00  0.00000000E+00  0.00000000E+00
  0.00000000E+00  0.00000000E+00  0.00000000E+00
  0.00000000E+00  0.00000000E+00  0.00000000E+00
  0.00000000E+00  0.00000000E+00  0.00000000E+00
  0.00000000E+00  0.00000000E+00  0.00000000E+00
  0.00000000E+00  0.00000000E+00  0.00000000E+00
  0.00000000E+00  0.00000000E+00  0.00000000E+00
  0.00000000E+00  0.00000000E+00  0.00000000E+00
  0.00000000E+00  0.00000000E+00  0.00000000E+00
  0.00000000E+00  0.00000000E+00  0.00000000E+00
  0.00000000E+00  0.00000000E+00  0.00000000E+00
  0.00000000E+00  0.00000000E+00  0.00000000E+00
  0.00000000E+00  0.00000000E+00  0.00000000E+00
  0.00000000E+00  0.00000000E+00  0.00000000E+00
  0.00000000E+00  0.00000000E+00  0.00000000E+00
  0.00000000E+00  0.00000000E+00  0.00000000E+00
  0.00000000E+00  0.00000000E+00  0.00000000E+00
  0.00000000E+00  0.00000000E+00  0.00000000E+00
  0.00000000E+00  0.00000000E+00  0.00000000E+00
  0.00000000E+00  0.00000000E+00  0.00000000E+00
  0.00000000E+00  0.00000000E+00  0.00000000E+00
  0.00000000E+00  0.00000000E+00  0.00000000E+00
  0.00000000E+00  0.00000000E+00  0.00000000E+00
  0.00000000E+00  0.00000000E+00  0.00000000E+00
  0.00000000E+00  0.00000000E+00  0.00000000E+00
  0.00000000E+00  0.00000000E+00  0.00000000E+00
  0.00000000E+00  0.00000000E+00  0.00000000E+00
  0.00000000E+00  0.00000000E+00  0.00000000E+00
  0.00000000E+00  0.00000000E+00  0.00000000E+00
  0.00000000E+00  0.00000000E+00  0.00000000E+00
  0.00000000E+00  0.00000000E+00  0.00000000E+00
  0.00000000E+00  0.00000000E+00  0.00000000E+00
  0.00000000E+00  0.00000000E+00  0.00000000E+00
  0.00000000E+00  0.00000000E+00  0.00000000E+00
  0.00000000E+00  0.00000000E+00  0.00000000E+00
  0.00000000E+00  0.00000000E+00  0.00000000E+00
  0.00000000E+00  0.00000000E+00  0.00000000E+00
  0.00000000E+00  0.00000000E+00  0.00000000E+00
  0.00000000E+00  0.00000000E+00  0.00000000E+00
  0.00000000E+00  0.00000000E+00  0.00000000E+00
  0.00000000E+00  0.00000000E+00  0.00000000E+00
  0.00000000E+00  0.00000000E+00  0.00000000E+00
  0.00000000E+00  0.00000000E+00  0.00000000E+00
  0.00000000E+00  0.00000000E+00  0.00000000E+00
  0.00000000E+00  0.00000000E+00  0.00000000E+00
  0.00000000E+00  0.00000000E+00  0.00000000E+00
  0.00000000E+00  0.00000000E+00  0.00000000E+00
  0.00000000E+00  0.00000000E+00  0.00000000E+00
  0.00000000E+00  0.00000000E+00  0.00000000E+00
  0.00000000E+00  0.00000000E+00  0.00000000E+00
  0.00000000E+00  0.00000000E+00  0.00000000E+00
  0.00000000E+00  0.00000000E+00  0.00000000E+00
  0.00000000E+00  0.00000000E+00  0.00000000E+00
  0.00000000E+00  0.00000000E+00  0.00000000E+00
  0.00000000E+00  0.00000000E+00  0.00000000E+00
  0.00000000E+00  0.00000000E+00  0.00000000E+00
  0.00000000E+00  0.00000000E+00  0.00000000E+00
  0.00000000E+00  0.00000000E+00  0.00000000E+00
  0.00000000E+00  0.00000000E+00  0.00000000E+00
  0.00000000E+00  0.00000000E+00  0.00000000E+00
  0.00000000E+00  0.00000000E+00  0.00000000E+00
  0.00000000E+00  0.00000000E+00  0.00000000E+00
  0.00000000E+00  0.00000000E+00  0.00000000E+00
  0.00000000E+00  0.00000000E+00  0.00000000E+00
