Mg   Ge   N                             
   1.00000000000000     
    -0.0270379541117294    0.0000017328089357    5.2187863281790596
     5.5971348886648862   -0.0021646835260611   -0.0000000672018399
    -0.0024532156416035    6.7524959076797746   -0.0758052823041998
   Mg   Ge   N 
     4     4     8
Direct
  0.1127004366790425  0.4283152514762715  0.1123040751397641
  0.1090059177727312  0.9098517040052997  0.3713836984165425
  0.6182120993467287  0.5761023730885412  0.8644884106984766
  0.6170391704726726  0.0894917653899943  0.6074961924531133
  0.0278048193907017  0.9269555671967252  0.8588158887753493
  0.4972596585449457  0.0693783556939445  0.1118798624203556
  0.1338048116292241  0.4273095637507587  0.6116719264443707
  0.6277808171245549  0.5735578615037467  0.3623523525685414
  0.1261407241114224  0.0608896693894800  0.0938634979716906
  0.6060634467722628  0.9380376928814455  0.8802760268486344
  0.0341332533819663  0.5926656541674680  0.8414646303037892
  0.0344420537567187  0.1032453617977003  0.6250366251612379
  0.5312383330310485  0.4075371032028938  0.1316030713215059
  0.5342484347575064  0.8982560093079046  0.3516956847209216
  0.9885087115387500  0.5590994635468937  0.3829933953358614
  0.4917007321075580  0.4392932462051544  0.5926766958792340
 
             NaN             NaN             NaN
             NaN             NaN             NaN
             NaN             NaN             NaN
             NaN             NaN             NaN
             NaN             NaN             NaN
             NaN             NaN             NaN
             NaN             NaN             NaN
             NaN             NaN             NaN
             NaN             NaN             NaN
             NaN             NaN             NaN
             NaN             NaN             NaN
             NaN             NaN             NaN
             NaN             NaN             NaN
             NaN             NaN             NaN
             NaN             NaN             NaN
             NaN             NaN             NaN
