Mg   Ge   N                             
   1.00000000000000     
     0.0293612581926696   -0.0000000358734432    5.2187169155366400
     5.5969022844116258    0.0012089359107585    0.0000001174578182
     0.0012545852960681    6.7546684310600424   -0.0824342721101621
   Mg   Ge   N 
     4     4     8
Direct
  0.0278527935320964  0.4098231138729938  0.1037585639010700
  0.0241077147973776  0.9283319328392634  0.3625412429608664
  0.5174575353553841  0.5887827180709257  0.8659711017385554
  0.5167319121869158  0.0779292514389024  0.6104234133645826
  0.0018354248294704  0.9272493894202983  0.8636514708708556
  0.5088743505627573  0.0736605463256305  0.1125853398997572
  0.0799818427601050  0.4250508737174388  0.6189030352405779
  0.6393107777202441  0.5698948821353992  0.3623066434928315
  0.1478671737538664  0.0589711577515001  0.0917766447798328
  0.6443681086219366  0.9390652094633146  0.8822137350710193
  0.1031159894449340  0.6033489218770666  0.8495669676958949
  0.1028700939384495  0.0929435432516770  0.6337733174237083
  0.6022578350827968  0.3984215823358632  0.1227288994521798
  0.6051410697468482  0.9078997846997244  0.3434024822147426
  0.0148447427342274  0.5618923378906618  0.3794518721065763
  0.5534660553507941  0.4367213975136064  0.5969473042462604
 
             NaN             NaN             NaN
             NaN             NaN             NaN
             NaN             NaN             NaN
             NaN             NaN             NaN
             NaN             NaN             NaN
             NaN             NaN             NaN
             NaN             NaN             NaN
             NaN             NaN             NaN
             NaN             NaN             NaN
             NaN             NaN             NaN
             NaN             NaN             NaN
             NaN             NaN             NaN
             NaN             NaN             NaN
             NaN             NaN             NaN
             NaN             NaN             NaN
             NaN             NaN             NaN
