Mg   Ge   N                             
   1.00000000000000     
     0.0089195285202394    0.0000014801400244    5.2187764120872897
     5.5865933845534235   -0.0554102397947567   -0.0000000408218888
     0.0776676084294720    6.7512726058660801    0.0162374843987847
   Mg   Ge   N 
     4     4     8
Direct
  0.1150140802910580  0.4277032554271865  0.1110078435208218
  0.1066545996509173  0.9105570597687305  0.3699567125452253
  0.6151482466293196  0.5724025170509272  0.8639246841350781
  0.6037057824583139  0.0885857306096754  0.6050349084560263
  0.9994968803767965  0.9310552544520281  0.8630353604782364
  0.4993285623078730  0.0693227137797982  0.1118960341324463
  0.1290851773639911  0.4276624607166865  0.6130016215974441
  0.6293431223456050  0.5722661678520801  0.3620301425392125
  0.1369707227805063  0.0580282789871558  0.0889014851156307
  0.6373281512815689  0.9422799973984460  0.8858587346863384
  0.0320889774202982  0.5932290560937512  0.8428561054642320
  0.0389050287002528  0.1018377611110828  0.6249806365278699
  0.5322520992163406  0.4068329482580101  0.1324583221546506
  0.5368841092678821  0.8978211374604304  0.3498257407881825
  0.9889744309751883  0.5586945027978688  0.3819738880774896
  0.4889034493549703  0.4417078008407119  0.5932598142417438
 
             NaN             NaN             NaN
             NaN             NaN             NaN
             NaN             NaN             NaN
             NaN             NaN             NaN
             NaN             NaN             NaN
             NaN             NaN             NaN
             NaN             NaN             NaN
             NaN             NaN             NaN
             NaN             NaN             NaN
             NaN             NaN             NaN
             NaN             NaN             NaN
             NaN             NaN             NaN
             NaN             NaN             NaN
             NaN             NaN             NaN
             NaN             NaN             NaN
             NaN             NaN             NaN
