Mg   Ge   N                             
   1.00000000000000     
     0.0323978998154097   -0.0000002885423545    5.2187069994448603
     5.5938673454089001   -0.0007889189332044    0.0000001438377693
    -0.0012078806339527    6.7548961335277315   -0.0901655984368661
   Mg   Ge   N 
     4     4     8
Direct
  0.0297640493464751  0.4103454674805623  0.1037274741583757
  0.0257829002480611  0.9282207071213688  0.3628842611372055
  0.5136225560946077  0.5881446343192560  0.8647756924561550
  0.5136339845948052  0.0798063700461464  0.6109925700547296
  0.0028147008758788  0.9264552517083899  0.8631530178780118
  0.5085330982852746  0.0733229408470499  0.1121138961939075
  0.0226851398906201  0.4224936824200247  0.6224549350815602
  0.6418636132986788  0.5720681740579047  0.3590636735092298
  0.1479692065134638  0.0587990060484304  0.0916642460914268
  0.6446257390980692  0.9387078486154575  0.8820112923938251
  0.1060047933194670  0.6025653445468505  0.8473376045552306
  0.1051691828089988  0.0955097019817156  0.6341539105841962
  0.6020564014108410  0.3982487550786595  0.1223583582083178
  0.6047397462814020  0.9085297676177068  0.3439699870304449
  0.0221774136417910  0.5629624338205516  0.3773623468986373
  0.5986408947097703  0.4338065568942211  0.6019787682280526
 
             NaN             NaN             NaN
             NaN             NaN             NaN
             NaN             NaN             NaN
             NaN             NaN             NaN
             NaN             NaN             NaN
             NaN             NaN             NaN
             NaN             NaN             NaN
             NaN             NaN             NaN
             NaN             NaN             NaN
             NaN             NaN             NaN
             NaN             NaN             NaN
             NaN             NaN             NaN
             NaN             NaN             NaN
             NaN             NaN             NaN
             NaN             NaN             NaN
             NaN             NaN             NaN
