Mg   Ge   N                             
   1.00000000000000     
    -0.0101089267515045    0.0000003431299237    5.2187317896743002
     5.5861619696152625    0.0500395310647436    0.0000000778878915
    -0.0720720214424678    6.7523900334535094    0.0185345364722799
   Mg   Ge   N 
     4     4     8
Direct
  0.0301724413363384  0.4106459298134535  0.1052057397690183
  0.0211338474284294  0.9277234148688110  0.3640222995044451
  0.5336582917740066  0.5883666035598148  0.8697987107688006
  0.5209877873455492  0.0723924788669843  0.6110525012268140
  0.0071744537523287  0.9277317968218828  0.8619883254935478
  0.5068715063801205  0.0721952231398417  0.1129734334908892
  0.1366867750620694  0.4311179013075745  0.6120204609666020
  0.6368696109748143  0.5693171894823260  0.3630675548771602
  0.1472351687732541  0.0586036107922442  0.0930528123086277
  0.6473202473651397  0.9418670579397431  0.8816814641923119
  0.0967410361486436  0.6017502888524180  0.8499963819837892
  0.1041606375221352  0.0932280821314896  0.6321318966211883
  0.5991268486956510  0.3978481639914437  0.1252252473391856
  0.6039647883798697  0.9068425910499666  0.3425052686389781
  0.9991950999663292  0.5579925218302586  0.3861743886065425
  0.4987848795152183  0.4423637881566796  0.5891055486759353
 
             NaN             NaN             NaN
             NaN             NaN             NaN
             NaN             NaN             NaN
             NaN             NaN             NaN
             NaN             NaN             NaN
             NaN             NaN             NaN
             NaN             NaN             NaN
             NaN             NaN             NaN
             NaN             NaN             NaN
             NaN             NaN             NaN
             NaN             NaN             NaN
             NaN             NaN             NaN
             NaN             NaN             NaN
             NaN             NaN             NaN
             NaN             NaN             NaN
             NaN             NaN             NaN
