Mg   Ge   N                             
   1.00000000000000     
     0.0207121142344984    0.0000002167954681    5.2187268316284099
     5.5947165989960173    0.0023140675657896    0.0000000910778670
     0.0027055338028256    6.7465773892095049   -0.0568486227659782
   Mg   Ge   N 
     4     4     8
Direct
  0.0264517904977498  0.4101499464213620  0.1034611956605477
  0.0226527240553220  0.9280561268923850  0.3632139206717009
  0.5227481933507375  0.5902903727636636  0.8702264453495268
  0.5203581906207947  0.0731799260740623  0.6108856469447124
  0.0049284628880976  0.9273508096330463  0.8623648271727914
  0.5075733063993547  0.0731234887456222  0.1128192891851730
  0.1334339577495105  0.4296610031431945  0.6126401025028975
  0.6385740233057978  0.5689812557418955  0.3637529104266026
  0.1475545964175247  0.0593249239647806  0.0925062016343347
  0.6458765823079408  0.9398921147122400  0.8824804471029829
  0.1010693034050379  0.6027322728828296  0.8498065135009059
  0.1027866021801296  0.0932650048376014  0.6328180610320323
  0.6013505248639962  0.3976861676621868  0.1245546565213826
  0.6046026218231166  0.9068036185868896  0.3433971443244595
  0.0036122484768916  0.5592492065619440  0.3838132693363802
  0.5065102920762022  0.4402404039805843  0.5912614030928848
 
             NaN             NaN             NaN
             NaN             NaN             NaN
             NaN             NaN             NaN
             NaN             NaN             NaN
             NaN             NaN             NaN
             NaN             NaN             NaN
             NaN             NaN             NaN
             NaN             NaN             NaN
             NaN             NaN             NaN
             NaN             NaN             NaN
             NaN             NaN             NaN
             NaN             NaN             NaN
             NaN             NaN             NaN
             NaN             NaN             NaN
             NaN             NaN             NaN
             NaN             NaN             NaN
