Mg   Ge   N                             
   1.00000000000000     
    -0.0368516141915362    0.0000022381467582    5.2188061603626101
     5.5882216471125732    0.0025610722570127   -0.0000001199617422
     0.0034177679240544    6.7509648131320708   -0.1000160512677179
   Mg   Ge   N 
     4     4     8
Direct
  0.1071610826441133  0.4284351642264344  0.1109526941397154
  0.1012614221891765  0.9112811428654273  0.3716358502699373
  0.6270428633026309  0.5818562193625030  0.8626518278470623
  0.6274984510799185  0.0876964422666871  0.6114047660908739
  0.1390287609485126  0.9209135783832866  0.8507641046414931
  0.4896925970555925  0.0742533439273147  0.1191129214590895
  0.1329313080049134  0.4251167274370410  0.6127707404824481
  0.6280813036558968  0.5724999153199679  0.3633123303601133
  0.1121353257832703  0.0627173940855819  0.0978687227895606
  0.5151092683615767  0.9320704770797351  0.8701158972944608
  0.0309932376840310  0.5982329759338980  0.8397074326741665
  0.0298662504885114  0.1014420544133883  0.6303059085109568
  0.5328084285455394  0.4096561428328057  0.1295344290529151
  0.5362951507286559  0.8982767441422701  0.3531584146086993
  0.9883030987909994  0.5578116165604557  0.3834508451275093
  0.4918748711544889  0.4377267037674024  0.5932551491104137
 
             NaN             NaN             NaN
             NaN             NaN             NaN
             NaN             NaN             NaN
             NaN             NaN             NaN
             NaN             NaN             NaN
             NaN             NaN             NaN
             NaN             NaN             NaN
             NaN             NaN             NaN
             NaN             NaN             NaN
             NaN             NaN             NaN
             NaN             NaN             NaN
             NaN             NaN             NaN
             NaN             NaN             NaN
             NaN             NaN             NaN
             NaN             NaN             NaN
             NaN             NaN             NaN
