Mg   Ge   N                             
   1.00000000000000     
     0.0053253221277530    0.0000009748022019    5.2187565799037401
     5.5718899770622725   -0.0078128765989959    0.0000000119380136
     0.0209090662992286    6.7519413740394123    0.0061753078377302
   Mg   Ge   N 
     4     4     8
Direct
  0.1204840787269615  0.4277703077261435  0.1107967510856198
  0.0352770594603763  0.9221703136923773  0.3643794110565420
  0.6210800710066642  0.5723031021368031  0.8639409496216333
  0.5218862261495278  0.0752899963621501  0.6117051530210234
  0.0014469467329977  0.9327068349204349  0.8609606269298715
  0.5017652942769846  0.0680257750918649  0.1133442522350393
  0.1331902278273934  0.4321579318487283  0.6137626040024245
  0.6327544436554099  0.5686433550624529  0.3612897809128587
  0.1411089053686720  0.0532597872893026  0.0913671995415688
  0.6416713381209448  0.9477434139302369  0.8824812740639054
  0.0327830600244774  0.5928045369910968  0.8435777236611504
  0.0988245405806500  0.0936023084519384  0.6305742177517584
  0.5330166056529348  0.4075358998362611  0.1313790496334086
  0.5887591294929762  0.9053344437741323  0.3453621951425821
  0.9928457350131534  0.5519637631837502  0.3815178320643176
  0.4931897583297146  0.4486748723067353  0.5935630137365030
 
             NaN             NaN             NaN
             NaN             NaN             NaN
             NaN             NaN             NaN
             NaN             NaN             NaN
             NaN             NaN             NaN
             NaN             NaN             NaN
             NaN             NaN             NaN
             NaN             NaN             NaN
             NaN             NaN             NaN
             NaN             NaN             NaN
             NaN             NaN             NaN
             NaN             NaN             NaN
             NaN             NaN             NaN
             NaN             NaN             NaN
             NaN             NaN             NaN
             NaN             NaN             NaN
