generated by phonopy                    
   1.00000000000000     
    10.0351470768999995   -0.0000022330999784   -0.0000001056124209
    -5.0175765436399997    8.6906901959899994    0.0000001395531216
    -0.0000001735893656    0.0000001431815548   14.9533752540999991
   Pb   P    O 
    20    12    49
Direct
  0.9956133203289497  0.7701077051332561  0.1253607147918814
  0.9989456496367026  0.7739149735198012  0.6203434371944283
  0.0016323477122455  0.2652823532165343  0.3721587577074317
  0.0029993872427241  0.2468006441836721  0.8738460225071876
  0.2321677949005476  0.2278205737039016  0.1221304106876246
  0.2275705705950060  0.2266420705928525  0.6220252130863244
  0.7384745000596453  0.7410903489643417  0.3734180355346055
  0.7567170388366051  0.7593360330332715  0.8640890686012881
  0.7762728370552523  0.0034026877114144  0.1253653987802181
  0.7747930733794135  0.0033606472093624  0.6213840762994565
  0.2603033529620618  0.9994063010068146  0.3722644845480474
  0.2405934413381203  0.9933181680528733  0.8718100529792068
  0.6615608366032433  0.3216140482082963  0.9989139515250542
  0.6666800892614475  0.3318141930616321  0.5028498936517209
  0.3418930963492670  0.6685667025279045  0.0013201447412854
  0.3372675850722331  0.6730190900848569  0.5048083218759345
  0.3377472734894198  0.6612701940663754  0.2413336327038138
  0.3265360886944393  0.6615483104569861  0.7482561918106043
  0.6653284849231724  0.3465881111971498  0.2448048762630961
  0.6672071601402507  0.3327535307810976  0.7512812953712995
  0.6418704631632224  0.6090291444094689  0.1226363247313458
  0.6254892350387848  0.5973351814836860  0.6250789281072642
  0.3684072560241773  0.3978210904498169  0.3752206708343451
  0.3651272687628548  0.3961318797435851  0.8735788642241289
  0.4044078971586558  0.0297757093559596  0.1257108195201440
  0.4035604157511585  0.0296301171489688  0.6233896631206761
  0.6043616273022394  0.9748988149016995  0.3752916629960410
  0.5993042839149822  0.9632902627503768  0.8738235925420526
  0.9720406020730579  0.3733951325804412  0.1245157203804865
  0.9695429376939160  0.3755521788782374  0.6225828109533182
  0.0256282070396594  0.6338280613686251  0.3741244132704153
  0.0307010666162171  0.6320978920669091  0.8760104550713876
  0.5088118796206516  0.6528884024650665  0.1271133818390524
  0.5030185990110567  0.6492007455206235  0.6228852026940856
  0.4705268664440752  0.3217760756225445  0.3740139415518300
  0.4701688628783174  0.3234831274630494  0.8724961008356260
  0.3478428326288068  0.8544195158668089  0.1266485546260796
  0.3511998301920727  0.8548966485153997  0.6222512978952608
  0.6815156693359299  0.1528981743324138  0.3762099243164556
  0.6743114065217739  0.1409876318033980  0.8718180491525303
  0.1467458678974296  0.4959491293415965  0.1248581171555685
  0.1443193891492953  0.4969595940414351  0.6208015041417951
  0.8475591249562058  0.5300770445046155  0.3770489677922768
  0.8528437675699436  0.5274560457419923  0.8755647770117605
  0.7300336625476902  0.6509904849440602  0.5395747716597370
  0.2577118426358354  0.3463562966368841  0.4575168937806353
  0.2562457558743390  0.3432441572940377  0.9574685200311492
  0.3392201511773010  0.0747249532597252  0.0426539242298674
  0.3538790788926605  0.0801025525302563  0.5359454087333972
  0.6420108065753070  0.9098094679475821  0.4608634739017674
  0.6457693315720689  0.9052420759228497  0.9591533544087696
  0.9296568994563472  0.2615849710146918  0.0425939003887095
  0.9179254187969406  0.2742218346527991  0.5353905671043577
  0.0910898812602738  0.7399554082242972  0.4583879674634517
  0.0867856442746344  0.7428510989650405  0.9588880694985704
  0.2650090256074975  0.3584762241298947  0.2898199744047858
  0.2564367648506263  0.3480138350696151  0.7896800724680446
  0.7160588729891373  0.6329246839720639  0.2217182988902024
  0.7370445339445268  0.6703287393990465  0.7073045343852584
  0.6561918828438067  0.9145923841684080  0.2932266863533215
  0.6502778021167330  0.9027220486777878  0.7907934355506754
  0.3501700796504892  0.0807019429186866  0.2113002770592374
  0.3293339336528902  0.0682640436343576  0.7042151304910789
  0.0805300921745911  0.7436322111134004  0.2911496438270689
  0.0906752378121283  0.7381862907873895  0.7909178937369106
  0.9256902600964523  0.2707442003194345  0.2107977449665128
  0.9300228119675253  0.2632180280861789  0.7037988393165193
  0.5554807588504858  0.4244881470685442  0.1119471579292011
  0.5461676832459759  0.4177287753981886  0.6313275820792512
  0.4741807791385000  0.5793462459889653  0.3793782086149449
  0.4645229452787021  0.5774843127438274  0.8747575605398694
  0.5848261831595067  0.1270995894878624  0.1220289643642545
  0.5835349028907117  0.1291248816697532  0.6304277277503658
  0.4228499621328794  0.8992680830818571  0.3709575833321992
  0.4182242438856818  0.8841905923703237  0.8717282610593884
  0.8716732448135502  0.4531581985657525  0.1200229061715774
  0.8704548260338214  0.4565311116445017  0.6291207681410000
  0.1022067622995095  0.5290734947980056  0.3701481216653022
  0.1118885806778138  0.5318911589077899  0.8775285339740080
  0.0027000581519161  0.9997616247132228  0.1330913727743450
  0.0001946654669709  0.0011873605539563  0.6060028140699032
 
  0.00000000E+00  0.00000000E+00  0.00000000E+00
  0.00000000E+00  0.00000000E+00  0.00000000E+00
  0.00000000E+00  0.00000000E+00  0.00000000E+00
  0.00000000E+00  0.00000000E+00  0.00000000E+00
  0.00000000E+00  0.00000000E+00  0.00000000E+00
  0.00000000E+00  0.00000000E+00  0.00000000E+00
  0.00000000E+00  0.00000000E+00  0.00000000E+00
  0.00000000E+00  0.00000000E+00  0.00000000E+00
  0.00000000E+00  0.00000000E+00  0.00000000E+00
  0.00000000E+00  0.00000000E+00  0.00000000E+00
  0.00000000E+00  0.00000000E+00  0.00000000E+00
  0.00000000E+00  0.00000000E+00  0.00000000E+00
  0.00000000E+00  0.00000000E+00  0.00000000E+00
  0.00000000E+00  0.00000000E+00  0.00000000E+00
  0.00000000E+00  0.00000000E+00  0.00000000E+00
  0.00000000E+00  0.00000000E+00  0.00000000E+00
  0.00000000E+00  0.00000000E+00  0.00000000E+00
  0.00000000E+00  0.00000000E+00  0.00000000E+00
  0.00000000E+00  0.00000000E+00  0.00000000E+00
  0.00000000E+00  0.00000000E+00  0.00000000E+00
  0.00000000E+00  0.00000000E+00  0.00000000E+00
  0.00000000E+00  0.00000000E+00  0.00000000E+00
  0.00000000E+00  0.00000000E+00  0.00000000E+00
  0.00000000E+00  0.00000000E+00  0.00000000E+00
  0.00000000E+00  0.00000000E+00  0.00000000E+00
  0.00000000E+00  0.00000000E+00  0.00000000E+00
  0.00000000E+00  0.00000000E+00  0.00000000E+00
  0.00000000E+00  0.00000000E+00  0.00000000E+00
  0.00000000E+00  0.00000000E+00  0.00000000E+00
  0.00000000E+00  0.00000000E+00  0.00000000E+00
  0.00000000E+00  0.00000000E+00  0.00000000E+00
  0.00000000E+00  0.00000000E+00  0.00000000E+00
  0.00000000E+00  0.00000000E+00  0.00000000E+00
  0.00000000E+00  0.00000000E+00  0.00000000E+00
  0.00000000E+00  0.00000000E+00  0.00000000E+00
  0.00000000E+00  0.00000000E+00  0.00000000E+00
  0.00000000E+00  0.00000000E+00  0.00000000E+00
  0.00000000E+00  0.00000000E+00  0.00000000E+00
  0.00000000E+00  0.00000000E+00  0.00000000E+00
  0.00000000E+00  0.00000000E+00  0.00000000E+00
  0.00000000E+00  0.00000000E+00  0.00000000E+00
  0.00000000E+00  0.00000000E+00  0.00000000E+00
  0.00000000E+00  0.00000000E+00  0.00000000E+00
  0.00000000E+00  0.00000000E+00  0.00000000E+00
  0.00000000E+00  0.00000000E+00  0.00000000E+00
  0.00000000E+00  0.00000000E+00  0.00000000E+00
  0.00000000E+00  0.00000000E+00  0.00000000E+00
  0.00000000E+00  0.00000000E+00  0.00000000E+00
  0.00000000E+00  0.00000000E+00  0.00000000E+00
  0.00000000E+00  0.00000000E+00  0.00000000E+00
  0.00000000E+00  0.00000000E+00  0.00000000E+00
  0.00000000E+00  0.00000000E+00  0.00000000E+00
  0.00000000E+00  0.00000000E+00  0.00000000E+00
  0.00000000E+00  0.00000000E+00  0.00000000E+00
  0.00000000E+00  0.00000000E+00  0.00000000E+00
  0.00000000E+00  0.00000000E+00  0.00000000E+00
  0.00000000E+00  0.00000000E+00  0.00000000E+00
  0.00000000E+00  0.00000000E+00  0.00000000E+00
  0.00000000E+00  0.00000000E+00  0.00000000E+00
  0.00000000E+00  0.00000000E+00  0.00000000E+00
  0.00000000E+00  0.00000000E+00  0.00000000E+00
  0.00000000E+00  0.00000000E+00  0.00000000E+00
  0.00000000E+00  0.00000000E+00  0.00000000E+00
  0.00000000E+00  0.00000000E+00  0.00000000E+00
  0.00000000E+00  0.00000000E+00  0.00000000E+00
  0.00000000E+00  0.00000000E+00  0.00000000E+00
  0.00000000E+00  0.00000000E+00  0.00000000E+00
  0.00000000E+00  0.00000000E+00  0.00000000E+00
  0.00000000E+00  0.00000000E+00  0.00000000E+00
  0.00000000E+00  0.00000000E+00  0.00000000E+00
  0.00000000E+00  0.00000000E+00  0.00000000E+00
  0.00000000E+00  0.00000000E+00  0.00000000E+00
  0.00000000E+00  0.00000000E+00  0.00000000E+00
  0.00000000E+00  0.00000000E+00  0.00000000E+00
  0.00000000E+00  0.00000000E+00  0.00000000E+00
  0.00000000E+00  0.00000000E+00  0.00000000E+00
  0.00000000E+00  0.00000000E+00  0.00000000E+00
  0.00000000E+00  0.00000000E+00  0.00000000E+00
  0.00000000E+00  0.00000000E+00  0.00000000E+00
  0.00000000E+00  0.00000000E+00  0.00000000E+00
  0.00000000E+00  0.00000000E+00  0.00000000E+00
