supercell of icsd_181358.cif            
   1.00000000000000     
     9.0861748983728869   -0.0173704372980258   -0.0485226458575110
    -4.5580996913147711    7.8313151330862034    0.0596637786764603
    -0.0531076890435272    0.0449932679418853    9.8023335690964970
   N    Ga   B 
    36    26    10
Direct
  0.2344661846782969  0.1447198449440918  0.4603978156634767
  0.1303523006719942  0.2565215364870781  0.2006094413648114
  0.8625588897466159  0.0982016795048466  0.9555781562548233
  0.7778007184337525  0.2243562865917070  0.6814799249137877
  0.5779202064224549  0.0984748277583236  0.4024393287442578
  0.4589446959995271  0.2015682786400532  0.2030356467114203
  0.2235257849442505  0.1151138465581170  0.9407612154568241
  0.1044858915249662  0.2251312668030323  0.6605620014310247
  0.9268431905803283  0.1239665357801698  0.4404040435947962
  0.7505570157406467  0.2026565711214303  0.1696914030673042
  0.5817357442242610  0.1239719893065896  0.9415396668092910
  0.4371525020005222  0.2278934327604532  0.6649721923723320
  0.2232081483613442  0.4469796415949006  0.4376861829978793
  0.1446443493572858  0.5683743106553862  0.2069796060698721
  0.8783986938208059  0.4118535609038858  0.9516077358474178
  0.7949437716252845  0.5877927186484300  0.7075858039881027
  0.5252193540860404  0.4332457965760099  0.4626299971355010
  0.4146711061240325  0.5338497923449665  0.2027086954902231
  0.2224618020182589  0.4475005844543958  0.9218019906898149
  0.1098036144776842  0.5619155513444412  0.6510519911007151
  0.9182052149064930  0.4607283119386238  0.4411609080057488
  0.7697641014632453  0.5466119483205176  0.1898249692643219
  0.5486905542718503  0.4412028256012661  0.9358401920701951
  0.4436473331460817  0.5622720334892009  0.6605855603204418
  0.2102742849525825  0.7527765774418569  0.4233480664957838
  0.1287659833644881  0.8720789505279996  0.2018731030725220
  0.8771385934608062  0.7947297799746380  0.9276035150555870
  0.7926642561457271  0.8772322695888874  0.6998507261743256
  0.5459446614504202  0.7426246902685989  0.4455995131462984
  0.4280791959941936  0.8925629804624577  0.2063141815064640
  0.2214975687817571  0.7742406685915810  0.9358096076602322
  0.0784411151516835  0.8759736367341446  0.6994804797202505
  0.8884609830276489  0.7769347342923894  0.4332498375334168
  0.7796466528936961  0.8861883966404562  0.1618665701264277
  0.5801809118690500  0.7903417262435539  0.9507076961469423
  0.4445297458894260  0.8931555767061852  0.6825519393762320
  0.2318935318330162  0.1146795914022718  0.2626182239662640
  0.1060569365584101  0.2263571950292160  0.0053094247890968
  0.8868431990714498  0.1089749463591758  0.7554746788775333
  0.7896882389447981  0.2241428596789419  0.4889560724879729
  0.4525108951985715  0.2192872194904183  0.0092211984756077
  0.2099318959026490  0.1105459506928312  0.7448243210364893
  0.8900437801023244  0.1141363147746688  0.2431484136370230
  0.5562425191480429  0.1179743310748336  0.7450422150829041
  0.1142221903397740  0.5500787165499830  0.0111823501434856
  0.8955629831085190  0.4484459868484407  0.7510963714071579
  0.7808245192798466  0.5556644254054603  0.5091896148479975
  0.5450614513345258  0.4297164431851002  0.2648573892699631
  0.4411521977415305  0.5539279194879683  0.0070285749623764
  0.2197100568263721  0.4498018230190368  0.7270211050598832
  0.8946253941379112  0.4390767936486739  0.2460454140780541
  0.7763135746171770  0.5553262499124756  0.9941175416594419
  0.5560453465642183  0.4554374723193675  0.7432653100912461
  0.1066260078756187  0.8855196040142204  0.0018841740588513
  0.7832637425712363  0.8878146716499131  0.5057364949936627
  0.5490354897707093  0.7712418686062961  0.2506960777805816
  0.4507304623943611  0.8941658758190201  0.0098217691903812
  0.2147625583899782  0.7752901801343555  0.7426260676229219
  0.1125656950568299  0.8881770921887053  0.5017652321306443
  0.8920405875392632  0.7746981179514947  0.2431315066828290
  0.5603707522600772  0.7795858217790013  0.7512996865393049
  0.4443835899572051  0.8825027054146943  0.4855035926989970
  0.5506841962593043  0.0987493456048014  0.2512746101736170
  0.1141250580224735  0.2330910014512568  0.4987219806314442
  0.7667829067221419  0.2100388650680287  0.0049090095769699
  0.4087770302311213  0.2582541948174750  0.5213097533528952
  0.2284177202419215  0.4515581248837535  0.2629430815349707
  0.1119745725105687  0.5571776822069339  0.4889216835878898
  0.4367680884717444  0.5550863180880867  0.5010566780428363
  0.2271318014105859  0.7721195259774163  0.2590008906638204
  0.8863481422158728  0.7843921030272227  0.7566302361574557
  0.7728577657822697  0.8932195028377450  0.9991795493285878
 
  0.00000000E+00  0.00000000E+00  0.00000000E+00
  0.00000000E+00  0.00000000E+00  0.00000000E+00
  0.00000000E+00  0.00000000E+00  0.00000000E+00
  0.00000000E+00  0.00000000E+00  0.00000000E+00
  0.00000000E+00  0.00000000E+00  0.00000000E+00
  0.00000000E+00  0.00000000E+00  0.00000000E+00
  0.00000000E+00  0.00000000E+00  0.00000000E+00
  0.00000000E+00  0.00000000E+00  0.00000000E+00
  0.00000000E+00  0.00000000E+00  0.00000000E+00
  0.00000000E+00  0.00000000E+00  0.00000000E+00
  0.00000000E+00  0.00000000E+00  0.00000000E+00
  0.00000000E+00  0.00000000E+00  0.00000000E+00
  0.00000000E+00  0.00000000E+00  0.00000000E+00
  0.00000000E+00  0.00000000E+00  0.00000000E+00
  0.00000000E+00  0.00000000E+00  0.00000000E+00
  0.00000000E+00  0.00000000E+00  0.00000000E+00
  0.00000000E+00  0.00000000E+00  0.00000000E+00
  0.00000000E+00  0.00000000E+00  0.00000000E+00
  0.00000000E+00  0.00000000E+00  0.00000000E+00
  0.00000000E+00  0.00000000E+00  0.00000000E+00
  0.00000000E+00  0.00000000E+00  0.00000000E+00
  0.00000000E+00  0.00000000E+00  0.00000000E+00
  0.00000000E+00  0.00000000E+00  0.00000000E+00
  0.00000000E+00  0.00000000E+00  0.00000000E+00
  0.00000000E+00  0.00000000E+00  0.00000000E+00
  0.00000000E+00  0.00000000E+00  0.00000000E+00
  0.00000000E+00  0.00000000E+00  0.00000000E+00
  0.00000000E+00  0.00000000E+00  0.00000000E+00
  0.00000000E+00  0.00000000E+00  0.00000000E+00
  0.00000000E+00  0.00000000E+00  0.00000000E+00
  0.00000000E+00  0.00000000E+00  0.00000000E+00
  0.00000000E+00  0.00000000E+00  0.00000000E+00
  0.00000000E+00  0.00000000E+00  0.00000000E+00
  0.00000000E+00  0.00000000E+00  0.00000000E+00
  0.00000000E+00  0.00000000E+00  0.00000000E+00
  0.00000000E+00  0.00000000E+00  0.00000000E+00
  0.00000000E+00  0.00000000E+00  0.00000000E+00
  0.00000000E+00  0.00000000E+00  0.00000000E+00
  0.00000000E+00  0.00000000E+00  0.00000000E+00
  0.00000000E+00  0.00000000E+00  0.00000000E+00
  0.00000000E+00  0.00000000E+00  0.00000000E+00
  0.00000000E+00  0.00000000E+00  0.00000000E+00
  0.00000000E+00  0.00000000E+00  0.00000000E+00
  0.00000000E+00  0.00000000E+00  0.00000000E+00
  0.00000000E+00  0.00000000E+00  0.00000000E+00
  0.00000000E+00  0.00000000E+00  0.00000000E+00
  0.00000000E+00  0.00000000E+00  0.00000000E+00
  0.00000000E+00  0.00000000E+00  0.00000000E+00
  0.00000000E+00  0.00000000E+00  0.00000000E+00
  0.00000000E+00  0.00000000E+00  0.00000000E+00
  0.00000000E+00  0.00000000E+00  0.00000000E+00
  0.00000000E+00  0.00000000E+00  0.00000000E+00
  0.00000000E+00  0.00000000E+00  0.00000000E+00
  0.00000000E+00  0.00000000E+00  0.00000000E+00
  0.00000000E+00  0.00000000E+00  0.00000000E+00
  0.00000000E+00  0.00000000E+00  0.00000000E+00
  0.00000000E+00  0.00000000E+00  0.00000000E+00
  0.00000000E+00  0.00000000E+00  0.00000000E+00
  0.00000000E+00  0.00000000E+00  0.00000000E+00
  0.00000000E+00  0.00000000E+00  0.00000000E+00
  0.00000000E+00  0.00000000E+00  0.00000000E+00
  0.00000000E+00  0.00000000E+00  0.00000000E+00
  0.00000000E+00  0.00000000E+00  0.00000000E+00
  0.00000000E+00  0.00000000E+00  0.00000000E+00
  0.00000000E+00  0.00000000E+00  0.00000000E+00
  0.00000000E+00  0.00000000E+00  0.00000000E+00
  0.00000000E+00  0.00000000E+00  0.00000000E+00
  0.00000000E+00  0.00000000E+00  0.00000000E+00
  0.00000000E+00  0.00000000E+00  0.00000000E+00
  0.00000000E+00  0.00000000E+00  0.00000000E+00
  0.00000000E+00  0.00000000E+00  0.00000000E+00
  0.00000000E+00  0.00000000E+00  0.00000000E+00
