supercell of 100% icsd_608626.cif, 0% i 
   1.00000000000000     
    -9.4751145075893781   -0.0049735273030202    0.0020351208962572
    -4.7332452297528951    8.2130462282679098    0.0001486768605490
     0.0021744369677909    0.0010670049053997  -10.1125202152444427
   Al   Ge   Mg   N 
    28     4     4    36
Direct
  0.1136641485593231  0.0940992964633480  0.2970257581743994
  0.2215070740836609  0.2051285387908877  0.0461612821132960
  0.8919479116776614  0.2091533187663472  0.5446175249919634
  0.4415033807986504  0.0937657938082026  0.2969433368838992
  0.5531266311752887  0.2069146022099773  0.0476131728665337
  0.1159359493817931  0.0939177283593366  0.7925718510825703
  0.2171128566401350  0.2106756272435959  0.5441483824783191
  0.7793915726351770  0.0931972693156595  0.2991691372209715
  0.8909862644981033  0.2060182367178598  0.0488255625669254
  0.4403004355061029  0.0959437266461833  0.7957126549214451
  0.1117805162740737  0.4276057761271659  0.2926755506041872
  0.2234940661528384  0.5340440857913151  0.0467033731477997
  0.7789775988248309  0.4295503987664020  0.7921785926819354
  0.4411889382193408  0.4312784463260044  0.2941048213861066
  0.5558284198731656  0.5390080138943460  0.0479325981487477
  0.1149388024838913  0.4236374110457746  0.7949820389454416
  0.7784763190927109  0.4291526148769691  0.2949425677035862
  0.8911100478608844  0.5355137825572100  0.0471920748293897
  0.4410553988058439  0.4285214315083294  0.7962489094436975
  0.5603169914250685  0.5339447679957416  0.5441920168194798
  0.2237437072503567  0.8738211067490269  0.0468043104866211
  0.7764618043080134  0.7587199403477030  0.7922940404147738
  0.8896845859463411  0.8688774573830216  0.5416095838726136
  0.4443077374604059  0.7620225851150266  0.2971522262595272
  0.5528377133587199  0.8734587216225904  0.0479396263870910
  0.2169453288625220  0.8759718907178495  0.5409390180092473
  0.7777402922351868  0.7607139323533332  0.2978859689978535
  0.5597757473240534  0.8713375038774060  0.5428064116240847
  0.7756435657113414  0.0960619217746981  0.7946556918638450
  0.5515946259103401  0.2097632799499394  0.5448730715212022
  0.8884853878250851  0.8730508786549720  0.0470413294857650
  0.4434237703731299  0.7627502531292194  0.7946516622869169
  0.8917427112982708  0.5381276236376635  0.5452481576915744
  0.2177439876323248  0.5398475032189793  0.5422862044558627
  0.1111580894669757  0.7608851996624892  0.3029062787732002
  0.1143828610296538  0.7560996194878200  0.7939725044716042
  0.2220628709486903  0.2056307678992937  0.3537899119492920
  0.1101662726668522  0.0946193116817469  0.1054205475816872
  0.8888478218622282  0.2023167325758735  0.8559687049477986
  0.7754638701579140  0.0962788398780461  0.6058794625158797
  0.5561534582121723  0.2059694319492706  0.3565683373529183
  0.4455630705017413  0.0943661297251168  0.1055943213793213
  0.2241842387923683  0.2012584274771356  0.8580264778599584
  0.1118558411939006  0.0948420000887040  0.6051835966312140
  0.8885480643094539  0.2057437624777592  0.3545700239498828
  0.7772285894752642  0.0946068355324599  0.1060126405500839
  0.5579955825843328  0.2036425671101441  0.8556415514807227
  0.4457559993988411  0.0946806513404113  0.6042978713233538
  0.2301001607321425  0.5231284236753240  0.3410518945118355
  0.1109428716221217  0.4241943345653567  0.1011047026094900
  0.8875576368417200  0.5397739129408521  0.8566557796124812
  0.7716789660578982  0.4203508727972718  0.6088698082844815
  0.5562295802411228  0.5388004207370685  0.3545227369805630
  0.4496263131365765  0.4250474545794276  0.1033591706995836
  0.2318938724001072  0.5212345770187596  0.8604703133211018
  0.1184732300589459  0.4126435266239241  0.6145332541620547
  0.8883000718701979  0.5393588847591388  0.3391817715408578
  0.7766904317326393  0.4261332770156940  0.1024292337694277
  0.5542837052481389  0.5420084748453533  0.8558054567437523
  0.4585011170919699  0.4194256542785482  0.6096319616372341
  0.2317266740526094  0.8807801640159809  0.3558619343047909
  0.1080510626760045  0.7636221453956509  0.0898240932396561
  0.8706623403323803  0.8830633035817215  0.8594297566216156
  0.7694484703886815  0.7766808208857654  0.6096637742805129
  0.5556240127395924  0.8720826650089606  0.3540099815341122
  0.4461564216989444  0.7597799881710188  0.1056911049991669
  0.2325084944756952  0.8786174168785266  0.8584471281795771
  0.1019288021636982  0.7783009391401592  0.5945951301816237
  0.8703125158882727  0.8821113796982800  0.3560341976046431
  0.7771159669783003  0.7637125416748276  0.1027569695276540
  0.5544426461136496  0.8719666748839074  0.8559417893345369
  0.4456037153935739  0.7606464042001662  0.6061673151845852
 
  0.00000000E+00  0.00000000E+00  0.00000000E+00
  0.00000000E+00  0.00000000E+00  0.00000000E+00
  0.00000000E+00  0.00000000E+00  0.00000000E+00
  0.00000000E+00  0.00000000E+00  0.00000000E+00
  0.00000000E+00  0.00000000E+00  0.00000000E+00
  0.00000000E+00  0.00000000E+00  0.00000000E+00
  0.00000000E+00  0.00000000E+00  0.00000000E+00
  0.00000000E+00  0.00000000E+00  0.00000000E+00
  0.00000000E+00  0.00000000E+00  0.00000000E+00
  0.00000000E+00  0.00000000E+00  0.00000000E+00
  0.00000000E+00  0.00000000E+00  0.00000000E+00
  0.00000000E+00  0.00000000E+00  0.00000000E+00
  0.00000000E+00  0.00000000E+00  0.00000000E+00
  0.00000000E+00  0.00000000E+00  0.00000000E+00
  0.00000000E+00  0.00000000E+00  0.00000000E+00
  0.00000000E+00  0.00000000E+00  0.00000000E+00
  0.00000000E+00  0.00000000E+00  0.00000000E+00
  0.00000000E+00  0.00000000E+00  0.00000000E+00
  0.00000000E+00  0.00000000E+00  0.00000000E+00
  0.00000000E+00  0.00000000E+00  0.00000000E+00
  0.00000000E+00  0.00000000E+00  0.00000000E+00
  0.00000000E+00  0.00000000E+00  0.00000000E+00
  0.00000000E+00  0.00000000E+00  0.00000000E+00
  0.00000000E+00  0.00000000E+00  0.00000000E+00
  0.00000000E+00  0.00000000E+00  0.00000000E+00
  0.00000000E+00  0.00000000E+00  0.00000000E+00
  0.00000000E+00  0.00000000E+00  0.00000000E+00
  0.00000000E+00  0.00000000E+00  0.00000000E+00
  0.00000000E+00  0.00000000E+00  0.00000000E+00
  0.00000000E+00  0.00000000E+00  0.00000000E+00
  0.00000000E+00  0.00000000E+00  0.00000000E+00
  0.00000000E+00  0.00000000E+00  0.00000000E+00
  0.00000000E+00  0.00000000E+00  0.00000000E+00
  0.00000000E+00  0.00000000E+00  0.00000000E+00
  0.00000000E+00  0.00000000E+00  0.00000000E+00
  0.00000000E+00  0.00000000E+00  0.00000000E+00
  0.00000000E+00  0.00000000E+00  0.00000000E+00
  0.00000000E+00  0.00000000E+00  0.00000000E+00
  0.00000000E+00  0.00000000E+00  0.00000000E+00
  0.00000000E+00  0.00000000E+00  0.00000000E+00
  0.00000000E+00  0.00000000E+00  0.00000000E+00
  0.00000000E+00  0.00000000E+00  0.00000000E+00
  0.00000000E+00  0.00000000E+00  0.00000000E+00
  0.00000000E+00  0.00000000E+00  0.00000000E+00
  0.00000000E+00  0.00000000E+00  0.00000000E+00
  0.00000000E+00  0.00000000E+00  0.00000000E+00
  0.00000000E+00  0.00000000E+00  0.00000000E+00
  0.00000000E+00  0.00000000E+00  0.00000000E+00
  0.00000000E+00  0.00000000E+00  0.00000000E+00
  0.00000000E+00  0.00000000E+00  0.00000000E+00
  0.00000000E+00  0.00000000E+00  0.00000000E+00
  0.00000000E+00  0.00000000E+00  0.00000000E+00
  0.00000000E+00  0.00000000E+00  0.00000000E+00
  0.00000000E+00  0.00000000E+00  0.00000000E+00
  0.00000000E+00  0.00000000E+00  0.00000000E+00
  0.00000000E+00  0.00000000E+00  0.00000000E+00
  0.00000000E+00  0.00000000E+00  0.00000000E+00
  0.00000000E+00  0.00000000E+00  0.00000000E+00
  0.00000000E+00  0.00000000E+00  0.00000000E+00
  0.00000000E+00  0.00000000E+00  0.00000000E+00
  0.00000000E+00  0.00000000E+00  0.00000000E+00
  0.00000000E+00  0.00000000E+00  0.00000000E+00
  0.00000000E+00  0.00000000E+00  0.00000000E+00
  0.00000000E+00  0.00000000E+00  0.00000000E+00
  0.00000000E+00  0.00000000E+00  0.00000000E+00
  0.00000000E+00  0.00000000E+00  0.00000000E+00
  0.00000000E+00  0.00000000E+00  0.00000000E+00
  0.00000000E+00  0.00000000E+00  0.00000000E+00
  0.00000000E+00  0.00000000E+00  0.00000000E+00
  0.00000000E+00  0.00000000E+00  0.00000000E+00
  0.00000000E+00  0.00000000E+00  0.00000000E+00
  0.00000000E+00  0.00000000E+00  0.00000000E+00
