supercell of 100% icsd_608626.cif, 0% i 
   1.00000000000000     
    -9.4730026679268065   -0.0033534726964434   -0.0007847937077533
    -4.7335967020395113    8.1988141998397808   -0.0024616585060635
    -0.0008432880794062    0.0025580989696634  -10.1396477951735218
   Al   Ge   Mg   N 
    28     4     4    36
Direct
  0.1157657087823978  0.0919697834932691  0.2985258668604729
  0.7802954041366590  0.0928794355330922  0.7999602509886756
  0.4461755706883395  0.0924352978256024  0.2991759485616896
  0.2247807587199304  0.2050514228669869  0.5436320702899096
  0.7743378974905681  0.0926001527364164  0.2975652794569612
  0.8867143827518618  0.2077200917688771  0.0420129337040152
  0.4445268230062709  0.0926088645620311  0.7957645041817898
  0.5504337078582751  0.2089962401097694  0.5464855295599165
  0.1151936804008429  0.4264378939190436  0.2965001676851742
  0.2216380528578767  0.5415311988309597  0.0408229753444331
  0.4446615049852483  0.4274401168488211  0.2982322412490390
  0.5555329532506121  0.5412312749519472  0.0421707365767858
  0.1122549300918507  0.4313580574230471  0.7992854148583888
  0.2236076021982498  0.5417990769262317  0.5449053321702806
  0.7739022010890722  0.4304889562667427  0.2939330440054064
  0.8877401297950698  0.5405084067194608  0.0427555069086551
  0.4419310084992176  0.4329162645139490  0.7960153940178003
  0.5489878345958132  0.5430827458234191  0.5443136165336426
  0.1111451352687283  0.7611142229889012  0.2968958206660659
  0.2261610331721542  0.8679053675146449  0.0423019577283341
  0.7802516535403470  0.7599944828919973  0.7994198316334078
  0.8936638465810418  0.8678565660546340  0.5433265666814151
  0.4455316783473577  0.7619259396799549  0.2940783288483431
  0.5582472323496290  0.8649917778112624  0.0424598248759125
  0.2242451622305808  0.8668438872809716  0.5425987681499223
  0.7741722416023080  0.7655020295573323  0.2925271307553601
  0.8890774104657737  0.8697218317606144  0.0416491173710369
  0.4401017839028682  0.7594847352712577  0.7970157787950356
  0.2191721927883137  0.2083575549384733  0.0420138513359163
  0.8909832171614909  0.2033708269637842  0.5417200234058228
  0.5565007695745408  0.2081057377422866  0.0416126111780173
  0.8916463382025555  0.5401099099552837  0.5443189480184927
  0.1096548594074065  0.0918135111936209  0.7970508269394472
  0.7771164550474268  0.4282011628080014  0.8005673123292922
  0.1112940962031672  0.7630418243923103  0.7961778701867459
  0.5526578978646768  0.8728030807390397  0.5481830151972886
  0.2238332126267366  0.2063592759913107  0.3536713661553463
  0.1122142372092299  0.0970301729584051  0.1081630253741466
  0.8808661069672610  0.1991462981275589  0.8630862591420794
  0.7774653879262488  0.0961481090751519  0.6033561574019544
  0.5547500143014616  0.2057638578129470  0.3561250922109309
  0.4440784644577178  0.0966842520379601  0.1042296288172011
  0.2281151563385748  0.2122626316089367  0.8602981285596130
  0.1094947697962994  0.0956008072953338  0.5891692828688022
  0.8877014656694655  0.2046812570590575  0.3516474430614167
  0.7734662405404009  0.0954776204824697  0.1088133134420133
  0.5547957147470512  0.2059808817059121  0.8559778157434081
  0.4360069951276557  0.1104436860490452  0.6106165728314963
  0.2235948852578957  0.5369834784682936  0.3538174619027146
  0.1122194603775810  0.4263719468624814  0.1077988019230176
  0.8979641576208621  0.5442740613871351  0.8594433404926960
  0.7794744946725274  0.4270618565814814  0.5909443161154542
  0.5545438928863504  0.5388836791038827  0.3538300265908205
  0.4458497818979268  0.4248130508059873  0.1072925795160273
  0.2302370548998809  0.5251345628874731  0.8582317951761453
  0.1104999019371817  0.4269582055623218  0.6038619931748954
  0.8906838730230291  0.5391991496101980  0.3542315502238296
  0.7783560291755691  0.4284919577716266  0.1064174467181545
  0.5437741905028375  0.5433741508327756  0.8594530143009820
  0.4454335174007369  0.4271847010403533  0.6043957016855899
  0.2237811404945163  0.8713640897229809  0.3509979495263096
  0.1096656337596258  0.7610645532327354  0.1065712931382237
  0.8724834260070864  0.8806309763055253  0.8586315811033884
  0.7926346902920116  0.7514566118944401  0.6082262647581302
  0.5556931058515744  0.8727817794677151  0.3435450671437579
  0.4461279972552532  0.7593040115403653  0.1069468187143912
  0.2346796492490029  0.8678706836834138  0.8640923502630358
  0.1105054237641028  0.7612301254859588  0.5900199266034889
  0.8868838763950677  0.8729601912567944  0.3533696849480066
  0.7787941966162393  0.7599001663752460  0.1051161230496689
  0.5564002306769851  0.8708715090066903  0.8534746174077767
  0.4368284693695301  0.7540559202460457  0.6081618128661077
 
  0.00000000E+00  0.00000000E+00  0.00000000E+00
  0.00000000E+00  0.00000000E+00  0.00000000E+00
  0.00000000E+00  0.00000000E+00  0.00000000E+00
  0.00000000E+00  0.00000000E+00  0.00000000E+00
  0.00000000E+00  0.00000000E+00  0.00000000E+00
  0.00000000E+00  0.00000000E+00  0.00000000E+00
  0.00000000E+00  0.00000000E+00  0.00000000E+00
  0.00000000E+00  0.00000000E+00  0.00000000E+00
  0.00000000E+00  0.00000000E+00  0.00000000E+00
  0.00000000E+00  0.00000000E+00  0.00000000E+00
  0.00000000E+00  0.00000000E+00  0.00000000E+00
  0.00000000E+00  0.00000000E+00  0.00000000E+00
  0.00000000E+00  0.00000000E+00  0.00000000E+00
  0.00000000E+00  0.00000000E+00  0.00000000E+00
  0.00000000E+00  0.00000000E+00  0.00000000E+00
  0.00000000E+00  0.00000000E+00  0.00000000E+00
  0.00000000E+00  0.00000000E+00  0.00000000E+00
  0.00000000E+00  0.00000000E+00  0.00000000E+00
  0.00000000E+00  0.00000000E+00  0.00000000E+00
  0.00000000E+00  0.00000000E+00  0.00000000E+00
  0.00000000E+00  0.00000000E+00  0.00000000E+00
  0.00000000E+00  0.00000000E+00  0.00000000E+00
  0.00000000E+00  0.00000000E+00  0.00000000E+00
  0.00000000E+00  0.00000000E+00  0.00000000E+00
  0.00000000E+00  0.00000000E+00  0.00000000E+00
  0.00000000E+00  0.00000000E+00  0.00000000E+00
  0.00000000E+00  0.00000000E+00  0.00000000E+00
  0.00000000E+00  0.00000000E+00  0.00000000E+00
  0.00000000E+00  0.00000000E+00  0.00000000E+00
  0.00000000E+00  0.00000000E+00  0.00000000E+00
  0.00000000E+00  0.00000000E+00  0.00000000E+00
  0.00000000E+00  0.00000000E+00  0.00000000E+00
  0.00000000E+00  0.00000000E+00  0.00000000E+00
  0.00000000E+00  0.00000000E+00  0.00000000E+00
  0.00000000E+00  0.00000000E+00  0.00000000E+00
  0.00000000E+00  0.00000000E+00  0.00000000E+00
  0.00000000E+00  0.00000000E+00  0.00000000E+00
  0.00000000E+00  0.00000000E+00  0.00000000E+00
  0.00000000E+00  0.00000000E+00  0.00000000E+00
  0.00000000E+00  0.00000000E+00  0.00000000E+00
  0.00000000E+00  0.00000000E+00  0.00000000E+00
  0.00000000E+00  0.00000000E+00  0.00000000E+00
  0.00000000E+00  0.00000000E+00  0.00000000E+00
  0.00000000E+00  0.00000000E+00  0.00000000E+00
  0.00000000E+00  0.00000000E+00  0.00000000E+00
  0.00000000E+00  0.00000000E+00  0.00000000E+00
  0.00000000E+00  0.00000000E+00  0.00000000E+00
  0.00000000E+00  0.00000000E+00  0.00000000E+00
  0.00000000E+00  0.00000000E+00  0.00000000E+00
  0.00000000E+00  0.00000000E+00  0.00000000E+00
  0.00000000E+00  0.00000000E+00  0.00000000E+00
  0.00000000E+00  0.00000000E+00  0.00000000E+00
  0.00000000E+00  0.00000000E+00  0.00000000E+00
  0.00000000E+00  0.00000000E+00  0.00000000E+00
  0.00000000E+00  0.00000000E+00  0.00000000E+00
  0.00000000E+00  0.00000000E+00  0.00000000E+00
  0.00000000E+00  0.00000000E+00  0.00000000E+00
  0.00000000E+00  0.00000000E+00  0.00000000E+00
  0.00000000E+00  0.00000000E+00  0.00000000E+00
  0.00000000E+00  0.00000000E+00  0.00000000E+00
  0.00000000E+00  0.00000000E+00  0.00000000E+00
  0.00000000E+00  0.00000000E+00  0.00000000E+00
  0.00000000E+00  0.00000000E+00  0.00000000E+00
  0.00000000E+00  0.00000000E+00  0.00000000E+00
  0.00000000E+00  0.00000000E+00  0.00000000E+00
  0.00000000E+00  0.00000000E+00  0.00000000E+00
  0.00000000E+00  0.00000000E+00  0.00000000E+00
  0.00000000E+00  0.00000000E+00  0.00000000E+00
  0.00000000E+00  0.00000000E+00  0.00000000E+00
  0.00000000E+00  0.00000000E+00  0.00000000E+00
  0.00000000E+00  0.00000000E+00  0.00000000E+00
  0.00000000E+00  0.00000000E+00  0.00000000E+00
