supercell of icsd_608626.cif            
  0.930596088758449     
     9.2771456940594472    0.0111505314853477   -0.0020675089885538
    -4.6288839341300125    8.0207677025739947    0.0140950541528025
    -0.0021742788024016    0.0157331378870941    9.8931115970999048
   Al   B    N 
    20    16    36
Direct
  0.2174192983451988  0.1080671702530438  0.2362421065952347
  0.1044739844540814  0.2184844108112145  0.5003171964902151
  0.7799382194413695  0.2250208175995141  0.9701613671126665
  0.5610519139320544  0.1205899943808575  0.2409463014744375
  0.4521568425762652  0.2260691458593840  0.5070722735430380
  0.2186280909673357  0.1078615132137699  0.7531769367381784
  0.8919630944332155  0.1096786167913493  0.2445830071599744
  0.7793194026155064  0.2173481621824536  0.5134788428867978
  0.8932868965969405  0.4558124733436131  0.7191400824382939
  0.7832173642555276  0.5619600064775128  0.9838000786728784
  0.5678346960468659  0.4510922968922841  0.2479929726710779
  0.4390185234913559  0.5461243296630229  0.5048977090668956
  0.1115116297560164  0.5551239823698637  0.9833775295897098
  0.4338534317240885  0.5434500316118331  0.9981582377961189
  0.2054214609405847  0.7664558242545638  0.2531101485969742
  0.7901089929876477  0.8882128541000824  0.9943567913701301
  0.5574959362282357  0.7736560601760090  0.2655647749794099
  0.4332700314924480  0.8900906242124407  0.5115546838712106
  0.5610323307727185  0.7777847619075047  0.7348279843105558
  0.4365228408169060  0.8915065401378044  0.9891207263269024
  0.8971205837367009  0.1116743416880936  0.7574694217245934
  0.1163761004601582  0.2252335008029078  0.9967025705607853
  0.5478641602639271  0.1129759149319440  0.7650778415231017
  0.4386491086360280  0.2218769989988658  0.9961984844371656
  0.2078842513086698  0.4414314748717771  0.2489346842704947
  0.1086973399967519  0.5672744838134562  0.5148560340713146
  0.2201846546055179  0.4364754934702688  0.7560409027957959
  0.8994142139456258  0.4486922711242158  0.2044268598903543
  0.7837852069396973  0.5717453972033795  0.5158571614849379
  0.5488369022421438  0.4386841549450153  0.7587187014550096
  0.0961598196197997  0.8689052676497511  0.5072738977834206
  0.8962462298586402  0.7846963977394310  0.7454055105635078
  0.2199346785529528  0.7837768779053178  0.7523724461696304
  0.1053714151319838  0.8903025463093286  0.9920966861899601
  0.8968129193108751  0.7714241026157893  0.2491835991803342
  0.7942399360921470  0.8912678956975455  0.5102284478394239
  0.2126944255735452  0.0854622160422949  0.4471418056759688
  0.1201761731907283  0.2458989776503842  0.1766621573213953
  0.9171717036829037  0.1197542233797790  0.9341130008752430
  0.7590605383041549  0.1841799723620952  0.7172634732033885
  0.5589234897779320  0.1122994572420453  0.4363964430525868
  0.4467675741918882  0.2285451219384527  0.1661337367097317
  0.2198080946753649  0.1116343958540611  0.9570713367813752
  0.0966231034811571  0.2362633648520358  0.6995807592886578
  0.8752853519204891  0.0822711486907011  0.4428963682968927
  0.7945298034386497  0.2515376939461405  0.1843951478119337
  0.5384618181295622  0.1243180007800007  0.9350805069971102
  0.4707581548703459  0.2361425314403434  0.7058580089382929
  0.2032087026536828  0.4530527482518210  0.4266978723183854
  0.0972889080440993  0.5334438845683565  0.1909412634890089
  0.8919636497462307  0.4511036862217850  0.9180907888963148
  0.7585397684653543  0.5802300389580282  0.6920245291919400
  0.5873705417195083  0.4601122889038933  0.4459052057945101
  0.4149849530807401  0.5425328492985244  0.2036016658887121
  0.2087151215751746  0.4186972436254877  0.9267857661631496
  0.1537497144665707  0.5776627951296192  0.6918872984087017
  0.8996253000723939  0.4685010299541190  0.5054030435094390
  0.8106061846980097  0.5649598095750719  0.1941358677998082
  0.5442508957570524  0.4230228624821777  0.9329364527913668
  0.4240467148733060  0.5170903475862403  0.7060732315519829
  0.1931382902897241  0.7630897885127226  0.4538367600298230
  0.0862317650111066  0.8741496738587173  0.1724480472893717
  0.9162551947646804  0.7939048098343378  0.9172948673502503
  0.8155014799076525  0.9074190256621932  0.6884250581824745
  0.5790042338101955  0.7884212319845574  0.4746548379154376
  0.4419351883942397  0.8855009401270095  0.1924876140173666
  0.2055722289032573  0.7920819224393298  0.9271707504291200
  0.0968586475211239  0.8626372191405949  0.6815876372918126
  0.8932354408008081  0.7765645469839342  0.4455282822656841
  0.7868750080857794  0.8621077743638637  0.1959685511083151
  0.5580972737636003  0.7772514536951505  0.9366338556936356
  0.4275820597830418  0.9073281886589299  0.7121650060402658
 
  0.00000000E+00  0.00000000E+00  0.00000000E+00
  0.00000000E+00  0.00000000E+00  0.00000000E+00
  0.00000000E+00  0.00000000E+00  0.00000000E+00
  0.00000000E+00  0.00000000E+00  0.00000000E+00
  0.00000000E+00  0.00000000E+00  0.00000000E+00
  0.00000000E+00  0.00000000E+00  0.00000000E+00
  0.00000000E+00  0.00000000E+00  0.00000000E+00
  0.00000000E+00  0.00000000E+00  0.00000000E+00
  0.00000000E+00  0.00000000E+00  0.00000000E+00
  0.00000000E+00  0.00000000E+00  0.00000000E+00
  0.00000000E+00  0.00000000E+00  0.00000000E+00
  0.00000000E+00  0.00000000E+00  0.00000000E+00
  0.00000000E+00  0.00000000E+00  0.00000000E+00
  0.00000000E+00  0.00000000E+00  0.00000000E+00
  0.00000000E+00  0.00000000E+00  0.00000000E+00
  0.00000000E+00  0.00000000E+00  0.00000000E+00
  0.00000000E+00  0.00000000E+00  0.00000000E+00
  0.00000000E+00  0.00000000E+00  0.00000000E+00
  0.00000000E+00  0.00000000E+00  0.00000000E+00
  0.00000000E+00  0.00000000E+00  0.00000000E+00
  0.00000000E+00  0.00000000E+00  0.00000000E+00
  0.00000000E+00  0.00000000E+00  0.00000000E+00
  0.00000000E+00  0.00000000E+00  0.00000000E+00
  0.00000000E+00  0.00000000E+00  0.00000000E+00
  0.00000000E+00  0.00000000E+00  0.00000000E+00
  0.00000000E+00  0.00000000E+00  0.00000000E+00
  0.00000000E+00  0.00000000E+00  0.00000000E+00
  0.00000000E+00  0.00000000E+00  0.00000000E+00
  0.00000000E+00  0.00000000E+00  0.00000000E+00
  0.00000000E+00  0.00000000E+00  0.00000000E+00
  0.00000000E+00  0.00000000E+00  0.00000000E+00
  0.00000000E+00  0.00000000E+00  0.00000000E+00
  0.00000000E+00  0.00000000E+00  0.00000000E+00
  0.00000000E+00  0.00000000E+00  0.00000000E+00
  0.00000000E+00  0.00000000E+00  0.00000000E+00
  0.00000000E+00  0.00000000E+00  0.00000000E+00
  0.00000000E+00  0.00000000E+00  0.00000000E+00
  0.00000000E+00  0.00000000E+00  0.00000000E+00
  0.00000000E+00  0.00000000E+00  0.00000000E+00
  0.00000000E+00  0.00000000E+00  0.00000000E+00
  0.00000000E+00  0.00000000E+00  0.00000000E+00
  0.00000000E+00  0.00000000E+00  0.00000000E+00
  0.00000000E+00  0.00000000E+00  0.00000000E+00
  0.00000000E+00  0.00000000E+00  0.00000000E+00
  0.00000000E+00  0.00000000E+00  0.00000000E+00
  0.00000000E+00  0.00000000E+00  0.00000000E+00
  0.00000000E+00  0.00000000E+00  0.00000000E+00
  0.00000000E+00  0.00000000E+00  0.00000000E+00
  0.00000000E+00  0.00000000E+00  0.00000000E+00
  0.00000000E+00  0.00000000E+00  0.00000000E+00
  0.00000000E+00  0.00000000E+00  0.00000000E+00
  0.00000000E+00  0.00000000E+00  0.00000000E+00
  0.00000000E+00  0.00000000E+00  0.00000000E+00
  0.00000000E+00  0.00000000E+00  0.00000000E+00
  0.00000000E+00  0.00000000E+00  0.00000000E+00
  0.00000000E+00  0.00000000E+00  0.00000000E+00
  0.00000000E+00  0.00000000E+00  0.00000000E+00
  0.00000000E+00  0.00000000E+00  0.00000000E+00
  0.00000000E+00  0.00000000E+00  0.00000000E+00
  0.00000000E+00  0.00000000E+00  0.00000000E+00
  0.00000000E+00  0.00000000E+00  0.00000000E+00
  0.00000000E+00  0.00000000E+00  0.00000000E+00
  0.00000000E+00  0.00000000E+00  0.00000000E+00
  0.00000000E+00  0.00000000E+00  0.00000000E+00
  0.00000000E+00  0.00000000E+00  0.00000000E+00
  0.00000000E+00  0.00000000E+00  0.00000000E+00
  0.00000000E+00  0.00000000E+00  0.00000000E+00
  0.00000000E+00  0.00000000E+00  0.00000000E+00
  0.00000000E+00  0.00000000E+00  0.00000000E+00
  0.00000000E+00  0.00000000E+00  0.00000000E+00
  0.00000000E+00  0.00000000E+00  0.00000000E+00
  0.00000000E+00  0.00000000E+00  0.00000000E+00
