supercell of POSCAR                     
   1.03228000000000     
     6.3970863126299999    5.5387332920799999    4.9397337979799998
   -15.9736979067999982   -5.5365852353599996    9.8547656895600007
     6.4026568282999996  -11.0930079636999999    0.0094448205590600
   Sc   Al   N 
    32    64    96
Direct
  0.3693357473898828  0.0696690232294657  0.3100840751817344
  0.8324660354354663  0.3084189860820388  0.4336261876108409
  0.0223853930872266  0.2311452206065781  0.3042390165053064
  0.1898743628627386  0.1482746193619917  0.4377529252350527
  0.0214201028757373  0.2318585383834559  0.0673088569417999
  0.0403594416120896  0.4635756349709723  0.3698655030988647
  0.2315781925182563  0.3920687706023784  0.0043228393477790
  0.6907757602879840  0.1290039528125462  0.1187467447148549
  0.3693357473898828  0.0696690232294657  0.8100840751817344
  0.8324660354354663  0.3084189860820388  0.9336261876108480
  0.0223853930872266  0.2311452206065781  0.8042390165053064
  0.1898743628627386  0.1482746193619846  0.9377529252350527
  0.0214201028757373  0.2318585383834559  0.5673088569417999
  0.0403594416120896  0.4635756349709723  0.8698655030988647
  0.2315781925182563  0.3920687706023784  0.5043228393477719
  0.6907757602879840  0.1290039528125462  0.6187467447148549
  0.3693357473898828  0.5696690232294657  0.3100840751817415
  0.8324660354354663  0.8084189860820388  0.4336261876108409
  0.0223853930872266  0.7311452206065781  0.3042390165053064
  0.1898743628627386  0.6482746193619846  0.4377529252350527
  0.0214201028757373  0.7318585383834559  0.0673088569417999
  0.0403594416120896  0.9635756349709723  0.3698655030988647
  0.2315781925182563  0.8920687706023784  0.0043228393477719
  0.6907757602879840  0.6290039528125533  0.1187467447148549
  0.3693357473898828  0.5696690232294657  0.8100840751817344
  0.8324660354354663  0.8084189860820388  0.9336261876108409
  0.0223853930872266  0.7311452206065781  0.8042390165053064
  0.1898743628627386  0.6482746193619846  0.9377529252350527
  0.0214201028757373  0.7318585383834559  0.5673088569417999
  0.0403594416120896  0.9635756349709723  0.8698655030988647
  0.2315781925182563  0.8920687706023784  0.5043228393477790
  0.6907757602879840  0.6290039528125462  0.6187467447148549
  0.3574402284019342  0.0712201451998240  0.0640722241169485
  0.5356025685350474  0.4850086351607601  0.4349310869031839
  0.5375280407204954  0.4859994825306941  0.1923947250161007
  0.6911079641083546  0.4071084858731098  0.3112027296863928
  0.6882459134992942  0.4024494971341923  0.0641914412574636
  0.8541174088222903  0.3220744932742505  0.1836938982593779
  0.1957856909706734  0.1491212423273467  0.1854920522506092
  0.0493305704054663  0.4703135677511412  0.1227468673375185
  0.2312134998327693  0.3884777310048833  0.2486368583062344
  0.3962926853776878  0.3072667329362204  0.1289401798869463
  0.5560779342627740  0.2294506358650992  0.2474557882451904
  0.3947197846887818  0.3078498439919102  0.3738514081328717
  0.5502806237175832  0.2272178506275750  0.0050014187206884
  0.8856429557712033  0.0520837681519808  0.2470284815921602
  0.7279767460168003  0.1360367764345156  0.3751087319079645
  0.8836663013182644  0.0511996843637377  0.0008712701543061
  0.3574402284019342  0.0712201451998240  0.5640722241169414
  0.5356025685350474  0.4850086351607601  0.9349310869031839
  0.5375280407204954  0.4859994825306941  0.6923947250161007
  0.6911079641083546  0.4071084858731098  0.8112027296863928
  0.6882459134992942  0.4024494971341852  0.5641914412574707
  0.8541174088222903  0.3220744932742505  0.6836938982593779
  0.1957856909706734  0.1491212423273396  0.6854920522506092
  0.0493305704054663  0.4703135677511341  0.6227468673375185
  0.2312134998327693  0.3884777310048833  0.7486368583062344
  0.3962926853776878  0.3072667329362133  0.6289401798869463
  0.5560779342627740  0.2294506358650992  0.7474557882451904
  0.3947197846887818  0.3078498439919031  0.8738514081328717
  0.5502806237175832  0.2272178506275750  0.5050014187206884
  0.8856429557712033  0.0520837681519808  0.7470284815921602
  0.7279767460168003  0.1360367764345156  0.8751087319079645
  0.8836663013182644  0.0511996843637306  0.5008712701543061
  0.3574402284019342  0.5712201451998240  0.0640722241169414
  0.5356025685350474  0.9850086351607601  0.4349310869031839
  0.5375280407204954  0.9859994825306941  0.1923947250161007
  0.6911079641083546  0.9071084858731098  0.3112027296863928
  0.6882459134992942  0.9024494971341923  0.0641914412574636
  0.8541174088222903  0.8220744932742505  0.1836938982593779
  0.1957856909706734  0.6491212423273396  0.1854920522506092
  0.0493305704054663  0.9703135677511341  0.1227468673375185
  0.2312134998327693  0.8884777310048833  0.2486368583062273
  0.3962926853776878  0.8072667329362133  0.1289401798869463
  0.5560779342627740  0.7294506358650992  0.2474557882451904
  0.3947197846887818  0.8078498439919102  0.3738514081328717
  0.5502806237175832  0.7272178506275750  0.0050014187206884
  0.8856429557712033  0.5520837681519879  0.2470284815921602
  0.7279767460168003  0.6360367764345156  0.3751087319079645
  0.8836663013182644  0.5511996843637377  0.0008712701543061
  0.3574402284019342  0.5712201451998240  0.5640722241169414
  0.5356025685350474  0.9850086351607601  0.9349310869031839
  0.5375280407204954  0.9859994825306941  0.6923947250161007
  0.6911079641083546  0.9071084858731098  0.8112027296863928
  0.6882459134992942  0.9024494971341852  0.5641914412574707
  0.8541174088222903  0.8220744932742505  0.6836938982593779
  0.1957856909706734  0.6491212423273396  0.6854920522506092
  0.0493305704054663  0.9703135677511341  0.6227468673375185
  0.2312134998327693  0.8884777310048833  0.7486368583062344
  0.3962926853776878  0.8072667329362133  0.6289401798869463
  0.5560779342627740  0.7294506358650992  0.7474557882451904
  0.3947197846887818  0.8078498439919031  0.8738514081328717
  0.5502806237175832  0.7272178506275750  0.5050014187206884
  0.8856429557712033  0.5520837681519808  0.7470284815921531
  0.7279767460168003  0.6360367764345156  0.8751087319079645
  0.8836663013182644  0.5511996843637377  0.5008712701543061
  0.5800618116350549  0.1804680345157905  0.3666300838094045
  0.5293850776673708  0.1709406462302638  0.1101055383048575
  0.7238379035162197  0.0790057413325655  0.4769215528966058
  0.7263004973448233  0.0799201966367704  0.2443896358885809
  0.8767797856976927  0.0026034282581548  0.3603020700553756
  0.0440208072419139  0.4123271222498133  0.4936001312983080
  0.8794222812277184  0.4951923399644684  0.1102263562167991
  0.0594939349417984  0.4112998587020229  0.2234106080578897
  0.2352386021385584  0.3354927784035908  0.3554858272416155
  0.3934297324319900  0.2571168149511465  0.4872381497510432
  0.2372050132014181  0.3330062873726760  0.1206780091327317
  0.3861569404114888  0.2490657672588199  0.2371350431411514
  0.2391731520561322  0.0652369486376685  0.1634399986352122
  0.2559201126414052  0.0630026821414376  0.4279707646426232
  0.4268625110450159  0.4803938486909018  0.2979639610177642
  0.4471000727695369  0.0004743125810123  0.0578841293373458
  0.5821735138364375  0.4035002511244130  0.1737710783838509
  0.7439215891522863  0.3270287513266084  0.2885569916357653
  0.5853707304232998  0.4024962689412064  0.4239741262113697
  0.7324866222781878  0.3207718186349453  0.0582585418908224
  0.8894903805725534  0.2379156972393872  0.1714879960321909
  0.0789383970660893  0.1414283913429699  0.2848601508901467
  0.9117976262109053  0.2283690372713494  0.4209097947154419
  0.0742089519733398  0.1420496575153649  0.0562341504029504
  0.5800618116350549  0.1804680345157905  0.8666300838094045
  0.5293850776673708  0.1709406462302567  0.6101055383048575
  0.7238379035162197  0.0790057413325655  0.9769215528966058
  0.7263004973448233  0.0799201966367633  0.7443896358885809
  0.8767797856976927  0.0026034282581548  0.8603020700553685
  0.0440208072419139  0.4123271222498133  0.9936001312983080
  0.8794222812277184  0.4951923399644684  0.6102263562167991
  0.0594939349417984  0.4112998587020229  0.7234106080578897
  0.2352386021385584  0.3354927784035908  0.8554858272416155
  0.3934297324319900  0.2571168149511465  0.9872381497510432
  0.2372050132014181  0.3330062873726760  0.6206780091327389
  0.3861569404114888  0.2490657672588199  0.7371350431411514
  0.2391731520561322  0.0652369486376685  0.6634399986352122
  0.2559201126414052  0.0630026821414376  0.9279707646426232
  0.4268625110450159  0.4803938486909018  0.7979639610177713
  0.4471000727695369  0.0004743125810123  0.5578841293373458
  0.5821735138364375  0.4035002511244130  0.6737710783838509
  0.7439215891522863  0.3270287513266084  0.7885569916357653
  0.5853707304232998  0.4024962689411993  0.9239741262113625
  0.7324866222781878  0.3207718186349382  0.5582585418908224
  0.8894903805725534  0.2379156972393872  0.6714879960321838
  0.0789383970660893  0.1414283913429699  0.7848601508901467
  0.9117976262109053  0.2283690372713423  0.9209097947154419
  0.0742089519733398  0.1420496575153578  0.5562341504029504
  0.5800618116350549  0.6804680345157976  0.3666300838094045
  0.5293850776673708  0.6709406462302638  0.1101055383048575
  0.7238379035162197  0.5790057413325655  0.4769215528966058
  0.7263004973448233  0.5799201966367633  0.2443896358885738
  0.8767797856976927  0.5026034282581620  0.3603020700553756
  0.0440208072419139  0.9123271222498133  0.4936001312983080
  0.8794222812277184  0.9951923399644684  0.1102263562167991
  0.0594939349417984  0.9112998587020229  0.2234106080578897
  0.2352386021385584  0.8354927784035908  0.3554858272416155
  0.3934297324319900  0.7571168149511465  0.4872381497510432
  0.2372050132014181  0.8330062873726760  0.1206780091327317
  0.3861569404114888  0.7490657672588199  0.2371350431411514
  0.2391731520561322  0.5652369486376756  0.1634399986352122
  0.2559201126414052  0.5630026821414376  0.4279707646426232
  0.4268625110450159  0.9803938486909018  0.2979639610177713
  0.4471000727695369  0.5004743125810123  0.0578841293373458
  0.5821735138364375  0.9035002511244130  0.1737710783838509
  0.7439215891522863  0.8270287513266084  0.2885569916357653
  0.5853707304232998  0.9024962689412064  0.4239741262113697
  0.7324866222781878  0.8207718186349382  0.0582585418908295
  0.8894903805725534  0.7379156972393872  0.1714879960321838
  0.0789383970660893  0.6414283913429699  0.2848601508901467
  0.9117976262109053  0.7283690372713494  0.4209097947154419
  0.0742089519733398  0.6420496575153578  0.0562341504029504
  0.5800618116350549  0.6804680345157905  0.8666300838094045
  0.5293850776673708  0.6709406462302638  0.6101055383048575
  0.7238379035162197  0.5790057413325655  0.9769215528966058
  0.7263004973448233  0.5799201966367633  0.7443896358885809
  0.8767797856976927  0.5026034282581548  0.8603020700553685
  0.0440208072419139  0.9123271222498133  0.9936001312983080
  0.8794222812277184  0.9951923399644684  0.6102263562167991
  0.0594939349417984  0.9112998587020229  0.7234106080578897
  0.2352386021385584  0.8354927784035837  0.8554858272416155
  0.3934297324319900  0.7571168149511465  0.9872381497510432
  0.2372050132014181  0.8330062873726760  0.6206780091327317
  0.3861569404114888  0.7490657672588199  0.7371350431411514
  0.2391731520561322  0.5652369486376685  0.6634399986352122
  0.2559201126414052  0.5630026821414376  0.9279707646426232
  0.4268625110450159  0.9803938486909018  0.7979639610177713
  0.4471000727695369  0.5004743125810123  0.5578841293373458
  0.5821735138364375  0.9035002511244130  0.6737710783838509
  0.7439215891522863  0.8270287513266084  0.7885569916357582
  0.5853707304232998  0.9024962689411993  0.9239741262113625
  0.7324866222781878  0.8207718186349382  0.5582585418908224
  0.8894903805725534  0.7379156972393801  0.6714879960321909
  0.0789383970660893  0.6414283913429699  0.7848601508901467
  0.9117976262109053  0.7283690372713494  0.9209097947154419
  0.0742089519733398  0.6420496575153578  0.5562341504029504
