generated by phonopy                    
   1.00000000000000     
    11.7777700938999992   -0.0000006592896312    0.0000118211769744
    -0.0000006477562692   11.7777479613999994   -0.0000130806483528
     0.0000177256125076   -0.0000204342245446   17.8544012557999991
   Bi   Cu   Se   O 
    36    36    36    35
Direct
  0.9856247489056145  0.1666136943233028  0.4211036815750901
  0.3479081080592863  0.1666179184598349  0.4211095497609065
  0.6667708668116177  0.1666195282242526  0.4285280097545154
  0.0012588714039907  0.4986545373322571  0.4291895860686381
  0.3322934258904411  0.4986582458847906  0.4291919350724172
  0.6667717001386464  0.4992205460690897  0.4299227602788775
  0.0012592740483512  0.8345808710344045  0.4291868381646040
  0.3322977136728653  0.8345772773879290  0.4291870095036145
  0.6667719356307060  0.8340210000492903  0.4299196929422635
  0.9998393743117191  0.1666501659520634  0.9293733916143907
  0.3335579525407439  0.1666506365354294  0.9293724637451533
  0.6666970081070289  0.1666486394670557  0.9292508921722060
  0.9997916851931592  0.4997401169965130  0.9292630600271039
  0.3336060839660817  0.4997404564904073  0.9292613191627836
  0.6666982208810524  0.4996655905475791  0.9293398890312119
  0.9997908844581858  0.8335523751707825  0.9292630402020379
  0.3336054784406670  0.8335557187283129  0.9292623297021620
  0.6666961096528894  0.8336270322818464  0.9293413271952673
  0.1666981535794818  0.9997910737106892  0.0707497461068556
  0.4997888084971578  0.9997445224176218  0.0708608536307977
  0.8336039354762619  0.9997417936622384  0.0708634184929480
  0.1667001099365564  0.3335077421329160  0.0707478337564282
  0.4997896911961917  0.3335567773321984  0.0708576145881636
  0.8336039567031790  0.3335555932956140  0.0708608636871375
  0.1666998516238749  0.6666453747573158  0.0708713949379671
  0.4997167213806009  0.6666452259982449  0.0707813825243377
  0.8336759131975100  0.6666451097558408  0.0707842397510348
  0.1667820683287715  0.9854814324783732  0.5790075963039314
  0.4988155014378748  0.0011018122539781  0.5709331637305795
  0.8347377322302663  0.0010962870909381  0.5709297792038157
  0.1667811959968404  0.3477622177095796  0.5790173579636502
  0.4988171059357143  0.3321404066772473  0.5709355821313835
  0.8347429564345035  0.3321336974254763  0.5709316833750506
  0.1667763527815467  0.6666247963860314  0.5715947218011550
  0.4993794666105060  0.6666232806683894  0.5702043475619334
  0.8341795177768390  0.6666244520359257  0.5701965387389976
  0.0022509039264094  0.9998546146641090  0.2494489592631979
  0.3312476949675869  0.9998601473049860  0.2494459671516438
  0.6667495352260957  0.0028348034565084  0.2491419017020888
  0.0022556406607634  0.3334245727363410  0.2494478390269634
  0.3312514596648910  0.3334214065711123  0.2494455361518533
  0.6667471647865995  0.3304569951367000  0.2491405476466255
  0.0016548284278386  0.6666328908827666  0.2503664962828296
  0.3318418469687714  0.6666342315426732  0.2503655847960857
  0.6667478450841813  0.6666349429655938  0.2515547246522942
  0.9999347096121198  0.0021280272925353  0.7506766199344383
  0.3334986272264970  0.0021347888570418  0.7506760685645517
  0.6667266447903089  0.0015315735062842  0.7497566690869135
  0.9999376471541623  0.3311320732460175  0.7506731628931504
  0.3335039191539408  0.3311283692327294  0.7506742874433598
  0.6667237888647719  0.3317254585109666  0.7497557492159430
  0.0029021129980080  0.6666337530225945  0.7509791531819658
  0.3305176861190944  0.6666396100707317  0.7509802003433919
  0.6667171528089924  0.6666246637385527  0.7485696675985807
  0.1667196265410809  0.1666243040498614  0.2492131291483588
  0.5005354802839861  0.1666307435648022  0.2472866830416010
  0.8328954041213166  0.1666296022875784  0.2472847910566642
  0.1667186910430019  0.4993205428079150  0.2508826806245494
  0.4976134665721688  0.5037846571814413  0.2495889977430608
  0.8358220160372056  0.5037876211541317  0.2495851120406911
  0.1667201186926874  0.8339297578107008  0.2508852276869078
  0.4976093942220459  0.8294640849057089  0.2495863927615432
  0.8358209883846826  0.8294565273312102  0.2495848616324565
  0.1667534363860881  0.1666426011823319  0.7509098122073823
  0.4994509372423153  0.1666385849391574  0.7492363631473040
  0.8340542801708182  0.1666356313973907  0.7492406153128002
  0.1667473101255084  0.5004631679521978  0.7528378584638702
  0.5039220771913406  0.4975332697315551  0.7505353508154897
  0.8296016607137204  0.4975339847427378  0.7505334363901852
  0.1667422215956620  0.8328258436186999  0.7528345043770202
  0.5039130200395263  0.8357454487342935  0.7505332736020591
  0.8295979031720861  0.8357451107951093  0.7505306061284074
  0.1667541706534266  0.3317358859031216  0.3382712057367527
  0.4993238195322505  0.3324967595668156  0.3370729303328233
  0.8341794632436148  0.3325023678910952  0.3370723897838204
  0.1667531817391747  0.6666231992384439  0.3391181093773596
  0.4985657118445417  0.6666211125299242  0.3390432302350845
  0.8349337729709774  0.6666279421298853  0.3390424534472274
  0.1667580734553482  0.0015199524576488  0.3382725416060026
  0.4993278170276128  0.0007532339179974  0.3370700827041944
  0.8341789541639599  0.0007587422337210  0.3370704881067610
  0.1667110877392659  0.3331585611125405  0.8375259619973221
  0.5002715039710282  0.3324234375839126  0.8370626374538972
  0.8331586093623997  0.3324285199772135  0.8370657180347365
  0.1667104042709724  0.6666469119486322  0.8385190433563281
  0.4989279396942479  0.6666427271113378  0.8342162070776524
  0.8344961183150588  0.6666469230666436  0.8342209515590397
  0.1667185719275892  0.0001281108893139  0.8375274867948619
  0.5002759347925902  0.0008523286550641  0.8370639854627484
  0.8331643938647844  0.0008557232114157  0.8370676817679197
  0.3332303326314161  0.1666407066477120  0.1625934954532227
  0.6667151696243394  0.1666427640494987  0.1616040406229473
  0.0002034196794298  0.1666428572016585  0.1625957928740931
  0.3324995288211738  0.5001913865404291  0.1630568690947740
  0.6667126339927094  0.4988582988053523  0.1659017827308702
  0.0009300870471236  0.5001948457425343  0.1630557495328588
  0.3325015611280691  0.8330841153448318  0.1630582247829224
  0.6667158680233030  0.8344240214951171  0.1659065493105416
  0.0009330547122772  0.8330860355622036  0.1630592062594971
  0.3318641611341278  0.1666249234344264  0.6618491033749407
  0.6667562929288593  0.1666279323745670  0.6610048778868602
  0.0016419832578478  0.1666340278844203  0.6618510889170750
  0.3326200712341532  0.4992029109033211  0.6630557646037829
  0.6667529063746755  0.4984503704043348  0.6610802813208636
  0.0008746931230732  0.4992097782618288  0.6630473638499552
  0.3326278393144761  0.8340553906071122  0.6630532862735876
  0.6667617121588663  0.8348133568391418  0.6610776397805793
  0.0008868061733764  0.8340627551209465  0.6630462217978987
  0.5012426549468714  0.1666205376137597  0.4980835676007729
  0.8322847897352901  0.1666253880941753  0.4980803032941523
  0.1667603464519232  0.5011055115405014  0.5020418895253513
  0.4984951841383918  0.4983511773370566  0.5000656096187939
  0.8350329286483955  0.4983562337611005  0.5000570460650664
  0.1667723880499494  0.8321420099446613  0.5020333522987599
  0.4985007456387081  0.8348858761130060  0.5000609133165597
  0.8350385490667662  0.8348943206384050  0.5000558848688001
  0.1667039841509208  0.1666459852847098  0.0000606150428908
  0.5001412724931100  0.1666461204323681  0.0004280410410544
  0.8332659772401385  0.1666464990984338  0.0004305716204485
  0.1667030763253621  0.5000832845676300  0.9996934950795122
  0.5004133054575632  0.5003556089613284  0.0000602371734786
  0.8329908002095294  0.5003578802385888  0.0000629004011472
  0.1667056131407989  0.8332084249190430  0.9996962174138702
  0.5004142899631816  0.8329346102801409  0.0000643436526246
  0.8329909038156629  0.8329340396953029  0.0000648537284107
  0.9997320561147092  0.9996754547396378  0.0000635061904930
  0.3336759217755443  0.9996771623548213  0.0000619122693948
  0.6667045504178688  0.9992960868649803  0.9999613128015383
  0.9997310359693046  0.3336178452439640  0.0000628259098647
  0.3336745060881583  0.3336168338204928  0.0000597713027162
  0.6667030044059601  0.3339974950201778  0.9999599027548811
  0.9993516743433730  0.6666468279904834  0.0001666232755397
  0.3340551921453780  0.6666439916633422  0.0001633859851751
  0.6667020641458592  0.6666442210455656  0.0000633378363943
  0.0070840554150351  0.0069359768666075  0.5000569904427010
  0.3264650787709371  0.0069236907364925  0.5000589247448204
  0.6667671927017409  0.0007456902152043  0.5001758622900567
  0.0070770110017975  0.3263104147064269  0.5000593288393418
  0.3264440483224789  0.3263072903311297  0.5000628888571299
  0.6667607516338947  0.3324971788544602  0.5001802683512508
  0.0008926530047404  0.6666299682448269  0.4999429543820924
  0.3326436881272699  0.6666177849138677  0.4999437548782950
  0.6667623178457873  0.6666246004429439  0.5000589888124622
 
  0.00000000E+00  0.00000000E+00  0.00000000E+00
  0.00000000E+00  0.00000000E+00  0.00000000E+00
  0.00000000E+00  0.00000000E+00  0.00000000E+00
  0.00000000E+00  0.00000000E+00  0.00000000E+00
  0.00000000E+00  0.00000000E+00  0.00000000E+00
  0.00000000E+00  0.00000000E+00  0.00000000E+00
  0.00000000E+00  0.00000000E+00  0.00000000E+00
  0.00000000E+00  0.00000000E+00  0.00000000E+00
  0.00000000E+00  0.00000000E+00  0.00000000E+00
  0.00000000E+00  0.00000000E+00  0.00000000E+00
  0.00000000E+00  0.00000000E+00  0.00000000E+00
  0.00000000E+00  0.00000000E+00  0.00000000E+00
  0.00000000E+00  0.00000000E+00  0.00000000E+00
  0.00000000E+00  0.00000000E+00  0.00000000E+00
  0.00000000E+00  0.00000000E+00  0.00000000E+00
  0.00000000E+00  0.00000000E+00  0.00000000E+00
  0.00000000E+00  0.00000000E+00  0.00000000E+00
  0.00000000E+00  0.00000000E+00  0.00000000E+00
  0.00000000E+00  0.00000000E+00  0.00000000E+00
  0.00000000E+00  0.00000000E+00  0.00000000E+00
  0.00000000E+00  0.00000000E+00  0.00000000E+00
  0.00000000E+00  0.00000000E+00  0.00000000E+00
  0.00000000E+00  0.00000000E+00  0.00000000E+00
  0.00000000E+00  0.00000000E+00  0.00000000E+00
  0.00000000E+00  0.00000000E+00  0.00000000E+00
  0.00000000E+00  0.00000000E+00  0.00000000E+00
  0.00000000E+00  0.00000000E+00  0.00000000E+00
  0.00000000E+00  0.00000000E+00  0.00000000E+00
  0.00000000E+00  0.00000000E+00  0.00000000E+00
  0.00000000E+00  0.00000000E+00  0.00000000E+00
  0.00000000E+00  0.00000000E+00  0.00000000E+00
  0.00000000E+00  0.00000000E+00  0.00000000E+00
  0.00000000E+00  0.00000000E+00  0.00000000E+00
  0.00000000E+00  0.00000000E+00  0.00000000E+00
  0.00000000E+00  0.00000000E+00  0.00000000E+00
  0.00000000E+00  0.00000000E+00  0.00000000E+00
  0.00000000E+00  0.00000000E+00  0.00000000E+00
  0.00000000E+00  0.00000000E+00  0.00000000E+00
  0.00000000E+00  0.00000000E+00  0.00000000E+00
  0.00000000E+00  0.00000000E+00  0.00000000E+00
  0.00000000E+00  0.00000000E+00  0.00000000E+00
  0.00000000E+00  0.00000000E+00  0.00000000E+00
  0.00000000E+00  0.00000000E+00  0.00000000E+00
  0.00000000E+00  0.00000000E+00  0.00000000E+00
  0.00000000E+00  0.00000000E+00  0.00000000E+00
  0.00000000E+00  0.00000000E+00  0.00000000E+00
  0.00000000E+00  0.00000000E+00  0.00000000E+00
  0.00000000E+00  0.00000000E+00  0.00000000E+00
  0.00000000E+00  0.00000000E+00  0.00000000E+00
  0.00000000E+00  0.00000000E+00  0.00000000E+00
  0.00000000E+00  0.00000000E+00  0.00000000E+00
  0.00000000E+00  0.00000000E+00  0.00000000E+00
  0.00000000E+00  0.00000000E+00  0.00000000E+00
  0.00000000E+00  0.00000000E+00  0.00000000E+00
  0.00000000E+00  0.00000000E+00  0.00000000E+00
  0.00000000E+00  0.00000000E+00  0.00000000E+00
  0.00000000E+00  0.00000000E+00  0.00000000E+00
  0.00000000E+00  0.00000000E+00  0.00000000E+00
  0.00000000E+00  0.00000000E+00  0.00000000E+00
  0.00000000E+00  0.00000000E+00  0.00000000E+00
  0.00000000E+00  0.00000000E+00  0.00000000E+00
  0.00000000E+00  0.00000000E+00  0.00000000E+00
  0.00000000E+00  0.00000000E+00  0.00000000E+00
  0.00000000E+00  0.00000000E+00  0.00000000E+00
  0.00000000E+00  0.00000000E+00  0.00000000E+00
  0.00000000E+00  0.00000000E+00  0.00000000E+00
  0.00000000E+00  0.00000000E+00  0.00000000E+00
  0.00000000E+00  0.00000000E+00  0.00000000E+00
  0.00000000E+00  0.00000000E+00  0.00000000E+00
  0.00000000E+00  0.00000000E+00  0.00000000E+00
  0.00000000E+00  0.00000000E+00  0.00000000E+00
  0.00000000E+00  0.00000000E+00  0.00000000E+00
  0.00000000E+00  0.00000000E+00  0.00000000E+00
  0.00000000E+00  0.00000000E+00  0.00000000E+00
  0.00000000E+00  0.00000000E+00  0.00000000E+00
  0.00000000E+00  0.00000000E+00  0.00000000E+00
  0.00000000E+00  0.00000000E+00  0.00000000E+00
  0.00000000E+00  0.00000000E+00  0.00000000E+00
  0.00000000E+00  0.00000000E+00  0.00000000E+00
  0.00000000E+00  0.00000000E+00  0.00000000E+00
  0.00000000E+00  0.00000000E+00  0.00000000E+00
  0.00000000E+00  0.00000000E+00  0.00000000E+00
  0.00000000E+00  0.00000000E+00  0.00000000E+00
  0.00000000E+00  0.00000000E+00  0.00000000E+00
  0.00000000E+00  0.00000000E+00  0.00000000E+00
  0.00000000E+00  0.00000000E+00  0.00000000E+00
  0.00000000E+00  0.00000000E+00  0.00000000E+00
  0.00000000E+00  0.00000000E+00  0.00000000E+00
  0.00000000E+00  0.00000000E+00  0.00000000E+00
  0.00000000E+00  0.00000000E+00  0.00000000E+00
  0.00000000E+00  0.00000000E+00  0.00000000E+00
  0.00000000E+00  0.00000000E+00  0.00000000E+00
  0.00000000E+00  0.00000000E+00  0.00000000E+00
  0.00000000E+00  0.00000000E+00  0.00000000E+00
  0.00000000E+00  0.00000000E+00  0.00000000E+00
  0.00000000E+00  0.00000000E+00  0.00000000E+00
  0.00000000E+00  0.00000000E+00  0.00000000E+00
  0.00000000E+00  0.00000000E+00  0.00000000E+00
  0.00000000E+00  0.00000000E+00  0.00000000E+00
  0.00000000E+00  0.00000000E+00  0.00000000E+00
  0.00000000E+00  0.00000000E+00  0.00000000E+00
  0.00000000E+00  0.00000000E+00  0.00000000E+00
  0.00000000E+00  0.00000000E+00  0.00000000E+00
  0.00000000E+00  0.00000000E+00  0.00000000E+00
  0.00000000E+00  0.00000000E+00  0.00000000E+00
  0.00000000E+00  0.00000000E+00  0.00000000E+00
  0.00000000E+00  0.00000000E+00  0.00000000E+00
  0.00000000E+00  0.00000000E+00  0.00000000E+00
  0.00000000E+00  0.00000000E+00  0.00000000E+00
  0.00000000E+00  0.00000000E+00  0.00000000E+00
  0.00000000E+00  0.00000000E+00  0.00000000E+00
  0.00000000E+00  0.00000000E+00  0.00000000E+00
  0.00000000E+00  0.00000000E+00  0.00000000E+00
  0.00000000E+00  0.00000000E+00  0.00000000E+00
  0.00000000E+00  0.00000000E+00  0.00000000E+00
  0.00000000E+00  0.00000000E+00  0.00000000E+00
  0.00000000E+00  0.00000000E+00  0.00000000E+00
  0.00000000E+00  0.00000000E+00  0.00000000E+00
  0.00000000E+00  0.00000000E+00  0.00000000E+00
  0.00000000E+00  0.00000000E+00  0.00000000E+00
  0.00000000E+00  0.00000000E+00  0.00000000E+00
  0.00000000E+00  0.00000000E+00  0.00000000E+00
  0.00000000E+00  0.00000000E+00  0.00000000E+00
  0.00000000E+00  0.00000000E+00  0.00000000E+00
  0.00000000E+00  0.00000000E+00  0.00000000E+00
  0.00000000E+00  0.00000000E+00  0.00000000E+00
  0.00000000E+00  0.00000000E+00  0.00000000E+00
  0.00000000E+00  0.00000000E+00  0.00000000E+00
  0.00000000E+00  0.00000000E+00  0.00000000E+00
  0.00000000E+00  0.00000000E+00  0.00000000E+00
  0.00000000E+00  0.00000000E+00  0.00000000E+00
  0.00000000E+00  0.00000000E+00  0.00000000E+00
  0.00000000E+00  0.00000000E+00  0.00000000E+00
  0.00000000E+00  0.00000000E+00  0.00000000E+00
  0.00000000E+00  0.00000000E+00  0.00000000E+00
  0.00000000E+00  0.00000000E+00  0.00000000E+00
  0.00000000E+00  0.00000000E+00  0.00000000E+00
  0.00000000E+00  0.00000000E+00  0.00000000E+00
  0.00000000E+00  0.00000000E+00  0.00000000E+00
  0.00000000E+00  0.00000000E+00  0.00000000E+00
  0.00000000E+00  0.00000000E+00  0.00000000E+00
  0.00000000E+00  0.00000000E+00  0.00000000E+00
  0.00000000E+00  0.00000000E+00  0.00000000E+00
