generated by phonopy                    
   1.00000000000000     
    11.7777700938999992   -0.0000006592896312    0.0000118211769744
    -0.0000006477562692   11.7777479613999994   -0.0000130806483528
     0.0000177256125076   -0.0000204342245446   17.8544012557999991
   Se   Bi   Cu   O 
    37    35    36    36
Direct
  0.9997129964170384  0.1663673862611716  0.3521882401902587
  0.1665900825319895  0.3332499368616624  0.3394388810620654
  0.4957399954779831  0.3344386719357502  0.3355237971923728
  0.8188658183021786  0.3481336137022808  0.3370568703199268
  0.1677795870481233  0.6623959509530906  0.3355240496345075
  0.5001235175500867  0.6667805486409293  0.3362971513240893
  0.8324620034536210  0.6712072377838183  0.3355085285507400
  0.1814737061732998  0.9855216176915178  0.3370591560612866
  0.5045481706638526  0.9991209423374201  0.3355072954240228
  0.8334775532134131  0.0001376837090987  0.3394811204233648
  0.1665568459940232  0.3332295035763622  0.8379458548925243
  0.5001350599471124  0.3352362238732027  0.8391757874037324
  0.8333061998315117  0.3336186568035870  0.8378425872805408
  0.1685680966605929  0.6668054022838064  0.8391769289754336
  0.5001231017892280  0.6667933404161417  0.8399550027776002
  0.8316758725784865  0.6667876790259442  0.8391780689190682
  0.1669466749409949  0.9999744853385053  0.8378420742647279
  0.5001151671489623  0.9983475157761035  0.8391775308635872
  0.8336891091411474  0.0003599266847374  0.8379481045561832
  0.3316652889595275  0.1657845231740041  0.1628452540678680
  0.6686366366056333  0.1678517327124780  0.1628594275977306
  0.0001769973846848  0.1668558303379228  0.1553352650629378
  0.3319935764612865  0.4986630522355711  0.1623220611459004
  0.6647895844161695  0.5021329080001777  0.1600867579263792
  0.9991110161656351  0.4983419979728865  0.1628454988066608
  0.3354633045312525  0.8314623947838271  0.1600894943770683
  0.6682744001047709  0.8349455653263860  0.1623351051863438
  0.0011824638524232  0.8353064498568656  0.1628613556799081
  0.3355562635693659  0.1665732947550254  0.6660442261925610
  0.6646655754030064  0.1669903569053872  0.6660488998321910
  0.0001131773089043  0.1667709002744715  0.6638666353213694
  0.3331864007112415  0.4998450528042753  0.6648654681481574
  0.6663772933092389  0.5005091063102540  0.6645240132140060
  0.9999114795676007  0.5022152979125565  0.6660441042575442
  0.3338507815035925  0.8330376505826607  0.6645242337323438
  0.6670365473222191  0.8336983674765364  0.6648647935059415
  0.0003289300395295  0.8313228982913330  0.6660523369107523
  0.3308167309966166  0.1654245298088597  0.4325042371184367
  0.6693513990542712  0.1681105837660581  0.4325456957059401
  0.9987742424813533  0.4974741017147650  0.4325046707041267
  0.3345885836566964  0.5012492513302291  0.4318164717071369
  0.6655017235927900  0.5013823069645085  0.4301967299624820
  0.0014599473699235  0.8360067446974426  0.4325454666640383
  0.3347229171658910  0.8321497372595914  0.4301966585128341
  0.6655995248900552  0.8322476330833410  0.4318655161445122
  0.0001281134587856  0.1668015577253072  0.9275139113186128
  0.3341338869988846  0.1665958562103000  0.9283555037666602
  0.6661290319624626  0.1670189677780840  0.9283621442095011
  0.9999218370146465  0.5008099103504051  0.9283584994744771
  0.3333543748646548  0.5000288303033145  0.9288155575482548
  0.6666306584371355  0.5002973376571589  0.9290091143761146
  0.0003444237635009  0.8328016897200783  0.9283667795584023
  0.3336231526177329  0.8333041672990333  0.9290108817229665
  0.6668994923852409  0.8335738626174134  0.9288241088697404
  0.1661673351636850  0.0007879287130166  0.0703501305767631
  0.5008094662622256  0.9997144462649032  0.0706086565031114
  0.8350679179690914  0.0017439648783721  0.0702482534508775
  0.1651769522533826  0.3318513530916221  0.0702589918637742
  0.4994182639870388  0.3338963517351061  0.0706062016604818
  0.8341115190452300  0.3328400029275969  0.0703481879890901
  0.1672260203868206  0.6660908217054029  0.0706097435478128
  0.5001182236726223  0.6667923835498257  0.0716324002031001
  0.8330340498378561  0.6674833568504468  0.0706091172771295
  0.1623626014625970  0.0045269136903627  0.5683406877321673
  0.5007156630173668  0.9995720044610508  0.5721757020676748
  0.8388181261781185  0.0054739436954918  0.5679756273160805
  0.1613866562441544  0.3280357592342895  0.5679433913315464
  0.4994831589081485  0.3339715492277691  0.5721629547493521
  0.8378698089155279  0.3290130015557295  0.5683394454698458
  0.1673162419676473  0.6661385221645730  0.5721642927809967
  0.5000916668320130  0.6667470222733201  0.5744776038974138
  0.8329239853466746  0.6673709025069101  0.5721756598027667
  0.0061686049751444  0.9996430607994284  0.2517092632091220
  0.3403815815495861  0.9972116532642374  0.2482675240748762
  0.6709633305352511  0.0023142971167616  0.2501049941424256
  0.9941938766139486  0.3339224972232770  0.2517299119844196
  0.3292340340470403  0.3313380095369354  0.2501664133021535
  0.6599104119344830  0.3364200218027236  0.2482882073479473
  0.0001413038445008  0.6667869487385190  0.2504663141777783
  0.3343419600608328  0.6661061270795159  0.2496163583421378
  0.6658836028908439  0.6674657518370779  0.2496071516991876
  0.0001878361218672  0.9989939239949521  0.7502227944591837
  0.3345082130058330  0.9994452963307836  0.7505234537392766
  0.6660271821826171  0.0000097167192763  0.7507225567673004
  0.0000531754451814  0.3345503274990165  0.7502193507912693
  0.3342173300809748  0.3335414570757820  0.7507270159998498
  0.6657433099481906  0.3341140916301342  0.7505267179310096
  0.0001190143554339  0.6667746690076584  0.7522393262505389
  0.3349386623015533  0.6666810821687719  0.7503386898318283
  0.6653032280602744  0.6668711915126622  0.7503371489998187
  0.1672519858607870  0.1608593332581876  0.2517343389665783
  0.5001207239552699  0.1668002304547187  0.2504643363632439
  0.8329769380323597  0.1728196428048605  0.2517087195600638
  0.1646702229056487  0.4958921212010878  0.2501629661307447
  0.4994365157556118  0.5010012689890999  0.2496161258856944
  0.8305317202862526  0.5070429848408224  0.2482655384709034
  0.1697499362549877  0.8265681967088838  0.2482886636900616
  0.5007924838738376  0.8325425109961344  0.2496085238763470
  0.8356404929379337  0.8376180414696535  0.2501022673782458
  0.1678916191087367  0.1667265245297216  0.7502211383474275
  0.5001156700872045  0.1667893230200406  0.7522366793182940
  0.8323325928182754  0.1668589674095955  0.7502226334733564
  0.1668794762696848  0.5008896233927089  0.7507249069953374
  0.5000206430247403  0.5016061772977594  0.7503386053943046
  0.8327835806258221  0.5011804658074084  0.7505247243214939
  0.1674545849948004  0.8324107241415959  0.7505255278221341
  0.5002103951212220  0.8319748907606339  0.7503386053754042
  0.8333450331066601  0.8326990677652759  0.7507218186630027
  0.1789221485690859  0.1659730214239943  0.5050885328948311
  0.5001208386014468  0.1667742008665556  0.5021208443895020
  0.8212560845465546  0.1675429024042998  0.5051265984680953
  0.1686204477451625  0.5020452805207398  0.4999709765321256
  0.4987460319944717  0.5014414965445937  0.5028860807619751
  0.8300642266636089  0.5033192910797979  0.4999747749029595
  0.1701877160966134  0.8302305880844543  0.4999801550790792
  0.5014512480307403  0.8320816644945310  0.5029077294365010
  0.8315935097008804  0.8314638839468316  0.4999899821192884
  0.1673595389342069  0.1665729846929906  0.9984481164094348
  0.5001322326051962  0.1667971662328895  0.0000914085982160
  0.8329064158663542  0.1670342932457487  0.9984571005536296
  0.1661335627011269  0.5002504068180826  0.9998642345649671
  0.4996486640087525  0.4999765908536702  0.0003103058071474
  0.8337852369702432  0.5007241136965490  0.9998956187261783
  0.1664701189683484  0.8328888713865226  0.9998990721459933
  0.5006014731777171  0.8336283928023107  0.0003154161006123
  0.8341228135700689  0.8333671402700347  0.9998751549794420
  0.0003615480284722  0.9995803980083267  0.9984590495599193
  0.3340493595383833  0.0004609932755173  0.9998970317851743
  0.6666932852363345  0.0007974721844874  0.9998750051968628
  0.9998987864886004  0.3340345761620398  0.9984475731441833
  0.3335764626774846  0.3328049297905693  0.9998630504059278
  0.6662144838403279  0.3331410620798749  0.9998957619751110
  0.0001254309061949  0.6668067724490427  0.0000952474502895
  0.3333051728385286  0.6663220212559366  0.0003108086314896
  0.6669525360876420  0.6672755123022753  0.0003142588320628
  0.0008883287474788  0.9879023600845898  0.5051311582988234
  0.3366624849027389  0.9967175272738231  0.4999743541523358
  0.6648102300317191  0.9982502486932745  0.4999906100020439
  0.9993211334702679  0.3455800271651341  0.5050923935898339
  0.3353892094246262  0.3352793954199811  0.4999696048770659
  0.6635733982936713  0.3368414732509066  0.4999760814547827
  0.0001232391308790  0.6667766976651848  0.5021182130767698
  0.3347827526231342  0.6654025890495987  0.5028901456394905
  0.6654314233662504  0.6681086041681041  0.5029114991772090
 
  0.00000000E+00  0.00000000E+00  0.00000000E+00
  0.00000000E+00  0.00000000E+00  0.00000000E+00
  0.00000000E+00  0.00000000E+00  0.00000000E+00
  0.00000000E+00  0.00000000E+00  0.00000000E+00
  0.00000000E+00  0.00000000E+00  0.00000000E+00
  0.00000000E+00  0.00000000E+00  0.00000000E+00
  0.00000000E+00  0.00000000E+00  0.00000000E+00
  0.00000000E+00  0.00000000E+00  0.00000000E+00
  0.00000000E+00  0.00000000E+00  0.00000000E+00
  0.00000000E+00  0.00000000E+00  0.00000000E+00
  0.00000000E+00  0.00000000E+00  0.00000000E+00
  0.00000000E+00  0.00000000E+00  0.00000000E+00
  0.00000000E+00  0.00000000E+00  0.00000000E+00
  0.00000000E+00  0.00000000E+00  0.00000000E+00
  0.00000000E+00  0.00000000E+00  0.00000000E+00
  0.00000000E+00  0.00000000E+00  0.00000000E+00
  0.00000000E+00  0.00000000E+00  0.00000000E+00
  0.00000000E+00  0.00000000E+00  0.00000000E+00
  0.00000000E+00  0.00000000E+00  0.00000000E+00
  0.00000000E+00  0.00000000E+00  0.00000000E+00
  0.00000000E+00  0.00000000E+00  0.00000000E+00
  0.00000000E+00  0.00000000E+00  0.00000000E+00
  0.00000000E+00  0.00000000E+00  0.00000000E+00
  0.00000000E+00  0.00000000E+00  0.00000000E+00
  0.00000000E+00  0.00000000E+00  0.00000000E+00
  0.00000000E+00  0.00000000E+00  0.00000000E+00
  0.00000000E+00  0.00000000E+00  0.00000000E+00
  0.00000000E+00  0.00000000E+00  0.00000000E+00
  0.00000000E+00  0.00000000E+00  0.00000000E+00
  0.00000000E+00  0.00000000E+00  0.00000000E+00
  0.00000000E+00  0.00000000E+00  0.00000000E+00
  0.00000000E+00  0.00000000E+00  0.00000000E+00
  0.00000000E+00  0.00000000E+00  0.00000000E+00
  0.00000000E+00  0.00000000E+00  0.00000000E+00
  0.00000000E+00  0.00000000E+00  0.00000000E+00
  0.00000000E+00  0.00000000E+00  0.00000000E+00
  0.00000000E+00  0.00000000E+00  0.00000000E+00
  0.00000000E+00  0.00000000E+00  0.00000000E+00
  0.00000000E+00  0.00000000E+00  0.00000000E+00
  0.00000000E+00  0.00000000E+00  0.00000000E+00
  0.00000000E+00  0.00000000E+00  0.00000000E+00
  0.00000000E+00  0.00000000E+00  0.00000000E+00
  0.00000000E+00  0.00000000E+00  0.00000000E+00
  0.00000000E+00  0.00000000E+00  0.00000000E+00
  0.00000000E+00  0.00000000E+00  0.00000000E+00
  0.00000000E+00  0.00000000E+00  0.00000000E+00
  0.00000000E+00  0.00000000E+00  0.00000000E+00
  0.00000000E+00  0.00000000E+00  0.00000000E+00
  0.00000000E+00  0.00000000E+00  0.00000000E+00
  0.00000000E+00  0.00000000E+00  0.00000000E+00
  0.00000000E+00  0.00000000E+00  0.00000000E+00
  0.00000000E+00  0.00000000E+00  0.00000000E+00
  0.00000000E+00  0.00000000E+00  0.00000000E+00
  0.00000000E+00  0.00000000E+00  0.00000000E+00
  0.00000000E+00  0.00000000E+00  0.00000000E+00
  0.00000000E+00  0.00000000E+00  0.00000000E+00
  0.00000000E+00  0.00000000E+00  0.00000000E+00
  0.00000000E+00  0.00000000E+00  0.00000000E+00
  0.00000000E+00  0.00000000E+00  0.00000000E+00
  0.00000000E+00  0.00000000E+00  0.00000000E+00
  0.00000000E+00  0.00000000E+00  0.00000000E+00
  0.00000000E+00  0.00000000E+00  0.00000000E+00
  0.00000000E+00  0.00000000E+00  0.00000000E+00
  0.00000000E+00  0.00000000E+00  0.00000000E+00
  0.00000000E+00  0.00000000E+00  0.00000000E+00
  0.00000000E+00  0.00000000E+00  0.00000000E+00
  0.00000000E+00  0.00000000E+00  0.00000000E+00
  0.00000000E+00  0.00000000E+00  0.00000000E+00
  0.00000000E+00  0.00000000E+00  0.00000000E+00
  0.00000000E+00  0.00000000E+00  0.00000000E+00
  0.00000000E+00  0.00000000E+00  0.00000000E+00
  0.00000000E+00  0.00000000E+00  0.00000000E+00
  0.00000000E+00  0.00000000E+00  0.00000000E+00
  0.00000000E+00  0.00000000E+00  0.00000000E+00
  0.00000000E+00  0.00000000E+00  0.00000000E+00
  0.00000000E+00  0.00000000E+00  0.00000000E+00
  0.00000000E+00  0.00000000E+00  0.00000000E+00
  0.00000000E+00  0.00000000E+00  0.00000000E+00
  0.00000000E+00  0.00000000E+00  0.00000000E+00
  0.00000000E+00  0.00000000E+00  0.00000000E+00
  0.00000000E+00  0.00000000E+00  0.00000000E+00
  0.00000000E+00  0.00000000E+00  0.00000000E+00
  0.00000000E+00  0.00000000E+00  0.00000000E+00
  0.00000000E+00  0.00000000E+00  0.00000000E+00
  0.00000000E+00  0.00000000E+00  0.00000000E+00
  0.00000000E+00  0.00000000E+00  0.00000000E+00
  0.00000000E+00  0.00000000E+00  0.00000000E+00
  0.00000000E+00  0.00000000E+00  0.00000000E+00
  0.00000000E+00  0.00000000E+00  0.00000000E+00
  0.00000000E+00  0.00000000E+00  0.00000000E+00
  0.00000000E+00  0.00000000E+00  0.00000000E+00
  0.00000000E+00  0.00000000E+00  0.00000000E+00
  0.00000000E+00  0.00000000E+00  0.00000000E+00
  0.00000000E+00  0.00000000E+00  0.00000000E+00
  0.00000000E+00  0.00000000E+00  0.00000000E+00
  0.00000000E+00  0.00000000E+00  0.00000000E+00
  0.00000000E+00  0.00000000E+00  0.00000000E+00
  0.00000000E+00  0.00000000E+00  0.00000000E+00
  0.00000000E+00  0.00000000E+00  0.00000000E+00
  0.00000000E+00  0.00000000E+00  0.00000000E+00
  0.00000000E+00  0.00000000E+00  0.00000000E+00
  0.00000000E+00  0.00000000E+00  0.00000000E+00
  0.00000000E+00  0.00000000E+00  0.00000000E+00
  0.00000000E+00  0.00000000E+00  0.00000000E+00
  0.00000000E+00  0.00000000E+00  0.00000000E+00
  0.00000000E+00  0.00000000E+00  0.00000000E+00
  0.00000000E+00  0.00000000E+00  0.00000000E+00
  0.00000000E+00  0.00000000E+00  0.00000000E+00
  0.00000000E+00  0.00000000E+00  0.00000000E+00
  0.00000000E+00  0.00000000E+00  0.00000000E+00
  0.00000000E+00  0.00000000E+00  0.00000000E+00
  0.00000000E+00  0.00000000E+00  0.00000000E+00
  0.00000000E+00  0.00000000E+00  0.00000000E+00
  0.00000000E+00  0.00000000E+00  0.00000000E+00
  0.00000000E+00  0.00000000E+00  0.00000000E+00
  0.00000000E+00  0.00000000E+00  0.00000000E+00
  0.00000000E+00  0.00000000E+00  0.00000000E+00
  0.00000000E+00  0.00000000E+00  0.00000000E+00
  0.00000000E+00  0.00000000E+00  0.00000000E+00
  0.00000000E+00  0.00000000E+00  0.00000000E+00
  0.00000000E+00  0.00000000E+00  0.00000000E+00
  0.00000000E+00  0.00000000E+00  0.00000000E+00
  0.00000000E+00  0.00000000E+00  0.00000000E+00
  0.00000000E+00  0.00000000E+00  0.00000000E+00
  0.00000000E+00  0.00000000E+00  0.00000000E+00
  0.00000000E+00  0.00000000E+00  0.00000000E+00
  0.00000000E+00  0.00000000E+00  0.00000000E+00
  0.00000000E+00  0.00000000E+00  0.00000000E+00
  0.00000000E+00  0.00000000E+00  0.00000000E+00
  0.00000000E+00  0.00000000E+00  0.00000000E+00
  0.00000000E+00  0.00000000E+00  0.00000000E+00
  0.00000000E+00  0.00000000E+00  0.00000000E+00
  0.00000000E+00  0.00000000E+00  0.00000000E+00
  0.00000000E+00  0.00000000E+00  0.00000000E+00
  0.00000000E+00  0.00000000E+00  0.00000000E+00
  0.00000000E+00  0.00000000E+00  0.00000000E+00
  0.00000000E+00  0.00000000E+00  0.00000000E+00
  0.00000000E+00  0.00000000E+00  0.00000000E+00
  0.00000000E+00  0.00000000E+00  0.00000000E+00
  0.00000000E+00  0.00000000E+00  0.00000000E+00
  0.00000000E+00  0.00000000E+00  0.00000000E+00
  0.00000000E+00  0.00000000E+00  0.00000000E+00
  0.00000000E+00  0.00000000E+00  0.00000000E+00
  0.00000000E+00  0.00000000E+00  0.00000000E+00
