supercell of icsd_608626.cif            
  0.957728948274742     
     9.4502914939741132    0.1019933172550861    0.0615606890280727
    -4.6372392040403385    8.1040696754151647   -0.0551459147672634
     0.0679316699809226   -0.0297079377471363    9.8546220050850426
   Al   B    N 
    26    10    36
Direct
  0.2249714826890994  0.1054824000771362  0.2458826565716450
  0.1220034852598815  0.2319956690239664  0.5033332308626797
  0.8994882540798130  0.1142706174984625  0.7572576699582712
  0.5424030031464255  0.1049146617535115  0.2623702832976988
  0.8930116570397644  0.1199779575407476  0.2365149592803917
  0.5652531170288881  0.1162414857533420  0.7376066886737718
  0.4466216545238382  0.2214364481950781  0.9932099786604596
  0.2224112370267974  0.4514855559741662  0.2473309333278166
  0.8963746958087171  0.4449693380176427  0.7377217247561418
  0.7780542405932991  0.5528057949102703  0.0015507470859717
  0.5672114520898432  0.4523607274780730  0.2610148904655318
  0.4565686387545256  0.5755823299388823  0.5002400858183620
  0.2232130459921606  0.4387133199361202  0.7516927425617794
  0.1057233620961213  0.5501114195096619  0.0022693539067333
  0.8835844018925414  0.4505027046485921  0.2590019588221750
  0.5461564118974422  0.4329698764667356  0.7331646250179844
  0.4435349039070573  0.5492983610751949  0.0017631659065316
  0.1065572410024060  0.8807186642657854  0.4852058486242044
  0.8903109337954760  0.7751221194720870  0.7335050925879685
  0.7858332002496624  0.8922517602708666  0.0019349805247728
  0.5535192147122672  0.7866115851122686  0.2502092068846054
  0.2286878413541231  0.7883022876670083  0.7347351081222442
  0.1074356544238881  0.8849207434567390  0.9992184947764997
  0.7851705186207738  0.9103264627139325  0.4912220500715350
  0.5611488601173562  0.7810612005592219  0.7521381149500357
  0.4426871883199013  0.8913192334769633  0.0040790763472884
  0.7836736558190864  0.2260391341357604  0.0032059413162671
  0.3944532960058282  0.1485663513689772  0.5243374333386726
  0.2110265208581481  0.1063014875255348  0.7520643918100163
  0.1115917804330309  0.2272286444171741  0.0019606544998112
  0.8276409225074630  0.2542772746923276  0.5128628589730155
  0.1653627908202466  0.5855605276202027  0.5053243439300914
  0.7318324616491623  0.4822246294477353  0.5155782923265804
  0.2025269440659656  0.7585465747486495  0.2598408957929266
  0.4857670823045481  0.9183913977790681  0.5195841319010839
  0.8907247147045680  0.7813138180038166  0.2597994870521703
  0.2433619502578281  0.1229832361025629  0.4443942901434568
  0.1172007564729967  0.2242521569945950  0.1726544717791398
  0.9029548918805617  0.1334451305743229  0.9565622979305175
  0.7910197954953091  0.2234584223436755  0.6691138228119442
  0.4927273491636370  0.0710745385898619  0.4613644248520217
  0.4483285657976452  0.2281381862993257  0.1893261585232082
  0.2098418496933476  0.1173942027441441  0.9292867499343771
  0.1236794218966821  0.2100646241907782  0.6978507411850856
  0.8955689206204482  0.1490654124943589  0.4406329127720170
  0.7700591258051475  0.2233695904585318  0.1720459795688356
  0.5847992248973384  0.1204964731227065  0.9377561733620041
  0.4101579373122135  0.1947471977741770  0.6828383026916214
  0.2241558538584343  0.4637855483667792  0.4484293570310598
  0.1120605062936164  0.5710027371523196  0.1974687100138581
  0.8802593788460413  0.4208239271224699  0.9404626429825171
  0.7728874380489970  0.5425026841068572  0.6684015764656621
  0.5805584506188737  0.4685249719337961  0.4557734266516320
  0.4477457474642179  0.5585789191220272  0.2009128409184200
  0.2111348787809035  0.4215216998795697  0.9510842532601274
  0.1208914258461533  0.5610599237638283  0.6655294215140728
  0.8197012014460938  0.3945844583677030  0.4487254727849503
  0.7914762186534432  0.5848343973354986  0.1990309030433011
  0.5589864961209656  0.4421948118037662  0.9317571037913339
  0.4431869127057482  0.5587826578512392  0.6956834716565439
  0.1842846361585515  0.7313920489713936  0.4281883274286429
  0.1028735163802779  0.8666427465180604  0.2034863338951283
  0.8896784335595243  0.7718449961798868  0.9305596563636698
  0.7810489978125332  0.8941581422986573  0.6898474733642246
  0.5535157724650972  0.8124509894527989  0.4498045158697508
  0.4096076622694156  0.8748822783505616  0.2000798163010771
  0.2244672127222245  0.7743166907656089  0.9301549850692226
  0.1204013395458219  0.9112160751704366  0.6889285695913259
  0.8982805022362186  0.8092746106803332  0.4175806868598002
  0.7895047247156128  0.8845607531999065  0.1991560386963442
  0.5583563693742022  0.7789499993561364  0.9488202967301120
  0.4527006691938311  0.8914221960296516  0.6755756953592211
 
  0.00000000E+00  0.00000000E+00  0.00000000E+00
  0.00000000E+00  0.00000000E+00  0.00000000E+00
  0.00000000E+00  0.00000000E+00  0.00000000E+00
  0.00000000E+00  0.00000000E+00  0.00000000E+00
  0.00000000E+00  0.00000000E+00  0.00000000E+00
  0.00000000E+00  0.00000000E+00  0.00000000E+00
  0.00000000E+00  0.00000000E+00  0.00000000E+00
  0.00000000E+00  0.00000000E+00  0.00000000E+00
  0.00000000E+00  0.00000000E+00  0.00000000E+00
  0.00000000E+00  0.00000000E+00  0.00000000E+00
  0.00000000E+00  0.00000000E+00  0.00000000E+00
  0.00000000E+00  0.00000000E+00  0.00000000E+00
  0.00000000E+00  0.00000000E+00  0.00000000E+00
  0.00000000E+00  0.00000000E+00  0.00000000E+00
  0.00000000E+00  0.00000000E+00  0.00000000E+00
  0.00000000E+00  0.00000000E+00  0.00000000E+00
  0.00000000E+00  0.00000000E+00  0.00000000E+00
  0.00000000E+00  0.00000000E+00  0.00000000E+00
  0.00000000E+00  0.00000000E+00  0.00000000E+00
  0.00000000E+00  0.00000000E+00  0.00000000E+00
  0.00000000E+00  0.00000000E+00  0.00000000E+00
  0.00000000E+00  0.00000000E+00  0.00000000E+00
  0.00000000E+00  0.00000000E+00  0.00000000E+00
  0.00000000E+00  0.00000000E+00  0.00000000E+00
  0.00000000E+00  0.00000000E+00  0.00000000E+00
  0.00000000E+00  0.00000000E+00  0.00000000E+00
  0.00000000E+00  0.00000000E+00  0.00000000E+00
  0.00000000E+00  0.00000000E+00  0.00000000E+00
  0.00000000E+00  0.00000000E+00  0.00000000E+00
  0.00000000E+00  0.00000000E+00  0.00000000E+00
  0.00000000E+00  0.00000000E+00  0.00000000E+00
  0.00000000E+00  0.00000000E+00  0.00000000E+00
  0.00000000E+00  0.00000000E+00  0.00000000E+00
  0.00000000E+00  0.00000000E+00  0.00000000E+00
  0.00000000E+00  0.00000000E+00  0.00000000E+00
  0.00000000E+00  0.00000000E+00  0.00000000E+00
  0.00000000E+00  0.00000000E+00  0.00000000E+00
  0.00000000E+00  0.00000000E+00  0.00000000E+00
  0.00000000E+00  0.00000000E+00  0.00000000E+00
  0.00000000E+00  0.00000000E+00  0.00000000E+00
  0.00000000E+00  0.00000000E+00  0.00000000E+00
  0.00000000E+00  0.00000000E+00  0.00000000E+00
  0.00000000E+00  0.00000000E+00  0.00000000E+00
  0.00000000E+00  0.00000000E+00  0.00000000E+00
  0.00000000E+00  0.00000000E+00  0.00000000E+00
  0.00000000E+00  0.00000000E+00  0.00000000E+00
  0.00000000E+00  0.00000000E+00  0.00000000E+00
  0.00000000E+00  0.00000000E+00  0.00000000E+00
  0.00000000E+00  0.00000000E+00  0.00000000E+00
  0.00000000E+00  0.00000000E+00  0.00000000E+00
  0.00000000E+00  0.00000000E+00  0.00000000E+00
  0.00000000E+00  0.00000000E+00  0.00000000E+00
  0.00000000E+00  0.00000000E+00  0.00000000E+00
  0.00000000E+00  0.00000000E+00  0.00000000E+00
  0.00000000E+00  0.00000000E+00  0.00000000E+00
  0.00000000E+00  0.00000000E+00  0.00000000E+00
  0.00000000E+00  0.00000000E+00  0.00000000E+00
  0.00000000E+00  0.00000000E+00  0.00000000E+00
  0.00000000E+00  0.00000000E+00  0.00000000E+00
  0.00000000E+00  0.00000000E+00  0.00000000E+00
  0.00000000E+00  0.00000000E+00  0.00000000E+00
  0.00000000E+00  0.00000000E+00  0.00000000E+00
  0.00000000E+00  0.00000000E+00  0.00000000E+00
  0.00000000E+00  0.00000000E+00  0.00000000E+00
  0.00000000E+00  0.00000000E+00  0.00000000E+00
  0.00000000E+00  0.00000000E+00  0.00000000E+00
  0.00000000E+00  0.00000000E+00  0.00000000E+00
  0.00000000E+00  0.00000000E+00  0.00000000E+00
  0.00000000E+00  0.00000000E+00  0.00000000E+00
  0.00000000E+00  0.00000000E+00  0.00000000E+00
  0.00000000E+00  0.00000000E+00  0.00000000E+00
  0.00000000E+00  0.00000000E+00  0.00000000E+00
