generated by phonopy                    
   1.00000000000000     
    10.0351470768999995   -0.0000022330999784   -0.0000001056124209
    -5.0175765436399997    8.6906901959899994    0.0000001395531216
    -0.0000001735893656    0.0000001431815548   14.9533752540999991
   Pb   P    O    Cu
    20    12    49     1
Direct
  0.9994146364860015  0.7666792071327677  0.1232608772461319
  0.9985942573538935  0.7719814032054444  0.6274023361091494
  0.0028760808070345  0.2463641700417440  0.3746132103261672
  0.9985123132459464  0.2381050456742457  0.8792807555468301
  0.2332201107073075  0.2330053698618926  0.1233231298859394
  0.2278742509063534  0.2268351011600913  0.6274601409711167
  0.7533830670167418  0.7567736277393493  0.3745108339305787
  0.7615877242796358  0.7606909288831289  0.8792967819716608
  0.7666442582230744  0.0003420652037107  0.1233132388301854
  0.7731144645228980  0.0011929321511914  0.6273867569728040
  0.2431084881499928  0.9968923175303104  0.3745191875363503
  0.2389979340512127  0.0012414175105278  0.8794158942264261
  0.6663748437060377  0.3333835736018429  0.0001593726758458
  0.6664502124173737  0.3333861591211189  0.5017938605153915
  0.3330920954282988  0.6666206675656312  0.0005727284143902
  0.3332419264571485  0.6665524449493603  0.5035619829111724
  0.3331313512689675  0.6668306294487181  0.2472739542146840
  0.3332853829794615  0.6669511838172255  0.7484300266143791
  0.6663469157184565  0.3331760093438376  0.2520924456743288
  0.6664235422181974  0.3331117230461089  0.7501362871881909
  0.6282476675402222  0.5967806455312328  0.1261895890014202
  0.6301089041835013  0.5974730014118350  0.6239563509463011
  0.3672987367057843  0.4007562913681539  0.3739873243512051
  0.3668013892901101  0.4000120535748906  0.8771410162745639
  0.4029728993279136  0.0316974863665820  0.1261728164966769
  0.4024302179303447  0.0328306717786475  0.6238915990669938
  0.5990193435999274  0.9667493367355533  0.3740433518263799
  0.5996487274535127  0.9669425559644296  0.8771670420012612
  0.9679995039734592  0.3715348860363505  0.1262172942804156
  0.9670469336271026  0.3697075801592646  0.6240056362353172
  0.0330318912550638  0.6324758911823736  0.3739883307927201
  0.0328114971969526  0.6329333845848808  0.8770934210519101
  0.5135595685199448  0.6581842362153054  0.1246864689823681
  0.5087041578711009  0.6505959785614124  0.6237825030311157
  0.4739843171031453  0.3298846523335826  0.3740987380390806
  0.4782491274566425  0.3347836449513579  0.8795634428958081
  0.3415584236154459  0.8556523767362663  0.1246548366319686
  0.3492172918652585  0.8582807867331468  0.6237276630218389
  0.6698871092748035  0.1442916367430200  0.3741342456124741
  0.6651054701759804  0.1436516587059771  0.8795565006548074
  0.1440993697179991  0.4861643457247453  0.1247564547730349
  0.1415951138772655  0.4910809108076180  0.6238859379470796
  0.8554656242132239  0.5258100476106762  0.3740094287442588
  0.8561177854252833  0.5215625763075025  0.8794869744454701
  0.7327329615394689  0.6471591986180201  0.0403871530141586
  0.7336402855816999  0.6524263543667175  0.5379727070886702
  0.2592281142105861  0.3497416590709719  0.4579437845090837
  0.2652897630960638  0.3585111899448350  0.9640589265353725
  0.3524300734239176  0.0858058275510416  0.0404340502200426
  0.3473799814416978  0.0814296548273035  0.5379600608384649
  0.6500840951501701  0.9096347634721127  0.4579459913263264
  0.6414014802878754  0.9069947979799480  0.9640207403216934
  0.9138802542701683  0.2669129405781163  0.0404644412620527
  0.9186021763108414  0.2660138914899051  0.5380923701701477
  0.0900105718949291  0.7407358760306906  0.4578637602198725
  0.0927147168975964  0.7345752723359809  0.9639736309531770
  0.2590635450632632  0.3504192015986192  0.2899281591528791
  0.2522435066429480  0.3319772988399166  0.7964402190486339
  0.7399350545508199  0.6615002605001123  0.2084885837839892
  0.7408895520878289  0.6638624146806009  0.7064177431098670
  0.6492829398564055  0.9088711162217891  0.2899364510243458
  0.6671444229509902  0.9200635923291998  0.7963492032221922
  0.3383476245076551  0.0786752384479357  0.2085075932339890
  0.3363205381504031  0.0774011040281692  0.7064182277014268
  0.0911108414964090  0.7406205420834411  0.2898790782014871
  0.0796292279337507  0.7474022250022401  0.7963292965863715
  0.9208281269728715  0.2598962803423959  0.2085658513741322
  0.9224088322117652  0.2589824474923077  0.7065215504021580
  0.5401693152990461  0.4160040658293909  0.1301939947738475
  0.5478318424174162  0.4167102482308778  0.6277564547658869
  0.4661786330476829  0.5821992743411712  0.3736844321404575
  0.4589853764190011  0.5806832864276501  0.8694594540718370
  0.5837081419401997  0.1244773001970501  0.1300991729017156
  0.5832104165170762  0.1312160903913622  0.6275984326018857
  0.4175657038647813  0.8841555849559199  0.3738002860483292
  0.4189534837615767  0.8785941337186074  0.8696946785985276
  0.8753317531956171  0.4596551837468539  0.1301067440233226
  0.8685831852799524  0.4520133557631425  0.6276540640870678
  0.1155664299633727  0.5335745642824818  0.3738652943021279
  0.1212869724506263  0.5407145952376808  0.8695590357212808
  0.9999012791129402  0.0000652243350459  0.6263704891142368
  0.9997007078112858  0.0000012587908174  0.9990297365225800
 
  0.00000000E+00  0.00000000E+00  0.00000000E+00
  0.00000000E+00  0.00000000E+00  0.00000000E+00
  0.00000000E+00  0.00000000E+00  0.00000000E+00
  0.00000000E+00  0.00000000E+00  0.00000000E+00
  0.00000000E+00  0.00000000E+00  0.00000000E+00
  0.00000000E+00  0.00000000E+00  0.00000000E+00
  0.00000000E+00  0.00000000E+00  0.00000000E+00
  0.00000000E+00  0.00000000E+00  0.00000000E+00
  0.00000000E+00  0.00000000E+00  0.00000000E+00
  0.00000000E+00  0.00000000E+00  0.00000000E+00
  0.00000000E+00  0.00000000E+00  0.00000000E+00
  0.00000000E+00  0.00000000E+00  0.00000000E+00
  0.00000000E+00  0.00000000E+00  0.00000000E+00
  0.00000000E+00  0.00000000E+00  0.00000000E+00
  0.00000000E+00  0.00000000E+00  0.00000000E+00
  0.00000000E+00  0.00000000E+00  0.00000000E+00
  0.00000000E+00  0.00000000E+00  0.00000000E+00
  0.00000000E+00  0.00000000E+00  0.00000000E+00
  0.00000000E+00  0.00000000E+00  0.00000000E+00
  0.00000000E+00  0.00000000E+00  0.00000000E+00
  0.00000000E+00  0.00000000E+00  0.00000000E+00
  0.00000000E+00  0.00000000E+00  0.00000000E+00
  0.00000000E+00  0.00000000E+00  0.00000000E+00
  0.00000000E+00  0.00000000E+00  0.00000000E+00
  0.00000000E+00  0.00000000E+00  0.00000000E+00
  0.00000000E+00  0.00000000E+00  0.00000000E+00
  0.00000000E+00  0.00000000E+00  0.00000000E+00
  0.00000000E+00  0.00000000E+00  0.00000000E+00
  0.00000000E+00  0.00000000E+00  0.00000000E+00
  0.00000000E+00  0.00000000E+00  0.00000000E+00
  0.00000000E+00  0.00000000E+00  0.00000000E+00
  0.00000000E+00  0.00000000E+00  0.00000000E+00
  0.00000000E+00  0.00000000E+00  0.00000000E+00
  0.00000000E+00  0.00000000E+00  0.00000000E+00
  0.00000000E+00  0.00000000E+00  0.00000000E+00
  0.00000000E+00  0.00000000E+00  0.00000000E+00
  0.00000000E+00  0.00000000E+00  0.00000000E+00
  0.00000000E+00  0.00000000E+00  0.00000000E+00
  0.00000000E+00  0.00000000E+00  0.00000000E+00
  0.00000000E+00  0.00000000E+00  0.00000000E+00
  0.00000000E+00  0.00000000E+00  0.00000000E+00
  0.00000000E+00  0.00000000E+00  0.00000000E+00
  0.00000000E+00  0.00000000E+00  0.00000000E+00
  0.00000000E+00  0.00000000E+00  0.00000000E+00
  0.00000000E+00  0.00000000E+00  0.00000000E+00
  0.00000000E+00  0.00000000E+00  0.00000000E+00
  0.00000000E+00  0.00000000E+00  0.00000000E+00
  0.00000000E+00  0.00000000E+00  0.00000000E+00
  0.00000000E+00  0.00000000E+00  0.00000000E+00
  0.00000000E+00  0.00000000E+00  0.00000000E+00
  0.00000000E+00  0.00000000E+00  0.00000000E+00
  0.00000000E+00  0.00000000E+00  0.00000000E+00
  0.00000000E+00  0.00000000E+00  0.00000000E+00
  0.00000000E+00  0.00000000E+00  0.00000000E+00
  0.00000000E+00  0.00000000E+00  0.00000000E+00
  0.00000000E+00  0.00000000E+00  0.00000000E+00
  0.00000000E+00  0.00000000E+00  0.00000000E+00
  0.00000000E+00  0.00000000E+00  0.00000000E+00
  0.00000000E+00  0.00000000E+00  0.00000000E+00
  0.00000000E+00  0.00000000E+00  0.00000000E+00
  0.00000000E+00  0.00000000E+00  0.00000000E+00
  0.00000000E+00  0.00000000E+00  0.00000000E+00
  0.00000000E+00  0.00000000E+00  0.00000000E+00
  0.00000000E+00  0.00000000E+00  0.00000000E+00
  0.00000000E+00  0.00000000E+00  0.00000000E+00
  0.00000000E+00  0.00000000E+00  0.00000000E+00
  0.00000000E+00  0.00000000E+00  0.00000000E+00
  0.00000000E+00  0.00000000E+00  0.00000000E+00
  0.00000000E+00  0.00000000E+00  0.00000000E+00
  0.00000000E+00  0.00000000E+00  0.00000000E+00
  0.00000000E+00  0.00000000E+00  0.00000000E+00
  0.00000000E+00  0.00000000E+00  0.00000000E+00
  0.00000000E+00  0.00000000E+00  0.00000000E+00
  0.00000000E+00  0.00000000E+00  0.00000000E+00
  0.00000000E+00  0.00000000E+00  0.00000000E+00
  0.00000000E+00  0.00000000E+00  0.00000000E+00
  0.00000000E+00  0.00000000E+00  0.00000000E+00
  0.00000000E+00  0.00000000E+00  0.00000000E+00
  0.00000000E+00  0.00000000E+00  0.00000000E+00
  0.00000000E+00  0.00000000E+00  0.00000000E+00
  0.00000000E+00  0.00000000E+00  0.00000000E+00
  0.00000000E+00  0.00000000E+00  0.00000000E+00
