LCHARG = .TRUE.
ISMEAR = 0
ISTART = 0
SYSTEM = POSCAR
PREC = Accurate
ADDGRID = .TRUE.
ICHARG = 2
LORBIT = 10
LPEAD = .TRUE.
LASPH = .TRUE.
EDIFF = 1e-05
IBRION = -1
LREAL = Auto
LVHAR = .FALSE.
LVTOT = .FALSE.
LMAXMIX = 4
LPLANE = .TRUE.
LWAVE = .TRUE.
SIGMA = 0.01
ALGO = Normal

LDAUTYPE = 2
LDAU = .TRUE.
LDUU =   0.0000000000e+00   3.0000000000e+00   0.0000000000e+00
LDUJ =   0.0000000000e+00   0.0000000000e+00   0.0000000000e+00
LDUL = -1 2 -1
ENCUT = 340.0
