NOMEGA = 64
ENCUT = 340.0
LCHARG = .TRUE.
NBANDS = 1500
LMAXFOCKAE = 4
ISMEAR = 0
ISTART = 1
SYSTEM = POSCAR
PREC = Accurate
ADDGRID = .TRUE.
ICHARG = 0
LORBIT = 10
LPEAD = .TRUE.
LASPH = .TRUE.
EDIFF = 1e-05
NELM = 1
ENCUTGW = 200
LOPTICS = .TRUE.
IBRION = -1
LREAL = Auto
MAXMEM = 2800
PRECFOCK = Normal
LVHAR = .FALSE.
LVTOT = .FALSE.
LFXC = .TRUE.
LMAXMIX = 4
LPLANE = .TRUE.
LWAVE = .TRUE.
SIGMA = 0.01
ALGO = GW

