supercell of 100% icsd_608626.cif, 0% i 
   1.00000000000000     
    -9.5674583239991779   -0.0096762584817123    0.0019575643609793
    -4.7753560783447684    8.2707587256862247   -0.0036782102745205
     0.0023589551923694    0.0058638968202458  -10.0390912412808131
   Be   Al   Zr   N 
     5    26     5    36
Direct
  0.1270767613753065  0.0841091291909279  0.2860906600703146
  0.5506444558201053  0.5513868780108737  0.0414932756959061
  0.2300663039101849  0.8706473928884009  0.0439551383800350
  0.7648948050011484  0.7613149854605226  0.8476362768557735
  0.5404470320844084  0.8693488925694766  0.0387928886029201
  0.2257532841662382  0.1880011125337475  0.0544255651195584
  0.8978463290283329  0.2093896967344762  0.5476275104319086
  0.4308297268509662  0.0932406877650891  0.2854868778633843
  0.5384695117694989  0.2126172303632075  0.0416747068496974
  0.1220873053469518  0.0840322506723652  0.7970651324954048
  0.2155321894542652  0.2006353372095475  0.5352767212946574
  0.9046279668681549  0.2137265388586727  0.0441160798474698
  0.4443468409278637  0.0775709725142235  0.8050647474752353
  0.1167441630353494  0.4184580986191904  0.2867677291798856
  0.2292150393367010  0.5452397246074980  0.0520672668774367
  0.7662813243302224  0.4420014815775772  0.7989793732633075
  0.8878075657801006  0.5362670843716799  0.5440968317182069
  0.4416191480758016  0.4383831245716294  0.2870408665617532
  0.2167068185933374  0.5469640276333934  0.5394330810574957
  0.7747603073153329  0.4284396755913917  0.2914722676951556
  0.8757556033069918  0.5423119536381265  0.0512670817980094
  0.4427812715357078  0.4431842068018952  0.8025386921671256
  0.5524076620508254  0.5501594275970731  0.5459324665088872
  0.1263627266477130  0.7628794391319147  0.2894353524520028
  0.8995438758678063  0.8632919391908160  0.5509683353342965
  0.4317806769633563  0.7682546998924522  0.2778948492524833
  0.1204034864521191  0.7605523499284388  0.7983666334577180
  0.2251399744595517  0.8728598547124946  0.5431132459827452
  0.9040393177820008  0.8511549344936142  0.0427470081894157
  0.4463293577042649  0.7610399281212636  0.8142137109923553
  0.5475080740687801  0.8670921711385944  0.5506487815690875
  0.7860659766962215  0.0872006145570623  0.8234015272160775
  0.7887954833213087  0.1006941605247320  0.2796771795670026
  0.5490279777855775  0.2071823638562407  0.5564870590626541
  0.1056932481331430  0.4308267989459083  0.8117487439766791
  0.7711908603184128  0.7622195306899542  0.3109927487651731
  0.2187201752125389  0.2028759028944336  0.3468757789261829
  0.1132588094048259  0.0847867541641918  0.1119865898444630
  0.9043068532727503  0.2210797364712320  0.8537511721565636
  0.7963400240266196  0.0862859312367164  0.6042034389276978
  0.5434312930087799  0.2100697039421462  0.3451829536438780
  0.4479768048220549  0.0870817707182141  0.0991250185402635
  0.2312725109919356  0.1855856625075702  0.8629944364435289
  0.1124961118151901  0.0932173248407437  0.6066369851581612
  0.8981217463715936  0.2151286973099147  0.3598437400515380
  0.7794863405538450  0.0934818804324564  0.0631616089686133
  0.5319931556048871  0.2169478508706248  0.8428053978880072
  0.4293920355708423  0.0853678499860564  0.6120329359391548
  0.2222765265846505  0.5387855992757196  0.3486436401633242
  0.1113149618303524  0.4263822883773116  0.0909880315696157
  0.8627556458665921  0.5579230415123604  0.8606722843348322
  0.7749197224801350  0.4303201047569516  0.6064558538961151
  0.5541652086252853  0.5430403566988460  0.3546689994529046
  0.4490570162518708  0.4277355923301585  0.1006833417701785
  0.2317598796545752  0.5482236121214825  0.8613966859819300
  0.1125836101230107  0.4263847979745350  0.5967766570605590
  0.9019784500266255  0.5155311814334667  0.3529199242151861
  0.7712459920657722  0.4282024299467224  0.1046296081914591
  0.5566661838593419  0.5384378103732033  0.8620163170385808
  0.4322561058441678  0.4501317320380664  0.6089998421130502
  0.2215779595622820  0.8787161757488775  0.3540888039232968
  0.1162657639943205  0.7634907532480000  0.1034054331521972
  0.9007292670613296  0.8385647163090653  0.8530807459544363
  0.7752087694465004  0.7626230954423292  0.5609404331954906
  0.5259040647525879  0.8850638868220670  0.3593449885519533
  0.4442135048708451  0.7608964237633344  0.0914045126200662
  0.2200604534583377  0.8732044326043606  0.8603032392876813
  0.1148102856620312  0.7599724071146454  0.6064088193400536
  0.9119726571134805  0.8710427873270206  0.3589376924639680
  0.7776272102692730  0.7625933372231799  0.1008055047895340
  0.5640505161440714  0.8667568595307316  0.8616585503286061
  0.4412219316326258  0.7613888176888750  0.6141736204896375
 
  0.00000000E+00  0.00000000E+00  0.00000000E+00
  0.00000000E+00  0.00000000E+00  0.00000000E+00
  0.00000000E+00  0.00000000E+00  0.00000000E+00
  0.00000000E+00  0.00000000E+00  0.00000000E+00
  0.00000000E+00  0.00000000E+00  0.00000000E+00
  0.00000000E+00  0.00000000E+00  0.00000000E+00
  0.00000000E+00  0.00000000E+00  0.00000000E+00
  0.00000000E+00  0.00000000E+00  0.00000000E+00
  0.00000000E+00  0.00000000E+00  0.00000000E+00
  0.00000000E+00  0.00000000E+00  0.00000000E+00
  0.00000000E+00  0.00000000E+00  0.00000000E+00
  0.00000000E+00  0.00000000E+00  0.00000000E+00
  0.00000000E+00  0.00000000E+00  0.00000000E+00
  0.00000000E+00  0.00000000E+00  0.00000000E+00
  0.00000000E+00  0.00000000E+00  0.00000000E+00
  0.00000000E+00  0.00000000E+00  0.00000000E+00
  0.00000000E+00  0.00000000E+00  0.00000000E+00
  0.00000000E+00  0.00000000E+00  0.00000000E+00
  0.00000000E+00  0.00000000E+00  0.00000000E+00
  0.00000000E+00  0.00000000E+00  0.00000000E+00
  0.00000000E+00  0.00000000E+00  0.00000000E+00
  0.00000000E+00  0.00000000E+00  0.00000000E+00
  0.00000000E+00  0.00000000E+00  0.00000000E+00
  0.00000000E+00  0.00000000E+00  0.00000000E+00
  0.00000000E+00  0.00000000E+00  0.00000000E+00
  0.00000000E+00  0.00000000E+00  0.00000000E+00
  0.00000000E+00  0.00000000E+00  0.00000000E+00
  0.00000000E+00  0.00000000E+00  0.00000000E+00
  0.00000000E+00  0.00000000E+00  0.00000000E+00
  0.00000000E+00  0.00000000E+00  0.00000000E+00
  0.00000000E+00  0.00000000E+00  0.00000000E+00
  0.00000000E+00  0.00000000E+00  0.00000000E+00
  0.00000000E+00  0.00000000E+00  0.00000000E+00
  0.00000000E+00  0.00000000E+00  0.00000000E+00
  0.00000000E+00  0.00000000E+00  0.00000000E+00
  0.00000000E+00  0.00000000E+00  0.00000000E+00
  0.00000000E+00  0.00000000E+00  0.00000000E+00
  0.00000000E+00  0.00000000E+00  0.00000000E+00
  0.00000000E+00  0.00000000E+00  0.00000000E+00
  0.00000000E+00  0.00000000E+00  0.00000000E+00
  0.00000000E+00  0.00000000E+00  0.00000000E+00
  0.00000000E+00  0.00000000E+00  0.00000000E+00
  0.00000000E+00  0.00000000E+00  0.00000000E+00
  0.00000000E+00  0.00000000E+00  0.00000000E+00
  0.00000000E+00  0.00000000E+00  0.00000000E+00
  0.00000000E+00  0.00000000E+00  0.00000000E+00
  0.00000000E+00  0.00000000E+00  0.00000000E+00
  0.00000000E+00  0.00000000E+00  0.00000000E+00
  0.00000000E+00  0.00000000E+00  0.00000000E+00
  0.00000000E+00  0.00000000E+00  0.00000000E+00
  0.00000000E+00  0.00000000E+00  0.00000000E+00
  0.00000000E+00  0.00000000E+00  0.00000000E+00
  0.00000000E+00  0.00000000E+00  0.00000000E+00
  0.00000000E+00  0.00000000E+00  0.00000000E+00
  0.00000000E+00  0.00000000E+00  0.00000000E+00
  0.00000000E+00  0.00000000E+00  0.00000000E+00
  0.00000000E+00  0.00000000E+00  0.00000000E+00
  0.00000000E+00  0.00000000E+00  0.00000000E+00
  0.00000000E+00  0.00000000E+00  0.00000000E+00
  0.00000000E+00  0.00000000E+00  0.00000000E+00
  0.00000000E+00  0.00000000E+00  0.00000000E+00
  0.00000000E+00  0.00000000E+00  0.00000000E+00
  0.00000000E+00  0.00000000E+00  0.00000000E+00
  0.00000000E+00  0.00000000E+00  0.00000000E+00
  0.00000000E+00  0.00000000E+00  0.00000000E+00
  0.00000000E+00  0.00000000E+00  0.00000000E+00
  0.00000000E+00  0.00000000E+00  0.00000000E+00
  0.00000000E+00  0.00000000E+00  0.00000000E+00
  0.00000000E+00  0.00000000E+00  0.00000000E+00
  0.00000000E+00  0.00000000E+00  0.00000000E+00
  0.00000000E+00  0.00000000E+00  0.00000000E+00
  0.00000000E+00  0.00000000E+00  0.00000000E+00
