supercell of 100% icsd_608626.cif, 0% i 
   1.00000000000000     
    -9.5591800740280277   -0.0128851771582833   -0.0256791400025933
    -4.7683803335018959    8.2927561765801787    0.0035476481658364
    -0.0279748565781003   -0.0201813014300744   -9.9527181876157869
   Al   Zr   Be   N 
    26     5     5    36
Direct
  0.1018814667285994  0.0898728215817286  0.2927433597073730
  0.8808142133117300  0.2046672871454405  0.5472950419537739
  0.4581959707378758  0.0883574328356502  0.3004070489269850
  0.5724736533701318  0.1950294952541967  0.0385442900184145
  0.2307751983220925  0.1941258767316896  0.5474956957042281
  0.7809120050240139  0.0908490434216489  0.2975873219837695
  0.4558188921087307  0.0956716200353256  0.7915449447474217
  0.5680543797480553  0.1982052991360135  0.5523830976576463
  0.2134496557691037  0.5488299605278613  0.0363347064628670
  0.7813676474205948  0.4244161719183879  0.7900352233664734
  0.4431658050906222  0.4213781728758477  0.3015986082338955
  0.1067628986925513  0.4372152764142356  0.7790780646316122
  0.2241128477539789  0.5523104280896121  0.5608912082287389
  0.7844064098119787  0.4217775151690617  0.3006489248442037
  0.8894642957431316  0.5456712199349738  0.0435755487549798
  0.4448836044616939  0.4176781455813980  0.7931004008645459
  0.5612201920861324  0.5320913729842189  0.5355689512594779
  0.1041389925989193  0.7681674504584777  0.2995478680962691
  0.2148241015357470  0.8674008345836128  0.0539042063899657
  0.7928162002334176  0.7659802541459158  0.7866500213425667
  0.4410132342110771  0.7696457326998427  0.3030045776757646
  0.5684866443914558  0.8727191902806553  0.0487112561321084
  0.2099342333283971  0.8705733058620027  0.5390050442032219
  0.7765701791411743  0.7690457882265846  0.3002553664563408
  0.8911230864539164  0.8795264014888176  0.0386535541141271
  0.5695236589988255  0.8685212807290839  0.5412289625343547
  0.2231507152649499  0.2115735767123681  0.0601592567945914
  0.0909829094442358  0.0908468970563803  0.8071927176096381
  0.1009016919416297  0.4407856007762874  0.3391030444922265
  0.5646667819546352  0.5277285544076804  0.0673395257622005
  0.4461043154344964  0.7590163872075024  0.7922989572839256
  0.7760862512946503  0.0859964576088288  0.7872091512348334
  0.8799056550218864  0.2011052216905753  0.0438596366895396
  0.8534118253936427  0.5614450487425202  0.5437726404949501
  0.8900572137288165  0.8739092292666939  0.5486022712039258
  0.0925739804738015  0.7654555461514647  0.7856488211018728
  0.2320943670749074  0.1844265656506039  0.3424772722275051
  0.0959485993016926  0.0890973092162284  0.0952378964571707
  0.8585159461721048  0.2174608548031927  0.8642204577212738
  0.7834853170174938  0.0865798750097255  0.6081003186276774
  0.5575796858581370  0.2050202605367630  0.3590782774007977
  0.4682026558192689  0.0852845058094616  0.1093878908320391
  0.2273556143264202  0.2127899566164828  0.8454930660245807
  0.1102667453939645  0.0931189086407898  0.5938800557900876
  0.8883181827404982  0.2052851390462820  0.3564212500286246
  0.7825466947251059  0.0986494055697094  0.1062819913272790
  0.5619443472842534  0.2016031484753427  0.8492380561383257
  0.4489632312133978  0.0886495456879857  0.6009421792523284
  0.2337099739537862  0.5564472261323132  0.3663249941551854
  0.0991100302301433  0.4539664118063413  0.1155104192896630
  0.8901739203157604  0.5388630394598692  0.8504139412861917
  0.7767983032465509  0.4318780375455660  0.5988588950503768
  0.5556842836603053  0.5367392167609353  0.3351878121925154
  0.4303950339877289  0.4130416304181779  0.1073824451006473
  0.2201124549059159  0.5389753819153924  0.8444116640191126
  0.1201707439917286  0.4217297160383353  0.5824598365777618
  0.8560464956557396  0.5575941371095610  0.3674587672565650
  0.8081483432133894  0.4114182887021656  0.1096258024036345
  0.5630600031455657  0.5216303253439563  0.8542842563758768
  0.4501864880161648  0.4264748528029543  0.6017370393110610
  0.2185590988368560  0.8747753271767849  0.3479494659907019
  0.1095728775148643  0.7587491063159959  0.1088300193078027
  0.8945990059456221  0.8773004170011234  0.8500460509792944
  0.7817958361484116  0.7563406394169192  0.5999382817016325
  0.5567029696192307  0.8737775601065536  0.3517588202995157
  0.4376337738130118  0.7805248551185500  0.1041340969119915
  0.2152773442110885  0.8498009210544453  0.8648174060884628
  0.1025967403865806  0.7690630243170773  0.6097874700310513
  0.8887494399933047  0.8733561645104047  0.3600879878552874
  0.7822512987050914  0.7619138569374826  0.1056222899495651
  0.5667342435887832  0.8801084631837242  0.8575973067840366
  0.4426791029604118  0.7599760280302803  0.5800369022954754
 
  0.00000000E+00  0.00000000E+00  0.00000000E+00
  0.00000000E+00  0.00000000E+00  0.00000000E+00
  0.00000000E+00  0.00000000E+00  0.00000000E+00
  0.00000000E+00  0.00000000E+00  0.00000000E+00
  0.00000000E+00  0.00000000E+00  0.00000000E+00
  0.00000000E+00  0.00000000E+00  0.00000000E+00
  0.00000000E+00  0.00000000E+00  0.00000000E+00
  0.00000000E+00  0.00000000E+00  0.00000000E+00
  0.00000000E+00  0.00000000E+00  0.00000000E+00
  0.00000000E+00  0.00000000E+00  0.00000000E+00
  0.00000000E+00  0.00000000E+00  0.00000000E+00
  0.00000000E+00  0.00000000E+00  0.00000000E+00
  0.00000000E+00  0.00000000E+00  0.00000000E+00
  0.00000000E+00  0.00000000E+00  0.00000000E+00
  0.00000000E+00  0.00000000E+00  0.00000000E+00
  0.00000000E+00  0.00000000E+00  0.00000000E+00
  0.00000000E+00  0.00000000E+00  0.00000000E+00
  0.00000000E+00  0.00000000E+00  0.00000000E+00
  0.00000000E+00  0.00000000E+00  0.00000000E+00
  0.00000000E+00  0.00000000E+00  0.00000000E+00
  0.00000000E+00  0.00000000E+00  0.00000000E+00
  0.00000000E+00  0.00000000E+00  0.00000000E+00
  0.00000000E+00  0.00000000E+00  0.00000000E+00
  0.00000000E+00  0.00000000E+00  0.00000000E+00
  0.00000000E+00  0.00000000E+00  0.00000000E+00
  0.00000000E+00  0.00000000E+00  0.00000000E+00
  0.00000000E+00  0.00000000E+00  0.00000000E+00
  0.00000000E+00  0.00000000E+00  0.00000000E+00
  0.00000000E+00  0.00000000E+00  0.00000000E+00
  0.00000000E+00  0.00000000E+00  0.00000000E+00
  0.00000000E+00  0.00000000E+00  0.00000000E+00
  0.00000000E+00  0.00000000E+00  0.00000000E+00
  0.00000000E+00  0.00000000E+00  0.00000000E+00
  0.00000000E+00  0.00000000E+00  0.00000000E+00
  0.00000000E+00  0.00000000E+00  0.00000000E+00
  0.00000000E+00  0.00000000E+00  0.00000000E+00
  0.00000000E+00  0.00000000E+00  0.00000000E+00
  0.00000000E+00  0.00000000E+00  0.00000000E+00
  0.00000000E+00  0.00000000E+00  0.00000000E+00
  0.00000000E+00  0.00000000E+00  0.00000000E+00
  0.00000000E+00  0.00000000E+00  0.00000000E+00
  0.00000000E+00  0.00000000E+00  0.00000000E+00
  0.00000000E+00  0.00000000E+00  0.00000000E+00
  0.00000000E+00  0.00000000E+00  0.00000000E+00
  0.00000000E+00  0.00000000E+00  0.00000000E+00
  0.00000000E+00  0.00000000E+00  0.00000000E+00
  0.00000000E+00  0.00000000E+00  0.00000000E+00
  0.00000000E+00  0.00000000E+00  0.00000000E+00
  0.00000000E+00  0.00000000E+00  0.00000000E+00
  0.00000000E+00  0.00000000E+00  0.00000000E+00
  0.00000000E+00  0.00000000E+00  0.00000000E+00
  0.00000000E+00  0.00000000E+00  0.00000000E+00
  0.00000000E+00  0.00000000E+00  0.00000000E+00
  0.00000000E+00  0.00000000E+00  0.00000000E+00
  0.00000000E+00  0.00000000E+00  0.00000000E+00
  0.00000000E+00  0.00000000E+00  0.00000000E+00
  0.00000000E+00  0.00000000E+00  0.00000000E+00
  0.00000000E+00  0.00000000E+00  0.00000000E+00
  0.00000000E+00  0.00000000E+00  0.00000000E+00
  0.00000000E+00  0.00000000E+00  0.00000000E+00
  0.00000000E+00  0.00000000E+00  0.00000000E+00
  0.00000000E+00  0.00000000E+00  0.00000000E+00
  0.00000000E+00  0.00000000E+00  0.00000000E+00
  0.00000000E+00  0.00000000E+00  0.00000000E+00
  0.00000000E+00  0.00000000E+00  0.00000000E+00
  0.00000000E+00  0.00000000E+00  0.00000000E+00
  0.00000000E+00  0.00000000E+00  0.00000000E+00
  0.00000000E+00  0.00000000E+00  0.00000000E+00
  0.00000000E+00  0.00000000E+00  0.00000000E+00
  0.00000000E+00  0.00000000E+00  0.00000000E+00
  0.00000000E+00  0.00000000E+00  0.00000000E+00
  0.00000000E+00  0.00000000E+00  0.00000000E+00
