supercell of icsd_191774.cif            
   1.00000000000000     
    10.2509463997985772   -0.0042663763827064    0.0135530366065065
    -5.1290313716916200    9.1958826655673374   -0.0910847718518148
     0.0144291867312189   -0.1079645794233247   11.0468963443538524
   N    B    In
    36     4    32
Direct
  0.2196058299452517  0.1149293016654838  0.4053387367617347
  0.1256364317977443  0.2002794432859716  0.2109665153566382
  0.8855343213899189  0.1012324837111294  0.9186238926314303
  0.7653979742544621  0.2035478726918356  0.6494390276417690
  0.5989339888214786  0.1204958946667603  0.4549086091741898
  0.4030264880766978  0.1961057898917886  0.2131799889529518
  0.2188070057629545  0.1079617182839172  0.9392506944133814
  0.1101517349444308  0.2179114200168115  0.6794942778269260
  0.8708882732940637  0.1550387339121500  0.4534107959074092
  0.7776006940395561  0.2226543625082300  0.1814001288507683
  0.5473958248774977  0.1043201275537768  0.9374629151722829
  0.4406424211374613  0.2171193928764623  0.6814540049789741
  0.2263868142323417  0.4518520220547231  0.4367880722716180
  0.0794158825988305  0.5635172498007321  0.1986688183109138
  0.8812879723451204  0.4311226198799289  0.9220743949236549
  0.7751114429850645  0.5484787184794087  0.6825870083465375
  0.5558274498271345  0.4360901842049927  0.4369586946676449
  0.4466478803025709  0.5558623015185589  0.1953838825259169
  0.2114085128881769  0.4347284800015601  0.9521754493023593
  0.1090416822088116  0.5523552552758773  0.6827429955847677
  0.9306313896583376  0.5318036090861895  0.3898545247205689
  0.8163606578553129  0.5677815947611862  0.1992420700876139
  0.5548769483768439  0.4336899698727592  0.9523893941880957
  0.4385488940734632  0.5435403091647402  0.6964478779437044
  0.2426491085004585  0.7998269408732241  0.4454403079092870
  0.1327443568592059  0.9408818601845823  0.2105437159580958
  0.8881170500508020  0.7724591685641968  0.9395388281259827
  0.7671888702091749  0.8660578191659170  0.6521570860308756
  0.5973159007736015  0.7810748590608938  0.4603373570613840
  0.4498764096521697  0.8865502898424893  0.1980575831537621
  0.2155472758939467  0.7736784947385686  0.9475693911547296
  0.1105036839434064  0.8889590389231969  0.6851134218151458
  0.8621113534987614  0.8003975399193308  0.4571000528961591
  0.7814141868184450  0.8977598322484326  0.1904443460413674
  0.5539205534799194  0.7700351365867419  0.9378500844750803
  0.4429401680243359  0.8821261517145373  0.6949274666473357
  0.2203111431671587  0.1130724877647182  0.2600017005862938
  0.7524543074933732  0.1668543436122150  0.5126243979503329
  0.9352410014753261  0.5401906727811507  0.2612552258433567
  0.7475888212758548  0.8261197583503943  0.5189344171515700
  0.1030799805915379  0.2269706541105165  0.4867840409829540
  0.8803850519574681  0.0940819746286508  0.7209747834112150
  0.7769753990495971  0.2172717114848410  0.9953619211738030
  0.5654214436094804  0.1144183021712450  0.2563666533348723
  0.4475001577381263  0.2150447386967187  0.4880892702840498
  0.2196351813421771  0.1083930362559542  0.7494880944392861
  0.1023647005204609  0.2106878824033416  0.0107465691333672
  0.8823586875863398  0.1185964986522450  0.2637829518161183
  0.5520788574908551  0.1061004329190283  0.7445718438075417
  0.4354452311415429  0.2118770883152692  0.0151127885620070
  0.2122689308209473  0.4379921556824939  0.2459215730155933
  0.1180881473462776  0.5701848943643739  0.4894398610072486
  0.8807719908980758  0.4254734655652683  0.7298423805921601
  0.7863867679664693  0.5525345001984761  0.0035968849796859
  0.5570526804097256  0.4341963893908698  0.2463874379673641
  0.4468384249638859  0.5494300915260268  0.5030078600056243
  0.2114877349566058  0.4339925148115000  0.7536993531409095
  0.0966255749971765  0.5514140350553802  0.0041650103833035
  0.7796407095801285  0.5626920554693058  0.4904999082974371
  0.5541249663921306  0.4332610320985921  0.7545046320562605
  0.4432892117193390  0.5533105258349309  0.0014499618031820
  0.2257759156099866  0.7962873952644856  0.2533717926375232
  0.1092142228348862  0.9028897983328008  0.4932854364219068
  0.8870282002463767  0.7701752628346767  0.7445818589444144
  0.7786807777696509  0.8911738470114443  0.9991068555076552
  0.5648185212067034  0.7767607424484950  0.2609868279299903
  0.4686679721066085  0.8944984933504614  0.5043076676886642
  0.2164235405143558  0.7724649867964573  0.7511972325684155
  0.1117628552885961  0.8967234582749910  0.0120408589951566
  0.8968147806119049  0.7979685831246428  0.2608075015675766
  0.5539557843139065  0.7677872454821397  0.7459129668563804
  0.4459468916093314  0.8868829579487922  0.0022690673457575
 
  0.00000000E+00  0.00000000E+00  0.00000000E+00
  0.00000000E+00  0.00000000E+00  0.00000000E+00
  0.00000000E+00  0.00000000E+00  0.00000000E+00
  0.00000000E+00  0.00000000E+00  0.00000000E+00
  0.00000000E+00  0.00000000E+00  0.00000000E+00
  0.00000000E+00  0.00000000E+00  0.00000000E+00
  0.00000000E+00  0.00000000E+00  0.00000000E+00
  0.00000000E+00  0.00000000E+00  0.00000000E+00
  0.00000000E+00  0.00000000E+00  0.00000000E+00
  0.00000000E+00  0.00000000E+00  0.00000000E+00
  0.00000000E+00  0.00000000E+00  0.00000000E+00
  0.00000000E+00  0.00000000E+00  0.00000000E+00
  0.00000000E+00  0.00000000E+00  0.00000000E+00
  0.00000000E+00  0.00000000E+00  0.00000000E+00
  0.00000000E+00  0.00000000E+00  0.00000000E+00
  0.00000000E+00  0.00000000E+00  0.00000000E+00
  0.00000000E+00  0.00000000E+00  0.00000000E+00
  0.00000000E+00  0.00000000E+00  0.00000000E+00
  0.00000000E+00  0.00000000E+00  0.00000000E+00
  0.00000000E+00  0.00000000E+00  0.00000000E+00
  0.00000000E+00  0.00000000E+00  0.00000000E+00
  0.00000000E+00  0.00000000E+00  0.00000000E+00
  0.00000000E+00  0.00000000E+00  0.00000000E+00
  0.00000000E+00  0.00000000E+00  0.00000000E+00
  0.00000000E+00  0.00000000E+00  0.00000000E+00
  0.00000000E+00  0.00000000E+00  0.00000000E+00
  0.00000000E+00  0.00000000E+00  0.00000000E+00
  0.00000000E+00  0.00000000E+00  0.00000000E+00
  0.00000000E+00  0.00000000E+00  0.00000000E+00
  0.00000000E+00  0.00000000E+00  0.00000000E+00
  0.00000000E+00  0.00000000E+00  0.00000000E+00
  0.00000000E+00  0.00000000E+00  0.00000000E+00
  0.00000000E+00  0.00000000E+00  0.00000000E+00
  0.00000000E+00  0.00000000E+00  0.00000000E+00
  0.00000000E+00  0.00000000E+00  0.00000000E+00
  0.00000000E+00  0.00000000E+00  0.00000000E+00
  0.00000000E+00  0.00000000E+00  0.00000000E+00
  0.00000000E+00  0.00000000E+00  0.00000000E+00
  0.00000000E+00  0.00000000E+00  0.00000000E+00
  0.00000000E+00  0.00000000E+00  0.00000000E+00
  0.00000000E+00  0.00000000E+00  0.00000000E+00
  0.00000000E+00  0.00000000E+00  0.00000000E+00
  0.00000000E+00  0.00000000E+00  0.00000000E+00
  0.00000000E+00  0.00000000E+00  0.00000000E+00
  0.00000000E+00  0.00000000E+00  0.00000000E+00
  0.00000000E+00  0.00000000E+00  0.00000000E+00
  0.00000000E+00  0.00000000E+00  0.00000000E+00
  0.00000000E+00  0.00000000E+00  0.00000000E+00
  0.00000000E+00  0.00000000E+00  0.00000000E+00
  0.00000000E+00  0.00000000E+00  0.00000000E+00
  0.00000000E+00  0.00000000E+00  0.00000000E+00
  0.00000000E+00  0.00000000E+00  0.00000000E+00
  0.00000000E+00  0.00000000E+00  0.00000000E+00
  0.00000000E+00  0.00000000E+00  0.00000000E+00
  0.00000000E+00  0.00000000E+00  0.00000000E+00
  0.00000000E+00  0.00000000E+00  0.00000000E+00
  0.00000000E+00  0.00000000E+00  0.00000000E+00
  0.00000000E+00  0.00000000E+00  0.00000000E+00
  0.00000000E+00  0.00000000E+00  0.00000000E+00
  0.00000000E+00  0.00000000E+00  0.00000000E+00
  0.00000000E+00  0.00000000E+00  0.00000000E+00
  0.00000000E+00  0.00000000E+00  0.00000000E+00
  0.00000000E+00  0.00000000E+00  0.00000000E+00
  0.00000000E+00  0.00000000E+00  0.00000000E+00
  0.00000000E+00  0.00000000E+00  0.00000000E+00
  0.00000000E+00  0.00000000E+00  0.00000000E+00
  0.00000000E+00  0.00000000E+00  0.00000000E+00
  0.00000000E+00  0.00000000E+00  0.00000000E+00
  0.00000000E+00  0.00000000E+00  0.00000000E+00
  0.00000000E+00  0.00000000E+00  0.00000000E+00
  0.00000000E+00  0.00000000E+00  0.00000000E+00
  0.00000000E+00  0.00000000E+00  0.00000000E+00
