generated by phonopy                    
   1.00000000000000     
    10.0351470768999995   -0.0000022330999784   -0.0000001056124209
    -5.0175765436399997    8.6906901959899994    0.0000001395531216
    -0.0000001735893656    0.0000001431815548   14.9533752540999991
   Pb   P    O    Cu
    20    12    49     1
Direct
  0.0001822293414619  0.7744319388077443  0.1250222809140453
  0.0019394247713151  0.7743412050531546  0.6214834111835827
  0.9777255796638897  0.2642109756354571  0.3751968660951945
  0.0046368639490737  0.2646142942830068  0.8740606547205019
  0.2259029506237411  0.2262572878653728  0.1228130535224636
  0.2245087049758538  0.2248129664757670  0.6267232463701902
  0.7697425394202995  0.7762638199479071  0.3766064473560107
  0.7347567045946803  0.7427698570219761  0.8738614251258880
  0.7740401154403571  0.0063541950094006  0.1234623098239567
  0.7726871199654610  0.0058515291695471  0.6247188256315681
  0.2644704229886514  0.9757041318097492  0.3758475774369998
  0.2564494929414494  0.9988837731852698  0.8736195071981498
  0.6670975426527690  0.3356960774495121  0.0000891620378596
  0.6590068004746570  0.3368861204613651  0.5009629523982753
  0.3331658378550273  0.6739847346448684  0.0050370096464007
  0.3511308960861044  0.6357444864791120  0.4903117677680058
  0.3394969422492196  0.6526472309856857  0.2486224184946479
  0.3307117637831922  0.6736165745298663  0.7376101569784055
  0.6596373051735611  0.3373833981497754  0.2463956773343980
  0.6673508201179743  0.3351885249263020  0.7473816211668236
  0.6281294190728346  0.5999442547843117  0.1202196251576808
  0.6293546523717382  0.5988978786852286  0.6275683402519547
  0.2769884288705384  0.2685914566554004  0.3775382364826925
  0.3664069405105792  0.3956645107423356  0.8751832593229096
  0.4051178241301727  0.0318579738291902  0.1227688110421141
  0.4049690393430296  0.0306575044495645  0.6264638290203592
  0.6206255107522054  0.9800814764686763  0.3733009679912627
  0.6005944746592178  0.9735260834574504  0.8739218147129790
  0.9688511692935506  0.3797102953933020  0.1228227788833252
  0.9694358958500970  0.3794520004118809  0.6250049805252260
  0.0245022810222153  0.6278423682982890  0.3740142932063151
  0.0287004743481276  0.6330615402701127  0.8740522966070117
  0.5078197368803217  0.6553470246500979  0.1217170114537822
  0.5079887842465212  0.6529869974678135  0.6246530744694141
  0.4581165222500516  0.3210817063679272  0.3784275572309284
  0.4688347894809581  0.3196790579541897  0.8751212921133984
  0.3564432162492039  0.8584109130056916  0.1224975790434826
  0.3558257142939212  0.8575947829827015  0.6252118374703244
  0.6607367667795359  0.1515389907276443  0.3750494638991739
  0.6783927193535959  0.1518130645124671  0.8743153887560098
  0.1441536474599374  0.4994535663157009  0.1219234531736504
  0.1452253850691321  0.4970189146288888  0.6235578006356448
  0.8496916871550511  0.5100180600259492  0.3730563975509966
  0.8504379753730760  0.5327146144603105  0.8741667097844257
  0.7283025487077524  0.6530583103687988  0.0332371957348201
  0.7407973949933222  0.6642972244725271  0.5454447348317615
  0.2462897591055864  0.3470800234176892  0.4633158314661969
  0.2588404054125846  0.3494270009913478  0.9591398938735409
  0.3484572821737686  0.0789452978953875  0.0367892714627658
  0.3363852382458035  0.0729496973720174  0.5439474529193831
  0.6851840182901299  0.9393939656590362  0.4579102116265403
  0.6439722824215366  0.9101044056531506  0.9578502789038197
  0.9200732127603430  0.2753747003398885  0.0371010818863908
  0.9200482058624715  0.2708749586556678  0.5412226939296687
  0.0747520992290660  0.7345999665810083  0.4577144732427314
  0.0917064507114915  0.7400427561146117  0.9580399471380687
  0.2592039374669994  0.3584668920244383  0.2930119570947838
  0.2569841937222321  0.3465146940061956  0.7921293639534426
  0.7408225467253544  0.6666941924814864  0.2016686783630277
  0.7295431249860371  0.6548222849821599  0.7142075139635082
  0.6962963473130799  0.9479784593435525  0.2910404173110592
  0.6455742537549085  0.9114847777434036  0.7900998416031371
  0.3362246006410032  0.0727426598584699  0.2055533749137339
  0.3480989666429153  0.0770258391007843  0.7127235290076470
  0.0797188700758298  0.7333519223066460  0.2895615381745031
  0.0915816523696975  0.7404461555679376  0.7902375582048435
  0.9252965699300546  0.2707181521331208  0.2059765852161775
  0.9229202609868778  0.2732833077644941  0.7100503786533068
  0.5433819705314917  0.4194233321489094  0.1240378465356642
  0.5448832471008771  0.4185010006389831  0.6250534186536356
  0.4718801273831872  0.5767549750619594  0.8743827752890496
  0.5854979908218780  0.1346445434134296  0.1266654722809548
  0.5852767424955303  0.1341170205448705  0.6228384220269305
  0.4413524837847405  0.8722695557669553  0.3699190383599031
  0.4192110653420116  0.8994488726354604  0.8737619811523274
  0.8697271550298140  0.4610203715336567  0.1261602694205735
  0.8720876971311071  0.4625421685150073  0.6252605134077314
  0.1152269905539782  0.5350085534864775  0.3752264253359385
  0.1028218461088031  0.5259113737815753  0.8738368040330400
  0.9992189493737413  0.0024313384840582  0.1150909061286924
  0.9976676382369547  0.0011058273574420  0.6288490748157969
  0.4992676400193758  0.5446328927064670  0.3563646803264078
 
  0.00000000E+00  0.00000000E+00  0.00000000E+00
  0.00000000E+00  0.00000000E+00  0.00000000E+00
  0.00000000E+00  0.00000000E+00  0.00000000E+00
  0.00000000E+00  0.00000000E+00  0.00000000E+00
  0.00000000E+00  0.00000000E+00  0.00000000E+00
  0.00000000E+00  0.00000000E+00  0.00000000E+00
  0.00000000E+00  0.00000000E+00  0.00000000E+00
  0.00000000E+00  0.00000000E+00  0.00000000E+00
  0.00000000E+00  0.00000000E+00  0.00000000E+00
  0.00000000E+00  0.00000000E+00  0.00000000E+00
  0.00000000E+00  0.00000000E+00  0.00000000E+00
  0.00000000E+00  0.00000000E+00  0.00000000E+00
  0.00000000E+00  0.00000000E+00  0.00000000E+00
  0.00000000E+00  0.00000000E+00  0.00000000E+00
  0.00000000E+00  0.00000000E+00  0.00000000E+00
  0.00000000E+00  0.00000000E+00  0.00000000E+00
  0.00000000E+00  0.00000000E+00  0.00000000E+00
  0.00000000E+00  0.00000000E+00  0.00000000E+00
  0.00000000E+00  0.00000000E+00  0.00000000E+00
  0.00000000E+00  0.00000000E+00  0.00000000E+00
  0.00000000E+00  0.00000000E+00  0.00000000E+00
  0.00000000E+00  0.00000000E+00  0.00000000E+00
  0.00000000E+00  0.00000000E+00  0.00000000E+00
  0.00000000E+00  0.00000000E+00  0.00000000E+00
  0.00000000E+00  0.00000000E+00  0.00000000E+00
  0.00000000E+00  0.00000000E+00  0.00000000E+00
  0.00000000E+00  0.00000000E+00  0.00000000E+00
  0.00000000E+00  0.00000000E+00  0.00000000E+00
  0.00000000E+00  0.00000000E+00  0.00000000E+00
  0.00000000E+00  0.00000000E+00  0.00000000E+00
  0.00000000E+00  0.00000000E+00  0.00000000E+00
  0.00000000E+00  0.00000000E+00  0.00000000E+00
  0.00000000E+00  0.00000000E+00  0.00000000E+00
  0.00000000E+00  0.00000000E+00  0.00000000E+00
  0.00000000E+00  0.00000000E+00  0.00000000E+00
  0.00000000E+00  0.00000000E+00  0.00000000E+00
  0.00000000E+00  0.00000000E+00  0.00000000E+00
  0.00000000E+00  0.00000000E+00  0.00000000E+00
  0.00000000E+00  0.00000000E+00  0.00000000E+00
  0.00000000E+00  0.00000000E+00  0.00000000E+00
  0.00000000E+00  0.00000000E+00  0.00000000E+00
  0.00000000E+00  0.00000000E+00  0.00000000E+00
  0.00000000E+00  0.00000000E+00  0.00000000E+00
  0.00000000E+00  0.00000000E+00  0.00000000E+00
  0.00000000E+00  0.00000000E+00  0.00000000E+00
  0.00000000E+00  0.00000000E+00  0.00000000E+00
  0.00000000E+00  0.00000000E+00  0.00000000E+00
  0.00000000E+00  0.00000000E+00  0.00000000E+00
  0.00000000E+00  0.00000000E+00  0.00000000E+00
  0.00000000E+00  0.00000000E+00  0.00000000E+00
  0.00000000E+00  0.00000000E+00  0.00000000E+00
  0.00000000E+00  0.00000000E+00  0.00000000E+00
  0.00000000E+00  0.00000000E+00  0.00000000E+00
  0.00000000E+00  0.00000000E+00  0.00000000E+00
  0.00000000E+00  0.00000000E+00  0.00000000E+00
  0.00000000E+00  0.00000000E+00  0.00000000E+00
  0.00000000E+00  0.00000000E+00  0.00000000E+00
  0.00000000E+00  0.00000000E+00  0.00000000E+00
  0.00000000E+00  0.00000000E+00  0.00000000E+00
  0.00000000E+00  0.00000000E+00  0.00000000E+00
  0.00000000E+00  0.00000000E+00  0.00000000E+00
  0.00000000E+00  0.00000000E+00  0.00000000E+00
  0.00000000E+00  0.00000000E+00  0.00000000E+00
  0.00000000E+00  0.00000000E+00  0.00000000E+00
  0.00000000E+00  0.00000000E+00  0.00000000E+00
  0.00000000E+00  0.00000000E+00  0.00000000E+00
  0.00000000E+00  0.00000000E+00  0.00000000E+00
  0.00000000E+00  0.00000000E+00  0.00000000E+00
  0.00000000E+00  0.00000000E+00  0.00000000E+00
  0.00000000E+00  0.00000000E+00  0.00000000E+00
  0.00000000E+00  0.00000000E+00  0.00000000E+00
  0.00000000E+00  0.00000000E+00  0.00000000E+00
  0.00000000E+00  0.00000000E+00  0.00000000E+00
  0.00000000E+00  0.00000000E+00  0.00000000E+00
  0.00000000E+00  0.00000000E+00  0.00000000E+00
  0.00000000E+00  0.00000000E+00  0.00000000E+00
  0.00000000E+00  0.00000000E+00  0.00000000E+00
  0.00000000E+00  0.00000000E+00  0.00000000E+00
  0.00000000E+00  0.00000000E+00  0.00000000E+00
  0.00000000E+00  0.00000000E+00  0.00000000E+00
  0.00000000E+00  0.00000000E+00  0.00000000E+00
  0.00000000E+00  0.00000000E+00  0.00000000E+00
