POSCAR                                  
   1.10700000000000     
     8.5228754644400002   -2.9593580680699998    4.8049469852400000
    -1.7291155219200001    2.9366605120900000    9.6326325466499991
    -3.4165259907999999  -11.7973272320000007    4.8359519355499998
   Al   Gd   N 
    12    42    54
Direct
  0.1961723242933004  0.1821207364008757  0.9171898200249089
  0.3139907464300435  0.2659973670329308  0.6643935505737986
  0.7580213188561800  0.2337223948791660  0.2861493842044283
  0.3055962089515987  0.6102644524105969  0.9989432021164362
  0.8673249753251753  0.6452984258108359  0.3457883851181478
  0.6481161257506187  0.8061899469580922  0.2077647081184253
  0.6529278912813083  0.1675686285189428  0.5439889975747718
  0.0917565638858449  0.1634869561847978  0.6047729741469894
  0.9480137182888342  0.4301066680726962  0.2041911229738176
  0.4146790185942422  0.7169038899754270  0.1557647922457690
  0.7264509196367683  0.6164525221481298  0.0596465601053424
  0.1829296809182139  0.9002755350448552  0.0163139554546774
  0.4427644553688239  0.3204465004120891  0.3949181771581038
  0.1963310329072812  0.5220921606482491  0.2334936045099596
  0.5253976027531166  0.4162176134722415  0.1283163178064868
  0.8498244021574379  0.2968159736794433  0.0453104261728683
  0.6441725237576748  0.4792651329182078  0.8820968968320955
  0.9977278473039348  0.3420626416945325  0.7678010218279780
  0.4216330493740159  0.6759010721716621  0.7291804055792284
  0.7585979445061994  0.5487032630394211  0.6131871479276967
  0.0960516568044056  0.4289962712413598  0.4974384649437340
  0.1968385665089798  0.8472862057131110  0.5705753399674691
  0.5475547398872607  0.7224428250049968  0.4592157863113187
  0.3315471621025594  0.9217341043295875  0.3146034122909924
  0.9710077678918267  0.6890508677408320  0.1016158774182969
  0.4112512142354490  0.9859149706959727  0.0620534435916795
  0.7471733106756560  0.8720974676868778  0.9509355715613736
  0.1006777654754885  0.7532620567833916  0.8509625627620778
  0.5201765846160171  0.0804199352990906  0.7899292268006377
  0.8862470867436443  0.9616762009014295  0.6847209009389772
  0.9725509274147086  0.0507341988544994  0.4323528900228908
  0.0723275971109345  0.1214233532235980  0.1633544291230891
  0.9713756752685754  0.0635273407993537  0.8759222308417094
  0.1863576166718843  0.2243505741883780  0.3375404659506174
  0.5324550528587579  0.1177650529576937  0.2292713336270182
  0.2831325187674096  0.3017381477776340  0.0824299124775010
  0.6170005963697562  0.1758322495555049  0.9713226358394991
  0.0629010785727431  0.4639108478105953  0.9525274111532909
  0.3887900451454342  0.3830549543460577  0.8358834698483406
  0.7493494075100315  0.2537361948141239  0.7114021362523744
  0.1798993943474301  0.5533086946171508  0.6744616003675290
  0.5124571433116145  0.4346027747078196  0.5708404200901640
  0.8506376791476953  0.3462553492108142  0.4430089864883371
  0.9558338987500150  0.7314841559755152  0.5137171303649311
  0.3052671179872490  0.6234980646735480  0.4057250241092021
  0.6455923766736191  0.5209304186550412  0.2852350120494975
  0.0870282481001112  0.8269329370033560  0.2605151266695671
  0.5008235697067889  0.7750434861183848  0.9075792417448199
  0.8532349262311243  0.6596368111516711  0.7926841662199138
  0.2730804176242501  0.9792005216283215  0.7546506456822897
  0.6346735806732511  0.8683062420904974  0.6352825130802486
  0.4078076311633438  0.0461950063399215  0.5043005829188303
  0.7340379412452762  0.9362831883735865  0.3749747537325447
  0.8422541954664453  0.9851323634524007  0.1254655973459791
  0.2378489025035435  0.3237580556666373  0.9428784954715823
  0.3500239752537198  0.4160173380995857  0.6899322517484947
  0.4920294138562440  0.5013090761694983  0.4172288577084586
  0.8193301188204956  0.3752730672327829  0.2937923896078658
  0.2741224339979382  0.6922027686292935  0.2555790794260560
  0.5720246435635872  0.5952600101826988  0.1437870125292093
  0.8821357191395549  0.4880310814739133  0.0821627357042800
  0.3380458978268237  0.7716520373045057  0.0365371626259545
  0.6978126336285584  0.6533681836922440  0.9288658079743328
  0.0320788819366555  0.5280253217841988  0.8041210044819636
  0.4661085609465871  0.8594324691673165  0.7557783781196292
  0.8045009295917609  0.7229719841961497  0.6474092911743341
  0.1407308900942397  0.6073756162201320  0.5255656399909867
  0.2264286585027335  0.0281714770534833  0.6051939241687592
  0.5816686390075958  0.8997651667972022  0.4952986878771384
  0.9143768888920718  0.7956244221368891  0.3663704397238305
  0.3738480730937184  0.1057838326922393  0.3542107353584427
  0.6794714765440730  0.9533687926344996  0.2360566103241766
  0.0435169226050007  0.8747637761513545  0.1152864280725581
  0.4574359307572067  0.1620273620921111  0.0959334851222664
  0.7987577130016845  0.0484569904813199  0.9813642646158414
  0.1472430917423324  0.9220895397820783  0.8913538481932761
  0.5748262249180058  0.2526400069720367  0.8264364804717346
  0.9558987213784249  0.1379562311688289  0.7146010357337147
  0.7009993898827744  0.3166197438543534  0.5691742551526247
  0.0384565575480025  0.2172841227743021  0.4783744884860255
  0.1042211842708056  0.3103939966800056  0.1974914724616994
  0.0170462770741153  0.2399840344270388  0.9170427526065694
  0.1515316452055728  0.3071507062320364  0.6303037707816657
  0.2467253337262960  0.4008809856633917  0.3647076507631084
  0.5909301842385730  0.2932497996422399  0.2612970918637672
  0.9845926993208920  0.5773818188638060  0.2405015941190740
  0.3323914084200439  0.4812945212225941  0.0959083543595227
  0.6661748015370392  0.3470954001575919  0.0052487179075484
  0.1377201173915310  0.6238757905779906  0.9827939934649521
  0.4334104678505852  0.5775849391646517  0.8808468012294668
  0.7970453453061026  0.4314887005932206  0.7501289820657675
  0.2269156145786866  0.7313308215035690  0.7073866320128559
  0.5611374862974401  0.6125377762663931  0.6020993258537715
  0.8908923459704354  0.5355838223715139  0.4644254173519187
  0.0001850765664102  0.9071579293924685  0.5466262888753306
  0.3485165722573385  0.7985126856034768  0.4443039509671038
  0.6977047518023767  0.6947638875688185  0.3200425578612780
  0.1268094774035049  0.0117717369868586  0.2974006031487235
  0.4758044150541707  0.8509763127329322  0.1879672451166314
  0.7655397890198685  0.7628743287820683  0.0934932206374981
  0.2167859848433693  0.0624876188600823  0.0260454796653562
  0.5527079979316341  0.9629053633784324  0.9264813416890405
  0.9050662473330462  0.8372315212912511  0.8224698213247947
  0.3104540153934465  0.1611148223745928  0.7856983330045892
  0.6887877626757870  0.0550895073209361  0.6543466089243850
  0.4654509370592947  0.2168803349599813  0.5518162243229341
  0.7595732709254079  0.1360668186757010  0.4145691944120529
  0.8623346601125590  0.1594498291014119  0.1775540302863803
 
  0.00000000E+00  0.00000000E+00  0.00000000E+00
  0.00000000E+00  0.00000000E+00  0.00000000E+00
  0.00000000E+00  0.00000000E+00  0.00000000E+00
  0.00000000E+00  0.00000000E+00  0.00000000E+00
  0.00000000E+00  0.00000000E+00  0.00000000E+00
  0.00000000E+00  0.00000000E+00  0.00000000E+00
  0.00000000E+00  0.00000000E+00  0.00000000E+00
  0.00000000E+00  0.00000000E+00  0.00000000E+00
  0.00000000E+00  0.00000000E+00  0.00000000E+00
  0.00000000E+00  0.00000000E+00  0.00000000E+00
  0.00000000E+00  0.00000000E+00  0.00000000E+00
  0.00000000E+00  0.00000000E+00  0.00000000E+00
  0.00000000E+00  0.00000000E+00  0.00000000E+00
  0.00000000E+00  0.00000000E+00  0.00000000E+00
  0.00000000E+00  0.00000000E+00  0.00000000E+00
  0.00000000E+00  0.00000000E+00  0.00000000E+00
  0.00000000E+00  0.00000000E+00  0.00000000E+00
  0.00000000E+00  0.00000000E+00  0.00000000E+00
  0.00000000E+00  0.00000000E+00  0.00000000E+00
  0.00000000E+00  0.00000000E+00  0.00000000E+00
  0.00000000E+00  0.00000000E+00  0.00000000E+00
  0.00000000E+00  0.00000000E+00  0.00000000E+00
  0.00000000E+00  0.00000000E+00  0.00000000E+00
  0.00000000E+00  0.00000000E+00  0.00000000E+00
  0.00000000E+00  0.00000000E+00  0.00000000E+00
  0.00000000E+00  0.00000000E+00  0.00000000E+00
  0.00000000E+00  0.00000000E+00  0.00000000E+00
  0.00000000E+00  0.00000000E+00  0.00000000E+00
  0.00000000E+00  0.00000000E+00  0.00000000E+00
  0.00000000E+00  0.00000000E+00  0.00000000E+00
  0.00000000E+00  0.00000000E+00  0.00000000E+00
  0.00000000E+00  0.00000000E+00  0.00000000E+00
  0.00000000E+00  0.00000000E+00  0.00000000E+00
  0.00000000E+00  0.00000000E+00  0.00000000E+00
  0.00000000E+00  0.00000000E+00  0.00000000E+00
  0.00000000E+00  0.00000000E+00  0.00000000E+00
  0.00000000E+00  0.00000000E+00  0.00000000E+00
  0.00000000E+00  0.00000000E+00  0.00000000E+00
  0.00000000E+00  0.00000000E+00  0.00000000E+00
  0.00000000E+00  0.00000000E+00  0.00000000E+00
  0.00000000E+00  0.00000000E+00  0.00000000E+00
  0.00000000E+00  0.00000000E+00  0.00000000E+00
  0.00000000E+00  0.00000000E+00  0.00000000E+00
  0.00000000E+00  0.00000000E+00  0.00000000E+00
  0.00000000E+00  0.00000000E+00  0.00000000E+00
  0.00000000E+00  0.00000000E+00  0.00000000E+00
  0.00000000E+00  0.00000000E+00  0.00000000E+00
  0.00000000E+00  0.00000000E+00  0.00000000E+00
  0.00000000E+00  0.00000000E+00  0.00000000E+00
  0.00000000E+00  0.00000000E+00  0.00000000E+00
  0.00000000E+00  0.00000000E+00  0.00000000E+00
  0.00000000E+00  0.00000000E+00  0.00000000E+00
  0.00000000E+00  0.00000000E+00  0.00000000E+00
  0.00000000E+00  0.00000000E+00  0.00000000E+00
  0.00000000E+00  0.00000000E+00  0.00000000E+00
  0.00000000E+00  0.00000000E+00  0.00000000E+00
  0.00000000E+00  0.00000000E+00  0.00000000E+00
  0.00000000E+00  0.00000000E+00  0.00000000E+00
  0.00000000E+00  0.00000000E+00  0.00000000E+00
  0.00000000E+00  0.00000000E+00  0.00000000E+00
  0.00000000E+00  0.00000000E+00  0.00000000E+00
  0.00000000E+00  0.00000000E+00  0.00000000E+00
  0.00000000E+00  0.00000000E+00  0.00000000E+00
  0.00000000E+00  0.00000000E+00  0.00000000E+00
  0.00000000E+00  0.00000000E+00  0.00000000E+00
  0.00000000E+00  0.00000000E+00  0.00000000E+00
  0.00000000E+00  0.00000000E+00  0.00000000E+00
  0.00000000E+00  0.00000000E+00  0.00000000E+00
  0.00000000E+00  0.00000000E+00  0.00000000E+00
  0.00000000E+00  0.00000000E+00  0.00000000E+00
  0.00000000E+00  0.00000000E+00  0.00000000E+00
  0.00000000E+00  0.00000000E+00  0.00000000E+00
  0.00000000E+00  0.00000000E+00  0.00000000E+00
  0.00000000E+00  0.00000000E+00  0.00000000E+00
  0.00000000E+00  0.00000000E+00  0.00000000E+00
  0.00000000E+00  0.00000000E+00  0.00000000E+00
  0.00000000E+00  0.00000000E+00  0.00000000E+00
  0.00000000E+00  0.00000000E+00  0.00000000E+00
  0.00000000E+00  0.00000000E+00  0.00000000E+00
  0.00000000E+00  0.00000000E+00  0.00000000E+00
  0.00000000E+00  0.00000000E+00  0.00000000E+00
  0.00000000E+00  0.00000000E+00  0.00000000E+00
  0.00000000E+00  0.00000000E+00  0.00000000E+00
  0.00000000E+00  0.00000000E+00  0.00000000E+00
  0.00000000E+00  0.00000000E+00  0.00000000E+00
  0.00000000E+00  0.00000000E+00  0.00000000E+00
  0.00000000E+00  0.00000000E+00  0.00000000E+00
  0.00000000E+00  0.00000000E+00  0.00000000E+00
  0.00000000E+00  0.00000000E+00  0.00000000E+00
  0.00000000E+00  0.00000000E+00  0.00000000E+00
  0.00000000E+00  0.00000000E+00  0.00000000E+00
  0.00000000E+00  0.00000000E+00  0.00000000E+00
  0.00000000E+00  0.00000000E+00  0.00000000E+00
  0.00000000E+00  0.00000000E+00  0.00000000E+00
  0.00000000E+00  0.00000000E+00  0.00000000E+00
  0.00000000E+00  0.00000000E+00  0.00000000E+00
  0.00000000E+00  0.00000000E+00  0.00000000E+00
  0.00000000E+00  0.00000000E+00  0.00000000E+00
  0.00000000E+00  0.00000000E+00  0.00000000E+00
  0.00000000E+00  0.00000000E+00  0.00000000E+00
  0.00000000E+00  0.00000000E+00  0.00000000E+00
  0.00000000E+00  0.00000000E+00  0.00000000E+00
  0.00000000E+00  0.00000000E+00  0.00000000E+00
  0.00000000E+00  0.00000000E+00  0.00000000E+00
  0.00000000E+00  0.00000000E+00  0.00000000E+00
  0.00000000E+00  0.00000000E+00  0.00000000E+00
  0.00000000E+00  0.00000000E+00  0.00000000E+00
  0.00000000E+00  0.00000000E+00  0.00000000E+00
