supercell of 100% icsd_608626.cif, 0% i 
   1.00000000000000     
    -9.4306438010457718   -0.0035360792916153    0.0011990231586021
    -4.7122608664508059    8.1590055755623236   -0.0022578636565471
     0.0012793183656828    0.0035249945121984  -10.0840743692212236
   Al   Ge   Mg   N 
    32     2     2    36
Direct
  0.1111785904562552  0.0938871027780124  0.2961535166728098
  0.2214220920024061  0.2058727042814326  0.0477557082079088
  0.7801739137136394  0.0935513273881980  0.7938785724195867
  0.8893617243245018  0.2069361469987996  0.5465680079179052
  0.4439217247671365  0.0963871151116891  0.2934212141923709
  0.5552828834435388  0.2061944631798340  0.0473387448670906
  0.1096264892509353  0.0921763526518973  0.7932321092092565
  0.2196664956039314  0.2068851642627507  0.5465653178029939
  0.7759445315622315  0.0975836717488008  0.2958388383698605
  0.8894324893196028  0.2053296580259243  0.0454028189614490
  0.5535664664551163  0.2093264501943395  0.5462538645875554
  0.1142757601583995  0.4267706636768054  0.2957940386916178
  0.2220516104413832  0.5390872898366155  0.0448827949114232
  0.7785952198454638  0.4273329744673688  0.7938245897247924
  0.8907613906087448  0.5377218502582721  0.5500860644266794
  0.4446532464223480  0.4287359535159823  0.2945026247779836
  0.5557889208761821  0.5380906778084622  0.0466051843297137
  0.1099428182263580  0.4310497906199089  0.7926194456765003
  0.2235722595724994  0.5380273457407583  0.5469191349561413
  0.7751541862236238  0.4270002579762959  0.2935923631689263
  0.8914408974070156  0.5349100377635025  0.0442060651170522
  0.4423532417403564  0.4309609428573538  0.7929046871211369
  0.1144826732672328  0.7593181968246512  0.2957014703173257
  0.2208570924938229  0.8729511314868290  0.0454708685981657
  0.7821696397545921  0.7589943413093820  0.7931512550143012
  0.8898480213500761  0.8706104315625467  0.5490802401967017
  0.4437919158304737  0.7584774229596860  0.2918010373756843
  0.5523714023205670  0.8741312165994373  0.0475691738076378
  0.1114222045859776  0.7615170322298255  0.7938457191743211
  0.2235508441122676  0.8713830432134699  0.5470770907406362
  0.8912152262853894  0.8738027402467381  0.0440816852049792
  0.4402807578905197  0.7602583027877188  0.7937155572171122
  0.4440737956034866  0.0957640388098397  0.7927871677705980
  0.7771354119851637  0.7611175922087412  0.2938854550700540
  0.5549144596173434  0.5400437210330793  0.5463266603645565
  0.5560316210549416  0.8686048298288398  0.5475403967074044
  0.2230982851673318  0.2047305625052047  0.3552060142904168
  0.1109058368239246  0.0950614894945900  0.1055850078206078
  0.8891101610038774  0.2046555400366969  0.8560322496776180
  0.7774133245145265  0.0944028574311915  0.6041147114349315
  0.5550838180483453  0.2050952202380927  0.3545819397343379
  0.4433375060760341  0.0962955259160552  0.1033662514356948
  0.2229275055070374  0.2051086739129744  0.8554889100227143
  0.1101836706255028  0.0945426708416903  0.6042988845179593
  0.8893230104479528  0.2051943355445260  0.3546379163389162
  0.7774807057358970  0.0944964954646892  0.1056239214381804
  0.5558488320837043  0.2041183123381884  0.8562913346756744
  0.4378720366248743  0.1067042534838478  0.6090574548066030
  0.2222429473418046  0.5388281921095910  0.3546700634569788
  0.1114398041134237  0.4275445479089655  0.1056661731186708
  0.8898611610041414  0.5386429394556131  0.8567836843331307
  0.7927452769284145  0.4205050697335224  0.6084195736542028
  0.5557179626631878  0.5386529610507438  0.3404217401989627
  0.4431973856825735  0.4268268760199376  0.1031712794691870
  0.2208773810854012  0.5398630155151594  0.8555103793726744
  0.1118728132188522  0.4273144069562207  0.6039070134402991
  0.8885415886058539  0.5404007185794981  0.3538714648168693
  0.7799730159852416  0.4267010314023594  0.1035160365124597
  0.5568819540682171  0.5373775244882211  0.8563674522682163
  0.4375414496633709  0.4214364633996155  0.6087711879970712
  0.2221427601489836  0.8725235468313173  0.3538634304545241
  0.1106897134340059  0.7609288795424476  0.1059784407623212
  0.8889074249559457  0.8729667177761158  0.8557532465044062
  0.7923253939431945  0.7538648016476657  0.6083931797176376
  0.5571766350905492  0.8715556929328514  0.3406211853409005
  0.4428094212901001  0.7622701728972032  0.1008953430782924
  0.2189228501352147  0.8737786334360038  0.8576627159169661
  0.1100384290275045  0.7619760093334875  0.6038702762656101
  0.8879154128664837  0.8713747686491189  0.3541290389978400
  0.7797364537931628  0.7602223968694943  0.1036947636634764
  0.5560300544854542  0.8744939080922975  0.8558663053661064
  0.4295159992363935  0.7687528059210464  0.6135319454292798
 
  0.00000000E+00  0.00000000E+00  0.00000000E+00
  0.00000000E+00  0.00000000E+00  0.00000000E+00
  0.00000000E+00  0.00000000E+00  0.00000000E+00
  0.00000000E+00  0.00000000E+00  0.00000000E+00
  0.00000000E+00  0.00000000E+00  0.00000000E+00
  0.00000000E+00  0.00000000E+00  0.00000000E+00
  0.00000000E+00  0.00000000E+00  0.00000000E+00
  0.00000000E+00  0.00000000E+00  0.00000000E+00
  0.00000000E+00  0.00000000E+00  0.00000000E+00
  0.00000000E+00  0.00000000E+00  0.00000000E+00
  0.00000000E+00  0.00000000E+00  0.00000000E+00
  0.00000000E+00  0.00000000E+00  0.00000000E+00
  0.00000000E+00  0.00000000E+00  0.00000000E+00
  0.00000000E+00  0.00000000E+00  0.00000000E+00
  0.00000000E+00  0.00000000E+00  0.00000000E+00
  0.00000000E+00  0.00000000E+00  0.00000000E+00
  0.00000000E+00  0.00000000E+00  0.00000000E+00
  0.00000000E+00  0.00000000E+00  0.00000000E+00
  0.00000000E+00  0.00000000E+00  0.00000000E+00
  0.00000000E+00  0.00000000E+00  0.00000000E+00
  0.00000000E+00  0.00000000E+00  0.00000000E+00
  0.00000000E+00  0.00000000E+00  0.00000000E+00
  0.00000000E+00  0.00000000E+00  0.00000000E+00
  0.00000000E+00  0.00000000E+00  0.00000000E+00
  0.00000000E+00  0.00000000E+00  0.00000000E+00
  0.00000000E+00  0.00000000E+00  0.00000000E+00
  0.00000000E+00  0.00000000E+00  0.00000000E+00
  0.00000000E+00  0.00000000E+00  0.00000000E+00
  0.00000000E+00  0.00000000E+00  0.00000000E+00
  0.00000000E+00  0.00000000E+00  0.00000000E+00
  0.00000000E+00  0.00000000E+00  0.00000000E+00
  0.00000000E+00  0.00000000E+00  0.00000000E+00
  0.00000000E+00  0.00000000E+00  0.00000000E+00
  0.00000000E+00  0.00000000E+00  0.00000000E+00
  0.00000000E+00  0.00000000E+00  0.00000000E+00
  0.00000000E+00  0.00000000E+00  0.00000000E+00
  0.00000000E+00  0.00000000E+00  0.00000000E+00
  0.00000000E+00  0.00000000E+00  0.00000000E+00
  0.00000000E+00  0.00000000E+00  0.00000000E+00
  0.00000000E+00  0.00000000E+00  0.00000000E+00
  0.00000000E+00  0.00000000E+00  0.00000000E+00
  0.00000000E+00  0.00000000E+00  0.00000000E+00
  0.00000000E+00  0.00000000E+00  0.00000000E+00
  0.00000000E+00  0.00000000E+00  0.00000000E+00
  0.00000000E+00  0.00000000E+00  0.00000000E+00
  0.00000000E+00  0.00000000E+00  0.00000000E+00
  0.00000000E+00  0.00000000E+00  0.00000000E+00
  0.00000000E+00  0.00000000E+00  0.00000000E+00
  0.00000000E+00  0.00000000E+00  0.00000000E+00
  0.00000000E+00  0.00000000E+00  0.00000000E+00
  0.00000000E+00  0.00000000E+00  0.00000000E+00
  0.00000000E+00  0.00000000E+00  0.00000000E+00
  0.00000000E+00  0.00000000E+00  0.00000000E+00
  0.00000000E+00  0.00000000E+00  0.00000000E+00
  0.00000000E+00  0.00000000E+00  0.00000000E+00
  0.00000000E+00  0.00000000E+00  0.00000000E+00
  0.00000000E+00  0.00000000E+00  0.00000000E+00
  0.00000000E+00  0.00000000E+00  0.00000000E+00
  0.00000000E+00  0.00000000E+00  0.00000000E+00
  0.00000000E+00  0.00000000E+00  0.00000000E+00
  0.00000000E+00  0.00000000E+00  0.00000000E+00
  0.00000000E+00  0.00000000E+00  0.00000000E+00
  0.00000000E+00  0.00000000E+00  0.00000000E+00
  0.00000000E+00  0.00000000E+00  0.00000000E+00
  0.00000000E+00  0.00000000E+00  0.00000000E+00
  0.00000000E+00  0.00000000E+00  0.00000000E+00
  0.00000000E+00  0.00000000E+00  0.00000000E+00
  0.00000000E+00  0.00000000E+00  0.00000000E+00
  0.00000000E+00  0.00000000E+00  0.00000000E+00
  0.00000000E+00  0.00000000E+00  0.00000000E+00
  0.00000000E+00  0.00000000E+00  0.00000000E+00
  0.00000000E+00  0.00000000E+00  0.00000000E+00
