supercell of 100% icsd_608626.cif, 0% i 
   1.00000000000000     
    -9.4315179995778209   -0.0028432471169821   -0.0004036356557443
    -4.7132972419188741    8.1642279205060664    0.0003048922495780
    -0.0004318798774815   -0.0006255957402955  -10.0771720687608486
   Al   Mg   Ge   N 
    32     2     2    36
Direct
  0.1108871367789632  0.0946818373380012  0.2951768612840127
  0.2227877847079682  0.2058326124202310  0.0495377136311959
  0.8877129908737800  0.2050652428318003  0.5430137557827379
  0.4437583599629633  0.0942125989260987  0.2942212416991481
  0.5538785735168048  0.2061620169245373  0.0500568614991579
  0.1067613004314509  0.0975201917354553  0.7949048014557434
  0.2194142792861200  0.2064821978765750  0.5437177105357875
  0.7787373484512798  0.0944902431471419  0.2947450835862000
  0.8877391183879197  0.2084426929392009  0.0463926342741274
  0.5585565058049227  0.2064542534230540  0.5416711921394253
  0.1119508730631296  0.4273693329556778  0.2943889005254405
  0.2233789913262640  0.5371244242904396  0.0491701553559309
  0.7805176912175611  0.4270217362097455  0.7940356953787244
  0.8884613808086215  0.5385787268396243  0.5456115383216513
  0.4441684848017360  0.4290179261157192  0.2942683065045486
  0.5575573867252430  0.5365936878517630  0.0470088389998722
  0.1068372912644762  0.4296179314069022  0.7932382381712770
  0.2242493085319381  0.5357541337484477  0.5435543853691627
  0.7771183195295208  0.4273428366687355  0.2946936739265666
  0.4452122406806325  0.4285747422914241  0.7946542998918247
  0.5562258223787282  0.5380847548874002  0.5448166560640431
  0.1115317521242147  0.7604911053429788  0.2946956742511588
  0.2220897518052283  0.8722215109311620  0.0492827590774425
  0.7815529523554758  0.7571146603667529  0.7925259202671384
  0.8850895207111051  0.8757426300040478  0.5416006001985707
  0.4449206079015511  0.7604126803467537  0.2951996798084480
  0.5565666721478593  0.8729830148258486  0.0500700527616758
  0.2234185121009915  0.8736362558778552  0.5440249764908032
  0.7775102054208674  0.7616424841395286  0.2944391411396055
  0.8882095458393167  0.8714551417138736  0.0493771725653573
  0.4462919653870969  0.7577977960461055  0.7947795163419471
  0.5567964151138654  0.8698109424052873  0.5439226081937250
  0.7786121409451212  0.0968506314025817  0.7966900650504982
  0.8882628335016634  0.5386866292975796  0.0463270667134381
  0.4432174918818248  0.0966909071980808  0.7954409828779561
  0.1096379633015161  0.7600935501501809  0.7960070982080438
  0.2230423174271650  0.2042856719768125  0.3559407394205820
  0.1125827862321813  0.0932827270702887  0.1052942361875466
  0.8965120110420344  0.2135488835272596  0.8593018285320824
  0.7772646047630403  0.0946031434089036  0.5930451092771776
  0.5537506964337737  0.2062391162062980  0.3520883535072841
  0.4434789429758226  0.0935587375655658  0.1052056641616801
  0.2238907864506317  0.2036677438396666  0.8542645183486286
  0.1114459205314091  0.0938663274029068  0.6051268000729948
  0.8906986105912083  0.2048714564913183  0.3537236395687486
  0.7780106960009547  0.0943959558889702  0.1029548602889179
  0.5391855249809012  0.2125612975806845  0.8597574533003822
  0.4442436731825481  0.0948431156669827  0.6056598714177568
  0.2225409684686142  0.5398169175832734  0.3557303837836585
  0.1256816342938265  0.4203412544158311  0.1081148014926399
  0.8882578847490663  0.5396139171177907  0.8410167407446849
  0.7770328666775796  0.4268459782186227  0.6024013253155118
  0.5540178486030598  0.5399684415073338  0.3561138305072120
  0.4438834864545740  0.4292301220465333  0.1047280939933728
  0.2223877681837365  0.5398063448585972  0.8540450892774629
  0.1131975674982471  0.4266617014498237  0.6034667469591213
  0.8892948048137512  0.5388642539905746  0.3547099102386042
  0.7697208423411155  0.4217755907229090  0.1100920748672749
  0.5558799506536189  0.5384973343898309  0.8543754758165321
  0.4443767701629397  0.4274319424848940  0.6050342694049391
  0.2223872533191056  0.8716503726892881  0.3550795000167568
  0.1125292820970571  0.7603899349415570  0.1050314212073573
  0.8974777107821836  0.8577037415253486  0.8587861232863716
  0.7769145965163489  0.7632627383776551  0.6025666637637812
  0.5539634508865063  0.8730729761534306  0.3560240843969353
  0.4443155468885109  0.7612610541959555  0.1039046841534912
  0.2215982159474166  0.8708469548038451  0.8547088769849793
  0.1112369851367205  0.7608584645603287  0.6059569502306061
  0.8911229975278019  0.8708574213159395  0.3532947790794196
  0.7699178416292440  0.7752943718425485  0.1091451502254515
  0.5544098187383995  0.8748175739653874  0.8542635616160226
  0.4441278179511912  0.7613523593405418  0.6057845302115652
 
  0.00000000E+00  0.00000000E+00  0.00000000E+00
  0.00000000E+00  0.00000000E+00  0.00000000E+00
  0.00000000E+00  0.00000000E+00  0.00000000E+00
  0.00000000E+00  0.00000000E+00  0.00000000E+00
  0.00000000E+00  0.00000000E+00  0.00000000E+00
  0.00000000E+00  0.00000000E+00  0.00000000E+00
  0.00000000E+00  0.00000000E+00  0.00000000E+00
  0.00000000E+00  0.00000000E+00  0.00000000E+00
  0.00000000E+00  0.00000000E+00  0.00000000E+00
  0.00000000E+00  0.00000000E+00  0.00000000E+00
  0.00000000E+00  0.00000000E+00  0.00000000E+00
  0.00000000E+00  0.00000000E+00  0.00000000E+00
  0.00000000E+00  0.00000000E+00  0.00000000E+00
  0.00000000E+00  0.00000000E+00  0.00000000E+00
  0.00000000E+00  0.00000000E+00  0.00000000E+00
  0.00000000E+00  0.00000000E+00  0.00000000E+00
  0.00000000E+00  0.00000000E+00  0.00000000E+00
  0.00000000E+00  0.00000000E+00  0.00000000E+00
  0.00000000E+00  0.00000000E+00  0.00000000E+00
  0.00000000E+00  0.00000000E+00  0.00000000E+00
  0.00000000E+00  0.00000000E+00  0.00000000E+00
  0.00000000E+00  0.00000000E+00  0.00000000E+00
  0.00000000E+00  0.00000000E+00  0.00000000E+00
  0.00000000E+00  0.00000000E+00  0.00000000E+00
  0.00000000E+00  0.00000000E+00  0.00000000E+00
  0.00000000E+00  0.00000000E+00  0.00000000E+00
  0.00000000E+00  0.00000000E+00  0.00000000E+00
  0.00000000E+00  0.00000000E+00  0.00000000E+00
  0.00000000E+00  0.00000000E+00  0.00000000E+00
  0.00000000E+00  0.00000000E+00  0.00000000E+00
  0.00000000E+00  0.00000000E+00  0.00000000E+00
  0.00000000E+00  0.00000000E+00  0.00000000E+00
  0.00000000E+00  0.00000000E+00  0.00000000E+00
  0.00000000E+00  0.00000000E+00  0.00000000E+00
  0.00000000E+00  0.00000000E+00  0.00000000E+00
  0.00000000E+00  0.00000000E+00  0.00000000E+00
  0.00000000E+00  0.00000000E+00  0.00000000E+00
  0.00000000E+00  0.00000000E+00  0.00000000E+00
  0.00000000E+00  0.00000000E+00  0.00000000E+00
  0.00000000E+00  0.00000000E+00  0.00000000E+00
  0.00000000E+00  0.00000000E+00  0.00000000E+00
  0.00000000E+00  0.00000000E+00  0.00000000E+00
  0.00000000E+00  0.00000000E+00  0.00000000E+00
  0.00000000E+00  0.00000000E+00  0.00000000E+00
  0.00000000E+00  0.00000000E+00  0.00000000E+00
  0.00000000E+00  0.00000000E+00  0.00000000E+00
  0.00000000E+00  0.00000000E+00  0.00000000E+00
  0.00000000E+00  0.00000000E+00  0.00000000E+00
  0.00000000E+00  0.00000000E+00  0.00000000E+00
  0.00000000E+00  0.00000000E+00  0.00000000E+00
  0.00000000E+00  0.00000000E+00  0.00000000E+00
  0.00000000E+00  0.00000000E+00  0.00000000E+00
  0.00000000E+00  0.00000000E+00  0.00000000E+00
  0.00000000E+00  0.00000000E+00  0.00000000E+00
  0.00000000E+00  0.00000000E+00  0.00000000E+00
  0.00000000E+00  0.00000000E+00  0.00000000E+00
  0.00000000E+00  0.00000000E+00  0.00000000E+00
  0.00000000E+00  0.00000000E+00  0.00000000E+00
  0.00000000E+00  0.00000000E+00  0.00000000E+00
  0.00000000E+00  0.00000000E+00  0.00000000E+00
  0.00000000E+00  0.00000000E+00  0.00000000E+00
  0.00000000E+00  0.00000000E+00  0.00000000E+00
  0.00000000E+00  0.00000000E+00  0.00000000E+00
  0.00000000E+00  0.00000000E+00  0.00000000E+00
  0.00000000E+00  0.00000000E+00  0.00000000E+00
  0.00000000E+00  0.00000000E+00  0.00000000E+00
  0.00000000E+00  0.00000000E+00  0.00000000E+00
  0.00000000E+00  0.00000000E+00  0.00000000E+00
  0.00000000E+00  0.00000000E+00  0.00000000E+00
  0.00000000E+00  0.00000000E+00  0.00000000E+00
  0.00000000E+00  0.00000000E+00  0.00000000E+00
  0.00000000E+00  0.00000000E+00  0.00000000E+00
