supercell of 100% icsd_608626.cif, 0% i 
   1.00000000000000     
    -9.4230337793883763    0.0000012369064294   -0.0000005999356041
    -4.7115179622214578    8.1693222355811521   -0.0030866197968091
    -0.0000006408890834    0.0038110526072745  -10.0800224027136203
   Mg   Al   Ge   N 
     2    32     2    36
Direct
  0.1127021635117984  0.0931262931669892  0.2930719750806929
  0.7775045685118727  0.0931262467480778  0.2930719691513914
  0.2214087015525834  0.2055327361948400  0.0444213284385384
  0.7774653178898205  0.0945360170601788  0.8008639144134264
  0.4406124531380371  0.1021081151729533  0.2951138462439999
  0.5563917289221934  0.2055327230102151  0.0444213565765139
  0.1113320974116974  0.0945360138513465  0.8008638043578173
  0.2205602013447034  0.2091073541750248  0.5424108427762633
  0.8893878160117907  0.2045575494823879  0.0416045737088169
  0.4444531387048798  0.0944273392678809  0.7990023174852041
  0.5536660528138100  0.2091073521644944  0.5424107686996251
  0.1129590652738770  0.4266466548462802  0.2959015597887955
  0.2222366553361610  0.5388597523014411  0.0465468702392684
  0.7771706605047655  0.4289920606613720  0.7987913878353083
  0.8913133668975206  0.5375916447594236  0.5425748483728725
  0.4437272580835909  0.4266466217920382  0.2959015561775260
  0.5557122310025235  0.5381570695310742  0.0468774115781798
  0.1112790288391423  0.4286452715229601  0.7963685459411209
  0.2220376286964694  0.5392584562060279  0.5427449514637459
  0.7770357394660437  0.4292615650392051  0.2951359047728062
  0.8894638614304995  0.5381569982644265  0.0468774642695138
  0.4434090777973836  0.4286453581875307  0.7963684812906848
  0.5544286525340567  0.5375917213748522  0.5425747406831718
  0.1125188109294442  0.7582952316461302  0.2959851494350545
  0.2210303219316785  0.8729679281372640  0.0443506241854479
  0.7775478737767187  0.7608175836835329  0.7996295764299859
  0.8929054665267202  0.8698339582704122  0.5431864386226763
  0.4414853967246231  0.7589311247540707  0.2943493119012217
  0.5552033420113816  0.8729264890238753  0.0468214262155868
  0.1119436542191679  0.7594463074285329  0.7961699666853761
  0.2205944131612867  0.8698342139032675  0.5431864433547418
  0.7829163216725092  0.7589311745207610  0.2943493915630810
  0.8893349730001248  0.8729677950375105  0.0443507583723033
  0.4449682015582042  0.7608176469060837  0.7996294436535010
  0.8878383666526659  0.2076563853586251  0.5434652912431943
  0.5553196893264598  0.8726944702845287  0.5433294714250891
  0.2275616030131573  0.2121250720482308  0.3588316678446475
  0.1108014292720938  0.0944547236601139  0.0889421290064760
  0.8876845640226492  0.2079641848039628  0.8502231863384608
  0.7783455417952183  0.0945786337583741  0.6063804625804536
  0.5436463540744043  0.2121249858076624  0.3588316318288136
  0.4444177064213974  0.0944978394449336  0.1042458611344657
  0.2231829787944264  0.2068514085822599  0.8523911068279020
  0.1104092357913373  0.0945788736406143  0.6063803681042756
  0.8818192581406947  0.2196943281866339  0.3639559926166527
  0.7780770259043095  0.0944546229268823  0.0889422154821631
  0.5532990492674301  0.2068514762426474  0.8523911600126581
  0.4461639779626765  0.0910059436354160  0.6067640335031328
  0.2225755933009950  0.5381816864066380  0.3540583211545112
  0.1111611983450231  0.4275980169314053  0.1044690574353666
  0.8888100130925736  0.5392463510671845  0.8554244656540675
  0.7768463376222599  0.4296409757248298  0.6074329009738406
  0.5558042588407091  0.5394190945560950  0.3545206407723782
  0.4445739420254569  0.4275979438231658  0.1044690291163732
  0.2223747757160623  0.5385836773398225  0.8556385844338124
  0.1101490925813877  0.4294218796028488  0.6059892811732297
  0.8881096050259032  0.5394191730638838  0.3545207759990276
  0.7781925801504528  0.4269479311854738  0.1043402164357232
  0.5552770253133161  0.5392463692083567  0.8554243730308215
  0.4437628428088374  0.4294218008977921  0.6059891791463130
  0.2293265441680887  0.8573628732768555  0.3591891564930663
  0.1113129063444731  0.7607072631244733  0.1038793207490727
  0.8897728044615789  0.8700363888154428  0.8524615746740380
  0.7747127742474191  0.7618699924586352  0.6063098598941110
  0.5554386264766578  0.8724557577088916  0.3550929146545485
  0.4447249686382690  0.7611456514526296  0.1044378028796586
  0.2235243275321679  0.8700363843076389  0.8524613964255465
  0.1119220461891857  0.7594898995423875  0.6071362101045636
  0.8966433862419763  0.8573628720976672  0.3591892032538695
  0.7774625479002637  0.7611455996622425  0.1044378954428424
  0.5554973906207934  0.8723389880883943  0.8558146262463566
  0.4467513907301210  0.7618701131839387  0.6063096861441508
 
  0.00000000E+00  0.00000000E+00  0.00000000E+00
  0.00000000E+00  0.00000000E+00  0.00000000E+00
  0.00000000E+00  0.00000000E+00  0.00000000E+00
  0.00000000E+00  0.00000000E+00  0.00000000E+00
  0.00000000E+00  0.00000000E+00  0.00000000E+00
  0.00000000E+00  0.00000000E+00  0.00000000E+00
  0.00000000E+00  0.00000000E+00  0.00000000E+00
  0.00000000E+00  0.00000000E+00  0.00000000E+00
  0.00000000E+00  0.00000000E+00  0.00000000E+00
  0.00000000E+00  0.00000000E+00  0.00000000E+00
  0.00000000E+00  0.00000000E+00  0.00000000E+00
  0.00000000E+00  0.00000000E+00  0.00000000E+00
  0.00000000E+00  0.00000000E+00  0.00000000E+00
  0.00000000E+00  0.00000000E+00  0.00000000E+00
  0.00000000E+00  0.00000000E+00  0.00000000E+00
  0.00000000E+00  0.00000000E+00  0.00000000E+00
  0.00000000E+00  0.00000000E+00  0.00000000E+00
  0.00000000E+00  0.00000000E+00  0.00000000E+00
  0.00000000E+00  0.00000000E+00  0.00000000E+00
  0.00000000E+00  0.00000000E+00  0.00000000E+00
  0.00000000E+00  0.00000000E+00  0.00000000E+00
  0.00000000E+00  0.00000000E+00  0.00000000E+00
  0.00000000E+00  0.00000000E+00  0.00000000E+00
  0.00000000E+00  0.00000000E+00  0.00000000E+00
  0.00000000E+00  0.00000000E+00  0.00000000E+00
  0.00000000E+00  0.00000000E+00  0.00000000E+00
  0.00000000E+00  0.00000000E+00  0.00000000E+00
  0.00000000E+00  0.00000000E+00  0.00000000E+00
  0.00000000E+00  0.00000000E+00  0.00000000E+00
  0.00000000E+00  0.00000000E+00  0.00000000E+00
  0.00000000E+00  0.00000000E+00  0.00000000E+00
  0.00000000E+00  0.00000000E+00  0.00000000E+00
  0.00000000E+00  0.00000000E+00  0.00000000E+00
  0.00000000E+00  0.00000000E+00  0.00000000E+00
  0.00000000E+00  0.00000000E+00  0.00000000E+00
  0.00000000E+00  0.00000000E+00  0.00000000E+00
  0.00000000E+00  0.00000000E+00  0.00000000E+00
  0.00000000E+00  0.00000000E+00  0.00000000E+00
  0.00000000E+00  0.00000000E+00  0.00000000E+00
  0.00000000E+00  0.00000000E+00  0.00000000E+00
  0.00000000E+00  0.00000000E+00  0.00000000E+00
  0.00000000E+00  0.00000000E+00  0.00000000E+00
  0.00000000E+00  0.00000000E+00  0.00000000E+00
  0.00000000E+00  0.00000000E+00  0.00000000E+00
  0.00000000E+00  0.00000000E+00  0.00000000E+00
  0.00000000E+00  0.00000000E+00  0.00000000E+00
  0.00000000E+00  0.00000000E+00  0.00000000E+00
  0.00000000E+00  0.00000000E+00  0.00000000E+00
  0.00000000E+00  0.00000000E+00  0.00000000E+00
  0.00000000E+00  0.00000000E+00  0.00000000E+00
  0.00000000E+00  0.00000000E+00  0.00000000E+00
  0.00000000E+00  0.00000000E+00  0.00000000E+00
  0.00000000E+00  0.00000000E+00  0.00000000E+00
  0.00000000E+00  0.00000000E+00  0.00000000E+00
  0.00000000E+00  0.00000000E+00  0.00000000E+00
  0.00000000E+00  0.00000000E+00  0.00000000E+00
  0.00000000E+00  0.00000000E+00  0.00000000E+00
  0.00000000E+00  0.00000000E+00  0.00000000E+00
  0.00000000E+00  0.00000000E+00  0.00000000E+00
  0.00000000E+00  0.00000000E+00  0.00000000E+00
  0.00000000E+00  0.00000000E+00  0.00000000E+00
  0.00000000E+00  0.00000000E+00  0.00000000E+00
  0.00000000E+00  0.00000000E+00  0.00000000E+00
  0.00000000E+00  0.00000000E+00  0.00000000E+00
  0.00000000E+00  0.00000000E+00  0.00000000E+00
  0.00000000E+00  0.00000000E+00  0.00000000E+00
  0.00000000E+00  0.00000000E+00  0.00000000E+00
  0.00000000E+00  0.00000000E+00  0.00000000E+00
  0.00000000E+00  0.00000000E+00  0.00000000E+00
  0.00000000E+00  0.00000000E+00  0.00000000E+00
  0.00000000E+00  0.00000000E+00  0.00000000E+00
  0.00000000E+00  0.00000000E+00  0.00000000E+00
