supercell of 100% icsd_608626.cif, 0% i 
   1.00000000000000     
    -9.4293527985609504    0.0010462538748713    0.0005356582836919
    -4.7155824814326506    8.1655372807903639    0.0005357350424001
     0.0005720340905233   -0.0003303557170919  -10.0815344722950080
   Al   Ge   Mg   N 
    32     2     2    36
Direct
  0.1094848114312299  0.0989407558777202  0.2940775839643521
  0.2200859209272537  0.2074081822215277  0.0467568770570921
  0.8912614232986229  0.2079288656796194  0.5437697538543844
  0.4417502941359857  0.0992742635561754  0.2948026926572496
  0.5572144026898229  0.2062329671128822  0.0478043025660781
  0.1145460225554800  0.0931265884565065  0.7950078159949854
  0.2222263226345689  0.2052182594405352  0.5441973183489779
  0.8882819144515324  0.2049478591324387  0.0478891292853092
  0.4421763994446550  0.0935656296664007  0.7952292151556293
  0.5511837455102153  0.2075184159104637  0.5439830378295269
  0.1102766400401691  0.4269431314639576  0.2955916405183316
  0.7764590005717409  0.4312129594038439  0.7950079124768763
  0.8885513081469938  0.5388934337785969  0.5441972512332356
  0.4432183292051235  0.4247263723853720  0.2944583935711904
  0.5580063481765620  0.5335460116204871  0.0457080272664996
  0.1117017106206362  0.4283685000685296  0.7931839713165800
  0.2221925309286377  0.5388601048436783  0.5449981409430293
  0.7822743353658552  0.4261511891878413  0.2940774183212440
  0.8907411246265724  0.5367526775149969  0.0467568921183670
  0.4412626099943964  0.4318113481091856  0.7930792457154325
  0.5560204631169725  0.5389121191533945  0.5476072796647102
  0.1080598129656991  0.7598851115049285  0.2944585223170364
  0.2168797640220888  0.8746728320030499  0.0457080354275092
  0.7768984803878567  0.7588424839498202  0.7952291615107612
  0.8908507449784153  0.8678513661600604  0.5439823319822992
  0.5574130120913949  0.8740798576467057  0.0453728776637305
  0.1151453249060310  0.7579283135439212  0.7930792671428861
  0.2222445343056023  0.8726878015124271  0.5476075083618923
  0.7826075467531837  0.7584166686956380  0.2948028553256421
  0.8895671928703806  0.8738798156750534  0.0478053992251191
  0.4442874224400981  0.7609551754850230  0.7958053077438976
  0.5556358067017442  0.8723030259641078  0.5478810016218461
  0.7777078336327534  0.0943721057231528  0.7959804885166406
  0.4443265356894841  0.7609932357584626  0.2947680137210682
  0.7776274129351961  0.0942943843213442  0.2940144169769070
  0.2217669705701937  0.5384331462948708  0.0472794964656060
  0.2233208244191900  0.2034959349261598  0.3555212812110398
  0.1115454227899519  0.0943618666145696  0.1038254494626543
  0.8889324010384385  0.2055987447224652  0.8528053024850237
  0.7779233701836148  0.0945899346644836  0.6059009918738667
  0.5424425633170813  0.2109805534951192  0.3600146241110522
  0.4443161109769633  0.0945164298018852  0.1039533225286462
  0.2217903292117214  0.2061753302486693  0.8548735336942030
  0.1120723820159171  0.0936953695225355  0.6061165652589438
  0.8957550680857551  0.2124215679552037  0.3587023984140387
  0.7776447548162722  0.0943102370924436  0.0897397504715229
  0.5555375435372909  0.2056669092742567  0.8521515831300590
  0.4442205538821042  0.0933057619224371  0.6063661736068937
  0.2224360753018146  0.5391029460304679  0.3542256238805521
  0.1036921085281790  0.4203592944778904  0.1098141206492755
  0.8895083345268731  0.5384568269681722  0.8548735344272345
  0.7770279665688591  0.4287399445368081  0.6061166027712517
  0.5551797277857133  0.5414997180284544  0.3554419089040195
  0.4587046460443602  0.4206226827145585  0.1088126031312768
  0.2218637406632880  0.5385298457763383  0.8421594397556476
  0.1102263139314132  0.4268934458329028  0.6022769139572191
  0.8868294424397050  0.5399872166640236  0.3555212714378655
  0.7776955236139145  0.4282114663796364  0.1038252730637765
  0.5553619025963883  0.5394455118046508  0.8549668406970667
  0.4460131267931544  0.4282228064206279  0.6037686038200576
  0.2248330876728062  0.8718463689122729  0.3554421730526300
  0.1039570406135866  0.7753706478804503  0.1088128462363755
  0.8890018828843722  0.8722011282746323  0.8521525450824541
  0.7766387144345472  0.7608877482830394  0.6063661618396310
  0.5546435708489810  0.8713102533726840  0.3544358717230836
  0.4445813952381386  0.7612476641374997  0.1055523839449393
  0.2227777086299625  0.8720294324230196  0.8549667555848401
  0.1115547802574426  0.7626806899975165  0.6037686858655746
  0.8943136322261580  0.8591093648108625  0.3600141394269372
  0.7778495704040438  0.7609826048534245  0.1039536057670460
  0.5552717856978404  0.8719387822445199  0.8555030724524499
  0.4446025449010094  0.7612700101126464  0.6052994624188699
 
  0.00000000E+00  0.00000000E+00  0.00000000E+00
  0.00000000E+00  0.00000000E+00  0.00000000E+00
  0.00000000E+00  0.00000000E+00  0.00000000E+00
  0.00000000E+00  0.00000000E+00  0.00000000E+00
  0.00000000E+00  0.00000000E+00  0.00000000E+00
  0.00000000E+00  0.00000000E+00  0.00000000E+00
  0.00000000E+00  0.00000000E+00  0.00000000E+00
  0.00000000E+00  0.00000000E+00  0.00000000E+00
  0.00000000E+00  0.00000000E+00  0.00000000E+00
  0.00000000E+00  0.00000000E+00  0.00000000E+00
  0.00000000E+00  0.00000000E+00  0.00000000E+00
  0.00000000E+00  0.00000000E+00  0.00000000E+00
  0.00000000E+00  0.00000000E+00  0.00000000E+00
  0.00000000E+00  0.00000000E+00  0.00000000E+00
  0.00000000E+00  0.00000000E+00  0.00000000E+00
  0.00000000E+00  0.00000000E+00  0.00000000E+00
  0.00000000E+00  0.00000000E+00  0.00000000E+00
  0.00000000E+00  0.00000000E+00  0.00000000E+00
  0.00000000E+00  0.00000000E+00  0.00000000E+00
  0.00000000E+00  0.00000000E+00  0.00000000E+00
  0.00000000E+00  0.00000000E+00  0.00000000E+00
  0.00000000E+00  0.00000000E+00  0.00000000E+00
  0.00000000E+00  0.00000000E+00  0.00000000E+00
  0.00000000E+00  0.00000000E+00  0.00000000E+00
  0.00000000E+00  0.00000000E+00  0.00000000E+00
  0.00000000E+00  0.00000000E+00  0.00000000E+00
  0.00000000E+00  0.00000000E+00  0.00000000E+00
  0.00000000E+00  0.00000000E+00  0.00000000E+00
  0.00000000E+00  0.00000000E+00  0.00000000E+00
  0.00000000E+00  0.00000000E+00  0.00000000E+00
  0.00000000E+00  0.00000000E+00  0.00000000E+00
  0.00000000E+00  0.00000000E+00  0.00000000E+00
  0.00000000E+00  0.00000000E+00  0.00000000E+00
  0.00000000E+00  0.00000000E+00  0.00000000E+00
  0.00000000E+00  0.00000000E+00  0.00000000E+00
  0.00000000E+00  0.00000000E+00  0.00000000E+00
  0.00000000E+00  0.00000000E+00  0.00000000E+00
  0.00000000E+00  0.00000000E+00  0.00000000E+00
  0.00000000E+00  0.00000000E+00  0.00000000E+00
  0.00000000E+00  0.00000000E+00  0.00000000E+00
  0.00000000E+00  0.00000000E+00  0.00000000E+00
  0.00000000E+00  0.00000000E+00  0.00000000E+00
  0.00000000E+00  0.00000000E+00  0.00000000E+00
  0.00000000E+00  0.00000000E+00  0.00000000E+00
  0.00000000E+00  0.00000000E+00  0.00000000E+00
  0.00000000E+00  0.00000000E+00  0.00000000E+00
  0.00000000E+00  0.00000000E+00  0.00000000E+00
  0.00000000E+00  0.00000000E+00  0.00000000E+00
  0.00000000E+00  0.00000000E+00  0.00000000E+00
  0.00000000E+00  0.00000000E+00  0.00000000E+00
  0.00000000E+00  0.00000000E+00  0.00000000E+00
  0.00000000E+00  0.00000000E+00  0.00000000E+00
  0.00000000E+00  0.00000000E+00  0.00000000E+00
  0.00000000E+00  0.00000000E+00  0.00000000E+00
  0.00000000E+00  0.00000000E+00  0.00000000E+00
  0.00000000E+00  0.00000000E+00  0.00000000E+00
  0.00000000E+00  0.00000000E+00  0.00000000E+00
  0.00000000E+00  0.00000000E+00  0.00000000E+00
  0.00000000E+00  0.00000000E+00  0.00000000E+00
  0.00000000E+00  0.00000000E+00  0.00000000E+00
  0.00000000E+00  0.00000000E+00  0.00000000E+00
  0.00000000E+00  0.00000000E+00  0.00000000E+00
  0.00000000E+00  0.00000000E+00  0.00000000E+00
  0.00000000E+00  0.00000000E+00  0.00000000E+00
  0.00000000E+00  0.00000000E+00  0.00000000E+00
  0.00000000E+00  0.00000000E+00  0.00000000E+00
  0.00000000E+00  0.00000000E+00  0.00000000E+00
  0.00000000E+00  0.00000000E+00  0.00000000E+00
  0.00000000E+00  0.00000000E+00  0.00000000E+00
  0.00000000E+00  0.00000000E+00  0.00000000E+00
  0.00000000E+00  0.00000000E+00  0.00000000E+00
  0.00000000E+00  0.00000000E+00  0.00000000E+00
