supercell of 100% icsd_608626.cif, 0% i 
   1.00000000000000     
    -9.5755733580050091   -0.0255134305050836   -0.0301134481732918
    -4.7657126367843290    8.2605891731799801    0.0010240104228445
    -0.0322409917017500   -0.0199043793907341  -10.1669067081685469
   Al   Ca   Ge   N 
    30     3     3    36
Direct
  0.1068109822297743  0.0989532339184436  0.2959799096154683
  0.2154493963928630  0.2076780437995822  0.0375487519950255
  0.7812756720617386  0.0926988974522445  0.7926996428585795
  0.8927534389535552  0.2065323711893754  0.5438485188961835
  0.1067084752777419  0.0969662860026403  0.7955003590275780
  0.2109583298193911  0.2112279858948369  0.5462282427691392
  0.7930887555418025  0.0865618189309529  0.3033892218959906
  0.8954185458232118  0.2018784818940844  0.0516776083305359
  0.4385568518855223  0.0968078409111897  0.8094554890536116
  0.1004364026996072  0.4330977050572073  0.2969654370882040
  0.2179384904715533  0.5435609665145762  0.0401721193382940
  0.7818305413833002  0.4258168143957235  0.7966378318651479
  0.8903572444895289  0.5350319973445821  0.5411342559684655
  0.5540481607316607  0.5445207629736331  0.0445483552420498
  0.1055168296568780  0.4308861220068252  0.7946530974357700
  0.2118424391486187  0.5431183813923539  0.5456433166416303
  0.7792062012477601  0.4287879673324895  0.2969355333727393
  0.8881996448022846  0.5391376041912466  0.0479724237998269
  0.4380750937663365  0.4307566824888696  0.7965537001323000
  0.5636656199999521  0.5345885652882600  0.5441163801947155
  0.1079158382440397  0.7604730527964634  0.2948904104368850
  0.2246701732879757  0.8716291777830705  0.0537793312133701
  0.7821230133860695  0.7580936069942652  0.7981783369098352
  0.8944107829846644  0.8687981990757052  0.5430042796063645
  0.4503696104598589  0.7555566522693695  0.2972998784751582
  0.5557325052959783  0.8676630278327195  0.0411850523185251
  0.1078122182053107  0.7618691437653169  0.7968539575371167
  0.2162965372986747  0.8751348511840149  0.5418947101537483
  0.7832212717684683  0.7569414689710641  0.2968940735067349
  0.8946050275783008  0.8707677389155180  0.0513893367316456
  0.4388618054714328  0.0953342658111040  0.2859213545822286
  0.5705912860096234  0.2028770032200526  0.0366473650221550
  0.4407521287299048  0.4305661668357743  0.2976170677505934
  0.5642256545630389  0.2015051765888813  0.5542343638259766
  0.4435942689590604  0.7609931574276416  0.7956368664736928
  0.5606494129540494  0.8689897137063909  0.5438788491650044
  0.1896744342690084  0.2234407566107421  0.3650346511220732
  0.1133946143119786  0.0950240869229972  0.1053549492394907
  0.8871831726726853  0.2050566421829743  0.8581032990977704
  0.7890323020166292  0.0886604672241091  0.6063050595016577
  0.5893258061613125  0.1836553385190598  0.3770816707405942
  0.4305684903077491  0.0831667770820985  0.0630042765927428
  0.2115901637315645  0.2108245329905785  0.8469892270878674
  0.1103346723306942  0.0912698440882167  0.6076890511809125
  0.8911791595322285  0.2074760099165829  0.3581029888164480
  0.8149343283224511  0.0761769501780947  0.1207861741394041
  0.5567770549674762  0.2055879860344803  0.8160352954361798
  0.4415136130238793  0.0900514595108675  0.6057917879548143
  0.1867268364035510  0.5552102385643067  0.3650015250970142
  0.1090609521447163  0.4289717534865929  0.1028650545016774
  0.8864378815657687  0.5403177316338272  0.8568869283393070
  0.7806163795171912  0.4257531370004273  0.6083078844769432
  0.5719996591408005  0.5501739990044214  0.3650573133127253
  0.4284773971648832  0.4580100892135093  0.0783734770037228
  0.2146563425478689  0.5425323675687892  0.8483208495837715
  0.1055785547828734  0.4305693730877849  0.6083707540425749
  0.8851549066660525  0.5406019529030246  0.3539031497965865
  0.7764706328487918  0.4277824562284138  0.1039290750514397
  0.5558580629668128  0.5432302609679311  0.8482546953667125
  0.4403237553066859  0.4327703736273136  0.6009545436141721
  0.2243719497414389  0.8713440781033697  0.3535008996696760
  0.1121296669030869  0.7603530403340955  0.1043331226496349
  0.8870686689707625  0.8737011625268281  0.8575029305170006
  0.7783692208254038  0.7608497579599884  0.6072937520971990
  0.5710778340042211  0.8470308313154007  0.3652383324538775
  0.4473287914823203  0.7618526729873309  0.1069100420666942
  0.2252389321119139  0.8709305710940072  0.8571833350774867
  0.1107341756130396  0.7640385251322499  0.6086722937060571
  0.8923640346921644  0.8675701536025642  0.3580090486259593
  0.7757958087040677  0.7632684634352174  0.1050668867855791
  0.5582635704375249  0.8637745251271909  0.8478306110574607
  0.4424195222309208  0.7631707016781775  0.6069896349663821
 
  0.00000000E+00  0.00000000E+00  0.00000000E+00
  0.00000000E+00  0.00000000E+00  0.00000000E+00
  0.00000000E+00  0.00000000E+00  0.00000000E+00
  0.00000000E+00  0.00000000E+00  0.00000000E+00
  0.00000000E+00  0.00000000E+00  0.00000000E+00
  0.00000000E+00  0.00000000E+00  0.00000000E+00
  0.00000000E+00  0.00000000E+00  0.00000000E+00
  0.00000000E+00  0.00000000E+00  0.00000000E+00
  0.00000000E+00  0.00000000E+00  0.00000000E+00
  0.00000000E+00  0.00000000E+00  0.00000000E+00
  0.00000000E+00  0.00000000E+00  0.00000000E+00
  0.00000000E+00  0.00000000E+00  0.00000000E+00
  0.00000000E+00  0.00000000E+00  0.00000000E+00
  0.00000000E+00  0.00000000E+00  0.00000000E+00
  0.00000000E+00  0.00000000E+00  0.00000000E+00
  0.00000000E+00  0.00000000E+00  0.00000000E+00
  0.00000000E+00  0.00000000E+00  0.00000000E+00
  0.00000000E+00  0.00000000E+00  0.00000000E+00
  0.00000000E+00  0.00000000E+00  0.00000000E+00
  0.00000000E+00  0.00000000E+00  0.00000000E+00
  0.00000000E+00  0.00000000E+00  0.00000000E+00
  0.00000000E+00  0.00000000E+00  0.00000000E+00
  0.00000000E+00  0.00000000E+00  0.00000000E+00
  0.00000000E+00  0.00000000E+00  0.00000000E+00
  0.00000000E+00  0.00000000E+00  0.00000000E+00
  0.00000000E+00  0.00000000E+00  0.00000000E+00
  0.00000000E+00  0.00000000E+00  0.00000000E+00
  0.00000000E+00  0.00000000E+00  0.00000000E+00
  0.00000000E+00  0.00000000E+00  0.00000000E+00
  0.00000000E+00  0.00000000E+00  0.00000000E+00
  0.00000000E+00  0.00000000E+00  0.00000000E+00
  0.00000000E+00  0.00000000E+00  0.00000000E+00
  0.00000000E+00  0.00000000E+00  0.00000000E+00
  0.00000000E+00  0.00000000E+00  0.00000000E+00
  0.00000000E+00  0.00000000E+00  0.00000000E+00
  0.00000000E+00  0.00000000E+00  0.00000000E+00
  0.00000000E+00  0.00000000E+00  0.00000000E+00
  0.00000000E+00  0.00000000E+00  0.00000000E+00
  0.00000000E+00  0.00000000E+00  0.00000000E+00
  0.00000000E+00  0.00000000E+00  0.00000000E+00
  0.00000000E+00  0.00000000E+00  0.00000000E+00
  0.00000000E+00  0.00000000E+00  0.00000000E+00
  0.00000000E+00  0.00000000E+00  0.00000000E+00
  0.00000000E+00  0.00000000E+00  0.00000000E+00
  0.00000000E+00  0.00000000E+00  0.00000000E+00
  0.00000000E+00  0.00000000E+00  0.00000000E+00
  0.00000000E+00  0.00000000E+00  0.00000000E+00
  0.00000000E+00  0.00000000E+00  0.00000000E+00
  0.00000000E+00  0.00000000E+00  0.00000000E+00
  0.00000000E+00  0.00000000E+00  0.00000000E+00
  0.00000000E+00  0.00000000E+00  0.00000000E+00
  0.00000000E+00  0.00000000E+00  0.00000000E+00
  0.00000000E+00  0.00000000E+00  0.00000000E+00
  0.00000000E+00  0.00000000E+00  0.00000000E+00
  0.00000000E+00  0.00000000E+00  0.00000000E+00
  0.00000000E+00  0.00000000E+00  0.00000000E+00
  0.00000000E+00  0.00000000E+00  0.00000000E+00
  0.00000000E+00  0.00000000E+00  0.00000000E+00
  0.00000000E+00  0.00000000E+00  0.00000000E+00
  0.00000000E+00  0.00000000E+00  0.00000000E+00
  0.00000000E+00  0.00000000E+00  0.00000000E+00
  0.00000000E+00  0.00000000E+00  0.00000000E+00
  0.00000000E+00  0.00000000E+00  0.00000000E+00
  0.00000000E+00  0.00000000E+00  0.00000000E+00
  0.00000000E+00  0.00000000E+00  0.00000000E+00
  0.00000000E+00  0.00000000E+00  0.00000000E+00
  0.00000000E+00  0.00000000E+00  0.00000000E+00
  0.00000000E+00  0.00000000E+00  0.00000000E+00
  0.00000000E+00  0.00000000E+00  0.00000000E+00
  0.00000000E+00  0.00000000E+00  0.00000000E+00
  0.00000000E+00  0.00000000E+00  0.00000000E+00
  0.00000000E+00  0.00000000E+00  0.00000000E+00
