supercell of 100% icsd_608626.cif, 0% i 
   1.00000000000000     
    -9.5628245357810968   -0.0115829903748031    0.0015627660054395
    -4.7713868029611275    8.2715698858586784   -0.0109614653789085
     0.0016610217552134    0.0144684253659263  -10.1862100107611351
   Al   Ge   Ca   N 
    30     3     3    36
Direct
  0.1058863561429604  0.1022593710280191  0.2989835736017525
  0.2185145440647887  0.2062311067058573  0.0501467725875742
  0.7764699219692801  0.1017361226491502  0.7978119351007749
  0.8816168800460247  0.2119236920649925  0.5460324013545304
  0.4472413054659512  0.0939085267171933  0.2992900769850166
  0.1143166347871585  0.0908151366027070  0.7921664483295956
  0.2238806068797388  0.2082398098151899  0.5380710976818079
  0.7774370859236370  0.0955848591488149  0.2938002064091734
  0.8893560715851336  0.2129093823632289  0.0465212338960015
  0.4425319162539054  0.0909056100540084  0.7965228292514652
  0.5535874298187764  0.2109002585090138  0.5475158519355858
  0.1117514954116743  0.4279729535667087  0.2952563047783201
  0.2209273904269509  0.5406210428150970  0.0475884959412411
  0.7733107378286306  0.4287719435813813  0.7948659606994539
  0.8871302070055336  0.5344039848327711  0.5382611400486539
  0.4468948509041581  0.4269993217202881  0.2977213084851016
  0.5620062520504661  0.5385141174512995  0.0444755998226896
  0.2283553514036427  0.5329564156663338  0.5364906076307463
  0.7761444773024095  0.4272243183291025  0.2945179295687410
  0.8838230964363589  0.5406125860545501  0.0532868491160841
  0.4437517432475531  0.4339664930455456  0.7947044310735194
  0.5584359093596092  0.5335844117035577  0.5456662742425138
  0.1064021343693753  0.7590183711703418  0.2909086783242145
  0.4538696200394696  0.7560737493261556  0.2979031504620622
  0.5603369518357155  0.8676973715319463  0.0483162311041028
  0.1233809263873766  0.7556738812652526  0.7920989039787116
  0.7767925876160788  0.7638461224441428  0.2891522045735044
  0.8893537506599287  0.8669355301991644  0.0494559704882462
  0.4432059498518015  0.7594016447426242  0.7906670955454658
  0.5525094646280380  0.8732072737453933  0.5449150554688842
  0.5539913053611798  0.2070950004454062  0.0457453684124971
  0.7701438180454758  0.7568670730117830  0.7984630922730318
  0.2257459363638574  0.8686818254186903  0.5453784884430988
  0.1119066468078884  0.4262639278822107  0.7998253763374450
  0.2243641867810382  0.8754669499168912  0.0442972589103690
  0.8832753442680996  0.8742923066079271  0.5514330121008655
  0.2270756342264306  0.2031958595035164  0.3517514956685801
  0.0926328050904957  0.1259912132848697  0.1191920893669050
  0.8924701844499054  0.2065376492637725  0.8566147971420008
  0.7594277776267759  0.1286904879406734  0.6172776972326020
  0.5566986782605099  0.2056254418466921  0.3559634097502595
  0.4484241493186190  0.0940876983252110  0.1080131701666076
  0.2389406006427848  0.1703762615631632  0.8673048560468288
  0.1106633247134354  0.0956408743115205  0.5977735396716923
  0.8850601784278851  0.2069592780349296  0.3580359838386684
  0.7745479613548554  0.0984208060977565  0.0993176758803003
  0.5524082196247662  0.2067278947863684  0.8582287323366486
  0.4443602517490604  0.0949153059733732  0.6059705071168580
  0.2263967597803145  0.5377733464660466  0.3488029739469809
  0.1115726018192973  0.4278659757131962  0.1011128292645651
  0.8565861845015803  0.5528345547416933  0.8690538130431520
  0.7790160421356731  0.4280072735818266  0.6051819596107890
  0.5570686878024205  0.5359715387897666  0.3582621913087181
  0.4492357278470607  0.4244016452892510  0.1068105509756876
  0.2401072702291174  0.5523336126246861  0.8661151908950160
  0.1093472140524057  0.4295264774565837  0.5767471384748646
  0.8849834469879028  0.5417805898425740  0.3480471918930661
  0.7755626521367702  0.4265311449497631  0.1072416209175131
  0.5562209283124346  0.5390600916642256  0.8528834834783510
  0.4428155302681347  0.4281376888398825  0.6049392782689083
  0.2235998584250396  0.8718693798891763  0.3532457860954210
  0.0982910457802788  0.7482300904286916  0.1098418675111077
  0.8879100919293350  0.8696242653517601  0.8484462888025348
  0.7588740949626782  0.7416282399198622  0.6163356961616060
  0.5581334708734076  0.8734310694907634  0.3577468668608290
  0.4768691026787266  0.7444933575765305  0.1158120483821534
  0.2236588777077344  0.8730722496073753  0.8246572519035666
  0.1418047029793286  0.7425132448052807  0.6048875292766169
  0.8854471579703258  0.8757407585048185  0.3322685558119858
  0.7755089650920013  0.7634236514352253  0.1020237649702054
  0.5537686433632061  0.8727002837682036  0.8567276914388628
  0.4458622895496518  0.7603182061982992  0.5991072615266262
 
  0.00000000E+00  0.00000000E+00  0.00000000E+00
  0.00000000E+00  0.00000000E+00  0.00000000E+00
  0.00000000E+00  0.00000000E+00  0.00000000E+00
  0.00000000E+00  0.00000000E+00  0.00000000E+00
  0.00000000E+00  0.00000000E+00  0.00000000E+00
  0.00000000E+00  0.00000000E+00  0.00000000E+00
  0.00000000E+00  0.00000000E+00  0.00000000E+00
  0.00000000E+00  0.00000000E+00  0.00000000E+00
  0.00000000E+00  0.00000000E+00  0.00000000E+00
  0.00000000E+00  0.00000000E+00  0.00000000E+00
  0.00000000E+00  0.00000000E+00  0.00000000E+00
  0.00000000E+00  0.00000000E+00  0.00000000E+00
  0.00000000E+00  0.00000000E+00  0.00000000E+00
  0.00000000E+00  0.00000000E+00  0.00000000E+00
  0.00000000E+00  0.00000000E+00  0.00000000E+00
  0.00000000E+00  0.00000000E+00  0.00000000E+00
  0.00000000E+00  0.00000000E+00  0.00000000E+00
  0.00000000E+00  0.00000000E+00  0.00000000E+00
  0.00000000E+00  0.00000000E+00  0.00000000E+00
  0.00000000E+00  0.00000000E+00  0.00000000E+00
  0.00000000E+00  0.00000000E+00  0.00000000E+00
  0.00000000E+00  0.00000000E+00  0.00000000E+00
  0.00000000E+00  0.00000000E+00  0.00000000E+00
  0.00000000E+00  0.00000000E+00  0.00000000E+00
  0.00000000E+00  0.00000000E+00  0.00000000E+00
  0.00000000E+00  0.00000000E+00  0.00000000E+00
  0.00000000E+00  0.00000000E+00  0.00000000E+00
  0.00000000E+00  0.00000000E+00  0.00000000E+00
  0.00000000E+00  0.00000000E+00  0.00000000E+00
  0.00000000E+00  0.00000000E+00  0.00000000E+00
  0.00000000E+00  0.00000000E+00  0.00000000E+00
  0.00000000E+00  0.00000000E+00  0.00000000E+00
  0.00000000E+00  0.00000000E+00  0.00000000E+00
  0.00000000E+00  0.00000000E+00  0.00000000E+00
  0.00000000E+00  0.00000000E+00  0.00000000E+00
  0.00000000E+00  0.00000000E+00  0.00000000E+00
  0.00000000E+00  0.00000000E+00  0.00000000E+00
  0.00000000E+00  0.00000000E+00  0.00000000E+00
  0.00000000E+00  0.00000000E+00  0.00000000E+00
  0.00000000E+00  0.00000000E+00  0.00000000E+00
  0.00000000E+00  0.00000000E+00  0.00000000E+00
  0.00000000E+00  0.00000000E+00  0.00000000E+00
  0.00000000E+00  0.00000000E+00  0.00000000E+00
  0.00000000E+00  0.00000000E+00  0.00000000E+00
  0.00000000E+00  0.00000000E+00  0.00000000E+00
  0.00000000E+00  0.00000000E+00  0.00000000E+00
  0.00000000E+00  0.00000000E+00  0.00000000E+00
  0.00000000E+00  0.00000000E+00  0.00000000E+00
  0.00000000E+00  0.00000000E+00  0.00000000E+00
  0.00000000E+00  0.00000000E+00  0.00000000E+00
  0.00000000E+00  0.00000000E+00  0.00000000E+00
  0.00000000E+00  0.00000000E+00  0.00000000E+00
  0.00000000E+00  0.00000000E+00  0.00000000E+00
  0.00000000E+00  0.00000000E+00  0.00000000E+00
  0.00000000E+00  0.00000000E+00  0.00000000E+00
  0.00000000E+00  0.00000000E+00  0.00000000E+00
  0.00000000E+00  0.00000000E+00  0.00000000E+00
  0.00000000E+00  0.00000000E+00  0.00000000E+00
  0.00000000E+00  0.00000000E+00  0.00000000E+00
  0.00000000E+00  0.00000000E+00  0.00000000E+00
  0.00000000E+00  0.00000000E+00  0.00000000E+00
  0.00000000E+00  0.00000000E+00  0.00000000E+00
  0.00000000E+00  0.00000000E+00  0.00000000E+00
  0.00000000E+00  0.00000000E+00  0.00000000E+00
  0.00000000E+00  0.00000000E+00  0.00000000E+00
  0.00000000E+00  0.00000000E+00  0.00000000E+00
  0.00000000E+00  0.00000000E+00  0.00000000E+00
  0.00000000E+00  0.00000000E+00  0.00000000E+00
  0.00000000E+00  0.00000000E+00  0.00000000E+00
  0.00000000E+00  0.00000000E+00  0.00000000E+00
  0.00000000E+00  0.00000000E+00  0.00000000E+00
  0.00000000E+00  0.00000000E+00  0.00000000E+00
