supercell of 100% icsd_608626.cif, 0% i 
   1.00000000000000     
    -9.6113207506619656    0.0282954160822364    0.0161884003054165
    -4.8301720183901411    8.2737576145662342    0.0145513887524029
     0.0172799554552266   -0.0079686895323307  -10.1491777599479818
   Al   Ca   Ge   N 
    30     3     3    36
Direct
  0.1131593887450961  0.0966124669343387  0.2977334773496381
  0.2225349649699524  0.2082651558492401  0.0457555425032439
  0.8876024119821722  0.2087436382092562  0.5392977207150764
  0.4421377239379822  0.0977310632302419  0.2952977739871585
  0.5516850364599222  0.2073900648136302  0.0496654026810788
  0.1138753804712707  0.1018994154556552  0.7951296405719717
  0.2164854079652869  0.2094680989314384  0.5450720894461156
  0.7781736237340056  0.0986453915438332  0.2911858560623699
  0.8899510269143036  0.2116929089794084  0.0477451661023593
  0.5582021596718363  0.2113190216581131  0.5372672086268153
  0.1101058338472498  0.4288467062454160  0.2962856614962561
  0.2261776571559082  0.5316279394152588  0.0453476616178961
  0.7820860860129031  0.4274502553091111  0.7953118891003754
  0.8860558696790903  0.5332539097576472  0.5484255184649882
  0.4444164203938783  0.4283749038771560  0.2933619453846674
  0.5575269758178294  0.5344364841925398  0.0448032909194751
  0.1093295953086226  0.4296709385840032  0.7969467729551738
  0.2276015737309720  0.5362438091476420  0.5395635860119796
  0.7776489561065105  0.4304061794733727  0.2960920272479441
  0.8875504057709591  0.5372816319784590  0.0441161478000396
  0.4373282712623592  0.4259353948055065  0.7954898595813802
  0.5564803507443514  0.5325510686454891  0.5478102484027900
  0.1163933798506349  0.7599840958413040  0.2939490084571972
  0.7736802625303199  0.7555061717986788  0.8058352669539630
  0.4455778383110882  0.7583077271999414  0.2977496458535569
  0.5548176855685441  0.8733296432280966  0.0468599422823246
  0.2229239499364937  0.8729136997527291  0.5387127495033823
  0.7801013978075844  0.7568686184483511  0.2892508985204145
  0.8815669109456650  0.8722869671815516  0.0580198378021919
  0.4463100384583285  0.7596874506706115  0.7969695091087701
  0.7791672141250885  0.0991555614343156  0.8011525029748299
  0.8871007494105640  0.8638721583041828  0.5354541726045809
  0.1107441909978775  0.7624941075794638  0.8015515037580556
  0.4419365438829033  0.0956167536182377  0.8004021274379838
  0.2263760265929875  0.8763288551735897  0.0466576013176265
  0.5549139170480117  0.8652612773096493  0.5486313149522886
  0.2234482264244164  0.2063054102091542  0.3566245935533914
  0.1153765148949617  0.0950532112641156  0.1089462948906998
  0.9111278386261432  0.2224549689288082  0.8666182714351436
  0.7673028763532415  0.1194352967510781  0.5806956773240302
  0.5519812276520923  0.2065116745183033  0.3479500019369937
  0.4428896338159589  0.0928777994586625  0.1071474525458953
  0.2246721131853846  0.2058211643839201  0.8535625982572910
  0.1127271064782320  0.0950158469122897  0.6030288064860727
  0.8927276215415176  0.2086422692213574  0.3481489995935334
  0.7746204775529790  0.1046143961491879  0.0989718548974992
  0.5260804051796413  0.2149447383096970  0.8648075360727816
  0.4455621263648553  0.0919929626321476  0.6057095705763871
  0.2242625963719291  0.5349203225786354  0.3477784931339940
  0.1083712566591828  0.4277551045859482  0.1070148971968194
  0.8886519953751630  0.5354817971452945  0.8560144366686799
  0.7776195470024874  0.4260662689756245  0.6045370367376748
  0.5554886232957941  0.5384614743483525  0.3568869508897023
  0.4461277689887453  0.4292241331449702  0.1061042708872151
  0.2327035326533817  0.5103317281315469  0.8640328635595580
  0.1099703185308414  0.4298130858074174  0.6042367053660058
  0.8887155346591129  0.5402152531098778  0.3579299788736137
  0.7751779279251565  0.4322339108792406  0.1077039832735167
  0.5545262363813848  0.5365088952667136  0.8532078258149127
  0.4439078798105953  0.4247278660777667  0.6045199477441372
  0.2262705876521096  0.8751045279099401  0.3487154598610473
  0.1214376988281174  0.7606242190018833  0.0989494409954617
  0.8683962752036791  0.8570957297727873  0.8779338930356744
  0.7571093353801714  0.7436359111281732  0.6190301414339459
  0.5562129320627847  0.8721885663737368  0.3589296456615330
  0.4465222375027977  0.7601683157418933  0.1072716388909569
  0.2399393233280236  0.8919532728642281  0.8658257999604899
  0.1420952800465187  0.7470738522799181  0.5825010173952094
  0.8900280765868658  0.8708725398000681  0.3119009310567549
  0.7692055649901235  0.7551657266501550  0.1059523317926150
  0.5487794842905203  0.8746491404718242  0.8570219272947384
  0.4422385922565439  0.7625990846378699  0.6048881563500075
 
  0.00000000E+00  0.00000000E+00  0.00000000E+00
  0.00000000E+00  0.00000000E+00  0.00000000E+00
  0.00000000E+00  0.00000000E+00  0.00000000E+00
  0.00000000E+00  0.00000000E+00  0.00000000E+00
  0.00000000E+00  0.00000000E+00  0.00000000E+00
  0.00000000E+00  0.00000000E+00  0.00000000E+00
  0.00000000E+00  0.00000000E+00  0.00000000E+00
  0.00000000E+00  0.00000000E+00  0.00000000E+00
  0.00000000E+00  0.00000000E+00  0.00000000E+00
  0.00000000E+00  0.00000000E+00  0.00000000E+00
  0.00000000E+00  0.00000000E+00  0.00000000E+00
  0.00000000E+00  0.00000000E+00  0.00000000E+00
  0.00000000E+00  0.00000000E+00  0.00000000E+00
  0.00000000E+00  0.00000000E+00  0.00000000E+00
  0.00000000E+00  0.00000000E+00  0.00000000E+00
  0.00000000E+00  0.00000000E+00  0.00000000E+00
  0.00000000E+00  0.00000000E+00  0.00000000E+00
  0.00000000E+00  0.00000000E+00  0.00000000E+00
  0.00000000E+00  0.00000000E+00  0.00000000E+00
  0.00000000E+00  0.00000000E+00  0.00000000E+00
  0.00000000E+00  0.00000000E+00  0.00000000E+00
  0.00000000E+00  0.00000000E+00  0.00000000E+00
  0.00000000E+00  0.00000000E+00  0.00000000E+00
  0.00000000E+00  0.00000000E+00  0.00000000E+00
  0.00000000E+00  0.00000000E+00  0.00000000E+00
  0.00000000E+00  0.00000000E+00  0.00000000E+00
  0.00000000E+00  0.00000000E+00  0.00000000E+00
  0.00000000E+00  0.00000000E+00  0.00000000E+00
  0.00000000E+00  0.00000000E+00  0.00000000E+00
  0.00000000E+00  0.00000000E+00  0.00000000E+00
  0.00000000E+00  0.00000000E+00  0.00000000E+00
  0.00000000E+00  0.00000000E+00  0.00000000E+00
  0.00000000E+00  0.00000000E+00  0.00000000E+00
  0.00000000E+00  0.00000000E+00  0.00000000E+00
  0.00000000E+00  0.00000000E+00  0.00000000E+00
  0.00000000E+00  0.00000000E+00  0.00000000E+00
  0.00000000E+00  0.00000000E+00  0.00000000E+00
  0.00000000E+00  0.00000000E+00  0.00000000E+00
  0.00000000E+00  0.00000000E+00  0.00000000E+00
  0.00000000E+00  0.00000000E+00  0.00000000E+00
  0.00000000E+00  0.00000000E+00  0.00000000E+00
  0.00000000E+00  0.00000000E+00  0.00000000E+00
  0.00000000E+00  0.00000000E+00  0.00000000E+00
  0.00000000E+00  0.00000000E+00  0.00000000E+00
  0.00000000E+00  0.00000000E+00  0.00000000E+00
  0.00000000E+00  0.00000000E+00  0.00000000E+00
  0.00000000E+00  0.00000000E+00  0.00000000E+00
  0.00000000E+00  0.00000000E+00  0.00000000E+00
  0.00000000E+00  0.00000000E+00  0.00000000E+00
  0.00000000E+00  0.00000000E+00  0.00000000E+00
  0.00000000E+00  0.00000000E+00  0.00000000E+00
  0.00000000E+00  0.00000000E+00  0.00000000E+00
  0.00000000E+00  0.00000000E+00  0.00000000E+00
  0.00000000E+00  0.00000000E+00  0.00000000E+00
  0.00000000E+00  0.00000000E+00  0.00000000E+00
  0.00000000E+00  0.00000000E+00  0.00000000E+00
  0.00000000E+00  0.00000000E+00  0.00000000E+00
  0.00000000E+00  0.00000000E+00  0.00000000E+00
  0.00000000E+00  0.00000000E+00  0.00000000E+00
  0.00000000E+00  0.00000000E+00  0.00000000E+00
  0.00000000E+00  0.00000000E+00  0.00000000E+00
  0.00000000E+00  0.00000000E+00  0.00000000E+00
  0.00000000E+00  0.00000000E+00  0.00000000E+00
  0.00000000E+00  0.00000000E+00  0.00000000E+00
  0.00000000E+00  0.00000000E+00  0.00000000E+00
  0.00000000E+00  0.00000000E+00  0.00000000E+00
  0.00000000E+00  0.00000000E+00  0.00000000E+00
  0.00000000E+00  0.00000000E+00  0.00000000E+00
  0.00000000E+00  0.00000000E+00  0.00000000E+00
  0.00000000E+00  0.00000000E+00  0.00000000E+00
  0.00000000E+00  0.00000000E+00  0.00000000E+00
  0.00000000E+00  0.00000000E+00  0.00000000E+00
