supercell of 100% icsd_608626.cif, 0% i 
   1.00000000000000     
    -9.5653840514173574   -0.0002188394612414   -0.0133471276132103
    -4.7825017621497459    8.2991397104036739   -0.0078641733871957
    -0.0142908828176646    0.0014691954148861  -10.1603433472548783
   Al   Ge   Ca   N 
    30     3     3    36
Direct
  0.1144181954647081  0.0927414890317166  0.2951521354706230
  0.2185617757608682  0.2064094801265455  0.0464203530682994
  0.8914643011424701  0.2062371690658935  0.5493190233258360
  0.4453796091873983  0.0940271697026631  0.2928980378156609
  0.5569526160690756  0.2031132104351556  0.0469926735121291
  0.1155321846400525  0.0921332191812354  0.7919680870886481
  0.2181397191171470  0.2083199526010304  0.5470300802465786
  0.7760697036285507  0.0931945471297411  0.2963888750903436
  0.8949851633456518  0.2003134826103476  0.0479693136891441
  0.4374498597476233  0.1036679536621534  0.7955315979675532
  0.5536046243849881  0.2082270136870150  0.5456594072821872
  0.1147313729534929  0.4270389240331838  0.2900486661839565
  0.2212972503047297  0.5350360235555058  0.0444994678429254
  0.7750604817832141  0.4318724583046176  0.7879091197401991
  0.8927995722374362  0.5342946958171666  0.5503858291087056
  0.4383249260140332  0.4223218995994458  0.2924221354166434
  0.1079556922524247  0.4230231340805091  0.7965467734807206
  0.8953096331130297  0.5335329176107777  0.0451438480973323
  0.4506536444600400  0.4273178708745817  0.7897770769398633
  0.5565841402646754  0.5352094095419275  0.5492116332539965
  0.1123045510585925  0.7602496928444324  0.2909807569575591
  0.2168741087188835  0.8797831228859394  0.0440432439149276
  0.7866969330115836  0.7542562139496383  0.7967613208371631
  0.8932209362572223  0.8713061995449252  0.5471105553805415
  0.4403462742774593  0.7708769852210082  0.2949681825238457
  0.1106665054477318  0.7676437897354091  0.7965229396650528
  0.2158223188495754  0.8759731515146711  0.5459493698841555
  0.7765204338866027  0.7638219269073261  0.2935799615465982
  0.8902394172673169  0.8750339346884957  0.0482123981483369
  0.4387548711809472  0.7556241620669297  0.7897088582543503
  0.7775009412941571  0.0938649249636114  0.7932613630429088
  0.7842940477054086  0.4245661252646897  0.2982737829864277
  0.5516073871007094  0.8765157218751654  0.0433718388468165
  0.5559969989710893  0.5368655695791915  0.0534142031543325
  0.2178347337583801  0.5424461363335453  0.5574223368216309
  0.5575125915319106  0.8731085934103078  0.5525329079854373
  0.2228620123669245  0.2057599607090594  0.3515861409311398
  0.1099704537890105  0.0946829807687521  0.1060657317129241
  0.8877464746249899  0.2048339545371931  0.8533277745229810
  0.7766026131209500  0.0939694770458672  0.6052388749497837
  0.5573027172251415  0.2019294776954439  0.3549946847908174
  0.4457710416363767  0.0940171491284829  0.0993832449537422
  0.2207145789067582  0.2034086349007183  0.8602362120656366
  0.1120243596424828  0.0946713602299951  0.6031188328877022
  0.8890103052770115  0.2042402889573367  0.3581979718607826
  0.7786155992100419  0.0949783038606071  0.1063476028263821
  0.5611664563042709  0.2028136541696526  0.8576658977441483
  0.4263758816613787  0.1287997804679932  0.6142811283123564
  0.2182311787238120  0.5418936850595060  0.3343234845025194
  0.1100971090205789  0.4269446939805803  0.1008805114427034
  0.8863456132599765  0.5365558236132983  0.8595717567096202
  0.7785771177434029  0.4277809096005427  0.5986803955635054
  0.5575141329948394  0.5379117596274696  0.3456148463505357
  0.4298154444497655  0.4073851111793303  0.1091316442998718
  0.2218694824052392  0.5388206216908884  0.8483408100838972
  0.0936504448489472  0.4085916188770540  0.6162002386309027
  0.8893086580467369  0.5398291249666016  0.3553589194051554
  0.8130877951915494  0.4084808383452341  0.1169230491843720
  0.5586676315907368  0.5382990066010294  0.8360266897138189
  0.4770946588121774  0.4094359929842710  0.6083905832492178
  0.2195103768706943  0.8733356040356242  0.3535820473578113
  0.1110535013333234  0.7624762149089790  0.0995113701436239
  0.8854509389482743  0.8778206376029658  0.8601508391844703
  0.8144642256243841  0.7427730952927831  0.6149649148549017
  0.5578404715005973  0.8737966085206850  0.3320819131016535
  0.4266843280435921  0.7949623081699784  0.1088576158707610
  0.2216797727963780  0.8756272780053607  0.8576687997456602
  0.0913552908809621  0.8003119852226561  0.6170546252260110
  0.8891288052532218  0.8723641243027274  0.3531000868659149
  0.7777329792440497  0.7605685785455378  0.1000708651279396
  0.5557435914472535  0.8728417646925237  0.8497801653858801
  0.4254664410150255  0.7471193202667834  0.6059015758693107
 
  0.00000000E+00  0.00000000E+00  0.00000000E+00
  0.00000000E+00  0.00000000E+00  0.00000000E+00
  0.00000000E+00  0.00000000E+00  0.00000000E+00
  0.00000000E+00  0.00000000E+00  0.00000000E+00
  0.00000000E+00  0.00000000E+00  0.00000000E+00
  0.00000000E+00  0.00000000E+00  0.00000000E+00
  0.00000000E+00  0.00000000E+00  0.00000000E+00
  0.00000000E+00  0.00000000E+00  0.00000000E+00
  0.00000000E+00  0.00000000E+00  0.00000000E+00
  0.00000000E+00  0.00000000E+00  0.00000000E+00
  0.00000000E+00  0.00000000E+00  0.00000000E+00
  0.00000000E+00  0.00000000E+00  0.00000000E+00
  0.00000000E+00  0.00000000E+00  0.00000000E+00
  0.00000000E+00  0.00000000E+00  0.00000000E+00
  0.00000000E+00  0.00000000E+00  0.00000000E+00
  0.00000000E+00  0.00000000E+00  0.00000000E+00
  0.00000000E+00  0.00000000E+00  0.00000000E+00
  0.00000000E+00  0.00000000E+00  0.00000000E+00
  0.00000000E+00  0.00000000E+00  0.00000000E+00
  0.00000000E+00  0.00000000E+00  0.00000000E+00
  0.00000000E+00  0.00000000E+00  0.00000000E+00
  0.00000000E+00  0.00000000E+00  0.00000000E+00
  0.00000000E+00  0.00000000E+00  0.00000000E+00
  0.00000000E+00  0.00000000E+00  0.00000000E+00
  0.00000000E+00  0.00000000E+00  0.00000000E+00
  0.00000000E+00  0.00000000E+00  0.00000000E+00
  0.00000000E+00  0.00000000E+00  0.00000000E+00
  0.00000000E+00  0.00000000E+00  0.00000000E+00
  0.00000000E+00  0.00000000E+00  0.00000000E+00
  0.00000000E+00  0.00000000E+00  0.00000000E+00
  0.00000000E+00  0.00000000E+00  0.00000000E+00
  0.00000000E+00  0.00000000E+00  0.00000000E+00
  0.00000000E+00  0.00000000E+00  0.00000000E+00
  0.00000000E+00  0.00000000E+00  0.00000000E+00
  0.00000000E+00  0.00000000E+00  0.00000000E+00
  0.00000000E+00  0.00000000E+00  0.00000000E+00
  0.00000000E+00  0.00000000E+00  0.00000000E+00
  0.00000000E+00  0.00000000E+00  0.00000000E+00
  0.00000000E+00  0.00000000E+00  0.00000000E+00
  0.00000000E+00  0.00000000E+00  0.00000000E+00
  0.00000000E+00  0.00000000E+00  0.00000000E+00
  0.00000000E+00  0.00000000E+00  0.00000000E+00
  0.00000000E+00  0.00000000E+00  0.00000000E+00
  0.00000000E+00  0.00000000E+00  0.00000000E+00
  0.00000000E+00  0.00000000E+00  0.00000000E+00
  0.00000000E+00  0.00000000E+00  0.00000000E+00
  0.00000000E+00  0.00000000E+00  0.00000000E+00
  0.00000000E+00  0.00000000E+00  0.00000000E+00
  0.00000000E+00  0.00000000E+00  0.00000000E+00
  0.00000000E+00  0.00000000E+00  0.00000000E+00
  0.00000000E+00  0.00000000E+00  0.00000000E+00
  0.00000000E+00  0.00000000E+00  0.00000000E+00
  0.00000000E+00  0.00000000E+00  0.00000000E+00
  0.00000000E+00  0.00000000E+00  0.00000000E+00
  0.00000000E+00  0.00000000E+00  0.00000000E+00
  0.00000000E+00  0.00000000E+00  0.00000000E+00
  0.00000000E+00  0.00000000E+00  0.00000000E+00
  0.00000000E+00  0.00000000E+00  0.00000000E+00
  0.00000000E+00  0.00000000E+00  0.00000000E+00
  0.00000000E+00  0.00000000E+00  0.00000000E+00
  0.00000000E+00  0.00000000E+00  0.00000000E+00
  0.00000000E+00  0.00000000E+00  0.00000000E+00
  0.00000000E+00  0.00000000E+00  0.00000000E+00
  0.00000000E+00  0.00000000E+00  0.00000000E+00
  0.00000000E+00  0.00000000E+00  0.00000000E+00
  0.00000000E+00  0.00000000E+00  0.00000000E+00
  0.00000000E+00  0.00000000E+00  0.00000000E+00
  0.00000000E+00  0.00000000E+00  0.00000000E+00
  0.00000000E+00  0.00000000E+00  0.00000000E+00
  0.00000000E+00  0.00000000E+00  0.00000000E+00
  0.00000000E+00  0.00000000E+00  0.00000000E+00
  0.00000000E+00  0.00000000E+00  0.00000000E+00
