supercell of icsd_181358.cif            
   1.00000000000000     
     9.8622175948654291    0.0313168262415326    0.0538123404145672
    -4.9039639755983062    8.4958830566367851   -0.0118825095289631
     0.0587230948263518    0.0189335005763877   10.5091623314495664
   N    Ga   La
    36    32     4
Direct
  0.1804648945481730  0.0890760149985397  0.4289596335206625
  0.1081155064041468  0.2279975827677347  0.1936119823689637
  0.8934793126318041  0.1117564104218758  0.9363056261481049
  0.7747730636385342  0.2215115727591908  0.6911214604947773
  0.5898771348867555  0.1202843332849426  0.4193992351289708
  0.4471247500442175  0.2259945334695033  0.2038914732242461
  0.2265387484978874  0.1158682241991045  0.9795632676294446
  0.0905925651355375  0.2377312082292917  0.6718850483869048
  0.8852805255696126  0.1107410532227391  0.4357886822539641
  0.7852383736762505  0.2260060481258321  0.1827274329516086
  0.5612720237177626  0.1146921844819815  0.9540401617091234
  0.4672682514056348  0.2292160397913747  0.7066864747910415
  0.2271187212371046  0.4502240091216194  0.4425102858548939
  0.1097067711907798  0.5498634419765907  0.1845139551127417
  0.8901837802554979  0.4452160658797126  0.9354022078623672
  0.7807887666848572  0.5552946773057172  0.6866058212869035
  0.5799099961135283  0.4782344250383019  0.4339712879565312
  0.4446992521374113  0.5563718806598601  0.2101322902161442
  0.1828697262003374  0.4229704856877348  0.9242786792470383
  0.1104088472860454  0.5595338165545343  0.6845116491396581
  0.8870003258244381  0.4408694953955177  0.4386573858771783
  0.7830809112390185  0.5571885702935901  0.1870093888604529
  0.5781124631876082  0.4317239680872547  0.9381205708632976
  0.4462696906582977  0.5561132663161175  0.6979016070493884
  0.1810685057386081  0.7546147655593529  0.4209106058374132
  0.1045801783075788  0.8829520594477600  0.1889805486398330
  0.8927368176205519  0.7799863523359321  0.9365824161827732
  0.7840062207918166  0.8922298366570161  0.6868036216082274
  0.5767805311964551  0.7733894121280969  0.4349430658124547
  0.4424353851171503  0.8848341603574355  0.1921808950980619
  0.2206204402734002  0.7751158463384158  0.9455554981110552
  0.0966557296032278  0.8550280962840731  0.6774508122866152
  0.8823420211742743  0.7743775398375874  0.4353973886104896
  0.7818248035075257  0.8912117343666139  0.1868866467436519
  0.5798611764385342  0.8141794740609996  0.9359672074057386
  0.4427205616495513  0.8919434984234371  0.7225130177301651
  0.2102824956713221  0.1057533234909585  0.2403027608830044
  0.1018405617263696  0.2217758979991018  0.0085098088583280
  0.8848058004904331  0.1149922215459398  0.7475798254769757
  0.7848182514710942  0.2243304884649220  0.5003131697887966
  0.5667480764814670  0.1130663582207276  0.2399630348376292
  0.4528898484240500  0.2231760184567406  0.0130295620864018
  0.0986368261840269  0.2219628683779007  0.4903880969680046
  0.8866692511806207  0.1117745031649733  0.2504798584469015
  0.7844790181302130  0.2253128024582622  0.9982275433410663
  0.5628197281429834  0.1151369083084148  0.7672128350219367
  0.2233287381814861  0.4475182181807611  0.2565010111830119
  0.1013883165560685  0.5486479376177371  0.9979299130363444
  0.8895608219423110  0.4445870613725518  0.7480351396776115
  0.7859459594538691  0.5619369051453802  0.4990013121707477
  0.5658160692665106  0.4564127891945020  0.2512653881082940
  0.2092822752172125  0.4442343573882397  0.7399732957338330
  0.1010077568946741  0.5505633760641757  0.4973106155789111
  0.8900350398748529  0.4430721176266132  0.2498296805307874
  0.7870586827758714  0.5559780605962246  0.9997080626023589
  0.5696832420037552  0.4436008019553128  0.7529236503528978
  0.4540753973593326  0.5618468357756612  0.5001406314021466
  0.2119937752445438  0.7695907637720438  0.2407825029210002
  0.1090192040438680  0.8853809416501193  0.0075609124904830
  0.8859250252068875  0.7704027793366564  0.7472452441663435
  0.7852907245593315  0.8911489339222598  0.4977643303123358
  0.5628072902535024  0.7788044110987826  0.2513936797353793
  0.4483544084179485  0.8945920201956099  0.0000914849592064
  0.2168444937609522  0.7700374305884097  0.7579841946342754
  0.0912482564474075  0.8731179660972188  0.4904696081080857
  0.8870743468150266  0.7765282715507666  0.2500404378556809
  0.7872760228572417  0.8974159292130750  0.9993703935280394
  0.5657270438547215  0.7898325236769281  0.7536360863247680
  0.2095434481929530  0.1073132112756809  0.7562433317155026
  0.4422872486116916  0.2246599426622566  0.4834744065250547
  0.4385908187608507  0.5534381372148474  0.9881358439709018
  0.4310389619546271  0.8777148024748911  0.4994150146661127
 
  0.00000000E+00  0.00000000E+00  0.00000000E+00
  0.00000000E+00  0.00000000E+00  0.00000000E+00
  0.00000000E+00  0.00000000E+00  0.00000000E+00
  0.00000000E+00  0.00000000E+00  0.00000000E+00
  0.00000000E+00  0.00000000E+00  0.00000000E+00
  0.00000000E+00  0.00000000E+00  0.00000000E+00
  0.00000000E+00  0.00000000E+00  0.00000000E+00
  0.00000000E+00  0.00000000E+00  0.00000000E+00
  0.00000000E+00  0.00000000E+00  0.00000000E+00
  0.00000000E+00  0.00000000E+00  0.00000000E+00
  0.00000000E+00  0.00000000E+00  0.00000000E+00
  0.00000000E+00  0.00000000E+00  0.00000000E+00
  0.00000000E+00  0.00000000E+00  0.00000000E+00
  0.00000000E+00  0.00000000E+00  0.00000000E+00
  0.00000000E+00  0.00000000E+00  0.00000000E+00
  0.00000000E+00  0.00000000E+00  0.00000000E+00
  0.00000000E+00  0.00000000E+00  0.00000000E+00
  0.00000000E+00  0.00000000E+00  0.00000000E+00
  0.00000000E+00  0.00000000E+00  0.00000000E+00
  0.00000000E+00  0.00000000E+00  0.00000000E+00
  0.00000000E+00  0.00000000E+00  0.00000000E+00
  0.00000000E+00  0.00000000E+00  0.00000000E+00
  0.00000000E+00  0.00000000E+00  0.00000000E+00
  0.00000000E+00  0.00000000E+00  0.00000000E+00
  0.00000000E+00  0.00000000E+00  0.00000000E+00
  0.00000000E+00  0.00000000E+00  0.00000000E+00
  0.00000000E+00  0.00000000E+00  0.00000000E+00
  0.00000000E+00  0.00000000E+00  0.00000000E+00
  0.00000000E+00  0.00000000E+00  0.00000000E+00
  0.00000000E+00  0.00000000E+00  0.00000000E+00
  0.00000000E+00  0.00000000E+00  0.00000000E+00
  0.00000000E+00  0.00000000E+00  0.00000000E+00
  0.00000000E+00  0.00000000E+00  0.00000000E+00
  0.00000000E+00  0.00000000E+00  0.00000000E+00
  0.00000000E+00  0.00000000E+00  0.00000000E+00
  0.00000000E+00  0.00000000E+00  0.00000000E+00
  0.00000000E+00  0.00000000E+00  0.00000000E+00
  0.00000000E+00  0.00000000E+00  0.00000000E+00
  0.00000000E+00  0.00000000E+00  0.00000000E+00
  0.00000000E+00  0.00000000E+00  0.00000000E+00
  0.00000000E+00  0.00000000E+00  0.00000000E+00
  0.00000000E+00  0.00000000E+00  0.00000000E+00
  0.00000000E+00  0.00000000E+00  0.00000000E+00
  0.00000000E+00  0.00000000E+00  0.00000000E+00
  0.00000000E+00  0.00000000E+00  0.00000000E+00
  0.00000000E+00  0.00000000E+00  0.00000000E+00
  0.00000000E+00  0.00000000E+00  0.00000000E+00
  0.00000000E+00  0.00000000E+00  0.00000000E+00
  0.00000000E+00  0.00000000E+00  0.00000000E+00
  0.00000000E+00  0.00000000E+00  0.00000000E+00
  0.00000000E+00  0.00000000E+00  0.00000000E+00
  0.00000000E+00  0.00000000E+00  0.00000000E+00
  0.00000000E+00  0.00000000E+00  0.00000000E+00
  0.00000000E+00  0.00000000E+00  0.00000000E+00
  0.00000000E+00  0.00000000E+00  0.00000000E+00
  0.00000000E+00  0.00000000E+00  0.00000000E+00
  0.00000000E+00  0.00000000E+00  0.00000000E+00
  0.00000000E+00  0.00000000E+00  0.00000000E+00
  0.00000000E+00  0.00000000E+00  0.00000000E+00
  0.00000000E+00  0.00000000E+00  0.00000000E+00
  0.00000000E+00  0.00000000E+00  0.00000000E+00
  0.00000000E+00  0.00000000E+00  0.00000000E+00
  0.00000000E+00  0.00000000E+00  0.00000000E+00
  0.00000000E+00  0.00000000E+00  0.00000000E+00
  0.00000000E+00  0.00000000E+00  0.00000000E+00
  0.00000000E+00  0.00000000E+00  0.00000000E+00
  0.00000000E+00  0.00000000E+00  0.00000000E+00
  0.00000000E+00  0.00000000E+00  0.00000000E+00
  0.00000000E+00  0.00000000E+00  0.00000000E+00
  0.00000000E+00  0.00000000E+00  0.00000000E+00
  0.00000000E+00  0.00000000E+00  0.00000000E+00
  0.00000000E+00  0.00000000E+00  0.00000000E+00
