supercell of POSCAR                     
   1.07329600000000     
     9.1016125577399993   -5.3128209557800004   -9.4184911254399992
     9.0821131104399999    5.2871675818400004    9.4140884809200003
    -1.5053809694200000   -7.9210976524300012    4.6939078171600004
   Al   Sc   N 
    72    24    95
Direct
  0.3026426544372285  0.2867212662488967  0.5380550474947867
  0.1411638691167738  0.2429269126853342  0.3053652868478736
  0.3074147522677535  0.4091009491469890  0.3039067191383396
  0.4666567281258267  0.3269740194247035  0.7899722488516332
  0.1393649935999974  0.4975203216198878  0.7885367031770443
  0.2985350350984106  0.1640000584570487  0.7784682286687143
  0.4698565326047373  0.4477559888256621  0.5358484013552456
  0.1415021854659457  0.1195205371137575  0.5388999290052752
  0.4758194451020472  0.0735496722025673  0.2937661927054762
  0.2775288445353183  0.1079701643252662  0.3327716259880020
  0.1151878094663843  0.0686261675895281  0.0926666669238116
  0.1134320084860789  0.1967716345487105  0.8240616971459360
  0.2754543408487535  0.3587509230120318  0.8205952476273168
  0.1107812258215475  0.3241248245962822  0.5884240909238443
  0.2720205195016021  0.4854156367806226  0.5796465726334645
  0.4471854799578097  0.2777454223306677  0.3333268392982447
  0.1107092886203205  0.4449210760444515  0.3376757354853268
  0.4470737438859587  0.4008655888823967  0.0938779206532416
  0.8029682116285954  0.2869121053911456  0.5393944242954305
  0.6423415069426497  0.2427597179529712  0.3032994634601138
  0.8075710139781478  0.4083940716711538  0.3028996030977069
  0.9666421894204191  0.3269418566138498  0.7905441276944103
  0.6393208812514217  0.4970930737083208  0.7883467578567789
  0.8003890577034838  0.1637687953325582  0.7826247926148753
  0.9696437236467830  0.4485752496362920  0.5364988561113364
  0.6418264166218322  0.1195540940569302  0.5391372222468647
  0.9764320062919722  0.0734531044798317  0.2951217094980692
  0.7774945013320576  0.1085230757552793  0.3344986194082864
  0.6148109649437288  0.0684956200430378  0.0938225886383677
  0.6137877092808068  0.1965906440980874  0.8226366819848323
  0.7749550773453109  0.3586355349959547  0.8205820411506650
  0.6110135918212478  0.3236669944330473  0.5869098574045424
  0.7721164369136062  0.4855375979961636  0.5794114535362951
  0.9468004771143725  0.2788130304908663  0.3354579761829939
  0.6111081836467065  0.4445503422060781  0.3369389797270941
  0.9466582684848390  0.4024112010062595  0.0953194826523642
  0.3027994580278772  0.7862807678909078  0.5385804679236799
  0.1417986749507563  0.7424365318566615  0.3040422260567013
  0.3071834069818422  0.9076953478055856  0.3010312553202894
  0.4664309689730786  0.8232587819987600  0.7902542051558683
  0.1395166586092742  0.9975192787538845  0.7877021094886629
  0.2993249138961289  0.6628418588625564  0.7826421303568551
  0.4697579010525246  0.9481191736438959  0.5314280451510527
  0.1410598941288228  0.6194775095603333  0.5402633539684558
  0.4756378197705899  0.5726104358089970  0.2949467676372635
  0.2764284980142122  0.6084279164010056  0.3346792833703915
  0.1136454825182227  0.5692788102179520  0.0942000543714059
  0.1133864612706859  0.6971619385002512  0.8238552608742964
  0.2754253478652586  0.8582474723851021  0.8191284050763983
  0.1109413248224129  0.8236872008214462  0.5871873094476427
  0.2724431824749871  0.9848421065140300  0.5776083817896023
  0.4469120272235330  0.7777815795624505  0.3344638082570981
  0.1112445039442491  0.9443903095122295  0.3363092073816816
  0.4477862228966529  0.9016360686826417  0.0947880466896507
  0.8030111139066207  0.7868001994607496  0.5397873191560123
  0.6421486803463523  0.7421191082737835  0.3046131409409440
  0.8083475567914604  0.9080616290228889  0.3027362068029618
  0.9670726973216119  0.8270577030456323  0.7904949196941260
  0.6431961935916704  0.9978427247634940  0.7882578843549695
  0.7998211097028758  0.6632456520502004  0.7832913791613265
  0.9703223867064352  0.9484316558299568  0.5360284938991313
  0.6412677996302989  0.6194772823869243  0.5405202709605135
  0.9754937515119266  0.5735128131337390  0.2954203611985520
  0.7767794018773344  0.6083806322356082  0.3349977618975331
  0.6139186987507586  0.5680831941878211  0.0938757377897232
  0.6136947867124007  0.6963936109443196  0.8241976652584455
  0.7759726080533369  0.8582395281373678  0.8208755644423746
  0.6111714933120069  0.8236164507416106  0.5876417231710747
  0.7730576210622999  0.9855225186474286  0.5784433006930243
  0.9470611209701190  0.7784570240454158  0.3352143659231714
  0.6119562337291313  0.9443282907763901  0.3362485379819375
  0.9480100119543877  0.9021459321506242  0.0946819070735003
  0.4797146373453813  0.1933047219875164  0.0350575541607867
  0.1391502737462815  0.3670105363891238  0.0377457123481904
  0.3125678829292511  0.0255948621872122  0.0345799724103273
  0.2811729367513038  0.2335915409335030  0.0849555154269908
  0.4560439459811931  0.0117726262713518  0.8115729754754426
  0.4450569439076162  0.1528636834021100  0.5733860618701740
  0.9816257941154731  0.1972894352597976  0.0392885314669442
  0.6395634548732687  0.3638339413797240  0.0365680774248673
  0.8101388347714789  0.0250178938197365  0.0391955394064709
  0.7840911221457603  0.2308485118666539  0.0814623763033140
  0.9469004108717058  0.0226111588045370  0.8231750784024854
  0.9451448095062176  0.1530160173264719  0.5740742832274677
  0.4813723614420056  0.6965099051869572  0.0394386195483563
  0.1422520368818283  0.8662646571219952  0.0361543534435071
  0.3090978367488901  0.5245768893750835  0.0389091272864661
  0.2835574094043380  0.7300704512033818  0.0812158538933829
  0.4464429606555669  0.5224042972075367  0.8232919786444697
  0.4444874174558606  0.6515415212604125  0.5729645858205785
  0.9814682115079947  0.6977186665880666  0.0389101419075004
  0.6412684345022797  0.8650476755171539  0.0369947518263203
  0.8085976322942869  0.5246151495404092  0.0387167837941931
  0.7838248995899164  0.7304975543939349  0.0823653522025225
  0.9465891019672625  0.5225183339886641  0.8238027056084007
  0.9444501324393855  0.6528389530780387  0.5744715467803232
  0.2387447811642289  0.3667029594833764  0.6314858214046453
  0.0748553226072914  0.3247877729379738  0.3968274397269980
  0.2391109469570338  0.4893838620478448  0.3903586272127129
  0.4203221361136542  0.2840450076328693  0.1455593324223017
  0.0712359264733280  0.4530254397439464  0.1469791397726397
  0.2404023549272551  0.1042426771696867  0.1445270142891601
  0.4015585071196668  0.3991909596690419  0.9015826224365284
  0.0853724785963337  0.0817834184124351  0.8982932375149062
  0.2378014688217931  0.2426747428252085  0.8760574308295830
  0.3983462208786079  0.0224615956819605  0.6187246310775905
  0.0848375807613451  0.2031586712532203  0.6361880187701203
  0.4052421975674250  0.1557926705960213  0.3665575682045059
  0.2172181382342728  0.1901212491300299  0.4321430157133150
  0.0576882003768446  0.1459262209526244  0.1979264898881539
  0.2151950759639973  0.3173789085772967  0.2004963023302508
  0.0450098871493552  0.2741533886236383  0.9042678102734314
  0.2102013302291255  0.4384954180026170  0.9042299155148754
  0.3732064634359133  0.2404900483737080  0.6796566140603417
  0.0412627105813499  0.4059025085414021  0.6836874532504140
  0.2122928500222727  0.0677083768593718  0.6747995637723747
  0.3812706594035120  0.3540544651122488  0.4310606069061649
  0.0480138891255777  0.0261478051388053  0.4369080294024883
  0.3870851731097957  0.4755740311772527  0.1983415690757937
  0.7383458512339445  0.3671018960932884  0.6314190782613380
  0.5747734528197626  0.3242290780744241  0.3948831832652218
  0.7390245227189851  0.4890825463857169  0.3899404783928375
  0.9209904014233814  0.2874994822138390  0.1499262895150437
  0.5716231050308238  0.4511731368042291  0.1457929257849315
  0.7379598325336403  0.1049604210612998  0.1487979515664861
  0.9012058761009385  0.3995095952914198  0.9022681630270881
  0.5857302569896916  0.0821034435971484  0.8991407044814963
  0.7362682439279524  0.2436633053084520  0.8750147259426342
  0.8989881481382582  0.0225363182362059  0.6203525140210004
  0.5839609617759578  0.2028884479773296  0.6351693958490827
  0.9055007023012891  0.1562038853098073  0.3672113255689098
  0.7167747280886090  0.1905946230505648  0.4327602640255037
  0.5557188548444927  0.1467599116200873  0.1952332119350118
  0.7167843738206727  0.3159536892322379  0.1984337451755565
  0.8718382768258692  0.1150446479684462  0.9162024539946927
  0.5420404335930158  0.2708879936171371  0.9034704311524493
  0.7091911761734906  0.4381816419592965  0.9047366883366124
  0.8732731295076093  0.2409258559039387  0.6797301140959533
  0.5411503560713626  0.4050284220944818  0.6830701722267349
  0.7120368759198143  0.0683842564429682  0.6743236289807015
  0.8810226121995726  0.3549805199488745  0.4325250348058276
  0.5476017381954748  0.0263068583337471  0.4350408642742423
  0.8866509101154918  0.4771997773219638  0.1989784968064825
  0.2388835133687124  0.8671101812221735  0.6307311298755138
  0.0752796490642282  0.8248664501460610  0.3957686783393868
  0.2396095935200009  0.9891477154487589  0.3883311302754677
  0.4206032342281745  0.7872772398135055  0.1494118012692311
  0.0731426424032691  0.9523191098847690  0.1453596579856864
  0.2373810046092046  0.6044166489347234  0.1488041204236978
  0.4014576178599896  0.8993900289231149  0.9020556097758572
  0.0848633350870998  0.5821575404730197  0.8990647482280920
  0.2366098468600129  0.7441633574183513  0.8749700120074593
  0.3982744121681279  0.5214790417336488  0.6203396603801536
  0.0837946922274497  0.7034780457800238  0.6360004261100727
  0.4046097679643594  0.6555951272375253  0.3666031858479926
  0.2165370822848587  0.6904915839970371  0.4335249542922597
  0.0560069743719467  0.6465008639712977  0.1985753790472913
  0.2165229057658848  0.8154311622908921  0.1982238884660603
  0.3712502822582167  0.6146869875502432  0.9163752585637681
  0.0454012450365724  0.7751492715850716  0.9047245941817934
  0.2133482819078338  0.9413999504857671  0.9034730544165512
  0.3728111471993856  0.7399938615691752  0.6791815401421815
  0.0419945550070224  0.9060964706642736  0.6834243151457216
  0.2111151171065515  0.5678949233125721  0.6753214703699300
  0.3809261372569637  0.8545833130481810  0.4310271513286281
  0.0470992055075854  0.5263276658237430  0.4374228057366878
  0.3862639465645969  0.9773036685968322  0.1957995771078131
  0.7382612247558455  0.8676336539400822  0.6319772614914356
  0.5747578964870144  0.8249619553170504  0.3967487924695519
  0.7397728261464920  0.9891907099961372  0.3893346685624550
  0.9206770043990673  0.7876971728336244  0.1499559908563555
  0.5722430158748253  0.9521355083540755  0.1457583947442487
  0.7372752798531863  0.6047313298377048  0.1492120840359092
  0.9019664660560380  0.8999567099659416  0.9020568722437758
  0.5843903576131524  0.5814747081624816  0.8988505443413430
  0.7364782683242126  0.7437677327710901  0.8759405493730270
  0.8982130644427002  0.5224238043130072  0.6210700164344942
  0.5833269945167245  0.7037135802253687  0.6364178940617933
  0.9047128716008856  0.6563035561249464  0.3677915240015537
  0.7166328900906151  0.6906250355225652  0.4343820824504689
  0.5563067493447917  0.6456571839832890  0.1988002249808076
  0.7165961878382134  0.8158551387486881  0.1997463821102983
  0.8715242378839250  0.6147757034686734  0.9167729400830282
  0.5447634071361094  0.7735567237940231  0.9049176985279246
  0.7111901423414224  0.9389532567124235  0.9048199008218774
  0.8729622275071165  0.7412065017311420  0.6807133440377413
  0.5393302452783928  0.9086437677861312  0.6863004217517883
  0.7110053432368275  0.5680873556743506  0.6756861269884524
  0.8813905164435738  0.8548881456123567  0.4329811719612664
  0.5471472732478517  0.5260396265387755  0.4373722631511967
  0.8879482053495877  0.9769860806328836  0.1989270005259485
 
  0.00000000E+00  0.00000000E+00  0.00000000E+00
  0.00000000E+00  0.00000000E+00  0.00000000E+00
  0.00000000E+00  0.00000000E+00  0.00000000E+00
  0.00000000E+00  0.00000000E+00  0.00000000E+00
  0.00000000E+00  0.00000000E+00  0.00000000E+00
  0.00000000E+00  0.00000000E+00  0.00000000E+00
  0.00000000E+00  0.00000000E+00  0.00000000E+00
  0.00000000E+00  0.00000000E+00  0.00000000E+00
  0.00000000E+00  0.00000000E+00  0.00000000E+00
  0.00000000E+00  0.00000000E+00  0.00000000E+00
  0.00000000E+00  0.00000000E+00  0.00000000E+00
  0.00000000E+00  0.00000000E+00  0.00000000E+00
  0.00000000E+00  0.00000000E+00  0.00000000E+00
  0.00000000E+00  0.00000000E+00  0.00000000E+00
  0.00000000E+00  0.00000000E+00  0.00000000E+00
  0.00000000E+00  0.00000000E+00  0.00000000E+00
  0.00000000E+00  0.00000000E+00  0.00000000E+00
  0.00000000E+00  0.00000000E+00  0.00000000E+00
  0.00000000E+00  0.00000000E+00  0.00000000E+00
  0.00000000E+00  0.00000000E+00  0.00000000E+00
  0.00000000E+00  0.00000000E+00  0.00000000E+00
  0.00000000E+00  0.00000000E+00  0.00000000E+00
  0.00000000E+00  0.00000000E+00  0.00000000E+00
  0.00000000E+00  0.00000000E+00  0.00000000E+00
  0.00000000E+00  0.00000000E+00  0.00000000E+00
  0.00000000E+00  0.00000000E+00  0.00000000E+00
  0.00000000E+00  0.00000000E+00  0.00000000E+00
  0.00000000E+00  0.00000000E+00  0.00000000E+00
  0.00000000E+00  0.00000000E+00  0.00000000E+00
  0.00000000E+00  0.00000000E+00  0.00000000E+00
  0.00000000E+00  0.00000000E+00  0.00000000E+00
  0.00000000E+00  0.00000000E+00  0.00000000E+00
  0.00000000E+00  0.00000000E+00  0.00000000E+00
  0.00000000E+00  0.00000000E+00  0.00000000E+00
  0.00000000E+00  0.00000000E+00  0.00000000E+00
  0.00000000E+00  0.00000000E+00  0.00000000E+00
  0.00000000E+00  0.00000000E+00  0.00000000E+00
  0.00000000E+00  0.00000000E+00  0.00000000E+00
  0.00000000E+00  0.00000000E+00  0.00000000E+00
  0.00000000E+00  0.00000000E+00  0.00000000E+00
  0.00000000E+00  0.00000000E+00  0.00000000E+00
  0.00000000E+00  0.00000000E+00  0.00000000E+00
  0.00000000E+00  0.00000000E+00  0.00000000E+00
  0.00000000E+00  0.00000000E+00  0.00000000E+00
  0.00000000E+00  0.00000000E+00  0.00000000E+00
  0.00000000E+00  0.00000000E+00  0.00000000E+00
  0.00000000E+00  0.00000000E+00  0.00000000E+00
  0.00000000E+00  0.00000000E+00  0.00000000E+00
  0.00000000E+00  0.00000000E+00  0.00000000E+00
  0.00000000E+00  0.00000000E+00  0.00000000E+00
  0.00000000E+00  0.00000000E+00  0.00000000E+00
  0.00000000E+00  0.00000000E+00  0.00000000E+00
  0.00000000E+00  0.00000000E+00  0.00000000E+00
  0.00000000E+00  0.00000000E+00  0.00000000E+00
  0.00000000E+00  0.00000000E+00  0.00000000E+00
  0.00000000E+00  0.00000000E+00  0.00000000E+00
  0.00000000E+00  0.00000000E+00  0.00000000E+00
  0.00000000E+00  0.00000000E+00  0.00000000E+00
  0.00000000E+00  0.00000000E+00  0.00000000E+00
  0.00000000E+00  0.00000000E+00  0.00000000E+00
  0.00000000E+00  0.00000000E+00  0.00000000E+00
  0.00000000E+00  0.00000000E+00  0.00000000E+00
  0.00000000E+00  0.00000000E+00  0.00000000E+00
  0.00000000E+00  0.00000000E+00  0.00000000E+00
  0.00000000E+00  0.00000000E+00  0.00000000E+00
  0.00000000E+00  0.00000000E+00  0.00000000E+00
  0.00000000E+00  0.00000000E+00  0.00000000E+00
  0.00000000E+00  0.00000000E+00  0.00000000E+00
  0.00000000E+00  0.00000000E+00  0.00000000E+00
  0.00000000E+00  0.00000000E+00  0.00000000E+00
  0.00000000E+00  0.00000000E+00  0.00000000E+00
  0.00000000E+00  0.00000000E+00  0.00000000E+00
  0.00000000E+00  0.00000000E+00  0.00000000E+00
  0.00000000E+00  0.00000000E+00  0.00000000E+00
  0.00000000E+00  0.00000000E+00  0.00000000E+00
  0.00000000E+00  0.00000000E+00  0.00000000E+00
  0.00000000E+00  0.00000000E+00  0.00000000E+00
  0.00000000E+00  0.00000000E+00  0.00000000E+00
  0.00000000E+00  0.00000000E+00  0.00000000E+00
  0.00000000E+00  0.00000000E+00  0.00000000E+00
  0.00000000E+00  0.00000000E+00  0.00000000E+00
  0.00000000E+00  0.00000000E+00  0.00000000E+00
  0.00000000E+00  0.00000000E+00  0.00000000E+00
  0.00000000E+00  0.00000000E+00  0.00000000E+00
  0.00000000E+00  0.00000000E+00  0.00000000E+00
  0.00000000E+00  0.00000000E+00  0.00000000E+00
  0.00000000E+00  0.00000000E+00  0.00000000E+00
  0.00000000E+00  0.00000000E+00  0.00000000E+00
  0.00000000E+00  0.00000000E+00  0.00000000E+00
  0.00000000E+00  0.00000000E+00  0.00000000E+00
  0.00000000E+00  0.00000000E+00  0.00000000E+00
  0.00000000E+00  0.00000000E+00  0.00000000E+00
  0.00000000E+00  0.00000000E+00  0.00000000E+00
  0.00000000E+00  0.00000000E+00  0.00000000E+00
  0.00000000E+00  0.00000000E+00  0.00000000E+00
  0.00000000E+00  0.00000000E+00  0.00000000E+00
  0.00000000E+00  0.00000000E+00  0.00000000E+00
  0.00000000E+00  0.00000000E+00  0.00000000E+00
  0.00000000E+00  0.00000000E+00  0.00000000E+00
  0.00000000E+00  0.00000000E+00  0.00000000E+00
  0.00000000E+00  0.00000000E+00  0.00000000E+00
  0.00000000E+00  0.00000000E+00  0.00000000E+00
  0.00000000E+00  0.00000000E+00  0.00000000E+00
  0.00000000E+00  0.00000000E+00  0.00000000E+00
  0.00000000E+00  0.00000000E+00  0.00000000E+00
  0.00000000E+00  0.00000000E+00  0.00000000E+00
  0.00000000E+00  0.00000000E+00  0.00000000E+00
  0.00000000E+00  0.00000000E+00  0.00000000E+00
  0.00000000E+00  0.00000000E+00  0.00000000E+00
  0.00000000E+00  0.00000000E+00  0.00000000E+00
  0.00000000E+00  0.00000000E+00  0.00000000E+00
  0.00000000E+00  0.00000000E+00  0.00000000E+00
  0.00000000E+00  0.00000000E+00  0.00000000E+00
  0.00000000E+00  0.00000000E+00  0.00000000E+00
  0.00000000E+00  0.00000000E+00  0.00000000E+00
  0.00000000E+00  0.00000000E+00  0.00000000E+00
  0.00000000E+00  0.00000000E+00  0.00000000E+00
  0.00000000E+00  0.00000000E+00  0.00000000E+00
  0.00000000E+00  0.00000000E+00  0.00000000E+00
  0.00000000E+00  0.00000000E+00  0.00000000E+00
  0.00000000E+00  0.00000000E+00  0.00000000E+00
  0.00000000E+00  0.00000000E+00  0.00000000E+00
  0.00000000E+00  0.00000000E+00  0.00000000E+00
  0.00000000E+00  0.00000000E+00  0.00000000E+00
  0.00000000E+00  0.00000000E+00  0.00000000E+00
  0.00000000E+00  0.00000000E+00  0.00000000E+00
  0.00000000E+00  0.00000000E+00  0.00000000E+00
  0.00000000E+00  0.00000000E+00  0.00000000E+00
  0.00000000E+00  0.00000000E+00  0.00000000E+00
  0.00000000E+00  0.00000000E+00  0.00000000E+00
  0.00000000E+00  0.00000000E+00  0.00000000E+00
  0.00000000E+00  0.00000000E+00  0.00000000E+00
  0.00000000E+00  0.00000000E+00  0.00000000E+00
  0.00000000E+00  0.00000000E+00  0.00000000E+00
  0.00000000E+00  0.00000000E+00  0.00000000E+00
  0.00000000E+00  0.00000000E+00  0.00000000E+00
  0.00000000E+00  0.00000000E+00  0.00000000E+00
  0.00000000E+00  0.00000000E+00  0.00000000E+00
  0.00000000E+00  0.00000000E+00  0.00000000E+00
  0.00000000E+00  0.00000000E+00  0.00000000E+00
  0.00000000E+00  0.00000000E+00  0.00000000E+00
  0.00000000E+00  0.00000000E+00  0.00000000E+00
  0.00000000E+00  0.00000000E+00  0.00000000E+00
  0.00000000E+00  0.00000000E+00  0.00000000E+00
  0.00000000E+00  0.00000000E+00  0.00000000E+00
  0.00000000E+00  0.00000000E+00  0.00000000E+00
  0.00000000E+00  0.00000000E+00  0.00000000E+00
  0.00000000E+00  0.00000000E+00  0.00000000E+00
  0.00000000E+00  0.00000000E+00  0.00000000E+00
  0.00000000E+00  0.00000000E+00  0.00000000E+00
  0.00000000E+00  0.00000000E+00  0.00000000E+00
  0.00000000E+00  0.00000000E+00  0.00000000E+00
  0.00000000E+00  0.00000000E+00  0.00000000E+00
  0.00000000E+00  0.00000000E+00  0.00000000E+00
  0.00000000E+00  0.00000000E+00  0.00000000E+00
  0.00000000E+00  0.00000000E+00  0.00000000E+00
  0.00000000E+00  0.00000000E+00  0.00000000E+00
  0.00000000E+00  0.00000000E+00  0.00000000E+00
  0.00000000E+00  0.00000000E+00  0.00000000E+00
  0.00000000E+00  0.00000000E+00  0.00000000E+00
  0.00000000E+00  0.00000000E+00  0.00000000E+00
  0.00000000E+00  0.00000000E+00  0.00000000E+00
  0.00000000E+00  0.00000000E+00  0.00000000E+00
  0.00000000E+00  0.00000000E+00  0.00000000E+00
  0.00000000E+00  0.00000000E+00  0.00000000E+00
  0.00000000E+00  0.00000000E+00  0.00000000E+00
  0.00000000E+00  0.00000000E+00  0.00000000E+00
  0.00000000E+00  0.00000000E+00  0.00000000E+00
  0.00000000E+00  0.00000000E+00  0.00000000E+00
  0.00000000E+00  0.00000000E+00  0.00000000E+00
  0.00000000E+00  0.00000000E+00  0.00000000E+00
  0.00000000E+00  0.00000000E+00  0.00000000E+00
  0.00000000E+00  0.00000000E+00  0.00000000E+00
  0.00000000E+00  0.00000000E+00  0.00000000E+00
  0.00000000E+00  0.00000000E+00  0.00000000E+00
  0.00000000E+00  0.00000000E+00  0.00000000E+00
  0.00000000E+00  0.00000000E+00  0.00000000E+00
  0.00000000E+00  0.00000000E+00  0.00000000E+00
  0.00000000E+00  0.00000000E+00  0.00000000E+00
  0.00000000E+00  0.00000000E+00  0.00000000E+00
  0.00000000E+00  0.00000000E+00  0.00000000E+00
  0.00000000E+00  0.00000000E+00  0.00000000E+00
  0.00000000E+00  0.00000000E+00  0.00000000E+00
  0.00000000E+00  0.00000000E+00  0.00000000E+00
  0.00000000E+00  0.00000000E+00  0.00000000E+00
  0.00000000E+00  0.00000000E+00  0.00000000E+00
  0.00000000E+00  0.00000000E+00  0.00000000E+00
  0.00000000E+00  0.00000000E+00  0.00000000E+00
  0.00000000E+00  0.00000000E+00  0.00000000E+00
  0.00000000E+00  0.00000000E+00  0.00000000E+00
  0.00000000E+00  0.00000000E+00  0.00000000E+00
