supercell of POSCAR                     
   1.07329600000000     
     9.1016125577399993   -5.3128209557800004   -9.4184911254399992
     9.0821131104399999    5.2871675818400004    9.4140884809200003
    -1.5053809694200000   -7.9210976524300012    4.6939078171600004
   Al   Sc   N 
    72    24    95
Direct
  0.3026611554077050  0.2878830274377506  0.5348531987855267
  0.1407079739244850  0.2432306467324281  0.3051825409517122
  0.3072965829368641  0.4097941798583307  0.3036269204270567
  0.4668867231835776  0.3274991974901127  0.7899130155364702
  0.1388640479887826  0.4976591390076024  0.7886783820440826
  0.2893861393529988  0.1698199336457549  0.7606654898627809
  0.4699600063623777  0.4477245420766138  0.5357845819655012
  0.1397723077577382  0.1188431697844763  0.5353371192803635
  0.4763100036787122  0.0734332610149053  0.2939820272688038
  0.2780557767920584  0.1077283284661661  0.3321421155677413
  0.1155830946089225  0.0684665273935963  0.0920141270442230
  0.1119104037800511  0.1966087008364639  0.8244273966660742
  0.2755982673364699  0.3605090693557429  0.8207917391842017
  0.1106706273951517  0.3243384816838670  0.5884709134256951
  0.2718154600400453  0.4856317010445110  0.5796466684904047
  0.4475592738061209  0.2775016639375778  0.3327322287874495
  0.1102966229969056  0.4453394293220327  0.3382522438782161
  0.4470628289851888  0.4005115758705884  0.0932046220863327
  0.8031750134144744  0.2873199126814825  0.5398607784111107
  0.6431238016105141  0.2432954540559820  0.3041213629927810
  0.8075412161149060  0.4087415123738225  0.3034139996845795
  0.9665553147430685  0.3274463851486971  0.7908828234389347
  0.6392297497878872  0.4971091331616648  0.7886369812869134
  0.8009788549966643  0.1643823172521905  0.7831357322075405
  0.9694609704924702  0.4488291109840574  0.5370408547123162
  0.6424806347930385  0.1198066029448768  0.5393208423088609
  0.9763962225802274  0.0734596802269323  0.2947412233792406
  0.7779430605768809  0.1087010141489841  0.3348200980622806
  0.6157309048743329  0.0682349193453859  0.0947042257739312
  0.6141953113555729  0.1969212007737227  0.8224991084993434
  0.7750115338073655  0.3589288121732324  0.8208660697509274
  0.6112026173634604  0.3238377531959884  0.5869113405926996
  0.7720147086794356  0.4857561968003736  0.5798975441917094
  0.9467131209139268  0.2791677217880277  0.3358644598247125
  0.6111519942809167  0.4446969573236288  0.3371601320128192
  0.9462844802315544  0.4027716545307953  0.0957999263137168
  0.3024621698402257  0.7858438795063805  0.5386934122253777
  0.1415047144035597  0.7423088745593205  0.3041862254399561
  0.3067428306147235  0.9069893979234891  0.3009699169513169
  0.4659738233196506  0.8204329700013346  0.7908617226123624
  0.1389461249350461  0.9972462161673192  0.7876817210844891
  0.2987508600400446  0.6624219839720169  0.7828955887075679
  0.4697084867226593  0.9477178359163219  0.5291178421847675
  0.1406807897968534  0.6195059999176138  0.5405038847151005
  0.4755694983973910  0.5722992955549913  0.2949462754423280
  0.2760432405977298  0.6085018794106105  0.3348781029878012
  0.1132402589521462  0.5696360529874482  0.0945455983777563
  0.1130965432257796  0.6971124236906832  0.8239237170295794
  0.2751384371048360  0.8580273765775814  0.8187556677916632
  0.1107295622389444  0.8235183906578953  0.5870680708363025
  0.2727597829446253  0.9840814504842896  0.5765848612162543
  0.4467908676370129  0.7772603047064806  0.3345799051759784
  0.1112228977548426  0.9438594302628545  0.3355848033534201
  0.4483586989665582  0.9010123671944257  0.0954968038331714
  0.8030072423946280  0.7868635869426015  0.5401380991341185
  0.6421728939545304  0.7419208636619601  0.3049667974078005
  0.8085748598565630  0.9080388165911870  0.3029978613529067
  0.9669983165364968  0.8271321668283136  0.7907000255552106
  0.6459919596585522  0.9982194513810185  0.7887186063695140
  0.7996425681877710  0.6633966348215239  0.7838835455508217
  0.9702629491454715  0.9483238543207761  0.5360311899610721
  0.6411731346518650  0.6194681556920898  0.5409457333592016
  0.9751992602777193  0.5737033976143309  0.2958433625649661
  0.7766298278431876  0.6085005008046807  0.3355683663323958
  0.6138136766248010  0.5679493669142346  0.0942384277477828
  0.6137645202603963  0.6960257502028355  0.8248188155247362
  0.7764280770733052  0.8580846763019991  0.8214110076316601
  0.6117487802684352  0.8228915872587663  0.5874455128527956
  0.7735981270108070  0.9856380421070625  0.5783373126114668
  0.9469702039477639  0.7784597190164746  0.3355515154970163
  0.6125476523996269  0.9441426047025132  0.3365103653273493
  0.9482162648346559  0.9021820404919438  0.0947462494722018
  0.4819145787757932  0.1927001379582336  0.0361442290790635
  0.1383232368756353  0.3679470950802042  0.0385477130898835
  0.3134453949933658  0.0235523983047443  0.0352805407221624
  0.2807103233102879  0.2343718428722568  0.0857623017978568
  0.4622617655455343  0.0047991961595883  0.8052283523824997
  0.4459835314169638  0.1523504222920664  0.5726985973106693
  0.9815745282149706  0.1975579096635443  0.0400148080625939
  0.6397309864188685  0.3639717968567737  0.0367764287471815
  0.8107927297496929  0.0251931807642549  0.0398453267364403
  0.7842984390794072  0.2311359315826635  0.0818290803608974
  0.9468230795138339  0.0227364117036828  0.8232647829822710
  0.9451061916761248  0.1533903649239292  0.5742392259182196
  0.4813039003712234  0.6959555353093094  0.0402622458593669
  0.1421418809149984  0.8658713573498176  0.0358143386490752
  0.3087796693087625  0.5248396086496072  0.0394834864016360
  0.2833871221034130  0.7298654434986602  0.0811916553107892
  0.4462543187903520  0.5226102135217161  0.8234876086487262
  0.4443047424981188  0.6508085469534279  0.5724808829428127
  0.9812592623317400  0.6979663811101844  0.0393418422980361
  0.6417038989421044  0.8647219925835472  0.0374706304901693
  0.8083029071030694  0.5248142661071782  0.0393138495096181
  0.7839090733931755  0.7304450937588811  0.0830864435246141
  0.9461614628970167  0.5230023819863661  0.8245621766561015
  0.9441767401391274  0.6529792154984548  0.5749678661837976
  0.2389599612930837  0.3664695547725785  0.6312614593919079
  0.0749326582756993  0.3248584797250160  0.3969810019527173
  0.2389111315327526  0.4893844574368345  0.3904042901659253
  0.4202231890028969  0.2825851456831998  0.1437202698184592
  0.0708339250577623  0.4534826165944850  0.1476680810728368
  0.2417611394322421  0.1042143152058301  0.1427064143133165
  0.4013822767956725  0.3987839205034120  0.9010502705903036
  0.0857464225041866  0.0818697136382625  0.8979676210254723
  0.2378303630467542  0.2425643747287083  0.8749761220944521
  0.3983962674305133  0.0225868443653212  0.6196247314435581
  0.0855297355558022  0.2028528523505884  0.6361386776779057
  0.4055917987502085  0.1555687150380436  0.3662137674603940
  0.2173815761712490  0.1899989791669867  0.4313988711907655
  0.0583623064244208  0.1457660337902524  0.1977267274298953
  0.2149800378570177  0.3176595000122404  0.2003009738050920
  0.0450518225270926  0.2744414099029839  0.9047166834687275
  0.2098789197925726  0.4385155700149355  0.9045628872531282
  0.3736654947611129  0.2409053981853617  0.6771581444075991
  0.0413825514667039  0.4057313384682146  0.6837439366621538
  0.2116197795694248  0.0669211988167788  0.6726295098062991
  0.3815213431366047  0.3542446533832262  0.4294346848806683
  0.0477706462311573  0.0255710828120783  0.4358682302251253
  0.3870901272848144  0.4750875055448063  0.1977288221048994
  0.7382962056365869  0.3672268516779624  0.6317071217539407
  0.5747016565945913  0.3241367464867508  0.3947501942825085
  0.7388325891591734  0.4892169642021642  0.3904495339496776
  0.9211537554776186  0.2877450619479305  0.1503231354168335
  0.5713660671791558  0.4508284909740254  0.1458488095508486
  0.7384885841342168  0.1051130722144578  0.1491766328535249
  0.9011917754718510  0.3996934501101563  0.9026397217815330
  0.5857549212939759  0.0828254534505106  0.9004070108568385
  0.7363686782327008  0.2438478200416583  0.8753289327370126
  0.8993648107303542  0.0228665188809742  0.6203795903884668
  0.5842173381201334  0.2028811811038054  0.6352833361549770
  0.9059304961934984  0.1563557954600299  0.3673064672262214
  0.7171645501964576  0.1907641496546333  0.4330975892837188
  0.5565426381314040  0.1467668220792717  0.1959119557593851
  0.7168033658729698  0.3161465409178703  0.1985676220565296
  0.8721124554954258  0.1152881969528465  0.9165129810219597
  0.5415034895071642  0.2704419163415466  0.9033359904047913
  0.7089952347832238  0.4381789061872965  0.9049976268249509
  0.8735398027872634  0.2412465640052588  0.6800404173982244
  0.5410508705805839  0.4047504958438495  0.6829633325310951
  0.7127260203031511  0.0687970893567069  0.6745232438243391
  0.8810187689329396  0.3552017737229392  0.4328651909000101
  0.5478529712944251  0.0264414081482514  0.4352800412259299
  0.8863696947219282  0.4774364895406080  0.1993880800739376
  0.2388670729797155  0.8671152458433653  0.6307691947041292
  0.0753109590053285  0.8249433281293648  0.3958509254319154
  0.2397951134030976  0.9891323471558451  0.3877755252666049
  0.4205360102196778  0.7869913130841582  0.1497742824263071
  0.0736046732970834  0.9523776074197130  0.1448781100174585
  0.2370526471342131  0.6044135266237873  0.1490648259138538
  0.4010751057334403  0.8997640586436759  0.9031539094909888
  0.0847095168032084  0.5822128907053923  0.8993040571777655
  0.2364348405688190  0.7442870299578246  0.8750543733949172
  0.3980740293815970  0.5209916066146221  0.6204298025697383
  0.0836374368398793  0.7035873310077889  0.6361923669667959
  0.4043194294866126  0.6552366278518065  0.3664563555872959
  0.2163096363501253  0.6904610889069573  0.4337535164243747
  0.0556975249401575  0.6466990248156179  0.1989167634200300
  0.2163348244549042  0.8153138531256516  0.1980887651653802
  0.3709458151914475  0.6146679800959589  0.9167169484749564
  0.0452929627529954  0.7752119430293831  0.9047921249694326
  0.2137731619771799  0.9419479249391429  0.9034313258263325
  0.3724430466018660  0.7393583402615604  0.6791914849696852
  0.0421344910211090  0.9062178189246950  0.6835029868803630
  0.2108122631950948  0.5677209071188827  0.6754536459869271
  0.3806492389270133  0.8543299680173817  0.4311427792638298
  0.0468536458314190  0.5264601680050092  0.4378499708672550
  0.3865618888313023  0.9767582419188301  0.1964314027765681
  0.7381573445828735  0.8680549109461708  0.6326820072282473
  0.5744557588734409  0.8251793839400250  0.3975630810240816
  0.7399939106241433  0.9893749118847026  0.3895879835287133
  0.9206780609235352  0.7879820829001929  0.1504150785353318
  0.5724223440400920  0.9521589790364828  0.1461917447632217
  0.7369826556777426  0.6048080977241383  0.1498413241540462
  0.9021579160313351  0.9002274693160643  0.9022848415671660
  0.5840689938992583  0.5812792901623212  0.8991960308972509
  0.7362737204322158  0.7439917984742124  0.8767770296772568
  0.8980828843412141  0.5225706581173242  0.6217490190072041
  0.5829042855831190  0.7038348932146050  0.6371615464206215
  0.9044865844160341  0.6564830394316843  0.3683197438129682
  0.7163946416466800  0.6908372651936716  0.4351370054188379
  0.5562543893544785  0.6455085750194840  0.1994160477219822
  0.7164776943276934  0.8159630222131966  0.2005311915075723
  0.8711754997393086  0.6151094771051575  0.9175815579667699
  0.5448389849863915  0.7731696538869954  0.9060731401460700
  0.7117495078909712  0.9389790364070123  0.9058070592760643
  0.8726787774435181  0.7414940613384218  0.6813437550574122
  0.5386410343332244  0.9096192011094075  0.6883349004457742
  0.7107564501900825  0.5682769971614832  0.6762416756839755
  0.8813262447122980  0.8549582293658275  0.4334516643949726
  0.5469743227596169  0.5261094509762643  0.4376776229565777
  0.8881991456631795  0.9769673400859418  0.1991611292959163
 
  0.00000000E+00  0.00000000E+00  0.00000000E+00
  0.00000000E+00  0.00000000E+00  0.00000000E+00
  0.00000000E+00  0.00000000E+00  0.00000000E+00
  0.00000000E+00  0.00000000E+00  0.00000000E+00
  0.00000000E+00  0.00000000E+00  0.00000000E+00
  0.00000000E+00  0.00000000E+00  0.00000000E+00
  0.00000000E+00  0.00000000E+00  0.00000000E+00
  0.00000000E+00  0.00000000E+00  0.00000000E+00
  0.00000000E+00  0.00000000E+00  0.00000000E+00
  0.00000000E+00  0.00000000E+00  0.00000000E+00
  0.00000000E+00  0.00000000E+00  0.00000000E+00
  0.00000000E+00  0.00000000E+00  0.00000000E+00
  0.00000000E+00  0.00000000E+00  0.00000000E+00
  0.00000000E+00  0.00000000E+00  0.00000000E+00
  0.00000000E+00  0.00000000E+00  0.00000000E+00
  0.00000000E+00  0.00000000E+00  0.00000000E+00
  0.00000000E+00  0.00000000E+00  0.00000000E+00
  0.00000000E+00  0.00000000E+00  0.00000000E+00
  0.00000000E+00  0.00000000E+00  0.00000000E+00
  0.00000000E+00  0.00000000E+00  0.00000000E+00
  0.00000000E+00  0.00000000E+00  0.00000000E+00
  0.00000000E+00  0.00000000E+00  0.00000000E+00
  0.00000000E+00  0.00000000E+00  0.00000000E+00
  0.00000000E+00  0.00000000E+00  0.00000000E+00
  0.00000000E+00  0.00000000E+00  0.00000000E+00
  0.00000000E+00  0.00000000E+00  0.00000000E+00
  0.00000000E+00  0.00000000E+00  0.00000000E+00
  0.00000000E+00  0.00000000E+00  0.00000000E+00
  0.00000000E+00  0.00000000E+00  0.00000000E+00
  0.00000000E+00  0.00000000E+00  0.00000000E+00
  0.00000000E+00  0.00000000E+00  0.00000000E+00
  0.00000000E+00  0.00000000E+00  0.00000000E+00
  0.00000000E+00  0.00000000E+00  0.00000000E+00
  0.00000000E+00  0.00000000E+00  0.00000000E+00
  0.00000000E+00  0.00000000E+00  0.00000000E+00
  0.00000000E+00  0.00000000E+00  0.00000000E+00
  0.00000000E+00  0.00000000E+00  0.00000000E+00
  0.00000000E+00  0.00000000E+00  0.00000000E+00
  0.00000000E+00  0.00000000E+00  0.00000000E+00
  0.00000000E+00  0.00000000E+00  0.00000000E+00
  0.00000000E+00  0.00000000E+00  0.00000000E+00
  0.00000000E+00  0.00000000E+00  0.00000000E+00
  0.00000000E+00  0.00000000E+00  0.00000000E+00
  0.00000000E+00  0.00000000E+00  0.00000000E+00
  0.00000000E+00  0.00000000E+00  0.00000000E+00
  0.00000000E+00  0.00000000E+00  0.00000000E+00
  0.00000000E+00  0.00000000E+00  0.00000000E+00
  0.00000000E+00  0.00000000E+00  0.00000000E+00
  0.00000000E+00  0.00000000E+00  0.00000000E+00
  0.00000000E+00  0.00000000E+00  0.00000000E+00
  0.00000000E+00  0.00000000E+00  0.00000000E+00
  0.00000000E+00  0.00000000E+00  0.00000000E+00
  0.00000000E+00  0.00000000E+00  0.00000000E+00
  0.00000000E+00  0.00000000E+00  0.00000000E+00
  0.00000000E+00  0.00000000E+00  0.00000000E+00
  0.00000000E+00  0.00000000E+00  0.00000000E+00
  0.00000000E+00  0.00000000E+00  0.00000000E+00
  0.00000000E+00  0.00000000E+00  0.00000000E+00
  0.00000000E+00  0.00000000E+00  0.00000000E+00
  0.00000000E+00  0.00000000E+00  0.00000000E+00
  0.00000000E+00  0.00000000E+00  0.00000000E+00
  0.00000000E+00  0.00000000E+00  0.00000000E+00
  0.00000000E+00  0.00000000E+00  0.00000000E+00
  0.00000000E+00  0.00000000E+00  0.00000000E+00
  0.00000000E+00  0.00000000E+00  0.00000000E+00
  0.00000000E+00  0.00000000E+00  0.00000000E+00
  0.00000000E+00  0.00000000E+00  0.00000000E+00
  0.00000000E+00  0.00000000E+00  0.00000000E+00
  0.00000000E+00  0.00000000E+00  0.00000000E+00
  0.00000000E+00  0.00000000E+00  0.00000000E+00
  0.00000000E+00  0.00000000E+00  0.00000000E+00
  0.00000000E+00  0.00000000E+00  0.00000000E+00
  0.00000000E+00  0.00000000E+00  0.00000000E+00
  0.00000000E+00  0.00000000E+00  0.00000000E+00
  0.00000000E+00  0.00000000E+00  0.00000000E+00
  0.00000000E+00  0.00000000E+00  0.00000000E+00
  0.00000000E+00  0.00000000E+00  0.00000000E+00
  0.00000000E+00  0.00000000E+00  0.00000000E+00
  0.00000000E+00  0.00000000E+00  0.00000000E+00
  0.00000000E+00  0.00000000E+00  0.00000000E+00
  0.00000000E+00  0.00000000E+00  0.00000000E+00
  0.00000000E+00  0.00000000E+00  0.00000000E+00
  0.00000000E+00  0.00000000E+00  0.00000000E+00
  0.00000000E+00  0.00000000E+00  0.00000000E+00
  0.00000000E+00  0.00000000E+00  0.00000000E+00
  0.00000000E+00  0.00000000E+00  0.00000000E+00
  0.00000000E+00  0.00000000E+00  0.00000000E+00
  0.00000000E+00  0.00000000E+00  0.00000000E+00
  0.00000000E+00  0.00000000E+00  0.00000000E+00
  0.00000000E+00  0.00000000E+00  0.00000000E+00
  0.00000000E+00  0.00000000E+00  0.00000000E+00
  0.00000000E+00  0.00000000E+00  0.00000000E+00
  0.00000000E+00  0.00000000E+00  0.00000000E+00
  0.00000000E+00  0.00000000E+00  0.00000000E+00
  0.00000000E+00  0.00000000E+00  0.00000000E+00
  0.00000000E+00  0.00000000E+00  0.00000000E+00
  0.00000000E+00  0.00000000E+00  0.00000000E+00
  0.00000000E+00  0.00000000E+00  0.00000000E+00
  0.00000000E+00  0.00000000E+00  0.00000000E+00
  0.00000000E+00  0.00000000E+00  0.00000000E+00
  0.00000000E+00  0.00000000E+00  0.00000000E+00
  0.00000000E+00  0.00000000E+00  0.00000000E+00
  0.00000000E+00  0.00000000E+00  0.00000000E+00
  0.00000000E+00  0.00000000E+00  0.00000000E+00
  0.00000000E+00  0.00000000E+00  0.00000000E+00
  0.00000000E+00  0.00000000E+00  0.00000000E+00
  0.00000000E+00  0.00000000E+00  0.00000000E+00
  0.00000000E+00  0.00000000E+00  0.00000000E+00
  0.00000000E+00  0.00000000E+00  0.00000000E+00
  0.00000000E+00  0.00000000E+00  0.00000000E+00
  0.00000000E+00  0.00000000E+00  0.00000000E+00
  0.00000000E+00  0.00000000E+00  0.00000000E+00
  0.00000000E+00  0.00000000E+00  0.00000000E+00
  0.00000000E+00  0.00000000E+00  0.00000000E+00
  0.00000000E+00  0.00000000E+00  0.00000000E+00
  0.00000000E+00  0.00000000E+00  0.00000000E+00
  0.00000000E+00  0.00000000E+00  0.00000000E+00
  0.00000000E+00  0.00000000E+00  0.00000000E+00
  0.00000000E+00  0.00000000E+00  0.00000000E+00
  0.00000000E+00  0.00000000E+00  0.00000000E+00
  0.00000000E+00  0.00000000E+00  0.00000000E+00
  0.00000000E+00  0.00000000E+00  0.00000000E+00
  0.00000000E+00  0.00000000E+00  0.00000000E+00
  0.00000000E+00  0.00000000E+00  0.00000000E+00
  0.00000000E+00  0.00000000E+00  0.00000000E+00
  0.00000000E+00  0.00000000E+00  0.00000000E+00
  0.00000000E+00  0.00000000E+00  0.00000000E+00
  0.00000000E+00  0.00000000E+00  0.00000000E+00
  0.00000000E+00  0.00000000E+00  0.00000000E+00
  0.00000000E+00  0.00000000E+00  0.00000000E+00
  0.00000000E+00  0.00000000E+00  0.00000000E+00
  0.00000000E+00  0.00000000E+00  0.00000000E+00
  0.00000000E+00  0.00000000E+00  0.00000000E+00
  0.00000000E+00  0.00000000E+00  0.00000000E+00
  0.00000000E+00  0.00000000E+00  0.00000000E+00
  0.00000000E+00  0.00000000E+00  0.00000000E+00
  0.00000000E+00  0.00000000E+00  0.00000000E+00
  0.00000000E+00  0.00000000E+00  0.00000000E+00
  0.00000000E+00  0.00000000E+00  0.00000000E+00
  0.00000000E+00  0.00000000E+00  0.00000000E+00
  0.00000000E+00  0.00000000E+00  0.00000000E+00
  0.00000000E+00  0.00000000E+00  0.00000000E+00
  0.00000000E+00  0.00000000E+00  0.00000000E+00
  0.00000000E+00  0.00000000E+00  0.00000000E+00
  0.00000000E+00  0.00000000E+00  0.00000000E+00
  0.00000000E+00  0.00000000E+00  0.00000000E+00
  0.00000000E+00  0.00000000E+00  0.00000000E+00
  0.00000000E+00  0.00000000E+00  0.00000000E+00
  0.00000000E+00  0.00000000E+00  0.00000000E+00
  0.00000000E+00  0.00000000E+00  0.00000000E+00
  0.00000000E+00  0.00000000E+00  0.00000000E+00
  0.00000000E+00  0.00000000E+00  0.00000000E+00
  0.00000000E+00  0.00000000E+00  0.00000000E+00
  0.00000000E+00  0.00000000E+00  0.00000000E+00
  0.00000000E+00  0.00000000E+00  0.00000000E+00
  0.00000000E+00  0.00000000E+00  0.00000000E+00
  0.00000000E+00  0.00000000E+00  0.00000000E+00
  0.00000000E+00  0.00000000E+00  0.00000000E+00
  0.00000000E+00  0.00000000E+00  0.00000000E+00
  0.00000000E+00  0.00000000E+00  0.00000000E+00
  0.00000000E+00  0.00000000E+00  0.00000000E+00
  0.00000000E+00  0.00000000E+00  0.00000000E+00
  0.00000000E+00  0.00000000E+00  0.00000000E+00
  0.00000000E+00  0.00000000E+00  0.00000000E+00
  0.00000000E+00  0.00000000E+00  0.00000000E+00
  0.00000000E+00  0.00000000E+00  0.00000000E+00
  0.00000000E+00  0.00000000E+00  0.00000000E+00
  0.00000000E+00  0.00000000E+00  0.00000000E+00
  0.00000000E+00  0.00000000E+00  0.00000000E+00
  0.00000000E+00  0.00000000E+00  0.00000000E+00
  0.00000000E+00  0.00000000E+00  0.00000000E+00
  0.00000000E+00  0.00000000E+00  0.00000000E+00
  0.00000000E+00  0.00000000E+00  0.00000000E+00
  0.00000000E+00  0.00000000E+00  0.00000000E+00
  0.00000000E+00  0.00000000E+00  0.00000000E+00
  0.00000000E+00  0.00000000E+00  0.00000000E+00
  0.00000000E+00  0.00000000E+00  0.00000000E+00
  0.00000000E+00  0.00000000E+00  0.00000000E+00
  0.00000000E+00  0.00000000E+00  0.00000000E+00
  0.00000000E+00  0.00000000E+00  0.00000000E+00
  0.00000000E+00  0.00000000E+00  0.00000000E+00
  0.00000000E+00  0.00000000E+00  0.00000000E+00
  0.00000000E+00  0.00000000E+00  0.00000000E+00
  0.00000000E+00  0.00000000E+00  0.00000000E+00
  0.00000000E+00  0.00000000E+00  0.00000000E+00
  0.00000000E+00  0.00000000E+00  0.00000000E+00
  0.00000000E+00  0.00000000E+00  0.00000000E+00
  0.00000000E+00  0.00000000E+00  0.00000000E+00
  0.00000000E+00  0.00000000E+00  0.00000000E+00
  0.00000000E+00  0.00000000E+00  0.00000000E+00
  0.00000000E+00  0.00000000E+00  0.00000000E+00
