supercell of POSCAR                     
   1.07329600000000     
     9.1016125577399993   -5.3128209557800004   -9.4184911254399992
     9.0821131104399999    5.2871675818400004    9.4140884809200003
    -1.5053809694200000   -7.9210976524300012    4.6939078171600004
   Al   Sc   N    O 
    72    24    95     1
Direct
  0.3027382378543066  0.2875164384089501  0.5362426838610830
  0.1420958524893194  0.2419171966580862  0.3027455137067463
  0.3084551759009173  0.4080694379453078  0.3012178089635213
  0.4659123605887672  0.3252655481037650  0.7911148711991913
  0.1397368740011515  0.4977552313915794  0.7877822988316723
  0.2942884521953530  0.1667277553712978  0.7710053052553434
  0.4703670292704061  0.4479506224446013  0.5357646378572554
  0.1395388670245552  0.1188743025483063  0.5372301578782341
  0.4742333694449599  0.0739216861744438  0.2913523450144240
  0.2769101202247057  0.1075787932800054  0.3344669185410893
  0.1144595901323413  0.0687776701428433  0.0940012975196822
  0.1124441735361827  0.1968859667230589  0.8233473658996004
  0.2751564092194627  0.3591484900299662  0.8197049101741811
  0.1105983398598482  0.3236278244186721  0.5866458416599585
  0.2726498315368175  0.4856907189309254  0.5783850671183117
  0.4476763002497464  0.2781109618224136  0.3347569057175832
  0.1117586492384532  0.4441263534286577  0.3360524470435138
  0.4473654754468370  0.4015156436171665  0.0948473120531972
  0.8034193538594536  0.2868234642925884  0.5405626867493680
  0.6437761831569304  0.2447665828249583  0.3071872289234392
  0.8082511404462736  0.4083586699482353  0.3024231445260455
  0.9664988740806209  0.3268741648750861  0.7904156293411049
  0.6397158887533010  0.4965561858345282  0.7885343171402681
  0.7987956873162290  0.1629100759788500  0.7823363001865005
  0.9702840672110824  0.4482723629412391  0.5358226842253373
  0.6410333474013470  0.1192852399094591  0.5391087691745184
  0.9746627130705647  0.0728765784721688  0.2935345888541363
  0.7754288741199034  0.1081703375307086  0.3333472042268397
  0.6076980008432500  0.0683541606824889  0.0921778834753084
  0.6121587547206886  0.1957168631769548  0.8234213327268023
  0.7744696835574345  0.3582809865020309  0.8214900689673215
  0.6108416000139982  0.3237992257483597  0.5885971125551421
  0.7726682856137188  0.4851617226941229  0.5789728620783521
  0.9466214565399724  0.2780170946357643  0.3342989110231400
  0.6113087424329464  0.4448203164881193  0.3364962120050379
  0.9475205356478256  0.4016576300471826  0.0946457048298441
  0.3034812155338926  0.7858769768264864  0.5403127197533024
  0.1418855883059535  0.7419494905689632  0.3041000822421154
  0.3062758644190069  0.9068826217133079  0.3060832103124227
  0.4672445998943715  0.8252376846996228  0.7883241337483682
  0.1411002278277564  0.9981262378982407  0.7892857908415749
  0.3006578760185690  0.6635427895921140  0.7824592940408479
  0.4691821631906521  0.9490518165965796  0.5388199706290564
  0.1417906086790737  0.6193568008430219  0.5401336699476076
  0.4761859442088010  0.5737419254007392  0.2937132471547272
  0.2773580522345327  0.6086566247017444  0.3337120263752524
  0.1146245221645117  0.5685802456425719  0.0933171438092373
  0.1143793311680810  0.6979874998786570  0.8244045922513692
  0.2765382148749751  0.8600104806706881  0.8211180369620834
  0.1116097547096473  0.8240151775967703  0.5877916357632813
  0.2732954977452664  0.9856165960218206  0.5809597369936981
  0.4472602289142813  0.7796433405824033  0.3344665172637420
  0.1109469721666230  0.9442742041869181  0.3364690979982754
  0.4473350616534688  0.9074848517892491  0.0932246311265814
  0.8036360733317665  0.7863268368953200  0.5391143525947797
  0.6424291604773487  0.7423498635566474  0.3034890950077838
  0.8074832486175652  0.9077035463448979  0.3014841065464324
  0.9681735591448160  0.8268365830200679  0.7902048014083718
  0.6405911065796701  0.9966885756264290  0.7860062637766490
  0.8007466518997575  0.6626129579046278  0.7823084632375057
  0.9702265249812712  0.9480022040177403  0.5359001165060846
  0.6420702775102427  0.6191517638447337  0.5400203432433557
  0.9761221738662442  0.5732114330030598  0.2947439619860361
  0.7773269928387734  0.6082728898747618  0.3341877773895590
  0.6145347585495671  0.5681505968614857  0.0927935267361377
  0.6143725870814336  0.6964775762435238  0.8235942072844438
  0.7758429022532951  0.8578521942236819  0.8200037615730764
  0.6113169696263654  0.8234709336726382  0.5871179590208442
  0.7728380764989637  0.9850222547220042  0.5779277395470643
  0.9471691940449318  0.7783110984331501  0.3345519312459260
  0.6104920412481718  0.9447249647640916  0.3376551650248842
  0.9475769957880544  0.9017725886871375  0.0935832675079951
  0.4748856517860673  0.1852190844272954  0.0448471973416247
  0.1417913914703419  0.3644999142620478  0.0363327486299099
  0.3222164988655578  0.0323867622734895  0.0444829952883623
  0.2854759262884485  0.2292231689285202  0.0835337452750480
  0.4495177173400222  0.0222988474621744  0.8370388484654825
  0.4444232589875341  0.1513420343550251  0.5766869249865110
  0.9803714703992128  0.1966749167274813  0.0382003377575728
  0.6363143487501759  0.3604908306110559  0.0359145797326974
  0.8072667580049355  0.0251902999460043  0.0383954325789944
  0.7817878838943457  0.2298459912622235  0.0819009049258455
  0.9465765106507860  0.0218817474590409  0.8234818020280414
  0.9434192716694909  0.1521941104657856  0.5731684732551727
  0.4813558282947454  0.6986899673846310  0.0391511644314093
  0.1456322676362873  0.8697961892780839  0.0366039240652825
  0.3098815568809172  0.5254233115085043  0.0377006087740241
  0.2847772762308907  0.7324611280500690  0.0820222001430011
  0.4477632060658507  0.5222731379620171  0.8228996645585340
  0.4458462215350067  0.6518011136578110  0.5718564249242135
  0.9829950262617757  0.6979744538097563  0.0384691843758205
  0.6407296459658198  0.8655599119871837  0.0374653114883827
  0.8088513628525789  0.5233105885137732  0.0383138725435259
  0.7843436056523316  0.7298352352225166  0.0804791702350940
  0.9471307040080106  0.5223949852228813  0.8233281321005848
  0.9454167885535369  0.6524644892974791  0.5735646080420054
  0.2379276191399171  0.3675770298482632  0.6301893062757955
  0.0746414805834448  0.3245080933271538  0.3951060571468261
  0.2397632684757056  0.4893887352153286  0.3888826136683647
  0.4215046215477045  0.2890077139002827  0.1512850733953002
  0.0725394734502203  0.4516768958165613  0.1451716157425409
  0.2361104930948272  0.1044642416165260  0.1504244225287437
  0.4011331348257983  0.4000685008392040  0.9015903940031862
  0.0840646235599465  0.0820890172356954  0.8983726823164844
  0.2352891090982823  0.2445082718741105  0.8740779331324333
  0.3986020996771416  0.0218804580536158  0.6248304206633506
  0.0825521596876655  0.2031617632054008  0.6348112282348310
  0.4045499615706234  0.1567204318417907  0.3706056204107497
  0.2157900753650352  0.1905680439287494  0.4332064418962887
  0.0551624109077551  0.1460688439576501  0.1975497713045371
  0.2165173264193214  0.3163373928680855  0.1998269146909237
  0.0439420157165102  0.2742936247875747  0.9043283371855111
  0.2102616869163541  0.4396478534021924  0.9037869031922412
  0.3718050966155459  0.2428489232923283  0.6762679547373978
  0.0412382468097263  0.4060197025046008  0.6833791695133229
  0.2087964197854433  0.0681904928821524  0.6717276634217200
  0.3815144423906034  0.3556571540717570  0.4313824174174385
  0.0459409710625351  0.0256785502894843  0.4350194130941034
  0.3874011352420652  0.4778257172175415  0.1976711918224439
  0.7390788520392917  0.3674657045663352  0.6323457744931957
  0.5760290755962743  0.3267180721820253  0.3981082066116173
  0.7399561826873580  0.4894336624562143  0.3897792014353527
  0.9196369590912994  0.2870052874185021  0.1490755690333714
  0.5723806203865962  0.4522491999523695  0.1455612722578934
  0.7350410017586171  0.1040773768371253  0.1479293768512733
  0.9012281268651066  0.3999963412218648  0.9022231921047990
  0.5900437614773679  0.0811840400091910  0.8943802382702870
  0.7360125525786430  0.2437788906423179  0.8751636283115545
  0.8990065184523530  0.0217130095831024  0.6203972642660744
  0.5845207956026783  0.2034865360771789  0.6350767455933024
  0.9041261622352366  0.1557116236069120  0.3662197437107579
  0.7183582106537401  0.1912259463356634  0.4353456954812174
  0.5607492746358034  0.1502718468075983  0.2069797332867438
  0.7177520007601643  0.3172447692438567  0.1997804664278959
  0.8708991839082643  0.1141948751363273  0.9153175344349407
  0.5400975458636665  0.2690451884415381  0.9035259852923332
  0.7085897705980599  0.4373400595185899  0.9059106508166295
  0.8733012426264111  0.2409033979155666  0.6808023383019943
  0.5412464794082439  0.4059016610673325  0.6840966830401882
  0.7125808274712710  0.0675143533561240  0.6726113297081753
  0.8815403484177580  0.3548606763308584  0.4327410780600403
  0.5469145565866924  0.0260180677319468  0.4373630929968755
  0.8879099347446413  0.4769269100290146  0.1988465734410809
  0.2386626967364336  0.8663235085658556  0.6311247726039397
  0.0747306059583437  0.8240721197955594  0.3959684054114661
  0.2380306566495207  0.9884745662848786  0.3917602863161420
  0.4215042191515863  0.7894024437427873  0.1492290864975701
  0.0717866745880613  0.9519471563456037  0.1455334018930259
  0.2380618321015220  0.6054501534762267  0.1478641077172256
  0.4016409676491079  0.8935522529380648  0.8981259558747965
  0.0848403526280848  0.5823048261321944  0.8985201622921792
  0.2370690006097789  0.7439634585745623  0.8748498736921562
  0.3987656042573491  0.5219529497698332  0.6201495172412805
  0.0841496644441548  0.7030978527819798  0.6360541278208842
  0.4052707249353489  0.6563256979218721  0.3655830605939911
  0.2166517999322508  0.6899771953326024  0.4333572245330970
  0.0563992602731460  0.6454625852102041  0.1980121585773063
  0.2156450600583284  0.8147413289579362  0.1998853842856008
  0.3725615028912657  0.6148232820138446  0.9154299373813899
  0.0470170481614502  0.7762782384223001  0.9056759318231471
  0.2151418036215773  0.9433530444928167  0.9040772863737629
  0.3737896014245408  0.7380494235175092  0.6775348477250205
  0.0419497401552391  0.9057669110586133  0.6829641579424930
  0.2115953378447983  0.5680221186750316  0.6749703058231873
  0.3812394657027269  0.8536748710843796  0.4346565161915308
  0.0477397797803363  0.5259986512089654  0.4367176985027896
  0.3845593580998283  0.9736905390886221  0.2066596798721463
  0.7395187917132162  0.8664873111798812  0.6306549270266615
  0.5758518090711604  0.8238262040490696  0.3955279481216181
  0.7396015798719660  0.9885557075239575  0.3889162462997362
  0.9209840706335228  0.7870244499279977  0.1492136770389649
  0.5734506617769028  0.9510025701569518  0.1484337997505563
  0.7382655420845836  0.6043486704233771  0.1484580436249274
  0.9022115023479600  0.8984910658111005  0.9008330455644611
  0.5859417320220288  0.5813637939891834  0.8982157888966213
  0.7376838721513934  0.7426980881880283  0.8740002047741342
  0.8988845888651795  0.5222549241773464  0.6203514770029059
  0.5849682232127265  0.7026457689759624  0.6356386524509574
  0.9053003271163149  0.6559523236709381  0.3670628284063682
  0.7174162811570781  0.6901522399622380  0.4332674399953333
  0.5570972629580595  0.6460943814707889  0.1970543804440581
  0.7176781880704795  0.8145216486317750  0.1980453558978112
  0.8723289969231587  0.6144047381818680  0.9167162541018143
  0.5458838231161707  0.7732156685940907  0.9033379431169806
  0.7109798378852688  0.9375761476589162  0.9028362169637631
  0.8742126244659545  0.7402349950242737  0.6795807356048158
  0.5427467541736704  0.9040052885665020  0.6816634414840053
  0.7119986768157531  0.5673705086999163  0.6751856938007066
  0.8813847883653025  0.8545285467113430  0.4317310995576378
  0.5475767670398781  0.5267681643356568  0.4366246277560535
  0.8864386798331552  0.9762928823375603  0.1967442174119540
  0.3642615767843154  0.1186451535546809  0.8872354514811605
 
  0.00000000E+00  0.00000000E+00  0.00000000E+00
  0.00000000E+00  0.00000000E+00  0.00000000E+00
  0.00000000E+00  0.00000000E+00  0.00000000E+00
  0.00000000E+00  0.00000000E+00  0.00000000E+00
  0.00000000E+00  0.00000000E+00  0.00000000E+00
  0.00000000E+00  0.00000000E+00  0.00000000E+00
  0.00000000E+00  0.00000000E+00  0.00000000E+00
  0.00000000E+00  0.00000000E+00  0.00000000E+00
  0.00000000E+00  0.00000000E+00  0.00000000E+00
  0.00000000E+00  0.00000000E+00  0.00000000E+00
  0.00000000E+00  0.00000000E+00  0.00000000E+00
  0.00000000E+00  0.00000000E+00  0.00000000E+00
  0.00000000E+00  0.00000000E+00  0.00000000E+00
  0.00000000E+00  0.00000000E+00  0.00000000E+00
  0.00000000E+00  0.00000000E+00  0.00000000E+00
  0.00000000E+00  0.00000000E+00  0.00000000E+00
  0.00000000E+00  0.00000000E+00  0.00000000E+00
  0.00000000E+00  0.00000000E+00  0.00000000E+00
  0.00000000E+00  0.00000000E+00  0.00000000E+00
  0.00000000E+00  0.00000000E+00  0.00000000E+00
  0.00000000E+00  0.00000000E+00  0.00000000E+00
  0.00000000E+00  0.00000000E+00  0.00000000E+00
  0.00000000E+00  0.00000000E+00  0.00000000E+00
  0.00000000E+00  0.00000000E+00  0.00000000E+00
  0.00000000E+00  0.00000000E+00  0.00000000E+00
  0.00000000E+00  0.00000000E+00  0.00000000E+00
  0.00000000E+00  0.00000000E+00  0.00000000E+00
  0.00000000E+00  0.00000000E+00  0.00000000E+00
  0.00000000E+00  0.00000000E+00  0.00000000E+00
  0.00000000E+00  0.00000000E+00  0.00000000E+00
  0.00000000E+00  0.00000000E+00  0.00000000E+00
  0.00000000E+00  0.00000000E+00  0.00000000E+00
  0.00000000E+00  0.00000000E+00  0.00000000E+00
  0.00000000E+00  0.00000000E+00  0.00000000E+00
  0.00000000E+00  0.00000000E+00  0.00000000E+00
  0.00000000E+00  0.00000000E+00  0.00000000E+00
  0.00000000E+00  0.00000000E+00  0.00000000E+00
  0.00000000E+00  0.00000000E+00  0.00000000E+00
  0.00000000E+00  0.00000000E+00  0.00000000E+00
  0.00000000E+00  0.00000000E+00  0.00000000E+00
  0.00000000E+00  0.00000000E+00  0.00000000E+00
  0.00000000E+00  0.00000000E+00  0.00000000E+00
  0.00000000E+00  0.00000000E+00  0.00000000E+00
  0.00000000E+00  0.00000000E+00  0.00000000E+00
  0.00000000E+00  0.00000000E+00  0.00000000E+00
  0.00000000E+00  0.00000000E+00  0.00000000E+00
  0.00000000E+00  0.00000000E+00  0.00000000E+00
  0.00000000E+00  0.00000000E+00  0.00000000E+00
  0.00000000E+00  0.00000000E+00  0.00000000E+00
  0.00000000E+00  0.00000000E+00  0.00000000E+00
  0.00000000E+00  0.00000000E+00  0.00000000E+00
  0.00000000E+00  0.00000000E+00  0.00000000E+00
  0.00000000E+00  0.00000000E+00  0.00000000E+00
  0.00000000E+00  0.00000000E+00  0.00000000E+00
  0.00000000E+00  0.00000000E+00  0.00000000E+00
  0.00000000E+00  0.00000000E+00  0.00000000E+00
  0.00000000E+00  0.00000000E+00  0.00000000E+00
  0.00000000E+00  0.00000000E+00  0.00000000E+00
  0.00000000E+00  0.00000000E+00  0.00000000E+00
  0.00000000E+00  0.00000000E+00  0.00000000E+00
  0.00000000E+00  0.00000000E+00  0.00000000E+00
  0.00000000E+00  0.00000000E+00  0.00000000E+00
  0.00000000E+00  0.00000000E+00  0.00000000E+00
  0.00000000E+00  0.00000000E+00  0.00000000E+00
  0.00000000E+00  0.00000000E+00  0.00000000E+00
  0.00000000E+00  0.00000000E+00  0.00000000E+00
  0.00000000E+00  0.00000000E+00  0.00000000E+00
  0.00000000E+00  0.00000000E+00  0.00000000E+00
  0.00000000E+00  0.00000000E+00  0.00000000E+00
  0.00000000E+00  0.00000000E+00  0.00000000E+00
  0.00000000E+00  0.00000000E+00  0.00000000E+00
  0.00000000E+00  0.00000000E+00  0.00000000E+00
  0.00000000E+00  0.00000000E+00  0.00000000E+00
  0.00000000E+00  0.00000000E+00  0.00000000E+00
  0.00000000E+00  0.00000000E+00  0.00000000E+00
  0.00000000E+00  0.00000000E+00  0.00000000E+00
  0.00000000E+00  0.00000000E+00  0.00000000E+00
  0.00000000E+00  0.00000000E+00  0.00000000E+00
  0.00000000E+00  0.00000000E+00  0.00000000E+00
  0.00000000E+00  0.00000000E+00  0.00000000E+00
  0.00000000E+00  0.00000000E+00  0.00000000E+00
  0.00000000E+00  0.00000000E+00  0.00000000E+00
  0.00000000E+00  0.00000000E+00  0.00000000E+00
  0.00000000E+00  0.00000000E+00  0.00000000E+00
  0.00000000E+00  0.00000000E+00  0.00000000E+00
  0.00000000E+00  0.00000000E+00  0.00000000E+00
  0.00000000E+00  0.00000000E+00  0.00000000E+00
  0.00000000E+00  0.00000000E+00  0.00000000E+00
  0.00000000E+00  0.00000000E+00  0.00000000E+00
  0.00000000E+00  0.00000000E+00  0.00000000E+00
  0.00000000E+00  0.00000000E+00  0.00000000E+00
  0.00000000E+00  0.00000000E+00  0.00000000E+00
  0.00000000E+00  0.00000000E+00  0.00000000E+00
  0.00000000E+00  0.00000000E+00  0.00000000E+00
  0.00000000E+00  0.00000000E+00  0.00000000E+00
  0.00000000E+00  0.00000000E+00  0.00000000E+00
  0.00000000E+00  0.00000000E+00  0.00000000E+00
  0.00000000E+00  0.00000000E+00  0.00000000E+00
  0.00000000E+00  0.00000000E+00  0.00000000E+00
  0.00000000E+00  0.00000000E+00  0.00000000E+00
  0.00000000E+00  0.00000000E+00  0.00000000E+00
  0.00000000E+00  0.00000000E+00  0.00000000E+00
  0.00000000E+00  0.00000000E+00  0.00000000E+00
  0.00000000E+00  0.00000000E+00  0.00000000E+00
  0.00000000E+00  0.00000000E+00  0.00000000E+00
  0.00000000E+00  0.00000000E+00  0.00000000E+00
  0.00000000E+00  0.00000000E+00  0.00000000E+00
  0.00000000E+00  0.00000000E+00  0.00000000E+00
  0.00000000E+00  0.00000000E+00  0.00000000E+00
  0.00000000E+00  0.00000000E+00  0.00000000E+00
  0.00000000E+00  0.00000000E+00  0.00000000E+00
  0.00000000E+00  0.00000000E+00  0.00000000E+00
  0.00000000E+00  0.00000000E+00  0.00000000E+00
  0.00000000E+00  0.00000000E+00  0.00000000E+00
  0.00000000E+00  0.00000000E+00  0.00000000E+00
  0.00000000E+00  0.00000000E+00  0.00000000E+00
  0.00000000E+00  0.00000000E+00  0.00000000E+00
  0.00000000E+00  0.00000000E+00  0.00000000E+00
  0.00000000E+00  0.00000000E+00  0.00000000E+00
  0.00000000E+00  0.00000000E+00  0.00000000E+00
  0.00000000E+00  0.00000000E+00  0.00000000E+00
  0.00000000E+00  0.00000000E+00  0.00000000E+00
  0.00000000E+00  0.00000000E+00  0.00000000E+00
  0.00000000E+00  0.00000000E+00  0.00000000E+00
  0.00000000E+00  0.00000000E+00  0.00000000E+00
  0.00000000E+00  0.00000000E+00  0.00000000E+00
  0.00000000E+00  0.00000000E+00  0.00000000E+00
  0.00000000E+00  0.00000000E+00  0.00000000E+00
  0.00000000E+00  0.00000000E+00  0.00000000E+00
  0.00000000E+00  0.00000000E+00  0.00000000E+00
  0.00000000E+00  0.00000000E+00  0.00000000E+00
  0.00000000E+00  0.00000000E+00  0.00000000E+00
  0.00000000E+00  0.00000000E+00  0.00000000E+00
  0.00000000E+00  0.00000000E+00  0.00000000E+00
  0.00000000E+00  0.00000000E+00  0.00000000E+00
  0.00000000E+00  0.00000000E+00  0.00000000E+00
  0.00000000E+00  0.00000000E+00  0.00000000E+00
  0.00000000E+00  0.00000000E+00  0.00000000E+00
  0.00000000E+00  0.00000000E+00  0.00000000E+00
  0.00000000E+00  0.00000000E+00  0.00000000E+00
  0.00000000E+00  0.00000000E+00  0.00000000E+00
  0.00000000E+00  0.00000000E+00  0.00000000E+00
  0.00000000E+00  0.00000000E+00  0.00000000E+00
  0.00000000E+00  0.00000000E+00  0.00000000E+00
  0.00000000E+00  0.00000000E+00  0.00000000E+00
  0.00000000E+00  0.00000000E+00  0.00000000E+00
  0.00000000E+00  0.00000000E+00  0.00000000E+00
  0.00000000E+00  0.00000000E+00  0.00000000E+00
  0.00000000E+00  0.00000000E+00  0.00000000E+00
  0.00000000E+00  0.00000000E+00  0.00000000E+00
  0.00000000E+00  0.00000000E+00  0.00000000E+00
  0.00000000E+00  0.00000000E+00  0.00000000E+00
  0.00000000E+00  0.00000000E+00  0.00000000E+00
  0.00000000E+00  0.00000000E+00  0.00000000E+00
  0.00000000E+00  0.00000000E+00  0.00000000E+00
  0.00000000E+00  0.00000000E+00  0.00000000E+00
  0.00000000E+00  0.00000000E+00  0.00000000E+00
  0.00000000E+00  0.00000000E+00  0.00000000E+00
  0.00000000E+00  0.00000000E+00  0.00000000E+00
  0.00000000E+00  0.00000000E+00  0.00000000E+00
  0.00000000E+00  0.00000000E+00  0.00000000E+00
  0.00000000E+00  0.00000000E+00  0.00000000E+00
  0.00000000E+00  0.00000000E+00  0.00000000E+00
  0.00000000E+00  0.00000000E+00  0.00000000E+00
  0.00000000E+00  0.00000000E+00  0.00000000E+00
  0.00000000E+00  0.00000000E+00  0.00000000E+00
  0.00000000E+00  0.00000000E+00  0.00000000E+00
  0.00000000E+00  0.00000000E+00  0.00000000E+00
  0.00000000E+00  0.00000000E+00  0.00000000E+00
  0.00000000E+00  0.00000000E+00  0.00000000E+00
  0.00000000E+00  0.00000000E+00  0.00000000E+00
  0.00000000E+00  0.00000000E+00  0.00000000E+00
  0.00000000E+00  0.00000000E+00  0.00000000E+00
  0.00000000E+00  0.00000000E+00  0.00000000E+00
  0.00000000E+00  0.00000000E+00  0.00000000E+00
  0.00000000E+00  0.00000000E+00  0.00000000E+00
  0.00000000E+00  0.00000000E+00  0.00000000E+00
  0.00000000E+00  0.00000000E+00  0.00000000E+00
  0.00000000E+00  0.00000000E+00  0.00000000E+00
  0.00000000E+00  0.00000000E+00  0.00000000E+00
  0.00000000E+00  0.00000000E+00  0.00000000E+00
  0.00000000E+00  0.00000000E+00  0.00000000E+00
  0.00000000E+00  0.00000000E+00  0.00000000E+00
  0.00000000E+00  0.00000000E+00  0.00000000E+00
  0.00000000E+00  0.00000000E+00  0.00000000E+00
  0.00000000E+00  0.00000000E+00  0.00000000E+00
  0.00000000E+00  0.00000000E+00  0.00000000E+00
  0.00000000E+00  0.00000000E+00  0.00000000E+00
  0.00000000E+00  0.00000000E+00  0.00000000E+00
  0.00000000E+00  0.00000000E+00  0.00000000E+00
  0.00000000E+00  0.00000000E+00  0.00000000E+00
  0.00000000E+00  0.00000000E+00  0.00000000E+00
