supercell of POSCAR                     
   1.07329600000000     
     9.1016125577399993   -5.3128209557800004   -9.4184911254399992
     9.0821131104399999    5.2871675818400004    9.4140884809200003
    -1.5053809694200000   -7.9210976524300012    4.6939078171600004
   Al   Sc   N 
    72    24    95
Direct
  0.3027394869134170  0.2859709943636091  0.5395147992072822
  0.1419251940480635  0.2420218125654543  0.3042733408034337
  0.3084594853428442  0.4069253631535048  0.3027192642980410
  0.4668470080055585  0.3256559900882650  0.7885135388509568
  0.1398920420539795  0.4971253598460308  0.7881938901972418
  0.3000410241202971  0.1630207796376126  0.7815469716705934
  0.4707172980912375  0.4482803023740729  0.5359890734961965
  0.1403585377081455  0.1187583634809357  0.5410519416338460
  0.4786621902528054  0.0728587086877752  0.2932613745763888
  0.2742284517632427  0.1033005144811838  0.3397416489088982
  0.1147821940923137  0.0682405245548026  0.0951288578829619
  0.1138203920992851  0.1967111917751723  0.8245097499071790
  0.2755407096240177  0.3579426261316740  0.8208042107315521
  0.1109686424495422  0.3234633380642791  0.5877099236953285
  0.2724835735192954  0.4850034492641626  0.5790462242944159
  0.4543231245591102  0.2793858853881375  0.3388677683707044
  0.1114945446097622  0.4441921409052654  0.3368520325315814
  0.4480489079501453  0.4008906352916242  0.0956619164781856
  0.8031675536273681  0.2870200833008241  0.5395610839070244
  0.6436073821693000  0.2437096535927665  0.3042033841376437
  0.8085165204933844  0.4084553779314675  0.3022549377713659
  0.9669440030854801  0.3265676428225817  0.7903610776817089
  0.6398610181604099  0.4975301843098308  0.7876275568916071
  0.7994527397248490  0.1633780236058300  0.7821769067926567
  0.9702738769241179  0.4483071869469484  0.5360682189036865
  0.6404916099133828  0.1207972993004063  0.5402479202575563
  0.9755069377075927  0.0731805719512693  0.2952470920485339
  0.7767855551113669  0.1085788031825317  0.3343703189294018
  0.6144874712688804  0.0689334940509809  0.0920277694016463
  0.6125016641772092  0.1970812585521386  0.8219717142533014
  0.7753278775159487  0.3586789517067004  0.8202452901419477
  0.6109552748544758  0.3235231185331386  0.5868681896868466
  0.7726685417300061  0.4855775403456448  0.5788092530514675
  0.9470661780165557  0.2783741307406586  0.3348963441025248
  0.6132682228957904  0.4470729290325934  0.3364151006515783
  0.9478015184512998  0.4018320368538895  0.0945499407261678
  0.3027483415473924  0.7865115638672648  0.5394175134019719
  0.1419366717220427  0.7418031837741594  0.3040503998910040
  0.3070032216169949  0.9074234508816303  0.3028768999487710
  0.4664287255298731  0.8274523053103948  0.7897846922950862
  0.1394555380245563  0.9971437431073724  0.7883556209884972
  0.2999691727248930  0.6629732720934953  0.7825400890336596
  0.4688300897321440  0.9487550687546786  0.5354097353101679
  0.1414580994279220  0.6191822383110406  0.5402271788037751
  0.4759211980028155  0.5731965243290205  0.2948576769314428
  0.2770554906204410  0.6078050546095071  0.3344522972595669
  0.1143942967170872  0.5681733430644229  0.0935271764732377
  0.1135025111255956  0.6967059782878877  0.8238645441906058
  0.2750880214824249  0.8584189879461732  0.8203833826245983
  0.1107244959670481  0.8234722464368005  0.5876832114589448
  0.2720170751220294  0.9852509090232502  0.5785141368653868
  0.4468388909152736  0.7784096143289858  0.3344294466560100
  0.1085326791129191  0.9425023787259619  0.3369381746053506
  0.4471577460261074  0.9024696273019686  0.0938601467335687
  0.8026157914922862  0.7869224907400110  0.5394015462430701
  0.6419199148821093  0.7424648616981457  0.3037061396764713
  0.8075259869795417  0.9081598540677973  0.3024139252250819
  0.9664537947332761  0.8267089732110264  0.7902887170094672
  0.6390550134277433  0.9978588693307344  0.7875125988718423
  0.7997167167192956  0.6633670259001079  0.7824667877305629
  0.9691575656017761  0.9481233217866674  0.5363824506230515
  0.6415061311397494  0.6199857289266433  0.5400438027589516
  0.9761332614995126  0.5731755910364242  0.2951732147609007
  0.7774410957671165  0.6090347562906047  0.3342972211868798
  0.6141633048986606  0.5688759878046525  0.0928995762688700
  0.6131599591463868  0.6972775898557515  0.8233241997308340
  0.7747866275596778  0.8588241082715911  0.8200728777772639
  0.6104924550837652  0.8242299037328209  0.5871842609861844
  0.7717849903094987  0.9857670184654737  0.5789418597866955
  0.9463905342558405  0.7779303898545820  0.3348988336294525
  0.6112964457507530  0.9444188771021444  0.3363847891801441
  0.9468839251135037  0.9018837056800848  0.0944259394846867
  0.4817622213323247  0.1968298066682195  0.0373875594858362
  0.1413764558496382  0.3648590989227003  0.0370133947606064
  0.3093819820401720  0.0243922127550320  0.0376950323887044
  0.2845659589900649  0.2296921509786074  0.0832280678004622
  0.4461899154123330  0.0238126720566427  0.8200991126605075
  0.4410260681833478  0.1534943475681274  0.5586388942527236
  0.9816416818510376  0.1967448675339156  0.0388436059966182
  0.6412177958666874  0.3654155882901833  0.0362982873309150
  0.8092539257550584  0.0248661946892312  0.0380569236946968
  0.7841269575660164  0.2306820504102447  0.0804057458198457
  0.9469373089795710  0.0224437963065611  0.8233392829324586
  0.9443555796127967  0.1525947948484117  0.5740628240968420
  0.4811992176441890  0.6971675201907175  0.0380550637219912
  0.1404672786761338  0.8649580410685402  0.0369628031502103
  0.3099171567633903  0.5241604416270249  0.0385330746174404
  0.2835834155723802  0.7300019225926206  0.0813722005364426
  0.4470318961796451  0.5213230556140829  0.8228847740603626
  0.4446131857017619  0.6525156319179501  0.5737620069101865
  0.9811841050967445  0.6969201464364332  0.0388654769233341
  0.6402724819147707  0.8658552754654636  0.0365009179378930
  0.8095315552996141  0.5250514742264301  0.0385280061497753
  0.7833030451452458  0.7309617326127054  0.0810604943452446
  0.9469784313412575  0.5221777302428876  0.8231462913060099
  0.9446135395522433  0.6527960689921173  0.5741373003395438
  0.2387519967804863  0.3666571147416349  0.6313911481046404
  0.0752023021007915  0.3243567062150703  0.3959453202027490
  0.2399268518418012  0.4882487424014670  0.3894550446442437
  0.4219016409111873  0.2855893030648531  0.1530722693202975
  0.0726319564324527  0.4516408123507674  0.1459452077605121
  0.2392897942059804  0.1040726091254172  0.1523951157121388
  0.4018543809681248  0.3985213551641209  0.9025450727281878
  0.0852486507810042  0.0816830527446726  0.9000552402914579
  0.2369271111477360  0.2432657840936088  0.8760795044273806
  0.3978940490364593  0.0230966263952652  0.6179536330834523
  0.0835113928321576  0.2029686077295736  0.6365948394082537
  0.2156555950449572  0.1898551557827446  0.4344198308696718
  0.0566223374048249  0.1455892900150815  0.1985920282213485
  0.2171391567837020  0.3149205381018305  0.1994105307575822
  0.3711675573848296  0.1150096707541834  0.9162489864567220
  0.0447634413363431  0.2739574819874449  0.9044645614686786
  0.2106861342810546  0.4387313132563264  0.9041051206487936
  0.3732173648317740  0.2399030213746229  0.6785434087862612
  0.0415557783650016  0.4056170432176032  0.6832724697865800
  0.2109192061116900  0.0675994041262271  0.6751526184516266
  0.3824802451746478  0.3529839575662237  0.4327038216817130
  0.0464437662961288  0.0256374797310954  0.4371791617003922
  0.3877033160834529  0.4758562529560990  0.1990076275967567
  0.7389388902628298  0.3673915065923836  0.6315920957623220
  0.5806001550294155  0.3290780687473074  0.3952930571061088
  0.7410136804831282  0.4903345175222853  0.3892901331550789
  0.9210492133990513  0.2871114853893388  0.1494656580196505
  0.5726476326039247  0.4523998792665651  0.1455780946208378
  0.7377339656386752  0.1050093057654209  0.1483900810316285
  0.9017086694469825  0.3993866371078099  0.9019404730430765
  0.5843060537291791  0.0822262214282645  0.8983141581328766
  0.7359024381931292  0.2437343484186911  0.8742444491031947
  0.8979509107788104  0.0222243866695351  0.6207809304219083
  0.5818443901882731  0.2032786292025506  0.6348589928487911
  0.9048173496932819  0.1560573551362054  0.3671878860214690
  0.7168850363185229  0.1907788472731511  0.4335543255330379
  0.5571260918767678  0.1470715675911833  0.1975277391436805
  0.7179403417783377  0.3160628417177165  0.1979120259067031
  0.8715150489260139  0.1148838500302887  0.9156854715137115
  0.5445983759738908  0.2744798875777121  0.9042113205297255
  0.7106258878495026  0.4394672936745749  0.9039349258180067
  0.8731145393998290  0.2407940177706962  0.6798455385028888
  0.5415871152754761  0.4060134832991054  0.6831600767048016
  0.7107253340212765  0.0684429772551169  0.6743613405045821
  0.8814888118558528  0.3548528061897187  0.4323105484088856
  0.5470477745468543  0.0266158026632510  0.4369398846400045
  0.8878121292816203  0.4769535958357167  0.1981382217520391
  0.2383661610921948  0.8668160097149240  0.6316752488147657
  0.0739785005807576  0.8230875009300718  0.3959450385163734
  0.2351972371255542  0.9841623060711555  0.3893791244771663
  0.4204806968257984  0.7878814190618684  0.1489710895691445
  0.0716033538552523  0.9515784877256266  0.1460775178837110
  0.2380226550768469  0.6040575953424607  0.1485796002584223
  0.4013369564873912  0.9008411867683250  0.9014191785416301
  0.0850929414082842  0.5815785469241135  0.8987014699270972
  0.2366822181437769  0.7434666294374424  0.8751260625646111
  0.3986914515595643  0.5217511981087881  0.6198589355606501
  0.0838698036951442  0.7029010485543239  0.6360277159124408
  0.4050149389724922  0.6559772061036000  0.3667636486265025
  0.2168498753080286  0.6900203331214954  0.4334803868797366
  0.0565420482896215  0.6456178776807278  0.1978061465292456
  0.2166170923195452  0.8148769757641006  0.1982617584150290
  0.3718654001195816  0.6140753889036432  0.9155502388965076
  0.0442751925371709  0.7738444240456701  0.9039785438711547
  0.2099624991334537  0.9386932157823580  0.9043686265661677
  0.3731024627126445  0.7407651421393879  0.6798407466724115
  0.0409449487032205  0.9057533828797020  0.6833521129341236
  0.2116154634129117  0.5676736034421168  0.6749035400303498
  0.3809374952359192  0.8544455274965230  0.4318614443661488
  0.0477942095701636  0.5258834241173318  0.4367891633096619
  0.3872922609648413  0.9782012434967200  0.1997368727834612
  0.7381363784995330  0.8674198470070991  0.6310967608541631
  0.5749154495391053  0.8248361869521830  0.3952975929514011
  0.7391338639287213  0.9892230617964302  0.3892788772293372
  0.9202370427374333  0.7871869692173092  0.1494857677143955
  0.5716887055797955  0.9530474371868038  0.1461240417585898
  0.7377345865937386  0.6052386478612846  0.1484384984413296
  0.9010860366378850  0.8997290336334345  0.9018088892521874
  0.5847612490743685  0.5821187848491505  0.8980880660229857
  0.7362485429870489  0.7439368912373894  0.8746877672987452
  0.8989094182273760  0.5223143883834283  0.6205059714419576
  0.5836823917190017  0.7036677132913240  0.6354337129093608
  0.9051513413842116  0.6559200890126462  0.3672024150963793
  0.7167476739035479  0.6908245345709432  0.4331796281264602
  0.5562299513747320  0.6461510615636570  0.1976267905040743
  0.7162301739489436  0.8161311162355247  0.1984894968951494
  0.8716665709537565  0.6146960153933705  0.9155352933328516
  0.5442204894098097  0.7746302126657980  0.9037195056800513
  0.7097959543099392  0.9394531801086785  0.9037108258899380
  0.8728164511845051  0.7409564126269572  0.6797050718984181
  0.5408040743501914  0.9063652214088620  0.6823804435511818
  0.7114900840878988  0.5682449032150316  0.6745421153892579
  0.8807548083805017  0.8546584901855567  0.4321220636839200
  0.5477862407461487  0.5267528731487587  0.4367778290656545
  0.8868847881961059  0.9768503936421098  0.1983914960481670
 
  0.00000000E+00  0.00000000E+00  0.00000000E+00
  0.00000000E+00  0.00000000E+00  0.00000000E+00
  0.00000000E+00  0.00000000E+00  0.00000000E+00
  0.00000000E+00  0.00000000E+00  0.00000000E+00
  0.00000000E+00  0.00000000E+00  0.00000000E+00
  0.00000000E+00  0.00000000E+00  0.00000000E+00
  0.00000000E+00  0.00000000E+00  0.00000000E+00
  0.00000000E+00  0.00000000E+00  0.00000000E+00
  0.00000000E+00  0.00000000E+00  0.00000000E+00
  0.00000000E+00  0.00000000E+00  0.00000000E+00
  0.00000000E+00  0.00000000E+00  0.00000000E+00
  0.00000000E+00  0.00000000E+00  0.00000000E+00
  0.00000000E+00  0.00000000E+00  0.00000000E+00
  0.00000000E+00  0.00000000E+00  0.00000000E+00
  0.00000000E+00  0.00000000E+00  0.00000000E+00
  0.00000000E+00  0.00000000E+00  0.00000000E+00
  0.00000000E+00  0.00000000E+00  0.00000000E+00
  0.00000000E+00  0.00000000E+00  0.00000000E+00
  0.00000000E+00  0.00000000E+00  0.00000000E+00
  0.00000000E+00  0.00000000E+00  0.00000000E+00
  0.00000000E+00  0.00000000E+00  0.00000000E+00
  0.00000000E+00  0.00000000E+00  0.00000000E+00
  0.00000000E+00  0.00000000E+00  0.00000000E+00
  0.00000000E+00  0.00000000E+00  0.00000000E+00
  0.00000000E+00  0.00000000E+00  0.00000000E+00
  0.00000000E+00  0.00000000E+00  0.00000000E+00
  0.00000000E+00  0.00000000E+00  0.00000000E+00
  0.00000000E+00  0.00000000E+00  0.00000000E+00
  0.00000000E+00  0.00000000E+00  0.00000000E+00
  0.00000000E+00  0.00000000E+00  0.00000000E+00
  0.00000000E+00  0.00000000E+00  0.00000000E+00
  0.00000000E+00  0.00000000E+00  0.00000000E+00
  0.00000000E+00  0.00000000E+00  0.00000000E+00
  0.00000000E+00  0.00000000E+00  0.00000000E+00
  0.00000000E+00  0.00000000E+00  0.00000000E+00
  0.00000000E+00  0.00000000E+00  0.00000000E+00
  0.00000000E+00  0.00000000E+00  0.00000000E+00
  0.00000000E+00  0.00000000E+00  0.00000000E+00
  0.00000000E+00  0.00000000E+00  0.00000000E+00
  0.00000000E+00  0.00000000E+00  0.00000000E+00
  0.00000000E+00  0.00000000E+00  0.00000000E+00
  0.00000000E+00  0.00000000E+00  0.00000000E+00
  0.00000000E+00  0.00000000E+00  0.00000000E+00
  0.00000000E+00  0.00000000E+00  0.00000000E+00
  0.00000000E+00  0.00000000E+00  0.00000000E+00
  0.00000000E+00  0.00000000E+00  0.00000000E+00
  0.00000000E+00  0.00000000E+00  0.00000000E+00
  0.00000000E+00  0.00000000E+00  0.00000000E+00
  0.00000000E+00  0.00000000E+00  0.00000000E+00
  0.00000000E+00  0.00000000E+00  0.00000000E+00
  0.00000000E+00  0.00000000E+00  0.00000000E+00
  0.00000000E+00  0.00000000E+00  0.00000000E+00
  0.00000000E+00  0.00000000E+00  0.00000000E+00
  0.00000000E+00  0.00000000E+00  0.00000000E+00
  0.00000000E+00  0.00000000E+00  0.00000000E+00
  0.00000000E+00  0.00000000E+00  0.00000000E+00
  0.00000000E+00  0.00000000E+00  0.00000000E+00
  0.00000000E+00  0.00000000E+00  0.00000000E+00
  0.00000000E+00  0.00000000E+00  0.00000000E+00
  0.00000000E+00  0.00000000E+00  0.00000000E+00
  0.00000000E+00  0.00000000E+00  0.00000000E+00
  0.00000000E+00  0.00000000E+00  0.00000000E+00
  0.00000000E+00  0.00000000E+00  0.00000000E+00
  0.00000000E+00  0.00000000E+00  0.00000000E+00
  0.00000000E+00  0.00000000E+00  0.00000000E+00
  0.00000000E+00  0.00000000E+00  0.00000000E+00
  0.00000000E+00  0.00000000E+00  0.00000000E+00
  0.00000000E+00  0.00000000E+00  0.00000000E+00
  0.00000000E+00  0.00000000E+00  0.00000000E+00
  0.00000000E+00  0.00000000E+00  0.00000000E+00
  0.00000000E+00  0.00000000E+00  0.00000000E+00
  0.00000000E+00  0.00000000E+00  0.00000000E+00
  0.00000000E+00  0.00000000E+00  0.00000000E+00
  0.00000000E+00  0.00000000E+00  0.00000000E+00
  0.00000000E+00  0.00000000E+00  0.00000000E+00
  0.00000000E+00  0.00000000E+00  0.00000000E+00
  0.00000000E+00  0.00000000E+00  0.00000000E+00
  0.00000000E+00  0.00000000E+00  0.00000000E+00
  0.00000000E+00  0.00000000E+00  0.00000000E+00
  0.00000000E+00  0.00000000E+00  0.00000000E+00
  0.00000000E+00  0.00000000E+00  0.00000000E+00
  0.00000000E+00  0.00000000E+00  0.00000000E+00
  0.00000000E+00  0.00000000E+00  0.00000000E+00
  0.00000000E+00  0.00000000E+00  0.00000000E+00
  0.00000000E+00  0.00000000E+00  0.00000000E+00
  0.00000000E+00  0.00000000E+00  0.00000000E+00
  0.00000000E+00  0.00000000E+00  0.00000000E+00
  0.00000000E+00  0.00000000E+00  0.00000000E+00
  0.00000000E+00  0.00000000E+00  0.00000000E+00
  0.00000000E+00  0.00000000E+00  0.00000000E+00
  0.00000000E+00  0.00000000E+00  0.00000000E+00
  0.00000000E+00  0.00000000E+00  0.00000000E+00
  0.00000000E+00  0.00000000E+00  0.00000000E+00
  0.00000000E+00  0.00000000E+00  0.00000000E+00
  0.00000000E+00  0.00000000E+00  0.00000000E+00
  0.00000000E+00  0.00000000E+00  0.00000000E+00
  0.00000000E+00  0.00000000E+00  0.00000000E+00
  0.00000000E+00  0.00000000E+00  0.00000000E+00
  0.00000000E+00  0.00000000E+00  0.00000000E+00
  0.00000000E+00  0.00000000E+00  0.00000000E+00
  0.00000000E+00  0.00000000E+00  0.00000000E+00
  0.00000000E+00  0.00000000E+00  0.00000000E+00
  0.00000000E+00  0.00000000E+00  0.00000000E+00
  0.00000000E+00  0.00000000E+00  0.00000000E+00
  0.00000000E+00  0.00000000E+00  0.00000000E+00
  0.00000000E+00  0.00000000E+00  0.00000000E+00
  0.00000000E+00  0.00000000E+00  0.00000000E+00
  0.00000000E+00  0.00000000E+00  0.00000000E+00
  0.00000000E+00  0.00000000E+00  0.00000000E+00
  0.00000000E+00  0.00000000E+00  0.00000000E+00
  0.00000000E+00  0.00000000E+00  0.00000000E+00
  0.00000000E+00  0.00000000E+00  0.00000000E+00
  0.00000000E+00  0.00000000E+00  0.00000000E+00
  0.00000000E+00  0.00000000E+00  0.00000000E+00
  0.00000000E+00  0.00000000E+00  0.00000000E+00
  0.00000000E+00  0.00000000E+00  0.00000000E+00
  0.00000000E+00  0.00000000E+00  0.00000000E+00
  0.00000000E+00  0.00000000E+00  0.00000000E+00
  0.00000000E+00  0.00000000E+00  0.00000000E+00
  0.00000000E+00  0.00000000E+00  0.00000000E+00
  0.00000000E+00  0.00000000E+00  0.00000000E+00
  0.00000000E+00  0.00000000E+00  0.00000000E+00
  0.00000000E+00  0.00000000E+00  0.00000000E+00
  0.00000000E+00  0.00000000E+00  0.00000000E+00
  0.00000000E+00  0.00000000E+00  0.00000000E+00
  0.00000000E+00  0.00000000E+00  0.00000000E+00
  0.00000000E+00  0.00000000E+00  0.00000000E+00
  0.00000000E+00  0.00000000E+00  0.00000000E+00
  0.00000000E+00  0.00000000E+00  0.00000000E+00
  0.00000000E+00  0.00000000E+00  0.00000000E+00
  0.00000000E+00  0.00000000E+00  0.00000000E+00
  0.00000000E+00  0.00000000E+00  0.00000000E+00
  0.00000000E+00  0.00000000E+00  0.00000000E+00
  0.00000000E+00  0.00000000E+00  0.00000000E+00
  0.00000000E+00  0.00000000E+00  0.00000000E+00
  0.00000000E+00  0.00000000E+00  0.00000000E+00
  0.00000000E+00  0.00000000E+00  0.00000000E+00
  0.00000000E+00  0.00000000E+00  0.00000000E+00
  0.00000000E+00  0.00000000E+00  0.00000000E+00
  0.00000000E+00  0.00000000E+00  0.00000000E+00
  0.00000000E+00  0.00000000E+00  0.00000000E+00
  0.00000000E+00  0.00000000E+00  0.00000000E+00
  0.00000000E+00  0.00000000E+00  0.00000000E+00
  0.00000000E+00  0.00000000E+00  0.00000000E+00
  0.00000000E+00  0.00000000E+00  0.00000000E+00
  0.00000000E+00  0.00000000E+00  0.00000000E+00
  0.00000000E+00  0.00000000E+00  0.00000000E+00
  0.00000000E+00  0.00000000E+00  0.00000000E+00
  0.00000000E+00  0.00000000E+00  0.00000000E+00
  0.00000000E+00  0.00000000E+00  0.00000000E+00
  0.00000000E+00  0.00000000E+00  0.00000000E+00
  0.00000000E+00  0.00000000E+00  0.00000000E+00
  0.00000000E+00  0.00000000E+00  0.00000000E+00
  0.00000000E+00  0.00000000E+00  0.00000000E+00
  0.00000000E+00  0.00000000E+00  0.00000000E+00
  0.00000000E+00  0.00000000E+00  0.00000000E+00
  0.00000000E+00  0.00000000E+00  0.00000000E+00
  0.00000000E+00  0.00000000E+00  0.00000000E+00
  0.00000000E+00  0.00000000E+00  0.00000000E+00
  0.00000000E+00  0.00000000E+00  0.00000000E+00
  0.00000000E+00  0.00000000E+00  0.00000000E+00
  0.00000000E+00  0.00000000E+00  0.00000000E+00
  0.00000000E+00  0.00000000E+00  0.00000000E+00
  0.00000000E+00  0.00000000E+00  0.00000000E+00
  0.00000000E+00  0.00000000E+00  0.00000000E+00
  0.00000000E+00  0.00000000E+00  0.00000000E+00
  0.00000000E+00  0.00000000E+00  0.00000000E+00
  0.00000000E+00  0.00000000E+00  0.00000000E+00
  0.00000000E+00  0.00000000E+00  0.00000000E+00
  0.00000000E+00  0.00000000E+00  0.00000000E+00
  0.00000000E+00  0.00000000E+00  0.00000000E+00
  0.00000000E+00  0.00000000E+00  0.00000000E+00
  0.00000000E+00  0.00000000E+00  0.00000000E+00
  0.00000000E+00  0.00000000E+00  0.00000000E+00
  0.00000000E+00  0.00000000E+00  0.00000000E+00
  0.00000000E+00  0.00000000E+00  0.00000000E+00
  0.00000000E+00  0.00000000E+00  0.00000000E+00
  0.00000000E+00  0.00000000E+00  0.00000000E+00
  0.00000000E+00  0.00000000E+00  0.00000000E+00
  0.00000000E+00  0.00000000E+00  0.00000000E+00
  0.00000000E+00  0.00000000E+00  0.00000000E+00
  0.00000000E+00  0.00000000E+00  0.00000000E+00
  0.00000000E+00  0.00000000E+00  0.00000000E+00
  0.00000000E+00  0.00000000E+00  0.00000000E+00
  0.00000000E+00  0.00000000E+00  0.00000000E+00
  0.00000000E+00  0.00000000E+00  0.00000000E+00
  0.00000000E+00  0.00000000E+00  0.00000000E+00
  0.00000000E+00  0.00000000E+00  0.00000000E+00
  0.00000000E+00  0.00000000E+00  0.00000000E+00
  0.00000000E+00  0.00000000E+00  0.00000000E+00
  0.00000000E+00  0.00000000E+00  0.00000000E+00
