supercell of POSCAR                     
   1.07329600000000     
     9.1016125577399993   -5.3128209557800004   -9.4184911254399992
     9.0821131104399999    5.2871675818400004    9.4140884809200003
    -1.5053809694200000   -7.9210976524300012    4.6939078171600004
   Al   Sc   N 
    71    24    96
Direct
  0.3008661157728341  0.2843569290463819  0.5398883472810923
  0.1405886786948969  0.2417249576713729  0.3046831536648256
  0.3078303204825303  0.4073893006358844  0.2982379315039267
  0.4660807659229462  0.3269734168728107  0.7923783373171815
  0.1402706561637430  0.4969157273592586  0.7861748095504879
  0.3000097919429905  0.1640044287028246  0.7864105589108590
  0.4738759461889828  0.4457517358348326  0.5325347843844526
  0.1404318220691394  0.1184905868924204  0.5408947236894619
  0.4733212595209437  0.0735612427814516  0.2970024477013808
  0.2744166502033281  0.1050022897008631  0.3361087095653659
  0.1125183412933524  0.0674792752753106  0.0938027162530872
  0.1131021864778816  0.1964344304681163  0.8242866141294272
  0.2756908709892727  0.3579544457773238  0.8202805718348785
  0.1098056291968419  0.3230137420895005  0.5877006613202198
  0.2734357693054932  0.4833573302960801  0.5755098467532989
  0.1115881866319768  0.4435200966348560  0.3351883968253517
  0.4463142742008586  0.4029322469176222  0.0947490451173465
  0.8021210068934010  0.2867144146359877  0.5404615675727413
  0.6387410159425571  0.2457530514855577  0.3090962943464035
  0.8069745322195914  0.4082674725091238  0.3025137673412246
  0.9661410932764483  0.3260637441614378  0.7902754045604254
  0.6405893124315227  0.4973789673737841  0.7887755626624369
  0.7990348891805752  0.1629711163697039  0.7828444948710782
  0.9698670461111121  0.4479880044193223  0.5350190535586350
  0.6409675369065511  0.1199234351644307  0.5402996908752371
  0.9748352440804453  0.0726256114655399  0.2949297792739429
  0.7757623201450059  0.1086375068671899  0.3346962366377753
  0.6129118955179607  0.0700696352166048  0.0948025528202479
  0.6122384983788365  0.1968739294955668  0.8250152976874574
  0.7756900721028117  0.3584758529336440  0.8237516205627600
  0.6135869962416507  0.3248314869905471  0.5889136028141309
  0.7728496694851543  0.4847849990860738  0.5782447497286114
  0.9459320367334243  0.2780281541007028  0.3351549762709212
  0.6126666142202737  0.4447470983278805  0.3381644375487269
  0.9475120290169698  0.4015840775619708  0.0950223334708582
  0.3039643772057659  0.7866803761060481  0.5381531489747715
  0.1426172012559519  0.7418209900310444  0.3028212795772518
  0.3078177443703751  0.9084626325873231  0.3022647380982093
  0.4676879277543478  0.8272571587769093  0.7878307214049514
  0.1401747482765643  0.9970088612710768  0.7882577302023819
  0.3009471794826339  0.6628830915157522  0.7801083341844830
  0.4699945382955235  0.9500752425442300  0.5368769125120494
  0.1425699202615434  0.6185782493872196  0.5384357100556656
  0.4765399139635917  0.5738758946716018  0.2938634034834848
  0.2776819260453536  0.6080270378673092  0.3321237856536499
  0.1149624315021143  0.5680061417185627  0.0921012929687066
  0.1145619034132963  0.6965930684452530  0.8226209158763069
  0.2765089364402016  0.8588120971658668  0.8199769786201685
  0.1119707367079030  0.8232211199654955  0.5866025602616318
  0.2734463665083808  0.9856567333772048  0.5794497476797176
  0.4477152163451095  0.7790834809543412  0.3336768803280066
  0.1099532821547058  0.9429592410830168  0.3368199010965043
  0.4478239326960889  0.9011906011234174  0.0922718632145774
  0.8036364477529432  0.7865334755285787  0.5385499077376323
  0.6426597268682883  0.7426020793428449  0.3030023186553734
  0.8076925777475381  0.9078614158471012  0.3017110017252520
  0.9676368437811007  0.8262479020597979  0.7891774635630995
  0.6397138376304525  0.9971519673505540  0.7873544886783037
  0.8007411966700175  0.6626032184812161  0.7812859898081683
  0.9698966812415861  0.9476008623938483  0.5357004259404832
  0.6424502137808474  0.6195273027316688  0.5391006791325523
  0.9764997193764131  0.5728219626955138  0.2942640703476229
  0.7783645826279511  0.6092053183667758  0.3339795205800868
  0.6149767704450255  0.5688427320262761  0.0934799824937045
  0.6145740524594885  0.6973248217903389  0.8225707894603715
  0.7758531830001942  0.8582928103241514  0.8192031076654160
  0.6113931391046705  0.8239660197539393  0.5861162788141030
  0.7721978153957920  0.9852195950489957  0.5782031345436351
  0.9473298917303197  0.7778474418879782  0.3337663725141411
  0.6109237862393471  0.9450682054498500  0.3364828827844306
  0.9468298570124105  0.9011419613809508  0.0935285124724246
  0.4772102048487170  0.2016972068518896  0.0493295713597490
  0.1408992696045956  0.3646423558244578  0.0352920416161737
  0.3088514836305549  0.0253371590061562  0.0412752783829120
  0.2823552105474363  0.2301154773895249  0.0872829632244105
  0.4469087889875070  0.0255338909201583  0.8265762118223421
  0.4438417224299727  0.1555990696088756  0.5697544534831067
  0.9803681577930092  0.1969374874707199  0.0388210775502529
  0.6390031937152614  0.3651564297193346  0.0379718377649993
  0.8086191362808037  0.0251009253454768  0.0382256935575853
  0.7821676225444847  0.2307629534314373  0.0830650512645477
  0.9464578011293270  0.0219057260844266  0.8228446388584629
  0.9435756500284214  0.1519495219087759  0.5738457303458944
  0.4825789236580391  0.6965086962064717  0.0362212572680392
  0.1412359345656853  0.8653975807497147  0.0367087416237197
  0.3105584190037547  0.5246639237102926  0.0344088690569890
  0.2848444255106131  0.7306339258466465  0.0800480255976410
  0.4488703605180433  0.5225009683483464  0.8187425010776437
  0.4460852945300928  0.6519017231315303  0.5712727204815025
  0.9819845411922685  0.6963949936846774  0.0373671081717646
  0.6409879729380918  0.8660101457751281  0.0360582463548411
  0.8098832615049076  0.5245836492149110  0.0388758754229244
  0.7838383128250399  0.7305060801576033  0.0797891052954895
  0.9472864174079234  0.5211897396614589  0.8220421928159212
  0.9458477502939289  0.6523225162999253  0.5727655414809476
  0.2363416573447168  0.3666201248759791  0.6316508276613106
  0.0736007741934728  0.3242136212370852  0.3963189253441541
  0.2386705547459371  0.4897563742642674  0.3871807993914373
  0.4114534532217107  0.2900348330924842  0.1338784355597724
  0.0721042569325334  0.4518135964823671  0.1447796709749056
  0.2343758895672252  0.1012824044791358  0.1503254656800550
  0.4011371616806656  0.4036902318569631  0.8987673883620246
  0.0840253297956792  0.0807122498665933  0.8982106506477123
  0.2350584001695708  0.2440940551820034  0.8768620355258179
  0.3991347971801176  0.0225773955247561  0.6241940318807622
  0.0823614241062529  0.2023127145176886  0.6361986565218629
  0.3965320891698383  0.1387983906693009  0.3732747955446669
  0.2138817296769275  0.1891593769145317  0.4337895168764234
  0.0545723549043373  0.1451739576947659  0.1977481650350512
  0.2129418001835219  0.3166811890485022  0.2005767747849845
  0.3707649441143630  0.1144350408200765  0.9190709210707482
  0.0435490440791071  0.2733869063235872  0.9040133541606679
  0.2099352883779275  0.4389898806968517  0.9031473300743045
  0.3712932275523571  0.2419359465684181  0.6825591452888560
  0.0404698132929795  0.4056296885512012  0.6832498907331015
  0.2113016266245253  0.0679954042390634  0.6758312529518165
  0.3721816698554505  0.3642831532456299  0.4441122067976622
  0.0463985532100608  0.0251600139596562  0.4364703178650373
  0.3868626791012133  0.4796343546427053  0.1976048953457337
  0.7425137812769123  0.3684429806612926  0.6376216512707913
  0.5922210596980477  0.3346762261208553  0.4068621487677362
  0.7424029169802111  0.4921619242604081  0.3893447196175330
  0.9199373795590589  0.2869981444118324  0.1498667063856587
  0.5721219641101811  0.4536810279540191  0.1462989914247785
  0.7373930555701236  0.1041335288559537  0.1486712475586316
  0.9020836467386388  0.3993717455651975  0.9032772093636510
  0.5866837540908918  0.0806781403806056  0.8980666010444907
  0.7364790918474071  0.2432334049233802  0.8763442121582159
  0.8984805352206209  0.0211762202585248  0.6199659000189328
  0.5854107522966459  0.2040034992853208  0.6371314162160857
  0.9043241199520224  0.1554724706506931  0.3670456942045845
  0.7171791308258904  0.1902604937468340  0.4341355653334062
  0.5563405652200615  0.1461613626786686  0.2012424827251920
  0.7167184889336227  0.3162519036161981  0.1980278736396315
  0.8716262160381234  0.1138608295907559  0.9151036232591920
  0.5433472509634427  0.2732594512960560  0.9060956003267293
  0.7104678717711721  0.4392033504269435  0.9064359360499026
  0.8730547743368788  0.2399928736376893  0.6802144654537443
  0.5420530888359281  0.4069243751265574  0.6862492311968893
  0.7119488578997561  0.0674611263152514  0.6743330650546611
  0.8805791511000010  0.3545992527059525  0.4325133796228329
  0.5486653225973797  0.0251880732064649  0.4369731130809100
  0.8877906834446634  0.4766631745778298  0.1987448103574678
  0.2392165384605818  0.8665366482211994  0.6310094831660180
  0.0746887742854696  0.8230141788177221  0.3949706158646578
  0.2359909183641875  0.9851041103392859  0.3904313281071410
  0.4218869929277176  0.7862119556566753  0.1476381450131470
  0.0708216120469345  0.9505702080436933  0.1456242388370654
  0.2383985099231012  0.6047595758951303  0.1460774589776506
  0.4027666023923615  0.8989549692853345  0.8993017282762494
  0.0851823542211392  0.5816009590087603  0.8971428476289418
  0.2375730960350282  0.7432395281152537  0.8733820708996021
  0.3993855580817254  0.5218067759427072  0.6166120384464335
  0.0849644118742532  0.7025876416305010  0.6347283779188757
  0.4054080462001366  0.6569884319888004  0.3658580130087756
  0.2174338299645839  0.6903554509052867  0.4320470949134290
  0.0569516295297561  0.6453439042974480  0.1968091203175533
  0.2169634359640185  0.8147847329525106  0.1976444597850389
  0.3730118751269913  0.6149769518801804  0.9127781419023293
  0.0453958067407854  0.7736186001256371  0.9031505997911324
  0.2107815876454922  0.9383842229804742  0.9037982560591047
  0.3742633619333731  0.7401971842197312  0.6774970133994245
  0.0419000249607819  0.9049876589762178  0.6820984286808809
  0.2123328935533024  0.5672108934156270  0.6731043886959398
  0.3819206772780177  0.8552860502245281  0.4316674005727634
  0.0477140661807951  0.5256702289818449  0.4360686995874445
  0.3871555941393581  0.9735732200115166  0.1954295635244634
  0.7393968915358897  0.8667343985603821  0.6301980654964723
  0.5759772181453968  0.8242718257305341  0.3942990734653407
  0.7397952364044968  0.9884527471068978  0.3886634339886115
  0.9207660933099646  0.7863424127170902  0.1482575630132601
  0.5725901608354391  0.9518325289555349  0.1449475518749352
  0.7388064890640322  0.6055582633584677  0.1482349344329137
  0.9022054089285092  0.8985135493577658  0.9005989973061261
  0.5866335833263676  0.5831430364105046  0.8988923189999767
  0.7378223515116247  0.7433928063555157  0.8732282809937644
  0.8994916055950881  0.5227066562009952  0.6198829213118557
  0.5851878390936136  0.7034680361991121  0.6348901594883856
  0.9062512623325318  0.6562201538633019  0.3663102082812344
  0.7177785572526147  0.6910348049222037  0.4326034866938144
  0.5574166449532072  0.6467946808075737  0.1972312811421517
  0.7173385261424343  0.8155727917653834  0.1973806841300316
  0.8723248915813002  0.6139304114239081  0.9148410564320031
  0.5456591347434312  0.7745772316656030  0.9024709735812593
  0.7112777866824587  0.9384249832689164  0.9027070733201299
  0.8740655679702769  0.7403144133317454  0.6785524921593833
  0.5426940200534816  0.9049664416126575  0.6809624414552999
  0.7121401793513158  0.5678214501864787  0.6744781872761152
  0.8815573700442911  0.8542775278435428  0.4310000451997453
  0.5482980864235287  0.5281413843406710  0.4362430876230476
  0.8867743580520155  0.9760897887736562  0.1972005318617320
 
  0.00000000E+00  0.00000000E+00  0.00000000E+00
  0.00000000E+00  0.00000000E+00  0.00000000E+00
  0.00000000E+00  0.00000000E+00  0.00000000E+00
  0.00000000E+00  0.00000000E+00  0.00000000E+00
  0.00000000E+00  0.00000000E+00  0.00000000E+00
  0.00000000E+00  0.00000000E+00  0.00000000E+00
  0.00000000E+00  0.00000000E+00  0.00000000E+00
  0.00000000E+00  0.00000000E+00  0.00000000E+00
  0.00000000E+00  0.00000000E+00  0.00000000E+00
  0.00000000E+00  0.00000000E+00  0.00000000E+00
  0.00000000E+00  0.00000000E+00  0.00000000E+00
  0.00000000E+00  0.00000000E+00  0.00000000E+00
  0.00000000E+00  0.00000000E+00  0.00000000E+00
  0.00000000E+00  0.00000000E+00  0.00000000E+00
  0.00000000E+00  0.00000000E+00  0.00000000E+00
  0.00000000E+00  0.00000000E+00  0.00000000E+00
  0.00000000E+00  0.00000000E+00  0.00000000E+00
  0.00000000E+00  0.00000000E+00  0.00000000E+00
  0.00000000E+00  0.00000000E+00  0.00000000E+00
  0.00000000E+00  0.00000000E+00  0.00000000E+00
  0.00000000E+00  0.00000000E+00  0.00000000E+00
  0.00000000E+00  0.00000000E+00  0.00000000E+00
  0.00000000E+00  0.00000000E+00  0.00000000E+00
  0.00000000E+00  0.00000000E+00  0.00000000E+00
  0.00000000E+00  0.00000000E+00  0.00000000E+00
  0.00000000E+00  0.00000000E+00  0.00000000E+00
  0.00000000E+00  0.00000000E+00  0.00000000E+00
  0.00000000E+00  0.00000000E+00  0.00000000E+00
  0.00000000E+00  0.00000000E+00  0.00000000E+00
  0.00000000E+00  0.00000000E+00  0.00000000E+00
  0.00000000E+00  0.00000000E+00  0.00000000E+00
  0.00000000E+00  0.00000000E+00  0.00000000E+00
  0.00000000E+00  0.00000000E+00  0.00000000E+00
  0.00000000E+00  0.00000000E+00  0.00000000E+00
  0.00000000E+00  0.00000000E+00  0.00000000E+00
  0.00000000E+00  0.00000000E+00  0.00000000E+00
  0.00000000E+00  0.00000000E+00  0.00000000E+00
  0.00000000E+00  0.00000000E+00  0.00000000E+00
  0.00000000E+00  0.00000000E+00  0.00000000E+00
  0.00000000E+00  0.00000000E+00  0.00000000E+00
  0.00000000E+00  0.00000000E+00  0.00000000E+00
  0.00000000E+00  0.00000000E+00  0.00000000E+00
  0.00000000E+00  0.00000000E+00  0.00000000E+00
  0.00000000E+00  0.00000000E+00  0.00000000E+00
  0.00000000E+00  0.00000000E+00  0.00000000E+00
  0.00000000E+00  0.00000000E+00  0.00000000E+00
  0.00000000E+00  0.00000000E+00  0.00000000E+00
  0.00000000E+00  0.00000000E+00  0.00000000E+00
  0.00000000E+00  0.00000000E+00  0.00000000E+00
  0.00000000E+00  0.00000000E+00  0.00000000E+00
  0.00000000E+00  0.00000000E+00  0.00000000E+00
  0.00000000E+00  0.00000000E+00  0.00000000E+00
  0.00000000E+00  0.00000000E+00  0.00000000E+00
  0.00000000E+00  0.00000000E+00  0.00000000E+00
  0.00000000E+00  0.00000000E+00  0.00000000E+00
  0.00000000E+00  0.00000000E+00  0.00000000E+00
  0.00000000E+00  0.00000000E+00  0.00000000E+00
  0.00000000E+00  0.00000000E+00  0.00000000E+00
  0.00000000E+00  0.00000000E+00  0.00000000E+00
  0.00000000E+00  0.00000000E+00  0.00000000E+00
  0.00000000E+00  0.00000000E+00  0.00000000E+00
  0.00000000E+00  0.00000000E+00  0.00000000E+00
  0.00000000E+00  0.00000000E+00  0.00000000E+00
  0.00000000E+00  0.00000000E+00  0.00000000E+00
  0.00000000E+00  0.00000000E+00  0.00000000E+00
  0.00000000E+00  0.00000000E+00  0.00000000E+00
  0.00000000E+00  0.00000000E+00  0.00000000E+00
  0.00000000E+00  0.00000000E+00  0.00000000E+00
  0.00000000E+00  0.00000000E+00  0.00000000E+00
  0.00000000E+00  0.00000000E+00  0.00000000E+00
  0.00000000E+00  0.00000000E+00  0.00000000E+00
  0.00000000E+00  0.00000000E+00  0.00000000E+00
  0.00000000E+00  0.00000000E+00  0.00000000E+00
  0.00000000E+00  0.00000000E+00  0.00000000E+00
  0.00000000E+00  0.00000000E+00  0.00000000E+00
  0.00000000E+00  0.00000000E+00  0.00000000E+00
  0.00000000E+00  0.00000000E+00  0.00000000E+00
  0.00000000E+00  0.00000000E+00  0.00000000E+00
  0.00000000E+00  0.00000000E+00  0.00000000E+00
  0.00000000E+00  0.00000000E+00  0.00000000E+00
  0.00000000E+00  0.00000000E+00  0.00000000E+00
  0.00000000E+00  0.00000000E+00  0.00000000E+00
  0.00000000E+00  0.00000000E+00  0.00000000E+00
  0.00000000E+00  0.00000000E+00  0.00000000E+00
  0.00000000E+00  0.00000000E+00  0.00000000E+00
  0.00000000E+00  0.00000000E+00  0.00000000E+00
  0.00000000E+00  0.00000000E+00  0.00000000E+00
  0.00000000E+00  0.00000000E+00  0.00000000E+00
  0.00000000E+00  0.00000000E+00  0.00000000E+00
  0.00000000E+00  0.00000000E+00  0.00000000E+00
  0.00000000E+00  0.00000000E+00  0.00000000E+00
  0.00000000E+00  0.00000000E+00  0.00000000E+00
  0.00000000E+00  0.00000000E+00  0.00000000E+00
  0.00000000E+00  0.00000000E+00  0.00000000E+00
  0.00000000E+00  0.00000000E+00  0.00000000E+00
  0.00000000E+00  0.00000000E+00  0.00000000E+00
  0.00000000E+00  0.00000000E+00  0.00000000E+00
  0.00000000E+00  0.00000000E+00  0.00000000E+00
  0.00000000E+00  0.00000000E+00  0.00000000E+00
  0.00000000E+00  0.00000000E+00  0.00000000E+00
  0.00000000E+00  0.00000000E+00  0.00000000E+00
  0.00000000E+00  0.00000000E+00  0.00000000E+00
  0.00000000E+00  0.00000000E+00  0.00000000E+00
  0.00000000E+00  0.00000000E+00  0.00000000E+00
  0.00000000E+00  0.00000000E+00  0.00000000E+00
  0.00000000E+00  0.00000000E+00  0.00000000E+00
  0.00000000E+00  0.00000000E+00  0.00000000E+00
  0.00000000E+00  0.00000000E+00  0.00000000E+00
  0.00000000E+00  0.00000000E+00  0.00000000E+00
  0.00000000E+00  0.00000000E+00  0.00000000E+00
  0.00000000E+00  0.00000000E+00  0.00000000E+00
  0.00000000E+00  0.00000000E+00  0.00000000E+00
  0.00000000E+00  0.00000000E+00  0.00000000E+00
  0.00000000E+00  0.00000000E+00  0.00000000E+00
  0.00000000E+00  0.00000000E+00  0.00000000E+00
  0.00000000E+00  0.00000000E+00  0.00000000E+00
  0.00000000E+00  0.00000000E+00  0.00000000E+00
  0.00000000E+00  0.00000000E+00  0.00000000E+00
  0.00000000E+00  0.00000000E+00  0.00000000E+00
  0.00000000E+00  0.00000000E+00  0.00000000E+00
  0.00000000E+00  0.00000000E+00  0.00000000E+00
  0.00000000E+00  0.00000000E+00  0.00000000E+00
  0.00000000E+00  0.00000000E+00  0.00000000E+00
  0.00000000E+00  0.00000000E+00  0.00000000E+00
  0.00000000E+00  0.00000000E+00  0.00000000E+00
  0.00000000E+00  0.00000000E+00  0.00000000E+00
  0.00000000E+00  0.00000000E+00  0.00000000E+00
  0.00000000E+00  0.00000000E+00  0.00000000E+00
  0.00000000E+00  0.00000000E+00  0.00000000E+00
  0.00000000E+00  0.00000000E+00  0.00000000E+00
  0.00000000E+00  0.00000000E+00  0.00000000E+00
  0.00000000E+00  0.00000000E+00  0.00000000E+00
  0.00000000E+00  0.00000000E+00  0.00000000E+00
  0.00000000E+00  0.00000000E+00  0.00000000E+00
  0.00000000E+00  0.00000000E+00  0.00000000E+00
  0.00000000E+00  0.00000000E+00  0.00000000E+00
  0.00000000E+00  0.00000000E+00  0.00000000E+00
  0.00000000E+00  0.00000000E+00  0.00000000E+00
  0.00000000E+00  0.00000000E+00  0.00000000E+00
  0.00000000E+00  0.00000000E+00  0.00000000E+00
  0.00000000E+00  0.00000000E+00  0.00000000E+00
  0.00000000E+00  0.00000000E+00  0.00000000E+00
  0.00000000E+00  0.00000000E+00  0.00000000E+00
  0.00000000E+00  0.00000000E+00  0.00000000E+00
  0.00000000E+00  0.00000000E+00  0.00000000E+00
  0.00000000E+00  0.00000000E+00  0.00000000E+00
  0.00000000E+00  0.00000000E+00  0.00000000E+00
  0.00000000E+00  0.00000000E+00  0.00000000E+00
  0.00000000E+00  0.00000000E+00  0.00000000E+00
  0.00000000E+00  0.00000000E+00  0.00000000E+00
  0.00000000E+00  0.00000000E+00  0.00000000E+00
  0.00000000E+00  0.00000000E+00  0.00000000E+00
  0.00000000E+00  0.00000000E+00  0.00000000E+00
  0.00000000E+00  0.00000000E+00  0.00000000E+00
  0.00000000E+00  0.00000000E+00  0.00000000E+00
  0.00000000E+00  0.00000000E+00  0.00000000E+00
  0.00000000E+00  0.00000000E+00  0.00000000E+00
  0.00000000E+00  0.00000000E+00  0.00000000E+00
  0.00000000E+00  0.00000000E+00  0.00000000E+00
  0.00000000E+00  0.00000000E+00  0.00000000E+00
  0.00000000E+00  0.00000000E+00  0.00000000E+00
  0.00000000E+00  0.00000000E+00  0.00000000E+00
  0.00000000E+00  0.00000000E+00  0.00000000E+00
  0.00000000E+00  0.00000000E+00  0.00000000E+00
  0.00000000E+00  0.00000000E+00  0.00000000E+00
  0.00000000E+00  0.00000000E+00  0.00000000E+00
  0.00000000E+00  0.00000000E+00  0.00000000E+00
  0.00000000E+00  0.00000000E+00  0.00000000E+00
  0.00000000E+00  0.00000000E+00  0.00000000E+00
  0.00000000E+00  0.00000000E+00  0.00000000E+00
  0.00000000E+00  0.00000000E+00  0.00000000E+00
  0.00000000E+00  0.00000000E+00  0.00000000E+00
  0.00000000E+00  0.00000000E+00  0.00000000E+00
  0.00000000E+00  0.00000000E+00  0.00000000E+00
  0.00000000E+00  0.00000000E+00  0.00000000E+00
  0.00000000E+00  0.00000000E+00  0.00000000E+00
  0.00000000E+00  0.00000000E+00  0.00000000E+00
  0.00000000E+00  0.00000000E+00  0.00000000E+00
  0.00000000E+00  0.00000000E+00  0.00000000E+00
  0.00000000E+00  0.00000000E+00  0.00000000E+00
  0.00000000E+00  0.00000000E+00  0.00000000E+00
  0.00000000E+00  0.00000000E+00  0.00000000E+00
  0.00000000E+00  0.00000000E+00  0.00000000E+00
  0.00000000E+00  0.00000000E+00  0.00000000E+00
  0.00000000E+00  0.00000000E+00  0.00000000E+00
  0.00000000E+00  0.00000000E+00  0.00000000E+00
  0.00000000E+00  0.00000000E+00  0.00000000E+00
  0.00000000E+00  0.00000000E+00  0.00000000E+00
  0.00000000E+00  0.00000000E+00  0.00000000E+00
  0.00000000E+00  0.00000000E+00  0.00000000E+00
  0.00000000E+00  0.00000000E+00  0.00000000E+00
