supercell of POSCAR                     
   1.07329600000000     
     9.1016125577399993   -5.3128209557800004   -9.4184911254399992
     9.0821131104399999    5.2871675818400004    9.4140884809200003
    -1.5053809694200000   -7.9210976524300012    4.6939078171600004
   Al   Sc   N 
    72    24    95
Direct
  0.3019996700220986  0.2867579474471356  0.5402259393480904
  0.1416733769403322  0.2428824810636883  0.3045556330460855
  0.3074249681489505  0.4081310187930782  0.3030507523643493
  0.4649331627407918  0.3254615439523931  0.7921474341930903
  0.1391104032170105  0.4989303182060070  0.7875626893925869
  0.2997579698797708  0.1656546938069994  0.7947845215608780
  0.4695609161639211  0.4472013248110969  0.5361870297009617
  0.1419057405596504  0.1201828206334028  0.5409674894291925
  0.4752905163553578  0.0732856886503725  0.2939045652166783
  0.2774809176460451  0.1087169149751190  0.3345060033356972
  0.1160329136551681  0.0699295239796456  0.0946151311832040
  0.1109344446449541  0.1979314228950599  0.8227265255967069
  0.2740139076885555  0.3607535952232013  0.8194801654708428
  0.1099912667801917  0.3243526992627324  0.5874472830515387
  0.2720369968532594  0.4859994474651330  0.5785655036787318
  0.4462663674486080  0.2771671812220120  0.3345996565741345
  0.1113871081491666  0.4442583379992229  0.3353377538681102
  0.4460733225511291  0.4000779487873842  0.0956961057624497
  0.8021713140772562  0.2864443285351399  0.5389107257439960
  0.6413412420633051  0.2428521340123027  0.3035146686883294
  0.8074092751462700  0.4078755095153497  0.3016941886569384
  0.9650520438836026  0.3271297504057955  0.7896246134944533
  0.6391298396070013  0.4960454325848005  0.7880571183580187
  0.7993268143090688  0.1628712076083474  0.7819456354229573
  0.9696209784739551  0.4484834387080809  0.5351176906131343
  0.6408690354778841  0.1188358020121996  0.5386929902468722
  0.9760872520144943  0.0732518988734938  0.2948225485861684
  0.7760708543508485  0.1081012500441432  0.3334934919068928
  0.6109205989049755  0.0688895047105689  0.0921305848921747
  0.6128767913281692  0.1947424636721848  0.8225576172616300
  0.7738353640840643  0.3580782330462071  0.8204927802317172
  0.6100992369536939  0.3229101958598903  0.5874277858796901
  0.7720766233542804  0.4848668045891245  0.5784101487569089
  0.9463138774247497  0.2783391067700123  0.3345495792295949
  0.6106401752174691  0.4439702408255428  0.3365215263891272
  0.9470456978161792  0.4018077666121940  0.0942214045513907
  0.3036621781348572  0.7865592775267132  0.5389159252331055
  0.1423409217081897  0.7427175053590602  0.3035674255296072
  0.3075083896647541  0.9088317476268202  0.3033124471277588
  0.4678370387924886  0.8232208280518165  0.7881423086773793
  0.1416274775018422  0.9991738247237905  0.7896867798094576
  0.3003678798835452  0.6633909670959852  0.7820620122387751
  0.4700139215237442  0.9487861118717333  0.5376336105892392
  0.1415695001228841  0.6198349594058286  0.5393590687529226
  0.4758948013228661  0.5729247352287530  0.2943032215427195
  0.2770836531968968  0.6088771206969668  0.3339168656429408
  0.1144010558128983  0.5689261283855416  0.0930584161888532
  0.1142285150749700  0.6983215751081602  0.8237962159093470
  0.2773102226154265  0.8590571485732994  0.8199581554703315
  0.1120246912674645  0.8244140479975002  0.5875731014556536
  0.2736516968472955  0.9866807133545166  0.5823635620275596
  0.4474441274702201  0.7791278584647117  0.3347396744082545
  0.1121038103705132  0.9451845684359839  0.3373954517220668
  0.4467923638903457  0.9046322632027426  0.0932955728294189
  0.8039043869888829  0.7862538118082156  0.5389192930493891
  0.6426052109985250  0.7417532288286992  0.3033399063405895
  0.8083788368464795  0.9076577096611018  0.3015506082638808
  0.9684687565794121  0.8271940876070474  0.7901310372075443
  0.6427513530034616  0.9960840401917537  0.7860357783175402
  0.8007591210080562  0.6623996359625508  0.7821656347698607
  0.9710367994717330  0.9484183585370616  0.5361076785428196
  0.6418914230336057  0.6187703658510770  0.5398534571220139
  0.9759256400255722  0.5733278594033067  0.2941595186375068
  0.7771317615455047  0.6078452191280732  0.3337607786873420
  0.6140570671443584  0.5672485361482558  0.0928095965030664
  0.6147278008277439  0.6957388873289077  0.8235324554461911
  0.7766877082814645  0.8574157515984595  0.8200764159574021
  0.6118006499360362  0.8230076771898140  0.5867802861606393
  0.7732649605137425  0.9847605793254672  0.5774166366635711
  0.9477174616320525  0.7785230715463811  0.3343074193868603
  0.6111120017391016  0.9440797362378177  0.3363250466038181
  0.9487161910933395  0.9021663152224164  0.0940405444589842
  0.4727835387407850  0.1878876208008435  0.0342481445420901
  0.1404877579094901  0.3651624768282247  0.0338092063868416
  0.3178217656027442  0.0324818253196781  0.0343218921267265
  0.2808130667001052  0.2329468231730942  0.0805088880753431
  0.4544039474107890  0.0163289644583813  0.8294476399318356
  0.4430854002489397  0.1526235198776220  0.5790656330219335
  0.9806203687111861  0.1968159319604439  0.0390771847597478
  0.6366160794618168  0.3607999512399829  0.0359011821583621
  0.8085317053098251  0.0248772602559413  0.0387350739229433
  0.7824671860125889  0.2299685411865156  0.0810005421531415
  0.9470805278601020  0.0222540846795098  0.8233044249679580
  0.9437478172531684  0.1524499379364883  0.5730341170330178
  0.4815750261305709  0.6979669640068806  0.0393554225963157
  0.1453133194021419  0.8694022990788497  0.0366989730916529
  0.3098747001656790  0.5254233660060237  0.0387727521265546
  0.2845126271717788  0.7317920801158593  0.0813910357326364
  0.4470778134376516  0.5222833564178799  0.8233980343515483
  0.4456465068266482  0.6511622638284180  0.5719408973872788
  0.9829776852331662  0.6979155716163916  0.0377534196434013
  0.6409820888017848  0.8652829961866928  0.0367431143481269
  0.8084940258678301  0.5231229600115341  0.0374547757092856
  0.7846175875921944  0.7297181588460475  0.0808445735603769
  0.9467121436475097  0.5223643083860665  0.8225947591689220
  0.9452863721141256  0.6525776122420979  0.5729890062699283
  0.2373936010675735  0.3681306747968733  0.6304524243565837
  0.0740655145861808  0.3250055115099002  0.3959545680928471
  0.2393548783304951  0.4899524146976972  0.3894597445102761
  0.4182430445743606  0.2856640646610913  0.1500535673705272
  0.0718030380202492  0.4522526933960478  0.1444905304753945
  0.2392111496043867  0.1066677156446829  0.1493818191797374
  0.4006989206049170  0.4002265874303319  0.9028779187631883
  0.0846779879534765  0.0826894525397890  0.8992091557071404
  0.2312375233885788  0.2490925107694508  0.8757507238929705
  0.3994879391061019  0.0222066968288104  0.6260837552221190
  0.0824337178923429  0.2036257807071848  0.6346289304112815
  0.4053926738640925  0.1556212803179378  0.3709494636846244
  0.2164021054437413  0.1909826880487913  0.4336573347652433
  0.0564395008787102  0.1463795910834307  0.1983948549743317
  0.2142036129494898  0.3183114930782125  0.2005995231804079
  0.0416144255723339  0.2743810907848285  0.9037837808387437
  0.2100200899390785  0.4419629281023276  0.9038853860128881
  0.3706768535167484  0.2415362485162476  0.6823162919883785
  0.0404419716935038  0.4066854728475988  0.6835547057171851
  0.2118490257464742  0.0698470659647654  0.6768234062334599
  0.3806490029946232  0.3542602229592120  0.4326929114520723
  0.0477857196059119  0.0264637831697669  0.4369519776294553
  0.3870051457014654  0.4766025801432150  0.1990986591806134
  0.7379736431754793  0.3669348163118755  0.6313153027626228
  0.5747306848953428  0.3249895270811507  0.3962707342415257
  0.7390913933600700  0.4888172067495589  0.3891044219230011
  0.9196027653458785  0.2871982428201889  0.1492430573482650
  0.5712634520109106  0.4508293471776454  0.1455666498690178
  0.7360947384503405  0.1042768943774135  0.1482263224606868
  0.9000931500010410  0.4001687014454447  0.9017171412264418
  0.5909086739697429  0.0802193166132881  0.8954767032438937
  0.7359147895536609  0.2433645519296164  0.8743349234772282
  0.8992461233910092  0.0218763866986365  0.6202203442236680
  0.5836484654640799  0.2023887512853833  0.6347133620082630
  0.9044267134866857  0.1557780122177448  0.3662081249923972
  0.7165332850459336  0.1904682556424717  0.4328736398063953
  0.5561842874632603  0.1483526206448218  0.1988827932547181
  0.7166521723951860  0.3160525391578730  0.1984725135321881
  0.8710825799053623  0.1142681130122085  0.9156226802319836
  0.5403421566986566  0.2680226518376827  0.9027091752064109
  0.7079310597601420  0.4368961521107977  0.9054253225015572
  0.8723805183724167  0.2407556660699015  0.6792136365513102
  0.5405632620342615  0.4047099025345062  0.6840618670445480
  0.7126928480005432  0.0673873990846658  0.6722392324111581
  0.8806604260352557  0.3547707359344230  0.4321805811349506
  0.5474463507631881  0.0252019003064703  0.4361273812119606
  0.8871701209586504  0.4768770291432816  0.1984596679357011
  0.2393926357992768  0.8669260402223244  0.6309715047520825
  0.0754960900390742  0.8248593545193970  0.3957858754469399
  0.2397354091599198  0.9896812545399527  0.3920333948393022
  0.4213353800080100  0.7886753141706819  0.1497603888118277
  0.0734070320365348  0.9529255244726045  0.1460755720320321
  0.2378977285720723  0.6056319149978009  0.1481521500362177
  0.4027690559612438  0.8929878427327012  0.8988089147781864
  0.0842087936631088  0.5832027459228399  0.8983652809707579
  0.2371138584678647  0.7440581082949933  0.8744398995031730
  0.3983128354380696  0.5215759638710651  0.6205147645081510
  0.0841063438539038  0.7036943659136909  0.6356030189664708
  0.4052115245079193  0.6561577692032472  0.3658765034711706
  0.2168521063746596  0.6907360908912068  0.4329520546354289
  0.0565533336888819  0.6461946918320507  0.1979042284946857
  0.2167232265698331  0.8158894059656987  0.1991660238705464
  0.3722531045279283  0.6151611803505688  0.9159609119717231
  0.0472631685439708  0.7767774782001737  0.9056474356326163
  0.2161207314975542  0.9428896069078050  0.9034371447099545
  0.3737337675425678  0.7384033872193072  0.6769044260408066
  0.0428351266229683  0.9064928315068101  0.6836831147875202
  0.2112276453580648  0.5686343678402395  0.6745374075812052
  0.3817021276089960  0.8550201994048692  0.4328000185553762
  0.0473760296226615  0.5263382959298752  0.4363308983153402
  0.3849001729223573  0.9768398099167328  0.1992906657029110
  0.7396370158322867  0.8665091903624997  0.6307791844663555
  0.5759648727647217  0.8237376739080773  0.3951752283536223
  0.7398540827053708  0.9883731420911488  0.3883025797137023
  0.9214321908710090  0.7873833143900342  0.1489845222016513
  0.5724601635338971  0.9516691255225354  0.1461527465260843
  0.7377062198396871  0.6039626616592102  0.1480377878294377
  0.9028198638371236  0.8990916085992779  0.9012154652278852
  0.5853683065625646  0.5807726117864078  0.8980854888251173
  0.7378267529032527  0.7425071105537526  0.8743170668777225
  0.8981447227806925  0.5224345928048990  0.6197222900734332
  0.5847233462203576  0.7025309991549022  0.6356084435525275
  0.9050906305111042  0.6561339227170748  0.3664657802967355
  0.7174090728894669  0.6899341709433813  0.4333385540357213
  0.5567942782624513  0.6452637329739659  0.1974217757529075
  0.7175582562208618  0.8148653819743146  0.1981046022303943
  0.8721707166543666  0.6143665215126717  0.9166415990681500
  0.5463240544250780  0.7725166892617423  0.9037977081914548
  0.7119605723956965  0.9372734599876864  0.9034713024365857
  0.8743143779652982  0.7405358931997341  0.6798612780378690
  0.5428073309370589  0.9043198021563015  0.6825266650440085
  0.7115500823116037  0.5671295889084575  0.6752200524042422
  0.8820115119956355  0.8547063084315667  0.4320716287360327
  0.5471477792592054  0.5259500744689447  0.4372077942769437
  0.8877892248106107  0.9766729050663372  0.1976164867035095
 
  0.00000000E+00  0.00000000E+00  0.00000000E+00
  0.00000000E+00  0.00000000E+00  0.00000000E+00
  0.00000000E+00  0.00000000E+00  0.00000000E+00
  0.00000000E+00  0.00000000E+00  0.00000000E+00
  0.00000000E+00  0.00000000E+00  0.00000000E+00
  0.00000000E+00  0.00000000E+00  0.00000000E+00
  0.00000000E+00  0.00000000E+00  0.00000000E+00
  0.00000000E+00  0.00000000E+00  0.00000000E+00
  0.00000000E+00  0.00000000E+00  0.00000000E+00
  0.00000000E+00  0.00000000E+00  0.00000000E+00
  0.00000000E+00  0.00000000E+00  0.00000000E+00
  0.00000000E+00  0.00000000E+00  0.00000000E+00
  0.00000000E+00  0.00000000E+00  0.00000000E+00
  0.00000000E+00  0.00000000E+00  0.00000000E+00
  0.00000000E+00  0.00000000E+00  0.00000000E+00
  0.00000000E+00  0.00000000E+00  0.00000000E+00
  0.00000000E+00  0.00000000E+00  0.00000000E+00
  0.00000000E+00  0.00000000E+00  0.00000000E+00
  0.00000000E+00  0.00000000E+00  0.00000000E+00
  0.00000000E+00  0.00000000E+00  0.00000000E+00
  0.00000000E+00  0.00000000E+00  0.00000000E+00
  0.00000000E+00  0.00000000E+00  0.00000000E+00
  0.00000000E+00  0.00000000E+00  0.00000000E+00
  0.00000000E+00  0.00000000E+00  0.00000000E+00
  0.00000000E+00  0.00000000E+00  0.00000000E+00
  0.00000000E+00  0.00000000E+00  0.00000000E+00
  0.00000000E+00  0.00000000E+00  0.00000000E+00
  0.00000000E+00  0.00000000E+00  0.00000000E+00
  0.00000000E+00  0.00000000E+00  0.00000000E+00
  0.00000000E+00  0.00000000E+00  0.00000000E+00
  0.00000000E+00  0.00000000E+00  0.00000000E+00
  0.00000000E+00  0.00000000E+00  0.00000000E+00
  0.00000000E+00  0.00000000E+00  0.00000000E+00
  0.00000000E+00  0.00000000E+00  0.00000000E+00
  0.00000000E+00  0.00000000E+00  0.00000000E+00
  0.00000000E+00  0.00000000E+00  0.00000000E+00
  0.00000000E+00  0.00000000E+00  0.00000000E+00
  0.00000000E+00  0.00000000E+00  0.00000000E+00
  0.00000000E+00  0.00000000E+00  0.00000000E+00
  0.00000000E+00  0.00000000E+00  0.00000000E+00
  0.00000000E+00  0.00000000E+00  0.00000000E+00
  0.00000000E+00  0.00000000E+00  0.00000000E+00
  0.00000000E+00  0.00000000E+00  0.00000000E+00
  0.00000000E+00  0.00000000E+00  0.00000000E+00
  0.00000000E+00  0.00000000E+00  0.00000000E+00
  0.00000000E+00  0.00000000E+00  0.00000000E+00
  0.00000000E+00  0.00000000E+00  0.00000000E+00
  0.00000000E+00  0.00000000E+00  0.00000000E+00
  0.00000000E+00  0.00000000E+00  0.00000000E+00
  0.00000000E+00  0.00000000E+00  0.00000000E+00
  0.00000000E+00  0.00000000E+00  0.00000000E+00
  0.00000000E+00  0.00000000E+00  0.00000000E+00
  0.00000000E+00  0.00000000E+00  0.00000000E+00
  0.00000000E+00  0.00000000E+00  0.00000000E+00
  0.00000000E+00  0.00000000E+00  0.00000000E+00
  0.00000000E+00  0.00000000E+00  0.00000000E+00
  0.00000000E+00  0.00000000E+00  0.00000000E+00
  0.00000000E+00  0.00000000E+00  0.00000000E+00
  0.00000000E+00  0.00000000E+00  0.00000000E+00
  0.00000000E+00  0.00000000E+00  0.00000000E+00
  0.00000000E+00  0.00000000E+00  0.00000000E+00
  0.00000000E+00  0.00000000E+00  0.00000000E+00
  0.00000000E+00  0.00000000E+00  0.00000000E+00
  0.00000000E+00  0.00000000E+00  0.00000000E+00
  0.00000000E+00  0.00000000E+00  0.00000000E+00
  0.00000000E+00  0.00000000E+00  0.00000000E+00
  0.00000000E+00  0.00000000E+00  0.00000000E+00
  0.00000000E+00  0.00000000E+00  0.00000000E+00
  0.00000000E+00  0.00000000E+00  0.00000000E+00
  0.00000000E+00  0.00000000E+00  0.00000000E+00
  0.00000000E+00  0.00000000E+00  0.00000000E+00
  0.00000000E+00  0.00000000E+00  0.00000000E+00
  0.00000000E+00  0.00000000E+00  0.00000000E+00
  0.00000000E+00  0.00000000E+00  0.00000000E+00
  0.00000000E+00  0.00000000E+00  0.00000000E+00
  0.00000000E+00  0.00000000E+00  0.00000000E+00
  0.00000000E+00  0.00000000E+00  0.00000000E+00
  0.00000000E+00  0.00000000E+00  0.00000000E+00
  0.00000000E+00  0.00000000E+00  0.00000000E+00
  0.00000000E+00  0.00000000E+00  0.00000000E+00
  0.00000000E+00  0.00000000E+00  0.00000000E+00
  0.00000000E+00  0.00000000E+00  0.00000000E+00
  0.00000000E+00  0.00000000E+00  0.00000000E+00
  0.00000000E+00  0.00000000E+00  0.00000000E+00
  0.00000000E+00  0.00000000E+00  0.00000000E+00
  0.00000000E+00  0.00000000E+00  0.00000000E+00
  0.00000000E+00  0.00000000E+00  0.00000000E+00
  0.00000000E+00  0.00000000E+00  0.00000000E+00
  0.00000000E+00  0.00000000E+00  0.00000000E+00
  0.00000000E+00  0.00000000E+00  0.00000000E+00
  0.00000000E+00  0.00000000E+00  0.00000000E+00
  0.00000000E+00  0.00000000E+00  0.00000000E+00
  0.00000000E+00  0.00000000E+00  0.00000000E+00
  0.00000000E+00  0.00000000E+00  0.00000000E+00
  0.00000000E+00  0.00000000E+00  0.00000000E+00
  0.00000000E+00  0.00000000E+00  0.00000000E+00
  0.00000000E+00  0.00000000E+00  0.00000000E+00
  0.00000000E+00  0.00000000E+00  0.00000000E+00
  0.00000000E+00  0.00000000E+00  0.00000000E+00
  0.00000000E+00  0.00000000E+00  0.00000000E+00
  0.00000000E+00  0.00000000E+00  0.00000000E+00
  0.00000000E+00  0.00000000E+00  0.00000000E+00
  0.00000000E+00  0.00000000E+00  0.00000000E+00
  0.00000000E+00  0.00000000E+00  0.00000000E+00
  0.00000000E+00  0.00000000E+00  0.00000000E+00
  0.00000000E+00  0.00000000E+00  0.00000000E+00
  0.00000000E+00  0.00000000E+00  0.00000000E+00
  0.00000000E+00  0.00000000E+00  0.00000000E+00
  0.00000000E+00  0.00000000E+00  0.00000000E+00
  0.00000000E+00  0.00000000E+00  0.00000000E+00
  0.00000000E+00  0.00000000E+00  0.00000000E+00
  0.00000000E+00  0.00000000E+00  0.00000000E+00
  0.00000000E+00  0.00000000E+00  0.00000000E+00
  0.00000000E+00  0.00000000E+00  0.00000000E+00
  0.00000000E+00  0.00000000E+00  0.00000000E+00
  0.00000000E+00  0.00000000E+00  0.00000000E+00
  0.00000000E+00  0.00000000E+00  0.00000000E+00
  0.00000000E+00  0.00000000E+00  0.00000000E+00
  0.00000000E+00  0.00000000E+00  0.00000000E+00
  0.00000000E+00  0.00000000E+00  0.00000000E+00
  0.00000000E+00  0.00000000E+00  0.00000000E+00
  0.00000000E+00  0.00000000E+00  0.00000000E+00
  0.00000000E+00  0.00000000E+00  0.00000000E+00
  0.00000000E+00  0.00000000E+00  0.00000000E+00
  0.00000000E+00  0.00000000E+00  0.00000000E+00
  0.00000000E+00  0.00000000E+00  0.00000000E+00
  0.00000000E+00  0.00000000E+00  0.00000000E+00
  0.00000000E+00  0.00000000E+00  0.00000000E+00
  0.00000000E+00  0.00000000E+00  0.00000000E+00
  0.00000000E+00  0.00000000E+00  0.00000000E+00
  0.00000000E+00  0.00000000E+00  0.00000000E+00
  0.00000000E+00  0.00000000E+00  0.00000000E+00
  0.00000000E+00  0.00000000E+00  0.00000000E+00
  0.00000000E+00  0.00000000E+00  0.00000000E+00
  0.00000000E+00  0.00000000E+00  0.00000000E+00
  0.00000000E+00  0.00000000E+00  0.00000000E+00
  0.00000000E+00  0.00000000E+00  0.00000000E+00
  0.00000000E+00  0.00000000E+00  0.00000000E+00
  0.00000000E+00  0.00000000E+00  0.00000000E+00
  0.00000000E+00  0.00000000E+00  0.00000000E+00
  0.00000000E+00  0.00000000E+00  0.00000000E+00
  0.00000000E+00  0.00000000E+00  0.00000000E+00
  0.00000000E+00  0.00000000E+00  0.00000000E+00
  0.00000000E+00  0.00000000E+00  0.00000000E+00
  0.00000000E+00  0.00000000E+00  0.00000000E+00
  0.00000000E+00  0.00000000E+00  0.00000000E+00
  0.00000000E+00  0.00000000E+00  0.00000000E+00
  0.00000000E+00  0.00000000E+00  0.00000000E+00
  0.00000000E+00  0.00000000E+00  0.00000000E+00
  0.00000000E+00  0.00000000E+00  0.00000000E+00
  0.00000000E+00  0.00000000E+00  0.00000000E+00
  0.00000000E+00  0.00000000E+00  0.00000000E+00
  0.00000000E+00  0.00000000E+00  0.00000000E+00
  0.00000000E+00  0.00000000E+00  0.00000000E+00
  0.00000000E+00  0.00000000E+00  0.00000000E+00
  0.00000000E+00  0.00000000E+00  0.00000000E+00
  0.00000000E+00  0.00000000E+00  0.00000000E+00
  0.00000000E+00  0.00000000E+00  0.00000000E+00
  0.00000000E+00  0.00000000E+00  0.00000000E+00
  0.00000000E+00  0.00000000E+00  0.00000000E+00
  0.00000000E+00  0.00000000E+00  0.00000000E+00
  0.00000000E+00  0.00000000E+00  0.00000000E+00
  0.00000000E+00  0.00000000E+00  0.00000000E+00
  0.00000000E+00  0.00000000E+00  0.00000000E+00
  0.00000000E+00  0.00000000E+00  0.00000000E+00
  0.00000000E+00  0.00000000E+00  0.00000000E+00
  0.00000000E+00  0.00000000E+00  0.00000000E+00
  0.00000000E+00  0.00000000E+00  0.00000000E+00
  0.00000000E+00  0.00000000E+00  0.00000000E+00
  0.00000000E+00  0.00000000E+00  0.00000000E+00
  0.00000000E+00  0.00000000E+00  0.00000000E+00
  0.00000000E+00  0.00000000E+00  0.00000000E+00
  0.00000000E+00  0.00000000E+00  0.00000000E+00
  0.00000000E+00  0.00000000E+00  0.00000000E+00
  0.00000000E+00  0.00000000E+00  0.00000000E+00
  0.00000000E+00  0.00000000E+00  0.00000000E+00
  0.00000000E+00  0.00000000E+00  0.00000000E+00
  0.00000000E+00  0.00000000E+00  0.00000000E+00
  0.00000000E+00  0.00000000E+00  0.00000000E+00
  0.00000000E+00  0.00000000E+00  0.00000000E+00
  0.00000000E+00  0.00000000E+00  0.00000000E+00
  0.00000000E+00  0.00000000E+00  0.00000000E+00
  0.00000000E+00  0.00000000E+00  0.00000000E+00
  0.00000000E+00  0.00000000E+00  0.00000000E+00
  0.00000000E+00  0.00000000E+00  0.00000000E+00
  0.00000000E+00  0.00000000E+00  0.00000000E+00
  0.00000000E+00  0.00000000E+00  0.00000000E+00
  0.00000000E+00  0.00000000E+00  0.00000000E+00
  0.00000000E+00  0.00000000E+00  0.00000000E+00
  0.00000000E+00  0.00000000E+00  0.00000000E+00
  0.00000000E+00  0.00000000E+00  0.00000000E+00
