supercell of POSCAR                     
   1.07329600000000     
     9.1016125577399993   -5.3128209557800004   -9.4184911254399992
     9.0821131104399999    5.2871675818400004    9.4140884809200003
    -1.5053809694200000   -7.9210976524300012    4.6939078171600004
   Al   Sc   N 
    72    24    95
Direct
  0.3030757383058145  0.2890083997008404  0.5324964641434846
  0.1404034513099148  0.2435219951333778  0.3055287425201811
  0.3071659732313421  0.4104356712480737  0.3035723155302961
  0.4669058023821222  0.3281776075951299  0.7897558623614174
  0.1385119955383516  0.4977040155044463  0.7889273277428899
  0.2819700392585602  0.1744755922320920  0.7469071262505338
  0.4700905116693690  0.4477889400457684  0.5356474817439789
  0.1384706259681749  0.1178179566175217  0.5325570048856463
  0.4767109073407312  0.0735002021721911  0.2947102645481436
  0.2786404222746270  0.1075366763081647  0.3317909366948228
  0.1159436593742100  0.0682823641573691  0.0913933674530725
  0.1111360934569916  0.1964913595633746  0.8253892056401853
  0.2758353747342355  0.3616346969847939  0.8213857728642182
  0.1107779958400670  0.3244950009069427  0.5888098254833523
  0.2716302501208290  0.4857787049173581  0.5798112895862033
  0.4479292754246487  0.2772498349217969  0.3323028623417699
  0.1099813326599914  0.4455883947139867  0.3387806780881704
  0.4470756413354025  0.4002210303370006  0.0925050410005142
  0.8034251744676553  0.2876237386760252  0.5403608489393790
  0.6439370054203621  0.2439366574255644  0.3051144273903716
  0.8076031415174896  0.4090711522034738  0.3039947768975608
  0.9665584687809030  0.3277824190613998  0.7913228950630824
  0.6392015360140419  0.4972549629191860  0.7888235784817610
  0.8015667466946041  0.1648151953418306  0.7835393548210448
  0.9693847502411401  0.4489545084319531  0.5375907731944238
  0.6428604800927715  0.1200972816487962  0.5394220614082528
  0.9764001840713590  0.0734488740131241  0.2943789103297050
  0.7783411086831293  0.1088952749472583  0.3350186891367244
  0.6163126751807297  0.0679891544647120  0.0956615595037462
  0.6144939572390555  0.1975874562304298  0.8222034434952619
  0.7751113530990708  0.3591486472845489  0.8210690200625166
  0.6112912607376728  0.3241238731319598  0.5869456424971986
  0.7719767027016715  0.4859044186979702  0.5803712377681620
  0.9466788557326637  0.2794610285833343  0.3363110798019662
  0.6112158557980152  0.4449025000531677  0.3374059720128955
  0.9460609609174142  0.4029980905211872  0.0962489350196449
  0.3020870271582865  0.7855363083857512  0.5387257713825662
  0.1411992080914715  0.7421343108077991  0.3043832457646545
  0.3062383255041894  0.9063231166798289  0.3012167911616146
  0.4662225277132990  0.8181801725835811  0.7900449705275179
  0.1383178968455638  0.9971278664861458  0.7874345913854981
  0.2982902787611721  0.6620554709382844  0.7831370720274293
  0.4698775265935780  0.9471163126568527  0.5265731647065977
  0.1403761003781554  0.6194757399690474  0.5407150892460209
  0.4754966509105714  0.5719580216219597  0.2947117165451516
  0.2756611189274452  0.6085007125518445  0.3349843229686940
  0.1129228915014053  0.5698050720002854  0.0948539680568459
  0.1128203241389656  0.6969334350145218  0.8239028358724383
  0.2745380015643235  0.8577347203986605  0.8181930945712566
  0.1104055813895783  0.8233704445310579  0.5869650608093622
  0.2728990080485261  0.9836606060648094  0.5760579412128664
  0.4466834171566276  0.7767245340020210  0.3342365864441916
  0.1111418108423692  0.9433838281027604  0.3350636871947117
  0.4489592212001128  0.9007230230754288  0.0962410142566057
  0.8030595808839180  0.7869033655465856  0.5402569519091998
  0.6422211845278412  0.7416489319881308  0.3048565677520969
  0.8088153551882868  0.9080178276914381  0.3030640171313905
  0.9667866799529605  0.8271237019672242  0.7907732098562832
  0.6480517446455494  0.9975589355834558  0.7875374899068532
  0.7994193551657389  0.6635504168595219  0.7842632697200784
  0.9701054505126905  0.9482129973604998  0.5359974401700285
  0.6410785556173195  0.6193746790655723  0.5411606652001524
  0.9750058297875199  0.5737895328863232  0.2962642757332858
  0.7765301498194930  0.6085953671709561  0.3360480162145407
  0.6136895740897330  0.5679542645306626  0.0944607235794592
  0.6137097848478135  0.6957619363062690  0.8251546096519888
  0.7767748337872931  0.8580562237190321  0.8216660525061741
  0.6124342900036410  0.8218738315706773  0.5863615408355969
  0.7741290044855162  0.9857959434587329  0.5779869057517857
  0.9469050114235387  0.7784211079044709  0.3357922167196037
  0.6131640031894037  0.9439218247015546  0.3366012293969689
  0.9482726533221140  0.9022316440293565  0.0947675201535532
  0.4851736549913497  0.1931350642679419  0.0370216431917072
  0.1377743662604374  0.3685889495117181  0.0392547241757200
  0.3131217793665613  0.0202688452893014  0.0359426322377914
  0.2802321596193238  0.2352030757526720  0.0867975432971946
  0.4663121601188962  0.9999654138557830  0.7995818165709707
  0.4462680930942895  0.1521765105992969  0.5727495091721693
  0.9816462786869948  0.1976912227404668  0.0407490692147618
  0.6403999262455997  0.3648425113100799  0.0372598818883034
  0.8112666918042351  0.0254115350595114  0.0402677241225362
  0.7845855017957248  0.2315000872047150  0.0821463212769515
  0.9467852808828567  0.0228586351193201  0.8233162631695521
  0.9455056837071325  0.1538015382553937  0.5744525560534441
  0.4811510653201339  0.6955267822394333  0.0406842895849451
  0.1413113585338692  0.8649873085986215  0.0357048546321153
  0.3085759897602287  0.5249825968632109  0.0398488044865957
  0.2830949103574127  0.7295967987295597  0.0811993113567837
  0.4460980480235150  0.5228422669913613  0.8235038206147181
  0.4440389896566330  0.6501683684665025  0.5717726173005886
  0.9809790818191146  0.6979563107259494  0.0397014536110518
  0.6421260787673333  0.8644264091254357  0.0378195753666049
  0.8082178942393057  0.5250644734179417  0.0398593843808825
  0.7840360434122644  0.7303593762007452  0.0835241882853026
  0.9458127553417128  0.5233216946858761  0.8252020636691171
  0.9439601075690405  0.6530288675468157  0.5753961792585685
  0.2392950586496667  0.3662055312036259  0.6313367224879087
  0.0749903962740959  0.3248416417449960  0.3974607687644109
  0.2387516892374606  0.4894137543343220  0.3906213070197850
  0.4203214667269179  0.2809318392463709  0.1417516534425047
  0.0705498938738742  0.4537692836784615  0.1482891390427454
  0.2433274466543978  0.1039571801761596  0.1408166168881948
  0.4013755203266953  0.3987167706812897  0.9008521141395249
  0.0859850967979270  0.0818418602416031  0.8979546714682840
  0.2383163024181201  0.2422632543080994  0.8750743168147537
  0.3986108993767985  0.0224155783433346  0.6203295991444833
  0.0867829418785178  0.2024724431044405  0.6365627387261199
  0.4059395000018640  0.1554506071446937  0.3662902309010221
  0.2177735712692765  0.1898125106416373  0.4312925131499128
  0.0592167840520617  0.1456240453920259  0.1977946874840839
  0.2147577067314259  0.3179536379343304  0.2007275340764778
  0.0451029327687422  0.2745700626414731  0.9052225654995070
  0.2096852425914832  0.4384961364940594  0.9049124948990084
  0.3739695046018170  0.2413016968843991  0.6758447683220723
  0.0415319347004370  0.4055060948941076  0.6839394016625846
  0.2112858136082281  0.0661975411788802  0.6714314949625049
  0.3819002727200456  0.3544603015665118  0.4279208170120370
  0.0474189096732474  0.0249589575653459  0.4349077921948563
  0.3870578858420544  0.4745190161759751  0.1971861207833641
  0.7382378482769596  0.3672610235727802  0.6319562223274744
  0.5746749975711509  0.3241205187571055  0.3946072574356307
  0.7386881458971146  0.4893532284064577  0.3909363021340155
  0.9213598252848385  0.2878816594932729  0.1507456662382793
  0.5711300483281647  0.4506648615824602  0.1460358606821188
  0.7387432119570647  0.1053186676530515  0.1492414965792221
  0.9011606260418858  0.3997493983142917  0.9029957230601227
  0.5835425804460357  0.0840300119992747  0.9019819140085090
  0.7364163778854902  0.2438012665363019  0.8755045550610419
  0.8996708801867825  0.0233031782494919  0.6203459897046741
  0.5841575554853407  0.2029515698341200  0.6353737021836565
  0.9063044964628801  0.1564454174626633  0.3674129227268210
  0.7174767355748699  0.1908986457214326  0.4334418463432641
  0.5572227806487575  0.1468684709185482  0.1968212241731635
  0.7168290652690956  0.3163283258495682  0.1987089200957683
  0.8723534835082134  0.1154648643349105  0.9168086840419392
  0.5416556780379267  0.2710308334478313  0.9035542352472135
  0.7090817762672970  0.4384075262640224  0.9050373283128863
  0.8738653289679164  0.2413974496047189  0.6802708379415634
  0.5410089982845463  0.4047221584212224  0.6828521201276558
  0.7130879339587040  0.0691814019901145  0.6746802869479609
  0.8810211428098427  0.3553529082923816  0.4332109302024492
  0.5482076330460899  0.0264796109855254  0.4353104523883218
  0.8861671165382603  0.4775806799207416  0.1997556227723365
  0.2387471190124728  0.8671594554811151  0.6308229919333215
  0.0753172115072047  0.8249658018156580  0.3959189228730295
  0.2399470198829690  0.9891500755097766  0.3874048306155800
  0.4203543247725676  0.7868891778714655  0.1496167682415859
  0.0739294948588380  0.9524380341257981  0.1445788967077135
  0.2368045187607990  0.6043345249340604  0.1492499331647608
  0.4002904476215505  0.9021938221416903  0.9045634590768969
  0.0845856152944080  0.5822210852535719  0.8995323870342702
  0.2363745611811510  0.7444027358430105  0.8751370676623509
  0.3979035026291697  0.5206587579199606  0.6203320789835516
  0.0835215953548811  0.7036583162378562  0.6363201019624327
  0.4040499992513489  0.6549175293575971  0.3660231348966363
  0.2161434901028230  0.6904272756979353  0.4339529106343392
  0.0554674222714056  0.6468031974251431  0.1992188127402841
  0.2161240641567943  0.8152512032718633  0.1979730348903814
  0.3707145528944693  0.6146810018476074  0.9168932900343094
  0.0448814235362036  0.7749146098459434  0.9045859203847115
  0.2132865665024468  0.9417810819317936  0.9035992068843157
  0.3721283444622969  0.7391352044034605  0.6793652444925229
  0.0420472234379901  0.9062700277974471  0.6835420497750206
  0.2105843462517498  0.5675978550523837  0.6756502974810203
  0.3803890936826519  0.8539715197174402  0.4310343269837844
  0.0466701689381566  0.5265093025568746  0.4382750487047531
  0.3868534498644820  0.9763734076639707  0.1973290757632427
  0.7381419352781506  0.8684840928866748  0.6331066957755240
  0.5742165128873822  0.8252288678907433  0.3975501715257792
  0.7402116275883373  0.9895452096847350  0.3896179709456291
  0.9207135918115625  0.7882183522422963  0.1507470526674695
  0.5725700107275173  0.9522392566971902  0.1465162557014565
  0.7367210258291834  0.6048785015888498  0.1503592072099735
  0.9021739067705141  0.9004700622314772  0.9024489763414607
  0.5837892097728457  0.5812852837180031  0.8994660225703655
  0.7359313943484409  0.7443812177767484  0.8774093758763541
  0.8980118424425214  0.5226303213366990  0.6223679111615255
  0.5824377914724934  0.7037843913736666  0.6375979239332494
  0.9043016240123336  0.6566110713019597  0.3687580239225596
  0.7161261387584403  0.6910671153754038  0.4356683113561246
  0.5561021169009521  0.6454352845734022  0.1996684119166758
  0.7164369312295307  0.8160632226685109  0.2009776770658291
  0.8707536868955188  0.6154412874658419  0.9181777913309190
  0.5447481027187209  0.7731534747429265  0.9069309125159393
  0.7119381590619511  0.9392147726831794  0.9065170382125842
  0.8723219255160259  0.7417209187679035  0.6817541111745555
  0.5390352979208544  0.9091017446586633  0.6879496556025373
  0.7105492031418450  0.5684918445387765  0.6766145201973686
  0.8812464523058381  0.8550195753921130  0.4336969316360566
  0.5468187997338489  0.5262133538294904  0.4377885420778682
  0.8883401300348055  0.9770302023696331  0.1991884433346556
 
  0.00000000E+00  0.00000000E+00  0.00000000E+00
  0.00000000E+00  0.00000000E+00  0.00000000E+00
  0.00000000E+00  0.00000000E+00  0.00000000E+00
  0.00000000E+00  0.00000000E+00  0.00000000E+00
  0.00000000E+00  0.00000000E+00  0.00000000E+00
  0.00000000E+00  0.00000000E+00  0.00000000E+00
  0.00000000E+00  0.00000000E+00  0.00000000E+00
  0.00000000E+00  0.00000000E+00  0.00000000E+00
  0.00000000E+00  0.00000000E+00  0.00000000E+00
  0.00000000E+00  0.00000000E+00  0.00000000E+00
  0.00000000E+00  0.00000000E+00  0.00000000E+00
  0.00000000E+00  0.00000000E+00  0.00000000E+00
  0.00000000E+00  0.00000000E+00  0.00000000E+00
  0.00000000E+00  0.00000000E+00  0.00000000E+00
  0.00000000E+00  0.00000000E+00  0.00000000E+00
  0.00000000E+00  0.00000000E+00  0.00000000E+00
  0.00000000E+00  0.00000000E+00  0.00000000E+00
  0.00000000E+00  0.00000000E+00  0.00000000E+00
  0.00000000E+00  0.00000000E+00  0.00000000E+00
  0.00000000E+00  0.00000000E+00  0.00000000E+00
  0.00000000E+00  0.00000000E+00  0.00000000E+00
  0.00000000E+00  0.00000000E+00  0.00000000E+00
  0.00000000E+00  0.00000000E+00  0.00000000E+00
  0.00000000E+00  0.00000000E+00  0.00000000E+00
  0.00000000E+00  0.00000000E+00  0.00000000E+00
  0.00000000E+00  0.00000000E+00  0.00000000E+00
  0.00000000E+00  0.00000000E+00  0.00000000E+00
  0.00000000E+00  0.00000000E+00  0.00000000E+00
  0.00000000E+00  0.00000000E+00  0.00000000E+00
  0.00000000E+00  0.00000000E+00  0.00000000E+00
  0.00000000E+00  0.00000000E+00  0.00000000E+00
  0.00000000E+00  0.00000000E+00  0.00000000E+00
  0.00000000E+00  0.00000000E+00  0.00000000E+00
  0.00000000E+00  0.00000000E+00  0.00000000E+00
  0.00000000E+00  0.00000000E+00  0.00000000E+00
  0.00000000E+00  0.00000000E+00  0.00000000E+00
  0.00000000E+00  0.00000000E+00  0.00000000E+00
  0.00000000E+00  0.00000000E+00  0.00000000E+00
  0.00000000E+00  0.00000000E+00  0.00000000E+00
  0.00000000E+00  0.00000000E+00  0.00000000E+00
  0.00000000E+00  0.00000000E+00  0.00000000E+00
  0.00000000E+00  0.00000000E+00  0.00000000E+00
  0.00000000E+00  0.00000000E+00  0.00000000E+00
  0.00000000E+00  0.00000000E+00  0.00000000E+00
  0.00000000E+00  0.00000000E+00  0.00000000E+00
  0.00000000E+00  0.00000000E+00  0.00000000E+00
  0.00000000E+00  0.00000000E+00  0.00000000E+00
  0.00000000E+00  0.00000000E+00  0.00000000E+00
  0.00000000E+00  0.00000000E+00  0.00000000E+00
  0.00000000E+00  0.00000000E+00  0.00000000E+00
  0.00000000E+00  0.00000000E+00  0.00000000E+00
  0.00000000E+00  0.00000000E+00  0.00000000E+00
  0.00000000E+00  0.00000000E+00  0.00000000E+00
  0.00000000E+00  0.00000000E+00  0.00000000E+00
  0.00000000E+00  0.00000000E+00  0.00000000E+00
  0.00000000E+00  0.00000000E+00  0.00000000E+00
  0.00000000E+00  0.00000000E+00  0.00000000E+00
  0.00000000E+00  0.00000000E+00  0.00000000E+00
  0.00000000E+00  0.00000000E+00  0.00000000E+00
  0.00000000E+00  0.00000000E+00  0.00000000E+00
  0.00000000E+00  0.00000000E+00  0.00000000E+00
  0.00000000E+00  0.00000000E+00  0.00000000E+00
  0.00000000E+00  0.00000000E+00  0.00000000E+00
  0.00000000E+00  0.00000000E+00  0.00000000E+00
  0.00000000E+00  0.00000000E+00  0.00000000E+00
  0.00000000E+00  0.00000000E+00  0.00000000E+00
  0.00000000E+00  0.00000000E+00  0.00000000E+00
  0.00000000E+00  0.00000000E+00  0.00000000E+00
  0.00000000E+00  0.00000000E+00  0.00000000E+00
  0.00000000E+00  0.00000000E+00  0.00000000E+00
  0.00000000E+00  0.00000000E+00  0.00000000E+00
  0.00000000E+00  0.00000000E+00  0.00000000E+00
  0.00000000E+00  0.00000000E+00  0.00000000E+00
  0.00000000E+00  0.00000000E+00  0.00000000E+00
  0.00000000E+00  0.00000000E+00  0.00000000E+00
  0.00000000E+00  0.00000000E+00  0.00000000E+00
  0.00000000E+00  0.00000000E+00  0.00000000E+00
  0.00000000E+00  0.00000000E+00  0.00000000E+00
  0.00000000E+00  0.00000000E+00  0.00000000E+00
  0.00000000E+00  0.00000000E+00  0.00000000E+00
  0.00000000E+00  0.00000000E+00  0.00000000E+00
  0.00000000E+00  0.00000000E+00  0.00000000E+00
  0.00000000E+00  0.00000000E+00  0.00000000E+00
  0.00000000E+00  0.00000000E+00  0.00000000E+00
  0.00000000E+00  0.00000000E+00  0.00000000E+00
  0.00000000E+00  0.00000000E+00  0.00000000E+00
  0.00000000E+00  0.00000000E+00  0.00000000E+00
  0.00000000E+00  0.00000000E+00  0.00000000E+00
  0.00000000E+00  0.00000000E+00  0.00000000E+00
  0.00000000E+00  0.00000000E+00  0.00000000E+00
  0.00000000E+00  0.00000000E+00  0.00000000E+00
  0.00000000E+00  0.00000000E+00  0.00000000E+00
  0.00000000E+00  0.00000000E+00  0.00000000E+00
  0.00000000E+00  0.00000000E+00  0.00000000E+00
  0.00000000E+00  0.00000000E+00  0.00000000E+00
  0.00000000E+00  0.00000000E+00  0.00000000E+00
  0.00000000E+00  0.00000000E+00  0.00000000E+00
  0.00000000E+00  0.00000000E+00  0.00000000E+00
  0.00000000E+00  0.00000000E+00  0.00000000E+00
  0.00000000E+00  0.00000000E+00  0.00000000E+00
  0.00000000E+00  0.00000000E+00  0.00000000E+00
  0.00000000E+00  0.00000000E+00  0.00000000E+00
  0.00000000E+00  0.00000000E+00  0.00000000E+00
  0.00000000E+00  0.00000000E+00  0.00000000E+00
  0.00000000E+00  0.00000000E+00  0.00000000E+00
  0.00000000E+00  0.00000000E+00  0.00000000E+00
  0.00000000E+00  0.00000000E+00  0.00000000E+00
  0.00000000E+00  0.00000000E+00  0.00000000E+00
  0.00000000E+00  0.00000000E+00  0.00000000E+00
  0.00000000E+00  0.00000000E+00  0.00000000E+00
  0.00000000E+00  0.00000000E+00  0.00000000E+00
  0.00000000E+00  0.00000000E+00  0.00000000E+00
  0.00000000E+00  0.00000000E+00  0.00000000E+00
  0.00000000E+00  0.00000000E+00  0.00000000E+00
  0.00000000E+00  0.00000000E+00  0.00000000E+00
  0.00000000E+00  0.00000000E+00  0.00000000E+00
  0.00000000E+00  0.00000000E+00  0.00000000E+00
  0.00000000E+00  0.00000000E+00  0.00000000E+00
  0.00000000E+00  0.00000000E+00  0.00000000E+00
  0.00000000E+00  0.00000000E+00  0.00000000E+00
  0.00000000E+00  0.00000000E+00  0.00000000E+00
  0.00000000E+00  0.00000000E+00  0.00000000E+00
  0.00000000E+00  0.00000000E+00  0.00000000E+00
  0.00000000E+00  0.00000000E+00  0.00000000E+00
  0.00000000E+00  0.00000000E+00  0.00000000E+00
  0.00000000E+00  0.00000000E+00  0.00000000E+00
  0.00000000E+00  0.00000000E+00  0.00000000E+00
  0.00000000E+00  0.00000000E+00  0.00000000E+00
  0.00000000E+00  0.00000000E+00  0.00000000E+00
  0.00000000E+00  0.00000000E+00  0.00000000E+00
  0.00000000E+00  0.00000000E+00  0.00000000E+00
  0.00000000E+00  0.00000000E+00  0.00000000E+00
  0.00000000E+00  0.00000000E+00  0.00000000E+00
  0.00000000E+00  0.00000000E+00  0.00000000E+00
  0.00000000E+00  0.00000000E+00  0.00000000E+00
  0.00000000E+00  0.00000000E+00  0.00000000E+00
  0.00000000E+00  0.00000000E+00  0.00000000E+00
  0.00000000E+00  0.00000000E+00  0.00000000E+00
  0.00000000E+00  0.00000000E+00  0.00000000E+00
  0.00000000E+00  0.00000000E+00  0.00000000E+00
  0.00000000E+00  0.00000000E+00  0.00000000E+00
  0.00000000E+00  0.00000000E+00  0.00000000E+00
  0.00000000E+00  0.00000000E+00  0.00000000E+00
  0.00000000E+00  0.00000000E+00  0.00000000E+00
  0.00000000E+00  0.00000000E+00  0.00000000E+00
  0.00000000E+00  0.00000000E+00  0.00000000E+00
  0.00000000E+00  0.00000000E+00  0.00000000E+00
  0.00000000E+00  0.00000000E+00  0.00000000E+00
  0.00000000E+00  0.00000000E+00  0.00000000E+00
  0.00000000E+00  0.00000000E+00  0.00000000E+00
  0.00000000E+00  0.00000000E+00  0.00000000E+00
  0.00000000E+00  0.00000000E+00  0.00000000E+00
  0.00000000E+00  0.00000000E+00  0.00000000E+00
  0.00000000E+00  0.00000000E+00  0.00000000E+00
  0.00000000E+00  0.00000000E+00  0.00000000E+00
  0.00000000E+00  0.00000000E+00  0.00000000E+00
  0.00000000E+00  0.00000000E+00  0.00000000E+00
  0.00000000E+00  0.00000000E+00  0.00000000E+00
  0.00000000E+00  0.00000000E+00  0.00000000E+00
  0.00000000E+00  0.00000000E+00  0.00000000E+00
  0.00000000E+00  0.00000000E+00  0.00000000E+00
  0.00000000E+00  0.00000000E+00  0.00000000E+00
  0.00000000E+00  0.00000000E+00  0.00000000E+00
  0.00000000E+00  0.00000000E+00  0.00000000E+00
  0.00000000E+00  0.00000000E+00  0.00000000E+00
  0.00000000E+00  0.00000000E+00  0.00000000E+00
  0.00000000E+00  0.00000000E+00  0.00000000E+00
  0.00000000E+00  0.00000000E+00  0.00000000E+00
  0.00000000E+00  0.00000000E+00  0.00000000E+00
  0.00000000E+00  0.00000000E+00  0.00000000E+00
  0.00000000E+00  0.00000000E+00  0.00000000E+00
  0.00000000E+00  0.00000000E+00  0.00000000E+00
  0.00000000E+00  0.00000000E+00  0.00000000E+00
  0.00000000E+00  0.00000000E+00  0.00000000E+00
  0.00000000E+00  0.00000000E+00  0.00000000E+00
  0.00000000E+00  0.00000000E+00  0.00000000E+00
  0.00000000E+00  0.00000000E+00  0.00000000E+00
  0.00000000E+00  0.00000000E+00  0.00000000E+00
  0.00000000E+00  0.00000000E+00  0.00000000E+00
  0.00000000E+00  0.00000000E+00  0.00000000E+00
  0.00000000E+00  0.00000000E+00  0.00000000E+00
  0.00000000E+00  0.00000000E+00  0.00000000E+00
  0.00000000E+00  0.00000000E+00  0.00000000E+00
  0.00000000E+00  0.00000000E+00  0.00000000E+00
  0.00000000E+00  0.00000000E+00  0.00000000E+00
  0.00000000E+00  0.00000000E+00  0.00000000E+00
  0.00000000E+00  0.00000000E+00  0.00000000E+00
  0.00000000E+00  0.00000000E+00  0.00000000E+00
  0.00000000E+00  0.00000000E+00  0.00000000E+00
  0.00000000E+00  0.00000000E+00  0.00000000E+00
  0.00000000E+00  0.00000000E+00  0.00000000E+00
