supercell of POSCAR                     
   1.07329600000000     
     9.1016125577399993   -5.3128209557800004   -9.4184911254399992
     9.0821131104399999    5.2871675818400004    9.4140884809200003
    -1.5053809694200000   -7.9210976524300012    4.6939078171600004
   Al   Sc   N 
    71    24    96
Direct
  0.2993198486762196  0.2850591636361131  0.5423668906529002
  0.1410424148361926  0.2428140415595621  0.3045758890688148
  0.3052179588104025  0.4106134907153418  0.3008220887505715
  0.4667936028990454  0.3259764125026408  0.7904007303518981
  0.1397200036850421  0.4974281497475417  0.7879050853659137
  0.2997258877642111  0.1625198736360147  0.7832309130969364
  0.4739139359911064  0.4490442173912186  0.5359723781040131
  0.1402026468025426  0.1187669934166919  0.5407516203631602
  0.4779117555421308  0.0668566583257331  0.2912320778992452
  0.2698666159595007  0.1045926730442659  0.3321036242593962
  0.1125153585458065  0.0677507014655987  0.0919938470718975
  0.1132347457651264  0.1966336719037685  0.8238980093251058
  0.2744274759449965  0.3577816562720457  0.8219370521356097
  0.1093128731686619  0.3238110481363776  0.5881552018629890
  0.2716317141697715  0.4845395286369225  0.5779734037693771
  0.1100499412494642  0.4451156312119338  0.3370267621173895
  0.4492693126897365  0.4061378301809242  0.0956511434974416
  0.8040616369008049  0.2864646051012869  0.5396290589991608
  0.6454613850049071  0.2410404581843082  0.3032292018139273
  0.8086969498022896  0.4080731886473572  0.3020088542644146
  0.9669400320117063  0.3266802599923437  0.7905635629815180
  0.6406017095864271  0.4980579711994793  0.7887516220147504
  0.8001071670080080  0.1629504667288941  0.7821394373525905
  0.9698624338310395  0.4487045143930644  0.5361916688121369
  0.6421010724236211  0.1187169506141785  0.5388012817175749
  0.9757817357978453  0.0730434379138387  0.2949401868661852
  0.7778554667250006  0.1075121845725278  0.3346131444140923
  0.6147226305676341  0.0674375320699596  0.0921434688205238
  0.6141616355644430  0.1962038591040596  0.8223845430725021
  0.7767377671957405  0.3586519587409782  0.8223464659705826
  0.6143392649446966  0.3247429094125138  0.5944226517451838
  0.7733110314980394  0.4860301126317097  0.5790824365922305
  0.9470029840868150  0.2784018296194546  0.3349153573777173
  0.6139608124559217  0.4493845808068144  0.3351841609002193
  0.9476468753300793  0.4021446497570906  0.0948679685580203
  0.3029354303062632  0.7868396983057693  0.5389911200307935
  0.1415546084795238  0.7422943655977292  0.3040296051406060
  0.3071574933346426  0.9070080621768994  0.3015202203968457
  0.4665299473469133  0.8262477929784353  0.7888642018801306
  0.1393043300879668  0.9970448234333773  0.7877215784343150
  0.2995260356306133  0.6629755447919550  0.7819315045691297
  0.4700591191878303  0.9487079570053680  0.5344010620626705
  0.1414624022098891  0.6195119218469358  0.5400480290121195
  0.4759246852086889  0.5745740885641908  0.2956144792813546
  0.2763199158709142  0.6095029328851354  0.3344800383700530
  0.1140417774682803  0.5688363745811102  0.0935126444807182
  0.1134827768808577  0.6970012827943322  0.8237450844914349
  0.2749478538850454  0.8582966750225935  0.8198726873312552
  0.1110740289945369  0.8238522126650096  0.5875899402617364
  0.2722674748500253  0.9856858165295392  0.5783020642253263
  0.4470907398510704  0.7784703836844500  0.3342059350905657
  0.1092373512427756  0.9431859505862548  0.3364045648094631
  0.4470433804544882  0.8995067785629942  0.0912874228301561
  0.8030250592514605  0.7868945316517539  0.5395556991559758
  0.6422906330017426  0.7422846352127834  0.3037879849949547
  0.8080853729843795  0.9077230528219573  0.3024638600914713
  0.9666364640203824  0.8267714352095226  0.7901681145864288
  0.6395026138405839  0.9970692946725563  0.7876054049007593
  0.8001423071169427  0.6634061670035010  0.7826108694083942
  0.9695695346227282  0.9480359088731234  0.5361937563072416
  0.6421560387884853  0.6204247153759255  0.5404482218320723
  0.9759264792995808  0.5735711153870824  0.2952191216648856
  0.7781103062307864  0.6097605873371137  0.3342766196260740
  0.6149964301937274  0.5696150866913854  0.0929495126492412
  0.6133295411633171  0.6970882015834619  0.8230705810645986
  0.7749202156110897  0.8584103524528643  0.8201335330265991
  0.6106400651712889  0.8238330850380322  0.5870133676285505
  0.7722214735994015  0.9850886795246225  0.5789495300928280
  0.9468611770346911  0.7783976174053251  0.3349873749355012
  0.6123766418729275  0.9431068698739011  0.3365615891003486
  0.9468133332025417  0.9017828869424918  0.0943129693883549
  0.4837573984823678  0.1939104976941621  0.0363998972890869
  0.1403381548418992  0.3655954035229243  0.0370966924330816
  0.3095032332051844  0.0240889082320521  0.0378118258137263
  0.2820984182607233  0.2297815970140391  0.0834579725008027
  0.4466605264063972  0.0212474907107776  0.8194987842835886
  0.4452886518587960  0.1561690044511650  0.5719853646221722
  0.9815100944930037  0.1969780245202557  0.0385000015071242
  0.6409582625727595  0.3646700661391407  0.0359338342100344
  0.8092430858083901  0.0243538659278570  0.0382582600660726
  0.7848537576185350  0.2300335278167154  0.0802791981470179
  0.9462689260891111  0.0221333420801173  0.8229560400122296
  0.9445094686378255  0.1522502201515721  0.5737545116139984
  0.4813310347723956  0.6959594983066353  0.0371310737659840
  0.1403938709445640  0.8654219396056391  0.0365996531060375
  0.3089591504974294  0.5254760583193416  0.0382089812438124
  0.2831888427062310  0.7308644524036154  0.0812648521532253
  0.4468443261183452  0.5213895745378210  0.8223890047514715
  0.4442886286701011  0.6524301511613970  0.5735299803321894
  0.9812864864851605  0.6972287389107521  0.0388250222090676
  0.6404397091504705  0.8649289080376406  0.0362889492958018
  0.8097051750755497  0.5251165150765118  0.0387949538044268
  0.7838073867175623  0.7311210817382872  0.0810165508651579
  0.9471743064809601  0.5223933992367336  0.8233333142217845
  0.9451211874894057  0.6531571654252275  0.5742156941762246
  0.2368457594733044  0.3670832970477775  0.6334438485345757
  0.0748925269274849  0.3249381109853431  0.3962767594848913
  0.2378661874507273  0.4905745014390988  0.3892463240341399
  0.4190348881708132  0.2879598717575718  0.1293494843818976
  0.0722090522333119  0.4523597634797483  0.1461894919960116
  0.2359697344509826  0.1035590395702997  0.1467777171586988
  0.4018837865110783  0.3988093887829649  0.9024852923230284
  0.0841770809811990  0.0815102579443945  0.8980904211088045
  0.2364251152510235  0.2429055712800121  0.8762195010542015
  0.3989695936696833  0.0246697662639832  0.6166058452695822
  0.0835239786304243  0.2031201304392525  0.6360747716241448
  0.3972985074526321  0.1352312414848456  0.3653000700762945
  0.2154228499492987  0.1897361867177096  0.4332105066574314
  0.0564306389203182  0.1459726992086345  0.1981107099276826
  0.2165707830692654  0.3160623959837636  0.1999404347708520
  0.3724562435437377  0.1134703807037241  0.9145773449738357
  0.0448242498558713  0.2741312100247910  0.9043106791344755
  0.2103790065002897  0.4390656796543340  0.9046479358718287
  0.3723329085261469  0.2410052954925561  0.6800378866524923
  0.0410076343870927  0.4059953516371024  0.6835840176979531
  0.2112493597122906  0.0678943747450589  0.6748198092413276
  0.3718768620962081  0.3659141995678397  0.4457811751837752
  0.0468757154850437  0.0257611354904839  0.4369195398717238
  0.3875203695409226  0.4776711438817074  0.1995660996255424
  0.7413514385305149  0.3678586498671521  0.6334420763514501
  0.5974257467395034  0.3334561345102429  0.4038573297177024
  0.7416488124291334  0.4904889675379565  0.3892183923039312
  0.9212523123477183  0.2873926235104349  0.1496112781116352
  0.5734812918496957  0.4531798109740350  0.1456657883924777
  0.7374134311295819  0.1047618444552185  0.1489962170210859
  0.9021240497835095  0.3995435945894741  0.9026107464111206
  0.5841761289862291  0.0818281327378330  0.8989539770055401
  0.7367519387200829  0.2434704104335879  0.8745419346089705
  0.8981516486544905  0.0220711200881709  0.6204277814996288
  0.5846743894978985  0.2032919716496195  0.6341516831203791
  0.9053218808015870  0.1559802093006581  0.3668248715669336
  0.7185449959520227  0.1895575616386438  0.4339591902123772
  0.5571336468341599  0.1456441382406553  0.2009795764710063
  0.7181838688909039  0.3154030495294222  0.1968389678016464
  0.8712762176173285  0.1147555782529253  0.9165387242255960
  0.5450916475817351  0.2730853281735506  0.9021932776875659
  0.7106036531143047  0.4389491826155094  0.9042724350512685
  0.8736230827713030  0.2405473376821377  0.6802249130986908
  0.5422273981802661  0.4053507994187839  0.6835158875857417
  0.7112178091519894  0.0678691707792183  0.6750850784263704
  0.8814408847640891  0.3548349263136004  0.4323482165437156
  0.5491101949929131  0.0244483197277745  0.4359927795088652
  0.8876552644912579  0.4770776581347462  0.1984827304456545
  0.2390281158086367  0.8675394869176287  0.6311311181446584
  0.0746191548406401  0.8241089773598986  0.3959390293001661
  0.2371936673935338  0.9866336481055100  0.3886606549946308
  0.4207502803023999  0.7855326732510051  0.1482541715797865
  0.0712949614849236  0.9517537755556518  0.1456982570846819
  0.2377481791417182  0.6050299443304397  0.1484329128396880
  0.4014658455816758  0.8990722221595320  0.8998340729522525
  0.0852030799660639  0.5818578632788061  0.8986172214754475
  0.2367387829162837  0.7434752029057350  0.8747338897921182
  0.3984870149893993  0.5204864809241201  0.6186042493933925
  0.0842895979549283  0.7034248546301427  0.6359707509924348
  0.4047368990543418  0.6563676489200603  0.3674944452504505
  0.2165531972270998  0.6909806105462621  0.4335538722836318
  0.0563119195707955  0.6459859146687350  0.1980486025709638
  0.2159751901715836  0.8151424336977939  0.1984142898777108
  0.3718811354124512  0.6131976071190550  0.9135145661707398
  0.0444466342189642  0.7741012303582337  0.9039998755831817
  0.2102895618997280  0.9389157089514484  0.9037557139843315
  0.3729321028033326  0.7401844421709427  0.6789049601114385
  0.0412045139618087  0.9057264694498102  0.6831068656274653
  0.2115963705256405  0.5676219619766556  0.6744889459401122
  0.3812122612284199  0.8548364625850766  0.4317128786309183
  0.0471230806322538  0.5264632930446282  0.4372457978426922
  0.3866980909542690  0.9728786602522277  0.1948935493663484
  0.7381124386512568  0.8670343718311102  0.6313021223458364
  0.5750874803092429  0.8239533178011129  0.3952930931121301
  0.7398879951703279  0.9885172390084023  0.3893398786897180
  0.9204212654905319  0.7873339184652934  0.1497075000772057
  0.5714437418614224  0.9520661172232039  0.1458515804573892
  0.7381526709860537  0.6054961523244842  0.1485663668476604
  0.9009646726496925  0.8995356914417201  0.9018682235770044
  0.5844828917765028  0.5817210297627469  0.8980683630559483
  0.7361859809628655  0.7435848585023308  0.8746781831190020
  0.8990749959378377  0.5228840217814437  0.6208727453106846
  0.5833442105797246  0.7032292423600381  0.6352709260699569
  0.9054372025131912  0.6563950082560481  0.3673157391903104
  0.7170592107086549  0.6907644984829560  0.4333691803168804
  0.5565027182841931  0.6460060230817817  0.1977941620355139
  0.7164496088802821  0.8159424920109828  0.1986489409523031
  0.8717097137585199  0.6146527901851613  0.9158223811215578
  0.5442034040413688  0.7739911457486812  0.9034404111486438
  0.7098244162242153  0.9389708428433963  0.9041062429631666
  0.8730019094771393  0.7409364294799516  0.6798547374531907
  0.5406258462618325  0.9062563489398840  0.6827375623459986
  0.7115209237162361  0.5680822371022956  0.6747050030691781
  0.8811184740910747  0.8545968693489030  0.4323652563134317
  0.5483612694727924  0.5269995124010833  0.4361201258497260
  0.8869879231643267  0.9768521175541309  0.1984746719262844
 
  0.00000000E+00  0.00000000E+00  0.00000000E+00
  0.00000000E+00  0.00000000E+00  0.00000000E+00
  0.00000000E+00  0.00000000E+00  0.00000000E+00
  0.00000000E+00  0.00000000E+00  0.00000000E+00
  0.00000000E+00  0.00000000E+00  0.00000000E+00
  0.00000000E+00  0.00000000E+00  0.00000000E+00
  0.00000000E+00  0.00000000E+00  0.00000000E+00
  0.00000000E+00  0.00000000E+00  0.00000000E+00
  0.00000000E+00  0.00000000E+00  0.00000000E+00
  0.00000000E+00  0.00000000E+00  0.00000000E+00
  0.00000000E+00  0.00000000E+00  0.00000000E+00
  0.00000000E+00  0.00000000E+00  0.00000000E+00
  0.00000000E+00  0.00000000E+00  0.00000000E+00
  0.00000000E+00  0.00000000E+00  0.00000000E+00
  0.00000000E+00  0.00000000E+00  0.00000000E+00
  0.00000000E+00  0.00000000E+00  0.00000000E+00
  0.00000000E+00  0.00000000E+00  0.00000000E+00
  0.00000000E+00  0.00000000E+00  0.00000000E+00
  0.00000000E+00  0.00000000E+00  0.00000000E+00
  0.00000000E+00  0.00000000E+00  0.00000000E+00
  0.00000000E+00  0.00000000E+00  0.00000000E+00
  0.00000000E+00  0.00000000E+00  0.00000000E+00
  0.00000000E+00  0.00000000E+00  0.00000000E+00
  0.00000000E+00  0.00000000E+00  0.00000000E+00
  0.00000000E+00  0.00000000E+00  0.00000000E+00
  0.00000000E+00  0.00000000E+00  0.00000000E+00
  0.00000000E+00  0.00000000E+00  0.00000000E+00
  0.00000000E+00  0.00000000E+00  0.00000000E+00
  0.00000000E+00  0.00000000E+00  0.00000000E+00
  0.00000000E+00  0.00000000E+00  0.00000000E+00
  0.00000000E+00  0.00000000E+00  0.00000000E+00
  0.00000000E+00  0.00000000E+00  0.00000000E+00
  0.00000000E+00  0.00000000E+00  0.00000000E+00
  0.00000000E+00  0.00000000E+00  0.00000000E+00
  0.00000000E+00  0.00000000E+00  0.00000000E+00
  0.00000000E+00  0.00000000E+00  0.00000000E+00
  0.00000000E+00  0.00000000E+00  0.00000000E+00
  0.00000000E+00  0.00000000E+00  0.00000000E+00
  0.00000000E+00  0.00000000E+00  0.00000000E+00
  0.00000000E+00  0.00000000E+00  0.00000000E+00
  0.00000000E+00  0.00000000E+00  0.00000000E+00
  0.00000000E+00  0.00000000E+00  0.00000000E+00
  0.00000000E+00  0.00000000E+00  0.00000000E+00
  0.00000000E+00  0.00000000E+00  0.00000000E+00
  0.00000000E+00  0.00000000E+00  0.00000000E+00
  0.00000000E+00  0.00000000E+00  0.00000000E+00
  0.00000000E+00  0.00000000E+00  0.00000000E+00
  0.00000000E+00  0.00000000E+00  0.00000000E+00
  0.00000000E+00  0.00000000E+00  0.00000000E+00
  0.00000000E+00  0.00000000E+00  0.00000000E+00
  0.00000000E+00  0.00000000E+00  0.00000000E+00
  0.00000000E+00  0.00000000E+00  0.00000000E+00
  0.00000000E+00  0.00000000E+00  0.00000000E+00
  0.00000000E+00  0.00000000E+00  0.00000000E+00
  0.00000000E+00  0.00000000E+00  0.00000000E+00
  0.00000000E+00  0.00000000E+00  0.00000000E+00
  0.00000000E+00  0.00000000E+00  0.00000000E+00
  0.00000000E+00  0.00000000E+00  0.00000000E+00
  0.00000000E+00  0.00000000E+00  0.00000000E+00
  0.00000000E+00  0.00000000E+00  0.00000000E+00
  0.00000000E+00  0.00000000E+00  0.00000000E+00
  0.00000000E+00  0.00000000E+00  0.00000000E+00
  0.00000000E+00  0.00000000E+00  0.00000000E+00
  0.00000000E+00  0.00000000E+00  0.00000000E+00
  0.00000000E+00  0.00000000E+00  0.00000000E+00
  0.00000000E+00  0.00000000E+00  0.00000000E+00
  0.00000000E+00  0.00000000E+00  0.00000000E+00
  0.00000000E+00  0.00000000E+00  0.00000000E+00
  0.00000000E+00  0.00000000E+00  0.00000000E+00
  0.00000000E+00  0.00000000E+00  0.00000000E+00
  0.00000000E+00  0.00000000E+00  0.00000000E+00
  0.00000000E+00  0.00000000E+00  0.00000000E+00
  0.00000000E+00  0.00000000E+00  0.00000000E+00
  0.00000000E+00  0.00000000E+00  0.00000000E+00
  0.00000000E+00  0.00000000E+00  0.00000000E+00
  0.00000000E+00  0.00000000E+00  0.00000000E+00
  0.00000000E+00  0.00000000E+00  0.00000000E+00
  0.00000000E+00  0.00000000E+00  0.00000000E+00
  0.00000000E+00  0.00000000E+00  0.00000000E+00
  0.00000000E+00  0.00000000E+00  0.00000000E+00
  0.00000000E+00  0.00000000E+00  0.00000000E+00
  0.00000000E+00  0.00000000E+00  0.00000000E+00
  0.00000000E+00  0.00000000E+00  0.00000000E+00
  0.00000000E+00  0.00000000E+00  0.00000000E+00
  0.00000000E+00  0.00000000E+00  0.00000000E+00
  0.00000000E+00  0.00000000E+00  0.00000000E+00
  0.00000000E+00  0.00000000E+00  0.00000000E+00
  0.00000000E+00  0.00000000E+00  0.00000000E+00
  0.00000000E+00  0.00000000E+00  0.00000000E+00
  0.00000000E+00  0.00000000E+00  0.00000000E+00
  0.00000000E+00  0.00000000E+00  0.00000000E+00
  0.00000000E+00  0.00000000E+00  0.00000000E+00
  0.00000000E+00  0.00000000E+00  0.00000000E+00
  0.00000000E+00  0.00000000E+00  0.00000000E+00
  0.00000000E+00  0.00000000E+00  0.00000000E+00
  0.00000000E+00  0.00000000E+00  0.00000000E+00
  0.00000000E+00  0.00000000E+00  0.00000000E+00
  0.00000000E+00  0.00000000E+00  0.00000000E+00
  0.00000000E+00  0.00000000E+00  0.00000000E+00
  0.00000000E+00  0.00000000E+00  0.00000000E+00
  0.00000000E+00  0.00000000E+00  0.00000000E+00
  0.00000000E+00  0.00000000E+00  0.00000000E+00
  0.00000000E+00  0.00000000E+00  0.00000000E+00
  0.00000000E+00  0.00000000E+00  0.00000000E+00
  0.00000000E+00  0.00000000E+00  0.00000000E+00
  0.00000000E+00  0.00000000E+00  0.00000000E+00
  0.00000000E+00  0.00000000E+00  0.00000000E+00
  0.00000000E+00  0.00000000E+00  0.00000000E+00
  0.00000000E+00  0.00000000E+00  0.00000000E+00
  0.00000000E+00  0.00000000E+00  0.00000000E+00
  0.00000000E+00  0.00000000E+00  0.00000000E+00
  0.00000000E+00  0.00000000E+00  0.00000000E+00
  0.00000000E+00  0.00000000E+00  0.00000000E+00
  0.00000000E+00  0.00000000E+00  0.00000000E+00
  0.00000000E+00  0.00000000E+00  0.00000000E+00
  0.00000000E+00  0.00000000E+00  0.00000000E+00
  0.00000000E+00  0.00000000E+00  0.00000000E+00
  0.00000000E+00  0.00000000E+00  0.00000000E+00
  0.00000000E+00  0.00000000E+00  0.00000000E+00
  0.00000000E+00  0.00000000E+00  0.00000000E+00
  0.00000000E+00  0.00000000E+00  0.00000000E+00
  0.00000000E+00  0.00000000E+00  0.00000000E+00
  0.00000000E+00  0.00000000E+00  0.00000000E+00
  0.00000000E+00  0.00000000E+00  0.00000000E+00
  0.00000000E+00  0.00000000E+00  0.00000000E+00
  0.00000000E+00  0.00000000E+00  0.00000000E+00
  0.00000000E+00  0.00000000E+00  0.00000000E+00
  0.00000000E+00  0.00000000E+00  0.00000000E+00
  0.00000000E+00  0.00000000E+00  0.00000000E+00
  0.00000000E+00  0.00000000E+00  0.00000000E+00
  0.00000000E+00  0.00000000E+00  0.00000000E+00
  0.00000000E+00  0.00000000E+00  0.00000000E+00
  0.00000000E+00  0.00000000E+00  0.00000000E+00
  0.00000000E+00  0.00000000E+00  0.00000000E+00
  0.00000000E+00  0.00000000E+00  0.00000000E+00
  0.00000000E+00  0.00000000E+00  0.00000000E+00
  0.00000000E+00  0.00000000E+00  0.00000000E+00
  0.00000000E+00  0.00000000E+00  0.00000000E+00
  0.00000000E+00  0.00000000E+00  0.00000000E+00
  0.00000000E+00  0.00000000E+00  0.00000000E+00
  0.00000000E+00  0.00000000E+00  0.00000000E+00
  0.00000000E+00  0.00000000E+00  0.00000000E+00
  0.00000000E+00  0.00000000E+00  0.00000000E+00
  0.00000000E+00  0.00000000E+00  0.00000000E+00
  0.00000000E+00  0.00000000E+00  0.00000000E+00
  0.00000000E+00  0.00000000E+00  0.00000000E+00
  0.00000000E+00  0.00000000E+00  0.00000000E+00
  0.00000000E+00  0.00000000E+00  0.00000000E+00
  0.00000000E+00  0.00000000E+00  0.00000000E+00
  0.00000000E+00  0.00000000E+00  0.00000000E+00
  0.00000000E+00  0.00000000E+00  0.00000000E+00
  0.00000000E+00  0.00000000E+00  0.00000000E+00
  0.00000000E+00  0.00000000E+00  0.00000000E+00
  0.00000000E+00  0.00000000E+00  0.00000000E+00
  0.00000000E+00  0.00000000E+00  0.00000000E+00
  0.00000000E+00  0.00000000E+00  0.00000000E+00
  0.00000000E+00  0.00000000E+00  0.00000000E+00
  0.00000000E+00  0.00000000E+00  0.00000000E+00
  0.00000000E+00  0.00000000E+00  0.00000000E+00
  0.00000000E+00  0.00000000E+00  0.00000000E+00
  0.00000000E+00  0.00000000E+00  0.00000000E+00
  0.00000000E+00  0.00000000E+00  0.00000000E+00
  0.00000000E+00  0.00000000E+00  0.00000000E+00
  0.00000000E+00  0.00000000E+00  0.00000000E+00
  0.00000000E+00  0.00000000E+00  0.00000000E+00
  0.00000000E+00  0.00000000E+00  0.00000000E+00
  0.00000000E+00  0.00000000E+00  0.00000000E+00
  0.00000000E+00  0.00000000E+00  0.00000000E+00
  0.00000000E+00  0.00000000E+00  0.00000000E+00
  0.00000000E+00  0.00000000E+00  0.00000000E+00
  0.00000000E+00  0.00000000E+00  0.00000000E+00
  0.00000000E+00  0.00000000E+00  0.00000000E+00
  0.00000000E+00  0.00000000E+00  0.00000000E+00
  0.00000000E+00  0.00000000E+00  0.00000000E+00
  0.00000000E+00  0.00000000E+00  0.00000000E+00
  0.00000000E+00  0.00000000E+00  0.00000000E+00
  0.00000000E+00  0.00000000E+00  0.00000000E+00
  0.00000000E+00  0.00000000E+00  0.00000000E+00
  0.00000000E+00  0.00000000E+00  0.00000000E+00
  0.00000000E+00  0.00000000E+00  0.00000000E+00
  0.00000000E+00  0.00000000E+00  0.00000000E+00
  0.00000000E+00  0.00000000E+00  0.00000000E+00
  0.00000000E+00  0.00000000E+00  0.00000000E+00
  0.00000000E+00  0.00000000E+00  0.00000000E+00
  0.00000000E+00  0.00000000E+00  0.00000000E+00
  0.00000000E+00  0.00000000E+00  0.00000000E+00
  0.00000000E+00  0.00000000E+00  0.00000000E+00
  0.00000000E+00  0.00000000E+00  0.00000000E+00
  0.00000000E+00  0.00000000E+00  0.00000000E+00
  0.00000000E+00  0.00000000E+00  0.00000000E+00
  0.00000000E+00  0.00000000E+00  0.00000000E+00
