supercell of POSCAR                     
   1.07329600000000     
     9.1016125577399993   -5.3128209557800004   -9.4184911254399992
     9.0821131104399999    5.2871675818400004    9.4140884809200003
    -1.5053809694200000   -7.9210976524300012    4.6939078171600004
   Al   Sc   N    O 
    72    24    95     1
Direct
  0.3027011142871103  0.2873194079062742  0.5380366081150996
  0.1433377637886295  0.2422434028029130  0.3012984372980796
  0.3076362567880011  0.4062925234216479  0.2996928222855928
  0.4661971684709130  0.3258549647227298  0.7900802389214334
  0.1390313775702694  0.4980435464270556  0.7868411740821486
  0.2960708307075919  0.1656626607196898  0.7766166655515718
  0.4702331419471903  0.4478480174086030  0.5359465719395331
  0.1400956635895270  0.1188458654245395  0.5378668028635900
  0.4802262788949463  0.0677710038240278  0.2899672998348848
  0.2731171549753384  0.1052420839040806  0.3320492994842752
  0.1153439147294719  0.0682726116924570  0.0930303443087652
  0.1112370603846102  0.1973399674330807  0.8210135684327611
  0.2741574402150420  0.3605498845261863  0.8184160757361596
  0.1102619365061130  0.3240067953922647  0.5854049788346529
  0.2721127860879733  0.4856201459590039  0.5773020742928168
  0.4494712140753805  0.2810649648160677  0.3323355598791693
  0.1113892284862530  0.4441196689879519  0.3353669058779616
  0.4474556646007244  0.4001710706189385  0.0937391127282226
  0.8035969604408564  0.2869757500061922  0.5397415068656670
  0.6439247951654465  0.2432137815166087  0.3063077783880956
  0.8082938923919301  0.4078271827650397  0.3022135428440365
  0.9662763652573787  0.3272220448629781  0.7892870894096404
  0.6394297738474108  0.4974489860638016  0.7881582344746718
  0.7997908324897267  0.1632270277798469  0.7821545981880860
  0.9701109061736517  0.4485353837902579  0.5356095889002717
  0.6419897020654659  0.1195319079379686  0.5407208201326767
  0.9756685646279308  0.0730711822298673  0.2938866255148085
  0.7767247728528233  0.1080602721249235  0.3343284659059975
  0.6116968276333239  0.0689325323973478  0.0934345832423560
  0.6133311153497445  0.1966657070558711  0.8238461164390358
  0.7751551158538632  0.3588712528637643  0.8205245158604839
  0.6108910987340508  0.3243547431795974  0.5887131302433843
  0.7724164403843261  0.4854989443567277  0.5788610565596102
  0.9473782834570770  0.2781559251294681  0.3342509145828174
  0.6116565744116258  0.4447888274335057  0.3366166931832737
  0.9479725734488440  0.4017257035601745  0.0938153906882704
  0.3028831547972999  0.7859529027273737  0.5401684734014154
  0.1421527629941437  0.7418334444269661  0.3040369625097910
  0.3072781993531635  0.9065573204804878  0.3052610994022160
  0.4661345795916176  0.8268138053454877  0.7904060729882545
  0.1399605702539404  0.9980982937820073  0.7881285487160952
  0.2996791152611991  0.6629067884343272  0.7818935365713955
  0.4693124579071934  0.9483112046334128  0.5395864590670669
  0.1410717162886428  0.6192500770103138  0.5395662295380959
  0.4756559399220563  0.5727714171204923  0.2944795686358432
  0.2770404730802483  0.6079817848203319  0.3340019703097141
  0.1142045046263362  0.5679136385832280  0.0928111741625557
  0.1130120610494956  0.6969754721719781  0.8235624472051626
  0.2747140888566193  0.8583380342080815  0.8204033797768417
  0.1106430159914353  0.8239061119953135  0.5874927407986803
  0.2724311664697154  0.9857514825392286  0.5810853543844559
  0.4471300502611442  0.7784882023240982  0.3356753110642288
  0.1105961880305202  0.9436161373451739  0.3366066708001796
  0.4465530215914413  0.9039347534856930  0.0945322144063212
  0.8030164723725264  0.7865830736004966  0.5395120090758212
  0.6421628655687215  0.7420783062956104  0.3043420149708567
  0.8076946813633796  0.9077203378090104  0.3024175544315213
  0.9668863273453496  0.8269540804988083  0.7900429692337951
  0.6391452146656817  0.9976560769738327  0.7881530818907478
  0.7996610754072293  0.6632034477117870  0.7819154473770880
  0.9699375015910618  0.9480922133522682  0.5359909416735888
  0.6412746541978294  0.6191886369674080  0.5402531702806002
  0.9758218471880298  0.5731702794241329  0.2945118381001919
  0.7770059947778165  0.6082092676030015  0.3345359862295041
  0.6138628315261911  0.5678291989179982  0.0934621146209409
  0.6130889355331348  0.6970619765914066  0.8242170664679662
  0.7749587208507478  0.8586510585284302  0.8208371355949566
  0.6106599403732318  0.8236639066276084  0.5882615406715317
  0.7724209720201713  0.9851766913116862  0.5794585383848059
  0.9469496448385186  0.7781700293184173  0.3349002049383287
  0.6115913876465626  0.9436184325098651  0.3388264567540418
  0.9477062181535416  0.9019044500009272  0.0941815051188968
  0.4806131639860496  0.1901759165885935  0.0374215739211365
  0.1422275620395226  0.3636227157305996  0.0345515381244255
  0.3153756861376138  0.0250741916647641  0.0372666435053333
  0.2852856935820540  0.2269646402829650  0.0713393613510647
  0.4463184631359312  0.0246780904281891  0.8333653322006356
  0.4456281143947294  0.1518548564294093  0.5769414200544034
  0.9817328944639812  0.1963217720125883  0.0395708354077584
  0.6403252916083630  0.3632751000527108  0.0363714867114240
  0.8093922936592222  0.0247104082414040  0.0391183656365541
  0.7832260481053694  0.2295620759935630  0.0808096840144472
  0.9472325460100279  0.0225346509588036  0.8234693682753402
  0.9438487798802342  0.1524569825909907  0.5734411714203418
  0.4815514649157464  0.6968354524935947  0.0402068391950507
  0.1425289881188334  0.8657277420698719  0.0364277038063037
  0.3102838321158146  0.5249370358847187  0.0391797864784564
  0.2842669938193154  0.7310853347133630  0.0809736427132393
  0.4471596605418213  0.5220865334569922  0.8233167650201239
  0.4448182803153742  0.6522210602442726  0.5741156484486538
  0.9817843433607294  0.6967139964174933  0.0394290318962405
  0.6400605200683316  0.8660372627770201  0.0381020899651361
  0.8097211318487183  0.5244078851817093  0.0389896098031102
  0.7833689727231601  0.7304384805221105  0.0807492107810575
  0.9467327160842416  0.5228620905950052  0.8235593645701655
  0.9446678872116578  0.6528593419317517  0.5739320169558297
  0.2381643147004837  0.3673301588806765  0.6287440411107710
  0.0758055643475899  0.3241512794313266  0.3935491696360245
  0.2397907612401298  0.4880681851713646  0.3875660144010951
  0.4211636127641043  0.2847808140987382  0.1492303353747602
  0.0730996873445662  0.4509028338646814  0.1445752082544942
  0.2396382716532557  0.1039531828500486  0.1486524789732329
  0.4007199694501864  0.3987087321850424  0.9010495035160204
  0.0852192692973048  0.0826891618141943  0.8986747861407451
  0.2330284110032252  0.2465094595754991  0.8693639333003276
  0.3985675662315415  0.0233507420039274  0.6230620953509955
  0.0828404133591647  0.2032610248428171  0.6323658427873085
  0.2182878037858131  0.1896656039986198  0.4321859029070438
  0.0575151866200514  0.1453815712762037  0.1983825748974581
  0.2184770910898663  0.3134710305021429  0.1953092717186067
  0.3629531563420230  0.1224803672962693  0.9130553471228708
  0.0429177011956128  0.2739737709166548  0.9029425929820221
  0.2102908364466529  0.4408889259073234  0.9030368933627457
  0.3731237392129216  0.2408751371067908  0.6754054278757167
  0.0413451656892434  0.4058117310872262  0.6820319365721659
  0.2094936931565101  0.0681346119863520  0.6721863211723473
  0.3819763743327300  0.3529124274190707  0.4306443100330171
  0.0468070779172933  0.0255041584649547  0.4354073500132145
  0.3878371325631349  0.4755168453174932  0.1982324231633612
  0.7386672099052589  0.3672127640565961  0.6311523686127032
  0.5754226717647413  0.3245478927166587  0.3969430371048901
  0.7396867381566565  0.4888276207835389  0.3893351807981347
  0.9203652814934173  0.2869497119028779  0.1489662309642199
  0.5722843704213076  0.4509681423500638  0.1459170296158305
  0.7365262689991638  0.1040475492401711  0.1488651336992817
  0.9012723583827551  0.4000183813318046  0.9013845492144981
  0.5872307039017457  0.0829825608452595  0.8983828848599487
  0.7365493963302825  0.2440762933736309  0.8744595226265588
  0.8985534867399636  0.0218886637709090  0.6204144252601012
  0.5836708040560481  0.2033370386469429  0.6351989423945952
  0.9048973399285885  0.1557721059151973  0.3662787081030032
  0.7179705533107281  0.1905365178071463  0.4351439248979005
  0.5584228288508086  0.1480936102719852  0.2059563866917742
  0.7174634910485906  0.3156158086630612  0.1996051212328425
  0.8713576704220785  0.1146687227490730  0.9153894053073586
  0.5433134223061771  0.2726410974465239  0.9035669358515008
  0.7098512975653932  0.4388544962470888  0.9042600893535848
  0.8730604644123687  0.2409096505805763  0.6797009717158247
  0.5412256588651871  0.4056499728224878  0.6833671018026450
  0.7116538257943219  0.0678188530533035  0.6746831536900970
  0.8817700290756036  0.3546277887000855  0.4321901448392467
  0.5469737296439163  0.0264070626906872  0.4395406559724435
  0.8877930379502743  0.4764096762433567  0.1985450943751559
  0.2383505806235533  0.8667774839446807  0.6310325392610920
  0.0749934693514192  0.8241109654625305  0.3956219471813185
  0.2393145359240449  0.9886116862934031  0.3909932001031038
  0.4210626353430200  0.7881411591692213  0.1503201799565659
  0.0727395192252871  0.9517160088779875  0.1458508397280056
  0.2379284333774407  0.6049580398124235  0.1482261546468138
  0.3997336386629229  0.8971774901747906  0.9015284239455497
  0.0844326188232571  0.5820451316112312  0.8981796976023659
  0.2359601868577883  0.7431655450833077  0.8744709944598910
  0.3983305286933785  0.5212084740028970  0.6196466828703038
  0.0837106029807231  0.7031313341696404  0.6353738614846947
  0.4050190716163655  0.6555950938988531  0.3670341550671381
  0.2168350185511301  0.6898709373490490  0.4334421156051391
  0.0568059180107667  0.6454482378640023  0.1983028486449996
  0.2168062499738213  0.8152003197726003  0.1998459289053685
  0.3718313696376256  0.6146748030339424  0.9149311508494407
  0.0446245268286987  0.7744758307263382  0.9043402168565891
  0.2111299979013808  0.9400173165827397  0.9034970741813950
  0.3730983831660453  0.7398268352289890  0.6794151604878280
  0.0413540977312792  0.9058990036655743  0.6830457162953252
  0.2112831761767708  0.5678652471642067  0.6736428870207689
  0.3813713876348430  0.8540881565803176  0.4347432098954869
  0.0475998498800649  0.5257908468389090  0.4359083804761923
  0.3862907225552590  0.9759521345679190  0.2061296126343493
  0.7386067421099796  0.8668266840040744  0.6314564487242080
  0.5753041221252246  0.8240984449674187  0.3964824098062607
  0.7394653834603133  0.9888240684209251  0.3900493943985595
  0.9204813593707044  0.7871227006898707  0.1494985203435277
  0.5715683835960377  0.9528148254537783  0.1498183861763636
  0.7376378938039423  0.6045258655834544  0.1487225064626045
  0.9014275594874519  0.8995551170061376  0.9016414862137268
  0.5848547333617518  0.5817648447333355  0.8988141096788098
  0.7363788378198137  0.7434752748885600  0.8744296281201684
  0.8985685892154649  0.5222776360767369  0.6200910685941921
  0.5838686984923314  0.7028643206866363  0.6359418046325729
  0.9049659327008186  0.6558039164347065  0.3670179148063326
  0.7169496118346217  0.6901460908981036  0.4338071338124223
  0.5568035116946319  0.6455138586664191  0.1988638153486946
  0.7165610450427664  0.8155145046975250  0.1990495059495530
  0.8712205518152061  0.6149786479994503  0.9155301504325593
  0.5443230190123955  0.7742176080301917  0.9046115894985292
  0.7099708876270370  0.9389056826149229  0.9042409478141096
  0.8732082841202242  0.7407267161778464  0.6796542499660347
  0.5416317445533494  0.9051236132222726  0.6835453638628550
  0.7113601648137902  0.5677138730876052  0.6746877355537961
  0.8811490363231727  0.8544567466727386  0.4322176095574761
  0.5474458129410422  0.5257389799182164  0.4366042620427990
  0.8871615382003739  0.9762830428098894  0.1985180343252679
  0.4052657733942553  0.1550647952291939  0.3659650695582428
 
  0.00000000E+00  0.00000000E+00  0.00000000E+00
  0.00000000E+00  0.00000000E+00  0.00000000E+00
  0.00000000E+00  0.00000000E+00  0.00000000E+00
  0.00000000E+00  0.00000000E+00  0.00000000E+00
  0.00000000E+00  0.00000000E+00  0.00000000E+00
  0.00000000E+00  0.00000000E+00  0.00000000E+00
  0.00000000E+00  0.00000000E+00  0.00000000E+00
  0.00000000E+00  0.00000000E+00  0.00000000E+00
  0.00000000E+00  0.00000000E+00  0.00000000E+00
  0.00000000E+00  0.00000000E+00  0.00000000E+00
  0.00000000E+00  0.00000000E+00  0.00000000E+00
  0.00000000E+00  0.00000000E+00  0.00000000E+00
  0.00000000E+00  0.00000000E+00  0.00000000E+00
  0.00000000E+00  0.00000000E+00  0.00000000E+00
  0.00000000E+00  0.00000000E+00  0.00000000E+00
  0.00000000E+00  0.00000000E+00  0.00000000E+00
  0.00000000E+00  0.00000000E+00  0.00000000E+00
  0.00000000E+00  0.00000000E+00  0.00000000E+00
  0.00000000E+00  0.00000000E+00  0.00000000E+00
  0.00000000E+00  0.00000000E+00  0.00000000E+00
  0.00000000E+00  0.00000000E+00  0.00000000E+00
  0.00000000E+00  0.00000000E+00  0.00000000E+00
  0.00000000E+00  0.00000000E+00  0.00000000E+00
  0.00000000E+00  0.00000000E+00  0.00000000E+00
  0.00000000E+00  0.00000000E+00  0.00000000E+00
  0.00000000E+00  0.00000000E+00  0.00000000E+00
  0.00000000E+00  0.00000000E+00  0.00000000E+00
  0.00000000E+00  0.00000000E+00  0.00000000E+00
  0.00000000E+00  0.00000000E+00  0.00000000E+00
  0.00000000E+00  0.00000000E+00  0.00000000E+00
  0.00000000E+00  0.00000000E+00  0.00000000E+00
  0.00000000E+00  0.00000000E+00  0.00000000E+00
  0.00000000E+00  0.00000000E+00  0.00000000E+00
  0.00000000E+00  0.00000000E+00  0.00000000E+00
  0.00000000E+00  0.00000000E+00  0.00000000E+00
  0.00000000E+00  0.00000000E+00  0.00000000E+00
  0.00000000E+00  0.00000000E+00  0.00000000E+00
  0.00000000E+00  0.00000000E+00  0.00000000E+00
  0.00000000E+00  0.00000000E+00  0.00000000E+00
  0.00000000E+00  0.00000000E+00  0.00000000E+00
  0.00000000E+00  0.00000000E+00  0.00000000E+00
  0.00000000E+00  0.00000000E+00  0.00000000E+00
  0.00000000E+00  0.00000000E+00  0.00000000E+00
  0.00000000E+00  0.00000000E+00  0.00000000E+00
  0.00000000E+00  0.00000000E+00  0.00000000E+00
  0.00000000E+00  0.00000000E+00  0.00000000E+00
  0.00000000E+00  0.00000000E+00  0.00000000E+00
  0.00000000E+00  0.00000000E+00  0.00000000E+00
  0.00000000E+00  0.00000000E+00  0.00000000E+00
  0.00000000E+00  0.00000000E+00  0.00000000E+00
  0.00000000E+00  0.00000000E+00  0.00000000E+00
  0.00000000E+00  0.00000000E+00  0.00000000E+00
  0.00000000E+00  0.00000000E+00  0.00000000E+00
  0.00000000E+00  0.00000000E+00  0.00000000E+00
  0.00000000E+00  0.00000000E+00  0.00000000E+00
  0.00000000E+00  0.00000000E+00  0.00000000E+00
  0.00000000E+00  0.00000000E+00  0.00000000E+00
  0.00000000E+00  0.00000000E+00  0.00000000E+00
  0.00000000E+00  0.00000000E+00  0.00000000E+00
  0.00000000E+00  0.00000000E+00  0.00000000E+00
  0.00000000E+00  0.00000000E+00  0.00000000E+00
  0.00000000E+00  0.00000000E+00  0.00000000E+00
  0.00000000E+00  0.00000000E+00  0.00000000E+00
  0.00000000E+00  0.00000000E+00  0.00000000E+00
  0.00000000E+00  0.00000000E+00  0.00000000E+00
  0.00000000E+00  0.00000000E+00  0.00000000E+00
  0.00000000E+00  0.00000000E+00  0.00000000E+00
  0.00000000E+00  0.00000000E+00  0.00000000E+00
  0.00000000E+00  0.00000000E+00  0.00000000E+00
  0.00000000E+00  0.00000000E+00  0.00000000E+00
  0.00000000E+00  0.00000000E+00  0.00000000E+00
  0.00000000E+00  0.00000000E+00  0.00000000E+00
  0.00000000E+00  0.00000000E+00  0.00000000E+00
  0.00000000E+00  0.00000000E+00  0.00000000E+00
  0.00000000E+00  0.00000000E+00  0.00000000E+00
  0.00000000E+00  0.00000000E+00  0.00000000E+00
  0.00000000E+00  0.00000000E+00  0.00000000E+00
  0.00000000E+00  0.00000000E+00  0.00000000E+00
  0.00000000E+00  0.00000000E+00  0.00000000E+00
  0.00000000E+00  0.00000000E+00  0.00000000E+00
  0.00000000E+00  0.00000000E+00  0.00000000E+00
  0.00000000E+00  0.00000000E+00  0.00000000E+00
  0.00000000E+00  0.00000000E+00  0.00000000E+00
  0.00000000E+00  0.00000000E+00  0.00000000E+00
  0.00000000E+00  0.00000000E+00  0.00000000E+00
  0.00000000E+00  0.00000000E+00  0.00000000E+00
  0.00000000E+00  0.00000000E+00  0.00000000E+00
  0.00000000E+00  0.00000000E+00  0.00000000E+00
  0.00000000E+00  0.00000000E+00  0.00000000E+00
  0.00000000E+00  0.00000000E+00  0.00000000E+00
  0.00000000E+00  0.00000000E+00  0.00000000E+00
  0.00000000E+00  0.00000000E+00  0.00000000E+00
  0.00000000E+00  0.00000000E+00  0.00000000E+00
  0.00000000E+00  0.00000000E+00  0.00000000E+00
  0.00000000E+00  0.00000000E+00  0.00000000E+00
  0.00000000E+00  0.00000000E+00  0.00000000E+00
  0.00000000E+00  0.00000000E+00  0.00000000E+00
  0.00000000E+00  0.00000000E+00  0.00000000E+00
  0.00000000E+00  0.00000000E+00  0.00000000E+00
  0.00000000E+00  0.00000000E+00  0.00000000E+00
  0.00000000E+00  0.00000000E+00  0.00000000E+00
  0.00000000E+00  0.00000000E+00  0.00000000E+00
  0.00000000E+00  0.00000000E+00  0.00000000E+00
  0.00000000E+00  0.00000000E+00  0.00000000E+00
  0.00000000E+00  0.00000000E+00  0.00000000E+00
  0.00000000E+00  0.00000000E+00  0.00000000E+00
  0.00000000E+00  0.00000000E+00  0.00000000E+00
  0.00000000E+00  0.00000000E+00  0.00000000E+00
  0.00000000E+00  0.00000000E+00  0.00000000E+00
  0.00000000E+00  0.00000000E+00  0.00000000E+00
  0.00000000E+00  0.00000000E+00  0.00000000E+00
  0.00000000E+00  0.00000000E+00  0.00000000E+00
  0.00000000E+00  0.00000000E+00  0.00000000E+00
  0.00000000E+00  0.00000000E+00  0.00000000E+00
  0.00000000E+00  0.00000000E+00  0.00000000E+00
  0.00000000E+00  0.00000000E+00  0.00000000E+00
  0.00000000E+00  0.00000000E+00  0.00000000E+00
  0.00000000E+00  0.00000000E+00  0.00000000E+00
  0.00000000E+00  0.00000000E+00  0.00000000E+00
  0.00000000E+00  0.00000000E+00  0.00000000E+00
  0.00000000E+00  0.00000000E+00  0.00000000E+00
  0.00000000E+00  0.00000000E+00  0.00000000E+00
  0.00000000E+00  0.00000000E+00  0.00000000E+00
  0.00000000E+00  0.00000000E+00  0.00000000E+00
  0.00000000E+00  0.00000000E+00  0.00000000E+00
  0.00000000E+00  0.00000000E+00  0.00000000E+00
  0.00000000E+00  0.00000000E+00  0.00000000E+00
  0.00000000E+00  0.00000000E+00  0.00000000E+00
  0.00000000E+00  0.00000000E+00  0.00000000E+00
  0.00000000E+00  0.00000000E+00  0.00000000E+00
  0.00000000E+00  0.00000000E+00  0.00000000E+00
  0.00000000E+00  0.00000000E+00  0.00000000E+00
  0.00000000E+00  0.00000000E+00  0.00000000E+00
  0.00000000E+00  0.00000000E+00  0.00000000E+00
  0.00000000E+00  0.00000000E+00  0.00000000E+00
  0.00000000E+00  0.00000000E+00  0.00000000E+00
  0.00000000E+00  0.00000000E+00  0.00000000E+00
  0.00000000E+00  0.00000000E+00  0.00000000E+00
  0.00000000E+00  0.00000000E+00  0.00000000E+00
  0.00000000E+00  0.00000000E+00  0.00000000E+00
  0.00000000E+00  0.00000000E+00  0.00000000E+00
  0.00000000E+00  0.00000000E+00  0.00000000E+00
  0.00000000E+00  0.00000000E+00  0.00000000E+00
  0.00000000E+00  0.00000000E+00  0.00000000E+00
  0.00000000E+00  0.00000000E+00  0.00000000E+00
  0.00000000E+00  0.00000000E+00  0.00000000E+00
  0.00000000E+00  0.00000000E+00  0.00000000E+00
  0.00000000E+00  0.00000000E+00  0.00000000E+00
  0.00000000E+00  0.00000000E+00  0.00000000E+00
  0.00000000E+00  0.00000000E+00  0.00000000E+00
  0.00000000E+00  0.00000000E+00  0.00000000E+00
  0.00000000E+00  0.00000000E+00  0.00000000E+00
  0.00000000E+00  0.00000000E+00  0.00000000E+00
  0.00000000E+00  0.00000000E+00  0.00000000E+00
  0.00000000E+00  0.00000000E+00  0.00000000E+00
  0.00000000E+00  0.00000000E+00  0.00000000E+00
  0.00000000E+00  0.00000000E+00  0.00000000E+00
  0.00000000E+00  0.00000000E+00  0.00000000E+00
  0.00000000E+00  0.00000000E+00  0.00000000E+00
  0.00000000E+00  0.00000000E+00  0.00000000E+00
  0.00000000E+00  0.00000000E+00  0.00000000E+00
  0.00000000E+00  0.00000000E+00  0.00000000E+00
  0.00000000E+00  0.00000000E+00  0.00000000E+00
  0.00000000E+00  0.00000000E+00  0.00000000E+00
  0.00000000E+00  0.00000000E+00  0.00000000E+00
  0.00000000E+00  0.00000000E+00  0.00000000E+00
  0.00000000E+00  0.00000000E+00  0.00000000E+00
  0.00000000E+00  0.00000000E+00  0.00000000E+00
  0.00000000E+00  0.00000000E+00  0.00000000E+00
  0.00000000E+00  0.00000000E+00  0.00000000E+00
  0.00000000E+00  0.00000000E+00  0.00000000E+00
  0.00000000E+00  0.00000000E+00  0.00000000E+00
  0.00000000E+00  0.00000000E+00  0.00000000E+00
  0.00000000E+00  0.00000000E+00  0.00000000E+00
  0.00000000E+00  0.00000000E+00  0.00000000E+00
  0.00000000E+00  0.00000000E+00  0.00000000E+00
  0.00000000E+00  0.00000000E+00  0.00000000E+00
  0.00000000E+00  0.00000000E+00  0.00000000E+00
  0.00000000E+00  0.00000000E+00  0.00000000E+00
  0.00000000E+00  0.00000000E+00  0.00000000E+00
  0.00000000E+00  0.00000000E+00  0.00000000E+00
  0.00000000E+00  0.00000000E+00  0.00000000E+00
  0.00000000E+00  0.00000000E+00  0.00000000E+00
  0.00000000E+00  0.00000000E+00  0.00000000E+00
  0.00000000E+00  0.00000000E+00  0.00000000E+00
  0.00000000E+00  0.00000000E+00  0.00000000E+00
  0.00000000E+00  0.00000000E+00  0.00000000E+00
  0.00000000E+00  0.00000000E+00  0.00000000E+00
  0.00000000E+00  0.00000000E+00  0.00000000E+00
  0.00000000E+00  0.00000000E+00  0.00000000E+00
  0.00000000E+00  0.00000000E+00  0.00000000E+00
  0.00000000E+00  0.00000000E+00  0.00000000E+00
