supercell of POSCAR                     
   1.07329600000000     
     9.1016125577399993   -5.3128209557800004   -9.4184911254399992
     9.0821131104399999    5.2871675818400004    9.4140884809200003
    -1.5053809694200000   -7.9210976524300012    4.6939078171600004
   Al   Sc   N 
    72    23    96
Direct
  0.3035898327291378  0.2858708245864818  0.5368090445303295
  0.1444964496285976  0.2410933231990100  0.3005327761899892
  0.3087130755771526  0.4055273489025382  0.2992034507377994
  0.4652428415781813  0.3269563641726521  0.7899698097779719
  0.1398863494777345  0.4980217649397360  0.7861307308121184
  0.2962099926684374  0.1660279091597161  0.7835069927407332
  0.4701297280112016  0.4486005955477239  0.5343469106389023
  0.1411364807169875  0.1189484383823256  0.5378691843185592
  0.4753085598626896  0.0735213903833909  0.3008880836622652
  0.2786481558225944  0.1056930465013863  0.3330978235214559
  0.1168812160303219  0.0676511448363826  0.0938103343797891
  0.1110025561617078  0.1969598295895096  0.8211342455578077
  0.2750648437863106  0.3599555135724799  0.8174132181466049
  0.1112086390807789  0.3234405673696870  0.5842340606311396
  0.2729539902625646  0.4858526178231131  0.5760713322118747
  0.4484909052271604  0.2760036967073916  0.3335150814735997
  0.1125920739616006  0.4430888966927427  0.3327865458898742
  0.4482701503983719  0.3992834102489127  0.0948284699083501
  0.8026213129440123  0.2862302674860047  0.5388854947224075
  0.6410497403589019  0.2406111218272073  0.3038291048853097
  0.8081813370907369  0.4064074637523731  0.3002549172560194
  0.9661561600883743  0.3269268276350275  0.7886500561354168
  0.6393986859507166  0.4975129488640420  0.7873101866445893
  0.7983016316930289  0.1630798589692546  0.7826377603481518
  0.9704761812145222  0.4478176736303467  0.5336005686550322
  0.6405689112670387  0.1190936212569795  0.5418635165881014
  0.9760092727287244  0.0723730427463707  0.2938533585427479
  0.7769771653099653  0.1074173884885141  0.3368663317658545
  0.6137476252186360  0.0681412978330869  0.0950242173707636
  0.6137560926663710  0.1955611405445126  0.8244692241764540
  0.7752175968903572  0.3594573786738593  0.8196168052748050
  0.6106548688712508  0.3228277172508101  0.5878140910305660
  0.7725338660418757  0.4850045173867272  0.5770870724249946
  0.9473066885519543  0.2772428491338985  0.3329621320009366
  0.6115965387348226  0.4430980415723766  0.3353427144321515
  0.9489882464125756  0.4004290336125322  0.0922781321274968
  0.3027894983027082  0.7883843451868273  0.5404794067917393
  0.1431683891040407  0.7421146035459856  0.3027314458776189
  0.3092288320802226  0.9098298201705077  0.3058323650372472
  0.4639871968131217  0.8379541111613307  0.7977601513727848
  0.1389574399349556  0.9982692764415617  0.7874620012831173
  0.2996343913627371  0.6650865935931662  0.7826867240842574
  0.4676084047055369  0.9514945699959014  0.5482130148357101
  0.1416931971401922  0.6193673404924880  0.5384261987039878
  0.4763378216799836  0.5730151003962121  0.2955917392520533
  0.2782117753449995  0.6085850904545680  0.3333156275258276
  0.1158705408742762  0.5671484365698660  0.0914062469368773
  0.1126488901912452  0.6972595519775453  0.8227728716127629
  0.2771496864837673  0.8595920585659016  0.8204221245531187
  0.1107316994540426  0.8238574353330463  0.5871019048474082
  0.2742051702492958  0.9866888742573181  0.5832766391497870
  0.4478286548291521  0.7791956658067249  0.3386150463888384
  0.1114339249352412  0.9438318529118987  0.3363642576343437
  0.4472835491305318  0.9023498591622783  0.0966194610355728
  0.8025097207653786  0.7863221688649418  0.5394656654771666
  0.6419201295415604  0.7422288647153295  0.3045183463584067
  0.8070335900475456  0.9077048621011983  0.3031129978853784
  0.9661488850234576  0.8266310697639554  0.7898514804299879
  0.6312276723908994  0.0008657228724473  0.7950102123160363
  0.7993901783896860  0.6631018172371910  0.7817881737882786
  0.9690086939211042  0.9479785745539502  0.5356670334414133
  0.6411299048977313  0.6189608281821606  0.5394700568829833
  0.9766004486296254  0.5724455149235510  0.2934418427234959
  0.7770724921843168  0.6076151131726135  0.3331699669301855
  0.6143442452910719  0.5682898741990599  0.0928775044780679
  0.6122806305584376  0.6986208266604734  0.8237396532090457
  0.7731148319609957  0.8592283442208313  0.8209704861267255
  0.6099476993503927  0.8249615254277884  0.5903361873249082
  0.7704249563722243  0.9852245235299790  0.5820469570739135
  0.9469746336034106  0.7778647082595285  0.3339413986586095
  0.6099076439946458  0.9446734884950061  0.3403445809406733
  0.9468113633322659  0.9013188551106737  0.0941808976976617
  0.4835536420792081  0.1860769295199134  0.0245814793899441
  0.1455943985436150  0.3602412955463308  0.0316452302941101
  0.3183954874343229  0.0195367518535718  0.0231096713672585
  0.2912366794906873  0.2211241772828387  0.0722905982041766
  0.4437223680210636  0.1493225902693567  0.5849153363390158
  0.9810137787138800  0.1958402402737534  0.0380674500827709
  0.6393904158176156  0.3632426091326124  0.0352659503231223
  0.8073922404395688  0.0241966678195809  0.0384975401527328
  0.7811319788148623  0.2276798412651218  0.0794778462377224
  0.9455469114046053  0.0218159222288037  0.8235320483996773
  0.9438176836081098  0.1519436413111706  0.5735324088417428
  0.4815391423342987  0.6984219370477405  0.0386269051608750
  0.1423965857875942  0.8669479496475745  0.0363675978990727
  0.3109371921137267  0.5253462595575797  0.0375352980343777
  0.2858324317802214  0.7337189964414677  0.0801305946933297
  0.4472686479684924  0.5229435811420657  0.8218852460243369
  0.4440614586359573  0.6565445141398101  0.5781228824409581
  0.9820251785911722  0.6966415766682488  0.0380805728705909
  0.6396537553884443  0.8658448439770652  0.0382574344945539
  0.8098932079371224  0.5239268001127755  0.0374863355866140
  0.7833213259288812  0.7302931886246000  0.0804277706146053
  0.9469169989233777  0.5225546351638499  0.8210426460240967
  0.9442770232196906  0.6525246738529020  0.5722012522607045
  0.2383616219408324  0.3679418416024305  0.6278422777337624
  0.0755501905609606  0.3238559813733630  0.3923873779678857
  0.2402563718721282  0.4885120754482841  0.3863235469243236
  0.4273891497629236  0.2852259660713941  0.1486911185829243
  0.0745396786837844  0.4493993554224929  0.1415738387069112
  0.2394936866936135  0.0977571240897106  0.1476537996386966
  0.4011700820289050  0.4012157423102778  0.9017379565782448
  0.0829345097487248  0.0821604645051295  0.8979020003421425
  0.2306755866391157  0.2489990338051911  0.8739160452517609
  0.3955207519143329  0.0233969051240095  0.6192344673539125
  0.0824040726726949  0.2033038041276001  0.6325293681253328
  0.4055540801777653  0.1565737780694718  0.3737743132119462
  0.2168170532734308  0.1895580928060170  0.4320428210705458
  0.0568448902039478  0.1449097083891004  0.1969873118515508
  0.2195705320960428  0.3128165517497266  0.1962806387090907
  0.3556927614775631  0.1341138443929211  0.9361790579378919
  0.0418852574566131  0.2736744746246771  0.9028284842091026
  0.2110904068331365  0.4416343488061187  0.9024481333277805
  0.3703691112274328  0.2429936788022289  0.6815305174965829
  0.0414345211741747  0.4057940476543891  0.6812300872863943
  0.2088961379690488  0.0693170217373336  0.6750558871842287
  0.3823373010121571  0.3546434676999084  0.4310423790468718
  0.0463460257702053  0.0251090164341363  0.4360362821773194
  0.3883782856796856  0.4763498350985103  0.1975577158276209
  0.7391406972635011  0.3677033456434771  0.6306464112049923
  0.5767645675938127  0.3246235934599682  0.3967197340515156
  0.7403991639906096  0.4882428583594987  0.3874780230682120
  0.9190540125647075  0.2860081795097003  0.1477345666147656
  0.5732685569997003  0.4521828161179187  0.1447590091970383
  0.7386607203848428  0.1033335979604146  0.1531260437838498
  0.9019058738378547  0.4007504196703877  0.9003819262045454
  0.5919071806523348  0.0895124156818241  0.9108207881646138
  0.7378700841354515  0.2461268427060403  0.8743228209452596
  0.8975184479898815  0.0216094417022248  0.6206688284486646
  0.5855416065212040  0.2039613938178988  0.6368302277460529
  0.9056150633927942  0.1553639646500073  0.3670836852130890
  0.7173360005854903  0.1899960636332523  0.4346523840893397
  0.5559628913471286  0.1444969413038208  0.2021397310246726
  0.7165539045536704  0.3145411090806860  0.1983051843297474
  0.8704713894472675  0.1141871381865442  0.9161101724135960
  0.5442079484140123  0.2750516420431239  0.9000825814687161
  0.7100749708936576  0.4395108191037238  0.9039182759748172
  0.8728122210908182  0.2405500703846428  0.6791981027962066
  0.5410117908148777  0.4068104316172736  0.6827009418085126
  0.7101162145084317  0.0677046568739996  0.6775062736093176
  0.8816604587922470  0.3538574689255256  0.4311841848784965
  0.5480858528468531  0.0253670393257863  0.4411530262878003
  0.8886130829262697  0.4755780269919043  0.1969058561471471
  0.2366024943396425  0.8666366348342578  0.6309988445553003
  0.0744688029017908  0.8231815810264180  0.3945550305531995
  0.2375072939151792  0.9877579272621233  0.3912930693915584
  0.4225242819247299  0.7865956199674926  0.1540982050811408
  0.0707770449564293  0.9510434406268189  0.1452797924761740
  0.2393021078552664  0.6064527004389006  0.1471333870792648
  0.3956355140557832  0.8969159580728032  0.9140242016599203
  0.0841446471723017  0.5816030260292422  0.8969301527368287
  0.2342806361551339  0.7430120716570130  0.8740080613216819
  0.3990490455582503  0.5236515115144798  0.6187991271973772
  0.0828490712309957  0.7023483771316918  0.6341771831168899
  0.4060981823014771  0.6554884937632508  0.3696345621905621
  0.2172580741881944  0.6902152252660514  0.4327736787858782
  0.0574155083934471  0.6445664746958286  0.1964636245631795
  0.2174131836833197  0.8162507169892166  0.1991610898812013
  0.3722642336558977  0.6154501974730380  0.9144373991553465
  0.0441030029720935  0.7744824272583486  0.9041001998444358
  0.2080527409818416  0.9385971425350235  0.9003038759413613
  0.3723460032326997  0.7440604145608347  0.6826753920153337
  0.0398543987240885  0.9053225929859749  0.6821802492922515
  0.2118222281889004  0.5684062915142363  0.6730199299017059
  0.3819422995798263  0.8544449362134827  0.4348839874034596
  0.0483236514984497  0.5251063204869908  0.4343298540270766
  0.3883997569010020  0.9775868469981432  0.2028523272542486
  0.7389141204474825  0.8660438378538444  0.6317440738311006
  0.5764459554069603  0.8233741239288932  0.3972173413081919
  0.7395775912144558  0.9880749876518280  0.3918963520381240
  0.9203341092800983  0.7861935752588636  0.1485653083413112
  0.5730676098681258  0.9511453003402508  0.1497776462481966
  0.7383584432470300  0.6042440470389394  0.1474446969686909
  0.9003269776393807  0.8987154750693307  0.9015798692940109
  0.5853083078647643  0.5825219072174903  0.8981485456649381
  0.7362234832583852  0.7432853098662591  0.8741099235052587
  0.8989170381940070  0.5219038630885393  0.6177606977027992
  0.5844172026952705  0.7022864449264290  0.6353535747375574
  0.9053034575241554  0.6550366768837392  0.3651175812542817
  0.7173999227471981  0.6894223780312245  0.4328803539094395
  0.5569095581942420  0.6456250588113406  0.1975620606920430
  0.7172669347924341  0.8146538248156148  0.1988888595504150
  0.8717924635694700  0.6144616573130719  0.9148026990563807
  0.5435285392965525  0.7758332500098959  0.9035583098566207
  0.7083106858606385  0.9391281049495319  0.9042355310809356
  0.8731484668441709  0.7398583422492351  0.6790221853617879
  0.5429380081501378  0.9039384580040419  0.6836856653173697
  0.7119736173337259  0.5674256662830857  0.6737428650480268
  0.8810313166771522  0.8536997820150631  0.4317675265604137
  0.5487995533390162  0.5251517942549810  0.4353213190799465
  0.8865049616872724  0.9758500312623681  0.1981889507122858
 
  0.00000000E+00  0.00000000E+00  0.00000000E+00
  0.00000000E+00  0.00000000E+00  0.00000000E+00
  0.00000000E+00  0.00000000E+00  0.00000000E+00
  0.00000000E+00  0.00000000E+00  0.00000000E+00
  0.00000000E+00  0.00000000E+00  0.00000000E+00
  0.00000000E+00  0.00000000E+00  0.00000000E+00
  0.00000000E+00  0.00000000E+00  0.00000000E+00
  0.00000000E+00  0.00000000E+00  0.00000000E+00
  0.00000000E+00  0.00000000E+00  0.00000000E+00
  0.00000000E+00  0.00000000E+00  0.00000000E+00
  0.00000000E+00  0.00000000E+00  0.00000000E+00
  0.00000000E+00  0.00000000E+00  0.00000000E+00
  0.00000000E+00  0.00000000E+00  0.00000000E+00
  0.00000000E+00  0.00000000E+00  0.00000000E+00
  0.00000000E+00  0.00000000E+00  0.00000000E+00
  0.00000000E+00  0.00000000E+00  0.00000000E+00
  0.00000000E+00  0.00000000E+00  0.00000000E+00
  0.00000000E+00  0.00000000E+00  0.00000000E+00
  0.00000000E+00  0.00000000E+00  0.00000000E+00
  0.00000000E+00  0.00000000E+00  0.00000000E+00
  0.00000000E+00  0.00000000E+00  0.00000000E+00
  0.00000000E+00  0.00000000E+00  0.00000000E+00
  0.00000000E+00  0.00000000E+00  0.00000000E+00
  0.00000000E+00  0.00000000E+00  0.00000000E+00
  0.00000000E+00  0.00000000E+00  0.00000000E+00
  0.00000000E+00  0.00000000E+00  0.00000000E+00
  0.00000000E+00  0.00000000E+00  0.00000000E+00
  0.00000000E+00  0.00000000E+00  0.00000000E+00
  0.00000000E+00  0.00000000E+00  0.00000000E+00
  0.00000000E+00  0.00000000E+00  0.00000000E+00
  0.00000000E+00  0.00000000E+00  0.00000000E+00
  0.00000000E+00  0.00000000E+00  0.00000000E+00
  0.00000000E+00  0.00000000E+00  0.00000000E+00
  0.00000000E+00  0.00000000E+00  0.00000000E+00
  0.00000000E+00  0.00000000E+00  0.00000000E+00
  0.00000000E+00  0.00000000E+00  0.00000000E+00
  0.00000000E+00  0.00000000E+00  0.00000000E+00
  0.00000000E+00  0.00000000E+00  0.00000000E+00
  0.00000000E+00  0.00000000E+00  0.00000000E+00
  0.00000000E+00  0.00000000E+00  0.00000000E+00
  0.00000000E+00  0.00000000E+00  0.00000000E+00
  0.00000000E+00  0.00000000E+00  0.00000000E+00
  0.00000000E+00  0.00000000E+00  0.00000000E+00
  0.00000000E+00  0.00000000E+00  0.00000000E+00
  0.00000000E+00  0.00000000E+00  0.00000000E+00
  0.00000000E+00  0.00000000E+00  0.00000000E+00
  0.00000000E+00  0.00000000E+00  0.00000000E+00
  0.00000000E+00  0.00000000E+00  0.00000000E+00
  0.00000000E+00  0.00000000E+00  0.00000000E+00
  0.00000000E+00  0.00000000E+00  0.00000000E+00
  0.00000000E+00  0.00000000E+00  0.00000000E+00
  0.00000000E+00  0.00000000E+00  0.00000000E+00
  0.00000000E+00  0.00000000E+00  0.00000000E+00
  0.00000000E+00  0.00000000E+00  0.00000000E+00
  0.00000000E+00  0.00000000E+00  0.00000000E+00
  0.00000000E+00  0.00000000E+00  0.00000000E+00
  0.00000000E+00  0.00000000E+00  0.00000000E+00
  0.00000000E+00  0.00000000E+00  0.00000000E+00
  0.00000000E+00  0.00000000E+00  0.00000000E+00
  0.00000000E+00  0.00000000E+00  0.00000000E+00
  0.00000000E+00  0.00000000E+00  0.00000000E+00
  0.00000000E+00  0.00000000E+00  0.00000000E+00
  0.00000000E+00  0.00000000E+00  0.00000000E+00
  0.00000000E+00  0.00000000E+00  0.00000000E+00
  0.00000000E+00  0.00000000E+00  0.00000000E+00
  0.00000000E+00  0.00000000E+00  0.00000000E+00
  0.00000000E+00  0.00000000E+00  0.00000000E+00
  0.00000000E+00  0.00000000E+00  0.00000000E+00
  0.00000000E+00  0.00000000E+00  0.00000000E+00
  0.00000000E+00  0.00000000E+00  0.00000000E+00
  0.00000000E+00  0.00000000E+00  0.00000000E+00
  0.00000000E+00  0.00000000E+00  0.00000000E+00
  0.00000000E+00  0.00000000E+00  0.00000000E+00
  0.00000000E+00  0.00000000E+00  0.00000000E+00
  0.00000000E+00  0.00000000E+00  0.00000000E+00
  0.00000000E+00  0.00000000E+00  0.00000000E+00
  0.00000000E+00  0.00000000E+00  0.00000000E+00
  0.00000000E+00  0.00000000E+00  0.00000000E+00
  0.00000000E+00  0.00000000E+00  0.00000000E+00
  0.00000000E+00  0.00000000E+00  0.00000000E+00
  0.00000000E+00  0.00000000E+00  0.00000000E+00
  0.00000000E+00  0.00000000E+00  0.00000000E+00
  0.00000000E+00  0.00000000E+00  0.00000000E+00
  0.00000000E+00  0.00000000E+00  0.00000000E+00
  0.00000000E+00  0.00000000E+00  0.00000000E+00
  0.00000000E+00  0.00000000E+00  0.00000000E+00
  0.00000000E+00  0.00000000E+00  0.00000000E+00
  0.00000000E+00  0.00000000E+00  0.00000000E+00
  0.00000000E+00  0.00000000E+00  0.00000000E+00
  0.00000000E+00  0.00000000E+00  0.00000000E+00
  0.00000000E+00  0.00000000E+00  0.00000000E+00
  0.00000000E+00  0.00000000E+00  0.00000000E+00
  0.00000000E+00  0.00000000E+00  0.00000000E+00
  0.00000000E+00  0.00000000E+00  0.00000000E+00
  0.00000000E+00  0.00000000E+00  0.00000000E+00
  0.00000000E+00  0.00000000E+00  0.00000000E+00
  0.00000000E+00  0.00000000E+00  0.00000000E+00
  0.00000000E+00  0.00000000E+00  0.00000000E+00
  0.00000000E+00  0.00000000E+00  0.00000000E+00
  0.00000000E+00  0.00000000E+00  0.00000000E+00
  0.00000000E+00  0.00000000E+00  0.00000000E+00
  0.00000000E+00  0.00000000E+00  0.00000000E+00
  0.00000000E+00  0.00000000E+00  0.00000000E+00
  0.00000000E+00  0.00000000E+00  0.00000000E+00
  0.00000000E+00  0.00000000E+00  0.00000000E+00
  0.00000000E+00  0.00000000E+00  0.00000000E+00
  0.00000000E+00  0.00000000E+00  0.00000000E+00
  0.00000000E+00  0.00000000E+00  0.00000000E+00
  0.00000000E+00  0.00000000E+00  0.00000000E+00
  0.00000000E+00  0.00000000E+00  0.00000000E+00
  0.00000000E+00  0.00000000E+00  0.00000000E+00
  0.00000000E+00  0.00000000E+00  0.00000000E+00
  0.00000000E+00  0.00000000E+00  0.00000000E+00
  0.00000000E+00  0.00000000E+00  0.00000000E+00
  0.00000000E+00  0.00000000E+00  0.00000000E+00
  0.00000000E+00  0.00000000E+00  0.00000000E+00
  0.00000000E+00  0.00000000E+00  0.00000000E+00
  0.00000000E+00  0.00000000E+00  0.00000000E+00
  0.00000000E+00  0.00000000E+00  0.00000000E+00
  0.00000000E+00  0.00000000E+00  0.00000000E+00
  0.00000000E+00  0.00000000E+00  0.00000000E+00
  0.00000000E+00  0.00000000E+00  0.00000000E+00
  0.00000000E+00  0.00000000E+00  0.00000000E+00
  0.00000000E+00  0.00000000E+00  0.00000000E+00
  0.00000000E+00  0.00000000E+00  0.00000000E+00
  0.00000000E+00  0.00000000E+00  0.00000000E+00
  0.00000000E+00  0.00000000E+00  0.00000000E+00
  0.00000000E+00  0.00000000E+00  0.00000000E+00
  0.00000000E+00  0.00000000E+00  0.00000000E+00
  0.00000000E+00  0.00000000E+00  0.00000000E+00
  0.00000000E+00  0.00000000E+00  0.00000000E+00
  0.00000000E+00  0.00000000E+00  0.00000000E+00
  0.00000000E+00  0.00000000E+00  0.00000000E+00
  0.00000000E+00  0.00000000E+00  0.00000000E+00
  0.00000000E+00  0.00000000E+00  0.00000000E+00
  0.00000000E+00  0.00000000E+00  0.00000000E+00
  0.00000000E+00  0.00000000E+00  0.00000000E+00
  0.00000000E+00  0.00000000E+00  0.00000000E+00
  0.00000000E+00  0.00000000E+00  0.00000000E+00
  0.00000000E+00  0.00000000E+00  0.00000000E+00
  0.00000000E+00  0.00000000E+00  0.00000000E+00
  0.00000000E+00  0.00000000E+00  0.00000000E+00
  0.00000000E+00  0.00000000E+00  0.00000000E+00
  0.00000000E+00  0.00000000E+00  0.00000000E+00
  0.00000000E+00  0.00000000E+00  0.00000000E+00
  0.00000000E+00  0.00000000E+00  0.00000000E+00
  0.00000000E+00  0.00000000E+00  0.00000000E+00
  0.00000000E+00  0.00000000E+00  0.00000000E+00
  0.00000000E+00  0.00000000E+00  0.00000000E+00
  0.00000000E+00  0.00000000E+00  0.00000000E+00
  0.00000000E+00  0.00000000E+00  0.00000000E+00
  0.00000000E+00  0.00000000E+00  0.00000000E+00
  0.00000000E+00  0.00000000E+00  0.00000000E+00
  0.00000000E+00  0.00000000E+00  0.00000000E+00
  0.00000000E+00  0.00000000E+00  0.00000000E+00
  0.00000000E+00  0.00000000E+00  0.00000000E+00
  0.00000000E+00  0.00000000E+00  0.00000000E+00
  0.00000000E+00  0.00000000E+00  0.00000000E+00
  0.00000000E+00  0.00000000E+00  0.00000000E+00
  0.00000000E+00  0.00000000E+00  0.00000000E+00
  0.00000000E+00  0.00000000E+00  0.00000000E+00
  0.00000000E+00  0.00000000E+00  0.00000000E+00
  0.00000000E+00  0.00000000E+00  0.00000000E+00
  0.00000000E+00  0.00000000E+00  0.00000000E+00
  0.00000000E+00  0.00000000E+00  0.00000000E+00
  0.00000000E+00  0.00000000E+00  0.00000000E+00
  0.00000000E+00  0.00000000E+00  0.00000000E+00
  0.00000000E+00  0.00000000E+00  0.00000000E+00
  0.00000000E+00  0.00000000E+00  0.00000000E+00
  0.00000000E+00  0.00000000E+00  0.00000000E+00
  0.00000000E+00  0.00000000E+00  0.00000000E+00
  0.00000000E+00  0.00000000E+00  0.00000000E+00
  0.00000000E+00  0.00000000E+00  0.00000000E+00
  0.00000000E+00  0.00000000E+00  0.00000000E+00
  0.00000000E+00  0.00000000E+00  0.00000000E+00
  0.00000000E+00  0.00000000E+00  0.00000000E+00
  0.00000000E+00  0.00000000E+00  0.00000000E+00
  0.00000000E+00  0.00000000E+00  0.00000000E+00
  0.00000000E+00  0.00000000E+00  0.00000000E+00
  0.00000000E+00  0.00000000E+00  0.00000000E+00
  0.00000000E+00  0.00000000E+00  0.00000000E+00
  0.00000000E+00  0.00000000E+00  0.00000000E+00
  0.00000000E+00  0.00000000E+00  0.00000000E+00
  0.00000000E+00  0.00000000E+00  0.00000000E+00
  0.00000000E+00  0.00000000E+00  0.00000000E+00
  0.00000000E+00  0.00000000E+00  0.00000000E+00
  0.00000000E+00  0.00000000E+00  0.00000000E+00
  0.00000000E+00  0.00000000E+00  0.00000000E+00
  0.00000000E+00  0.00000000E+00  0.00000000E+00
  0.00000000E+00  0.00000000E+00  0.00000000E+00
  0.00000000E+00  0.00000000E+00  0.00000000E+00
