supercell of POSCAR                     
   1.07329600000000     
     9.1016125577399993   -5.3128209557800004   -9.4184911254399992
     9.0821131104399999    5.2871675818400004    9.4140884809200003
    -1.5053809694200000   -7.9210976524300012    4.6939078171600004
   Al   Sc   N 
    72    23    96
Direct
  0.3037932900398701  0.2859501800720992  0.5403007181117658
  0.1425549775218968  0.2418192058435977  0.3041842680972877
  0.3081734859734553  0.4073771086927138  0.3029062234623439
  0.4670092099282854  0.3256750940287674  0.7901803456850089
  0.1407962601197710  0.4967351136390690  0.7872143341164488
  0.3003190792945745  0.1637606512764691  0.7815246347371740
  0.4697164700116190  0.4489946095262525  0.5366145385668091
  0.1410893826865660  0.1193727687760529  0.5405215343469365
  0.4765147209942953  0.0725975640693761  0.3029275315423163
  0.2764275549840463  0.1069745695829738  0.3386025063610560
  0.1143844743548925  0.0680800177521093  0.0939225238321555
  0.1128053463267520  0.1964181658002175  0.8236365559235139
  0.2782270342918594  0.3555640484991400  0.8167590166788870
  0.1106743350691914  0.3237302580672576  0.5868809892215197
  0.2722546766054563  0.4855739589451957  0.5781772368373197
  0.4479957211721555  0.2786582987261710  0.3411668409996551
  0.1116620267903485  0.4436591693995595  0.3353363890192753
  0.4479643582910171  0.4020162806476293  0.0970477747393659
  0.8019200098671817  0.2860332558147078  0.5391662313614916
  0.6417808460571592  0.2417703729569496  0.3052411214625934
  0.8079691006472771  0.4074066027069421  0.3021343852779381
  0.9661762831533451  0.3263656847986525  0.7896760072689730
  0.6398400585410613  0.4977801013853949  0.7879429598192971
  0.7985265735595206  0.1626346852250720  0.7815495670006527
  0.9699812744328398  0.4478398794283152  0.5349743983210402
  0.6378084330598952  0.1178275383633007  0.5394767339799884
  0.9756926737803653  0.0728069449641922  0.2947442354334626
  0.7763590163204555  0.1075921717550372  0.3346350725941321
  0.6132765757119003  0.0680122508476799  0.0935305826905761
  0.6114757304849263  0.1966430206228083  0.8258499680396767
  0.7745948439279857  0.3583274398983107  0.8195627244010595
  0.6090009414122193  0.3243739360586773  0.5876616590382966
  0.7724394632144538  0.4853004092187305  0.5783788714491820
  0.9467568721268904  0.2777392061038668  0.3343182256510175
  0.6114673348231676  0.4444033086714398  0.3372574999358520
  0.9480063663610920  0.4011071762886971  0.0938162033447014
  0.3033602385852205  0.7879043925416980  0.5386113792877865
  0.1426064254073509  0.7418702109450592  0.3031497256941549
  0.3081450464130526  0.9078309073696502  0.3028511141355139
  0.4668858054250151  0.8301157305783420  0.7893051362843835
  0.1398280779908063  0.9974913255675020  0.7877980833829170
  0.3004300814303988  0.6640946116408060  0.7820006136432198
  0.4688021132787341  0.9516266710663501  0.5356542987079038
  0.1418726070749798  0.6193157052055511  0.5389512353052979
  0.4761193336955643  0.5733582939520687  0.2952582646826301
  0.2775791460050172  0.6079817861935766  0.3331735014637687
  0.1151306823478748  0.5674869821623929  0.0925374445980225
  0.1143398087005778  0.6969138427392210  0.8227564415767077
  0.2764231638762027  0.8600541028902100  0.8190817988766597
  0.1111098499806360  0.8237344383557215  0.5866241617390600
  0.2733621533977058  0.9870788635967713  0.5780987902535770
  0.4475393422473886  0.7787300122139271  0.3336081419770238
  0.1108642798216195  0.9438260681056150  0.3361479019159361
  0.4479841099713582  0.9028610409644742  0.0929339072416226
  0.8031199736295775  0.7862767707968885  0.5384487417110861
  0.6424577200434101  0.7417028687964944  0.3031114338186427
  0.8081779812847998  0.9073543025196216  0.3015684133862067
  0.9670385195463140  0.8264749233244473  0.7893423470994350
  0.6387250314410338  0.9973726208037164  0.7874583844866407
  0.8001361995603986  0.6630536928900597  0.7817657803741938
  0.9698459925507308  0.9480258215288018  0.5354906439441507
  0.6415307734741091  0.6194412860694385  0.5394887320254398
  0.9763199632550368  0.5726338206543673  0.2942502507472327
  0.7773570734112525  0.6077451224795212  0.3335906857449231
  0.6144680582677822  0.5683682533388534  0.0932497850488758
  0.6133280452967682  0.6974904649054423  0.8225336615939867
  0.7751866512490579  0.8584582843608217  0.8192415998649238
  0.6106587312290515  0.8242856432445507  0.5861762959558874
  0.7719296460633913  0.9851000096482565  0.5781250086115790
  0.9472888954117735  0.7777715246285553  0.3338406177948130
  0.6117906721800566  0.9433176722266481  0.3356312633272367
  0.9474673658960100  0.9013914588473142  0.0935464047121854
  0.4813109704924585  0.1972165496383838  0.0427161584279645
  0.1427531340140789  0.3635241284761435  0.0340010782019888
  0.3107152579923280  0.0243848720517121  0.0391942151506228
  0.2848273691325716  0.2289326116115475  0.0824488128138157
  0.4450595509677058  0.0292785591694980  0.8157415219847621
  0.9810853936398019  0.1964647175031686  0.0384394170494389
  0.6409617240941188  0.3655158838521544  0.0373888965160418
  0.8088573821236338  0.0246378747033447  0.0381414724345177
  0.7829586124911430  0.2299667635419382  0.0811194079723663
  0.9463663120859920  0.0219805650720488  0.8226653515392712
  0.9440247522098417  0.1524745829047163  0.5736965663737692
  0.4818566332770686  0.6972288619734570  0.0372302902172521
  0.1415248659078969  0.8651044933425496  0.0358706913710165
  0.3107423100268960  0.5231423446480079  0.0361112238878789
  0.2843553070943869  0.7299889948998839  0.0805688764756880
  0.4475046653779486  0.5221653235326826  0.8225235948257961
  0.4445178909789718  0.6540758250084977  0.5740933739094203
  0.9821634033486788  0.6964475774882715  0.0376645559810456
  0.6411150560513903  0.8648649025737711  0.0354380145357283
  0.8102239215498841  0.5241514956205719  0.0373193198834016
  0.7839842473254492  0.7298922939829353  0.0802377308810875
  0.9477550278605733  0.5216860353835031  0.8217464997602875
  0.9449925988247188  0.6524376647562349  0.5730527450585825
  0.2370851532100176  0.3679902540195883  0.6290789390046285
  0.0746451311892855  0.3240086040164059  0.3948817451056215
  0.2395213692160141  0.4889227762414734  0.3885909154301501
  0.4213675257287761  0.2875550059819432  0.1542224162428525
  0.0729682926019564  0.4506070780658789  0.1439992448910630
  0.2378784162067262  0.1035286626244556  0.1506143964490292
  0.4028486081685259  0.4022128515486614  0.9065875700746133
  0.0840285060607755  0.0813203161401646  0.8989598551048630
  0.2346244046275956  0.2437480180836431  0.8785305120438736
  0.3963940811362789  0.0200700248996810  0.6177989771127628
  0.0830157343589732  0.2031684181794589  0.6356306465971784
  0.4025688269012520  0.1551532740189216  0.3584035994345101
  0.2164743118517052  0.1901464212655597  0.4344317417739489
  0.0563524859961788  0.1455764569652658  0.1980764433208932
  0.2172788891354216  0.3149689819888621  0.1993867290068607
  0.3700898555141876  0.1177780283877325  0.9198347560078517
  0.0434550027348664  0.2736397219670295  0.9036473695871834
  0.2116811980591038  0.4378446374367329  0.9015394622639903
  0.3657677668105990  0.2515336086651345  0.6928243499027076
  0.0407826945738350  0.4058333942628636  0.6830201647117065
  0.2105602944600449  0.0683744483089441  0.6752637663084045
  0.3814982619975069  0.3551518306674737  0.4340111168911989
  0.0471025711183088  0.0256742580196914  0.4363999929350655
  0.3875307524236860  0.4768217390418812  0.2000846087854455
  0.7382430007970342  0.3673316264058286  0.6308356944202913
  0.5757257874606907  0.3250418675231757  0.3965546188918339
  0.7398733031478599  0.4887204735299946  0.3889196849385925
  0.9199544005844231  0.2865709847723608  0.1489735425241960
  0.5728299947354003  0.4521710355109292  0.1469816789259539
  0.7372916262763667  0.1044556290088110  0.1487376483745919
  0.9011503666207901  0.3995510821679247  0.9014015416440060
  0.5851003500115297  0.0820648105360462  0.8992759108550032
  0.7358865595761301  0.2436537925482654  0.8748189218517268
  0.8983000720577721  0.0218748969843858  0.6198102115250208
  0.5911532898289238  0.2066968763096924  0.6401135458028904
  0.9046137435875607  0.1554548062155305  0.3667519471021237
  0.7162466710106727  0.1894617415116926  0.4339872949957950
  0.5563772783838417  0.1449521617206102  0.2009030399095053
  0.7165508194641887  0.3151022749054349  0.1993587033938056
  0.8710003920300124  0.1144227698047402  0.9153392278809207
  0.5441050328302381  0.2743439577381181  0.9073663780600185
  0.7102810421609789  0.4391113110730487  0.9038484277089225
  0.8723410515523895  0.2404987560128973  0.6796399441337115
  0.5412505112590296  0.4069934579275269  0.6842399493336302
  0.7109619715502475  0.0673385360172745  0.6740015711877305
  0.8809846724677186  0.3540072155926097  0.4321438150041601
  0.5497272785092804  0.0230921732320155  0.4350369739861009
  0.8877163028233994  0.4760139601304232  0.1979974537707534
  0.2377471449164261  0.8672803633347428  0.6302002182067454
  0.0749304579324104  0.8236803281824905  0.3946132434561633
  0.2379002220551882  0.9876061343980282  0.3883841516142823
  0.4211750824559957  0.7875009783614999  0.1475325017209741
  0.0719902505783878  0.9512867047002231  0.1451087729520282
  0.2386686337808825  0.6037048729979162  0.1470476878849638
  0.4022772749415893  0.9035944687272419  0.9004572681877718
  0.0856034686594924  0.5816114682758666  0.8977960994601162
  0.2371972859130977  0.7447156495724201  0.8746467456349549
  0.3984089035995666  0.5233422813644353  0.6199106576946036
  0.0839780606440925  0.7028885568606427  0.6347987438074369
  0.4055070599016943  0.6562173820047192  0.3666979477942505
  0.2173684943982366  0.6902888855020421  0.4326400551005207
  0.0570230742215116  0.6449761384388069  0.1971161919908866
  0.2170272831551259  0.8150195667434090  0.1978896448734062
  0.3720323630828872  0.6149817028782394  0.9148923230542465
  0.0449093274691990  0.7737832062881154  0.9031035200015936
  0.2106321805272131  0.9395728515414703  0.9040111797558552
  0.3732503516179904  0.7422953693361976  0.6799104417102697
  0.0411978670698474  0.9055596900153020  0.6825384602057767
  0.2117360105183721  0.5686177050146171  0.6744236251430280
  0.3818971391989052  0.8541235610466629  0.4307213454135450
  0.0477725965713489  0.5254907433596969  0.4359064186449331
  0.3883007456010859  0.9766156001000752  0.2000271808067708
  0.7388683878831870  0.8665835190860136  0.6301372696108984
  0.5759963491179505  0.8232253512983547  0.3938886906944887
  0.7402545168967336  0.9879381909852754  0.3883174733205408
  0.9209171088124677  0.7865118005784666  0.1483317567159261
  0.5730702515196882  0.9510797863019107  0.1446052641643973
  0.7382995828281480  0.6040224215758485  0.1476802447627108
  0.9015572511765271  0.8989622666913917  0.9009014034555562
  0.5854313007147951  0.5825471581584978  0.8985624859173242
  0.7366881512749615  0.7435574312856730  0.8740640846578955
  0.8986527521897330  0.5220535471317547  0.6192792582098576
  0.5841745931693794  0.7032683669568200  0.6346253303906906
  0.9053704098885191  0.6554067705975726  0.3661209105382071
  0.7173635929854356  0.6897795913922948  0.4325702664987006
  0.5566351470063680  0.6456106701518394  0.1972452391293444
  0.7173410972505039  0.8148250816478182  0.1976763531542858
  0.8722605039635383  0.6142460502767335  0.9146509151917925
  0.5441900356316509  0.7748107452892086  0.9021542309325383
  0.7105229976248921  0.9389654939996532  0.9029644226162929
  0.8733692115705693  0.7403901793798582  0.6789281743733966
  0.5422542179507488  0.9059670882705291  0.6809731392357889
  0.7117182002112088  0.5679969580188526  0.6743913161101673
  0.8816068321343877  0.8540578169027384  0.4313944974865009
  0.5478748674341460  0.5260330112751959  0.4369375038041667
  0.8873543047686638  0.9762713556156299  0.1973816916836881
 
  0.00000000E+00  0.00000000E+00  0.00000000E+00
  0.00000000E+00  0.00000000E+00  0.00000000E+00
  0.00000000E+00  0.00000000E+00  0.00000000E+00
  0.00000000E+00  0.00000000E+00  0.00000000E+00
  0.00000000E+00  0.00000000E+00  0.00000000E+00
  0.00000000E+00  0.00000000E+00  0.00000000E+00
  0.00000000E+00  0.00000000E+00  0.00000000E+00
  0.00000000E+00  0.00000000E+00  0.00000000E+00
  0.00000000E+00  0.00000000E+00  0.00000000E+00
  0.00000000E+00  0.00000000E+00  0.00000000E+00
  0.00000000E+00  0.00000000E+00  0.00000000E+00
  0.00000000E+00  0.00000000E+00  0.00000000E+00
  0.00000000E+00  0.00000000E+00  0.00000000E+00
  0.00000000E+00  0.00000000E+00  0.00000000E+00
  0.00000000E+00  0.00000000E+00  0.00000000E+00
  0.00000000E+00  0.00000000E+00  0.00000000E+00
  0.00000000E+00  0.00000000E+00  0.00000000E+00
  0.00000000E+00  0.00000000E+00  0.00000000E+00
  0.00000000E+00  0.00000000E+00  0.00000000E+00
  0.00000000E+00  0.00000000E+00  0.00000000E+00
  0.00000000E+00  0.00000000E+00  0.00000000E+00
  0.00000000E+00  0.00000000E+00  0.00000000E+00
  0.00000000E+00  0.00000000E+00  0.00000000E+00
  0.00000000E+00  0.00000000E+00  0.00000000E+00
  0.00000000E+00  0.00000000E+00  0.00000000E+00
  0.00000000E+00  0.00000000E+00  0.00000000E+00
  0.00000000E+00  0.00000000E+00  0.00000000E+00
  0.00000000E+00  0.00000000E+00  0.00000000E+00
  0.00000000E+00  0.00000000E+00  0.00000000E+00
  0.00000000E+00  0.00000000E+00  0.00000000E+00
  0.00000000E+00  0.00000000E+00  0.00000000E+00
  0.00000000E+00  0.00000000E+00  0.00000000E+00
  0.00000000E+00  0.00000000E+00  0.00000000E+00
  0.00000000E+00  0.00000000E+00  0.00000000E+00
  0.00000000E+00  0.00000000E+00  0.00000000E+00
  0.00000000E+00  0.00000000E+00  0.00000000E+00
  0.00000000E+00  0.00000000E+00  0.00000000E+00
  0.00000000E+00  0.00000000E+00  0.00000000E+00
  0.00000000E+00  0.00000000E+00  0.00000000E+00
  0.00000000E+00  0.00000000E+00  0.00000000E+00
  0.00000000E+00  0.00000000E+00  0.00000000E+00
  0.00000000E+00  0.00000000E+00  0.00000000E+00
  0.00000000E+00  0.00000000E+00  0.00000000E+00
  0.00000000E+00  0.00000000E+00  0.00000000E+00
  0.00000000E+00  0.00000000E+00  0.00000000E+00
  0.00000000E+00  0.00000000E+00  0.00000000E+00
  0.00000000E+00  0.00000000E+00  0.00000000E+00
  0.00000000E+00  0.00000000E+00  0.00000000E+00
  0.00000000E+00  0.00000000E+00  0.00000000E+00
  0.00000000E+00  0.00000000E+00  0.00000000E+00
  0.00000000E+00  0.00000000E+00  0.00000000E+00
  0.00000000E+00  0.00000000E+00  0.00000000E+00
  0.00000000E+00  0.00000000E+00  0.00000000E+00
  0.00000000E+00  0.00000000E+00  0.00000000E+00
  0.00000000E+00  0.00000000E+00  0.00000000E+00
  0.00000000E+00  0.00000000E+00  0.00000000E+00
  0.00000000E+00  0.00000000E+00  0.00000000E+00
  0.00000000E+00  0.00000000E+00  0.00000000E+00
  0.00000000E+00  0.00000000E+00  0.00000000E+00
  0.00000000E+00  0.00000000E+00  0.00000000E+00
  0.00000000E+00  0.00000000E+00  0.00000000E+00
  0.00000000E+00  0.00000000E+00  0.00000000E+00
  0.00000000E+00  0.00000000E+00  0.00000000E+00
  0.00000000E+00  0.00000000E+00  0.00000000E+00
  0.00000000E+00  0.00000000E+00  0.00000000E+00
  0.00000000E+00  0.00000000E+00  0.00000000E+00
  0.00000000E+00  0.00000000E+00  0.00000000E+00
  0.00000000E+00  0.00000000E+00  0.00000000E+00
  0.00000000E+00  0.00000000E+00  0.00000000E+00
  0.00000000E+00  0.00000000E+00  0.00000000E+00
  0.00000000E+00  0.00000000E+00  0.00000000E+00
  0.00000000E+00  0.00000000E+00  0.00000000E+00
  0.00000000E+00  0.00000000E+00  0.00000000E+00
  0.00000000E+00  0.00000000E+00  0.00000000E+00
  0.00000000E+00  0.00000000E+00  0.00000000E+00
  0.00000000E+00  0.00000000E+00  0.00000000E+00
  0.00000000E+00  0.00000000E+00  0.00000000E+00
  0.00000000E+00  0.00000000E+00  0.00000000E+00
  0.00000000E+00  0.00000000E+00  0.00000000E+00
  0.00000000E+00  0.00000000E+00  0.00000000E+00
  0.00000000E+00  0.00000000E+00  0.00000000E+00
  0.00000000E+00  0.00000000E+00  0.00000000E+00
  0.00000000E+00  0.00000000E+00  0.00000000E+00
  0.00000000E+00  0.00000000E+00  0.00000000E+00
  0.00000000E+00  0.00000000E+00  0.00000000E+00
  0.00000000E+00  0.00000000E+00  0.00000000E+00
  0.00000000E+00  0.00000000E+00  0.00000000E+00
  0.00000000E+00  0.00000000E+00  0.00000000E+00
  0.00000000E+00  0.00000000E+00  0.00000000E+00
  0.00000000E+00  0.00000000E+00  0.00000000E+00
  0.00000000E+00  0.00000000E+00  0.00000000E+00
  0.00000000E+00  0.00000000E+00  0.00000000E+00
  0.00000000E+00  0.00000000E+00  0.00000000E+00
  0.00000000E+00  0.00000000E+00  0.00000000E+00
  0.00000000E+00  0.00000000E+00  0.00000000E+00
  0.00000000E+00  0.00000000E+00  0.00000000E+00
  0.00000000E+00  0.00000000E+00  0.00000000E+00
  0.00000000E+00  0.00000000E+00  0.00000000E+00
  0.00000000E+00  0.00000000E+00  0.00000000E+00
  0.00000000E+00  0.00000000E+00  0.00000000E+00
  0.00000000E+00  0.00000000E+00  0.00000000E+00
  0.00000000E+00  0.00000000E+00  0.00000000E+00
  0.00000000E+00  0.00000000E+00  0.00000000E+00
  0.00000000E+00  0.00000000E+00  0.00000000E+00
  0.00000000E+00  0.00000000E+00  0.00000000E+00
  0.00000000E+00  0.00000000E+00  0.00000000E+00
  0.00000000E+00  0.00000000E+00  0.00000000E+00
  0.00000000E+00  0.00000000E+00  0.00000000E+00
  0.00000000E+00  0.00000000E+00  0.00000000E+00
  0.00000000E+00  0.00000000E+00  0.00000000E+00
  0.00000000E+00  0.00000000E+00  0.00000000E+00
  0.00000000E+00  0.00000000E+00  0.00000000E+00
  0.00000000E+00  0.00000000E+00  0.00000000E+00
  0.00000000E+00  0.00000000E+00  0.00000000E+00
  0.00000000E+00  0.00000000E+00  0.00000000E+00
  0.00000000E+00  0.00000000E+00  0.00000000E+00
  0.00000000E+00  0.00000000E+00  0.00000000E+00
  0.00000000E+00  0.00000000E+00  0.00000000E+00
  0.00000000E+00  0.00000000E+00  0.00000000E+00
  0.00000000E+00  0.00000000E+00  0.00000000E+00
  0.00000000E+00  0.00000000E+00  0.00000000E+00
  0.00000000E+00  0.00000000E+00  0.00000000E+00
  0.00000000E+00  0.00000000E+00  0.00000000E+00
  0.00000000E+00  0.00000000E+00  0.00000000E+00
  0.00000000E+00  0.00000000E+00  0.00000000E+00
  0.00000000E+00  0.00000000E+00  0.00000000E+00
  0.00000000E+00  0.00000000E+00  0.00000000E+00
  0.00000000E+00  0.00000000E+00  0.00000000E+00
  0.00000000E+00  0.00000000E+00  0.00000000E+00
  0.00000000E+00  0.00000000E+00  0.00000000E+00
  0.00000000E+00  0.00000000E+00  0.00000000E+00
  0.00000000E+00  0.00000000E+00  0.00000000E+00
  0.00000000E+00  0.00000000E+00  0.00000000E+00
  0.00000000E+00  0.00000000E+00  0.00000000E+00
  0.00000000E+00  0.00000000E+00  0.00000000E+00
  0.00000000E+00  0.00000000E+00  0.00000000E+00
  0.00000000E+00  0.00000000E+00  0.00000000E+00
  0.00000000E+00  0.00000000E+00  0.00000000E+00
  0.00000000E+00  0.00000000E+00  0.00000000E+00
  0.00000000E+00  0.00000000E+00  0.00000000E+00
  0.00000000E+00  0.00000000E+00  0.00000000E+00
  0.00000000E+00  0.00000000E+00  0.00000000E+00
  0.00000000E+00  0.00000000E+00  0.00000000E+00
  0.00000000E+00  0.00000000E+00  0.00000000E+00
  0.00000000E+00  0.00000000E+00  0.00000000E+00
  0.00000000E+00  0.00000000E+00  0.00000000E+00
  0.00000000E+00  0.00000000E+00  0.00000000E+00
  0.00000000E+00  0.00000000E+00  0.00000000E+00
  0.00000000E+00  0.00000000E+00  0.00000000E+00
  0.00000000E+00  0.00000000E+00  0.00000000E+00
  0.00000000E+00  0.00000000E+00  0.00000000E+00
  0.00000000E+00  0.00000000E+00  0.00000000E+00
  0.00000000E+00  0.00000000E+00  0.00000000E+00
  0.00000000E+00  0.00000000E+00  0.00000000E+00
  0.00000000E+00  0.00000000E+00  0.00000000E+00
  0.00000000E+00  0.00000000E+00  0.00000000E+00
  0.00000000E+00  0.00000000E+00  0.00000000E+00
  0.00000000E+00  0.00000000E+00  0.00000000E+00
  0.00000000E+00  0.00000000E+00  0.00000000E+00
  0.00000000E+00  0.00000000E+00  0.00000000E+00
  0.00000000E+00  0.00000000E+00  0.00000000E+00
  0.00000000E+00  0.00000000E+00  0.00000000E+00
  0.00000000E+00  0.00000000E+00  0.00000000E+00
  0.00000000E+00  0.00000000E+00  0.00000000E+00
  0.00000000E+00  0.00000000E+00  0.00000000E+00
  0.00000000E+00  0.00000000E+00  0.00000000E+00
  0.00000000E+00  0.00000000E+00  0.00000000E+00
  0.00000000E+00  0.00000000E+00  0.00000000E+00
  0.00000000E+00  0.00000000E+00  0.00000000E+00
  0.00000000E+00  0.00000000E+00  0.00000000E+00
  0.00000000E+00  0.00000000E+00  0.00000000E+00
  0.00000000E+00  0.00000000E+00  0.00000000E+00
  0.00000000E+00  0.00000000E+00  0.00000000E+00
  0.00000000E+00  0.00000000E+00  0.00000000E+00
  0.00000000E+00  0.00000000E+00  0.00000000E+00
  0.00000000E+00  0.00000000E+00  0.00000000E+00
  0.00000000E+00  0.00000000E+00  0.00000000E+00
  0.00000000E+00  0.00000000E+00  0.00000000E+00
  0.00000000E+00  0.00000000E+00  0.00000000E+00
  0.00000000E+00  0.00000000E+00  0.00000000E+00
  0.00000000E+00  0.00000000E+00  0.00000000E+00
  0.00000000E+00  0.00000000E+00  0.00000000E+00
  0.00000000E+00  0.00000000E+00  0.00000000E+00
  0.00000000E+00  0.00000000E+00  0.00000000E+00
  0.00000000E+00  0.00000000E+00  0.00000000E+00
  0.00000000E+00  0.00000000E+00  0.00000000E+00
  0.00000000E+00  0.00000000E+00  0.00000000E+00
  0.00000000E+00  0.00000000E+00  0.00000000E+00
  0.00000000E+00  0.00000000E+00  0.00000000E+00
  0.00000000E+00  0.00000000E+00  0.00000000E+00
  0.00000000E+00  0.00000000E+00  0.00000000E+00
