supercell of POSCAR                     
   1.07329600000000     
     9.1016125577399993   -5.3128209557800004   -9.4184911254399992
     9.0821131104399999    5.2871675818400004    9.4140884809200003
    -1.5053809694200000   -7.9210976524300012    4.6939078171600004
   Al   Sc   N 
    71    24    96
Direct
  0.2992938655046515  0.2889685701952516  0.5379415049713359
  0.1407019819530575  0.2427144521882809  0.3032222789358627
  0.3077588382872634  0.4096550443052962  0.3059973957894115
  0.1369741125207113  0.4984111560800386  0.7873150701851657
  0.2945244670593610  0.1598476293970634  0.7871973154368987
  0.4720626767561740  0.4499067984026226  0.5332127365566990
  0.1411610420723832  0.1190188643806422  0.5402791663075632
  0.4762711334006440  0.0739067118663073  0.2971644627697856
  0.2782761482093434  0.1088255187352658  0.3362195224543996
  0.1150480953048358  0.0683543734621637  0.0932418152103054
  0.1112621950345059  0.1959015559718082  0.8244143862939026
  0.2709653958065843  0.3589820339122554  0.8254086174508402
  0.1095802955992156  0.3239930449270503  0.5884139632608623
  0.2724222146823294  0.4861455960191847  0.5827520739970780
  0.4467490173569075  0.2785442248502932  0.3381619131051679
  0.1110396373175107  0.4445825175834699  0.3376863364179457
  0.4440817857133581  0.4038260728935228  0.1013782048411471
  0.8018213489662287  0.2869756209965857  0.5390643465336495
  0.6406603194941383  0.2434539478866213  0.3045382396853356
  0.8065496344542211  0.4084392650344810  0.3021569733660883
  0.9659031115033656  0.3264839222416569  0.7896192731610299
  0.6446330794504860  0.5000738588606808  0.7855579250253655
  0.8004251695154565  0.1623143650074113  0.7810521284022656
  0.9691157931477790  0.4481944815592982  0.5347962370027659
  0.6415955957537349  0.1208353036246734  0.5406871508316300
  0.9758841519168584  0.0730197844993583  0.2940234805786588
  0.7764026648919184  0.1085798025583173  0.3334068845857630
  0.6132629899367075  0.0689695497957672  0.0925603897221379
  0.6148472978244044  0.1970792101493757  0.8265536854603397
  0.7751086376245411  0.3581543431796703  0.8201620868963602
  0.6086281561071729  0.3290863837969482  0.5947272828652856
  0.7726883657393913  0.4860045053896656  0.5784008541103773
  0.9456003944388698  0.2783692961634472  0.3343412087644708
  0.6104055285159689  0.4454031455346197  0.3367949665518850
  0.9462858956542419  0.4016771513235255  0.0946493870804161
  0.3045919222024693  0.7859691389665215  0.5379096421754923
  0.1442651004861588  0.7414975701115338  0.3020053924732267
  0.3090001788388008  0.9068911493113134  0.3013352898406580
  0.4672539484829272  0.8265674270619314  0.7887032461251238
  0.1389276185805670  0.9954363239684554  0.7878966507219829
  0.3001103436697363  0.6629837563733219  0.7830566499578353
  0.4710613090286273  0.9491112345142838  0.5357043793440823
  0.1420848933279260  0.6193828745733967  0.5385940898652848
  0.4761059007275890  0.5758857503737929  0.2967206884949078
  0.2784654214422844  0.6069510073061224  0.3327827833255768
  0.1158475076816146  0.5674869604867396  0.0931535367280176
  0.1137359781527039  0.6972508871066765  0.8220262335873869
  0.2764517275593619  0.8585993408177259  0.8197602310608616
  0.1124614045554111  0.8235883395385102  0.5855254780183117
  0.2739271904344491  0.9856762619683295  0.5788336933886811
  0.4483948972645706  0.7781466062663611  0.3339844636470062
  0.1125409561232260  0.9442878061408706  0.3355678756228002
  0.4480618871218027  0.9007924593581862  0.0944662781203078
  0.8039681000636136  0.7869010393337064  0.5378247473681341
  0.6425579849253751  0.7426926981782032  0.3021472387921165
  0.8087287709748239  0.9078701887102696  0.3005050262378290
  0.9678076145362979  0.8265532014615005  0.7887208863655957
  0.6401107743042047  0.9960958597903158  0.7864943077484838
  0.8018128690381872  0.6647377405209696  0.7818138318925776
  0.9707902357526521  0.9479874686666676  0.5341965598091107
  0.6425468126557377  0.6201026705077481  0.5391264684183241
  0.9763992740757246  0.5728720275406687  0.2935737638014686
  0.7772487906512708  0.6087692883084088  0.3337802437138677
  0.6136300600750388  0.5688914103539844  0.0943986100070049
  0.6137827791275967  0.6957290429619789  0.8227115202710493
  0.7759111741393596  0.8582313768617027  0.8193898048533015
  0.6114626626628805  0.8231647108788707  0.5861803951460374
  0.7727186188781232  0.9851654508711931  0.5771077883246107
  0.9484163450785914  0.7781472900225310  0.3329914273443535
  0.6117788568384626  0.9447599886131925  0.3360470473912756
  0.9488880925652055  0.9015597134377487  0.0928513923066490
  0.4798303291462744  0.1994726964861684  0.0389656504780760
  0.1380707536412800  0.3645452707718917  0.0379576431144741
  0.3097978534855201  0.0252485894190926  0.0397900154103041
  0.2836078736911105  0.2332880123691936  0.0841935372079021
  0.4476065167963839  0.0233931871834230  0.8240739629152856
  0.4464406898950983  0.1572076131026066  0.5820806316239810
  0.9788089043539188  0.1959561346961394  0.0385220932411627
  0.6373397616136174  0.3665387049329141  0.0344418563572120
  0.8087012985919699  0.0247743425450579  0.0375156053272079
  0.7803033599396016  0.2319955601769053  0.0815853139424831
  0.9468353907122733  0.0212829268695529  0.8215199655389824
  0.9442541538712987  0.1524047726398834  0.5726498470901120
  0.4816437217707374  0.6923574892756292  0.0308363458267920
  0.1434942268762711  0.8632960166811046  0.0360362015591491
  0.3127318269582560  0.5178930250750682  0.0292610470629313
  0.2874759664342861  0.7247809597237804  0.0768847973466222
  0.4582981201489460  0.4926915872482951  0.8124271271037244
  0.4453651211401422  0.6503974291755981  0.5790070610304170
  0.9830963720208175  0.6961662041887990  0.0371965666283387
  0.6403536954146531  0.8645376278179384  0.0355381472827219
  0.8090800314530568  0.5248076200824769  0.0384464050744597
  0.7846623589183324  0.7301412473132842  0.0799528078650340
  0.9455766135686758  0.5221071496310046  0.8222745324477714
  0.9454423931450933  0.6525969599535912  0.5720019947315294
  0.2364908970120894  0.3678867227935783  0.6338465189027005
  0.0737214017798067  0.3242173524945642  0.3960603931358122
  0.2383632940933538  0.4891936362401097  0.3930726062532699
  0.4191507492540154  0.2885336977204602  0.1545078202284245
  0.0705138680860387  0.4518877448516534  0.1474500535445245
  0.2383973744585219  0.1059780245649478  0.1500360745030989
  0.3828020608576566  0.4117932120507390  0.9284717940092122
  0.0844053596565928  0.0801517088120747  0.8982615353221135
  0.2332214859110167  0.2425902797271888  0.8781297410946536
  0.4002049635555309  0.0232696342426522  0.6205250327777563
  0.0831879556730684  0.2026729369989013  0.6359164715800460
  0.4059981351168673  0.1560359258387578  0.3720999841125163
  0.2147271436785800  0.1900344533716236  0.4316497615787611
  0.0561670943118031  0.1457193492371687  0.1967519843698327
  0.2158366987170837  0.3172467641745911  0.2016460172333652
  0.3701957519126253  0.1132208976831564  0.9154661699546338
  0.0417950870286319  0.2723124480647670  0.9040649699796077
  0.2010996446354696  0.4379734708000811  0.9033542739691001
  0.3529412567761909  0.2253854890992812  0.6648193120806241
  0.0392980549749495  0.4056108598839288  0.6817038636196457
  0.2087838369705395  0.0650179767652830  0.6741528609741465
  0.3807118891276602  0.3547327007628525  0.4350110445560773
  0.0478567444585636  0.0257406538627833  0.4350245824673067
  0.3868787564769676  0.4801669832831053  0.2090443929137251
  0.7392655112508706  0.3679753848245539  0.6314868852546525
  0.5745872187529955  0.3256542207608888  0.3980776515454920
  0.7393792243348116  0.4900007250072349  0.3894239379209807
  0.9185737105026917  0.2867329861412458  0.1489723098040656
  0.5699115583359458  0.4534956660165577  0.1471913417724409
  0.7374260271805113  0.1049882806590006  0.1477386091001307
  0.9019257872173441  0.3995154121777489  0.9018267941595468
  0.5865292607588302  0.0783600906902890  0.8966693650993989
  0.7395151211389930  0.2425328903729067  0.8731414915831621
  0.8991343135315120  0.0216189229269332  0.6182578721893464
  0.5864174555238790  0.2050736892254861  0.6374863952178274
  0.9048438927052942  0.1555811897079948  0.3658594466597123
  0.7169075755333623  0.1905672067067670  0.4324124362183071
  0.5557840767365079  0.1459396516120961  0.1986591351765625
  0.7156416768875786  0.3173653277288011  0.2001154609011166
  0.8718854719772295  0.1122139872417165  0.9131112121013487
  0.5516759049872491  0.2688721890861672  0.9166427344878159
  0.7123797369529825  0.4398586028308671  0.9029828246598726
  0.8732688341059074  0.2402923775057175  0.6778000924089724
  0.5491011989260812  0.4197312809877403  0.6769889011953012
  0.7121725482114059  0.0671843442840583  0.6731214132071273
  0.8803400329211399  0.3548009770776659  0.4316087174906826
  0.5490500982005670  0.0260808448258487  0.4367277729955177
  0.8867941962846686  0.4768909334139835  0.1987015229706302
  0.2399024957071347  0.8669917865329637  0.6301996165518489
  0.0765474361196468  0.8242563368192961  0.3938983309240953
  0.2404474629499944  0.9887108373162334  0.3889454746572838
  0.4234400995041554  0.7858800848629386  0.1480430543468287
  0.0739678605087022  0.9512414939479825  0.1446105220758511
  0.2386684381711177  0.6013612864761129  0.1478346728070719
  0.4025501309877555  0.8995104225354638  0.9010166982753560
  0.0826310908298211  0.5831841414965524  0.8981100054975713
  0.2358071325223889  0.7445967068838470  0.8739471314708638
  0.3980930703621723  0.5200660622978930  0.6232746672267453
  0.0842597455843261  0.7034876263395091  0.6338762624244723
  0.4058209403523634  0.6578634240287116  0.3722042310503753
  0.2176450192485220  0.6899767147433167  0.4325470416515458
  0.0574425135362375  0.6454647986960040  0.1975233563217671
  0.2194946281481762  0.8136296927607347  0.1971400306510205
  0.3671722472205659  0.6182236940703660  0.9195068972474658
  0.0451221190533246  0.7744352366240150  0.9029982278540913
  0.2111973376803320  0.9390917624959627  0.9039989593221094
  0.3732180330736909  0.7406563028174560  0.6793582328354759
  0.0417372405732479  0.9049120574768281  0.6811855077619526
  0.2100225091081711  0.5686089823003400  0.6753156642947431
  0.3826730407369041  0.8551918046739218  0.4317434255843082
  0.0469451018808726  0.5262532880263180  0.4366971596270588
  0.3883428742888952  0.9766534902059902  0.1987037599303889
  0.7396959046092917  0.8670572007969710  0.6301031600928582
  0.5767265621943167  0.8249441999073568  0.3947865956448879
  0.7405145475619079  0.9887454145033985  0.3875599904077518
  0.9219540564960980  0.7868501084148605  0.1478091643815489
  0.5729232703857932  0.9519592948312976  0.1453927584988008
  0.7377171391393560  0.6050323407699523  0.1485093151185524
  0.9025596231999984  0.8987031971944575  0.9003304040353726
  0.5857517158680210  0.5817217211658914  0.8998909807485305
  0.7373712798407723  0.7436630449755981  0.8740737977259059
  0.8988959862739989  0.5228112630312012  0.6191398066625453
  0.5851595122286923  0.7032241082559807  0.6351297667135611
  0.9056517750832072  0.6561219414450150  0.3654520532902765
  0.7179110324033005  0.6914493562840818  0.4321656667611933
  0.5567531913632919  0.6472398707159144  0.1980074645921519
  0.7180944837590033  0.8157450996581019  0.1970789363527956
  0.8718932881752792  0.6153192110127677  0.9162548226934604
  0.5454801321442559  0.7739778817528133  0.9012227888371029
  0.7111977286294717  0.9380057191950968  0.9030443056352553
  0.8746229953245717  0.7413560573919327  0.6781866353644688
  0.5423387617569944  0.9047615656072168  0.6809175103393841
  0.7157156605824468  0.5715281972592052  0.6737896847124958
  0.8824307232197910  0.8545844077434168  0.4303059562055154
  0.5485496497996962  0.5291870053251557  0.4349627869259649
  0.8882769280645988  0.9765526479001494  0.1962641739026623
 
  0.00000000E+00  0.00000000E+00  0.00000000E+00
  0.00000000E+00  0.00000000E+00  0.00000000E+00
  0.00000000E+00  0.00000000E+00  0.00000000E+00
  0.00000000E+00  0.00000000E+00  0.00000000E+00
  0.00000000E+00  0.00000000E+00  0.00000000E+00
  0.00000000E+00  0.00000000E+00  0.00000000E+00
  0.00000000E+00  0.00000000E+00  0.00000000E+00
  0.00000000E+00  0.00000000E+00  0.00000000E+00
  0.00000000E+00  0.00000000E+00  0.00000000E+00
  0.00000000E+00  0.00000000E+00  0.00000000E+00
  0.00000000E+00  0.00000000E+00  0.00000000E+00
  0.00000000E+00  0.00000000E+00  0.00000000E+00
  0.00000000E+00  0.00000000E+00  0.00000000E+00
  0.00000000E+00  0.00000000E+00  0.00000000E+00
  0.00000000E+00  0.00000000E+00  0.00000000E+00
  0.00000000E+00  0.00000000E+00  0.00000000E+00
  0.00000000E+00  0.00000000E+00  0.00000000E+00
  0.00000000E+00  0.00000000E+00  0.00000000E+00
  0.00000000E+00  0.00000000E+00  0.00000000E+00
  0.00000000E+00  0.00000000E+00  0.00000000E+00
  0.00000000E+00  0.00000000E+00  0.00000000E+00
  0.00000000E+00  0.00000000E+00  0.00000000E+00
  0.00000000E+00  0.00000000E+00  0.00000000E+00
  0.00000000E+00  0.00000000E+00  0.00000000E+00
  0.00000000E+00  0.00000000E+00  0.00000000E+00
  0.00000000E+00  0.00000000E+00  0.00000000E+00
  0.00000000E+00  0.00000000E+00  0.00000000E+00
  0.00000000E+00  0.00000000E+00  0.00000000E+00
  0.00000000E+00  0.00000000E+00  0.00000000E+00
  0.00000000E+00  0.00000000E+00  0.00000000E+00
  0.00000000E+00  0.00000000E+00  0.00000000E+00
  0.00000000E+00  0.00000000E+00  0.00000000E+00
  0.00000000E+00  0.00000000E+00  0.00000000E+00
  0.00000000E+00  0.00000000E+00  0.00000000E+00
  0.00000000E+00  0.00000000E+00  0.00000000E+00
  0.00000000E+00  0.00000000E+00  0.00000000E+00
  0.00000000E+00  0.00000000E+00  0.00000000E+00
  0.00000000E+00  0.00000000E+00  0.00000000E+00
  0.00000000E+00  0.00000000E+00  0.00000000E+00
  0.00000000E+00  0.00000000E+00  0.00000000E+00
  0.00000000E+00  0.00000000E+00  0.00000000E+00
  0.00000000E+00  0.00000000E+00  0.00000000E+00
  0.00000000E+00  0.00000000E+00  0.00000000E+00
  0.00000000E+00  0.00000000E+00  0.00000000E+00
  0.00000000E+00  0.00000000E+00  0.00000000E+00
  0.00000000E+00  0.00000000E+00  0.00000000E+00
  0.00000000E+00  0.00000000E+00  0.00000000E+00
  0.00000000E+00  0.00000000E+00  0.00000000E+00
  0.00000000E+00  0.00000000E+00  0.00000000E+00
  0.00000000E+00  0.00000000E+00  0.00000000E+00
  0.00000000E+00  0.00000000E+00  0.00000000E+00
  0.00000000E+00  0.00000000E+00  0.00000000E+00
  0.00000000E+00  0.00000000E+00  0.00000000E+00
  0.00000000E+00  0.00000000E+00  0.00000000E+00
  0.00000000E+00  0.00000000E+00  0.00000000E+00
  0.00000000E+00  0.00000000E+00  0.00000000E+00
  0.00000000E+00  0.00000000E+00  0.00000000E+00
  0.00000000E+00  0.00000000E+00  0.00000000E+00
  0.00000000E+00  0.00000000E+00  0.00000000E+00
  0.00000000E+00  0.00000000E+00  0.00000000E+00
  0.00000000E+00  0.00000000E+00  0.00000000E+00
  0.00000000E+00  0.00000000E+00  0.00000000E+00
  0.00000000E+00  0.00000000E+00  0.00000000E+00
  0.00000000E+00  0.00000000E+00  0.00000000E+00
  0.00000000E+00  0.00000000E+00  0.00000000E+00
  0.00000000E+00  0.00000000E+00  0.00000000E+00
  0.00000000E+00  0.00000000E+00  0.00000000E+00
  0.00000000E+00  0.00000000E+00  0.00000000E+00
  0.00000000E+00  0.00000000E+00  0.00000000E+00
  0.00000000E+00  0.00000000E+00  0.00000000E+00
  0.00000000E+00  0.00000000E+00  0.00000000E+00
  0.00000000E+00  0.00000000E+00  0.00000000E+00
  0.00000000E+00  0.00000000E+00  0.00000000E+00
  0.00000000E+00  0.00000000E+00  0.00000000E+00
  0.00000000E+00  0.00000000E+00  0.00000000E+00
  0.00000000E+00  0.00000000E+00  0.00000000E+00
  0.00000000E+00  0.00000000E+00  0.00000000E+00
  0.00000000E+00  0.00000000E+00  0.00000000E+00
  0.00000000E+00  0.00000000E+00  0.00000000E+00
  0.00000000E+00  0.00000000E+00  0.00000000E+00
  0.00000000E+00  0.00000000E+00  0.00000000E+00
  0.00000000E+00  0.00000000E+00  0.00000000E+00
  0.00000000E+00  0.00000000E+00  0.00000000E+00
  0.00000000E+00  0.00000000E+00  0.00000000E+00
  0.00000000E+00  0.00000000E+00  0.00000000E+00
  0.00000000E+00  0.00000000E+00  0.00000000E+00
  0.00000000E+00  0.00000000E+00  0.00000000E+00
  0.00000000E+00  0.00000000E+00  0.00000000E+00
  0.00000000E+00  0.00000000E+00  0.00000000E+00
  0.00000000E+00  0.00000000E+00  0.00000000E+00
  0.00000000E+00  0.00000000E+00  0.00000000E+00
  0.00000000E+00  0.00000000E+00  0.00000000E+00
  0.00000000E+00  0.00000000E+00  0.00000000E+00
  0.00000000E+00  0.00000000E+00  0.00000000E+00
  0.00000000E+00  0.00000000E+00  0.00000000E+00
  0.00000000E+00  0.00000000E+00  0.00000000E+00
  0.00000000E+00  0.00000000E+00  0.00000000E+00
  0.00000000E+00  0.00000000E+00  0.00000000E+00
  0.00000000E+00  0.00000000E+00  0.00000000E+00
  0.00000000E+00  0.00000000E+00  0.00000000E+00
  0.00000000E+00  0.00000000E+00  0.00000000E+00
  0.00000000E+00  0.00000000E+00  0.00000000E+00
  0.00000000E+00  0.00000000E+00  0.00000000E+00
  0.00000000E+00  0.00000000E+00  0.00000000E+00
  0.00000000E+00  0.00000000E+00  0.00000000E+00
  0.00000000E+00  0.00000000E+00  0.00000000E+00
  0.00000000E+00  0.00000000E+00  0.00000000E+00
  0.00000000E+00  0.00000000E+00  0.00000000E+00
  0.00000000E+00  0.00000000E+00  0.00000000E+00
  0.00000000E+00  0.00000000E+00  0.00000000E+00
  0.00000000E+00  0.00000000E+00  0.00000000E+00
  0.00000000E+00  0.00000000E+00  0.00000000E+00
  0.00000000E+00  0.00000000E+00  0.00000000E+00
  0.00000000E+00  0.00000000E+00  0.00000000E+00
  0.00000000E+00  0.00000000E+00  0.00000000E+00
  0.00000000E+00  0.00000000E+00  0.00000000E+00
  0.00000000E+00  0.00000000E+00  0.00000000E+00
  0.00000000E+00  0.00000000E+00  0.00000000E+00
  0.00000000E+00  0.00000000E+00  0.00000000E+00
  0.00000000E+00  0.00000000E+00  0.00000000E+00
  0.00000000E+00  0.00000000E+00  0.00000000E+00
  0.00000000E+00  0.00000000E+00  0.00000000E+00
  0.00000000E+00  0.00000000E+00  0.00000000E+00
  0.00000000E+00  0.00000000E+00  0.00000000E+00
  0.00000000E+00  0.00000000E+00  0.00000000E+00
  0.00000000E+00  0.00000000E+00  0.00000000E+00
  0.00000000E+00  0.00000000E+00  0.00000000E+00
  0.00000000E+00  0.00000000E+00  0.00000000E+00
  0.00000000E+00  0.00000000E+00  0.00000000E+00
  0.00000000E+00  0.00000000E+00  0.00000000E+00
  0.00000000E+00  0.00000000E+00  0.00000000E+00
  0.00000000E+00  0.00000000E+00  0.00000000E+00
  0.00000000E+00  0.00000000E+00  0.00000000E+00
  0.00000000E+00  0.00000000E+00  0.00000000E+00
  0.00000000E+00  0.00000000E+00  0.00000000E+00
  0.00000000E+00  0.00000000E+00  0.00000000E+00
  0.00000000E+00  0.00000000E+00  0.00000000E+00
  0.00000000E+00  0.00000000E+00  0.00000000E+00
  0.00000000E+00  0.00000000E+00  0.00000000E+00
  0.00000000E+00  0.00000000E+00  0.00000000E+00
  0.00000000E+00  0.00000000E+00  0.00000000E+00
  0.00000000E+00  0.00000000E+00  0.00000000E+00
  0.00000000E+00  0.00000000E+00  0.00000000E+00
  0.00000000E+00  0.00000000E+00  0.00000000E+00
  0.00000000E+00  0.00000000E+00  0.00000000E+00
  0.00000000E+00  0.00000000E+00  0.00000000E+00
  0.00000000E+00  0.00000000E+00  0.00000000E+00
  0.00000000E+00  0.00000000E+00  0.00000000E+00
  0.00000000E+00  0.00000000E+00  0.00000000E+00
  0.00000000E+00  0.00000000E+00  0.00000000E+00
  0.00000000E+00  0.00000000E+00  0.00000000E+00
  0.00000000E+00  0.00000000E+00  0.00000000E+00
  0.00000000E+00  0.00000000E+00  0.00000000E+00
  0.00000000E+00  0.00000000E+00  0.00000000E+00
  0.00000000E+00  0.00000000E+00  0.00000000E+00
  0.00000000E+00  0.00000000E+00  0.00000000E+00
  0.00000000E+00  0.00000000E+00  0.00000000E+00
  0.00000000E+00  0.00000000E+00  0.00000000E+00
  0.00000000E+00  0.00000000E+00  0.00000000E+00
  0.00000000E+00  0.00000000E+00  0.00000000E+00
  0.00000000E+00  0.00000000E+00  0.00000000E+00
  0.00000000E+00  0.00000000E+00  0.00000000E+00
  0.00000000E+00  0.00000000E+00  0.00000000E+00
  0.00000000E+00  0.00000000E+00  0.00000000E+00
  0.00000000E+00  0.00000000E+00  0.00000000E+00
  0.00000000E+00  0.00000000E+00  0.00000000E+00
  0.00000000E+00  0.00000000E+00  0.00000000E+00
  0.00000000E+00  0.00000000E+00  0.00000000E+00
  0.00000000E+00  0.00000000E+00  0.00000000E+00
  0.00000000E+00  0.00000000E+00  0.00000000E+00
  0.00000000E+00  0.00000000E+00  0.00000000E+00
  0.00000000E+00  0.00000000E+00  0.00000000E+00
  0.00000000E+00  0.00000000E+00  0.00000000E+00
  0.00000000E+00  0.00000000E+00  0.00000000E+00
  0.00000000E+00  0.00000000E+00  0.00000000E+00
  0.00000000E+00  0.00000000E+00  0.00000000E+00
  0.00000000E+00  0.00000000E+00  0.00000000E+00
  0.00000000E+00  0.00000000E+00  0.00000000E+00
  0.00000000E+00  0.00000000E+00  0.00000000E+00
  0.00000000E+00  0.00000000E+00  0.00000000E+00
  0.00000000E+00  0.00000000E+00  0.00000000E+00
  0.00000000E+00  0.00000000E+00  0.00000000E+00
  0.00000000E+00  0.00000000E+00  0.00000000E+00
  0.00000000E+00  0.00000000E+00  0.00000000E+00
  0.00000000E+00  0.00000000E+00  0.00000000E+00
  0.00000000E+00  0.00000000E+00  0.00000000E+00
  0.00000000E+00  0.00000000E+00  0.00000000E+00
  0.00000000E+00  0.00000000E+00  0.00000000E+00
  0.00000000E+00  0.00000000E+00  0.00000000E+00
  0.00000000E+00  0.00000000E+00  0.00000000E+00
  0.00000000E+00  0.00000000E+00  0.00000000E+00
