supercell of POSCAR                     
   1.07329600000000     
     9.1016125577399993   -5.3128209557800004   -9.4184911254399992
     9.0821131104399999    5.2871675818400004    9.4140884809200003
    -1.5053809694200000   -7.9210976524300012    4.6939078171600004
   Al   Sc   N    O 
    72    24    95     1
Direct
  0.3027860452399977  0.2869567532130830  0.5402970238647029
  0.1425589490388717  0.2425298885922373  0.3037204470336619
  0.3074865786251664  0.4074508593773629  0.3022223186101556
  0.4669492954678276  0.3265751935896049  0.7893129287055132
  0.1394428495127400  0.4974790125183404  0.7882002295534178
  0.3000944455383490  0.1625895344218193  0.7807560928870743
  0.4701466456573229  0.4479387066650276  0.5362060339301138
  0.1415355943727690  0.1190820231186009  0.5399592823590282
  0.4803826938876838  0.0677524716165010  0.2890206095587118
  0.2724454162091661  0.1057380842299764  0.3312183016371506
  0.1146567016543472  0.0684742008935828  0.0924822615453991
  0.1135901488637572  0.1970142244876527  0.8227611793409295
  0.2748077749862645  0.3587844848179103  0.8204356522877418
  0.1108064225617298  0.3238994448174068  0.5876906016061980
  0.2721635705459136  0.4853905594613437  0.5792100827024029
  0.4489009111145918  0.2819452989957583  0.3316861802873845
  0.1112455169795226  0.4443920011987430  0.3371403251808047
  0.4471190727601453  0.4011282815776340  0.0935616896542015
  0.8033185251369090  0.2865142527921236  0.5394762626246248
  0.6430704698017493  0.2419962351071376  0.3038568405752642
  0.8079675404383906  0.4074751635725136  0.3026500485202774
  0.9667305160307649  0.3266995942288418  0.7901296516182370
  0.6394886618124005  0.4974430276083979  0.7880336209875978
  0.8001071652293703  0.1631857869597866  0.7826256774984586
  0.9699253554652216  0.4481914689316753  0.5361140848889931
  0.6422073510721731  0.1193624253383874  0.5402711676507792
  0.9764349812559914  0.0730516813722559  0.2950219597625789
  0.7773665546469815  0.1080455671921001  0.3342840808259027
  0.6145700310696540  0.0689314983125513  0.0929065446079420
  0.6136059236501836  0.1967851090736588  0.8235267627126746
  0.7752522111365039  0.3584905545462718  0.8202471707506120
  0.6111454076938827  0.3238933225448406  0.5883097380933080
  0.7722688219919007  0.4852101143274368  0.5791612611405625
  0.9474573949266230  0.2782009046633291  0.3347501476243764
  0.6114636514230725  0.4444477935708520  0.3363782602225101
  0.9471045817264354  0.4018300029367481  0.0942568200477822
  0.3030172541942235  0.7862625364140996  0.5394275448868484
  0.1424143842554884  0.7420408293485536  0.3041325847585554
  0.3078373521802362  0.9070016724886258  0.3021850539755064
  0.4664025390214661  0.8264155680770244  0.7903992922548539
  0.1393999171204214  0.9972134184487444  0.7873087792906546
  0.2995507431990845  0.6630914603863900  0.7828448276443112
  0.4698927403609972  0.9478123592296299  0.5353674307427525
  0.1414007597093700  0.6193520839978532  0.5403029790044869
  0.4758317663231253  0.5725566568287448  0.2951889848242502
  0.2769133719918102  0.6079233999302502  0.3346303532013692
  0.1139650610143050  0.5687228284570551  0.0932804234130629
  0.1131428776588166  0.6968860791190110  0.8235831884830986
  0.2748727949429650  0.8581369019662262  0.8198545292990858
  0.1109760975261267  0.8236646041449376  0.5875791562293031
  0.2722762223405866  0.9852654117026702  0.5789234413313551
  0.4470745006127999  0.7778456423033688  0.3348092269175211
  0.1108935807946736  0.9437924992082927  0.3362142892290905
  0.4467035896454306  0.9013739188318368  0.0939788825009842
  0.8028759023000731  0.7864761111043421  0.5396718806112375
  0.6421385069199204  0.7419056001812692  0.3041763445828991
  0.8080540002392240  0.9076676970820685  0.3025958814027732
  0.9664073209841746  0.8266799627622134  0.7900062844759432
  0.6397451520225630  0.9973513083783985  0.7882294458768726
  0.7996056210897677  0.6631794111503666  0.7826410139055895
  0.9700020132511042  0.9481396974474023  0.5357824716242732
  0.6412716355869819  0.6191844403988327  0.5402353116566090
  0.9760468090306418  0.5729118145680872  0.2953701298634854
  0.7768380202139795  0.6079842681753149  0.3343776600516080
  0.6138437869615743  0.5681545296378872  0.0932510015326073
  0.6131983331849611  0.6969368140605567  0.8239645504974220
  0.7749572601165937  0.8583864358342197  0.8206989565499825
  0.6108454168985347  0.8234945869346433  0.5879281546614408
  0.7725773111716592  0.9851588705704089  0.5792949417303959
  0.9470863966788414  0.7781222728744481  0.3347268414366766
  0.6121538510435514  0.9434565370235788  0.3370542862796029
  0.9474877142805767  0.9018676359134616  0.0941618306549969
  0.4815836517215999  0.1960547899842595  0.0356358941452228
  0.1400595355845127  0.3658345193345980  0.0368318188642220
  0.3097733056681022  0.0239083755653340  0.0351864400932769
  0.2829254750239940  0.2307556868894451  0.0784805895940721
  0.4473693119634845  0.0214043362604386  0.8207342053110409
  0.4454719050256131  0.1526930368828445  0.5722874088907588
  0.9819140744123374  0.1968278356940090  0.0384438172122827
  0.6410544358907373  0.3650707688931334  0.0362522213652952
  0.8095951742563443  0.0244722742818269  0.0382265698006634
  0.7842267019929920  0.2303100141285057  0.0809319305278535
  0.9469863758830499  0.0222709098295155  0.8228225240555176
  0.9448450937400281  0.1526856972124691  0.5738550964507851
  0.4812944410381732  0.6967122899058609  0.0386752436553266
  0.1406878862655034  0.8648158120858866  0.0360662415289781
  0.3091867496516230  0.5245163218212170  0.0388695744227121
  0.2835742889298487  0.7300670468985686  0.0812136405963315
  0.4463201967310866  0.5220104811711224  0.8230398900684861
  0.4443435064100356  0.6522380272371180  0.5742089284528262
  0.9810776919270339  0.6969353802923308  0.0384027765990282
  0.6400914443800971  0.8658462073949593  0.0373700258878245
  0.8091913041245746  0.5247318935358649  0.0381819032335997
  0.7833652111035647  0.7305741989681422  0.0814835401397787
  0.9465905835907478  0.5222631090965351  0.8229829814964802
  0.9445686910719502  0.6525893684393722  0.5742100075011578
  0.2386904557128346  0.3668990237653631  0.6311912352088385
  0.0755723419752314  0.3243463592722975  0.3958504385441302
  0.2395166139240033  0.4885576609975359  0.3896225547408534
  0.4200461139345464  0.2854622279669456  0.1484442425089938
  0.0715887897598222  0.4526259226299558  0.1467603381598437
  0.2391913703908699  0.1050069887892775  0.1475584409220758
  0.4012277717016914  0.3987028414601994  0.9014105205194340
  0.0852075563871537  0.0821990326761437  0.8987342614788716
  0.2368714632574012  0.2432887071105085  0.8726422617442040
  0.3987125963931391  0.0237985825341411  0.6174814657589067
  0.0842273762051846  0.2031270033821286  0.6347273359139720
  0.2188168903188554  0.1897520854132537  0.4328712081873007
  0.0573912380798518  0.1458932476854571  0.1986075215641705
  0.2167266668753598  0.3154805969678165  0.1981256730704715
  0.3720185510282832  0.1139280998059036  0.9134116132843104
  0.0447629917184074  0.2740599983870098  0.9037351147083541
  0.2101006938317909  0.4390388841749910  0.9042873127579938
  0.3741919562104457  0.2394882429516088  0.6773455126033170
  0.0412799944707629  0.4058433715470144  0.6833423215291532
  0.2114201529948758  0.0676671252533723  0.6742513292507439
  0.3817185530548528  0.3524946200642702  0.4316822584494844
  0.0478732421533579  0.0259318586486827  0.4367751121159600
  0.3872392175989745  0.4757910669082364  0.1988698795456116
  0.7383535092320486  0.3667822839560486  0.6310749079112128
  0.5746377564578111  0.3231117499437701  0.3958163789721496
  0.7391595133590840  0.4886178156092598  0.3895334811111724
  0.9210422915058345  0.2872986266246826  0.1495979371259040
  0.5716291655824648  0.4513755216658737  0.1459744150317022
  0.7375880233736325  0.1047848098842934  0.1487669028606007
  0.9012672118698575  0.3995770704275117  0.9020812905673381
  0.5843762942379414  0.0821951643215399  0.8991361909614284
  0.7362986298545167  0.2436540512473542  0.8747974485552703
  0.8985532161568557  0.0223064872598044  0.6201617355297202
  0.5829515116125350  0.2026154805573483  0.6351073095903814
  0.9051860356181081  0.1559099325713191  0.3668628673075602
  0.7169377294062400  0.1902381198421708  0.4336669634029704
  0.5556825424045044  0.1465379039478307  0.1984505243911059
  0.7166989155562291  0.3154216826554759  0.1989038307551638
  0.8716534740373163  0.1148727271642898  0.9163271922991072
  0.5445857018410791  0.2741375820863325  0.9032144776575279
  0.7101647461220821  0.4390427834661068  0.9038050162388203
  0.8730849256637967  0.2407174550001088  0.6799872155840276
  0.5413516192023948  0.4054787975366310  0.6828497265589064
  0.7112697886681687  0.0679777059355828  0.6751904075964177
  0.8814139010604904  0.3544119414081308  0.4324079773671912
  0.5471224038333560  0.0267629856391025  0.4372038003751939
  0.8870028835129631  0.4768492694698168  0.1991100286415772
  0.2388246440067405  0.8673209001573099  0.6309566131120761
  0.0752264104695470  0.8246167969313802  0.3958366546460326
  0.2400757146993016  0.9891171210164984  0.3890224752308171
  0.4203933275888971  0.7873637788216854  0.1497571038007450
  0.0724804667393428  0.9523957389302353  0.1459037091397164
  0.2373926365817596  0.6045473692384604  0.1491090583707759
  0.4009366409666626  0.9001344918863623  0.9022918333306862
  0.0845460189333309  0.5820182829920810  0.8989412410132260
  0.2361774334678231  0.7437860227877522  0.8753094000061168
  0.3983345828529465  0.5213459154683378  0.6198068146274665
  0.0838186084074550  0.7033250915487343  0.6357109916519832
  0.4048809832771170  0.6556639616081412  0.3672016503703190
  0.2168997234777237  0.6902716762727295  0.4337813602089895
  0.0561916064409687  0.6461691240685141  0.1987451694115663
  0.2166795421952941  0.8157229761055618  0.1989881121753214
  0.3712322695499566  0.6145219692605295  0.9163611019274569
  0.0441068557719646  0.7740842950143048  0.9039259356181120
  0.2098308061409568  0.9388371542662171  0.9033009868458421
  0.3728545452049161  0.7407180488905496  0.6802607092501063
  0.0410954627436979  0.9059604428680927  0.6831911318030350
  0.2113032840774451  0.5679087245297794  0.6751756376086391
  0.3812349534742268  0.8545998348687149  0.4323466234465698
  0.0474735915064031  0.5260254400674924  0.4373185487142379
  0.3866533998995578  0.9776224427083093  0.1990001678128976
  0.7382612169577527  0.8671690042935722  0.6316989320901882
  0.5748845405722207  0.8246075528516741  0.3963127270364737
  0.7394745935735045  0.9890918857101099  0.3898662687572099
  0.9204315814609316  0.7875254279742592  0.1497467895315125
  0.5708700062481000  0.9534672924444294  0.1477703001326560
  0.7372112813259832  0.6046615636920478  0.1488628618925674
  0.9011778365601799  0.8999611491899984  0.9021386317874942
  0.5841779451269389  0.5817524109829364  0.8987420388951151
  0.7361633600711315  0.7436647972837136  0.8753414885787052
  0.8982471577135556  0.5220706822872430  0.6202192309810357
  0.5834173345838920  0.7031036473812620  0.6359175543253670
  0.9047436411815681  0.6559213385168263  0.3671560814288668
  0.7166444780591945  0.6902894890748854  0.4338463563701112
  0.5561026536877520  0.6456204963481227  0.1986264023724758
  0.7160550618805885  0.8161401777843480  0.1992641147497380
  0.8713061401529245  0.6146993006844141  0.9160688646555784
  0.5442830787239075  0.7744008955863322  0.9046036103710193
  0.7098608803633155  0.9390744324854126  0.9045945725037186
  0.8727860616267904  0.7407760314752352  0.6800740744489175
  0.5405536293402804  0.9065190237530913  0.6837428421850120
  0.7111482404086402  0.5678896761954775  0.6749962064851331
  0.8811650649530591  0.8545209481828380  0.4325847287887683
  0.5474011928542808  0.5254176851341441  0.4369057814330333
  0.8874880197865025  0.9769338599010524  0.1990950256295179
  0.4053571334636175  0.1551237332432649  0.3626972945050042
 
  0.00000000E+00  0.00000000E+00  0.00000000E+00
  0.00000000E+00  0.00000000E+00  0.00000000E+00
  0.00000000E+00  0.00000000E+00  0.00000000E+00
  0.00000000E+00  0.00000000E+00  0.00000000E+00
  0.00000000E+00  0.00000000E+00  0.00000000E+00
  0.00000000E+00  0.00000000E+00  0.00000000E+00
  0.00000000E+00  0.00000000E+00  0.00000000E+00
  0.00000000E+00  0.00000000E+00  0.00000000E+00
  0.00000000E+00  0.00000000E+00  0.00000000E+00
  0.00000000E+00  0.00000000E+00  0.00000000E+00
  0.00000000E+00  0.00000000E+00  0.00000000E+00
  0.00000000E+00  0.00000000E+00  0.00000000E+00
  0.00000000E+00  0.00000000E+00  0.00000000E+00
  0.00000000E+00  0.00000000E+00  0.00000000E+00
  0.00000000E+00  0.00000000E+00  0.00000000E+00
  0.00000000E+00  0.00000000E+00  0.00000000E+00
  0.00000000E+00  0.00000000E+00  0.00000000E+00
  0.00000000E+00  0.00000000E+00  0.00000000E+00
  0.00000000E+00  0.00000000E+00  0.00000000E+00
  0.00000000E+00  0.00000000E+00  0.00000000E+00
  0.00000000E+00  0.00000000E+00  0.00000000E+00
  0.00000000E+00  0.00000000E+00  0.00000000E+00
  0.00000000E+00  0.00000000E+00  0.00000000E+00
  0.00000000E+00  0.00000000E+00  0.00000000E+00
  0.00000000E+00  0.00000000E+00  0.00000000E+00
  0.00000000E+00  0.00000000E+00  0.00000000E+00
  0.00000000E+00  0.00000000E+00  0.00000000E+00
  0.00000000E+00  0.00000000E+00  0.00000000E+00
  0.00000000E+00  0.00000000E+00  0.00000000E+00
  0.00000000E+00  0.00000000E+00  0.00000000E+00
  0.00000000E+00  0.00000000E+00  0.00000000E+00
  0.00000000E+00  0.00000000E+00  0.00000000E+00
  0.00000000E+00  0.00000000E+00  0.00000000E+00
  0.00000000E+00  0.00000000E+00  0.00000000E+00
  0.00000000E+00  0.00000000E+00  0.00000000E+00
  0.00000000E+00  0.00000000E+00  0.00000000E+00
  0.00000000E+00  0.00000000E+00  0.00000000E+00
  0.00000000E+00  0.00000000E+00  0.00000000E+00
  0.00000000E+00  0.00000000E+00  0.00000000E+00
  0.00000000E+00  0.00000000E+00  0.00000000E+00
  0.00000000E+00  0.00000000E+00  0.00000000E+00
  0.00000000E+00  0.00000000E+00  0.00000000E+00
  0.00000000E+00  0.00000000E+00  0.00000000E+00
  0.00000000E+00  0.00000000E+00  0.00000000E+00
  0.00000000E+00  0.00000000E+00  0.00000000E+00
  0.00000000E+00  0.00000000E+00  0.00000000E+00
  0.00000000E+00  0.00000000E+00  0.00000000E+00
  0.00000000E+00  0.00000000E+00  0.00000000E+00
  0.00000000E+00  0.00000000E+00  0.00000000E+00
  0.00000000E+00  0.00000000E+00  0.00000000E+00
  0.00000000E+00  0.00000000E+00  0.00000000E+00
  0.00000000E+00  0.00000000E+00  0.00000000E+00
  0.00000000E+00  0.00000000E+00  0.00000000E+00
  0.00000000E+00  0.00000000E+00  0.00000000E+00
  0.00000000E+00  0.00000000E+00  0.00000000E+00
  0.00000000E+00  0.00000000E+00  0.00000000E+00
  0.00000000E+00  0.00000000E+00  0.00000000E+00
  0.00000000E+00  0.00000000E+00  0.00000000E+00
  0.00000000E+00  0.00000000E+00  0.00000000E+00
  0.00000000E+00  0.00000000E+00  0.00000000E+00
  0.00000000E+00  0.00000000E+00  0.00000000E+00
  0.00000000E+00  0.00000000E+00  0.00000000E+00
  0.00000000E+00  0.00000000E+00  0.00000000E+00
  0.00000000E+00  0.00000000E+00  0.00000000E+00
  0.00000000E+00  0.00000000E+00  0.00000000E+00
  0.00000000E+00  0.00000000E+00  0.00000000E+00
  0.00000000E+00  0.00000000E+00  0.00000000E+00
  0.00000000E+00  0.00000000E+00  0.00000000E+00
  0.00000000E+00  0.00000000E+00  0.00000000E+00
  0.00000000E+00  0.00000000E+00  0.00000000E+00
  0.00000000E+00  0.00000000E+00  0.00000000E+00
  0.00000000E+00  0.00000000E+00  0.00000000E+00
  0.00000000E+00  0.00000000E+00  0.00000000E+00
  0.00000000E+00  0.00000000E+00  0.00000000E+00
  0.00000000E+00  0.00000000E+00  0.00000000E+00
  0.00000000E+00  0.00000000E+00  0.00000000E+00
  0.00000000E+00  0.00000000E+00  0.00000000E+00
  0.00000000E+00  0.00000000E+00  0.00000000E+00
  0.00000000E+00  0.00000000E+00  0.00000000E+00
  0.00000000E+00  0.00000000E+00  0.00000000E+00
  0.00000000E+00  0.00000000E+00  0.00000000E+00
  0.00000000E+00  0.00000000E+00  0.00000000E+00
  0.00000000E+00  0.00000000E+00  0.00000000E+00
  0.00000000E+00  0.00000000E+00  0.00000000E+00
  0.00000000E+00  0.00000000E+00  0.00000000E+00
  0.00000000E+00  0.00000000E+00  0.00000000E+00
  0.00000000E+00  0.00000000E+00  0.00000000E+00
  0.00000000E+00  0.00000000E+00  0.00000000E+00
  0.00000000E+00  0.00000000E+00  0.00000000E+00
  0.00000000E+00  0.00000000E+00  0.00000000E+00
  0.00000000E+00  0.00000000E+00  0.00000000E+00
  0.00000000E+00  0.00000000E+00  0.00000000E+00
  0.00000000E+00  0.00000000E+00  0.00000000E+00
  0.00000000E+00  0.00000000E+00  0.00000000E+00
  0.00000000E+00  0.00000000E+00  0.00000000E+00
  0.00000000E+00  0.00000000E+00  0.00000000E+00
  0.00000000E+00  0.00000000E+00  0.00000000E+00
  0.00000000E+00  0.00000000E+00  0.00000000E+00
  0.00000000E+00  0.00000000E+00  0.00000000E+00
  0.00000000E+00  0.00000000E+00  0.00000000E+00
  0.00000000E+00  0.00000000E+00  0.00000000E+00
  0.00000000E+00  0.00000000E+00  0.00000000E+00
  0.00000000E+00  0.00000000E+00  0.00000000E+00
  0.00000000E+00  0.00000000E+00  0.00000000E+00
  0.00000000E+00  0.00000000E+00  0.00000000E+00
  0.00000000E+00  0.00000000E+00  0.00000000E+00
  0.00000000E+00  0.00000000E+00  0.00000000E+00
  0.00000000E+00  0.00000000E+00  0.00000000E+00
  0.00000000E+00  0.00000000E+00  0.00000000E+00
  0.00000000E+00  0.00000000E+00  0.00000000E+00
  0.00000000E+00  0.00000000E+00  0.00000000E+00
  0.00000000E+00  0.00000000E+00  0.00000000E+00
  0.00000000E+00  0.00000000E+00  0.00000000E+00
  0.00000000E+00  0.00000000E+00  0.00000000E+00
  0.00000000E+00  0.00000000E+00  0.00000000E+00
  0.00000000E+00  0.00000000E+00  0.00000000E+00
  0.00000000E+00  0.00000000E+00  0.00000000E+00
  0.00000000E+00  0.00000000E+00  0.00000000E+00
  0.00000000E+00  0.00000000E+00  0.00000000E+00
  0.00000000E+00  0.00000000E+00  0.00000000E+00
  0.00000000E+00  0.00000000E+00  0.00000000E+00
  0.00000000E+00  0.00000000E+00  0.00000000E+00
  0.00000000E+00  0.00000000E+00  0.00000000E+00
  0.00000000E+00  0.00000000E+00  0.00000000E+00
  0.00000000E+00  0.00000000E+00  0.00000000E+00
  0.00000000E+00  0.00000000E+00  0.00000000E+00
  0.00000000E+00  0.00000000E+00  0.00000000E+00
  0.00000000E+00  0.00000000E+00  0.00000000E+00
  0.00000000E+00  0.00000000E+00  0.00000000E+00
  0.00000000E+00  0.00000000E+00  0.00000000E+00
  0.00000000E+00  0.00000000E+00  0.00000000E+00
  0.00000000E+00  0.00000000E+00  0.00000000E+00
  0.00000000E+00  0.00000000E+00  0.00000000E+00
  0.00000000E+00  0.00000000E+00  0.00000000E+00
  0.00000000E+00  0.00000000E+00  0.00000000E+00
  0.00000000E+00  0.00000000E+00  0.00000000E+00
  0.00000000E+00  0.00000000E+00  0.00000000E+00
  0.00000000E+00  0.00000000E+00  0.00000000E+00
  0.00000000E+00  0.00000000E+00  0.00000000E+00
  0.00000000E+00  0.00000000E+00  0.00000000E+00
  0.00000000E+00  0.00000000E+00  0.00000000E+00
  0.00000000E+00  0.00000000E+00  0.00000000E+00
  0.00000000E+00  0.00000000E+00  0.00000000E+00
  0.00000000E+00  0.00000000E+00  0.00000000E+00
  0.00000000E+00  0.00000000E+00  0.00000000E+00
  0.00000000E+00  0.00000000E+00  0.00000000E+00
  0.00000000E+00  0.00000000E+00  0.00000000E+00
  0.00000000E+00  0.00000000E+00  0.00000000E+00
  0.00000000E+00  0.00000000E+00  0.00000000E+00
  0.00000000E+00  0.00000000E+00  0.00000000E+00
  0.00000000E+00  0.00000000E+00  0.00000000E+00
  0.00000000E+00  0.00000000E+00  0.00000000E+00
  0.00000000E+00  0.00000000E+00  0.00000000E+00
  0.00000000E+00  0.00000000E+00  0.00000000E+00
  0.00000000E+00  0.00000000E+00  0.00000000E+00
  0.00000000E+00  0.00000000E+00  0.00000000E+00
  0.00000000E+00  0.00000000E+00  0.00000000E+00
  0.00000000E+00  0.00000000E+00  0.00000000E+00
  0.00000000E+00  0.00000000E+00  0.00000000E+00
  0.00000000E+00  0.00000000E+00  0.00000000E+00
  0.00000000E+00  0.00000000E+00  0.00000000E+00
  0.00000000E+00  0.00000000E+00  0.00000000E+00
  0.00000000E+00  0.00000000E+00  0.00000000E+00
  0.00000000E+00  0.00000000E+00  0.00000000E+00
  0.00000000E+00  0.00000000E+00  0.00000000E+00
  0.00000000E+00  0.00000000E+00  0.00000000E+00
  0.00000000E+00  0.00000000E+00  0.00000000E+00
  0.00000000E+00  0.00000000E+00  0.00000000E+00
  0.00000000E+00  0.00000000E+00  0.00000000E+00
  0.00000000E+00  0.00000000E+00  0.00000000E+00
  0.00000000E+00  0.00000000E+00  0.00000000E+00
  0.00000000E+00  0.00000000E+00  0.00000000E+00
  0.00000000E+00  0.00000000E+00  0.00000000E+00
  0.00000000E+00  0.00000000E+00  0.00000000E+00
  0.00000000E+00  0.00000000E+00  0.00000000E+00
  0.00000000E+00  0.00000000E+00  0.00000000E+00
  0.00000000E+00  0.00000000E+00  0.00000000E+00
  0.00000000E+00  0.00000000E+00  0.00000000E+00
  0.00000000E+00  0.00000000E+00  0.00000000E+00
  0.00000000E+00  0.00000000E+00  0.00000000E+00
  0.00000000E+00  0.00000000E+00  0.00000000E+00
  0.00000000E+00  0.00000000E+00  0.00000000E+00
  0.00000000E+00  0.00000000E+00  0.00000000E+00
  0.00000000E+00  0.00000000E+00  0.00000000E+00
  0.00000000E+00  0.00000000E+00  0.00000000E+00
  0.00000000E+00  0.00000000E+00  0.00000000E+00
  0.00000000E+00  0.00000000E+00  0.00000000E+00
  0.00000000E+00  0.00000000E+00  0.00000000E+00
  0.00000000E+00  0.00000000E+00  0.00000000E+00
  0.00000000E+00  0.00000000E+00  0.00000000E+00
  0.00000000E+00  0.00000000E+00  0.00000000E+00
  0.00000000E+00  0.00000000E+00  0.00000000E+00
