supercell of POSCAR                     
   1.07329600000000     
     9.1016125577399993   -5.3128209557800004   -9.4184911254399992
     9.0821131104399999    5.2871675818400004    9.4140884809200003
    -1.5053809694200000   -7.9210976524300012    4.6939078171600004
   Al   Sc   N 
    72    24    95
Direct
  0.3024205798384969  0.2866475589848605  0.5389711259229131
  0.1415108423917388  0.2428972518002510  0.3047935770014760
  0.3074412241624032  0.4085538845558219  0.3033497235483722
  0.4658015949730299  0.3260309996502642  0.7908839330132693
  0.1392505404298348  0.4981944996419543  0.7879678909946009
  0.2997448502261335  0.1643594295241115  0.7869354482225575
  0.4697149382725030  0.4474584087229090  0.5358801845435295
  0.1417744419251576  0.1198460535678549  0.5398195650031496
  0.4757382845837341  0.0732104103268512  0.2941044913548012
  0.2776278842034259  0.1082944722026156  0.3335047143322640
  0.1157721809557302  0.0692230463336188  0.0933940258415902
  0.1123411529518989  0.1974047789750699  0.8230974513058271
  0.2747004583162962  0.3596006347395218  0.8197777702119993
  0.1104339324309862  0.3242289655425736  0.5877262663529592
  0.2720473691059482  0.4856815101175087  0.5790021107507712
  0.4467913919348376  0.2772905882211418  0.3338156177208162
  0.1110212550217184  0.4446755643384890  0.3365345521957579
  0.4466280644468128  0.4002625669419331  0.0945325261727561
  0.8025976014706799  0.2866869205376403  0.5391440810757189
  0.6419146810406815  0.2427287320492866  0.3034314209635909
  0.8075248624961944  0.4081380896945603  0.3023024792737985
  0.9658983213184555  0.3270394867052104  0.7899861486334601
  0.6392194913380749  0.4966238058951831  0.7882036128648906
  0.7998466652141829  0.1632530285258440  0.7822749957605168
  0.9696377664608278  0.4485518436856921  0.5357946447774964
  0.6413471443194609  0.1192069451356090  0.5390835777421472
  0.9763489869691995  0.0733617207442379  0.2948772830826485
  0.7768538248778043  0.1082959336974270  0.3340183721163541
  0.6132372616229560  0.0687847326426194  0.0932029462755182
  0.6134070202358899  0.1957114968781184  0.8226197388977994
  0.7744352089301287  0.3583622191390745  0.8205054220283756
  0.6105565223782463  0.3233218784322318  0.5871250592301678
  0.7720941802880006  0.4852394421521069  0.5789072666040980
  0.9466341415403221  0.2785934032424819  0.3349134179854474
  0.6109105130651358  0.4442234919402779  0.3366928135729950
  0.9468787517841122  0.4021238909919091  0.0947018074441175
  0.3031899752467595  0.7864635119017933  0.5388678543753045
  0.1420729652499375  0.7425872042236321  0.3038671570270779
  0.3074845381930942  0.9082035640057171  0.3023315377883549
  0.4671019473093736  0.8240694986031230  0.7892729155971594
  0.1407011337366555  0.9984050936543483  0.7886118967431059
  0.2998804424315225  0.6631595162814889  0.7823844642548181
  0.4698859316696300  0.9484691070455469  0.5356968437605545
  0.1413058323022653  0.6196844627390448  0.5398589554307875
  0.4757482742670334  0.5726985646911729  0.2946704325237093
  0.2767668521621260  0.6086247399450997  0.3343219318087449
  0.1140368822502467  0.5691177422440532  0.0936124000591860
  0.1137518728281890  0.6977210802389067  0.8238496664601485
  0.2763145569878844  0.8585448873534247  0.8195358078093378
  0.1114078347275154  0.8240789716275856  0.5874261543605428
  0.2730282105144681  0.9858071047200170  0.5800517268698684
  0.4471831415036931  0.7784485448415168  0.3348126359485519
  0.1117405776209921  0.9447895837590181  0.3368871207144508
  0.4471892150931609  0.9027629605825496  0.0942741507584941
  0.8033748273114298  0.7865769321007505  0.5394029009705008
  0.6423151825534035  0.7419489082935300  0.3040192952127541
  0.8083069091740356  0.9079022231652161  0.3021884250750944
  0.9676752462783540  0.8271641528691802  0.7903800559974954
  0.6421234989899105  0.9969776035763900  0.7871921707387770
  0.8001875808385392  0.6629216812509355  0.7827600682758842
  0.9706402798460587  0.9484669383823956  0.5360153685947537
  0.6415319392387531  0.6191487429159324  0.5401794280133245
  0.9756970152798345  0.5734499673760070  0.2947854145794082
  0.7769313447523984  0.6081433884960603  0.3343801222883513
  0.6139528752897760  0.5676266393749216  0.0933438201367665
  0.6140380224229673  0.6962308431413788  0.8238443790629617
  0.7761075974696894  0.8579976953518695  0.8204716699676808
  0.6113214839012713  0.8234695443351043  0.5874303510696350
  0.7729979679623611  0.9851835237045634  0.5781197009702410
  0.9473458411449229  0.7785246521779356  0.3347786073093317
  0.6113841934429303  0.9442337511685821  0.3365193781060043
  0.9483913555896919  0.9021926399041007  0.0943973211295130
  0.4762046951016430  0.1900391408582678  0.0344755673174930
  0.1397945943317467  0.3661601299263211  0.0357624762972080
  0.3156566038035180  0.0290246220397137  0.0344366474760633
  0.2810031158386224  0.2331602047883408  0.0819542607935873
  0.4530175483959482  0.0165912050329027  0.8235804306156638
  0.4441018684952169  0.1525673718198277  0.5760990542292106
  0.9812562107979588  0.1970176632660596  0.0389918150951587
  0.6381671967327947  0.3622494607261402  0.0361978223211850
  0.8094355585866708  0.0248505366507388  0.0387399270865387
  0.7834363984099397  0.2304248907820323  0.0812666491849683
  0.9470869180581047  0.0224218650566002  0.8230925371421804
  0.9444493523689417  0.1527516085407754  0.5734755735848367
  0.4814974484938617  0.6971125139566894  0.0392439278543435
  0.1438448832739780  0.8677852164344202  0.0363905843799017
  0.3095192922348389  0.5249050438976752  0.0387169358954864
  0.2840006635846990  0.7308443549134580  0.0814130577903924
  0.4467616098532474  0.5222015985851627  0.8231877569441579
  0.4449840921882426  0.6515516954270026  0.5727563707588388
  0.9821673569179552  0.6978656644850361  0.0383954009799723
  0.6409760184666098  0.8652692681614269  0.0368211933754523
  0.8085072453800279  0.5239232906377325  0.0381191984012688
  0.7841236610877758  0.7301972790279052  0.0816025294821898
  0.9466048006795802  0.5225021446463671  0.8232043606926709
  0.9447988625005834  0.6527490293328810  0.5737459390164261
  0.2381143800887173  0.3673831964034520  0.6307417187347184
  0.0745786255116414  0.3249053987796557  0.3961357160762660
  0.2392321348398738  0.4895635551771917  0.3897409942456349
  0.4194317079908743  0.2843395537476852  0.1472794711978125
  0.0715700356503106  0.4526370281826715  0.1457161571525489
  0.2401946065049287  0.1052709097553546  0.1464937157343371
  0.4011178429832611  0.3995477060521750  0.9021020915838633
  0.0851317963050278  0.0823046807270131  0.8986923107509028
  0.2345958915783086  0.2457898313087767  0.8753778977797921
  0.3989673484247405  0.0222496055597006  0.6233563651269094
  0.0836082157155431  0.2034157348293633  0.6351400172226960
  0.4054060833760502  0.1555603230740488  0.3686448578420354
  0.2168637766751544  0.1904930660572504  0.4325670912013919
  0.0572580389644486  0.1461038238256833  0.1979817666756105
  0.2149767672183458  0.3175463197349373  0.2000443543279005
  0.0434461105442097  0.2743093021203293  0.9038654523358076
  0.2101004789484122  0.4401288599827851  0.9039049047552581
  0.3720277840664039  0.2409862924711490  0.6805141237800854
  0.0408899111677101  0.4062779897486593  0.6834685398777012
  0.2119466873352351  0.0688092075885152  0.6755455841930598
  0.3810257715931300  0.3540928116790454  0.4315501565134880
  0.0479100243509549  0.0262877854801502  0.4368276486899560
  0.3871072152893760  0.4758844385350258  0.1985427646730784
  0.7381782799384169  0.3670433407137850  0.6313326926123111
  0.5747643511803702  0.3245571982282272  0.3954637115542425
  0.7390900714116739  0.4889409605508277  0.3894890942811813
  0.9204426296349197  0.2873380285184126  0.1494657908338795
  0.5714652528041384  0.4508702011720942  0.1455785110359358
  0.7372446225137992  0.1045989212026939  0.1484615493688253
  0.9006980125734287  0.3998533300031824  0.9019300018380036
  0.5879751856729030  0.0812804849090654  0.8973530932600866
  0.7361311613696415  0.2435218539132151  0.8747590069326137
  0.8990287974123277  0.0222374434873345  0.6202112115604024
  0.5837927620876471  0.2027416844211629  0.6350321973460069
  0.9050512945154026  0.1560144754477619  0.3665993745769072
  0.7167149066623324  0.1905019562601424  0.4329032635490293
  0.5562090623305167  0.1474621252588548  0.1974695418261589
  0.7168090576717105  0.3159645414285563  0.1984928204340335
  0.8715782316899165  0.1146596950011229  0.9158212611955605
  0.5411536624308226  0.2693095324269521  0.9033830190270109
  0.7085628317219914  0.4375372493758647  0.9050692055587675
  0.8728201190119336  0.2408371166564223  0.6794783909146247
  0.5408559377408864  0.4048755300090079  0.6835929855967109
  0.7121720317848670  0.0678779877578108  0.6735723603077233
  0.8809058219565458  0.3548644954664795  0.4323088732480400
  0.5474305216781161  0.0257280750031796  0.4361075126548215
  0.8869385972358970  0.4770393430440976  0.1986652635799047
  0.2390126984972838  0.8670383195107476  0.6309082090613529
  0.0753660880016085  0.8248720004706840  0.3958009546701149
  0.2397955355199670  0.9894283595933260  0.3901671977191725
  0.4209419159802081  0.7877370733138420  0.1496729539931607
  0.0733860740358168  0.9526240370623285  0.1456616121075314
  0.2376686315467964  0.6049185187058370  0.1484541351615576
  0.4019645097309876  0.8963401727223399  0.9005190545640716
  0.0845302225917379  0.5826442620702892  0.8986764304616486
  0.2368051069839510  0.7440869458719348  0.8748363455814641
  0.3983072006945889  0.5215345127115754  0.6202769470149718
  0.0838972543062084  0.7035876268724479  0.6358284706466648
  0.4049051588614887  0.6558059241755174  0.3663741253860877
  0.2166914170542995  0.6905926947540095  0.4332665789290786
  0.0562939198914094  0.6463574952747635  0.1982178731474420
  0.2166582730331825  0.8156470172069064  0.1987975801505399
  0.3717493784102146  0.6148028789965920  0.9160408582751600
  0.0463052223450617  0.7759997929681646  0.9052269313111196
  0.2149441273362100  0.9422879243686992  0.9036835828398893
  0.3732474070445946  0.7394621535778398  0.6783362071345636
  0.0423746903448787  0.9063649208256663  0.6836773912304821
  0.2112048208444861  0.5682714731167664  0.6748826877220750
  0.3813694328034885  0.8548399285436972  0.4322306496308386
  0.0472508471243387  0.5263508223553330  0.4368444625525711
  0.3857118247397011  0.9768431994240245  0.1979367743183289
  0.7388955399841777  0.8670743117191293  0.6313663323217469
  0.5753644262918058  0.8243038331754633  0.3959225399982387
  0.7397226831972503  0.9888169963763573  0.3888809458548508
  0.9210103021497957  0.7875762847616983  0.1494854575142170
  0.5721573675409743  0.9520608174805716  0.1459544263255808
  0.7374608500082758  0.6043852732289352  0.1486206961568044
  0.9022688751345740  0.8996204387234386  0.9017051794006576
  0.5848179892173135  0.5811929420246855  0.8984746889755115
  0.7370301087497566  0.7432514581560099  0.8751403864792877
  0.8981873677704257  0.5224380318249686  0.6203765791580977
  0.5839888770462807  0.7030964895337277  0.6359466970638650
  0.9049014427280326  0.6562286301283606  0.3671119727450574
  0.7170165425823143  0.6902754591891167  0.4338468188573330
  0.5565182235175925  0.6453858145857083  0.1981144207383352
  0.7169827473650159  0.8154356266495881  0.1988885932794133
  0.8717936662895340  0.6146371359956220  0.9167197340063211
  0.5453168212315447  0.7732281604466351  0.9043054167641458
  0.7113083808742147  0.9383189299448844  0.9041004598759059
  0.8736048664668132  0.7409045641681118  0.6803255070861596
  0.5412969192403096  0.9061539381751658  0.6842113572311348
  0.7112788968892119  0.5676303771948241  0.6754453732812777
  0.8816668624962674  0.8548082681493980  0.4325410733276485
  0.5472078225876658  0.5259092920479063  0.4372017869787967
  0.8878961279449697  0.9768488295879862  0.1983054236233031
 
  0.00000000E+00  0.00000000E+00  0.00000000E+00
  0.00000000E+00  0.00000000E+00  0.00000000E+00
  0.00000000E+00  0.00000000E+00  0.00000000E+00
  0.00000000E+00  0.00000000E+00  0.00000000E+00
  0.00000000E+00  0.00000000E+00  0.00000000E+00
  0.00000000E+00  0.00000000E+00  0.00000000E+00
  0.00000000E+00  0.00000000E+00  0.00000000E+00
  0.00000000E+00  0.00000000E+00  0.00000000E+00
  0.00000000E+00  0.00000000E+00  0.00000000E+00
  0.00000000E+00  0.00000000E+00  0.00000000E+00
  0.00000000E+00  0.00000000E+00  0.00000000E+00
  0.00000000E+00  0.00000000E+00  0.00000000E+00
  0.00000000E+00  0.00000000E+00  0.00000000E+00
  0.00000000E+00  0.00000000E+00  0.00000000E+00
  0.00000000E+00  0.00000000E+00  0.00000000E+00
  0.00000000E+00  0.00000000E+00  0.00000000E+00
  0.00000000E+00  0.00000000E+00  0.00000000E+00
  0.00000000E+00  0.00000000E+00  0.00000000E+00
  0.00000000E+00  0.00000000E+00  0.00000000E+00
  0.00000000E+00  0.00000000E+00  0.00000000E+00
  0.00000000E+00  0.00000000E+00  0.00000000E+00
  0.00000000E+00  0.00000000E+00  0.00000000E+00
  0.00000000E+00  0.00000000E+00  0.00000000E+00
  0.00000000E+00  0.00000000E+00  0.00000000E+00
  0.00000000E+00  0.00000000E+00  0.00000000E+00
  0.00000000E+00  0.00000000E+00  0.00000000E+00
  0.00000000E+00  0.00000000E+00  0.00000000E+00
  0.00000000E+00  0.00000000E+00  0.00000000E+00
  0.00000000E+00  0.00000000E+00  0.00000000E+00
  0.00000000E+00  0.00000000E+00  0.00000000E+00
  0.00000000E+00  0.00000000E+00  0.00000000E+00
  0.00000000E+00  0.00000000E+00  0.00000000E+00
  0.00000000E+00  0.00000000E+00  0.00000000E+00
  0.00000000E+00  0.00000000E+00  0.00000000E+00
  0.00000000E+00  0.00000000E+00  0.00000000E+00
  0.00000000E+00  0.00000000E+00  0.00000000E+00
  0.00000000E+00  0.00000000E+00  0.00000000E+00
  0.00000000E+00  0.00000000E+00  0.00000000E+00
  0.00000000E+00  0.00000000E+00  0.00000000E+00
  0.00000000E+00  0.00000000E+00  0.00000000E+00
  0.00000000E+00  0.00000000E+00  0.00000000E+00
  0.00000000E+00  0.00000000E+00  0.00000000E+00
  0.00000000E+00  0.00000000E+00  0.00000000E+00
  0.00000000E+00  0.00000000E+00  0.00000000E+00
  0.00000000E+00  0.00000000E+00  0.00000000E+00
  0.00000000E+00  0.00000000E+00  0.00000000E+00
  0.00000000E+00  0.00000000E+00  0.00000000E+00
  0.00000000E+00  0.00000000E+00  0.00000000E+00
  0.00000000E+00  0.00000000E+00  0.00000000E+00
  0.00000000E+00  0.00000000E+00  0.00000000E+00
  0.00000000E+00  0.00000000E+00  0.00000000E+00
  0.00000000E+00  0.00000000E+00  0.00000000E+00
  0.00000000E+00  0.00000000E+00  0.00000000E+00
  0.00000000E+00  0.00000000E+00  0.00000000E+00
  0.00000000E+00  0.00000000E+00  0.00000000E+00
  0.00000000E+00  0.00000000E+00  0.00000000E+00
  0.00000000E+00  0.00000000E+00  0.00000000E+00
  0.00000000E+00  0.00000000E+00  0.00000000E+00
  0.00000000E+00  0.00000000E+00  0.00000000E+00
  0.00000000E+00  0.00000000E+00  0.00000000E+00
  0.00000000E+00  0.00000000E+00  0.00000000E+00
  0.00000000E+00  0.00000000E+00  0.00000000E+00
  0.00000000E+00  0.00000000E+00  0.00000000E+00
  0.00000000E+00  0.00000000E+00  0.00000000E+00
  0.00000000E+00  0.00000000E+00  0.00000000E+00
  0.00000000E+00  0.00000000E+00  0.00000000E+00
  0.00000000E+00  0.00000000E+00  0.00000000E+00
  0.00000000E+00  0.00000000E+00  0.00000000E+00
  0.00000000E+00  0.00000000E+00  0.00000000E+00
  0.00000000E+00  0.00000000E+00  0.00000000E+00
  0.00000000E+00  0.00000000E+00  0.00000000E+00
  0.00000000E+00  0.00000000E+00  0.00000000E+00
  0.00000000E+00  0.00000000E+00  0.00000000E+00
  0.00000000E+00  0.00000000E+00  0.00000000E+00
  0.00000000E+00  0.00000000E+00  0.00000000E+00
  0.00000000E+00  0.00000000E+00  0.00000000E+00
  0.00000000E+00  0.00000000E+00  0.00000000E+00
  0.00000000E+00  0.00000000E+00  0.00000000E+00
  0.00000000E+00  0.00000000E+00  0.00000000E+00
  0.00000000E+00  0.00000000E+00  0.00000000E+00
  0.00000000E+00  0.00000000E+00  0.00000000E+00
  0.00000000E+00  0.00000000E+00  0.00000000E+00
  0.00000000E+00  0.00000000E+00  0.00000000E+00
  0.00000000E+00  0.00000000E+00  0.00000000E+00
  0.00000000E+00  0.00000000E+00  0.00000000E+00
  0.00000000E+00  0.00000000E+00  0.00000000E+00
  0.00000000E+00  0.00000000E+00  0.00000000E+00
  0.00000000E+00  0.00000000E+00  0.00000000E+00
  0.00000000E+00  0.00000000E+00  0.00000000E+00
  0.00000000E+00  0.00000000E+00  0.00000000E+00
  0.00000000E+00  0.00000000E+00  0.00000000E+00
  0.00000000E+00  0.00000000E+00  0.00000000E+00
  0.00000000E+00  0.00000000E+00  0.00000000E+00
  0.00000000E+00  0.00000000E+00  0.00000000E+00
  0.00000000E+00  0.00000000E+00  0.00000000E+00
  0.00000000E+00  0.00000000E+00  0.00000000E+00
  0.00000000E+00  0.00000000E+00  0.00000000E+00
  0.00000000E+00  0.00000000E+00  0.00000000E+00
  0.00000000E+00  0.00000000E+00  0.00000000E+00
  0.00000000E+00  0.00000000E+00  0.00000000E+00
  0.00000000E+00  0.00000000E+00  0.00000000E+00
  0.00000000E+00  0.00000000E+00  0.00000000E+00
  0.00000000E+00  0.00000000E+00  0.00000000E+00
  0.00000000E+00  0.00000000E+00  0.00000000E+00
  0.00000000E+00  0.00000000E+00  0.00000000E+00
  0.00000000E+00  0.00000000E+00  0.00000000E+00
  0.00000000E+00  0.00000000E+00  0.00000000E+00
  0.00000000E+00  0.00000000E+00  0.00000000E+00
  0.00000000E+00  0.00000000E+00  0.00000000E+00
  0.00000000E+00  0.00000000E+00  0.00000000E+00
  0.00000000E+00  0.00000000E+00  0.00000000E+00
  0.00000000E+00  0.00000000E+00  0.00000000E+00
  0.00000000E+00  0.00000000E+00  0.00000000E+00
  0.00000000E+00  0.00000000E+00  0.00000000E+00
  0.00000000E+00  0.00000000E+00  0.00000000E+00
  0.00000000E+00  0.00000000E+00  0.00000000E+00
  0.00000000E+00  0.00000000E+00  0.00000000E+00
  0.00000000E+00  0.00000000E+00  0.00000000E+00
  0.00000000E+00  0.00000000E+00  0.00000000E+00
  0.00000000E+00  0.00000000E+00  0.00000000E+00
  0.00000000E+00  0.00000000E+00  0.00000000E+00
  0.00000000E+00  0.00000000E+00  0.00000000E+00
  0.00000000E+00  0.00000000E+00  0.00000000E+00
  0.00000000E+00  0.00000000E+00  0.00000000E+00
  0.00000000E+00  0.00000000E+00  0.00000000E+00
  0.00000000E+00  0.00000000E+00  0.00000000E+00
  0.00000000E+00  0.00000000E+00  0.00000000E+00
  0.00000000E+00  0.00000000E+00  0.00000000E+00
  0.00000000E+00  0.00000000E+00  0.00000000E+00
  0.00000000E+00  0.00000000E+00  0.00000000E+00
  0.00000000E+00  0.00000000E+00  0.00000000E+00
  0.00000000E+00  0.00000000E+00  0.00000000E+00
  0.00000000E+00  0.00000000E+00  0.00000000E+00
  0.00000000E+00  0.00000000E+00  0.00000000E+00
  0.00000000E+00  0.00000000E+00  0.00000000E+00
  0.00000000E+00  0.00000000E+00  0.00000000E+00
  0.00000000E+00  0.00000000E+00  0.00000000E+00
  0.00000000E+00  0.00000000E+00  0.00000000E+00
  0.00000000E+00  0.00000000E+00  0.00000000E+00
  0.00000000E+00  0.00000000E+00  0.00000000E+00
  0.00000000E+00  0.00000000E+00  0.00000000E+00
  0.00000000E+00  0.00000000E+00  0.00000000E+00
  0.00000000E+00  0.00000000E+00  0.00000000E+00
  0.00000000E+00  0.00000000E+00  0.00000000E+00
  0.00000000E+00  0.00000000E+00  0.00000000E+00
  0.00000000E+00  0.00000000E+00  0.00000000E+00
  0.00000000E+00  0.00000000E+00  0.00000000E+00
  0.00000000E+00  0.00000000E+00  0.00000000E+00
  0.00000000E+00  0.00000000E+00  0.00000000E+00
  0.00000000E+00  0.00000000E+00  0.00000000E+00
  0.00000000E+00  0.00000000E+00  0.00000000E+00
  0.00000000E+00  0.00000000E+00  0.00000000E+00
  0.00000000E+00  0.00000000E+00  0.00000000E+00
  0.00000000E+00  0.00000000E+00  0.00000000E+00
  0.00000000E+00  0.00000000E+00  0.00000000E+00
  0.00000000E+00  0.00000000E+00  0.00000000E+00
  0.00000000E+00  0.00000000E+00  0.00000000E+00
  0.00000000E+00  0.00000000E+00  0.00000000E+00
  0.00000000E+00  0.00000000E+00  0.00000000E+00
  0.00000000E+00  0.00000000E+00  0.00000000E+00
  0.00000000E+00  0.00000000E+00  0.00000000E+00
  0.00000000E+00  0.00000000E+00  0.00000000E+00
  0.00000000E+00  0.00000000E+00  0.00000000E+00
  0.00000000E+00  0.00000000E+00  0.00000000E+00
  0.00000000E+00  0.00000000E+00  0.00000000E+00
  0.00000000E+00  0.00000000E+00  0.00000000E+00
  0.00000000E+00  0.00000000E+00  0.00000000E+00
  0.00000000E+00  0.00000000E+00  0.00000000E+00
  0.00000000E+00  0.00000000E+00  0.00000000E+00
  0.00000000E+00  0.00000000E+00  0.00000000E+00
  0.00000000E+00  0.00000000E+00  0.00000000E+00
  0.00000000E+00  0.00000000E+00  0.00000000E+00
  0.00000000E+00  0.00000000E+00  0.00000000E+00
  0.00000000E+00  0.00000000E+00  0.00000000E+00
  0.00000000E+00  0.00000000E+00  0.00000000E+00
  0.00000000E+00  0.00000000E+00  0.00000000E+00
  0.00000000E+00  0.00000000E+00  0.00000000E+00
  0.00000000E+00  0.00000000E+00  0.00000000E+00
  0.00000000E+00  0.00000000E+00  0.00000000E+00
  0.00000000E+00  0.00000000E+00  0.00000000E+00
  0.00000000E+00  0.00000000E+00  0.00000000E+00
  0.00000000E+00  0.00000000E+00  0.00000000E+00
  0.00000000E+00  0.00000000E+00  0.00000000E+00
  0.00000000E+00  0.00000000E+00  0.00000000E+00
  0.00000000E+00  0.00000000E+00  0.00000000E+00
  0.00000000E+00  0.00000000E+00  0.00000000E+00
  0.00000000E+00  0.00000000E+00  0.00000000E+00
  0.00000000E+00  0.00000000E+00  0.00000000E+00
  0.00000000E+00  0.00000000E+00  0.00000000E+00
  0.00000000E+00  0.00000000E+00  0.00000000E+00
  0.00000000E+00  0.00000000E+00  0.00000000E+00
