supercell of POSCAR                     
   1.07329600000000     
     9.1016125577399993   -5.3128209557800004   -9.4184911254399992
     9.0821131104399999    5.2871675818400004    9.4140884809200003
    -1.5053809694200000   -7.9210976524300012    4.6939078171600004
   Al   Sc   N    O 
    72    24    95     1
Direct
  0.3032725699716536  0.2864025429553152  0.5386151804611004
  0.1411712678280921  0.2428146152570321  0.3059090305536429
  0.3075539146517130  0.4092797535443111  0.3043357203344357
  0.4672130771969591  0.3270446281094408  0.7893993095391707
  0.1395986503924718  0.4972267266112524  0.7887527320338918
  0.2986042800745707  0.1635106094779175  0.7765627619272806
  0.4700430604677948  0.4480158506307674  0.5357772684241766
  0.1416761691028015  0.1191399503974608  0.5392952697778242
  0.4760748984551313  0.0732443152828779  0.2936359107438165
  0.2774424757904725  0.1079149848059302  0.3328299118927305
  0.1149008585253739  0.0684572165625923  0.0926680344107211
  0.1143002349954472  0.1966706948366763  0.8246125845188175
  0.2756318335753889  0.3579986013304364  0.8212857509952727
  0.1111550306745741  0.3238990051933186  0.5887455422607673
  0.2722435902057683  0.4852135610689388  0.5800355418686749
  0.4473322422033306  0.2780020451609815  0.3333773051050244
  0.1108176877727374  0.4448806912146281  0.3380482107993572
  0.4472728487930695  0.4011924199404007  0.0937571806215303
  0.8031849991549933  0.2868312238520261  0.5394285810195427
  0.6425207766306329  0.2426555687603837  0.3033851782555388
  0.8076925294977144  0.4083809629716342  0.3030422972442111
  0.9670221934312622  0.3267391548513245  0.7906732354140118
  0.6395183824267008  0.4973890482274754  0.7881792149586602
  0.8004572189715091  0.1636056342733951  0.7826216063615732
  0.9698399438515892  0.4484372287778555  0.5366390216681580
  0.6420123612321049  0.1195669035283444  0.5393912622932788
  0.9763800223018109  0.0733961771958178  0.2952001355380176
  0.7775456112127372  0.1084751382417508  0.3344768556544508
  0.6149270643999785  0.0684763770835062  0.0935172813792562
  0.6141633173374359  0.1970262170211541  0.8227784017815196
  0.7753398386978247  0.3586947715236164  0.8204702200419902
  0.6112707426388155  0.3238303614293159  0.5868295053958832
  0.7722661922021743  0.4855821732321246  0.5793873228133819
  0.9469411315749525  0.2787430888847169  0.3355978942670603
  0.6112385001987022  0.4446755075179993  0.3369172995821401
  0.9466909190165467  0.4024031509683752  0.0954464332954075
  0.3028082122071467  0.7863383870628908  0.5386872918518222
  0.1418115479189908  0.7423802926137597  0.3042069536730523
  0.3073690974037717  0.9075586415999481  0.3010158117113377
  0.4664479923913092  0.8248342505908823  0.7901047837613291
  0.1391463520218110  0.9969936852622396  0.7873692147100684
  0.2994493488738073  0.6628676010489158  0.7827183936746138
  0.4698396153338820  0.9480838966558949  0.5324494688455914
  0.1411676504724966  0.6193387343477355  0.5404259634475466
  0.4756816332382172  0.5728064133493547  0.2950512204855755
  0.2765220203170671  0.6084204374816125  0.3349506077575697
  0.1136582696348540  0.5692943382585369  0.0944007354782173
  0.1132894667344573  0.6968337599040879  0.8238284139463161
  0.2750832649260389  0.8579021925364501  0.8191794074283436
  0.1107924110048586  0.8235284642334761  0.5871428654113515
  0.2723379438625741  0.9845966549522700  0.5768670100236903
  0.4469183432948682  0.7778731137513475  0.3344348948975124
  0.1110926442855629  0.9442816469180215  0.3362811344232099
  0.4477602980920139  0.9014778869244680  0.0944622682028680
  0.8028640173360841  0.7868127706847901  0.5396580374618907
  0.6420514291274628  0.7422694596764572  0.3045155574478571
  0.8081727576361573  0.9081256972347518  0.3027488871078319
  0.9667070324613007  0.8268776943887204  0.7903778979846763
  0.6416594440758132  0.9978339228925464  0.7880886623173211
  0.7996852298347505  0.6633809587726631  0.7831272375527902
  0.9700966732783129  0.9483406294808603  0.5359305254037423
  0.6412614346697083  0.6195993027908315  0.5403628269812231
  0.9755728104947892  0.5734311687627951  0.2955397292402751
  0.7767901557633508  0.6084400663160139  0.3349196652340964
  0.6138986810808760  0.5683715958042157  0.0938482037392490
  0.6134265810391355  0.6967307685517881  0.8239820126546249
  0.7755412323921931  0.8585041036907057  0.8206948022047484
  0.6109430874432746  0.8238735288017836  0.5876779055279044
  0.7728295940507053  0.9855624864499291  0.5787146252812718
  0.9469566253644857  0.7784003840582301  0.3351694187960277
  0.6118248600102021  0.9444164452820090  0.3363733830273432
  0.9477159053338795  0.9021557077848925  0.0947039736370598
  0.4811418177489912  0.1952578367253111  0.0357340542271061
  0.1389844683341295  0.3672411098328112  0.0383151901233774
  0.3108829439680321  0.0244159080928839  0.0350400994257996
  0.2810130278112837  0.2341265052634469  0.0866756305883527
  0.4522644927186406  0.0158866459498554  0.8142663471437359
  0.4457257553033998  0.1525117962113569  0.5713643888573472
  0.9818117927271430  0.1972413858380975  0.0392804477648809
  0.6406348681107517  0.3649278500604183  0.0367762204837661
  0.8100067159635955  0.0249413609432452  0.0388343399630173
  0.7843297054102081  0.2308917666749579  0.0815475130496424
  0.9468865957354211  0.0225827837119823  0.8231252770099857
  0.9454700963330467  0.1529513212546192  0.5742439086398932
  0.4813134063687059  0.6966193429356267  0.0390148655064664
  0.1412558945853561  0.8653506727853895  0.0363426599225818
  0.3090720274875949  0.5244948595278842  0.0389604456008712
  0.2834664060335257  0.7299222479898120  0.0813590199748830
  0.4464560942730955  0.5223126530427038  0.8232588252902815
  0.4444315162480237  0.6520051122521835  0.5734671651055052
  0.9811330417842328  0.6975022216829245  0.0389847144050108
  0.6410683988691162  0.8651805173167944  0.0367941643525214
  0.8088664966617429  0.5249928750247292  0.0387506852436985
  0.7836065202409088  0.7307068852679635  0.0822336815249471
  0.9467089398751085  0.5224270527309258  0.8237865616721791
  0.9444371901648765  0.6527658001806955  0.5744974444343001
  0.2392062016755148  0.3663556661269141  0.6320124351539889
  0.0749963619822083  0.3246959471318149  0.3972241420019458
  0.2392067911252482  0.4893722821544770  0.3907651060638599
  0.4200436629274904  0.2845703651693228  0.1458618981737914
  0.0711999115980291  0.4531488952255032  0.1474408895685784
  0.2400251950339580  0.1046457413375848  0.1448040289808077
  0.4018171126953476  0.3989336443143756  0.9013416486332488
  0.0854085559710782  0.0815397825693296  0.8983015208530105
  0.2391162373073783  0.2413702541119420  0.8764457157960308
  0.3983563993023438  0.0224629284800670  0.6179388831804928
  0.0852453636749217  0.2029869016532331  0.6366784805382224
  0.4051937858168415  0.1557911209235030  0.3652898813056282
  0.2173926078904600  0.1899993152520167  0.4325351183451360
  0.0577026847655162  0.1459133762542990  0.1981542365501809
  0.2150761854313927  0.3175929592573254  0.2010653361635519
  0.0455763905462163  0.2740419642060132  0.9044758299587272
  0.2103374856701379  0.4379804005626795  0.9044863506112719
  0.3740209591972743  0.2395918185674191  0.6795085508412058
  0.0415408559810473  0.4057063558301408  0.6837519571268942
  0.2124874562427195  0.0673207805463321  0.6749151481512783
  0.3814048029243082  0.3541163010476538  0.4312958221337482
  0.0479789134397350  0.0260771000490863  0.4370121917312275
  0.3871289387994850  0.4756625163597406  0.1984413735005148
  0.7385927857718713  0.3670961919829665  0.6313162532346581
  0.5749176452162317  0.3242188890504565  0.3947422217195538
  0.7391572701263982  0.4891005619945545  0.3898889038006459
  0.9212542779690267  0.2874810367698259  0.1500495158305171
  0.5717724038615302  0.4514211551679921  0.1458216296936570
  0.7380105180070586  0.1050077194457870  0.1486397764946759
  0.9015912173608029  0.3993702257822775  0.9022967362446010
  0.5846347296682026  0.0822465198224762  0.8987782691588393
  0.7366457503120571  0.2437274708851831  0.8751229918233250
  0.8988622398943775  0.0225370791068400  0.6203336970941962
  0.5842091968574294  0.2031473412188944  0.6353090818732383
  0.9055509859244992  0.1561827823267308  0.3673973532761323
  0.7168763786547885  0.1905555122026215  0.4328165401341622
  0.5558172872853930  0.1464568142516995  0.1953325540670434
  0.7169143659192940  0.3158659412965079  0.1985400595778231
  0.8720111223009184  0.1150456070416510  0.9162511936466089
  0.5434770905138961  0.2725185243327601  0.9039290736244538
  0.7098675498786378  0.4386998603940881  0.9042377957500207
  0.8735000978485132  0.2408176548661416  0.6797919061067006
  0.5414259790572657  0.4052583646109653  0.6827637397175010
  0.7117929469522153  0.0683555669468703  0.6747306811721430
  0.8811797291119348  0.3549368594326836  0.4325521072443763
  0.5475226496334358  0.0264815406540961  0.4354651293907992
  0.8866497955107064  0.4771827489665341  0.1989535402536617
  0.2387195775545550  0.8670961013931233  0.6307532600349504
  0.0752080162830921  0.8247762347953085  0.3957411169765237
  0.2395363284621226  0.9890042043496621  0.3878360718706517
  0.4204535671210508  0.7872327798099761  0.1492241576421236
  0.0728802265449673  0.9522173727157721  0.1454464541842810
  0.2373917514231820  0.6042617977889435  0.1490375250592280
  0.4013017587037879  0.9002743186399869  0.9017601583198029
  0.0850185882719785  0.5818471524930118  0.8991848763503185
  0.2365126014757450  0.7438903422534793  0.8751385918698986
  0.3984603271145417  0.5216655844410099  0.6203276372515987
  0.0838268266231168  0.7033170605595487  0.6360095751216690
  0.4046611782370420  0.6557024354099283  0.3668573639160115
  0.2165558941864418  0.6904572003347553  0.4336749272964724
  0.0560028131395569  0.6465235355097008  0.1986145929332892
  0.2165495944095355  0.8153712631575019  0.1983129055258246
  0.3712263115178658  0.6144951981867308  0.9163516377089351
  0.0448113963147563  0.7744985474567798  0.9042901931955214
  0.2118919682076594  0.9401857148921096  0.9037875420238848
  0.3727784191462078  0.7404708529724289  0.6796400812328400
  0.0416681927251403  0.9058472197226521  0.6832074554617478
  0.2112443703042928  0.5677242628527068  0.6755130116711143
  0.3809411201260460  0.8546194391946074  0.4310801058241864
  0.0471883833427924  0.5262494327920919  0.4375450548905278
  0.3865965779385547  0.9772249954401673  0.1957855074999770
  0.7382151765969951  0.8675855558653751  0.6317677037281015
  0.5747336672234979  0.8250042362990513  0.3964560594716815
  0.7396559488902810  0.9892612136644772  0.3894448579264989
  0.9205364030113401  0.7876698560294955  0.1498981024378097
  0.5721148336924387  0.9522873360609623  0.1457361683610472
  0.7372888931761423  0.6048564465839092  0.1490993132596472
  0.9016878547748135  0.8999619984140352  0.9020447743658977
  0.5843845829258996  0.5816730566553190  0.8987535637193815
  0.7362904391175391  0.7439408063000528  0.8758035733952809
  0.8983890973533164  0.5223026678050005  0.6210809677464084
  0.5833496147402002  0.7037170291226502  0.6361458958648143
  0.9047533472107645  0.6562313061864558  0.3677733242375396
  0.7165871636077981  0.6906496807346514  0.4340808473950020
  0.5561916618796374  0.6458352547532940  0.1986224077074468
  0.7164771578596429  0.8160007146219854  0.1995748922976972
  0.8715027619199631  0.6147850550311347  0.9163753255609208
  0.5443999724470316  0.7739845183654523  0.9045660840973895
  0.7106664655815180  0.9392891344514496  0.9045432139867913
  0.8728213408837462  0.7411112729576672  0.6804232258818956
  0.5396444737348531  0.9081289016956546  0.6853121968311058
  0.7110990180835088  0.5681882264777371  0.6753876257807292
  0.8812669419512957  0.8548493562743573  0.4327781932642267
  0.5472791045209746  0.5260645295727358  0.4371361327625891
  0.8877717599890360  0.9770645939222149  0.1989245610828192
  0.3732384099903641  0.1113954350207322  0.9044207194937783
 
  0.00000000E+00  0.00000000E+00  0.00000000E+00
  0.00000000E+00  0.00000000E+00  0.00000000E+00
  0.00000000E+00  0.00000000E+00  0.00000000E+00
  0.00000000E+00  0.00000000E+00  0.00000000E+00
  0.00000000E+00  0.00000000E+00  0.00000000E+00
  0.00000000E+00  0.00000000E+00  0.00000000E+00
  0.00000000E+00  0.00000000E+00  0.00000000E+00
  0.00000000E+00  0.00000000E+00  0.00000000E+00
  0.00000000E+00  0.00000000E+00  0.00000000E+00
  0.00000000E+00  0.00000000E+00  0.00000000E+00
  0.00000000E+00  0.00000000E+00  0.00000000E+00
  0.00000000E+00  0.00000000E+00  0.00000000E+00
  0.00000000E+00  0.00000000E+00  0.00000000E+00
  0.00000000E+00  0.00000000E+00  0.00000000E+00
  0.00000000E+00  0.00000000E+00  0.00000000E+00
  0.00000000E+00  0.00000000E+00  0.00000000E+00
  0.00000000E+00  0.00000000E+00  0.00000000E+00
  0.00000000E+00  0.00000000E+00  0.00000000E+00
  0.00000000E+00  0.00000000E+00  0.00000000E+00
  0.00000000E+00  0.00000000E+00  0.00000000E+00
  0.00000000E+00  0.00000000E+00  0.00000000E+00
  0.00000000E+00  0.00000000E+00  0.00000000E+00
  0.00000000E+00  0.00000000E+00  0.00000000E+00
  0.00000000E+00  0.00000000E+00  0.00000000E+00
  0.00000000E+00  0.00000000E+00  0.00000000E+00
  0.00000000E+00  0.00000000E+00  0.00000000E+00
  0.00000000E+00  0.00000000E+00  0.00000000E+00
  0.00000000E+00  0.00000000E+00  0.00000000E+00
  0.00000000E+00  0.00000000E+00  0.00000000E+00
  0.00000000E+00  0.00000000E+00  0.00000000E+00
  0.00000000E+00  0.00000000E+00  0.00000000E+00
  0.00000000E+00  0.00000000E+00  0.00000000E+00
  0.00000000E+00  0.00000000E+00  0.00000000E+00
  0.00000000E+00  0.00000000E+00  0.00000000E+00
  0.00000000E+00  0.00000000E+00  0.00000000E+00
  0.00000000E+00  0.00000000E+00  0.00000000E+00
  0.00000000E+00  0.00000000E+00  0.00000000E+00
  0.00000000E+00  0.00000000E+00  0.00000000E+00
  0.00000000E+00  0.00000000E+00  0.00000000E+00
  0.00000000E+00  0.00000000E+00  0.00000000E+00
  0.00000000E+00  0.00000000E+00  0.00000000E+00
  0.00000000E+00  0.00000000E+00  0.00000000E+00
  0.00000000E+00  0.00000000E+00  0.00000000E+00
  0.00000000E+00  0.00000000E+00  0.00000000E+00
  0.00000000E+00  0.00000000E+00  0.00000000E+00
  0.00000000E+00  0.00000000E+00  0.00000000E+00
  0.00000000E+00  0.00000000E+00  0.00000000E+00
  0.00000000E+00  0.00000000E+00  0.00000000E+00
  0.00000000E+00  0.00000000E+00  0.00000000E+00
  0.00000000E+00  0.00000000E+00  0.00000000E+00
  0.00000000E+00  0.00000000E+00  0.00000000E+00
  0.00000000E+00  0.00000000E+00  0.00000000E+00
  0.00000000E+00  0.00000000E+00  0.00000000E+00
  0.00000000E+00  0.00000000E+00  0.00000000E+00
  0.00000000E+00  0.00000000E+00  0.00000000E+00
  0.00000000E+00  0.00000000E+00  0.00000000E+00
  0.00000000E+00  0.00000000E+00  0.00000000E+00
  0.00000000E+00  0.00000000E+00  0.00000000E+00
  0.00000000E+00  0.00000000E+00  0.00000000E+00
  0.00000000E+00  0.00000000E+00  0.00000000E+00
  0.00000000E+00  0.00000000E+00  0.00000000E+00
  0.00000000E+00  0.00000000E+00  0.00000000E+00
  0.00000000E+00  0.00000000E+00  0.00000000E+00
  0.00000000E+00  0.00000000E+00  0.00000000E+00
  0.00000000E+00  0.00000000E+00  0.00000000E+00
  0.00000000E+00  0.00000000E+00  0.00000000E+00
  0.00000000E+00  0.00000000E+00  0.00000000E+00
  0.00000000E+00  0.00000000E+00  0.00000000E+00
  0.00000000E+00  0.00000000E+00  0.00000000E+00
  0.00000000E+00  0.00000000E+00  0.00000000E+00
  0.00000000E+00  0.00000000E+00  0.00000000E+00
  0.00000000E+00  0.00000000E+00  0.00000000E+00
  0.00000000E+00  0.00000000E+00  0.00000000E+00
  0.00000000E+00  0.00000000E+00  0.00000000E+00
  0.00000000E+00  0.00000000E+00  0.00000000E+00
  0.00000000E+00  0.00000000E+00  0.00000000E+00
  0.00000000E+00  0.00000000E+00  0.00000000E+00
  0.00000000E+00  0.00000000E+00  0.00000000E+00
  0.00000000E+00  0.00000000E+00  0.00000000E+00
  0.00000000E+00  0.00000000E+00  0.00000000E+00
  0.00000000E+00  0.00000000E+00  0.00000000E+00
  0.00000000E+00  0.00000000E+00  0.00000000E+00
  0.00000000E+00  0.00000000E+00  0.00000000E+00
  0.00000000E+00  0.00000000E+00  0.00000000E+00
  0.00000000E+00  0.00000000E+00  0.00000000E+00
  0.00000000E+00  0.00000000E+00  0.00000000E+00
  0.00000000E+00  0.00000000E+00  0.00000000E+00
  0.00000000E+00  0.00000000E+00  0.00000000E+00
  0.00000000E+00  0.00000000E+00  0.00000000E+00
  0.00000000E+00  0.00000000E+00  0.00000000E+00
  0.00000000E+00  0.00000000E+00  0.00000000E+00
  0.00000000E+00  0.00000000E+00  0.00000000E+00
  0.00000000E+00  0.00000000E+00  0.00000000E+00
  0.00000000E+00  0.00000000E+00  0.00000000E+00
  0.00000000E+00  0.00000000E+00  0.00000000E+00
  0.00000000E+00  0.00000000E+00  0.00000000E+00
  0.00000000E+00  0.00000000E+00  0.00000000E+00
  0.00000000E+00  0.00000000E+00  0.00000000E+00
  0.00000000E+00  0.00000000E+00  0.00000000E+00
  0.00000000E+00  0.00000000E+00  0.00000000E+00
  0.00000000E+00  0.00000000E+00  0.00000000E+00
  0.00000000E+00  0.00000000E+00  0.00000000E+00
  0.00000000E+00  0.00000000E+00  0.00000000E+00
  0.00000000E+00  0.00000000E+00  0.00000000E+00
  0.00000000E+00  0.00000000E+00  0.00000000E+00
  0.00000000E+00  0.00000000E+00  0.00000000E+00
  0.00000000E+00  0.00000000E+00  0.00000000E+00
  0.00000000E+00  0.00000000E+00  0.00000000E+00
  0.00000000E+00  0.00000000E+00  0.00000000E+00
  0.00000000E+00  0.00000000E+00  0.00000000E+00
  0.00000000E+00  0.00000000E+00  0.00000000E+00
  0.00000000E+00  0.00000000E+00  0.00000000E+00
  0.00000000E+00  0.00000000E+00  0.00000000E+00
  0.00000000E+00  0.00000000E+00  0.00000000E+00
  0.00000000E+00  0.00000000E+00  0.00000000E+00
  0.00000000E+00  0.00000000E+00  0.00000000E+00
  0.00000000E+00  0.00000000E+00  0.00000000E+00
  0.00000000E+00  0.00000000E+00  0.00000000E+00
  0.00000000E+00  0.00000000E+00  0.00000000E+00
  0.00000000E+00  0.00000000E+00  0.00000000E+00
  0.00000000E+00  0.00000000E+00  0.00000000E+00
  0.00000000E+00  0.00000000E+00  0.00000000E+00
  0.00000000E+00  0.00000000E+00  0.00000000E+00
  0.00000000E+00  0.00000000E+00  0.00000000E+00
  0.00000000E+00  0.00000000E+00  0.00000000E+00
  0.00000000E+00  0.00000000E+00  0.00000000E+00
  0.00000000E+00  0.00000000E+00  0.00000000E+00
  0.00000000E+00  0.00000000E+00  0.00000000E+00
  0.00000000E+00  0.00000000E+00  0.00000000E+00
  0.00000000E+00  0.00000000E+00  0.00000000E+00
  0.00000000E+00  0.00000000E+00  0.00000000E+00
  0.00000000E+00  0.00000000E+00  0.00000000E+00
  0.00000000E+00  0.00000000E+00  0.00000000E+00
  0.00000000E+00  0.00000000E+00  0.00000000E+00
  0.00000000E+00  0.00000000E+00  0.00000000E+00
  0.00000000E+00  0.00000000E+00  0.00000000E+00
  0.00000000E+00  0.00000000E+00  0.00000000E+00
  0.00000000E+00  0.00000000E+00  0.00000000E+00
  0.00000000E+00  0.00000000E+00  0.00000000E+00
  0.00000000E+00  0.00000000E+00  0.00000000E+00
  0.00000000E+00  0.00000000E+00  0.00000000E+00
  0.00000000E+00  0.00000000E+00  0.00000000E+00
  0.00000000E+00  0.00000000E+00  0.00000000E+00
  0.00000000E+00  0.00000000E+00  0.00000000E+00
  0.00000000E+00  0.00000000E+00  0.00000000E+00
  0.00000000E+00  0.00000000E+00  0.00000000E+00
  0.00000000E+00  0.00000000E+00  0.00000000E+00
  0.00000000E+00  0.00000000E+00  0.00000000E+00
  0.00000000E+00  0.00000000E+00  0.00000000E+00
  0.00000000E+00  0.00000000E+00  0.00000000E+00
  0.00000000E+00  0.00000000E+00  0.00000000E+00
  0.00000000E+00  0.00000000E+00  0.00000000E+00
  0.00000000E+00  0.00000000E+00  0.00000000E+00
  0.00000000E+00  0.00000000E+00  0.00000000E+00
  0.00000000E+00  0.00000000E+00  0.00000000E+00
  0.00000000E+00  0.00000000E+00  0.00000000E+00
  0.00000000E+00  0.00000000E+00  0.00000000E+00
  0.00000000E+00  0.00000000E+00  0.00000000E+00
  0.00000000E+00  0.00000000E+00  0.00000000E+00
  0.00000000E+00  0.00000000E+00  0.00000000E+00
  0.00000000E+00  0.00000000E+00  0.00000000E+00
  0.00000000E+00  0.00000000E+00  0.00000000E+00
  0.00000000E+00  0.00000000E+00  0.00000000E+00
  0.00000000E+00  0.00000000E+00  0.00000000E+00
  0.00000000E+00  0.00000000E+00  0.00000000E+00
  0.00000000E+00  0.00000000E+00  0.00000000E+00
  0.00000000E+00  0.00000000E+00  0.00000000E+00
  0.00000000E+00  0.00000000E+00  0.00000000E+00
  0.00000000E+00  0.00000000E+00  0.00000000E+00
  0.00000000E+00  0.00000000E+00  0.00000000E+00
  0.00000000E+00  0.00000000E+00  0.00000000E+00
  0.00000000E+00  0.00000000E+00  0.00000000E+00
  0.00000000E+00  0.00000000E+00  0.00000000E+00
  0.00000000E+00  0.00000000E+00  0.00000000E+00
  0.00000000E+00  0.00000000E+00  0.00000000E+00
  0.00000000E+00  0.00000000E+00  0.00000000E+00
  0.00000000E+00  0.00000000E+00  0.00000000E+00
  0.00000000E+00  0.00000000E+00  0.00000000E+00
  0.00000000E+00  0.00000000E+00  0.00000000E+00
  0.00000000E+00  0.00000000E+00  0.00000000E+00
  0.00000000E+00  0.00000000E+00  0.00000000E+00
  0.00000000E+00  0.00000000E+00  0.00000000E+00
  0.00000000E+00  0.00000000E+00  0.00000000E+00
  0.00000000E+00  0.00000000E+00  0.00000000E+00
  0.00000000E+00  0.00000000E+00  0.00000000E+00
  0.00000000E+00  0.00000000E+00  0.00000000E+00
  0.00000000E+00  0.00000000E+00  0.00000000E+00
  0.00000000E+00  0.00000000E+00  0.00000000E+00
  0.00000000E+00  0.00000000E+00  0.00000000E+00
  0.00000000E+00  0.00000000E+00  0.00000000E+00
  0.00000000E+00  0.00000000E+00  0.00000000E+00
  0.00000000E+00  0.00000000E+00  0.00000000E+00
