supercell of POSCAR                     
   1.07329600000000     
     9.1016125577399993   -5.3128209557800004   -9.4184911254399992
     9.0821131104399999    5.2871675818400004    9.4140884809200003
    -1.5053809694200000   -7.9210976524300012    4.6939078171600004
   Al   Sc   N    O 
    72    24    95     1
Direct
  0.3028062131378206  0.2868761738528249  0.5400564287031884
  0.1423538196781706  0.2425401679696648  0.3034746762198353
  0.3074070327703069  0.4075547322495510  0.3019634408992360
  0.4670959099176386  0.3265422655860917  0.7892365679263165
  0.1394070899411872  0.4973912246640779  0.7881552061635020
  0.3000921771477536  0.1624242133483307  0.7804922342416418
  0.4702368585996979  0.4480393882512672  0.5361717010876106
  0.1413631276396359  0.1189461171271802  0.5397870128868618
  0.4803771884217198  0.0677436170566352  0.2889786249220521
  0.2722562534679724  0.1055560138445202  0.3310791455014197
  0.1144984205315964  0.0683247603016781  0.0925957209385118
  0.1136772074695713  0.1968735777975823  0.8227064646968074
  0.2749154447553792  0.3586846928530107  0.8203426382597740
  0.1107689447188989  0.3239338511891390  0.5874687271451151
  0.2720827385858229  0.4853598654111053  0.5789767531910570
  0.4490468982959754  0.2820818317186848  0.3315894772734822
  0.1110405575855111  0.4445378474882347  0.3370012609300446
  0.4472806976312071  0.4012371988761032  0.0936445740067811
  0.8034370730888014  0.2867644912308052  0.5394495222371702
  0.6431575246872683  0.2422129660563002  0.3039850784612952
  0.8080457696662222  0.4079921428323061  0.3027089929039235
  0.9668734817105715  0.3267727753133087  0.7901558881041524
  0.6396436444238347  0.4975851224247378  0.7883050741224196
  0.8002548414657227  0.1633175628129777  0.7827316958694865
  0.9699101232200107  0.4483922707756918  0.5361174841210357
  0.6423331626508286  0.1195190463775049  0.5403719753909684
  0.9761912988455919  0.0732539875303502  0.2949808585870599
  0.7774439811829197  0.1082674981364278  0.3345307072514387
  0.6146163351671703  0.0690332107998728  0.0930764142560108
  0.6138393137001970  0.1969138757562376  0.8236479334829596
  0.7755103821829223  0.3586681024159688  0.8204755125093897
  0.6112901187369459  0.3240570712900137  0.5883883214205028
  0.7722867150036734  0.4854291462651403  0.5792517837179574
  0.9473592400856603  0.2783544063808847  0.3348519630870754
  0.6115696247368021  0.4448251621656212  0.3365667198799613
  0.9472149601292585  0.4020599508382787  0.0947718525412142
  0.3027524665713912  0.7861298808687422  0.5392567771082497
  0.1419159642959542  0.7419753667798545  0.3041253367952521
  0.3076137873669680  0.9069310825145038  0.3021821619927465
  0.4663238146195141  0.8263321398669632  0.7904740130615124
  0.1392978241670306  0.9970874549924176  0.7873055927453123
  0.2993995987336504  0.6629290295762615  0.7827634219546269
  0.4697709947931088  0.9477501384317506  0.5353559070471476
  0.1411248552129365  0.6193110092685785  0.5401493975084648
  0.4756412692683156  0.5727266217263463  0.2951858828574885
  0.2767497950251894  0.6079715434204047  0.3346491491868164
  0.1138033935957168  0.5686520208055157  0.0937426059492310
  0.1130145944422338  0.6967065479790975  0.8236818989807659
  0.2746859281058605  0.8579313659455181  0.8198014358321757
  0.1107300111477585  0.8236631292252241  0.5874925787116325
  0.2721459849546761  0.9851437184338749  0.5788240646350360
  0.4469000608936398  0.7778193673512988  0.3349686711126338
  0.1105284965807414  0.9437561529996117  0.3362699380616050
  0.4466389402017157  0.9013330476109189  0.0940741034983645
  0.8027323328178682  0.7866518620709897  0.5397017630937171
  0.6419017649496084  0.7420200948637543  0.3044150309038329
  0.8080037202270560  0.9080315370495740  0.3027916092096845
  0.9663900087185695  0.8267193978804741  0.7902371091206533
  0.6398220135797459  0.9974623266521618  0.7884185098004366
  0.7995549976287037  0.6632920374650837  0.7829100665287640
  0.9698528859832507  0.9482257971056427  0.5358530990125914
  0.6412132137833808  0.6193643403490583  0.5403757011899586
  0.9756888115322937  0.5732054732616376  0.2953109205570286
  0.7768164649972249  0.6082946914456642  0.3347638606485575
  0.6138167690974541  0.5683800123644005  0.0937564460908362
  0.6131480202920514  0.6969659736652360  0.8241625215630606
  0.7749963070283243  0.8585006163772917  0.8209254042962328
  0.6107786749296906  0.8236040842494106  0.5881026461158356
  0.7725620981636467  0.9853190694709042  0.5794513192606061
  0.9468005916878468  0.7782031149557227  0.3350759157979368
  0.6121712581654108  0.9435773806145065  0.3373460939172475
  0.9473364815949452  0.9020049833864903  0.0946932583560312
  0.4816362578237232  0.1960096681036916  0.0354814974721336
  0.1401283873029584  0.3657723858468245  0.0368489638049851
  0.3097300674105554  0.0238136447238588  0.0350047448335147
  0.2829561902822633  0.2306764582463927  0.0784498803150342
  0.4474110923503858  0.0212819596387064  0.8206554081401691
  0.4456311588803104  0.1525910426120802  0.5721991146818297
  0.9818593945616385  0.1969595014600927  0.0386296023894559
  0.6411314619512041  0.3652404232149422  0.0364809083472792
  0.8095891903990946  0.0247566461121664  0.0385376006453413
  0.7843280489222551  0.2306999193330128  0.0812776461241924
  0.9469824986818125  0.0223274431081109  0.8230121698572077
  0.9448409597767835  0.1527930298365519  0.5738440013686699
  0.4810914758411826  0.6967214527006931  0.0388714209091319
  0.1405416398925468  0.8647941027963881  0.0362359245807369
  0.3091040391455522  0.5245728001809056  0.0389054947910950
  0.2832337456581939  0.7299998869869384  0.0814065388750791
  0.4463610680560492  0.5219651241857832  0.8231004558071362
  0.4442441141743032  0.6522326186502809  0.5741876849907968
  0.9808383662963891  0.6971431278526055  0.0389856770219978
  0.6400451049089213  0.8659359915746307  0.0375783560362208
  0.8091205936670747  0.5251055436203913  0.0387884907146017
  0.7831606772569373  0.7308931629704460  0.0820385228386442
  0.9465536291841161  0.5224142908951421  0.8233852012904563
  0.9443839931602795  0.6527540064068731  0.5743911406862736
  0.2388476915650983  0.3667253425437522  0.6309664516032427
  0.0757476386043052  0.3242049413484480  0.3955891864630061
  0.2395911888694897  0.4883481430799250  0.3893618068589646
  0.4202101507265112  0.2853467305027877  0.1482509307861122
  0.0719502835650516  0.4521730782448259  0.1462873024589584
  0.2392720969623738  0.1047840117695245  0.1473294975709294
  0.4014836923697729  0.3984331465508006  0.9010961301481899
  0.0854254637459206  0.0819256376558286  0.8984623369493647
  0.2371138355338758  0.2430527461829399  0.8724039040325238
  0.3986879740378697  0.0237361146014834  0.6174170495809364
  0.0843877663521013  0.2030860911882115  0.6346036781099755
  0.2188355735011314  0.1896352705823645  0.4326570110222292
  0.0574986811270222  0.1457770382306762  0.1982147783944441
  0.2169853517007425  0.3151695687105729  0.1978256733000023
  0.3721731421818362  0.1137143645367473  0.9131030347968476
  0.0449316468687542  0.2738530747125623  0.9035526151977251
  0.2103030675329407  0.4388567473184395  0.9040396274443481
  0.3743504817998371  0.2393047176619518  0.6770053228491690
  0.0415081172721727  0.4056007242586475  0.6829159247666965
  0.2114253785214046  0.0674866157270912  0.6740242811805146
  0.3817957840730912  0.3524718032195793  0.4314993281029444
  0.0478300191230261  0.0258551057783549  0.4365265915752161
  0.3872844659127281  0.4756510102608402  0.1984699663388554
  0.7384921156619626  0.3668241027819690  0.6311251722316626
  0.5747425297237712  0.3231294236666500  0.3957918393205873
  0.7392592056910487  0.4886480657947132  0.3895777762256287
  0.9211499184756846  0.2871821623368049  0.1494634318055432
  0.5718593639317078  0.4513256541754131  0.1458566872793838
  0.7375995190668903  0.1049775849057042  0.1488436906330293
  0.9016431817419459  0.3993887946700383  0.9018574469640299
  0.5844029940992428  0.0821815898115901  0.8991754227410595
  0.7365436789751243  0.2436544281135156  0.8748131605485412
  0.8986046922092967  0.0224058889018508  0.6203012740911120
  0.5830474010251905  0.2026556782179370  0.6351574552292618
  0.9053031461485261  0.1559806841446587  0.3669903429526613
  0.7169990290901538  0.1903304844529146  0.4336480421668369
  0.5556998091258549  0.1465630406781102  0.1984749057340451
  0.7167973294785028  0.3154492504427608  0.1988936352090533
  0.8718353396694383  0.1147206387327557  0.9161504390394910
  0.5447368043627492  0.2740956627405211  0.9032243144848806
  0.7103548082058211  0.4390676899597850  0.9039705978856247
  0.8732316173512800  0.2406936769755035  0.6798066083067837
  0.5415129502744307  0.4054140770080892  0.6827203796220260
  0.7113016188623789  0.0680336426917663  0.6753140820929531
  0.8815045997980917  0.3545743764656493  0.4322417559852099
  0.5470678745436217  0.0268373068992105  0.4372425383293930
  0.8869971850377283  0.4767980441086266  0.1985699856453991
  0.2388022697543661  0.8671585344202839  0.6308470152212564
  0.0752195228900447  0.8244979135405330  0.3957182916345232
  0.2400388916069716  0.9889637565617377  0.3888688403449265
  0.4202199708979890  0.7873097414569301  0.1497482315461340
  0.0725366067918571  0.9520798617697253  0.1456553937711789
  0.2374984420625097  0.6043692793280613  0.1489007636195936
  0.4009462990453088  0.9000086459883150  0.9022345137681071
  0.0847585813162226  0.5816595514599143  0.8986859535946508
  0.2362104539435492  0.7435072801273819  0.8751945331420146
  0.3983478784776082  0.5212288337290261  0.6197618186191107
  0.0837805897938892  0.7032489025594515  0.6357349349359751
  0.4048418524015105  0.6555846781680685  0.3673116108294820
  0.2167383115824322  0.6901164361595491  0.4335463854068919
  0.0561664898760981  0.6460587861065150  0.1982284276187514
  0.2166820831535006  0.8155477483851357  0.1988844167941934
  0.3713725939060737  0.6142774092908070  0.9159946949583428
  0.0441123334427331  0.7739194067226975  0.9040287986764923
  0.2098830051428280  0.9386684395060954  0.9032516803043151
  0.3728210201148627  0.7406186186550983  0.6801613172620335
  0.0411597911818404  0.9057841282021926  0.6830344160022932
  0.2113018920712975  0.5677279194487923  0.6748702047150061
  0.3811434397113231  0.8545365926140533  0.4322582822028451
  0.0474594769244163  0.5259176109747727  0.4369158020191790
  0.3866483265371414  0.9775787677636743  0.1989544794786937
  0.7382126322892759  0.8672441572745342  0.6318460131218444
  0.5748043979942494  0.8246843386214024  0.3964411806694557
  0.7394476408682564  0.9891755819494961  0.3899764443046863
  0.9202091002300676  0.7874689578851743  0.1498654244869968
  0.5708518506992561  0.9534823399547392  0.1477951233647019
  0.7372480710924947  0.6048899618550294  0.1490265924547458
  0.9012953768325005  0.8998772310192393  0.9021091562079988
  0.5842240062780206  0.5816404655662950  0.8987363263777866
  0.7361316297856817  0.7437097730667688  0.8755299308364997
  0.8983600474956859  0.5221209931282758  0.6204706302630996
  0.5833018276920754  0.7031455198184702  0.6360617136456597
  0.9047954048482367  0.6559399047639261  0.3675335636331027
  0.7165186799187566  0.6903713270477212  0.4338655242856220
  0.5560033871640044  0.6457228888121875  0.1984767110603656
  0.7159061867582963  0.8162941996418311  0.1994206696317775
  0.8713782550808560  0.6146358097166527  0.9160172521914376
  0.5442369262913971  0.7744009779171179  0.9048259677635144
  0.7098861502555636  0.9391418955021749  0.9048483458106205
  0.8727007362933605  0.7408484236086110  0.6801500921919796
  0.5405344391017763  0.9065305977161273  0.6838537899744566
  0.7111608031841570  0.5679511515188551  0.6750787441542485
  0.8810684140541696  0.8546447763013418  0.4325562495107249
  0.5473867211635621  0.5254401421787875  0.4367872180582708
  0.8873648636308005  0.9769756668292615  0.1988340491506762
  0.4054060482309794  0.1550985037863697  0.3626343295565491
 
  0.00000000E+00  0.00000000E+00  0.00000000E+00
  0.00000000E+00  0.00000000E+00  0.00000000E+00
  0.00000000E+00  0.00000000E+00  0.00000000E+00
  0.00000000E+00  0.00000000E+00  0.00000000E+00
  0.00000000E+00  0.00000000E+00  0.00000000E+00
  0.00000000E+00  0.00000000E+00  0.00000000E+00
  0.00000000E+00  0.00000000E+00  0.00000000E+00
  0.00000000E+00  0.00000000E+00  0.00000000E+00
  0.00000000E+00  0.00000000E+00  0.00000000E+00
  0.00000000E+00  0.00000000E+00  0.00000000E+00
  0.00000000E+00  0.00000000E+00  0.00000000E+00
  0.00000000E+00  0.00000000E+00  0.00000000E+00
  0.00000000E+00  0.00000000E+00  0.00000000E+00
  0.00000000E+00  0.00000000E+00  0.00000000E+00
  0.00000000E+00  0.00000000E+00  0.00000000E+00
  0.00000000E+00  0.00000000E+00  0.00000000E+00
  0.00000000E+00  0.00000000E+00  0.00000000E+00
  0.00000000E+00  0.00000000E+00  0.00000000E+00
  0.00000000E+00  0.00000000E+00  0.00000000E+00
  0.00000000E+00  0.00000000E+00  0.00000000E+00
  0.00000000E+00  0.00000000E+00  0.00000000E+00
  0.00000000E+00  0.00000000E+00  0.00000000E+00
  0.00000000E+00  0.00000000E+00  0.00000000E+00
  0.00000000E+00  0.00000000E+00  0.00000000E+00
  0.00000000E+00  0.00000000E+00  0.00000000E+00
  0.00000000E+00  0.00000000E+00  0.00000000E+00
  0.00000000E+00  0.00000000E+00  0.00000000E+00
  0.00000000E+00  0.00000000E+00  0.00000000E+00
  0.00000000E+00  0.00000000E+00  0.00000000E+00
  0.00000000E+00  0.00000000E+00  0.00000000E+00
  0.00000000E+00  0.00000000E+00  0.00000000E+00
  0.00000000E+00  0.00000000E+00  0.00000000E+00
  0.00000000E+00  0.00000000E+00  0.00000000E+00
  0.00000000E+00  0.00000000E+00  0.00000000E+00
  0.00000000E+00  0.00000000E+00  0.00000000E+00
  0.00000000E+00  0.00000000E+00  0.00000000E+00
  0.00000000E+00  0.00000000E+00  0.00000000E+00
  0.00000000E+00  0.00000000E+00  0.00000000E+00
  0.00000000E+00  0.00000000E+00  0.00000000E+00
  0.00000000E+00  0.00000000E+00  0.00000000E+00
  0.00000000E+00  0.00000000E+00  0.00000000E+00
  0.00000000E+00  0.00000000E+00  0.00000000E+00
  0.00000000E+00  0.00000000E+00  0.00000000E+00
  0.00000000E+00  0.00000000E+00  0.00000000E+00
  0.00000000E+00  0.00000000E+00  0.00000000E+00
  0.00000000E+00  0.00000000E+00  0.00000000E+00
  0.00000000E+00  0.00000000E+00  0.00000000E+00
  0.00000000E+00  0.00000000E+00  0.00000000E+00
  0.00000000E+00  0.00000000E+00  0.00000000E+00
  0.00000000E+00  0.00000000E+00  0.00000000E+00
  0.00000000E+00  0.00000000E+00  0.00000000E+00
  0.00000000E+00  0.00000000E+00  0.00000000E+00
  0.00000000E+00  0.00000000E+00  0.00000000E+00
  0.00000000E+00  0.00000000E+00  0.00000000E+00
  0.00000000E+00  0.00000000E+00  0.00000000E+00
  0.00000000E+00  0.00000000E+00  0.00000000E+00
  0.00000000E+00  0.00000000E+00  0.00000000E+00
  0.00000000E+00  0.00000000E+00  0.00000000E+00
  0.00000000E+00  0.00000000E+00  0.00000000E+00
  0.00000000E+00  0.00000000E+00  0.00000000E+00
  0.00000000E+00  0.00000000E+00  0.00000000E+00
  0.00000000E+00  0.00000000E+00  0.00000000E+00
  0.00000000E+00  0.00000000E+00  0.00000000E+00
  0.00000000E+00  0.00000000E+00  0.00000000E+00
  0.00000000E+00  0.00000000E+00  0.00000000E+00
  0.00000000E+00  0.00000000E+00  0.00000000E+00
  0.00000000E+00  0.00000000E+00  0.00000000E+00
  0.00000000E+00  0.00000000E+00  0.00000000E+00
  0.00000000E+00  0.00000000E+00  0.00000000E+00
  0.00000000E+00  0.00000000E+00  0.00000000E+00
  0.00000000E+00  0.00000000E+00  0.00000000E+00
  0.00000000E+00  0.00000000E+00  0.00000000E+00
  0.00000000E+00  0.00000000E+00  0.00000000E+00
  0.00000000E+00  0.00000000E+00  0.00000000E+00
  0.00000000E+00  0.00000000E+00  0.00000000E+00
  0.00000000E+00  0.00000000E+00  0.00000000E+00
  0.00000000E+00  0.00000000E+00  0.00000000E+00
  0.00000000E+00  0.00000000E+00  0.00000000E+00
  0.00000000E+00  0.00000000E+00  0.00000000E+00
  0.00000000E+00  0.00000000E+00  0.00000000E+00
  0.00000000E+00  0.00000000E+00  0.00000000E+00
  0.00000000E+00  0.00000000E+00  0.00000000E+00
  0.00000000E+00  0.00000000E+00  0.00000000E+00
  0.00000000E+00  0.00000000E+00  0.00000000E+00
  0.00000000E+00  0.00000000E+00  0.00000000E+00
  0.00000000E+00  0.00000000E+00  0.00000000E+00
  0.00000000E+00  0.00000000E+00  0.00000000E+00
  0.00000000E+00  0.00000000E+00  0.00000000E+00
  0.00000000E+00  0.00000000E+00  0.00000000E+00
  0.00000000E+00  0.00000000E+00  0.00000000E+00
  0.00000000E+00  0.00000000E+00  0.00000000E+00
  0.00000000E+00  0.00000000E+00  0.00000000E+00
  0.00000000E+00  0.00000000E+00  0.00000000E+00
  0.00000000E+00  0.00000000E+00  0.00000000E+00
  0.00000000E+00  0.00000000E+00  0.00000000E+00
  0.00000000E+00  0.00000000E+00  0.00000000E+00
  0.00000000E+00  0.00000000E+00  0.00000000E+00
  0.00000000E+00  0.00000000E+00  0.00000000E+00
  0.00000000E+00  0.00000000E+00  0.00000000E+00
  0.00000000E+00  0.00000000E+00  0.00000000E+00
  0.00000000E+00  0.00000000E+00  0.00000000E+00
  0.00000000E+00  0.00000000E+00  0.00000000E+00
  0.00000000E+00  0.00000000E+00  0.00000000E+00
  0.00000000E+00  0.00000000E+00  0.00000000E+00
  0.00000000E+00  0.00000000E+00  0.00000000E+00
  0.00000000E+00  0.00000000E+00  0.00000000E+00
  0.00000000E+00  0.00000000E+00  0.00000000E+00
  0.00000000E+00  0.00000000E+00  0.00000000E+00
  0.00000000E+00  0.00000000E+00  0.00000000E+00
  0.00000000E+00  0.00000000E+00  0.00000000E+00
  0.00000000E+00  0.00000000E+00  0.00000000E+00
  0.00000000E+00  0.00000000E+00  0.00000000E+00
  0.00000000E+00  0.00000000E+00  0.00000000E+00
  0.00000000E+00  0.00000000E+00  0.00000000E+00
  0.00000000E+00  0.00000000E+00  0.00000000E+00
  0.00000000E+00  0.00000000E+00  0.00000000E+00
  0.00000000E+00  0.00000000E+00  0.00000000E+00
  0.00000000E+00  0.00000000E+00  0.00000000E+00
  0.00000000E+00  0.00000000E+00  0.00000000E+00
  0.00000000E+00  0.00000000E+00  0.00000000E+00
  0.00000000E+00  0.00000000E+00  0.00000000E+00
  0.00000000E+00  0.00000000E+00  0.00000000E+00
  0.00000000E+00  0.00000000E+00  0.00000000E+00
  0.00000000E+00  0.00000000E+00  0.00000000E+00
  0.00000000E+00  0.00000000E+00  0.00000000E+00
  0.00000000E+00  0.00000000E+00  0.00000000E+00
  0.00000000E+00  0.00000000E+00  0.00000000E+00
  0.00000000E+00  0.00000000E+00  0.00000000E+00
  0.00000000E+00  0.00000000E+00  0.00000000E+00
  0.00000000E+00  0.00000000E+00  0.00000000E+00
  0.00000000E+00  0.00000000E+00  0.00000000E+00
  0.00000000E+00  0.00000000E+00  0.00000000E+00
  0.00000000E+00  0.00000000E+00  0.00000000E+00
  0.00000000E+00  0.00000000E+00  0.00000000E+00
  0.00000000E+00  0.00000000E+00  0.00000000E+00
  0.00000000E+00  0.00000000E+00  0.00000000E+00
  0.00000000E+00  0.00000000E+00  0.00000000E+00
  0.00000000E+00  0.00000000E+00  0.00000000E+00
  0.00000000E+00  0.00000000E+00  0.00000000E+00
  0.00000000E+00  0.00000000E+00  0.00000000E+00
  0.00000000E+00  0.00000000E+00  0.00000000E+00
  0.00000000E+00  0.00000000E+00  0.00000000E+00
  0.00000000E+00  0.00000000E+00  0.00000000E+00
  0.00000000E+00  0.00000000E+00  0.00000000E+00
  0.00000000E+00  0.00000000E+00  0.00000000E+00
  0.00000000E+00  0.00000000E+00  0.00000000E+00
  0.00000000E+00  0.00000000E+00  0.00000000E+00
  0.00000000E+00  0.00000000E+00  0.00000000E+00
  0.00000000E+00  0.00000000E+00  0.00000000E+00
  0.00000000E+00  0.00000000E+00  0.00000000E+00
  0.00000000E+00  0.00000000E+00  0.00000000E+00
  0.00000000E+00  0.00000000E+00  0.00000000E+00
  0.00000000E+00  0.00000000E+00  0.00000000E+00
  0.00000000E+00  0.00000000E+00  0.00000000E+00
  0.00000000E+00  0.00000000E+00  0.00000000E+00
  0.00000000E+00  0.00000000E+00  0.00000000E+00
  0.00000000E+00  0.00000000E+00  0.00000000E+00
  0.00000000E+00  0.00000000E+00  0.00000000E+00
  0.00000000E+00  0.00000000E+00  0.00000000E+00
  0.00000000E+00  0.00000000E+00  0.00000000E+00
  0.00000000E+00  0.00000000E+00  0.00000000E+00
  0.00000000E+00  0.00000000E+00  0.00000000E+00
  0.00000000E+00  0.00000000E+00  0.00000000E+00
  0.00000000E+00  0.00000000E+00  0.00000000E+00
  0.00000000E+00  0.00000000E+00  0.00000000E+00
  0.00000000E+00  0.00000000E+00  0.00000000E+00
  0.00000000E+00  0.00000000E+00  0.00000000E+00
  0.00000000E+00  0.00000000E+00  0.00000000E+00
  0.00000000E+00  0.00000000E+00  0.00000000E+00
  0.00000000E+00  0.00000000E+00  0.00000000E+00
  0.00000000E+00  0.00000000E+00  0.00000000E+00
  0.00000000E+00  0.00000000E+00  0.00000000E+00
  0.00000000E+00  0.00000000E+00  0.00000000E+00
  0.00000000E+00  0.00000000E+00  0.00000000E+00
  0.00000000E+00  0.00000000E+00  0.00000000E+00
  0.00000000E+00  0.00000000E+00  0.00000000E+00
  0.00000000E+00  0.00000000E+00  0.00000000E+00
  0.00000000E+00  0.00000000E+00  0.00000000E+00
  0.00000000E+00  0.00000000E+00  0.00000000E+00
  0.00000000E+00  0.00000000E+00  0.00000000E+00
  0.00000000E+00  0.00000000E+00  0.00000000E+00
  0.00000000E+00  0.00000000E+00  0.00000000E+00
  0.00000000E+00  0.00000000E+00  0.00000000E+00
  0.00000000E+00  0.00000000E+00  0.00000000E+00
  0.00000000E+00  0.00000000E+00  0.00000000E+00
  0.00000000E+00  0.00000000E+00  0.00000000E+00
  0.00000000E+00  0.00000000E+00  0.00000000E+00
  0.00000000E+00  0.00000000E+00  0.00000000E+00
  0.00000000E+00  0.00000000E+00  0.00000000E+00
  0.00000000E+00  0.00000000E+00  0.00000000E+00
  0.00000000E+00  0.00000000E+00  0.00000000E+00
  0.00000000E+00  0.00000000E+00  0.00000000E+00
