supercell of POSCAR                     
   1.07329600000000     
     9.1016125577399993   -5.3128209557800004   -9.4184911254399992
     9.0821131104399999    5.2871675818400004    9.4140884809200003
    -1.5053809694200000   -7.9210976524300012    4.6939078171600004
   Al   Sc   N    O 
    72    24    95     1
Direct
  0.3038934194562728  0.2865425210608521  0.5386348510411807
  0.1462820370930586  0.2373281355026364  0.2985296035324581
  0.3087589897873499  0.4078011193176252  0.3020998347686117
  0.4671269705063139  0.3269882251614433  0.7896748021113993
  0.1397149591352402  0.4978273013315118  0.7870984669974561
  0.2998981541422481  0.1631257182042773  0.7816796244313906
  0.4703613072018129  0.4484046792709435  0.5358202321139487
  0.1413214149868836  0.1183628509915380  0.5393611712210742
  0.4761431999474226  0.0732522956318604  0.2950195627661785
  0.2779802447729907  0.1074486251410391  0.3345998525440450
  0.1138446923147498  0.0678253546009060  0.0929123768413618
  0.1134500297754784  0.1962921272512617  0.8226813021153490
  0.2759829159587355  0.3586464031977528  0.8194117831243375
  0.1119302612382498  0.3235285048341865  0.5930356394246914
  0.2726760404813007  0.4858109613248871  0.5788054281076640
  0.4477235251794554  0.2782686490064705  0.3346648796739160
  0.1133010808273909  0.4489904901418456  0.3330651087787402
  0.4479118558823529  0.4021035149509871  0.0943015212423077
  0.8030195620077478  0.2864868775780423  0.5394823900871302
  0.6426358673169972  0.2424322082647805  0.3039041964979461
  0.8079938350723950  0.4082378579807369  0.3021377375219458
  0.9663537432705454  0.3265528897003236  0.7891075208320117
  0.6396533187618658  0.4975978937331078  0.7879416349337376
  0.7994267360591323  0.1630781290130230  0.7819784859989767
  0.9697491081967229  0.4490975511790438  0.5364007852859842
  0.6413776043583539  0.1193886446104528  0.5398924465199926
  0.9758070733840611  0.0722243049617646  0.2952626933804794
  0.7764906599578154  0.1078015584099390  0.3343482641466693
  0.6142817840482238  0.0686570992871509  0.0936279064762360
  0.6133763743432894  0.1970160074134597  0.8234750376503470
  0.7752791734540168  0.3587335596025909  0.8201205561088685
  0.6111732516503068  0.3239824014691806  0.5871551024513479
  0.7723033773551222  0.4856764719613835  0.5790438372989897
  0.9431010825056063  0.2760598330144219  0.3329922827766936
  0.6114193358000648  0.4445595640040025  0.3367981808588993
  0.9476519923148032  0.4021240412209721  0.0939258859509309
  0.3030013219526992  0.7866954077223767  0.5393965731364929
  0.1421169021146653  0.7421617573661905  0.3040170722162472
  0.3078909302460318  0.9076675561911074  0.3024916263739001
  0.4665484290371467  0.8269658464559200  0.7901659786218502
  0.1393052635210879  0.9971653138671073  0.7876706772226356
  0.2998576808625018  0.6634976820734266  0.7822995335956833
  0.4699368552176821  0.9483603774018547  0.5362014517188953
  0.1415470818560678  0.6195819209978524  0.5400564271944148
  0.4760151310530745  0.5733328122476422  0.2949554404138155
  0.2775365879532572  0.6088140869750447  0.3340112930979942
  0.1141387937795955  0.5686329381587143  0.0923424747217325
  0.1131148293805069  0.6968237688329708  0.8233140001846095
  0.2750441512531694  0.8587092570021255  0.8205201484267732
  0.1107266522571919  0.8236609894146838  0.5873459971936938
  0.2723720600473811  0.9851698472894057  0.5790235223704485
  0.4471366005242672  0.7784969053628359  0.3350352351685473
  0.1113041393306915  0.9439073692984721  0.3367438361513919
  0.4472688082129608  0.9021800711721966  0.0947044813185585
  0.8025758248326866  0.7868080213855393  0.5395427978186262
  0.6420305681800897  0.7423878410053817  0.3042083072415593
  0.8076058237763277  0.9077441838070897  0.3027517265158508
  0.9663776280012186  0.8267823420337379  0.7904565935703189
  0.6392666770728965  0.9974941531005825  0.7879585215886848
  0.7992143878519684  0.6635716196688790  0.7827294607037345
  0.9697654543487531  0.9478876679024069  0.5361928875657540
  0.6412423727631875  0.6195047204732447  0.5400996582648503
  0.9754477769325476  0.5733893316360366  0.2948488504653426
  0.7768650529989785  0.6084644305538447  0.3348901437595231
  0.6140883921634028  0.5685822925734030  0.0936761562419264
  0.6130945316386445  0.6970863970876238  0.8238451281289727
  0.7748118142255009  0.8586299985630106  0.8203773043935030
  0.6105813554800363  0.8238611922292733  0.5875715124289300
  0.7719332582345544  0.9852463975597416  0.5790538897642037
  0.9469995634214001  0.7783241776929444  0.3353169882009439
  0.6110320565725544  0.9443719316413848  0.3369254511266817
  0.9473025175871612  0.9019051558367579  0.0948069029887577
  0.4820237444225342  0.1968726171624127  0.0389631983764360
  0.1413997009346701  0.3643796422746632  0.0343828484163140
  0.3092062938283462  0.0249801576950830  0.0390128254910209
  0.2847329375730752  0.2304431498576989  0.0794333578894921
  0.4466552794484855  0.0225552080261338  0.8235440388797315
  0.4451748321362459  0.1525863954593376  0.5741409170550895
  0.9822011135243898  0.1963599171722876  0.0376629643128581
  0.6413114980000429  0.3650242154054339  0.0365814559457149
  0.8097389761100260  0.0246208325720190  0.0384279782033019
  0.7840778172432650  0.2302832832559147  0.0800957665104605
  0.9465508901852857  0.0219286438398711  0.8233538151896127
  0.9442644245528911  0.1520855430098607  0.5747118986483457
  0.4813595685855887  0.6970223087892506  0.0391825155408370
  0.1407841970063330  0.8646511175785108  0.0365716537086769
  0.3096539204035196  0.5245330481522288  0.0378737905339435
  0.2837177509217241  0.7304549087938881  0.0810762487705858
  0.4471510214683505  0.5226614570593568  0.8231076060813862
  0.4446718672660452  0.6528790464495486  0.5740907933507131
  0.9811728215339741  0.6971201198113519  0.0396748722022977
  0.6406412084227426  0.8653073956397037  0.0367958279799652
  0.8092410215575114  0.5251370842508933  0.0390586436985743
  0.7833748201173236  0.7307274240744590  0.0815274239185371
  0.9462290441870707  0.5232153929790755  0.8241617519274058
  0.9440353118626277  0.6535234003264137  0.5750020940294718
  0.2381523246076469  0.3667590830003533  0.6287395176668866
  0.2396038761038284  0.4883981218340523  0.3888449557311588
  0.4208762506346559  0.2873584053199778  0.1493514769039805
  0.0727986102783262  0.4511687375041760  0.1450493865889726
  0.2372377227133597  0.1058698521811010  0.1493948454329015
  0.4016165499208029  0.3996991795307778  0.9013497388918239
  0.0845086394712382  0.0820329309250667  0.8986078591869102
  0.2362238644633763  0.2439652023326033  0.8737747891680883
  0.3983846155558268  0.0223488246786232  0.6206643752095360
  0.0838234647315446  0.2031405606905921  0.6335322843869946
  0.4052731810420838  0.1561024859528928  0.3674072145174705
  0.2171420697786601  0.1901222379046246  0.4337980806315684
  0.0562971488232691  0.1459100886869962  0.1991128051609934
  0.2164390724726744  0.3156005518739704  0.1992548475323090
  0.3710633508895711  0.1153370892299606  0.9164814517939490
  0.0444551349427158  0.2737827083170572  0.9020534061314081
  0.2104045355888644  0.4388858257691055  0.9020745082052741
  0.3731332000199430  0.2409494728699002  0.6794787796698216
  0.0420745150204809  0.4045682469493030  0.6797283499568181
  0.2111894560954539  0.0679434973042348  0.6747639639531258
  0.3816551325535968  0.3546014106459623  0.4318452061928610
  0.0473984082082595  0.0256222210101527  0.4368253554465227
  0.3873666823076789  0.4767115760333311  0.1982022316206553
  0.7391043266579302  0.3672405259567171  0.6308320924730495
  0.5756350899224785  0.3246124639835770  0.3954149942158054
  0.7398770847989624  0.4888780632155658  0.3894815901921476
  0.9224787495557933  0.2873657729181929  0.1501653329668073
  0.5726299991012453  0.4518554571158191  0.1459173694106539
  0.7381305021110691  0.1049934650967899  0.1485393508901680
  0.9020545545189265  0.3993763976029214  0.9013006782250272
  0.5846511985708958  0.0821588829677466  0.8988424152011802
  0.7365396358809093  0.2438908616066442  0.8746876361091722
  0.8982603578449542  0.0218986734324389  0.6204495015763527
  0.5842012745717113  0.2035091334233741  0.6355004135366400
  0.9055052621280524  0.1557329450846296  0.3675769701751719
  0.7172722225955042  0.1904245108652489  0.4334556784581309
  0.5568723166163352  0.1461649400458214  0.1986378962118280
  0.7178807553191859  0.3154318549027337  0.1988094780118885
  0.8715223582681162  0.1152046017244786  0.9156360943628812
  0.5445323937761799  0.2742485907509788  0.9037984070288090
  0.7106358835623254  0.4392532374050617  0.9038087579337883
  0.8729726393954493  0.2405187280883965  0.6793380420725441
  0.5416377097298408  0.4059158205757427  0.6827880445581869
  0.7111819465368967  0.0679743158981196  0.6748212692105255
  0.8828587077519430  0.3544258386918244  0.4321050717844628
  0.5473881579569095  0.0261613549733752  0.4369990303231361
  0.8876512739659290  0.4765425097137239  0.1983358409085909
  0.2383427543664922  0.8669779532667334  0.6313215989111498
  0.0751170201827378  0.8242723418064912  0.3956764226013973
  0.2394259816121789  0.9888118886919628  0.3894863177687142
  0.4204535555219167  0.7874208284163160  0.1496712536094336
  0.0722183090418511  0.9518420312185256  0.1460746012571121
  0.2376469229737239  0.6042878842932637  0.1482498309603884
  0.4011727003186749  0.8998143748047625  0.9020102071515979
  0.0846405514129813  0.5812787673616242  0.8976700641205539
  0.2361221010811363  0.7436983309829373  0.8748219259594308
  0.3984815355614089  0.5220452218333520  0.6200040183224047
  0.0834585768430856  0.7027663351726474  0.6350675185887411
  0.4050627568946794  0.6559821836400417  0.3671613421450317
  0.2168871639818448  0.6901241387265387  0.4333169309878926
  0.0565599234592824  0.6453708558654867  0.1982768717791998
  0.2167384141167759  0.8154197946869530  0.1989349637297124
  0.3714673050219801  0.6147912780481946  0.9154952885357588
  0.0440475549045587  0.7736618326431568  0.9038149664849087
  0.2100528330394908  0.9393301468408239  0.9043166878912814
  0.3729880721125056  0.7408814504979446  0.6797537530320810
  0.0411053731599438  0.9056098300021276  0.6832936371138629
  0.2115358013479209  0.5680324834496417  0.6742305313373294
  0.3812226949128288  0.8546992829148010  0.4324705051983813
  0.0481652649534539  0.5242764343152189  0.4354643163915242
  0.3870111441809172  0.9770468382807564  0.1988222880387269
  0.7382378952488864  0.8671362047537627  0.6313499441905392
  0.5750621650250594  0.8245629572302136  0.3958418801681276
  0.7393666225230504  0.9889624093615126  0.3895336843235029
  0.9204461219287765  0.7872712666254245  0.1500414794472889
  0.5720979584613275  0.9522150218203578  0.1461848016314846
  0.7377221055338126  0.6048987149715686  0.1491351055185319
  0.9011684641679736  0.8995504147953497  0.9022703933338860
  0.5849712898492925  0.5819285754676287  0.8987544941941437
  0.7360910023854998  0.7439378786095219  0.8753095477775190
  0.8988406852346955  0.5223079642856590  0.6204410146527692
  0.5837174939735732  0.7032193159704008  0.6358074067912227
  0.9051543277242331  0.6557728493189430  0.3678233776645214
  0.7167804410841043  0.6904329428950788  0.4337086965479742
  0.5565044977526270  0.6460055385627683  0.1983368136642980
  0.7165905949525069  0.8157498226865769  0.1990688375283440
  0.8712132031949977  0.6150926660045926  0.9160313881217022
  0.5441268968347401  0.7741795384669885  0.9041161718584050
  0.7101972019151148  0.9393836041427903  0.9041156000849000
  0.8725399884549532  0.7410812927356218  0.6802810771135057
  0.5411293089072018  0.9059006452026992  0.6832889644307514
  0.7114601280440311  0.5680811072908227  0.6747948529867145
  0.8811042235595963  0.8544725775255060  0.4325394653393460
  0.5475944678270892  0.5260721883974995  0.4366021441045262
  0.8871355159667758  0.9766407727866451  0.1990203717337948
  0.0763405896860121  0.3232210633017445  0.3949718470916537
 
  0.00000000E+00  0.00000000E+00  0.00000000E+00
  0.00000000E+00  0.00000000E+00  0.00000000E+00
  0.00000000E+00  0.00000000E+00  0.00000000E+00
  0.00000000E+00  0.00000000E+00  0.00000000E+00
  0.00000000E+00  0.00000000E+00  0.00000000E+00
  0.00000000E+00  0.00000000E+00  0.00000000E+00
  0.00000000E+00  0.00000000E+00  0.00000000E+00
  0.00000000E+00  0.00000000E+00  0.00000000E+00
  0.00000000E+00  0.00000000E+00  0.00000000E+00
  0.00000000E+00  0.00000000E+00  0.00000000E+00
  0.00000000E+00  0.00000000E+00  0.00000000E+00
  0.00000000E+00  0.00000000E+00  0.00000000E+00
  0.00000000E+00  0.00000000E+00  0.00000000E+00
  0.00000000E+00  0.00000000E+00  0.00000000E+00
  0.00000000E+00  0.00000000E+00  0.00000000E+00
  0.00000000E+00  0.00000000E+00  0.00000000E+00
  0.00000000E+00  0.00000000E+00  0.00000000E+00
  0.00000000E+00  0.00000000E+00  0.00000000E+00
  0.00000000E+00  0.00000000E+00  0.00000000E+00
  0.00000000E+00  0.00000000E+00  0.00000000E+00
  0.00000000E+00  0.00000000E+00  0.00000000E+00
  0.00000000E+00  0.00000000E+00  0.00000000E+00
  0.00000000E+00  0.00000000E+00  0.00000000E+00
  0.00000000E+00  0.00000000E+00  0.00000000E+00
  0.00000000E+00  0.00000000E+00  0.00000000E+00
  0.00000000E+00  0.00000000E+00  0.00000000E+00
  0.00000000E+00  0.00000000E+00  0.00000000E+00
  0.00000000E+00  0.00000000E+00  0.00000000E+00
  0.00000000E+00  0.00000000E+00  0.00000000E+00
  0.00000000E+00  0.00000000E+00  0.00000000E+00
  0.00000000E+00  0.00000000E+00  0.00000000E+00
  0.00000000E+00  0.00000000E+00  0.00000000E+00
  0.00000000E+00  0.00000000E+00  0.00000000E+00
  0.00000000E+00  0.00000000E+00  0.00000000E+00
  0.00000000E+00  0.00000000E+00  0.00000000E+00
  0.00000000E+00  0.00000000E+00  0.00000000E+00
  0.00000000E+00  0.00000000E+00  0.00000000E+00
  0.00000000E+00  0.00000000E+00  0.00000000E+00
  0.00000000E+00  0.00000000E+00  0.00000000E+00
  0.00000000E+00  0.00000000E+00  0.00000000E+00
  0.00000000E+00  0.00000000E+00  0.00000000E+00
  0.00000000E+00  0.00000000E+00  0.00000000E+00
  0.00000000E+00  0.00000000E+00  0.00000000E+00
  0.00000000E+00  0.00000000E+00  0.00000000E+00
  0.00000000E+00  0.00000000E+00  0.00000000E+00
  0.00000000E+00  0.00000000E+00  0.00000000E+00
  0.00000000E+00  0.00000000E+00  0.00000000E+00
  0.00000000E+00  0.00000000E+00  0.00000000E+00
  0.00000000E+00  0.00000000E+00  0.00000000E+00
  0.00000000E+00  0.00000000E+00  0.00000000E+00
  0.00000000E+00  0.00000000E+00  0.00000000E+00
  0.00000000E+00  0.00000000E+00  0.00000000E+00
  0.00000000E+00  0.00000000E+00  0.00000000E+00
  0.00000000E+00  0.00000000E+00  0.00000000E+00
  0.00000000E+00  0.00000000E+00  0.00000000E+00
  0.00000000E+00  0.00000000E+00  0.00000000E+00
  0.00000000E+00  0.00000000E+00  0.00000000E+00
  0.00000000E+00  0.00000000E+00  0.00000000E+00
  0.00000000E+00  0.00000000E+00  0.00000000E+00
  0.00000000E+00  0.00000000E+00  0.00000000E+00
  0.00000000E+00  0.00000000E+00  0.00000000E+00
  0.00000000E+00  0.00000000E+00  0.00000000E+00
  0.00000000E+00  0.00000000E+00  0.00000000E+00
  0.00000000E+00  0.00000000E+00  0.00000000E+00
  0.00000000E+00  0.00000000E+00  0.00000000E+00
  0.00000000E+00  0.00000000E+00  0.00000000E+00
  0.00000000E+00  0.00000000E+00  0.00000000E+00
  0.00000000E+00  0.00000000E+00  0.00000000E+00
  0.00000000E+00  0.00000000E+00  0.00000000E+00
  0.00000000E+00  0.00000000E+00  0.00000000E+00
  0.00000000E+00  0.00000000E+00  0.00000000E+00
  0.00000000E+00  0.00000000E+00  0.00000000E+00
  0.00000000E+00  0.00000000E+00  0.00000000E+00
  0.00000000E+00  0.00000000E+00  0.00000000E+00
  0.00000000E+00  0.00000000E+00  0.00000000E+00
  0.00000000E+00  0.00000000E+00  0.00000000E+00
  0.00000000E+00  0.00000000E+00  0.00000000E+00
  0.00000000E+00  0.00000000E+00  0.00000000E+00
  0.00000000E+00  0.00000000E+00  0.00000000E+00
  0.00000000E+00  0.00000000E+00  0.00000000E+00
  0.00000000E+00  0.00000000E+00  0.00000000E+00
  0.00000000E+00  0.00000000E+00  0.00000000E+00
  0.00000000E+00  0.00000000E+00  0.00000000E+00
  0.00000000E+00  0.00000000E+00  0.00000000E+00
  0.00000000E+00  0.00000000E+00  0.00000000E+00
  0.00000000E+00  0.00000000E+00  0.00000000E+00
  0.00000000E+00  0.00000000E+00  0.00000000E+00
  0.00000000E+00  0.00000000E+00  0.00000000E+00
  0.00000000E+00  0.00000000E+00  0.00000000E+00
  0.00000000E+00  0.00000000E+00  0.00000000E+00
  0.00000000E+00  0.00000000E+00  0.00000000E+00
  0.00000000E+00  0.00000000E+00  0.00000000E+00
  0.00000000E+00  0.00000000E+00  0.00000000E+00
  0.00000000E+00  0.00000000E+00  0.00000000E+00
  0.00000000E+00  0.00000000E+00  0.00000000E+00
  0.00000000E+00  0.00000000E+00  0.00000000E+00
  0.00000000E+00  0.00000000E+00  0.00000000E+00
  0.00000000E+00  0.00000000E+00  0.00000000E+00
  0.00000000E+00  0.00000000E+00  0.00000000E+00
  0.00000000E+00  0.00000000E+00  0.00000000E+00
  0.00000000E+00  0.00000000E+00  0.00000000E+00
  0.00000000E+00  0.00000000E+00  0.00000000E+00
  0.00000000E+00  0.00000000E+00  0.00000000E+00
  0.00000000E+00  0.00000000E+00  0.00000000E+00
  0.00000000E+00  0.00000000E+00  0.00000000E+00
  0.00000000E+00  0.00000000E+00  0.00000000E+00
  0.00000000E+00  0.00000000E+00  0.00000000E+00
  0.00000000E+00  0.00000000E+00  0.00000000E+00
  0.00000000E+00  0.00000000E+00  0.00000000E+00
  0.00000000E+00  0.00000000E+00  0.00000000E+00
  0.00000000E+00  0.00000000E+00  0.00000000E+00
  0.00000000E+00  0.00000000E+00  0.00000000E+00
  0.00000000E+00  0.00000000E+00  0.00000000E+00
  0.00000000E+00  0.00000000E+00  0.00000000E+00
  0.00000000E+00  0.00000000E+00  0.00000000E+00
  0.00000000E+00  0.00000000E+00  0.00000000E+00
  0.00000000E+00  0.00000000E+00  0.00000000E+00
  0.00000000E+00  0.00000000E+00  0.00000000E+00
  0.00000000E+00  0.00000000E+00  0.00000000E+00
  0.00000000E+00  0.00000000E+00  0.00000000E+00
  0.00000000E+00  0.00000000E+00  0.00000000E+00
  0.00000000E+00  0.00000000E+00  0.00000000E+00
  0.00000000E+00  0.00000000E+00  0.00000000E+00
  0.00000000E+00  0.00000000E+00  0.00000000E+00
  0.00000000E+00  0.00000000E+00  0.00000000E+00
  0.00000000E+00  0.00000000E+00  0.00000000E+00
  0.00000000E+00  0.00000000E+00  0.00000000E+00
  0.00000000E+00  0.00000000E+00  0.00000000E+00
  0.00000000E+00  0.00000000E+00  0.00000000E+00
  0.00000000E+00  0.00000000E+00  0.00000000E+00
  0.00000000E+00  0.00000000E+00  0.00000000E+00
  0.00000000E+00  0.00000000E+00  0.00000000E+00
  0.00000000E+00  0.00000000E+00  0.00000000E+00
  0.00000000E+00  0.00000000E+00  0.00000000E+00
  0.00000000E+00  0.00000000E+00  0.00000000E+00
  0.00000000E+00  0.00000000E+00  0.00000000E+00
  0.00000000E+00  0.00000000E+00  0.00000000E+00
  0.00000000E+00  0.00000000E+00  0.00000000E+00
  0.00000000E+00  0.00000000E+00  0.00000000E+00
  0.00000000E+00  0.00000000E+00  0.00000000E+00
  0.00000000E+00  0.00000000E+00  0.00000000E+00
  0.00000000E+00  0.00000000E+00  0.00000000E+00
  0.00000000E+00  0.00000000E+00  0.00000000E+00
  0.00000000E+00  0.00000000E+00  0.00000000E+00
  0.00000000E+00  0.00000000E+00  0.00000000E+00
  0.00000000E+00  0.00000000E+00  0.00000000E+00
  0.00000000E+00  0.00000000E+00  0.00000000E+00
  0.00000000E+00  0.00000000E+00  0.00000000E+00
  0.00000000E+00  0.00000000E+00  0.00000000E+00
  0.00000000E+00  0.00000000E+00  0.00000000E+00
  0.00000000E+00  0.00000000E+00  0.00000000E+00
  0.00000000E+00  0.00000000E+00  0.00000000E+00
  0.00000000E+00  0.00000000E+00  0.00000000E+00
  0.00000000E+00  0.00000000E+00  0.00000000E+00
  0.00000000E+00  0.00000000E+00  0.00000000E+00
  0.00000000E+00  0.00000000E+00  0.00000000E+00
  0.00000000E+00  0.00000000E+00  0.00000000E+00
  0.00000000E+00  0.00000000E+00  0.00000000E+00
  0.00000000E+00  0.00000000E+00  0.00000000E+00
  0.00000000E+00  0.00000000E+00  0.00000000E+00
  0.00000000E+00  0.00000000E+00  0.00000000E+00
  0.00000000E+00  0.00000000E+00  0.00000000E+00
  0.00000000E+00  0.00000000E+00  0.00000000E+00
  0.00000000E+00  0.00000000E+00  0.00000000E+00
  0.00000000E+00  0.00000000E+00  0.00000000E+00
  0.00000000E+00  0.00000000E+00  0.00000000E+00
  0.00000000E+00  0.00000000E+00  0.00000000E+00
  0.00000000E+00  0.00000000E+00  0.00000000E+00
  0.00000000E+00  0.00000000E+00  0.00000000E+00
  0.00000000E+00  0.00000000E+00  0.00000000E+00
  0.00000000E+00  0.00000000E+00  0.00000000E+00
  0.00000000E+00  0.00000000E+00  0.00000000E+00
  0.00000000E+00  0.00000000E+00  0.00000000E+00
  0.00000000E+00  0.00000000E+00  0.00000000E+00
  0.00000000E+00  0.00000000E+00  0.00000000E+00
  0.00000000E+00  0.00000000E+00  0.00000000E+00
  0.00000000E+00  0.00000000E+00  0.00000000E+00
  0.00000000E+00  0.00000000E+00  0.00000000E+00
  0.00000000E+00  0.00000000E+00  0.00000000E+00
  0.00000000E+00  0.00000000E+00  0.00000000E+00
  0.00000000E+00  0.00000000E+00  0.00000000E+00
  0.00000000E+00  0.00000000E+00  0.00000000E+00
  0.00000000E+00  0.00000000E+00  0.00000000E+00
  0.00000000E+00  0.00000000E+00  0.00000000E+00
  0.00000000E+00  0.00000000E+00  0.00000000E+00
  0.00000000E+00  0.00000000E+00  0.00000000E+00
  0.00000000E+00  0.00000000E+00  0.00000000E+00
  0.00000000E+00  0.00000000E+00  0.00000000E+00
  0.00000000E+00  0.00000000E+00  0.00000000E+00
  0.00000000E+00  0.00000000E+00  0.00000000E+00
  0.00000000E+00  0.00000000E+00  0.00000000E+00
  0.00000000E+00  0.00000000E+00  0.00000000E+00
