supercell of POSCAR                     
   1.07329600000000     
     9.1016125577399993   -5.3128209557800004   -9.4184911254399992
     9.0821131104399999    5.2871675818400004    9.4140884809200003
    -1.5053809694200000   -7.9210976524300012    4.6939078171600004
   Al   Sc   N 
    72    23    96
Direct
  0.3021913585373142  0.2865022812733997  0.5365637498530589
  0.1417800287046731  0.2424393930742994  0.3034897434257786
  0.3076070136522162  0.4079311276170188  0.3022101529221928
  0.4691256507625354  0.3268592304570106  0.7904452840905449
  0.1397716667258564  0.4975808767658521  0.7881164256692230
  0.2993207594017164  0.1600669836898092  0.7822134125224380
  0.4698153274067849  0.4489707369587208  0.5362925764342918
  0.1403750319852008  0.1195820988121596  0.5395457629199640
  0.4777678958747629  0.0721532933599889  0.3008780230874564
  0.2749822625300169  0.1071456357036595  0.3360942814194203
  0.1145188918277427  0.0685278257996842  0.0932119078549931
  0.1132310105343066  0.1967505629562041  0.8227520101832013
  0.2751934683813744  0.3587018026776434  0.8201963463002357
  0.1105049180084308  0.3238216362888622  0.5871644447689377
  0.2725235944860387  0.4858848884562974  0.5787894223149976
  0.4484927893974913  0.2797088266999808  0.3386906271280594
  0.1110611993705390  0.4447774639079540  0.3369992775659583
  0.4474456113805871  0.4012596644715174  0.0955816942137702
  0.8030439410718984  0.2863821986649100  0.5389674924080481
  0.6425484506890484  0.2420470230333720  0.3042840751796021
  0.8080020455399364  0.4079166693112981  0.3024145694396339
  0.9668271149598198  0.3265948567950474  0.7898560734745956
  0.6398843685006668  0.4977341269478046  0.7882832585317274
  0.7998802624671413  0.1624882814821618  0.7810087507783763
  0.9699468911866376  0.4482890297258706  0.5358346980665729
  0.6410230307570615  0.1165874429897045  0.5373960156159896
  0.9758298749183965  0.0731457337177019  0.2944076150798125
  0.7775426999350614  0.1078485620781890  0.3340908332409143
  0.6141088986046483  0.0678500883618796  0.0941515152053825
  0.6125198804330338  0.1957687768297021  0.8275640833446687
  0.7750656462348005  0.3586276889655977  0.8195408323559050
  0.6102727235747523  0.3258584113716054  0.5859109291378672
  0.7724369702905136  0.4856475985993427  0.5785345833360296
  0.9469923879359641  0.2783545370759981  0.3345514244484633
  0.6115362401547770  0.4448299506612727  0.3366060095483689
  0.9471801728683715  0.4019496834159781  0.0945837107777407
  0.3034726819313462  0.7867060150118732  0.5389541267369466
  0.1421404488457156  0.7423036775204324  0.3039386789424725
  0.3077667970171518  0.9077487790099141  0.3021380298455583
  0.4669488167149041  0.8279549229264518  0.7899042253126396
  0.1393186046494250  0.9969999015985564  0.7880382571451960
  0.3000222229390488  0.6636032096218756  0.7826709235265312
  0.4726155399231757  0.9480875388500039  0.5310394851702185
  0.1415838594982759  0.6196051170272199  0.5399501526344608
  0.4759842071921767  0.5730546181076761  0.2949294285378059
  0.2769514904249419  0.6084075112169742  0.3344853637122824
  0.1140069054497062  0.5688657000655013  0.0936314313132272
  0.1138723305579390  0.6972890161757661  0.8236709111828375
  0.2760831905329084  0.8593367214218830  0.8201889361319701
  0.1105948604894564  0.8239944742323999  0.5870660966850636
  0.2687349679620112  0.9858221682231445  0.5744999588162045
  0.4477494912234903  0.7775581792551023  0.3335913242477986
  0.1098347202564867  0.9438924627012142  0.3351066080104275
  0.4484444828777541  0.9026365655982147  0.0939334197380504
  0.8031698908297074  0.7862081083955701  0.5388257383297770
  0.6424982215676422  0.7415611878297668  0.3035364817831905
  0.8085530782396049  0.9075249592171346  0.3018912102399298
  0.9667505135898082  0.8266184410044346  0.7898193760786754
  0.6400891171956431  0.9970167300980606  0.7874631106270868
  0.7998401023855877  0.6632078596439612  0.7825081881815308
  0.9699051962208003  0.9481602247114935  0.5356850601360605
  0.6414761926852677  0.6193119919089369  0.5397863192572601
  0.9758380131100708  0.5732533950184475  0.2949624779697118
  0.7770988432099202  0.6080515917098595  0.3342007378068104
  0.6139477935510627  0.5684706046496899  0.0932349014630205
  0.6132639416932335  0.6968634269753267  0.8230961657028715
  0.7754737983548168  0.8582998116861944  0.8198039972570115
  0.6113508473798106  0.8232650399721848  0.5866704760602559
  0.7727976763697129  0.9846760347598718  0.5782983261821997
  0.9470622143772758  0.7780475756258483  0.3346063741359657
  0.6132314327513555  0.9424980192664663  0.3344804707788640
  0.9472539558953770  0.9018206126077004  0.0936786267986065
  0.4811865926269618  0.1961726883997841  0.0405941023302390
  0.1405121950958304  0.3659266823802767  0.0372491157028776
  0.3107949480549905  0.0239887155279135  0.0382465849545213
  0.2839068438280350  0.2303066336074409  0.0815957233065134
  0.4476245742475271  0.0251554121631301  0.8184283887567787
  0.9815168832169263  0.1970766195508560  0.0385163723994779
  0.6408260214077828  0.3654553386372328  0.0373202876121397
  0.8093164182733616  0.0248000614950499  0.0381293632035096
  0.7837505819468973  0.2304648425383675  0.0805058391994464
  0.9468881627186647  0.0223751022360190  0.8230473667633973
  0.9444225968615925  0.1524984492250780  0.5733451842438697
  0.4813959048930130  0.6971898280481881  0.0380898909172842
  0.1409335781960266  0.8653499034258161  0.0361427869130750
  0.3091027155968149  0.5251472049141768  0.0389839390470712
  0.2835832027067582  0.7307408173545795  0.0815011906904033
  0.4464801002127814  0.5222604979060534  0.8231967184974494
  0.4445859066711435  0.6532930576685985  0.5741884967309048
  0.9814171219826235  0.6971440993897460  0.0384462189801766
  0.6414396924504047  0.8644712581314735  0.0353068353145005
  0.8093020975375040  0.5246668768236233  0.0382389857796852
  0.7838290896726932  0.7302468393896362  0.0813407938577484
  0.9468925261628698  0.5222961194738929  0.8231996394031853
  0.9449654160733587  0.6526040873054555  0.5739266901254538
  0.2386375384746202  0.3672627312677363  0.6311401743107510
  0.0752626975263908  0.3245958618450331  0.3954469962846687
  0.2395115976985949  0.4889251572540232  0.3892861760020452
  0.4207346547322359  0.2863471854915147  0.1519400574452803
  0.0719410897221096  0.4522857263599604  0.1460905522254663
  0.2388350756033617  0.1045157735696591  0.1489001518429305
  0.4017741272620583  0.3985360541177059  0.9019100070395112
  0.0853690263091309  0.0820500121591081  0.8985169923945051
  0.2371030441356794  0.2431565240527007  0.8732642045628509
  0.3947537852649532  0.0143770889153316  0.6135528081457693
  0.0835819550856769  0.2033678771169178  0.6353099239140008
  0.4027154844607850  0.1553817366352206  0.3573810985913042
  0.2164879964856752  0.1902480221694205  0.4334591700523092
  0.0568702139543618  0.1459068951074443  0.1977926755269692
  0.2168926280985701  0.3153915324138765  0.1983855164802506
  0.3720828076994849  0.1143321120620939  0.9151767124357022
  0.0450732173413186  0.2741597285669570  0.9040150056429326
  0.2105914126557735  0.4389741054537879  0.9041623548076032
  0.3669668630509975  0.2475412911336008  0.6889100446427747
  0.0415398163640859  0.4058320787959389  0.6830798464004602
  0.2104856982698848  0.0676322259961921  0.6737457714082780
  0.3814198859064248  0.3547707036754986  0.4330510261325315
  0.0472012566918281  0.0260087999255418  0.4363133844143121
  0.3872780240856173  0.4762489834256982  0.1983309036724563
  0.7383870012482561  0.3669396685425639  0.6305380284222721
  0.5755692812821707  0.3246473309853215  0.3954792719359972
  0.7394610728878845  0.4887671419499000  0.3891340357662543
  0.9204800187665825  0.2871147240509799  0.1491295074354042
  0.5719191975262490  0.4517370586377325  0.1458840367589076
  0.7375732750471045  0.1052270437668952  0.1485833198579982
  0.9012975274582828  0.3991732872708269  0.9015599947407225
  0.5849183924588033  0.0815023046044203  0.8993491036494916
  0.7359204326782631  0.2431044630502015  0.8726554510101394
  0.8987092214442285  0.0221820814370091  0.6204024845384311
  0.5938153816249070  0.2062480464444647  0.6396159363200624
  0.9051896187570492  0.1559829413974541  0.3665856435984978
  0.7169389420770926  0.1898515348574961  0.4333773533907745
  0.5562911505172821  0.1452191695310958  0.2000966244651394
  0.7167420827287359  0.3153122697859985  0.1985806471478000
  0.8715437691682411  0.1149259396431432  0.9157519508690015
  0.5441617642523724  0.2732655950423464  0.9053402778945596
  0.7100117327587938  0.4386166284744490  0.9038447285131994
  0.8731074140019786  0.2406341181501475  0.6794638134415507
  0.5413702972475107  0.4056030237956278  0.6827545513641056
  0.7115672865363152  0.0671758125379469  0.6741092313856498
  0.8812861384807249  0.3545525577417408  0.4321516021472718
  0.5501808145504938  0.0238283569587239  0.4348722193529539
  0.8871341724612591  0.4767710986597606  0.1984122388512617
  0.2393658461898625  0.8678060587474121  0.6306314350332300
  0.0751392088530878  0.8245016495050379  0.3954828699093156
  0.2377300734075050  0.9882966877456312  0.3867793594638727
  0.4206150907351542  0.7878746376001970  0.1486917349332302
  0.0720189720058499  0.9520820997550175  0.1447704439680706
  0.2375982666728120  0.6048855864237979  0.1488113724987343
  0.4027079257084480  0.9027611521463541  0.9011110323779690
  0.0851115622435472  0.5820558852377147  0.8985002494451351
  0.2371258694624458  0.7445382100029363  0.8751056342996222
  0.3986226680397138  0.5226419610435542  0.6205369815323323
  0.0844386592969570  0.7037211254382498  0.6356347788684289
  0.4050439642841255  0.6557231398139862  0.3668702464645079
  0.2170799243886492  0.6906232806261130  0.4335679871801972
  0.0563715086437000  0.6461518779685278  0.1981687015181564
  0.2167408637613732  0.8157591679870251  0.1986674733527707
  0.3715557637930900  0.6144615738536459  0.9159304502239962
  0.0446876790624557  0.7741937986191800  0.9037699218651127
  0.2108369772245879  0.9394897020149244  0.9039217283406771
  0.3731931106245270  0.7415724366033061  0.6802923268716867
  0.0415048353186265  0.9058175092070968  0.6828875101325380
  0.2116011636917463  0.5681507116819446  0.6749949215705655
  0.3816058690093769  0.8539735415367460  0.4311669512523792
  0.0475056421903872  0.5262653780746476  0.4370631324449548
  0.3885204014076677  0.9770907910501592  0.2003561679420116
  0.7386733756656696  0.8666924215255065  0.6307767903821286
  0.5754409217873473  0.8237816921197023  0.3951034202542232
  0.7404883729265777  0.9886068148260492  0.3888390995254412
  0.9206575815546216  0.7873223730623380  0.1493285110234908
  0.5731705131929701  0.9512404511403076  0.1450342151714352
  0.7374328960224119  0.6043989068640911  0.1484019202298228
  0.9015501016235277  0.8995630710505580  0.9011908990703787
  0.5844395840295391  0.5816552781004205  0.8981981768115688
  0.7362827980453162  0.7436822771773208  0.8751048217524087
  0.8984738754824093  0.5220881959485624  0.6203833450656262
  0.5837873807586647  0.7030843884690086  0.6352066764254261
  0.9049785444845497  0.6558657065465638  0.3672358977934138
  0.7169181847947499  0.6899844128596300  0.4332626733271852
  0.5561157547817572  0.6457674658476265  0.1976357755517810
  0.7168154608163277  0.8154655879663792  0.1988138897053915
  0.8715964415150594  0.6145528324718086  0.9158380593692428
  0.5441255356736647  0.7741658754401328  0.9030449650151340
  0.7106466830091449  0.9390146194904148  0.9034003379867386
  0.8731223532906398  0.7405601530728205  0.6796694096864258
  0.5412968438261103  0.9064650787695143  0.6821381456983815
  0.7113161607406653  0.5678578529624687  0.6748154817848047
  0.8815068413516300  0.8544467799902264  0.4321666062061027
  0.5474574710300786  0.5257665965640257  0.4367138984305967
  0.8873382411915784  0.9768078492199095  0.1977480497499045
 
  0.00000000E+00  0.00000000E+00  0.00000000E+00
  0.00000000E+00  0.00000000E+00  0.00000000E+00
  0.00000000E+00  0.00000000E+00  0.00000000E+00
  0.00000000E+00  0.00000000E+00  0.00000000E+00
  0.00000000E+00  0.00000000E+00  0.00000000E+00
  0.00000000E+00  0.00000000E+00  0.00000000E+00
  0.00000000E+00  0.00000000E+00  0.00000000E+00
  0.00000000E+00  0.00000000E+00  0.00000000E+00
  0.00000000E+00  0.00000000E+00  0.00000000E+00
  0.00000000E+00  0.00000000E+00  0.00000000E+00
  0.00000000E+00  0.00000000E+00  0.00000000E+00
  0.00000000E+00  0.00000000E+00  0.00000000E+00
  0.00000000E+00  0.00000000E+00  0.00000000E+00
  0.00000000E+00  0.00000000E+00  0.00000000E+00
  0.00000000E+00  0.00000000E+00  0.00000000E+00
  0.00000000E+00  0.00000000E+00  0.00000000E+00
  0.00000000E+00  0.00000000E+00  0.00000000E+00
  0.00000000E+00  0.00000000E+00  0.00000000E+00
  0.00000000E+00  0.00000000E+00  0.00000000E+00
  0.00000000E+00  0.00000000E+00  0.00000000E+00
  0.00000000E+00  0.00000000E+00  0.00000000E+00
  0.00000000E+00  0.00000000E+00  0.00000000E+00
  0.00000000E+00  0.00000000E+00  0.00000000E+00
  0.00000000E+00  0.00000000E+00  0.00000000E+00
  0.00000000E+00  0.00000000E+00  0.00000000E+00
  0.00000000E+00  0.00000000E+00  0.00000000E+00
  0.00000000E+00  0.00000000E+00  0.00000000E+00
  0.00000000E+00  0.00000000E+00  0.00000000E+00
  0.00000000E+00  0.00000000E+00  0.00000000E+00
  0.00000000E+00  0.00000000E+00  0.00000000E+00
  0.00000000E+00  0.00000000E+00  0.00000000E+00
  0.00000000E+00  0.00000000E+00  0.00000000E+00
  0.00000000E+00  0.00000000E+00  0.00000000E+00
  0.00000000E+00  0.00000000E+00  0.00000000E+00
  0.00000000E+00  0.00000000E+00  0.00000000E+00
  0.00000000E+00  0.00000000E+00  0.00000000E+00
  0.00000000E+00  0.00000000E+00  0.00000000E+00
  0.00000000E+00  0.00000000E+00  0.00000000E+00
  0.00000000E+00  0.00000000E+00  0.00000000E+00
  0.00000000E+00  0.00000000E+00  0.00000000E+00
  0.00000000E+00  0.00000000E+00  0.00000000E+00
  0.00000000E+00  0.00000000E+00  0.00000000E+00
  0.00000000E+00  0.00000000E+00  0.00000000E+00
  0.00000000E+00  0.00000000E+00  0.00000000E+00
  0.00000000E+00  0.00000000E+00  0.00000000E+00
  0.00000000E+00  0.00000000E+00  0.00000000E+00
  0.00000000E+00  0.00000000E+00  0.00000000E+00
  0.00000000E+00  0.00000000E+00  0.00000000E+00
  0.00000000E+00  0.00000000E+00  0.00000000E+00
  0.00000000E+00  0.00000000E+00  0.00000000E+00
  0.00000000E+00  0.00000000E+00  0.00000000E+00
  0.00000000E+00  0.00000000E+00  0.00000000E+00
  0.00000000E+00  0.00000000E+00  0.00000000E+00
  0.00000000E+00  0.00000000E+00  0.00000000E+00
  0.00000000E+00  0.00000000E+00  0.00000000E+00
  0.00000000E+00  0.00000000E+00  0.00000000E+00
  0.00000000E+00  0.00000000E+00  0.00000000E+00
  0.00000000E+00  0.00000000E+00  0.00000000E+00
  0.00000000E+00  0.00000000E+00  0.00000000E+00
  0.00000000E+00  0.00000000E+00  0.00000000E+00
  0.00000000E+00  0.00000000E+00  0.00000000E+00
  0.00000000E+00  0.00000000E+00  0.00000000E+00
  0.00000000E+00  0.00000000E+00  0.00000000E+00
  0.00000000E+00  0.00000000E+00  0.00000000E+00
  0.00000000E+00  0.00000000E+00  0.00000000E+00
  0.00000000E+00  0.00000000E+00  0.00000000E+00
  0.00000000E+00  0.00000000E+00  0.00000000E+00
  0.00000000E+00  0.00000000E+00  0.00000000E+00
  0.00000000E+00  0.00000000E+00  0.00000000E+00
  0.00000000E+00  0.00000000E+00  0.00000000E+00
  0.00000000E+00  0.00000000E+00  0.00000000E+00
  0.00000000E+00  0.00000000E+00  0.00000000E+00
  0.00000000E+00  0.00000000E+00  0.00000000E+00
  0.00000000E+00  0.00000000E+00  0.00000000E+00
  0.00000000E+00  0.00000000E+00  0.00000000E+00
  0.00000000E+00  0.00000000E+00  0.00000000E+00
  0.00000000E+00  0.00000000E+00  0.00000000E+00
  0.00000000E+00  0.00000000E+00  0.00000000E+00
  0.00000000E+00  0.00000000E+00  0.00000000E+00
  0.00000000E+00  0.00000000E+00  0.00000000E+00
  0.00000000E+00  0.00000000E+00  0.00000000E+00
  0.00000000E+00  0.00000000E+00  0.00000000E+00
  0.00000000E+00  0.00000000E+00  0.00000000E+00
  0.00000000E+00  0.00000000E+00  0.00000000E+00
  0.00000000E+00  0.00000000E+00  0.00000000E+00
  0.00000000E+00  0.00000000E+00  0.00000000E+00
  0.00000000E+00  0.00000000E+00  0.00000000E+00
  0.00000000E+00  0.00000000E+00  0.00000000E+00
  0.00000000E+00  0.00000000E+00  0.00000000E+00
  0.00000000E+00  0.00000000E+00  0.00000000E+00
  0.00000000E+00  0.00000000E+00  0.00000000E+00
  0.00000000E+00  0.00000000E+00  0.00000000E+00
  0.00000000E+00  0.00000000E+00  0.00000000E+00
  0.00000000E+00  0.00000000E+00  0.00000000E+00
  0.00000000E+00  0.00000000E+00  0.00000000E+00
  0.00000000E+00  0.00000000E+00  0.00000000E+00
  0.00000000E+00  0.00000000E+00  0.00000000E+00
  0.00000000E+00  0.00000000E+00  0.00000000E+00
  0.00000000E+00  0.00000000E+00  0.00000000E+00
  0.00000000E+00  0.00000000E+00  0.00000000E+00
  0.00000000E+00  0.00000000E+00  0.00000000E+00
  0.00000000E+00  0.00000000E+00  0.00000000E+00
  0.00000000E+00  0.00000000E+00  0.00000000E+00
  0.00000000E+00  0.00000000E+00  0.00000000E+00
  0.00000000E+00  0.00000000E+00  0.00000000E+00
  0.00000000E+00  0.00000000E+00  0.00000000E+00
  0.00000000E+00  0.00000000E+00  0.00000000E+00
  0.00000000E+00  0.00000000E+00  0.00000000E+00
  0.00000000E+00  0.00000000E+00  0.00000000E+00
  0.00000000E+00  0.00000000E+00  0.00000000E+00
  0.00000000E+00  0.00000000E+00  0.00000000E+00
  0.00000000E+00  0.00000000E+00  0.00000000E+00
  0.00000000E+00  0.00000000E+00  0.00000000E+00
  0.00000000E+00  0.00000000E+00  0.00000000E+00
  0.00000000E+00  0.00000000E+00  0.00000000E+00
  0.00000000E+00  0.00000000E+00  0.00000000E+00
  0.00000000E+00  0.00000000E+00  0.00000000E+00
  0.00000000E+00  0.00000000E+00  0.00000000E+00
  0.00000000E+00  0.00000000E+00  0.00000000E+00
  0.00000000E+00  0.00000000E+00  0.00000000E+00
  0.00000000E+00  0.00000000E+00  0.00000000E+00
  0.00000000E+00  0.00000000E+00  0.00000000E+00
  0.00000000E+00  0.00000000E+00  0.00000000E+00
  0.00000000E+00  0.00000000E+00  0.00000000E+00
  0.00000000E+00  0.00000000E+00  0.00000000E+00
  0.00000000E+00  0.00000000E+00  0.00000000E+00
  0.00000000E+00  0.00000000E+00  0.00000000E+00
  0.00000000E+00  0.00000000E+00  0.00000000E+00
  0.00000000E+00  0.00000000E+00  0.00000000E+00
  0.00000000E+00  0.00000000E+00  0.00000000E+00
  0.00000000E+00  0.00000000E+00  0.00000000E+00
  0.00000000E+00  0.00000000E+00  0.00000000E+00
  0.00000000E+00  0.00000000E+00  0.00000000E+00
  0.00000000E+00  0.00000000E+00  0.00000000E+00
  0.00000000E+00  0.00000000E+00  0.00000000E+00
  0.00000000E+00  0.00000000E+00  0.00000000E+00
  0.00000000E+00  0.00000000E+00  0.00000000E+00
  0.00000000E+00  0.00000000E+00  0.00000000E+00
  0.00000000E+00  0.00000000E+00  0.00000000E+00
  0.00000000E+00  0.00000000E+00  0.00000000E+00
  0.00000000E+00  0.00000000E+00  0.00000000E+00
  0.00000000E+00  0.00000000E+00  0.00000000E+00
  0.00000000E+00  0.00000000E+00  0.00000000E+00
  0.00000000E+00  0.00000000E+00  0.00000000E+00
  0.00000000E+00  0.00000000E+00  0.00000000E+00
  0.00000000E+00  0.00000000E+00  0.00000000E+00
  0.00000000E+00  0.00000000E+00  0.00000000E+00
  0.00000000E+00  0.00000000E+00  0.00000000E+00
  0.00000000E+00  0.00000000E+00  0.00000000E+00
  0.00000000E+00  0.00000000E+00  0.00000000E+00
  0.00000000E+00  0.00000000E+00  0.00000000E+00
  0.00000000E+00  0.00000000E+00  0.00000000E+00
  0.00000000E+00  0.00000000E+00  0.00000000E+00
  0.00000000E+00  0.00000000E+00  0.00000000E+00
  0.00000000E+00  0.00000000E+00  0.00000000E+00
  0.00000000E+00  0.00000000E+00  0.00000000E+00
  0.00000000E+00  0.00000000E+00  0.00000000E+00
  0.00000000E+00  0.00000000E+00  0.00000000E+00
  0.00000000E+00  0.00000000E+00  0.00000000E+00
  0.00000000E+00  0.00000000E+00  0.00000000E+00
  0.00000000E+00  0.00000000E+00  0.00000000E+00
  0.00000000E+00  0.00000000E+00  0.00000000E+00
  0.00000000E+00  0.00000000E+00  0.00000000E+00
  0.00000000E+00  0.00000000E+00  0.00000000E+00
  0.00000000E+00  0.00000000E+00  0.00000000E+00
  0.00000000E+00  0.00000000E+00  0.00000000E+00
  0.00000000E+00  0.00000000E+00  0.00000000E+00
  0.00000000E+00  0.00000000E+00  0.00000000E+00
  0.00000000E+00  0.00000000E+00  0.00000000E+00
  0.00000000E+00  0.00000000E+00  0.00000000E+00
  0.00000000E+00  0.00000000E+00  0.00000000E+00
  0.00000000E+00  0.00000000E+00  0.00000000E+00
  0.00000000E+00  0.00000000E+00  0.00000000E+00
  0.00000000E+00  0.00000000E+00  0.00000000E+00
  0.00000000E+00  0.00000000E+00  0.00000000E+00
  0.00000000E+00  0.00000000E+00  0.00000000E+00
  0.00000000E+00  0.00000000E+00  0.00000000E+00
  0.00000000E+00  0.00000000E+00  0.00000000E+00
  0.00000000E+00  0.00000000E+00  0.00000000E+00
  0.00000000E+00  0.00000000E+00  0.00000000E+00
  0.00000000E+00  0.00000000E+00  0.00000000E+00
  0.00000000E+00  0.00000000E+00  0.00000000E+00
  0.00000000E+00  0.00000000E+00  0.00000000E+00
  0.00000000E+00  0.00000000E+00  0.00000000E+00
  0.00000000E+00  0.00000000E+00  0.00000000E+00
  0.00000000E+00  0.00000000E+00  0.00000000E+00
  0.00000000E+00  0.00000000E+00  0.00000000E+00
  0.00000000E+00  0.00000000E+00  0.00000000E+00
  0.00000000E+00  0.00000000E+00  0.00000000E+00
  0.00000000E+00  0.00000000E+00  0.00000000E+00
  0.00000000E+00  0.00000000E+00  0.00000000E+00
