supercell of POSCAR                     
   1.07329600000000     
     9.1016125577399993   -5.3128209557800004   -9.4184911254399992
     9.0821131104399999    5.2871675818400004    9.4140884809200003
    -1.5053809694200000   -7.9210976524300012    4.6939078171600004
   Al   Sc   N 
    71    24    96
Direct
  0.3010850640998086  0.2877264510627171  0.5398179274848971
  0.1410002582395364  0.2419974547871817  0.3054928821486129
  0.3081460042472273  0.4073857786397852  0.3032105236148297
  0.4651982610216976  0.3276603132605516  0.7923384928867492
  0.1412149598155565  0.4964554658801745  0.7853088575551652
  0.3000653448070025  0.1647061856965877  0.7867462867592039
  0.4684634874148301  0.4465227592638925  0.5341121054241924
  0.1407323605846216  0.1189502246965972  0.5409887979720196
  0.4734462523209260  0.0733478537002554  0.2965614364272398
  0.2751094729444645  0.1056062702254721  0.3364741394585593
  0.1129109559704844  0.0674684444871403  0.0938330862318608
  0.1130585673045204  0.1963830802067292  0.8248412706888146
  0.2747629414097474  0.3581027842933437  0.8219539390092052
  0.1091191096768682  0.3231003082539630  0.5890489651749036
  0.2772581529489244  0.4793603832401203  0.5717826274975195
  0.1113609912312157  0.4441070832156768  0.3358891925098888
  0.4457646793370600  0.4026894403101551  0.0952970706510712
  0.8013787895511015  0.2866016938053448  0.5402936995877354
  0.6389109705331393  0.2455744685110659  0.3086435849669371
  0.8060911322982207  0.4080349965511374  0.3023377768363957
  0.9656328755144585  0.3258221253024089  0.7906804338357318
  0.6395634119902738  0.4969088401950827  0.7883587544486588
  0.7989812898169859  0.1627539582329902  0.7821625506315755
  0.9691832689197284  0.4478121409139604  0.5350533178229071
  0.6407911428171431  0.1197930453147649  0.5393893716364744
  0.9751578562274332  0.0724845537456531  0.2947564542948768
  0.7760349086505016  0.1083126754144530  0.3341270986629823
  0.6133528232586727  0.0697391733947370  0.0942167694812355
  0.6120380351134926  0.1970635504560150  0.8236792841568388
  0.7749464806644895  0.3583559301328378  0.8237094730288774
  0.6124673791435384  0.3250421618813775  0.5869378524877504
  0.7722043924953752  0.4844509527137220  0.5781549041358858
  0.9457881265339623  0.2780021532630244  0.3352086579818305
  0.6112375162354198  0.4437600913161432  0.3396090066645385
  0.9471345768114219  0.4014233309994779  0.0953616495890373
  0.3040327512233318  0.7872686960087947  0.5381468849440125
  0.1429978121443725  0.7417856857774581  0.3023410943054117
  0.3081579065025153  0.9086674783336903  0.3016329363574002
  0.4679233250485666  0.8276824371815366  0.7879805118796028
  0.1405750774561909  0.9969503448384174  0.7880664286469923
  0.3013360889179992  0.6618272130697918  0.7791592941533736
  0.4701625904826017  0.9506491458748343  0.5363132584421777
  0.1436412940003819  0.6175917284723624  0.5385417830761625
  0.4761081720062279  0.5733851640974805  0.2947143688476856
  0.2772431054674769  0.6084820308433976  0.3324688229137749
  0.1149283759007815  0.5678017465901277  0.0919144353720185
  0.1149600815068581  0.6962251676365412  0.8220724265122499
  0.2769705167298540  0.8586360745419128  0.8195282006221802
  0.1123333047144399  0.8229162613153491  0.5861158995090037
  0.2737575426053240  0.9861934970431321  0.5790961862239641
  0.4477508613118673  0.7791095982652934  0.3336231000921259
  0.1102986039233471  0.9429903895270400  0.3365599658643177
  0.4482708748922164  0.9012567184487494  0.0915934583156996
  0.8039051875734131  0.7860940215844536  0.5382595471755067
  0.6428146803374304  0.7422654201778371  0.3032544781774789
  0.8080164627153152  0.9074463169807174  0.3012500973086674
  0.9679780843277257  0.8259624906329179  0.7886943918301768
  0.6399147362451814  0.9972589475938207  0.7868846663901934
  0.8008285050593429  0.6621296589521961  0.7809194404245687
  0.9702206788913585  0.9474319232699315  0.5352630669191925
  0.6418166916610986  0.6189933178458560  0.5390567395388075
  0.9763098145532041  0.5726462724186092  0.2941015058227521
  0.7782571794477278  0.6088273229622914  0.3341240500042844
  0.6150387690234638  0.5687170917811173  0.0943085787293967
  0.6149326152925028  0.6973151193466265  0.8226347133996796
  0.7762680465888252  0.8581502449643850  0.8187606204477831
  0.6118910223937135  0.8241920936171354  0.5860440722792717
  0.7724549937432670  0.9850774824672897  0.5775763870640915
  0.9476186937649018  0.7775533433421629  0.3332932467769467
  0.6112340348066070  0.9447403222818167  0.3358867499660292
  0.9472817041496526  0.9007973813748364  0.0930902676281562
  0.4777370638770151  0.2007992646545276  0.0476067925855688
  0.1405956029565161  0.3644156735422470  0.0367216622289206
  0.3092000323951254  0.0255911997395586  0.0411360742545597
  0.2833168826467443  0.2308406917792141  0.0893221998679934
  0.4470831000309445  0.0257624574524300  0.8254723921890914
  0.4430480470192890  0.1572860806944831  0.5680173975119587
  0.9804103397105024  0.1966464672777164  0.0389559021376087
  0.6380158368333468  0.3650614271165580  0.0382824230369749
  0.8091133569629321  0.0248261185126495  0.0376465548438105
  0.7820748978385126  0.2305151502592651  0.0820260212936219
  0.9467864168570443  0.0217405100668060  0.8222770650691871
  0.9433623603152981  0.1518708544493350  0.5735379254910100
  0.4832409952727090  0.6970962446456710  0.0376047996367816
  0.1418405569668977  0.8650706367454006  0.0362769203231394
  0.3102929807826271  0.5244869220049608  0.0365032279142028
  0.2857210370035332  0.7300404236227251  0.0786818987397027
  0.4488484432160362  0.5243963165869019  0.8223390345183859
  0.4466862153498283  0.6541565373598885  0.5720723861518948
  0.9823069484844353  0.6958651121766195  0.0365315437754390
  0.6416506006637874  0.8657259640320234  0.0355071090325723
  0.8096476034374902  0.5240055444424740  0.0383899485861292
  0.7841020094338660  0.7298952248510844  0.0795593640150045
  0.9476229725591168  0.5204001595712171  0.8215765405934121
  0.9464027245743551  0.6517310787719524  0.5722816087544018
  0.2337420731840751  0.3663271966098804  0.6360365640891885
  0.0731625574765786  0.3243310361621283  0.3970746745201268
  0.2368693813926868  0.4916703350609239  0.3864717067502781
  0.4125229555151151  0.2889137218350726  0.1296778197858828
  0.0713767748042073  0.4519207398440201  0.1451512389358243
  0.2345617152516581  0.1011849460981935  0.1503362986110091
  0.4001408466380028  0.4044032233708492  0.8992154653875275
  0.0839836842182038  0.0803007070285489  0.8981874617908403
  0.2346730961127292  0.2438420115260485  0.8785687083398059
  0.3994011325550275  0.0230699982953624  0.6234576483664895
  0.0816934285865116  0.2018159738787091  0.6367008523544655
  0.3969501434505531  0.1376795165095146  0.3721203268711690
  0.2139702230958775  0.1894262848232273  0.4343607265298317
  0.0547443584243297  0.1450251521344939  0.1977342233561785
  0.2126942976558652  0.3169351176702335  0.2013324708081896
  0.3707937020017269  0.1136507949867536  0.9177094337963752
  0.0431337549785766  0.2731896483884668  0.9042199330451908
  0.2092187273480803  0.4393079579912893  0.9057719646350932
  0.3705244233222871  0.2425195897936447  0.6830368089617522
  0.0392259539883639  0.4058253071550837  0.6840764071358478
  0.2113003056037499  0.0681530937686929  0.6758263908683020
  0.3673823870112400  0.3690975312391203  0.4500265750948813
  0.0465899959744434  0.0250110999309356  0.4362099716708983
  0.3866143059290224  0.4792723042494629  0.1985649763023929
  0.7421792683025643  0.3683149481873613  0.6380594347288877
  0.5935526780803571  0.3335480793500949  0.4055453428950884
  0.7419666384903749  0.4921700256309407  0.3893915036810967
  0.9198700936910029  0.2866808466898547  0.1497857301434777
  0.5718105488864254  0.4538588481525636  0.1468616497792468
  0.7379867038059160  0.1036429564014583  0.1479736431144900
  0.9014164212922964  0.3991267136434686  0.9037761676089247
  0.5870947263911361  0.0806742932048152  0.8975046890618827
  0.7364471394931797  0.2427444786827735  0.8753425495280212
  0.8986850696022444  0.0209222025250355  0.6194209780591038
  0.5853141482146711  0.2036954245949403  0.6359407136193340
  0.9045403910734890  0.1551736850095153  0.3665814380052552
  0.7176442141202131  0.1895367173177789  0.4335253341719110
  0.5570726102379169  0.1453438543319265  0.2005491801084958
  0.7170827326264728  0.3158479811926682  0.1963421364792168
  0.8718164992739759  0.1136057540469508  0.9143686716407871
  0.5434394841199008  0.2733452930668960  0.9046383509809885
  0.7097876205834268  0.4389927811110823  0.9065631624853552
  0.8728901434915173  0.2398513854185964  0.6798326860986919
  0.5410809358485480  0.4072261704688032  0.6859577189206902
  0.7121375581052050  0.0671942371720036  0.6735367533579222
  0.8800051229528520  0.3543850528201133  0.4322906865891198
  0.5493138817792413  0.0245574493154876  0.4360303648480937
  0.8873697918307073  0.4765231501679210  0.1989236365242704
  0.2393016748520438  0.8670928916790572  0.6308318756932465
  0.0748102648151701  0.8229893120618925  0.3945035519468263
  0.2360556863124046  0.9850253053139824  0.3900389263917532
  0.4225058275153444  0.7867199902893134  0.1479423531589035
  0.0711465598552152  0.9502931678009645  0.1452245065533120
  0.2379523393321890  0.6053927792241467  0.1464203996334277
  0.4032094391195287  0.8992117680865874  0.8989728768430254
  0.0850336911928480  0.5816185697661993  0.8969893629692862
  0.2377238293050539  0.7432018292971208  0.8726613044441223
  0.4007893644551999  0.5284455359527271  0.6243415731363626
  0.0853363954125186  0.7023594060600544  0.6342734450909688
  0.4050895973547242  0.6572425698279716  0.3654138013276835
  0.2174504979116989  0.6912101810468130  0.4324128936598299
  0.0568136228830554  0.6452969471389522  0.1968036092661407
  0.2174709047280743  0.8145630645731288  0.1970479554060347
  0.3723056479087603  0.6168271295371568  0.9171137498825530
  0.0456601782286867  0.7734750711576979  0.9027390389374261
  0.2111213371506082  0.9382795912512023  0.9035574420405368
  0.3741366296042585  0.7415461251356774  0.6781451526307336
  0.0420647675844066  0.9048177222183398  0.6817478686064433
  0.2130775336805542  0.5662864594879835  0.6726416047747747
  0.3821840931222127  0.8556006477700535  0.4314802228212002
  0.0467782405573658  0.5258626326327516  0.4366217977633013
  0.3874861685247595  0.9731340366449999  0.1942951953905521
  0.7399902949725643  0.8667093949157163  0.6298384893331388
  0.5763412266718078  0.8241257727745364  0.3942246973552201
  0.7402457446863409  0.9879666542530501  0.3879654407282729
  0.9210340199341047  0.7859843922549103  0.1476875188553919
  0.5732661932137262  0.9513109554133905  0.1441555796027743
  0.7390300413668101  0.6052814209509805  0.1483544395808067
  0.9025643386284230  0.8983733696609733  0.9001878132755508
  0.5874069648262932  0.5837857992085773  0.9000638949096782
  0.7383492106985230  0.7434550283393335  0.8732305445331932
  0.8988644418916820  0.5226279641970208  0.6199432792728530
  0.5862831208192247  0.7042316831431137  0.6353392167327527
  0.9061679854462028  0.6562089528191564  0.3661550788389363
  0.7178505813701861  0.6907597706858652  0.4327830015399670
  0.5575831152161257  0.6466460753644867  0.1981777421856421
  0.7176485593998976  0.8150658686429182  0.1971753117075608
  0.8723629816741791  0.6134900313690963  0.9145917687954395
  0.5459348950434730  0.7746949129486680  0.9023343131285557
  0.7116706694449348  0.9383612279818081  0.9019990000531237
  0.8743816666703808  0.7399353805622653  0.6782416092492767
  0.5430084224962712  0.9051870264213662  0.6805854608800672
  0.7118255390234722  0.5676713322318108  0.6747034667192935
  0.8818370435084830  0.8539861918307281  0.4306497467261892
  0.5472667586468916  0.5279113967140319  0.4374776257577508
  0.8871451701099247  0.9757076035308998  0.1967826756803461
 
  0.00000000E+00  0.00000000E+00  0.00000000E+00
  0.00000000E+00  0.00000000E+00  0.00000000E+00
  0.00000000E+00  0.00000000E+00  0.00000000E+00
  0.00000000E+00  0.00000000E+00  0.00000000E+00
  0.00000000E+00  0.00000000E+00  0.00000000E+00
  0.00000000E+00  0.00000000E+00  0.00000000E+00
  0.00000000E+00  0.00000000E+00  0.00000000E+00
  0.00000000E+00  0.00000000E+00  0.00000000E+00
  0.00000000E+00  0.00000000E+00  0.00000000E+00
  0.00000000E+00  0.00000000E+00  0.00000000E+00
  0.00000000E+00  0.00000000E+00  0.00000000E+00
  0.00000000E+00  0.00000000E+00  0.00000000E+00
  0.00000000E+00  0.00000000E+00  0.00000000E+00
  0.00000000E+00  0.00000000E+00  0.00000000E+00
  0.00000000E+00  0.00000000E+00  0.00000000E+00
  0.00000000E+00  0.00000000E+00  0.00000000E+00
  0.00000000E+00  0.00000000E+00  0.00000000E+00
  0.00000000E+00  0.00000000E+00  0.00000000E+00
  0.00000000E+00  0.00000000E+00  0.00000000E+00
  0.00000000E+00  0.00000000E+00  0.00000000E+00
  0.00000000E+00  0.00000000E+00  0.00000000E+00
  0.00000000E+00  0.00000000E+00  0.00000000E+00
  0.00000000E+00  0.00000000E+00  0.00000000E+00
  0.00000000E+00  0.00000000E+00  0.00000000E+00
  0.00000000E+00  0.00000000E+00  0.00000000E+00
  0.00000000E+00  0.00000000E+00  0.00000000E+00
  0.00000000E+00  0.00000000E+00  0.00000000E+00
  0.00000000E+00  0.00000000E+00  0.00000000E+00
  0.00000000E+00  0.00000000E+00  0.00000000E+00
  0.00000000E+00  0.00000000E+00  0.00000000E+00
  0.00000000E+00  0.00000000E+00  0.00000000E+00
  0.00000000E+00  0.00000000E+00  0.00000000E+00
  0.00000000E+00  0.00000000E+00  0.00000000E+00
  0.00000000E+00  0.00000000E+00  0.00000000E+00
  0.00000000E+00  0.00000000E+00  0.00000000E+00
  0.00000000E+00  0.00000000E+00  0.00000000E+00
  0.00000000E+00  0.00000000E+00  0.00000000E+00
  0.00000000E+00  0.00000000E+00  0.00000000E+00
  0.00000000E+00  0.00000000E+00  0.00000000E+00
  0.00000000E+00  0.00000000E+00  0.00000000E+00
  0.00000000E+00  0.00000000E+00  0.00000000E+00
  0.00000000E+00  0.00000000E+00  0.00000000E+00
  0.00000000E+00  0.00000000E+00  0.00000000E+00
  0.00000000E+00  0.00000000E+00  0.00000000E+00
  0.00000000E+00  0.00000000E+00  0.00000000E+00
  0.00000000E+00  0.00000000E+00  0.00000000E+00
  0.00000000E+00  0.00000000E+00  0.00000000E+00
  0.00000000E+00  0.00000000E+00  0.00000000E+00
  0.00000000E+00  0.00000000E+00  0.00000000E+00
  0.00000000E+00  0.00000000E+00  0.00000000E+00
  0.00000000E+00  0.00000000E+00  0.00000000E+00
  0.00000000E+00  0.00000000E+00  0.00000000E+00
  0.00000000E+00  0.00000000E+00  0.00000000E+00
  0.00000000E+00  0.00000000E+00  0.00000000E+00
  0.00000000E+00  0.00000000E+00  0.00000000E+00
  0.00000000E+00  0.00000000E+00  0.00000000E+00
  0.00000000E+00  0.00000000E+00  0.00000000E+00
  0.00000000E+00  0.00000000E+00  0.00000000E+00
  0.00000000E+00  0.00000000E+00  0.00000000E+00
  0.00000000E+00  0.00000000E+00  0.00000000E+00
  0.00000000E+00  0.00000000E+00  0.00000000E+00
  0.00000000E+00  0.00000000E+00  0.00000000E+00
  0.00000000E+00  0.00000000E+00  0.00000000E+00
  0.00000000E+00  0.00000000E+00  0.00000000E+00
  0.00000000E+00  0.00000000E+00  0.00000000E+00
  0.00000000E+00  0.00000000E+00  0.00000000E+00
  0.00000000E+00  0.00000000E+00  0.00000000E+00
  0.00000000E+00  0.00000000E+00  0.00000000E+00
  0.00000000E+00  0.00000000E+00  0.00000000E+00
  0.00000000E+00  0.00000000E+00  0.00000000E+00
  0.00000000E+00  0.00000000E+00  0.00000000E+00
  0.00000000E+00  0.00000000E+00  0.00000000E+00
  0.00000000E+00  0.00000000E+00  0.00000000E+00
  0.00000000E+00  0.00000000E+00  0.00000000E+00
  0.00000000E+00  0.00000000E+00  0.00000000E+00
  0.00000000E+00  0.00000000E+00  0.00000000E+00
  0.00000000E+00  0.00000000E+00  0.00000000E+00
  0.00000000E+00  0.00000000E+00  0.00000000E+00
  0.00000000E+00  0.00000000E+00  0.00000000E+00
  0.00000000E+00  0.00000000E+00  0.00000000E+00
  0.00000000E+00  0.00000000E+00  0.00000000E+00
  0.00000000E+00  0.00000000E+00  0.00000000E+00
  0.00000000E+00  0.00000000E+00  0.00000000E+00
  0.00000000E+00  0.00000000E+00  0.00000000E+00
  0.00000000E+00  0.00000000E+00  0.00000000E+00
  0.00000000E+00  0.00000000E+00  0.00000000E+00
  0.00000000E+00  0.00000000E+00  0.00000000E+00
  0.00000000E+00  0.00000000E+00  0.00000000E+00
  0.00000000E+00  0.00000000E+00  0.00000000E+00
  0.00000000E+00  0.00000000E+00  0.00000000E+00
  0.00000000E+00  0.00000000E+00  0.00000000E+00
  0.00000000E+00  0.00000000E+00  0.00000000E+00
  0.00000000E+00  0.00000000E+00  0.00000000E+00
  0.00000000E+00  0.00000000E+00  0.00000000E+00
  0.00000000E+00  0.00000000E+00  0.00000000E+00
  0.00000000E+00  0.00000000E+00  0.00000000E+00
  0.00000000E+00  0.00000000E+00  0.00000000E+00
  0.00000000E+00  0.00000000E+00  0.00000000E+00
  0.00000000E+00  0.00000000E+00  0.00000000E+00
  0.00000000E+00  0.00000000E+00  0.00000000E+00
  0.00000000E+00  0.00000000E+00  0.00000000E+00
  0.00000000E+00  0.00000000E+00  0.00000000E+00
  0.00000000E+00  0.00000000E+00  0.00000000E+00
  0.00000000E+00  0.00000000E+00  0.00000000E+00
  0.00000000E+00  0.00000000E+00  0.00000000E+00
  0.00000000E+00  0.00000000E+00  0.00000000E+00
  0.00000000E+00  0.00000000E+00  0.00000000E+00
  0.00000000E+00  0.00000000E+00  0.00000000E+00
  0.00000000E+00  0.00000000E+00  0.00000000E+00
  0.00000000E+00  0.00000000E+00  0.00000000E+00
  0.00000000E+00  0.00000000E+00  0.00000000E+00
  0.00000000E+00  0.00000000E+00  0.00000000E+00
  0.00000000E+00  0.00000000E+00  0.00000000E+00
  0.00000000E+00  0.00000000E+00  0.00000000E+00
  0.00000000E+00  0.00000000E+00  0.00000000E+00
  0.00000000E+00  0.00000000E+00  0.00000000E+00
  0.00000000E+00  0.00000000E+00  0.00000000E+00
  0.00000000E+00  0.00000000E+00  0.00000000E+00
  0.00000000E+00  0.00000000E+00  0.00000000E+00
  0.00000000E+00  0.00000000E+00  0.00000000E+00
  0.00000000E+00  0.00000000E+00  0.00000000E+00
  0.00000000E+00  0.00000000E+00  0.00000000E+00
  0.00000000E+00  0.00000000E+00  0.00000000E+00
  0.00000000E+00  0.00000000E+00  0.00000000E+00
  0.00000000E+00  0.00000000E+00  0.00000000E+00
  0.00000000E+00  0.00000000E+00  0.00000000E+00
  0.00000000E+00  0.00000000E+00  0.00000000E+00
  0.00000000E+00  0.00000000E+00  0.00000000E+00
  0.00000000E+00  0.00000000E+00  0.00000000E+00
  0.00000000E+00  0.00000000E+00  0.00000000E+00
  0.00000000E+00  0.00000000E+00  0.00000000E+00
  0.00000000E+00  0.00000000E+00  0.00000000E+00
  0.00000000E+00  0.00000000E+00  0.00000000E+00
  0.00000000E+00  0.00000000E+00  0.00000000E+00
  0.00000000E+00  0.00000000E+00  0.00000000E+00
  0.00000000E+00  0.00000000E+00  0.00000000E+00
  0.00000000E+00  0.00000000E+00  0.00000000E+00
  0.00000000E+00  0.00000000E+00  0.00000000E+00
  0.00000000E+00  0.00000000E+00  0.00000000E+00
  0.00000000E+00  0.00000000E+00  0.00000000E+00
  0.00000000E+00  0.00000000E+00  0.00000000E+00
  0.00000000E+00  0.00000000E+00  0.00000000E+00
  0.00000000E+00  0.00000000E+00  0.00000000E+00
  0.00000000E+00  0.00000000E+00  0.00000000E+00
  0.00000000E+00  0.00000000E+00  0.00000000E+00
  0.00000000E+00  0.00000000E+00  0.00000000E+00
  0.00000000E+00  0.00000000E+00  0.00000000E+00
  0.00000000E+00  0.00000000E+00  0.00000000E+00
  0.00000000E+00  0.00000000E+00  0.00000000E+00
  0.00000000E+00  0.00000000E+00  0.00000000E+00
  0.00000000E+00  0.00000000E+00  0.00000000E+00
  0.00000000E+00  0.00000000E+00  0.00000000E+00
  0.00000000E+00  0.00000000E+00  0.00000000E+00
  0.00000000E+00  0.00000000E+00  0.00000000E+00
  0.00000000E+00  0.00000000E+00  0.00000000E+00
  0.00000000E+00  0.00000000E+00  0.00000000E+00
  0.00000000E+00  0.00000000E+00  0.00000000E+00
  0.00000000E+00  0.00000000E+00  0.00000000E+00
  0.00000000E+00  0.00000000E+00  0.00000000E+00
  0.00000000E+00  0.00000000E+00  0.00000000E+00
  0.00000000E+00  0.00000000E+00  0.00000000E+00
  0.00000000E+00  0.00000000E+00  0.00000000E+00
  0.00000000E+00  0.00000000E+00  0.00000000E+00
  0.00000000E+00  0.00000000E+00  0.00000000E+00
  0.00000000E+00  0.00000000E+00  0.00000000E+00
  0.00000000E+00  0.00000000E+00  0.00000000E+00
  0.00000000E+00  0.00000000E+00  0.00000000E+00
  0.00000000E+00  0.00000000E+00  0.00000000E+00
  0.00000000E+00  0.00000000E+00  0.00000000E+00
  0.00000000E+00  0.00000000E+00  0.00000000E+00
  0.00000000E+00  0.00000000E+00  0.00000000E+00
  0.00000000E+00  0.00000000E+00  0.00000000E+00
  0.00000000E+00  0.00000000E+00  0.00000000E+00
  0.00000000E+00  0.00000000E+00  0.00000000E+00
  0.00000000E+00  0.00000000E+00  0.00000000E+00
  0.00000000E+00  0.00000000E+00  0.00000000E+00
  0.00000000E+00  0.00000000E+00  0.00000000E+00
  0.00000000E+00  0.00000000E+00  0.00000000E+00
  0.00000000E+00  0.00000000E+00  0.00000000E+00
  0.00000000E+00  0.00000000E+00  0.00000000E+00
  0.00000000E+00  0.00000000E+00  0.00000000E+00
  0.00000000E+00  0.00000000E+00  0.00000000E+00
  0.00000000E+00  0.00000000E+00  0.00000000E+00
  0.00000000E+00  0.00000000E+00  0.00000000E+00
  0.00000000E+00  0.00000000E+00  0.00000000E+00
  0.00000000E+00  0.00000000E+00  0.00000000E+00
  0.00000000E+00  0.00000000E+00  0.00000000E+00
  0.00000000E+00  0.00000000E+00  0.00000000E+00
  0.00000000E+00  0.00000000E+00  0.00000000E+00
  0.00000000E+00  0.00000000E+00  0.00000000E+00
  0.00000000E+00  0.00000000E+00  0.00000000E+00
