supercell of POSCAR                     
   1.07329600000000     
     9.1016125577399993   -5.3128209557800004   -9.4184911254399992
     9.0821131104399999    5.2871675818400004    9.4140884809200003
    -1.5053809694200000   -7.9210976524300012    4.6939078171600004
   Al   Sc   N    O 
    72    24    95     1
Direct
  0.3027248709127619  0.2874540876539555  0.5366890843547338
  0.1417163059919631  0.2422028421342617  0.3035874600617134
  0.3081960652204572  0.4085768583764064  0.3021267770692404
  0.4660889404024928  0.3256955703788336  0.7907768772748511
  0.1397341828544825  0.4976067343544059  0.7881783869362025
  0.2955423780115112  0.1657141163866100  0.7715722920983694
  0.4702078565002594  0.4480378987687104  0.5358436970904208
  0.1400410552258791  0.1190598551138677  0.5376268753050368
  0.4747441979878388  0.0738968130932278  0.2926450051170235
  0.2768450718010484  0.1077009058176657  0.3339618343224089
  0.1142871452638445  0.0685138304209971  0.0936037043357274
  0.1132988491784062  0.1968946509274261  0.8240309106367576
  0.2753218245491240  0.3585585810754708  0.8203747297289752
  0.1107319058173744  0.3238056918017804  0.5873870369062359
  0.2724626430340820  0.4856220778659832  0.5790055401287191
  0.4475883112439192  0.2783336550274313  0.3346010023602517
  0.1114587487708576  0.4444009423472295  0.3367667700106836
  0.4475375645429622  0.4017541779737428  0.0947116059998478
  0.8031756824201466  0.2867884183155951  0.5401974845370674
  0.6430221396097338  0.2434842875000669  0.3055671766692072
  0.8079119082271689  0.4082182965731747  0.3026201152442880
  0.9666097595015586  0.3268489179418452  0.7906165735081601
  0.6395664829834260  0.4966781944938958  0.7886001664165221
  0.7991092373103257  0.1630894473688400  0.7825306378244363
  0.9700556622476029  0.4483471451918390  0.5360792916013466
  0.6412193759048392  0.1193065406927616  0.5394529987042205
  0.9751691713423369  0.0730638911964689  0.2942007899485617
  0.7764129401716815  0.1083007919237460  0.3341490330115207
  0.6120215269387828  0.0689394209815219  0.0931266497478163
  0.6121475925611293  0.1961364720701368  0.8241173667808326
  0.7745164273492762  0.3582662349474077  0.8213079669011307
  0.6108930303469720  0.3236224629055684  0.5882217964718919
  0.7724945478876961  0.4852306462948377  0.5792144399257353
  0.9467439412198431  0.2782425491052862  0.3347973902895376
  0.6113147757820769  0.4445409460686989  0.3366390989999957
  0.9472821298994702  0.4019071548995186  0.0950135169702477
  0.3032895989378517  0.7862143846366720  0.5398393216629387
  0.1420417432093330  0.7422549374863721  0.3040913307739146
  0.3071060502520595  0.9072817773141466  0.3038956867539255
  0.4670099065741340  0.8253989352012496  0.7893221342091081
  0.1407264857902604  0.9980388421827229  0.7887217102495327
  0.3002611195051728  0.6636232015469758  0.7826103946190983
  0.4696016122094591  0.9483741174324791  0.5361107538345422
  0.1416138661038957  0.6194681025340500  0.5402571652836912
  0.4761157780219492  0.5734004396604178  0.2944338086337694
  0.2771627674667485  0.6085640127722911  0.3341977736165660
  0.1143486090810839  0.5688133701704956  0.0937535146861919
  0.1141344687895653  0.6978414306716445  0.8243187414459214
  0.2761028327273749  0.8601103460972652  0.8213757797595989
  0.1114273889623831  0.8239947238965328  0.5877534693904423
  0.2729809255208124  0.9851915795169006  0.5793214356877954
  0.4471939185709601  0.7786767279203843  0.3346029227476208
  0.1111349741623897  0.9442903863021357  0.3362219476596238
  0.4470300047490596  0.9038217754014468  0.0940844863292298
  0.8034124683002730  0.7864672348997743  0.5393674313149717
  0.6423325876468340  0.7423443324652510  0.3039293617666061
  0.8076855681726514  0.9078318399416858  0.3019350426912766
  0.9678254573542588  0.8269727008717425  0.7904102890839937
  0.6407462838916942  0.9970392174225324  0.7871346794094762
  0.8004724884340177  0.6627880363484948  0.7827138667366285
  0.9701792171400569  0.9481390524959323  0.5356764344812319
  0.6418445354933979  0.6192208368204533  0.5401449257271906
  0.9759576172505930  0.5733009842597809  0.2950588375631398
  0.7772187223116021  0.6082850357027212  0.3344975246835347
  0.6145333953794250  0.5681857392663687  0.0933591744354132
  0.6141254232212816  0.6965336589955129  0.8236090928915445
  0.7757649541219322  0.8580089337966683  0.8201987437545526
  0.6111610462615360  0.8237276192496950  0.5873988243586368
  0.7726423519558168  0.9851411822701053  0.5781773318135066
  0.9471598870399873  0.7783079555399226  0.3348009550508664
  0.6107299063234777  0.9448527139569762  0.3368225215987479
  0.9476659671604111  0.9017314837298613  0.0940890520806761
  0.4744254875669895  0.1872082614449724  0.0423702203985030
  0.1410353757457159  0.3653114838395126  0.0372732229375359
  0.3199985075715475  0.0324519811939012  0.0417040637703963
  0.2847475114847811  0.2303389947211443  0.0857238135721303
  0.4496202445589148  0.0205401088529484  0.8276926502979265
  0.4445928269980755  0.1517283313928175  0.5754850646205796
  0.9808406410656119  0.1968846108228846  0.0382210518772013
  0.6370076901521031  0.3612994898652389  0.0360101327375872
  0.8086436777101937  0.0248938740299494  0.0381994889242208
  0.7827810854343440  0.2303736973330359  0.0818666197209339
  0.9467339184996177  0.0220116635288221  0.8228062799578950
  0.9441815630569579  0.1526203092300804  0.5739425972277701
  0.4815470811263154  0.6974384226975232  0.0387397130544400
  0.1447671681507856  0.8689841371250466  0.0361794567401219
  0.3095804901617853  0.5250526555268991  0.0378220118163881
  0.2842320275086863  0.7314607237898727  0.0818041464749015
  0.4472937587373593  0.5221316621691372  0.8228007695450472
  0.4453488351604733  0.6520442703810971  0.5728724830035929
  0.9825236056752047  0.6979850059041794  0.0386215419284284
  0.6405869688734143  0.8655825656032405  0.0369037851176444
  0.8086927694833577  0.5237140853283435  0.0384531878174670
  0.7839867578127340  0.7302388507228770  0.0811234025988483
  0.9470219661254760  0.5223354081246327  0.8235328912632411
  0.9451345150623638  0.6525820586512907  0.5740037097485455
  0.2381856594329932  0.3673437918325462  0.6309011001322986
  0.0747094289650860  0.3246075511444317  0.3958153067158889
  0.2395518017304994  0.4894350016017199  0.3895497942047399
  0.4217706852213610  0.2886462069521798  0.1504331037948816
  0.0721179469558209  0.4521615914013069  0.1459197403453700
  0.2364179210442998  0.1040050547325464  0.1492834374860266
  0.4012461659200426  0.3999074240714577  0.9016889492451057
  0.0842694108503181  0.0820192629328673  0.8982824298693330
  0.2368820089809205  0.2431916503367120  0.8753176820054591
  0.3986800207749752  0.0213390963475817  0.6209922929050293
  0.0834749502400740  0.2032418145283827  0.6356166566124202
  0.4047323249264920  0.1565806950817361  0.3693908380772939
  0.2161390908645586  0.1905021257352217  0.4329090014594072
  0.0555959637341630  0.1460502797286836  0.1976147152220591
  0.2161922842095052  0.3167022074673511  0.2004109240546583
  0.0445992743348071  0.2743649370847123  0.9043613707722358
  0.2101812294168965  0.4389568670532711  0.9040104694620794
  0.3721972566436378  0.2423402770861571  0.6764850304191938
  0.0412187467079335  0.4060147988693572  0.6835888131575487
  0.2096844943978198  0.0679255973216968  0.6717561785112593
  0.3814424784185420  0.3554362078585953  0.4313471942570928
  0.0465946854816437  0.0257837124102167  0.4354418268936300
  0.3873042535110756  0.4774999907838620  0.1978888316410661
  0.7388156080708086  0.3672938579189733  0.6321767631503263
  0.5757564600161729  0.3255913795147336  0.3971509282699444
  0.7397026331656136  0.4892657297132814  0.3898974651676923
  0.9202146849238915  0.2871559943369348  0.1494233792916546
  0.5724170739125611  0.4521596808752832  0.1457668457896091
  0.7370653934731806  0.1044223106891096  0.1484692886869041
  0.9011940494475965  0.3997350559444257  0.9023675370252491
  0.5883318908857262  0.0812355125908795  0.8967502010528534
  0.7358490085474045  0.2435883746359551  0.8753294404491712
  0.8987989709141004  0.0219948509657755  0.6199152354710407
  0.5842809908680309  0.2032076007543964  0.6355606045527651
  0.9047098106524700  0.1559327378073618  0.3670942334887641
  0.7177790212395010  0.1908596065455370  0.4346057966715406
  0.5593800735722070  0.1481877142154246  0.2028307046595685
  0.7173147891737273  0.3165631352700942  0.1994897433058469
  0.8713764770205685  0.1143807272604249  0.9152731081070300
  0.5402003786396179  0.2697359115136422  0.9040177380169254
  0.7087238691031246  0.4375280511489379  0.9056851007385873
  0.8731844358118579  0.2408987301877943  0.6806575828739696
  0.5411912395895513  0.4057034510944106  0.6837803889882892
  0.7121396062371304  0.0676414005100625  0.6735386257615801
  0.8813433816197644  0.3548385529713940  0.4327346306972757
  0.5472585652345927  0.0261264832259371  0.4366234152695085
  0.8874593857576798  0.4769771234293927  0.1989517674092909
  0.2387615764667146  0.8666847221071663  0.6313321754452588
  0.0749636740590915  0.8243589754459535  0.3959500198042747
  0.2387246192465113  0.9885065032943388  0.3902110799306300
  0.4212517127212436  0.7877425740259838  0.1492896213636214
  0.0719547657446142  0.9518288445294516  0.1454441603373837
  0.2378763921087312  0.6050045268514950  0.1482889382489532
  0.4018540341355319  0.8958736216686631  0.9000658539763648
  0.0849621112715653  0.5822896038506400  0.8987981820978490
  0.2369810229376768  0.7443398860005104  0.8751231348717070
  0.3986173121880370  0.5219622955164951  0.6201634119284449
  0.0840650092889348  0.7032768305619470  0.6361286958251426
  0.4051815303346729  0.6559814630384935  0.3664752627687022
  0.2166999567155088  0.6902120571495445  0.4335054438469470
  0.0563236527328144  0.6458678309080881  0.1982531544146298
  0.2161408688044375  0.8150721995306469  0.1992843205951331
  0.3720705088640770  0.6146540038829826  0.9154575337275475
  0.0465377777234508  0.7760122906925773  0.9054507392719628
  0.2145662819270058  0.9434301244076551  0.9043614948732284
  0.3735519948174328  0.7391620663404481  0.6784563227032265
  0.0418055838938471  0.9059825314099044  0.6830911867898521
  0.2114929502770480  0.5681053470253232  0.6752745017606827
  0.3811983824619958  0.8536910363088737  0.4330290519291395
  0.0475587647444655  0.5261219925583163  0.4370673699305314
  0.3859625964486142  0.9746482298834636  0.2028003605489488
  0.7390988702053107  0.8668006993366504  0.6310206752140886
  0.5755164120111544  0.8243157609545761  0.3956690426135836
  0.7394866745547546  0.9887386545414358  0.3889488593674955
  0.9206886362722102  0.7870988740109652  0.1494943356761453
  0.5724838439413702  0.9518467301042932  0.1464711425884317
  0.7381094524742764  0.6046666531397875  0.1487655903418741
  0.9019944785053724  0.8990830270676469  0.9013678467120130
  0.5853884650778838  0.5815309639009527  0.8985618561830151
  0.7372702519971668  0.7430491247914972  0.8745516182367794
  0.8986750814275979  0.5222878361276031  0.6206914271482091
  0.5845093253912808  0.7029961771838771  0.6356912868151170
  0.9051881482576505  0.6560352706895998  0.3674583024729472
  0.7172130772708911  0.6902966592832698  0.4335780973633803
  0.5569263547250003  0.6459573322443788  0.1977898253362369
  0.7170208116459591  0.8152243235935686  0.1984225023703701
  0.8721615065462274  0.6144349178597608  0.9167281975467390
  0.5454123251484404  0.7733953722614046  0.9036954636182202
  0.7109414914527719  0.9380960237798845  0.9034667203298241
  0.8738337668453084  0.7405717562696594  0.6800507827373323
  0.5418910872305744  0.9051726500727071  0.6827554804908118
  0.7116867263139852  0.5675738767473675  0.6754478172579539
  0.8813182739253662  0.8545657954404007  0.4320290679164316
  0.5475991724644089  0.5263781009740001  0.4368799054108337
  0.8869059791615683  0.9764624125339694  0.1975796123269618
  0.3675692413589289  0.1152300422155719  0.8845207252519742
 
  0.00000000E+00  0.00000000E+00  0.00000000E+00
  0.00000000E+00  0.00000000E+00  0.00000000E+00
  0.00000000E+00  0.00000000E+00  0.00000000E+00
  0.00000000E+00  0.00000000E+00  0.00000000E+00
  0.00000000E+00  0.00000000E+00  0.00000000E+00
  0.00000000E+00  0.00000000E+00  0.00000000E+00
  0.00000000E+00  0.00000000E+00  0.00000000E+00
  0.00000000E+00  0.00000000E+00  0.00000000E+00
  0.00000000E+00  0.00000000E+00  0.00000000E+00
  0.00000000E+00  0.00000000E+00  0.00000000E+00
  0.00000000E+00  0.00000000E+00  0.00000000E+00
  0.00000000E+00  0.00000000E+00  0.00000000E+00
  0.00000000E+00  0.00000000E+00  0.00000000E+00
  0.00000000E+00  0.00000000E+00  0.00000000E+00
  0.00000000E+00  0.00000000E+00  0.00000000E+00
  0.00000000E+00  0.00000000E+00  0.00000000E+00
  0.00000000E+00  0.00000000E+00  0.00000000E+00
  0.00000000E+00  0.00000000E+00  0.00000000E+00
  0.00000000E+00  0.00000000E+00  0.00000000E+00
  0.00000000E+00  0.00000000E+00  0.00000000E+00
  0.00000000E+00  0.00000000E+00  0.00000000E+00
  0.00000000E+00  0.00000000E+00  0.00000000E+00
  0.00000000E+00  0.00000000E+00  0.00000000E+00
  0.00000000E+00  0.00000000E+00  0.00000000E+00
  0.00000000E+00  0.00000000E+00  0.00000000E+00
  0.00000000E+00  0.00000000E+00  0.00000000E+00
  0.00000000E+00  0.00000000E+00  0.00000000E+00
  0.00000000E+00  0.00000000E+00  0.00000000E+00
  0.00000000E+00  0.00000000E+00  0.00000000E+00
  0.00000000E+00  0.00000000E+00  0.00000000E+00
  0.00000000E+00  0.00000000E+00  0.00000000E+00
  0.00000000E+00  0.00000000E+00  0.00000000E+00
  0.00000000E+00  0.00000000E+00  0.00000000E+00
  0.00000000E+00  0.00000000E+00  0.00000000E+00
  0.00000000E+00  0.00000000E+00  0.00000000E+00
  0.00000000E+00  0.00000000E+00  0.00000000E+00
  0.00000000E+00  0.00000000E+00  0.00000000E+00
  0.00000000E+00  0.00000000E+00  0.00000000E+00
  0.00000000E+00  0.00000000E+00  0.00000000E+00
  0.00000000E+00  0.00000000E+00  0.00000000E+00
  0.00000000E+00  0.00000000E+00  0.00000000E+00
  0.00000000E+00  0.00000000E+00  0.00000000E+00
  0.00000000E+00  0.00000000E+00  0.00000000E+00
  0.00000000E+00  0.00000000E+00  0.00000000E+00
  0.00000000E+00  0.00000000E+00  0.00000000E+00
  0.00000000E+00  0.00000000E+00  0.00000000E+00
  0.00000000E+00  0.00000000E+00  0.00000000E+00
  0.00000000E+00  0.00000000E+00  0.00000000E+00
  0.00000000E+00  0.00000000E+00  0.00000000E+00
  0.00000000E+00  0.00000000E+00  0.00000000E+00
  0.00000000E+00  0.00000000E+00  0.00000000E+00
  0.00000000E+00  0.00000000E+00  0.00000000E+00
  0.00000000E+00  0.00000000E+00  0.00000000E+00
  0.00000000E+00  0.00000000E+00  0.00000000E+00
  0.00000000E+00  0.00000000E+00  0.00000000E+00
  0.00000000E+00  0.00000000E+00  0.00000000E+00
  0.00000000E+00  0.00000000E+00  0.00000000E+00
  0.00000000E+00  0.00000000E+00  0.00000000E+00
  0.00000000E+00  0.00000000E+00  0.00000000E+00
  0.00000000E+00  0.00000000E+00  0.00000000E+00
  0.00000000E+00  0.00000000E+00  0.00000000E+00
  0.00000000E+00  0.00000000E+00  0.00000000E+00
  0.00000000E+00  0.00000000E+00  0.00000000E+00
  0.00000000E+00  0.00000000E+00  0.00000000E+00
  0.00000000E+00  0.00000000E+00  0.00000000E+00
  0.00000000E+00  0.00000000E+00  0.00000000E+00
  0.00000000E+00  0.00000000E+00  0.00000000E+00
  0.00000000E+00  0.00000000E+00  0.00000000E+00
  0.00000000E+00  0.00000000E+00  0.00000000E+00
  0.00000000E+00  0.00000000E+00  0.00000000E+00
  0.00000000E+00  0.00000000E+00  0.00000000E+00
  0.00000000E+00  0.00000000E+00  0.00000000E+00
  0.00000000E+00  0.00000000E+00  0.00000000E+00
  0.00000000E+00  0.00000000E+00  0.00000000E+00
  0.00000000E+00  0.00000000E+00  0.00000000E+00
  0.00000000E+00  0.00000000E+00  0.00000000E+00
  0.00000000E+00  0.00000000E+00  0.00000000E+00
  0.00000000E+00  0.00000000E+00  0.00000000E+00
  0.00000000E+00  0.00000000E+00  0.00000000E+00
  0.00000000E+00  0.00000000E+00  0.00000000E+00
  0.00000000E+00  0.00000000E+00  0.00000000E+00
  0.00000000E+00  0.00000000E+00  0.00000000E+00
  0.00000000E+00  0.00000000E+00  0.00000000E+00
  0.00000000E+00  0.00000000E+00  0.00000000E+00
  0.00000000E+00  0.00000000E+00  0.00000000E+00
  0.00000000E+00  0.00000000E+00  0.00000000E+00
  0.00000000E+00  0.00000000E+00  0.00000000E+00
  0.00000000E+00  0.00000000E+00  0.00000000E+00
  0.00000000E+00  0.00000000E+00  0.00000000E+00
  0.00000000E+00  0.00000000E+00  0.00000000E+00
  0.00000000E+00  0.00000000E+00  0.00000000E+00
  0.00000000E+00  0.00000000E+00  0.00000000E+00
  0.00000000E+00  0.00000000E+00  0.00000000E+00
  0.00000000E+00  0.00000000E+00  0.00000000E+00
  0.00000000E+00  0.00000000E+00  0.00000000E+00
  0.00000000E+00  0.00000000E+00  0.00000000E+00
  0.00000000E+00  0.00000000E+00  0.00000000E+00
  0.00000000E+00  0.00000000E+00  0.00000000E+00
  0.00000000E+00  0.00000000E+00  0.00000000E+00
  0.00000000E+00  0.00000000E+00  0.00000000E+00
  0.00000000E+00  0.00000000E+00  0.00000000E+00
  0.00000000E+00  0.00000000E+00  0.00000000E+00
  0.00000000E+00  0.00000000E+00  0.00000000E+00
  0.00000000E+00  0.00000000E+00  0.00000000E+00
  0.00000000E+00  0.00000000E+00  0.00000000E+00
  0.00000000E+00  0.00000000E+00  0.00000000E+00
  0.00000000E+00  0.00000000E+00  0.00000000E+00
  0.00000000E+00  0.00000000E+00  0.00000000E+00
  0.00000000E+00  0.00000000E+00  0.00000000E+00
  0.00000000E+00  0.00000000E+00  0.00000000E+00
  0.00000000E+00  0.00000000E+00  0.00000000E+00
  0.00000000E+00  0.00000000E+00  0.00000000E+00
  0.00000000E+00  0.00000000E+00  0.00000000E+00
  0.00000000E+00  0.00000000E+00  0.00000000E+00
  0.00000000E+00  0.00000000E+00  0.00000000E+00
  0.00000000E+00  0.00000000E+00  0.00000000E+00
  0.00000000E+00  0.00000000E+00  0.00000000E+00
  0.00000000E+00  0.00000000E+00  0.00000000E+00
  0.00000000E+00  0.00000000E+00  0.00000000E+00
  0.00000000E+00  0.00000000E+00  0.00000000E+00
  0.00000000E+00  0.00000000E+00  0.00000000E+00
  0.00000000E+00  0.00000000E+00  0.00000000E+00
  0.00000000E+00  0.00000000E+00  0.00000000E+00
  0.00000000E+00  0.00000000E+00  0.00000000E+00
  0.00000000E+00  0.00000000E+00  0.00000000E+00
  0.00000000E+00  0.00000000E+00  0.00000000E+00
  0.00000000E+00  0.00000000E+00  0.00000000E+00
  0.00000000E+00  0.00000000E+00  0.00000000E+00
  0.00000000E+00  0.00000000E+00  0.00000000E+00
  0.00000000E+00  0.00000000E+00  0.00000000E+00
  0.00000000E+00  0.00000000E+00  0.00000000E+00
  0.00000000E+00  0.00000000E+00  0.00000000E+00
  0.00000000E+00  0.00000000E+00  0.00000000E+00
  0.00000000E+00  0.00000000E+00  0.00000000E+00
  0.00000000E+00  0.00000000E+00  0.00000000E+00
  0.00000000E+00  0.00000000E+00  0.00000000E+00
  0.00000000E+00  0.00000000E+00  0.00000000E+00
  0.00000000E+00  0.00000000E+00  0.00000000E+00
  0.00000000E+00  0.00000000E+00  0.00000000E+00
  0.00000000E+00  0.00000000E+00  0.00000000E+00
  0.00000000E+00  0.00000000E+00  0.00000000E+00
  0.00000000E+00  0.00000000E+00  0.00000000E+00
  0.00000000E+00  0.00000000E+00  0.00000000E+00
  0.00000000E+00  0.00000000E+00  0.00000000E+00
  0.00000000E+00  0.00000000E+00  0.00000000E+00
  0.00000000E+00  0.00000000E+00  0.00000000E+00
  0.00000000E+00  0.00000000E+00  0.00000000E+00
  0.00000000E+00  0.00000000E+00  0.00000000E+00
  0.00000000E+00  0.00000000E+00  0.00000000E+00
  0.00000000E+00  0.00000000E+00  0.00000000E+00
  0.00000000E+00  0.00000000E+00  0.00000000E+00
  0.00000000E+00  0.00000000E+00  0.00000000E+00
  0.00000000E+00  0.00000000E+00  0.00000000E+00
  0.00000000E+00  0.00000000E+00  0.00000000E+00
  0.00000000E+00  0.00000000E+00  0.00000000E+00
  0.00000000E+00  0.00000000E+00  0.00000000E+00
  0.00000000E+00  0.00000000E+00  0.00000000E+00
  0.00000000E+00  0.00000000E+00  0.00000000E+00
  0.00000000E+00  0.00000000E+00  0.00000000E+00
  0.00000000E+00  0.00000000E+00  0.00000000E+00
  0.00000000E+00  0.00000000E+00  0.00000000E+00
  0.00000000E+00  0.00000000E+00  0.00000000E+00
  0.00000000E+00  0.00000000E+00  0.00000000E+00
  0.00000000E+00  0.00000000E+00  0.00000000E+00
  0.00000000E+00  0.00000000E+00  0.00000000E+00
  0.00000000E+00  0.00000000E+00  0.00000000E+00
  0.00000000E+00  0.00000000E+00  0.00000000E+00
  0.00000000E+00  0.00000000E+00  0.00000000E+00
  0.00000000E+00  0.00000000E+00  0.00000000E+00
  0.00000000E+00  0.00000000E+00  0.00000000E+00
  0.00000000E+00  0.00000000E+00  0.00000000E+00
  0.00000000E+00  0.00000000E+00  0.00000000E+00
  0.00000000E+00  0.00000000E+00  0.00000000E+00
  0.00000000E+00  0.00000000E+00  0.00000000E+00
  0.00000000E+00  0.00000000E+00  0.00000000E+00
  0.00000000E+00  0.00000000E+00  0.00000000E+00
  0.00000000E+00  0.00000000E+00  0.00000000E+00
  0.00000000E+00  0.00000000E+00  0.00000000E+00
  0.00000000E+00  0.00000000E+00  0.00000000E+00
  0.00000000E+00  0.00000000E+00  0.00000000E+00
  0.00000000E+00  0.00000000E+00  0.00000000E+00
  0.00000000E+00  0.00000000E+00  0.00000000E+00
  0.00000000E+00  0.00000000E+00  0.00000000E+00
  0.00000000E+00  0.00000000E+00  0.00000000E+00
  0.00000000E+00  0.00000000E+00  0.00000000E+00
  0.00000000E+00  0.00000000E+00  0.00000000E+00
  0.00000000E+00  0.00000000E+00  0.00000000E+00
  0.00000000E+00  0.00000000E+00  0.00000000E+00
  0.00000000E+00  0.00000000E+00  0.00000000E+00
  0.00000000E+00  0.00000000E+00  0.00000000E+00
  0.00000000E+00  0.00000000E+00  0.00000000E+00
  0.00000000E+00  0.00000000E+00  0.00000000E+00
