supercell of POSCAR                     
   1.07329600000000     
     9.1016125577399993   -5.3128209557800004   -9.4184911254399992
     9.0821131104399999    5.2871675818400004    9.4140884809200003
    -1.5053809694200000   -7.9210976524300012    4.6939078171600004
   Al   Sc   N 
    71    24    96
Direct
  0.3002095318218778  0.2857147613146154  0.5413836319818230
  0.1404607880070969  0.2420951306702861  0.3020846964566744
  0.3078284069342914  0.4092687374282136  0.3071966338503813
  0.1379660501409816  0.4986628267426312  0.7873587799565627
  0.2969183848425558  0.1633155735934793  0.7829472813920120
  0.4728854452159865  0.4486785241888427  0.5306077979485764
  0.1415880156331184  0.1193971873527957  0.5392909259783636
  0.4754581299765093  0.0747199557151106  0.2990986885771818
  0.2774505229800752  0.1098032366843427  0.3365405603510325
  0.1147063071502714  0.0678248219397375  0.0920885737188684
  0.1115924567765418  0.1958874459961919  0.8238470143946657
  0.2732761556078316  0.3578359688462598  0.8240831515849436
  0.1101818220741322  0.3238712276057854  0.5877156632398126
  0.2739085885324712  0.4853581520964099  0.5852658033706959
  0.4462263738032135  0.2780681072159865  0.3382284803977811
  0.1121729938088833  0.4440373008216483  0.3373763263078615
  0.4439501980093610  0.4047811043623142  0.1035047624598988
  0.8025257879395653  0.2863780578469743  0.5384934165787882
  0.6407406656302754  0.2428467417886324  0.3040560914229076
  0.8073118099683967  0.4078943740148588  0.3019611160870284
  0.9665061231578420  0.3263375031871831  0.7888555089704994
  0.6482357437907282  0.4999795727176846  0.7833663742081498
  0.8002561100562460  0.1620452357004183  0.7803056770691370
  0.9699609671867933  0.4480249439840378  0.5341055802175276
  0.6401683646399974  0.1207773244331918  0.5414545452742061
  0.9757304931970410  0.0726663589667425  0.2930795417906893
  0.7760309437854360  0.1082417474325794  0.3336709249589020
  0.6126826449742495  0.0689502534434396  0.0929229237833269
  0.6147392992575647  0.1984966500134888  0.8276656450665811
  0.7761801579919663  0.3577922839937315  0.8197115756270179
  0.6101865876193813  0.3273582394227859  0.5926099132569007
  0.7738432122534817  0.4857070063571314  0.5768888447384839
  0.9459003345625945  0.2779716099262259  0.3336016729248996
  0.6107724466769398  0.4451093594900257  0.3363472760311979
  0.9469002823609571  0.4010956021746352  0.0942441894456678
  0.3043564506887293  0.7864268814006792  0.5383564104200076
  0.1448233246381321  0.7412522779964448  0.3011362558515600
  0.3086570311051204  0.9069026927593029  0.3012035495042440
  0.4664646688084275  0.8268483295194287  0.7895281427586411
  0.1385971411832827  0.9967014915938037  0.7869677457231816
  0.2968648427221225  0.6664366781398385  0.7847696039877619
  0.4703571615957998  0.9503592162528776  0.5367386620766226
  0.1422768519447501  0.6192014222113329  0.5384242987091383
  0.4760304398862232  0.5763730275457988  0.2979811996458395
  0.2788304823536905  0.6067971174488989  0.3345219524005358
  0.1160955384170563  0.5673337069594666  0.0940217629168458
  0.1118143659666870  0.6979624102892714  0.8212586987066217
  0.2755907639663917  0.8610491908220013  0.8194554610869531
  0.1122973274106158  0.8237214236226293  0.5847943809608367
  0.2735091781001842  0.9870449606920388  0.5790923948689581
  0.4482343121373873  0.7783671283597897  0.3362155076986539
  0.1127044408220712  0.9439683214696259  0.3342697400276364
  0.4474438484787910  0.9013208030791020  0.0958461687146652
  0.8035409138153042  0.7868514356839285  0.5371314897420731
  0.6419678748108879  0.7425283705206809  0.3016729533347231
  0.8084721401727961  0.9076402225953331  0.3000691047995190
  0.9671531416974588  0.8270419704759533  0.7878286825881275
  0.6395492479001206  0.9963164070315003  0.7869077429509304
  0.8024030513118916  0.6649515196584943  0.7813388705868007
  0.9706483411270739  0.9478996908468389  0.5334761554203311
  0.6427232921293964  0.6201043474371275  0.5385379434090467
  0.9767040556394520  0.5724295899646563  0.2932756646361483
  0.7770567510806501  0.6084011742759898  0.3325753190736833
  0.6128888040652427  0.5684070406208903  0.0929818184611406
  0.6128849411765671  0.6939286045036823  0.8225171731460108
  0.7749780323716493  0.8576556825322683  0.8192235109709358
  0.6108205599662284  0.8229471719260104  0.5865699945047496
  0.7722051719255063  0.9849271290141246  0.5768843710574743
  0.9483654597203781  0.7778402041140566  0.3322393618566792
  0.6112686394223701  0.9445424261139621  0.3360781347095738
  0.9490778197124357  0.9010572524249056  0.0919334640004621
  0.4801089822773363  0.2008175725559909  0.0392716014467709
  0.1390826737602850  0.3643600294166234  0.0361828232299430
  0.3097936735297608  0.0266097006459987  0.0400566630486807
  0.2835965490743888  0.2334473661900915  0.0837323203971181
  0.4470579323690487  0.0246979035094625  0.8248374364486253
  0.4424898117202147  0.1616910317411069  0.5871371692397602
  0.9788882111617738  0.1956931478734489  0.0371944092645577
  0.6398752412816435  0.3675344534418201  0.0369224180364540
  0.8082021511788255  0.0240829044615367  0.0373924579701779
  0.7803299839295974  0.2309874982954554  0.0808833387360366
  0.9460593978313270  0.0212289166698199  0.8211352655823063
  0.9446361757638329  0.1518975460036884  0.5719499924201230
  0.4797178961190411  0.6925989792580012  0.0315273361059596
  0.1448213733280141  0.8621162382572223  0.0339031269606522
  0.3129695822861649  0.5184576170201112  0.0290597679899278
  0.2883091202461117  0.7224756185975494  0.0738985328806194
  0.4652581793146311  0.4765989860293232  0.8069568119568444
  0.4448189981761033  0.6487120168854901  0.5835900310861817
  0.9829614324291853  0.6960596798729313  0.0369750584339315
  0.6391093416370666  0.8637500600353505  0.0351107338345997
  0.8101674467969318  0.5250790388473234  0.0380610916110840
  0.7841941164826167  0.7300740209991829  0.0796947360548259
  0.9464785869418222  0.5217678895494942  0.8212461803080515
  0.9450994923099714  0.6527523165859392  0.5709714142800664
  0.2359910420252120  0.3676410661892433  0.6334164140776934
  0.0734086367564828  0.3240338877615159  0.3952881482678592
  0.2392747154173449  0.4892858962126141  0.3955493317449381
  0.4189409735570848  0.2891827666392572  0.1551499574190487
  0.0709163734407028  0.4513720470403939  0.1471051829962917
  0.2377259800645533  0.1063707934006288  0.1497389660743309
  0.3831534102449012  0.4139832755106312  0.9317743281376778
  0.0830400339631936  0.0802554923418981  0.8975570695393102
  0.2326414826783463  0.2429540264778467  0.8793358435308889
  0.3997388979427967  0.0240808577843694  0.6216559316919685
  0.0829255330052305  0.2027196336709238  0.6354037396053016
  0.4052109606445029  0.1563505411636328  0.3727143977497178
  0.2128232042530342  0.1903291856702651  0.4292919485491922
  0.0551390315771059  0.1449770133261197  0.1949429506789784
  0.2155483381861245  0.3177772207825384  0.2013414643255302
  0.3702925794136860  0.1143686061535831  0.9158553971385004
  0.0418128403264291  0.2723490191875797  0.9033262990042275
  0.2021950534362205  0.4380703423330061  0.9022955663327608
  0.3577962845513625  0.2325006153655522  0.6721944775269577
  0.0395546729282188  0.4060472674814690  0.6816253488161337
  0.2080161857483276  0.0656938376483254  0.6742749146069826
  0.3807150940941852  0.3542707402059975  0.4349799169199002
  0.0474357054289882  0.0253959882805574  0.4340389126975381
  0.3869066544772153  0.4809869150259161  0.2112023767219640
  0.7407233479886486  0.3679315300786783  0.6307445701927747
  0.5750671403260483  0.3253579047155810  0.3969420539202702
  0.7399231793416661  0.4897194729013918  0.3883889281963846
  0.9184844849016969  0.2862141976634405  0.1482658852235090
  0.5701781976423348  0.4536033563172879  0.1476423237990829
  0.7370945355755651  0.1043075143749803  0.1479168821519607
  0.9028226626351952  0.3994766108942187  0.9013629946578021
  0.5866165224572910  0.0788710347090884  0.8971187274441235
  0.7402654956384893  0.2425022752282189  0.8726270924057147
  0.8986502551063609  0.0212474750112577  0.6177439314982962
  0.5860212694107503  0.2052996099564481  0.6385074192814670
  0.9045374299942210  0.1552309801984748  0.3653405746712295
  0.7166972771638811  0.1901278977782042  0.4330432975137484
  0.5554437811450157  0.1456479015004462  0.1993368290633555
  0.7170039274756945  0.3165622014464589  0.2012166679908702
  0.8710971536801182  0.1118755587757363  0.9131244779958507
  0.5545201057089528  0.2706722761761071  0.9217143957865090
  0.7142653029921959  0.4400128117306963  0.9023909770223142
  0.8737853330459373  0.2398403194219796  0.6773172651782460
  0.5529145861706724  0.4186597245141925  0.6736818662650848
  0.7118112889171684  0.0667972039474378  0.6729986317788601
  0.8809769302406139  0.3545491719213487  0.4314200704242523
  0.5490350213558770  0.0254235870558333  0.4364741238466507
  0.8871760416003269  0.4763455731320789  0.1982177612730496
  0.2394689055437453  0.8676921369328525  0.6296734435955713
  0.0762257465853438  0.8239285607517814  0.3930714240462976
  0.2401089705910664  0.9889765510885482  0.3886664910496336
  0.4241165878759645  0.7869192307001285  0.1509902609381299
  0.0741034248327779  0.9502422990538832  0.1429303043707577
  0.2380492816323851  0.6008531699046813  0.1509742552260107
  0.4021314110306378  0.8999217187727737  0.9015799236638600
  0.0830078614499996  0.5836615390086450  0.8981366320800888
  0.2322418354726281  0.7485123709942698  0.8737728052779659
  0.4004610763999779  0.5174290801555657  0.6287507196640050
  0.0835439466180432  0.7033206747297243  0.6328320336169924
  0.4065531748911013  0.6579931074312526  0.3762722234743308
  0.2176512791631779  0.6902851247130002  0.4332423469317987
  0.0570424847112676  0.6453441903148089  0.1972454412512050
  0.2195528927703236  0.8136310112239542  0.1970337261162740
  0.3573887446955197  0.6297756502231593  0.9337419288953157
  0.0433281921580715  0.7748014293746408  0.9025918172633496
  0.2108283254798593  0.9412334934422617  0.9040317782217784
  0.3724425101686890  0.7407491811943601  0.6804732037945129
  0.0412395943658836  0.9048470765235521  0.6805980173722190
  0.2108476323378241  0.5694809074629319  0.6758913224946070
  0.3825056087055927  0.8556358371151518  0.4328197542019936
  0.0475489609988529  0.5259949787577440  0.4360191273156602
  0.3879673022897379  0.9773320435366912  0.1993128211522190
  0.7392216137463947  0.8666226293713279  0.6299659236158988
  0.5769196011100632  0.8245812855540890  0.3953357876198638
  0.7403270377306725  0.9882341071960994  0.3872913976239545
  0.9212951379857728  0.7864798899066159  0.1472051642231591
  0.5727300441803820  0.9516632396182274  0.1450532911187423
  0.7373203833042226  0.6046120381567590  0.1471935595213409
  0.9015004636261992  0.8985357830502068  0.8997324672633766
  0.5852215883603265  0.5787152927789450  0.8971062877046805
  0.7366976671130843  0.7426652315392843  0.8735542911255365
  0.8996974603645427  0.5228937714609145  0.6180418561267658
  0.5849504172897042  0.7026073377831850  0.6349264328717368
  0.9053794997611675  0.6556589981738910  0.3643526641315944
  0.7177940915862848  0.6911995891536193  0.4311088002778689
  0.5562994128643552  0.6470230214054595  0.1972405231811294
  0.7176459194163201  0.8155361282595948  0.1966022142288750
  0.8724074859933069  0.6150777207401461  0.9149929501497382
  0.5444820744703378  0.7724712058560783  0.9003233162235276
  0.7103089940927632  0.9373268692382126  0.9030931483885425
  0.8743552324712738  0.7415274363820146  0.6772811636931451
  0.5419243535546912  0.9045734035997555  0.6813148509340365
  0.7173168258890783  0.5718897785223618  0.6719245646492524
  0.8821316163994197  0.8541845556243430  0.4296411944082550
  0.5493811541366398  0.5290287564197413  0.4346267720690520
  0.8881371413872827  0.9758408476841112  0.1956440694693455
 
  0.00000000E+00  0.00000000E+00  0.00000000E+00
  0.00000000E+00  0.00000000E+00  0.00000000E+00
  0.00000000E+00  0.00000000E+00  0.00000000E+00
  0.00000000E+00  0.00000000E+00  0.00000000E+00
  0.00000000E+00  0.00000000E+00  0.00000000E+00
  0.00000000E+00  0.00000000E+00  0.00000000E+00
  0.00000000E+00  0.00000000E+00  0.00000000E+00
  0.00000000E+00  0.00000000E+00  0.00000000E+00
  0.00000000E+00  0.00000000E+00  0.00000000E+00
  0.00000000E+00  0.00000000E+00  0.00000000E+00
  0.00000000E+00  0.00000000E+00  0.00000000E+00
  0.00000000E+00  0.00000000E+00  0.00000000E+00
  0.00000000E+00  0.00000000E+00  0.00000000E+00
  0.00000000E+00  0.00000000E+00  0.00000000E+00
  0.00000000E+00  0.00000000E+00  0.00000000E+00
  0.00000000E+00  0.00000000E+00  0.00000000E+00
  0.00000000E+00  0.00000000E+00  0.00000000E+00
  0.00000000E+00  0.00000000E+00  0.00000000E+00
  0.00000000E+00  0.00000000E+00  0.00000000E+00
  0.00000000E+00  0.00000000E+00  0.00000000E+00
  0.00000000E+00  0.00000000E+00  0.00000000E+00
  0.00000000E+00  0.00000000E+00  0.00000000E+00
  0.00000000E+00  0.00000000E+00  0.00000000E+00
  0.00000000E+00  0.00000000E+00  0.00000000E+00
  0.00000000E+00  0.00000000E+00  0.00000000E+00
  0.00000000E+00  0.00000000E+00  0.00000000E+00
  0.00000000E+00  0.00000000E+00  0.00000000E+00
  0.00000000E+00  0.00000000E+00  0.00000000E+00
  0.00000000E+00  0.00000000E+00  0.00000000E+00
  0.00000000E+00  0.00000000E+00  0.00000000E+00
  0.00000000E+00  0.00000000E+00  0.00000000E+00
  0.00000000E+00  0.00000000E+00  0.00000000E+00
  0.00000000E+00  0.00000000E+00  0.00000000E+00
  0.00000000E+00  0.00000000E+00  0.00000000E+00
  0.00000000E+00  0.00000000E+00  0.00000000E+00
  0.00000000E+00  0.00000000E+00  0.00000000E+00
  0.00000000E+00  0.00000000E+00  0.00000000E+00
  0.00000000E+00  0.00000000E+00  0.00000000E+00
  0.00000000E+00  0.00000000E+00  0.00000000E+00
  0.00000000E+00  0.00000000E+00  0.00000000E+00
  0.00000000E+00  0.00000000E+00  0.00000000E+00
  0.00000000E+00  0.00000000E+00  0.00000000E+00
  0.00000000E+00  0.00000000E+00  0.00000000E+00
  0.00000000E+00  0.00000000E+00  0.00000000E+00
  0.00000000E+00  0.00000000E+00  0.00000000E+00
  0.00000000E+00  0.00000000E+00  0.00000000E+00
  0.00000000E+00  0.00000000E+00  0.00000000E+00
  0.00000000E+00  0.00000000E+00  0.00000000E+00
  0.00000000E+00  0.00000000E+00  0.00000000E+00
  0.00000000E+00  0.00000000E+00  0.00000000E+00
  0.00000000E+00  0.00000000E+00  0.00000000E+00
  0.00000000E+00  0.00000000E+00  0.00000000E+00
  0.00000000E+00  0.00000000E+00  0.00000000E+00
  0.00000000E+00  0.00000000E+00  0.00000000E+00
  0.00000000E+00  0.00000000E+00  0.00000000E+00
  0.00000000E+00  0.00000000E+00  0.00000000E+00
  0.00000000E+00  0.00000000E+00  0.00000000E+00
  0.00000000E+00  0.00000000E+00  0.00000000E+00
  0.00000000E+00  0.00000000E+00  0.00000000E+00
  0.00000000E+00  0.00000000E+00  0.00000000E+00
  0.00000000E+00  0.00000000E+00  0.00000000E+00
  0.00000000E+00  0.00000000E+00  0.00000000E+00
  0.00000000E+00  0.00000000E+00  0.00000000E+00
  0.00000000E+00  0.00000000E+00  0.00000000E+00
  0.00000000E+00  0.00000000E+00  0.00000000E+00
  0.00000000E+00  0.00000000E+00  0.00000000E+00
  0.00000000E+00  0.00000000E+00  0.00000000E+00
  0.00000000E+00  0.00000000E+00  0.00000000E+00
  0.00000000E+00  0.00000000E+00  0.00000000E+00
  0.00000000E+00  0.00000000E+00  0.00000000E+00
  0.00000000E+00  0.00000000E+00  0.00000000E+00
  0.00000000E+00  0.00000000E+00  0.00000000E+00
  0.00000000E+00  0.00000000E+00  0.00000000E+00
  0.00000000E+00  0.00000000E+00  0.00000000E+00
  0.00000000E+00  0.00000000E+00  0.00000000E+00
  0.00000000E+00  0.00000000E+00  0.00000000E+00
  0.00000000E+00  0.00000000E+00  0.00000000E+00
  0.00000000E+00  0.00000000E+00  0.00000000E+00
  0.00000000E+00  0.00000000E+00  0.00000000E+00
  0.00000000E+00  0.00000000E+00  0.00000000E+00
  0.00000000E+00  0.00000000E+00  0.00000000E+00
  0.00000000E+00  0.00000000E+00  0.00000000E+00
  0.00000000E+00  0.00000000E+00  0.00000000E+00
  0.00000000E+00  0.00000000E+00  0.00000000E+00
  0.00000000E+00  0.00000000E+00  0.00000000E+00
  0.00000000E+00  0.00000000E+00  0.00000000E+00
  0.00000000E+00  0.00000000E+00  0.00000000E+00
  0.00000000E+00  0.00000000E+00  0.00000000E+00
  0.00000000E+00  0.00000000E+00  0.00000000E+00
  0.00000000E+00  0.00000000E+00  0.00000000E+00
  0.00000000E+00  0.00000000E+00  0.00000000E+00
  0.00000000E+00  0.00000000E+00  0.00000000E+00
  0.00000000E+00  0.00000000E+00  0.00000000E+00
  0.00000000E+00  0.00000000E+00  0.00000000E+00
  0.00000000E+00  0.00000000E+00  0.00000000E+00
  0.00000000E+00  0.00000000E+00  0.00000000E+00
  0.00000000E+00  0.00000000E+00  0.00000000E+00
  0.00000000E+00  0.00000000E+00  0.00000000E+00
  0.00000000E+00  0.00000000E+00  0.00000000E+00
  0.00000000E+00  0.00000000E+00  0.00000000E+00
  0.00000000E+00  0.00000000E+00  0.00000000E+00
  0.00000000E+00  0.00000000E+00  0.00000000E+00
  0.00000000E+00  0.00000000E+00  0.00000000E+00
  0.00000000E+00  0.00000000E+00  0.00000000E+00
  0.00000000E+00  0.00000000E+00  0.00000000E+00
  0.00000000E+00  0.00000000E+00  0.00000000E+00
  0.00000000E+00  0.00000000E+00  0.00000000E+00
  0.00000000E+00  0.00000000E+00  0.00000000E+00
  0.00000000E+00  0.00000000E+00  0.00000000E+00
  0.00000000E+00  0.00000000E+00  0.00000000E+00
  0.00000000E+00  0.00000000E+00  0.00000000E+00
  0.00000000E+00  0.00000000E+00  0.00000000E+00
  0.00000000E+00  0.00000000E+00  0.00000000E+00
  0.00000000E+00  0.00000000E+00  0.00000000E+00
  0.00000000E+00  0.00000000E+00  0.00000000E+00
  0.00000000E+00  0.00000000E+00  0.00000000E+00
  0.00000000E+00  0.00000000E+00  0.00000000E+00
  0.00000000E+00  0.00000000E+00  0.00000000E+00
  0.00000000E+00  0.00000000E+00  0.00000000E+00
  0.00000000E+00  0.00000000E+00  0.00000000E+00
  0.00000000E+00  0.00000000E+00  0.00000000E+00
  0.00000000E+00  0.00000000E+00  0.00000000E+00
  0.00000000E+00  0.00000000E+00  0.00000000E+00
  0.00000000E+00  0.00000000E+00  0.00000000E+00
  0.00000000E+00  0.00000000E+00  0.00000000E+00
  0.00000000E+00  0.00000000E+00  0.00000000E+00
  0.00000000E+00  0.00000000E+00  0.00000000E+00
  0.00000000E+00  0.00000000E+00  0.00000000E+00
  0.00000000E+00  0.00000000E+00  0.00000000E+00
  0.00000000E+00  0.00000000E+00  0.00000000E+00
  0.00000000E+00  0.00000000E+00  0.00000000E+00
  0.00000000E+00  0.00000000E+00  0.00000000E+00
  0.00000000E+00  0.00000000E+00  0.00000000E+00
  0.00000000E+00  0.00000000E+00  0.00000000E+00
  0.00000000E+00  0.00000000E+00  0.00000000E+00
  0.00000000E+00  0.00000000E+00  0.00000000E+00
  0.00000000E+00  0.00000000E+00  0.00000000E+00
  0.00000000E+00  0.00000000E+00  0.00000000E+00
  0.00000000E+00  0.00000000E+00  0.00000000E+00
  0.00000000E+00  0.00000000E+00  0.00000000E+00
  0.00000000E+00  0.00000000E+00  0.00000000E+00
  0.00000000E+00  0.00000000E+00  0.00000000E+00
  0.00000000E+00  0.00000000E+00  0.00000000E+00
  0.00000000E+00  0.00000000E+00  0.00000000E+00
  0.00000000E+00  0.00000000E+00  0.00000000E+00
  0.00000000E+00  0.00000000E+00  0.00000000E+00
  0.00000000E+00  0.00000000E+00  0.00000000E+00
  0.00000000E+00  0.00000000E+00  0.00000000E+00
  0.00000000E+00  0.00000000E+00  0.00000000E+00
  0.00000000E+00  0.00000000E+00  0.00000000E+00
  0.00000000E+00  0.00000000E+00  0.00000000E+00
  0.00000000E+00  0.00000000E+00  0.00000000E+00
  0.00000000E+00  0.00000000E+00  0.00000000E+00
  0.00000000E+00  0.00000000E+00  0.00000000E+00
  0.00000000E+00  0.00000000E+00  0.00000000E+00
  0.00000000E+00  0.00000000E+00  0.00000000E+00
  0.00000000E+00  0.00000000E+00  0.00000000E+00
  0.00000000E+00  0.00000000E+00  0.00000000E+00
  0.00000000E+00  0.00000000E+00  0.00000000E+00
  0.00000000E+00  0.00000000E+00  0.00000000E+00
  0.00000000E+00  0.00000000E+00  0.00000000E+00
  0.00000000E+00  0.00000000E+00  0.00000000E+00
  0.00000000E+00  0.00000000E+00  0.00000000E+00
  0.00000000E+00  0.00000000E+00  0.00000000E+00
  0.00000000E+00  0.00000000E+00  0.00000000E+00
  0.00000000E+00  0.00000000E+00  0.00000000E+00
  0.00000000E+00  0.00000000E+00  0.00000000E+00
  0.00000000E+00  0.00000000E+00  0.00000000E+00
  0.00000000E+00  0.00000000E+00  0.00000000E+00
  0.00000000E+00  0.00000000E+00  0.00000000E+00
  0.00000000E+00  0.00000000E+00  0.00000000E+00
  0.00000000E+00  0.00000000E+00  0.00000000E+00
  0.00000000E+00  0.00000000E+00  0.00000000E+00
  0.00000000E+00  0.00000000E+00  0.00000000E+00
  0.00000000E+00  0.00000000E+00  0.00000000E+00
  0.00000000E+00  0.00000000E+00  0.00000000E+00
  0.00000000E+00  0.00000000E+00  0.00000000E+00
  0.00000000E+00  0.00000000E+00  0.00000000E+00
  0.00000000E+00  0.00000000E+00  0.00000000E+00
  0.00000000E+00  0.00000000E+00  0.00000000E+00
  0.00000000E+00  0.00000000E+00  0.00000000E+00
  0.00000000E+00  0.00000000E+00  0.00000000E+00
  0.00000000E+00  0.00000000E+00  0.00000000E+00
  0.00000000E+00  0.00000000E+00  0.00000000E+00
  0.00000000E+00  0.00000000E+00  0.00000000E+00
  0.00000000E+00  0.00000000E+00  0.00000000E+00
  0.00000000E+00  0.00000000E+00  0.00000000E+00
  0.00000000E+00  0.00000000E+00  0.00000000E+00
  0.00000000E+00  0.00000000E+00  0.00000000E+00
  0.00000000E+00  0.00000000E+00  0.00000000E+00
  0.00000000E+00  0.00000000E+00  0.00000000E+00
