supercell of POSCAR                     
   1.07329600000000     
     9.1016125577399993   -5.3128209557800004   -9.4184911254399992
     9.0821131104399999    5.2871675818400004    9.4140884809200003
    -1.5053809694200000   -7.9210976524300012    4.6939078171600004
   Al   Sc   N 
    72    23    96
Direct
  0.3032964196913142  0.2859817515648686  0.5406647681736274
  0.1423366646332909  0.2411166387463837  0.3044512177208816
  0.3092026481424597  0.4074792220884760  0.3034216299286641
  0.4663440309643647  0.3256167066848192  0.7910995633666786
  0.1421595272588050  0.4954559249035313  0.7859041360882699
  0.2981141128118452  0.1656451248995623  0.7872949536329514
  0.4699473677761787  0.4484476382627776  0.5360876334622091
  0.1413165673471468  0.1194745432541069  0.5410048774684810
  0.4731121635505886  0.0769676084221373  0.3051822398154016
  0.2793010273560412  0.1086386389887721  0.3384809853119819
  0.1121476532917427  0.0672064666307222  0.0932492674881473
  0.1113098177353820  0.1955895126992502  0.8249519681828161
  0.2829555598651510  0.3494799084035023  0.8104177861790660
  0.1101507501948191  0.3237708000955379  0.5861475471528337
  0.2720445322354550  0.4855882023873050  0.5769268304522868
  0.4466505823768117  0.2758414024928015  0.3407156715407496
  0.1125111914913717  0.4423472571902636  0.3328308338512755
  0.4494631679743577  0.4045400051577204  0.0977370088517233
  0.8006341758934283  0.2859840467220778  0.5394520580189877
  0.6412915789768689  0.2419430670587914  0.3062697426747008
  0.8081639070858486  0.4073010223555897  0.3017705763483747
  0.9651985495918467  0.3263466425717851  0.7895697388928227
  0.6398270879190093  0.4972084099083034  0.7870108157043560
  0.7966094554237273  0.1631345465947831  0.7824042676624714
  0.9700924824392629  0.4475861388486777  0.5337756942964518
  0.6347683366856529  0.1212711279026095  0.5431865536430891
  0.9750805216466745  0.0725214805580379  0.2952041663031650
  0.7752276985208013  0.1076650647094368  0.3354953291872107
  0.6130875151514630  0.0684483142598680  0.0934148299292374
  0.6107629363458855  0.1974614299457400  0.8214289971805115
  0.7738694396872745  0.3577978518488223  0.8192938375591368
  0.6082249287167940  0.3200873671214879  0.5886509661999639
  0.7727183150190768  0.4850116078563502  0.5780308431941066
  0.9461826694886710  0.2772940687556797  0.3341226611340957
  0.6117407848203342  0.4436836457871181  0.3374665793850724
  0.9491367869291381  0.4004944038639451  0.0929358076115179
  0.3036047534511823  0.7885954200459011  0.5385639106919555
  0.1431884814825111  0.7414314541329077  0.3022345963034496
  0.3085888008405675  0.9083330463166561  0.3036543306268982
  0.4673750354999768  0.8312707917016908  0.7888834727665355
  0.1394256360118646  0.9972390458902396  0.7883580992708943
  0.3009339804029949  0.6645302792934373  0.7812674051008486
  0.4684163810285966  0.9533580275660682  0.5383413592607269
  0.1424037565687257  0.6188813781759777  0.5375824249843006
  0.4767355108171358  0.5739968594050211  0.2953866610361047
  0.2784492862512806  0.6076573585233263  0.3312781742525388
  0.1165145563225281  0.5657983708244316  0.0910321218608416
  0.1150979793174614  0.6963868603524830  0.8218516772983691
  0.2772658631213005  0.8609391299749163  0.8190954182672812
  0.1110676375393425  0.8231578610652477  0.5859266832318397
  0.2741819645120387  0.9873842155468822  0.5803455494992988
  0.4479347592273442  0.7795242111215472  0.3338604915253356
  0.1117927268856107  0.9441267454176412  0.3362636417374318
  0.4478495594652543  0.9031898081661467  0.0936969038072348
  0.8034565897309349  0.7862651155292539  0.5380164747834755
  0.6427497074747279  0.7422391412107174  0.3027346520232044
  0.8076644387208560  0.9073353399016071  0.3014478026311878
  0.9673882789450161  0.8260978796885752  0.7889735687615556
  0.6384985990892815  0.9978559788097172  0.7875386465683718
  0.8006522960891900  0.6625535075427464  0.7808956001240475
  0.9698716940271268  0.9478700728509963  0.5350596740033069
  0.6418899166777479  0.6193061870418930  0.5389022287588219
  0.9770444771003781  0.5721721044257961  0.2934488462246350
  0.7778893629550154  0.6076189378732479  0.3328375148916365
  0.6156242440861917  0.5686559404744216  0.0930420747920948
  0.6138860459142990  0.6976823400604175  0.8220152530020428
  0.7751605881203574  0.8582258758216952  0.8188172332219779
  0.6109238887239812  0.8246773200567787  0.5858432564553340
  0.7710989899868750  0.9856100338085483  0.5779167947676527
  0.9476276681043814  0.7775292451544686  0.3329598040503399
  0.6102173948503236  0.9452584658737422  0.3365909067325603
  0.9472920938509546  0.9006165782990792  0.0933707909340313
  0.4809292768096256  0.1989523026866991  0.0468697173612043
  0.1460392023248218  0.3599222197545160  0.0293340864240506
  0.3099393448461925  0.0257115525776328  0.0435895962289408
  0.2869663660471673  0.2278881250606020  0.0897556841358025
  0.4444322790632285  0.0314275364644061  0.8196670024050192
  0.9797314741563596  0.1963543218307322  0.0383293647543113
  0.6407200039824588  0.3649090581781849  0.0368550384321225
  0.8084706029097788  0.0244402721528658  0.0383733949678842
  0.7819191613544376  0.2296562181003452  0.0827326371585144
  0.9446134727520814  0.0215030669443550  0.8219570336662017
  0.9433347713674820  0.1527370608476346  0.5745700217933134
  0.4824446704638774  0.6971271781285608  0.0364562886447857
  0.1421458364505881  0.8650151753210480  0.0356947654252266
  0.3121980507580986  0.5210365514643485  0.0318782450182553
  0.2852861137909812  0.7295267235555798  0.0797626752922227
  0.4488469863574522  0.5225056428209882  0.8207826634777362
  0.4448168930659762  0.6544849552880407  0.5738777463130589
  0.9830696575208435  0.6955184056002608  0.0367238497775162
  0.6409293715567728  0.8652499246894578  0.0357063226575605
  0.8111684275975648  0.5233392136695372  0.0360530261475986
  0.7843565581949505  0.7296210406440338  0.0790758772892204
  0.9489178928720108  0.5209719728627960  0.8200181542193903
  0.9453280905394621  0.6523143139794740  0.5721049365563715
  0.2346000839818387  0.3692349081992745  0.6256122507771167
  0.0735462651273906  0.3234431015492447  0.3939962490160980
  0.2397006332595311  0.4894513705793528  0.3874064878930810
  0.4231721230819900  0.2920635859318352  0.1540773652438432
  0.0744794332242193  0.4486053130010816  0.1412050191843335
  0.2334696451010032  0.1015619753781820  0.1505114016492612
  0.4044739126432546  0.4067584821266976  0.9100311194001662
  0.0814293119245662  0.0797267099625856  0.8978310855635456
  0.2310852095150580  0.2441861294452252  0.8886266118118940
  0.3954939231311627  0.0163886328066667  0.6254764393669987
  0.0825680414665584  0.2031004498087796  0.6364028558534969
  0.4001394884411056  0.1569498334827628  0.3519035508844652
  0.2155844021941533  0.1899636547539814  0.4348904547982073
  0.0545888859253196  0.1452566660374757  0.1977076391166293
  0.2175778450220136  0.3151114167978619  0.2020875596569311
  0.3685723899994073  0.1198762365671584  0.9246361823642459
  0.0414166032718271  0.2730389234721571  0.9030882342154527
  0.2131250925294310  0.4361145249851361  0.8980039055567914
  0.3567932863086369  0.2604135341897091  0.7054791384352512
  0.0398311715834438  0.4059187679795073  0.6828355189026354
  0.2100541438254453  0.0690698771336073  0.6773073864433456
  0.3815318234157346  0.3553916721830888  0.4347465275047924
  0.0471314778228091  0.0253330165037298  0.4362868746141615
  0.3879013839277832  0.4785459972883928  0.2011181077201343
  0.7387257110276693  0.3684307573661059  0.6311516817509499
  0.5759678058722244  0.3256022324809180  0.3969857373937486
  0.7406441860114867  0.4891746972962849  0.3886776754927794
  0.9191745597864909  0.2864760414154190  0.1490566244209646
  0.5746541939045997  0.4535183733197599  0.1476416147957380
  0.7376169559802577  0.1032814914180307  0.1492397874842482
  0.9010469061228932  0.4002362526257102  0.9013775819344545
  0.5863882211401261  0.0820432757264129  0.8995016619164389
  0.7363478112102726  0.2445954053221868  0.8789167516489655
  0.8980388989726222  0.0214836226155342  0.6185694707026883
  0.5883228988410920  0.2063939171508977  0.6407121437532339
  0.9041735681396617  0.1550471743984758  0.3674746175113128
  0.7162474664844751  0.1895294674977990  0.4338314522145410
  0.5577460422177651  0.1453546315821441  0.2009048659095356
  0.7165622150875350  0.3157580997627392  0.2000986115614722
  0.8701531113220682  0.1138721416533670  0.9148531447399861
  0.5433703529232474  0.2743196128853995  0.9084498203765108
  0.7102890990368138  0.4393840333160099  0.9038542136221466
  0.8713938408615007  0.2405551779796653  0.6801106401300174
  0.5406186254697829  0.4076612567529949  0.6852374375975145
  0.7108708923534977  0.0671550995026067  0.6739080192960003
  0.8807732715617078  0.3538040951403971  0.4321607929705635
  0.5484392200657027  0.0240507920143145  0.4350957590865221
  0.8887016329827659  0.4756591015370688  0.1975125233113246
  0.2365961583134961  0.8664997820968381  0.6300920743277487
  0.0750251889154256  0.8230966853680357  0.3936894486848956
  0.2382700128733433  0.9877789595231761  0.3898463827751826
  0.4219839476893981  0.7870285428579322  0.1473835705063280
  0.0712270271360396  0.9500385971478451  0.1449407184542153
  0.2399515927822051  0.6029820057161075  0.1448994799444563
  0.4028663957801086  0.9030730252596797  0.9012866973527949
  0.0864526657924287  0.5811146246224652  0.8967826510877401
  0.2375413810992626  0.7449924977064484  0.8741825907143550
  0.3982970682412130  0.5238173915282474  0.6183258574715325
  0.0840480110492976  0.7021284200799229  0.6338397267042026
  0.4062219822431175  0.6569534452289361  0.3668410500292723
  0.2179407100240880  0.6901597299622111  0.4316402669760180
  0.0580251424608207  0.6437924026042054  0.1959273928330916
  0.2174245250007090  0.8145998897607782  0.1974863019416873
  0.3727107394094418  0.6157822375941180  0.9135460440868073
  0.0454699955843054  0.7733120527669186  0.9023764944526675
  0.2110061606064164  0.9398699717153747  0.9043881637927740
  0.3736169450078606  0.7428128971201389  0.6794917522078023
  0.0410381251043574  0.9047770087107949  0.6817216228035434
  0.2120623872208753  0.5692439082883780  0.6737127273289829
  0.3822022875953266  0.8543052377898377  0.4310040049925021
  0.0483513681579666  0.5248187028510287  0.4345180019099359
  0.3880298017750690  0.9754938593208990  0.2002923081560795
  0.7395257583901085  0.8663718534036207  0.6296285155499461
  0.5765703430315057  0.8234941894528660  0.3934491447965272
  0.7398226803240249  0.9874590056682919  0.3880052487578212
  0.9213070008799065  0.7854111593913728  0.1472951171977073
  0.5732281817225697  0.9509252365825347  0.1443357649732491
  0.7397299135889881  0.6040625743836472  0.1468582528963509
  0.9016782685211453  0.8979819759967498  0.9005405143751162
  0.5866912304742513  0.5833010727917411  0.8986175114275454
  0.7374266523062616  0.7431042669343881  0.8728664507580319
  0.8991911823774927  0.5224038371722273  0.6180228348600778
  0.5848429310271968  0.7032426789795068  0.6340592897481727
  0.9060855470309903  0.6551669724370086  0.3651593846603518
  0.7179314367351921  0.6898174652678151  0.4318676496777272
  0.5575966061421838  0.6460044533103826  0.1969574501523041
  0.7179865240068466  0.8143518038185817  0.1966870981349800
  0.8731758185411849  0.6137486668706558  0.9132899866307085
  0.5447665764888328  0.7749226084864134  0.9014320382860745
  0.7107920545256832  0.9384134085213987  0.9026546380608238
  0.8738192308952648  0.7400785821782563  0.6781338396704157
  0.5436815512252124  0.9052178455097390  0.6802903669208149
  0.7121588082256736  0.5680228371904690  0.6738401885867162
  0.8818324433944795  0.8536907031811651  0.4305041209453506
  0.5484361755769456  0.5263460683099765  0.4368387063329990
  0.8872703414593985  0.9755293447400248  0.1972510140753840
 
  0.00000000E+00  0.00000000E+00  0.00000000E+00
  0.00000000E+00  0.00000000E+00  0.00000000E+00
  0.00000000E+00  0.00000000E+00  0.00000000E+00
  0.00000000E+00  0.00000000E+00  0.00000000E+00
  0.00000000E+00  0.00000000E+00  0.00000000E+00
  0.00000000E+00  0.00000000E+00  0.00000000E+00
  0.00000000E+00  0.00000000E+00  0.00000000E+00
  0.00000000E+00  0.00000000E+00  0.00000000E+00
  0.00000000E+00  0.00000000E+00  0.00000000E+00
  0.00000000E+00  0.00000000E+00  0.00000000E+00
  0.00000000E+00  0.00000000E+00  0.00000000E+00
  0.00000000E+00  0.00000000E+00  0.00000000E+00
  0.00000000E+00  0.00000000E+00  0.00000000E+00
  0.00000000E+00  0.00000000E+00  0.00000000E+00
  0.00000000E+00  0.00000000E+00  0.00000000E+00
  0.00000000E+00  0.00000000E+00  0.00000000E+00
  0.00000000E+00  0.00000000E+00  0.00000000E+00
  0.00000000E+00  0.00000000E+00  0.00000000E+00
  0.00000000E+00  0.00000000E+00  0.00000000E+00
  0.00000000E+00  0.00000000E+00  0.00000000E+00
  0.00000000E+00  0.00000000E+00  0.00000000E+00
  0.00000000E+00  0.00000000E+00  0.00000000E+00
  0.00000000E+00  0.00000000E+00  0.00000000E+00
  0.00000000E+00  0.00000000E+00  0.00000000E+00
  0.00000000E+00  0.00000000E+00  0.00000000E+00
  0.00000000E+00  0.00000000E+00  0.00000000E+00
  0.00000000E+00  0.00000000E+00  0.00000000E+00
  0.00000000E+00  0.00000000E+00  0.00000000E+00
  0.00000000E+00  0.00000000E+00  0.00000000E+00
  0.00000000E+00  0.00000000E+00  0.00000000E+00
  0.00000000E+00  0.00000000E+00  0.00000000E+00
  0.00000000E+00  0.00000000E+00  0.00000000E+00
  0.00000000E+00  0.00000000E+00  0.00000000E+00
  0.00000000E+00  0.00000000E+00  0.00000000E+00
  0.00000000E+00  0.00000000E+00  0.00000000E+00
  0.00000000E+00  0.00000000E+00  0.00000000E+00
  0.00000000E+00  0.00000000E+00  0.00000000E+00
  0.00000000E+00  0.00000000E+00  0.00000000E+00
  0.00000000E+00  0.00000000E+00  0.00000000E+00
  0.00000000E+00  0.00000000E+00  0.00000000E+00
  0.00000000E+00  0.00000000E+00  0.00000000E+00
  0.00000000E+00  0.00000000E+00  0.00000000E+00
  0.00000000E+00  0.00000000E+00  0.00000000E+00
  0.00000000E+00  0.00000000E+00  0.00000000E+00
  0.00000000E+00  0.00000000E+00  0.00000000E+00
  0.00000000E+00  0.00000000E+00  0.00000000E+00
  0.00000000E+00  0.00000000E+00  0.00000000E+00
  0.00000000E+00  0.00000000E+00  0.00000000E+00
  0.00000000E+00  0.00000000E+00  0.00000000E+00
  0.00000000E+00  0.00000000E+00  0.00000000E+00
  0.00000000E+00  0.00000000E+00  0.00000000E+00
  0.00000000E+00  0.00000000E+00  0.00000000E+00
  0.00000000E+00  0.00000000E+00  0.00000000E+00
  0.00000000E+00  0.00000000E+00  0.00000000E+00
  0.00000000E+00  0.00000000E+00  0.00000000E+00
  0.00000000E+00  0.00000000E+00  0.00000000E+00
  0.00000000E+00  0.00000000E+00  0.00000000E+00
  0.00000000E+00  0.00000000E+00  0.00000000E+00
  0.00000000E+00  0.00000000E+00  0.00000000E+00
  0.00000000E+00  0.00000000E+00  0.00000000E+00
  0.00000000E+00  0.00000000E+00  0.00000000E+00
  0.00000000E+00  0.00000000E+00  0.00000000E+00
  0.00000000E+00  0.00000000E+00  0.00000000E+00
  0.00000000E+00  0.00000000E+00  0.00000000E+00
  0.00000000E+00  0.00000000E+00  0.00000000E+00
  0.00000000E+00  0.00000000E+00  0.00000000E+00
  0.00000000E+00  0.00000000E+00  0.00000000E+00
  0.00000000E+00  0.00000000E+00  0.00000000E+00
  0.00000000E+00  0.00000000E+00  0.00000000E+00
  0.00000000E+00  0.00000000E+00  0.00000000E+00
  0.00000000E+00  0.00000000E+00  0.00000000E+00
  0.00000000E+00  0.00000000E+00  0.00000000E+00
  0.00000000E+00  0.00000000E+00  0.00000000E+00
  0.00000000E+00  0.00000000E+00  0.00000000E+00
  0.00000000E+00  0.00000000E+00  0.00000000E+00
  0.00000000E+00  0.00000000E+00  0.00000000E+00
  0.00000000E+00  0.00000000E+00  0.00000000E+00
  0.00000000E+00  0.00000000E+00  0.00000000E+00
  0.00000000E+00  0.00000000E+00  0.00000000E+00
  0.00000000E+00  0.00000000E+00  0.00000000E+00
  0.00000000E+00  0.00000000E+00  0.00000000E+00
  0.00000000E+00  0.00000000E+00  0.00000000E+00
  0.00000000E+00  0.00000000E+00  0.00000000E+00
  0.00000000E+00  0.00000000E+00  0.00000000E+00
  0.00000000E+00  0.00000000E+00  0.00000000E+00
  0.00000000E+00  0.00000000E+00  0.00000000E+00
  0.00000000E+00  0.00000000E+00  0.00000000E+00
  0.00000000E+00  0.00000000E+00  0.00000000E+00
  0.00000000E+00  0.00000000E+00  0.00000000E+00
  0.00000000E+00  0.00000000E+00  0.00000000E+00
  0.00000000E+00  0.00000000E+00  0.00000000E+00
  0.00000000E+00  0.00000000E+00  0.00000000E+00
  0.00000000E+00  0.00000000E+00  0.00000000E+00
  0.00000000E+00  0.00000000E+00  0.00000000E+00
  0.00000000E+00  0.00000000E+00  0.00000000E+00
  0.00000000E+00  0.00000000E+00  0.00000000E+00
  0.00000000E+00  0.00000000E+00  0.00000000E+00
  0.00000000E+00  0.00000000E+00  0.00000000E+00
  0.00000000E+00  0.00000000E+00  0.00000000E+00
  0.00000000E+00  0.00000000E+00  0.00000000E+00
  0.00000000E+00  0.00000000E+00  0.00000000E+00
  0.00000000E+00  0.00000000E+00  0.00000000E+00
  0.00000000E+00  0.00000000E+00  0.00000000E+00
  0.00000000E+00  0.00000000E+00  0.00000000E+00
  0.00000000E+00  0.00000000E+00  0.00000000E+00
  0.00000000E+00  0.00000000E+00  0.00000000E+00
  0.00000000E+00  0.00000000E+00  0.00000000E+00
  0.00000000E+00  0.00000000E+00  0.00000000E+00
  0.00000000E+00  0.00000000E+00  0.00000000E+00
  0.00000000E+00  0.00000000E+00  0.00000000E+00
  0.00000000E+00  0.00000000E+00  0.00000000E+00
  0.00000000E+00  0.00000000E+00  0.00000000E+00
  0.00000000E+00  0.00000000E+00  0.00000000E+00
  0.00000000E+00  0.00000000E+00  0.00000000E+00
  0.00000000E+00  0.00000000E+00  0.00000000E+00
  0.00000000E+00  0.00000000E+00  0.00000000E+00
  0.00000000E+00  0.00000000E+00  0.00000000E+00
  0.00000000E+00  0.00000000E+00  0.00000000E+00
  0.00000000E+00  0.00000000E+00  0.00000000E+00
  0.00000000E+00  0.00000000E+00  0.00000000E+00
  0.00000000E+00  0.00000000E+00  0.00000000E+00
  0.00000000E+00  0.00000000E+00  0.00000000E+00
  0.00000000E+00  0.00000000E+00  0.00000000E+00
  0.00000000E+00  0.00000000E+00  0.00000000E+00
  0.00000000E+00  0.00000000E+00  0.00000000E+00
  0.00000000E+00  0.00000000E+00  0.00000000E+00
  0.00000000E+00  0.00000000E+00  0.00000000E+00
  0.00000000E+00  0.00000000E+00  0.00000000E+00
  0.00000000E+00  0.00000000E+00  0.00000000E+00
  0.00000000E+00  0.00000000E+00  0.00000000E+00
  0.00000000E+00  0.00000000E+00  0.00000000E+00
  0.00000000E+00  0.00000000E+00  0.00000000E+00
  0.00000000E+00  0.00000000E+00  0.00000000E+00
  0.00000000E+00  0.00000000E+00  0.00000000E+00
  0.00000000E+00  0.00000000E+00  0.00000000E+00
  0.00000000E+00  0.00000000E+00  0.00000000E+00
  0.00000000E+00  0.00000000E+00  0.00000000E+00
  0.00000000E+00  0.00000000E+00  0.00000000E+00
  0.00000000E+00  0.00000000E+00  0.00000000E+00
  0.00000000E+00  0.00000000E+00  0.00000000E+00
  0.00000000E+00  0.00000000E+00  0.00000000E+00
  0.00000000E+00  0.00000000E+00  0.00000000E+00
  0.00000000E+00  0.00000000E+00  0.00000000E+00
  0.00000000E+00  0.00000000E+00  0.00000000E+00
  0.00000000E+00  0.00000000E+00  0.00000000E+00
  0.00000000E+00  0.00000000E+00  0.00000000E+00
  0.00000000E+00  0.00000000E+00  0.00000000E+00
  0.00000000E+00  0.00000000E+00  0.00000000E+00
  0.00000000E+00  0.00000000E+00  0.00000000E+00
  0.00000000E+00  0.00000000E+00  0.00000000E+00
  0.00000000E+00  0.00000000E+00  0.00000000E+00
  0.00000000E+00  0.00000000E+00  0.00000000E+00
  0.00000000E+00  0.00000000E+00  0.00000000E+00
  0.00000000E+00  0.00000000E+00  0.00000000E+00
  0.00000000E+00  0.00000000E+00  0.00000000E+00
  0.00000000E+00  0.00000000E+00  0.00000000E+00
  0.00000000E+00  0.00000000E+00  0.00000000E+00
  0.00000000E+00  0.00000000E+00  0.00000000E+00
  0.00000000E+00  0.00000000E+00  0.00000000E+00
  0.00000000E+00  0.00000000E+00  0.00000000E+00
  0.00000000E+00  0.00000000E+00  0.00000000E+00
  0.00000000E+00  0.00000000E+00  0.00000000E+00
  0.00000000E+00  0.00000000E+00  0.00000000E+00
  0.00000000E+00  0.00000000E+00  0.00000000E+00
  0.00000000E+00  0.00000000E+00  0.00000000E+00
  0.00000000E+00  0.00000000E+00  0.00000000E+00
  0.00000000E+00  0.00000000E+00  0.00000000E+00
  0.00000000E+00  0.00000000E+00  0.00000000E+00
  0.00000000E+00  0.00000000E+00  0.00000000E+00
  0.00000000E+00  0.00000000E+00  0.00000000E+00
  0.00000000E+00  0.00000000E+00  0.00000000E+00
  0.00000000E+00  0.00000000E+00  0.00000000E+00
  0.00000000E+00  0.00000000E+00  0.00000000E+00
  0.00000000E+00  0.00000000E+00  0.00000000E+00
  0.00000000E+00  0.00000000E+00  0.00000000E+00
  0.00000000E+00  0.00000000E+00  0.00000000E+00
  0.00000000E+00  0.00000000E+00  0.00000000E+00
  0.00000000E+00  0.00000000E+00  0.00000000E+00
  0.00000000E+00  0.00000000E+00  0.00000000E+00
  0.00000000E+00  0.00000000E+00  0.00000000E+00
  0.00000000E+00  0.00000000E+00  0.00000000E+00
  0.00000000E+00  0.00000000E+00  0.00000000E+00
  0.00000000E+00  0.00000000E+00  0.00000000E+00
  0.00000000E+00  0.00000000E+00  0.00000000E+00
  0.00000000E+00  0.00000000E+00  0.00000000E+00
  0.00000000E+00  0.00000000E+00  0.00000000E+00
  0.00000000E+00  0.00000000E+00  0.00000000E+00
  0.00000000E+00  0.00000000E+00  0.00000000E+00
  0.00000000E+00  0.00000000E+00  0.00000000E+00
  0.00000000E+00  0.00000000E+00  0.00000000E+00
  0.00000000E+00  0.00000000E+00  0.00000000E+00
