supercell of POSCAR                     
   1.07329600000000     
     9.1016125577399993   -5.3128209557800004   -9.4184911254399992
     9.0821131104399999    5.2871675818400004    9.4140884809200003
    -1.5053809694200000   -7.9210976524300012    4.6939078171600004
   Al   Sc   N 
    72    24    95
Direct
  0.3030218188458988  0.2890873971808290  0.5328781567451983
  0.1404800264374515  0.2435846319362014  0.3058951537808312
  0.3071627391472802  0.4104292354234502  0.3038619570405956
  0.4666450539498541  0.3281858125670993  0.7898731061864552
  0.1386304068351976  0.4978805066746474  0.7891456506396182
  0.2818731904739735  0.1746933871831970  0.7473386649590097
  0.4700179275964871  0.4476479745348740  0.5356232565290213
  0.1386127322964867  0.1179641508689429  0.5329447337916662
  0.4766918154588069  0.0734763780372845  0.2947504545351478
  0.2786879117958705  0.1076975769501161  0.3319246756944736
  0.1160740774924776  0.0685931955157031  0.0913594956287085
  0.1110676067808072  0.1967452411163819  0.8257059801682232
  0.2756587047312067  0.3617345705301389  0.8217397853419328
  0.1108052188892259  0.3244759203838754  0.5893304833753206
  0.2717619438236270  0.4858308844847201  0.5802313717800445
  0.4477307698427708  0.2771138682337480  0.3322754250631803
  0.1103117432854859  0.4454034222386341  0.3393612201332630
  0.4467916432970540  0.4000498244366426  0.0923258324187941
  0.8032316320748976  0.2872031750282886  0.5404733699158868
  0.6437180084847824  0.2435541649866764  0.3049184756532242
  0.8073874389646036  0.4082232384828899  0.3040340580474847
  0.9663837964254611  0.3276695734876753  0.7914362478311077
  0.6389483246872985  0.4970332375343958  0.7883173372279018
  0.8012997081958275  0.1646228664475586  0.7834828880491145
  0.9694224734269596  0.4486566319299641  0.5377596330608156
  0.6426609983684699  0.1198388098161729  0.5393828652007429
  0.9767134602272947  0.0732825548167284  0.2944749502266717
  0.7782186894704921  0.1085833707795771  0.3347817856622228
  0.6161707516880597  0.0678174879035254  0.0954042927414136
  0.6141417098901769  0.1973673080474470  0.8221043592556185
  0.7747002380724410  0.3588357521038361  0.8207382047602323
  0.6110499847152511  0.3238334641593070  0.5867696876814321
  0.7719529861430630  0.4856070114868487  0.5802181933050363
  0.9467411177421070  0.2792453574728313  0.3363384459742775
  0.6110012396750193  0.4444046419262762  0.3369803947716434
  0.9457346708844909  0.4026779870581905  0.0954209598353231
  0.3024777898526878  0.7858450901708736  0.5390615051723273
  0.1420257736456421  0.7424609292867146  0.3046144878782258
  0.3065174232777039  0.9065156943183723  0.3013061050056152
  0.4663368052828147  0.8182923522817518  0.7900609811993320
  0.1384272478478081  0.9974237170103137  0.7876382525559436
  0.2985522953963482  0.6623727658595513  0.7833294236246502
  0.4699401823838159  0.9471882603960680  0.5266171927064534
  0.1408844976566073  0.6196329640757270  0.5411144528252052
  0.4756775117554000  0.5716910917222222  0.2946305110644190
  0.2758864465122954  0.6085187215011914  0.3350799456680704
  0.1131528415602716  0.5700783386136266  0.0940913210520691
  0.1130935784543468  0.6972844199037453  0.8238236081425043
  0.2747554133827705  0.8581134819391707  0.8183326822853019
  0.1107785546418683  0.8235283428076841  0.5871904715479488
  0.2730055210308251  0.9838724669176315  0.5762579471102995
  0.4468942399529396  0.7768362440308252  0.3340736157914534
  0.1115477232617295  0.9435576259711311  0.3350120468160966
  0.4490212429059355  0.9008252296147603  0.0960924292434626
  0.8032008557340049  0.7867360440236340  0.5403113841622442
  0.6424919315984639  0.7415924530575282  0.3046011140390661
  0.8088335581638617  0.9075559790890608  0.3028273326530808
  0.9668303826470890  0.8271840331760600  0.7903796620478687
  0.6479508699479268  0.9974599572019045  0.7874503347997077
  0.7995033138791285  0.6634304888058793  0.7837290747558967
  0.9703560346177511  0.9481494670543285  0.5360432831894926
  0.6411093542761392  0.6191695106496908  0.5409484896430641
  0.9756714516886689  0.5733423988120023  0.2965352976910722
  0.7764624830606763  0.6081739490581697  0.3354153942177618
  0.6136425559005829  0.5675310403984994  0.0935363614141878
  0.6137985574972902  0.6957397500977507  0.8248376318522830
  0.7766792048104705  0.8579448696937604  0.8213950224552491
  0.6123961580201325  0.8219214546633111  0.5863190156557465
  0.7740933384887967  0.9855739954791787  0.5778866512973480
  0.9473920711130361  0.7784852456835196  0.3352307367609200
  0.6130712173735589  0.9437701056318843  0.3362589136524008
  0.9485578150782459  0.9021767199594493  0.0939367995814351
  0.4849283691964175  0.1931476110009882  0.0371346576541072
  0.1374411342580046  0.3690264979764066  0.0395457177437493
  0.3131084932031953  0.0205437517679599  0.0362766902149261
  0.2799292766504067  0.2355557472417260  0.0871138298798328
  0.4663446492187049  0.9999606304863207  0.7994593858077295
  0.4460653836088326  0.1522553849193500  0.5729320813237422
  0.9816485053005763  0.1976426063847896  0.0407762000337613
  0.6401796558227701  0.3645141855939755  0.0368250733927695
  0.8112325443570967  0.0250355213777738  0.0399567746736338
  0.7843098641472466  0.2309204995890326  0.0816854559068787
  0.9467401828774271  0.0229218507392375  0.8232400237577266
  0.9454914919706354  0.1536400104768418  0.5745203705140156
  0.4814164081229535  0.6955374405336840  0.0404630678669875
  0.1415175148157104  0.8651964113874726  0.0355330724167402
  0.3086799304972416  0.5250213638761778  0.0399607986678987
  0.2835485690918702  0.7298626444574197  0.0810104803473664
  0.4460204063065589  0.5229042337118415  0.8234403125782137
  0.4441790708538846  0.6502786228585578  0.5717476603407263
  0.9813279840847713  0.6977188669592351  0.0386572054543990
  0.6421293388026612  0.8643392402885866  0.0376228459312671
  0.8082707211135300  0.5245367263529843  0.0387374339707947
  0.7842924548706662  0.7299887748412601  0.0826033671084403
  0.9459091242133439  0.5231194497718334  0.8245467256703520
  0.9442736011709272  0.6529039391060110  0.5751060482760195
  0.2391094815439558  0.3664238463724203  0.6317432616814713
  0.0747257013270541  0.3250536162999111  0.3980081533261384
  0.2386901748324988  0.4896948558628225  0.3910632922966215
  0.4200504892604968  0.2809759327327228  0.1418483961595101
  0.0697984950889534  0.4546977199412652  0.1492886091117285
  0.2432313601882825  0.1042888417591499  0.1410509718874096
  0.4011196775358314  0.3990033246077118  0.9010780582299205
  0.0856866553785167  0.0821387311750641  0.8982436041324249
  0.2381005756465626  0.2424936377817914  0.8754564755578613
  0.3986641528969486  0.0224369338766479  0.6202691330199670
  0.0865432013084018  0.2025872952311900  0.6368661069636232
  0.4059148357644702  0.1554574140035712  0.3664091246334920
  0.2176835002995077  0.1899989988568294  0.4315625200857554
  0.0590400318665516  0.1458016837996965  0.1981994548604149
  0.2142006706962931  0.3185149027725203  0.2010630234184134
  0.0449582124601662  0.2749503664554140  0.9057461362047619
  0.2094216268950149  0.4387230115312022  0.9054627231634598
  0.3737899797314057  0.2414545349794395  0.6761645585822151
  0.0412573736751085  0.4058646192701687  0.6846696055688284
  0.2112938489485074  0.0664077079907130  0.6717244519302668
  0.3817504616603529  0.3544659248229820  0.4280913492560074
  0.0474817984487927  0.0250267830492845  0.4352251072653104
  0.3869985541066967  0.4746164045072874  0.1975159633869552
  0.7380743484685226  0.3671600624620623  0.6318100228441779
  0.5745552640065057  0.3240422234170168  0.3945181897132244
  0.7385991378043428  0.4892750330543976  0.3907298859129469
  0.9210889184006135  0.2881742981103983  0.1510570394545212
  0.5708830851775986  0.4505890621845055  0.1459758113654743
  0.7386838274920322  0.1050104236081921  0.1491739605045410
  0.9006362994820165  0.4000449259520877  0.9033073922920565
  0.5836021067143591  0.0839554465879004  0.9019137060639579
  0.7360996258955268  0.2437638154912136  0.8755113336735292
  0.8996036406902874  0.0231120319065923  0.6201900110677911
  0.5840711699690928  0.2028459473245974  0.6352932805901403
  0.9061394928027084  0.1563097055816698  0.3672809933480465
  0.7173600063722390  0.1907104867744778  0.4334387335771339
  0.5571261724090064  0.1467956626762970  0.1966602668205297
  0.7166906087858678  0.3162339495913216  0.1987046556705039
  0.8721220803789507  0.1156691574790685  0.9171696113730974
  0.5413821908729588  0.2709605934550297  0.9035300717674204
  0.7088176407323559  0.4383381384614324  0.9047354338186011
  0.8737206299979334  0.2413980426280347  0.6805829524728679
  0.5408363909459339  0.4046796013376053  0.6828798034477686
  0.7130911422900112  0.0690484594572283  0.6745200335784318
  0.8808931066873527  0.3551308073045831  0.4335301059285115
  0.5482813323580586  0.0263449141966632  0.4351708722463954
  0.8861750480733050  0.4777749217586091  0.2007559489465507
  0.2388440123729225  0.8673255370936204  0.6309170549555319
  0.0753817376249373  0.8250701481164029  0.3960165508005318
  0.2399764738999366  0.9892919709925536  0.3875362191828913
  0.4206425055413732  0.7869383699125123  0.1495259035208036
  0.0739176628313913  0.9528039157075980  0.1448160907688276
  0.2366121519908759  0.6046375900682364  0.1495620650099383
  0.4003587719391390  0.9022634461666357  0.9045691210309954
  0.0843085147651834  0.5827275127058940  0.8999058721253803
  0.2364227374305088  0.7447491457324773  0.8752976358523625
  0.3979511075595354  0.5208050174972954  0.6202809976361578
  0.0836117276878312  0.7037573893965430  0.6362929021735937
  0.4041987245929164  0.6549559386038126  0.3657222292645201
  0.2164346243160367  0.6906218115788718  0.4342698798209241
  0.0554971646379627  0.6470202689012439  0.2001521007409721
  0.2161673625284379  0.8154699188510435  0.1980342449134511
  0.3706308059554289  0.6149167411287380  0.9173000638680051
  0.0449104964864020  0.7751579361087408  0.9044031297188369
  0.2133115331945490  0.9420716307829693  0.9037687326858475
  0.3722667331075442  0.7391838977841516  0.6794172574001180
  0.0420945491761771  0.9064257324244522  0.6836628344027176
  0.2106711186820434  0.5678215771173996  0.6761569516550452
  0.3805400363615874  0.8539927922369444  0.4309898916311141
  0.0467507304552868  0.5266814541926621  0.4389818386040005
  0.3868589796140824  0.9764384094714771  0.1972882758125252
  0.7382443539425623  0.8682901095089051  0.6328630566962943
  0.5744139697407107  0.8250556884020241  0.3972754381431471
  0.7402413644583348  0.9893356084338194  0.3894603477349818
  0.9211196706952194  0.7882943892671648  0.1504418193140111
  0.5726325260501213  0.9521278970649334  0.1464164579634257
  0.7366857756540952  0.6044832539695904  0.1499671809806671
  0.9020874918042168  0.9005367134368569  0.9023445136739312
  0.5837990219026636  0.5812946483109158  0.8992394873131389
  0.7360801927654350  0.7441846282208218  0.8769936504126790
  0.8978943392781531  0.5226216288955499  0.6219035300518669
  0.5826351888985712  0.7036745797661155  0.6372972674432873
  0.9042330395020812  0.6566100111559621  0.3679573840979060
  0.7163761348768176  0.6908796246847118  0.4355209767220387
  0.5563450794306775  0.6452194683401018  0.1997446962207405
  0.7167564470904395  0.8157405998329494  0.2006475392246045
  0.8707423095342364  0.6154362516246721  0.9180973201509772
  0.5448908118373339  0.7730581262762115  0.9066497306121235
  0.7119434146736339  0.9390630635191499  0.9062777441627574
  0.8725832935591455  0.7415168460923383  0.6814583872424151
  0.5391483748386250  0.9089954185134701  0.6877554635977816
  0.7105867343134520  0.5683115663676048  0.6763417300883319
  0.8814380807576754  0.8548057750867173  0.4336839326924178
  0.5469114644530890  0.5260599295493051  0.4377731737369217
  0.8885062293168389  0.9768658003576647  0.1995373423852982
 
  0.00000000E+00  0.00000000E+00  0.00000000E+00
  0.00000000E+00  0.00000000E+00  0.00000000E+00
  0.00000000E+00  0.00000000E+00  0.00000000E+00
  0.00000000E+00  0.00000000E+00  0.00000000E+00
  0.00000000E+00  0.00000000E+00  0.00000000E+00
  0.00000000E+00  0.00000000E+00  0.00000000E+00
  0.00000000E+00  0.00000000E+00  0.00000000E+00
  0.00000000E+00  0.00000000E+00  0.00000000E+00
  0.00000000E+00  0.00000000E+00  0.00000000E+00
  0.00000000E+00  0.00000000E+00  0.00000000E+00
  0.00000000E+00  0.00000000E+00  0.00000000E+00
  0.00000000E+00  0.00000000E+00  0.00000000E+00
  0.00000000E+00  0.00000000E+00  0.00000000E+00
  0.00000000E+00  0.00000000E+00  0.00000000E+00
  0.00000000E+00  0.00000000E+00  0.00000000E+00
  0.00000000E+00  0.00000000E+00  0.00000000E+00
  0.00000000E+00  0.00000000E+00  0.00000000E+00
  0.00000000E+00  0.00000000E+00  0.00000000E+00
  0.00000000E+00  0.00000000E+00  0.00000000E+00
  0.00000000E+00  0.00000000E+00  0.00000000E+00
  0.00000000E+00  0.00000000E+00  0.00000000E+00
  0.00000000E+00  0.00000000E+00  0.00000000E+00
  0.00000000E+00  0.00000000E+00  0.00000000E+00
  0.00000000E+00  0.00000000E+00  0.00000000E+00
  0.00000000E+00  0.00000000E+00  0.00000000E+00
  0.00000000E+00  0.00000000E+00  0.00000000E+00
  0.00000000E+00  0.00000000E+00  0.00000000E+00
  0.00000000E+00  0.00000000E+00  0.00000000E+00
  0.00000000E+00  0.00000000E+00  0.00000000E+00
  0.00000000E+00  0.00000000E+00  0.00000000E+00
  0.00000000E+00  0.00000000E+00  0.00000000E+00
  0.00000000E+00  0.00000000E+00  0.00000000E+00
  0.00000000E+00  0.00000000E+00  0.00000000E+00
  0.00000000E+00  0.00000000E+00  0.00000000E+00
  0.00000000E+00  0.00000000E+00  0.00000000E+00
  0.00000000E+00  0.00000000E+00  0.00000000E+00
  0.00000000E+00  0.00000000E+00  0.00000000E+00
  0.00000000E+00  0.00000000E+00  0.00000000E+00
  0.00000000E+00  0.00000000E+00  0.00000000E+00
  0.00000000E+00  0.00000000E+00  0.00000000E+00
  0.00000000E+00  0.00000000E+00  0.00000000E+00
  0.00000000E+00  0.00000000E+00  0.00000000E+00
  0.00000000E+00  0.00000000E+00  0.00000000E+00
  0.00000000E+00  0.00000000E+00  0.00000000E+00
  0.00000000E+00  0.00000000E+00  0.00000000E+00
  0.00000000E+00  0.00000000E+00  0.00000000E+00
  0.00000000E+00  0.00000000E+00  0.00000000E+00
  0.00000000E+00  0.00000000E+00  0.00000000E+00
  0.00000000E+00  0.00000000E+00  0.00000000E+00
  0.00000000E+00  0.00000000E+00  0.00000000E+00
  0.00000000E+00  0.00000000E+00  0.00000000E+00
  0.00000000E+00  0.00000000E+00  0.00000000E+00
  0.00000000E+00  0.00000000E+00  0.00000000E+00
  0.00000000E+00  0.00000000E+00  0.00000000E+00
  0.00000000E+00  0.00000000E+00  0.00000000E+00
  0.00000000E+00  0.00000000E+00  0.00000000E+00
  0.00000000E+00  0.00000000E+00  0.00000000E+00
  0.00000000E+00  0.00000000E+00  0.00000000E+00
  0.00000000E+00  0.00000000E+00  0.00000000E+00
  0.00000000E+00  0.00000000E+00  0.00000000E+00
  0.00000000E+00  0.00000000E+00  0.00000000E+00
  0.00000000E+00  0.00000000E+00  0.00000000E+00
  0.00000000E+00  0.00000000E+00  0.00000000E+00
  0.00000000E+00  0.00000000E+00  0.00000000E+00
  0.00000000E+00  0.00000000E+00  0.00000000E+00
  0.00000000E+00  0.00000000E+00  0.00000000E+00
  0.00000000E+00  0.00000000E+00  0.00000000E+00
  0.00000000E+00  0.00000000E+00  0.00000000E+00
  0.00000000E+00  0.00000000E+00  0.00000000E+00
  0.00000000E+00  0.00000000E+00  0.00000000E+00
  0.00000000E+00  0.00000000E+00  0.00000000E+00
  0.00000000E+00  0.00000000E+00  0.00000000E+00
  0.00000000E+00  0.00000000E+00  0.00000000E+00
  0.00000000E+00  0.00000000E+00  0.00000000E+00
  0.00000000E+00  0.00000000E+00  0.00000000E+00
  0.00000000E+00  0.00000000E+00  0.00000000E+00
  0.00000000E+00  0.00000000E+00  0.00000000E+00
  0.00000000E+00  0.00000000E+00  0.00000000E+00
  0.00000000E+00  0.00000000E+00  0.00000000E+00
  0.00000000E+00  0.00000000E+00  0.00000000E+00
  0.00000000E+00  0.00000000E+00  0.00000000E+00
  0.00000000E+00  0.00000000E+00  0.00000000E+00
  0.00000000E+00  0.00000000E+00  0.00000000E+00
  0.00000000E+00  0.00000000E+00  0.00000000E+00
  0.00000000E+00  0.00000000E+00  0.00000000E+00
  0.00000000E+00  0.00000000E+00  0.00000000E+00
  0.00000000E+00  0.00000000E+00  0.00000000E+00
  0.00000000E+00  0.00000000E+00  0.00000000E+00
  0.00000000E+00  0.00000000E+00  0.00000000E+00
  0.00000000E+00  0.00000000E+00  0.00000000E+00
  0.00000000E+00  0.00000000E+00  0.00000000E+00
  0.00000000E+00  0.00000000E+00  0.00000000E+00
  0.00000000E+00  0.00000000E+00  0.00000000E+00
  0.00000000E+00  0.00000000E+00  0.00000000E+00
  0.00000000E+00  0.00000000E+00  0.00000000E+00
  0.00000000E+00  0.00000000E+00  0.00000000E+00
  0.00000000E+00  0.00000000E+00  0.00000000E+00
  0.00000000E+00  0.00000000E+00  0.00000000E+00
  0.00000000E+00  0.00000000E+00  0.00000000E+00
  0.00000000E+00  0.00000000E+00  0.00000000E+00
  0.00000000E+00  0.00000000E+00  0.00000000E+00
  0.00000000E+00  0.00000000E+00  0.00000000E+00
  0.00000000E+00  0.00000000E+00  0.00000000E+00
  0.00000000E+00  0.00000000E+00  0.00000000E+00
  0.00000000E+00  0.00000000E+00  0.00000000E+00
  0.00000000E+00  0.00000000E+00  0.00000000E+00
  0.00000000E+00  0.00000000E+00  0.00000000E+00
  0.00000000E+00  0.00000000E+00  0.00000000E+00
  0.00000000E+00  0.00000000E+00  0.00000000E+00
  0.00000000E+00  0.00000000E+00  0.00000000E+00
  0.00000000E+00  0.00000000E+00  0.00000000E+00
  0.00000000E+00  0.00000000E+00  0.00000000E+00
  0.00000000E+00  0.00000000E+00  0.00000000E+00
  0.00000000E+00  0.00000000E+00  0.00000000E+00
  0.00000000E+00  0.00000000E+00  0.00000000E+00
  0.00000000E+00  0.00000000E+00  0.00000000E+00
  0.00000000E+00  0.00000000E+00  0.00000000E+00
  0.00000000E+00  0.00000000E+00  0.00000000E+00
  0.00000000E+00  0.00000000E+00  0.00000000E+00
  0.00000000E+00  0.00000000E+00  0.00000000E+00
  0.00000000E+00  0.00000000E+00  0.00000000E+00
  0.00000000E+00  0.00000000E+00  0.00000000E+00
  0.00000000E+00  0.00000000E+00  0.00000000E+00
  0.00000000E+00  0.00000000E+00  0.00000000E+00
  0.00000000E+00  0.00000000E+00  0.00000000E+00
  0.00000000E+00  0.00000000E+00  0.00000000E+00
  0.00000000E+00  0.00000000E+00  0.00000000E+00
  0.00000000E+00  0.00000000E+00  0.00000000E+00
  0.00000000E+00  0.00000000E+00  0.00000000E+00
  0.00000000E+00  0.00000000E+00  0.00000000E+00
  0.00000000E+00  0.00000000E+00  0.00000000E+00
  0.00000000E+00  0.00000000E+00  0.00000000E+00
  0.00000000E+00  0.00000000E+00  0.00000000E+00
  0.00000000E+00  0.00000000E+00  0.00000000E+00
  0.00000000E+00  0.00000000E+00  0.00000000E+00
  0.00000000E+00  0.00000000E+00  0.00000000E+00
  0.00000000E+00  0.00000000E+00  0.00000000E+00
  0.00000000E+00  0.00000000E+00  0.00000000E+00
  0.00000000E+00  0.00000000E+00  0.00000000E+00
  0.00000000E+00  0.00000000E+00  0.00000000E+00
  0.00000000E+00  0.00000000E+00  0.00000000E+00
  0.00000000E+00  0.00000000E+00  0.00000000E+00
  0.00000000E+00  0.00000000E+00  0.00000000E+00
  0.00000000E+00  0.00000000E+00  0.00000000E+00
  0.00000000E+00  0.00000000E+00  0.00000000E+00
  0.00000000E+00  0.00000000E+00  0.00000000E+00
  0.00000000E+00  0.00000000E+00  0.00000000E+00
  0.00000000E+00  0.00000000E+00  0.00000000E+00
  0.00000000E+00  0.00000000E+00  0.00000000E+00
  0.00000000E+00  0.00000000E+00  0.00000000E+00
  0.00000000E+00  0.00000000E+00  0.00000000E+00
  0.00000000E+00  0.00000000E+00  0.00000000E+00
  0.00000000E+00  0.00000000E+00  0.00000000E+00
  0.00000000E+00  0.00000000E+00  0.00000000E+00
  0.00000000E+00  0.00000000E+00  0.00000000E+00
  0.00000000E+00  0.00000000E+00  0.00000000E+00
  0.00000000E+00  0.00000000E+00  0.00000000E+00
  0.00000000E+00  0.00000000E+00  0.00000000E+00
  0.00000000E+00  0.00000000E+00  0.00000000E+00
  0.00000000E+00  0.00000000E+00  0.00000000E+00
  0.00000000E+00  0.00000000E+00  0.00000000E+00
  0.00000000E+00  0.00000000E+00  0.00000000E+00
  0.00000000E+00  0.00000000E+00  0.00000000E+00
  0.00000000E+00  0.00000000E+00  0.00000000E+00
  0.00000000E+00  0.00000000E+00  0.00000000E+00
  0.00000000E+00  0.00000000E+00  0.00000000E+00
  0.00000000E+00  0.00000000E+00  0.00000000E+00
  0.00000000E+00  0.00000000E+00  0.00000000E+00
  0.00000000E+00  0.00000000E+00  0.00000000E+00
  0.00000000E+00  0.00000000E+00  0.00000000E+00
  0.00000000E+00  0.00000000E+00  0.00000000E+00
  0.00000000E+00  0.00000000E+00  0.00000000E+00
  0.00000000E+00  0.00000000E+00  0.00000000E+00
  0.00000000E+00  0.00000000E+00  0.00000000E+00
  0.00000000E+00  0.00000000E+00  0.00000000E+00
  0.00000000E+00  0.00000000E+00  0.00000000E+00
  0.00000000E+00  0.00000000E+00  0.00000000E+00
  0.00000000E+00  0.00000000E+00  0.00000000E+00
  0.00000000E+00  0.00000000E+00  0.00000000E+00
  0.00000000E+00  0.00000000E+00  0.00000000E+00
  0.00000000E+00  0.00000000E+00  0.00000000E+00
  0.00000000E+00  0.00000000E+00  0.00000000E+00
  0.00000000E+00  0.00000000E+00  0.00000000E+00
  0.00000000E+00  0.00000000E+00  0.00000000E+00
  0.00000000E+00  0.00000000E+00  0.00000000E+00
  0.00000000E+00  0.00000000E+00  0.00000000E+00
  0.00000000E+00  0.00000000E+00  0.00000000E+00
  0.00000000E+00  0.00000000E+00  0.00000000E+00
  0.00000000E+00  0.00000000E+00  0.00000000E+00
  0.00000000E+00  0.00000000E+00  0.00000000E+00
  0.00000000E+00  0.00000000E+00  0.00000000E+00
