supercell of POSCAR                     
   1.07329600000000     
     9.1016125577399993   -5.3128209557800004   -9.4184911254399992
     9.0821131104399999    5.2871675818400004    9.4140884809200003
    -1.5053809694200000   -7.9210976524300012    4.6939078171600004
   Al   Sc   N 
    71    24    96
Direct
  0.2986676075404020  0.2886271124420077  0.5373477298806293
  0.1407288642685032  0.2426690378595637  0.3032153518873315
  0.3072560092872010  0.4090731101809340  0.3058150693700128
  0.1369337197835918  0.4981574875167141  0.7876117956017126
  0.2942486173210881  0.1595324494833932  0.7868821765856424
  0.4687793606323893  0.4488986809841862  0.5338736048174511
  0.1411687040267040  0.1187587126689920  0.5403719950391306
  0.4762584153311096  0.0738202211136567  0.2955923719648723
  0.2782082571915652  0.1085989512055079  0.3358592445218918
  0.1148688017690702  0.0685748113813460  0.0935350153252088
  0.1117377206062002  0.1960273561870096  0.8242396752459200
  0.2716710323568776  0.3596165364806083  0.8256150600953518
  0.1096314326895254  0.3239333486196116  0.5883647440980440
  0.2716374199736720  0.4859376553272980  0.5818274511927299
  0.4472931527906283  0.2778684185058893  0.3362661211657709
  0.1108896217851481  0.4446454044214363  0.3376648788461907
  0.4443779523014939  0.4041049499758174  0.1001940658363907
  0.8035810523078126  0.2861105105190305  0.5376693223536080
  0.6414550636957941  0.2423921105690638  0.3011946392273614
  0.8070629570004755  0.4080413229563860  0.3013629915338498
  0.9662266872446850  0.3262832744902511  0.7891615453905985
  0.6443991497728092  0.5009883627620511  0.7895925015744538
  0.8009871213428710  0.1620807465833707  0.7800656656251022
  0.9693060909633786  0.4482359148799588  0.5347416151035276
  0.6421978423758290  0.1195103246285498  0.5383742457930865
  0.9758913329610550  0.0727687304850733  0.2938804200840437
  0.7769047544413183  0.1082570517333110  0.3325254015549746
  0.6133187405017893  0.0689131799316769  0.0916456850356866
  0.6157671789080652  0.1968543507382705  0.8229119924233430
  0.7758347876861293  0.3581685001478405  0.8196517981321207
  0.6133897531699475  0.3245102450213651  0.5872256595151910
  0.7730767877694049  0.4855061204592062  0.5783058794461766
  0.9462833154094099  0.2781514707180364  0.3337015787484034
  0.6110010620704571  0.4444344290228344  0.3364967862684907
  0.9467271401685977  0.4016641575724549  0.0943970127128182
  0.3040636743622613  0.7861876444944755  0.5389745885486903
  0.1432649303438822  0.7418088604944728  0.3037528018346407
  0.3086080249833643  0.9077532410219504  0.3025732002494550
  0.4672908887296359  0.8268098121249210  0.7896567074096410
  0.1387562518348417  0.9953371813335252  0.7885245883167045
  0.3006698204100218  0.6624870802772165  0.7836670066489262
  0.4708393910455726  0.9490102461849403  0.5355268923447909
  0.1420372541438581  0.6195291155896427  0.5396408497059326
  0.4756895540488699  0.5750503944939283  0.2976063013098624
  0.2780465482266408  0.6073190592154347  0.3336337132498102
  0.1155811177684996  0.5677117477430116  0.0932273156472334
  0.1140470182207025  0.6972248320907326  0.8232432821156621
  0.2762467268067397  0.8581696763081226  0.8206832469950740
  0.1120519103383870  0.8236956773224193  0.5868254223170339
  0.2735949128713315  0.9854862138470963  0.5793696904269936
  0.4478937750164178  0.7784017416798932  0.3351573876562526
  0.1120126434741877  0.9444361356958524  0.3365706191832913
  0.4476994806562189  0.9013126689753932  0.0945692224283050
  0.8037685012167799  0.7865705700824250  0.5384451072561518
  0.6426091192246517  0.7426415464004634  0.3034654268065538
  0.8084046953037500  0.9077173807958943  0.3010791826686088
  0.9675225758558668  0.8264178843830479  0.7895829955765024
  0.6401811492292850  0.9965144848434946  0.7861308575575237
  0.8015932329858373  0.6645155493638057  0.7825230952320439
  0.9704099517435836  0.9476743492635862  0.5348659537044753
  0.6425480314070455  0.6199347582276289  0.5403888977759692
  0.9765008658350141  0.5729893526875713  0.2942361156098343
  0.7773202479426757  0.6083684189638774  0.3343318175843706
  0.6138306236076332  0.5689192530222655  0.0951698609317120
  0.6136908177025759  0.6964038533690200  0.8238467608228035
  0.7756932354950123  0.8582141768644220  0.8196258058595163
  0.6113463179323233  0.8233672139402231  0.5867273396425077
  0.7727741683424938  0.9847870694661225  0.5771675014247251
  0.9479457406668956  0.7780981334365862  0.3337814465499633
  0.6116790148567830  0.9445199442703540  0.3357366791714256
  0.9481796442370936  0.9015850938835825  0.0935284365284517
  0.4801504493120845  0.2002170895037736  0.0353167628779474
  0.1380391987209038  0.3642539199544927  0.0380123431340422
  0.3097665901495645  0.0252314507215274  0.0396403031768671
  0.2836910567989932  0.2327669557397272  0.0838608788746029
  0.4473682244802930  0.0230576567222656  0.8235740556987068
  0.4466205685537190  0.1561884059830518  0.5799766554879540
  0.9794622881366593  0.1957754837932910  0.0379706462862330
  0.6375814933214627  0.3669549736724136  0.0336357717041267
  0.8088229417341921  0.0247196571229011  0.0373235935452811
  0.7815433363944990  0.2315710838525931  0.0797718704783890
  0.9468332672055837  0.0211553797100379  0.8218181806965674
  0.9450366520446281  0.1516649699038410  0.5720620092196356
  0.4812286223715816  0.6949264750267687  0.0355834717491632
  0.1420914964110196  0.8646128988139807  0.0372958985081340
  0.3114076180529111  0.5185497371329859  0.0326951674106084
  0.2847489516820474  0.7281201550866996  0.0815331217603017
  0.4482737202889453  0.5114784430773796  0.8239817273069932
  0.4450818156404708  0.6513888506974368  0.5780338897274433
  0.9828483726284887  0.6963223759989674  0.0378637526353103
  0.6408799149069253  0.8649782930868568  0.0360326231792882
  0.8095179053017816  0.5248476878267567  0.0391068644654382
  0.7845822656782033  0.7301707335579479  0.0806882337452279
  0.9458167189499775  0.5222095982544701  0.8224846709912370
  0.9456591355285511  0.6526833566892094  0.5727919905344123
  0.2367739647943523  0.3679895750256890  0.6338603689266904
  0.0742120507328110  0.3243137148624626  0.3959973527094078
  0.2383839848348543  0.4892175879589615  0.3924396997368831
  0.4198795690901704  0.2883429631222612  0.1523445093204430
  0.0710384739534931  0.4520611731603239  0.1473997268886933
  0.2383286427590363  0.1056729889604995  0.1497882056808635
  0.3838373590227420  0.4136273804530717  0.9274481980937352
  0.0844809626975334  0.0803911326311919  0.8986296914947474
  0.2340048029455488  0.2430717367637669  0.8779441745234280
  0.3999762530375364  0.0231198698184372  0.6203141888464643
  0.0837845561169317  0.2027771929175159  0.6358877048253859
  0.4060822356065188  0.1558714538351680  0.3707321005009732
  0.2148713894566328  0.1896888105752836  0.4315531250475999
  0.0562609422680964  0.1458674715207451  0.1971608483105030
  0.2161328366447606  0.3169097643458159  0.2013293170895807
  0.3704885075765816  0.1136384089659401  0.9154096753076857
  0.0422892526493470  0.2724548624341310  0.9037272525128941
  0.2018694428649894  0.4385229050886963  0.9045419144452680
  0.3526575391163362  0.2244646765251233  0.6632647998933905
  0.0396525920929633  0.4056750600884484  0.6817734524396002
  0.2087072041027724  0.0648419805605727  0.6746182518786341
  0.3806908894094292  0.3537603447564521  0.4343567428908273
  0.0474169881785187  0.0257675048310375  0.4358411004564786
  0.3867624228319428  0.4795459156158941  0.2090271723145563
  0.7412832588632270  0.3670602339749749  0.6303311617927605
  0.5755771464137496  0.3243390333680409  0.3946283426013295
  0.7394818554148372  0.4892988158964044  0.3892750881891729
  0.9193342260575932  0.2866744537223553  0.1483593224586244
  0.5702356536641702  0.4533930106573507  0.1475843331770008
  0.7372897820299329  0.1050669193704437  0.1469713467127747
  0.9021220731677744  0.3994177227796811  0.9015447442785174
  0.5862152920491468  0.0797395583274891  0.8959990735421925
  0.7396405641883703  0.2425244054338904  0.8717693111980012
  0.8989228307273862  0.0213772304367197  0.6188609772612352
  0.5867611734967824  0.2037889495757454  0.6344039218489357
  0.9050356651738625  0.1555480664339868  0.3655006814944315
  0.7171797731017264  0.1904151860219301  0.4308664196899059
  0.5551679432099803  0.1460720668022972  0.1957748467685718
  0.7158581295088879  0.3171503399729332  0.1971588264112754
  0.8718361350305486  0.1124799121021738  0.9133649278136815
  0.5506299074002641  0.2703937291676155  0.9086262022845517
  0.7124902909820392  0.4395893801241044  0.9031343616338887
  0.8741300881731959  0.2396714433804661  0.6771106166416274
  0.5552386486654655  0.4177120002427444  0.6680088924083591
  0.7121639611579695  0.0670610188670793  0.6726672380227541
  0.8810260180703864  0.3547125990831432  0.4305449337564937
  0.5486386313385125  0.0257385918955819  0.4356146586006204
  0.8872940884435181  0.4768578055748520  0.1986209006707114
  0.2396469535550239  0.8669111287930704  0.6312986351846135
  0.0759770012971615  0.8244259399868952  0.3952177239561934
  0.2400508782606607  0.9889804284389072  0.3897405834162697
  0.4215627673340094  0.7862872067528031  0.1490492694517940
  0.0730416139013172  0.9518903885804093  0.1457738454568158
  0.2390020069262704  0.6028304483599030  0.1478889674401742
  0.4023583752165365  0.8995601078387878  0.9015347459058987
  0.0829448137013102  0.5830591856484020  0.8986035315113199
  0.2370378423522510  0.7434577003156733  0.8757342858936639
  0.3977896310045921  0.5203667549560436  0.6221963668627168
  0.0845709907319332  0.7035739162780104  0.6352967922783890
  0.4057406492692053  0.6575209074236170  0.3717063943932359
  0.2175707913356675  0.6901248052920650  0.4332480205883584
  0.0575101211802576  0.6456593327954039  0.1980121155147927
  0.2180016242105509  0.8149624391749271  0.1990359871014533
  0.3725840522767641  0.6131290532050784  0.9133421303402187
  0.0453538292086293  0.7745609273675456  0.9038756115001974
  0.2109837246111184  0.9386462731935623  0.9046721059421827
  0.3732833687235910  0.7406744712849758  0.6803212179881584
  0.0413983499043837  0.9048849751334131  0.6821854149539348
  0.2104748107088881  0.5685244770570961  0.6761152884909265
  0.3820963531363901  0.8550781258807518  0.4323617516407836
  0.0473014529629125  0.5264266777865387  0.4371683563581499
  0.3878104282513846  0.9766097308226023  0.1988369137659092
  0.7393142759839719  0.8667058635062972  0.6303510267912316
  0.5761536161750200  0.8247211539872481  0.3951559015794075
  0.7402006607787044  0.9887020674973357  0.3876457131923630
  0.9217460657810292  0.7869059552644799  0.1485525202388516
  0.5725586025430545  0.9519305211158198  0.1449767547783836
  0.7376876338747635  0.6048552205474351  0.1489200011631624
  0.9020967429963989  0.8986639702754431  0.9009752266040110
  0.5857052226506312  0.5816582018038901  0.9001620737274578
  0.7370715948932727  0.7436274243539316  0.8746262595952388
  0.8989853849771521  0.5228015766742189  0.6193917598339596
  0.5846680180996131  0.7031326099553894  0.6358958556134695
  0.9055170788502096  0.6559854450168174  0.3662126766421494
  0.7175004289118547  0.6907649533881255  0.4329846921225098
  0.5563476182179414  0.6467425113119134  0.1992113645353086
  0.7175363335968399  0.8153904567493626  0.1978206412662757
  0.8718178368596909  0.6152030682812040  0.9165882022915497
  0.5449899901772568  0.7739645251472851  0.9033195124034492
  0.7107839643308012  0.9382649069663103  0.9029118811221224
  0.8743061187864001  0.7410222849031953  0.6788664437384213
  0.5420005264262713  0.9049798555914847  0.6815706609530139
  0.7147548272169288  0.5703376085503891  0.6745007318893173
  0.8818888347320026  0.8543467757384420  0.4308862752560856
  0.5485600320946631  0.5272604585969702  0.4375827736046602
  0.8876190201261380  0.9764834788204411  0.1967677218653776
 
  0.00000000E+00  0.00000000E+00  0.00000000E+00
  0.00000000E+00  0.00000000E+00  0.00000000E+00
  0.00000000E+00  0.00000000E+00  0.00000000E+00
  0.00000000E+00  0.00000000E+00  0.00000000E+00
  0.00000000E+00  0.00000000E+00  0.00000000E+00
  0.00000000E+00  0.00000000E+00  0.00000000E+00
  0.00000000E+00  0.00000000E+00  0.00000000E+00
  0.00000000E+00  0.00000000E+00  0.00000000E+00
  0.00000000E+00  0.00000000E+00  0.00000000E+00
  0.00000000E+00  0.00000000E+00  0.00000000E+00
  0.00000000E+00  0.00000000E+00  0.00000000E+00
  0.00000000E+00  0.00000000E+00  0.00000000E+00
  0.00000000E+00  0.00000000E+00  0.00000000E+00
  0.00000000E+00  0.00000000E+00  0.00000000E+00
  0.00000000E+00  0.00000000E+00  0.00000000E+00
  0.00000000E+00  0.00000000E+00  0.00000000E+00
  0.00000000E+00  0.00000000E+00  0.00000000E+00
  0.00000000E+00  0.00000000E+00  0.00000000E+00
  0.00000000E+00  0.00000000E+00  0.00000000E+00
  0.00000000E+00  0.00000000E+00  0.00000000E+00
  0.00000000E+00  0.00000000E+00  0.00000000E+00
  0.00000000E+00  0.00000000E+00  0.00000000E+00
  0.00000000E+00  0.00000000E+00  0.00000000E+00
  0.00000000E+00  0.00000000E+00  0.00000000E+00
  0.00000000E+00  0.00000000E+00  0.00000000E+00
  0.00000000E+00  0.00000000E+00  0.00000000E+00
  0.00000000E+00  0.00000000E+00  0.00000000E+00
  0.00000000E+00  0.00000000E+00  0.00000000E+00
  0.00000000E+00  0.00000000E+00  0.00000000E+00
  0.00000000E+00  0.00000000E+00  0.00000000E+00
  0.00000000E+00  0.00000000E+00  0.00000000E+00
  0.00000000E+00  0.00000000E+00  0.00000000E+00
  0.00000000E+00  0.00000000E+00  0.00000000E+00
  0.00000000E+00  0.00000000E+00  0.00000000E+00
  0.00000000E+00  0.00000000E+00  0.00000000E+00
  0.00000000E+00  0.00000000E+00  0.00000000E+00
  0.00000000E+00  0.00000000E+00  0.00000000E+00
  0.00000000E+00  0.00000000E+00  0.00000000E+00
  0.00000000E+00  0.00000000E+00  0.00000000E+00
  0.00000000E+00  0.00000000E+00  0.00000000E+00
  0.00000000E+00  0.00000000E+00  0.00000000E+00
  0.00000000E+00  0.00000000E+00  0.00000000E+00
  0.00000000E+00  0.00000000E+00  0.00000000E+00
  0.00000000E+00  0.00000000E+00  0.00000000E+00
  0.00000000E+00  0.00000000E+00  0.00000000E+00
  0.00000000E+00  0.00000000E+00  0.00000000E+00
  0.00000000E+00  0.00000000E+00  0.00000000E+00
  0.00000000E+00  0.00000000E+00  0.00000000E+00
  0.00000000E+00  0.00000000E+00  0.00000000E+00
  0.00000000E+00  0.00000000E+00  0.00000000E+00
  0.00000000E+00  0.00000000E+00  0.00000000E+00
  0.00000000E+00  0.00000000E+00  0.00000000E+00
  0.00000000E+00  0.00000000E+00  0.00000000E+00
  0.00000000E+00  0.00000000E+00  0.00000000E+00
  0.00000000E+00  0.00000000E+00  0.00000000E+00
  0.00000000E+00  0.00000000E+00  0.00000000E+00
  0.00000000E+00  0.00000000E+00  0.00000000E+00
  0.00000000E+00  0.00000000E+00  0.00000000E+00
  0.00000000E+00  0.00000000E+00  0.00000000E+00
  0.00000000E+00  0.00000000E+00  0.00000000E+00
  0.00000000E+00  0.00000000E+00  0.00000000E+00
  0.00000000E+00  0.00000000E+00  0.00000000E+00
  0.00000000E+00  0.00000000E+00  0.00000000E+00
  0.00000000E+00  0.00000000E+00  0.00000000E+00
  0.00000000E+00  0.00000000E+00  0.00000000E+00
  0.00000000E+00  0.00000000E+00  0.00000000E+00
  0.00000000E+00  0.00000000E+00  0.00000000E+00
  0.00000000E+00  0.00000000E+00  0.00000000E+00
  0.00000000E+00  0.00000000E+00  0.00000000E+00
  0.00000000E+00  0.00000000E+00  0.00000000E+00
  0.00000000E+00  0.00000000E+00  0.00000000E+00
  0.00000000E+00  0.00000000E+00  0.00000000E+00
  0.00000000E+00  0.00000000E+00  0.00000000E+00
  0.00000000E+00  0.00000000E+00  0.00000000E+00
  0.00000000E+00  0.00000000E+00  0.00000000E+00
  0.00000000E+00  0.00000000E+00  0.00000000E+00
  0.00000000E+00  0.00000000E+00  0.00000000E+00
  0.00000000E+00  0.00000000E+00  0.00000000E+00
  0.00000000E+00  0.00000000E+00  0.00000000E+00
  0.00000000E+00  0.00000000E+00  0.00000000E+00
  0.00000000E+00  0.00000000E+00  0.00000000E+00
  0.00000000E+00  0.00000000E+00  0.00000000E+00
  0.00000000E+00  0.00000000E+00  0.00000000E+00
  0.00000000E+00  0.00000000E+00  0.00000000E+00
  0.00000000E+00  0.00000000E+00  0.00000000E+00
  0.00000000E+00  0.00000000E+00  0.00000000E+00
  0.00000000E+00  0.00000000E+00  0.00000000E+00
  0.00000000E+00  0.00000000E+00  0.00000000E+00
  0.00000000E+00  0.00000000E+00  0.00000000E+00
  0.00000000E+00  0.00000000E+00  0.00000000E+00
  0.00000000E+00  0.00000000E+00  0.00000000E+00
  0.00000000E+00  0.00000000E+00  0.00000000E+00
  0.00000000E+00  0.00000000E+00  0.00000000E+00
  0.00000000E+00  0.00000000E+00  0.00000000E+00
  0.00000000E+00  0.00000000E+00  0.00000000E+00
  0.00000000E+00  0.00000000E+00  0.00000000E+00
  0.00000000E+00  0.00000000E+00  0.00000000E+00
  0.00000000E+00  0.00000000E+00  0.00000000E+00
  0.00000000E+00  0.00000000E+00  0.00000000E+00
  0.00000000E+00  0.00000000E+00  0.00000000E+00
  0.00000000E+00  0.00000000E+00  0.00000000E+00
  0.00000000E+00  0.00000000E+00  0.00000000E+00
  0.00000000E+00  0.00000000E+00  0.00000000E+00
  0.00000000E+00  0.00000000E+00  0.00000000E+00
  0.00000000E+00  0.00000000E+00  0.00000000E+00
  0.00000000E+00  0.00000000E+00  0.00000000E+00
  0.00000000E+00  0.00000000E+00  0.00000000E+00
  0.00000000E+00  0.00000000E+00  0.00000000E+00
  0.00000000E+00  0.00000000E+00  0.00000000E+00
  0.00000000E+00  0.00000000E+00  0.00000000E+00
  0.00000000E+00  0.00000000E+00  0.00000000E+00
  0.00000000E+00  0.00000000E+00  0.00000000E+00
  0.00000000E+00  0.00000000E+00  0.00000000E+00
  0.00000000E+00  0.00000000E+00  0.00000000E+00
  0.00000000E+00  0.00000000E+00  0.00000000E+00
  0.00000000E+00  0.00000000E+00  0.00000000E+00
  0.00000000E+00  0.00000000E+00  0.00000000E+00
  0.00000000E+00  0.00000000E+00  0.00000000E+00
  0.00000000E+00  0.00000000E+00  0.00000000E+00
  0.00000000E+00  0.00000000E+00  0.00000000E+00
  0.00000000E+00  0.00000000E+00  0.00000000E+00
  0.00000000E+00  0.00000000E+00  0.00000000E+00
  0.00000000E+00  0.00000000E+00  0.00000000E+00
  0.00000000E+00  0.00000000E+00  0.00000000E+00
  0.00000000E+00  0.00000000E+00  0.00000000E+00
  0.00000000E+00  0.00000000E+00  0.00000000E+00
  0.00000000E+00  0.00000000E+00  0.00000000E+00
  0.00000000E+00  0.00000000E+00  0.00000000E+00
  0.00000000E+00  0.00000000E+00  0.00000000E+00
  0.00000000E+00  0.00000000E+00  0.00000000E+00
  0.00000000E+00  0.00000000E+00  0.00000000E+00
  0.00000000E+00  0.00000000E+00  0.00000000E+00
  0.00000000E+00  0.00000000E+00  0.00000000E+00
  0.00000000E+00  0.00000000E+00  0.00000000E+00
  0.00000000E+00  0.00000000E+00  0.00000000E+00
  0.00000000E+00  0.00000000E+00  0.00000000E+00
  0.00000000E+00  0.00000000E+00  0.00000000E+00
  0.00000000E+00  0.00000000E+00  0.00000000E+00
  0.00000000E+00  0.00000000E+00  0.00000000E+00
  0.00000000E+00  0.00000000E+00  0.00000000E+00
  0.00000000E+00  0.00000000E+00  0.00000000E+00
  0.00000000E+00  0.00000000E+00  0.00000000E+00
  0.00000000E+00  0.00000000E+00  0.00000000E+00
  0.00000000E+00  0.00000000E+00  0.00000000E+00
  0.00000000E+00  0.00000000E+00  0.00000000E+00
  0.00000000E+00  0.00000000E+00  0.00000000E+00
  0.00000000E+00  0.00000000E+00  0.00000000E+00
  0.00000000E+00  0.00000000E+00  0.00000000E+00
  0.00000000E+00  0.00000000E+00  0.00000000E+00
  0.00000000E+00  0.00000000E+00  0.00000000E+00
  0.00000000E+00  0.00000000E+00  0.00000000E+00
  0.00000000E+00  0.00000000E+00  0.00000000E+00
  0.00000000E+00  0.00000000E+00  0.00000000E+00
  0.00000000E+00  0.00000000E+00  0.00000000E+00
  0.00000000E+00  0.00000000E+00  0.00000000E+00
  0.00000000E+00  0.00000000E+00  0.00000000E+00
  0.00000000E+00  0.00000000E+00  0.00000000E+00
  0.00000000E+00  0.00000000E+00  0.00000000E+00
  0.00000000E+00  0.00000000E+00  0.00000000E+00
  0.00000000E+00  0.00000000E+00  0.00000000E+00
  0.00000000E+00  0.00000000E+00  0.00000000E+00
  0.00000000E+00  0.00000000E+00  0.00000000E+00
  0.00000000E+00  0.00000000E+00  0.00000000E+00
  0.00000000E+00  0.00000000E+00  0.00000000E+00
  0.00000000E+00  0.00000000E+00  0.00000000E+00
  0.00000000E+00  0.00000000E+00  0.00000000E+00
  0.00000000E+00  0.00000000E+00  0.00000000E+00
  0.00000000E+00  0.00000000E+00  0.00000000E+00
  0.00000000E+00  0.00000000E+00  0.00000000E+00
  0.00000000E+00  0.00000000E+00  0.00000000E+00
  0.00000000E+00  0.00000000E+00  0.00000000E+00
  0.00000000E+00  0.00000000E+00  0.00000000E+00
  0.00000000E+00  0.00000000E+00  0.00000000E+00
  0.00000000E+00  0.00000000E+00  0.00000000E+00
  0.00000000E+00  0.00000000E+00  0.00000000E+00
  0.00000000E+00  0.00000000E+00  0.00000000E+00
  0.00000000E+00  0.00000000E+00  0.00000000E+00
  0.00000000E+00  0.00000000E+00  0.00000000E+00
  0.00000000E+00  0.00000000E+00  0.00000000E+00
  0.00000000E+00  0.00000000E+00  0.00000000E+00
  0.00000000E+00  0.00000000E+00  0.00000000E+00
  0.00000000E+00  0.00000000E+00  0.00000000E+00
  0.00000000E+00  0.00000000E+00  0.00000000E+00
  0.00000000E+00  0.00000000E+00  0.00000000E+00
  0.00000000E+00  0.00000000E+00  0.00000000E+00
  0.00000000E+00  0.00000000E+00  0.00000000E+00
  0.00000000E+00  0.00000000E+00  0.00000000E+00
  0.00000000E+00  0.00000000E+00  0.00000000E+00
  0.00000000E+00  0.00000000E+00  0.00000000E+00
  0.00000000E+00  0.00000000E+00  0.00000000E+00
  0.00000000E+00  0.00000000E+00  0.00000000E+00
