supercell of POSCAR                     
   1.07329600000000     
     9.1016125577399993   -5.3128209557800004   -9.4184911254399992
     9.0821131104399999    5.2871675818400004    9.4140884809200003
    -1.5053809694200000   -7.9210976524300012    4.6939078171600004
   Al   Sc   N 
    72    24    95
Direct
  0.3043161340417839  0.2848803388653351  0.5373821827181828
  0.1408873603563876  0.2427174628499955  0.3044884807916475
  0.3074883375433970  0.4090033184237214  0.3026939203998680
  0.4660231081657358  0.3249383462973228  0.7892205893608022
  0.1399867150651204  0.4970601456432107  0.7874204857962255
  0.3003651231799793  0.1639133869492753  0.7823615193593483
  0.4699591823342786  0.4498348764945774  0.5364867874605608
  0.1399806921371294  0.1194066306068606  0.5412053224817157
  0.4774863836945187  0.0731907842393937  0.2998948751866450
  0.2775183915716255  0.1081022563225531  0.3429458570817019
  0.1152667995084968  0.0688099329536911  0.0960176373202160
  0.1134513701793125  0.1967745476814855  0.8250269599378512
  0.2757617514942936  0.3573295155298908  0.8193723433415556
  0.1112972184291721  0.3233098904102008  0.5872128247591561
  0.2726104194953010  0.4848654666302323  0.5785508959401184
  0.4487521843868549  0.2783363800746699  0.3447132244465863
  0.1109504790456839  0.4446329336338337  0.3364530073502010
  0.4473964444723606  0.4008493547431442  0.0968660683884082
  0.8021195797188696  0.2865081305134467  0.5393371107757403
  0.6412889835155653  0.2426587270739446  0.3048481767536941
  0.8076093109686724  0.4079016266285649  0.3021478598430818
  0.9665331275941327  0.3264558038164012  0.7899898087516419
  0.6395281768008019  0.4971094465539281  0.7874541024823074
  0.7990570710601119  0.1630674275751929  0.7823792342354494
  0.9698743312074214  0.4480091080179136  0.5356448057252976
  0.6400468736610918  0.1195625162315324  0.5400245491867111
  0.9755291882791965  0.0732192404864591  0.2951585490246416
  0.7764887085961121  0.1081048342516056  0.3341838512631909
  0.6140289177057312  0.0680163718690636  0.0922204328770206
  0.6117851561993461  0.1965416884388986  0.8219362112468218
  0.7746523556230969  0.3581363877225030  0.8199470442470655
  0.6094597436125682  0.3226905167214866  0.5864704866215504
  0.7722117622246287  0.4850603193841749  0.5785964561693859
  0.9463275592397693  0.2783766044974669  0.3348266591397007
  0.6121106732684396  0.4459835954937930  0.3367840964299020
  0.9473905403781018  0.4015825324994466  0.0942840458267824
  0.3031588389024122  0.7872779630573490  0.5392022456663668
  0.1423019208128764  0.7423971127326396  0.3038555879114924
  0.3079127710342178  0.9089141655089179  0.3031918850393254
  0.4670304584361560  0.8278578042125702  0.7895367612909894
  0.1401692499244049  0.9976158574086327  0.7886818674508973
  0.3003944677501877  0.6631460237988733  0.7820618324605917
  0.4697018914376088  0.9489267464915585  0.5354890630501146
  0.1417213545658313  0.6193705380886669  0.5397841542215644
  0.4757979739439264  0.5734442892112810  0.2947029219526698
  0.2769752228825126  0.6085898178417324  0.3340313511501805
  0.1145363254679381  0.5683163627310748  0.0931610977149333
  0.1140728828166289  0.6969402893101133  0.8235625065440715
  0.2759692574571346  0.8590693533582865  0.8204463048390096
  0.1112143648562096  0.8237851062585833  0.5875168859864814
  0.2726230830279590  0.9860796218574919  0.5783714716174586
  0.4473172755029609  0.7784979993919094  0.3340103953399876
  0.1097573163342034  0.9435875585799423  0.3371117013402625
  0.4479266972867038  0.9022850768659083  0.0933545095480213
  0.8031499971102960  0.7865340115538970  0.5389074768423754
  0.6423819575267444  0.7417083916736615  0.3032623654696280
  0.8083034127345528  0.9077309188943730  0.3019280826058406
  0.9670630530698716  0.8265982576259816  0.7898962703371168
  0.6392511392058395  0.9973133095377165  0.7871106207844605
  0.8000265382770735  0.6629969410962104  0.7820460693909652
  0.9696342717075908  0.9480876444289947  0.5362518309617883
  0.6416978744403821  0.6197768987057586  0.5397676098339446
  0.9759685506956117  0.5731132677124222  0.2946147952568339
  0.7774607654990078  0.6083876454851591  0.3339848885490397
  0.6142365335309634  0.5683210528134310  0.0929015447085177
  0.6135281475026630  0.6969458871828422  0.8230142141219616
  0.7753455622348184  0.8584942395123392  0.8195927201458986
  0.6109780112933549  0.8239834623196600  0.5865641629176253
  0.7721287487766091  0.9854344774788899  0.5785404823846605
  0.9470284834600804  0.7779485977974474  0.3345390508260522
  0.6123413686215287  0.9431846322152424  0.3361455324135747
  0.9475338534934110  0.9018063200666475  0.0940817553403832
  0.4810883951603628  0.1972949521442686  0.0409822694868751
  0.1413194254099821  0.3648916079567570  0.0361063715377767
  0.3099720819025791  0.0252117161340948  0.0399455962483088
  0.2842899270555463  0.2303330695111470  0.0847624924912935
  0.4461086471471063  0.0249553734088650  0.8205094156858692
  0.4405994715925914  0.1528149897974274  0.5525523451886158
  0.9809838552451353  0.1968287296951132  0.0388300176875589
  0.6405893105378269  0.3650232646676699  0.0365469954293687
  0.8092989118217204  0.0246171113172338  0.0378444359525929
  0.7828993333138285  0.2302362553163704  0.0810288678274134
  0.9472823189415678  0.0222997955810769  0.8233648497430224
  0.9438364661340657  0.1524856762558358  0.5741244145551363
  0.4816217708716692  0.6968485462745733  0.0376484071262624
  0.1412732145720810  0.8655022099569152  0.0370349311540252
  0.3097994527034658  0.5242374175387852  0.0372457980070635
  0.2841929146398670  0.7306761184149622  0.0813734135224848
  0.4473480133648664  0.5210804863591179  0.8231394493025945
  0.4449950947272185  0.6534816692849006  0.5738106599276520
  0.9817894096135831  0.6967984670062606  0.0381911109838242
  0.6411197120217054  0.8649447807906014  0.0357638445379536
  0.8095670986365420  0.5243939804922491  0.0377890324209531
  0.7839574108621434  0.7302573847398008  0.0807169544482704
  0.9471639406801629  0.5218271595287831  0.8225524877039092
  0.9449967583700811  0.6523656980893193  0.5734237460453215
  0.2384785114948684  0.3668553907685776  0.6305991000076432
  0.0739968364737251  0.3252051347325420  0.3957349585395917
  0.2387532834826231  0.4898046719355094  0.3892679905247292
  0.4210727046591742  0.2862110611402926  0.1557991907777421
  0.0721496013413514  0.4518085455331544  0.1453013296976806
  0.2393233394416683  0.1048396745475699  0.1538121432047816
  0.4016160024833155  0.3990006431127995  0.9038675197783519
  0.0852526552480910  0.0816678635929193  0.9003628233475851
  0.2360986289894882  0.2436363563940702  0.8774268127054370
  0.3981230713121349  0.0220415327843355  0.6188319278647398
  0.0825174573144878  0.2031121909477349  0.6374247379535518
  0.2123982130791475  0.1911216099739548  0.4346545803812631
  0.0559328415409226  0.1458427766522021  0.1980747743318645
  0.2161775755552782  0.3161166341620714  0.1998325984264042
  0.3711478450842733  0.1156100701505665  0.9174959174674413
  0.0440169280683520  0.2740527938634045  0.9046363059188494
  0.2105366351038285  0.4386536870089444  0.9031780616671057
  0.3719064443072639  0.2414974225513973  0.6811685143347646
  0.0410311401109240  0.4058146278094483  0.6832383902793353
  0.2109122943108090  0.0682275891763737  0.6753718089367169
  0.3805185412761887  0.3589292693600470  0.4332772427642979
  0.0463618700477468  0.0256981826371856  0.4370835632881551
  0.3872666272234966  0.4770406736763917  0.1983219829305369
  0.7381431997864780  0.3671069152133128  0.6314570473717751
  0.5786107185177443  0.3284838716398681  0.3956088296893014
  0.7404077529289026  0.4898890514307936  0.3891973829330624
  0.9200106692496135  0.2870213891785482  0.1493564884075695
  0.5722645921788256  0.4521574199637186  0.1458831881040794
  0.7377733712095846  0.1042276405233338  0.1481825857283994
  0.9012004997228331  0.3994606523641266  0.9017577873458507
  0.5850525005754008  0.0813543936061194  0.8978181444209881
  0.7356344496207896  0.2434384379946763  0.8747217609881801
  0.8983575667657533  0.0218982972948112  0.6208270537107126
  0.5823761929530846  0.2027609089816593  0.6350760067290366
  0.9046416683211120  0.1559778288773259  0.3670893059779559
  0.7165718894093160  0.1901655729373815  0.4332992164715463
  0.5569061331853788  0.1453328659665942  0.1975430660983903
  0.7168377639129915  0.3155382775064126  0.1986150080369313
  0.8715804506415594  0.1144587472702199  0.9152795463494314
  0.5442015956481470  0.2739502033658354  0.9053402458914874
  0.7102418043730054  0.4390772159897622  0.9039228279954727
  0.8725573616047555  0.2407777424231057  0.6798909428035316
  0.5407729759230264  0.4064892500320738  0.6837853029478254
  0.7114791146769761  0.0679520207578790  0.6744581234171250
  0.8807044247221043  0.3546566871972701  0.4323919952789410
  0.5506607681042937  0.0226789570090631  0.4374106985394519
  0.8874052434143138  0.4766404967709121  0.1982530004156260
  0.2384724393195583  0.8671999186564108  0.6315934600256270
  0.0744093602768388  0.8235354341935803  0.3957608132749044
  0.2360752774117785  0.9858493348345547  0.3894547410000158
  0.4212087478795468  0.7873159063990656  0.1484163312841602
  0.0720322890819816  0.9518191344973346  0.1460638996522761
  0.2380483995476723  0.6045197935947897  0.1479090096714799
  0.4022431833884426  0.9007419565159367  0.9006461948942999
  0.0850572171620243  0.5817903808269236  0.8983297780280424
  0.2371138490008207  0.7438009835664943  0.8748871360322354
  0.3986055431502393  0.5238426053072232  0.6214352314147931
  0.0840137753122789  0.7030859886877039  0.6357557564392522
  0.4049538223237050  0.6561871513881243  0.3665967998214938
  0.2169182673756538  0.6906882449285305  0.4333791465458887
  0.0566986432474579  0.6457343934571185  0.1977680919163163
  0.2170107561515806  0.8153726546328883  0.1985704934516122
  0.3720755208227757  0.6143018121560360  0.9151879802457401
  0.0449484342698767  0.7740885369432817  0.9039409050398248
  0.2107597055808057  0.9392674367497875  0.9046830422807659
  0.3732415171096264  0.7412444373851628  0.6796159861493223
  0.0414190201395215  0.9058155617546717  0.6833528097544956
  0.2115347898312621  0.5680077878809726  0.6746465973738438
  0.3814782995613228  0.8543978043816409  0.4314878518524026
  0.0472183039361269  0.5262922003399169  0.4368068920328767
  0.3880280855542253  0.9768571710423686  0.1983110974179496
  0.7388343244161817  0.8669027039528672  0.6305736329672200
  0.5756940062737854  0.8231347256236816  0.3944413948400864
  0.7405492947075061  0.9884183971880987  0.3886348471964141
  0.9208572244901561  0.7869966536850868  0.1490199898867459
  0.5729508860465202  0.9513307348912292  0.1450351725213750
  0.7379574682135512  0.6045656517758644  0.1480755728502245
  0.9016631442335381  0.8992726691222472  0.9013657948140619
  0.5851921695999920  0.5820602785108022  0.8983438296776569
  0.7367661921709825  0.7436029170824270  0.8744749901119349
  0.8985021530595034  0.5221459097065591  0.6201646937636980
  0.5844111691055858  0.7034835391360801  0.6353741851510790
  0.9051937570218769  0.6558622354128616  0.3666385687729772
  0.7173415092958564  0.6903043559590074  0.4329993709093287
  0.5566300067608054  0.6457267927478014  0.1973036782187592
  0.7172135648625968  0.8152503627538792  0.1982353486243369
  0.8719423378802276  0.6144895999248021  0.9154024615851668
  0.5445686830877676  0.7741418850007520  0.9030788704126209
  0.7104972506685598  0.9388956681085148  0.9030860993034722
  0.8733736702267478  0.7405483041614715  0.6793956255364009
  0.5417435981986785  0.9053454975703232  0.6818967401345759
  0.7115300289537245  0.5679739543905100  0.6745844796609077
  0.8814428875391158  0.8543367621329452  0.4319466195835631
  0.5477625461425575  0.5272430228012013  0.4368690063083420
  0.8873780992193900  0.9765481588052154  0.1977647208073066
 
  0.00000000E+00  0.00000000E+00  0.00000000E+00
  0.00000000E+00  0.00000000E+00  0.00000000E+00
  0.00000000E+00  0.00000000E+00  0.00000000E+00
  0.00000000E+00  0.00000000E+00  0.00000000E+00
  0.00000000E+00  0.00000000E+00  0.00000000E+00
  0.00000000E+00  0.00000000E+00  0.00000000E+00
  0.00000000E+00  0.00000000E+00  0.00000000E+00
  0.00000000E+00  0.00000000E+00  0.00000000E+00
  0.00000000E+00  0.00000000E+00  0.00000000E+00
  0.00000000E+00  0.00000000E+00  0.00000000E+00
  0.00000000E+00  0.00000000E+00  0.00000000E+00
  0.00000000E+00  0.00000000E+00  0.00000000E+00
  0.00000000E+00  0.00000000E+00  0.00000000E+00
  0.00000000E+00  0.00000000E+00  0.00000000E+00
  0.00000000E+00  0.00000000E+00  0.00000000E+00
  0.00000000E+00  0.00000000E+00  0.00000000E+00
  0.00000000E+00  0.00000000E+00  0.00000000E+00
  0.00000000E+00  0.00000000E+00  0.00000000E+00
  0.00000000E+00  0.00000000E+00  0.00000000E+00
  0.00000000E+00  0.00000000E+00  0.00000000E+00
  0.00000000E+00  0.00000000E+00  0.00000000E+00
  0.00000000E+00  0.00000000E+00  0.00000000E+00
  0.00000000E+00  0.00000000E+00  0.00000000E+00
  0.00000000E+00  0.00000000E+00  0.00000000E+00
  0.00000000E+00  0.00000000E+00  0.00000000E+00
  0.00000000E+00  0.00000000E+00  0.00000000E+00
  0.00000000E+00  0.00000000E+00  0.00000000E+00
  0.00000000E+00  0.00000000E+00  0.00000000E+00
  0.00000000E+00  0.00000000E+00  0.00000000E+00
  0.00000000E+00  0.00000000E+00  0.00000000E+00
  0.00000000E+00  0.00000000E+00  0.00000000E+00
  0.00000000E+00  0.00000000E+00  0.00000000E+00
  0.00000000E+00  0.00000000E+00  0.00000000E+00
  0.00000000E+00  0.00000000E+00  0.00000000E+00
  0.00000000E+00  0.00000000E+00  0.00000000E+00
  0.00000000E+00  0.00000000E+00  0.00000000E+00
  0.00000000E+00  0.00000000E+00  0.00000000E+00
  0.00000000E+00  0.00000000E+00  0.00000000E+00
  0.00000000E+00  0.00000000E+00  0.00000000E+00
  0.00000000E+00  0.00000000E+00  0.00000000E+00
  0.00000000E+00  0.00000000E+00  0.00000000E+00
  0.00000000E+00  0.00000000E+00  0.00000000E+00
  0.00000000E+00  0.00000000E+00  0.00000000E+00
  0.00000000E+00  0.00000000E+00  0.00000000E+00
  0.00000000E+00  0.00000000E+00  0.00000000E+00
  0.00000000E+00  0.00000000E+00  0.00000000E+00
  0.00000000E+00  0.00000000E+00  0.00000000E+00
  0.00000000E+00  0.00000000E+00  0.00000000E+00
  0.00000000E+00  0.00000000E+00  0.00000000E+00
  0.00000000E+00  0.00000000E+00  0.00000000E+00
  0.00000000E+00  0.00000000E+00  0.00000000E+00
  0.00000000E+00  0.00000000E+00  0.00000000E+00
  0.00000000E+00  0.00000000E+00  0.00000000E+00
  0.00000000E+00  0.00000000E+00  0.00000000E+00
  0.00000000E+00  0.00000000E+00  0.00000000E+00
  0.00000000E+00  0.00000000E+00  0.00000000E+00
  0.00000000E+00  0.00000000E+00  0.00000000E+00
  0.00000000E+00  0.00000000E+00  0.00000000E+00
  0.00000000E+00  0.00000000E+00  0.00000000E+00
  0.00000000E+00  0.00000000E+00  0.00000000E+00
  0.00000000E+00  0.00000000E+00  0.00000000E+00
  0.00000000E+00  0.00000000E+00  0.00000000E+00
  0.00000000E+00  0.00000000E+00  0.00000000E+00
  0.00000000E+00  0.00000000E+00  0.00000000E+00
  0.00000000E+00  0.00000000E+00  0.00000000E+00
  0.00000000E+00  0.00000000E+00  0.00000000E+00
  0.00000000E+00  0.00000000E+00  0.00000000E+00
  0.00000000E+00  0.00000000E+00  0.00000000E+00
  0.00000000E+00  0.00000000E+00  0.00000000E+00
  0.00000000E+00  0.00000000E+00  0.00000000E+00
  0.00000000E+00  0.00000000E+00  0.00000000E+00
  0.00000000E+00  0.00000000E+00  0.00000000E+00
  0.00000000E+00  0.00000000E+00  0.00000000E+00
  0.00000000E+00  0.00000000E+00  0.00000000E+00
  0.00000000E+00  0.00000000E+00  0.00000000E+00
  0.00000000E+00  0.00000000E+00  0.00000000E+00
  0.00000000E+00  0.00000000E+00  0.00000000E+00
  0.00000000E+00  0.00000000E+00  0.00000000E+00
  0.00000000E+00  0.00000000E+00  0.00000000E+00
  0.00000000E+00  0.00000000E+00  0.00000000E+00
  0.00000000E+00  0.00000000E+00  0.00000000E+00
  0.00000000E+00  0.00000000E+00  0.00000000E+00
  0.00000000E+00  0.00000000E+00  0.00000000E+00
  0.00000000E+00  0.00000000E+00  0.00000000E+00
  0.00000000E+00  0.00000000E+00  0.00000000E+00
  0.00000000E+00  0.00000000E+00  0.00000000E+00
  0.00000000E+00  0.00000000E+00  0.00000000E+00
  0.00000000E+00  0.00000000E+00  0.00000000E+00
  0.00000000E+00  0.00000000E+00  0.00000000E+00
  0.00000000E+00  0.00000000E+00  0.00000000E+00
  0.00000000E+00  0.00000000E+00  0.00000000E+00
  0.00000000E+00  0.00000000E+00  0.00000000E+00
  0.00000000E+00  0.00000000E+00  0.00000000E+00
  0.00000000E+00  0.00000000E+00  0.00000000E+00
  0.00000000E+00  0.00000000E+00  0.00000000E+00
  0.00000000E+00  0.00000000E+00  0.00000000E+00
  0.00000000E+00  0.00000000E+00  0.00000000E+00
  0.00000000E+00  0.00000000E+00  0.00000000E+00
  0.00000000E+00  0.00000000E+00  0.00000000E+00
  0.00000000E+00  0.00000000E+00  0.00000000E+00
  0.00000000E+00  0.00000000E+00  0.00000000E+00
  0.00000000E+00  0.00000000E+00  0.00000000E+00
  0.00000000E+00  0.00000000E+00  0.00000000E+00
  0.00000000E+00  0.00000000E+00  0.00000000E+00
  0.00000000E+00  0.00000000E+00  0.00000000E+00
  0.00000000E+00  0.00000000E+00  0.00000000E+00
  0.00000000E+00  0.00000000E+00  0.00000000E+00
  0.00000000E+00  0.00000000E+00  0.00000000E+00
  0.00000000E+00  0.00000000E+00  0.00000000E+00
  0.00000000E+00  0.00000000E+00  0.00000000E+00
  0.00000000E+00  0.00000000E+00  0.00000000E+00
  0.00000000E+00  0.00000000E+00  0.00000000E+00
  0.00000000E+00  0.00000000E+00  0.00000000E+00
  0.00000000E+00  0.00000000E+00  0.00000000E+00
  0.00000000E+00  0.00000000E+00  0.00000000E+00
  0.00000000E+00  0.00000000E+00  0.00000000E+00
  0.00000000E+00  0.00000000E+00  0.00000000E+00
  0.00000000E+00  0.00000000E+00  0.00000000E+00
  0.00000000E+00  0.00000000E+00  0.00000000E+00
  0.00000000E+00  0.00000000E+00  0.00000000E+00
  0.00000000E+00  0.00000000E+00  0.00000000E+00
  0.00000000E+00  0.00000000E+00  0.00000000E+00
  0.00000000E+00  0.00000000E+00  0.00000000E+00
  0.00000000E+00  0.00000000E+00  0.00000000E+00
  0.00000000E+00  0.00000000E+00  0.00000000E+00
  0.00000000E+00  0.00000000E+00  0.00000000E+00
  0.00000000E+00  0.00000000E+00  0.00000000E+00
  0.00000000E+00  0.00000000E+00  0.00000000E+00
  0.00000000E+00  0.00000000E+00  0.00000000E+00
  0.00000000E+00  0.00000000E+00  0.00000000E+00
  0.00000000E+00  0.00000000E+00  0.00000000E+00
  0.00000000E+00  0.00000000E+00  0.00000000E+00
  0.00000000E+00  0.00000000E+00  0.00000000E+00
  0.00000000E+00  0.00000000E+00  0.00000000E+00
  0.00000000E+00  0.00000000E+00  0.00000000E+00
  0.00000000E+00  0.00000000E+00  0.00000000E+00
  0.00000000E+00  0.00000000E+00  0.00000000E+00
  0.00000000E+00  0.00000000E+00  0.00000000E+00
  0.00000000E+00  0.00000000E+00  0.00000000E+00
  0.00000000E+00  0.00000000E+00  0.00000000E+00
  0.00000000E+00  0.00000000E+00  0.00000000E+00
  0.00000000E+00  0.00000000E+00  0.00000000E+00
  0.00000000E+00  0.00000000E+00  0.00000000E+00
  0.00000000E+00  0.00000000E+00  0.00000000E+00
  0.00000000E+00  0.00000000E+00  0.00000000E+00
  0.00000000E+00  0.00000000E+00  0.00000000E+00
  0.00000000E+00  0.00000000E+00  0.00000000E+00
  0.00000000E+00  0.00000000E+00  0.00000000E+00
  0.00000000E+00  0.00000000E+00  0.00000000E+00
  0.00000000E+00  0.00000000E+00  0.00000000E+00
  0.00000000E+00  0.00000000E+00  0.00000000E+00
  0.00000000E+00  0.00000000E+00  0.00000000E+00
  0.00000000E+00  0.00000000E+00  0.00000000E+00
  0.00000000E+00  0.00000000E+00  0.00000000E+00
  0.00000000E+00  0.00000000E+00  0.00000000E+00
  0.00000000E+00  0.00000000E+00  0.00000000E+00
  0.00000000E+00  0.00000000E+00  0.00000000E+00
  0.00000000E+00  0.00000000E+00  0.00000000E+00
  0.00000000E+00  0.00000000E+00  0.00000000E+00
  0.00000000E+00  0.00000000E+00  0.00000000E+00
  0.00000000E+00  0.00000000E+00  0.00000000E+00
  0.00000000E+00  0.00000000E+00  0.00000000E+00
  0.00000000E+00  0.00000000E+00  0.00000000E+00
  0.00000000E+00  0.00000000E+00  0.00000000E+00
  0.00000000E+00  0.00000000E+00  0.00000000E+00
  0.00000000E+00  0.00000000E+00  0.00000000E+00
  0.00000000E+00  0.00000000E+00  0.00000000E+00
  0.00000000E+00  0.00000000E+00  0.00000000E+00
  0.00000000E+00  0.00000000E+00  0.00000000E+00
  0.00000000E+00  0.00000000E+00  0.00000000E+00
  0.00000000E+00  0.00000000E+00  0.00000000E+00
  0.00000000E+00  0.00000000E+00  0.00000000E+00
  0.00000000E+00  0.00000000E+00  0.00000000E+00
  0.00000000E+00  0.00000000E+00  0.00000000E+00
  0.00000000E+00  0.00000000E+00  0.00000000E+00
  0.00000000E+00  0.00000000E+00  0.00000000E+00
  0.00000000E+00  0.00000000E+00  0.00000000E+00
  0.00000000E+00  0.00000000E+00  0.00000000E+00
  0.00000000E+00  0.00000000E+00  0.00000000E+00
  0.00000000E+00  0.00000000E+00  0.00000000E+00
  0.00000000E+00  0.00000000E+00  0.00000000E+00
  0.00000000E+00  0.00000000E+00  0.00000000E+00
  0.00000000E+00  0.00000000E+00  0.00000000E+00
  0.00000000E+00  0.00000000E+00  0.00000000E+00
  0.00000000E+00  0.00000000E+00  0.00000000E+00
  0.00000000E+00  0.00000000E+00  0.00000000E+00
  0.00000000E+00  0.00000000E+00  0.00000000E+00
  0.00000000E+00  0.00000000E+00  0.00000000E+00
  0.00000000E+00  0.00000000E+00  0.00000000E+00
  0.00000000E+00  0.00000000E+00  0.00000000E+00
  0.00000000E+00  0.00000000E+00  0.00000000E+00
