supercell of POSCAR                     
   1.07329600000000     
     9.1016125577399993   -5.3128209557800004   -9.4184911254399992
     9.0821131104399999    5.2871675818400004    9.4140884809200003
    -1.5053809694200000   -7.9210976524300012    4.6939078171600004
   Al   Sc   N    O 
    72    24    95     1
Direct
  0.3040019072496349  0.2867505520315206  0.5390114236355501
  0.1470430553640796  0.2384537459373774  0.3010507629271970
  0.3089594347163498  0.4077475728744417  0.3019499384190993
  0.4665303457291401  0.3274058124031995  0.7888817007960185
  0.1394554321538735  0.4975888064794844  0.7873236744931660
  0.2997343096441085  0.1630014609431285  0.7814370770317751
  0.4704887359302177  0.4485899701815583  0.5353396946721958
  0.1413252127782201  0.1183833222533437  0.5399530370841106
  0.4757916009563488  0.0730264229998525  0.2939163299639844
  0.2773306464016869  0.1072531280649969  0.3342315003236607
  0.1107412385263302  0.0680175679951702  0.0933797970835357
  0.1134334251413662  0.1961463079393084  0.8229980024809151
  0.2757644235803696  0.3588356606693921  0.8195997476714396
  0.1115246806450472  0.3236426903941307  0.5931849409835550
  0.2726647492640524  0.4858237215716059  0.5786282877645021
  0.4477189858743458  0.2781211978639178  0.3340252732990194
  0.1132396803706328  0.4483136146200337  0.3333595709833901
  0.4485228806588850  0.4018624583835191  0.0935929675361393
  0.8026647571162826  0.2869092745822996  0.5377054859479955
  0.6435540192516811  0.2421971741377220  0.3016491321133898
  0.8080826516916630  0.4071296352967408  0.3000659291679142
  0.9654065668384177  0.3259206228316742  0.7900341488829739
  0.6392638511919628  0.4981847298546640  0.7868785048141334
  0.7955784866732003  0.1660964141120402  0.7785536414536764
  0.9697528583503114  0.4486998349923823  0.5360837236705009
  0.6403055096033725  0.1192302681475965  0.5380995595715419
  0.9759681088657146  0.0720064871445700  0.2969249140750065
  0.7768682703442664  0.1073338044905370  0.3345737809516649
  0.6153339054703366  0.0687235644122666  0.0937218789331666
  0.6110383602907064  0.1974198650943180  0.8217480111018176
  0.7743836013238834  0.3604680788444981  0.8184229128097513
  0.6106547634697250  0.3240111190537149  0.5852954742496905
  0.7723024317285052  0.4859012001333554  0.5775946086201316
  0.9430583460944177  0.2751593417366820  0.3329140735196603
  0.6117533859211832  0.4442310734098669  0.3352617917065004
  0.9476559980542802  0.4008758154135847  0.0942346060313639
  0.3032302889829026  0.7866162238622678  0.5392474320322478
  0.1422704246477267  0.7421118379951182  0.3040049917380472
  0.3077096257318672  0.9074003381188618  0.3021958967746698
  0.4670639955725235  0.8271501300492687  0.7900477706964324
  0.1388493070793899  0.9974151784971426  0.7877388627365036
  0.2999741598426766  0.6634223511706736  0.7817246592158469
  0.4701555285600350  0.9481777043553663  0.5361209155596285
  0.1415791022261530  0.6193479543618352  0.5400505265527116
  0.4762093242449126  0.5733143926087081  0.2943366688783868
  0.2776838344819907  0.6086960832850110  0.3339358538405577
  0.1141805132575158  0.5680600404161353  0.0923076777780309
  0.1132207018104765  0.6969478572662098  0.8235214681890568
  0.2751077295658746  0.8588426506831439  0.8205416780614740
  0.1107360465562550  0.8236847386549400  0.5876046149648886
  0.2724013284531566  0.9849983126970869  0.5790107269391811
  0.4473178712187007  0.7784684835531621  0.3347687285700047
  0.1109350698430376  0.9439487140649589  0.3379239270226719
  0.4474727698491563  0.9020467583623031  0.0941994952655207
  0.8027596482609880  0.7866368808107325  0.5404432959132990
  0.6423342131314342  0.7423011997494697  0.3040058974807991
  0.8075232851838763  0.9075564593957353  0.3055675784164649
  0.9663048780715897  0.8271817219771407  0.7905548930026214
  0.6400402981587447  0.9982554989873833  0.7888791723393993
  0.7996125721367093  0.6635142712912483  0.7824515080724836
  0.9694241206289362  0.9486836581595526  0.5402741322532378
  0.6413217335890238  0.6195267682632846  0.5396392610411738
  0.9755597935982436  0.5733314792207764  0.2945120471706417
  0.7771461786972367  0.6085001243704866  0.3342446863486472
  0.6145217207581410  0.5679969698483092  0.0928031548708077
  0.6132062441156236  0.6973437957700028  0.8238117115524304
  0.7749860076622355  0.8588568750985459  0.8208553018158753
  0.6107087463735112  0.8240638576604695  0.5875472051418171
  0.7725106922863958  0.9859776016418920  0.5813244962566841
  0.9472089672398099  0.7790208856520024  0.3359935626271238
  0.6111954578972032  0.9442848899818443  0.3370541929134419
  0.9474653071620409  0.9044001082714885  0.0953784068512391
  0.4817481296314980  0.1965052592553747  0.0396289270021697
  0.1403070792905723  0.3624258789474837  0.0339899444961205
  0.3086384066856951  0.0251983076678428  0.0394117938956029
  0.2835872374059605  0.2296130028426688  0.0793488170524839
  0.4468301831581201  0.0226420654270427  0.8235212117469786
  0.4441728687877529  0.1522371172771599  0.5734248157523965
  0.9812661111295000  0.1908503506843857  0.0382777955571498
  0.6428218724079287  0.3630707221257126  0.0343086387815532
  0.8148745174169605  0.0256325718417543  0.0395081287431083
  0.7859170799630775  0.2269886286267493  0.0730104259994775
  0.9455632908388836  0.0248641687183877  0.8349939234155173
  0.9441448487690565  0.1519686697527263  0.5776336192201583
  0.4820180631571915  0.6967567815323079  0.0393546988058162
  0.1407421464316982  0.8648519954820131  0.0370146276185466
  0.3099204983467274  0.5238994845295863  0.0380540427043670
  0.2837669659567368  0.7300182346566615  0.0802375381411622
  0.4470534195422502  0.5229899909647173  0.8231001022763778
  0.4449137262813778  0.6530265338374619  0.5736310692805304
  0.9816068641717095  0.6975351711741382  0.0404662193600558
  0.6420323481158974  0.8661652496195842  0.0369922077778639
  0.8100242607074009  0.5253187476738717  0.0389808640002869
  0.7843525939847495  0.7316936131108207  0.0815143918377998
  0.9469957401179414  0.5229933409799159  0.8240391911485645
  0.9445810130808354  0.6533337118851961  0.5748629613908349
  0.2382720306849393  0.3670478092398284  0.6290000327247611
  0.2399278532708138  0.4886298524939150  0.3888379920921494
  0.4202118285641134  0.2872495517964211  0.1489039715052058
  0.0729264713482749  0.4507346106091106  0.1451039189423824
  0.2360046282116599  0.1051306824510903  0.1493787705965985
  0.4014344213739847  0.4003329762982375  0.9010409779915491
  0.0871480729968255  0.0828595957249334  0.8976970823584836
  0.2365452731485647  0.2442998698373273  0.8734515896652368
  0.3985068724391283  0.0218084601956647  0.6204540182889460
  0.0842644028889055  0.2033505731878265  0.6337536218278572
  0.4050110908077400  0.1558490312954888  0.3663966844069719
  0.2182090707752735  0.1901648229660751  0.4352404978505930
  0.0581701414390849  0.1471511859156962  0.2063294501357689
  0.2169425291943909  0.3160220347098104  0.2000759328707176
  0.3709338250665937  0.1149809423274064  0.9159213008598144
  0.0431876060446186  0.2723594079077287  0.9017669581516472
  0.2099742505468853  0.4385901938472756  0.9025866774063331
  0.3730805349023072  0.2410517727768706  0.6794067174113039
  0.0416694619980902  0.4047151060307357  0.6804748857016989
  0.2117146874249443  0.0676519504063080  0.6743926279346724
  0.3819713398493576  0.3546292043224142  0.4319249541315955
  0.0475349350622025  0.0251789891145506  0.4393000642300251
  0.3880507850943360  0.4765062153916375  0.1982431274462471
  0.7383552996463720  0.3678111629821998  0.6289119362516473
  0.5757679974659098  0.3244955559196399  0.3935110354304072
  0.7400634131282615  0.4886982181699793  0.3879397177492692
  0.9230119578606804  0.2864375282340603  0.1505449432923101
  0.5735898048474510  0.4508971084851368  0.1443998465324370
  0.7387936862862716  0.1041498520781232  0.1493098683684337
  0.9011312746023705  0.3995488771791713  0.9014806180101260
  0.5846109596800417  0.0826931925552898  0.8988479534543359
  0.7325908629748312  0.2471180807635065  0.8715981746910586
  0.8984252188964561  0.0223970463508891  0.6255258494610558
  0.5827670864089143  0.2035520057247524  0.6332538810933670
  0.9054031963711040  0.1553362752156673  0.3700258062353612
  0.7168453560417660  0.1903382160760501  0.4327921811448761
  0.5569819040605140  0.1457623723341257  0.1983607679702217
  0.7190914693490669  0.3140679607068222  0.1963299684762632
  0.8627545803411678  0.1232486301554303  0.9155703094141714
  0.5426112565909804  0.2742536611376352  0.9031090168495979
  0.7104403082487920  0.4410537696062917  0.9030885162764761
  0.8717127199745747  0.2418677340903059  0.6778093010369801
  0.5415176962017227  0.4061163874148050  0.6819562326291404
  0.7094646913355902  0.0685128166199931  0.6732246362252354
  0.8827450530857490  0.3545518344829617  0.4312299874849330
  0.5466578018575419  0.0257810448493103  0.4358106466251215
  0.8880637357817847  0.4764316280356908  0.1980559142618787
  0.2387323435657223  0.8666466061773050  0.6310786376496864
  0.0755454831767537  0.8238442852163814  0.3958552839215201
  0.2395298856694694  0.9884679774160148  0.3895521806623847
  0.4206649193626504  0.7871629790897643  0.1493267475342961
  0.0729065048512538  0.9513619907249051  0.1478943145196610
  0.2379114476421478  0.6039660008177492  0.1481669324105184
  0.4014696248255945  0.8995430654099010  0.9015388653744125
  0.0851438214143840  0.5814875940882303  0.8979628281335152
  0.2364622103616085  0.7435648599927660  0.8740872475816346
  0.3986206431381589  0.5222673810218410  0.6195903549722885
  0.0839290870793263  0.7025919643652259  0.6351066834365895
  0.4053062526816831  0.6559329236197087  0.3667007340227570
  0.2172143118591876  0.6899469362242598  0.4333697977592692
  0.0570303553583074  0.6451612069681190  0.1984631669558325
  0.2172264902240073  0.8148113247097157  0.1987843126344231
  0.3713342861722424  0.6149784780290872  0.9153687868463294
  0.0442760990316131  0.7736369250160777  0.9036698683430942
  0.2101731437307990  0.9390592029986351  0.9038879579719605
  0.3734662648316132  0.7408022642117515  0.6794389237239145
  0.0419951605851381  0.9045204207719379  0.6832710338216472
  0.2116543840070051  0.5678411278787223  0.6742504575865382
  0.3813923424150545  0.8545007682104782  0.4321688041786231
  0.0482025712908936  0.5244630826304402  0.4354813626806333
  0.3867776344725016  0.9765262074316894  0.1982326216486427
  0.7380631484890614  0.8669420724300281  0.6316263500299968
  0.5750423942776237  0.8243014194916327  0.3956588055223378
  0.7389426699554704  0.9887437492184716  0.3914903120560638
  0.9212156020179378  0.7881264466211775  0.1506286558340406
  0.5722089299317332  0.9520754212600835  0.1461817498012650
  0.7381442259887763  0.6054521041943062  0.1484800845695702
  0.9001362107609339  0.8970028527498499  0.9018663654502959
  0.5845939712270933  0.5822742683630509  0.8982137153960608
  0.7360239593297280  0.7436173838577389  0.8749972417993632
  0.8987711733871890  0.5221329325167545  0.6202071468196237
  0.5837734028014907  0.7031784211110690  0.6355674839705330
  0.9053164235606843  0.6558603447676177  0.3676225727143745
  0.7169215740213275  0.6903161001446279  0.4335683085615969
  0.5570818355122640  0.6455866251910081  0.1982122435753482
  0.7168591036690302  0.8156924424375944  0.1998764784200091
  0.8718777308206711  0.6152128351111443  0.9154895701046044
  0.5446362049736848  0.7746476593927909  0.9044316073225502
  0.7113762635481891  0.9402998626424122  0.9046685372611663
  0.8728368831012858  0.7403431995406748  0.6798255352311600
  0.5414972070355617  0.9059798410484277  0.6832519563278936
  0.7115491054396088  0.5682784479751675  0.6739497520251945
  0.8813992772349408  0.8542984459543135  0.4350442440444269
  0.5478409609197570  0.5260002418199221  0.4358222847150302
  0.8869790726100959  0.9753891809100494  0.2053817373405593
  0.0771266110655802  0.3242711582519249  0.3960920437854298
 
  0.00000000E+00  0.00000000E+00  0.00000000E+00
  0.00000000E+00  0.00000000E+00  0.00000000E+00
  0.00000000E+00  0.00000000E+00  0.00000000E+00
  0.00000000E+00  0.00000000E+00  0.00000000E+00
  0.00000000E+00  0.00000000E+00  0.00000000E+00
  0.00000000E+00  0.00000000E+00  0.00000000E+00
  0.00000000E+00  0.00000000E+00  0.00000000E+00
  0.00000000E+00  0.00000000E+00  0.00000000E+00
  0.00000000E+00  0.00000000E+00  0.00000000E+00
  0.00000000E+00  0.00000000E+00  0.00000000E+00
  0.00000000E+00  0.00000000E+00  0.00000000E+00
  0.00000000E+00  0.00000000E+00  0.00000000E+00
  0.00000000E+00  0.00000000E+00  0.00000000E+00
  0.00000000E+00  0.00000000E+00  0.00000000E+00
  0.00000000E+00  0.00000000E+00  0.00000000E+00
  0.00000000E+00  0.00000000E+00  0.00000000E+00
  0.00000000E+00  0.00000000E+00  0.00000000E+00
  0.00000000E+00  0.00000000E+00  0.00000000E+00
  0.00000000E+00  0.00000000E+00  0.00000000E+00
  0.00000000E+00  0.00000000E+00  0.00000000E+00
  0.00000000E+00  0.00000000E+00  0.00000000E+00
  0.00000000E+00  0.00000000E+00  0.00000000E+00
  0.00000000E+00  0.00000000E+00  0.00000000E+00
  0.00000000E+00  0.00000000E+00  0.00000000E+00
  0.00000000E+00  0.00000000E+00  0.00000000E+00
  0.00000000E+00  0.00000000E+00  0.00000000E+00
  0.00000000E+00  0.00000000E+00  0.00000000E+00
  0.00000000E+00  0.00000000E+00  0.00000000E+00
  0.00000000E+00  0.00000000E+00  0.00000000E+00
  0.00000000E+00  0.00000000E+00  0.00000000E+00
  0.00000000E+00  0.00000000E+00  0.00000000E+00
  0.00000000E+00  0.00000000E+00  0.00000000E+00
  0.00000000E+00  0.00000000E+00  0.00000000E+00
  0.00000000E+00  0.00000000E+00  0.00000000E+00
  0.00000000E+00  0.00000000E+00  0.00000000E+00
  0.00000000E+00  0.00000000E+00  0.00000000E+00
  0.00000000E+00  0.00000000E+00  0.00000000E+00
  0.00000000E+00  0.00000000E+00  0.00000000E+00
  0.00000000E+00  0.00000000E+00  0.00000000E+00
  0.00000000E+00  0.00000000E+00  0.00000000E+00
  0.00000000E+00  0.00000000E+00  0.00000000E+00
  0.00000000E+00  0.00000000E+00  0.00000000E+00
  0.00000000E+00  0.00000000E+00  0.00000000E+00
  0.00000000E+00  0.00000000E+00  0.00000000E+00
  0.00000000E+00  0.00000000E+00  0.00000000E+00
  0.00000000E+00  0.00000000E+00  0.00000000E+00
  0.00000000E+00  0.00000000E+00  0.00000000E+00
  0.00000000E+00  0.00000000E+00  0.00000000E+00
  0.00000000E+00  0.00000000E+00  0.00000000E+00
  0.00000000E+00  0.00000000E+00  0.00000000E+00
  0.00000000E+00  0.00000000E+00  0.00000000E+00
  0.00000000E+00  0.00000000E+00  0.00000000E+00
  0.00000000E+00  0.00000000E+00  0.00000000E+00
  0.00000000E+00  0.00000000E+00  0.00000000E+00
  0.00000000E+00  0.00000000E+00  0.00000000E+00
  0.00000000E+00  0.00000000E+00  0.00000000E+00
  0.00000000E+00  0.00000000E+00  0.00000000E+00
  0.00000000E+00  0.00000000E+00  0.00000000E+00
  0.00000000E+00  0.00000000E+00  0.00000000E+00
  0.00000000E+00  0.00000000E+00  0.00000000E+00
  0.00000000E+00  0.00000000E+00  0.00000000E+00
  0.00000000E+00  0.00000000E+00  0.00000000E+00
  0.00000000E+00  0.00000000E+00  0.00000000E+00
  0.00000000E+00  0.00000000E+00  0.00000000E+00
  0.00000000E+00  0.00000000E+00  0.00000000E+00
  0.00000000E+00  0.00000000E+00  0.00000000E+00
  0.00000000E+00  0.00000000E+00  0.00000000E+00
  0.00000000E+00  0.00000000E+00  0.00000000E+00
  0.00000000E+00  0.00000000E+00  0.00000000E+00
  0.00000000E+00  0.00000000E+00  0.00000000E+00
  0.00000000E+00  0.00000000E+00  0.00000000E+00
  0.00000000E+00  0.00000000E+00  0.00000000E+00
  0.00000000E+00  0.00000000E+00  0.00000000E+00
  0.00000000E+00  0.00000000E+00  0.00000000E+00
  0.00000000E+00  0.00000000E+00  0.00000000E+00
  0.00000000E+00  0.00000000E+00  0.00000000E+00
  0.00000000E+00  0.00000000E+00  0.00000000E+00
  0.00000000E+00  0.00000000E+00  0.00000000E+00
  0.00000000E+00  0.00000000E+00  0.00000000E+00
  0.00000000E+00  0.00000000E+00  0.00000000E+00
  0.00000000E+00  0.00000000E+00  0.00000000E+00
  0.00000000E+00  0.00000000E+00  0.00000000E+00
  0.00000000E+00  0.00000000E+00  0.00000000E+00
  0.00000000E+00  0.00000000E+00  0.00000000E+00
  0.00000000E+00  0.00000000E+00  0.00000000E+00
  0.00000000E+00  0.00000000E+00  0.00000000E+00
  0.00000000E+00  0.00000000E+00  0.00000000E+00
  0.00000000E+00  0.00000000E+00  0.00000000E+00
  0.00000000E+00  0.00000000E+00  0.00000000E+00
  0.00000000E+00  0.00000000E+00  0.00000000E+00
  0.00000000E+00  0.00000000E+00  0.00000000E+00
  0.00000000E+00  0.00000000E+00  0.00000000E+00
  0.00000000E+00  0.00000000E+00  0.00000000E+00
  0.00000000E+00  0.00000000E+00  0.00000000E+00
  0.00000000E+00  0.00000000E+00  0.00000000E+00
  0.00000000E+00  0.00000000E+00  0.00000000E+00
  0.00000000E+00  0.00000000E+00  0.00000000E+00
  0.00000000E+00  0.00000000E+00  0.00000000E+00
  0.00000000E+00  0.00000000E+00  0.00000000E+00
  0.00000000E+00  0.00000000E+00  0.00000000E+00
  0.00000000E+00  0.00000000E+00  0.00000000E+00
  0.00000000E+00  0.00000000E+00  0.00000000E+00
  0.00000000E+00  0.00000000E+00  0.00000000E+00
  0.00000000E+00  0.00000000E+00  0.00000000E+00
  0.00000000E+00  0.00000000E+00  0.00000000E+00
  0.00000000E+00  0.00000000E+00  0.00000000E+00
  0.00000000E+00  0.00000000E+00  0.00000000E+00
  0.00000000E+00  0.00000000E+00  0.00000000E+00
  0.00000000E+00  0.00000000E+00  0.00000000E+00
  0.00000000E+00  0.00000000E+00  0.00000000E+00
  0.00000000E+00  0.00000000E+00  0.00000000E+00
  0.00000000E+00  0.00000000E+00  0.00000000E+00
  0.00000000E+00  0.00000000E+00  0.00000000E+00
  0.00000000E+00  0.00000000E+00  0.00000000E+00
  0.00000000E+00  0.00000000E+00  0.00000000E+00
  0.00000000E+00  0.00000000E+00  0.00000000E+00
  0.00000000E+00  0.00000000E+00  0.00000000E+00
  0.00000000E+00  0.00000000E+00  0.00000000E+00
  0.00000000E+00  0.00000000E+00  0.00000000E+00
  0.00000000E+00  0.00000000E+00  0.00000000E+00
  0.00000000E+00  0.00000000E+00  0.00000000E+00
  0.00000000E+00  0.00000000E+00  0.00000000E+00
  0.00000000E+00  0.00000000E+00  0.00000000E+00
  0.00000000E+00  0.00000000E+00  0.00000000E+00
  0.00000000E+00  0.00000000E+00  0.00000000E+00
  0.00000000E+00  0.00000000E+00  0.00000000E+00
  0.00000000E+00  0.00000000E+00  0.00000000E+00
  0.00000000E+00  0.00000000E+00  0.00000000E+00
  0.00000000E+00  0.00000000E+00  0.00000000E+00
  0.00000000E+00  0.00000000E+00  0.00000000E+00
  0.00000000E+00  0.00000000E+00  0.00000000E+00
  0.00000000E+00  0.00000000E+00  0.00000000E+00
  0.00000000E+00  0.00000000E+00  0.00000000E+00
  0.00000000E+00  0.00000000E+00  0.00000000E+00
  0.00000000E+00  0.00000000E+00  0.00000000E+00
  0.00000000E+00  0.00000000E+00  0.00000000E+00
  0.00000000E+00  0.00000000E+00  0.00000000E+00
  0.00000000E+00  0.00000000E+00  0.00000000E+00
  0.00000000E+00  0.00000000E+00  0.00000000E+00
  0.00000000E+00  0.00000000E+00  0.00000000E+00
  0.00000000E+00  0.00000000E+00  0.00000000E+00
  0.00000000E+00  0.00000000E+00  0.00000000E+00
  0.00000000E+00  0.00000000E+00  0.00000000E+00
  0.00000000E+00  0.00000000E+00  0.00000000E+00
  0.00000000E+00  0.00000000E+00  0.00000000E+00
  0.00000000E+00  0.00000000E+00  0.00000000E+00
  0.00000000E+00  0.00000000E+00  0.00000000E+00
  0.00000000E+00  0.00000000E+00  0.00000000E+00
  0.00000000E+00  0.00000000E+00  0.00000000E+00
  0.00000000E+00  0.00000000E+00  0.00000000E+00
  0.00000000E+00  0.00000000E+00  0.00000000E+00
  0.00000000E+00  0.00000000E+00  0.00000000E+00
  0.00000000E+00  0.00000000E+00  0.00000000E+00
  0.00000000E+00  0.00000000E+00  0.00000000E+00
  0.00000000E+00  0.00000000E+00  0.00000000E+00
  0.00000000E+00  0.00000000E+00  0.00000000E+00
  0.00000000E+00  0.00000000E+00  0.00000000E+00
  0.00000000E+00  0.00000000E+00  0.00000000E+00
  0.00000000E+00  0.00000000E+00  0.00000000E+00
  0.00000000E+00  0.00000000E+00  0.00000000E+00
  0.00000000E+00  0.00000000E+00  0.00000000E+00
  0.00000000E+00  0.00000000E+00  0.00000000E+00
  0.00000000E+00  0.00000000E+00  0.00000000E+00
  0.00000000E+00  0.00000000E+00  0.00000000E+00
  0.00000000E+00  0.00000000E+00  0.00000000E+00
  0.00000000E+00  0.00000000E+00  0.00000000E+00
  0.00000000E+00  0.00000000E+00  0.00000000E+00
  0.00000000E+00  0.00000000E+00  0.00000000E+00
  0.00000000E+00  0.00000000E+00  0.00000000E+00
  0.00000000E+00  0.00000000E+00  0.00000000E+00
  0.00000000E+00  0.00000000E+00  0.00000000E+00
  0.00000000E+00  0.00000000E+00  0.00000000E+00
  0.00000000E+00  0.00000000E+00  0.00000000E+00
  0.00000000E+00  0.00000000E+00  0.00000000E+00
  0.00000000E+00  0.00000000E+00  0.00000000E+00
  0.00000000E+00  0.00000000E+00  0.00000000E+00
  0.00000000E+00  0.00000000E+00  0.00000000E+00
  0.00000000E+00  0.00000000E+00  0.00000000E+00
  0.00000000E+00  0.00000000E+00  0.00000000E+00
  0.00000000E+00  0.00000000E+00  0.00000000E+00
  0.00000000E+00  0.00000000E+00  0.00000000E+00
  0.00000000E+00  0.00000000E+00  0.00000000E+00
  0.00000000E+00  0.00000000E+00  0.00000000E+00
  0.00000000E+00  0.00000000E+00  0.00000000E+00
  0.00000000E+00  0.00000000E+00  0.00000000E+00
  0.00000000E+00  0.00000000E+00  0.00000000E+00
  0.00000000E+00  0.00000000E+00  0.00000000E+00
  0.00000000E+00  0.00000000E+00  0.00000000E+00
  0.00000000E+00  0.00000000E+00  0.00000000E+00
  0.00000000E+00  0.00000000E+00  0.00000000E+00
  0.00000000E+00  0.00000000E+00  0.00000000E+00
  0.00000000E+00  0.00000000E+00  0.00000000E+00
