Sc   Al   N                             
   1.00000000000000     
   -10.3376995163778957   -0.0189595630779592    0.0048501605037748
    -5.1544814917998805    8.9144509590616945   -0.0066490783875142
    -0.0022148267198926    0.0012114288122574   -8.9083573606597373
   Sc   Al   N 
    11    25    36
Direct
  0.1114627152322640  0.0944955182289675  0.3514858340364384
  0.8798825973801954  0.2020634158191115  0.6045005907248751
  0.4523844750065820  0.0865717114162905  0.3461270115072708
  0.1152099788464511  0.0965479047617634  0.8502395419587785
  0.1128711284754260  0.4338725615325743  0.3447172857914040
  0.8893468410416006  0.5409045058382702  0.6106791615765061
  0.4449030920540338  0.4276483989459265  0.3493118249310854
  0.7680923769635655  0.4325750938434823  0.3437945094777177
  0.2297423969368211  0.8631806641348874  0.1039060289139329
  0.1061573447769391  0.7610265340622604  0.8459262847135420
  0.7726252216627572  0.7695998502720371  0.3480544895698969
  0.2262818895408785  0.2089565280442898  0.0836514912106452
  0.7671135934331232  0.0949335548902042  0.8477227321016017
  0.5560532276511836  0.2049178882623934  0.0831004730827161
  0.2336965880938280  0.2032438039198752  0.5960796170969758
  0.7812448970593167  0.0908561809995732  0.3252636269467644
  0.8831487506047822  0.2091591413520533  0.0875252141478811
  0.4490653094220889  0.0952913020415451  0.8430996639735113
  0.5591638464817734  0.1995415812472459  0.5939347071619494
  0.2239308176959227  0.5360089867960909  0.0798131804913353
  0.7681959457491061  0.4305504811073320  0.8488739369022724
  0.5553120086144077  0.5388776800902093  0.0774215950936465
  0.1222175165840014  0.4229944682963165  0.8452932573787209
  0.2273708241306451  0.5374304601961981  0.5979157776231361
  0.8881581116628610  0.5410157728338518  0.0821129483040579
  0.4478358444516530  0.4219105951401829  0.8406739125572145
  0.5467263530617856  0.5447806497132106  0.5978645936094296
  0.1090481267816941  0.7639661784839546  0.3539273032134389
  0.7714476150992127  0.7700610579496328  0.8440181782235641
  0.8826669353005272  0.8805599308982153  0.5897346260114489
  0.4472531200207257  0.7569025438157126  0.3400328130028996
  0.5584667320027279  0.8674892060463364  0.0753470784160086
  0.2311647752795807  0.8657879348137456  0.5931729737820177
  0.8851568261033051  0.8712508229830576  0.0868060380930089
  0.4489070381790796  0.7570372744463683  0.8372863687999441
  0.5507238903133640  0.8726491224901665  0.6008945767659242
  0.2275001147294802  0.2072851461706549  0.3684255174855764
  0.1042189483011668  0.1114364750289809  0.1019980601985964
  0.8710921715288649  0.2114112925229037  0.8625441043614828
  0.7656438449414722  0.0860306217020437  0.6285996008385268
  0.5781832074860915  0.1921531626463349  0.3677660294271803
  0.4489204088303822  0.0890182669651907  0.0978296332454960
  0.2365470445507825  0.2107211371550690  0.8618116652625289
  0.1280658890269777  0.0861838932857211  0.6053558912024286
  0.8785467961286102  0.1989586426550787  0.3542766678880014
  0.7758121629190740  0.0939189545428221  0.1052045385888292
  0.5536353193387242  0.2065007415037314  0.8652898256371415
  0.4482446034279945  0.0930855591148259  0.6177639479760657
  0.2161572850244227  0.5576143995039047  0.3746677113334371
  0.1127492808799317  0.4286981618894501  0.0946285149182273
  0.8899493989444593  0.5403279982343534  0.8610704513902050
  0.7574570671682892  0.4375471268531257  0.6190510263831968
  0.5424135488924264  0.5553864664185539  0.3750166998598345
  0.4447139188983513  0.4277776054671278  0.1003838545193432
  0.2339940220995587  0.5244866951080098  0.8577085489999305
  0.1299211572686545  0.4188544301352977  0.6182278410793955
  0.8869633983276728  0.5415580174424974  0.3598046943305064
  0.7741363525594025  0.4305527028572698  0.0928166642589403
  0.5508702832766375  0.5397208548605263  0.8600431945409426
  0.4470702061123788  0.4231432373307484  0.6163892720819817
  0.2336148488845708  0.8546227276740552  0.3596933469662389
  0.1012794190705009  0.7504120989020890  0.1097170052234162
  0.8704581870326891  0.8818284938447860  0.8683597151845390
  0.7689173357677888  0.7799443797720613  0.6159409879160620
  0.5451755967271126  0.8609219565663437  0.3787747582646546
  0.4673825365626172  0.7489067540045369  0.1138541182173753
  0.2397277771052302  0.8614911520151054  0.8606752171311385
  0.1071601235405453  0.7667913220776370  0.6032761875812156
  0.8972214025017422  0.8839910918357745  0.3638511725547886
  0.7740710148068217  0.7628595252846821  0.0984649074020965
  0.5541262698840157  0.8709896169916789  0.8562210705564581
  0.4435758622644030  0.7600780652440022  0.6211136057826963
 
  0.00000000E+00  0.00000000E+00  0.00000000E+00
  0.00000000E+00  0.00000000E+00  0.00000000E+00
  0.00000000E+00  0.00000000E+00  0.00000000E+00
  0.00000000E+00  0.00000000E+00  0.00000000E+00
  0.00000000E+00  0.00000000E+00  0.00000000E+00
  0.00000000E+00  0.00000000E+00  0.00000000E+00
  0.00000000E+00  0.00000000E+00  0.00000000E+00
  0.00000000E+00  0.00000000E+00  0.00000000E+00
  0.00000000E+00  0.00000000E+00  0.00000000E+00
  0.00000000E+00  0.00000000E+00  0.00000000E+00
  0.00000000E+00  0.00000000E+00  0.00000000E+00
  0.00000000E+00  0.00000000E+00  0.00000000E+00
  0.00000000E+00  0.00000000E+00  0.00000000E+00
  0.00000000E+00  0.00000000E+00  0.00000000E+00
  0.00000000E+00  0.00000000E+00  0.00000000E+00
  0.00000000E+00  0.00000000E+00  0.00000000E+00
  0.00000000E+00  0.00000000E+00  0.00000000E+00
  0.00000000E+00  0.00000000E+00  0.00000000E+00
  0.00000000E+00  0.00000000E+00  0.00000000E+00
  0.00000000E+00  0.00000000E+00  0.00000000E+00
  0.00000000E+00  0.00000000E+00  0.00000000E+00
  0.00000000E+00  0.00000000E+00  0.00000000E+00
  0.00000000E+00  0.00000000E+00  0.00000000E+00
  0.00000000E+00  0.00000000E+00  0.00000000E+00
  0.00000000E+00  0.00000000E+00  0.00000000E+00
  0.00000000E+00  0.00000000E+00  0.00000000E+00
  0.00000000E+00  0.00000000E+00  0.00000000E+00
  0.00000000E+00  0.00000000E+00  0.00000000E+00
  0.00000000E+00  0.00000000E+00  0.00000000E+00
  0.00000000E+00  0.00000000E+00  0.00000000E+00
  0.00000000E+00  0.00000000E+00  0.00000000E+00
  0.00000000E+00  0.00000000E+00  0.00000000E+00
  0.00000000E+00  0.00000000E+00  0.00000000E+00
  0.00000000E+00  0.00000000E+00  0.00000000E+00
  0.00000000E+00  0.00000000E+00  0.00000000E+00
  0.00000000E+00  0.00000000E+00  0.00000000E+00
  0.00000000E+00  0.00000000E+00  0.00000000E+00
  0.00000000E+00  0.00000000E+00  0.00000000E+00
  0.00000000E+00  0.00000000E+00  0.00000000E+00
  0.00000000E+00  0.00000000E+00  0.00000000E+00
  0.00000000E+00  0.00000000E+00  0.00000000E+00
  0.00000000E+00  0.00000000E+00  0.00000000E+00
  0.00000000E+00  0.00000000E+00  0.00000000E+00
  0.00000000E+00  0.00000000E+00  0.00000000E+00
  0.00000000E+00  0.00000000E+00  0.00000000E+00
  0.00000000E+00  0.00000000E+00  0.00000000E+00
  0.00000000E+00  0.00000000E+00  0.00000000E+00
  0.00000000E+00  0.00000000E+00  0.00000000E+00
  0.00000000E+00  0.00000000E+00  0.00000000E+00
  0.00000000E+00  0.00000000E+00  0.00000000E+00
  0.00000000E+00  0.00000000E+00  0.00000000E+00
  0.00000000E+00  0.00000000E+00  0.00000000E+00
  0.00000000E+00  0.00000000E+00  0.00000000E+00
  0.00000000E+00  0.00000000E+00  0.00000000E+00
  0.00000000E+00  0.00000000E+00  0.00000000E+00
  0.00000000E+00  0.00000000E+00  0.00000000E+00
  0.00000000E+00  0.00000000E+00  0.00000000E+00
  0.00000000E+00  0.00000000E+00  0.00000000E+00
  0.00000000E+00  0.00000000E+00  0.00000000E+00
  0.00000000E+00  0.00000000E+00  0.00000000E+00
  0.00000000E+00  0.00000000E+00  0.00000000E+00
  0.00000000E+00  0.00000000E+00  0.00000000E+00
  0.00000000E+00  0.00000000E+00  0.00000000E+00
  0.00000000E+00  0.00000000E+00  0.00000000E+00
  0.00000000E+00  0.00000000E+00  0.00000000E+00
  0.00000000E+00  0.00000000E+00  0.00000000E+00
  0.00000000E+00  0.00000000E+00  0.00000000E+00
  0.00000000E+00  0.00000000E+00  0.00000000E+00
  0.00000000E+00  0.00000000E+00  0.00000000E+00
  0.00000000E+00  0.00000000E+00  0.00000000E+00
  0.00000000E+00  0.00000000E+00  0.00000000E+00
  0.00000000E+00  0.00000000E+00  0.00000000E+00
