supercell of icsd_181358.cif            
   1.00000000000000     
     9.9889240028344997   -0.0525205121169508    0.0095045102333659
    -5.0401759976632059    8.6563808513217015   -0.0479659872411762
     0.0100863928692155   -0.0532102261584411   10.6275809255521825
   N    Ga   La
    36    30     6
Direct
  0.2220561210674532  0.1147868866299149  0.4400725461094481
  0.1065942162423426  0.2187515923078251  0.1919428851819589
  0.8923138432756303  0.1127933691508147  0.9331622992394841
  0.7740299775576887  0.2191807425382635  0.6821333245160019
  0.5566259412663896  0.1077914375281992  0.4308460312348998
  0.4492573643651170  0.2228553215738600  0.1933255447154494
  0.2181409703576804  0.1053924790503942  0.9722970949465406
  0.0901536639445411  0.2395449553231330  0.6726861158426019
  0.8847405626919596  0.1121636831722199  0.4306207149617478
  0.7774525771223608  0.2265782795850271  0.1842199074595214
  0.5540750488016073  0.1087048636200265  0.9374824027636777
  0.4760166381419282  0.2256696620103469  0.6696759202997598
  0.1835817353970910  0.4288892092126204  0.4287525508734049
  0.1085846086600384  0.5542097937361206  0.1839789045793125
  0.9038486792752991  0.4171525163116385  0.9220893539016046
  0.7746719968346127  0.5277212423559590  0.6927843361307353
  0.5704889170716712  0.4270405263324051  0.4415573120669762
  0.4467217565145276  0.5560868980001032  0.2302626898867786
  0.1931881127198523  0.4193635645836551  0.9330188418837224
  0.1153694884585832  0.5591341114938544  0.6844861297810709
  0.8895858372654004  0.4406955640577692  0.4421499033676710
  0.7702450688956333  0.5339914573186135  0.2111805605899093
  0.5242589422473003  0.3935166246826114  0.9189533193784882
  0.4481511085712597  0.5558765353221347  0.7235461599879187
  0.2244661377226578  0.7739172080166696  0.4345797828907152
  0.1459008868664000  0.9021473824054027  0.1941023389145755
  0.8970287438338644  0.8017013089199807  0.9754556892144990
  0.7613158054017433  0.9139488753252181  0.6807943755522459
  0.5708257643586307  0.8157010949759993  0.4313693469466173
  0.4413907961188670  0.8886282384077759  0.1830564348374324
  0.2190685016012921  0.7699422814742007  0.9373236078526830
  0.1447596291418236  0.8898759626273716  0.6787998238985011
  0.8851946845661018  0.7774778131760982  0.4839538196123456
  0.7568705529633775  0.9135022499750534  0.1795050646560554
  0.5714704072201116  0.8143286317825869  0.9292465503015066
  0.4435655102954499  0.8889701669385204  0.6848731941107502
  0.2312692906890845  0.1166802909244211  0.2492173025791971
  0.1015419161045870  0.2123520628734852  0.0075087688667708
  0.8833899118319337  0.1231329819631952  0.7462680925221861
  0.7747987291873670  0.2192855892381473  0.4969358484994260
  0.5565445619043246  0.1093633236139908  0.2462559566539113
  0.4376760088368243  0.2046857931836854  0.0084348843037105
  0.0965992501865713  0.2221160526213311  0.4910921703073541
  0.8825463667137470  0.1200088788509461  0.2470889778309200
  0.7793041208813776  0.2125340966140641  0.9954746479111307
  0.5608407347249482  0.1102878766193598  0.7461733799633308
  0.4532532884816405  0.2152591037728158  0.4916233540194668
  0.2107979468632450  0.4395508058785822  0.2507220316855907
  0.1079149317098640  0.5449508082117163  0.9960993145702588
  0.8943228037991773  0.4313700653880517  0.7409206270870499
  0.7802876430968197  0.5432672901168232  0.5049821587625658
  0.5577397246674636  0.4339607452779788  0.2619715803237241
  0.2107379409591701  0.4448331228347087  0.7498668073211476
  0.1051421675531969  0.5542804786602602  0.4982958611011270
  0.8883229671137443  0.4383790510710242  0.2564672287949108
  0.5598189603044119  0.4305029662148030  0.7421998037366961
  0.2292755721184037  0.7768360867535478  0.2482115077323286
  0.1184720856184711  0.8911750357269241  0.0127955483168947
  0.7751202985728298  0.9065569983769208  0.5024916208893089
  0.5536409101373039  0.7938485755465479  0.2511730744971885
  0.4449477414760921  0.8941038626488904  0.9969260104568320
  0.2292774705237477  0.7750662942151010  0.7478075956710555
  0.1230696713578112  0.8902029395867288  0.5004527971037973
  0.7793357150085924  0.9076578495658651  0.0000311644113182
  0.5556619504966491  0.7929080366550565  0.7498085518399549
  0.4459194739411600  0.8972816876820815  0.4982444712607759
  0.2381162057091828  0.1386223858123046  0.7530223863179657
  0.4445117009389463  0.5574696426715988  0.9945184218723000
  0.7764064505309491  0.5341258136672451  0.9932095352585364
  0.4418257573797959  0.5582865561304473  0.4905696662822550
  0.8907883932996370  0.7873308572876567  0.7386935914800077
  0.8887707404446346  0.7936934638212705  0.2541603812824391
 
  0.00000000E+00  0.00000000E+00  0.00000000E+00
  0.00000000E+00  0.00000000E+00  0.00000000E+00
  0.00000000E+00  0.00000000E+00  0.00000000E+00
  0.00000000E+00  0.00000000E+00  0.00000000E+00
  0.00000000E+00  0.00000000E+00  0.00000000E+00
  0.00000000E+00  0.00000000E+00  0.00000000E+00
  0.00000000E+00  0.00000000E+00  0.00000000E+00
  0.00000000E+00  0.00000000E+00  0.00000000E+00
  0.00000000E+00  0.00000000E+00  0.00000000E+00
  0.00000000E+00  0.00000000E+00  0.00000000E+00
  0.00000000E+00  0.00000000E+00  0.00000000E+00
  0.00000000E+00  0.00000000E+00  0.00000000E+00
  0.00000000E+00  0.00000000E+00  0.00000000E+00
  0.00000000E+00  0.00000000E+00  0.00000000E+00
  0.00000000E+00  0.00000000E+00  0.00000000E+00
  0.00000000E+00  0.00000000E+00  0.00000000E+00
  0.00000000E+00  0.00000000E+00  0.00000000E+00
  0.00000000E+00  0.00000000E+00  0.00000000E+00
  0.00000000E+00  0.00000000E+00  0.00000000E+00
  0.00000000E+00  0.00000000E+00  0.00000000E+00
  0.00000000E+00  0.00000000E+00  0.00000000E+00
  0.00000000E+00  0.00000000E+00  0.00000000E+00
  0.00000000E+00  0.00000000E+00  0.00000000E+00
  0.00000000E+00  0.00000000E+00  0.00000000E+00
  0.00000000E+00  0.00000000E+00  0.00000000E+00
  0.00000000E+00  0.00000000E+00  0.00000000E+00
  0.00000000E+00  0.00000000E+00  0.00000000E+00
  0.00000000E+00  0.00000000E+00  0.00000000E+00
  0.00000000E+00  0.00000000E+00  0.00000000E+00
  0.00000000E+00  0.00000000E+00  0.00000000E+00
  0.00000000E+00  0.00000000E+00  0.00000000E+00
  0.00000000E+00  0.00000000E+00  0.00000000E+00
  0.00000000E+00  0.00000000E+00  0.00000000E+00
  0.00000000E+00  0.00000000E+00  0.00000000E+00
  0.00000000E+00  0.00000000E+00  0.00000000E+00
  0.00000000E+00  0.00000000E+00  0.00000000E+00
  0.00000000E+00  0.00000000E+00  0.00000000E+00
  0.00000000E+00  0.00000000E+00  0.00000000E+00
  0.00000000E+00  0.00000000E+00  0.00000000E+00
  0.00000000E+00  0.00000000E+00  0.00000000E+00
  0.00000000E+00  0.00000000E+00  0.00000000E+00
  0.00000000E+00  0.00000000E+00  0.00000000E+00
  0.00000000E+00  0.00000000E+00  0.00000000E+00
  0.00000000E+00  0.00000000E+00  0.00000000E+00
  0.00000000E+00  0.00000000E+00  0.00000000E+00
  0.00000000E+00  0.00000000E+00  0.00000000E+00
  0.00000000E+00  0.00000000E+00  0.00000000E+00
  0.00000000E+00  0.00000000E+00  0.00000000E+00
  0.00000000E+00  0.00000000E+00  0.00000000E+00
  0.00000000E+00  0.00000000E+00  0.00000000E+00
  0.00000000E+00  0.00000000E+00  0.00000000E+00
  0.00000000E+00  0.00000000E+00  0.00000000E+00
  0.00000000E+00  0.00000000E+00  0.00000000E+00
  0.00000000E+00  0.00000000E+00  0.00000000E+00
  0.00000000E+00  0.00000000E+00  0.00000000E+00
  0.00000000E+00  0.00000000E+00  0.00000000E+00
  0.00000000E+00  0.00000000E+00  0.00000000E+00
  0.00000000E+00  0.00000000E+00  0.00000000E+00
  0.00000000E+00  0.00000000E+00  0.00000000E+00
  0.00000000E+00  0.00000000E+00  0.00000000E+00
  0.00000000E+00  0.00000000E+00  0.00000000E+00
  0.00000000E+00  0.00000000E+00  0.00000000E+00
  0.00000000E+00  0.00000000E+00  0.00000000E+00
  0.00000000E+00  0.00000000E+00  0.00000000E+00
  0.00000000E+00  0.00000000E+00  0.00000000E+00
  0.00000000E+00  0.00000000E+00  0.00000000E+00
  0.00000000E+00  0.00000000E+00  0.00000000E+00
  0.00000000E+00  0.00000000E+00  0.00000000E+00
  0.00000000E+00  0.00000000E+00  0.00000000E+00
  0.00000000E+00  0.00000000E+00  0.00000000E+00
  0.00000000E+00  0.00000000E+00  0.00000000E+00
  0.00000000E+00  0.00000000E+00  0.00000000E+00
