Al   Sc   N                             
   1.00000000000000     
    -9.4948431479714195   -0.0014093587919136   -0.0010594773631434
    -4.7469306330696730    8.2210908563730563   -0.0000000187332031
    -0.0014140077383456   -0.0008163615508118  -10.0017177041192848
   Al   Sc   N 
    34     2    36
Direct
  0.1136720484264870  0.0906786830898483  0.3027780396231492
  0.2223668864998913  0.2054832104148829  0.0530530305673196
  0.7744208008774933  0.0991194079904787  0.8063688980853954
  0.8906799463141866  0.2035876069391378  0.5560626796558594
  0.4441841041997705  0.0945745974368890  0.3031674645477693
  0.5539446731507454  0.2063994626700847  0.0530647375269098
  0.1127752535419404  0.0936499803777338  0.8030910095175585
  0.2224124586401786  0.2054604416847212  0.5530629896451629
  0.7782101007629407  0.0920148872961732  0.2978591941296500
  0.8900351282329595  0.2054706496182348  0.0488657049414272
  0.4442828816530024  0.0945252604099593  0.8028215620812347
  0.5528980262206957  0.2091800135669857  0.5525743101587892
  0.1136719610412058  0.4289825970998251  0.3027779122539442
  0.2228986188699977  0.5378291754633224  0.0527744102842647
  0.7780772349425860  0.4276280066700622  0.8009687586286276
  0.8906799083743735  0.5390658062431655  0.5560626834979203
  0.4407627042240421  0.4292041990864561  0.3023560163231807
  0.5545484650381027  0.5393924388075604  0.0486714872385434
  0.1127752100643775  0.4269080937009733  0.8030908605098759
  0.2261707238630137  0.5359820446418908  0.5522883347378382
  0.8900350285986960  0.5378276910484274  0.0488655572770327
  0.4435266219453808  0.4269417660852852  0.8027037388402007
  0.5494632876063079  0.5419350263955991  0.5567416369370619
  0.1123651870073346  0.7604840363950771  0.2990198784161677
  0.2228986642052391  0.8726056463849261  0.0527745565284619
  0.7744207741500375  0.7597931067305410  0.8063688958271555
  0.4407626634595729  0.7633664861797911  0.3023559670290226
  0.5539446777892607  0.8729892730640287  0.0530646433571320
  0.1167962272287895  0.7582685933689035  0.8057761933771985
  0.2261706911757955  0.8711806123397281  0.5522883125871019
  0.7782099293735669  0.7631083412904971  0.2978591570940736
  0.8894455727921979  0.8719439062231373  0.0514171921450313
  0.4435265691155337  0.7628648955357420  0.8027036176968707
  0.5528980528896383  0.8712553222955108  0.5525742562132407
  0.7774051227652805  0.4279641596873915  0.3112261561118359
  0.8889776544284018  0.8721775952679778  0.5588315047679657
  0.2213441501035618  0.2059946863888769  0.3604058554153795
  0.1109594035552774  0.0947648782152797  0.1103723078768439
  0.8907703158089930  0.2053471717722459  0.8581891665987129
  0.7662373085275291  0.1141874893534336  0.6179227658889772
  0.5560984455848796  0.2058556433835577  0.3591446230451254
  0.4440034259491483  0.0946649836202766  0.1115020399501745
  0.2227314008601553  0.2053010248791054  0.8608376898617180
  0.1129563783394261  0.0931626101562912  0.6114851143980928
  0.8990157059643096  0.1839892619696997  0.3661254658124449
  0.7772571284211338  0.0959752270832155  0.1056622379036014
  0.5531523069036908  0.2063169749432916  0.8624373360771216
  0.4450538789390777  0.0941397874143277  0.6095735854551663
  0.2220276052513057  0.5393691471112305  0.3598076525964800
  0.1109593375918010  0.4276089887963508  0.1103720679302782
  0.8907703120277617  0.5372159123175280  0.8581890677089277
  0.7775804562947854  0.4278762887768295  0.6041295439847971
  0.5343052065741603  0.5495140503297691  0.3669418773576112
  0.4447088458573774  0.4282343152789920  0.1101588522915833
  0.2230565805277820  0.5371745050867247  0.8622535535346003
  0.1129563551371788  0.4272141802811831  0.6114848310663135
  0.8990157809714532  0.5503285441275665  0.3661254389523876
  0.7772679936004252  0.4280326364509719  0.0981228010794979
  0.5544479010554468  0.5394427150098764  0.8563695800247899
  0.4435336478086853  0.4266284779418186  0.6119761090628373
  0.2220274799549671  0.8719366462029754  0.3598076962933732
  0.1125974768158926  0.7603679177088907  0.1070250659838052
  0.8894455970535944  0.8719439702054146  0.8552892011300699
  0.7662373667184781  0.7529083183756242  0.6179228884839247
  0.5560984452382769  0.8713794495820935  0.3591444355793811
  0.4447089012649883  0.7603900185920693  0.1101587148815852
  0.2230565532484619  0.8731023759237928  0.8622537289948795
  0.1320800209715287  0.7506265696324519  0.6159576233021227
  0.8890503808148154  0.8721415239321502  0.3456088882545316
  0.7772571475529304  0.7601009514251160  0.1056622095906619
  0.5531522332936234  0.8738642453107488  0.8624371390288985
  0.4435335681531001  0.7631710475970408  0.6119759444456605
 
  0.00000000E+00  0.00000000E+00  0.00000000E+00
  0.00000000E+00  0.00000000E+00  0.00000000E+00
  0.00000000E+00  0.00000000E+00  0.00000000E+00
  0.00000000E+00  0.00000000E+00  0.00000000E+00
  0.00000000E+00  0.00000000E+00  0.00000000E+00
  0.00000000E+00  0.00000000E+00  0.00000000E+00
  0.00000000E+00  0.00000000E+00  0.00000000E+00
  0.00000000E+00  0.00000000E+00  0.00000000E+00
  0.00000000E+00  0.00000000E+00  0.00000000E+00
  0.00000000E+00  0.00000000E+00  0.00000000E+00
  0.00000000E+00  0.00000000E+00  0.00000000E+00
  0.00000000E+00  0.00000000E+00  0.00000000E+00
  0.00000000E+00  0.00000000E+00  0.00000000E+00
  0.00000000E+00  0.00000000E+00  0.00000000E+00
  0.00000000E+00  0.00000000E+00  0.00000000E+00
  0.00000000E+00  0.00000000E+00  0.00000000E+00
  0.00000000E+00  0.00000000E+00  0.00000000E+00
  0.00000000E+00  0.00000000E+00  0.00000000E+00
  0.00000000E+00  0.00000000E+00  0.00000000E+00
  0.00000000E+00  0.00000000E+00  0.00000000E+00
  0.00000000E+00  0.00000000E+00  0.00000000E+00
  0.00000000E+00  0.00000000E+00  0.00000000E+00
  0.00000000E+00  0.00000000E+00  0.00000000E+00
  0.00000000E+00  0.00000000E+00  0.00000000E+00
  0.00000000E+00  0.00000000E+00  0.00000000E+00
  0.00000000E+00  0.00000000E+00  0.00000000E+00
  0.00000000E+00  0.00000000E+00  0.00000000E+00
  0.00000000E+00  0.00000000E+00  0.00000000E+00
  0.00000000E+00  0.00000000E+00  0.00000000E+00
  0.00000000E+00  0.00000000E+00  0.00000000E+00
  0.00000000E+00  0.00000000E+00  0.00000000E+00
  0.00000000E+00  0.00000000E+00  0.00000000E+00
  0.00000000E+00  0.00000000E+00  0.00000000E+00
  0.00000000E+00  0.00000000E+00  0.00000000E+00
  0.00000000E+00  0.00000000E+00  0.00000000E+00
  0.00000000E+00  0.00000000E+00  0.00000000E+00
  0.00000000E+00  0.00000000E+00  0.00000000E+00
  0.00000000E+00  0.00000000E+00  0.00000000E+00
  0.00000000E+00  0.00000000E+00  0.00000000E+00
  0.00000000E+00  0.00000000E+00  0.00000000E+00
  0.00000000E+00  0.00000000E+00  0.00000000E+00
  0.00000000E+00  0.00000000E+00  0.00000000E+00
  0.00000000E+00  0.00000000E+00  0.00000000E+00
  0.00000000E+00  0.00000000E+00  0.00000000E+00
  0.00000000E+00  0.00000000E+00  0.00000000E+00
  0.00000000E+00  0.00000000E+00  0.00000000E+00
  0.00000000E+00  0.00000000E+00  0.00000000E+00
  0.00000000E+00  0.00000000E+00  0.00000000E+00
  0.00000000E+00  0.00000000E+00  0.00000000E+00
  0.00000000E+00  0.00000000E+00  0.00000000E+00
  0.00000000E+00  0.00000000E+00  0.00000000E+00
  0.00000000E+00  0.00000000E+00  0.00000000E+00
  0.00000000E+00  0.00000000E+00  0.00000000E+00
  0.00000000E+00  0.00000000E+00  0.00000000E+00
  0.00000000E+00  0.00000000E+00  0.00000000E+00
  0.00000000E+00  0.00000000E+00  0.00000000E+00
  0.00000000E+00  0.00000000E+00  0.00000000E+00
  0.00000000E+00  0.00000000E+00  0.00000000E+00
  0.00000000E+00  0.00000000E+00  0.00000000E+00
  0.00000000E+00  0.00000000E+00  0.00000000E+00
  0.00000000E+00  0.00000000E+00  0.00000000E+00
  0.00000000E+00  0.00000000E+00  0.00000000E+00
  0.00000000E+00  0.00000000E+00  0.00000000E+00
  0.00000000E+00  0.00000000E+00  0.00000000E+00
  0.00000000E+00  0.00000000E+00  0.00000000E+00
  0.00000000E+00  0.00000000E+00  0.00000000E+00
  0.00000000E+00  0.00000000E+00  0.00000000E+00
  0.00000000E+00  0.00000000E+00  0.00000000E+00
  0.00000000E+00  0.00000000E+00  0.00000000E+00
  0.00000000E+00  0.00000000E+00  0.00000000E+00
  0.00000000E+00  0.00000000E+00  0.00000000E+00
  0.00000000E+00  0.00000000E+00  0.00000000E+00
