Al   Sc   N                             
   1.00000000000000     
    -9.5901752896477763   -0.0014073449451509   -0.0010584585386116
    -4.7932916731248252    8.3033360196337966   -0.0000000154001050
    -0.0014696726396290   -0.0008464202755237   -9.7384025691095708
   Al   Sc   N 
    34     2    36
Direct
  0.1138678723651978  0.0908705819308153  0.3267603732268327
  0.2227672314016189  0.2052837620300352  0.0771926678763393
  0.7734423778793271  0.1007888263968937  0.8322518660375380
  0.8914084690592361  0.2023447717062012  0.5804172820149347
  0.4439338302908951  0.0946994188305581  0.3284564450056635
  0.5536142180752890  0.2062119983808230  0.0785402038589140
  0.1128794249241736  0.0935677078988419  0.8282616370755065
  0.2222629794283435  0.2055354058632801  0.5780563884253525
  0.7788171364229726  0.0910023272477076  0.3227069354207899
  0.8899222487000884  0.2062095447186394  0.0748862896393305
  0.4444764375313994  0.0944278876366411  0.8267751179878573
  0.5528833376963576  0.2094672363068568  0.5763553485124859
  0.1138667688517714  0.4285929450872388  0.3267603241434713
  0.2227111589046942  0.5380226325765776  0.0780156812209896
  0.7783848633979815  0.4274734557394950  0.8246503852456755
  0.8914084677163316  0.5395821575176427  0.5804171939563929
  0.4407042250942297  0.4294871795238322  0.3261963232450356
  0.5552816540959853  0.5390268126833888  0.0734215706563575
  0.1128795725316962  0.4268839614319404  0.8282612151566937
  0.2263888230975724  0.5356090885947893  0.5761436633093524
  0.8899221047374724  0.5372031526583498  0.0748860318115305
  0.4433374959225063  0.4265293795211846  0.8279508630822221
  0.5477796469159273  0.5427785284907785  0.5823898979031412
  0.1114556442679770  0.7609375295188840  0.3249953598502202
  0.2227112607550552  0.8726009100813741  0.0780153632365739
  0.7734432363343373  0.7591004954564440  0.8322517328026962
  0.4407046171536564  0.7631410495917166  0.3261962209966427
  0.5536143712539427  0.8735090708701421  0.0785397180415544
  0.1185187057715211  0.7574059622355733  0.8302091708341948
  0.2263892342984661  0.8713357534369379  0.5761440526963355
  0.7788163829120762  0.7635118135066961  0.3227068137561631
  0.8898678718610711  0.8717335905242507  0.0747479661093138
  0.4433376303416807  0.7634652540781062  0.8279508897345309
  0.5528841083298133  0.8709850165034041  0.5763553146137141
  0.7766561737472344  0.4283357449785825  0.3418590314174068
  0.8885635019071856  0.8723876439385378  0.5904227565965101
  0.2211432282921564  0.2060971480164895  0.3812328975986361
  0.1113403914180395  0.0949106852559893  0.1302591790120786
  0.8907057653818242  0.2061418535369484  0.8792508026121837
  0.7652012316023615  0.1158974977771976  0.6389134089295609
  0.5562237210221355  0.2061039473133874  0.3787155357435807
  0.4435757917958654  0.0948766226506308  0.1326966127617908
  0.2232003415301023  0.2050685459851778  0.8807580161651742
  0.1130917705112822  0.0928776732150141  0.6323204935631210
  0.8997585068903788  0.1829717347781283  0.3855934975791584
  0.7776426724661363  0.0951362774620250  0.1253570429507747
  0.5525690989721568  0.2062381643329445  0.8836775503183674
  0.4454042106289222  0.0939625412222398  0.6291679900582210
  0.2221738088831131  0.5388956164753864  0.3793706097161547
  0.1113400525005233  0.4270775513609593  0.1302594293716055
  0.8907057872753228  0.5364905829533626  0.8792504012103564
  0.7778795004355246  0.4277249305379200  0.6217880872206507
  0.5325144515338991  0.5504125431900846  0.3877757683057936
  0.4448061894951607  0.4283832660779794  0.1299208863720906
  0.2230452568321368  0.5371796955416244  0.8832765112126211
  0.1130916793435333  0.4273578455041118  0.6323199057445734
  0.8997566161458934  0.5506070703886436  0.3855926215917975
  0.7769155669224475  0.4282064896896856  0.1221882368461635
  0.5550432107613119  0.5391475269954853  0.8760639935565351
  0.4431134962545116  0.4262755807970322  0.6328585954830928
  0.2221742491242509  0.8722672461983692  0.3793709424442895
  0.1118685733966558  0.7607300302901834  0.1279403829771297
  0.8898078417849362  0.8717651220884548  0.8728236223647627
  0.7652030815112525  0.7522302812463906  0.6389124407837059
  0.5562232988091083  0.8710117534104711  0.3787158795080714
  0.4448062244965598  0.7601399890486249  0.1299204515448338
  0.2230450828381194  0.8731122482768470  0.8832761671871125
  0.1336442237194930  0.7498413355182478  0.6355579754266500
  0.8887177748730295  0.8723095999107855  0.3702756928548894
  0.7776426166719475  0.7605497683564195  0.1253568759695085
  0.5525699805508424  0.8745307922378842  0.8836768634839771
  0.4431137349972332  0.7639407278290520  0.6328590513636101
 
  0.00000000E+00  0.00000000E+00  0.00000000E+00
  0.00000000E+00  0.00000000E+00  0.00000000E+00
  0.00000000E+00  0.00000000E+00  0.00000000E+00
  0.00000000E+00  0.00000000E+00  0.00000000E+00
  0.00000000E+00  0.00000000E+00  0.00000000E+00
  0.00000000E+00  0.00000000E+00  0.00000000E+00
  0.00000000E+00  0.00000000E+00  0.00000000E+00
  0.00000000E+00  0.00000000E+00  0.00000000E+00
  0.00000000E+00  0.00000000E+00  0.00000000E+00
  0.00000000E+00  0.00000000E+00  0.00000000E+00
  0.00000000E+00  0.00000000E+00  0.00000000E+00
  0.00000000E+00  0.00000000E+00  0.00000000E+00
  0.00000000E+00  0.00000000E+00  0.00000000E+00
  0.00000000E+00  0.00000000E+00  0.00000000E+00
  0.00000000E+00  0.00000000E+00  0.00000000E+00
  0.00000000E+00  0.00000000E+00  0.00000000E+00
  0.00000000E+00  0.00000000E+00  0.00000000E+00
  0.00000000E+00  0.00000000E+00  0.00000000E+00
  0.00000000E+00  0.00000000E+00  0.00000000E+00
  0.00000000E+00  0.00000000E+00  0.00000000E+00
  0.00000000E+00  0.00000000E+00  0.00000000E+00
  0.00000000E+00  0.00000000E+00  0.00000000E+00
  0.00000000E+00  0.00000000E+00  0.00000000E+00
  0.00000000E+00  0.00000000E+00  0.00000000E+00
  0.00000000E+00  0.00000000E+00  0.00000000E+00
  0.00000000E+00  0.00000000E+00  0.00000000E+00
  0.00000000E+00  0.00000000E+00  0.00000000E+00
  0.00000000E+00  0.00000000E+00  0.00000000E+00
  0.00000000E+00  0.00000000E+00  0.00000000E+00
  0.00000000E+00  0.00000000E+00  0.00000000E+00
  0.00000000E+00  0.00000000E+00  0.00000000E+00
  0.00000000E+00  0.00000000E+00  0.00000000E+00
  0.00000000E+00  0.00000000E+00  0.00000000E+00
  0.00000000E+00  0.00000000E+00  0.00000000E+00
  0.00000000E+00  0.00000000E+00  0.00000000E+00
  0.00000000E+00  0.00000000E+00  0.00000000E+00
  0.00000000E+00  0.00000000E+00  0.00000000E+00
  0.00000000E+00  0.00000000E+00  0.00000000E+00
  0.00000000E+00  0.00000000E+00  0.00000000E+00
  0.00000000E+00  0.00000000E+00  0.00000000E+00
  0.00000000E+00  0.00000000E+00  0.00000000E+00
  0.00000000E+00  0.00000000E+00  0.00000000E+00
  0.00000000E+00  0.00000000E+00  0.00000000E+00
  0.00000000E+00  0.00000000E+00  0.00000000E+00
  0.00000000E+00  0.00000000E+00  0.00000000E+00
  0.00000000E+00  0.00000000E+00  0.00000000E+00
  0.00000000E+00  0.00000000E+00  0.00000000E+00
  0.00000000E+00  0.00000000E+00  0.00000000E+00
  0.00000000E+00  0.00000000E+00  0.00000000E+00
  0.00000000E+00  0.00000000E+00  0.00000000E+00
  0.00000000E+00  0.00000000E+00  0.00000000E+00
  0.00000000E+00  0.00000000E+00  0.00000000E+00
  0.00000000E+00  0.00000000E+00  0.00000000E+00
  0.00000000E+00  0.00000000E+00  0.00000000E+00
  0.00000000E+00  0.00000000E+00  0.00000000E+00
  0.00000000E+00  0.00000000E+00  0.00000000E+00
  0.00000000E+00  0.00000000E+00  0.00000000E+00
  0.00000000E+00  0.00000000E+00  0.00000000E+00
  0.00000000E+00  0.00000000E+00  0.00000000E+00
  0.00000000E+00  0.00000000E+00  0.00000000E+00
  0.00000000E+00  0.00000000E+00  0.00000000E+00
  0.00000000E+00  0.00000000E+00  0.00000000E+00
  0.00000000E+00  0.00000000E+00  0.00000000E+00
  0.00000000E+00  0.00000000E+00  0.00000000E+00
  0.00000000E+00  0.00000000E+00  0.00000000E+00
  0.00000000E+00  0.00000000E+00  0.00000000E+00
  0.00000000E+00  0.00000000E+00  0.00000000E+00
  0.00000000E+00  0.00000000E+00  0.00000000E+00
  0.00000000E+00  0.00000000E+00  0.00000000E+00
  0.00000000E+00  0.00000000E+00  0.00000000E+00
  0.00000000E+00  0.00000000E+00  0.00000000E+00
  0.00000000E+00  0.00000000E+00  0.00000000E+00
