Al   Sc   N                             
   1.00000000000000     
    -9.5896924075192320   -0.0014018787896522   -0.0010556931577393
    -4.7929543210113943    8.3029182962913222   -0.0000000063531247
    -0.0014766817411929   -0.0008527653386774   -9.7397514655947415
   Al   Sc   N 
    34     2    36
Direct
  0.1137546386545765  0.0905474759258738  0.3823042704370465
  0.2221620798605244  0.2055861724052264  0.1318843381296801
  0.7767158472579538  0.0938056582513696  0.8837789588152987
  0.8878217643165911  0.2090111640294978  0.6359558417792570
  0.4443737854891552  0.0944796643869950  0.3806068321834815
  0.5537594926493270  0.2064460523550409  0.1304018836550185
  0.1130215386181845  0.0938022166719179  0.8801248532798027
  0.2227028110274460  0.2053154860351754  0.6302082613314326
  0.7752304370021434  0.0976669886644004  0.3782472234582031
  0.8931929525918108  0.1992285683233632  0.1264161130418557
  0.4438715818363050  0.0947301588763949  0.8814672633199407
  0.5527702157959666  0.2091446856874413  0.6318997644922106
  0.1137537366797972  0.4290286632879372  0.3823043016312866
  0.2232995713763941  0.5365511952374717  0.1307130609864302
  0.7767706866596811  0.4282804174424513  0.8839159832128090
  0.8878226596724161  0.5365026205048835  0.6359559758941060
  0.4402487442602236  0.4286791138592676  0.3825161023596948
  0.5481228111634806  0.5426068061148328  0.1284546827639090
  0.1130213488279068  0.4265074183616875  0.8801254278971626
  0.2259340460453387  0.5368718263043135  0.6324637454342650
  0.8931919210792785  0.5409135423040539  0.1264163155196982
  0.4439260738150637  0.4274137617283955  0.8806484009814426
  0.5551818284656278  0.5390772325599542  0.6336699727117434
  0.1188550034882354  0.7572372616636045  0.3762770094565013
  0.2232997181669845  0.8734835991963052  0.1307131022679471
  0.7767159935733048  0.7628101308121984  0.8837792914744114
  0.4402491985838353  0.7644048839934072  0.3825165653693858
  0.5537592950647792  0.8731303440962392  0.1304024367175174
  0.1113561705624093  0.7609874871314446  0.8852409578112415
  0.2259344964483105  0.8705277661421533  0.6324636437550382
  0.7752304291315824  0.7604336726993708  0.3782473371742014
  0.8882535455523097  0.8725407231349038  0.1340152609763194
  0.4439261679485043  0.7619920683730044  0.8806480311782110
  0.5527715222368528  0.8714205658980276  0.6318997839182572
  0.7780731290687370  0.4276270247540523  0.3682589284642148
  0.8899813354281747  0.8716791760761993  0.6168190915044676
  0.2212349383181262  0.2060514130859161  0.3294693881510184
  0.1140658461334496  0.0937759965764613  0.0749656802635812
  0.8889958895599932  0.2048772032849797  0.8332811423364745
  0.7668797278113360  0.1170420128141458  0.5730445462991085
  0.5535475495936666  0.2071358500168614  0.3263213497146538
  0.4434383098237547  0.0949452583003421  0.0778804845061671
  0.2230609116177007  0.2051385828216183  0.8259469435007389
  0.1104135140300926  0.0939109829580858  0.5799224194374517
  0.9014352804330770  0.1841187436678737  0.3197287309389196
  0.7759319401540452  0.0938733422165114  0.0793910861769831
  0.5552991461372798  0.2051042337263027  0.8283793915419793
  0.4454927723410691  0.0939179426268950  0.5774088763686862
  0.2235238418998975  0.5360754683932427  0.3257826919337532
  0.1140648272115214  0.4254861142920703  0.0749664838799973
  0.8889959346672143  0.5394654452372691  0.8332813504826078
  0.7779188042592651  0.4277052164804758  0.5883725532166153
  0.5329965778806383  0.5501720717803380  0.3230802150616299
  0.4435921422565130  0.4269023896304205  0.0753661522543467
  0.2218323155854236  0.5398738006258341  0.8287183317276927
  0.1104140235589242  0.4290017778056381  0.5799220147069306
  0.9014331107523645  0.5477841102317598  0.3197298919502245
  0.7768302395985600  0.4282488375484874  0.0858130918748827
  0.5547691293588102  0.5392847988571035  0.8307011191192046
  0.4444637524012833  0.4277480271940135  0.5792669367762358
  0.2235241202320779  0.8737375884108971  0.3257832032376911
  0.1115939460656463  0.7608668771484375  0.0825747537507979
  0.8897219484509193  0.8718083790907585  0.8364581956308541
  0.7668819419046784  0.7494071395084561  0.5730455632318865
  0.5535476088242746  0.8726569019701031  0.3263220780137601
  0.4435919483585664  0.7628347639036051  0.0753657410224235
  0.2218323405471025  0.8716314660603430  0.8287178190024704
  0.1341214710891663  0.7496023738670345  0.5708651591407445
  0.8887598904697072  0.8722889412573664  0.3368498613441560
  0.7759318755360383  0.7635226013503029  0.0793916115597355
  0.5552995373225897  0.8729353017266206  0.8283790528395230
  0.4444642450336573  0.7611174054557850  0.5792673358592282
 
  0.00000000E+00  0.00000000E+00  0.00000000E+00
  0.00000000E+00  0.00000000E+00  0.00000000E+00
  0.00000000E+00  0.00000000E+00  0.00000000E+00
  0.00000000E+00  0.00000000E+00  0.00000000E+00
  0.00000000E+00  0.00000000E+00  0.00000000E+00
  0.00000000E+00  0.00000000E+00  0.00000000E+00
  0.00000000E+00  0.00000000E+00  0.00000000E+00
  0.00000000E+00  0.00000000E+00  0.00000000E+00
  0.00000000E+00  0.00000000E+00  0.00000000E+00
  0.00000000E+00  0.00000000E+00  0.00000000E+00
  0.00000000E+00  0.00000000E+00  0.00000000E+00
  0.00000000E+00  0.00000000E+00  0.00000000E+00
  0.00000000E+00  0.00000000E+00  0.00000000E+00
  0.00000000E+00  0.00000000E+00  0.00000000E+00
  0.00000000E+00  0.00000000E+00  0.00000000E+00
  0.00000000E+00  0.00000000E+00  0.00000000E+00
  0.00000000E+00  0.00000000E+00  0.00000000E+00
  0.00000000E+00  0.00000000E+00  0.00000000E+00
  0.00000000E+00  0.00000000E+00  0.00000000E+00
  0.00000000E+00  0.00000000E+00  0.00000000E+00
  0.00000000E+00  0.00000000E+00  0.00000000E+00
  0.00000000E+00  0.00000000E+00  0.00000000E+00
  0.00000000E+00  0.00000000E+00  0.00000000E+00
  0.00000000E+00  0.00000000E+00  0.00000000E+00
  0.00000000E+00  0.00000000E+00  0.00000000E+00
  0.00000000E+00  0.00000000E+00  0.00000000E+00
  0.00000000E+00  0.00000000E+00  0.00000000E+00
  0.00000000E+00  0.00000000E+00  0.00000000E+00
  0.00000000E+00  0.00000000E+00  0.00000000E+00
  0.00000000E+00  0.00000000E+00  0.00000000E+00
  0.00000000E+00  0.00000000E+00  0.00000000E+00
  0.00000000E+00  0.00000000E+00  0.00000000E+00
  0.00000000E+00  0.00000000E+00  0.00000000E+00
  0.00000000E+00  0.00000000E+00  0.00000000E+00
  0.00000000E+00  0.00000000E+00  0.00000000E+00
  0.00000000E+00  0.00000000E+00  0.00000000E+00
  0.00000000E+00  0.00000000E+00  0.00000000E+00
  0.00000000E+00  0.00000000E+00  0.00000000E+00
  0.00000000E+00  0.00000000E+00  0.00000000E+00
  0.00000000E+00  0.00000000E+00  0.00000000E+00
  0.00000000E+00  0.00000000E+00  0.00000000E+00
  0.00000000E+00  0.00000000E+00  0.00000000E+00
  0.00000000E+00  0.00000000E+00  0.00000000E+00
  0.00000000E+00  0.00000000E+00  0.00000000E+00
  0.00000000E+00  0.00000000E+00  0.00000000E+00
  0.00000000E+00  0.00000000E+00  0.00000000E+00
  0.00000000E+00  0.00000000E+00  0.00000000E+00
  0.00000000E+00  0.00000000E+00  0.00000000E+00
  0.00000000E+00  0.00000000E+00  0.00000000E+00
  0.00000000E+00  0.00000000E+00  0.00000000E+00
  0.00000000E+00  0.00000000E+00  0.00000000E+00
  0.00000000E+00  0.00000000E+00  0.00000000E+00
  0.00000000E+00  0.00000000E+00  0.00000000E+00
  0.00000000E+00  0.00000000E+00  0.00000000E+00
  0.00000000E+00  0.00000000E+00  0.00000000E+00
  0.00000000E+00  0.00000000E+00  0.00000000E+00
  0.00000000E+00  0.00000000E+00  0.00000000E+00
  0.00000000E+00  0.00000000E+00  0.00000000E+00
  0.00000000E+00  0.00000000E+00  0.00000000E+00
  0.00000000E+00  0.00000000E+00  0.00000000E+00
  0.00000000E+00  0.00000000E+00  0.00000000E+00
  0.00000000E+00  0.00000000E+00  0.00000000E+00
  0.00000000E+00  0.00000000E+00  0.00000000E+00
  0.00000000E+00  0.00000000E+00  0.00000000E+00
  0.00000000E+00  0.00000000E+00  0.00000000E+00
  0.00000000E+00  0.00000000E+00  0.00000000E+00
  0.00000000E+00  0.00000000E+00  0.00000000E+00
  0.00000000E+00  0.00000000E+00  0.00000000E+00
  0.00000000E+00  0.00000000E+00  0.00000000E+00
  0.00000000E+00  0.00000000E+00  0.00000000E+00
  0.00000000E+00  0.00000000E+00  0.00000000E+00
  0.00000000E+00  0.00000000E+00  0.00000000E+00
