Al   Sc   N                             
   1.00000000000000     
    -9.7500158265795172   -0.0014027418668362   -0.0010561297968244
    -4.8721208386948094    8.4410211339748198   -0.0000000077815952
    -0.0006596105443421   -0.0003805852104785   -9.2645022494484977
   Al   Sc   N 
    34     2    36
Direct
  0.1134830864740124  0.0905638172964416  0.3781578244785067
  0.2219184344412639  0.2057080443334627  0.1280087073727785
  0.7760437384531897  0.0942803253374933  0.8786225012964337
  0.8880294634217663  0.2083819248631045  0.6318812353294589
  0.4448035062650675  0.0942644437158293  0.3748070518710875
  0.5533471572275985  0.2068568418167160  0.1249240375675313
  0.1138428080405802  0.0938331545288307  0.8741202744832890
  0.2232434992876193  0.2050454375701847  0.6237867671071768
  0.7753041346369969  0.0977190966544370  0.3717759998183396
  0.8935713326112023  0.1994069232989730  0.1189514674226260
  0.4433838194162334  0.0949740818855958  0.8770619715976693
  0.5528159205340089  0.2086031175632002  0.6272138969279908
  0.1134826338266066  0.4292848220698531  0.3781577858702292
  0.2237614382327422  0.5355242828201128  0.1249689522500361
  0.7762249243920181  0.4285534205909514  0.8764371405267610
  0.8880296949707827  0.5369236520561458  0.6318812782911678
  0.4402260948675476  0.4284888589888283  0.3780128232248003
  0.5479999628985510  0.5426677173370891  0.1226156371166738
  0.1138427319018191  0.4256557816091160  0.8741205327891990
  0.2254571090863280  0.5375429506054417  0.6280974950123195
  0.8935709177235154  0.5403565320847790  0.1189513468622749
  0.4439475370246697  0.4273696667218516  0.8749263105271936
  0.5545578699592326  0.5393887228166889  0.6281015757462995
  0.1187221234488902  0.7573043953466652  0.3684696687938143
  0.2237614492513487  0.8740488059586298  0.1249689906163240
  0.7760437793557884  0.7630078181013573  0.8786227698314093
  0.4402261251535720  0.7646174263119079  0.3780131672442124
  0.5533470346572997  0.8731310376928434  0.1249243392377366
  0.1120005957738144  0.7606655449180337  0.8814510988823940
  0.2254571558037100  0.8703342096410367  0.6280974103343198
  0.7753042096344842  0.7603084517621639  0.3717756920649435
  0.8878967174467149  0.8727191030236057  0.1258641113184282
  0.4439475136930326  0.7620148131261146  0.8749260188864412
  0.5528165409546730  0.8719157765025614  0.6272137849149786
  0.7783380816300749  0.4274959148753084  0.3602129866225567
  0.8904117734010271  0.8714625259499513  0.6096723122167447
  0.2210071377402443  0.2061644896875237  0.3363906004842008
  0.1147704621305294  0.0940134410655631  0.0793035041738364
  0.8891811180953368  0.2046812629864263  0.8403277387164181
  0.7672245816471346  0.1161209300565602  0.5796366574844569
  0.5534047308697012  0.2074513890809371  0.3313098265164385
  0.4428712898305776  0.0952295917239212  0.0840541133617378
  0.2237257709977740  0.2048052809947407  0.8297777389648004
  0.1102957911974158  0.0936707783514024  0.5864772605586666
  0.9014735076550124  0.1847681331311080  0.3247291967040908
  0.7754259236880188  0.0942902358498898  0.0848592484977004
  0.5548791888484388  0.2049099185357051  0.8342761138514163
  0.4459111273690510  0.0937096566913951  0.5819601276342610
  0.2237849248163926  0.5353757871580171  0.3306431544496178
  0.1147699542191063  0.4245462751183595  0.0793038926655285
  0.8891811323490160  0.5394740631198331  0.8403278845415656
  0.7782294526198896  0.4275506010214229  0.5948607052496797
  0.5334650963907066  0.5499361676894594  0.3298125219917267
  0.4437116955001557  0.4269224234443456  0.0799435650878166
  0.2216882558008493  0.5402206825221540  0.8348150585453737
  0.1102959441643421  0.4293630875239316  0.5864770165957864
  0.9014726426845598  0.5470948139010048  0.3247295722078647
  0.7763086875579859  0.4285108110131475  0.0900715944217936
  0.5543920089927710  0.5394722205377107  0.8358151583229514
  0.4441358199685865  0.4274950782040392  0.5856815556591357
  0.2237848641767144  0.8741751234336377  0.3306435719132423
  0.1120627834234185  0.7606336966579761  0.0895906226354271
  0.8901277465227722  0.8716042932682342  0.8432361771046999
  0.7672254653164430  0.7499848545177628  0.5796368924731041
  0.5534047800723840  0.8724809297468568  0.3313102412744868
  0.4437114407327130  0.7626967045831989  0.0799432953892776
  0.2216881922229348  0.8714270921922420  0.8348147188629085
  0.1334189517146527  0.7499551966360940  0.5756898284758947
  0.8883252891604414  0.8725054446954701  0.3407065233603177
  0.7754258940639005  0.7636139791028356  0.0848596227009040
  0.5548793899161097  0.8735473336537680  0.8342758471195353
  0.4441359395293389  0.7616997852731942  0.5856818307981158
 
  0.00000000E+00  0.00000000E+00  0.00000000E+00
  0.00000000E+00  0.00000000E+00  0.00000000E+00
  0.00000000E+00  0.00000000E+00  0.00000000E+00
  0.00000000E+00  0.00000000E+00  0.00000000E+00
  0.00000000E+00  0.00000000E+00  0.00000000E+00
  0.00000000E+00  0.00000000E+00  0.00000000E+00
  0.00000000E+00  0.00000000E+00  0.00000000E+00
  0.00000000E+00  0.00000000E+00  0.00000000E+00
  0.00000000E+00  0.00000000E+00  0.00000000E+00
  0.00000000E+00  0.00000000E+00  0.00000000E+00
  0.00000000E+00  0.00000000E+00  0.00000000E+00
  0.00000000E+00  0.00000000E+00  0.00000000E+00
  0.00000000E+00  0.00000000E+00  0.00000000E+00
  0.00000000E+00  0.00000000E+00  0.00000000E+00
  0.00000000E+00  0.00000000E+00  0.00000000E+00
  0.00000000E+00  0.00000000E+00  0.00000000E+00
  0.00000000E+00  0.00000000E+00  0.00000000E+00
  0.00000000E+00  0.00000000E+00  0.00000000E+00
  0.00000000E+00  0.00000000E+00  0.00000000E+00
  0.00000000E+00  0.00000000E+00  0.00000000E+00
  0.00000000E+00  0.00000000E+00  0.00000000E+00
  0.00000000E+00  0.00000000E+00  0.00000000E+00
  0.00000000E+00  0.00000000E+00  0.00000000E+00
  0.00000000E+00  0.00000000E+00  0.00000000E+00
  0.00000000E+00  0.00000000E+00  0.00000000E+00
  0.00000000E+00  0.00000000E+00  0.00000000E+00
  0.00000000E+00  0.00000000E+00  0.00000000E+00
  0.00000000E+00  0.00000000E+00  0.00000000E+00
  0.00000000E+00  0.00000000E+00  0.00000000E+00
  0.00000000E+00  0.00000000E+00  0.00000000E+00
  0.00000000E+00  0.00000000E+00  0.00000000E+00
  0.00000000E+00  0.00000000E+00  0.00000000E+00
  0.00000000E+00  0.00000000E+00  0.00000000E+00
  0.00000000E+00  0.00000000E+00  0.00000000E+00
  0.00000000E+00  0.00000000E+00  0.00000000E+00
  0.00000000E+00  0.00000000E+00  0.00000000E+00
  0.00000000E+00  0.00000000E+00  0.00000000E+00
  0.00000000E+00  0.00000000E+00  0.00000000E+00
  0.00000000E+00  0.00000000E+00  0.00000000E+00
  0.00000000E+00  0.00000000E+00  0.00000000E+00
  0.00000000E+00  0.00000000E+00  0.00000000E+00
  0.00000000E+00  0.00000000E+00  0.00000000E+00
  0.00000000E+00  0.00000000E+00  0.00000000E+00
  0.00000000E+00  0.00000000E+00  0.00000000E+00
  0.00000000E+00  0.00000000E+00  0.00000000E+00
  0.00000000E+00  0.00000000E+00  0.00000000E+00
  0.00000000E+00  0.00000000E+00  0.00000000E+00
  0.00000000E+00  0.00000000E+00  0.00000000E+00
  0.00000000E+00  0.00000000E+00  0.00000000E+00
  0.00000000E+00  0.00000000E+00  0.00000000E+00
  0.00000000E+00  0.00000000E+00  0.00000000E+00
  0.00000000E+00  0.00000000E+00  0.00000000E+00
  0.00000000E+00  0.00000000E+00  0.00000000E+00
  0.00000000E+00  0.00000000E+00  0.00000000E+00
  0.00000000E+00  0.00000000E+00  0.00000000E+00
  0.00000000E+00  0.00000000E+00  0.00000000E+00
  0.00000000E+00  0.00000000E+00  0.00000000E+00
  0.00000000E+00  0.00000000E+00  0.00000000E+00
  0.00000000E+00  0.00000000E+00  0.00000000E+00
  0.00000000E+00  0.00000000E+00  0.00000000E+00
  0.00000000E+00  0.00000000E+00  0.00000000E+00
  0.00000000E+00  0.00000000E+00  0.00000000E+00
  0.00000000E+00  0.00000000E+00  0.00000000E+00
  0.00000000E+00  0.00000000E+00  0.00000000E+00
  0.00000000E+00  0.00000000E+00  0.00000000E+00
  0.00000000E+00  0.00000000E+00  0.00000000E+00
  0.00000000E+00  0.00000000E+00  0.00000000E+00
  0.00000000E+00  0.00000000E+00  0.00000000E+00
  0.00000000E+00  0.00000000E+00  0.00000000E+00
  0.00000000E+00  0.00000000E+00  0.00000000E+00
  0.00000000E+00  0.00000000E+00  0.00000000E+00
  0.00000000E+00  0.00000000E+00  0.00000000E+00
