Al   Sc   N                             
   1.00000000000000     
   -10.0173188653317027   -0.0014047557135989   -0.0010571486213563
    -5.0047304101819412    8.6714295762323097   -0.0000000111146933
     0.0005007150763187    0.0002889399647285   -8.4482044591169956
   Al   Sc   N 
    34     2    36
Direct
  0.1141830062861260  0.0913653315367995  0.3506430092801338
  0.2228358711019780  0.2052485540193416  0.1004804461272570
  0.7746016310202748  0.0981243806577226  0.8560479946692823
  0.8904806740485256  0.2049245186787090  0.6071010012558489
  0.4438046523351886  0.0947644915111496  0.3513088515214378
  0.5535335111218131  0.2060996761925367  0.1010718388203742
  0.1129758225907906  0.0936375739702981  0.8525633884958168
  0.2223107937383375  0.2055111738999500  0.6023247956677480
  0.7765098207151766  0.0944315030894458  0.3463778487157398
  0.8916651661046089  0.2025428388121853  0.0986499816063002
  0.4442306045728515  0.0945515333315470  0.8511525138074560
  0.5524933842625757  0.2089483889730488  0.6010985795843595
  0.1141833026363344  0.4277862349121833  0.3506429209360036
  0.2228033389554653  0.5377337850467541  0.1008928587469953
  0.7777620066612059  0.4277860180222604  0.8539107975951268
  0.8904807222170277  0.5379271676146473  0.6071009344404246
  0.4411270250890453  0.4285329849964228  0.3495570962372057
  0.5518286225304863  0.5407516703327886  0.0969498987956001
  0.1129758459617705  0.4267211859236468  0.8525634553748347
  0.2257851572469320  0.5357509116533450  0.6019200029068159
  0.8916653229154008  0.5391246150736393  0.0986500657504834
  0.4435325462082176  0.4268353853966005  0.8524118232469675
  0.5506505860179089  0.5413406428817495  0.6063418598081682
  0.1152627855369488  0.7590359994414513  0.3485159413119945
  0.2228033172748383  0.8727959632340330  0.1008930299157669
  0.7746013858261946  0.7606080141456815  0.8560479770347555
  0.4411269476527906  0.7636735230527876  0.3495569648520558
  0.5535334254117359  0.8736989570364457  0.1010719174643526
  0.1156419292976878  0.7588464175380594  0.8557048000519103
  0.2257850888225050  0.8717971314704229  0.6019197697819294
  0.7765097758151995  0.7623929257158579  0.3463777934057504
  0.8895535603179070  0.8718895367066821  0.1017979859228362
  0.4435325348656391  0.7629657120753137  0.8524119338885896
  0.5524930773913113  0.8718903477822266  0.6010984474300400
  0.7769227619930490  0.4282061053832464  0.3539763739527402
  0.8891695117436669  0.8720809988310450  0.6045523922628320
  0.2214141319490750  0.2059591585596223  0.3581068530573788
  0.1129128661402632  0.0944163229814876  0.1050280434026334
  0.8909004164153487  0.2044632787582614  0.8577894256672920
  0.7677744327347042  0.1118992167796407  0.6103083666425988
  0.5548645250785214  0.2064940596240064  0.3547461518196400
  0.4432223953082044  0.0950560158329381  0.1088179080060172
  0.2234644805640542  0.2049339010790092  0.8559303453480567
  0.1123453145594411  0.0933364501758902  0.6088588424928005
  0.8984272472091490  0.1879627268158615  0.3552560368999735
  0.7761474561031818  0.0957087764151225  0.1037014565748748
  0.5531509162699280  0.2057534328021902  0.8595372834538182
  0.4450903845403715  0.0941219407100036  0.6053517009748930
  0.2228779248644841  0.5374961647928131  0.3547802068137358
  0.1129130935529687  0.4260060654864475  0.1050277950677270
  0.8909004035902086  0.5379680739843664  0.8577895576801708
  0.7779189428287907  0.4277078396092975  0.6139796316119188
  0.5370029727929335  0.5481640606666147  0.3590300280248115
  0.4442581741535818  0.4276965363632144  0.1051735029264051
  0.2226274621684539  0.5380716744940202  0.8591321475966893
  0.1123453336290581  0.4276536967344526  0.6088591253532840
  0.8984276581332864  0.5469419046320212  0.3552559913889510
  0.7767346349390536  0.4283000724336574  0.0963467132095062
  0.5536199688382837  0.5398557267946060  0.8551679499882781
  0.4435658289181461  0.4267553327471916  0.6092625823887374
  0.2228778908138835  0.8729584237973285  0.3547800647928341
  0.1130420227644393  0.7601466328319901  0.1065417935361737
  0.8900165106540427  0.8716576471404593  0.8638781291766335
  0.7677739717256458  0.7536610441592160  0.6103084157475536
  0.5548644585507390  0.8719726923354045  0.3547459329456686
  0.4442582039214926  0.7613794680014934  0.1051736920833477
  0.2226275074944368  0.8726333452023880  0.8591323596284539
  0.1296366386650476  0.7518494803684703  0.6065327300047656
  0.8887389982756915  0.8722964871430463  0.3459264463203340
  0.7761474212010029  0.7614786809479668  0.1037014587704945
  0.5531506633183341  0.8744271011603360  0.8595375667392418
  0.4435657987368202  0.7630130243588553  0.6092624265788160
 
  0.00000000E+00  0.00000000E+00  0.00000000E+00
  0.00000000E+00  0.00000000E+00  0.00000000E+00
  0.00000000E+00  0.00000000E+00  0.00000000E+00
  0.00000000E+00  0.00000000E+00  0.00000000E+00
  0.00000000E+00  0.00000000E+00  0.00000000E+00
  0.00000000E+00  0.00000000E+00  0.00000000E+00
  0.00000000E+00  0.00000000E+00  0.00000000E+00
  0.00000000E+00  0.00000000E+00  0.00000000E+00
  0.00000000E+00  0.00000000E+00  0.00000000E+00
  0.00000000E+00  0.00000000E+00  0.00000000E+00
  0.00000000E+00  0.00000000E+00  0.00000000E+00
  0.00000000E+00  0.00000000E+00  0.00000000E+00
  0.00000000E+00  0.00000000E+00  0.00000000E+00
  0.00000000E+00  0.00000000E+00  0.00000000E+00
  0.00000000E+00  0.00000000E+00  0.00000000E+00
  0.00000000E+00  0.00000000E+00  0.00000000E+00
  0.00000000E+00  0.00000000E+00  0.00000000E+00
  0.00000000E+00  0.00000000E+00  0.00000000E+00
  0.00000000E+00  0.00000000E+00  0.00000000E+00
  0.00000000E+00  0.00000000E+00  0.00000000E+00
  0.00000000E+00  0.00000000E+00  0.00000000E+00
  0.00000000E+00  0.00000000E+00  0.00000000E+00
  0.00000000E+00  0.00000000E+00  0.00000000E+00
  0.00000000E+00  0.00000000E+00  0.00000000E+00
  0.00000000E+00  0.00000000E+00  0.00000000E+00
  0.00000000E+00  0.00000000E+00  0.00000000E+00
  0.00000000E+00  0.00000000E+00  0.00000000E+00
  0.00000000E+00  0.00000000E+00  0.00000000E+00
  0.00000000E+00  0.00000000E+00  0.00000000E+00
  0.00000000E+00  0.00000000E+00  0.00000000E+00
  0.00000000E+00  0.00000000E+00  0.00000000E+00
  0.00000000E+00  0.00000000E+00  0.00000000E+00
  0.00000000E+00  0.00000000E+00  0.00000000E+00
  0.00000000E+00  0.00000000E+00  0.00000000E+00
  0.00000000E+00  0.00000000E+00  0.00000000E+00
  0.00000000E+00  0.00000000E+00  0.00000000E+00
  0.00000000E+00  0.00000000E+00  0.00000000E+00
  0.00000000E+00  0.00000000E+00  0.00000000E+00
  0.00000000E+00  0.00000000E+00  0.00000000E+00
  0.00000000E+00  0.00000000E+00  0.00000000E+00
  0.00000000E+00  0.00000000E+00  0.00000000E+00
  0.00000000E+00  0.00000000E+00  0.00000000E+00
  0.00000000E+00  0.00000000E+00  0.00000000E+00
  0.00000000E+00  0.00000000E+00  0.00000000E+00
  0.00000000E+00  0.00000000E+00  0.00000000E+00
  0.00000000E+00  0.00000000E+00  0.00000000E+00
  0.00000000E+00  0.00000000E+00  0.00000000E+00
  0.00000000E+00  0.00000000E+00  0.00000000E+00
  0.00000000E+00  0.00000000E+00  0.00000000E+00
  0.00000000E+00  0.00000000E+00  0.00000000E+00
  0.00000000E+00  0.00000000E+00  0.00000000E+00
  0.00000000E+00  0.00000000E+00  0.00000000E+00
  0.00000000E+00  0.00000000E+00  0.00000000E+00
  0.00000000E+00  0.00000000E+00  0.00000000E+00
  0.00000000E+00  0.00000000E+00  0.00000000E+00
  0.00000000E+00  0.00000000E+00  0.00000000E+00
  0.00000000E+00  0.00000000E+00  0.00000000E+00
  0.00000000E+00  0.00000000E+00  0.00000000E+00
  0.00000000E+00  0.00000000E+00  0.00000000E+00
  0.00000000E+00  0.00000000E+00  0.00000000E+00
  0.00000000E+00  0.00000000E+00  0.00000000E+00
  0.00000000E+00  0.00000000E+00  0.00000000E+00
  0.00000000E+00  0.00000000E+00  0.00000000E+00
  0.00000000E+00  0.00000000E+00  0.00000000E+00
  0.00000000E+00  0.00000000E+00  0.00000000E+00
  0.00000000E+00  0.00000000E+00  0.00000000E+00
  0.00000000E+00  0.00000000E+00  0.00000000E+00
  0.00000000E+00  0.00000000E+00  0.00000000E+00
  0.00000000E+00  0.00000000E+00  0.00000000E+00
  0.00000000E+00  0.00000000E+00  0.00000000E+00
  0.00000000E+00  0.00000000E+00  0.00000000E+00
  0.00000000E+00  0.00000000E+00  0.00000000E+00
