supercell of icsd_191774.cif            
   1.00000000000000     
    10.7389132208635871   -0.0014365178862555   -0.0069602694762610
    -5.3706998459772244    9.3007059420469744    0.0036891196807318
    -0.0076107657277856    0.0002857006863107   11.3365541743577509
   N    In   Y 
    36    32     4
Direct
  0.2225919395489981  0.1117849300598479  0.4484501154807532
  0.1159762609787407  0.2233115168184128  0.1914935980530785
  0.8812833054055105  0.1081558393645210  0.9433022555890318
  0.7778913316413281  0.2229991661873356  0.6913028257271421
  0.5565010377874060  0.1103758786452360  0.4393160255257129
  0.4425639384042626  0.2208021458075677  0.1913436381447582
  0.2265739969920375  0.1065915835953959  0.9370401641595336
  0.1081892596519083  0.2262862334343225  0.6971766145094946
  0.8879290454111981  0.1105476935052465  0.4461397565334195
  0.7733047805899602  0.2264583673214418  0.1894622178997452
  0.5548331157421273  0.1111241496251552  0.9400561251764259
  0.4564175060653923  0.2282385232226432  0.6878295926840963
  0.2141587748009997  0.4410375900978991  0.4399764654572920
  0.1095967170489232  0.5551900101042051  0.1903755242541294
  0.8895777234149236  0.4452527514874305  0.9393638366858568
  0.7775632436892508  0.5551628971203826  0.6909139680388208
  0.5609239533428649  0.4416838594503645  0.4366673739846547
  0.4435336577521198  0.5552208158988989  0.1947285560523326
  0.2272689204412330  0.4553702751075974  0.9407038447825116
  0.1110956482729080  0.5557071285469419  0.6895398424796824
  0.8885002423237722  0.4442468889508788  0.4407331229767735
  0.7785741171646308  0.5557725637341804  0.1886951903296108
  0.5549696575592122  0.4442216237327585  0.9433444352157565
  0.4458419017557276  0.5553038452461223  0.6919681042605532
  0.2235234565288380  0.7770565073675044  0.4389229796901262
  0.1107358600896262  0.8893883523467707  0.1929659853247898
  0.8901858031318781  0.7783438286618676  0.9403146930866058
  0.7776085074729906  0.8876316595942768  0.6927152307269537
  0.5599030646914045  0.7866191606531387  0.4391842936936499
  0.4442401959818554  0.8894436319193915  0.1888966891421120
  0.2219750927923201  0.7786830930831030  0.9407253125481674
  0.1057438614532558  0.8770048549319824  0.6865368764419557
  0.8867119318384553  0.7765756524722036  0.4396153039069901
  0.7736865812854390  0.8808562766468242  0.1882526930510480
  0.5549242937275665  0.7781316586175819  0.9409956517744718
  0.4442009775337468  0.8889321067310050  0.6910509787041264
  0.2232583940641533  0.1119782813082324  0.2536434838696593
  0.1073175557008099  0.2231936088196207  0.5029384443013782
  0.8845143854872362  0.1102047735661458  0.7500411285352939
  0.7744653097919283  0.2237367739527087  0.9985512448048226
  0.5537265660894448  0.1112784055712126  0.2485449351350368
  0.4509732166714144  0.2239379064509990  0.4974262406093644
  0.7773872000513080  0.2226907051044194  0.5008625454191034
  0.5580682041841740  0.1118085184559803  0.7494449398341985
  0.4444580799327866  0.2203522385669459  0.0001071201624470
  0.2198483488933149  0.4433507627393993  0.2488789111764405
  0.1088040999598263  0.5552191393355628  0.4986313790307548
  0.8896087365921730  0.4450147301498006  0.7486518002573135
  0.7788414470226712  0.5560766462532527  0.9984444306931266
  0.5575182908124248  0.4431986137340544  0.2462460811833509
  0.2242741570067182  0.4501448665627592  0.7501096920853456
  0.1113738909955302  0.5587198383632739  0.9993888520522489
  0.8874882473700225  0.4457371302476361  0.2493616581997529
  0.7788578553750654  0.5545744687374778  0.4996416130078813
  0.5581619847202717  0.4458291493956210  0.7516597231183866
  0.4462614332451551  0.5586746779513447  0.0011017232569728
  0.2226809403050538  0.7775707029099834  0.2482862034115954
  0.1085703545726062  0.8835214318601174  0.4964153813465018
  0.8883300599903308  0.7750664192699261  0.7491708128655361
  0.7751428281878958  0.8853814988869502  0.9975607931237462
  0.5551996448695320  0.7789200729148789  0.2480141254230119
  0.4452932611260749  0.8910799191041221  0.4993431216154960
  0.2213362085129447  0.7750681696091348  0.7492819204252825
  0.1124209792981006  0.8889789676892264  0.0008037368086633
  0.8868512580808172  0.7750224109058550  0.2483695085589019
  0.7786438145557213  0.8898380887338391  0.5016600535773321
  0.5549250342944703  0.7771550263143041  0.7505467991138204
  0.4442057223079914  0.8893993526653361  0.9979974405950003
  0.2253939570832770  0.1078435111384834  0.7387290540706530
  0.1148403853008730  0.2241860131279978  0.9926905295454773
  0.8865218582871819  0.1098828282787707  0.2476661839777918
  0.4453365869479313  0.5558512912341342  0.4934885067161900
 
  0.00000000E+00  0.00000000E+00  0.00000000E+00
  0.00000000E+00  0.00000000E+00  0.00000000E+00
  0.00000000E+00  0.00000000E+00  0.00000000E+00
  0.00000000E+00  0.00000000E+00  0.00000000E+00
  0.00000000E+00  0.00000000E+00  0.00000000E+00
  0.00000000E+00  0.00000000E+00  0.00000000E+00
  0.00000000E+00  0.00000000E+00  0.00000000E+00
  0.00000000E+00  0.00000000E+00  0.00000000E+00
  0.00000000E+00  0.00000000E+00  0.00000000E+00
  0.00000000E+00  0.00000000E+00  0.00000000E+00
  0.00000000E+00  0.00000000E+00  0.00000000E+00
  0.00000000E+00  0.00000000E+00  0.00000000E+00
  0.00000000E+00  0.00000000E+00  0.00000000E+00
  0.00000000E+00  0.00000000E+00  0.00000000E+00
  0.00000000E+00  0.00000000E+00  0.00000000E+00
  0.00000000E+00  0.00000000E+00  0.00000000E+00
  0.00000000E+00  0.00000000E+00  0.00000000E+00
  0.00000000E+00  0.00000000E+00  0.00000000E+00
  0.00000000E+00  0.00000000E+00  0.00000000E+00
  0.00000000E+00  0.00000000E+00  0.00000000E+00
  0.00000000E+00  0.00000000E+00  0.00000000E+00
  0.00000000E+00  0.00000000E+00  0.00000000E+00
  0.00000000E+00  0.00000000E+00  0.00000000E+00
  0.00000000E+00  0.00000000E+00  0.00000000E+00
  0.00000000E+00  0.00000000E+00  0.00000000E+00
  0.00000000E+00  0.00000000E+00  0.00000000E+00
  0.00000000E+00  0.00000000E+00  0.00000000E+00
  0.00000000E+00  0.00000000E+00  0.00000000E+00
  0.00000000E+00  0.00000000E+00  0.00000000E+00
  0.00000000E+00  0.00000000E+00  0.00000000E+00
  0.00000000E+00  0.00000000E+00  0.00000000E+00
  0.00000000E+00  0.00000000E+00  0.00000000E+00
  0.00000000E+00  0.00000000E+00  0.00000000E+00
  0.00000000E+00  0.00000000E+00  0.00000000E+00
  0.00000000E+00  0.00000000E+00  0.00000000E+00
  0.00000000E+00  0.00000000E+00  0.00000000E+00
  0.00000000E+00  0.00000000E+00  0.00000000E+00
  0.00000000E+00  0.00000000E+00  0.00000000E+00
  0.00000000E+00  0.00000000E+00  0.00000000E+00
  0.00000000E+00  0.00000000E+00  0.00000000E+00
  0.00000000E+00  0.00000000E+00  0.00000000E+00
  0.00000000E+00  0.00000000E+00  0.00000000E+00
  0.00000000E+00  0.00000000E+00  0.00000000E+00
  0.00000000E+00  0.00000000E+00  0.00000000E+00
  0.00000000E+00  0.00000000E+00  0.00000000E+00
  0.00000000E+00  0.00000000E+00  0.00000000E+00
  0.00000000E+00  0.00000000E+00  0.00000000E+00
  0.00000000E+00  0.00000000E+00  0.00000000E+00
  0.00000000E+00  0.00000000E+00  0.00000000E+00
  0.00000000E+00  0.00000000E+00  0.00000000E+00
  0.00000000E+00  0.00000000E+00  0.00000000E+00
  0.00000000E+00  0.00000000E+00  0.00000000E+00
  0.00000000E+00  0.00000000E+00  0.00000000E+00
  0.00000000E+00  0.00000000E+00  0.00000000E+00
  0.00000000E+00  0.00000000E+00  0.00000000E+00
  0.00000000E+00  0.00000000E+00  0.00000000E+00
  0.00000000E+00  0.00000000E+00  0.00000000E+00
  0.00000000E+00  0.00000000E+00  0.00000000E+00
  0.00000000E+00  0.00000000E+00  0.00000000E+00
  0.00000000E+00  0.00000000E+00  0.00000000E+00
  0.00000000E+00  0.00000000E+00  0.00000000E+00
  0.00000000E+00  0.00000000E+00  0.00000000E+00
  0.00000000E+00  0.00000000E+00  0.00000000E+00
  0.00000000E+00  0.00000000E+00  0.00000000E+00
  0.00000000E+00  0.00000000E+00  0.00000000E+00
  0.00000000E+00  0.00000000E+00  0.00000000E+00
  0.00000000E+00  0.00000000E+00  0.00000000E+00
  0.00000000E+00  0.00000000E+00  0.00000000E+00
  0.00000000E+00  0.00000000E+00  0.00000000E+00
  0.00000000E+00  0.00000000E+00  0.00000000E+00
  0.00000000E+00  0.00000000E+00  0.00000000E+00
  0.00000000E+00  0.00000000E+00  0.00000000E+00
