generated by phonopy                    
   1.00000000000000     
    11.7777700938999992   -0.0000006592896312    0.0000118211769744
    -0.0000006477562692   11.7777479613999994   -0.0000130806483528
     0.0000177256125076   -0.0000204342245446   17.8544012557999991
   Bi   Cu   F    Se   O 
    36    36     1    35    36
Direct
  0.9998086416518248  0.1658082288478155  0.4310291292288184
  0.3334587358162864  0.1658127738268078  0.4310299626513796
  0.6666380438643955  0.1651893474096440  0.4301563337562868
  0.0072094409974213  0.4944140161990518  0.4288901713283266
  0.3260088026243224  0.4943623053977291  0.4288666951222382
  0.6666261059313570  0.5007761376364215  0.4300241114865173
  0.9988906710531751  0.8315240766010561  0.4302626975359800
  0.3343842007786932  0.8315091214060644  0.4302652237217330
  0.6666396815333400  0.8325101809475797  0.4303754423339115
  0.0001171458433049  0.1667934164188338  0.9283679387035519
  0.3331496978723223  0.1667913434671604  0.9283643329681510
  0.6666341702512142  0.1655320504616071  0.9271952914675339
  0.0001862290010308  0.4997455402812108  0.9283386290708293
  0.3330782195586721  0.4997424856246653  0.9283350354932978
  0.6666324569058375  0.5010087118329096  0.9271945610357761
  0.9989087889188824  0.8331715124116315  0.9272119002917094
  0.3343571195706261  0.8331692199454679  0.9272080939596492
  0.6666341497683703  0.8332529326280635  0.9275298754032590
  0.1666317720060775  0.9980378964339991  0.0683015492338797
  0.5006425487042634  0.9992748839357901  0.0698828310795108
  0.8326251088512393  0.9992783660517048  0.0698846628370262
  0.1666303435263643  0.3332216848438136  0.0705165866503705
  0.5016803155459613  0.3333547082102370  0.0684555413591497
  0.8315841724520965  0.3333572290697830  0.0684563394466906
  0.1666308540552421  0.6680290054541160  0.0686222407730668
  0.5005923770207232  0.6672163654988097  0.0699020611022974
  0.8326716788564212  0.6672194105506648  0.0699030826259346
  0.1666427615373394  0.9994679686188306  0.5717924896808100
  0.4998972819080478  0.9995707781705931  0.5722207135090258
  0.8333788853061108  0.9995724253772735  0.5722219164095961
  0.1666323586897249  0.3315867748708499  0.5730872186925922
  0.5001167662332904  0.3345204974161717  0.5712263496506367
  0.8331658062726390  0.3345138253251179  0.5712227683596325
  0.1666499399616015  0.6674023041505919  0.5720944209045769
  0.4981889520683254  0.6640645788665012  0.5706487089581813
  0.8350722553922836  0.6640809429154331  0.5706554163756579
  0.9946298433449172  0.9932880830928354  0.2511726343832237
  0.3386414092037455  0.9932726888904924  0.2511764034708222
  0.6666356915568272  0.9986233878139572  0.2501458427971386
  0.9632278010127493  0.3331966681820973  0.2374308822196696
  0.3700341472811246  0.3331789846853468  0.2374352951061809
  0.6666371972815668  0.3335619943638974  0.2501324672784619
  0.9955667776422104  0.6725493996926701  0.2511806063962467
  0.3376943080921819  0.6725385307984837  0.2511856895013409
  0.6666314452525484  0.6688821066481765  0.2503924210468682
  0.0004471331365181  0.0000798019833113  0.7501740340642726
  0.3328332684803428  0.0000750794107773  0.7501763967227504
  0.6666469010773071  0.9991164214002453  0.7491954202967719
  0.9997179335674389  0.3329088524054242  0.7503008376214808
  0.3335554194154611  0.3329015648552556  0.7503013976428861
  0.6666434003658352  0.3331804401423923  0.7497598926201263
  0.0000689427219811  0.6666561954530223  0.7498573274024665
  0.3332063980072064  0.6666470147673209  0.7498589265442632
  0.6666394878726365  0.6667176305896163  0.7493052965237794
  0.1666367284160444  0.1284744052686477  0.2366893822835365
  0.5065304234555228  0.1618575962152846  0.2512451552573083
  0.8267358269253862  0.1618730398008097  0.2512453167540798
  0.1666231201099535  0.5331973593696731  0.2399961277198415
  0.5062166466847913  0.5050094132707557  0.2512762889479205
  0.8270328513583891  0.5050151197293431  0.2512766341210479
  0.1666334201086812  0.8350844831683801  0.2497603870087559
  0.5017039581497826  0.8327166273435509  0.2502512267724484
  0.8315674558734187  0.8327282301681507  0.2502512239943400
  0.1666433097151625  0.1661861281510681  0.7501522131584935
  0.5003698960641003  0.1669117466830201  0.7498507825340823
  0.8329187476059374  0.1669186433610150  0.7498533395932867
  0.1666380694033123  0.4998391425169615  0.7502875307017618
  0.4998012840552448  0.4994373175777085  0.7499847111160136
  0.8334864218053823  0.4994403808687977  0.7499896571120388
  0.1666395401448142  0.8337228822553016  0.7497564245905934
  0.5008727626772398  0.8334282501818464  0.7494588946237712
  0.8324139625102447  0.8334364278264772  0.7494597996007073
  0.1667817382107302  0.3675867287835572  0.3766277400518803
  0.4999111974593546  0.3333411398814192  0.3393036674738994
  0.8333667822982278  0.3333463117569551  0.3393039170054095
  0.1666347584360679  0.6689180960290528  0.3392730798712478
  0.5007313859902496  0.6678054657086534  0.3386353936380644
  0.8325457648155066  0.6678070458294627  0.3386352591598651
  0.1666379741161990  0.0005564509009020  0.3393018181261738
  0.5008437709157079  0.9993292311089306  0.3387643388068042
  0.8324333762106164  0.9993366945830431  0.3387635822072994
  0.1666364491953445  0.3331765553168040  0.8373992219398403
  0.5002001590985614  0.3331711030902724  0.8374945810946741
  0.8330757848363248  0.3331724694500338  0.8374996617633883
  0.1666361224169748  0.6668596723754661  0.8371595074841167
  0.5001364614659920  0.6666973444465469  0.8369339838349674
  0.8331387504948040  0.6667021731954677  0.8369357611668846
  0.1666365722817105  0.9998863401904927  0.8377451134892127
  0.5000873226262428  0.0000604798277095  0.8370930856529029
  0.8331945391121351  0.0000651422354565  0.8370961557801166
  0.3343064075784667  0.1657304637197612  0.1648654484416596
  0.6666336794616683  0.1669009560452110  0.1617384101932231
  0.9989680577225357  0.1657424405235446  0.1648668181996484
  0.3334079126420519  0.5008386140134249  0.1653591503493175
  0.6666285092682287  0.5003495531222484  0.1619834722450619
  0.9998493845167786  0.5008496892645553  0.1653531781502551
  0.3334098988755088  0.8331978990731486  0.1617915797899272
  0.6666367918153000  0.8339430643019199  0.1618829136529882
  0.9998624394007933  0.8332066171648478  0.1617900514410522
  0.3333873043746038  0.1664821968131776  0.6631954809384268
  0.6666449699812844  0.1665411871089049  0.6626438590187647
  0.9998954232025028  0.1664867195027142  0.6631945930155112
  0.3333695383839270  0.4997387579890145  0.6633162659354710
  0.6666466783293785  0.4995752804301148  0.6628426527487790
  0.9999104198349400  0.4997422978679467  0.6633163378596691
  0.3335719732152995  0.8338007226625876  0.6630228903857827
  0.6666420164485913  0.8328582336481176  0.6621913448349162
  0.9997077401839718  0.8338035862415651  0.6630195516599073
  0.1666384572772515  0.1668545571766202  0.5006990619514937
  0.4983011245065398  0.1666052013511745  0.4998985094745905
  0.8349787387661252  0.1666038957094216  0.4998978249858297
  0.1666333760989573  0.5006774266664280  0.5036817811045537
  0.4983408502087627  0.4988968187349059  0.4993992561266793
  0.8349510420811868  0.4989039669351953  0.4993927708184316
  0.1666346370107661  0.8339481157528823  0.5005141880473900
  0.4993710049674860  0.8329151193676054  0.5010977211044079
  0.8339093204449100  0.8329186134255835  0.5010992248207273
  0.1666357604599540  0.1668173779742332  0.0000563262412712
  0.5001448519656861  0.1665591547510203  0.9993060645057099
  0.8331223862716683  0.1665611106064375  0.9993077303853539
  0.1666345511104552  0.4997460063040506  0.9999837305878501
  0.5000993658416775  0.5001992212564375  0.9992482937998446
  0.8331655618989799  0.5002007826448036  0.9992492665209340
  0.1666354690844827  0.8330018846316705  0.9985014642738932
  0.5002488795607434  0.8331785479067690  0.9992209485039680
  0.8330187272356326  0.8331816745415281  0.9992224372282550
  0.9997862281181682  0.9996685686452622  0.9991711178527041
  0.3334830469804331  0.9996665024699993  0.9991683203874189
  0.6666342784792576  0.9996637084962927  0.9991899682282082
  0.0001743259600175  0.3334205273480180  0.0000568317750904
  0.3330930896298625  0.3334181562577783  0.0000543372307860
  0.6666319943330521  0.3334293694269093  0.9985440939118533
  0.9998213719205822  0.6666798848391622  0.9993101604113050
  0.3334459524688498  0.6666781634335450  0.9993086047197863
  0.6666321474177650  0.6669014192750069  0.9992893730870875
  0.9998769741259608  0.0014739752823303  0.5000576063870170
  0.3334005109393061  0.0014693639913617  0.5000585057064413
  0.6666400440621985  0.0005444948446325  0.5011881845517223
  0.0010563359727129  0.3326835791512508  0.5011911204017565
  0.3322291103337420  0.3326809162136968  0.5012025071138595
  0.6666419647719337  0.3327009216704013  0.5003341903028513
  0.0011582223655253  0.6652566941778275  0.4998313907652872
  0.3321136364840243  0.6652662008062862  0.4998352274317668
  0.6666404278342384  0.6655155155351196  0.5007738297336033
 
  0.00000000E+00  0.00000000E+00  0.00000000E+00
  0.00000000E+00  0.00000000E+00  0.00000000E+00
  0.00000000E+00  0.00000000E+00  0.00000000E+00
  0.00000000E+00  0.00000000E+00  0.00000000E+00
  0.00000000E+00  0.00000000E+00  0.00000000E+00
  0.00000000E+00  0.00000000E+00  0.00000000E+00
  0.00000000E+00  0.00000000E+00  0.00000000E+00
  0.00000000E+00  0.00000000E+00  0.00000000E+00
  0.00000000E+00  0.00000000E+00  0.00000000E+00
  0.00000000E+00  0.00000000E+00  0.00000000E+00
  0.00000000E+00  0.00000000E+00  0.00000000E+00
  0.00000000E+00  0.00000000E+00  0.00000000E+00
  0.00000000E+00  0.00000000E+00  0.00000000E+00
  0.00000000E+00  0.00000000E+00  0.00000000E+00
  0.00000000E+00  0.00000000E+00  0.00000000E+00
  0.00000000E+00  0.00000000E+00  0.00000000E+00
  0.00000000E+00  0.00000000E+00  0.00000000E+00
  0.00000000E+00  0.00000000E+00  0.00000000E+00
  0.00000000E+00  0.00000000E+00  0.00000000E+00
  0.00000000E+00  0.00000000E+00  0.00000000E+00
  0.00000000E+00  0.00000000E+00  0.00000000E+00
  0.00000000E+00  0.00000000E+00  0.00000000E+00
  0.00000000E+00  0.00000000E+00  0.00000000E+00
  0.00000000E+00  0.00000000E+00  0.00000000E+00
  0.00000000E+00  0.00000000E+00  0.00000000E+00
  0.00000000E+00  0.00000000E+00  0.00000000E+00
  0.00000000E+00  0.00000000E+00  0.00000000E+00
  0.00000000E+00  0.00000000E+00  0.00000000E+00
  0.00000000E+00  0.00000000E+00  0.00000000E+00
  0.00000000E+00  0.00000000E+00  0.00000000E+00
  0.00000000E+00  0.00000000E+00  0.00000000E+00
  0.00000000E+00  0.00000000E+00  0.00000000E+00
  0.00000000E+00  0.00000000E+00  0.00000000E+00
  0.00000000E+00  0.00000000E+00  0.00000000E+00
  0.00000000E+00  0.00000000E+00  0.00000000E+00
  0.00000000E+00  0.00000000E+00  0.00000000E+00
  0.00000000E+00  0.00000000E+00  0.00000000E+00
  0.00000000E+00  0.00000000E+00  0.00000000E+00
  0.00000000E+00  0.00000000E+00  0.00000000E+00
  0.00000000E+00  0.00000000E+00  0.00000000E+00
  0.00000000E+00  0.00000000E+00  0.00000000E+00
  0.00000000E+00  0.00000000E+00  0.00000000E+00
  0.00000000E+00  0.00000000E+00  0.00000000E+00
  0.00000000E+00  0.00000000E+00  0.00000000E+00
  0.00000000E+00  0.00000000E+00  0.00000000E+00
  0.00000000E+00  0.00000000E+00  0.00000000E+00
  0.00000000E+00  0.00000000E+00  0.00000000E+00
  0.00000000E+00  0.00000000E+00  0.00000000E+00
  0.00000000E+00  0.00000000E+00  0.00000000E+00
  0.00000000E+00  0.00000000E+00  0.00000000E+00
  0.00000000E+00  0.00000000E+00  0.00000000E+00
  0.00000000E+00  0.00000000E+00  0.00000000E+00
  0.00000000E+00  0.00000000E+00  0.00000000E+00
  0.00000000E+00  0.00000000E+00  0.00000000E+00
  0.00000000E+00  0.00000000E+00  0.00000000E+00
  0.00000000E+00  0.00000000E+00  0.00000000E+00
  0.00000000E+00  0.00000000E+00  0.00000000E+00
  0.00000000E+00  0.00000000E+00  0.00000000E+00
  0.00000000E+00  0.00000000E+00  0.00000000E+00
  0.00000000E+00  0.00000000E+00  0.00000000E+00
  0.00000000E+00  0.00000000E+00  0.00000000E+00
  0.00000000E+00  0.00000000E+00  0.00000000E+00
  0.00000000E+00  0.00000000E+00  0.00000000E+00
  0.00000000E+00  0.00000000E+00  0.00000000E+00
  0.00000000E+00  0.00000000E+00  0.00000000E+00
  0.00000000E+00  0.00000000E+00  0.00000000E+00
  0.00000000E+00  0.00000000E+00  0.00000000E+00
  0.00000000E+00  0.00000000E+00  0.00000000E+00
  0.00000000E+00  0.00000000E+00  0.00000000E+00
  0.00000000E+00  0.00000000E+00  0.00000000E+00
  0.00000000E+00  0.00000000E+00  0.00000000E+00
  0.00000000E+00  0.00000000E+00  0.00000000E+00
  0.00000000E+00  0.00000000E+00  0.00000000E+00
  0.00000000E+00  0.00000000E+00  0.00000000E+00
  0.00000000E+00  0.00000000E+00  0.00000000E+00
  0.00000000E+00  0.00000000E+00  0.00000000E+00
  0.00000000E+00  0.00000000E+00  0.00000000E+00
  0.00000000E+00  0.00000000E+00  0.00000000E+00
  0.00000000E+00  0.00000000E+00  0.00000000E+00
  0.00000000E+00  0.00000000E+00  0.00000000E+00
  0.00000000E+00  0.00000000E+00  0.00000000E+00
  0.00000000E+00  0.00000000E+00  0.00000000E+00
  0.00000000E+00  0.00000000E+00  0.00000000E+00
  0.00000000E+00  0.00000000E+00  0.00000000E+00
  0.00000000E+00  0.00000000E+00  0.00000000E+00
  0.00000000E+00  0.00000000E+00  0.00000000E+00
  0.00000000E+00  0.00000000E+00  0.00000000E+00
  0.00000000E+00  0.00000000E+00  0.00000000E+00
  0.00000000E+00  0.00000000E+00  0.00000000E+00
  0.00000000E+00  0.00000000E+00  0.00000000E+00
  0.00000000E+00  0.00000000E+00  0.00000000E+00
  0.00000000E+00  0.00000000E+00  0.00000000E+00
  0.00000000E+00  0.00000000E+00  0.00000000E+00
  0.00000000E+00  0.00000000E+00  0.00000000E+00
  0.00000000E+00  0.00000000E+00  0.00000000E+00
  0.00000000E+00  0.00000000E+00  0.00000000E+00
  0.00000000E+00  0.00000000E+00  0.00000000E+00
  0.00000000E+00  0.00000000E+00  0.00000000E+00
  0.00000000E+00  0.00000000E+00  0.00000000E+00
  0.00000000E+00  0.00000000E+00  0.00000000E+00
  0.00000000E+00  0.00000000E+00  0.00000000E+00
  0.00000000E+00  0.00000000E+00  0.00000000E+00
  0.00000000E+00  0.00000000E+00  0.00000000E+00
  0.00000000E+00  0.00000000E+00  0.00000000E+00
  0.00000000E+00  0.00000000E+00  0.00000000E+00
  0.00000000E+00  0.00000000E+00  0.00000000E+00
  0.00000000E+00  0.00000000E+00  0.00000000E+00
  0.00000000E+00  0.00000000E+00  0.00000000E+00
  0.00000000E+00  0.00000000E+00  0.00000000E+00
  0.00000000E+00  0.00000000E+00  0.00000000E+00
  0.00000000E+00  0.00000000E+00  0.00000000E+00
  0.00000000E+00  0.00000000E+00  0.00000000E+00
  0.00000000E+00  0.00000000E+00  0.00000000E+00
  0.00000000E+00  0.00000000E+00  0.00000000E+00
  0.00000000E+00  0.00000000E+00  0.00000000E+00
  0.00000000E+00  0.00000000E+00  0.00000000E+00
  0.00000000E+00  0.00000000E+00  0.00000000E+00
  0.00000000E+00  0.00000000E+00  0.00000000E+00
  0.00000000E+00  0.00000000E+00  0.00000000E+00
  0.00000000E+00  0.00000000E+00  0.00000000E+00
  0.00000000E+00  0.00000000E+00  0.00000000E+00
  0.00000000E+00  0.00000000E+00  0.00000000E+00
  0.00000000E+00  0.00000000E+00  0.00000000E+00
  0.00000000E+00  0.00000000E+00  0.00000000E+00
  0.00000000E+00  0.00000000E+00  0.00000000E+00
  0.00000000E+00  0.00000000E+00  0.00000000E+00
  0.00000000E+00  0.00000000E+00  0.00000000E+00
  0.00000000E+00  0.00000000E+00  0.00000000E+00
  0.00000000E+00  0.00000000E+00  0.00000000E+00
  0.00000000E+00  0.00000000E+00  0.00000000E+00
  0.00000000E+00  0.00000000E+00  0.00000000E+00
  0.00000000E+00  0.00000000E+00  0.00000000E+00
  0.00000000E+00  0.00000000E+00  0.00000000E+00
  0.00000000E+00  0.00000000E+00  0.00000000E+00
  0.00000000E+00  0.00000000E+00  0.00000000E+00
  0.00000000E+00  0.00000000E+00  0.00000000E+00
  0.00000000E+00  0.00000000E+00  0.00000000E+00
  0.00000000E+00  0.00000000E+00  0.00000000E+00
  0.00000000E+00  0.00000000E+00  0.00000000E+00
  0.00000000E+00  0.00000000E+00  0.00000000E+00
  0.00000000E+00  0.00000000E+00  0.00000000E+00
  0.00000000E+00  0.00000000E+00  0.00000000E+00
  0.00000000E+00  0.00000000E+00  0.00000000E+00
  0.00000000E+00  0.00000000E+00  0.00000000E+00
