generated by phonopy                    
   1.00000000000000     
    10.0351470768999995   -0.0000022330999784   -0.0000001056124209
    -5.0175765436399997    8.6906901959899994    0.0000001395531216
    -0.0000001735893656    0.0000001431815548   14.9533752540999991
   Pb   P    O 
    20    13    49
Direct
  0.0006614542217207  0.7765396236705797  0.1229622319204964
  0.0007033684139799  0.7765649436354138  0.6228141153013738
  0.9919030954020940  0.2540892088496065  0.3739496828898865
  0.0062593555727162  0.2573600029874257  0.8736386414924482
  0.2288765011908538  0.2265520875144418  0.1234385639169489
  0.2288777456263276  0.2263674952813020  0.6222179389722768
  0.7188902108908408  0.7277938524176335  0.3732188503839282
  0.7447455128499385  0.7444333697453303  0.8735127404319556
  0.7729818702726305  0.0034535315923492  0.1226496148114720
  0.7726496491041175  0.0032801684146619  0.6232415096132158
  0.2553211834584985  0.0066063219219004  0.3735265581011404
  0.2544503469930532  0.9932075814126193  0.8736848032530844
  0.6620807907188606  0.3307693992385552  0.0002034377972464
  0.6947611373243632  0.3499132516284149  0.5058076822700883
  0.3396751114254499  0.6658927868913622  0.0021350966848246
  0.3235369437210238  0.6724161799598889  0.5048659995793798
  0.3217870315940772  0.6713721484009767  0.2425031098303450
  0.3394588983880382  0.6653786228133001  0.7452408346588726
  0.6958669509402711  0.3492054655654400  0.2426880041537984
  0.6628333607843899  0.3302762362319172  0.7484905095028083
  0.6255298142737118  0.5968989217088989  0.1225369482691718
  0.6260402309378748  0.5971528766824434  0.6259033488495191
  0.3485355805436612  0.4044678998132269  0.3736207604619963
  0.3729948262368410  0.3951984221536478  0.8738708877887049
  0.3976778771865455  0.0245657502126306  0.1198756795075866
  0.3978435780693133  0.0244631005432012  0.6284306342967625
  0.6042005713893772  0.9769718634710571  0.3741005647195337
  0.6068140897705305  0.9738010025230324  0.8739779720046457
  0.9794002662116839  0.3756002724382768  0.1152157827748894
  0.9798637892790367  0.3755051657978328  0.6325649100488135
  0.0290916033817226  0.6284063654495071  0.3741275870435246
  0.0250421621450769  0.6300960196456558  0.8740121659556905
  0.4873219097214943  0.3068077633659030  0.3737749641638715
  0.5020457994766545  0.6478616269514390  0.1235294070451687
  0.5029376956173337  0.6485801316769439  0.6240464537208723
  0.4711696889753512  0.3149975841211798  0.8741664338006814
  0.3508506337112465  0.8506868315205836  0.1150612540723301
  0.3507834073344895  0.8504744026750544  0.6323638364844371
  0.6877480041945319  0.1561390257546904  0.3744284069992077
  0.6893493340881633  0.1524172049182297  0.8742037312897111
  0.1559434698713247  0.4932273910708389  0.1176217776954545
  0.1563154906912771  0.4932432024558153  0.6295304756581430
  0.8507719023401350  0.5351404811419940  0.3746835373554021
  0.8458763697735634  0.5332794074601210  0.8744550937993338
  0.7323192511526244  0.6608031644406722  0.0382718580824388
  0.7321341285907934  0.6566414156417011  0.5407941647154502
  0.2415598663775285  0.3578639969221911  0.4581593353510769
  0.2672754511764879  0.3531166222506386  0.9580246446207923
  0.3464181777119748  0.0767463251592844  0.0337156946995165
  0.3179705939122215  0.0521799459945669  0.5467802422663226
  0.6457360723288375  0.9122047820794634  0.4583801036046040
  0.6487621668819088  0.9092476037031645  0.9581281057417215
  0.9351761883603942  0.2597512259819226  0.0353619597198858
  0.9281331697891630  0.2761457755609911  0.5448624906632489
  0.0928131318056913  0.7287574129582879  0.4601385025695492
  0.0899652257277523  0.7374664503526489  0.9578367077712926
  0.2409676496043289  0.3569623275336085  0.2893723710603666
  0.2660957797735222  0.3512053732261862  0.7901741903980124
  0.7326367468109964  0.6597996837079521  0.2070741980471524
  0.7340146499432763  0.6640753058461186  0.7094766961813903
  0.6495877911953727  0.9134717304525282  0.2908326579548230
  0.6509134024873688  0.9098701976374528  0.7904515666385095
  0.3139741685372073  0.0498981173993229  0.2004087030800434
  0.3427097083003758  0.0744033585439183  0.7138824983944758
  0.0915278964312805  0.7291411407966564  0.2882409327660298
  0.0885807238970742  0.7388461535932862  0.7907665394118126
  0.9290378708436577  0.2753306035111294  0.2025043103292603
  0.9372479134325005  0.2586758903547874  0.7117684529550985
  0.5478987991208442  0.4169455375928592  0.1219868534394664
  0.5477903711057479  0.4172057896104135  0.6283036437146592
  0.4498455389667129  0.5874599236810383  0.3732483993549778
  0.4833629506686421  0.5761280096945782  0.8731858625944895
  0.5767162447227818  0.1270376809465716  0.1274583283796815
  0.5771656910523220  0.1270381647723653  0.6231952454750953
  0.4232094988198796  0.9070972263114925  0.3728014980113628
  0.4262625748563238  0.9033569364376177  0.8731968650314954
  0.8884545311432532  0.4632343142938780  0.1047401434810382
  0.8888378714435774  0.4627746483405559  0.6444743145685834
  0.0964569853180208  0.5157654053195060  0.3734296810679538
  0.0951132543370861  0.5194975392051404  0.8730825370978508
  0.9982346124165815  0.0020250193855844  0.1179158912241931
  0.9982163753101005  0.0020203751080956  0.6214680156480696
 
  0.00000000E+00  0.00000000E+00  0.00000000E+00
  0.00000000E+00  0.00000000E+00  0.00000000E+00
  0.00000000E+00  0.00000000E+00  0.00000000E+00
  0.00000000E+00  0.00000000E+00  0.00000000E+00
  0.00000000E+00  0.00000000E+00  0.00000000E+00
  0.00000000E+00  0.00000000E+00  0.00000000E+00
  0.00000000E+00  0.00000000E+00  0.00000000E+00
  0.00000000E+00  0.00000000E+00  0.00000000E+00
  0.00000000E+00  0.00000000E+00  0.00000000E+00
  0.00000000E+00  0.00000000E+00  0.00000000E+00
  0.00000000E+00  0.00000000E+00  0.00000000E+00
  0.00000000E+00  0.00000000E+00  0.00000000E+00
  0.00000000E+00  0.00000000E+00  0.00000000E+00
  0.00000000E+00  0.00000000E+00  0.00000000E+00
  0.00000000E+00  0.00000000E+00  0.00000000E+00
  0.00000000E+00  0.00000000E+00  0.00000000E+00
  0.00000000E+00  0.00000000E+00  0.00000000E+00
  0.00000000E+00  0.00000000E+00  0.00000000E+00
  0.00000000E+00  0.00000000E+00  0.00000000E+00
  0.00000000E+00  0.00000000E+00  0.00000000E+00
  0.00000000E+00  0.00000000E+00  0.00000000E+00
  0.00000000E+00  0.00000000E+00  0.00000000E+00
  0.00000000E+00  0.00000000E+00  0.00000000E+00
  0.00000000E+00  0.00000000E+00  0.00000000E+00
  0.00000000E+00  0.00000000E+00  0.00000000E+00
  0.00000000E+00  0.00000000E+00  0.00000000E+00
  0.00000000E+00  0.00000000E+00  0.00000000E+00
  0.00000000E+00  0.00000000E+00  0.00000000E+00
  0.00000000E+00  0.00000000E+00  0.00000000E+00
  0.00000000E+00  0.00000000E+00  0.00000000E+00
  0.00000000E+00  0.00000000E+00  0.00000000E+00
  0.00000000E+00  0.00000000E+00  0.00000000E+00
  0.00000000E+00  0.00000000E+00  0.00000000E+00
  0.00000000E+00  0.00000000E+00  0.00000000E+00
  0.00000000E+00  0.00000000E+00  0.00000000E+00
  0.00000000E+00  0.00000000E+00  0.00000000E+00
  0.00000000E+00  0.00000000E+00  0.00000000E+00
  0.00000000E+00  0.00000000E+00  0.00000000E+00
  0.00000000E+00  0.00000000E+00  0.00000000E+00
  0.00000000E+00  0.00000000E+00  0.00000000E+00
  0.00000000E+00  0.00000000E+00  0.00000000E+00
  0.00000000E+00  0.00000000E+00  0.00000000E+00
  0.00000000E+00  0.00000000E+00  0.00000000E+00
  0.00000000E+00  0.00000000E+00  0.00000000E+00
  0.00000000E+00  0.00000000E+00  0.00000000E+00
  0.00000000E+00  0.00000000E+00  0.00000000E+00
  0.00000000E+00  0.00000000E+00  0.00000000E+00
  0.00000000E+00  0.00000000E+00  0.00000000E+00
  0.00000000E+00  0.00000000E+00  0.00000000E+00
  0.00000000E+00  0.00000000E+00  0.00000000E+00
  0.00000000E+00  0.00000000E+00  0.00000000E+00
  0.00000000E+00  0.00000000E+00  0.00000000E+00
  0.00000000E+00  0.00000000E+00  0.00000000E+00
  0.00000000E+00  0.00000000E+00  0.00000000E+00
  0.00000000E+00  0.00000000E+00  0.00000000E+00
  0.00000000E+00  0.00000000E+00  0.00000000E+00
  0.00000000E+00  0.00000000E+00  0.00000000E+00
  0.00000000E+00  0.00000000E+00  0.00000000E+00
  0.00000000E+00  0.00000000E+00  0.00000000E+00
  0.00000000E+00  0.00000000E+00  0.00000000E+00
  0.00000000E+00  0.00000000E+00  0.00000000E+00
  0.00000000E+00  0.00000000E+00  0.00000000E+00
  0.00000000E+00  0.00000000E+00  0.00000000E+00
  0.00000000E+00  0.00000000E+00  0.00000000E+00
  0.00000000E+00  0.00000000E+00  0.00000000E+00
  0.00000000E+00  0.00000000E+00  0.00000000E+00
  0.00000000E+00  0.00000000E+00  0.00000000E+00
  0.00000000E+00  0.00000000E+00  0.00000000E+00
  0.00000000E+00  0.00000000E+00  0.00000000E+00
  0.00000000E+00  0.00000000E+00  0.00000000E+00
  0.00000000E+00  0.00000000E+00  0.00000000E+00
  0.00000000E+00  0.00000000E+00  0.00000000E+00
  0.00000000E+00  0.00000000E+00  0.00000000E+00
  0.00000000E+00  0.00000000E+00  0.00000000E+00
  0.00000000E+00  0.00000000E+00  0.00000000E+00
  0.00000000E+00  0.00000000E+00  0.00000000E+00
  0.00000000E+00  0.00000000E+00  0.00000000E+00
  0.00000000E+00  0.00000000E+00  0.00000000E+00
  0.00000000E+00  0.00000000E+00  0.00000000E+00
  0.00000000E+00  0.00000000E+00  0.00000000E+00
  0.00000000E+00  0.00000000E+00  0.00000000E+00
  0.00000000E+00  0.00000000E+00  0.00000000E+00
