supercell of POSCAR                     
   1.01800000000000     
     3.1310994802600001   -5.4896946145000003   10.0244832682999991
    -9.4821132118399998   -5.5089477087900001    0.0170740616273000
     6.3359946057599998  -11.0114127993000004  -10.0652216442999993
   Al   Gd   N 
    84    11    96
Direct
  0.0874763513201415  0.5857330540127919  0.3350520164152044
  0.4979106967650893  0.3258134099960230  0.2538063568059599
  0.0871545056851133  0.0857369550612006  0.3334180901493866
  0.2521749074787039  0.5802570500555362  0.4913523115622453
  0.3312888887359478  0.3197216348803309  0.0788922871965951
  0.4169560297041599  0.0840054786026414  0.1690736024467085
  0.0079628043768309  0.8424376561147042  0.2556850516344014
  0.1701518084064091  0.3344241000959443  0.4083859623529520
  0.2476843265730437  0.0874491151658390  0.4946583563419793
  0.1636644085899590  0.8360954031038546  0.4144080105272110
  0.3383551004004559  0.6706372032484609  0.3282313589447980
  0.1545357245309162  0.6695164433439658  0.1684804140355070
  0.2626231101318552  0.4167210370102907  0.2440946378182360
  0.3349763217231825  0.1671887596669706  0.3313810562707502
  0.0046142179554920  0.6742382415821808  0.4943119339725399
  0.1695327046572999  0.1628619865970506  0.1687137006410708
  0.2543271271258263  0.9203920422148286  0.2536957129408890
  0.4132204471500174  0.4162394395649542  0.4127769144631444
  0.4983008498045436  0.1619482645653250  0.4956539479620403
  0.0973293203806804  0.9177747083048260  0.0818840299948533
  0.4186833674351291  0.9200361428444026  0.4101404734973784
  0.0887697291967342  0.5828387990704513  0.8352152004159166
  0.4993462643038455  0.3221412790429099  0.7553147346937195
  0.0872430691146278  0.0826175692232738  0.8359448691936961
  0.2527677924464626  0.5714671227648367  0.9961207170315092
  0.3317134054858215  0.3185380879877968  0.5765873039704701
  0.4168296956528437  0.0868285886319242  0.6706546998154082
  0.0085558637835135  0.8417356491014729  0.7571820357017600
  0.1679898055973794  0.3256519146753192  0.9123495303912819
  0.2532353086708099  0.0757209028547692  0.0006179590614224
  0.1688092084510089  0.8335018412815671  0.9227784125104108
  0.3362207126132333  0.6729584028969313  0.8401807534147920
  0.1535665620380087  0.6744895762954144  0.6650975709775722
  0.2493050313424092  0.4009976992492881  0.7512189931724365
  0.3346540076347466  0.1629052006522684  0.8346704490102255
  0.0083900590213801  0.6741345000800152  0.9958089411241531
  0.1669191033222432  0.1588489830679976  0.6689902383551569
  0.2525924461732600  0.9191957785604998  0.7562256533764966
  0.4115839375003958  0.4139876983751094  0.9149038332053365
  0.4991102524044919  0.1640320777837374  0.9977581559504358
  0.0828864361611821  0.9235649719860248  0.5792742892225746
  0.4180462198332719  0.9194468217082772  0.9147886227259008
  0.5816672629322142  0.5867653942197180  0.3276451784112666
  0.0036051558010186  0.3255569785495851  0.2537399879647424
  0.5863035829695846  0.0874597602555980  0.3334366621876725
  0.7486501861502362  0.5792379029973844  0.4931477344452020
  0.8281066982917338  0.3225713341171073  0.0798828484917422
  0.9202181955879567  0.0870376339820780  0.1703909510890327
  0.5080800068581937  0.8454209986936903  0.2572961628036765
  0.6671514365963418  0.3335067847630526  0.4116042437397454
  0.7479521961921520  0.0874086549416120  0.4954963166612885
  0.6614802395931818  0.8373044312589570  0.4159081671282934
  0.8330284713735807  0.6743637634081594  0.3403402570290055
  0.6460891486873379  0.6813097186069754  0.1642271805303750
  0.7498428906862529  0.4027642705358971  0.2522059905221070
  0.8356536777599999  0.1662779732343225  0.3329770998912949
  0.5043445272186347  0.6735125933160049  0.4908993721750363
  0.6670955921326822  0.1627330056036982  0.1686741514148196
  0.7528553314067565  0.9226840471314972  0.2552889842632666
  0.9125429361828452  0.4151094973629839  0.4151173829388881
  0.9992472350328967  0.1627553511212128  0.4962860356353218
  0.5832390919288954  0.9254021414456446  0.0787504085236677
  0.9198715561767017  0.9205786466957022  0.4114253689630800
  0.5888637296660804  0.5844861461193460  0.8335603097021433
  0.9994707578392195  0.3216998095123174  0.7551919663128643
  0.5858340147300751  0.0852304928432801  0.8354581466841964
  0.7481384490189527  0.5776809122534985  0.9977882859938347
  0.8314790130944090  0.3184329645792374  0.5788171639979254
  0.9175935510757327  0.0864421676611542  0.6718217363566268
  0.5066493038327309  0.8437845986601715  0.7557262623715602
  0.6649515170405564  0.3346637984461935  0.9177346280254000
  0.7491544205589378  0.0878607948976295  0.9972104828654764
  0.6624613179396093  0.8382791941758612  0.9172939120270271
  0.8358918329521003  0.6731921745665801  0.8421129939464791
  0.6525556982484275  0.6754159915240905  0.6646921594094266
  0.7486246735370230  0.4013064604135437  0.7538937897788642
  0.8342554286298309  0.1652481803745971  0.8359473659065770
  0.5103375561220460  0.6755352409151740  0.9909265008551387
  0.6669107807719499  0.1588873084009563  0.6696584956925236
  0.7534005374810988  0.9203887204824142  0.7571575659947811
  0.9133435591475845  0.4144760890764303  0.9170448834010898
  0.0008022427841539  0.1624175657372007  0.9994296286008719
  0.5826830907332408  0.9240095236927246  0.5792817070327985
  0.9237265061386708  0.9207244145745008  0.9130992651014154
  0.3676198515616065  0.7736255600182105  0.1068898620322614
  0.0856000409595126  0.4302373264796628  0.0854225403741964
  0.3964492669936988  0.5792655123366899  0.6775769625046522
  0.3315907328968279  0.8355787093061551  0.5825447749813932
  0.0830082888115484  0.4209533928246429  0.5830557995278554
  0.8910751822669880  0.5821391168555436  0.1805746262884895
  0.8379128507035460  0.8364141775916067  0.0837549937094835
  0.5546116551196079  0.4356712501898201  0.0964895247710515
  0.8951719459965943  0.5787506352341296  0.6787092860106867
  0.8314746350798998  0.8365221155362903  0.5845891958288192
  0.5806142957850753  0.4194562995154527  0.5843330735152463
  0.2108798024460370  0.5822806997503491  0.2700797510708099
  0.0220059730705060  0.6193485617985743  0.1033385738566253
  0.1345309752888966  0.3232948125980641  0.1985016920389100
  0.2127455621697933  0.0838530634309222  0.2715788215351864
  0.3814320725162972  0.5852595934968079  0.4332893048072819
  0.4483490124503859  0.3204504508034489  0.0085822922603427
  0.0449505130402557  0.0827971082595269  0.1040955391922296
  0.1326606054061727  0.8394627103725369  0.1889924237346392
  0.2975872203036261  0.3336996238620245  0.3477966995839807
  0.3761180596811968  0.0820181224993064  0.4340053950739602
  0.4780291883555918  0.8388520288531964  0.0067499665621185
  0.2931592137686323  0.8341489028271027  0.3550364554839689
  0.4699246575534488  0.6876094023130861  0.2779832055793392
  0.2516312615733938  0.6266683975915228  0.0980374586723372
  0.3831629911388532  0.3880185260776443  0.1804467460452486
  0.4628906469813856  0.1632869902004330  0.2729468896910276
  0.1316801697985071  0.6666504971853158  0.4343026874859390
  0.2229170778148486  0.4049575338214311  0.0059426673702703
  0.2916359273322513  0.1577589144542131  0.1022393763393410
  0.3855950221878146  0.9274830479905773  0.2017015097259289
  0.0415423875129335  0.4197437995493587  0.3529174116206164
  0.1275494660092278  0.1727902499905909  0.4339588109059278
  0.2171024380162052  0.9163219834049627  0.0187712047813378
  0.0487134853231055  0.9250425620643909  0.3532465083412362
  0.2171636795707812  0.5799743988192176  0.7653000868464446
  0.0304655199758201  0.6118973674717907  0.6009543798676305
  0.1285888950402239  0.3174902139413547  0.6983450206906952
  0.2122942672394927  0.0822548939810517  0.7715406544599901
  0.3824348383470877  0.5830208174871316  0.9360925128647537
  0.4485644797008277  0.3197559324979480  0.5092520219285674
  0.0403494686903443  0.0854614460308127  0.6035132261843330
  0.1318712740714645  0.8419561257501655  0.6855962725295441
  0.2954135634940371  0.3278918838071263  0.8503163054542853
  0.3779971793798609  0.0812777860360541  0.9347716585709875
  0.4753915186764672  0.8388429364485290  0.5074460689141844
  0.2934116461701208  0.8341026015949353  0.8554568439811518
  0.4707168012578933  0.6845233920676677  0.7853301799469108
  0.2621602025382401  0.6542827983369648  0.5937271730816818
  0.3738407303071583  0.3816671955619313  0.6841148586111316
  0.4619288890528495  0.1621631819684595  0.7735624160327603
  0.1350591856603245  0.6611601911158260  0.9329461952500893
  0.2250263572415392  0.4126887219800324  0.5073057709823274
  0.2897149253936533  0.1575658530330060  0.6013433721503532
  0.3840445175844067  0.9275231095075824  0.7010639892343633
  0.0423822719902560  0.4166124344463213  0.8515911898383166
  0.1289979619243979  0.1638349919502886  0.9363121935068008
  0.1964771654113875  0.9319973788214995  0.5096607188822659
  0.0533116341111324  0.9211444326877114  0.8545782304365162
  0.7161467291840111  0.5822265121525803  0.2657874746446964
  0.5237766035133191  0.6300039715432533  0.0983399088282795
  0.6312529894243539  0.3190564155750835  0.2009406469569797
  0.7135281939536000  0.0851746117585108  0.2723551478303676
  0.8801964834777962  0.5840494167482078  0.4378518718097055
  0.9492874019206141  0.3214089647543972  0.0127395054509094
  0.5421754943521151  0.0875175094027085  0.1030607132523969
  0.6318529543016354  0.8488717275617574  0.1866093396113513
  0.7961537660460181  0.3304913805379854  0.3530138931888658
  0.8772267815089023  0.0820892653330887  0.4348338285834359
  0.9827342554834573  0.8399242701296572  0.0078697874428570
  0.7917051462872493  0.8370687072783980  0.3567954666704409
  0.9680156442000367  0.6862653773448315  0.2891420867570460
  0.7593064566268950  0.6610784227094868  0.0954679954664073
  0.8750416652579176  0.3836065438294654  0.1868714906668032
  0.9640919290037147  0.1650324879910059  0.2734039942172686
  0.6321460101584719  0.6655278310196451  0.4302217911501032
  0.7138540279070682  0.4142244964613653  0.0158488615402135
  0.7922312878146585  0.1583675829585758  0.1027005407783435
  0.8855398867798883  0.9290066148651803  0.2030254387736719
  0.5437773126099898  0.4197131795676867  0.3524754668794259
  0.6272162912307806  0.1716887324923562  0.4349190814182506
  0.7001159955042411  0.9321369660329921  0.0109955936642194
  0.5494752877139746  0.9270785218085393  0.3541441557575666
  0.7170416591307571  0.5808550573571196  0.7654558377040743
  0.5305999510118937  0.6123155139316125  0.5987260286102938
  0.6292837411713208  0.3172569471656175  0.6997332885473426
  0.7126620975984608  0.0832072393915126  0.7726332729049190
  0.8808849868465387  0.5830176363248114  0.9388441118349959
  0.9485417019852918  0.3199579859567905  0.5113417666905278
  0.5402057606116486  0.0860190980942619  0.6033339815812653
  0.6322943919284256  0.8431347003628957  0.6859166016106073
  0.7940744632183723  0.3307673864864427  0.8548817156605040
  0.8783638979559569  0.0815798565441241  0.9359238910908516
  0.9740664904569485  0.8390343401292242  0.5085822323385685
  0.7944715705646743  0.8360758037466383  0.8573737559430583
  0.9700558140921345  0.6830697729038135  0.7868939951972891
  0.7616408068219087  0.6555795954186365  0.5941200446877630
  0.8725317392997738  0.3811360631757736  0.6864616667814758
  0.9623223201534969  0.1618730955484580  0.7749785687186090
  0.6368381452580110  0.6660113830094545  0.9301178352100905
  0.7235202581772882  0.4118996684652387  0.5099568809799067
  0.7902288369567998  0.1567661007361565  0.6024492890625623
  0.8857728788205819  0.9273843411053448  0.7034979789193088
  0.5419495162885681  0.4195319694740007  0.8508649636765853
  0.6274639126072756  0.1708250583609328  0.9349428970843405
  0.6971531965016311  0.9321072128769856  0.5107369330421818
  0.5485623381310489  0.9241958220355855  0.8526433450349771
 
  0.00000000E+00  0.00000000E+00  0.00000000E+00
  0.00000000E+00  0.00000000E+00  0.00000000E+00
  0.00000000E+00  0.00000000E+00  0.00000000E+00
  0.00000000E+00  0.00000000E+00  0.00000000E+00
  0.00000000E+00  0.00000000E+00  0.00000000E+00
  0.00000000E+00  0.00000000E+00  0.00000000E+00
  0.00000000E+00  0.00000000E+00  0.00000000E+00
  0.00000000E+00  0.00000000E+00  0.00000000E+00
  0.00000000E+00  0.00000000E+00  0.00000000E+00
  0.00000000E+00  0.00000000E+00  0.00000000E+00
  0.00000000E+00  0.00000000E+00  0.00000000E+00
  0.00000000E+00  0.00000000E+00  0.00000000E+00
  0.00000000E+00  0.00000000E+00  0.00000000E+00
  0.00000000E+00  0.00000000E+00  0.00000000E+00
  0.00000000E+00  0.00000000E+00  0.00000000E+00
  0.00000000E+00  0.00000000E+00  0.00000000E+00
  0.00000000E+00  0.00000000E+00  0.00000000E+00
  0.00000000E+00  0.00000000E+00  0.00000000E+00
  0.00000000E+00  0.00000000E+00  0.00000000E+00
  0.00000000E+00  0.00000000E+00  0.00000000E+00
  0.00000000E+00  0.00000000E+00  0.00000000E+00
  0.00000000E+00  0.00000000E+00  0.00000000E+00
  0.00000000E+00  0.00000000E+00  0.00000000E+00
  0.00000000E+00  0.00000000E+00  0.00000000E+00
  0.00000000E+00  0.00000000E+00  0.00000000E+00
  0.00000000E+00  0.00000000E+00  0.00000000E+00
  0.00000000E+00  0.00000000E+00  0.00000000E+00
  0.00000000E+00  0.00000000E+00  0.00000000E+00
  0.00000000E+00  0.00000000E+00  0.00000000E+00
  0.00000000E+00  0.00000000E+00  0.00000000E+00
  0.00000000E+00  0.00000000E+00  0.00000000E+00
  0.00000000E+00  0.00000000E+00  0.00000000E+00
  0.00000000E+00  0.00000000E+00  0.00000000E+00
  0.00000000E+00  0.00000000E+00  0.00000000E+00
  0.00000000E+00  0.00000000E+00  0.00000000E+00
  0.00000000E+00  0.00000000E+00  0.00000000E+00
  0.00000000E+00  0.00000000E+00  0.00000000E+00
  0.00000000E+00  0.00000000E+00  0.00000000E+00
  0.00000000E+00  0.00000000E+00  0.00000000E+00
  0.00000000E+00  0.00000000E+00  0.00000000E+00
  0.00000000E+00  0.00000000E+00  0.00000000E+00
  0.00000000E+00  0.00000000E+00  0.00000000E+00
  0.00000000E+00  0.00000000E+00  0.00000000E+00
  0.00000000E+00  0.00000000E+00  0.00000000E+00
  0.00000000E+00  0.00000000E+00  0.00000000E+00
  0.00000000E+00  0.00000000E+00  0.00000000E+00
  0.00000000E+00  0.00000000E+00  0.00000000E+00
  0.00000000E+00  0.00000000E+00  0.00000000E+00
  0.00000000E+00  0.00000000E+00  0.00000000E+00
  0.00000000E+00  0.00000000E+00  0.00000000E+00
  0.00000000E+00  0.00000000E+00  0.00000000E+00
  0.00000000E+00  0.00000000E+00  0.00000000E+00
  0.00000000E+00  0.00000000E+00  0.00000000E+00
  0.00000000E+00  0.00000000E+00  0.00000000E+00
  0.00000000E+00  0.00000000E+00  0.00000000E+00
  0.00000000E+00  0.00000000E+00  0.00000000E+00
  0.00000000E+00  0.00000000E+00  0.00000000E+00
  0.00000000E+00  0.00000000E+00  0.00000000E+00
  0.00000000E+00  0.00000000E+00  0.00000000E+00
  0.00000000E+00  0.00000000E+00  0.00000000E+00
  0.00000000E+00  0.00000000E+00  0.00000000E+00
  0.00000000E+00  0.00000000E+00  0.00000000E+00
  0.00000000E+00  0.00000000E+00  0.00000000E+00
  0.00000000E+00  0.00000000E+00  0.00000000E+00
  0.00000000E+00  0.00000000E+00  0.00000000E+00
  0.00000000E+00  0.00000000E+00  0.00000000E+00
  0.00000000E+00  0.00000000E+00  0.00000000E+00
  0.00000000E+00  0.00000000E+00  0.00000000E+00
  0.00000000E+00  0.00000000E+00  0.00000000E+00
  0.00000000E+00  0.00000000E+00  0.00000000E+00
  0.00000000E+00  0.00000000E+00  0.00000000E+00
  0.00000000E+00  0.00000000E+00  0.00000000E+00
  0.00000000E+00  0.00000000E+00  0.00000000E+00
  0.00000000E+00  0.00000000E+00  0.00000000E+00
  0.00000000E+00  0.00000000E+00  0.00000000E+00
  0.00000000E+00  0.00000000E+00  0.00000000E+00
  0.00000000E+00  0.00000000E+00  0.00000000E+00
  0.00000000E+00  0.00000000E+00  0.00000000E+00
  0.00000000E+00  0.00000000E+00  0.00000000E+00
  0.00000000E+00  0.00000000E+00  0.00000000E+00
  0.00000000E+00  0.00000000E+00  0.00000000E+00
  0.00000000E+00  0.00000000E+00  0.00000000E+00
  0.00000000E+00  0.00000000E+00  0.00000000E+00
  0.00000000E+00  0.00000000E+00  0.00000000E+00
  0.00000000E+00  0.00000000E+00  0.00000000E+00
  0.00000000E+00  0.00000000E+00  0.00000000E+00
  0.00000000E+00  0.00000000E+00  0.00000000E+00
  0.00000000E+00  0.00000000E+00  0.00000000E+00
  0.00000000E+00  0.00000000E+00  0.00000000E+00
  0.00000000E+00  0.00000000E+00  0.00000000E+00
  0.00000000E+00  0.00000000E+00  0.00000000E+00
  0.00000000E+00  0.00000000E+00  0.00000000E+00
  0.00000000E+00  0.00000000E+00  0.00000000E+00
  0.00000000E+00  0.00000000E+00  0.00000000E+00
  0.00000000E+00  0.00000000E+00  0.00000000E+00
  0.00000000E+00  0.00000000E+00  0.00000000E+00
  0.00000000E+00  0.00000000E+00  0.00000000E+00
  0.00000000E+00  0.00000000E+00  0.00000000E+00
  0.00000000E+00  0.00000000E+00  0.00000000E+00
  0.00000000E+00  0.00000000E+00  0.00000000E+00
  0.00000000E+00  0.00000000E+00  0.00000000E+00
  0.00000000E+00  0.00000000E+00  0.00000000E+00
  0.00000000E+00  0.00000000E+00  0.00000000E+00
  0.00000000E+00  0.00000000E+00  0.00000000E+00
  0.00000000E+00  0.00000000E+00  0.00000000E+00
  0.00000000E+00  0.00000000E+00  0.00000000E+00
  0.00000000E+00  0.00000000E+00  0.00000000E+00
  0.00000000E+00  0.00000000E+00  0.00000000E+00
  0.00000000E+00  0.00000000E+00  0.00000000E+00
  0.00000000E+00  0.00000000E+00  0.00000000E+00
  0.00000000E+00  0.00000000E+00  0.00000000E+00
  0.00000000E+00  0.00000000E+00  0.00000000E+00
  0.00000000E+00  0.00000000E+00  0.00000000E+00
  0.00000000E+00  0.00000000E+00  0.00000000E+00
  0.00000000E+00  0.00000000E+00  0.00000000E+00
  0.00000000E+00  0.00000000E+00  0.00000000E+00
  0.00000000E+00  0.00000000E+00  0.00000000E+00
  0.00000000E+00  0.00000000E+00  0.00000000E+00
  0.00000000E+00  0.00000000E+00  0.00000000E+00
  0.00000000E+00  0.00000000E+00  0.00000000E+00
  0.00000000E+00  0.00000000E+00  0.00000000E+00
  0.00000000E+00  0.00000000E+00  0.00000000E+00
  0.00000000E+00  0.00000000E+00  0.00000000E+00
  0.00000000E+00  0.00000000E+00  0.00000000E+00
  0.00000000E+00  0.00000000E+00  0.00000000E+00
  0.00000000E+00  0.00000000E+00  0.00000000E+00
  0.00000000E+00  0.00000000E+00  0.00000000E+00
  0.00000000E+00  0.00000000E+00  0.00000000E+00
  0.00000000E+00  0.00000000E+00  0.00000000E+00
  0.00000000E+00  0.00000000E+00  0.00000000E+00
  0.00000000E+00  0.00000000E+00  0.00000000E+00
  0.00000000E+00  0.00000000E+00  0.00000000E+00
  0.00000000E+00  0.00000000E+00  0.00000000E+00
  0.00000000E+00  0.00000000E+00  0.00000000E+00
  0.00000000E+00  0.00000000E+00  0.00000000E+00
  0.00000000E+00  0.00000000E+00  0.00000000E+00
  0.00000000E+00  0.00000000E+00  0.00000000E+00
  0.00000000E+00  0.00000000E+00  0.00000000E+00
  0.00000000E+00  0.00000000E+00  0.00000000E+00
  0.00000000E+00  0.00000000E+00  0.00000000E+00
  0.00000000E+00  0.00000000E+00  0.00000000E+00
  0.00000000E+00  0.00000000E+00  0.00000000E+00
  0.00000000E+00  0.00000000E+00  0.00000000E+00
  0.00000000E+00  0.00000000E+00  0.00000000E+00
  0.00000000E+00  0.00000000E+00  0.00000000E+00
  0.00000000E+00  0.00000000E+00  0.00000000E+00
  0.00000000E+00  0.00000000E+00  0.00000000E+00
  0.00000000E+00  0.00000000E+00  0.00000000E+00
  0.00000000E+00  0.00000000E+00  0.00000000E+00
  0.00000000E+00  0.00000000E+00  0.00000000E+00
  0.00000000E+00  0.00000000E+00  0.00000000E+00
  0.00000000E+00  0.00000000E+00  0.00000000E+00
  0.00000000E+00  0.00000000E+00  0.00000000E+00
  0.00000000E+00  0.00000000E+00  0.00000000E+00
  0.00000000E+00  0.00000000E+00  0.00000000E+00
  0.00000000E+00  0.00000000E+00  0.00000000E+00
  0.00000000E+00  0.00000000E+00  0.00000000E+00
  0.00000000E+00  0.00000000E+00  0.00000000E+00
  0.00000000E+00  0.00000000E+00  0.00000000E+00
  0.00000000E+00  0.00000000E+00  0.00000000E+00
  0.00000000E+00  0.00000000E+00  0.00000000E+00
  0.00000000E+00  0.00000000E+00  0.00000000E+00
  0.00000000E+00  0.00000000E+00  0.00000000E+00
  0.00000000E+00  0.00000000E+00  0.00000000E+00
  0.00000000E+00  0.00000000E+00  0.00000000E+00
  0.00000000E+00  0.00000000E+00  0.00000000E+00
  0.00000000E+00  0.00000000E+00  0.00000000E+00
  0.00000000E+00  0.00000000E+00  0.00000000E+00
  0.00000000E+00  0.00000000E+00  0.00000000E+00
  0.00000000E+00  0.00000000E+00  0.00000000E+00
  0.00000000E+00  0.00000000E+00  0.00000000E+00
  0.00000000E+00  0.00000000E+00  0.00000000E+00
  0.00000000E+00  0.00000000E+00  0.00000000E+00
  0.00000000E+00  0.00000000E+00  0.00000000E+00
  0.00000000E+00  0.00000000E+00  0.00000000E+00
  0.00000000E+00  0.00000000E+00  0.00000000E+00
  0.00000000E+00  0.00000000E+00  0.00000000E+00
  0.00000000E+00  0.00000000E+00  0.00000000E+00
  0.00000000E+00  0.00000000E+00  0.00000000E+00
  0.00000000E+00  0.00000000E+00  0.00000000E+00
  0.00000000E+00  0.00000000E+00  0.00000000E+00
  0.00000000E+00  0.00000000E+00  0.00000000E+00
  0.00000000E+00  0.00000000E+00  0.00000000E+00
  0.00000000E+00  0.00000000E+00  0.00000000E+00
  0.00000000E+00  0.00000000E+00  0.00000000E+00
  0.00000000E+00  0.00000000E+00  0.00000000E+00
  0.00000000E+00  0.00000000E+00  0.00000000E+00
  0.00000000E+00  0.00000000E+00  0.00000000E+00
  0.00000000E+00  0.00000000E+00  0.00000000E+00
  0.00000000E+00  0.00000000E+00  0.00000000E+00
  0.00000000E+00  0.00000000E+00  0.00000000E+00
