supercell of icsd_191774.cif            
   1.00000000000000     
    10.6260405109425573    0.0013718668518101   -0.0040667904408367
    -5.3118363396045192    9.1807345630475581    0.0025989694921712
    -0.0045101755765641    0.0006825267060360   10.8963495048939709
   N    Sc   In
    36    20    16
Direct
  0.2216231638422599  0.1073970462718137  0.4367008388790765
  0.1117231795890277  0.2236617409246975  0.2005923149285920
  0.8863558570285122  0.1069908680438658  0.9475651271302112
  0.7755408911230290  0.2226102344060479  0.6867494838069419
  0.5569536968235980  0.1077036198052923  0.4401005604014188
  0.4435121676658937  0.2173104119945535  0.1874701179539642
  0.2243210972401570  0.1124395477087958  0.9478860430212137
  0.1116633046703015  0.2245980875798992  0.6926521286230596
  0.8845547521712334  0.1072656423499652  0.4378095636301467
  0.7750806802456296  0.2187038507438430  0.2006151333974202
  0.5506488298278072  0.1077003871288014  0.9402758965113520
  0.4465543486253054  0.2194564489655306  0.6975500917182984
  0.2224343297816631  0.4457595022478102  0.4389946745889475
  0.1119727417456460  0.5540173739766416  0.1945540325870141
  0.8844910838013078  0.4446594308755394  0.9364059903303072
  0.7837454714209073  0.5590471446436922  0.6909449838452488
  0.5589699103093579  0.4461657228548503  0.4445746673487179
  0.4424893906526606  0.5579620964901011  0.1966617946117921
  0.2225977787191340  0.4447686135722151  0.9387555473714713
  0.1107465515491555  0.5524384626788361  0.6989951592049195
  0.8837946939999242  0.4427094849486650  0.4509541906016423
  0.7811297869924019  0.5605231715632684  0.1886915296118019
  0.5576007084675183  0.4440171690068979  0.9479818054146705
  0.4429102101355369  0.5576334143469310  0.6966118704122977
  0.2250145739110039  0.7814103410416990  0.4484517304666511
  0.1077021531866080  0.8906965523897981  0.2011286791395577
  0.8821770762867942  0.7751181111810297  0.9395158419893050
  0.7748422092911369  0.8818277649018711  0.6886908624569088
  0.5595515033388452  0.7838978939049071  0.4401602861750717
  0.4505476654307401  0.8915351179791813  0.1906912365876892
  0.2251697870614393  0.7806682593143819  0.9452141126805174
  0.1071670249358903  0.8876087923169038  0.6862565412138153
  0.8878066057823446  0.7768181832058474  0.4420584055408696
  0.7773370542383375  0.8879789612692335  0.1929937719924695
  0.5585641319629957  0.7849199206481288  0.9403441928906560
  0.4517596270288422  0.8923702384431351  0.6896741191969440
  0.2245063315703035  0.1137882780625361  0.2444050407027589
  0.5547012654611123  0.1107132967184086  0.2459790066549274
  0.8899580592142158  0.1103704881322116  0.2446598352813467
  0.7775134721649053  0.2193516562820861  0.4927364069469675
  0.5585025070535963  0.1114673266347808  0.7456635431093517
  0.4445871500942005  0.2214149410348014  0.9946800401501221
  0.2229049484372325  0.4454956098791598  0.2475055350937936
  0.8883410449774800  0.4428157418864203  0.7429678529365589
  0.7775842304613150  0.5551936620691293  0.9955020753667014
  0.2220861547588129  0.4437267840857047  0.7471633866995759
  0.7778894060270147  0.5566392052252311  0.4975815785256046
  0.1105612236972604  0.8886044171982164  0.4924156239730593
  0.8898754146873813  0.7777807350231427  0.7450300181351253
  0.7759910179970788  0.8873066348393266  0.9975530090125915
  0.5574118762345819  0.7785364326781234  0.2463629674303718
  0.4461986324687786  0.8889177019925754  0.4959865181325469
  0.8871681062464418  0.7778198436561894  0.2482556676175847
  0.7787568963300515  0.8883074366698835  0.4942175197489789
  0.5566898269800902  0.7784275346633009  0.7461746460734204
  0.4441992976792335  0.8896221764043730  0.9966586003231441
  0.1097204593626131  0.2198714163669564  0.4933094077260733
  0.8860103597622313  0.1083052603682688  0.7461214035417996
  0.7745141116397178  0.2218459614234192  0.9994543769030813
  0.4447213487699244  0.2200539328674083  0.4975872626518836
  0.2203671306203603  0.1097036148518882  0.7480351612007894
  0.1109237972366586  0.2231190230692093  0.0013921987438579
  0.1105160663178069  0.5559090372746809  0.5004518096793689
  0.5552114805955455  0.4432984152373294  0.2450281886542456
  0.4462444457834565  0.5584071895414979  0.4974206875315161
  0.1079829685952447  0.5545629164502657  0.9954232243895049
  0.8887166138178415  0.4457139195172601  0.2508480806767324
  0.5583155962578203  0.4469961962270759  0.7487428853729980
  0.4462202178953163  0.5589981671352220  0.9976265097377848
  0.2250840248442572  0.7795319144583814  0.2492531687591040
  0.2249392253168381  0.7806955359173955  0.7456347895762576
  0.1060312517603776  0.8862979864334832  0.0006986466794459
 
  0.00000000E+00  0.00000000E+00  0.00000000E+00
  0.00000000E+00  0.00000000E+00  0.00000000E+00
  0.00000000E+00  0.00000000E+00  0.00000000E+00
  0.00000000E+00  0.00000000E+00  0.00000000E+00
  0.00000000E+00  0.00000000E+00  0.00000000E+00
  0.00000000E+00  0.00000000E+00  0.00000000E+00
  0.00000000E+00  0.00000000E+00  0.00000000E+00
  0.00000000E+00  0.00000000E+00  0.00000000E+00
  0.00000000E+00  0.00000000E+00  0.00000000E+00
  0.00000000E+00  0.00000000E+00  0.00000000E+00
  0.00000000E+00  0.00000000E+00  0.00000000E+00
  0.00000000E+00  0.00000000E+00  0.00000000E+00
  0.00000000E+00  0.00000000E+00  0.00000000E+00
  0.00000000E+00  0.00000000E+00  0.00000000E+00
  0.00000000E+00  0.00000000E+00  0.00000000E+00
  0.00000000E+00  0.00000000E+00  0.00000000E+00
  0.00000000E+00  0.00000000E+00  0.00000000E+00
  0.00000000E+00  0.00000000E+00  0.00000000E+00
  0.00000000E+00  0.00000000E+00  0.00000000E+00
  0.00000000E+00  0.00000000E+00  0.00000000E+00
  0.00000000E+00  0.00000000E+00  0.00000000E+00
  0.00000000E+00  0.00000000E+00  0.00000000E+00
  0.00000000E+00  0.00000000E+00  0.00000000E+00
  0.00000000E+00  0.00000000E+00  0.00000000E+00
  0.00000000E+00  0.00000000E+00  0.00000000E+00
  0.00000000E+00  0.00000000E+00  0.00000000E+00
  0.00000000E+00  0.00000000E+00  0.00000000E+00
  0.00000000E+00  0.00000000E+00  0.00000000E+00
  0.00000000E+00  0.00000000E+00  0.00000000E+00
  0.00000000E+00  0.00000000E+00  0.00000000E+00
  0.00000000E+00  0.00000000E+00  0.00000000E+00
  0.00000000E+00  0.00000000E+00  0.00000000E+00
  0.00000000E+00  0.00000000E+00  0.00000000E+00
  0.00000000E+00  0.00000000E+00  0.00000000E+00
  0.00000000E+00  0.00000000E+00  0.00000000E+00
  0.00000000E+00  0.00000000E+00  0.00000000E+00
  0.00000000E+00  0.00000000E+00  0.00000000E+00
  0.00000000E+00  0.00000000E+00  0.00000000E+00
  0.00000000E+00  0.00000000E+00  0.00000000E+00
  0.00000000E+00  0.00000000E+00  0.00000000E+00
  0.00000000E+00  0.00000000E+00  0.00000000E+00
  0.00000000E+00  0.00000000E+00  0.00000000E+00
  0.00000000E+00  0.00000000E+00  0.00000000E+00
  0.00000000E+00  0.00000000E+00  0.00000000E+00
  0.00000000E+00  0.00000000E+00  0.00000000E+00
  0.00000000E+00  0.00000000E+00  0.00000000E+00
  0.00000000E+00  0.00000000E+00  0.00000000E+00
  0.00000000E+00  0.00000000E+00  0.00000000E+00
  0.00000000E+00  0.00000000E+00  0.00000000E+00
  0.00000000E+00  0.00000000E+00  0.00000000E+00
  0.00000000E+00  0.00000000E+00  0.00000000E+00
  0.00000000E+00  0.00000000E+00  0.00000000E+00
  0.00000000E+00  0.00000000E+00  0.00000000E+00
  0.00000000E+00  0.00000000E+00  0.00000000E+00
  0.00000000E+00  0.00000000E+00  0.00000000E+00
  0.00000000E+00  0.00000000E+00  0.00000000E+00
  0.00000000E+00  0.00000000E+00  0.00000000E+00
  0.00000000E+00  0.00000000E+00  0.00000000E+00
  0.00000000E+00  0.00000000E+00  0.00000000E+00
  0.00000000E+00  0.00000000E+00  0.00000000E+00
  0.00000000E+00  0.00000000E+00  0.00000000E+00
  0.00000000E+00  0.00000000E+00  0.00000000E+00
  0.00000000E+00  0.00000000E+00  0.00000000E+00
  0.00000000E+00  0.00000000E+00  0.00000000E+00
  0.00000000E+00  0.00000000E+00  0.00000000E+00
  0.00000000E+00  0.00000000E+00  0.00000000E+00
  0.00000000E+00  0.00000000E+00  0.00000000E+00
  0.00000000E+00  0.00000000E+00  0.00000000E+00
  0.00000000E+00  0.00000000E+00  0.00000000E+00
  0.00000000E+00  0.00000000E+00  0.00000000E+00
  0.00000000E+00  0.00000000E+00  0.00000000E+00
  0.00000000E+00  0.00000000E+00  0.00000000E+00
