supercell of icsd_181358.cif            
   1.00000000000000     
    10.2233920424487064   -0.0393744890611364    0.0185459543490868
    -5.1461228650015585    8.9210769989369254   -0.0355197338307294
     0.0204392933779289   -0.0338623896507549   10.5179221049298981
   N    Ga   Y 
    36    24    12
Direct
  0.2301289316301336  0.1296648971305743  0.4341028691691946
  0.0942504499497687  0.1925833980304787  0.1873286790989823
  0.8999156279503637  0.1418830477391140  0.9427995427479985
  0.7602884830069030  0.2464165226709341  0.6795562712422623
  0.5640022690962994  0.1388862679599328  0.4269165505268049
  0.4426854676689302  0.2239023138015597  0.1935264002384542
  0.2221855881277861  0.1093762927579505  0.9602520647505628
  0.1247399968473815  0.2498593264084548  0.6791154436680031
  0.9018269546564284  0.1492195623675627  0.4457246815533082
  0.7778815227055773  0.2222047155631088  0.1867093494747536
  0.5688203738755888  0.1441713819823036  0.9378998400619238
  0.4413687431572271  0.2028709718924304  0.6708208998762117
  0.2374895427832371  0.4372443806926896  0.4272320259465943
  0.0917072072975884  0.5645309467252915  0.1851953426353461
  0.8849876235278842  0.4437506184526967  0.9388407295168619
  0.8068461474281818  0.5663487209833349  0.6838301376883038
  0.5568049578272891  0.4441623668310228  0.4456366013738275
  0.4796065856925793  0.5705471017218642  0.1899126536647771
  0.2261691009326441  0.4431424233842378  0.9599535389688754
  0.1140891608925827  0.5517673691873455  0.7178103905809436
  0.8668765328482309  0.4386126268108725  0.4284521701339656
  0.7564852469100671  0.5145979901890243  0.1819048205599998
  0.5519207794675154  0.4408096954139111  0.9492587973557534
  0.4201861375600018  0.5333525978682871  0.6822679580047861
  0.2150209397664540  0.7622423195261590  0.4278690985040754
  0.1400316087718920  0.9009799901749389  0.1924484282655214
  0.8944237774116957  0.7608311952872882  0.9604590327181697
  0.8045921231107585  0.8843431891052731  0.7027354675653115
  0.5413977905796230  0.7519975453602683  0.4515985659461847
  0.4490311416448307  0.8888641419679075  0.2157839470919996
  0.2016978675848762  0.7648170880700889  0.9456948299294439
  0.1047017780041202  0.8632852336161179  0.7042310636425100
  0.8765264192538993  0.7471528534629783  0.4285475242480814
  0.7720410274669547  0.9031002606657594  0.2229400351710424
  0.5473401512747671  0.7600114610227635  0.9459633510333845
  0.4353792193950667  0.9007167244627325  0.7136793004430473
  0.2252039363902654  0.1121002003323284  0.2451406714952071
  0.1080377463031752  0.2188428489142140  0.0036821410736891
  0.7687635850279122  0.2398831669472941  0.4936170153326387
  0.5605511999492734  0.1221432593354592  0.2467515379739709
  0.4472109375443978  0.2312648512076620  0.0081653172909810
  0.1268387887177411  0.2390309855907660  0.4923937500370030
  0.8872534688550928  0.1216903806420362  0.2546173838404400
  0.7826197215539707  0.2370796803983737  0.9997346603627761
  0.5527970305815444  0.1219966554181795  0.7497031741445568
  0.4460921163103748  0.2284570249271880  0.4881121590800248
  0.0967956240800660  0.5561590984587639  0.9976444813927756
  0.8919244127044479  0.4515765200816162  0.7529006520889041
  0.7762643787186647  0.5491039377783977  0.4950207266424869
  0.5575724428226536  0.4393768344843281  0.2527408195600671
  0.4573393950910614  0.5560378735590206  0.0036812869432623
  0.2226441922270084  0.4463865615211660  0.7616760420199213
  0.8765503713667826  0.4354045596736640  0.2453962339034348
  0.7689591867511893  0.5365771292285899  0.0000594717286759
  0.4368465458240465  0.5394676128168356  0.4952355718339163
  0.2230390665208972  0.7766203746557920  0.2463045410450562
  0.1172553584018203  0.8874304695659063  0.0048392040973937
  0.8977052251221735  0.7669151701899537  0.7579842023933381
  0.5554139597362848  0.7754545385177423  0.2575536891618597
  0.2141954750116071  0.7693131931616435  0.7611020015306309
  0.8878973690012586  0.1308035602546056  0.7303434695987860
  0.2138771060985505  0.1055876792106361  0.7486151252163182
  0.2256642032000897  0.4446338150161466  0.2177762667433996
  0.1024890497638040  0.5339953643311759  0.5015221502731251
  0.5619613000215224  0.4376780102950661  0.7357150502557488
  0.7864042123590309  0.8913150471418660  0.4752153078552297
  0.4430477745648957  0.8970387719016770  0.9961837784803862
  0.1076740139732806  0.8834974075602702  0.4923293949658998
  0.8868961606376686  0.7594071802535325  0.2216534507191454
  0.7854744528871578  0.9011869646402957  0.9993885038586612
  0.5519842545057188  0.7687812371136076  0.7352835714340671
  0.4453086612694435  0.8995144955869137  0.4889187922290077
 
  0.00000000E+00  0.00000000E+00  0.00000000E+00
  0.00000000E+00  0.00000000E+00  0.00000000E+00
  0.00000000E+00  0.00000000E+00  0.00000000E+00
  0.00000000E+00  0.00000000E+00  0.00000000E+00
  0.00000000E+00  0.00000000E+00  0.00000000E+00
  0.00000000E+00  0.00000000E+00  0.00000000E+00
  0.00000000E+00  0.00000000E+00  0.00000000E+00
  0.00000000E+00  0.00000000E+00  0.00000000E+00
  0.00000000E+00  0.00000000E+00  0.00000000E+00
  0.00000000E+00  0.00000000E+00  0.00000000E+00
  0.00000000E+00  0.00000000E+00  0.00000000E+00
  0.00000000E+00  0.00000000E+00  0.00000000E+00
  0.00000000E+00  0.00000000E+00  0.00000000E+00
  0.00000000E+00  0.00000000E+00  0.00000000E+00
  0.00000000E+00  0.00000000E+00  0.00000000E+00
  0.00000000E+00  0.00000000E+00  0.00000000E+00
  0.00000000E+00  0.00000000E+00  0.00000000E+00
  0.00000000E+00  0.00000000E+00  0.00000000E+00
  0.00000000E+00  0.00000000E+00  0.00000000E+00
  0.00000000E+00  0.00000000E+00  0.00000000E+00
  0.00000000E+00  0.00000000E+00  0.00000000E+00
  0.00000000E+00  0.00000000E+00  0.00000000E+00
  0.00000000E+00  0.00000000E+00  0.00000000E+00
  0.00000000E+00  0.00000000E+00  0.00000000E+00
  0.00000000E+00  0.00000000E+00  0.00000000E+00
  0.00000000E+00  0.00000000E+00  0.00000000E+00
  0.00000000E+00  0.00000000E+00  0.00000000E+00
  0.00000000E+00  0.00000000E+00  0.00000000E+00
  0.00000000E+00  0.00000000E+00  0.00000000E+00
  0.00000000E+00  0.00000000E+00  0.00000000E+00
  0.00000000E+00  0.00000000E+00  0.00000000E+00
  0.00000000E+00  0.00000000E+00  0.00000000E+00
  0.00000000E+00  0.00000000E+00  0.00000000E+00
  0.00000000E+00  0.00000000E+00  0.00000000E+00
  0.00000000E+00  0.00000000E+00  0.00000000E+00
  0.00000000E+00  0.00000000E+00  0.00000000E+00
  0.00000000E+00  0.00000000E+00  0.00000000E+00
  0.00000000E+00  0.00000000E+00  0.00000000E+00
  0.00000000E+00  0.00000000E+00  0.00000000E+00
  0.00000000E+00  0.00000000E+00  0.00000000E+00
  0.00000000E+00  0.00000000E+00  0.00000000E+00
  0.00000000E+00  0.00000000E+00  0.00000000E+00
  0.00000000E+00  0.00000000E+00  0.00000000E+00
  0.00000000E+00  0.00000000E+00  0.00000000E+00
  0.00000000E+00  0.00000000E+00  0.00000000E+00
  0.00000000E+00  0.00000000E+00  0.00000000E+00
  0.00000000E+00  0.00000000E+00  0.00000000E+00
  0.00000000E+00  0.00000000E+00  0.00000000E+00
  0.00000000E+00  0.00000000E+00  0.00000000E+00
  0.00000000E+00  0.00000000E+00  0.00000000E+00
  0.00000000E+00  0.00000000E+00  0.00000000E+00
  0.00000000E+00  0.00000000E+00  0.00000000E+00
  0.00000000E+00  0.00000000E+00  0.00000000E+00
  0.00000000E+00  0.00000000E+00  0.00000000E+00
  0.00000000E+00  0.00000000E+00  0.00000000E+00
  0.00000000E+00  0.00000000E+00  0.00000000E+00
  0.00000000E+00  0.00000000E+00  0.00000000E+00
  0.00000000E+00  0.00000000E+00  0.00000000E+00
  0.00000000E+00  0.00000000E+00  0.00000000E+00
  0.00000000E+00  0.00000000E+00  0.00000000E+00
  0.00000000E+00  0.00000000E+00  0.00000000E+00
  0.00000000E+00  0.00000000E+00  0.00000000E+00
  0.00000000E+00  0.00000000E+00  0.00000000E+00
  0.00000000E+00  0.00000000E+00  0.00000000E+00
  0.00000000E+00  0.00000000E+00  0.00000000E+00
  0.00000000E+00  0.00000000E+00  0.00000000E+00
  0.00000000E+00  0.00000000E+00  0.00000000E+00
  0.00000000E+00  0.00000000E+00  0.00000000E+00
  0.00000000E+00  0.00000000E+00  0.00000000E+00
  0.00000000E+00  0.00000000E+00  0.00000000E+00
  0.00000000E+00  0.00000000E+00  0.00000000E+00
  0.00000000E+00  0.00000000E+00  0.00000000E+00
