supercell of icsd_181358.cif            
   1.00000000000000     
     9.6658531585897300    0.0023698559204812   -0.0020576368147103
    -4.8308742341039865    8.3673019136781619   -0.0000003803251875
    -0.0022559302021815   -0.0013029282922192   10.3637994305360195
   N    Ga   Y 
    36    34     2
Direct
  0.2353940073505711  0.1396674622365026  0.4313196873288305
  0.0964882803778835  0.1972850542827516  0.1798076247043738
  0.8858109100327241  0.1101053112557366  0.9366352383122774
  0.7771068575261566  0.2218867983847161  0.6874609745774620
  0.5540443232861492  0.1103556402775396  0.4387416668945079
  0.4468084338101264  0.2239890330133605  0.1875755788640205
  0.2245517635151870  0.1114442532140245  0.9420841043502790
  0.1102058121016043  0.2199596229680338  0.6950967806712569
  0.8895413050434584  0.1107174722130040  0.4401862884570065
  0.7785605813735756  0.2226134289954587  0.1897824486861239
  0.5561153372394045  0.1113910226432537  0.9381890530151935
  0.4440558818630436  0.2217422149206882  0.6887189814709984
  0.2221099406519755  0.4443878864002500  0.4602099209276318
  0.0964880513640338  0.5658695705985508  0.1798077091553196
  0.8858102991478276  0.4423720428011819  0.9366349987617539
  0.7780996789645584  0.5564299936270487  0.6890759835882392
  0.5554277853753931  0.4450330842430503  0.4394434171595734
  0.4710003517559826  0.5688334924740062  0.1820079244613737
  0.2228657624059949  0.4447667216208018  0.9446086900248929
  0.1102060643536760  0.5569129466724334  0.6950964954713186
  0.8895418181978272  0.4454908065495147  0.4401864090828340
  0.7767012768208446  0.5530921340572093  0.1871527946432252
  0.5567103241463869  0.4434091194442544  0.9368314544935785
  0.4463869560875509  0.5565268024450418  0.6934453898743982
  0.2353946518414674  0.7623931324129032  0.4313191473133102
  0.1110837936949380  0.8888749199494299  0.1963231222469943
  0.8875308059200648  0.7770988964446062  0.9438534132850620
  0.7780994698892343  0.8883363769739887  0.6890760871435688
  0.5554275517271208  0.7770612018523408  0.4394435187864048
  0.4468087696183218  0.8894862154091427  0.1875753502172088
  0.2245513080633756  0.7797741749195097  0.9420841639551156
  0.1105138248930331  0.8885902750670169  0.7051669399124023
  0.8622166462227838  0.7644416931081821  0.4310281826336535
  0.7767011756457620  0.8902751552777417  0.1871530744949084
  0.5567104827970937  0.7799685061363277  0.9368315703779899
  0.4440557933851537  0.8889803620375929  0.6887191336681937
  0.2244193323841444  0.1137298766681596  0.2449637243882563
  0.1067261712408936  0.2163157253571910  0.9953012218875301
  0.8866542783542499  0.1099710355719878  0.7493018552020132
  0.7772473006242251  0.2219567516360499  0.4989233080117543
  0.5558030994370640  0.1112354190803870  0.2493874991720801
  0.4466004728160939  0.2232425704725216  0.9993953041737385
  0.2235720378039119  0.1110783016026957  0.7549808236635513
  0.1116092977545051  0.2251834429927939  0.5064589615058068
  0.8856365145382483  0.1063401708109524  0.2498694190122421
  0.7774407009859985  0.2220531241797943  0.9998000370315694
  0.5556055281255254  0.1111365022813402  0.7490223671462743
  0.4476547917041742  0.2274970938413716  0.4992460561577090
  0.1067248418048194  0.5570765425874882  0.9953015145141819
  0.8866546085417326  0.4433508559629402  0.7493015138157588
  0.7729680703516308  0.5527852123442401  0.4999476638407216
  0.5608212542696123  0.4461967433695690  0.2500527314268481
  0.4516939720895081  0.5591804440011643  0.9960195774739518
  0.2227432929093851  0.4447053798119924  0.7515309693623635
  0.1116104249153835  0.5530922715322006  0.5064586392485921
  0.8856363539194732  0.4459630428146326  0.2498697702430377
  0.7767475149357210  0.5535214333469511  0.9997630450193995
  0.5564575373856187  0.4438802636243580  0.7496795926411508
  0.4460420812924539  0.5563539468783461  0.5050803030911410
  0.2244202368290544  0.7773565827416320  0.2449632062589941
  0.1113837325261926  0.8890249530435312  0.0021202049388265
  0.8877887416016890  0.7772280999770089  0.7550163034102439
  0.7729675521723962  0.8868487548540713  0.4999478354388529
  0.5608207069645132  0.7812914189927369  0.2500529784211452
  0.4465999659496021  0.8900239421553522  0.9993951299086987
  0.2235716779044452  0.7791608340555953  0.7549809284455051
  0.8810546019277723  0.7738605289541880  0.2449064843655790
  0.7767477966436047  0.8898926301334242  0.9997635779668670
  0.5564574365917991  0.7792446088554001  0.7496798046048809
  0.4476549866238386  0.8868240247188410  0.4992461576389431
  0.2226543911360608  0.4446606267451330  0.2455026663055548
  0.1116826184543598  0.8891740190767550  0.4900955052549634
 
  0.00000000E+00  0.00000000E+00  0.00000000E+00
  0.00000000E+00  0.00000000E+00  0.00000000E+00
  0.00000000E+00  0.00000000E+00  0.00000000E+00
  0.00000000E+00  0.00000000E+00  0.00000000E+00
  0.00000000E+00  0.00000000E+00  0.00000000E+00
  0.00000000E+00  0.00000000E+00  0.00000000E+00
  0.00000000E+00  0.00000000E+00  0.00000000E+00
  0.00000000E+00  0.00000000E+00  0.00000000E+00
  0.00000000E+00  0.00000000E+00  0.00000000E+00
  0.00000000E+00  0.00000000E+00  0.00000000E+00
  0.00000000E+00  0.00000000E+00  0.00000000E+00
  0.00000000E+00  0.00000000E+00  0.00000000E+00
  0.00000000E+00  0.00000000E+00  0.00000000E+00
  0.00000000E+00  0.00000000E+00  0.00000000E+00
  0.00000000E+00  0.00000000E+00  0.00000000E+00
  0.00000000E+00  0.00000000E+00  0.00000000E+00
  0.00000000E+00  0.00000000E+00  0.00000000E+00
  0.00000000E+00  0.00000000E+00  0.00000000E+00
  0.00000000E+00  0.00000000E+00  0.00000000E+00
  0.00000000E+00  0.00000000E+00  0.00000000E+00
  0.00000000E+00  0.00000000E+00  0.00000000E+00
  0.00000000E+00  0.00000000E+00  0.00000000E+00
  0.00000000E+00  0.00000000E+00  0.00000000E+00
  0.00000000E+00  0.00000000E+00  0.00000000E+00
  0.00000000E+00  0.00000000E+00  0.00000000E+00
  0.00000000E+00  0.00000000E+00  0.00000000E+00
  0.00000000E+00  0.00000000E+00  0.00000000E+00
  0.00000000E+00  0.00000000E+00  0.00000000E+00
  0.00000000E+00  0.00000000E+00  0.00000000E+00
  0.00000000E+00  0.00000000E+00  0.00000000E+00
  0.00000000E+00  0.00000000E+00  0.00000000E+00
  0.00000000E+00  0.00000000E+00  0.00000000E+00
  0.00000000E+00  0.00000000E+00  0.00000000E+00
  0.00000000E+00  0.00000000E+00  0.00000000E+00
  0.00000000E+00  0.00000000E+00  0.00000000E+00
  0.00000000E+00  0.00000000E+00  0.00000000E+00
  0.00000000E+00  0.00000000E+00  0.00000000E+00
  0.00000000E+00  0.00000000E+00  0.00000000E+00
  0.00000000E+00  0.00000000E+00  0.00000000E+00
  0.00000000E+00  0.00000000E+00  0.00000000E+00
  0.00000000E+00  0.00000000E+00  0.00000000E+00
  0.00000000E+00  0.00000000E+00  0.00000000E+00
  0.00000000E+00  0.00000000E+00  0.00000000E+00
  0.00000000E+00  0.00000000E+00  0.00000000E+00
  0.00000000E+00  0.00000000E+00  0.00000000E+00
  0.00000000E+00  0.00000000E+00  0.00000000E+00
  0.00000000E+00  0.00000000E+00  0.00000000E+00
  0.00000000E+00  0.00000000E+00  0.00000000E+00
  0.00000000E+00  0.00000000E+00  0.00000000E+00
  0.00000000E+00  0.00000000E+00  0.00000000E+00
  0.00000000E+00  0.00000000E+00  0.00000000E+00
  0.00000000E+00  0.00000000E+00  0.00000000E+00
  0.00000000E+00  0.00000000E+00  0.00000000E+00
  0.00000000E+00  0.00000000E+00  0.00000000E+00
  0.00000000E+00  0.00000000E+00  0.00000000E+00
  0.00000000E+00  0.00000000E+00  0.00000000E+00
  0.00000000E+00  0.00000000E+00  0.00000000E+00
  0.00000000E+00  0.00000000E+00  0.00000000E+00
  0.00000000E+00  0.00000000E+00  0.00000000E+00
  0.00000000E+00  0.00000000E+00  0.00000000E+00
  0.00000000E+00  0.00000000E+00  0.00000000E+00
  0.00000000E+00  0.00000000E+00  0.00000000E+00
  0.00000000E+00  0.00000000E+00  0.00000000E+00
  0.00000000E+00  0.00000000E+00  0.00000000E+00
  0.00000000E+00  0.00000000E+00  0.00000000E+00
  0.00000000E+00  0.00000000E+00  0.00000000E+00
  0.00000000E+00  0.00000000E+00  0.00000000E+00
  0.00000000E+00  0.00000000E+00  0.00000000E+00
  0.00000000E+00  0.00000000E+00  0.00000000E+00
  0.00000000E+00  0.00000000E+00  0.00000000E+00
  0.00000000E+00  0.00000000E+00  0.00000000E+00
  0.00000000E+00  0.00000000E+00  0.00000000E+00
