0% icsd_608626.cif, 100% icsd_608626.ci 
   1.00000000000000     
    -3.2797357787883366   -0.0000001722856940   -0.0000000054880315
    -1.6398675217539207    2.8403346185168132   -0.0000000216040319
     0.0000000058186777   -0.0000000280177424   -4.3301863753798049
   Al   N 
     2     2
Direct
  0.3333334186938970  0.2833343806826107  0.7284427116752568
  0.6666667644207678  0.6166677169695305  0.2284427115946528
  0.6666667785048190  0.6166677243536398  0.6899663761336114
  0.3333334055269290  0.2833343742516448  0.1899663761564696
 
  0.00000000E+00  0.00000000E+00  0.00000000E+00
  0.00000000E+00  0.00000000E+00  0.00000000E+00
  0.00000000E+00  0.00000000E+00  0.00000000E+00
  0.00000000E+00  0.00000000E+00  0.00000000E+00
