100% icsd_608626.cif, 0% icsd_608626.ci 
   1.00000000000000     
    -3.1281153650662570   -0.0000001724852236   -0.0000000029783383
    -1.5640575332296986    2.7090354262960359   -0.0000000205333447
    -0.0000000045588849    0.0000000350184329   -5.0147730552823555
   Al   N 
     2     2
Direct
  0.3333341097863567  0.2833317819241543  0.5907759371092709
  0.6666658938501300  0.6166682015800760  0.0907759707298297
  0.6666677367820384  0.6166646010437873  0.7092240406512005
  0.3333322595814678  0.2833354154519867  0.2092240515096933
 
  0.00000000E+00  0.00000000E+00  0.00000000E+00
  0.00000000E+00  0.00000000E+00  0.00000000E+00
  0.00000000E+00  0.00000000E+00  0.00000000E+00
  0.00000000E+00  0.00000000E+00  0.00000000E+00
