0% icsd_608626.cif, 100% icsd_608626.ci 
   1.00000000000000     
    -3.1591940057893582   -0.0000001724104000   -0.0000000039194732
    -1.5795959614026762    2.7359619149477119   -0.0000000209348524
     0.0000000139607195   -0.0000000378766778   -4.8871517939930200
   Al   N 
     2     2
Direct
  0.3333338055382455  0.2833336158962538  0.6546121366370556
  0.6666663791370695  0.6166684930903230  0.1546121370362741
  0.6666659520573077  0.6166694920581222  0.7644360772667156
  0.3333342322847344  0.2833326167201520  0.2644360771993632
 
  0.00000000E+00  0.00000000E+00  0.00000000E+00
  0.00000000E+00  0.00000000E+00  0.00000000E+00
  0.00000000E+00  0.00000000E+00  0.00000000E+00
  0.00000000E+00  0.00000000E+00  0.00000000E+00
