POSCAR                                  
  0.988000000000000     
     2.4837321635800000   -4.9733313927199996    7.4849423696299997
     2.4799539358799998   -9.9023780198899995   -7.4543810157100001
     9.8916104872300004    9.9050239525600006   -0.0130362806829000
   Tb   Al   N 
    42     6    48
Direct
  0.6661062432538429  0.0022947791086096  0.0886747858792276
  0.7571602463756051  0.7455306017238783  0.1232717722810079
  0.9081761115617084  0.2570825010908564  0.2133746059998245
  0.0065021307348871  0.9999302658168148  0.2496146266439894
  0.0800900105223761  0.7436994457563628  0.2892890198141060
  0.1646401770211483  0.5064247249298077  0.0873204788639583
  0.2499126867917809  0.2522882251430190  0.1287604881939401
  0.4908456714945686  0.5046607409686814  0.2475201495273183
  0.6719425732174429  0.0065516819455809  0.3311616517389311
  0.7459531670232451  0.7473437146858757  0.3696624536372326
  0.9075109167907200  0.2539995533525783  0.4534209697272829
  0.9988719916240996  0.0000479581731483  0.4990233197295240
  0.0751308064553982  0.7450846560904267  0.5401915090230602
  0.1495461765886148  0.4987526287199202  0.3316361659241025
  0.2429236677231756  0.2519297140414523  0.3777700420548840
  0.3329457481241320  0.0027381473189152  0.4175182241473863
  0.4073548086589511  0.7480675269335393  0.4524276577102597
  0.4893057434104335  0.4977274622115786  0.4971405616002045
  0.5800590952852502  0.2514932973192501  0.5409714394103631
  0.6678473172176780  0.0005646662454595  0.5861757162486256
  0.7492246578140680  0.7426015552394105  0.6232181660296305
  0.8332540997524731  0.5109883069300309  0.6755197801549215
  0.9145874728032979  0.2533626416639834  0.7094796330976294
  0.0006109846070075  0.0017832613060733  0.7520271436635610
  0.0904746492778514  0.7524463544722337  0.7929618802095320
  0.1562327857571049  0.5015131671003701  0.5821664612004298
  0.2480701205847566  0.2524032128578568  0.6264044091793934
  0.3326781570249935  0.9986072041584535  0.6686194852601659
  0.4233445137108589  0.7499697778678538  0.7113338482630738
  0.5044424673497758  0.5054801971613472  0.7533874463039609
  0.5821002811636475  0.2510436947773442  0.7939607566640845
  0.6677370025911742  0.9970357136280441  0.8388817775200152
  0.8340727311739187  0.5057354934376477  0.9248202322198367
  0.9146142284077925  0.2567319101132739  0.9645708872858378
  0.0088093442014809  0.0024024437514854  0.0043429099717258
  0.1050933383688815  0.7566032391022830  0.0466743814062553
  0.1725335750021344  0.5019335865832844  0.8364897229187349
  0.2509190060424018  0.2514614564950719  0.8777712840006373
  0.3357333176663460  0.0016349148308095  0.9244260163866684
  0.4261393101039985  0.7539148672492715  0.9631564953877216
  0.5062332059725208  0.5059536996647651  0.0076183703088830
  0.5883268772389414  0.2584227284735192  0.0476250493350676
  0.8185876692677425  0.5148759366961926  0.2066222632165307
  0.3295855407333903  0.0336194823384872  0.1901503222318084
  0.4261557348970584  0.8147403135239131  0.2203264201929684
  0.5304175582271924  0.2460374638349734  0.2977268371638715
  0.7576579989142118  0.4710127899127983  0.3925336718497121
  0.8147967937248737  0.7670595512135705  0.8927403951618942
  0.7280729176953784  0.3950007289894444  0.2367038087617317
  0.8107436839930386  0.1114420496101047  0.2655565239940287
  0.8807270876283084  0.8708182872513035  0.3104187304396575
  0.9543016267670197  0.6218631735585376  0.3396263988417658
  0.0448289397583679  0.3650851063553802  0.3937969254343869
  0.1261238534198412  0.1186832762050756  0.4340550616794729
  0.2475668943003342  0.8924813379968981  0.2205705491477516
  0.2830253460629493  0.6137917332256535  0.2740957245785367
  0.3819120519003505  0.3625982554805063  0.3084751296719688
  0.4568999252881056  0.1280354176713274  0.3423135244436608
  0.5297098988576394  0.8635765430572135  0.3714037937196792
  0.6355205283131724  0.6059686342480859  0.4300518706047711
  0.6864688908438552  0.3575127623636689  0.4389150984910657
  0.7893863137732566  0.1226329121891965  0.5169331991196131
  0.8702560878723560  0.8685321499810499  0.5576649247280372
  0.9620453464030945  0.6279177074895586  0.6111239476701229
  0.0350638359517816  0.3740477084810863  0.6424390777337763
  0.1237701307465358  0.1209791731199630  0.6869593420282314
  0.2132371868324512  0.8723144548260393  0.4742871792793792
  0.2859449538960348  0.6216151941566110  0.5166799316935240
  0.3752752350220590  0.3702011121448905  0.5607058064038384
  0.4600751964137118  0.1231545631343707  0.5980568431415563
  0.5420651941652679  0.8703086111513443  0.6421144505283110
  0.6175244072536330  0.6144623936407356  0.6738280509923698
  0.7092476876443072  0.3747941305899403  0.7249042530236167
  0.7892971396298591  0.1183904076492084  0.7658000895580415
  0.8689054775257432  0.8649741785358316  0.8204732724911992
  0.9455208987234300  0.6359123482810318  0.8552331209088635
  0.0396131408678002  0.3756471644868640  0.8968232729977146
  0.1229250222622440  0.1227289731516379  0.9366690679361298
  0.2060653678576045  0.8737213851513630  0.7252661875465520
  0.2948132296040313  0.6232996381356983  0.7703266870859196
  0.3697631280829015  0.3730607306175173  0.8100643100643197
  0.4587622799526585  0.1262117294296701  0.8568000038342234
  0.5318982199392224  0.8822341222911732  0.8992350941159231
  0.6247634748280930  0.6188371608249668  0.9420274285125032
  0.7024097154898854  0.3649187323335354  0.9708703675354684
  0.7882572635262619  0.1257260659560444  0.0252154320340168
  0.8750674515282881  0.8656874631741687  0.0492941035971981
  0.9767842565528753  0.6355301015035408  0.1011599957619396
  0.0451343200442764  0.3671234809641746  0.1463416977049690
  0.1445083473585456  0.1147777959907330  0.1876883392194060
  0.2090752078964115  0.8738378967703184  0.9718769219755288
  0.2921762282890157  0.6223575752399100  0.0152802796184019
  0.3788433557735473  0.3728181275629296  0.0644289357023382
  0.4609681849672569  0.1280183702066964  0.1317516709500310
  0.5509684526425076  0.8663016876657963  0.1497177039471680
  0.6584279035996943  0.6044801911991016  0.1854941860114678
 
  0.00000000E+00  0.00000000E+00  0.00000000E+00
  0.00000000E+00  0.00000000E+00  0.00000000E+00
  0.00000000E+00  0.00000000E+00  0.00000000E+00
  0.00000000E+00  0.00000000E+00  0.00000000E+00
  0.00000000E+00  0.00000000E+00  0.00000000E+00
  0.00000000E+00  0.00000000E+00  0.00000000E+00
  0.00000000E+00  0.00000000E+00  0.00000000E+00
  0.00000000E+00  0.00000000E+00  0.00000000E+00
  0.00000000E+00  0.00000000E+00  0.00000000E+00
  0.00000000E+00  0.00000000E+00  0.00000000E+00
  0.00000000E+00  0.00000000E+00  0.00000000E+00
  0.00000000E+00  0.00000000E+00  0.00000000E+00
  0.00000000E+00  0.00000000E+00  0.00000000E+00
  0.00000000E+00  0.00000000E+00  0.00000000E+00
  0.00000000E+00  0.00000000E+00  0.00000000E+00
  0.00000000E+00  0.00000000E+00  0.00000000E+00
  0.00000000E+00  0.00000000E+00  0.00000000E+00
  0.00000000E+00  0.00000000E+00  0.00000000E+00
  0.00000000E+00  0.00000000E+00  0.00000000E+00
  0.00000000E+00  0.00000000E+00  0.00000000E+00
  0.00000000E+00  0.00000000E+00  0.00000000E+00
  0.00000000E+00  0.00000000E+00  0.00000000E+00
  0.00000000E+00  0.00000000E+00  0.00000000E+00
  0.00000000E+00  0.00000000E+00  0.00000000E+00
  0.00000000E+00  0.00000000E+00  0.00000000E+00
  0.00000000E+00  0.00000000E+00  0.00000000E+00
  0.00000000E+00  0.00000000E+00  0.00000000E+00
  0.00000000E+00  0.00000000E+00  0.00000000E+00
  0.00000000E+00  0.00000000E+00  0.00000000E+00
  0.00000000E+00  0.00000000E+00  0.00000000E+00
  0.00000000E+00  0.00000000E+00  0.00000000E+00
  0.00000000E+00  0.00000000E+00  0.00000000E+00
  0.00000000E+00  0.00000000E+00  0.00000000E+00
  0.00000000E+00  0.00000000E+00  0.00000000E+00
  0.00000000E+00  0.00000000E+00  0.00000000E+00
  0.00000000E+00  0.00000000E+00  0.00000000E+00
  0.00000000E+00  0.00000000E+00  0.00000000E+00
  0.00000000E+00  0.00000000E+00  0.00000000E+00
  0.00000000E+00  0.00000000E+00  0.00000000E+00
  0.00000000E+00  0.00000000E+00  0.00000000E+00
  0.00000000E+00  0.00000000E+00  0.00000000E+00
  0.00000000E+00  0.00000000E+00  0.00000000E+00
  0.00000000E+00  0.00000000E+00  0.00000000E+00
  0.00000000E+00  0.00000000E+00  0.00000000E+00
  0.00000000E+00  0.00000000E+00  0.00000000E+00
  0.00000000E+00  0.00000000E+00  0.00000000E+00
  0.00000000E+00  0.00000000E+00  0.00000000E+00
  0.00000000E+00  0.00000000E+00  0.00000000E+00
  0.00000000E+00  0.00000000E+00  0.00000000E+00
  0.00000000E+00  0.00000000E+00  0.00000000E+00
  0.00000000E+00  0.00000000E+00  0.00000000E+00
  0.00000000E+00  0.00000000E+00  0.00000000E+00
  0.00000000E+00  0.00000000E+00  0.00000000E+00
  0.00000000E+00  0.00000000E+00  0.00000000E+00
  0.00000000E+00  0.00000000E+00  0.00000000E+00
  0.00000000E+00  0.00000000E+00  0.00000000E+00
  0.00000000E+00  0.00000000E+00  0.00000000E+00
  0.00000000E+00  0.00000000E+00  0.00000000E+00
  0.00000000E+00  0.00000000E+00  0.00000000E+00
  0.00000000E+00  0.00000000E+00  0.00000000E+00
  0.00000000E+00  0.00000000E+00  0.00000000E+00
  0.00000000E+00  0.00000000E+00  0.00000000E+00
  0.00000000E+00  0.00000000E+00  0.00000000E+00
  0.00000000E+00  0.00000000E+00  0.00000000E+00
  0.00000000E+00  0.00000000E+00  0.00000000E+00
  0.00000000E+00  0.00000000E+00  0.00000000E+00
  0.00000000E+00  0.00000000E+00  0.00000000E+00
  0.00000000E+00  0.00000000E+00  0.00000000E+00
  0.00000000E+00  0.00000000E+00  0.00000000E+00
  0.00000000E+00  0.00000000E+00  0.00000000E+00
  0.00000000E+00  0.00000000E+00  0.00000000E+00
  0.00000000E+00  0.00000000E+00  0.00000000E+00
  0.00000000E+00  0.00000000E+00  0.00000000E+00
  0.00000000E+00  0.00000000E+00  0.00000000E+00
  0.00000000E+00  0.00000000E+00  0.00000000E+00
  0.00000000E+00  0.00000000E+00  0.00000000E+00
  0.00000000E+00  0.00000000E+00  0.00000000E+00
  0.00000000E+00  0.00000000E+00  0.00000000E+00
  0.00000000E+00  0.00000000E+00  0.00000000E+00
  0.00000000E+00  0.00000000E+00  0.00000000E+00
  0.00000000E+00  0.00000000E+00  0.00000000E+00
  0.00000000E+00  0.00000000E+00  0.00000000E+00
  0.00000000E+00  0.00000000E+00  0.00000000E+00
  0.00000000E+00  0.00000000E+00  0.00000000E+00
  0.00000000E+00  0.00000000E+00  0.00000000E+00
  0.00000000E+00  0.00000000E+00  0.00000000E+00
  0.00000000E+00  0.00000000E+00  0.00000000E+00
  0.00000000E+00  0.00000000E+00  0.00000000E+00
  0.00000000E+00  0.00000000E+00  0.00000000E+00
  0.00000000E+00  0.00000000E+00  0.00000000E+00
  0.00000000E+00  0.00000000E+00  0.00000000E+00
  0.00000000E+00  0.00000000E+00  0.00000000E+00
  0.00000000E+00  0.00000000E+00  0.00000000E+00
  0.00000000E+00  0.00000000E+00  0.00000000E+00
  0.00000000E+00  0.00000000E+00  0.00000000E+00
  0.00000000E+00  0.00000000E+00  0.00000000E+00
