S    Al   Li                            
   1.00000000000000     
     0.0075553446229309   -0.0000001619617942   -6.2454849468500004
     6.5874724315441728   -0.0079164509226209   -0.0000002640858378
     0.0100248766017712   -7.9937287107476811    0.1028311004877158
   S    Al   Li
     8     4     4
Direct
  0.9265007965726519  0.0691307804249749  0.8734396722031872
  0.9606756280986641  0.6017620023173902  0.1324175145976658
  0.9596799377214433  0.0997567849166085  0.3490232341176328
  0.4755574749945228  0.9339096157821065  0.1057658578661789
  0.9910865549412170  0.5638377608473152  0.6015078681809617
  0.4655312635886247  0.4185878143758747  0.8512184125378608
  0.4613016258556387  0.9063197031242990  0.6145272056547966
  0.4886975767142234  0.4402823577429775  0.3755689228419328
  0.8435217970699120  0.9299444455667178  0.1170070093815571
  0.4989260871767009  0.0783406681244598  0.8542658753249963
  0.8537348450546418  0.4293842949743281  0.3627571457900882
  0.3542088226015603  0.5745717232498017  0.6118261423613252
  0.8671456400177454  0.4261325688684687  0.8702924803645494
  0.8649708498693387  0.9133188393407178  0.6068322826360921
  0.3493949999826185  0.5847991843390905  0.1126435944165996
  0.3492294515569639  0.0967896645078472  0.3607306797514386
 
             NaN             NaN             NaN
             NaN             NaN             NaN
             NaN             NaN             NaN
             NaN             NaN             NaN
             NaN             NaN             NaN
             NaN             NaN             NaN
             NaN             NaN             NaN
             NaN             NaN             NaN
             NaN             NaN             NaN
             NaN             NaN             NaN
             NaN             NaN             NaN
             NaN             NaN             NaN
             NaN             NaN             NaN
             NaN             NaN             NaN
             NaN             NaN             NaN
             NaN             NaN             NaN
