S    Al   Li                            
   1.00000000000000     
     0.1130187977468926   -0.0000001619617977   -6.2454849468500004
     6.6283478862261687   -0.0106373705125729   -0.0000002640858123
     0.0129612361437649   -8.0505559789564103   -0.0375919231052283
   S    Al   Li
     8     4     4
Direct
  0.8754548904747169  0.0696295595242990  0.8692082226400567
  0.9400677468057288  0.5925975848694954  0.1253967389968282
  0.9355141820245180  0.1019437158045743  0.3530437754342993
  0.4220124373743748  0.9430889703819777  0.1031303947966559
  0.8838112601600687  0.5663259095017384  0.6010661484103852
  0.3942227595471647  0.4073498853851044  0.8425643377506487
  0.3959630317385299  0.9094135640103533  0.6316874878144200
  0.4483157586529212  0.4466153376527729  0.3723848884029647
  0.8806776354083951  0.9274501098102215  0.1201805865127335
  0.5070301142088479  0.0787348299011736  0.8610874473612961
  0.8094317634510573  0.4273964097018326  0.3515444223229543
  0.5200882438125460  0.5860472040779803  0.6234951888921481
  0.0019478515646499  0.4103286071385881  0.8576645085392248
  0.0026471019723300  0.9086548985314991  0.6155433563261137
  0.3467217974950290  0.5933397931770276  0.1060648099210613
  0.3462567771256167  0.0979518290343262  0.3657615839049397
 
             NaN             NaN             NaN
             NaN             NaN             NaN
             NaN             NaN             NaN
             NaN             NaN             NaN
             NaN             NaN             NaN
             NaN             NaN             NaN
             NaN             NaN             NaN
             NaN             NaN             NaN
             NaN             NaN             NaN
             NaN             NaN             NaN
             NaN             NaN             NaN
             NaN             NaN             NaN
             NaN             NaN             NaN
             NaN             NaN             NaN
             NaN             NaN             NaN
             NaN             NaN             NaN
