100% icsd_608360.cif, 0% icsd_608360.cif
   1.00000000000000     
     0.0000002425590253   -0.0000001619617933   -6.2454849468500004
     6.5484871145700003    0.0000000008868710   -0.0000002640858447
     0.0000000066929928   -7.9229833930900000   -0.0000001873288422
   S    Al   Li
     8     4     4
Direct
  0.9981084876823303  0.0676284521625306  0.8739295016820350
  0.9730256076479904  0.5999198309927962  0.1264924916105770
  0.9730255894517015  0.0999198290132171  0.3485075284442658
  0.4981084766085999  0.9407048440670494  0.1010705927208519
  0.9981085084835328  0.5676284740940432  0.6010705214494294
  0.4730256356423013  0.4084133006444830  0.8485075299795284
  0.4730256600208662  0.9084133011123114  0.6264924800971130
  0.4981084588030669  0.4407048712773474  0.3739294238381916
  0.8623925451253953  0.9308466629294045  0.1135434521811760
  0.3623925344735923  0.0774864507698894  0.8614565745257963
  0.8623925138902990  0.4308466600139909  0.3614565781094257
  0.3623925692564285  0.5774864494582559  0.6135434495796730
  0.8664733689292916  0.4187691859645923  0.8650879453713003
  0.8664734103973615  0.9187692213167509  0.6099120003439609
  0.3664733741755342  0.5895645429460856  0.1099119706681506
  0.3664733344919497  0.0895645899041071  0.3650879593984868
 
  0.00000000E+00  0.00000000E+00  0.00000000E+00
  0.00000000E+00  0.00000000E+00  0.00000000E+00
  0.00000000E+00  0.00000000E+00  0.00000000E+00
  0.00000000E+00  0.00000000E+00  0.00000000E+00
  0.00000000E+00  0.00000000E+00  0.00000000E+00
  0.00000000E+00  0.00000000E+00  0.00000000E+00
  0.00000000E+00  0.00000000E+00  0.00000000E+00
  0.00000000E+00  0.00000000E+00  0.00000000E+00
  0.00000000E+00  0.00000000E+00  0.00000000E+00
  0.00000000E+00  0.00000000E+00  0.00000000E+00
  0.00000000E+00  0.00000000E+00  0.00000000E+00
  0.00000000E+00  0.00000000E+00  0.00000000E+00
  0.00000000E+00  0.00000000E+00  0.00000000E+00
  0.00000000E+00  0.00000000E+00  0.00000000E+00
  0.00000000E+00  0.00000000E+00  0.00000000E+00
  0.00000000E+00  0.00000000E+00  0.00000000E+00
