S    Al   Li                            
   1.00000000000000     
    -0.0470040476585869   -0.0000001619617992   -6.2454849468500004
     6.5980423824698171    0.0597959879261326   -0.0000002640858008
     0.0590277413007634   -8.0370804538916953   -0.1950723433759470
   S    Al   Li
     8     4     4
Direct
  0.8567632851770959  0.0677215971567363  0.8749812856293830
  0.9181770526051219  0.5978932154642764  0.1175644627411787
  0.8806423204196714  0.0964558057947666  0.3504454709223587
  0.3508269094165019  0.9534744999167151  0.1030452931833004
  0.8763142880834002  0.5745179915501866  0.5983912145417682
  0.3834692232977920  0.4046652038061344  0.8458676191283573
  0.3841418649126427  0.9043532516214364  0.6360169177027896
  0.4359967534726250  0.4381640339823671  0.3776235646465514
  0.9849299281165051  0.9379202425242480  0.1131897633135860
  0.4935234559407652  0.0779102568148774  0.8635153500102940
  0.8018170540916183  0.4342737393098203  0.3484591327081665
  0.5132402006297818  0.5831890404097783  0.6248386489648172
  0.9882590060502436  0.4136482766883565  0.8545050739839970
  0.9927495126193062  0.9268074218508096  0.6089143764532904
  0.3629852650102458  0.5873223287196681  0.1104562006906525
  0.4863272319727885  0.0685513028927712  0.3720095234061925
 
             NaN             NaN             NaN
             NaN             NaN             NaN
             NaN             NaN             NaN
             NaN             NaN             NaN
             NaN             NaN             NaN
             NaN             NaN             NaN
             NaN             NaN             NaN
             NaN             NaN             NaN
             NaN             NaN             NaN
             NaN             NaN             NaN
             NaN             NaN             NaN
             NaN             NaN             NaN
             NaN             NaN             NaN
             NaN             NaN             NaN
             NaN             NaN             NaN
             NaN             NaN             NaN
