S    Al   Li                            
   1.00000000000000     
    -0.0065466803147016   -0.0000001619617999   -6.2454849468500004
     6.5786887072897384    0.0241425200571599   -0.0000002640857961
     0.0270759434207776   -8.0357246142371181   -0.2632814739232895
   S    Al   Li
     8     4     4
Direct
  0.8527779783554422  0.0676224787994691  0.8752468548804087
  0.8795095801191397  0.5990303940425905  0.1129866662091035
  0.8730264329347406  0.0916462692763018  0.3502619259601316
  0.3442698677931940  0.9468656887923727  0.1027324909754390
  0.8737260892812025  0.5710167649328811  0.5979175243215427
  0.3805697077743124  0.4086598205434339  0.8508880525001891
  0.3810883709734410  0.9066473963975191  0.6376628411416553
  0.4277703465764230  0.4413449906470858  0.3795005214847444
  0.9787964078940992  0.9326817222203265  0.1121291624884224
  0.4889266807479740  0.0794592969833660  0.8650234444486390
  0.7949025289997250  0.4297602640974305  0.3507701573922006
  0.5098475763915892  0.5833164827034316  0.6260069627940185
  0.9884705597094785  0.4137465397554698  0.8570451807881624
  0.9892886137105306  0.9243557135165655  0.6088941442737706
  0.4731303859542302  0.6000902919705700  0.1016583333226780
  0.4740622246008808  0.0706240938240879  0.3710996350457127
 
             NaN             NaN             NaN
             NaN             NaN             NaN
             NaN             NaN             NaN
             NaN             NaN             NaN
             NaN             NaN             NaN
             NaN             NaN             NaN
             NaN             NaN             NaN
             NaN             NaN             NaN
             NaN             NaN             NaN
             NaN             NaN             NaN
             NaN             NaN             NaN
             NaN             NaN             NaN
             NaN             NaN             NaN
             NaN             NaN             NaN
             NaN             NaN             NaN
             NaN             NaN             NaN
