S    Al   Li                            
   1.00000000000000     
     0.0028981212481080   -0.0000001619618008   -6.2454849468500004
     6.5746419736179735    0.0074020498778105   -0.0000002640857892
    -0.0094182732702783   -7.9744337064327180   -0.0870726173555863
   S    Al   Li
     8     4     4
Direct
  0.8496686887960014  0.0676897383254200  0.8753199664454098
  0.8716324075176083  0.6011742776844048  0.1176010670623369
  0.8678855948864926  0.0928083779390479  0.3500411611431956
  0.3473443899560876  0.9438879777570111  0.1020793038705197
  0.8516398133916759  0.5723246610613970  0.6026785837970101
  0.3784966925322180  0.4089348385275925  0.8493067739578920
  0.3770578152667240  0.9070369836989742  0.6316390069974994
  0.3529768474961505  0.4406215887915710  0.3749471302365322
  0.9843114839406267  0.9325543874816509  0.1121269831574237
  0.4846637003001826  0.0788529502173203  0.8629150751133631
  0.9384005103659456  0.4301882445553427  0.3561774770406301
  0.4853070487080466  0.5756280699407613  0.6120985597110746
  0.9885629492852883  0.4125474048475528  0.8603953291231942
  0.9883663475499044  0.9227806238520586  0.6121611769919478
  0.4735107537280078  0.5922791054448618  0.1105213588168543
  0.4703383080954627  0.0875589783779968  0.3698149445618311
 
             NaN             NaN             NaN
             NaN             NaN             NaN
             NaN             NaN             NaN
             NaN             NaN             NaN
             NaN             NaN             NaN
             NaN             NaN             NaN
             NaN             NaN             NaN
             NaN             NaN             NaN
             NaN             NaN             NaN
             NaN             NaN             NaN
             NaN             NaN             NaN
             NaN             NaN             NaN
             NaN             NaN             NaN
             NaN             NaN             NaN
             NaN             NaN             NaN
             NaN             NaN             NaN
