S    Al   Li                            
   1.00000000000000     
     0.1220854416176559   -0.0000001619617974   -6.2454849468500004
     6.6203207989164703   -0.0130790729943975   -0.0000002640858146
     0.0159908851637259   -8.0320846219365176   -0.0476916143783563
   S    Al   Li
     8     4     4
Direct
  0.8808389605593652  0.0688450364094441  0.8697015797984388
  0.9421211688720386  0.5968802310936390  0.1262578976757355
  0.9394231044888206  0.1004380830237490  0.3482440489436313
  0.4525998697039549  0.9415576515544667  0.1078366561155487
  0.8847854273605902  0.5656638203429412  0.5999268260301071
  0.3936552477487756  0.4072582100888740  0.8425966539512215
  0.3952154585829905  0.9084304963755915  0.6339596923684391
  0.4488036989583616  0.4468923915414643  0.3720298422551277
  0.8305870698685882  0.9254095326124965  0.1226982034928707
  0.5158038345534299  0.0820823222572870  0.8571201341505045
  0.8111204689929460  0.4248514661073265  0.3492664262103130
  0.5232852193566497  0.5856583775873041  0.6232573502017185
  0.0009999471916969  0.4111676110651327  0.8581793525748171
  0.0019557190775593  0.9088060253385222  0.6148464038341434
  0.3450069398338452  0.5945179178970053  0.1061854245434007
  0.3439612166668255  0.0984090352077279  0.3677174058807205
 
             NaN             NaN             NaN
             NaN             NaN             NaN
             NaN             NaN             NaN
             NaN             NaN             NaN
             NaN             NaN             NaN
             NaN             NaN             NaN
             NaN             NaN             NaN
             NaN             NaN             NaN
             NaN             NaN             NaN
             NaN             NaN             NaN
             NaN             NaN             NaN
             NaN             NaN             NaN
             NaN             NaN             NaN
             NaN             NaN             NaN
             NaN             NaN             NaN
             NaN             NaN             NaN
