S    Al   Li                            
   1.00000000000000     
     0.1135314585789171   -0.0000001619617970   -6.2454849468500004
     6.6222527358721699    0.0091581453226441   -0.0000002640858170
    -0.0109625758463007   -8.0472493132916210    0.0379259949643268
   S    Al   Li
     8     4     4
Direct
  0.8898186513670343  0.0619247545436910  0.8720356107664760
  0.9431362009506040  0.5992217548454898  0.1324385536123766
  0.9447976739483990  0.1011379713286913  0.3427610327936945
  0.4548742267314200  0.9419651456723767  0.1009414564940395
  0.8928184913479797  0.5668020732536652  0.6060363633308159
  0.4005218604337138  0.4071532785801371  0.8501559290392956
  0.3970100959015598  0.9132083754843453  0.6263398859967333
  0.4596352176713447  0.4392512691225656  0.3694191974760297
  0.8179083320610390  0.9227198972247050  0.1232525178397373
  0.5276986563749642  0.0821057177482259  0.8507796636127729
  0.8262362520604840  0.4277439495889581  0.3583209498919949
  0.4948038311131524  0.5822119495665294  0.6218268198784193
  0.9939375594732411  0.4104680148914212  0.8659756794086406
  0.9927647873635308  0.9144308109391974  0.6064451768988627
  0.3365964072298769  0.5990285261979403  0.1150563929839683
  0.3376051077882793  0.0974947195150103  0.3580386680028362
 
             NaN             NaN             NaN
             NaN             NaN             NaN
             NaN             NaN             NaN
             NaN             NaN             NaN
             NaN             NaN             NaN
             NaN             NaN             NaN
             NaN             NaN             NaN
             NaN             NaN             NaN
             NaN             NaN             NaN
             NaN             NaN             NaN
             NaN             NaN             NaN
             NaN             NaN             NaN
             NaN             NaN             NaN
             NaN             NaN             NaN
             NaN             NaN             NaN
             NaN             NaN             NaN
