S    Al   Li                            
   1.00000000000000     
     0.0998829289476109   -0.0000001619617983   -6.2454849468500004
     6.6237203753806932   -0.0120251522338291   -0.0000002640858077
     0.0145248833974101   -8.0519958676823453   -0.0690929148336804
   S    Al   Li
     8     4     4
Direct
  0.8628470840277089  0.0668811797853833  0.8748365429277574
  0.9349083540028562  0.5933854293210502  0.1230584448952868
  0.9257233564192344  0.0991679004305183  0.3551361791398155
  0.3605928968991591  0.9471751832033893  0.0970733334433017
  0.8838484288575033  0.5669155873948222  0.6012818971278452
  0.3921343365773852  0.4071187737446107  0.8422640127186558
  0.3937691039231404  0.9081764231813024  0.6323041965907881
  0.4495847757693632  0.4467556743300171  0.3723698176542095
  0.9840560808102023  0.9330208739925473  0.1142555350503138
  0.4988444295353163  0.0779326170143189  0.8616707080675919
  0.8129085510772949  0.4278885592240969  0.3507732768689549
  0.5209884901486819  0.5854394481566733  0.6229329792197825
  0.9986623344643581  0.4087718255094590  0.8580195901069474
  0.9991031264492128  0.9115619943768990  0.6168436936346838
  0.3460754572503874  0.5869314700490011  0.1068419591598269
  0.3461165456047073  0.0997452687888679  0.3701617314209581
 
             NaN             NaN             NaN
             NaN             NaN             NaN
             NaN             NaN             NaN
             NaN             NaN             NaN
             NaN             NaN             NaN
             NaN             NaN             NaN
             NaN             NaN             NaN
             NaN             NaN             NaN
             NaN             NaN             NaN
             NaN             NaN             NaN
             NaN             NaN             NaN
             NaN             NaN             NaN
             NaN             NaN             NaN
             NaN             NaN             NaN
             NaN             NaN             NaN
             NaN             NaN             NaN
