S    Al   Li                            
   1.00000000000000     
     0.0066170509301687   -0.0000001619618005   -6.2454849468500004
     6.5830846538189869    0.0076754042071463   -0.0000002640857915
    -0.0096921261770437   -7.9874109005556564   -0.0988786876577943
   S    Al   Li
     8     4     4
Direct
  0.8498821049791648  0.0677605570630022  0.8755493973581935
  0.8742215869975767  0.6021821817190351  0.1147358345983614
  0.8700785577705512  0.0897343294631552  0.3508201887559129
  0.3477437623978475  0.9442534745011435  0.1018892694152678
  0.8583414911342951  0.5741128534711361  0.6049972322798497
  0.3794356298203823  0.4090970119336644  0.8495779999579591
  0.3780781340608405  0.9068605515017306  0.6323953238708838
  0.3837528200782550  0.4400884460074526  0.3747382329969351
  0.9854587023975478  0.9337037194213125  0.1114422194344407
  0.4843804672468596  0.0792295000453311  0.8627563345135195
  0.8850786403177662  0.4296958222871982  0.3544529922789713
  0.4899534475633366  0.5763670296887362  0.6136125710636254
  0.9899863372780685  0.4113358764892751  0.8602650129226770
  0.9897922286116186  0.9234149451428748  0.6126998805301425
  0.4734870470139980  0.5933863350203934  0.1094262074388208
  0.4704923941482992  0.0856455747475182  0.3704652006111669
 
             NaN             NaN             NaN
             NaN             NaN             NaN
             NaN             NaN             NaN
             NaN             NaN             NaN
             NaN             NaN             NaN
             NaN             NaN             NaN
             NaN             NaN             NaN
             NaN             NaN             NaN
             NaN             NaN             NaN
             NaN             NaN             NaN
             NaN             NaN             NaN
             NaN             NaN             NaN
             NaN             NaN             NaN
             NaN             NaN             NaN
             NaN             NaN             NaN
             NaN             NaN             NaN
