POSCAR
1.00
  9.38520000 -5.41860000  0.00000000
  4.69260000 -8.12790000 -5.01530000
  4.69260000  2.70930000 -5.01530000
  Gd  Al   N
   7  17  24
Direct
  0.25016667  0.41666667  0.08333333
  0.75016667  0.41666667  0.08333333
  0.08350000  0.25000000  0.25000000
  0.91683333  0.58333333  0.91666667
  0.83316667  0.66666667  0.33333333
  0.99983333  0.33333333  0.66666667
  0.99983333  0.83333333  0.16666667
  0.58350000  0.25000000  0.25000000
  0.91683333  0.08333333  0.41666667
  0.25016667  0.91666667  0.58333333
  0.41683333  0.08333333  0.41666667
  0.75016667  0.91666667  0.58333333
  0.08350000  0.75000000  0.75000000
  0.58350000  0.75000000  0.75000000
  0.41683333  0.58333333  0.91666667
  0.33316667  0.66666667  0.33333333
  0.66650000  0.50000000  0.50000000
  0.16650000  0.50000000  0.50000000
  0.49983333  0.33333333  0.66666667
  0.83316667  0.16666667  0.83333333
  0.33316667  0.16666667  0.83333333
  0.66650000  1.00000000  1.00000000
  0.16650000  1.00000000  1.00000000
  0.49983333  0.83333333  0.16666667
  0.44066667  0.22616667  0.89283333
  0.94066667  0.22616667  0.89283333
  0.27400000  0.05950000  0.05950000
  0.77400000  0.05950000  0.05950000
  0.10733333  0.89283333  0.22616667
  0.44066667  0.72616667  0.39283333
  0.60733333  0.89283333  0.22616667
  0.94066667  0.72616667  0.39283333
  0.27400000  0.55950000  0.55950000
  0.77400000  0.55950000  0.55950000
  0.10733333  0.39283333  0.72616667
  0.60733333  0.39283333  0.72616667
  0.02366667  0.47616667  0.14283333
  0.52366667  0.47616667  0.14283333
  0.85700000  0.30950000  0.30950000
  0.35700000  0.30950000  0.30950000
  0.69033333  0.14283333  0.47616667
  0.02366667  0.97616667  0.64283333
  0.19033333  0.14283333  0.47616667
  0.52366667  0.97616667  0.64283333
  0.85700000  0.80950000  0.80950000
  0.35700000  0.80950000  0.80950000
  0.69033333  0.64283333  0.97616667
  0.19033333  0.64283333  0.97616667
