supercell of supercell of icsd_608626.c 
   1.00600000000000     
    18.8433725412000008    0.0042597715995000    0.0111656436851000
    -6.2786657403800001   10.8752831735999997   -0.0012954496991100
     0.0059525623905900    0.0022414031449000   10.0498800689000003
   Al   Gd   N 
    92     4    95
Direct
  0.1112990629211197  0.0835116655114163  0.2469226591827010
  0.0508047554271300  0.1613817353288525  0.9949263130935719
  0.4450146516557751  0.3345150339515186  0.7513178907002001
  0.3903816375131441  0.4175251644342097  0.5017651269378547
  0.2787313442993735  0.0857689862039308  0.2591966283267766
  0.2246728273015393  0.1687498760534751  0.9979173037551803
  0.1086177661531806  0.3310687444418647  0.7386933226427033
  0.0611678038180159  0.4201938549723963  0.4906668806860566
  0.4439401895515047  0.0827773767254030  0.2497557241357384
  0.3916092200282222  0.1718611974338842  0.9988431010365844
  0.2793758535270285  0.3325082561471220  0.7468380881446279
  0.2176132330587492  0.4134243536408704  0.5009182194653619
  0.1111003904771763  0.0837849144564018  0.7467850739813642
  0.0604354076757119  0.1704717743674351  0.4914664230051571
  0.4441781480535880  0.3336305101625712  0.2503126850121546
  0.3887994617904980  0.4144818908525636  0.0010334344392504
  0.2796849897261637  0.0879392970094486  0.7442884545961093
  0.2211707316065912  0.1673041258047760  0.5014832010280799
  0.1028686605918949  0.3270762135698604  0.2726354385192025
  0.0529326753452608  0.4158840943912949  0.9953134060704798
  0.4439739966433436  0.0822399538021159  0.7504458046728502
  0.3905756423565592  0.1684367710912866  0.5008172418315908
  0.2772846451461461  0.3316677448857419  0.2624391312801464
  0.6116614301397760  0.0835524309430582  0.2486875209125756
  0.5509614181736566  0.1614898462714720  0.9988882174289699
  0.9458273847504302  0.3347759665581265  0.7459701562462513
  0.8906225997359911  0.4174976262894177  0.4989608235479253
  0.7797842249176483  0.0862094308966519  0.2578768120114461
  0.7251716170827720  0.1688471948547914  0.9977649593505689
  0.6068519979962943  0.3298454598943081  0.7437952344897525
  0.5551389543699941  0.4177077054104856  0.5005776303981690
  0.9452787325214942  0.0841971552502301  0.2485141954408334
  0.8923851409164669  0.1723809526820972  0.9958770203664713
  0.7795736308080521  0.3317608994978158  0.7438690099436087
  0.7222714339690555  0.4165112902623633  0.4994083711987471
  0.6113939149763823  0.0833672421589853  0.7498114366222168
  0.5546680469609413  0.1641158902287145  0.5005107608916575
  0.9458457195283216  0.3339910531070132  0.2486263705372593
  0.8898280169801325  0.4142502727953925  0.9981554875386749
  0.7803981703827176  0.0883110138755754  0.7433950675940793
  0.7221556179313424  0.1664016731054403  0.5008319585747927
  0.6092439665599940  0.3316400354844333  0.2593155504232527
  0.5529739780803453  0.4159824457336043  0.9997223458480633
  0.9447241995445097  0.0830375213180972  0.7460054929886795
  0.8925239080581804  0.1697126820339818  0.4981254761429952
  0.7790926586642541  0.3326552432720433  0.2583034792329357
  0.1112998448726401  0.5834086726691083  0.2468860161385606
  0.0510535050137690  0.6612913223643986  0.9967975588402354
  0.4451304097604663  0.8345400534699365  0.7512542673526283
  0.3899460221995170  0.9167628686219444  0.5004531468788684
  0.2776708024584167  0.5843801469677814  0.2622405378650114
  0.2246448702202102  0.6682637618894418  0.9978503552755242
  0.1067154238586312  0.8297276550175425  0.7425141545968259
  0.0546266375782594  0.9164359049638406  0.4990219092774737
  0.4437075167239755  0.5826776293080371  0.2506799389795233
  0.3911342189712741  0.6708917928658167  0.9996726324280090
  0.2791191841361282  0.8312823719677311  0.7442291580116560
  0.2220927601137461  0.9165285356680997  0.4990650223085851
  0.1111265292561257  0.5823621439409976  0.7465154417407334
  0.0541976918166611  0.6648647131285941  0.4991837570618500
  0.4442971616102795  0.8327364225144862  0.2502853891726033
  0.3892632808156762  0.9141230952818091  0.0001661559330941
  0.2799842875034670  0.5872003053123152  0.7468628509154911
  0.2212011894500350  0.6642402992851260  0.5013493477799216
  0.1091894917767817  0.8315264501590320  0.2584626543458555
  0.0531845295627988  0.9162891085319487  0.9974673583642044
  0.4441422830384170  0.5824449759325887  0.7514398959101811
  0.3912040948851256  0.6686962262510718  0.5020949479342107
  0.2784040503046867  0.8318437897743323  0.2594060592715124
  0.6115372665861969  0.5836734993548518  0.2489574143022253
  0.5510644342661095  0.6617170699772643  0.9993126573916342
  0.9450568945964477  0.8345902568248533  0.7493058985420262
  0.8905486033387788  0.9173848596120280  0.4990772065616369
  0.7791396300697357  0.5857277139640757  0.2581669777372113
  0.7250803869924454  0.6688787986937683  0.9981026541734934
  0.6071234758730384  0.8301165166239244  0.7438067046403702
  0.5554170201386412  0.9180960352754823  0.5005072241849717
  0.9442896111315022  0.5829398039798050  0.2476650133896570
  0.8919538893574526  0.6719943241353619  0.9972962237989762
  0.7795421689730091  0.8318440899626083  0.7439747680045983
  0.7229027808399309  0.9172948165783623  0.4991367561491700
  0.6112358207149242  0.5832582538707669  0.7501506607739259
  0.5549992179464027  0.6645671344520636  0.5009740742168631
  0.9448790338038009  0.8337829146018194  0.2479301029997814
  0.8898315079667469  0.9151989064728170  0.9983204265727323
  0.7799134625354256  0.5878808669045199  0.7441544354533534
  0.7216224555347566  0.6661307352047672  0.5012934353675789
  0.6095066373557785  0.8317453528408620  0.2594485772538349
  0.5530997309192145  0.9157722895133418  0.9996148236266720
  0.9440821821450101  0.5822258236200426  0.7489524139352426
  0.8904748478454039  0.6681484972475573  0.4994435102281969
  0.7791316049945536  0.8328273156420494  0.2584461332620904
  0.2169612635653451  0.4132724347320078  0.0061107207657756
  0.7197972758411169  0.4153253787723941  0.9988462237592231
  0.2193202523714106  0.9150403338971316  0.9986927229179727
  0.7201799425693594  0.9158953327444976  0.9987975251095804
  0.1118621504313140  0.0784317271474393  0.4360022231673142
  0.0550542425659728  0.1644240680106961  0.1844425426618628
  0.4456242574786842  0.3370212820390748  0.9416113965850954
  0.3906665518634824  0.4176405536667218  0.6903514896307144
  0.2793848971833910  0.0862155249514984  0.4477241646114933
  0.2233299606766579  0.1672795893665366  0.1906649258411051
  0.0929517041825463  0.3188148806771167  0.9247067123544781
  0.0553399760763682  0.4179194466848841  0.6829633982897079
  0.4444357024017052  0.0829924074364641  0.4395985563591793
  0.3887937753574349  0.1667745013139168  0.1910219945716634
  0.2840869155826624  0.3267416735587432  0.9333685358390653
  0.2239078941549550  0.4181595683535804  0.7005511825027426
  0.1123301559617929  0.0839081304428149  0.9390089296213162
  0.0546423552637805  0.1637951664178630  0.6840743236660316
  0.4454340200216862  0.3341365177785747  0.4397585950504066
  0.3875292830346950  0.4160017556850022  0.1925445678319946
  0.2864774863974446  0.1033929125987854  0.9302998928155120
  0.2213815061971331  0.1662416317924098  0.6887606160733455
  0.0555984648913679  0.4182309303724878  0.1845836935739840
  0.4411590563512107  0.0788911579732527  0.9416028039494506
  0.3914709336658930  0.1688025565846587  0.6897397852944565
  0.2806447672481269  0.3333137013054142  0.4488584877385620
  0.2177637926394524  0.4132340850757359  0.2314571948375175
  0.6117007581886327  0.0838091029498997  0.4386686395585571
  0.5557292348380614  0.1670621511510646  0.1906001940288036
  0.9456856027269325  0.3367898572309826  0.9365259388660405
  0.8899873453640765  0.4175522866134926  0.6871571065052251
  0.7797699974613721  0.0864353580812534  0.4463757850712824
  0.7232984172537087  0.1672187163986791  0.1906713569253782
  0.5928479242940554  0.3188375298461850  0.9292696889860679
  0.5550980700076309  0.4184046734533453  0.6889476362667537
  0.9444470479519751  0.0818085622995781  0.4383225474703849
  0.8888398633746419  0.1667017483602109  0.1883613375252793
  0.7847501942291473  0.3258026306394299  0.9297279379938956
  0.7216391085989429  0.4163467890518433  0.6952321436846418
  0.6122139815660361  0.0841274304369293  0.9420543788477360
  0.5545021207335523  0.1632637921961688  0.6892221162714378
  0.9452783490424395  0.3352599150228315  0.4380722686417826
  0.8881537169911979  0.4158336924791186  0.1899029219523101
  0.7864330823744510  0.1034608877154142  0.9292082619189301
  0.7209548471895744  0.1656284633817862  0.6878206610479864
  0.6091951985567050  0.3314922491991865  0.4478393396260785
  0.5561172097161204  0.4164553069220531  0.1912120228447449
  0.9408904170073313  0.0787679963022825  0.9374472368833864
  0.8911594954167228  0.1685693091994978  0.6869416869885541
  0.7786860764446075  0.3325265834811262  0.4465573956394522
  0.7219980230086378  0.4164032086668996  0.2206784558017532
  0.1118547167297876  0.5894744655992312  0.4359296365224239
  0.0556774553009234  0.6677149015263808  0.1881102108373227
  0.4457238248889510  0.8364545085779298  0.9415418257346886
  0.3903525372903474  0.9174697620278209  0.6889536109830985
  0.2813886544300033  0.5882596595468570  0.4488841820488148
  0.2233202749159204  0.6673346466094188  0.1905909608383922
  0.0928602190326089  0.8187667109518699  0.9275577403080391
  0.0547490465495315  0.9179755570998580  0.6872337015961776
  0.4451138514666155  0.5835664536557772  0.4404946690198344
  0.3880161912123796  0.6655952219474841  0.1916692845520060
  0.2849001781228040  0.8257623056952639  0.9303551907211727
  0.2217656662967968  0.9164685403543729  0.6951470432517581
  0.1123024609866121  0.5844842268474935  0.9387872186096189
  0.0541960327747901  0.6631869609038503  0.6877401999543906
  0.4456677197815679  0.8345998998827255  0.4397405975116371
  0.3883653357133952  0.9159151165147179  0.1918375676200199
  0.2856699755688226  0.6012405468379285  0.9332744053963111
  0.2214065509853569  0.6656280922115698  0.6886498219287205
  0.1090790565462996  0.8315236346248298  0.4469085371512307
  0.0562852001173084  0.9158076353215705  0.1886134105838195
  0.4414274362214528  0.5791484243663731  0.9423308535331643
  0.3918549787471477  0.6692724350975894  0.6911185393996675
  0.2789539721666472  0.8323833850255937  0.4475952097374076
  0.2223097156090361  0.9166232084345651  0.2207451117244617
  0.6114766046846540  0.5834802974635522  0.4389258689847537
  0.5556565564467135  0.6671017323051345  0.1910155626478200
  0.9456851460446174  0.8367139488348414  0.9393395518898657
  0.8899601507726942  0.9167764993813705  0.6872691641191011
  0.7788402599010595  0.5856018863471846  0.4468033625374801
  0.7232051681755607  0.6672239834643179  0.1909722739966568
  0.5932592619363604  0.8190763004795159  0.9293417027458659
  0.5552214920480054  0.9186124128412274  0.6889031900275100
  0.9438351997689907  0.5831382551435311  0.4376594604943591
  0.8885028961191495  0.6664476205698193  0.1893042792202237
  0.7848006812868960  0.8256871021034797  0.9298486627383866
  0.7218854441866540  0.9165953169328276  0.6949955265997900
  0.6122537709842675  0.5841427410991074  0.9423141990273081
  0.5547155671757409  0.6635090134730177  0.6896244993319840
  0.9444824738019904  0.8329201951541165  0.4375513572363516
  0.8881858105465383  0.9160083551532807  0.1900413563166765
  0.7863117443802921  0.6031618604379574  0.9298618157515222
  0.7208377559350581  0.6654746364199795  0.6882498372461185
  0.6096015998378306  0.8319774714406094  0.4479952130597979
  0.5562273175333061  0.9162061579559762  0.1911126045530622
  0.9409708691416157  0.5788384439740284  0.9397996382856562
  0.8910614933648446  0.6684832071040248  0.6883221545856699
  0.7786451992562107  0.8319857424776913  0.4466687642930012
  0.7222199677436194  0.9165964660410779  0.2206921674641933
 
  0.00000000E+00  0.00000000E+00  0.00000000E+00
  0.00000000E+00  0.00000000E+00  0.00000000E+00
  0.00000000E+00  0.00000000E+00  0.00000000E+00
  0.00000000E+00  0.00000000E+00  0.00000000E+00
  0.00000000E+00  0.00000000E+00  0.00000000E+00
  0.00000000E+00  0.00000000E+00  0.00000000E+00
  0.00000000E+00  0.00000000E+00  0.00000000E+00
  0.00000000E+00  0.00000000E+00  0.00000000E+00
  0.00000000E+00  0.00000000E+00  0.00000000E+00
  0.00000000E+00  0.00000000E+00  0.00000000E+00
  0.00000000E+00  0.00000000E+00  0.00000000E+00
  0.00000000E+00  0.00000000E+00  0.00000000E+00
  0.00000000E+00  0.00000000E+00  0.00000000E+00
  0.00000000E+00  0.00000000E+00  0.00000000E+00
  0.00000000E+00  0.00000000E+00  0.00000000E+00
  0.00000000E+00  0.00000000E+00  0.00000000E+00
  0.00000000E+00  0.00000000E+00  0.00000000E+00
  0.00000000E+00  0.00000000E+00  0.00000000E+00
  0.00000000E+00  0.00000000E+00  0.00000000E+00
  0.00000000E+00  0.00000000E+00  0.00000000E+00
  0.00000000E+00  0.00000000E+00  0.00000000E+00
  0.00000000E+00  0.00000000E+00  0.00000000E+00
  0.00000000E+00  0.00000000E+00  0.00000000E+00
  0.00000000E+00  0.00000000E+00  0.00000000E+00
  0.00000000E+00  0.00000000E+00  0.00000000E+00
  0.00000000E+00  0.00000000E+00  0.00000000E+00
  0.00000000E+00  0.00000000E+00  0.00000000E+00
  0.00000000E+00  0.00000000E+00  0.00000000E+00
  0.00000000E+00  0.00000000E+00  0.00000000E+00
  0.00000000E+00  0.00000000E+00  0.00000000E+00
  0.00000000E+00  0.00000000E+00  0.00000000E+00
  0.00000000E+00  0.00000000E+00  0.00000000E+00
  0.00000000E+00  0.00000000E+00  0.00000000E+00
  0.00000000E+00  0.00000000E+00  0.00000000E+00
  0.00000000E+00  0.00000000E+00  0.00000000E+00
  0.00000000E+00  0.00000000E+00  0.00000000E+00
  0.00000000E+00  0.00000000E+00  0.00000000E+00
  0.00000000E+00  0.00000000E+00  0.00000000E+00
  0.00000000E+00  0.00000000E+00  0.00000000E+00
  0.00000000E+00  0.00000000E+00  0.00000000E+00
  0.00000000E+00  0.00000000E+00  0.00000000E+00
  0.00000000E+00  0.00000000E+00  0.00000000E+00
  0.00000000E+00  0.00000000E+00  0.00000000E+00
  0.00000000E+00  0.00000000E+00  0.00000000E+00
  0.00000000E+00  0.00000000E+00  0.00000000E+00
  0.00000000E+00  0.00000000E+00  0.00000000E+00
  0.00000000E+00  0.00000000E+00  0.00000000E+00
  0.00000000E+00  0.00000000E+00  0.00000000E+00
  0.00000000E+00  0.00000000E+00  0.00000000E+00
  0.00000000E+00  0.00000000E+00  0.00000000E+00
  0.00000000E+00  0.00000000E+00  0.00000000E+00
  0.00000000E+00  0.00000000E+00  0.00000000E+00
  0.00000000E+00  0.00000000E+00  0.00000000E+00
  0.00000000E+00  0.00000000E+00  0.00000000E+00
  0.00000000E+00  0.00000000E+00  0.00000000E+00
  0.00000000E+00  0.00000000E+00  0.00000000E+00
  0.00000000E+00  0.00000000E+00  0.00000000E+00
  0.00000000E+00  0.00000000E+00  0.00000000E+00
  0.00000000E+00  0.00000000E+00  0.00000000E+00
  0.00000000E+00  0.00000000E+00  0.00000000E+00
  0.00000000E+00  0.00000000E+00  0.00000000E+00
  0.00000000E+00  0.00000000E+00  0.00000000E+00
  0.00000000E+00  0.00000000E+00  0.00000000E+00
  0.00000000E+00  0.00000000E+00  0.00000000E+00
  0.00000000E+00  0.00000000E+00  0.00000000E+00
  0.00000000E+00  0.00000000E+00  0.00000000E+00
  0.00000000E+00  0.00000000E+00  0.00000000E+00
  0.00000000E+00  0.00000000E+00  0.00000000E+00
  0.00000000E+00  0.00000000E+00  0.00000000E+00
  0.00000000E+00  0.00000000E+00  0.00000000E+00
  0.00000000E+00  0.00000000E+00  0.00000000E+00
  0.00000000E+00  0.00000000E+00  0.00000000E+00
  0.00000000E+00  0.00000000E+00  0.00000000E+00
  0.00000000E+00  0.00000000E+00  0.00000000E+00
  0.00000000E+00  0.00000000E+00  0.00000000E+00
  0.00000000E+00  0.00000000E+00  0.00000000E+00
  0.00000000E+00  0.00000000E+00  0.00000000E+00
  0.00000000E+00  0.00000000E+00  0.00000000E+00
  0.00000000E+00  0.00000000E+00  0.00000000E+00
  0.00000000E+00  0.00000000E+00  0.00000000E+00
  0.00000000E+00  0.00000000E+00  0.00000000E+00
  0.00000000E+00  0.00000000E+00  0.00000000E+00
  0.00000000E+00  0.00000000E+00  0.00000000E+00
  0.00000000E+00  0.00000000E+00  0.00000000E+00
  0.00000000E+00  0.00000000E+00  0.00000000E+00
  0.00000000E+00  0.00000000E+00  0.00000000E+00
  0.00000000E+00  0.00000000E+00  0.00000000E+00
  0.00000000E+00  0.00000000E+00  0.00000000E+00
  0.00000000E+00  0.00000000E+00  0.00000000E+00
  0.00000000E+00  0.00000000E+00  0.00000000E+00
  0.00000000E+00  0.00000000E+00  0.00000000E+00
  0.00000000E+00  0.00000000E+00  0.00000000E+00
  0.00000000E+00  0.00000000E+00  0.00000000E+00
  0.00000000E+00  0.00000000E+00  0.00000000E+00
  0.00000000E+00  0.00000000E+00  0.00000000E+00
  0.00000000E+00  0.00000000E+00  0.00000000E+00
  0.00000000E+00  0.00000000E+00  0.00000000E+00
  0.00000000E+00  0.00000000E+00  0.00000000E+00
  0.00000000E+00  0.00000000E+00  0.00000000E+00
  0.00000000E+00  0.00000000E+00  0.00000000E+00
  0.00000000E+00  0.00000000E+00  0.00000000E+00
  0.00000000E+00  0.00000000E+00  0.00000000E+00
  0.00000000E+00  0.00000000E+00  0.00000000E+00
  0.00000000E+00  0.00000000E+00  0.00000000E+00
  0.00000000E+00  0.00000000E+00  0.00000000E+00
  0.00000000E+00  0.00000000E+00  0.00000000E+00
  0.00000000E+00  0.00000000E+00  0.00000000E+00
  0.00000000E+00  0.00000000E+00  0.00000000E+00
  0.00000000E+00  0.00000000E+00  0.00000000E+00
  0.00000000E+00  0.00000000E+00  0.00000000E+00
  0.00000000E+00  0.00000000E+00  0.00000000E+00
  0.00000000E+00  0.00000000E+00  0.00000000E+00
  0.00000000E+00  0.00000000E+00  0.00000000E+00
  0.00000000E+00  0.00000000E+00  0.00000000E+00
  0.00000000E+00  0.00000000E+00  0.00000000E+00
  0.00000000E+00  0.00000000E+00  0.00000000E+00
  0.00000000E+00  0.00000000E+00  0.00000000E+00
  0.00000000E+00  0.00000000E+00  0.00000000E+00
  0.00000000E+00  0.00000000E+00  0.00000000E+00
  0.00000000E+00  0.00000000E+00  0.00000000E+00
  0.00000000E+00  0.00000000E+00  0.00000000E+00
  0.00000000E+00  0.00000000E+00  0.00000000E+00
  0.00000000E+00  0.00000000E+00  0.00000000E+00
  0.00000000E+00  0.00000000E+00  0.00000000E+00
  0.00000000E+00  0.00000000E+00  0.00000000E+00
  0.00000000E+00  0.00000000E+00  0.00000000E+00
  0.00000000E+00  0.00000000E+00  0.00000000E+00
  0.00000000E+00  0.00000000E+00  0.00000000E+00
  0.00000000E+00  0.00000000E+00  0.00000000E+00
  0.00000000E+00  0.00000000E+00  0.00000000E+00
  0.00000000E+00  0.00000000E+00  0.00000000E+00
  0.00000000E+00  0.00000000E+00  0.00000000E+00
  0.00000000E+00  0.00000000E+00  0.00000000E+00
  0.00000000E+00  0.00000000E+00  0.00000000E+00
  0.00000000E+00  0.00000000E+00  0.00000000E+00
  0.00000000E+00  0.00000000E+00  0.00000000E+00
  0.00000000E+00  0.00000000E+00  0.00000000E+00
  0.00000000E+00  0.00000000E+00  0.00000000E+00
  0.00000000E+00  0.00000000E+00  0.00000000E+00
  0.00000000E+00  0.00000000E+00  0.00000000E+00
  0.00000000E+00  0.00000000E+00  0.00000000E+00
  0.00000000E+00  0.00000000E+00  0.00000000E+00
  0.00000000E+00  0.00000000E+00  0.00000000E+00
  0.00000000E+00  0.00000000E+00  0.00000000E+00
  0.00000000E+00  0.00000000E+00  0.00000000E+00
  0.00000000E+00  0.00000000E+00  0.00000000E+00
  0.00000000E+00  0.00000000E+00  0.00000000E+00
  0.00000000E+00  0.00000000E+00  0.00000000E+00
  0.00000000E+00  0.00000000E+00  0.00000000E+00
  0.00000000E+00  0.00000000E+00  0.00000000E+00
  0.00000000E+00  0.00000000E+00  0.00000000E+00
  0.00000000E+00  0.00000000E+00  0.00000000E+00
  0.00000000E+00  0.00000000E+00  0.00000000E+00
  0.00000000E+00  0.00000000E+00  0.00000000E+00
  0.00000000E+00  0.00000000E+00  0.00000000E+00
  0.00000000E+00  0.00000000E+00  0.00000000E+00
  0.00000000E+00  0.00000000E+00  0.00000000E+00
  0.00000000E+00  0.00000000E+00  0.00000000E+00
  0.00000000E+00  0.00000000E+00  0.00000000E+00
  0.00000000E+00  0.00000000E+00  0.00000000E+00
  0.00000000E+00  0.00000000E+00  0.00000000E+00
  0.00000000E+00  0.00000000E+00  0.00000000E+00
  0.00000000E+00  0.00000000E+00  0.00000000E+00
  0.00000000E+00  0.00000000E+00  0.00000000E+00
  0.00000000E+00  0.00000000E+00  0.00000000E+00
  0.00000000E+00  0.00000000E+00  0.00000000E+00
  0.00000000E+00  0.00000000E+00  0.00000000E+00
  0.00000000E+00  0.00000000E+00  0.00000000E+00
  0.00000000E+00  0.00000000E+00  0.00000000E+00
  0.00000000E+00  0.00000000E+00  0.00000000E+00
  0.00000000E+00  0.00000000E+00  0.00000000E+00
  0.00000000E+00  0.00000000E+00  0.00000000E+00
  0.00000000E+00  0.00000000E+00  0.00000000E+00
  0.00000000E+00  0.00000000E+00  0.00000000E+00
  0.00000000E+00  0.00000000E+00  0.00000000E+00
  0.00000000E+00  0.00000000E+00  0.00000000E+00
  0.00000000E+00  0.00000000E+00  0.00000000E+00
  0.00000000E+00  0.00000000E+00  0.00000000E+00
  0.00000000E+00  0.00000000E+00  0.00000000E+00
  0.00000000E+00  0.00000000E+00  0.00000000E+00
  0.00000000E+00  0.00000000E+00  0.00000000E+00
  0.00000000E+00  0.00000000E+00  0.00000000E+00
  0.00000000E+00  0.00000000E+00  0.00000000E+00
  0.00000000E+00  0.00000000E+00  0.00000000E+00
  0.00000000E+00  0.00000000E+00  0.00000000E+00
  0.00000000E+00  0.00000000E+00  0.00000000E+00
  0.00000000E+00  0.00000000E+00  0.00000000E+00
  0.00000000E+00  0.00000000E+00  0.00000000E+00
  0.00000000E+00  0.00000000E+00  0.00000000E+00
  0.00000000E+00  0.00000000E+00  0.00000000E+00
  0.00000000E+00  0.00000000E+00  0.00000000E+00
