Al   Mg   Hf   N                        
   1.00000000000000     
    -9.5151750338890952    0.0080738543139211   -0.0022904742814473
    -4.7646421836935673    8.2509209043360787   -0.0014224941234299
    -0.0033118136569091   -0.0000237380853707  -10.1040900594318437
   Al   Mg   Hf   N 
    32     2     2    36
Direct
  0.1095813497172142  0.0958362307270124  0.3052695180662001
  0.2172271411090654  0.2096384855962970  0.0618239906352162
  0.8873859517279813  0.2055544066773596  0.5527408825346237
  0.4439306193912192  0.0937561996889488  0.3015478149853629
  0.5573579992117980  0.2094377192644619  0.0627662072623300
  0.1050996846529000  0.1035099056323804  0.8057050635404199
  0.2197631740384441  0.2065654620253119  0.5500048517529360
  0.7794197954546863  0.0948890332802522  0.3055256447750542
  0.8871172283880251  0.2083618193075262  0.0564594589814278
  0.5580691349782909  0.2065028242131607  0.5474816892977016
  0.1108248719491637  0.4280279830455722  0.3052309381475598
  0.2257852525245150  0.5317679850782431  0.0610295337613164
  0.7799317957347391  0.4265485270629639  0.8047132635269676
  0.8879612854054665  0.5377917714124312  0.5559740239295140
  0.4443048456019653  0.4298047888316336  0.3046481387221330
  0.5569676549420695  0.5365270099187912  0.0570584997351208
  0.1049922218189988  0.4284415678672051  0.8025130794608808
  0.2238544397174001  0.5361684719541189  0.5506147228544347
  0.7768762672571904  0.4272545991712939  0.3043740113027612
  0.4483549781932627  0.4276777946956419  0.8049143004903613
  0.5563016282644220  0.5377639607130049  0.5550652347243804
  0.1113907813007372  0.7608810858467994  0.3019523349188276
  0.2256159490224857  0.8764891588068160  0.0615845749787222
  0.7797527206881210  0.7524910197964777  0.8026021272606961
  0.8847266856950633  0.8752626170743130  0.5482463167925968
  0.4454411838442801  0.7589962871028737  0.3057957319245403
  0.5605075853442275  0.8652484797851048  0.0626135383968122
  0.2231160294772405  0.8743477620960959  0.5509649306629031
  0.7782688367314875  0.7599549709543800  0.3054696475021185
  0.8809358113341704  0.8747900674163264  0.0616389179582931
  0.4507079371864988  0.7551711648149964  0.8051614475848086
  0.5566290232813335  0.8695772140815190  0.5500387673193977
  0.7778742314975901  0.1007072098211311  0.8043176866681272
  0.8883783951234654  0.5381723191497890  0.0558564488501787
  0.4465725680890392  0.0927383777282958  0.8134354456360866
  0.1100215021607171  0.7632788979317179  0.8145009756219889
  0.2227599866191724  0.2043485127522746  0.3624251765593580
  0.1105589605829898  0.0954345177753167  0.1171478087533044
  0.8953711273351943  0.2130648115752501  0.8688546932233662
  0.7769399788712037  0.0942000650089077  0.5996562595717646
  0.5534533786853945  0.2065243839895078  0.3581515200579794
  0.4443205029221237  0.0925040721634876  0.1074497374471036
  0.2073074531136659  0.2153572095184454  0.8696768089969595
  0.1117024412529668  0.0945415161703027  0.6139509983442950
  0.8902217059015995  0.2056877949089164  0.3639501293786220
  0.7792873126693468  0.0948593800655411  0.1158109855123591
  0.5500121901912119  0.2211756669303211  0.8754511827756094
  0.4447740462754993  0.0947089846276939  0.6053656480161610
  0.2221916998952742  0.5402810006756064  0.3626533745338421
  0.1240756528219153  0.4215596348857277  0.1207153903838617
  0.8889343940908286  0.5374189850501652  0.8494263517155860
  0.7766085412272606  0.4263292319864609  0.6127633770493480
  0.5543203772600883  0.5394927196925821  0.3666530746429392
  0.4439505631421824  0.4306074453488882  0.1169383831393144
  0.2293493171318134  0.5224547297853308  0.8676047636858263
  0.1136344224706182  0.4263100326343469  0.6112983792833560
  0.8887225815696789  0.5380871039107122  0.3653924078377002
  0.7692660414993171  0.4215195048961433  0.1191725737068359
  0.5546091701489227  0.5387814925652479  0.8638825506159085
  0.4441347257032073  0.4270404732954068  0.6135733996174059
  0.2219846202866654  0.8723103084754900  0.3617758014518251
  0.1125221465941665  0.7614799016925251  0.1061963458350512
  0.8753760195267094  0.8674191604573283  0.8723363882244299
  0.7763471902421366  0.7630040478151434  0.6107927272412538
  0.5537907670712026  0.8725317815540856  0.3626194115145043
  0.4453838771609109  0.7589113764352884  0.1167956824436035
  0.2328065301556816  0.8843119651166035  0.8695447294784011
  0.1106415419274070  0.7615266446837053  0.6066756739287430
  0.8909036270228731  0.8707476626673517  0.3600473776701879
  0.7714850921132289  0.7723721974587148  0.1221230009645297
  0.5662204165366603  0.8516256645001125  0.8707963343584447
  0.4439391686249006  0.7616129321969317  0.6143112716523675
