Al   Mg   Hf   N                        
   1.00000000000000     
    -9.9250979359498714    0.0084195688490845   -0.0006128040312885
    -4.9735308749155855    8.6068864206704525   -0.0012508296014376
    -0.0007163691588201   -0.0003860513518948   -8.9111170213643778
   Al   Mg   Hf   N 
    32     2     2    36
Direct
  0.1057318782702905  0.0984229280859497  0.3415796984098659
  0.2157982432414259  0.2086332644776763  0.1008307475534092
  0.8861486854658116  0.2086023130313218  0.5936241685871819
  0.4444104551200179  0.0936512318543320  0.3374026705037664
  0.5591794868242502  0.2108774245950516  0.1005102134716031
  0.1091489995269017  0.1004062396206911  0.8338071894657242
  0.2203024370548249  0.2078920518727031  0.5799281479454547
  0.7811860205320995  0.0958801308725946  0.3472882346580353
  0.8881181586881549  0.2053620042395851  0.0825184559947069
  0.5570691679769302  0.2061582128039283  0.5798634649262633
  0.1079226275944967  0.4297837874950133  0.3369622014608364
  0.2280010638713807  0.5308608495474409  0.0998867898295423
  0.7784829050067295  0.4280984154304405  0.8425954137141238
  0.8877427142655941  0.5365893366787561  0.5958501695465540
  0.4454420928538620  0.4305935306192742  0.3408279873995213
  0.5542471894569095  0.5374719376421595  0.0860544780290760
  0.1066365093123059  0.4282354162294834  0.8411507297746765
  0.2230030129526401  0.5356573252626073  0.5817743979558282
  0.7773704480003120  0.4262618513958926  0.3334111718863459
  0.4457752413619388  0.4288362278918492  0.8338738936041740
  0.5579570109132521  0.5374640767192235  0.5889435155208288
  0.1108324341690138  0.7615225521468766  0.3390870534695107
  0.2261531173738441  0.8778610238850878  0.1017236070600920
  0.7790380783757272  0.7529742352069199  0.8384253396157457
  0.8844465853507101  0.8741759983914281  0.5840335684433092
  0.4469101720350385  0.7565192594520730  0.3398879235233310
  0.5597965213125541  0.8639618212029878  0.1006577774076791
  0.2242973568095774  0.8745285490322408  0.5797436067222750
  0.7803329290490528  0.7573016264937027  0.3395535319397346
  0.8796456079108220  0.8772010029113593  0.0990545005142796
  0.4479998048465736  0.7577626740311454  0.8356944862751764
  0.5573356900636356  0.8689982787189497  0.5805531802988740
  0.7773146715423112  0.0978321648509877  0.8424500608799014
  0.8878431227962321  0.5382869878936191  0.0942499968930103
  0.4449105484588998  0.0931718665545195  0.8546260112557267
  0.1122364188297644  0.7620720556475760  0.8545852681479084
  0.2226794254517634  0.2052233152980386  0.3637257822344699
  0.1081184591770036  0.0967852860115873  0.1250396595535949
  0.8969366310055449  0.2098618042712349  0.8641384531348925
  0.7760566223979170  0.0943325386526074  0.6007629123927568
  0.5526615579986401  0.2067325405393511  0.3607527960799391
  0.4443075668367219  0.0917639716359382  0.1140786529085039
  0.2068767970636192  0.2141579039499628  0.8737756866322529
  0.1142035336629338  0.0938043552882192  0.6138170260642688
  0.8888854369295219  0.2087977985177475  0.3744504679523047
  0.7802257000073469  0.0954375066416196  0.1242318313131391
  0.5497245464733815  0.2215427491880726  0.8775449247302636
  0.4449026324771173  0.0937201523817960  0.6103106311025549
  0.2213154033458666  0.5408428805589902  0.3649652332703621
  0.1229191101622946  0.4223065626144440  0.1217878325450725
  0.8894242536056528  0.5377309974325107  0.8525590741311645
  0.7747692951398596  0.4281797904466192  0.6223461212197884
  0.5565078752206897  0.5385858155088784  0.3730256744296030
  0.4447024587064141  0.4311037316776714  0.1250084610153266
  0.2298145891897581  0.5233510739453395  0.8714162726581036
  0.1145213737043917  0.4258551054513572  0.6161327426482565
  0.8881339650136412  0.5363481617540217  0.3720746216211327
  0.7690121021978049  0.4205948618037336  0.1157344041584114
  0.5508551371394506  0.5409405155357182  0.8658609301724922
  0.4439153753721661  0.4270160884169529  0.6139336929939679
  0.2222270916468639  0.8725390509454978  0.3626729832526518
  0.1130241415349438  0.7617073475313992  0.1135680449144110
  0.8777963901252760  0.8666230465836423  0.8715175662362293
  0.7757757485188408  0.7627377792505683  0.6133582212547117
  0.5536789307515767  0.8721604234260173  0.3646192947944094
  0.4461714279090696  0.7574283192879413  0.1233203771762499
  0.2322582830697563  0.8848379788683060  0.8748654762072567
  0.1130384638177112  0.7616844497129958  0.6108599950101382
  0.8917526086316742  0.8697831065310845  0.3647255630413506
  0.7720990522865300  0.7715361921873291  0.1251996455912452
  0.5651080205446247  0.8521920184977939  0.8735073768696864
  0.4437219043888169  0.7620677856224075  0.6157091662765781
