Al   Mg   Hf   N                        
   1.00000000000000     
    -9.5311743558422410    0.0082068214428301   -0.0016452164929247
    -4.7739589783468279    8.2650423959258568   -0.0013564693072790
    -0.0026931712415352   -0.0007006621607145  -10.0611277549929685
   Al   Mg   Hf   N 
    32     2     2    36
Direct
  0.1095128113931162  0.0958958224354075  0.3243441018030753
  0.2166003168424744  0.2099029156346775  0.0805023823376179
  0.8872880142236722  0.2056970313084247  0.5716445239399627
  0.4439244133535957  0.0936881347531912  0.3196455900654529
  0.5576528133439427  0.2097616993859472  0.0815906150216259
  0.1051223245550292  0.1035607947505331  0.8240796199021911
  0.2201936519850415  0.2063975586171338  0.5690315680363502
  0.7794844214292010  0.0948379432688286  0.3248502832030621
  0.8870944050969609  0.2082323187584155  0.0750195675435357
  0.5578509268829804  0.2062727971376013  0.5665497077985845
  0.1108527872196004  0.4280584171449446  0.3242800607427464
  0.2261251857774743  0.5311776513490938  0.0796791872474303
  0.7798394858057743  0.4265938478085898  0.8236550328966452
  0.8879061517972546  0.5376710261853953  0.5747998945269913
  0.4442126145823916  0.4298739777811983  0.3237463609090704
  0.5567608040672990  0.5365676080406895  0.0756091596212516
  0.1048384713443639  0.4284903635047539  0.8211287299748551
  0.2235965657408911  0.5365985310386862  0.5697170083591696
  0.7768112974521519  0.4272161529081036  0.3229169555575324
  0.4482611014331723  0.4277196843372050  0.8232966635531671
  0.5563567690488873  0.5377299078855567  0.5738059241209869
  0.1113874146631993  0.7609222333060615  0.3200912823217667
  0.2259159942718959  0.8768715510016395  0.0803371079071270
  0.7797287557536655  0.7522675966381812  0.8211514780446297
  0.8851038547762980  0.8750628692282525  0.5674771637453770
  0.4454154262570637  0.7589796673764143  0.3248115744674940
  0.5607833501269608  0.8645558626269056  0.0812605409823382
  0.2229475838258003  0.8742214897399012  0.5699695508628335
  0.7782978397504280  0.7599632478622694  0.3246204825808380
  0.8802660709545543  0.8751497920583430  0.0803548171916619
  0.4506281760779667  0.7552140788700537  0.8235946346746018
  0.5564507267428380  0.8699134671073249  0.5690987685138986
  0.7778275424257381  0.1006262301402715  0.8229843537370464
  0.8883740733710862  0.5382040413312416  0.0749820975301885
  0.4465429350899618  0.0927109430563494  0.8341528153927789
  0.1100248365739793  0.7633166380967735  0.8352472150314447
  0.2231055470736740  0.2041807363756131  0.3806450065890662
  0.1104080819189586  0.0955638792495952  0.1355711274423389
  0.8954212138226514  0.2128646941611832  0.8867684076467917
  0.7769067943936053  0.0942164491308005  0.6176277807667586
  0.5531962112470946  0.2063732435790700  0.3763476918776731
  0.4443182864517207  0.0923831917732908  0.1244201880206699
  0.2066538407957948  0.2157147052996628  0.8878472714437358
  0.1117418059210029  0.0945884544507587  0.6318633259169547
  0.8901485854918449  0.2058640649414157  0.3822500321765906
  0.7793332867134072  0.0948777354925969  0.1343351294783874
  0.5502971937154812  0.2215660179693214  0.8936505162595217
  0.4448250707349279  0.0946266884863148  0.6250468301366172
  0.2219542705144403  0.5407102565917761  0.3809339005641748
  0.1241147854780797  0.4215384717367541  0.1390825049050021
  0.8889194333262612  0.5373732006040627  0.8677385921823051
  0.7765139604540346  0.4263779893683346  0.6311073241020591
  0.5543939611876010  0.5394525610991875  0.3848410427243666
  0.4439447473746634  0.4306776681973474  0.1353972863947484
  0.2295220190920068  0.5219255844134197  0.8857168319171203
  0.1136233012225857  0.4263250844240838  0.6293311656622563
  0.8886525575739066  0.5379637226622722  0.3835381213157218
  0.7691374591117306  0.4214593446916545  0.1369935788938114
  0.5542707788690472  0.5389302539102624  0.8819208758374766
  0.4441147627348370  0.4270393761312518  0.6314816472420844
  0.2217991916496357  0.8721903763159642  0.3799489826870725
  0.1125621652698183  0.7615309087564910  0.1231576748959440
  0.8746585232046938  0.8676752744153875  0.8904109183503239
  0.7763869476748920  0.7629038772866897  0.6287842209389419
  0.5535751919780433  0.8728482937729024  0.3808763968180117
  0.4454406442093893  0.7587896953518298  0.1351893984358701
  0.2330832272908378  0.8847774329212375  0.8877129503774959
  0.1107305014933962  0.7616024124199519  0.6263609038777094
  0.8913112674514478  0.8705128767193803  0.3784090854782580
  0.7714495130622907  0.7723789979036961  0.1405800671086959
  0.5665362803884995  0.8508886790088304  0.8889353156674352
  0.4439340749035978  0.7615984075471423  0.6322428249551230
