Al   Mg   Hf   N                        
   1.00000000000000     
    -9.5107051624537373    0.0089248439389386    0.0018391755650976
    -4.7633829239958008    8.2458556061585870   -0.0009999353000644
     0.0035153048821699    0.0030616604576167  -10.1090336727230863
   Al   Mg   Hf   N 
    32     2     2    36
Direct
  0.1094137350418437  0.0961445641199616  0.3954163277767460
  0.2193182853309895  0.2086732998894024  0.1510843537296924
  0.8892255348897403  0.2065931397302957  0.6455103369280263
  0.4440315579671273  0.0941299329029357  0.3976621296209534
  0.5580506389840697  0.2070168985301258  0.1537209420314063
  0.1053259157522486  0.1030347361114031  0.8965513553877109
  0.2176964913204715  0.2077251860761285  0.6404739676154155
  0.7788179400159631  0.0952827571174472  0.3942641629949064
  0.8853986975979745  0.2074192665831037  0.1480000539579136
  0.5572090561055799  0.2088971824644225  0.6398152238752477
  0.1077420133665285  0.4294935800341835  0.3972566055340547
  0.2243752077163934  0.5337710635154634  0.1502458238011895
  0.7785440649062332  0.4249687133488547  0.8955998511113191
  0.8881533490985806  0.5382762419669872  0.6449971861262105
  0.4444853106646114  0.4294495974395932  0.3957280680904087
  0.5577523196082765  0.5359090429087365  0.1454383842219075
  0.1074362667614865  0.4270646041557238  0.8970724315602437
  0.2251426106744595  0.5339433930248521  0.6409786205664321
  0.7783106829257370  0.4288876072489335  0.3974033255915769
  0.4482243064220489  0.4278465069657684  0.8977087763401087
  0.5554741195852045  0.5383861352500913  0.6452855659154828
  0.1112106886399331  0.7607537898252994  0.3977234538673624
  0.2231473917042644  0.8745969076959219  0.1506095106622037
  0.7786423368497315  0.7548088118415249  0.8970563142399169
  0.8833731098361981  0.8741290867166517  0.6400077728531560
  0.4456199135691638  0.7588942998541053  0.3948769237386234
  0.5583742054440203  0.8695027413152615  0.1511794609599241
  0.2252518613444464  0.8759244706640703  0.6399082939456571
  0.7795942554317566  0.7569315183933351  0.3973067291565232
  0.8821445858186973  0.8757246873030983  0.1528454363743728
  0.4504726782392569  0.7552313923302265  0.8970537330094757
  0.5586515489293827  0.8657297689439619  0.6395772886790371
  0.7781858629078675  0.1006023638200244  0.8993211082918047
  0.8879250489149132  0.5379680398225722  0.1442146401758523
  0.4467382129157633  0.0924415474314408  0.8924317486240319
  0.1099996917147898  0.7630994104417156  0.8899575720421086
  0.2217213597808927  0.2061805051067693  0.3405262803536807
  0.1115821607007017  0.0947717572582010  0.0880813208591300
  0.8964284424003657  0.2115155643019963  0.8310226442069525
  0.7786180089839499  0.0953661254200964  0.5847765956902056
  0.5533566942882797  0.2069664640117183  0.3429769995873410
  0.4441239212447956  0.0945507299128809  0.0994144795971740
  0.2088886120392501  0.2131125317437587  0.8302548253832438
  0.1108484289338936  0.0950365995580260  0.5835925877678191
  0.8892431112151830  0.2072394089705978  0.3389636290228217
  0.7773907784634796  0.0941043048403065  0.1036185427869416
  0.5497190967925834  0.2205881241040678  0.8268700613792160
  0.4447380921807248  0.0929234400131398  0.5917230935578753
  0.2217685032794752  0.5389079933501384  0.3401917473188994
  0.1270080577463609  0.4195867417472718  0.0827226055909866
  0.8889368950197652  0.5375916675035296  0.8375127076742126
  0.7757941544888959  0.4282954178006681  0.5881587089459989
  0.5555876308376561  0.5386550489578164  0.3360413301865201
  0.4436912168576509  0.4278576772300444  0.0883963480163361
  0.2296969342514854  0.5237735810286498  0.8317009849464158
  0.1111694304911715  0.4279586838969219  0.5871370886633096
  0.8886378846228514  0.5381711455942734  0.3484373666873243
  0.7699410833184571  0.4196722092291695  0.0816516959031937
  0.5532642080147875  0.5396164593282247  0.8357875443087475
  0.4444902426890838  0.4298123887210256  0.5839728105534101
  0.2220567193477551  0.8725486992525560  0.3396285209462775
  0.1103829292359454  0.7614865533494538  0.0971976151739592
  0.8770047830467913  0.8676775923823700  0.8271370869523194
  0.7777513927922979  0.7596471304874512  0.5857063314175097
  0.5554941368233129  0.8716583154179992  0.3404509960770864
  0.4439746019081535  0.7616846271540633  0.0876943610197051
  0.2322426088301929  0.8835033209922573  0.8318123072099808
  0.1125982575629542  0.7613514153014769  0.5928777422033412
  0.8893171407228547  0.8703118976479343  0.3431083542723266
  0.7691854988708068  0.7769444922940795  0.0830457615052878
  0.5642660312621455  0.8530024356611603  0.8290461480676761
  0.4451627531741540  0.7589987818051268  0.5839561609546212
