supercell of 100% icsd_608626.cif, 0% i 
   1.00000000000000     
    -9.6631788120071747    0.0373328979299717    0.0050255300873696
    -4.8638861487205158    8.4094823516492792    0.0039463768352569
     0.0053198892361132   -0.0019507611058389  -10.1313404967146692
   Al   Zr   Mg   N 
    28     4     4    36
Direct
  0.1151733806941877  0.0951957223020017  0.2970788759199223
  0.2206977047194130  0.2063470075757934  0.0474493853035725
  0.8916326256557525  0.2109107958739571  0.5411730858750374
  0.4405025103529496  0.0923697800883048  0.2917335770244165
  0.5469165827183105  0.2115410809252154  0.0488813950110938
  0.1142266318107659  0.1019393583261632  0.7947772829500224
  0.2131711441728470  0.2066748153119207  0.5462098980269658
  0.7759920495906059  0.1034568230883579  0.2939510881489866
  0.8950684103919571  0.2146752649828088  0.0510662485870128
  0.4356210639414400  0.0952054123759893  0.8004218494802799
  0.1130336063748132  0.4263225314229757  0.2951566806080379
  0.2276374377077630  0.5319365850138595  0.0462584767815457
  0.7835780930656213  0.4277456527264150  0.7929141746289545
  0.4398885952268401  0.4316629125254110  0.2886337787852824
  0.5609165049867357  0.5316558709784971  0.0527982767003934
  0.1160522761041491  0.4229866141256622  0.7969355789632786
  0.7808720365502069  0.4302828443598798  0.2962267954006208
  0.8893654109334719  0.5322597519848173  0.0458425484800884
  0.4383668767947526  0.4297935155209558  0.8023440418473413
  0.5587881985311469  0.5383401255635576  0.5410657977912336
  0.2229207221903025  0.8754647024412776  0.0510214310598442
  0.7800515467070284  0.7587492663124564  0.7909586352806954
  0.8876609057731173  0.8719830696159576  0.5307696289521004
  0.4440528301706905  0.7627142471388595  0.2951241104022557
  0.5540205850982929  0.8716134097465158  0.0503110392407748
  0.2156422064397319  0.8794111481556541  0.5379056920516518
  0.7735558587405293  0.7533498810358026  0.3003223159260813
  0.5553725310484978  0.8701367446954933  0.5411960305915642
  0.7849131810785082  0.0944963203338247  0.8023478926913867
  0.5374324299644186  0.2154151046877715  0.5452160868703189
  0.8936271776088489  0.8646301510641337  0.0730722441066689
  0.4446826502709555  0.7576169278154836  0.8023892389958718
  0.8936434879720565  0.5364275306655202  0.5498323226260453
  0.2137494928474624  0.5432371032819461  0.5461503502367151
  0.1239149028310891  0.7529004371710073  0.3124335394320994
  0.1123499661178471  0.7541587587228946  0.7887738011058332
  0.2232088799815912  0.2047281643520051  0.3539458245124294
  0.1127829342476403  0.0956350604716789  0.1078642483457983
  0.9021762592586313  0.2173652854054708  0.8621161225267002
  0.7852818831514270  0.0932722446195271  0.5918877050967239
  0.5545317765302116  0.2063089771701527  0.3375857892177052
  0.4454682398265533  0.0928262865022020  0.1029604782821849
  0.2227763500460611  0.2037051890801678  0.8601675789046581
  0.1075375657299915  0.0959767341189419  0.6048217326976868
  0.8897399528600118  0.2074191714011206  0.3514515365258646
  0.7703153901817288  0.1173894091088030  0.0971087029194280
  0.5403800345161258  0.2089710714826154  0.8535867687067835
  0.4320316735174998  0.0814427999948322  0.6108961903634764
  0.2342829760547644  0.5157845726990402  0.3457948127012642
  0.1107657676594087  0.4257572283184672  0.1012382642395977
  0.8862878620185768  0.5414232092683022  0.8528271899554483
  0.7703829633377595  0.4207054747662085  0.6071118546304746
  0.5557976552390755  0.5383356529413774  0.3493589428619970
  0.4477092999910823  0.4257850939803873  0.1009557643916779
  0.2279418218144755  0.5246688461187503  0.8594943939242867
  0.1234741911397990  0.4082271146111438  0.6148977211504345
  0.8912238406054698  0.5363886479991677  0.3451527410984809
  0.7794410588770404  0.4275301056398462  0.1066286702252839
  0.5683360684378798  0.5161756069814984  0.8639979862062290
  0.4497238002562796  0.4423604574264033  0.6167609313050377
  0.2323793576977238  0.8835906616509064  0.3527808282298963
  0.1362231218337087  0.7480122252607160  0.1000094416051951
  0.8825012105410082  0.8623454092509775  0.8632392057891352
  0.7685612298755160  0.7807963026182279  0.6034599872726574
  0.5536011840431598  0.8731788539397911  0.3516147346395044
  0.4468160394013054  0.7588137658683394  0.0981088264839158
  0.2093877511350613  0.8917033909931789  0.8615383251358040
  0.0988690011235320  0.7817400657404292  0.5836825248826329
  0.8697143679747086  0.8824479422774587  0.3340243885757701
  0.7668172016339980  0.7457804870160203  0.1098453038216149
  0.5632408135606539  0.8795611900759397  0.8606260468660025
  0.4451988607174400  0.7602400328928169  0.5937152400241601
 
  0.00000000E+00  0.00000000E+00  0.00000000E+00
  0.00000000E+00  0.00000000E+00  0.00000000E+00
  0.00000000E+00  0.00000000E+00  0.00000000E+00
  0.00000000E+00  0.00000000E+00  0.00000000E+00
  0.00000000E+00  0.00000000E+00  0.00000000E+00
  0.00000000E+00  0.00000000E+00  0.00000000E+00
  0.00000000E+00  0.00000000E+00  0.00000000E+00
  0.00000000E+00  0.00000000E+00  0.00000000E+00
  0.00000000E+00  0.00000000E+00  0.00000000E+00
  0.00000000E+00  0.00000000E+00  0.00000000E+00
  0.00000000E+00  0.00000000E+00  0.00000000E+00
  0.00000000E+00  0.00000000E+00  0.00000000E+00
  0.00000000E+00  0.00000000E+00  0.00000000E+00
  0.00000000E+00  0.00000000E+00  0.00000000E+00
  0.00000000E+00  0.00000000E+00  0.00000000E+00
  0.00000000E+00  0.00000000E+00  0.00000000E+00
  0.00000000E+00  0.00000000E+00  0.00000000E+00
  0.00000000E+00  0.00000000E+00  0.00000000E+00
  0.00000000E+00  0.00000000E+00  0.00000000E+00
  0.00000000E+00  0.00000000E+00  0.00000000E+00
  0.00000000E+00  0.00000000E+00  0.00000000E+00
  0.00000000E+00  0.00000000E+00  0.00000000E+00
  0.00000000E+00  0.00000000E+00  0.00000000E+00
  0.00000000E+00  0.00000000E+00  0.00000000E+00
  0.00000000E+00  0.00000000E+00  0.00000000E+00
  0.00000000E+00  0.00000000E+00  0.00000000E+00
  0.00000000E+00  0.00000000E+00  0.00000000E+00
  0.00000000E+00  0.00000000E+00  0.00000000E+00
  0.00000000E+00  0.00000000E+00  0.00000000E+00
  0.00000000E+00  0.00000000E+00  0.00000000E+00
  0.00000000E+00  0.00000000E+00  0.00000000E+00
  0.00000000E+00  0.00000000E+00  0.00000000E+00
  0.00000000E+00  0.00000000E+00  0.00000000E+00
  0.00000000E+00  0.00000000E+00  0.00000000E+00
  0.00000000E+00  0.00000000E+00  0.00000000E+00
  0.00000000E+00  0.00000000E+00  0.00000000E+00
  0.00000000E+00  0.00000000E+00  0.00000000E+00
  0.00000000E+00  0.00000000E+00  0.00000000E+00
  0.00000000E+00  0.00000000E+00  0.00000000E+00
  0.00000000E+00  0.00000000E+00  0.00000000E+00
  0.00000000E+00  0.00000000E+00  0.00000000E+00
  0.00000000E+00  0.00000000E+00  0.00000000E+00
  0.00000000E+00  0.00000000E+00  0.00000000E+00
  0.00000000E+00  0.00000000E+00  0.00000000E+00
  0.00000000E+00  0.00000000E+00  0.00000000E+00
  0.00000000E+00  0.00000000E+00  0.00000000E+00
  0.00000000E+00  0.00000000E+00  0.00000000E+00
  0.00000000E+00  0.00000000E+00  0.00000000E+00
  0.00000000E+00  0.00000000E+00  0.00000000E+00
  0.00000000E+00  0.00000000E+00  0.00000000E+00
  0.00000000E+00  0.00000000E+00  0.00000000E+00
  0.00000000E+00  0.00000000E+00  0.00000000E+00
  0.00000000E+00  0.00000000E+00  0.00000000E+00
  0.00000000E+00  0.00000000E+00  0.00000000E+00
  0.00000000E+00  0.00000000E+00  0.00000000E+00
  0.00000000E+00  0.00000000E+00  0.00000000E+00
  0.00000000E+00  0.00000000E+00  0.00000000E+00
  0.00000000E+00  0.00000000E+00  0.00000000E+00
  0.00000000E+00  0.00000000E+00  0.00000000E+00
  0.00000000E+00  0.00000000E+00  0.00000000E+00
  0.00000000E+00  0.00000000E+00  0.00000000E+00
  0.00000000E+00  0.00000000E+00  0.00000000E+00
  0.00000000E+00  0.00000000E+00  0.00000000E+00
  0.00000000E+00  0.00000000E+00  0.00000000E+00
  0.00000000E+00  0.00000000E+00  0.00000000E+00
  0.00000000E+00  0.00000000E+00  0.00000000E+00
  0.00000000E+00  0.00000000E+00  0.00000000E+00
  0.00000000E+00  0.00000000E+00  0.00000000E+00
  0.00000000E+00  0.00000000E+00  0.00000000E+00
  0.00000000E+00  0.00000000E+00  0.00000000E+00
  0.00000000E+00  0.00000000E+00  0.00000000E+00
  0.00000000E+00  0.00000000E+00  0.00000000E+00
