supercell of icsd_608626.cif            
   1.05950059888173     
     9.1561494055583736   -0.0079282943811368   -0.0055955100716923
    -4.5848774490581166    7.9805392065780421    0.0287674093849460
    -0.0058979799180211    0.0323090978644481    9.7986256293978062
   Al   La   N 
    30     6    36
Direct
  0.2222424815745470  0.1090339522753681  0.2480872292898297
  0.1024283660432417  0.2050250868576384  0.4855723028082650
  0.8775249590021517  0.1055982321247697  0.7422641976099769
  0.7810962999890876  0.2252918994756712  0.9863140474692997
  0.5549249987751779  0.1076153767856951  0.2535017709070218
  0.4480863164355355  0.2256665344959643  0.4861869397166814
  0.2286716564216320  0.0955482563727870  0.7346276933174209
  0.1123919241547782  0.2195416185913146  0.0042236310073349
  0.8797205940818174  0.0989396440964256  0.2421240363214565
  0.7837021584280635  0.2293313141585003  0.5080155088426253
  0.5605967419120219  0.1192570607278896  0.7513636376062536
  0.4483086173900546  0.2304636130480162  0.0122282046550026
  0.2280091116829652  0.4469232024703729  0.2479709929559277
  0.0993356207418543  0.5570484299308447  0.5043857651480508
  0.8897913943641669  0.4500789410709984  0.7483889683198299
  0.7793984014400905  0.5642358189517367  0.0191873130926723
  0.5532036318164089  0.4465049163013077  0.2486114108146111
  0.4512335064646606  0.5584111835025567  0.4853251221061399
  0.1145631092043899  0.5577958748333813  0.0017984162075138
  0.7768877452074605  0.5554396043202559  0.4975831871768506
  0.4481237278375190  0.5528349787685727  0.0196227447472594
  0.2194800234035768  0.7761005943337622  0.2527492967550273
  0.1099472984762855  0.8881116881943711  0.4886558488975652
  0.7837430142593789  0.8854746982948569  0.0087333110038443
  0.5589077806965648  0.7746316996445231  0.2540245446451834
  0.2195449862864578  0.7804561283959970  0.7591453944965352
  0.1070131232223872  0.8877809470123239  0.0103541397904792
  0.8884907425463098  0.7835523468326571  0.2530068037256754
  0.7760060845331864  0.8944725182864914  0.4889681498080591
  0.5566545092050461  0.7850051176303054  0.7530085754076410
  0.2084292435303610  0.4272712071230984  0.7365582323340334
  0.8879611477534581  0.4262925431903994  0.2480591776262315
  0.5452589626028868  0.4375029327500641  0.7601337305263627
  0.8973526967564140  0.8030465417631021  0.7438759209544301
  0.4410365212736735  0.8870947196825796  0.5056153117031243
  0.4549652824077981  0.8992886268327425  0.9974279988398109
  0.2245243036399884  0.1085687770491788  0.4296069502957991
  0.1067088680324559  0.2187630497309101  0.1913105261247665
  0.8906270016378812  0.1067394415312464  0.9315228504014570
  0.7857429372844393  0.2301538696497332  0.6952095793887594
  0.5843940905963692  0.1518164917243041  0.4293797158841954
  0.4428938314352209  0.2172030336363591  0.1955000893255701
  0.2270493111520864  0.1120316585880872  0.9365223172307822
  0.0822464521419874  0.1586713436506813  0.6695352577014049
  0.8843209472906466  0.1154008028921893  0.4280970814171923
  0.7480594880555671  0.1697120044526059  0.1628570485587275
  0.5753908959344614  0.1645183561748311  0.9258283441543682
  0.4360454410877281  0.1905938044471043  0.6661909141999232
  0.2150884775686563  0.4392426883276457  0.4448420729905749
  0.1495368765617897  0.5762402986990836  0.1799138717479210
  0.8933779467354768  0.4485363912488367  0.9488861413129754
  0.7856689014299292  0.5474279407519163  0.6782368926867051
  0.5542814022757980  0.4434693232282427  0.4390097022857304
  0.4445444918807340  0.5570593571714184  0.2016538709198556
  0.2285870715004634  0.4436149144869432  0.9652916182861588
  0.1020748078634313  0.5774808544493339  0.6877816985610181
  0.8866733791873003  0.4428937684648915  0.4679964819229809
  0.7689802390145601  0.5719796296271369  0.2014050784328703
  0.5585687521583651  0.4473331881832365  0.9868488759926848
  0.4579998135147108  0.5967982883173093  0.6629488922656179
  0.1792330095042161  0.7530719923026510  0.4272639658844142
  0.1138038836158870  0.8920741512985444  0.1942144367960097
  0.8923855104331579  0.7795495512254789  0.9722437019413590
  0.7451633148391181  0.9129561436654399  0.6664905640007106
  0.5740155955673103  0.7634814464855566  0.4264954713509610
  0.4420192372926977  0.8867675532640860  0.2343261850307741
  0.1856686643768555  0.7640522864690951  0.9378954997390494
  0.1499252144529919  0.8957857795211126  0.6675132585669843
  0.8888629765708274  0.7847129279864760  0.4462044112635155
  0.7763726079433226  0.8869462135640305  0.1915547512231299
  0.5792730657007326  0.7532621116411207  0.9334561933685919
  0.4448584118014267  0.8944227169658276  0.7462661321124529
 
  0.00000000E+00  0.00000000E+00  0.00000000E+00
  0.00000000E+00  0.00000000E+00  0.00000000E+00
  0.00000000E+00  0.00000000E+00  0.00000000E+00
  0.00000000E+00  0.00000000E+00  0.00000000E+00
  0.00000000E+00  0.00000000E+00  0.00000000E+00
  0.00000000E+00  0.00000000E+00  0.00000000E+00
  0.00000000E+00  0.00000000E+00  0.00000000E+00
  0.00000000E+00  0.00000000E+00  0.00000000E+00
  0.00000000E+00  0.00000000E+00  0.00000000E+00
  0.00000000E+00  0.00000000E+00  0.00000000E+00
  0.00000000E+00  0.00000000E+00  0.00000000E+00
  0.00000000E+00  0.00000000E+00  0.00000000E+00
  0.00000000E+00  0.00000000E+00  0.00000000E+00
  0.00000000E+00  0.00000000E+00  0.00000000E+00
  0.00000000E+00  0.00000000E+00  0.00000000E+00
  0.00000000E+00  0.00000000E+00  0.00000000E+00
  0.00000000E+00  0.00000000E+00  0.00000000E+00
  0.00000000E+00  0.00000000E+00  0.00000000E+00
  0.00000000E+00  0.00000000E+00  0.00000000E+00
  0.00000000E+00  0.00000000E+00  0.00000000E+00
  0.00000000E+00  0.00000000E+00  0.00000000E+00
  0.00000000E+00  0.00000000E+00  0.00000000E+00
  0.00000000E+00  0.00000000E+00  0.00000000E+00
  0.00000000E+00  0.00000000E+00  0.00000000E+00
  0.00000000E+00  0.00000000E+00  0.00000000E+00
  0.00000000E+00  0.00000000E+00  0.00000000E+00
  0.00000000E+00  0.00000000E+00  0.00000000E+00
  0.00000000E+00  0.00000000E+00  0.00000000E+00
  0.00000000E+00  0.00000000E+00  0.00000000E+00
  0.00000000E+00  0.00000000E+00  0.00000000E+00
  0.00000000E+00  0.00000000E+00  0.00000000E+00
  0.00000000E+00  0.00000000E+00  0.00000000E+00
  0.00000000E+00  0.00000000E+00  0.00000000E+00
  0.00000000E+00  0.00000000E+00  0.00000000E+00
  0.00000000E+00  0.00000000E+00  0.00000000E+00
  0.00000000E+00  0.00000000E+00  0.00000000E+00
  0.00000000E+00  0.00000000E+00  0.00000000E+00
  0.00000000E+00  0.00000000E+00  0.00000000E+00
  0.00000000E+00  0.00000000E+00  0.00000000E+00
  0.00000000E+00  0.00000000E+00  0.00000000E+00
  0.00000000E+00  0.00000000E+00  0.00000000E+00
  0.00000000E+00  0.00000000E+00  0.00000000E+00
  0.00000000E+00  0.00000000E+00  0.00000000E+00
  0.00000000E+00  0.00000000E+00  0.00000000E+00
  0.00000000E+00  0.00000000E+00  0.00000000E+00
  0.00000000E+00  0.00000000E+00  0.00000000E+00
  0.00000000E+00  0.00000000E+00  0.00000000E+00
  0.00000000E+00  0.00000000E+00  0.00000000E+00
  0.00000000E+00  0.00000000E+00  0.00000000E+00
  0.00000000E+00  0.00000000E+00  0.00000000E+00
  0.00000000E+00  0.00000000E+00  0.00000000E+00
  0.00000000E+00  0.00000000E+00  0.00000000E+00
  0.00000000E+00  0.00000000E+00  0.00000000E+00
  0.00000000E+00  0.00000000E+00  0.00000000E+00
  0.00000000E+00  0.00000000E+00  0.00000000E+00
  0.00000000E+00  0.00000000E+00  0.00000000E+00
  0.00000000E+00  0.00000000E+00  0.00000000E+00
  0.00000000E+00  0.00000000E+00  0.00000000E+00
  0.00000000E+00  0.00000000E+00  0.00000000E+00
  0.00000000E+00  0.00000000E+00  0.00000000E+00
  0.00000000E+00  0.00000000E+00  0.00000000E+00
  0.00000000E+00  0.00000000E+00  0.00000000E+00
  0.00000000E+00  0.00000000E+00  0.00000000E+00
  0.00000000E+00  0.00000000E+00  0.00000000E+00
  0.00000000E+00  0.00000000E+00  0.00000000E+00
  0.00000000E+00  0.00000000E+00  0.00000000E+00
  0.00000000E+00  0.00000000E+00  0.00000000E+00
  0.00000000E+00  0.00000000E+00  0.00000000E+00
  0.00000000E+00  0.00000000E+00  0.00000000E+00
  0.00000000E+00  0.00000000E+00  0.00000000E+00
  0.00000000E+00  0.00000000E+00  0.00000000E+00
  0.00000000E+00  0.00000000E+00  0.00000000E+00
