POSCAR                                  
  0.930000000000000     
    -5.1075582664499999   -4.3553871673200000  -16.7378682820999991
     5.3610204463000004    4.3905258368900002  -16.8292308488000018
     5.1263099144700002   -4.3969943100500002   16.7453707803000000
   Al   Gd   N 
    30    18    48
Direct
  0.6425666055125916  0.7497064339001795  0.1995693566000938
  0.1467077577914822  0.9740614757557182  0.2591093913105595
  0.8601267454192225  0.8382030706325523  0.0211695320689742
  0.4558261183401910  0.8364961780062359  0.9876018853685551
  0.0624292855652726  0.0220001888619521  0.0478831659397017
  0.2971451670184848  0.8708311218003288  0.4767887666842157
  0.5275194502181009  0.3559621373486408  0.3449498889759752
  0.2075933817086550  0.8796943440351015  0.6310117870081697
  0.9111642999535476  0.9368939873424722  0.4907972318592826
  0.1431518075095966  0.2646728666843359  0.2419423104767091
  0.3556952816601324  0.4224374494181262  0.1127334042155894
  0.0361752039042358  0.9835706181200123  0.4118561949666599
  0.1939128725487720  0.4850012124155043  0.2030627323747325
  0.9581840317617178  0.4163230596125160  0.0662915968555851
  0.5853684979870408  0.3574457330472995  0.7336304939062543
  0.8748337139359137  0.4998958244283074  0.2064428285123441
  0.5927018094149190  0.4777870061565395  0.0379613147870472
  0.3742902038790916  0.7179215385317832  0.2851454347719979
  0.2271671260994736  0.3050236884280082  0.5523615814093858
  0.1413158935052010  0.4720272393836282  0.8293639171913370
  0.8153303796085680  0.4733034059081760  0.6018895891346645
  0.0863726854430595  0.6000029708186005  0.0522071459025142
  0.7572208538892866  0.5469019551149401  0.7963434811144126
  0.3717233125055373  0.4697104145246982  0.4964219856521197
  0.9997777127242671  0.7148724845427594  0.2093294520658304
  0.7527577477481628  0.6356397678037879  0.0413255597027202
  0.0049152913177863  0.5614848225533322  0.5244350039793773
  0.5641086860009494  0.6564124672526006  0.5305153748276510
  0.1383753217670929  0.6810764155739193  0.5206358240079751
  0.7462741524304448  0.7937839844902612  0.5138977011901318
  0.6915460751611349  0.9889068437484738  0.2022278191448379
  0.4016948180354944  0.0346606546414705  0.2434707542449743
  0.0554034141632371  0.8384823618893691  0.7214196564508626
  0.6602379412345627  0.9401735385282848  0.7750743367253037
  0.8988050803966345  0.1980021655386111  0.3268732884121235
  0.5041140819011147  0.0796644019152382  0.9418502084404778
  0.2234575375448244  0.1479724786929708  0.9864346335758327
  0.8386211906618115  0.1067312805791332  0.7509972598984831
  0.4867887660107755  0.0781627587994862  0.5558455858791547
  0.8376495114729181  0.2261372095971623  0.0910622188636054
  0.3641353898926027  0.1924838360061187  0.7375902054691679
  0.6313179994798617  0.4794609093802293  0.2610664339238298
  0.0009989075958217  0.2681328275775030  0.7292343211538679
  0.6586196062830325  0.2413407465159736  0.5278552374312895
  0.3316450809525548  0.5463550358201488  0.7144414518943520
  0.3122345760702032  0.7054757310216289  0.0227730990003678
  0.9481648083857976  0.7190733539787288  0.7952035750298663
  0.4984367768761189  0.7334352759529850  0.7109369300237489
  0.9030309142121595  0.1267055858567545  0.6795808842086188
  0.4708187416350569  0.2920513639960944  0.7832493923288268
  0.1241164947330233  0.1769805066781061  0.4297915595803801
  0.0324789133016239  0.4377312243005989  0.8045109569807281
  0.7106987268674914  0.2416908351532783  0.4385719845826088
  0.7244659067977395  0.4237910504837217  0.8281652902627741
  0.4557486567502025  0.0467688874635712  0.1683233476548764
  0.3635483678773568  0.3543106600456767  0.4863167921873384
  0.1197886278186715  0.2241053905520687  0.2967453752471840
  0.6690859541468015  0.1843351104981750  0.0320915011732339
  0.2070561498102279  0.5010052266079796  0.6927853048382531
  0.9051465418846902  0.4582534847128770  0.5618873579551718
  0.7556895268367612  0.6387040210610166  0.7615576206151573
  0.5840614831197044  0.4223614473898891  0.3461075894972581
  0.2858391219563288  0.3310877578910620  0.0823223782402067
  0.5259447266531367  0.4656189562124382  0.5336674067233176
  0.1769711141711596  0.3807361465345380  0.1936295794384861
  0.9381190666399135  0.3253516319423611  0.0732824763052733
  0.3766245697633721  0.6607947062929043  0.7113773991555163
  0.0677953765267887  0.6094158806579557  0.5070028337393993
  0.8178132781675700  0.4489220038289190  0.2342528234764174
  0.9669124397814173  0.7367856267564576  0.6862099717517935
  0.6179781304006653  0.6933282367672007  0.4984141492737280
  0.3510970456855844  0.3872661797839925  0.9679288292627106
  0.3221317236884076  0.6236667273263663  0.2653881332607071
  0.9885562499894220  0.5085252161637612  0.9839114283514760
  0.5231463457087600  0.8522375706555536  0.7037489388564993
  0.2105414146997759  0.6945961254929571  0.4248717643108222
  0.9444336337831274  0.6026997249660297  0.2426233879716122
  0.1235371243330192  0.8817814207514090  0.6694879817963084
  0.7669507993722959  0.8542882792116728  0.4734731760125683
  0.7733686677557898  0.9912500426496038  0.7717175880697269
  0.6286086599907605  0.5305125387852243  0.0012176466124529
  0.5716625593129123  0.6379651773619557  0.2279310880253718
  0.2094758342389866  0.6554254274590932  0.0158723277699053
  0.3458789046212729  0.9199868923121812  0.4495390387587506
  0.0599843517921173  0.7956175783084873  0.2250912315521205
  0.7619630649328357  0.7093695506529087  0.0046279951058850
  0.2498547274682963  0.0575182599394566  0.6349942667936546
  0.0091839388206338  0.9646244470872958  0.4857650727026765
  0.6995407865644623  0.8155958865208461  0.1960583344593445
  0.4028608771617783  0.7898528101194202  0.0146167042035330
  0.5769825205202750  0.1645168372726360  0.5914074768491417
  0.2098702941832826  0.9338549577196176  0.1717807317437661
  0.9253118261848243  0.8947578458255663  0.0226605334850092
  0.8205113003989979  0.0108472353705409  0.1974485844221761
  0.4317444438613549  0.9560393410033683  0.8860626898318458
  0.1184671157918800  0.0625729129004640  0.0209001261526112
 
  0.00000000E+00  0.00000000E+00  0.00000000E+00
  0.00000000E+00  0.00000000E+00  0.00000000E+00
  0.00000000E+00  0.00000000E+00  0.00000000E+00
  0.00000000E+00  0.00000000E+00  0.00000000E+00
  0.00000000E+00  0.00000000E+00  0.00000000E+00
  0.00000000E+00  0.00000000E+00  0.00000000E+00
  0.00000000E+00  0.00000000E+00  0.00000000E+00
  0.00000000E+00  0.00000000E+00  0.00000000E+00
  0.00000000E+00  0.00000000E+00  0.00000000E+00
  0.00000000E+00  0.00000000E+00  0.00000000E+00
  0.00000000E+00  0.00000000E+00  0.00000000E+00
  0.00000000E+00  0.00000000E+00  0.00000000E+00
  0.00000000E+00  0.00000000E+00  0.00000000E+00
  0.00000000E+00  0.00000000E+00  0.00000000E+00
  0.00000000E+00  0.00000000E+00  0.00000000E+00
  0.00000000E+00  0.00000000E+00  0.00000000E+00
  0.00000000E+00  0.00000000E+00  0.00000000E+00
  0.00000000E+00  0.00000000E+00  0.00000000E+00
  0.00000000E+00  0.00000000E+00  0.00000000E+00
  0.00000000E+00  0.00000000E+00  0.00000000E+00
  0.00000000E+00  0.00000000E+00  0.00000000E+00
  0.00000000E+00  0.00000000E+00  0.00000000E+00
  0.00000000E+00  0.00000000E+00  0.00000000E+00
  0.00000000E+00  0.00000000E+00  0.00000000E+00
  0.00000000E+00  0.00000000E+00  0.00000000E+00
  0.00000000E+00  0.00000000E+00  0.00000000E+00
  0.00000000E+00  0.00000000E+00  0.00000000E+00
  0.00000000E+00  0.00000000E+00  0.00000000E+00
  0.00000000E+00  0.00000000E+00  0.00000000E+00
  0.00000000E+00  0.00000000E+00  0.00000000E+00
  0.00000000E+00  0.00000000E+00  0.00000000E+00
  0.00000000E+00  0.00000000E+00  0.00000000E+00
  0.00000000E+00  0.00000000E+00  0.00000000E+00
  0.00000000E+00  0.00000000E+00  0.00000000E+00
  0.00000000E+00  0.00000000E+00  0.00000000E+00
  0.00000000E+00  0.00000000E+00  0.00000000E+00
  0.00000000E+00  0.00000000E+00  0.00000000E+00
  0.00000000E+00  0.00000000E+00  0.00000000E+00
  0.00000000E+00  0.00000000E+00  0.00000000E+00
  0.00000000E+00  0.00000000E+00  0.00000000E+00
  0.00000000E+00  0.00000000E+00  0.00000000E+00
  0.00000000E+00  0.00000000E+00  0.00000000E+00
  0.00000000E+00  0.00000000E+00  0.00000000E+00
  0.00000000E+00  0.00000000E+00  0.00000000E+00
  0.00000000E+00  0.00000000E+00  0.00000000E+00
  0.00000000E+00  0.00000000E+00  0.00000000E+00
  0.00000000E+00  0.00000000E+00  0.00000000E+00
  0.00000000E+00  0.00000000E+00  0.00000000E+00
  0.00000000E+00  0.00000000E+00  0.00000000E+00
  0.00000000E+00  0.00000000E+00  0.00000000E+00
  0.00000000E+00  0.00000000E+00  0.00000000E+00
  0.00000000E+00  0.00000000E+00  0.00000000E+00
  0.00000000E+00  0.00000000E+00  0.00000000E+00
  0.00000000E+00  0.00000000E+00  0.00000000E+00
  0.00000000E+00  0.00000000E+00  0.00000000E+00
  0.00000000E+00  0.00000000E+00  0.00000000E+00
  0.00000000E+00  0.00000000E+00  0.00000000E+00
  0.00000000E+00  0.00000000E+00  0.00000000E+00
  0.00000000E+00  0.00000000E+00  0.00000000E+00
  0.00000000E+00  0.00000000E+00  0.00000000E+00
  0.00000000E+00  0.00000000E+00  0.00000000E+00
  0.00000000E+00  0.00000000E+00  0.00000000E+00
  0.00000000E+00  0.00000000E+00  0.00000000E+00
  0.00000000E+00  0.00000000E+00  0.00000000E+00
  0.00000000E+00  0.00000000E+00  0.00000000E+00
  0.00000000E+00  0.00000000E+00  0.00000000E+00
  0.00000000E+00  0.00000000E+00  0.00000000E+00
  0.00000000E+00  0.00000000E+00  0.00000000E+00
  0.00000000E+00  0.00000000E+00  0.00000000E+00
  0.00000000E+00  0.00000000E+00  0.00000000E+00
  0.00000000E+00  0.00000000E+00  0.00000000E+00
  0.00000000E+00  0.00000000E+00  0.00000000E+00
  0.00000000E+00  0.00000000E+00  0.00000000E+00
  0.00000000E+00  0.00000000E+00  0.00000000E+00
  0.00000000E+00  0.00000000E+00  0.00000000E+00
  0.00000000E+00  0.00000000E+00  0.00000000E+00
  0.00000000E+00  0.00000000E+00  0.00000000E+00
  0.00000000E+00  0.00000000E+00  0.00000000E+00
  0.00000000E+00  0.00000000E+00  0.00000000E+00
  0.00000000E+00  0.00000000E+00  0.00000000E+00
  0.00000000E+00  0.00000000E+00  0.00000000E+00
  0.00000000E+00  0.00000000E+00  0.00000000E+00
  0.00000000E+00  0.00000000E+00  0.00000000E+00
  0.00000000E+00  0.00000000E+00  0.00000000E+00
  0.00000000E+00  0.00000000E+00  0.00000000E+00
  0.00000000E+00  0.00000000E+00  0.00000000E+00
  0.00000000E+00  0.00000000E+00  0.00000000E+00
  0.00000000E+00  0.00000000E+00  0.00000000E+00
  0.00000000E+00  0.00000000E+00  0.00000000E+00
  0.00000000E+00  0.00000000E+00  0.00000000E+00
  0.00000000E+00  0.00000000E+00  0.00000000E+00
  0.00000000E+00  0.00000000E+00  0.00000000E+00
  0.00000000E+00  0.00000000E+00  0.00000000E+00
  0.00000000E+00  0.00000000E+00  0.00000000E+00
  0.00000000E+00  0.00000000E+00  0.00000000E+00
  0.00000000E+00  0.00000000E+00  0.00000000E+00
