POSCAR                                  
  0.899000000000000     
    -7.0659848553000000   -2.3499763622500001    0.0016075125623900
    -2.3465377150500002   -7.0763689330300004    0.0024294870869400
     2.3494876222799999    2.3481470202299999   28.0420506212000014
   Al   Tb   N 
    42     6    48
Direct
  0.2485821804261690  0.2502453957672515  0.0019530196297524
  0.2196331757648693  0.2029847555141302  0.8360047590385093
  0.9987772821739540  0.0005934217396018  0.0027159526548459
  0.1469531547113618  0.6431161988426481  0.0804043764269124
  0.6422685304518652  0.1460953476253124  0.0803148314887565
  0.1660559779347821  0.1671858043622194  0.6699949378256846
  0.1165197299594709  0.5951543319044319  0.9240898143320706
  0.5982206790007183  0.1119520133246823  0.9230746839537431
  0.7517552416377882  0.7494213200313169  0.0027630102652694
  0.8949942414930518  0.3941435715902912  0.0807994050354921
  0.3942317888062803  0.8945563162181358  0.0796679630664201
  0.2674535137929439  0.7705338830988637  0.5903702055954412
  0.7689551161808907  0.2670204721350444  0.5902966003853791
  0.9169722761505668  0.9171451079013480  0.6692604516662541
  0.0723730641915878  0.5517756946915640  0.7476307885602438
  0.5551576496871320  0.0694548974556568  0.7487461985416957
  0.8536661892941595  0.3543691181523698  0.9227997669110906
  0.3565226566969244  0.8570748644419766  0.9229226707324685
  0.5020021396286367  0.4997282316418605  0.0019642951738561
  0.0818131410763172  0.0892893648201962  0.3329162873244371
  0.2330161861860489  0.7230518397535164  0.4141749791162610
  0.7225314456142655  0.2325063542991046  0.4139563912097017
  0.8757738906783032  0.8763169534981330  0.5011458958605672
  0.0262940359340220  0.5270679651466068  0.5909197264836479
  0.5255171829859293  0.0270887402258140  0.5916592268271472
  0.6669772886715464  0.6667210585452139  0.6692906467038782
  0.8100371863184463  0.3106033778060535  0.7488703276822761
  0.3122753940823060  0.8137491856483265  0.7488709556385018
  0.4650079741984072  0.4466263403822168  0.8357708703578410
  0.0326277253081031  0.0405140503377623  0.1589050852025835
  0.1859783141173494  0.6806367689869290  0.2400833085505312
  0.6828600274432546  0.1937686922280690  0.2409287176464403
  0.9864524609566132  0.4781723087924163  0.4149393184757812
  0.4784310141175894  0.9889290353417408  0.4148147196711776
  0.4179441718132892  0.4187906375119255  0.6699801203264073
  0.7929841229825101  0.7887060523828779  0.1592742350895548
  0.9301154086077474  0.4321121444778839  0.2416014102129651
  0.5855864756973261  0.5743114517738874  0.3322930636902939
  0.3763433219175738  0.3777545444854482  0.5050372860520937
  0.5406408015130637  0.5353869198092269  0.1590709344407983
  0.3374249116399426  0.3374170781325674  0.3304390785434634
  0.2880841883937961  0.2933636528655086  0.1591038709050707
  0.9643428839723214  0.9458318539774453  0.8360627938317933
  0.1241563949460200  0.1260792550745222  0.5027147516422019
  0.7210893445990365  0.7030135657135332  0.8358228948761095
  0.8425904100879862  0.8286408068627154  0.3290465060852696
  0.6274250394421941  0.6278089552389190  0.5027517234763508
  0.4254604170495782  0.9399048482327927  0.2443239745609276
  0.7322200772845733  0.7311896843181671  0.9264693608505041
  0.6867566993288747  0.6862320595710827  0.7452032634212316
  0.4799659993737890  0.4818456827928230  0.9213682145954749
  0.6200598048907437  0.1288394640819561  0.0017131917963056
  0.1298674092278347  0.6212373146832135  0.0020545747384517
  0.6491906518818880  0.6516582976853016  0.5932204531502450
  0.4373119953586979  0.4400075285380041  0.7508100344258821
  0.5489384504176371  0.1181671410412548  0.8357441560771335
  0.1251524166556592  0.5421750594589128  0.8358520273734271
  0.2280746876953543  0.2302575284897728  0.9213805804179742
  0.3753064408843159  0.8753204849194773  0.0020271672446128
  0.8750069262792621  0.3750118738084538  0.0019340856554138
  0.6081153996182209  0.6019948921948526  0.4112216852587878
  0.7323645225950202  0.2379074693667178  0.5041359871890307
  0.2375027675975545  0.7346841958692707  0.5041209246692731
  0.3972180860175811  0.3970485405283455  0.5894032640235451
  0.5385964105432564  0.0493209902030287  0.6701081202322996
  0.0479936377112011  0.5396682372591570  0.6695524147490914
  0.1848390913095912  0.1877736996956330  0.7500848243640519
  0.3294717635885362  0.8542143837672569  0.8359234591064180
  0.8149050885979960  0.3372362886164524  0.8359804611622224
  0.9812333361086800  0.9805350140496358  0.9265442097973136
  0.5698358596081121  0.5362267623686989  0.2417910389181586
  0.6964894571658391  0.2321196700472612  0.3308360417900644
  0.2366049980491667  0.7012760670938931  0.3308460550947032
  0.3513775396941767  0.3599457068718053  0.4128831216079334
  0.5139817477818482  0.0196850247335405  0.5008738310348946
  0.0195827073551342  0.5160346445462238  0.5027357020474383
  0.1476316334233587  0.1476914375096214  0.5932487899214678
  0.2911338939881674  0.7907182310475918  0.6694481707434434
  0.7897664573326821  0.2919582784755193  0.6694293334725643
  0.9362147105797476  0.9357681756477589  0.7455226222371962
  0.5229153291048831  0.5172234597123193  0.0805303792027132
  0.6610842827289787  0.1654149151445097  0.1594839893711537
  0.1699031234536932  0.6628397802694721  0.1593691454285349
  0.3033286647735025  0.3370229014789032  0.2439156615234737
  0.4351030658507682  0.9739723580103643  0.3363214818884970
  0.9657787958402224  0.4323672039995472  0.3284528656419141
  0.0937387562460330  0.1069508010331219  0.4113949596901634
  0.8953726106499573  0.8973967598955568  0.5898457291391210
  0.2673392873755347  0.2722692730609424  0.0805372858444926
  0.4113210440490889  0.9149537735986613  0.1552446101359379
  0.9171304196091370  0.4105897774093137  0.1607881363947925
  0.0309186813350735  0.0673000294860557  0.2420484445220552
  0.8596457735461698  0.8549913347795837  0.4204449232326510
  0.0155569518800931  0.0203626285092895  0.0804428270759630
  0.8336904016324524  0.7979195799197285  0.2373750367707999
  0.7735863956458573  0.7679610456218740  0.0807945252032596
 
  0.00000000E+00  0.00000000E+00  0.00000000E+00
  0.00000000E+00  0.00000000E+00  0.00000000E+00
  0.00000000E+00  0.00000000E+00  0.00000000E+00
  0.00000000E+00  0.00000000E+00  0.00000000E+00
  0.00000000E+00  0.00000000E+00  0.00000000E+00
  0.00000000E+00  0.00000000E+00  0.00000000E+00
  0.00000000E+00  0.00000000E+00  0.00000000E+00
  0.00000000E+00  0.00000000E+00  0.00000000E+00
  0.00000000E+00  0.00000000E+00  0.00000000E+00
  0.00000000E+00  0.00000000E+00  0.00000000E+00
  0.00000000E+00  0.00000000E+00  0.00000000E+00
  0.00000000E+00  0.00000000E+00  0.00000000E+00
  0.00000000E+00  0.00000000E+00  0.00000000E+00
  0.00000000E+00  0.00000000E+00  0.00000000E+00
  0.00000000E+00  0.00000000E+00  0.00000000E+00
  0.00000000E+00  0.00000000E+00  0.00000000E+00
  0.00000000E+00  0.00000000E+00  0.00000000E+00
  0.00000000E+00  0.00000000E+00  0.00000000E+00
  0.00000000E+00  0.00000000E+00  0.00000000E+00
  0.00000000E+00  0.00000000E+00  0.00000000E+00
  0.00000000E+00  0.00000000E+00  0.00000000E+00
  0.00000000E+00  0.00000000E+00  0.00000000E+00
  0.00000000E+00  0.00000000E+00  0.00000000E+00
  0.00000000E+00  0.00000000E+00  0.00000000E+00
  0.00000000E+00  0.00000000E+00  0.00000000E+00
  0.00000000E+00  0.00000000E+00  0.00000000E+00
  0.00000000E+00  0.00000000E+00  0.00000000E+00
  0.00000000E+00  0.00000000E+00  0.00000000E+00
  0.00000000E+00  0.00000000E+00  0.00000000E+00
  0.00000000E+00  0.00000000E+00  0.00000000E+00
  0.00000000E+00  0.00000000E+00  0.00000000E+00
  0.00000000E+00  0.00000000E+00  0.00000000E+00
  0.00000000E+00  0.00000000E+00  0.00000000E+00
  0.00000000E+00  0.00000000E+00  0.00000000E+00
  0.00000000E+00  0.00000000E+00  0.00000000E+00
  0.00000000E+00  0.00000000E+00  0.00000000E+00
  0.00000000E+00  0.00000000E+00  0.00000000E+00
  0.00000000E+00  0.00000000E+00  0.00000000E+00
  0.00000000E+00  0.00000000E+00  0.00000000E+00
  0.00000000E+00  0.00000000E+00  0.00000000E+00
  0.00000000E+00  0.00000000E+00  0.00000000E+00
  0.00000000E+00  0.00000000E+00  0.00000000E+00
  0.00000000E+00  0.00000000E+00  0.00000000E+00
  0.00000000E+00  0.00000000E+00  0.00000000E+00
  0.00000000E+00  0.00000000E+00  0.00000000E+00
  0.00000000E+00  0.00000000E+00  0.00000000E+00
  0.00000000E+00  0.00000000E+00  0.00000000E+00
  0.00000000E+00  0.00000000E+00  0.00000000E+00
  0.00000000E+00  0.00000000E+00  0.00000000E+00
  0.00000000E+00  0.00000000E+00  0.00000000E+00
  0.00000000E+00  0.00000000E+00  0.00000000E+00
  0.00000000E+00  0.00000000E+00  0.00000000E+00
  0.00000000E+00  0.00000000E+00  0.00000000E+00
  0.00000000E+00  0.00000000E+00  0.00000000E+00
  0.00000000E+00  0.00000000E+00  0.00000000E+00
  0.00000000E+00  0.00000000E+00  0.00000000E+00
  0.00000000E+00  0.00000000E+00  0.00000000E+00
  0.00000000E+00  0.00000000E+00  0.00000000E+00
  0.00000000E+00  0.00000000E+00  0.00000000E+00
  0.00000000E+00  0.00000000E+00  0.00000000E+00
  0.00000000E+00  0.00000000E+00  0.00000000E+00
  0.00000000E+00  0.00000000E+00  0.00000000E+00
  0.00000000E+00  0.00000000E+00  0.00000000E+00
  0.00000000E+00  0.00000000E+00  0.00000000E+00
  0.00000000E+00  0.00000000E+00  0.00000000E+00
  0.00000000E+00  0.00000000E+00  0.00000000E+00
  0.00000000E+00  0.00000000E+00  0.00000000E+00
  0.00000000E+00  0.00000000E+00  0.00000000E+00
  0.00000000E+00  0.00000000E+00  0.00000000E+00
  0.00000000E+00  0.00000000E+00  0.00000000E+00
  0.00000000E+00  0.00000000E+00  0.00000000E+00
  0.00000000E+00  0.00000000E+00  0.00000000E+00
  0.00000000E+00  0.00000000E+00  0.00000000E+00
  0.00000000E+00  0.00000000E+00  0.00000000E+00
  0.00000000E+00  0.00000000E+00  0.00000000E+00
  0.00000000E+00  0.00000000E+00  0.00000000E+00
  0.00000000E+00  0.00000000E+00  0.00000000E+00
  0.00000000E+00  0.00000000E+00  0.00000000E+00
  0.00000000E+00  0.00000000E+00  0.00000000E+00
  0.00000000E+00  0.00000000E+00  0.00000000E+00
  0.00000000E+00  0.00000000E+00  0.00000000E+00
  0.00000000E+00  0.00000000E+00  0.00000000E+00
  0.00000000E+00  0.00000000E+00  0.00000000E+00
  0.00000000E+00  0.00000000E+00  0.00000000E+00
  0.00000000E+00  0.00000000E+00  0.00000000E+00
  0.00000000E+00  0.00000000E+00  0.00000000E+00
  0.00000000E+00  0.00000000E+00  0.00000000E+00
  0.00000000E+00  0.00000000E+00  0.00000000E+00
  0.00000000E+00  0.00000000E+00  0.00000000E+00
  0.00000000E+00  0.00000000E+00  0.00000000E+00
  0.00000000E+00  0.00000000E+00  0.00000000E+00
  0.00000000E+00  0.00000000E+00  0.00000000E+00
  0.00000000E+00  0.00000000E+00  0.00000000E+00
  0.00000000E+00  0.00000000E+00  0.00000000E+00
  0.00000000E+00  0.00000000E+00  0.00000000E+00
  0.00000000E+00  0.00000000E+00  0.00000000E+00
