generated by phonopy                    
   1.00000000000000     
    10.0351470768999995   -0.0000022330999784   -0.0000001056124209
    -5.0175765436399997    8.6906901959899994    0.0000001395531216
    -0.0000001735893656    0.0000001431815548   14.9533752540999991
   Pb   P    O 
    19    13    50
Direct
  0.0009504602235708  0.7797773910404828  0.1271053270939859
  0.0007076927550500  0.7796240564636676  0.6204193647764527
  0.0023048625579989  0.2632475505571321  0.8736759458810539
  0.2330310230414483  0.2315191056027217  0.1282864547538267
  0.2331424209701396  0.2317722028858853  0.6186614479971979
  0.7504863956368695  0.7560085650718591  0.3740115325560609
  0.7353477652256259  0.7423393657946136  0.8738733994765155
  0.7718023601171780  0.0023778845462132  0.1315339675603511
  0.7720317784834023  0.0030347596633220  0.6160843969495744
  0.2687356714326228  0.0010436557401974  0.3737539773052703
  0.2561470574269080  0.9970893723128000  0.8737770365945181
  0.6674821096413694  0.3363727887685215  0.0015411147236009
  0.6829539487731893  0.3314041358823090  0.4980034415807282
  0.3359710242492184  0.6709604847999060  0.0060682930057183
  0.3161329740159786  0.6379633209591660  0.4973679549203780
  0.3164893932240176  0.6369337907630666  0.2498460462898677
  0.3362486256803194  0.6703902901093386  0.7412694397293507
  0.6828571194434474  0.3315240917567408  0.2501424550824112
  0.6666179504087069  0.3360391256897870  0.7465596073669474
  0.0177474794909855  0.1032914183985483  0.3745070768237753
  0.6256994169129442  0.5961871802362850  0.1222864205288019
  0.6256027054719127  0.5963307369342346  0.6255758855348006
  0.3820153160647521  0.4070519422613188  0.3737846173042314
  0.3672381400509934  0.3961710270387044  0.8738280074093154
  0.4037928603165284  0.0288524915936463  0.1219572924751944
  0.4035922863899373  0.0288790138909150  0.6260615330173067
  0.5959182871580424  0.9652501809347172  0.3739520811792900
  0.6000190414033924  0.9712917699401444  0.8738231963383214
  0.9649456794682223  0.3755295677288828  0.1167778656767595
  0.9647407925289642  0.3753128575184306  0.6307643522240980
  0.0298833725840595  0.6456957306177884  0.3739549758568117
  0.0281994668330583  0.6335744595957848  0.8738777273371170
  0.4976942565469571  0.6409223765239673  0.1214667664988198
  0.4977598964467305  0.6413380634364998  0.6257499386352876
  0.4859032072793212  0.3332109303193391  0.3737949888157388
  0.4699634335643736  0.3208273830306041  0.8739524109172834
  0.3504489753451594  0.8543395811571202  0.1214716119444006
  0.3501972832032365  0.8543545924309655  0.6261442813048035
  0.6455862314182923  0.1381818936828481  0.3743138948173339
  0.6776646640727364  0.1491150484534884  0.8739060101235054
  0.1423335471960741  0.4889554226898625  0.1198149078809649
  0.1420940837880025  0.4888153310536580  0.6273042857015909
  0.8518690000691578  0.5359303069737038  0.3743209461819674
  0.8498223721789344  0.5316807584792969  0.8741743400134823
  0.7245685623854783  0.6489300956225961  0.0345055163090962
  0.7383503248012673  0.6741608796492002  0.5448289204395778
  0.2829891953064987  0.3680271416590628  0.4603986628491796
  0.2608576575453370  0.3508478282113359  0.9579002985814427
  0.3481777604129945  0.0782503299702313  0.0365050694377587
  0.3371890864896159  0.0716629360810401  0.5428026463060505
  0.6522145012173226  0.9140086690395961  0.4577588471005356
  0.6425569732816285  0.9072767482140023  0.9578948321333627
  0.9160059167101977  0.2798292380517609  0.0280683058348501
  0.9101625137262204  0.2628580940117260  0.5495393174309413
  0.0821653028129319  0.7550112078785389  0.4578494462097495
  0.0903651348352597  0.7405409500396516  0.9578766844389435
  0.2825391482270305  0.3675718093493074  0.2873451653078121
  0.2606012518212495  0.3503057782897869  0.7898554790880183
  0.7389754672898832  0.6760764053225259  0.2025729366503128
  0.7251245438276186  0.6509741463486094  0.7130526020347219
  0.6539338062931677  0.9152944854895324  0.2903881665211969
  0.6436704734544492  0.9076142260655047  0.7900515971325390
  0.3359309879087391  0.0706596207046601  0.2049361554303744
  0.3467426403354210  0.0774974376398987  0.7113108555981640
  0.0802749521303454  0.7565036865510351  0.2907980158482957
  0.0890581939048687  0.7421362831237914  0.7904997298181087
  0.9116778059099957  0.2615792790515101  0.1971855840916277
  0.9170158151714318  0.2774245018669461  0.7186492094916090
  0.5519586354739374  0.4172342258558146  0.1303583434473623
  0.5515259769565546  0.4171826637945983  0.6188293524326269
  0.4830387052824605  0.5909116385761664  0.3736015054335766
  0.4733943020105329  0.5780769282116722  0.8735527797199509
  0.5840743838450209  0.1285640734004403  0.1255413293466958
  0.5839237897529514  0.1286097714095433  0.6233602346089242
  0.4132709025768548  0.8703163242316876  0.3733762526501678
  0.4183726221998256  0.8975375958856873  0.8733962437106371
  0.8756219439198958  0.4669323380605377  0.1216051357528158
  0.8754328149038955  0.4668032631720891  0.6277863903582670
  0.1158399139495572  0.5523195612380931  0.3730114171736645
  0.1035311012153599  0.5275132114118080  0.8728532057463596
  0.0024461442763410  0.0081717877108360  0.1217776746260952
  0.0024620094123904  0.0082318912887018  0.6230955859715550
 
  0.00000000E+00  0.00000000E+00  0.00000000E+00
  0.00000000E+00  0.00000000E+00  0.00000000E+00
  0.00000000E+00  0.00000000E+00  0.00000000E+00
  0.00000000E+00  0.00000000E+00  0.00000000E+00
  0.00000000E+00  0.00000000E+00  0.00000000E+00
  0.00000000E+00  0.00000000E+00  0.00000000E+00
  0.00000000E+00  0.00000000E+00  0.00000000E+00
  0.00000000E+00  0.00000000E+00  0.00000000E+00
  0.00000000E+00  0.00000000E+00  0.00000000E+00
  0.00000000E+00  0.00000000E+00  0.00000000E+00
  0.00000000E+00  0.00000000E+00  0.00000000E+00
  0.00000000E+00  0.00000000E+00  0.00000000E+00
  0.00000000E+00  0.00000000E+00  0.00000000E+00
  0.00000000E+00  0.00000000E+00  0.00000000E+00
  0.00000000E+00  0.00000000E+00  0.00000000E+00
  0.00000000E+00  0.00000000E+00  0.00000000E+00
  0.00000000E+00  0.00000000E+00  0.00000000E+00
  0.00000000E+00  0.00000000E+00  0.00000000E+00
  0.00000000E+00  0.00000000E+00  0.00000000E+00
  0.00000000E+00  0.00000000E+00  0.00000000E+00
  0.00000000E+00  0.00000000E+00  0.00000000E+00
  0.00000000E+00  0.00000000E+00  0.00000000E+00
  0.00000000E+00  0.00000000E+00  0.00000000E+00
  0.00000000E+00  0.00000000E+00  0.00000000E+00
  0.00000000E+00  0.00000000E+00  0.00000000E+00
  0.00000000E+00  0.00000000E+00  0.00000000E+00
  0.00000000E+00  0.00000000E+00  0.00000000E+00
  0.00000000E+00  0.00000000E+00  0.00000000E+00
  0.00000000E+00  0.00000000E+00  0.00000000E+00
  0.00000000E+00  0.00000000E+00  0.00000000E+00
  0.00000000E+00  0.00000000E+00  0.00000000E+00
  0.00000000E+00  0.00000000E+00  0.00000000E+00
  0.00000000E+00  0.00000000E+00  0.00000000E+00
  0.00000000E+00  0.00000000E+00  0.00000000E+00
  0.00000000E+00  0.00000000E+00  0.00000000E+00
  0.00000000E+00  0.00000000E+00  0.00000000E+00
  0.00000000E+00  0.00000000E+00  0.00000000E+00
  0.00000000E+00  0.00000000E+00  0.00000000E+00
  0.00000000E+00  0.00000000E+00  0.00000000E+00
  0.00000000E+00  0.00000000E+00  0.00000000E+00
  0.00000000E+00  0.00000000E+00  0.00000000E+00
  0.00000000E+00  0.00000000E+00  0.00000000E+00
  0.00000000E+00  0.00000000E+00  0.00000000E+00
  0.00000000E+00  0.00000000E+00  0.00000000E+00
  0.00000000E+00  0.00000000E+00  0.00000000E+00
  0.00000000E+00  0.00000000E+00  0.00000000E+00
  0.00000000E+00  0.00000000E+00  0.00000000E+00
  0.00000000E+00  0.00000000E+00  0.00000000E+00
  0.00000000E+00  0.00000000E+00  0.00000000E+00
  0.00000000E+00  0.00000000E+00  0.00000000E+00
  0.00000000E+00  0.00000000E+00  0.00000000E+00
  0.00000000E+00  0.00000000E+00  0.00000000E+00
  0.00000000E+00  0.00000000E+00  0.00000000E+00
  0.00000000E+00  0.00000000E+00  0.00000000E+00
  0.00000000E+00  0.00000000E+00  0.00000000E+00
  0.00000000E+00  0.00000000E+00  0.00000000E+00
  0.00000000E+00  0.00000000E+00  0.00000000E+00
  0.00000000E+00  0.00000000E+00  0.00000000E+00
  0.00000000E+00  0.00000000E+00  0.00000000E+00
  0.00000000E+00  0.00000000E+00  0.00000000E+00
  0.00000000E+00  0.00000000E+00  0.00000000E+00
  0.00000000E+00  0.00000000E+00  0.00000000E+00
  0.00000000E+00  0.00000000E+00  0.00000000E+00
  0.00000000E+00  0.00000000E+00  0.00000000E+00
  0.00000000E+00  0.00000000E+00  0.00000000E+00
  0.00000000E+00  0.00000000E+00  0.00000000E+00
  0.00000000E+00  0.00000000E+00  0.00000000E+00
  0.00000000E+00  0.00000000E+00  0.00000000E+00
  0.00000000E+00  0.00000000E+00  0.00000000E+00
  0.00000000E+00  0.00000000E+00  0.00000000E+00
  0.00000000E+00  0.00000000E+00  0.00000000E+00
  0.00000000E+00  0.00000000E+00  0.00000000E+00
  0.00000000E+00  0.00000000E+00  0.00000000E+00
  0.00000000E+00  0.00000000E+00  0.00000000E+00
  0.00000000E+00  0.00000000E+00  0.00000000E+00
  0.00000000E+00  0.00000000E+00  0.00000000E+00
  0.00000000E+00  0.00000000E+00  0.00000000E+00
  0.00000000E+00  0.00000000E+00  0.00000000E+00
  0.00000000E+00  0.00000000E+00  0.00000000E+00
  0.00000000E+00  0.00000000E+00  0.00000000E+00
  0.00000000E+00  0.00000000E+00  0.00000000E+00
  0.00000000E+00  0.00000000E+00  0.00000000E+00
