supercell of icsd_181358.cif            
   1.00000000000000     
     9.7759641851700110   -0.0009586160483692    0.0018885232344124
    -4.8888123031483488    8.4676607411183049   -0.0000002760555710
     0.0020352844894210    0.0011747269995309   10.4034994496595932
   N    Ga   Y 
    36    32     4
Direct
  0.2373759598635701  0.0969055854840164  0.4329069920298991
  0.1360037952647986  0.2346686445784201  0.1901342662609125
  0.8872683830369894  0.1103014969308234  0.9530954490394876
  0.7751912492143447  0.2195714091569911  0.6933355780662609
  0.5712320088547926  0.1393449164771710  0.4320617212757796
  0.4451395914376803  0.2258705842104263  0.1860216863501378
  0.2237153919796526  0.1095455447501692  0.9414458147693097
  0.1099626497768540  0.2216477062075626  0.7116858644904340
  0.8668187603409336  0.1000764874104192  0.4445249169685823
  0.7653523859440767  0.2424554163479229  0.1781223868338415
  0.5533110418017912  0.1112022172891756  0.9409541750694572
  0.4424507751761837  0.2197091072096029  0.6887439095814472
  0.2373763830057740  0.4738048688329570  0.4329067810241298
  0.1076239885079460  0.5528490281525151  0.1866915611300755
  0.9027511640112422  0.4349579133233945  0.9286027937666290
  0.7768390196815957  0.5550858199831481  0.6932974828611123
  0.5523363705162936  0.4428350724019978  0.4442259591952649
  0.4451408533290362  0.5526025661074527  0.1860209987288073
  0.2237159922814769  0.4475039197929291  0.9414458422859724
  0.1142618644855204  0.5576280736183605  0.6883783776980081
  0.8904980498792696  0.4426808422731057  0.4461521796473349
  0.7780095293504274  0.5556715218911847  0.2123246868783184
  0.5308852826333705  0.4321089054930880  0.9314636106005096
  0.4424506782449455  0.5560742828147198  0.6887441145081752
  0.1941761502341492  0.7637550192967737  0.4297410627841387
  0.1076243362684650  0.8881073510310813  0.1866913698959465
  0.9027513813041210  0.8011271667436120  0.9286028665720707
  0.7751911390948791  0.8889526361064881  0.6933353996636100
  0.5712322749773264  0.7652206277747666  0.4320614665176663
  0.4465151866250139  0.8899236436005538  0.1971490033431209
  0.2204463394414020  0.7768898524169856  0.9437140596675064
  0.1142617851679262  0.8899666829557944  0.6883785584272957
  0.8904985055262955  0.7811513285517293  0.4461520428229804
  0.7653536988563800  0.8562312504545986  0.1781225368103989
  0.5533118751984247  0.7754425083336756  0.9409541140477344
  0.4433430196000714  0.8883379599237955  0.7024857416083137
  0.2299476388396755  0.1091798124229157  0.2464291198767938
  0.1196858866024471  0.2265099392631171  0.9974171562873977
  0.8865929415041336  0.1099631457424763  0.7580425641948665
  0.7766911681617970  0.2243577661101099  0.5043298187814571
  0.5565148314760862  0.1231676182857413  0.2460109415481924
  0.4403031748167052  0.2205868162436957  0.9991324148621388
  0.2229369882781569  0.1091316560381159  0.7545997756822160
  0.7755558779646776  0.2253379018759674  0.9940349373776485
  0.5531725765298461  0.1099235397434839  0.7532963405421427
  0.4496495010337540  0.2243580535032450  0.5002369324725393
  0.2299496846916398  0.4541022024699188  0.2464288150628775
  0.1124768430320628  0.5530387907620238  0.9991034999048338
  0.8925915603880270  0.4429071371635303  0.7445328708742593
  0.7773024899957193  0.5553179202814533  0.5002198133477265
  0.5537610448427870  0.4435473521685296  0.2555614862147522
  0.4403043697778486  0.5530493878431173  0.9991316970404895
  0.2229366440134015  0.4471383660621413  0.7545999250604112
  0.1097606901161683  0.5583925453147813  0.4995904274257938
  0.8883058195588589  0.4472541283606262  0.2573221703543496
  0.5487105425579841  0.4410217392973550  0.7458826816955622
  0.4496494654183607  0.5586248339507591  0.5002372850129646
  0.2134385452006953  0.7733854224320211  0.2447745871698785
  0.1124772316086222  0.8927713155743859  0.9991034121961704
  0.8925911983517665  0.7830174087092558  0.7445329372888594
  0.7766915322448611  0.8856671602501294  0.5043293372557969
  0.5565158070998493  0.7666808754247683  0.2460106808677125
  0.4440994006079677  0.8887156829260974  0.0018854950576710
  0.2220967616819394  0.7777152697604350  0.7543472133928404
  0.1097610622636012  0.8847021775572870  0.4995907039112737
  0.8883071279276891  0.7743859056290461  0.2573219692415165
  0.7755571230928382  0.8835527606764941  0.9940349952429628
  0.5531722326575874  0.7765821550775271  0.7532963462062909
  0.1162676940134872  0.2248009465987977  0.4964981224519249
  0.8799130979191645  0.1066237922643793  0.2293696674008530
  0.7777340031864597  0.5555338385761459  0.9967196041049178
  0.4441605816303422  0.8887466777127102  0.4853688833713150
 
  0.00000000E+00  0.00000000E+00  0.00000000E+00
  0.00000000E+00  0.00000000E+00  0.00000000E+00
  0.00000000E+00  0.00000000E+00  0.00000000E+00
  0.00000000E+00  0.00000000E+00  0.00000000E+00
  0.00000000E+00  0.00000000E+00  0.00000000E+00
  0.00000000E+00  0.00000000E+00  0.00000000E+00
  0.00000000E+00  0.00000000E+00  0.00000000E+00
  0.00000000E+00  0.00000000E+00  0.00000000E+00
  0.00000000E+00  0.00000000E+00  0.00000000E+00
  0.00000000E+00  0.00000000E+00  0.00000000E+00
  0.00000000E+00  0.00000000E+00  0.00000000E+00
  0.00000000E+00  0.00000000E+00  0.00000000E+00
  0.00000000E+00  0.00000000E+00  0.00000000E+00
  0.00000000E+00  0.00000000E+00  0.00000000E+00
  0.00000000E+00  0.00000000E+00  0.00000000E+00
  0.00000000E+00  0.00000000E+00  0.00000000E+00
  0.00000000E+00  0.00000000E+00  0.00000000E+00
  0.00000000E+00  0.00000000E+00  0.00000000E+00
  0.00000000E+00  0.00000000E+00  0.00000000E+00
  0.00000000E+00  0.00000000E+00  0.00000000E+00
  0.00000000E+00  0.00000000E+00  0.00000000E+00
  0.00000000E+00  0.00000000E+00  0.00000000E+00
  0.00000000E+00  0.00000000E+00  0.00000000E+00
  0.00000000E+00  0.00000000E+00  0.00000000E+00
  0.00000000E+00  0.00000000E+00  0.00000000E+00
  0.00000000E+00  0.00000000E+00  0.00000000E+00
  0.00000000E+00  0.00000000E+00  0.00000000E+00
  0.00000000E+00  0.00000000E+00  0.00000000E+00
  0.00000000E+00  0.00000000E+00  0.00000000E+00
  0.00000000E+00  0.00000000E+00  0.00000000E+00
  0.00000000E+00  0.00000000E+00  0.00000000E+00
  0.00000000E+00  0.00000000E+00  0.00000000E+00
  0.00000000E+00  0.00000000E+00  0.00000000E+00
  0.00000000E+00  0.00000000E+00  0.00000000E+00
  0.00000000E+00  0.00000000E+00  0.00000000E+00
  0.00000000E+00  0.00000000E+00  0.00000000E+00
  0.00000000E+00  0.00000000E+00  0.00000000E+00
  0.00000000E+00  0.00000000E+00  0.00000000E+00
  0.00000000E+00  0.00000000E+00  0.00000000E+00
  0.00000000E+00  0.00000000E+00  0.00000000E+00
  0.00000000E+00  0.00000000E+00  0.00000000E+00
  0.00000000E+00  0.00000000E+00  0.00000000E+00
  0.00000000E+00  0.00000000E+00  0.00000000E+00
  0.00000000E+00  0.00000000E+00  0.00000000E+00
  0.00000000E+00  0.00000000E+00  0.00000000E+00
  0.00000000E+00  0.00000000E+00  0.00000000E+00
  0.00000000E+00  0.00000000E+00  0.00000000E+00
  0.00000000E+00  0.00000000E+00  0.00000000E+00
  0.00000000E+00  0.00000000E+00  0.00000000E+00
  0.00000000E+00  0.00000000E+00  0.00000000E+00
  0.00000000E+00  0.00000000E+00  0.00000000E+00
  0.00000000E+00  0.00000000E+00  0.00000000E+00
  0.00000000E+00  0.00000000E+00  0.00000000E+00
  0.00000000E+00  0.00000000E+00  0.00000000E+00
  0.00000000E+00  0.00000000E+00  0.00000000E+00
  0.00000000E+00  0.00000000E+00  0.00000000E+00
  0.00000000E+00  0.00000000E+00  0.00000000E+00
  0.00000000E+00  0.00000000E+00  0.00000000E+00
  0.00000000E+00  0.00000000E+00  0.00000000E+00
  0.00000000E+00  0.00000000E+00  0.00000000E+00
  0.00000000E+00  0.00000000E+00  0.00000000E+00
  0.00000000E+00  0.00000000E+00  0.00000000E+00
  0.00000000E+00  0.00000000E+00  0.00000000E+00
  0.00000000E+00  0.00000000E+00  0.00000000E+00
  0.00000000E+00  0.00000000E+00  0.00000000E+00
  0.00000000E+00  0.00000000E+00  0.00000000E+00
  0.00000000E+00  0.00000000E+00  0.00000000E+00
  0.00000000E+00  0.00000000E+00  0.00000000E+00
  0.00000000E+00  0.00000000E+00  0.00000000E+00
  0.00000000E+00  0.00000000E+00  0.00000000E+00
  0.00000000E+00  0.00000000E+00  0.00000000E+00
  0.00000000E+00  0.00000000E+00  0.00000000E+00
