generated by phonopy                    
   1.00000000000000     
    10.0351470768999995   -0.0000022330999784   -0.0000001056124209
    -5.0175765436399997    8.6906901959899994    0.0000001395531216
    -0.0000001735893656    0.0000001431815548   14.9533752540999991
   Pb   P    O    Cu
    20    12    49     1
Direct
  0.9911304439422892  0.7704395975424347  0.1059673821262805
  0.0073501649903847  0.7548428390448407  0.6422088896153255
  0.9727214599133944  0.2649259912196342  0.3775219320527086
  0.0000986905316296  0.2556388670093810  0.8720414925785178
  0.2150233148388239  0.2138923201436214  0.1023813670380918
  0.2192655169699407  0.2098439037578501  0.6232779862294677
  0.8587632447684683  0.8422159827863069  0.4547409138879743
  0.7363268730355585  0.7369776527911469  0.8771317022424014
  0.7758499412335951  0.9988177321520482  0.1019514536896295
  0.7565970527500525  0.0086331426268416  0.6350147538670470
  0.2599731702012136  0.9827013303987115  0.3654522172390315
  0.2500458145855688  0.9927891641594897  0.8800435316319053
  0.6561991210209897  0.3185573384463467  0.9997180078764316
  0.6705286356284574  0.3407789607108995  0.5069652219037479
  0.3273829398367170  0.6621058492678600  0.0029959736973098
  0.3423118643123289  0.6732646052274873  0.5113284135091902
  0.3111249650895331  0.6652833669018179  0.2410698073991924
  0.3360773066254197  0.6616442179145423  0.7502566428022419
  0.6772181957731149  0.3428723720279478  0.2433151169032826
  0.6623610567657394  0.3350278468623955  0.7534530510677868
  0.6036445671569979  0.5765110359029606  0.1169535293429860
  0.6164477433859830  0.5888434322137002  0.6299294436229417
  0.3505726223171450  0.3577656506465772  0.3759458566290022
  0.3628116485158088  0.3864724650718898  0.8711035565038827
  0.4023647638529297  0.0217073138254804  0.1264364931700257
  0.3949479659948736  0.0243807679136339  0.6222297636769554
  0.6117862635035678  0.9802260160061991  0.3863840458963637
  0.5989669147402594  0.9689683088523466  0.8738231260402429
  0.9675257659677712  0.3820890261706964  0.1283109592909852
  0.9752415958240874  0.3806538876841543  0.6255858257657039
  0.0262324469063344  0.6256520750053340  0.3790271680915538
  0.0191156173908453  0.6244246214735512  0.8783038596641717
  0.4846966788614395  0.6322753775159029  0.1187414975099088
  0.5092373913879769  0.6601088680942695  0.6311517556516364
  0.4928402825276166  0.3446097824822800  0.3743399655209245
  0.4592743202316569  0.3042997609981981  0.8709436240615318
  0.3487196154522891  0.8455051624999612  0.1242472021859697
  0.3423677546186212  0.8484241347703403  0.6196891619341258
  0.6806184652934562  0.1581283697636380  0.3883897232142246
  0.6844406356594845  0.1470745706108119  0.8705923185785025
  0.1417035933588124  0.5083461027986331  0.1259014199018580
  0.1505986508656818  0.5008291309379729  0.6219780083853195
  0.8520110708305353  0.5122964072811556  0.3708803449190370
  0.8410328545167474  0.5290151073598821  0.8781810078081165
  0.7234099291872482  0.6542511875162873  0.0394753793152418
  0.7048249154254549  0.6250963153388156  0.5376615492411929
  0.2802877813936036  0.3627111676259176  0.4640244920246772
  0.2567863793462877  0.3423121417532897  0.9560505826387242
  0.3342775789630821  0.0637894987819223  0.0429902702827931
  0.3526952773307528  0.0812393999224525  0.5348161530851812
  0.6466585084680716  0.9160382828026172  0.4732156165341053
  0.6462254545812769  0.9080360547584618  0.9581249690472902
  0.9337923943974573  0.2637215538921467  0.0509802611340149
  0.9153382137547936  0.2776894610809677  0.5397940508747325
  0.0651166271299175  0.7398836104385111  0.4596407366662447
  0.0843174375597755  0.7320251293474769  0.9624614304988128
  0.2729128626331985  0.3628541945550339  0.2913969112082881
  0.2525130592592930  0.3429927035646898  0.7886327667779440
  0.6985864077633082  0.6212760166763616  0.2080618020011471
  0.7372513455793026  0.6558439445507176  0.7074737748157105
  0.6868686639530353  0.9459346868751766  0.3050684456160866
  0.6353183280213273  0.8964315390298552  0.7912497402668919
  0.3409367328461457  0.0620339900986835  0.2121274487176379
  0.3081976337979810  0.0520844564726559  0.7014975332857887
  0.1024838487107758  0.7313672163339433  0.2942819695861161
  0.0841188727402056  0.7362380459451501  0.7963459792843892
  0.9222345421775557  0.2970899007871139  0.2202233407374621
  0.9372411623012482  0.2687038409138154  0.7070722974708588
  0.5269357470349050  0.3982750793768020  0.1097635470145946
  0.5226763908990861  0.4093087288280941  0.6374265691988370
  0.4716868139335091  0.5672125196457927  0.8706361509124392
  0.5817615476318281  0.1204833336966971  0.1222858615355449
  0.5737145599222941  0.1223585468587274  0.6360602188011981
  0.4313485300402888  0.8951261424425070  0.3752247991367668
  0.4190391948846823  0.8993450883443188  0.8768988817242231
  0.8639346384468709  0.4570902865195521  0.1144995287218933
  0.8790293220174163  0.4652771703627252  0.6346952157966328
  0.1127712747473311  0.5312348071659443  0.3912215010506443
  0.0919439944511709  0.5171414264551828  0.8766917701530943
  0.9932863047879934  0.9914469484208652  0.0648415584323701
  0.9688216299177554  0.9694479936903662  0.5800728035618334
  0.6936659703162604  0.7768247616041748  0.2689131793549180
 
  0.00000000E+00  0.00000000E+00  0.00000000E+00
  0.00000000E+00  0.00000000E+00  0.00000000E+00
  0.00000000E+00  0.00000000E+00  0.00000000E+00
  0.00000000E+00  0.00000000E+00  0.00000000E+00
  0.00000000E+00  0.00000000E+00  0.00000000E+00
  0.00000000E+00  0.00000000E+00  0.00000000E+00
  0.00000000E+00  0.00000000E+00  0.00000000E+00
  0.00000000E+00  0.00000000E+00  0.00000000E+00
  0.00000000E+00  0.00000000E+00  0.00000000E+00
  0.00000000E+00  0.00000000E+00  0.00000000E+00
  0.00000000E+00  0.00000000E+00  0.00000000E+00
  0.00000000E+00  0.00000000E+00  0.00000000E+00
  0.00000000E+00  0.00000000E+00  0.00000000E+00
  0.00000000E+00  0.00000000E+00  0.00000000E+00
  0.00000000E+00  0.00000000E+00  0.00000000E+00
  0.00000000E+00  0.00000000E+00  0.00000000E+00
  0.00000000E+00  0.00000000E+00  0.00000000E+00
  0.00000000E+00  0.00000000E+00  0.00000000E+00
  0.00000000E+00  0.00000000E+00  0.00000000E+00
  0.00000000E+00  0.00000000E+00  0.00000000E+00
  0.00000000E+00  0.00000000E+00  0.00000000E+00
  0.00000000E+00  0.00000000E+00  0.00000000E+00
  0.00000000E+00  0.00000000E+00  0.00000000E+00
  0.00000000E+00  0.00000000E+00  0.00000000E+00
  0.00000000E+00  0.00000000E+00  0.00000000E+00
  0.00000000E+00  0.00000000E+00  0.00000000E+00
  0.00000000E+00  0.00000000E+00  0.00000000E+00
  0.00000000E+00  0.00000000E+00  0.00000000E+00
  0.00000000E+00  0.00000000E+00  0.00000000E+00
  0.00000000E+00  0.00000000E+00  0.00000000E+00
  0.00000000E+00  0.00000000E+00  0.00000000E+00
  0.00000000E+00  0.00000000E+00  0.00000000E+00
  0.00000000E+00  0.00000000E+00  0.00000000E+00
  0.00000000E+00  0.00000000E+00  0.00000000E+00
  0.00000000E+00  0.00000000E+00  0.00000000E+00
  0.00000000E+00  0.00000000E+00  0.00000000E+00
  0.00000000E+00  0.00000000E+00  0.00000000E+00
  0.00000000E+00  0.00000000E+00  0.00000000E+00
  0.00000000E+00  0.00000000E+00  0.00000000E+00
  0.00000000E+00  0.00000000E+00  0.00000000E+00
  0.00000000E+00  0.00000000E+00  0.00000000E+00
  0.00000000E+00  0.00000000E+00  0.00000000E+00
  0.00000000E+00  0.00000000E+00  0.00000000E+00
  0.00000000E+00  0.00000000E+00  0.00000000E+00
  0.00000000E+00  0.00000000E+00  0.00000000E+00
  0.00000000E+00  0.00000000E+00  0.00000000E+00
  0.00000000E+00  0.00000000E+00  0.00000000E+00
  0.00000000E+00  0.00000000E+00  0.00000000E+00
  0.00000000E+00  0.00000000E+00  0.00000000E+00
  0.00000000E+00  0.00000000E+00  0.00000000E+00
  0.00000000E+00  0.00000000E+00  0.00000000E+00
  0.00000000E+00  0.00000000E+00  0.00000000E+00
  0.00000000E+00  0.00000000E+00  0.00000000E+00
  0.00000000E+00  0.00000000E+00  0.00000000E+00
  0.00000000E+00  0.00000000E+00  0.00000000E+00
  0.00000000E+00  0.00000000E+00  0.00000000E+00
  0.00000000E+00  0.00000000E+00  0.00000000E+00
  0.00000000E+00  0.00000000E+00  0.00000000E+00
  0.00000000E+00  0.00000000E+00  0.00000000E+00
  0.00000000E+00  0.00000000E+00  0.00000000E+00
  0.00000000E+00  0.00000000E+00  0.00000000E+00
  0.00000000E+00  0.00000000E+00  0.00000000E+00
  0.00000000E+00  0.00000000E+00  0.00000000E+00
  0.00000000E+00  0.00000000E+00  0.00000000E+00
  0.00000000E+00  0.00000000E+00  0.00000000E+00
  0.00000000E+00  0.00000000E+00  0.00000000E+00
  0.00000000E+00  0.00000000E+00  0.00000000E+00
  0.00000000E+00  0.00000000E+00  0.00000000E+00
  0.00000000E+00  0.00000000E+00  0.00000000E+00
  0.00000000E+00  0.00000000E+00  0.00000000E+00
  0.00000000E+00  0.00000000E+00  0.00000000E+00
  0.00000000E+00  0.00000000E+00  0.00000000E+00
  0.00000000E+00  0.00000000E+00  0.00000000E+00
  0.00000000E+00  0.00000000E+00  0.00000000E+00
  0.00000000E+00  0.00000000E+00  0.00000000E+00
  0.00000000E+00  0.00000000E+00  0.00000000E+00
  0.00000000E+00  0.00000000E+00  0.00000000E+00
  0.00000000E+00  0.00000000E+00  0.00000000E+00
  0.00000000E+00  0.00000000E+00  0.00000000E+00
  0.00000000E+00  0.00000000E+00  0.00000000E+00
  0.00000000E+00  0.00000000E+00  0.00000000E+00
  0.00000000E+00  0.00000000E+00  0.00000000E+00
