Al   Sc   N                             
   1.00000000000000     
    -9.9041943270208286   -0.0141021823543208   -0.0024175600675465
    -4.9197669193703515    8.5990423796599504    0.0006863025618536
     0.0099216759293709    0.0004623220362513   -9.6306863029811307
   Al   Sc   N 
    28     8    36
Direct
  0.1121583404359896  0.0929029841881857  0.3691202947661409
  0.2275500525448777  0.2005267367833881  0.1379178502557394
  0.4544210508344548  0.0879424355252922  0.3744359481624429
  0.5598501029454255  0.2032510030534098  0.1310116592914170
  0.7726806269242772  0.0891935307595162  0.3799143472141751
  0.8832588072581586  0.2059578809805629  0.1388049520147661
  0.4420083357786595  0.0972312627762264  0.8831935541267910
  0.5566763407924142  0.2002071053757106  0.6264622155017321
  0.1018722246186528  0.4343896694309137  0.3777799463746803
  0.7706115567542042  0.4307897245728469  0.8808567388751953
  0.8783599341561370  0.5494577738687099  0.6339790500310087
  0.4541103635654906  0.4233426227501695  0.3799965558406981
  0.5575092936557127  0.5348367108204926  0.1285458488499742
  0.1150780202403965  0.4235044116962641  0.8794602956608344
  0.7716819451969243  0.4407210707778120  0.3767292248454552
  0.4485237253213654  0.4259810728951337  0.8775230205560831
  0.5613918440017969  0.5416785403528763  0.6297236577281851
  0.1036376739711997  0.7629656559833933  0.3714664995220431
  0.2235543280480101  0.8722230436886278  0.1347191078065890
  0.7736838350574828  0.7663853960359148  0.8762151398206868
  0.8844065179223364  0.8658227181621214  0.6264216393628885
  0.4538840715936487  0.7565643150551864  0.3744025234050099
  0.5541265242823954  0.8761614007664136  0.1269136968838680
  0.1107126746528593  0.7591700772838976  0.8850869978614284
  0.7749392198196219  0.7620019915392007  0.3820807184636479
  0.8811946138644586  0.8812968033012467  0.1316513679169091
  0.4467122185567192  0.7573045745886020  0.8825237537004540
  0.5611000827930752  0.8692635081811986  0.6294645393850686
  0.7747491310536603  0.0924082143555154  0.8673525197259622
  0.8781193423669791  0.2161099420747377  0.6044116090938800
  0.1124391868419252  0.0941521855011302  0.8767962022293290
  0.2298057691878910  0.2068947678579462  0.6090442108367071
  0.2292298629140674  0.5357008504968022  0.1176102516386592
  0.2226138315640327  0.5399094975959642  0.6172025117306816
  0.8835735629997004  0.5440525113297028  0.1103065614872918
  0.2289872466570202  0.8622502070491578  0.6114407011137573
  0.2258954591648816  0.2070295025354270  0.3399727041754232
  0.1103605746915264  0.0944522838551691  0.1048053773648405
  0.8790440647957567  0.2247358825979333  0.8256635694109136
  0.7689244862968962  0.0800561319124924  0.5825597635385975
  0.5561147263584090  0.2054860315738409  0.3284778155540593
  0.4439927064727129  0.0949580066561424  0.0840324791679805
  0.2316633380215265  0.2119285243549385  0.8306724365570020
  0.1122728677435347  0.0924483472667390  0.5709565715930225
  0.8825827701726325  0.2095310765887461  0.3429788006052590
  0.7776301693780709  0.0958564153211370  0.0904761170712760
  0.5355700495803504  0.2142204783474995  0.8241583538806978
  0.4688848755990023  0.0785492088319586  0.5695777890595650
  0.2269898257787375  0.5353373706792794  0.3452418672464574
  0.1212460784379061  0.4058278398341599  0.0780835640134327
  0.8850947077871183  0.5416563877996907  0.8412364739170073
  0.7664610780026777  0.4553016587993568  0.5729301198822583
  0.5552622001268617  0.5391613247012614  0.3249520060625670
  0.4670909763322300  0.4141107019368917  0.0752954861459045
  0.2236506418295505  0.5391349621331187  0.8499439878764576
  0.0847276286360028  0.4432718900891217  0.5757337133928715
  0.8851572458702250  0.5453655672193491  0.3297882065753015
  0.7693838702898219  0.4169035150621383  0.0797778172157635
  0.5550092071284283  0.5412215484460816  0.8292627765253187
  0.4704874714188989  0.4159375690165348  0.5772896595053609
  0.2271898601075364  0.8668696990315894  0.3364859588559881
  0.0981185712241484  0.7818830517886326  0.0856491687763565
  0.9013984029367919  0.8503614335816820  0.8237626651644305
  0.7743888519363367  0.7615239207561046  0.5814142058917540
  0.5582930399702732  0.8703739184580144  0.3241129793348634
  0.4457621428247052  0.7593312721376080  0.0826412622993900
  0.2324787156827313  0.8513922589383185  0.8352674030361626
  0.0881498304938475  0.7695817111095238  0.5659970356262036
  0.8832142292383480  0.8724414246996162  0.3287313187542935
  0.7644134676047614  0.7873761979144049  0.0717663633703154
  0.5513896730449517  0.8751973753983577  0.8301417714031487
  0.4679323233508157  0.7509491205697429  0.5713897826295238
 
  0.00000000E+00  0.00000000E+00  0.00000000E+00
  0.00000000E+00  0.00000000E+00  0.00000000E+00
  0.00000000E+00  0.00000000E+00  0.00000000E+00
  0.00000000E+00  0.00000000E+00  0.00000000E+00
  0.00000000E+00  0.00000000E+00  0.00000000E+00
  0.00000000E+00  0.00000000E+00  0.00000000E+00
  0.00000000E+00  0.00000000E+00  0.00000000E+00
  0.00000000E+00  0.00000000E+00  0.00000000E+00
  0.00000000E+00  0.00000000E+00  0.00000000E+00
  0.00000000E+00  0.00000000E+00  0.00000000E+00
  0.00000000E+00  0.00000000E+00  0.00000000E+00
  0.00000000E+00  0.00000000E+00  0.00000000E+00
  0.00000000E+00  0.00000000E+00  0.00000000E+00
  0.00000000E+00  0.00000000E+00  0.00000000E+00
  0.00000000E+00  0.00000000E+00  0.00000000E+00
  0.00000000E+00  0.00000000E+00  0.00000000E+00
  0.00000000E+00  0.00000000E+00  0.00000000E+00
  0.00000000E+00  0.00000000E+00  0.00000000E+00
  0.00000000E+00  0.00000000E+00  0.00000000E+00
  0.00000000E+00  0.00000000E+00  0.00000000E+00
  0.00000000E+00  0.00000000E+00  0.00000000E+00
  0.00000000E+00  0.00000000E+00  0.00000000E+00
  0.00000000E+00  0.00000000E+00  0.00000000E+00
  0.00000000E+00  0.00000000E+00  0.00000000E+00
  0.00000000E+00  0.00000000E+00  0.00000000E+00
  0.00000000E+00  0.00000000E+00  0.00000000E+00
  0.00000000E+00  0.00000000E+00  0.00000000E+00
  0.00000000E+00  0.00000000E+00  0.00000000E+00
  0.00000000E+00  0.00000000E+00  0.00000000E+00
  0.00000000E+00  0.00000000E+00  0.00000000E+00
  0.00000000E+00  0.00000000E+00  0.00000000E+00
  0.00000000E+00  0.00000000E+00  0.00000000E+00
  0.00000000E+00  0.00000000E+00  0.00000000E+00
  0.00000000E+00  0.00000000E+00  0.00000000E+00
  0.00000000E+00  0.00000000E+00  0.00000000E+00
  0.00000000E+00  0.00000000E+00  0.00000000E+00
  0.00000000E+00  0.00000000E+00  0.00000000E+00
  0.00000000E+00  0.00000000E+00  0.00000000E+00
  0.00000000E+00  0.00000000E+00  0.00000000E+00
  0.00000000E+00  0.00000000E+00  0.00000000E+00
  0.00000000E+00  0.00000000E+00  0.00000000E+00
  0.00000000E+00  0.00000000E+00  0.00000000E+00
  0.00000000E+00  0.00000000E+00  0.00000000E+00
  0.00000000E+00  0.00000000E+00  0.00000000E+00
  0.00000000E+00  0.00000000E+00  0.00000000E+00
  0.00000000E+00  0.00000000E+00  0.00000000E+00
  0.00000000E+00  0.00000000E+00  0.00000000E+00
  0.00000000E+00  0.00000000E+00  0.00000000E+00
  0.00000000E+00  0.00000000E+00  0.00000000E+00
  0.00000000E+00  0.00000000E+00  0.00000000E+00
  0.00000000E+00  0.00000000E+00  0.00000000E+00
  0.00000000E+00  0.00000000E+00  0.00000000E+00
  0.00000000E+00  0.00000000E+00  0.00000000E+00
  0.00000000E+00  0.00000000E+00  0.00000000E+00
  0.00000000E+00  0.00000000E+00  0.00000000E+00
  0.00000000E+00  0.00000000E+00  0.00000000E+00
  0.00000000E+00  0.00000000E+00  0.00000000E+00
  0.00000000E+00  0.00000000E+00  0.00000000E+00
  0.00000000E+00  0.00000000E+00  0.00000000E+00
  0.00000000E+00  0.00000000E+00  0.00000000E+00
  0.00000000E+00  0.00000000E+00  0.00000000E+00
  0.00000000E+00  0.00000000E+00  0.00000000E+00
  0.00000000E+00  0.00000000E+00  0.00000000E+00
  0.00000000E+00  0.00000000E+00  0.00000000E+00
  0.00000000E+00  0.00000000E+00  0.00000000E+00
  0.00000000E+00  0.00000000E+00  0.00000000E+00
  0.00000000E+00  0.00000000E+00  0.00000000E+00
  0.00000000E+00  0.00000000E+00  0.00000000E+00
  0.00000000E+00  0.00000000E+00  0.00000000E+00
  0.00000000E+00  0.00000000E+00  0.00000000E+00
  0.00000000E+00  0.00000000E+00  0.00000000E+00
  0.00000000E+00  0.00000000E+00  0.00000000E+00
