Al   Sc   N                             
   1.00000000000000     
    -9.7940549896732563   -0.0138926833016599   -0.0015097957856715
    -4.8733157270460694    8.5030789470279622    0.0009193199875722
     0.0088493811962799    0.0002335148083527   -9.9399911448970784
   Al   Sc   N 
    28     8    36
Direct
  0.1123515333997887  0.0930504228440938  0.3709231690634098
  0.2278413049833645  0.2010090990314026  0.1408276756883993
  0.4530694495199867  0.0889180940214658  0.3782325795892660
  0.5593394507088050  0.2029783659553956  0.1339892110564449
  0.7729359133597526  0.0893490981980776  0.3820733463983856
  0.8829555401449198  0.2064450812153638  0.1430416261781886
  0.4422698753206546  0.0969845684354951  0.8842729696126170
  0.5574273354893720  0.2000792265005131  0.6283357903715014
  0.1032698041363673  0.4338525631067327  0.3815942892716109
  0.7711449854492258  0.4305092451781221  0.8819367894968266
  0.8789567451000764  0.5492087467412006  0.6355710104150205
  0.4529336811662787  0.4237956744739222  0.3818983248738803
  0.5578653509532359  0.5348352312404216  0.1308737462885006
  0.1144699885371878  0.4239271973422731  0.8827203202761496
  0.7721412677231072  0.4396455007996849  0.3808856426999014
  0.4481430311000807  0.4262136253980628  0.8812077598078858
  0.5611079978447293  0.5412977483015879  0.6313057571443679
  0.1049367323565633  0.7622097856320877  0.3770341965723389
  0.2233480950639120  0.8719471832945089  0.1379565376655876
  0.7740077194170638  0.7657138797335463  0.8787821109966742
  0.8840346976471807  0.8662982423024559  0.6284053531301197
  0.4525843489530459  0.7569344177302284  0.3775631845562302
  0.5536936971156479  0.8765183436714992  0.1297965919958557
  0.1103663847413685  0.7597024111965354  0.8864100554858396
  0.7756483861193431  0.7616311237371107  0.3841387785497616
  0.8822315168588233  0.8809814526450950  0.1344043327037596
  0.4470082000561817  0.7573180893347100  0.8841871154142567
  0.5616413225120809  0.8689386782848203  0.6305257575607897
  0.7745205722187407  0.0927925405151555  0.8744863851006244
  0.8790975364676825  0.2144630745668792  0.6088229659685140
  0.1120415344682399  0.0948117482709563  0.8865883770595389
  0.2286621585379791  0.2063864084941400  0.6153419404336944
  0.2279875561587090  0.5370028662703774  0.1217290229458925
  0.2234222955755953  0.5393127821156725  0.6247199052247367
  0.8831878319596456  0.5436134404535053  0.1158661119539914
  0.2279784010371202  0.8643790593179617  0.6179706396480640
  0.2261425924167924  0.2075699769030308  0.3358312192840529
  0.1101262356177770  0.0948948211214429  0.1045469488024580
  0.8803466517823608  0.2233410717578082  0.8220101157514321
  0.7689459064850439  0.0795663087920317  0.5765771044416894
  0.5555120732611556  0.2053828876484474  0.3255754891693243
  0.4439589904691275  0.0949555708652952  0.0796339653606495
  0.2306988325100647  0.2117430784537717  0.8285890919158021
  0.1126206512563073  0.0924122213277272  0.5619804974220983
  0.8820071482327521  0.2101305915515610  0.3400757716258553
  0.7776817723083482  0.0961663319345973  0.0895802902790592
  0.5358085005789519  0.2146265418319189  0.8201352630413226
  0.4679651733202732  0.0792477594667531  0.5673573354601160
  0.2262180201287407  0.5361354686729598  0.3415108606660695
  0.1210834172626392  0.4056333019105693  0.0736480707695293
  0.8855281725557802  0.5413535419101194  0.8370488929045123
  0.7668158542088861  0.4547460733585424  0.5706841443679096
  0.5556741845269570  0.5390149396513237  0.3221980956486163
  0.4668192255551133  0.4141235948003654  0.0725422325167813
  0.2234485525337604  0.5391262564592694  0.8481575786715112
  0.0858645041422008  0.4430218205880223  0.5722518085851362
  0.8858892438533488  0.5440485326215381  0.3284075858675095
  0.7695600808541130  0.4160871572886009  0.0746757444285322
  0.5546515510041488  0.5408661223879889  0.8255679755472087
  0.4701993437551266  0.4158385351517992  0.5730715992140389
  0.2268233906462314  0.8661844147929045  0.3324285991029328
  0.0977841638229791  0.7831523176481028  0.0792963419035004
  0.9003781508395790  0.8512390379159100  0.8197245110298468
  0.7750214678132110  0.7611331107360328  0.5775112197900754
  0.5577442160933757  0.8708169975911062  0.3219461518999793
  0.4458348869281892  0.7593459233593549  0.0789704669020566
  0.2317403820807229  0.8533835039504964  0.8327845855686888
  0.0892396847810275  0.7690913678041440  0.5647698714463729
  0.8849901922023662  0.8714990291547409  0.3258654924857325
  0.7647021529691571  0.7874558442161472  0.0688267498733026
  0.5520791622455974  0.8746971747031864  0.8260967147877736
  0.4669076405406258  0.7512306412336329  0.5684747389903180
 
  0.00000000E+00  0.00000000E+00  0.00000000E+00
  0.00000000E+00  0.00000000E+00  0.00000000E+00
  0.00000000E+00  0.00000000E+00  0.00000000E+00
  0.00000000E+00  0.00000000E+00  0.00000000E+00
  0.00000000E+00  0.00000000E+00  0.00000000E+00
  0.00000000E+00  0.00000000E+00  0.00000000E+00
  0.00000000E+00  0.00000000E+00  0.00000000E+00
  0.00000000E+00  0.00000000E+00  0.00000000E+00
  0.00000000E+00  0.00000000E+00  0.00000000E+00
  0.00000000E+00  0.00000000E+00  0.00000000E+00
  0.00000000E+00  0.00000000E+00  0.00000000E+00
  0.00000000E+00  0.00000000E+00  0.00000000E+00
  0.00000000E+00  0.00000000E+00  0.00000000E+00
  0.00000000E+00  0.00000000E+00  0.00000000E+00
  0.00000000E+00  0.00000000E+00  0.00000000E+00
  0.00000000E+00  0.00000000E+00  0.00000000E+00
  0.00000000E+00  0.00000000E+00  0.00000000E+00
  0.00000000E+00  0.00000000E+00  0.00000000E+00
  0.00000000E+00  0.00000000E+00  0.00000000E+00
  0.00000000E+00  0.00000000E+00  0.00000000E+00
  0.00000000E+00  0.00000000E+00  0.00000000E+00
  0.00000000E+00  0.00000000E+00  0.00000000E+00
  0.00000000E+00  0.00000000E+00  0.00000000E+00
  0.00000000E+00  0.00000000E+00  0.00000000E+00
  0.00000000E+00  0.00000000E+00  0.00000000E+00
  0.00000000E+00  0.00000000E+00  0.00000000E+00
  0.00000000E+00  0.00000000E+00  0.00000000E+00
  0.00000000E+00  0.00000000E+00  0.00000000E+00
  0.00000000E+00  0.00000000E+00  0.00000000E+00
  0.00000000E+00  0.00000000E+00  0.00000000E+00
  0.00000000E+00  0.00000000E+00  0.00000000E+00
  0.00000000E+00  0.00000000E+00  0.00000000E+00
  0.00000000E+00  0.00000000E+00  0.00000000E+00
  0.00000000E+00  0.00000000E+00  0.00000000E+00
  0.00000000E+00  0.00000000E+00  0.00000000E+00
  0.00000000E+00  0.00000000E+00  0.00000000E+00
  0.00000000E+00  0.00000000E+00  0.00000000E+00
  0.00000000E+00  0.00000000E+00  0.00000000E+00
  0.00000000E+00  0.00000000E+00  0.00000000E+00
  0.00000000E+00  0.00000000E+00  0.00000000E+00
  0.00000000E+00  0.00000000E+00  0.00000000E+00
  0.00000000E+00  0.00000000E+00  0.00000000E+00
  0.00000000E+00  0.00000000E+00  0.00000000E+00
  0.00000000E+00  0.00000000E+00  0.00000000E+00
  0.00000000E+00  0.00000000E+00  0.00000000E+00
  0.00000000E+00  0.00000000E+00  0.00000000E+00
  0.00000000E+00  0.00000000E+00  0.00000000E+00
  0.00000000E+00  0.00000000E+00  0.00000000E+00
  0.00000000E+00  0.00000000E+00  0.00000000E+00
  0.00000000E+00  0.00000000E+00  0.00000000E+00
  0.00000000E+00  0.00000000E+00  0.00000000E+00
  0.00000000E+00  0.00000000E+00  0.00000000E+00
  0.00000000E+00  0.00000000E+00  0.00000000E+00
  0.00000000E+00  0.00000000E+00  0.00000000E+00
  0.00000000E+00  0.00000000E+00  0.00000000E+00
  0.00000000E+00  0.00000000E+00  0.00000000E+00
  0.00000000E+00  0.00000000E+00  0.00000000E+00
  0.00000000E+00  0.00000000E+00  0.00000000E+00
  0.00000000E+00  0.00000000E+00  0.00000000E+00
  0.00000000E+00  0.00000000E+00  0.00000000E+00
  0.00000000E+00  0.00000000E+00  0.00000000E+00
  0.00000000E+00  0.00000000E+00  0.00000000E+00
  0.00000000E+00  0.00000000E+00  0.00000000E+00
  0.00000000E+00  0.00000000E+00  0.00000000E+00
  0.00000000E+00  0.00000000E+00  0.00000000E+00
  0.00000000E+00  0.00000000E+00  0.00000000E+00
  0.00000000E+00  0.00000000E+00  0.00000000E+00
  0.00000000E+00  0.00000000E+00  0.00000000E+00
  0.00000000E+00  0.00000000E+00  0.00000000E+00
  0.00000000E+00  0.00000000E+00  0.00000000E+00
  0.00000000E+00  0.00000000E+00  0.00000000E+00
  0.00000000E+00  0.00000000E+00  0.00000000E+00
