generated by phonopy                    
   1.00000000000000     
    10.0351470768999995   -0.0000022330999784   -0.0000001056124209
    -5.0175765436399997    8.6906901959899994    0.0000001395531216
    -0.0000001735893656    0.0000001431815548   14.9533752540999991
   Pb   P    O    Cu
    20    12    49     1
Direct
  0.0170867076439336  0.7872329221712775  0.1457641951633235
  0.9974182467060047  0.7740086420181100  0.6226129563025680
  0.0045682734385792  0.2640976769515717  0.3725522181820864
  0.0061139135531860  0.2689445636641423  0.8762130960371479
  0.2303621060383705  0.2305483377247342  0.1328665466973362
  0.2255271065669291  0.2268576654312398  0.6223947565226737
  0.7402829734851579  0.7412317253762666  0.3753859974808762
  0.7347049638962417  0.7604862073715850  0.8502478950001588
  0.7765757873607839  0.0027962912129595  0.1323755632639134
  0.7743245168557067  0.0084521808551656  0.6159479155943970
  0.2644770699113863  0.0015081592753248  0.3781389210328427
  0.2495806449536673  0.9975185385557026  0.8721636259532133
  0.6342667822628130  0.2853784782703386  0.0031454970174138
  0.6646215860149738  0.3308850881562435  0.5007773328388438
  0.3391716640525146  0.6654381763958241  0.0025221233778225
  0.3301923905079960  0.6701582643428168  0.5015701211011887
  0.3476069257083907  0.6611425214222351  0.2414218655877676
  0.3255995336854909  0.6629854598572109  0.7412924240381074
  0.6862576923547223  0.3460952291799089  0.2475566423262450
  0.6663517930629510  0.3364715149967168  0.7461327598465033
  0.6350489082887520  0.5904459904388304  0.1196233753110860
  0.6179378582169122  0.5941094753043430  0.6221001933497234
  0.3702399086517403  0.3928411693726943  0.3723239302385082
  0.3680000431404693  0.3984356802381797  0.8720771484795122
  0.4032349704788913  0.0195110325147070  0.1283936392593503
  0.4019880630266925  0.0290848239115391  0.6263978285770406
  0.6078798150673776  0.9736296485296805  0.3719547390884159
  0.5899604821275233  0.9691012762133369  0.8687390717790890
  0.9744742142227381  0.3773632100807447  0.1225743976116789
  0.9686745963563297  0.3790167811544123  0.6228538774507513
  0.0299232637911757  0.6334890963576782  0.3787292954520396
  0.0242330817539624  0.6421798347806913  0.8820015662119545
  0.5159345635770407  0.6504824207825379  0.1173931482397492
  0.4946783672672908  0.6445004401430197  0.6235944144253764
  0.4692583898134970  0.3134352726981575  0.3721732192965064
  0.4651121331480752  0.3168624605423176  0.8759810793045446
  0.3546948193120230  0.8460892685613217  0.1261688078153682
  0.3528922696325836  0.8550928904604689  0.6240354190862618
  0.6863076688773972  0.1516584915701600  0.3731194730547287
  0.6694456692967563  0.1475032419488045  0.8683119882797641
  0.1512659815749515  0.4941250314345282  0.1240565377375873
  0.1430267019573108  0.5027665190036572  0.6202474682083619
  0.8521762636827788  0.5320798448609168  0.3839411983578458
  0.8444681254046813  0.5479529699325951  0.8957726799537298
  0.7232542471910790  0.6536558301473434  0.5375060610261215
  0.2619716735856628  0.3490562494537670  0.4552270413505184
  0.2648258207409668  0.3665801240960462  0.9569906706418649
  0.3654208922002198  0.0729250285250913  0.0373953075939966
  0.3494354846747214  0.0772188248122561  0.5394257808952361
  0.6521920505334009  0.9098999616055181  0.4556170498216190
  0.6335165588529179  0.9066180041479512  0.9524101986118367
  0.9286254246218704  0.2671491536893598  0.0396215472130734
  0.9217270728473821  0.2732825644455659  0.5373779001405907
  0.1025860486970487  0.7362029230010734  0.4635541216781576
  0.1007562878253125  0.7514739365853913  0.9631374505851085
  0.2622883439174899  0.3481697737663296  0.2877742397549028
  0.2559769265984642  0.3460733445383894  0.7900482680421703
  0.7400525629959205  0.6579610697038589  0.2067503072210215
  0.7290378602428547  0.6624103534333372  0.7052079773011712
  0.6536395038093232  0.9103422533712759  0.2885009933583262
  0.6357067604416926  0.9078110921609692  0.7836179505314078
  0.3168011357890208  0.0516489295959417  0.2047625340965027
  0.3279552693230130  0.0668551595858133  0.7076643575751618
  0.0800386598536633  0.7476700048117380  0.2981160683504598
  0.0670393733340049  0.7430119995306157  0.7957104958790353
  0.9246136307769817  0.2717080789010637  0.2083687862468722
  0.9283850577974206  0.2729267890896807  0.7067880920581473
  0.5427775926914364  0.4082436308352726  0.1305305937939067
  0.5416524368476843  0.4143959453407149  0.6262688064451041
  0.4777840831648774  0.5739842554115597  0.3709860654953872
  0.4775539204365771  0.5794841270927762  0.8645791436479158
  0.5822673086957977  0.1221248724776984  0.1415568101535740
  0.5822341436977467  0.1322046496977691  0.6332264903548506
  0.4265550288207365  0.8989365278088286  0.3711058508434064
  0.4094893563484518  0.8954593111545250  0.8655412106909708
  0.8784774438854370  0.4616633815078117  0.1211679356433777
  0.8672696834688338  0.4581668556355822  0.6244445719655971
  0.1055595072112396  0.5289751871671626  0.3676016704162777
  0.0892573791601308  0.5287132094999336  0.8736220487495601
  0.0020146120933759  0.0047327264224322  0.1507865986646451
  0.9972969333726667  0.0003409225559921  0.6147355472627396
  0.7793941677265366  0.6135525348771935  0.0032683314107160
 
  0.00000000E+00  0.00000000E+00  0.00000000E+00
  0.00000000E+00  0.00000000E+00  0.00000000E+00
  0.00000000E+00  0.00000000E+00  0.00000000E+00
  0.00000000E+00  0.00000000E+00  0.00000000E+00
  0.00000000E+00  0.00000000E+00  0.00000000E+00
  0.00000000E+00  0.00000000E+00  0.00000000E+00
  0.00000000E+00  0.00000000E+00  0.00000000E+00
  0.00000000E+00  0.00000000E+00  0.00000000E+00
  0.00000000E+00  0.00000000E+00  0.00000000E+00
  0.00000000E+00  0.00000000E+00  0.00000000E+00
  0.00000000E+00  0.00000000E+00  0.00000000E+00
  0.00000000E+00  0.00000000E+00  0.00000000E+00
  0.00000000E+00  0.00000000E+00  0.00000000E+00
  0.00000000E+00  0.00000000E+00  0.00000000E+00
  0.00000000E+00  0.00000000E+00  0.00000000E+00
  0.00000000E+00  0.00000000E+00  0.00000000E+00
  0.00000000E+00  0.00000000E+00  0.00000000E+00
  0.00000000E+00  0.00000000E+00  0.00000000E+00
  0.00000000E+00  0.00000000E+00  0.00000000E+00
  0.00000000E+00  0.00000000E+00  0.00000000E+00
  0.00000000E+00  0.00000000E+00  0.00000000E+00
  0.00000000E+00  0.00000000E+00  0.00000000E+00
  0.00000000E+00  0.00000000E+00  0.00000000E+00
  0.00000000E+00  0.00000000E+00  0.00000000E+00
  0.00000000E+00  0.00000000E+00  0.00000000E+00
  0.00000000E+00  0.00000000E+00  0.00000000E+00
  0.00000000E+00  0.00000000E+00  0.00000000E+00
  0.00000000E+00  0.00000000E+00  0.00000000E+00
  0.00000000E+00  0.00000000E+00  0.00000000E+00
  0.00000000E+00  0.00000000E+00  0.00000000E+00
  0.00000000E+00  0.00000000E+00  0.00000000E+00
  0.00000000E+00  0.00000000E+00  0.00000000E+00
  0.00000000E+00  0.00000000E+00  0.00000000E+00
  0.00000000E+00  0.00000000E+00  0.00000000E+00
  0.00000000E+00  0.00000000E+00  0.00000000E+00
  0.00000000E+00  0.00000000E+00  0.00000000E+00
  0.00000000E+00  0.00000000E+00  0.00000000E+00
  0.00000000E+00  0.00000000E+00  0.00000000E+00
  0.00000000E+00  0.00000000E+00  0.00000000E+00
  0.00000000E+00  0.00000000E+00  0.00000000E+00
  0.00000000E+00  0.00000000E+00  0.00000000E+00
  0.00000000E+00  0.00000000E+00  0.00000000E+00
  0.00000000E+00  0.00000000E+00  0.00000000E+00
  0.00000000E+00  0.00000000E+00  0.00000000E+00
  0.00000000E+00  0.00000000E+00  0.00000000E+00
  0.00000000E+00  0.00000000E+00  0.00000000E+00
  0.00000000E+00  0.00000000E+00  0.00000000E+00
  0.00000000E+00  0.00000000E+00  0.00000000E+00
  0.00000000E+00  0.00000000E+00  0.00000000E+00
  0.00000000E+00  0.00000000E+00  0.00000000E+00
  0.00000000E+00  0.00000000E+00  0.00000000E+00
  0.00000000E+00  0.00000000E+00  0.00000000E+00
  0.00000000E+00  0.00000000E+00  0.00000000E+00
  0.00000000E+00  0.00000000E+00  0.00000000E+00
  0.00000000E+00  0.00000000E+00  0.00000000E+00
  0.00000000E+00  0.00000000E+00  0.00000000E+00
  0.00000000E+00  0.00000000E+00  0.00000000E+00
  0.00000000E+00  0.00000000E+00  0.00000000E+00
  0.00000000E+00  0.00000000E+00  0.00000000E+00
  0.00000000E+00  0.00000000E+00  0.00000000E+00
  0.00000000E+00  0.00000000E+00  0.00000000E+00
  0.00000000E+00  0.00000000E+00  0.00000000E+00
  0.00000000E+00  0.00000000E+00  0.00000000E+00
  0.00000000E+00  0.00000000E+00  0.00000000E+00
  0.00000000E+00  0.00000000E+00  0.00000000E+00
  0.00000000E+00  0.00000000E+00  0.00000000E+00
  0.00000000E+00  0.00000000E+00  0.00000000E+00
  0.00000000E+00  0.00000000E+00  0.00000000E+00
  0.00000000E+00  0.00000000E+00  0.00000000E+00
  0.00000000E+00  0.00000000E+00  0.00000000E+00
  0.00000000E+00  0.00000000E+00  0.00000000E+00
  0.00000000E+00  0.00000000E+00  0.00000000E+00
  0.00000000E+00  0.00000000E+00  0.00000000E+00
  0.00000000E+00  0.00000000E+00  0.00000000E+00
  0.00000000E+00  0.00000000E+00  0.00000000E+00
  0.00000000E+00  0.00000000E+00  0.00000000E+00
  0.00000000E+00  0.00000000E+00  0.00000000E+00
  0.00000000E+00  0.00000000E+00  0.00000000E+00
  0.00000000E+00  0.00000000E+00  0.00000000E+00
  0.00000000E+00  0.00000000E+00  0.00000000E+00
  0.00000000E+00  0.00000000E+00  0.00000000E+00
  0.00000000E+00  0.00000000E+00  0.00000000E+00
