supercell of icsd_608626.cif            
   1.11007618650226     
     9.3924119303998062   -0.2206720086965113    0.0259324827072879
    -4.8865941046883874    8.5921560125230059   -0.0326700660027802
     0.0254639163883771   -0.0250191091910174    8.9456946984075110
   Y    Al   N 
    16    20    36
Direct
  0.1621999189424130  0.0834180690656510  0.2451318948189893
  0.5533699338573399  0.1136731841237690  0.2040434047959678
  0.4369561502107260  0.2228145093349738  0.4930781163895261
  0.1653329136937458  0.1016250206794354  0.7090038085304755
  0.4153309049697071  0.2261049350854378  0.9578388513009344
  0.8893563380747480  0.4176076455862869  0.7223805907490259
  0.7945000552695163  0.5563380706916234  0.9789296082400298
  0.5550868732302874  0.4409208831654823  0.2214742677420958
  0.4677876772204002  0.5816183378656348  0.4648210483439073
  0.2476647279862974  0.4558708296202880  0.7349033002542740
  0.2323746633723545  0.7613276047710116  0.2304149053160813
  0.8612882402442139  0.7623287635159173  0.7188871606263234
  0.5953527464624742  0.8028156550580192  0.1829603667487802
  0.4702983681162038  0.9025338580521449  0.5216973784892858
  0.1139913725920962  0.8759297125310823  0.9711056910084821
  0.8206970182599562  0.9245720384959810  0.4572962447856312
  0.0654069498923420  0.2702546001118051  0.4987543203977935
  0.8662325661726413  0.1079263613004215  0.7487080276260585
  0.8016324596509250  0.2421353553917669  0.0000334302578651
  0.1016668234845497  0.2460817711770957  0.0070980529232969
  0.9031521369946773  0.1539601444144125  0.2389983702459801
  0.7614208791384058  0.2153992060031840  0.4895358860687367
  0.5829140721287160  0.0801156269710503  0.7942871040854129
  0.2116242899400476  0.4447182518206745  0.2490661912179277
  0.1171960675854891  0.5660233845388944  0.4973671928094205
  0.1075824529836780  0.5283265168425828  0.0059272161825419
  0.8990796406348736  0.4360677219867952  0.2558249628133851
  0.7742561856645125  0.5329107412865355  0.5040136282307586
  0.5514237597222404  0.4637480825962896  0.7524046527737198
  0.4260397056263230  0.5453585301044370  0.0100395884912388
  0.1167800376929264  0.8577718715289109  0.5164910032854877
  0.9026043760741942  0.9683582827526607  0.0103346358060037
  0.2145749302721001  0.7520777711692048  0.7587533576369481
  0.9219680406551163  0.7272798971596401  0.2790299481873078
  0.5798951683636346  0.7790811438073177  0.7759162565366964
  0.4140629184310995  0.8219277714269495  0.9641548513458034
  0.1755833040236183  0.0515945545072256  0.4800327426754194
  0.1052142757236609  0.2557829453936478  0.1962962394751102
  0.8917733577738503  0.1314104794847850  0.9422154446380659
  0.7424926869823025  0.1750342803338398  0.6815700563938378
  0.5628716649868863  0.1185215868891945  0.4388020219092681
  0.4084211030748577  0.2106058865886737  0.2001595414137256
  0.1409057054359266  0.0950012920205268  0.9687245663484561
  0.0586764708174385  0.2326016532845898  0.6772572114226776
  0.8868152699999285  0.1532357609093609  0.4259855004472541
  0.8042898229291353  0.2481813193314935  0.1880094942063479
  0.5929292817208207  0.1637702007281092  0.9530569513815763
  0.3986031819860472  0.2723567606432624  0.7209931866073873
  0.2049922107801336  0.4519353104922388  0.4478246481221646
  0.1003681925797295  0.5271507804860676  0.1989171836872927
  0.9127981547373025  0.4296360586388630  0.9427356469834294
  0.7531152657059508  0.5236212143567585  0.7066478359717934
  0.5787523290034216  0.4537237097975506  0.4442368578140261
  0.4217710459256949  0.5517487508065813  0.2059340142301096
  0.2207284198808566  0.4385052295374336  0.9583463015283868
  0.1359713699576943  0.5748806563662541  0.6830816464963476
  0.8867619073937121  0.4343622804147387  0.4624601358994127
  0.8127186140240639  0.5484862189062625  0.2070240829154244
  0.5434280982819288  0.4625198925756493  0.9610351205991066
  0.5029436924080244  0.5992295733224609  0.6937691015857652
  0.2205856052948931  0.7653735186697901  0.4595117624798704
  0.0929728913426686  0.8541352577533630  0.1973644987265288
  0.8754243373190036  0.7920261394933803  0.9438179495173955
  0.7731048581456790  0.9141064551688913  0.6978227118751974
  0.5824435147992730  0.8089154194038670  0.4134668195391242
  0.4550170035972627  0.8934932609692936  0.1385741140838874
  0.2061637864038417  0.7224988350696790  0.9498682893580579
  0.1206521879212588  0.8573780658609280  0.7161293359096987
  0.9002602903788173  0.7392146071229391  0.4664095570210733
  0.8541708864114597  0.9613718330663303  0.1974749452968254
  0.5249003634574478  0.7351755182040307  0.9548543906609837
  0.4502774851844862  0.8833925433685650  0.7668847777167116
 
  0.00000000E+00  0.00000000E+00  0.00000000E+00
  0.00000000E+00  0.00000000E+00  0.00000000E+00
  0.00000000E+00  0.00000000E+00  0.00000000E+00
  0.00000000E+00  0.00000000E+00  0.00000000E+00
  0.00000000E+00  0.00000000E+00  0.00000000E+00
  0.00000000E+00  0.00000000E+00  0.00000000E+00
  0.00000000E+00  0.00000000E+00  0.00000000E+00
  0.00000000E+00  0.00000000E+00  0.00000000E+00
  0.00000000E+00  0.00000000E+00  0.00000000E+00
  0.00000000E+00  0.00000000E+00  0.00000000E+00
  0.00000000E+00  0.00000000E+00  0.00000000E+00
  0.00000000E+00  0.00000000E+00  0.00000000E+00
  0.00000000E+00  0.00000000E+00  0.00000000E+00
  0.00000000E+00  0.00000000E+00  0.00000000E+00
  0.00000000E+00  0.00000000E+00  0.00000000E+00
  0.00000000E+00  0.00000000E+00  0.00000000E+00
  0.00000000E+00  0.00000000E+00  0.00000000E+00
  0.00000000E+00  0.00000000E+00  0.00000000E+00
  0.00000000E+00  0.00000000E+00  0.00000000E+00
  0.00000000E+00  0.00000000E+00  0.00000000E+00
  0.00000000E+00  0.00000000E+00  0.00000000E+00
  0.00000000E+00  0.00000000E+00  0.00000000E+00
  0.00000000E+00  0.00000000E+00  0.00000000E+00
  0.00000000E+00  0.00000000E+00  0.00000000E+00
  0.00000000E+00  0.00000000E+00  0.00000000E+00
  0.00000000E+00  0.00000000E+00  0.00000000E+00
  0.00000000E+00  0.00000000E+00  0.00000000E+00
  0.00000000E+00  0.00000000E+00  0.00000000E+00
  0.00000000E+00  0.00000000E+00  0.00000000E+00
  0.00000000E+00  0.00000000E+00  0.00000000E+00
  0.00000000E+00  0.00000000E+00  0.00000000E+00
  0.00000000E+00  0.00000000E+00  0.00000000E+00
  0.00000000E+00  0.00000000E+00  0.00000000E+00
  0.00000000E+00  0.00000000E+00  0.00000000E+00
  0.00000000E+00  0.00000000E+00  0.00000000E+00
  0.00000000E+00  0.00000000E+00  0.00000000E+00
  0.00000000E+00  0.00000000E+00  0.00000000E+00
  0.00000000E+00  0.00000000E+00  0.00000000E+00
  0.00000000E+00  0.00000000E+00  0.00000000E+00
  0.00000000E+00  0.00000000E+00  0.00000000E+00
  0.00000000E+00  0.00000000E+00  0.00000000E+00
  0.00000000E+00  0.00000000E+00  0.00000000E+00
  0.00000000E+00  0.00000000E+00  0.00000000E+00
  0.00000000E+00  0.00000000E+00  0.00000000E+00
  0.00000000E+00  0.00000000E+00  0.00000000E+00
  0.00000000E+00  0.00000000E+00  0.00000000E+00
  0.00000000E+00  0.00000000E+00  0.00000000E+00
  0.00000000E+00  0.00000000E+00  0.00000000E+00
  0.00000000E+00  0.00000000E+00  0.00000000E+00
  0.00000000E+00  0.00000000E+00  0.00000000E+00
  0.00000000E+00  0.00000000E+00  0.00000000E+00
  0.00000000E+00  0.00000000E+00  0.00000000E+00
  0.00000000E+00  0.00000000E+00  0.00000000E+00
  0.00000000E+00  0.00000000E+00  0.00000000E+00
  0.00000000E+00  0.00000000E+00  0.00000000E+00
  0.00000000E+00  0.00000000E+00  0.00000000E+00
  0.00000000E+00  0.00000000E+00  0.00000000E+00
  0.00000000E+00  0.00000000E+00  0.00000000E+00
  0.00000000E+00  0.00000000E+00  0.00000000E+00
  0.00000000E+00  0.00000000E+00  0.00000000E+00
  0.00000000E+00  0.00000000E+00  0.00000000E+00
  0.00000000E+00  0.00000000E+00  0.00000000E+00
  0.00000000E+00  0.00000000E+00  0.00000000E+00
  0.00000000E+00  0.00000000E+00  0.00000000E+00
  0.00000000E+00  0.00000000E+00  0.00000000E+00
  0.00000000E+00  0.00000000E+00  0.00000000E+00
  0.00000000E+00  0.00000000E+00  0.00000000E+00
  0.00000000E+00  0.00000000E+00  0.00000000E+00
  0.00000000E+00  0.00000000E+00  0.00000000E+00
  0.00000000E+00  0.00000000E+00  0.00000000E+00
  0.00000000E+00  0.00000000E+00  0.00000000E+00
  0.00000000E+00  0.00000000E+00  0.00000000E+00
