POSCAR                                  
   1.10700000000000     
     8.6119133064100009   -3.0225049834700002    5.1430975520900004
    -1.7957662384399999    2.9663916014899998   10.3712217776000006
    -3.4622967765100001  -11.9721471052999995    5.2363518855200004
   Al   Pr   N 
    12    42    54
Direct
  0.1940266865263425  0.1848958552498701  0.9207821082201590
  0.3122761650921859  0.2650274829050048  0.6654476730391892
  0.7547286687442138  0.2308270065049385  0.2944331673777043
  0.3020952518477955  0.6125342342753157  0.9998585878619508
  0.8666613267319363  0.6418642849718310  0.3429764961747139
  0.6452775429357089  0.8024756309636416  0.2049184180727437
  0.6537526570262884  0.1692818845874768  0.5472052475996705
  0.0958961875456268  0.1646202580496805  0.6038946588948448
  0.9456903941330879  0.4253844983273183  0.2049911050147557
  0.4140470768643425  0.7183569204431564  0.1532423474166507
  0.7221761991321287  0.6197396067161023  0.0593394360255459
  0.1839529736707277  0.8968844944811210  0.0153532849285725
  0.4505416149071664  0.3209422019147112  0.3980089162298555
  0.1897732677124395  0.5307466850921685  0.2360779953927192
  0.5187593270071318  0.4291580861444544  0.1329418578004109
  0.8389831852236753  0.3011573623991310  0.0618176788671150
  0.6451040381376743  0.4839466328297632  0.8839878741938421
  0.0082760248249372  0.3398332724712319  0.7703722661096464
  0.4239909872574827  0.6857196075082967  0.7292946988509996
  0.7619090714225862  0.5501935893492842  0.6151400147331216
  0.1000103205801750  0.4288077045359060  0.4966588084074672
  0.1992452316138653  0.8538106332032029  0.5663610853763714
  0.5567439336604068  0.7222658987464499  0.4593227827800206
  0.3476868434388152  0.9308885734207166  0.3110501384807023
  0.9647487571590645  0.6868116553143579  0.1082309106389587
  0.4072874296796698  0.9890266208732541  0.0618716443696528
  0.7455618938351520  0.8765470223761511  0.9505233382405365
  0.1025875250779436  0.7546733481536876  0.8540669135397039
  0.5159552431888912  0.0921667621320594  0.7859899218909092
  0.8963441825607674  0.9691986882705947  0.6842872989339526
  0.9687469769678998  0.0626053845002019  0.4302132286201328
  0.0697404373125394  0.1276359050439879  0.1602302195699963
  0.9773637836351625  0.0709931265215715  0.8837098987889433
  0.1903650320675965  0.2269172512113187  0.3359414339381104
  0.5440793457652120  0.1278132252299216  0.2264586723134556
  0.2836518383055093  0.3115069988447345  0.0847678898036364
  0.6138044419776492  0.1816450660355073  0.9725618926372945
  0.0559907871094509  0.4631488077992287  0.9594788190128938
  0.3820705041991914  0.3911997391572584  0.8358199756242755
  0.7556086626846579  0.2546545169987908  0.7118869187521071
  0.1795233546512023  0.5597942198695307  0.6731244983847873
  0.5127655128047408  0.4327213164464752  0.5731375916117898
  0.8526764745393862  0.3532927491056483  0.4418010541871737
  0.9570644782436588  0.7336035367319909  0.5070199563675430
  0.3134514485176396  0.6283970946723514  0.4022983101724336
  0.6570396176267295  0.5220815835677683  0.2785987936935115
  0.0978260009845258  0.8346814768059900  0.2561157498695152
  0.4980402061504066  0.7793319208501259  0.9094815589414580
  0.8546320789476383  0.6632536157326996  0.7938201210633054
  0.2690526038909837  0.9882163237931536  0.7554571039358748
  0.6431955725538927  0.8783088880342760  0.6351741934271971
  0.4137530936738614  0.0516555004689181  0.5077696566501899
  0.7390937751684845  0.9354084730409227  0.3677622870482651
  0.8429795797422770  0.9806658693265931  0.1269029621273177
  0.2369111102982373  0.3151144476584093  0.9453218509940484
  0.3403764757845451  0.4056193120740161  0.6895712986713960
  0.4998241616382231  0.4970352633607504  0.4140454126285391
  0.8260700160675256  0.3575641424759723  0.2903191166072858
  0.2786919290332648  0.6874207925317748  0.2505413961447971
  0.5684327353722551  0.5997654539863007  0.1391052852314445
  0.8679479495455240  0.4906659121159436  0.0901047184461987
  0.3318840460564516  0.7695762758549662  0.0383409077118486
  0.6978118208554065  0.6499555744785823  0.9316716557442390
  0.0320233514728798  0.5221747992352377  0.8055705288187127
  0.4657861022187291  0.8649026261078276  0.7519250058197002
  0.8037850269249560  0.7183958688568310  0.6453036248272710
  0.1413454928017259  0.6025903073081977  0.5202867604481156
  0.2233187512198924  0.0280245675265434  0.6007094848043053
  0.5885364458117053  0.8954949963252119  0.4932816630620422
  0.9195468842639798  0.7815288315799123  0.3515234500264981
  0.3833215315920810  0.1113653379244468  0.3539876099263921
  0.6678963072711994  0.9419080363425181  0.2326903800146667
  0.0471292136883434  0.8673682668925906  0.1113439683864641
  0.4509618928341439  0.1555742188319300  0.1005358941174563
  0.7963447092647584  0.0458540109801646  0.9800128754475850
  0.1497120897195003  0.9140760265916512  0.8933558575878351
  0.5695535005460926  0.2558494951790991  0.8247760152357131
  0.9676935898656609  0.1363817316382168  0.7166798263964509
  0.7024658507545851  0.3064741662476820  0.5669805659049558
  0.0396185463824779  0.2165073079640791  0.4815341408541585
  0.0970216990344923  0.3102611477984709  0.1912294496039877
  0.0137061218135344  0.2430468917289730  0.9302074211929252
  0.1590103413941151  0.2936782971279612  0.6250013304044728
  0.2514224664584290  0.3958239402989250  0.3602850515091305
  0.5973651592666300  0.2997030263037743  0.2610894568339077
  0.9720500187143699  0.5584042466659795  0.2448504189790128
  0.3254499021034647  0.4889678531324648  0.0961651803052774
  0.6604721540722238  0.3458856415422105  0.0094370846977441
  0.1367837713379814  0.6160605214966637  0.9864792371552724
  0.4277947290116941  0.5854441651052227  0.8850386006617441
  0.8021590396207472  0.4233124263368140  0.7515461082095314
  0.2267354968016306  0.7288540325494282  0.7048077687950425
  0.5592660041147468  0.6014160666410504  0.6049554170258631
  0.8863651052227226  0.5398336475778009  0.4606725406531851
  0.9971885130918281  0.9070914745640621  0.5386545204771807
  0.3544827218026256  0.7972656238571503  0.4396698470846019
  0.7008558137313017  0.6931375188837734  0.3148351064136463
  0.1350905010052159  0.0179299102958623  0.2936699777914100
  0.4761173068016618  0.8383151030084761  0.1835127078788119
  0.7580666162010630  0.7546737235562588  0.0930182225310006
  0.2097240147470316  0.0535638959296350  0.0195526032833726
  0.5480871884950957  0.9649083936085674  0.9224189760115422
  0.9044015978609963  0.8336547631034250  0.8199017623123908
  0.2949467058249127  0.1667075459156706  0.7889514311385639
  0.6963790882897172  0.0593334259825085  0.6533846730249380
  0.4673628591203141  0.2099577469370573  0.5651690854073621
  0.7449404887949527  0.1382597855168157  0.4184553908374440
  0.8491594289238407  0.1420023224663041  0.1935418739187824
 
  0.00000000E+00  0.00000000E+00  0.00000000E+00
  0.00000000E+00  0.00000000E+00  0.00000000E+00
  0.00000000E+00  0.00000000E+00  0.00000000E+00
  0.00000000E+00  0.00000000E+00  0.00000000E+00
  0.00000000E+00  0.00000000E+00  0.00000000E+00
  0.00000000E+00  0.00000000E+00  0.00000000E+00
  0.00000000E+00  0.00000000E+00  0.00000000E+00
  0.00000000E+00  0.00000000E+00  0.00000000E+00
  0.00000000E+00  0.00000000E+00  0.00000000E+00
  0.00000000E+00  0.00000000E+00  0.00000000E+00
  0.00000000E+00  0.00000000E+00  0.00000000E+00
  0.00000000E+00  0.00000000E+00  0.00000000E+00
  0.00000000E+00  0.00000000E+00  0.00000000E+00
  0.00000000E+00  0.00000000E+00  0.00000000E+00
  0.00000000E+00  0.00000000E+00  0.00000000E+00
  0.00000000E+00  0.00000000E+00  0.00000000E+00
  0.00000000E+00  0.00000000E+00  0.00000000E+00
  0.00000000E+00  0.00000000E+00  0.00000000E+00
  0.00000000E+00  0.00000000E+00  0.00000000E+00
  0.00000000E+00  0.00000000E+00  0.00000000E+00
  0.00000000E+00  0.00000000E+00  0.00000000E+00
  0.00000000E+00  0.00000000E+00  0.00000000E+00
  0.00000000E+00  0.00000000E+00  0.00000000E+00
  0.00000000E+00  0.00000000E+00  0.00000000E+00
  0.00000000E+00  0.00000000E+00  0.00000000E+00
  0.00000000E+00  0.00000000E+00  0.00000000E+00
  0.00000000E+00  0.00000000E+00  0.00000000E+00
  0.00000000E+00  0.00000000E+00  0.00000000E+00
  0.00000000E+00  0.00000000E+00  0.00000000E+00
  0.00000000E+00  0.00000000E+00  0.00000000E+00
  0.00000000E+00  0.00000000E+00  0.00000000E+00
  0.00000000E+00  0.00000000E+00  0.00000000E+00
  0.00000000E+00  0.00000000E+00  0.00000000E+00
  0.00000000E+00  0.00000000E+00  0.00000000E+00
  0.00000000E+00  0.00000000E+00  0.00000000E+00
  0.00000000E+00  0.00000000E+00  0.00000000E+00
  0.00000000E+00  0.00000000E+00  0.00000000E+00
  0.00000000E+00  0.00000000E+00  0.00000000E+00
  0.00000000E+00  0.00000000E+00  0.00000000E+00
  0.00000000E+00  0.00000000E+00  0.00000000E+00
  0.00000000E+00  0.00000000E+00  0.00000000E+00
  0.00000000E+00  0.00000000E+00  0.00000000E+00
  0.00000000E+00  0.00000000E+00  0.00000000E+00
  0.00000000E+00  0.00000000E+00  0.00000000E+00
  0.00000000E+00  0.00000000E+00  0.00000000E+00
  0.00000000E+00  0.00000000E+00  0.00000000E+00
  0.00000000E+00  0.00000000E+00  0.00000000E+00
  0.00000000E+00  0.00000000E+00  0.00000000E+00
  0.00000000E+00  0.00000000E+00  0.00000000E+00
  0.00000000E+00  0.00000000E+00  0.00000000E+00
  0.00000000E+00  0.00000000E+00  0.00000000E+00
  0.00000000E+00  0.00000000E+00  0.00000000E+00
  0.00000000E+00  0.00000000E+00  0.00000000E+00
  0.00000000E+00  0.00000000E+00  0.00000000E+00
  0.00000000E+00  0.00000000E+00  0.00000000E+00
  0.00000000E+00  0.00000000E+00  0.00000000E+00
  0.00000000E+00  0.00000000E+00  0.00000000E+00
  0.00000000E+00  0.00000000E+00  0.00000000E+00
  0.00000000E+00  0.00000000E+00  0.00000000E+00
  0.00000000E+00  0.00000000E+00  0.00000000E+00
  0.00000000E+00  0.00000000E+00  0.00000000E+00
  0.00000000E+00  0.00000000E+00  0.00000000E+00
  0.00000000E+00  0.00000000E+00  0.00000000E+00
  0.00000000E+00  0.00000000E+00  0.00000000E+00
  0.00000000E+00  0.00000000E+00  0.00000000E+00
  0.00000000E+00  0.00000000E+00  0.00000000E+00
  0.00000000E+00  0.00000000E+00  0.00000000E+00
  0.00000000E+00  0.00000000E+00  0.00000000E+00
  0.00000000E+00  0.00000000E+00  0.00000000E+00
  0.00000000E+00  0.00000000E+00  0.00000000E+00
  0.00000000E+00  0.00000000E+00  0.00000000E+00
  0.00000000E+00  0.00000000E+00  0.00000000E+00
  0.00000000E+00  0.00000000E+00  0.00000000E+00
  0.00000000E+00  0.00000000E+00  0.00000000E+00
  0.00000000E+00  0.00000000E+00  0.00000000E+00
  0.00000000E+00  0.00000000E+00  0.00000000E+00
  0.00000000E+00  0.00000000E+00  0.00000000E+00
  0.00000000E+00  0.00000000E+00  0.00000000E+00
  0.00000000E+00  0.00000000E+00  0.00000000E+00
  0.00000000E+00  0.00000000E+00  0.00000000E+00
  0.00000000E+00  0.00000000E+00  0.00000000E+00
  0.00000000E+00  0.00000000E+00  0.00000000E+00
  0.00000000E+00  0.00000000E+00  0.00000000E+00
  0.00000000E+00  0.00000000E+00  0.00000000E+00
  0.00000000E+00  0.00000000E+00  0.00000000E+00
  0.00000000E+00  0.00000000E+00  0.00000000E+00
  0.00000000E+00  0.00000000E+00  0.00000000E+00
  0.00000000E+00  0.00000000E+00  0.00000000E+00
  0.00000000E+00  0.00000000E+00  0.00000000E+00
  0.00000000E+00  0.00000000E+00  0.00000000E+00
  0.00000000E+00  0.00000000E+00  0.00000000E+00
  0.00000000E+00  0.00000000E+00  0.00000000E+00
  0.00000000E+00  0.00000000E+00  0.00000000E+00
  0.00000000E+00  0.00000000E+00  0.00000000E+00
  0.00000000E+00  0.00000000E+00  0.00000000E+00
  0.00000000E+00  0.00000000E+00  0.00000000E+00
  0.00000000E+00  0.00000000E+00  0.00000000E+00
  0.00000000E+00  0.00000000E+00  0.00000000E+00
  0.00000000E+00  0.00000000E+00  0.00000000E+00
  0.00000000E+00  0.00000000E+00  0.00000000E+00
  0.00000000E+00  0.00000000E+00  0.00000000E+00
  0.00000000E+00  0.00000000E+00  0.00000000E+00
  0.00000000E+00  0.00000000E+00  0.00000000E+00
  0.00000000E+00  0.00000000E+00  0.00000000E+00
  0.00000000E+00  0.00000000E+00  0.00000000E+00
  0.00000000E+00  0.00000000E+00  0.00000000E+00
  0.00000000E+00  0.00000000E+00  0.00000000E+00
  0.00000000E+00  0.00000000E+00  0.00000000E+00
