Zn   Mo   N                             
   1.00000000000000     
     5.2193855392862805   -0.0000010500789225    0.0000005470767906
    -0.0324846086275575   -5.7642367748164896   -0.0000000144132972
     0.0000012771688762    0.0000034252953704   -6.6871601513140941
   Zn   Mo   N 
     6     2     8
Direct
  0.1686067030268699  0.8224810582835018  0.2434135375203547
  0.1686062821401656  0.8224809788898187  0.7465877302685185
  0.6510362975406937  0.6565810573379005  0.9950003143173447
  0.6557789592659047  0.1571332746620796  0.7427026658814432
  0.6557786986991222  0.1571331028626057  0.2472968991320725
  0.1684885534013408  0.3256610812536556  0.4949999915146440
  0.1564869486912714  0.3203430555277592  0.9949997406757560
  0.6736622721701155  0.6595720180252889  0.4950000092419847
  0.0662033972731194  0.1632314001728086  0.7564517043504815
  0.0662034856669189  0.1632313768765379  0.2335475488819582
  0.0647205033151189  0.6358100094194755  0.9950002112506131
  0.5623819729968185  0.8148864486162254  0.2601728178392853
  0.5623819352280202  0.8148862846324417  0.7298273257348672
  0.5368585146182467  0.3178242964606836  0.9949997073168243
  0.0320466748687298  0.6615836620775241  0.4950001573826792
  0.5627920616228287  0.3471608400228375  0.4949997064401873
 
             NaN             NaN             NaN
             NaN             NaN             NaN
             NaN             NaN             NaN
             NaN             NaN             NaN
             NaN             NaN             NaN
             NaN             NaN             NaN
             NaN             NaN             NaN
             NaN             NaN             NaN
             NaN             NaN             NaN
             NaN             NaN             NaN
             NaN             NaN             NaN
             NaN             NaN             NaN
             NaN             NaN             NaN
             NaN             NaN             NaN
             NaN             NaN             NaN
             NaN             NaN             NaN
