Zn   Mo   N
1.0
  6.665206257214163 5.955161635e-07 -3.5384181948e-06
  -3.3349855e-08 -5.740280738753993 -0.0814571642019021
  3.980566762e-07 2.6189160291e-06 5.427007862508272
 Zn  Mo  N 
6 2 8 
direct
   -0.2345947604591524   0.8258131217812349   0.0700493166300559
   -0.7554051860674557   0.8258128142473153   0.0700485008116844
   -0.9950009569394683   0.6522302605550001   0.5456152669782202
   -0.7469179734931424   0.1568159849012211   0.5511102261791085
   -0.2430824318350526   0.1568162876730870   0.5511098523015879
   -0.4950001975303230   0.3247072601434096   0.1446509180854425
   -0.9949996668632966   0.3191204284268226   0.0413191021539086
   -0.4949999297011363   0.6593873363401460   0.6971303763208516
   -0.7628122306584606   0.1639045760861080   0.1566131408509096
   -0.2271872798385234   0.1639050591970978   0.1566130018668741
   -0.9949997378787747   0.6307723656486575   0.1574895597139201
   -0.2540461270017342   0.8181911310289106   0.6327974220882068
   -0.7359540535389016   0.8181905230644583   0.6327975633557757
   -0.9949998724892442   0.3195953554230445   0.6943479865823066
   -0.4949997076730974   0.6555229887601902   0.0587671306372846
   -0.4949999557956822   0.3492144518382858   0.5913964277439970
