Zn   Mo   N                             
   1.00000000000000     
     5.5113063803962952    0.0000021602916601    0.0000004166841905
    -0.1000063216997742   -5.7311052323782254   -0.0000000309827852
    -0.0326113131457653   -0.0100761430312263   -6.6367353368783473
   Zn   Mo   N 
     6     2     8
Direct
  0.1307073205958110  0.8205074619110474  0.2408900714893385
  0.0565501613808116  0.8255499484247285  0.7538871952413168
  0.5470449137904770  0.6486852021130514  0.9922327570678653
  0.5486295844408940  0.1556823583732346  0.7507396969233424
  0.5584078147328330  0.1615271738500485  0.2418755016213149
  0.1678199287607329  0.3320921425099461  0.4955674465321911
  0.0414611644352621  0.3179431723610265  0.9939967405455498
  0.6896229342367781  0.6605114521623131  0.4935817140865442
  0.1557653097173198  0.1610795023440380  0.7631919555582543
  0.1553893645912813  0.1656192146830300  0.2261132902945922
  0.1597611712379644  0.6288137926679238  0.9895600740816239
  0.5933640741897730  0.8160775928279109  0.2604892479419380
  0.6372053365997613  0.8201778580207312  0.7374314400032006
  0.6963768471033970  0.3204424005868993  0.9949756907251273
  0.0427430375502238  0.6528796150701937  0.4883340398215225
  0.5710082452336619  0.3524110572089641  0.4971332058296550
 
             NaN             NaN             NaN
             NaN             NaN             NaN
             NaN             NaN             NaN
             NaN             NaN             NaN
             NaN             NaN             NaN
             NaN             NaN             NaN
             NaN             NaN             NaN
             NaN             NaN             NaN
             NaN             NaN             NaN
             NaN             NaN             NaN
             NaN             NaN             NaN
             NaN             NaN             NaN
             NaN             NaN             NaN
             NaN             NaN             NaN
             NaN             NaN             NaN
             NaN             NaN             NaN
