Zn   Mo   N
1.0
  6.687160151314094 -3.4252953704e-06 -1.2771688762e-06
  -1.44132972e-08 -5.7642367748164896 -0.0324846086275575
  5.470767906e-07 -1.0500789225e-06 5.2193855392862805
 Zn  Mo  N 
6 2 8 
direct
   -0.2434135375203547   0.8224810582835019   0.1686067030268699
   -0.7465877302685183   0.8224809788898189   0.1686062821401656
   -0.9950003143173446   0.6565810573379006   0.6510362975406937
   -0.7427026658814430   0.1571332746620796   0.6557789592659047
   -0.2472968991320725   0.1571331028626057   0.6557786986991222
   -0.4949999915146440   0.3256610812536556   0.1684885534013408
   -0.9949997406757558   0.3203430555277592   0.1564869486912714
   -0.4950000092419847   0.6595720180252890   0.6736622721701155
   -0.7564517043504815   0.1632314001728086   0.0662033972731194
   -0.2335475488819582   0.1632313768765379   0.0662034856669189
   -0.9950002112506129   0.6358100094194756   0.0647205033151189
   -0.2601728178392853   0.8148864486162255   0.5623819729968185
   -0.7298273257348670   0.8148862846324418   0.5623819352280202
   -0.9949997073168243   0.3178242964606836   0.5368585146182469
   -0.4950001573826792   0.6615836620775241   0.0320466748687298
   -0.4949997064401873   0.3471608400228376   0.5627920616228286
