Zn   Mo   N
1.0
  6.6648857192937 5.817229308e-07 -3.1010738438e-06
  -2.15145063e-08 -5.740027567061476 -0.0818200322934052
  4.911942477e-07 3.257941843e-07 5.4279401275726755
 Zn  Mo  N 
6 2 8 
direct
   -0.2469498928543889   0.8231724509141314   0.1679229818444241
   -0.7430497843330587   0.8231726866097894   0.1679220969726685
   -0.9950001332485149   0.6552117060960357   0.5741542957055892
   -0.7346216010570404   0.1541983579552548   0.6488851490744163
   -0.2553804610579952   0.1541984627728761   0.6488871884427014
   -0.4949999794134920   0.3278263031685539   0.1733434435675786
   -0.9949996909405322   0.3206068164575070   0.0219226690158525
   -0.4949997589955195   0.6608860727791643   0.6776663306999767
   -0.7540490458228933   0.1618068084694579   0.0862497451392688
   -0.2359503186316199   0.1618067597824028   0.0862499057202707
   -0.9949996309439471   0.6307804836775099   0.1277267303731082
   -0.2628174198365879   0.8160967569584271   0.5623613258518354
   -0.7271820890978445   0.8160964818022839   0.5623610715849907
   -0.9950003888736956   0.3244875854855536   0.6603234211853525
   -0.4949996169869550   0.6604191741785965   0.0245938951760616
   -0.4950002556549318   0.3492330380136063   0.5614629569825628
