Zn   Mo   N
1.0
  6.718830886285899 3.5031800947e-06 -2.1311575353e-06
  -3.80839944e-08 -5.786109699856029 -0.0363294338643501
  3.608016476e-07 3.5361647669e-06 5.1938865167167005
 Zn  Mo  N 
6 2 8 
direct
   -0.2421417583154465   0.8233528888432886   0.0748590611938310
   -0.7478577812101438   0.8233528545782565   0.0748583232048100
   -0.9949997859800019   0.6528981151348463   0.5496772021238961
   -0.7443358200544165   0.1580847017796666   0.5497095175606173
   -0.2456650271661375   0.1580843316036968   0.5497091965110595
   -0.4950001639509609   0.3235731583166647   0.0804006059231823
   -0.9950000614507454   0.3207181787405333   0.0442444899071753
   -0.4949998457515452   0.6595779933507856   0.6355179158287418
   -0.7608537879668923   0.1653102316883139   0.1535683230273472
   -0.2291464819386625   0.1653103685998236   0.1535682448087774
   -0.9949998476722619   0.6330969983891407   0.1527150523150638
   -0.2533392021951972   0.8184046243308557   0.6388182015355460
   -0.7366602824122842   0.8184048420130839   0.6388181845215734
   -0.9950002526101838   0.3187390543800881   0.6843499229210974
   -0.4949998419479265   0.6623508172807502   0.1295770300696164
   -0.4950001271406628   0.3387407860851536   0.6414644288151080
