Zn   Mo   N
1.0
  6.57479891337605 5.36119168e-08 3.488448152e-07
  -4.75522733e-08 -5.68976799750226 -5.6920186559e-06
  2.862915904e-07 5.3706622427e-06 5.3680332295756
 Zn  Mo  N 
6 2 8 
direct
   -0.2435636844206783   0.8220968349103328   0.9920929750492817
   -0.7464364397947989   0.8220966859754384   0.9920931577017598
   -0.9950007549171148   0.6559889322876842   0.4932957148887597
   -0.7435634609536167   0.1578989090651248   0.4920916451421534
   -0.2464360591504970   0.1578991005452365   0.4920916862754723
   -0.4950008136285007   0.3240147377790166   0.9932957974408865
   -0.9949999860586800   0.3197161522066310   0.9935374639858379
   -0.4949999338986047   0.6602842384174537   0.4935380908898850
   -0.7580210428359494   0.1632481386819080   0.1095225753290876
   -0.2319788923611625   0.1632483483276346   0.1095224382086215
   -0.9949998565779979   0.6328284209578995   0.1100211961599626
   -0.2580210168772652   0.8167523954535483   0.6095236967317633
   -0.7319788395795328   0.8167521566248864   0.6095236177043120
   -0.9949997605436069   0.3185434299882957   0.6440163670869837
   -0.4949998313722547   0.6614584683307142   0.1440170525579276
   -0.4949997626846638   0.3471729365714964   0.6100205255858526
