Zn   Mo   N 
   1.00000000000000     
   5.3680093836501799  -0.0000024259520293   0.0000006029593335
   0.0000025717872146  -5.6897494873769601  -0.0000000073120880
  -0.0000007393343162  -0.0000000078396955  -6.5747886514719900
Zn   Mo   N 
6  2  8  
Direct
  0.2268892352046805  0.8220971026567554  0.2435643888933470  
  0.2268900986181777  0.8220971406326569  0.7464351747595614  
  0.7257047458295176  0.6559958706292122  0.9950010175387902  
  0.7268901767507003  0.1578989576832868  0.7435639789008022  
  0.7268907100184236  0.1578986039416392  0.2464356700065125  
  0.2257070040145095  0.3240057537076808  0.4950008509057326  
  0.2254594424652794  0.3197159560880465  0.9949999565949312  
  0.7254591834175415  0.6602852117765323  0.4949999534424236  
  0.1094725216492805  0.1632495045651865  0.7580207861210724  
  0.1094727696001669  0.1632497561611004  0.2319791538994664  
  0.1089772237200393  0.6328304587752527  0.9949997373482092  
  0.6094713893829677  0.8167513258247823  0.2580208130645829  
  0.6094717884547833  0.8167510997420635  0.7319791386803729  
  0.5749848591505469  0.3185458737646272  0.9949998412025208  
  0.0749843743703522  0.6614559911136411  0.4949998068022410  
  0.6089782057762037  0.3471713929375113  0.4949997318392221  
