Zn   Mo   N                             
   1.00000000000000     
     5.5891659093984787    0.0000012430429222    0.0000004539392191
    -0.0788918800955851   -5.7304900908201075   -0.0000000262486458
     0.0445524329943306   -0.0003352895628599   -6.6079880512001230
   Zn   Mo   N 
     6     2     8
Direct
  0.1697386030745428  0.8201403437567831  0.2520620691688064
  0.1552541734530885  0.8142308471918154  0.7420245878006606
  0.5530808742667553  0.6437692310913108  0.9946190678318638
  0.5491567423688372  0.1635917645078209  0.7497321575422323
  0.6102303026272730  0.1610159323330874  0.2459048743378612
  0.1655914872451484  0.3354388176252923  0.4927940799977334
  0.0385946802822450  0.3168497282093394  0.9943008027314816
  0.6777019360423381  0.6636869184473438  0.4941840099314824
  0.1526219315886484  0.1625551932995691  0.7622505479812243
  0.1173015158853574  0.1629025495336689  0.2314408637522983
  0.1572674252315924  0.6242680680720027  0.9979554973246894
  0.5657671708989126  0.8186596022653025  0.2614597935950917
  0.5677779804812036  0.8144401654809039  0.7263155222156271
  0.6906983023775494  0.3233494865311829  0.9883274939589416
  0.0222905592118826  0.6595869280209185  0.4950561296435051
  0.5588816344948840  0.3555143687295539  0.4915725699422359
 
             NaN             NaN             NaN
             NaN             NaN             NaN
             NaN             NaN             NaN
             NaN             NaN             NaN
             NaN             NaN             NaN
             NaN             NaN             NaN
             NaN             NaN             NaN
             NaN             NaN             NaN
             NaN             NaN             NaN
             NaN             NaN             NaN
             NaN             NaN             NaN
             NaN             NaN             NaN
             NaN             NaN             NaN
             NaN             NaN             NaN
             NaN             NaN             NaN
             NaN             NaN             NaN
