Zn   Mo   N
1.0
  6.607988051200123 0.0003352895628599 -0.0445524329943306
  -2.62486458e-08 -5.7304900908201075 -0.0788918800955851
  4.539392191e-07 1.2430429222e-06 5.589165909398479
 Zn  Mo  N 
6 2 8 
direct
   -0.2520620691688064   0.8201403437567831   0.1697386030745428
   -0.7420245878006607   0.8142308471918155   0.1552541734530885
   -0.9946190678318640   0.6437692310913107   0.5530808742667553
   -0.7497321575422323   0.1635917645078209   0.5491567423688373
   -0.2459048743378612   0.1610159323330874   0.6102303026272731
   -0.4927940799977333   0.3354388176252923   0.1655914872451484
   -0.9943008027314817   0.3168497282093394   0.0385946802822450
   -0.4941840099314825   0.6636869184473440   0.6777019360423382
   -0.7622505479812244   0.1625551932995691   0.1526219315886484
   -0.2314408637522983   0.1629025495336689   0.1173015158853574
   -0.9979554973246894   0.6242680680720029   0.1572674252315924
   -0.2614597935950917   0.8186596022653025   0.5657671708989127
   -0.7263155222156272   0.8144401654809040   0.5677779804812038
   -0.9883274939589417   0.3233494865311829   0.6906983023775494
   -0.4950561296435050   0.6595869280209185   0.0222905592118826
   -0.4915725699422359   0.3555143687295539   0.5588816344948841
