Zn   Mo   N
1.0
  6.569421434897382 -3.57202914e-07 -5.8512358725e-06
  4.28181339e-08 5.685811289378199 -0.0028262662402003
  3.23546619e-07 4.4534135048e-06 5.375610467896959
 Zn  Mo  N 
6 2 8 
direct
   -0.2436534245683797  -0.8220464481526749   0.0376979787068174
   -0.7463459271907604  -0.8220461265023520   0.0376975043603376
   -0.9950013918987080  -0.6560234893664694   0.5390719633540628
   -0.7436748207816737  -0.1579978165119890   0.5378901997710820
   -0.2463245340248545  -0.1579976088702674   0.5378899989595871
   -0.4950011357139804  -0.3240498616266542   0.0388275850584612
   -0.9950000099207469  -0.3197062407083583   0.0396329576052173
   -0.4950000561839614  -0.6603113637635879   0.5394155348384483
   -0.7579475707258648  -0.1631367712273192   0.1558505228640169
   -0.2320525192054892  -0.1631373459579783   0.1558502433034525
   -0.9949996229910666  -0.6328386046023320   0.1563522886593824
   -0.2580060538302004  -0.8167959433527696   0.6557967852218768
   -0.7319942100084280  -0.8167954149614990   0.6557962390237005
   -0.9949996365836676  -0.3185994745737167   0.6905499022016106
   -0.4949995898336124  -0.6613736014583423   0.1903995508404475
   -0.4949995738962005  -0.3471438347358519   0.6562926337710376
