generated by phonopy                    
   1.00000000000000     
    10.0351470768999995   -0.0000022330999784   -0.0000001056124209
    -5.0175765436399997    8.6906901959899994    0.0000001395531216
    -0.0000001735893656    0.0000001431815548   14.9533752540999991
   Pb   P    O 
    19    12    50
Direct
  0.9967009941628149  0.7719987340337795  0.1267682687520519
  0.9966076488806905  0.7722355577456526  0.6207746764564490
  0.0039961029210502  0.2636466984320762  0.8735916137702588
  0.2477448829554803  0.2349915182791733  0.1346969360323627
  0.2468819601445844  0.2348966209901846  0.6118582199427252
  0.7429105641613347  0.7451746569084463  0.3737727467413521
  0.7363316053673330  0.7416489272919620  0.8734990535321856
  0.7734501003196996  0.0082051691480416  0.1344281864023600
  0.7736577666600368  0.0086500782855339  0.6133311303120550
  0.2697483278077399  0.9978172386816553  0.3735954735770264
  0.2570893645755916  0.9952691667242277  0.8734596888672002
  0.6681170533499170  0.3319492018582011  0.9987732449477065
  0.6876375401190771  0.3301815429494823  0.4975383955645682
  0.3366345990559267  0.6675139279826965  0.0046159847536842
  0.3137346262453988  0.6369101046601884  0.4975940183802976
  0.3139793959126962  0.6356864656118617  0.2494114418068349
  0.3364411073272606  0.6669138292289745  0.7425707674477096
  0.6880932035942635  0.3303505269244624  0.2506031006414986
  0.6670261648420208  0.3315404199354717  0.7489822388575860
  0.6225132815128518  0.5942911710489014  0.1232654777054876
  0.6222823747224524  0.5944568978806970  0.6246972438417799
  0.3796031177067221  0.3961362872711547  0.3734259448893198
  0.3710647773800702  0.3953583825614757  0.8741227906238294
  0.4027735875650436  0.0232346311916913  0.1228901452686699
  0.4026434247559578  0.0234455907972873  0.6253035339760800
  0.6013477126211555  0.9691782142436836  0.3736644305446006
  0.6008684488539799  0.9709581652012531  0.8738893096333555
  0.9655964341822738  0.3753434669202704  0.1159859987183651
  0.9653007908981479  0.3750038168747949  0.6316817152430829
  0.0272736564770923  0.6426449070680533  0.3740430572115372
  0.0258617133045647  0.6318864610373609  0.8739198015337948
  0.5009390523371025  0.6473383074966677  0.1230490614941928
  0.5006166585910705  0.6474726694842161  0.6240271787527263
  0.4876281522745813  0.3272264260589068  0.3734028097031796
  0.4765200996824888  0.3228754864792123  0.8741684523720608
  0.3374217932240953  0.8462008953714957  0.1231792301197672
  0.3377011178113136  0.8464604731979364  0.6245806927520121
  0.6523936872981295  0.1426508269553395  0.3739916539903021
  0.6751006568159994  0.1491173984237477  0.8739508350520566
  0.1450599027642383  0.4746791448898691  0.1203948657686951
  0.1446696204545361  0.4753478729060348  0.6267281044570510
  0.8491382033216652  0.5301520139172240  0.3744943885685004
  0.8474288597826245  0.5253417549724588  0.8740368685064155
  0.7244709308457260  0.6460405898907879  0.0368912649288688
  0.7345659879111963  0.6631886875009840  0.5428329889786383
  0.2768100455200369  0.3514956213958200  0.4590374356027880
  0.2649321344249742  0.3490934421019745  0.9587019786338047
  0.3528086550623755  0.0790123672149505  0.0378056179299904
  0.3408189830098678  0.0729190732388929  0.5420283495639850
  0.6574008341574000  0.9165826468671625  0.4571725255963131
  0.6455546542444281  0.9091238504507402  0.9582102558338335
  0.9105028048510277  0.2792359388826640  0.0275708180308030
  0.9005606108727306  0.2618977127092563  0.5503191817586384
  0.0777476363843093  0.7513739894517499  0.4583248656432346
  0.0851267587157309  0.7391454072602741  0.9580155577465774
  0.2766619395512535  0.3514679561146039  0.2877854479254580
  0.2638490966047016  0.3476489370019280  0.7900162589530453
  0.7348885004031800  0.6644469223703808  0.2050093324527680
  0.7243070580927125  0.6478905571459919  0.7110508517721286
  0.6592218389677100  0.9177529658649348  0.2904061817731289
  0.6475541245475895  0.9097309373283551  0.7900960207873382
  0.3396375819133155  0.0720762507911701  0.2058555597858884
  0.3512442537036762  0.0781953049663144  0.7102227986279459
  0.0754219295417116  0.7535048843193977  0.2908012264587683
  0.0841524232559649  0.7408029912518828  0.7904647157396383
  0.9012649547587515  0.2607489027618257  0.1966478215811520
  0.9115715850540198  0.2765059570799195  0.7193255059276211
  0.5387788870666199  0.4128227385255698  0.1293764734583078
  0.5386862503918195  0.4130074625084532  0.6198021403589280
  0.4770055905532473  0.5804961773010362  0.3734037241169617
  0.4742649688919940  0.5778964871875800  0.8735575955541108
  0.5836567067367042  0.1142969138353109  0.1274371582828024
  0.5835610169016263  0.1148751740068477  0.6217055729597405
  0.4183626010358381  0.8756450383240875  0.3730608573317795
  0.4187918030012696  0.8940908288535283  0.8731496239647498
  0.8887365083287477  0.4783315861253925  0.1211170544440350
  0.8875895599479691  0.4773011821710966  0.6285995614030071
  0.1158641482688125  0.5520739659712888  0.3727857785417044
  0.1054348979951527  0.5293589557847937  0.8729390315801808
  0.0122358874395871  0.0283799121951986  0.1274397383677908
  0.0116825112417303  0.0271310288248188  0.6184128968132327
 
  0.00000000E+00  0.00000000E+00  0.00000000E+00
  0.00000000E+00  0.00000000E+00  0.00000000E+00
  0.00000000E+00  0.00000000E+00  0.00000000E+00
  0.00000000E+00  0.00000000E+00  0.00000000E+00
  0.00000000E+00  0.00000000E+00  0.00000000E+00
  0.00000000E+00  0.00000000E+00  0.00000000E+00
  0.00000000E+00  0.00000000E+00  0.00000000E+00
  0.00000000E+00  0.00000000E+00  0.00000000E+00
  0.00000000E+00  0.00000000E+00  0.00000000E+00
  0.00000000E+00  0.00000000E+00  0.00000000E+00
  0.00000000E+00  0.00000000E+00  0.00000000E+00
  0.00000000E+00  0.00000000E+00  0.00000000E+00
  0.00000000E+00  0.00000000E+00  0.00000000E+00
  0.00000000E+00  0.00000000E+00  0.00000000E+00
  0.00000000E+00  0.00000000E+00  0.00000000E+00
  0.00000000E+00  0.00000000E+00  0.00000000E+00
  0.00000000E+00  0.00000000E+00  0.00000000E+00
  0.00000000E+00  0.00000000E+00  0.00000000E+00
  0.00000000E+00  0.00000000E+00  0.00000000E+00
  0.00000000E+00  0.00000000E+00  0.00000000E+00
  0.00000000E+00  0.00000000E+00  0.00000000E+00
  0.00000000E+00  0.00000000E+00  0.00000000E+00
  0.00000000E+00  0.00000000E+00  0.00000000E+00
  0.00000000E+00  0.00000000E+00  0.00000000E+00
  0.00000000E+00  0.00000000E+00  0.00000000E+00
  0.00000000E+00  0.00000000E+00  0.00000000E+00
  0.00000000E+00  0.00000000E+00  0.00000000E+00
  0.00000000E+00  0.00000000E+00  0.00000000E+00
  0.00000000E+00  0.00000000E+00  0.00000000E+00
  0.00000000E+00  0.00000000E+00  0.00000000E+00
  0.00000000E+00  0.00000000E+00  0.00000000E+00
  0.00000000E+00  0.00000000E+00  0.00000000E+00
  0.00000000E+00  0.00000000E+00  0.00000000E+00
  0.00000000E+00  0.00000000E+00  0.00000000E+00
  0.00000000E+00  0.00000000E+00  0.00000000E+00
  0.00000000E+00  0.00000000E+00  0.00000000E+00
  0.00000000E+00  0.00000000E+00  0.00000000E+00
  0.00000000E+00  0.00000000E+00  0.00000000E+00
  0.00000000E+00  0.00000000E+00  0.00000000E+00
  0.00000000E+00  0.00000000E+00  0.00000000E+00
  0.00000000E+00  0.00000000E+00  0.00000000E+00
  0.00000000E+00  0.00000000E+00  0.00000000E+00
  0.00000000E+00  0.00000000E+00  0.00000000E+00
  0.00000000E+00  0.00000000E+00  0.00000000E+00
  0.00000000E+00  0.00000000E+00  0.00000000E+00
  0.00000000E+00  0.00000000E+00  0.00000000E+00
  0.00000000E+00  0.00000000E+00  0.00000000E+00
  0.00000000E+00  0.00000000E+00  0.00000000E+00
  0.00000000E+00  0.00000000E+00  0.00000000E+00
  0.00000000E+00  0.00000000E+00  0.00000000E+00
  0.00000000E+00  0.00000000E+00  0.00000000E+00
  0.00000000E+00  0.00000000E+00  0.00000000E+00
  0.00000000E+00  0.00000000E+00  0.00000000E+00
  0.00000000E+00  0.00000000E+00  0.00000000E+00
  0.00000000E+00  0.00000000E+00  0.00000000E+00
  0.00000000E+00  0.00000000E+00  0.00000000E+00
  0.00000000E+00  0.00000000E+00  0.00000000E+00
  0.00000000E+00  0.00000000E+00  0.00000000E+00
  0.00000000E+00  0.00000000E+00  0.00000000E+00
  0.00000000E+00  0.00000000E+00  0.00000000E+00
  0.00000000E+00  0.00000000E+00  0.00000000E+00
  0.00000000E+00  0.00000000E+00  0.00000000E+00
  0.00000000E+00  0.00000000E+00  0.00000000E+00
  0.00000000E+00  0.00000000E+00  0.00000000E+00
  0.00000000E+00  0.00000000E+00  0.00000000E+00
  0.00000000E+00  0.00000000E+00  0.00000000E+00
  0.00000000E+00  0.00000000E+00  0.00000000E+00
  0.00000000E+00  0.00000000E+00  0.00000000E+00
  0.00000000E+00  0.00000000E+00  0.00000000E+00
  0.00000000E+00  0.00000000E+00  0.00000000E+00
  0.00000000E+00  0.00000000E+00  0.00000000E+00
  0.00000000E+00  0.00000000E+00  0.00000000E+00
  0.00000000E+00  0.00000000E+00  0.00000000E+00
  0.00000000E+00  0.00000000E+00  0.00000000E+00
  0.00000000E+00  0.00000000E+00  0.00000000E+00
  0.00000000E+00  0.00000000E+00  0.00000000E+00
  0.00000000E+00  0.00000000E+00  0.00000000E+00
  0.00000000E+00  0.00000000E+00  0.00000000E+00
  0.00000000E+00  0.00000000E+00  0.00000000E+00
  0.00000000E+00  0.00000000E+00  0.00000000E+00
  0.00000000E+00  0.00000000E+00  0.00000000E+00
