P    Zn   N                             
   1.00000000000000     
     0.1454850630551680   -0.0000031358383630    4.9851943621699997
    -4.7570524638114779    2.7777352626081595    0.0000022724141034
    -4.7616124641960935   -2.7587943917308322    0.2449283303937243
   P    Zn   N 
     2     4     6
Direct
  0.8976900993281864  0.8037825037330375  0.1960212529693771
  0.2994389876799232  0.1336045075542151  0.8665224139180528
  0.7933742401806992  0.4725028925773394  0.8542111790031338
  0.7928865350640337  0.1452679890982163  0.5271203319395308
  0.3199641747933104  0.4623521886417363  0.1996825216746346
  0.3196535831106083  0.8003332751547257  0.5380110640587138
  0.9470983555598044  0.1054763080843550  0.8943467680730403
  0.3727266244616458  0.8489219395470587  0.1514284622341321
  0.8835515848771652  0.5199638930267200  0.1857777514977716
  0.8837862546572817  0.8142395228188622  0.4797014746173429
  0.3886799509568928  0.1373110915949053  0.5775727101219801
  0.3889598082598910  0.4228373559418361  0.8630011002322765
 
             NaN             NaN             NaN
             NaN             NaN             NaN
             NaN             NaN             NaN
             NaN             NaN             NaN
             NaN             NaN             NaN
             NaN             NaN             NaN
             NaN             NaN             NaN
             NaN             NaN             NaN
             NaN             NaN             NaN
             NaN             NaN             NaN
             NaN             NaN             NaN
             NaN             NaN             NaN
