P    Zn   N                             
   1.00000000000000     
     0.0219114916753586   -0.0000037463289789    4.9851943621699997
    -4.7055311907333062    2.7576565394473400    0.0000017194274568
    -4.7133391445890567   -2.7443660764381863    0.0281927900386322
   P    Zn   N 
     2     4     6
Direct
  0.8074542213957139  0.8128665973603051  0.1870904110119886
  0.3079210017530254  0.1315432234035495  0.8684213035426411
  0.7941540778823430  0.4777430781324836  0.8518228304491161
  0.7939485947781446  0.1480584669312596  0.5222147054598382
  0.2934802161570215  0.4662420530817817  0.2042589002458196
  0.2936819264733288  0.7956323120245102  0.5336979384772514
  0.9623508874548423  0.0905978227319869  0.9093779381762481
  0.4621721688285972  0.8542149753656386  0.1457696564844029
  0.8897397356620429  0.5244156505146882  0.1871097658165254
  0.8898900045674325  0.8129970473689734  0.4755993209416000
  0.3901141072477770  0.1317316876764975  0.5795750791538271
  0.3902604103180635  0.4204586468604929  0.8683768554481894
 
             NaN             NaN             NaN
             NaN             NaN             NaN
             NaN             NaN             NaN
             NaN             NaN             NaN
             NaN             NaN             NaN
             NaN             NaN             NaN
             NaN             NaN             NaN
             NaN             NaN             NaN
             NaN             NaN             NaN
             NaN             NaN             NaN
             NaN             NaN             NaN
             NaN             NaN             NaN
