Al   B    N                             
   1.00000000000000     
    -9.3852715325644418   -0.0957736093240989    0.0488578578540722
    -4.5702271363319751    7.9290806828215690    0.0234736137316715
     0.0384904222523110    0.0623443180544271   -9.9204914282796199
   Al   B    N 
    31     5    36
Direct
  0.1148193873986258  0.0947189660421799  0.3377205051501164
  0.2168233590455912  0.2069345326504148  0.1051161991050691
  0.7712807890171618  0.0960462015166925  0.8861636948626597
  0.4434751721420014  0.1037287946669068  0.3935981869401246
  0.1110464161258022  0.1076240906565644  0.8116646124901692
  0.8764373952469242  0.2013822929857199  0.1486264446858669
  0.4419032780814263  0.0978046490227555  0.9018942077871444
  0.1097177537655583  0.4258957827727272  0.3986252945200306
  0.2174777053185295  0.5390967976652732  0.1551072435749177
  0.7752606105669670  0.4240871447934893  0.8979357491231710
  0.8937172863834775  0.5240453354233097  0.6500535223784496
  0.4440048416697167  0.4198225791434780  0.3976869149177844
  0.5556010156608835  0.5294169056386906  0.1509162539894575
  0.1021931059756582  0.4355063208340439  0.9062637561833213
  0.2219904268966388  0.5303051374347021  0.6533513476342918
  0.7770239139095665  0.4162441025751491  0.4035140131729165
  0.8829890724058060  0.5417499458572905  0.1557046033846774
  0.4394252284715705  0.4237543090955924  0.9022152006688700
  0.5579107220490442  0.5244935514251452  0.6549891309424254
  0.1144865741255927  0.7628465753790650  0.4033110949786760
  0.2259597340243360  0.8656204247643160  0.1502418581904337
  0.7759877208758326  0.7630370668385851  0.9017266379615165
  0.8988420551606922  0.8729273737082437  0.6463914123809928
  0.4526409969059770  0.7562355239232943  0.4012242945273528
  0.5560685574381239  0.8813893317700945  0.1536348933166778
  0.1067356446922432  0.7677381158151491  0.9004404361723957
  0.2386256553729709  0.8657357632946088  0.6417237577436836
  0.7774785148669494  0.7716208466817349  0.4037961723113455
  0.8813446749666412  0.8894903837670469  0.1501994200564454
  0.4392554075531336  0.7644357724178832  0.9006946246534469
  0.5555508545536298  0.8789636379356196  0.6520729971200296
  0.8402193159043492  0.2256069328976764  0.6502130268829518
  0.5038561516898312  0.2307731010119269  0.1645473823428034
  0.2301483048351614  0.2056975418191769  0.5988572268838439
  0.8483464572579749  0.0715498221092332  0.4226286463653040
  0.4879613858414942  0.2375476951484927  0.6649656695616457
  0.2252738839512105  0.2077985318736424  0.3508904614611339
  0.1036775224525783  0.0950018168631743  0.1391471167104257
  0.8728850494209368  0.2100946532162382  0.8032194654207032
  0.8318640742840060  0.0906243568294158  0.5717855622943446
  0.5293616510022190  0.2203628108510216  0.3096529411947060
  0.4537433205764856  0.1110163534183570  0.0952631210633257
  0.2154207438427136  0.2047306490270699  0.8990531911386554
  0.1642017916775700  0.0964108775997872  0.6245281453405909
  0.8813763131058039  0.1913598548833377  0.3458022546600361
  0.7745839837168091  0.0983319784720820  0.0705979515518536
  0.5418166813114667  0.2093099027222678  0.8114016595926188
  0.4312968759264422  0.1241718985702605  0.5972393762248700
  0.2179889767572689  0.5426574580246424  0.3460997596294035
  0.0969282091894854  0.4415983107842294  0.0974039810933078
  0.8852768560668594  0.5376632439310072  0.8403604663519602
  0.7813672209066951  0.4014229703082250  0.5953152137966242
  0.5580058519532187  0.5321504986422170  0.3436797016848701
  0.4428756061262646  0.4082991197463244  0.0948303875116139
  0.2191620085564310  0.5395335080106634  0.8432392641257778
  0.1234688635614631  0.4004767483971676  0.5957911960167905
  0.8843979166347395  0.5399805812910756  0.3496365357616824
  0.7747945186645993  0.4264486743004383  0.0906022110145273
  0.5519578008466226  0.5357368062286199  0.8453909384164220
  0.4488187590457713  0.4006178458986369  0.5969451522609361
  0.2341816802596313  0.8617207561333515  0.3467952449085274
  0.1075311954744791  0.7622699650017211  0.0929898299282073
  0.8881466436028660  0.8710803883653284  0.8350019648130598
  0.7807965988682355  0.7603792330363106  0.5937535687208140
  0.5581128975402052  0.8756520314901053  0.3460118305600091
  0.4453365696642493  0.7611994059944180  0.0930343985821054
  0.2215796211845671  0.8718353922103859  0.8361321667659496
  0.1211778129672538  0.7525557616834959  0.5923831105478001
  0.8857391431768349  0.9020694701993506  0.3541128790972508
  0.7751612873561697  0.7666237561872506  0.0964082094173619
  0.5541887174150446  0.8745518777873613  0.8431743091078019
  0.4602928944808014  0.7473651154991856  0.5921445100079410
 
  0.00000000E+00  0.00000000E+00  0.00000000E+00
  0.00000000E+00  0.00000000E+00  0.00000000E+00
  0.00000000E+00  0.00000000E+00  0.00000000E+00
  0.00000000E+00  0.00000000E+00  0.00000000E+00
  0.00000000E+00  0.00000000E+00  0.00000000E+00
  0.00000000E+00  0.00000000E+00  0.00000000E+00
  0.00000000E+00  0.00000000E+00  0.00000000E+00
  0.00000000E+00  0.00000000E+00  0.00000000E+00
  0.00000000E+00  0.00000000E+00  0.00000000E+00
  0.00000000E+00  0.00000000E+00  0.00000000E+00
  0.00000000E+00  0.00000000E+00  0.00000000E+00
  0.00000000E+00  0.00000000E+00  0.00000000E+00
  0.00000000E+00  0.00000000E+00  0.00000000E+00
  0.00000000E+00  0.00000000E+00  0.00000000E+00
  0.00000000E+00  0.00000000E+00  0.00000000E+00
  0.00000000E+00  0.00000000E+00  0.00000000E+00
  0.00000000E+00  0.00000000E+00  0.00000000E+00
  0.00000000E+00  0.00000000E+00  0.00000000E+00
  0.00000000E+00  0.00000000E+00  0.00000000E+00
  0.00000000E+00  0.00000000E+00  0.00000000E+00
  0.00000000E+00  0.00000000E+00  0.00000000E+00
  0.00000000E+00  0.00000000E+00  0.00000000E+00
  0.00000000E+00  0.00000000E+00  0.00000000E+00
  0.00000000E+00  0.00000000E+00  0.00000000E+00
  0.00000000E+00  0.00000000E+00  0.00000000E+00
  0.00000000E+00  0.00000000E+00  0.00000000E+00
  0.00000000E+00  0.00000000E+00  0.00000000E+00
  0.00000000E+00  0.00000000E+00  0.00000000E+00
  0.00000000E+00  0.00000000E+00  0.00000000E+00
  0.00000000E+00  0.00000000E+00  0.00000000E+00
  0.00000000E+00  0.00000000E+00  0.00000000E+00
  0.00000000E+00  0.00000000E+00  0.00000000E+00
  0.00000000E+00  0.00000000E+00  0.00000000E+00
  0.00000000E+00  0.00000000E+00  0.00000000E+00
  0.00000000E+00  0.00000000E+00  0.00000000E+00
  0.00000000E+00  0.00000000E+00  0.00000000E+00
  0.00000000E+00  0.00000000E+00  0.00000000E+00
  0.00000000E+00  0.00000000E+00  0.00000000E+00
  0.00000000E+00  0.00000000E+00  0.00000000E+00
  0.00000000E+00  0.00000000E+00  0.00000000E+00
  0.00000000E+00  0.00000000E+00  0.00000000E+00
  0.00000000E+00  0.00000000E+00  0.00000000E+00
  0.00000000E+00  0.00000000E+00  0.00000000E+00
  0.00000000E+00  0.00000000E+00  0.00000000E+00
  0.00000000E+00  0.00000000E+00  0.00000000E+00
  0.00000000E+00  0.00000000E+00  0.00000000E+00
  0.00000000E+00  0.00000000E+00  0.00000000E+00
  0.00000000E+00  0.00000000E+00  0.00000000E+00
  0.00000000E+00  0.00000000E+00  0.00000000E+00
  0.00000000E+00  0.00000000E+00  0.00000000E+00
  0.00000000E+00  0.00000000E+00  0.00000000E+00
  0.00000000E+00  0.00000000E+00  0.00000000E+00
  0.00000000E+00  0.00000000E+00  0.00000000E+00
  0.00000000E+00  0.00000000E+00  0.00000000E+00
  0.00000000E+00  0.00000000E+00  0.00000000E+00
  0.00000000E+00  0.00000000E+00  0.00000000E+00
  0.00000000E+00  0.00000000E+00  0.00000000E+00
  0.00000000E+00  0.00000000E+00  0.00000000E+00
  0.00000000E+00  0.00000000E+00  0.00000000E+00
  0.00000000E+00  0.00000000E+00  0.00000000E+00
  0.00000000E+00  0.00000000E+00  0.00000000E+00
  0.00000000E+00  0.00000000E+00  0.00000000E+00
  0.00000000E+00  0.00000000E+00  0.00000000E+00
  0.00000000E+00  0.00000000E+00  0.00000000E+00
  0.00000000E+00  0.00000000E+00  0.00000000E+00
  0.00000000E+00  0.00000000E+00  0.00000000E+00
  0.00000000E+00  0.00000000E+00  0.00000000E+00
  0.00000000E+00  0.00000000E+00  0.00000000E+00
  0.00000000E+00  0.00000000E+00  0.00000000E+00
  0.00000000E+00  0.00000000E+00  0.00000000E+00
  0.00000000E+00  0.00000000E+00  0.00000000E+00
  0.00000000E+00  0.00000000E+00  0.00000000E+00
