Al   B    N                             
   1.00000000000000     
    -9.2859165949621012   -0.0698512359283104    0.0075977936595953
    -4.6338273691944476    7.8957481528174940    0.0162041742644040
     0.0510528468776892    0.1693378171764839  -10.1900075149142442
   Al   B    N 
    31     5    36
Direct
  0.1092024525608863  0.0906865901411251  0.3274950122164313
  0.2222699152894592  0.2088256839926572  0.0714787978853622
  0.7785374987585811  0.0903446845912086  0.7970863837145572
  0.4548174387609052  0.0968048965089707  0.3980694273238612
  0.1200970549514082  0.0995055864546117  0.8025022365719963
  0.8801340634333670  0.2084924729314466  0.1400528774746874
  0.4536774353350310  0.0949683849466894  0.8877026928858811
  0.1129669938530569  0.4249619872685955  0.3253945373606015
  0.2204261708906401  0.5351660026802918  0.0706095185116382
  0.7793257911970670  0.4311413073759311  0.8866442938717043
  0.8837617003389582  0.5359795808007703  0.6342257853298179
  0.4549607609263049  0.4119746398822670  0.3858174806504593
  0.5554244512444555  0.5312774725407294  0.1387214673468549
  0.1220717985324882  0.4187806600543738  0.8139428371309378
  0.2151980903203210  0.5347898392045991  0.5656694812583183
  0.7773042984585672  0.4084812374955149  0.3945093314774581
  0.8812783391692989  0.5385424084892279  0.1421516489528756
  0.4534347411178388  0.4183435540381737  0.8888417846693741
  0.5541945682826892  0.5291164928630749  0.6408873290864037
  0.1035431754702500  0.7682064289866446  0.3143212644189575
  0.2143002536813725  0.8791497517104858  0.0653213406319537
  0.7760237070232279  0.7582308080433648  0.8879276455210530
  0.8889232836977925  0.8961414237900129  0.5525210499939561
  0.4509059550811045  0.7544994727850423  0.3878249522696535
  0.5546297124032051  0.8786251141933334  0.1399818210760486
  0.1067386126760184  0.7650210813860312  0.8139735516438833
  0.2236097770719425  0.8784632687234648  0.5691480030983982
  0.7707499561437814  0.7627281179134044  0.3843355886513038
  0.8839449383087796  0.8807616184803635  0.0685335382725683
  0.4469739183465151  0.7610710522840591  0.8855212812627329
  0.5627746080015825  0.8785067775322091  0.6377620921041967
  0.8452137255753840  0.2364645731423280  0.6544759420328177
  0.5518723988035177  0.2037806236062281  0.1440643853808865
  0.1740931961052468  0.2270161775605075  0.5563729391580026
  0.7715180793308889  0.0898162542112999  0.2974886569698896
  0.5053835945123240  0.2293469279585381  0.6448583857148478
  0.2086206940277364  0.2106985580037630  0.4058329855782077
  0.1172131594721151  0.0942974264076284  0.1370905922208436
  0.8827792949004873  0.2233729605125134  0.8067778439557429
  0.8160873011139742  0.1030628797154449  0.6181702438475369
  0.5613501876786628  0.1988472926077804  0.3045327597956629
  0.4639879898602999  0.1062586783464639  0.0798303103000535
  0.2195652560188535  0.2061070918245846  0.8871974540545366
  0.1584412877617396  0.0967902118000907  0.6229979665970831
  0.8704586116198314  0.1925579156552502  0.3260662960989507
  0.7561922223059412  0.0969804145012034  0.1353271563443599
  0.5405031902780237  0.2139645131199259  0.7971326735187176
  0.4939600222460925  0.0981218398373400  0.5779395350910477
  0.2151373175142126  0.5435319011571664  0.3795120116859820
  0.1161339995907014  0.4236896003948374  0.1385391300505177
  0.8874856087035212  0.5428824403139174  0.8218693416171305
  0.7839239276980337  0.4047987967314413  0.5840458702541156
  0.5554071282214963  0.5329510246028377  0.3271239507901313
  0.4630982379560180  0.3962377333858385  0.0804160614456819
  0.2175850571281259  0.5413265945980967  0.8799559520149884
  0.1222322453910891  0.3992854880656367  0.6203959480775652
  0.8775969076448717  0.5349976676445038  0.3319597772608631
  0.7774356696402691  0.4253689734762389  0.0720116603851224
  0.5540695015284527  0.5382490705853016  0.8270149387780350
  0.4540860297133733  0.4011482480624764  0.5806297038974080
  0.2178428769397840  0.8697941863298482  0.3819073613482118
  0.1096161570340044  0.7621667494105253  0.1280576519908436
  0.8866521218296910  0.8823521917871275  0.8794656693339746
  0.7854572192880340  0.7583715795623149  0.5720405715423666
  0.5473976760816086  0.8784902405650854  0.3263161764218907
  0.4488740238086706  0.7585022714728424  0.0763515813797895
  0.2122643731536158  0.8812473070429476  0.8747667336031029
  0.1132077193199592  0.7594302990646824  0.6265997339435074
  0.8706910657448930  0.9018763297038532  0.3607237913292067
  0.7740470628678366  0.7564537240382592  0.0771433996382882
  0.5556250700614456  0.8745542532482560  0.8249234488875246
  0.4613322290125552  0.7514874213971581  0.5770869715922231
 
  0.00000000E+00  0.00000000E+00  0.00000000E+00
  0.00000000E+00  0.00000000E+00  0.00000000E+00
  0.00000000E+00  0.00000000E+00  0.00000000E+00
  0.00000000E+00  0.00000000E+00  0.00000000E+00
  0.00000000E+00  0.00000000E+00  0.00000000E+00
  0.00000000E+00  0.00000000E+00  0.00000000E+00
  0.00000000E+00  0.00000000E+00  0.00000000E+00
  0.00000000E+00  0.00000000E+00  0.00000000E+00
  0.00000000E+00  0.00000000E+00  0.00000000E+00
  0.00000000E+00  0.00000000E+00  0.00000000E+00
  0.00000000E+00  0.00000000E+00  0.00000000E+00
  0.00000000E+00  0.00000000E+00  0.00000000E+00
  0.00000000E+00  0.00000000E+00  0.00000000E+00
  0.00000000E+00  0.00000000E+00  0.00000000E+00
  0.00000000E+00  0.00000000E+00  0.00000000E+00
  0.00000000E+00  0.00000000E+00  0.00000000E+00
  0.00000000E+00  0.00000000E+00  0.00000000E+00
  0.00000000E+00  0.00000000E+00  0.00000000E+00
  0.00000000E+00  0.00000000E+00  0.00000000E+00
  0.00000000E+00  0.00000000E+00  0.00000000E+00
  0.00000000E+00  0.00000000E+00  0.00000000E+00
  0.00000000E+00  0.00000000E+00  0.00000000E+00
  0.00000000E+00  0.00000000E+00  0.00000000E+00
  0.00000000E+00  0.00000000E+00  0.00000000E+00
  0.00000000E+00  0.00000000E+00  0.00000000E+00
  0.00000000E+00  0.00000000E+00  0.00000000E+00
  0.00000000E+00  0.00000000E+00  0.00000000E+00
  0.00000000E+00  0.00000000E+00  0.00000000E+00
  0.00000000E+00  0.00000000E+00  0.00000000E+00
  0.00000000E+00  0.00000000E+00  0.00000000E+00
  0.00000000E+00  0.00000000E+00  0.00000000E+00
  0.00000000E+00  0.00000000E+00  0.00000000E+00
  0.00000000E+00  0.00000000E+00  0.00000000E+00
  0.00000000E+00  0.00000000E+00  0.00000000E+00
  0.00000000E+00  0.00000000E+00  0.00000000E+00
  0.00000000E+00  0.00000000E+00  0.00000000E+00
  0.00000000E+00  0.00000000E+00  0.00000000E+00
  0.00000000E+00  0.00000000E+00  0.00000000E+00
  0.00000000E+00  0.00000000E+00  0.00000000E+00
  0.00000000E+00  0.00000000E+00  0.00000000E+00
  0.00000000E+00  0.00000000E+00  0.00000000E+00
  0.00000000E+00  0.00000000E+00  0.00000000E+00
  0.00000000E+00  0.00000000E+00  0.00000000E+00
  0.00000000E+00  0.00000000E+00  0.00000000E+00
  0.00000000E+00  0.00000000E+00  0.00000000E+00
  0.00000000E+00  0.00000000E+00  0.00000000E+00
  0.00000000E+00  0.00000000E+00  0.00000000E+00
  0.00000000E+00  0.00000000E+00  0.00000000E+00
  0.00000000E+00  0.00000000E+00  0.00000000E+00
  0.00000000E+00  0.00000000E+00  0.00000000E+00
  0.00000000E+00  0.00000000E+00  0.00000000E+00
  0.00000000E+00  0.00000000E+00  0.00000000E+00
  0.00000000E+00  0.00000000E+00  0.00000000E+00
  0.00000000E+00  0.00000000E+00  0.00000000E+00
  0.00000000E+00  0.00000000E+00  0.00000000E+00
  0.00000000E+00  0.00000000E+00  0.00000000E+00
  0.00000000E+00  0.00000000E+00  0.00000000E+00
  0.00000000E+00  0.00000000E+00  0.00000000E+00
  0.00000000E+00  0.00000000E+00  0.00000000E+00
  0.00000000E+00  0.00000000E+00  0.00000000E+00
  0.00000000E+00  0.00000000E+00  0.00000000E+00
  0.00000000E+00  0.00000000E+00  0.00000000E+00
  0.00000000E+00  0.00000000E+00  0.00000000E+00
  0.00000000E+00  0.00000000E+00  0.00000000E+00
  0.00000000E+00  0.00000000E+00  0.00000000E+00
  0.00000000E+00  0.00000000E+00  0.00000000E+00
  0.00000000E+00  0.00000000E+00  0.00000000E+00
  0.00000000E+00  0.00000000E+00  0.00000000E+00
  0.00000000E+00  0.00000000E+00  0.00000000E+00
  0.00000000E+00  0.00000000E+00  0.00000000E+00
  0.00000000E+00  0.00000000E+00  0.00000000E+00
  0.00000000E+00  0.00000000E+00  0.00000000E+00
