supercell of 100% icsd_608626.cif, 0% i 
   1.00000000000000     
    -9.2858722362746366   -0.0000543531440510    0.0002497183543805
    -4.6428842505459809    8.0512897405934467    0.0032735723453679
     0.0002561302111961   -0.0038864253029917   -9.9235638662210182
   Al   Be   Si   N 
    30     3     3    36
Direct
  0.1140143939181399  0.0952341884833956  0.2929886182910906
  0.2306221302307492  0.2042342675423399  0.0510186916181752
  0.7714509339179756  0.0978027073183654  0.8003170609884833
  0.8874573682086080  0.2065932081860140  0.5420843605873031
  0.1118039681508520  0.0969795166508831  0.7960976106641766
  0.2234561962925312  0.2051636165046276  0.5379781127217527
  0.7661878669051916  0.1000833463373070  0.2907307087024407
  0.8845681597402546  0.2048068156211968  0.0469442379847749
  0.4462235245708399  0.0971413675327568  0.8028300990707962
  0.1184213136812886  0.4246392329757711  0.2936935377001078
  0.2309025454875950  0.5322116063558298  0.0510308999772562
  0.7780544107813441  0.4285789757907068  0.7956896393228305
  0.8894076379527434  0.5364898403208684  0.5421476689401317
  0.5519836547517514  0.5351216809153527  0.0540527731918061
  0.1129477754391104  0.4272320596058279  0.7965957163580200
  0.2250519299983083  0.5351911410827910  0.5377351193008053
  0.7741304243604716  0.4276057867492469  0.2938685831643468
  0.8891437640010835  0.5390918854481654  0.0465407475844088
  0.4452097737058480  0.4224089738177170  0.8017986645792163
  0.5578062016553105  0.5316531362608288  0.5391774731094543
  0.1138902065489376  0.7576372010704446  0.2934153607061916
  0.2247051200852610  0.8714219954969380  0.0483224698567142
  0.7769890183966481  0.7609622044714683  0.7978192517494023
  0.8879082261976166  0.8738848599548774  0.5421144256756278
  0.4447780722131540  0.7581108246459323  0.2973594201593599
  0.5517918424418014  0.8811890814827592  0.0547184371831619
  0.1128000394063733  0.7575608387188595  0.7966117251015419
  0.2192665169274406  0.8749567523748354  0.5435729323720864
  0.7762848131505820  0.7620549534549639  0.2961356997733375
  0.8845763076401667  0.8775250592411368  0.0475602342716712
  0.4368694187717352  0.1135557151393272  0.2882311059114571
  0.5524353289841031  0.2077505574701632  0.0532821317853092
  0.4425094688457420  0.4257048742362954  0.2886854140432931
  0.5553577989961767  0.2048435123212755  0.5361241590888852
  0.4464422992182051  0.7621992442340684  0.7973969616369274
  0.5581695310826547  0.8736703740573120  0.5409812591258500
  0.2302725756359649  0.2015817328766047  0.3506080794782420
  0.1112081401886371  0.0944770879144912  0.1008639127858544
  0.8884519400196922  0.2053743272843036  0.8526551825271298
  0.7642076374336497  0.1007607584705426  0.6017643802207502
  0.5468997041601753  0.2084665117615430  0.3620074515180960
  0.4496291641592123  0.0992068434563294  0.1116333372792511
  0.2240494744186350  0.2048914654324463  0.8547501254004857
  0.1111205901137282  0.0950846866765787  0.6045827800409072
  0.8885682106460280  0.2041593167757156  0.3527283504519829
  0.7694840051803027  0.0985823928348566  0.1020612174696183
  0.5552253046184958  0.2051469621626083  0.8618209539845267
  0.4572580824417969  0.0870661208336401  0.6020636695122050
  0.2296734064640091  0.5360569199879706  0.3502505585034186
  0.1100913686791856  0.4284590515901172  0.1029274325711143
  0.8886211257334153  0.5398977517501038  0.8529619737929792
  0.7764422874587211  0.4281203148612818  0.6047596857096735
  0.5511363167620758  0.5353637465350758  0.3527416828363172
  0.4500692422524679  0.4181461747723390  0.1086082409748457
  0.2233329866188782  0.5384866887779509  0.8555687487725478
  0.1123024575285427  0.4269100909122372  0.6039805023175191
  0.8903705494078622  0.5373980715587052  0.3530611492942768
  0.7773722507344303  0.4284223903007316  0.1019193356479562
  0.5480062985595353  0.5525508770428544  0.8501849349199730
  0.4508409108661056  0.4123220971718027  0.6049903225761355
  0.2222850225619695  0.8724704788799329  0.3554934157383443
  0.1110882988649990  0.7617277102782367  0.1010912502209393
  0.8885620946328316  0.8727154472302843  0.8521966778616914
  0.7659862946939455  0.7672489490861025  0.6030317865238075
  0.5551136406879067  0.8695961856709928  0.3669511157351479
  0.4459630206716341  0.7616149687227960  0.1068281827320874
  0.2359784835057468  0.8658651897165086  0.8498119191704703
  0.1124554306924637  0.7595491023853072  0.6047180356871991
  0.8881426575809073  0.8734759688672611  0.3535083610434526
  0.7763482042695955  0.7617632556317062  0.1046795393770594
  0.5492621165666662  0.8674444221305677  0.8542382811842657
  0.4505627225331921  0.7683045377888433  0.6123061138414414
 
  0.00000000E+00  0.00000000E+00  0.00000000E+00
  0.00000000E+00  0.00000000E+00  0.00000000E+00
  0.00000000E+00  0.00000000E+00  0.00000000E+00
  0.00000000E+00  0.00000000E+00  0.00000000E+00
  0.00000000E+00  0.00000000E+00  0.00000000E+00
  0.00000000E+00  0.00000000E+00  0.00000000E+00
  0.00000000E+00  0.00000000E+00  0.00000000E+00
  0.00000000E+00  0.00000000E+00  0.00000000E+00
  0.00000000E+00  0.00000000E+00  0.00000000E+00
  0.00000000E+00  0.00000000E+00  0.00000000E+00
  0.00000000E+00  0.00000000E+00  0.00000000E+00
  0.00000000E+00  0.00000000E+00  0.00000000E+00
  0.00000000E+00  0.00000000E+00  0.00000000E+00
  0.00000000E+00  0.00000000E+00  0.00000000E+00
  0.00000000E+00  0.00000000E+00  0.00000000E+00
  0.00000000E+00  0.00000000E+00  0.00000000E+00
  0.00000000E+00  0.00000000E+00  0.00000000E+00
  0.00000000E+00  0.00000000E+00  0.00000000E+00
  0.00000000E+00  0.00000000E+00  0.00000000E+00
  0.00000000E+00  0.00000000E+00  0.00000000E+00
  0.00000000E+00  0.00000000E+00  0.00000000E+00
  0.00000000E+00  0.00000000E+00  0.00000000E+00
  0.00000000E+00  0.00000000E+00  0.00000000E+00
  0.00000000E+00  0.00000000E+00  0.00000000E+00
  0.00000000E+00  0.00000000E+00  0.00000000E+00
  0.00000000E+00  0.00000000E+00  0.00000000E+00
  0.00000000E+00  0.00000000E+00  0.00000000E+00
  0.00000000E+00  0.00000000E+00  0.00000000E+00
  0.00000000E+00  0.00000000E+00  0.00000000E+00
  0.00000000E+00  0.00000000E+00  0.00000000E+00
  0.00000000E+00  0.00000000E+00  0.00000000E+00
  0.00000000E+00  0.00000000E+00  0.00000000E+00
  0.00000000E+00  0.00000000E+00  0.00000000E+00
  0.00000000E+00  0.00000000E+00  0.00000000E+00
  0.00000000E+00  0.00000000E+00  0.00000000E+00
  0.00000000E+00  0.00000000E+00  0.00000000E+00
  0.00000000E+00  0.00000000E+00  0.00000000E+00
  0.00000000E+00  0.00000000E+00  0.00000000E+00
  0.00000000E+00  0.00000000E+00  0.00000000E+00
  0.00000000E+00  0.00000000E+00  0.00000000E+00
  0.00000000E+00  0.00000000E+00  0.00000000E+00
  0.00000000E+00  0.00000000E+00  0.00000000E+00
  0.00000000E+00  0.00000000E+00  0.00000000E+00
  0.00000000E+00  0.00000000E+00  0.00000000E+00
  0.00000000E+00  0.00000000E+00  0.00000000E+00
  0.00000000E+00  0.00000000E+00  0.00000000E+00
  0.00000000E+00  0.00000000E+00  0.00000000E+00
  0.00000000E+00  0.00000000E+00  0.00000000E+00
  0.00000000E+00  0.00000000E+00  0.00000000E+00
  0.00000000E+00  0.00000000E+00  0.00000000E+00
  0.00000000E+00  0.00000000E+00  0.00000000E+00
  0.00000000E+00  0.00000000E+00  0.00000000E+00
  0.00000000E+00  0.00000000E+00  0.00000000E+00
  0.00000000E+00  0.00000000E+00  0.00000000E+00
  0.00000000E+00  0.00000000E+00  0.00000000E+00
  0.00000000E+00  0.00000000E+00  0.00000000E+00
  0.00000000E+00  0.00000000E+00  0.00000000E+00
  0.00000000E+00  0.00000000E+00  0.00000000E+00
  0.00000000E+00  0.00000000E+00  0.00000000E+00
  0.00000000E+00  0.00000000E+00  0.00000000E+00
  0.00000000E+00  0.00000000E+00  0.00000000E+00
  0.00000000E+00  0.00000000E+00  0.00000000E+00
  0.00000000E+00  0.00000000E+00  0.00000000E+00
  0.00000000E+00  0.00000000E+00  0.00000000E+00
  0.00000000E+00  0.00000000E+00  0.00000000E+00
  0.00000000E+00  0.00000000E+00  0.00000000E+00
  0.00000000E+00  0.00000000E+00  0.00000000E+00
  0.00000000E+00  0.00000000E+00  0.00000000E+00
  0.00000000E+00  0.00000000E+00  0.00000000E+00
  0.00000000E+00  0.00000000E+00  0.00000000E+00
  0.00000000E+00  0.00000000E+00  0.00000000E+00
  0.00000000E+00  0.00000000E+00  0.00000000E+00
