supercell of icsd_191774.cif            
   1.00000000000000     
    10.6137816926476773   -0.0010283620712825   -0.0033311228953691
    -5.3077830999112612    9.1935726861328675    0.0025105539906107
    -0.0036123182572441    0.0011180527267709   11.2148440660219091
   N    In   Sc
    36    28     8
Direct
  0.2216040346934136  0.1102772646299570  0.4415724041852300
  0.1072985915922615  0.2199296852035530  0.1940401745674123
  0.8829615547230318  0.1089138312884472  0.9470113418233055
  0.7781876811324295  0.2221996764068663  0.6920009303679606
  0.5557952975450036  0.1106641225472416  0.4407047701912603
  0.4449096461594380  0.2219570053050930  0.1917438303344454
  0.2212223281179675  0.1116753532640260  0.9412632857797050
  0.1102157480531005  0.2221398705951358  0.6907651474999810
  0.8878303380941972  0.1106730688794073  0.4321838789374794
  0.7800754036726190  0.2206477249555974  0.1862216970591390
  0.5582300524322861  0.1116260401621645  0.9438585996386877
  0.4444366947387550  0.2221967456807761  0.6914950820465151
  0.2223244999008713  0.4445517825196319  0.4403073046460761
  0.1138616226303100  0.5606232837775096  0.1927781516487101
  0.8876367865170565  0.4408381510261634  0.9435305516683528
  0.7801205451492734  0.5598225479205468  0.6937281738412509
  0.5557680394489992  0.4447386247922012  0.4399177654338189
  0.4473974343539950  0.5606344269535697  0.1856443780136914
  0.2259676566307576  0.4462676341434673  0.9436448010870180
  0.1136230991473752  0.5603408199107918  0.6927852355885804
  0.8887179597645058  0.4444410895593052  0.4403720745474828
  0.7790903061726269  0.5571240277797003  0.1900298076022082
  0.5533823621238696  0.4462386100644835  0.9435563274300449
  0.4449655421386680  0.5565885103106467  0.6913369437037886
  0.2218609049430711  0.7776611266735074  0.4351213793162145
  0.1135864821282908  0.8866945671494193  0.1907438723290724
  0.8871525465116150  0.7809260891935210  0.9355092208001778
  0.7803604349694808  0.8873160803419182  0.6927331316480618
  0.5559701856268973  0.7776342229448119  0.4325730311305733
  0.4420566839424751  0.8844343673720587  0.1952685292869489
  0.2234481942244457  0.7779435324731310  0.9355942883031076
  0.1096240547733203  0.8843334323016663  0.6947474880969793
  0.8889072433597605  0.7784991581815888  0.4408618299221985
  0.7758986185016923  0.8916433665929873  0.1861323675422852
  0.5576834000988669  0.7753989213632124  0.9467774916786311
  0.4405129417675795  0.8864258033669117  0.6916022392991792
  0.2214366644073706  0.1099144997856811  0.2489709678997798
  0.1089198007743661  0.2212456054134151  0.4976268030790649
  0.8885124355848575  0.1101428032740870  0.7526068435121758
  0.5569566789350162  0.1102092462065301  0.2482162501249476
  0.4447112812537597  0.2223036404042205  0.4989045320637047
  0.2208924088130004  0.1093409008357682  0.7488264409818726
  0.1090742349616107  0.2219345776237276  0.0009246615469038
  0.7786113515088715  0.2215474155723030  0.4988874601446369
  0.5545251925759160  0.1093840565726794  0.7501817424233792
  0.4442482721806726  0.2218537680468202  0.9994124792906405
  0.2238765192706182  0.4455070705254300  0.2477120715073866
  0.1114044941781387  0.5560760852657936  0.4990181262386173
  0.8899054913717919  0.4454274855365199  0.7503718702749893
  0.7787788427201718  0.5574467385278012  0.9976843797928296
  0.5555008273122723  0.4459739426723672  0.2473906782364210
  0.4453420257597500  0.5569379071491767  0.4985874214368025
  0.2215437489953374  0.4445045710373421  0.7503255307292491
  0.1114953327215815  0.5558812212452295  0.9995265613297164
  0.8888800621685959  0.4435272813281728  0.2475692917605343
  0.7776032822129224  0.5554393474914221  0.4998370239754735
  0.5561113127734885  0.4444267222429019  0.7504332504020255
  0.1116044693731340  0.8882114086196111  0.5006904300466744
  0.4444629176764394  0.8874293856860689  0.4975945758683906
  0.1100181508530298  0.8877104875269524  0.9974873999618268
  0.8888386630010032  0.7807416180499374  0.2477102794066468
  0.7769268865025154  0.8901610136605740  0.4982329728638462
  0.5562958650628786  0.7790553848307340  0.7518924943755323
  0.4445996175489881  0.8878005979208652  0.0014599872532202
  0.7762873610057710  0.2220523384915083  0.9982103301284297
  0.8869718966399986  0.1103464042044635  0.2443251851285169
  0.4445441952014093  0.5547115819870356  0.9981674214954808
  0.2219457696888085  0.7777108722545236  0.2482985047936737
  0.8896092612059050  0.7777551609044053  0.7475021415664713
  0.7780023370251712  0.8877957571702879  0.9979055357973650
  0.5562874462161460  0.7778501069081543  0.2447365203154845
  0.2225899867384271  0.7776224293965370  0.7484143072517355
 
  0.00000000E+00  0.00000000E+00  0.00000000E+00
  0.00000000E+00  0.00000000E+00  0.00000000E+00
  0.00000000E+00  0.00000000E+00  0.00000000E+00
  0.00000000E+00  0.00000000E+00  0.00000000E+00
  0.00000000E+00  0.00000000E+00  0.00000000E+00
  0.00000000E+00  0.00000000E+00  0.00000000E+00
  0.00000000E+00  0.00000000E+00  0.00000000E+00
  0.00000000E+00  0.00000000E+00  0.00000000E+00
  0.00000000E+00  0.00000000E+00  0.00000000E+00
  0.00000000E+00  0.00000000E+00  0.00000000E+00
  0.00000000E+00  0.00000000E+00  0.00000000E+00
  0.00000000E+00  0.00000000E+00  0.00000000E+00
  0.00000000E+00  0.00000000E+00  0.00000000E+00
  0.00000000E+00  0.00000000E+00  0.00000000E+00
  0.00000000E+00  0.00000000E+00  0.00000000E+00
  0.00000000E+00  0.00000000E+00  0.00000000E+00
  0.00000000E+00  0.00000000E+00  0.00000000E+00
  0.00000000E+00  0.00000000E+00  0.00000000E+00
  0.00000000E+00  0.00000000E+00  0.00000000E+00
  0.00000000E+00  0.00000000E+00  0.00000000E+00
  0.00000000E+00  0.00000000E+00  0.00000000E+00
  0.00000000E+00  0.00000000E+00  0.00000000E+00
  0.00000000E+00  0.00000000E+00  0.00000000E+00
  0.00000000E+00  0.00000000E+00  0.00000000E+00
  0.00000000E+00  0.00000000E+00  0.00000000E+00
  0.00000000E+00  0.00000000E+00  0.00000000E+00
  0.00000000E+00  0.00000000E+00  0.00000000E+00
  0.00000000E+00  0.00000000E+00  0.00000000E+00
  0.00000000E+00  0.00000000E+00  0.00000000E+00
  0.00000000E+00  0.00000000E+00  0.00000000E+00
  0.00000000E+00  0.00000000E+00  0.00000000E+00
  0.00000000E+00  0.00000000E+00  0.00000000E+00
  0.00000000E+00  0.00000000E+00  0.00000000E+00
  0.00000000E+00  0.00000000E+00  0.00000000E+00
  0.00000000E+00  0.00000000E+00  0.00000000E+00
  0.00000000E+00  0.00000000E+00  0.00000000E+00
  0.00000000E+00  0.00000000E+00  0.00000000E+00
  0.00000000E+00  0.00000000E+00  0.00000000E+00
  0.00000000E+00  0.00000000E+00  0.00000000E+00
  0.00000000E+00  0.00000000E+00  0.00000000E+00
  0.00000000E+00  0.00000000E+00  0.00000000E+00
  0.00000000E+00  0.00000000E+00  0.00000000E+00
  0.00000000E+00  0.00000000E+00  0.00000000E+00
  0.00000000E+00  0.00000000E+00  0.00000000E+00
  0.00000000E+00  0.00000000E+00  0.00000000E+00
  0.00000000E+00  0.00000000E+00  0.00000000E+00
  0.00000000E+00  0.00000000E+00  0.00000000E+00
  0.00000000E+00  0.00000000E+00  0.00000000E+00
  0.00000000E+00  0.00000000E+00  0.00000000E+00
  0.00000000E+00  0.00000000E+00  0.00000000E+00
  0.00000000E+00  0.00000000E+00  0.00000000E+00
  0.00000000E+00  0.00000000E+00  0.00000000E+00
  0.00000000E+00  0.00000000E+00  0.00000000E+00
  0.00000000E+00  0.00000000E+00  0.00000000E+00
  0.00000000E+00  0.00000000E+00  0.00000000E+00
  0.00000000E+00  0.00000000E+00  0.00000000E+00
  0.00000000E+00  0.00000000E+00  0.00000000E+00
  0.00000000E+00  0.00000000E+00  0.00000000E+00
  0.00000000E+00  0.00000000E+00  0.00000000E+00
  0.00000000E+00  0.00000000E+00  0.00000000E+00
  0.00000000E+00  0.00000000E+00  0.00000000E+00
  0.00000000E+00  0.00000000E+00  0.00000000E+00
  0.00000000E+00  0.00000000E+00  0.00000000E+00
  0.00000000E+00  0.00000000E+00  0.00000000E+00
  0.00000000E+00  0.00000000E+00  0.00000000E+00
  0.00000000E+00  0.00000000E+00  0.00000000E+00
  0.00000000E+00  0.00000000E+00  0.00000000E+00
  0.00000000E+00  0.00000000E+00  0.00000000E+00
  0.00000000E+00  0.00000000E+00  0.00000000E+00
  0.00000000E+00  0.00000000E+00  0.00000000E+00
  0.00000000E+00  0.00000000E+00  0.00000000E+00
  0.00000000E+00  0.00000000E+00  0.00000000E+00
