generated by phonopy                    
   1.00000000000000     
    10.0351470768999995   -0.0000022330999784   -0.0000001056124209
    -5.0175765436399997    8.6906901959899994    0.0000001395531216
    -0.0000001735893656    0.0000001431815548   14.9533752540999991
   Pb   Cu   P    O 
    20     1    11    50
Direct
  0.9683185647399171  0.7473778090683751  0.1238848309261158
  0.9965455291408887  0.7688695729281960  0.6235737949419260
  0.0002581931637806  0.2601001394931188  0.3714428058189867
  0.0002467695036046  0.2602264198794089  0.8760958525936502
  0.2365303293524335  0.2258355964942780  0.1239119065070540
  0.2322792638070723  0.2253843426041726  0.6236367121072846
  0.7408238470921020  0.7404261273846799  0.3700966527409122
  0.7406429964920704  0.7406130503278874  0.8774577908510892
  0.7490750908550083  0.9983739859521563  0.1237254370924816
  0.7777493996177469  0.0031642195410768  0.6235886594049020
  0.2595735548724392  0.9963730928543129  0.3730100914677621
  0.2593964237803519  0.9963148550164149  0.8743535189665508
  0.6642977603237625  0.3573491314036659  0.0023918559820260
  0.6684065938507544  0.3308319328830081  0.5009550008955941
  0.3295572340833530  0.6725187315519534  0.0061713794257798
  0.3378665174916051  0.6657749197128524  0.5029340062597640
  0.3293148324239397  0.6725341817544006  0.2415327574237551
  0.3375463025620036  0.6658259496487418  0.7445992121138119
  0.6645042824324463  0.3573263277618466  0.2455576886214956
  0.6683374301066678  0.3312103872298948  0.7470828261409252
  0.6070280360236353  0.6011967245797649  0.1240952941207496
  0.6241553786585001  0.5937273832474972  0.6239188004493101
  0.3702199044514529  0.3964406657674928  0.3705060056703360
  0.3700297713983360  0.3965129259625328  0.8772683223872733
  0.3924749073694755  0.0232172947936036  0.1238182807603749
  0.4071878783211602  0.0271638100892133  0.6238761639726107
  0.6100547820525577  0.9775275216615711  0.3734134475750821
  0.6098399069350862  0.9775170988582147  0.8742578555273113
  0.9745141250204625  0.3715713910158840  0.1238665680560160
  0.9747747583960376  0.3747730222357148  0.6239504756210010
  0.0262707559031838  0.6310072382756857  0.3750348829358572
  0.0261113721648840  0.6311293277536905  0.8727609381491916
  0.5049455914452210  0.7080726422596157  0.1237951324064923
  0.4993105156426054  0.6439722164698836  0.6238038562212083
  0.4734562209537714  0.3207917237691831  0.3712182291284947
  0.4732730629058963  0.3208832847008054  0.8766892091444234
  0.3154653453358449  0.8441967960165897  0.1237982706521876
  0.3534989925542575  0.8518374036089895  0.6238164591396398
  0.6899559303019061  0.1557354330654022  0.3771499344090046
  0.6898668920455009  0.1557147704408237  0.8707035652457904
  0.1518279546390318  0.4874724331866460  0.1238144277018094
  0.1495923461881716  0.4989871745605186  0.6237982393909149
  0.8476072671252624  0.5317170243885201  0.3776436662195337
  0.8474470246661312  0.5318957150154944  0.8702658800039842
  0.7454312656481079  0.6351034101597790  0.0298140408970937
  0.7301196115564963  0.6566730085752681  0.5393760582891503
  0.2667200812274828  0.3548959199022477  0.4556057648525140
  0.2606271405062373  0.3460416000775552  0.9605107405947138
  0.3384604208374995  0.0774322439018107  0.0397504110336868
  0.3465182409648619  0.0730420515260803  0.5391665188476864
  0.6439417347664786  0.9066115845822296  0.4576248404895793
  0.6627053588322553  0.9202681621594166  0.9576270201328043
  0.9249177395601649  0.2653274167158770  0.0395888372941755
  0.9304930991651474  0.2681783368295996  0.5394619985338807
  0.0925850827447121  0.7420097974061690  0.4572397763284926
  0.0863443148642915  0.7358999119664773  0.9580335322086952
  0.2603282834571132  0.3450909944075420  0.2874798758261292
  0.2660038427750280  0.3541317798001842  0.7923483255217576
  0.7455508604481125  0.6350082400675774  0.2178713257643849
  0.7302383708577338  0.6571799627053991  0.7083786411147486
  0.6638981631323233  0.9206757798285992  0.2903105854847752
  0.6447161366965304  0.9069075715699313  0.7902542881014938
  0.3381511350446544  0.0772017594599603  0.2079225307517802
  0.3453153393457669  0.0725059259332212  0.7082754023490523
  0.0863830068622704  0.7360657019598946  0.2898431792482583
  0.0922642268894975  0.7423771940505688  0.7906248433762642
  0.9249967837828237  0.2653915888595719  0.2081791551593710
  0.9312899980947051  0.2676578109646073  0.7081120832271424
  0.5124992795261321  0.3878660182797375  0.1241530895905427
  0.5445358575076327  0.4133318529637293  0.6240358787260760
  0.4768141160221191  0.5778842787745049  0.3673328244956551
  0.4767187593008799  0.5779298481741364  0.8799178403882664
  0.5721216753840466  0.1034826998195513  0.1240066407853604
  0.5876570499196774  0.1262708976868225  0.6242498411544730
  0.4290505348962270  0.9050684159756912  0.3669537383676555
  0.4288196354781277  0.9050444203861971  0.8800647484886568
  0.8848324840870063  0.4634272726676087  0.1239791696565788
  0.8732605420636403  0.4536956813797133  0.6243472714791949
  0.0979044138707508  0.5220717407780029  0.3759918837713982
  0.0976796584394179  0.5221592227496430  0.8714929645024583
  0.9883369939628963  0.9893389817523897  0.1237573244456556
  0.0039929407444461  0.0001532226982661  0.6227886784125474
 
  0.00000000E+00  0.00000000E+00  0.00000000E+00
  0.00000000E+00  0.00000000E+00  0.00000000E+00
  0.00000000E+00  0.00000000E+00  0.00000000E+00
  0.00000000E+00  0.00000000E+00  0.00000000E+00
  0.00000000E+00  0.00000000E+00  0.00000000E+00
  0.00000000E+00  0.00000000E+00  0.00000000E+00
  0.00000000E+00  0.00000000E+00  0.00000000E+00
  0.00000000E+00  0.00000000E+00  0.00000000E+00
  0.00000000E+00  0.00000000E+00  0.00000000E+00
  0.00000000E+00  0.00000000E+00  0.00000000E+00
  0.00000000E+00  0.00000000E+00  0.00000000E+00
  0.00000000E+00  0.00000000E+00  0.00000000E+00
  0.00000000E+00  0.00000000E+00  0.00000000E+00
  0.00000000E+00  0.00000000E+00  0.00000000E+00
  0.00000000E+00  0.00000000E+00  0.00000000E+00
  0.00000000E+00  0.00000000E+00  0.00000000E+00
  0.00000000E+00  0.00000000E+00  0.00000000E+00
  0.00000000E+00  0.00000000E+00  0.00000000E+00
  0.00000000E+00  0.00000000E+00  0.00000000E+00
  0.00000000E+00  0.00000000E+00  0.00000000E+00
  0.00000000E+00  0.00000000E+00  0.00000000E+00
  0.00000000E+00  0.00000000E+00  0.00000000E+00
  0.00000000E+00  0.00000000E+00  0.00000000E+00
  0.00000000E+00  0.00000000E+00  0.00000000E+00
  0.00000000E+00  0.00000000E+00  0.00000000E+00
  0.00000000E+00  0.00000000E+00  0.00000000E+00
  0.00000000E+00  0.00000000E+00  0.00000000E+00
  0.00000000E+00  0.00000000E+00  0.00000000E+00
  0.00000000E+00  0.00000000E+00  0.00000000E+00
  0.00000000E+00  0.00000000E+00  0.00000000E+00
  0.00000000E+00  0.00000000E+00  0.00000000E+00
  0.00000000E+00  0.00000000E+00  0.00000000E+00
  0.00000000E+00  0.00000000E+00  0.00000000E+00
  0.00000000E+00  0.00000000E+00  0.00000000E+00
  0.00000000E+00  0.00000000E+00  0.00000000E+00
  0.00000000E+00  0.00000000E+00  0.00000000E+00
  0.00000000E+00  0.00000000E+00  0.00000000E+00
  0.00000000E+00  0.00000000E+00  0.00000000E+00
  0.00000000E+00  0.00000000E+00  0.00000000E+00
  0.00000000E+00  0.00000000E+00  0.00000000E+00
  0.00000000E+00  0.00000000E+00  0.00000000E+00
  0.00000000E+00  0.00000000E+00  0.00000000E+00
  0.00000000E+00  0.00000000E+00  0.00000000E+00
  0.00000000E+00  0.00000000E+00  0.00000000E+00
  0.00000000E+00  0.00000000E+00  0.00000000E+00
  0.00000000E+00  0.00000000E+00  0.00000000E+00
  0.00000000E+00  0.00000000E+00  0.00000000E+00
  0.00000000E+00  0.00000000E+00  0.00000000E+00
  0.00000000E+00  0.00000000E+00  0.00000000E+00
  0.00000000E+00  0.00000000E+00  0.00000000E+00
  0.00000000E+00  0.00000000E+00  0.00000000E+00
  0.00000000E+00  0.00000000E+00  0.00000000E+00
  0.00000000E+00  0.00000000E+00  0.00000000E+00
  0.00000000E+00  0.00000000E+00  0.00000000E+00
  0.00000000E+00  0.00000000E+00  0.00000000E+00
  0.00000000E+00  0.00000000E+00  0.00000000E+00
  0.00000000E+00  0.00000000E+00  0.00000000E+00
  0.00000000E+00  0.00000000E+00  0.00000000E+00
  0.00000000E+00  0.00000000E+00  0.00000000E+00
  0.00000000E+00  0.00000000E+00  0.00000000E+00
  0.00000000E+00  0.00000000E+00  0.00000000E+00
  0.00000000E+00  0.00000000E+00  0.00000000E+00
  0.00000000E+00  0.00000000E+00  0.00000000E+00
  0.00000000E+00  0.00000000E+00  0.00000000E+00
  0.00000000E+00  0.00000000E+00  0.00000000E+00
  0.00000000E+00  0.00000000E+00  0.00000000E+00
  0.00000000E+00  0.00000000E+00  0.00000000E+00
  0.00000000E+00  0.00000000E+00  0.00000000E+00
  0.00000000E+00  0.00000000E+00  0.00000000E+00
  0.00000000E+00  0.00000000E+00  0.00000000E+00
  0.00000000E+00  0.00000000E+00  0.00000000E+00
  0.00000000E+00  0.00000000E+00  0.00000000E+00
  0.00000000E+00  0.00000000E+00  0.00000000E+00
  0.00000000E+00  0.00000000E+00  0.00000000E+00
  0.00000000E+00  0.00000000E+00  0.00000000E+00
  0.00000000E+00  0.00000000E+00  0.00000000E+00
  0.00000000E+00  0.00000000E+00  0.00000000E+00
  0.00000000E+00  0.00000000E+00  0.00000000E+00
  0.00000000E+00  0.00000000E+00  0.00000000E+00
  0.00000000E+00  0.00000000E+00  0.00000000E+00
  0.00000000E+00  0.00000000E+00  0.00000000E+00
  0.00000000E+00  0.00000000E+00  0.00000000E+00
