supercell of POSCAR                     
   1.01800000000000     
     3.1310994802600001   -5.4896946145000003   10.0244832682999991
    -9.4821132118399998   -5.5089477087900001    0.0170740616273000
     6.3359946057599998  -11.0114127993000004  -10.0652216442999993
   Al   Gd   N 
    84    12    95
Direct
  0.0878659472610721  0.5836669699892809  0.3361694031315636
  0.4987594807462656  0.3248459456949888  0.2549081367904620
  0.0860818018401943  0.0845923279904355  0.3341784862570378
  0.2514589688912778  0.5791285753293778  0.4935903234710324
  0.3331161655152997  0.3198236279432365  0.0780848508106757
  0.4165222389532914  0.0859724673458615  0.1695608411374820
  0.0048912187462733  0.8450665444955021  0.2556774522028107
  0.1678284240982677  0.3319579923513274  0.4120090250753208
  0.2473793720442998  0.0864498998841370  0.4955613326736028
  0.1618889725075476  0.8361747970966036  0.4155650158139252
  0.3362846266295776  0.6716595738765818  0.3360669810695498
  0.1651016896283792  0.6814157551671727  0.1726512071167932
  0.2506824339875280  0.4034018453911443  0.2531839380001912
  0.3343392951161022  0.1635121016384318  0.3334451050449303
  0.0051515531753665  0.6735006150820411  0.4949450468890504
  0.1672459989634660  0.1598164616855229  0.1698938709941729
  0.2532046754564163  0.9181644176982999  0.2540140855725070
  0.4125203815247573  0.4146115620029320  0.4149259298677634
  0.4981222402261949  0.1610326000179327  0.4964176116581669
  0.0816291947058616  0.9256369849621819  0.0807640587671941
  0.4192457811440846  0.9186754033402167  0.4107006392130401
  0.0913389194369003  0.5858268793912842  0.8364954448563608
  0.5007439726630096  0.3216271812766536  0.7548601610236929
  0.0866857820738716  0.0854780728731726  0.8349831582983995
  0.2637779759176695  0.5836024480448145  0.9967867239070429
  0.3316860536272586  0.3179795738335187  0.5779181430763245
  0.4171062237237066  0.0868310116648701  0.6706540363203075
  0.0080228539766196  0.8432937644387906  0.7558680442404153
  0.1697633436993087  0.3327577877334136  0.9129047937261205
  0.2489004994656057  0.0858917396029710  0.9973330663548836
  0.1640015228650071  0.8371069924470831  0.9164285354129476
  0.3380925890734332  0.6730059754225977  0.8377242263824272
  0.1544267673392952  0.6748233780573401  0.6656976786592921
  0.2505675985795079  0.4016938650908841  0.7519616145635268
  0.3346686465032889  0.1631726026286415  0.8340741966587331
  0.0100764670723876  0.6746825261949070  0.9967103932684793
  0.1669462055402704  0.1589275089799855  0.6693136347976889
  0.2532806661596751  0.9200398564224699  0.7556123967021406
  0.4146819986537409  0.4127894661041438  0.9131593713437809
  0.4988427793217980  0.1612723102982514  0.9968725374999181
  0.0826813608350321  0.9234055670928711  0.5797417423572924
  0.4193641957806520  0.9186442418267475  0.9137526446519857
  0.5870987317311247  0.5837952520645331  0.3321780012210951
  0.9998336773554755  0.3228386358445690  0.2556251417997188
  0.5845157424805691  0.0850132410413380  0.3335867569267705
  0.7504827066042381  0.5788089360645614  0.4941605855884390
  0.8328294070755433  0.3195685777218387  0.0786192927000045
  0.9168204373069386  0.0878213427165093  0.1713098653965943
  0.5055691512873821  0.8413374655783556  0.2532724758200402
  0.6673753444356905  0.3317255655719578  0.4117676430971855
  0.7470822489983888  0.0867459972213567  0.4956801998538225
  0.6610559224895454  0.8362526246476918  0.4153459144678635
  0.8356570524453488  0.6728871475994325  0.3396729727417309
  0.6567249526344909  0.6736805513579327  0.1657879657958219
  0.7510114145767517  0.4034698009445279  0.2519942274365050
  0.8337858577261343  0.1641558850837157  0.3339827566906806
  0.5057688911965101  0.6725498169160247  0.4932560407502109
  0.6664849208861341  0.1595421140995938  0.1696563922265710
  0.7509512446907038  0.9201994020298798  0.2559635176199819
  0.9116043195824730  0.4141763014701567  0.4157635032020508
  0.9983574800305419  0.1613261083280619  0.4968161373231439
  0.5792117745046212  0.9224524555717935  0.0800780100884140
  0.9190280768596963  0.9197203248363692  0.4120861845252293
  0.5886325044991807  0.5851950359641194  0.8353627552345202
  0.0002717126923315  0.3229751150737457  0.7558182018711577
  0.5858705107969371  0.0844632060880102  0.8348415350049834
  0.7515658491633843  0.5799318177995616  0.9956947143423562
  0.8318770269879963  0.3181027561361063  0.5786348318996559
  0.9175077732510388  0.0867479122522070  0.6713468647968099
  0.5075641125748618  0.8440379387448687  0.7548059757176588
  0.6691140299711336  0.3323791748326101  0.9126072899312163
  0.7467861108755827  0.0871379426511396  0.9964336800115561
  0.6613791504288997  0.8361512856783406  0.9166461380618571
  0.8377330929854452  0.6738375550473776  0.8418359003649343
  0.6540553339622548  0.6748167410198747  0.6659211045713818
  0.7501830389269983  0.4020615312447049  0.7525675248626129
  0.8347125295388622  0.1642172721433823  0.8345517614465621
  0.5018627242402687  0.6718744245777515  0.9954931679680783
  0.6671675404795181  0.1583747314294044  0.6694244764985626
  0.7531982349603012  0.9200240481686706  0.7563865379066144
  0.9138451622109827  0.4156776340165749  0.9161257694665181
  0.9989918172660524  0.1627896329440119  0.9972591738155430
  0.5826646028434652  0.9234990603252911  0.5792048074806004
  0.9205329319137192  0.9201271565974096  0.9123924632405505
  0.3877005828304974  0.5870007048170294  0.1680403353294722
  0.3229250830414259  0.8218840368819968  0.0857099998872428
  0.0856412992661575  0.4201168968429130  0.0849881621946196
  0.3979983254623605  0.5788145699170357  0.6773337346215698
  0.3317101379925660  0.8360786392264785  0.5828524067805958
  0.0815042861598556  0.4196611530413890  0.5847356901900937
  0.9046047577562675  0.5809606573487400  0.1774285276708554
  0.8302382845418848  0.8396292320599912  0.0837299252202186
  0.5814637369786482  0.4179463403605013  0.0857193981950530
  0.8972999200343139  0.5802906336218854  0.6797026781208473
  0.8306351857363339  0.8367031302793180  0.5839609703915229
  0.5817749563718309  0.4183091165590795  0.5842819718471759
  0.2153341149722436  0.5751649063012110  0.2715409784867546
  0.0452956781762737  0.6142757341754503  0.1026442024707066
  0.1301332963487880  0.3178127897074958  0.2010152442922717
  0.2126750372549324  0.0817784432815074  0.2721752355535543
  0.3817745329422166  0.5839421878648849  0.4360548661867156
  0.4491798001077001  0.3189502949190555  0.0093534721789581
  0.0399960970752247  0.0876592131496707  0.1037697911623425
  0.1259144548815598  0.8490091387024918  0.1867104753258886
  0.2964489744058270  0.3282542913276032  0.3525006337633769
  0.3765370890401911  0.0797365921592004  0.4347883529294663
  0.4716809998327207  0.8366324981200961  0.0100956707471695
  0.2922397497882443  0.8337465099044792  0.3556790562941998
  0.4700952161666194  0.6817402217662263  0.2818503313473997
  0.3736255900795840  0.3878536686995204  0.1849690878766665
  0.4610703191410934  0.1635792530185043  0.2728491325455593
  0.1326865985669485  0.6658384064376222  0.4340953769704043
  0.2267780134049673  0.4140405817798083  0.0094161192289661
  0.2898538069194316  0.1595683343096823  0.1022080403825854
  0.3848447824574706  0.9273914132328471  0.1993275913471635
  0.0411036575720800  0.4184971458107327  0.3530773663023226
  0.1265437632206243  0.1706851527457971  0.4346158505227464
  0.1973172114607991  0.9305909931308065  0.0119894297082865
  0.0475828978360369  0.9242277862706914  0.3535308223227673
  0.2179296294056670  0.5812697831642808  0.7658911105216717
  0.0318401059978797  0.6116032403650564  0.6012770431379835
  0.1298506906030994  0.3174407452397219  0.6999153678905827
  0.2123976314765841  0.0823731946582811  0.7720207202525202
  0.3866012435370934  0.5790374955089419  0.9296292447105614
  0.4484562983572076  0.3187170815017240  0.5102382309377376
  0.0404037958581966  0.0854460474996159  0.6037970500922611
  0.1323042476068252  0.8425679611093315  0.6859254103209835
  0.2965417415708416  0.3281932036336457  0.8515642883797270
  0.3767225499278624  0.0803190148242336  0.9351301902350002
  0.4756008729997987  0.8374770294377143  0.5074516979885288
  0.2934289556401879  0.8345917893389583  0.8556980755549546
  0.4727341366290787  0.6854572961533663  0.7840745645916485
  0.2631639451025336  0.6550108440298672  0.5945967688033988
  0.3745910646870740  0.3812897045054484  0.6850298068664813
  0.4622150358847463  0.1620061010460390  0.7737594381251185
  0.1381293867568161  0.6670005803586463  0.9353691326121449
  0.2240571913809930  0.4120479981798582  0.5091508335205290
  0.2897232009940254  0.1569971502027343  0.6017697133043285
  0.3846116999608924  0.9278888240515357  0.7012888856375739
  0.0441270638896967  0.4200742909228552  0.8524991012776155
  0.1277654015863234  0.1709637958832886  0.9352099826072759
  0.1960008238115094  0.9313953307691420  0.5100133728918834
  0.0495967169325908  0.9243206493420146  0.8533238903927156
  0.7188455637324438  0.5807737041177248  0.2665774572390163
  0.5383137506811266  0.6089362528459574  0.1000458317567876
  0.6303205010080859  0.3176206120838785  0.2012973087042127
  0.7114562992492282  0.0828583567239320  0.2724261895451221
  0.8812719651490042  0.5835184300972145  0.4375534077380365
  0.9501459802577372  0.3207197364433085  0.0110406945326034
  0.5407568954211257  0.0865121568916294  0.1035378082070224
  0.6322707003290091  0.8417291715414379  0.1856059733204489
  0.7957026323608929  0.3294603540122338  0.3522265404650966
  0.8761144272515224  0.0808350950554200  0.4352372145610772
  0.9752492215173447  0.8387963445749023  0.0088285279011231
  0.7919590596201900  0.8348800573023141  0.3564746350141093
  0.9704393210993132  0.6856278521419981  0.2876581034452741
  0.7686413778537258  0.6566984911349962  0.0961045572638994
  0.8748711918853402  0.3838156751603421  0.1855211691270000
  0.9616750498309372  0.1629763076036710  0.2743071816465843
  0.6329722279576657  0.6647883447756442  0.4316120988900067
  0.7246467928286009  0.4126797501449317  0.0096090089182468
  0.7898802824444857  0.1584033195558661  0.1022370660142187
  0.8823814388069309  0.9295729722361514  0.2027558888462835
  0.5427672019358738  0.4187153285120857  0.3525586332959065
  0.6261189888335323  0.1703504281658823  0.4343270387142937
  0.6935532569033498  0.9325209891480668  0.0102127597888497
  0.5475328626355207  0.9229540820775810  0.3512630806315400
  0.7188924456382466  0.5813179006526639  0.7671040352266090
  0.5330510099703787  0.6107483378527405  0.5997298487327143
  0.6306941516589504  0.3169145244277018  0.6996144599426728
  0.7124835230035060  0.0825288439671752  0.7725175040799570
  0.8841180161017874  0.5843625065100753  0.9392298541815336
  0.9486143554616220  0.3188476060559466  0.5109484393749426
  0.5404074179094067  0.0854719221269704  0.6034488535881763
  0.6328079265276756  0.8431262665449140  0.6855354275314482
  0.7974883903105905  0.3298660810822582  0.8525971882850385
  0.8767712117852753  0.0810691607136604  0.9357205015941972
  0.9743519884963376  0.8381683961150941  0.5087339129910546
  0.7928751007336032  0.8354737237939318  0.8570356591027348
  0.9725062894916832  0.6851670509181105  0.7883254837067568
  0.7631624494272913  0.6549536304653572  0.5949600562309598
  0.8745285710733484  0.3825303711179870  0.6855564073310632
  0.9623283204930502  0.1628549093621245  0.7743810526596775
  0.6340009088328529  0.6659279076615832  0.9336459046092571
  0.7241897256358172  0.4113479894338283  0.5091192980202521
  0.7900221130614540  0.1566654622416834  0.6021931186850580
  0.8851035537814838  0.9276706622741813  0.7026892321323430
  0.5453485188817311  0.4177575911531335  0.8507099022002862
  0.6270559224649688  0.1712001147492330  0.9343773008137006
  0.6958677217367111  0.9315230029609154  0.5095831094458561
  0.5478463905737030  0.9234082689682666  0.8530484820481092
 
  0.00000000E+00  0.00000000E+00  0.00000000E+00
  0.00000000E+00  0.00000000E+00  0.00000000E+00
  0.00000000E+00  0.00000000E+00  0.00000000E+00
  0.00000000E+00  0.00000000E+00  0.00000000E+00
  0.00000000E+00  0.00000000E+00  0.00000000E+00
  0.00000000E+00  0.00000000E+00  0.00000000E+00
  0.00000000E+00  0.00000000E+00  0.00000000E+00
  0.00000000E+00  0.00000000E+00  0.00000000E+00
  0.00000000E+00  0.00000000E+00  0.00000000E+00
  0.00000000E+00  0.00000000E+00  0.00000000E+00
  0.00000000E+00  0.00000000E+00  0.00000000E+00
  0.00000000E+00  0.00000000E+00  0.00000000E+00
  0.00000000E+00  0.00000000E+00  0.00000000E+00
  0.00000000E+00  0.00000000E+00  0.00000000E+00
  0.00000000E+00  0.00000000E+00  0.00000000E+00
  0.00000000E+00  0.00000000E+00  0.00000000E+00
  0.00000000E+00  0.00000000E+00  0.00000000E+00
  0.00000000E+00  0.00000000E+00  0.00000000E+00
  0.00000000E+00  0.00000000E+00  0.00000000E+00
  0.00000000E+00  0.00000000E+00  0.00000000E+00
  0.00000000E+00  0.00000000E+00  0.00000000E+00
  0.00000000E+00  0.00000000E+00  0.00000000E+00
  0.00000000E+00  0.00000000E+00  0.00000000E+00
  0.00000000E+00  0.00000000E+00  0.00000000E+00
  0.00000000E+00  0.00000000E+00  0.00000000E+00
  0.00000000E+00  0.00000000E+00  0.00000000E+00
  0.00000000E+00  0.00000000E+00  0.00000000E+00
  0.00000000E+00  0.00000000E+00  0.00000000E+00
  0.00000000E+00  0.00000000E+00  0.00000000E+00
  0.00000000E+00  0.00000000E+00  0.00000000E+00
  0.00000000E+00  0.00000000E+00  0.00000000E+00
  0.00000000E+00  0.00000000E+00  0.00000000E+00
  0.00000000E+00  0.00000000E+00  0.00000000E+00
  0.00000000E+00  0.00000000E+00  0.00000000E+00
  0.00000000E+00  0.00000000E+00  0.00000000E+00
  0.00000000E+00  0.00000000E+00  0.00000000E+00
  0.00000000E+00  0.00000000E+00  0.00000000E+00
  0.00000000E+00  0.00000000E+00  0.00000000E+00
  0.00000000E+00  0.00000000E+00  0.00000000E+00
  0.00000000E+00  0.00000000E+00  0.00000000E+00
  0.00000000E+00  0.00000000E+00  0.00000000E+00
  0.00000000E+00  0.00000000E+00  0.00000000E+00
  0.00000000E+00  0.00000000E+00  0.00000000E+00
  0.00000000E+00  0.00000000E+00  0.00000000E+00
  0.00000000E+00  0.00000000E+00  0.00000000E+00
  0.00000000E+00  0.00000000E+00  0.00000000E+00
  0.00000000E+00  0.00000000E+00  0.00000000E+00
  0.00000000E+00  0.00000000E+00  0.00000000E+00
  0.00000000E+00  0.00000000E+00  0.00000000E+00
  0.00000000E+00  0.00000000E+00  0.00000000E+00
  0.00000000E+00  0.00000000E+00  0.00000000E+00
  0.00000000E+00  0.00000000E+00  0.00000000E+00
  0.00000000E+00  0.00000000E+00  0.00000000E+00
  0.00000000E+00  0.00000000E+00  0.00000000E+00
  0.00000000E+00  0.00000000E+00  0.00000000E+00
  0.00000000E+00  0.00000000E+00  0.00000000E+00
  0.00000000E+00  0.00000000E+00  0.00000000E+00
  0.00000000E+00  0.00000000E+00  0.00000000E+00
  0.00000000E+00  0.00000000E+00  0.00000000E+00
  0.00000000E+00  0.00000000E+00  0.00000000E+00
  0.00000000E+00  0.00000000E+00  0.00000000E+00
  0.00000000E+00  0.00000000E+00  0.00000000E+00
  0.00000000E+00  0.00000000E+00  0.00000000E+00
  0.00000000E+00  0.00000000E+00  0.00000000E+00
  0.00000000E+00  0.00000000E+00  0.00000000E+00
  0.00000000E+00  0.00000000E+00  0.00000000E+00
  0.00000000E+00  0.00000000E+00  0.00000000E+00
  0.00000000E+00  0.00000000E+00  0.00000000E+00
  0.00000000E+00  0.00000000E+00  0.00000000E+00
  0.00000000E+00  0.00000000E+00  0.00000000E+00
  0.00000000E+00  0.00000000E+00  0.00000000E+00
  0.00000000E+00  0.00000000E+00  0.00000000E+00
  0.00000000E+00  0.00000000E+00  0.00000000E+00
  0.00000000E+00  0.00000000E+00  0.00000000E+00
  0.00000000E+00  0.00000000E+00  0.00000000E+00
  0.00000000E+00  0.00000000E+00  0.00000000E+00
  0.00000000E+00  0.00000000E+00  0.00000000E+00
  0.00000000E+00  0.00000000E+00  0.00000000E+00
  0.00000000E+00  0.00000000E+00  0.00000000E+00
  0.00000000E+00  0.00000000E+00  0.00000000E+00
  0.00000000E+00  0.00000000E+00  0.00000000E+00
  0.00000000E+00  0.00000000E+00  0.00000000E+00
  0.00000000E+00  0.00000000E+00  0.00000000E+00
  0.00000000E+00  0.00000000E+00  0.00000000E+00
  0.00000000E+00  0.00000000E+00  0.00000000E+00
  0.00000000E+00  0.00000000E+00  0.00000000E+00
  0.00000000E+00  0.00000000E+00  0.00000000E+00
  0.00000000E+00  0.00000000E+00  0.00000000E+00
  0.00000000E+00  0.00000000E+00  0.00000000E+00
  0.00000000E+00  0.00000000E+00  0.00000000E+00
  0.00000000E+00  0.00000000E+00  0.00000000E+00
  0.00000000E+00  0.00000000E+00  0.00000000E+00
  0.00000000E+00  0.00000000E+00  0.00000000E+00
  0.00000000E+00  0.00000000E+00  0.00000000E+00
  0.00000000E+00  0.00000000E+00  0.00000000E+00
  0.00000000E+00  0.00000000E+00  0.00000000E+00
  0.00000000E+00  0.00000000E+00  0.00000000E+00
  0.00000000E+00  0.00000000E+00  0.00000000E+00
  0.00000000E+00  0.00000000E+00  0.00000000E+00
  0.00000000E+00  0.00000000E+00  0.00000000E+00
  0.00000000E+00  0.00000000E+00  0.00000000E+00
  0.00000000E+00  0.00000000E+00  0.00000000E+00
  0.00000000E+00  0.00000000E+00  0.00000000E+00
  0.00000000E+00  0.00000000E+00  0.00000000E+00
  0.00000000E+00  0.00000000E+00  0.00000000E+00
  0.00000000E+00  0.00000000E+00  0.00000000E+00
  0.00000000E+00  0.00000000E+00  0.00000000E+00
  0.00000000E+00  0.00000000E+00  0.00000000E+00
  0.00000000E+00  0.00000000E+00  0.00000000E+00
  0.00000000E+00  0.00000000E+00  0.00000000E+00
  0.00000000E+00  0.00000000E+00  0.00000000E+00
  0.00000000E+00  0.00000000E+00  0.00000000E+00
  0.00000000E+00  0.00000000E+00  0.00000000E+00
  0.00000000E+00  0.00000000E+00  0.00000000E+00
  0.00000000E+00  0.00000000E+00  0.00000000E+00
  0.00000000E+00  0.00000000E+00  0.00000000E+00
  0.00000000E+00  0.00000000E+00  0.00000000E+00
  0.00000000E+00  0.00000000E+00  0.00000000E+00
  0.00000000E+00  0.00000000E+00  0.00000000E+00
  0.00000000E+00  0.00000000E+00  0.00000000E+00
  0.00000000E+00  0.00000000E+00  0.00000000E+00
  0.00000000E+00  0.00000000E+00  0.00000000E+00
  0.00000000E+00  0.00000000E+00  0.00000000E+00
  0.00000000E+00  0.00000000E+00  0.00000000E+00
  0.00000000E+00  0.00000000E+00  0.00000000E+00
  0.00000000E+00  0.00000000E+00  0.00000000E+00
  0.00000000E+00  0.00000000E+00  0.00000000E+00
  0.00000000E+00  0.00000000E+00  0.00000000E+00
  0.00000000E+00  0.00000000E+00  0.00000000E+00
  0.00000000E+00  0.00000000E+00  0.00000000E+00
  0.00000000E+00  0.00000000E+00  0.00000000E+00
  0.00000000E+00  0.00000000E+00  0.00000000E+00
  0.00000000E+00  0.00000000E+00  0.00000000E+00
  0.00000000E+00  0.00000000E+00  0.00000000E+00
  0.00000000E+00  0.00000000E+00  0.00000000E+00
  0.00000000E+00  0.00000000E+00  0.00000000E+00
  0.00000000E+00  0.00000000E+00  0.00000000E+00
  0.00000000E+00  0.00000000E+00  0.00000000E+00
  0.00000000E+00  0.00000000E+00  0.00000000E+00
  0.00000000E+00  0.00000000E+00  0.00000000E+00
  0.00000000E+00  0.00000000E+00  0.00000000E+00
  0.00000000E+00  0.00000000E+00  0.00000000E+00
  0.00000000E+00  0.00000000E+00  0.00000000E+00
  0.00000000E+00  0.00000000E+00  0.00000000E+00
  0.00000000E+00  0.00000000E+00  0.00000000E+00
  0.00000000E+00  0.00000000E+00  0.00000000E+00
  0.00000000E+00  0.00000000E+00  0.00000000E+00
  0.00000000E+00  0.00000000E+00  0.00000000E+00
  0.00000000E+00  0.00000000E+00  0.00000000E+00
  0.00000000E+00  0.00000000E+00  0.00000000E+00
  0.00000000E+00  0.00000000E+00  0.00000000E+00
  0.00000000E+00  0.00000000E+00  0.00000000E+00
  0.00000000E+00  0.00000000E+00  0.00000000E+00
  0.00000000E+00  0.00000000E+00  0.00000000E+00
  0.00000000E+00  0.00000000E+00  0.00000000E+00
  0.00000000E+00  0.00000000E+00  0.00000000E+00
  0.00000000E+00  0.00000000E+00  0.00000000E+00
  0.00000000E+00  0.00000000E+00  0.00000000E+00
  0.00000000E+00  0.00000000E+00  0.00000000E+00
  0.00000000E+00  0.00000000E+00  0.00000000E+00
  0.00000000E+00  0.00000000E+00  0.00000000E+00
  0.00000000E+00  0.00000000E+00  0.00000000E+00
  0.00000000E+00  0.00000000E+00  0.00000000E+00
  0.00000000E+00  0.00000000E+00  0.00000000E+00
  0.00000000E+00  0.00000000E+00  0.00000000E+00
  0.00000000E+00  0.00000000E+00  0.00000000E+00
  0.00000000E+00  0.00000000E+00  0.00000000E+00
  0.00000000E+00  0.00000000E+00  0.00000000E+00
  0.00000000E+00  0.00000000E+00  0.00000000E+00
  0.00000000E+00  0.00000000E+00  0.00000000E+00
  0.00000000E+00  0.00000000E+00  0.00000000E+00
  0.00000000E+00  0.00000000E+00  0.00000000E+00
  0.00000000E+00  0.00000000E+00  0.00000000E+00
  0.00000000E+00  0.00000000E+00  0.00000000E+00
  0.00000000E+00  0.00000000E+00  0.00000000E+00
  0.00000000E+00  0.00000000E+00  0.00000000E+00
  0.00000000E+00  0.00000000E+00  0.00000000E+00
  0.00000000E+00  0.00000000E+00  0.00000000E+00
  0.00000000E+00  0.00000000E+00  0.00000000E+00
  0.00000000E+00  0.00000000E+00  0.00000000E+00
  0.00000000E+00  0.00000000E+00  0.00000000E+00
  0.00000000E+00  0.00000000E+00  0.00000000E+00
  0.00000000E+00  0.00000000E+00  0.00000000E+00
  0.00000000E+00  0.00000000E+00  0.00000000E+00
  0.00000000E+00  0.00000000E+00  0.00000000E+00
  0.00000000E+00  0.00000000E+00  0.00000000E+00
  0.00000000E+00  0.00000000E+00  0.00000000E+00
  0.00000000E+00  0.00000000E+00  0.00000000E+00
  0.00000000E+00  0.00000000E+00  0.00000000E+00
  0.00000000E+00  0.00000000E+00  0.00000000E+00
  0.00000000E+00  0.00000000E+00  0.00000000E+00
