supercell of POSCAR                     
   1.03600000000000     
     9.6051007291200001   -5.6678653607799996   -9.9907275475200006
     9.5551777488200003    5.5783510108199996    9.9928581731800001
    -1.5573508785200001   -8.3719044994900003    4.9655686364999996
   Al   Gd   N    O 
    72    24    95     1
Direct
  0.3013278449359476  0.2880482440159682  0.5380188658980387
  0.1419426619282547  0.2448051439531937  0.3108295140355892
  0.3069943304558294  0.4102986960952464  0.3093215950349659
  0.4629832995549634  0.3223619640112716  0.7861655155385847
  0.1417824345239751  0.4982958927260839  0.7840579940182906
  0.2969413763144644  0.1644789630802848  0.7750141297961903
  0.4692243609931452  0.4473023151298392  0.5342744601858413
  0.1420798272778185  0.1195116292319156  0.5389632411338141
  0.5031969728214563  0.0439007384789392  0.2732857567666969
  0.2697056282040720  0.1111107414128867  0.3341966830916761
  0.1149236488793619  0.0705027056357395  0.1007167202690766
  0.1153167103642829  0.1962278672488083  0.8160298752268318
  0.2737089069051351  0.3560189510249288  0.8120813291583957
  0.1117785516920122  0.3244272794249454  0.5889224299252689
  0.2707352731735355  0.4849545961392607  0.5766768180579334
  0.4452639289832376  0.2857720752810167  0.3351619998747069
  0.1108779120886609  0.4462215047194675  0.3409181307802598
  0.4478598100529894  0.4042059449676429  0.1021750592942681
  0.8010884910409786  0.2883840381989415  0.5387496140219952
  0.6430542580675933  0.2433684411439927  0.3126016766649471
  0.8080182217939793  0.4090935943202965  0.3108296905584282
  0.9632688645214174  0.3253112830815823  0.7890819786981282
  0.6419498275876947  0.4980733487900224  0.7846078799191076
  0.7959637165932563  0.1652094550692027  0.7799036580029792
  0.9693242451796920  0.4461770338621989  0.5338042504795339
  0.6454154835409796  0.1184946323252305  0.5395093440020062
  0.9787196062486174  0.0723815046421592  0.2982247046116271
  0.7774424562991129  0.1084286071723142  0.3357268488693776
  0.6182114639267411  0.0736219615253830  0.0953805104367831
  0.6146056684946757  0.1954413591400055  0.8160902628158553
  0.7746021567135628  0.3551649650326283  0.8121384329661865
  0.6108223587873169  0.3239804704803291  0.5895279042713284
  0.7703840520684153  0.4845102754862509  0.5771318840997708
  0.9482688235505847  0.2801126208768281  0.3370161095872675
  0.6110575753136231  0.4452962738183075  0.3402161527404175
  0.9478170539597741  0.4051740375858941  0.1048746100049556
  0.3014132157082656  0.7883571899860371  0.5381204163757545
  0.1435095343588131  0.7440048254507374  0.3116537781908022
  0.3088258699241493  0.9098438023568249  0.3106216085077520
  0.4635502706207149  0.8250011496232545  0.7885287118502191
  0.1429570578200696  0.9984470026852108  0.7836799600263831
  0.2954364952054576  0.6648050089576216  0.7786963838986694
  0.4704470786412287  0.9444013832014235  0.5333553854012436
  0.1432433032629135  0.6195779227380527  0.5386912036593046
  0.4778162951393981  0.5713692881402253  0.2979388924542334
  0.2759987692695987  0.6088673266344315  0.3363019926038078
  0.1145128510418942  0.5711807138668661  0.1023998710675897
  0.1149711540925225  0.6959787352086622  0.8171292041611125
  0.2746495237502842  0.8553211624186190  0.8109563067671814
  0.1120776435556863  0.8247361504388948  0.5889070413825408
  0.2712002295376124  0.9856700452077831  0.5755217451216055
  0.4484627891896551  0.7785045125345533  0.3358529726204011
  0.1115035174652022  0.9456153677130814  0.3397634487177399
  0.4440484126708171  0.9008199951307390  0.0978116747320712
  0.8015837545477495  0.7881387967603573  0.5397569059139045
  0.6431820347647914  0.7414924695219725  0.3121986034099677
  0.8103064470799310  0.9093013056976460  0.3110218639363964
  0.9631209874763158  0.8250544923165677  0.7892898109302280
  0.6426053342936697  0.9970337361324582  0.7835331914304575
  0.7955180293426096  0.6647540396758487  0.7794912962493186
  0.9702726819937908  0.9460147894972550  0.5334955271090962
  0.6433196360436924  0.6189149163597847  0.5394137665593206
  0.9781823464961050  0.5721427442004909  0.2982041282880630
  0.7766720938477363  0.6084980363484362  0.3369924653777048
  0.6150313288667419  0.5696228798987377  0.1030466641033385
  0.6151081778446894  0.6961193361754212  0.8185939394875135
  0.7746143986867580  0.8551388812528842  0.8139212446748374
  0.6123765640154701  0.8229462790638564  0.5912505174671452
  0.7728430733637026  0.9847760644916406  0.5790565685276619
  0.9483064116541087  0.7793135897274297  0.3372699761419540
  0.6187627240255580  0.9386051573232237  0.3470102837761218
  0.9490236864585384  0.9044554151278348  0.1049347071047890
  0.4820323204255601  0.1951617846664178  0.0413418000315815
  0.1346155618340745  0.3670340102568730  0.0332455698333192
  0.3086308971656209  0.0225047083630727  0.0403198150982291
  0.2822183488077670  0.2345477118072594  0.0782162750635962
  0.4484539103350400  0.0212649353301728  0.8179909104582208
  0.4449735529350818  0.1521700358840263  0.5570696783632769
  0.9829249169844019  0.1956433328562568  0.0398600737949764
  0.6360761562462329  0.3645713019087538  0.0320608728634042
  0.8100625183488361  0.0206046531430175  0.0389986515560494
  0.7848278331073431  0.2341005710461772  0.0831383607091993
  0.9502413072866673  0.0197725341613761  0.8203215645315396
  0.9429616394427427  0.1552132323402660  0.5733869181936058
  0.4835939652144248  0.6930935248347225  0.0388388871624556
  0.1370270450602789  0.8654986189584548  0.0318216795669883
  0.3077031987185990  0.5219426140360923  0.0398633383923368
  0.2837966023859906  0.7328753805681814  0.0827623065383563
  0.4484356436148431  0.5180481657258369  0.8200294310060414
  0.4435517533269575  0.6551608694791327  0.5729962243509519
  0.9817750876605160  0.6960889967624198  0.0407418191724886
  0.6322331668664418  0.8697305437047760  0.0360227240713229
  0.8074428061347589  0.5223485613168890  0.0407399914102982
  0.7819968424374366  0.7351974452215870  0.0836884338972013
  0.9484407774281749  0.5198949029152331  0.8208980213494428
  0.9439283761012121  0.6545172181598886  0.5737936199730811
  0.2378897618277946  0.3673961963444654  0.6261684411671240
  0.0746543229490300  0.3257399749525831  0.4002923863530938
  0.2382971666792031  0.4904743457385266  0.3909647627920236
  0.4253445651468795  0.2921293863474048  0.1557729874413312
  0.0689601642028350  0.4579340303146111  0.1535632176416968
  0.2349972006744565  0.1044861350186395  0.1544211086512419
  0.3993863516726606  0.3907779896299957  0.9062894522071971
  0.0948414334137340  0.0835041851751726  0.9018116281868345
  0.2344689063167351  0.2435376708429970  0.8616288102140928
  0.3964057123028368  0.0166919402950185  0.6062847485283314
  0.0888160050035012  0.2033764462166516  0.6316011924695530
  0.2163666123100541  0.1920202444956729  0.4352782307762268
  0.0618402798587994  0.1455596319843906  0.2087093439852268
  0.2149689721761874  0.3205099336905377  0.2091086634606398
  0.3655823048973730  0.1179270325937409  0.9079247960013035
  0.0423218924080970  0.2687948174064019  0.8856349273115356
  0.2099447269383248  0.4354736858034229  0.8888949909868913
  0.3701062237460420  0.2419288467846457  0.6745632688311716
  0.0397212888484901  0.4065754359286657  0.6833646457389051
  0.2121709388682547  0.0678336038816028  0.6691814475554381
  0.3804282408856778  0.3554895048737023  0.4335689653434756
  0.0488131158109368  0.0259067390782519  0.4396217487280794
  0.3903492940784119  0.4746147489079249  0.2086722347528607
  0.7362633941243217  0.3669448852023436  0.6256834169239625
  0.5720843272886853  0.3228974850900741  0.4001840538568757
  0.7381679183223753  0.4894716784878952  0.3911461217020573
  0.9276449005888026  0.2930000400925792  0.1572290306990354
  0.5695861681583523  0.4556031322559946  0.1522928013637568
  0.7365091171401517  0.1020867003817472  0.1550614956128626
  0.8999026753525783  0.3931096318346334  0.9089305039295468
  0.5939156076838046  0.0819057672661714  0.9011349665590274
  0.7331660771232151  0.2439323047874069  0.8673570824348076
  0.8964994356770362  0.0157898350495529  0.6107325686488352
  0.5890071903075551  0.2015196493141005  0.6307565862826507
  0.9044906601734581  0.1557811294090357  0.3554979792981712
  0.7194312294722778  0.1900196195304673  0.4348127822308356
  0.5631134199759842  0.1452532887515829  0.2086574300607822
  0.7152662638783696  0.3193879826127954  0.2112651183123830
  0.8662671627190122  0.1174177098691658  0.9079199655001489
  0.5414749788378828  0.2671238284741690  0.8860179905857990
  0.7102327850246795  0.4352163058877210  0.8888010557975292
  0.8666037526732637  0.2467555023334143  0.6823376564890609
  0.5392699340961755  0.4061445513070367  0.6832584524611747
  0.7131898436524722  0.0675818772144225  0.6718999479916690
  0.8815071833287220  0.3525070314539605  0.4335090132513173
  0.5534810163999850  0.0215276172419223  0.4419684210909196
  0.8897003593074331  0.4752519956762953  0.2103981969524682
  0.2381016411427055  0.8684175983926963  0.6250470837424089
  0.0753186102302905  0.8255498565959343  0.4000018434784138
  0.2399316960123699  0.9921467791019225  0.3896606994293990
  0.4284629312431676  0.7911535805321250  0.1554755698866828
  0.0705785884828387  0.9565898587809016  0.1518799041885188
  0.2344553315619464  0.6030952604968220  0.1562891282942900
  0.4007132543268881  0.8939478947153603  0.9071350250923373
  0.0936807782657283  0.5831903151278581  0.9021165357061847
  0.2339003585104109  0.7445867639392034  0.8672860543266410
  0.3949771462973928  0.5167118398967148  0.6107095615124010
  0.0903071259175832  0.7039172971474628  0.6321935008101036
  0.4037814465102940  0.6550589094437242  0.3550981934461959
  0.2192400025385979  0.6910567764265849  0.4351133831571232
  0.0614298649341336  0.6465804712959979  0.2095476475831433
  0.2166758359627039  0.8206604527395953  0.2108182869401531
  0.3656015947564981  0.6171823833342955  0.9075571149258508
  0.0419058364387084  0.7687746168276348  0.8862536168750310
  0.2115407178040556  0.9359493441871436  0.8881990670029722
  0.3670429175725616  0.7466696540687678  0.6818991485195909
  0.0401654324647538  0.9066861893824552  0.6837278999525438
  0.2117902945145431  0.5679550175704549  0.6706131123252064
  0.3824428941947460  0.8522294317414421  0.4322681019281092
  0.0481821915730904  0.5264592900136833  0.4405637208233983
  0.3913071164386892  0.9743155835575976  0.2093663386222246
  0.7376671870365641  0.8676809068158917  0.6277339010628467
  0.5755091872846378  0.8219956311948948  0.4021394111508769
  0.7420827971905979  0.9897654697997140  0.3929321648361892
  0.9254944792368534  0.7926656172574411  0.1579478515554982
  0.5651573393242444  0.9631140968953247  0.1626207874442969
  0.7347331868350082  0.6044103077879370  0.1573016274617274
  0.8998848743683041  0.8936999443732887  0.9093400864399399
  0.5930192151349374  0.5830428823336149  0.9031739821532909
  0.7337842974756015  0.7438877300949827  0.8674350315009747
  0.8946326564047453  0.5153395210136864  0.6105702443682830
  0.5898639284566656  0.7026197055121060  0.6337455078280740
  0.9042248719764743  0.6553920937292617  0.3566547714327655
  0.7195080123857878  0.6905768357392148  0.4360505919254365
  0.5616321838937850  0.6446753991790786  0.2102583673079863
  0.7126231453126479  0.8229735688601707  0.2114307708003835
  0.8654644218969239  0.6175396955373387  0.9090264577008327
  0.5427554297701036  0.7700839786449407  0.8878658386459790
  0.7093406413521777  0.9345256116078104  0.8909854866233857
  0.8672021226877717  0.7460889424868213  0.6824406491225616
  0.5399432536419368  0.9058382150490942  0.6834297348914191
  0.7118333598790656  0.5676616833346984  0.6712806702480165
  0.8819808328019576  0.8521731089854043  0.4339880007702703
  0.5483438153792619  0.5257521794903894  0.4401713127864681
  0.8914472758210579  0.9750592275724230  0.2107097746058102
  0.3893384461658300  0.1697872229447341  0.3560099687043348
 
  0.00000000E+00  0.00000000E+00  0.00000000E+00
  0.00000000E+00  0.00000000E+00  0.00000000E+00
  0.00000000E+00  0.00000000E+00  0.00000000E+00
  0.00000000E+00  0.00000000E+00  0.00000000E+00
  0.00000000E+00  0.00000000E+00  0.00000000E+00
  0.00000000E+00  0.00000000E+00  0.00000000E+00
  0.00000000E+00  0.00000000E+00  0.00000000E+00
  0.00000000E+00  0.00000000E+00  0.00000000E+00
  0.00000000E+00  0.00000000E+00  0.00000000E+00
  0.00000000E+00  0.00000000E+00  0.00000000E+00
  0.00000000E+00  0.00000000E+00  0.00000000E+00
  0.00000000E+00  0.00000000E+00  0.00000000E+00
  0.00000000E+00  0.00000000E+00  0.00000000E+00
  0.00000000E+00  0.00000000E+00  0.00000000E+00
  0.00000000E+00  0.00000000E+00  0.00000000E+00
  0.00000000E+00  0.00000000E+00  0.00000000E+00
  0.00000000E+00  0.00000000E+00  0.00000000E+00
  0.00000000E+00  0.00000000E+00  0.00000000E+00
  0.00000000E+00  0.00000000E+00  0.00000000E+00
  0.00000000E+00  0.00000000E+00  0.00000000E+00
  0.00000000E+00  0.00000000E+00  0.00000000E+00
  0.00000000E+00  0.00000000E+00  0.00000000E+00
  0.00000000E+00  0.00000000E+00  0.00000000E+00
  0.00000000E+00  0.00000000E+00  0.00000000E+00
  0.00000000E+00  0.00000000E+00  0.00000000E+00
  0.00000000E+00  0.00000000E+00  0.00000000E+00
  0.00000000E+00  0.00000000E+00  0.00000000E+00
  0.00000000E+00  0.00000000E+00  0.00000000E+00
  0.00000000E+00  0.00000000E+00  0.00000000E+00
  0.00000000E+00  0.00000000E+00  0.00000000E+00
  0.00000000E+00  0.00000000E+00  0.00000000E+00
  0.00000000E+00  0.00000000E+00  0.00000000E+00
  0.00000000E+00  0.00000000E+00  0.00000000E+00
  0.00000000E+00  0.00000000E+00  0.00000000E+00
  0.00000000E+00  0.00000000E+00  0.00000000E+00
  0.00000000E+00  0.00000000E+00  0.00000000E+00
  0.00000000E+00  0.00000000E+00  0.00000000E+00
  0.00000000E+00  0.00000000E+00  0.00000000E+00
  0.00000000E+00  0.00000000E+00  0.00000000E+00
  0.00000000E+00  0.00000000E+00  0.00000000E+00
  0.00000000E+00  0.00000000E+00  0.00000000E+00
  0.00000000E+00  0.00000000E+00  0.00000000E+00
  0.00000000E+00  0.00000000E+00  0.00000000E+00
  0.00000000E+00  0.00000000E+00  0.00000000E+00
  0.00000000E+00  0.00000000E+00  0.00000000E+00
  0.00000000E+00  0.00000000E+00  0.00000000E+00
  0.00000000E+00  0.00000000E+00  0.00000000E+00
  0.00000000E+00  0.00000000E+00  0.00000000E+00
  0.00000000E+00  0.00000000E+00  0.00000000E+00
  0.00000000E+00  0.00000000E+00  0.00000000E+00
  0.00000000E+00  0.00000000E+00  0.00000000E+00
  0.00000000E+00  0.00000000E+00  0.00000000E+00
  0.00000000E+00  0.00000000E+00  0.00000000E+00
  0.00000000E+00  0.00000000E+00  0.00000000E+00
  0.00000000E+00  0.00000000E+00  0.00000000E+00
  0.00000000E+00  0.00000000E+00  0.00000000E+00
  0.00000000E+00  0.00000000E+00  0.00000000E+00
  0.00000000E+00  0.00000000E+00  0.00000000E+00
  0.00000000E+00  0.00000000E+00  0.00000000E+00
  0.00000000E+00  0.00000000E+00  0.00000000E+00
  0.00000000E+00  0.00000000E+00  0.00000000E+00
  0.00000000E+00  0.00000000E+00  0.00000000E+00
  0.00000000E+00  0.00000000E+00  0.00000000E+00
  0.00000000E+00  0.00000000E+00  0.00000000E+00
  0.00000000E+00  0.00000000E+00  0.00000000E+00
  0.00000000E+00  0.00000000E+00  0.00000000E+00
  0.00000000E+00  0.00000000E+00  0.00000000E+00
  0.00000000E+00  0.00000000E+00  0.00000000E+00
  0.00000000E+00  0.00000000E+00  0.00000000E+00
  0.00000000E+00  0.00000000E+00  0.00000000E+00
  0.00000000E+00  0.00000000E+00  0.00000000E+00
  0.00000000E+00  0.00000000E+00  0.00000000E+00
  0.00000000E+00  0.00000000E+00  0.00000000E+00
  0.00000000E+00  0.00000000E+00  0.00000000E+00
  0.00000000E+00  0.00000000E+00  0.00000000E+00
  0.00000000E+00  0.00000000E+00  0.00000000E+00
  0.00000000E+00  0.00000000E+00  0.00000000E+00
  0.00000000E+00  0.00000000E+00  0.00000000E+00
  0.00000000E+00  0.00000000E+00  0.00000000E+00
  0.00000000E+00  0.00000000E+00  0.00000000E+00
  0.00000000E+00  0.00000000E+00  0.00000000E+00
  0.00000000E+00  0.00000000E+00  0.00000000E+00
  0.00000000E+00  0.00000000E+00  0.00000000E+00
  0.00000000E+00  0.00000000E+00  0.00000000E+00
  0.00000000E+00  0.00000000E+00  0.00000000E+00
  0.00000000E+00  0.00000000E+00  0.00000000E+00
  0.00000000E+00  0.00000000E+00  0.00000000E+00
  0.00000000E+00  0.00000000E+00  0.00000000E+00
  0.00000000E+00  0.00000000E+00  0.00000000E+00
  0.00000000E+00  0.00000000E+00  0.00000000E+00
  0.00000000E+00  0.00000000E+00  0.00000000E+00
  0.00000000E+00  0.00000000E+00  0.00000000E+00
  0.00000000E+00  0.00000000E+00  0.00000000E+00
  0.00000000E+00  0.00000000E+00  0.00000000E+00
  0.00000000E+00  0.00000000E+00  0.00000000E+00
  0.00000000E+00  0.00000000E+00  0.00000000E+00
  0.00000000E+00  0.00000000E+00  0.00000000E+00
  0.00000000E+00  0.00000000E+00  0.00000000E+00
  0.00000000E+00  0.00000000E+00  0.00000000E+00
  0.00000000E+00  0.00000000E+00  0.00000000E+00
  0.00000000E+00  0.00000000E+00  0.00000000E+00
  0.00000000E+00  0.00000000E+00  0.00000000E+00
  0.00000000E+00  0.00000000E+00  0.00000000E+00
  0.00000000E+00  0.00000000E+00  0.00000000E+00
  0.00000000E+00  0.00000000E+00  0.00000000E+00
  0.00000000E+00  0.00000000E+00  0.00000000E+00
  0.00000000E+00  0.00000000E+00  0.00000000E+00
  0.00000000E+00  0.00000000E+00  0.00000000E+00
  0.00000000E+00  0.00000000E+00  0.00000000E+00
  0.00000000E+00  0.00000000E+00  0.00000000E+00
  0.00000000E+00  0.00000000E+00  0.00000000E+00
  0.00000000E+00  0.00000000E+00  0.00000000E+00
  0.00000000E+00  0.00000000E+00  0.00000000E+00
  0.00000000E+00  0.00000000E+00  0.00000000E+00
  0.00000000E+00  0.00000000E+00  0.00000000E+00
  0.00000000E+00  0.00000000E+00  0.00000000E+00
  0.00000000E+00  0.00000000E+00  0.00000000E+00
  0.00000000E+00  0.00000000E+00  0.00000000E+00
  0.00000000E+00  0.00000000E+00  0.00000000E+00
  0.00000000E+00  0.00000000E+00  0.00000000E+00
  0.00000000E+00  0.00000000E+00  0.00000000E+00
  0.00000000E+00  0.00000000E+00  0.00000000E+00
  0.00000000E+00  0.00000000E+00  0.00000000E+00
  0.00000000E+00  0.00000000E+00  0.00000000E+00
  0.00000000E+00  0.00000000E+00  0.00000000E+00
  0.00000000E+00  0.00000000E+00  0.00000000E+00
  0.00000000E+00  0.00000000E+00  0.00000000E+00
  0.00000000E+00  0.00000000E+00  0.00000000E+00
  0.00000000E+00  0.00000000E+00  0.00000000E+00
  0.00000000E+00  0.00000000E+00  0.00000000E+00
  0.00000000E+00  0.00000000E+00  0.00000000E+00
  0.00000000E+00  0.00000000E+00  0.00000000E+00
  0.00000000E+00  0.00000000E+00  0.00000000E+00
  0.00000000E+00  0.00000000E+00  0.00000000E+00
  0.00000000E+00  0.00000000E+00  0.00000000E+00
  0.00000000E+00  0.00000000E+00  0.00000000E+00
  0.00000000E+00  0.00000000E+00  0.00000000E+00
  0.00000000E+00  0.00000000E+00  0.00000000E+00
  0.00000000E+00  0.00000000E+00  0.00000000E+00
  0.00000000E+00  0.00000000E+00  0.00000000E+00
  0.00000000E+00  0.00000000E+00  0.00000000E+00
  0.00000000E+00  0.00000000E+00  0.00000000E+00
  0.00000000E+00  0.00000000E+00  0.00000000E+00
  0.00000000E+00  0.00000000E+00  0.00000000E+00
  0.00000000E+00  0.00000000E+00  0.00000000E+00
  0.00000000E+00  0.00000000E+00  0.00000000E+00
  0.00000000E+00  0.00000000E+00  0.00000000E+00
  0.00000000E+00  0.00000000E+00  0.00000000E+00
  0.00000000E+00  0.00000000E+00  0.00000000E+00
  0.00000000E+00  0.00000000E+00  0.00000000E+00
  0.00000000E+00  0.00000000E+00  0.00000000E+00
  0.00000000E+00  0.00000000E+00  0.00000000E+00
  0.00000000E+00  0.00000000E+00  0.00000000E+00
  0.00000000E+00  0.00000000E+00  0.00000000E+00
  0.00000000E+00  0.00000000E+00  0.00000000E+00
  0.00000000E+00  0.00000000E+00  0.00000000E+00
  0.00000000E+00  0.00000000E+00  0.00000000E+00
  0.00000000E+00  0.00000000E+00  0.00000000E+00
  0.00000000E+00  0.00000000E+00  0.00000000E+00
  0.00000000E+00  0.00000000E+00  0.00000000E+00
  0.00000000E+00  0.00000000E+00  0.00000000E+00
  0.00000000E+00  0.00000000E+00  0.00000000E+00
  0.00000000E+00  0.00000000E+00  0.00000000E+00
  0.00000000E+00  0.00000000E+00  0.00000000E+00
  0.00000000E+00  0.00000000E+00  0.00000000E+00
  0.00000000E+00  0.00000000E+00  0.00000000E+00
  0.00000000E+00  0.00000000E+00  0.00000000E+00
  0.00000000E+00  0.00000000E+00  0.00000000E+00
  0.00000000E+00  0.00000000E+00  0.00000000E+00
  0.00000000E+00  0.00000000E+00  0.00000000E+00
  0.00000000E+00  0.00000000E+00  0.00000000E+00
  0.00000000E+00  0.00000000E+00  0.00000000E+00
  0.00000000E+00  0.00000000E+00  0.00000000E+00
  0.00000000E+00  0.00000000E+00  0.00000000E+00
  0.00000000E+00  0.00000000E+00  0.00000000E+00
  0.00000000E+00  0.00000000E+00  0.00000000E+00
  0.00000000E+00  0.00000000E+00  0.00000000E+00
  0.00000000E+00  0.00000000E+00  0.00000000E+00
  0.00000000E+00  0.00000000E+00  0.00000000E+00
  0.00000000E+00  0.00000000E+00  0.00000000E+00
  0.00000000E+00  0.00000000E+00  0.00000000E+00
  0.00000000E+00  0.00000000E+00  0.00000000E+00
  0.00000000E+00  0.00000000E+00  0.00000000E+00
  0.00000000E+00  0.00000000E+00  0.00000000E+00
  0.00000000E+00  0.00000000E+00  0.00000000E+00
  0.00000000E+00  0.00000000E+00  0.00000000E+00
  0.00000000E+00  0.00000000E+00  0.00000000E+00
  0.00000000E+00  0.00000000E+00  0.00000000E+00
  0.00000000E+00  0.00000000E+00  0.00000000E+00
  0.00000000E+00  0.00000000E+00  0.00000000E+00
  0.00000000E+00  0.00000000E+00  0.00000000E+00
  0.00000000E+00  0.00000000E+00  0.00000000E+00
