supercell of icsd_608626.cif            
   1.07770222697014     
     9.2284163225976279    0.0186182096464426   -0.0011475981704695
    -4.5988725496902934    7.9379695569207955   -0.0131328873144553
    -0.0016920261891529   -0.0170159374743413    9.6963600158382892
   Al   La   N 
    28     8    36
Direct
  0.1910848825254732  0.1019161433810538  0.2510531657784298
  0.1021630661912099  0.2124584812462160  0.4957225911662348
  0.7846616603147964  0.2225077530327795  0.0043443242583763
  0.2148900112252647  0.0987495154621882  0.7553687065475998
  0.0977516749061920  0.2043056216072685  0.0058874205643491
  0.8884421322737381  0.1108697648205492  0.2496735145791718
  0.7719608888607041  0.2222813279954750  0.4972396885159753
  0.5575869893382617  0.1156520014556719  0.7611270695270491
  0.1074399765803165  0.5450929187859685  0.5241430166093792
  0.8672557161762597  0.4370065726473484  0.7444346226367884
  0.7787874373828174  0.5609142374600182  0.9972671013700065
  0.5684071952052108  0.4646099312198402  0.2538461923342012
  0.4507110019340459  0.5594138951303691  0.4977749595174430
  0.2420225717805522  0.4211904733433443  0.7404812215549867
  0.8897177182288587  0.4493258883816580  0.2526353534349610
  0.7849950117790030  0.5634323249798996  0.4955717310556622
  0.5700701685553540  0.4483003365433689  0.7527571966153985
  0.4718932497100354  0.5714099818835408  0.0029712042876682
  0.0909538504454943  0.8792153496512682  0.5125345371676104
  0.8922160800357872  0.7701630688763288  0.7480123919326616
  0.7803876778728664  0.8910258591114584  0.0164862246211470
  0.5678467445543660  0.7806310499454341  0.2473189584602480
  0.4473148324375202  0.8910893679459235  0.5123183237784943
  0.2300747607219478  0.7999286283550759  0.7300734075519983
  0.0979697623372573  0.8905404660955725  0.9895689859697967
  0.8836970497475320  0.7763371582030487  0.2439100634693148
  0.7843571274442809  0.8830888850342973  0.4836652885094921
  0.4556149992545357  0.8894368290434045  0.9963651428819489
  0.8970274204092235  0.1181958980576354  0.7435350735912749
  0.5566991701557455  0.1205280193518377  0.2331627192602852
  0.4284491618259878  0.2303717095226574  0.5082563537156233
  0.4324053682816640  0.2303834514024174  0.9865232030233031
  0.2352257602658483  0.4475265966089381  0.2437030255168580
  0.1151028330991011  0.5583844139850314  0.9639157050439024
  0.2153496665854817  0.7920394423620820  0.2688313544968182
  0.5580247952618507  0.7671652142031675  0.7430915004916230
  0.1719639520465108  0.0764551815302710  0.4304718592695238
  0.0867036311869924  0.1942436515049906  0.1845802748973568
  0.8849356819444623  0.1081492444994296  0.9672953366053747
  0.7530275274463847  0.2360761459168259  0.6764770139902154
  0.5605836619158779  0.0941549286056187  0.4490996834771863
  0.4073128300430398  0.2499939184417883  0.2290516923187482
  0.1714008678811965  0.0890286845632460  0.9271113159160578
  0.1481040118527233  0.2200614071239713  0.6705856660168124
  0.8851144782048763  0.1131158586575154  0.4442316573212750
  0.8141529456150280  0.2435265935872550  0.1881120787011028
  0.5797438856197275  0.0977606942691978  0.9454607378204472
  0.4433284341112724  0.2202630932921110  0.7444565608892120
  0.2215744004967704  0.4416293974245562  0.4696539794569219
  0.0858078228982748  0.5565902922484938  0.1869176655133700
  0.8446902814400090  0.4221094105951479  0.9269016538159747
  0.7818308416920203  0.5577523132067199  0.6827830130999715
  0.5810297520803331  0.4869165714830999  0.4318113423873129
  0.4932256711824650  0.5816981788000817  0.1804004785687496
  0.2555770622901363  0.4181070115988064  0.9376629087258408
  0.1054345776196399  0.5344644412292467  0.7113511355300304
  0.8868883175904045  0.4436950857855919  0.4427530568006262
  0.7773906835058995  0.5507239954918504  0.1862410399393895
  0.5842408407346582  0.4923623799655132  0.9265133569624169
  0.4428072390762026  0.5127560788956700  0.6719133168340292
  0.2156055258624079  0.7694703324795498  0.5010099904122498
  0.0849050911512919  0.9003259497159348  0.1695497886111639
  0.8850659390421782  0.7744407434626481  0.9362009529307045
  0.8029556121615968  0.8715136678521276  0.6612162695361619
  0.5511084580745305  0.7771869245193770  0.4455871383905858
  0.4502314768646585  0.8614180048629194  0.1764390734805801
  0.2479978785292190  0.8287362780033263  0.9258367181992071
  0.1042251400801320  0.8880080723881676  0.6932915405836155
  0.8936226041251345  0.7709906910187954  0.4288494675537606
  0.7805887585185260  0.8919543367239058  0.2037995705164519
  0.5666752440082661  0.7843958647648961  0.9616210697391736
  0.4415904594026046  0.9144359983592167  0.6891902553523792
 
  0.00000000E+00  0.00000000E+00  0.00000000E+00
  0.00000000E+00  0.00000000E+00  0.00000000E+00
  0.00000000E+00  0.00000000E+00  0.00000000E+00
  0.00000000E+00  0.00000000E+00  0.00000000E+00
  0.00000000E+00  0.00000000E+00  0.00000000E+00
  0.00000000E+00  0.00000000E+00  0.00000000E+00
  0.00000000E+00  0.00000000E+00  0.00000000E+00
  0.00000000E+00  0.00000000E+00  0.00000000E+00
  0.00000000E+00  0.00000000E+00  0.00000000E+00
  0.00000000E+00  0.00000000E+00  0.00000000E+00
  0.00000000E+00  0.00000000E+00  0.00000000E+00
  0.00000000E+00  0.00000000E+00  0.00000000E+00
  0.00000000E+00  0.00000000E+00  0.00000000E+00
  0.00000000E+00  0.00000000E+00  0.00000000E+00
  0.00000000E+00  0.00000000E+00  0.00000000E+00
  0.00000000E+00  0.00000000E+00  0.00000000E+00
  0.00000000E+00  0.00000000E+00  0.00000000E+00
  0.00000000E+00  0.00000000E+00  0.00000000E+00
  0.00000000E+00  0.00000000E+00  0.00000000E+00
  0.00000000E+00  0.00000000E+00  0.00000000E+00
  0.00000000E+00  0.00000000E+00  0.00000000E+00
  0.00000000E+00  0.00000000E+00  0.00000000E+00
  0.00000000E+00  0.00000000E+00  0.00000000E+00
  0.00000000E+00  0.00000000E+00  0.00000000E+00
  0.00000000E+00  0.00000000E+00  0.00000000E+00
  0.00000000E+00  0.00000000E+00  0.00000000E+00
  0.00000000E+00  0.00000000E+00  0.00000000E+00
  0.00000000E+00  0.00000000E+00  0.00000000E+00
  0.00000000E+00  0.00000000E+00  0.00000000E+00
  0.00000000E+00  0.00000000E+00  0.00000000E+00
  0.00000000E+00  0.00000000E+00  0.00000000E+00
  0.00000000E+00  0.00000000E+00  0.00000000E+00
  0.00000000E+00  0.00000000E+00  0.00000000E+00
  0.00000000E+00  0.00000000E+00  0.00000000E+00
  0.00000000E+00  0.00000000E+00  0.00000000E+00
  0.00000000E+00  0.00000000E+00  0.00000000E+00
  0.00000000E+00  0.00000000E+00  0.00000000E+00
  0.00000000E+00  0.00000000E+00  0.00000000E+00
  0.00000000E+00  0.00000000E+00  0.00000000E+00
  0.00000000E+00  0.00000000E+00  0.00000000E+00
  0.00000000E+00  0.00000000E+00  0.00000000E+00
  0.00000000E+00  0.00000000E+00  0.00000000E+00
  0.00000000E+00  0.00000000E+00  0.00000000E+00
  0.00000000E+00  0.00000000E+00  0.00000000E+00
  0.00000000E+00  0.00000000E+00  0.00000000E+00
  0.00000000E+00  0.00000000E+00  0.00000000E+00
  0.00000000E+00  0.00000000E+00  0.00000000E+00
  0.00000000E+00  0.00000000E+00  0.00000000E+00
  0.00000000E+00  0.00000000E+00  0.00000000E+00
  0.00000000E+00  0.00000000E+00  0.00000000E+00
  0.00000000E+00  0.00000000E+00  0.00000000E+00
  0.00000000E+00  0.00000000E+00  0.00000000E+00
  0.00000000E+00  0.00000000E+00  0.00000000E+00
  0.00000000E+00  0.00000000E+00  0.00000000E+00
  0.00000000E+00  0.00000000E+00  0.00000000E+00
  0.00000000E+00  0.00000000E+00  0.00000000E+00
  0.00000000E+00  0.00000000E+00  0.00000000E+00
  0.00000000E+00  0.00000000E+00  0.00000000E+00
  0.00000000E+00  0.00000000E+00  0.00000000E+00
  0.00000000E+00  0.00000000E+00  0.00000000E+00
  0.00000000E+00  0.00000000E+00  0.00000000E+00
  0.00000000E+00  0.00000000E+00  0.00000000E+00
  0.00000000E+00  0.00000000E+00  0.00000000E+00
  0.00000000E+00  0.00000000E+00  0.00000000E+00
  0.00000000E+00  0.00000000E+00  0.00000000E+00
  0.00000000E+00  0.00000000E+00  0.00000000E+00
  0.00000000E+00  0.00000000E+00  0.00000000E+00
  0.00000000E+00  0.00000000E+00  0.00000000E+00
  0.00000000E+00  0.00000000E+00  0.00000000E+00
  0.00000000E+00  0.00000000E+00  0.00000000E+00
  0.00000000E+00  0.00000000E+00  0.00000000E+00
  0.00000000E+00  0.00000000E+00  0.00000000E+00
