supercell of POSCAR                     
   1.01800000000000     
     3.1310994802600001   -5.4896946145000003   10.0244832682999991
    -9.4821132118399998   -5.5089477087900001    0.0170740616273000
     6.3359946057599998  -11.0114127993000004  -10.0652216442999993
   Al   Gd   N    O 
    84    12    95     1
Direct
  0.0870886927913332  0.5855409720366680  0.3355743066795185
  0.5022560359402206  0.3193394925032180  0.2578798911144986
  0.0851599207390095  0.0848618846432316  0.3344404574654192
  0.2513286299249202  0.5792044461565382  0.4949235709587185
  0.3304794412263874  0.3147690757257280  0.0751176158461888
  0.4171744413190765  0.0853745672154815  0.1705296642533369
  0.0067102065637457  0.8433030186082533  0.2549190685212537
  0.1669453077580556  0.3314715833057278  0.4134399044448145
  0.2474482972642704  0.0869003245529711  0.4962262059154554
  0.1615761852266218  0.8370029408323703  0.4162497376625183
  0.3362709090005822  0.6737826847630330  0.3402847989686890
  0.1546685806563204  0.6742969133238503  0.1661934575274415
  0.2400382751534380  0.4042641572168861  0.2568480417842096
  0.3330333580410141  0.1631296433456058  0.3342975357354021
  0.0062131519135136  0.6734637917732371  0.4948415195285207
  0.1659664752998040  0.1583585482871612  0.1694421622240725
  0.2520986838789625  0.9198928815524425  0.2556921227334996
  0.4113955381385921  0.4152691381688101  0.4160273882497094
  0.4982301789552537  0.1615690795466591  0.4969118852427741
  0.0835300601285240  0.9231995491920699  0.0799101203709967
  0.4194849644560961  0.9196960237381759  0.4118200402467949
  0.0904446744797909  0.5853940541542286  0.8350758097458382
  0.5003407832339590  0.3226755160223576  0.7554102743081543
  0.0866736321856862  0.0852070186149518  0.8343262520550709
  0.2532101746516346  0.5788208809400572  0.9953665212423104
  0.3320824202812744  0.3183944369603040  0.5785939510062974
  0.4174365513685174  0.0871835202325713  0.6711365366443403
  0.0081285536194855  0.8437505054956205  0.7552029897282395
  0.1686035691329195  0.3318319123425084  0.9122483295824679
  0.2482542003158699  0.0858659221254854  0.9959556714750306
  0.1631378861166368  0.8371366609800290  0.9163849351866702
  0.3374286773102142  0.6740463974823001  0.8402841025207906
  0.1549845748255905  0.6753136505302919  0.6659497760609625
  0.2510460909729133  0.4022443339652213  0.7525429023708341
  0.3350402002550581  0.1643415453008288  0.8341693669825432
  0.0073328058650191  0.6737766482856316  0.9943514266842399
  0.1673660222818967  0.1591976490267513  0.6696021682827435
  0.2533545777195769  0.9204512894879713  0.7559971787826427
  0.4139867176340744  0.4155616331974983  0.9154772003086862
  0.4998073188982772  0.1619233617880198  0.9971357522697559
  0.0831485801857070  0.9239250459813633  0.5798047526493306
  0.4207285989240219  0.9203633989571216  0.9118685457704530
  0.5886842124498273  0.5860158261154709  0.3341973773778761
  0.9976991698822744  0.3221454298277919  0.2548884313107962
  0.5854063448016689  0.0844527635045367  0.3343472059379025
  0.7513357985995697  0.5793709000655696  0.4943843885005919
  0.8331380239614745  0.3175426797271328  0.0774758048864044
  0.9166410038535773  0.0864684377784712  0.1706343355694031
  0.5065164835118310  0.8434269912198928  0.2544551110371813
  0.6678260033982255  0.3322001621456963  0.4123204102212910
  0.7473422083060655  0.0873895258633866  0.4957776778857337
  0.6615775412705460  0.8372447834928067  0.4160188189500857
  0.8361402391814892  0.6741423315833188  0.3401586325530062
  0.6537698542300134  0.6755712365269630  0.1658756508342805
  0.7488287750027638  0.4028589083999421  0.2517629488931590
  0.8337342279558086  0.1640676605909945  0.3338427652367741
  0.5063316982723265  0.6734236430421277  0.4947636723054671
  0.6663469454002779  0.1593750886564962  0.1687116192882456
  0.7521922254779341  0.9204619739097524  0.2555085843638594
  0.9118496817273041  0.4148792446575129  0.4151736049735746
  0.9982251994421887  0.1614019286255939  0.4968756576313496
  0.5835169590470244  0.9238608771068044  0.0795319291357828
  0.9196190917609783  0.9199555044002565  0.4116561367483342
  0.5901269561336164  0.5853695618169610  0.8344510742188760
  0.0005040909360829  0.3227990595809374  0.7554999465342433
  0.5864369175187960  0.0853343344627717  0.8342786229932315
  0.7534916211676475  0.5794991113738277  0.9935651340662588
  0.8321527344267636  0.3185778897542022  0.5779825616610452
  0.9175617465212369  0.0872183331754002  0.6709940683119981
  0.5078229774409664  0.8436945015492654  0.7551869366361501
  0.6694590557390043  0.3318411992996744  0.9109096648928698
  0.7481683097896976  0.0869540377439506  0.9956408235573946
  0.6627676596187584  0.8371363541306778  0.9159820560129930
  0.8378502643759376  0.6740617131789222  0.8399145495409073
  0.6549485203255401  0.6754784205458719  0.6655327414723473
  0.7512215657379997  0.4021779288475003  0.7515540647591195
  0.8351876969303262  0.1639060293207777  0.8337058939883235
  0.5071499505324226  0.6738569941362655  0.9942049560458344
  0.6672656482350163  0.1591530762329967  0.6693957016615855
  0.7532150715946742  0.9203514661028223  0.7558391300391492
  0.9132177386655158  0.4146721985810657  0.9149871047165377
  0.9992315945056944  0.1608327177218527  0.9965646540116282
  0.5829581705781308  0.9240851361750302  0.5797058430086537
  0.9206429446075077  0.9199492887029379  0.9115930016637890
  0.3997019873614320  0.5731608914020256  0.1795614097671887
  0.3330265594751936  0.8335109642463649  0.0838820041727431
  0.0807258096238996  0.4196998707145099  0.0839540716648486
  0.3981706461411889  0.5800642283748445  0.6787189824327839
  0.3318464351942083  0.8369905572441994  0.5836875533595887
  0.0816145103022876  0.4187582284403106  0.5852901072244023
  0.8972420829110703  0.5796574026743926  0.1782566884495509
  0.8319696053798609  0.8352582362443428  0.0830208845548839
  0.5875754425017874  0.4221672548756459  0.0824260637635419
  0.8980616481133552  0.5806908056632665  0.6784836754536698
  0.8316158861385929  0.8376885218905841  0.5833600423948937
  0.5818390274131673  0.4188510230359341  0.5850224249928146
  0.2176056501635486  0.5791713633790891  0.2670146565484970
  0.0328672347397401  0.6117445717184822  0.1007692584225666
  0.1288048011031364  0.3176249335368766  0.1992284726092564
  0.2115140937083382  0.0826204237521182  0.2720033069388776
  0.3818006431843131  0.5839314399014057  0.4371003552934880
  0.4505732342755238  0.3210682416210844  0.0127476479615467
  0.0405699445602039  0.0852631284111922  0.1036599552441047
  0.1322086774026374  0.8416508792842237  0.1859461969559248
  0.2957332432674491  0.3293227882847134  0.3521232251525248
  0.3763817845065631  0.0806908100758932  0.4349230103759396
  0.4763223937056580  0.8380878890796737  0.0081356698891071
  0.2922152898026482  0.8348686361053481  0.3560907037802465
  0.4692720348720840  0.6843167477114704  0.2845083196421427
  0.2662788442421586  0.6509788938534840  0.0979274867700681
  0.4601562195065654  0.1626844940357444  0.2733343604083558
  0.1340213740844334  0.6656977298459950  0.4332071263815536
  0.2255391978023908  0.4116871632440038  0.0106054932111519
  0.2902466440361167  0.1583054751826083  0.1028603442212201
  0.3836706964019356  0.9277396098153901  0.2014304716582345
  0.0429353138061188  0.4191608533497586  0.3511872576155568
  0.1265204622234677  0.1705832882615681  0.4344712928448118
  0.1981460342394286  0.9309644716540646  0.0112702824369677
  0.0481698326753701  0.9238376567132676  0.3523012973306479
  0.2190528556329951  0.5815314863208982  0.7671037190221597
  0.0333778830726530  0.6111130634987632  0.6007500743440417
  0.1307477039567857  0.3176589101359539  0.7007021572480738
  0.2130426874840765  0.0830169815010962  0.7724445825834465
  0.3828953171164216  0.5839390472239074  0.9378226025959293
  0.4486240437823810  0.3194627645135526  0.5101442626429247
  0.0406626802328987  0.0860576377090325  0.6036201770411509
  0.1327694500309207  0.8430210020401177  0.6858875358389511
  0.2973215464087744  0.3300536949435227  0.8531190978091772
  0.3775390992551095  0.0816233958876040  0.9357209618929900
  0.4756234282734866  0.8380153986842984  0.5078913628311952
  0.2934329257078545  0.8355589668042072  0.8567587446575970
  0.4719734917555201  0.6853050915065992  0.7870674001655971
  0.2639333027654018  0.6556115207735687  0.5951448478773358
  0.3747643664630189  0.3824694595857778  0.6854694452019601
  0.4623390998420263  0.1629932447013545  0.7741810827881821
  0.1360365905240712  0.6654952132925374  0.9342714978998927
  0.2242050206372994  0.4121012168896669  0.5092758927375840
  0.2901259069098927  0.1574781043152669  0.6020648847768655
  0.3850539615598478  0.9281565303141548  0.7022393242584357
  0.0440823630891956  0.4197119302634107  0.8525920572023082
  0.1278649108345604  0.1706729216001506  0.9349769882943733
  0.1964309837437597  0.9318904003934350  0.5100569207791992
  0.0496385995951485  0.9241571267494209  0.8529146893860613
  0.7170195106420607  0.5813940731325573  0.2664127090040509
  0.5307596193068278  0.6115912271679136  0.1012385734224281
  0.6264517886322096  0.3194460435049535  0.1988525926348856
  0.7112274078697425  0.0834924759155840  0.2716135411081595
  0.8819399628847364  0.5837813400762357  0.4369469092100005
  0.9496984154076173  0.3185565487549979  0.0099681193006020
  0.5403371070569492  0.0856092888481967  0.1036574249082989
  0.6314950770228691  0.8427687424913728  0.1856796422548541
  0.7951061196537239  0.3298807053315826  0.3514562612519470
  0.8762931593267353  0.0809434927929473  0.4347513056071932
  0.9763538999026906  0.8381114694074583  0.0080170883497530
  0.7920275233226803  0.8355535809245609  0.3560895472470804
  0.9704686960002107  0.6850335605209352  0.2864817093086103
  0.7619073972662918  0.6537090651561854  0.0948144345897646
  0.8725100104358816  0.3821864971470958  0.1847598782159992
  0.9612638592359275  0.1625052187951894  0.2736177713670074
  0.6334267226879575  0.6657474992040875  0.4325131616044331
  0.7274345119564529  0.4120214161898730  0.0073913679858606
  0.7895371700223492  0.1578801701616399  0.1018438706700664
  0.8838549725151452  0.9275577819215854  0.2014452755144518
  0.5404382464438058  0.4201750288396795  0.3505322509451148
  0.6260143142232764  0.1712980381263947  0.4339158763274966
  0.6971801422042390  0.9319715014716792  0.0103332172320947
  0.5476508956927475  0.9236201421563379  0.3520120046102448
  0.7190233348621433  0.5814817808050847  0.7665726221257501
  0.5332204873203921  0.6110643514251848  0.6006395398632307
  0.6304421135851896  0.3176355565779616  0.7003524209502743
  0.7127627702377168  0.0828683659418274  0.7721998965859029
  0.8836713172311690  0.5840645293577964  0.9371481552425038
  0.9487756199924533  0.3194541662334487  0.5097763924561960
  0.5404977350152365  0.0861178319161695  0.6035782150652906
  0.6325395505558831  0.8430045569918931  0.6857397396532647
  0.7974464269747443  0.3295138216227258  0.8514757996925510
  0.8771657916342122  0.0806883929467688  0.9349890893763586
  0.9756445636601825  0.8381544952408291  0.5079044271872348
  0.7932631597830877  0.8351804507771874  0.8564721555128898
  0.9726357561210790  0.6852694460707554  0.7870948719651523
  0.7638134950940128  0.6561317158704654  0.5945517767946953
  0.8753272632411893  0.3829084410109758  0.6847991467210690
  0.9626956940186489  0.1629081594561086  0.7740153129166245
  0.6350180991727399  0.6654777847487736  0.9332972206001244
  0.7238208894514884  0.4123531895920891  0.5086974214752757
  0.7900595700854041  0.1576771151637431  0.6018253638132336
  0.8851328181104208  0.9280919472305271  0.7022366729016696
  0.5436575248282267  0.4197097952111619  0.8523652660592660
  0.6272086169352065  0.1715871868196075  0.9346431709089487
  0.6959482866282869  0.9324637513237448  0.5097374982403551
  0.5492457251088112  0.9243419083914191  0.8527612997704921
  0.3697895024369160  0.3756727931760153  0.1876117685573746
 
  0.00000000E+00  0.00000000E+00  0.00000000E+00
  0.00000000E+00  0.00000000E+00  0.00000000E+00
  0.00000000E+00  0.00000000E+00  0.00000000E+00
  0.00000000E+00  0.00000000E+00  0.00000000E+00
  0.00000000E+00  0.00000000E+00  0.00000000E+00
  0.00000000E+00  0.00000000E+00  0.00000000E+00
  0.00000000E+00  0.00000000E+00  0.00000000E+00
  0.00000000E+00  0.00000000E+00  0.00000000E+00
  0.00000000E+00  0.00000000E+00  0.00000000E+00
  0.00000000E+00  0.00000000E+00  0.00000000E+00
  0.00000000E+00  0.00000000E+00  0.00000000E+00
  0.00000000E+00  0.00000000E+00  0.00000000E+00
  0.00000000E+00  0.00000000E+00  0.00000000E+00
  0.00000000E+00  0.00000000E+00  0.00000000E+00
  0.00000000E+00  0.00000000E+00  0.00000000E+00
  0.00000000E+00  0.00000000E+00  0.00000000E+00
  0.00000000E+00  0.00000000E+00  0.00000000E+00
  0.00000000E+00  0.00000000E+00  0.00000000E+00
  0.00000000E+00  0.00000000E+00  0.00000000E+00
  0.00000000E+00  0.00000000E+00  0.00000000E+00
  0.00000000E+00  0.00000000E+00  0.00000000E+00
  0.00000000E+00  0.00000000E+00  0.00000000E+00
  0.00000000E+00  0.00000000E+00  0.00000000E+00
  0.00000000E+00  0.00000000E+00  0.00000000E+00
  0.00000000E+00  0.00000000E+00  0.00000000E+00
  0.00000000E+00  0.00000000E+00  0.00000000E+00
  0.00000000E+00  0.00000000E+00  0.00000000E+00
  0.00000000E+00  0.00000000E+00  0.00000000E+00
  0.00000000E+00  0.00000000E+00  0.00000000E+00
  0.00000000E+00  0.00000000E+00  0.00000000E+00
  0.00000000E+00  0.00000000E+00  0.00000000E+00
  0.00000000E+00  0.00000000E+00  0.00000000E+00
  0.00000000E+00  0.00000000E+00  0.00000000E+00
  0.00000000E+00  0.00000000E+00  0.00000000E+00
  0.00000000E+00  0.00000000E+00  0.00000000E+00
  0.00000000E+00  0.00000000E+00  0.00000000E+00
  0.00000000E+00  0.00000000E+00  0.00000000E+00
  0.00000000E+00  0.00000000E+00  0.00000000E+00
  0.00000000E+00  0.00000000E+00  0.00000000E+00
  0.00000000E+00  0.00000000E+00  0.00000000E+00
  0.00000000E+00  0.00000000E+00  0.00000000E+00
  0.00000000E+00  0.00000000E+00  0.00000000E+00
  0.00000000E+00  0.00000000E+00  0.00000000E+00
  0.00000000E+00  0.00000000E+00  0.00000000E+00
  0.00000000E+00  0.00000000E+00  0.00000000E+00
  0.00000000E+00  0.00000000E+00  0.00000000E+00
  0.00000000E+00  0.00000000E+00  0.00000000E+00
  0.00000000E+00  0.00000000E+00  0.00000000E+00
  0.00000000E+00  0.00000000E+00  0.00000000E+00
  0.00000000E+00  0.00000000E+00  0.00000000E+00
  0.00000000E+00  0.00000000E+00  0.00000000E+00
  0.00000000E+00  0.00000000E+00  0.00000000E+00
  0.00000000E+00  0.00000000E+00  0.00000000E+00
  0.00000000E+00  0.00000000E+00  0.00000000E+00
  0.00000000E+00  0.00000000E+00  0.00000000E+00
  0.00000000E+00  0.00000000E+00  0.00000000E+00
  0.00000000E+00  0.00000000E+00  0.00000000E+00
  0.00000000E+00  0.00000000E+00  0.00000000E+00
  0.00000000E+00  0.00000000E+00  0.00000000E+00
  0.00000000E+00  0.00000000E+00  0.00000000E+00
  0.00000000E+00  0.00000000E+00  0.00000000E+00
  0.00000000E+00  0.00000000E+00  0.00000000E+00
  0.00000000E+00  0.00000000E+00  0.00000000E+00
  0.00000000E+00  0.00000000E+00  0.00000000E+00
  0.00000000E+00  0.00000000E+00  0.00000000E+00
  0.00000000E+00  0.00000000E+00  0.00000000E+00
  0.00000000E+00  0.00000000E+00  0.00000000E+00
  0.00000000E+00  0.00000000E+00  0.00000000E+00
  0.00000000E+00  0.00000000E+00  0.00000000E+00
  0.00000000E+00  0.00000000E+00  0.00000000E+00
  0.00000000E+00  0.00000000E+00  0.00000000E+00
  0.00000000E+00  0.00000000E+00  0.00000000E+00
  0.00000000E+00  0.00000000E+00  0.00000000E+00
  0.00000000E+00  0.00000000E+00  0.00000000E+00
  0.00000000E+00  0.00000000E+00  0.00000000E+00
  0.00000000E+00  0.00000000E+00  0.00000000E+00
  0.00000000E+00  0.00000000E+00  0.00000000E+00
  0.00000000E+00  0.00000000E+00  0.00000000E+00
  0.00000000E+00  0.00000000E+00  0.00000000E+00
  0.00000000E+00  0.00000000E+00  0.00000000E+00
  0.00000000E+00  0.00000000E+00  0.00000000E+00
  0.00000000E+00  0.00000000E+00  0.00000000E+00
  0.00000000E+00  0.00000000E+00  0.00000000E+00
  0.00000000E+00  0.00000000E+00  0.00000000E+00
  0.00000000E+00  0.00000000E+00  0.00000000E+00
  0.00000000E+00  0.00000000E+00  0.00000000E+00
  0.00000000E+00  0.00000000E+00  0.00000000E+00
  0.00000000E+00  0.00000000E+00  0.00000000E+00
  0.00000000E+00  0.00000000E+00  0.00000000E+00
  0.00000000E+00  0.00000000E+00  0.00000000E+00
  0.00000000E+00  0.00000000E+00  0.00000000E+00
  0.00000000E+00  0.00000000E+00  0.00000000E+00
  0.00000000E+00  0.00000000E+00  0.00000000E+00
  0.00000000E+00  0.00000000E+00  0.00000000E+00
  0.00000000E+00  0.00000000E+00  0.00000000E+00
  0.00000000E+00  0.00000000E+00  0.00000000E+00
  0.00000000E+00  0.00000000E+00  0.00000000E+00
  0.00000000E+00  0.00000000E+00  0.00000000E+00
  0.00000000E+00  0.00000000E+00  0.00000000E+00
  0.00000000E+00  0.00000000E+00  0.00000000E+00
  0.00000000E+00  0.00000000E+00  0.00000000E+00
  0.00000000E+00  0.00000000E+00  0.00000000E+00
  0.00000000E+00  0.00000000E+00  0.00000000E+00
  0.00000000E+00  0.00000000E+00  0.00000000E+00
  0.00000000E+00  0.00000000E+00  0.00000000E+00
  0.00000000E+00  0.00000000E+00  0.00000000E+00
  0.00000000E+00  0.00000000E+00  0.00000000E+00
  0.00000000E+00  0.00000000E+00  0.00000000E+00
  0.00000000E+00  0.00000000E+00  0.00000000E+00
  0.00000000E+00  0.00000000E+00  0.00000000E+00
  0.00000000E+00  0.00000000E+00  0.00000000E+00
  0.00000000E+00  0.00000000E+00  0.00000000E+00
  0.00000000E+00  0.00000000E+00  0.00000000E+00
  0.00000000E+00  0.00000000E+00  0.00000000E+00
  0.00000000E+00  0.00000000E+00  0.00000000E+00
  0.00000000E+00  0.00000000E+00  0.00000000E+00
  0.00000000E+00  0.00000000E+00  0.00000000E+00
  0.00000000E+00  0.00000000E+00  0.00000000E+00
  0.00000000E+00  0.00000000E+00  0.00000000E+00
  0.00000000E+00  0.00000000E+00  0.00000000E+00
  0.00000000E+00  0.00000000E+00  0.00000000E+00
  0.00000000E+00  0.00000000E+00  0.00000000E+00
  0.00000000E+00  0.00000000E+00  0.00000000E+00
  0.00000000E+00  0.00000000E+00  0.00000000E+00
  0.00000000E+00  0.00000000E+00  0.00000000E+00
  0.00000000E+00  0.00000000E+00  0.00000000E+00
  0.00000000E+00  0.00000000E+00  0.00000000E+00
  0.00000000E+00  0.00000000E+00  0.00000000E+00
  0.00000000E+00  0.00000000E+00  0.00000000E+00
  0.00000000E+00  0.00000000E+00  0.00000000E+00
  0.00000000E+00  0.00000000E+00  0.00000000E+00
  0.00000000E+00  0.00000000E+00  0.00000000E+00
  0.00000000E+00  0.00000000E+00  0.00000000E+00
  0.00000000E+00  0.00000000E+00  0.00000000E+00
  0.00000000E+00  0.00000000E+00  0.00000000E+00
  0.00000000E+00  0.00000000E+00  0.00000000E+00
  0.00000000E+00  0.00000000E+00  0.00000000E+00
  0.00000000E+00  0.00000000E+00  0.00000000E+00
  0.00000000E+00  0.00000000E+00  0.00000000E+00
  0.00000000E+00  0.00000000E+00  0.00000000E+00
  0.00000000E+00  0.00000000E+00  0.00000000E+00
  0.00000000E+00  0.00000000E+00  0.00000000E+00
  0.00000000E+00  0.00000000E+00  0.00000000E+00
  0.00000000E+00  0.00000000E+00  0.00000000E+00
  0.00000000E+00  0.00000000E+00  0.00000000E+00
  0.00000000E+00  0.00000000E+00  0.00000000E+00
  0.00000000E+00  0.00000000E+00  0.00000000E+00
  0.00000000E+00  0.00000000E+00  0.00000000E+00
  0.00000000E+00  0.00000000E+00  0.00000000E+00
  0.00000000E+00  0.00000000E+00  0.00000000E+00
  0.00000000E+00  0.00000000E+00  0.00000000E+00
  0.00000000E+00  0.00000000E+00  0.00000000E+00
  0.00000000E+00  0.00000000E+00  0.00000000E+00
  0.00000000E+00  0.00000000E+00  0.00000000E+00
  0.00000000E+00  0.00000000E+00  0.00000000E+00
  0.00000000E+00  0.00000000E+00  0.00000000E+00
  0.00000000E+00  0.00000000E+00  0.00000000E+00
  0.00000000E+00  0.00000000E+00  0.00000000E+00
  0.00000000E+00  0.00000000E+00  0.00000000E+00
  0.00000000E+00  0.00000000E+00  0.00000000E+00
  0.00000000E+00  0.00000000E+00  0.00000000E+00
  0.00000000E+00  0.00000000E+00  0.00000000E+00
  0.00000000E+00  0.00000000E+00  0.00000000E+00
  0.00000000E+00  0.00000000E+00  0.00000000E+00
  0.00000000E+00  0.00000000E+00  0.00000000E+00
  0.00000000E+00  0.00000000E+00  0.00000000E+00
  0.00000000E+00  0.00000000E+00  0.00000000E+00
  0.00000000E+00  0.00000000E+00  0.00000000E+00
  0.00000000E+00  0.00000000E+00  0.00000000E+00
  0.00000000E+00  0.00000000E+00  0.00000000E+00
  0.00000000E+00  0.00000000E+00  0.00000000E+00
  0.00000000E+00  0.00000000E+00  0.00000000E+00
  0.00000000E+00  0.00000000E+00  0.00000000E+00
  0.00000000E+00  0.00000000E+00  0.00000000E+00
  0.00000000E+00  0.00000000E+00  0.00000000E+00
  0.00000000E+00  0.00000000E+00  0.00000000E+00
  0.00000000E+00  0.00000000E+00  0.00000000E+00
  0.00000000E+00  0.00000000E+00  0.00000000E+00
  0.00000000E+00  0.00000000E+00  0.00000000E+00
  0.00000000E+00  0.00000000E+00  0.00000000E+00
  0.00000000E+00  0.00000000E+00  0.00000000E+00
  0.00000000E+00  0.00000000E+00  0.00000000E+00
  0.00000000E+00  0.00000000E+00  0.00000000E+00
  0.00000000E+00  0.00000000E+00  0.00000000E+00
  0.00000000E+00  0.00000000E+00  0.00000000E+00
  0.00000000E+00  0.00000000E+00  0.00000000E+00
  0.00000000E+00  0.00000000E+00  0.00000000E+00
  0.00000000E+00  0.00000000E+00  0.00000000E+00
  0.00000000E+00  0.00000000E+00  0.00000000E+00
  0.00000000E+00  0.00000000E+00  0.00000000E+00
  0.00000000E+00  0.00000000E+00  0.00000000E+00
  0.00000000E+00  0.00000000E+00  0.00000000E+00
