supercell of 100% icsd_608626.cif, 0% i 
   1.00000000000000     
    -9.7882714771697419   -0.0225422178945540    0.0311142112763557
    -4.8745449591672259    8.3191614888881613    0.0474360500700384
     0.0334099119316224   -0.0391383917694594  -10.2249478122542747
   Al   Ge   Ca   N 
    26     5     5    36
Direct
  0.1186415278875117  0.0942323585856357  0.2993892542947307
  0.8813021025753898  0.2113530740830001  0.5315710044028705
  0.4439181121240239  0.0951657349981261  0.2962821732049008
  0.5518273456419038  0.2037935679286420  0.0472086329831853
  0.2307663212635447  0.2088883770170540  0.5489559134911275
  0.7689980840230035  0.0927682507685148  0.3122730372904599
  0.4471529803907686  0.0958187727707198  0.7945247037620504
  0.5489436972734438  0.2104609533951276  0.5353909250121163
  0.2253904321705562  0.5406982490997194  0.0462839997071072
  0.7864708864911307  0.4212248989558702  0.7917842119670908
  0.4450264488847608  0.4286809253673738  0.2962198466441919
  0.1162830264961769  0.4292290229508922  0.7983251404269538
  0.2357187539065464  0.5333136520352681  0.5491334764196836
  0.7740931401652915  0.4332118305527430  0.2917320807190364
  0.8789071661605803  0.5443751210894234  0.0412253494596655
  0.4344256846799013  0.4220706355752171  0.7955544376154933
  0.5548003809035080  0.5310790876333442  0.5494661481335683
  0.1123903691468158  0.7641205150936869  0.2890880688856328
  0.2323101207692559  0.8720237950140373  0.0510549327803673
  0.7701728451124339  0.7636301520073943  0.8069745327112869
  0.4470102327602206  0.7606484331748291  0.2997413045452575
  0.5539609996090675  0.8720357003562427  0.0483101262532486
  0.2293456240604499  0.8664940340146643  0.5403662621093233
  0.7766617365767274  0.7610060872117046  0.2845096675291714
  0.8714857844591393  0.8755107060860254  0.0606556727364591
  0.5545293239492537  0.8765569955183210  0.5492054697001834
  0.2290351283614385  0.1993609286511102  0.0444969835734881
  0.1155038058308975  0.1008790157579043  0.7886595378028360
  0.1103866943078842  0.4291322069174299  0.2949959673906974
  0.5513148499940073  0.5435783107965406  0.0472808006882417
  0.4469266464961663  0.7671228106498518  0.7922944095566180
  0.7690145989688943  0.0954217930220835  0.7744238781505004
  0.8909105465594251  0.1911869836979108  0.0613129448963363
  0.8885902932389627  0.5365219025192545  0.5565399798559483
  0.8983898174516654  0.8527648619794377  0.5364930250388582
  0.1062227549757253  0.7660112955686245  0.8104931234096000
  0.2225795714111527  0.2106989843976024  0.3576946117017812
  0.1495575811940384  0.0806749090844860  0.1165964349554045
  0.9135867371821220  0.2079744418464884  0.8428597140702223
  0.7651760239827752  0.1131263928545252  0.5432781835455671
  0.5369281072671015  0.2146235589276770  0.3495155545100772
  0.4389309392537584  0.0969591257995006  0.1061370252533180
  0.2260622628899895  0.2049106529964462  0.8558468293099324
  0.1177088089822504  0.0957292682201327  0.5980477808784315
  0.8965067001039273  0.2104989588102342  0.3390176736150963
  0.7467828500358351  0.0873138082192426  0.1236756688588514
  0.5291022785965183  0.2164969578296834  0.8650298705365671
  0.4438661524449685  0.0960302737277701  0.6049973230721406
  0.2220528997221933  0.5364972341549219  0.3484641206250316
  0.1128872681898443  0.4237421191232897  0.1037941456065923
  0.8916370398973186  0.5328724991024743  0.8529248756380881
  0.7600682582763483  0.4128367248197975  0.6122862585114248
  0.5548089430353258  0.5394538161271072  0.3580136573128243
  0.4447580295743876  0.4342191883807516  0.1076627855329164
  0.2342158572949700  0.5120999550674128  0.8690242892689000
  0.1450901351691840  0.4155117975506712  0.6155102171313729
  0.8934090410933209  0.5375773299021489  0.3308597006712830
  0.7557511975017661  0.4571266239537124  0.1067082971275468
  0.5506129679396281  0.5423735368394844  0.8562459242489666
  0.4483580579301076  0.4232491602281883  0.6069953303182629
  0.2278513258858297  0.8729304406149438  0.3515906971404590
  0.1187054631366777  0.7642849414853785  0.0980530884715805
  0.8637419203783168  0.8666225224341417  0.8807032202200773
  0.7426319082018509  0.7801414892240146  0.6303255748285181
  0.5560981764622355  0.8726204630437380  0.3549507234205507
  0.4461701175802801  0.7591976684949202  0.1084507401626240
  0.2427510564407100  0.8929994460798483  0.8639984641375662
  0.1499681200400502  0.7439769791062361  0.5921856617161438
  0.8951731150016400  0.8607282413163588  0.3170299723125183
  0.7660712037398838  0.7575544609309759  0.1018023115279476
  0.5471876495981576  0.8741524747587874  0.8619641180380739
  0.4463839708990989  0.7618225137032582  0.6055421325749748
 
  0.00000000E+00  0.00000000E+00  0.00000000E+00
  0.00000000E+00  0.00000000E+00  0.00000000E+00
  0.00000000E+00  0.00000000E+00  0.00000000E+00
  0.00000000E+00  0.00000000E+00  0.00000000E+00
  0.00000000E+00  0.00000000E+00  0.00000000E+00
  0.00000000E+00  0.00000000E+00  0.00000000E+00
  0.00000000E+00  0.00000000E+00  0.00000000E+00
  0.00000000E+00  0.00000000E+00  0.00000000E+00
  0.00000000E+00  0.00000000E+00  0.00000000E+00
  0.00000000E+00  0.00000000E+00  0.00000000E+00
  0.00000000E+00  0.00000000E+00  0.00000000E+00
  0.00000000E+00  0.00000000E+00  0.00000000E+00
  0.00000000E+00  0.00000000E+00  0.00000000E+00
  0.00000000E+00  0.00000000E+00  0.00000000E+00
  0.00000000E+00  0.00000000E+00  0.00000000E+00
  0.00000000E+00  0.00000000E+00  0.00000000E+00
  0.00000000E+00  0.00000000E+00  0.00000000E+00
  0.00000000E+00  0.00000000E+00  0.00000000E+00
  0.00000000E+00  0.00000000E+00  0.00000000E+00
  0.00000000E+00  0.00000000E+00  0.00000000E+00
  0.00000000E+00  0.00000000E+00  0.00000000E+00
  0.00000000E+00  0.00000000E+00  0.00000000E+00
  0.00000000E+00  0.00000000E+00  0.00000000E+00
  0.00000000E+00  0.00000000E+00  0.00000000E+00
  0.00000000E+00  0.00000000E+00  0.00000000E+00
  0.00000000E+00  0.00000000E+00  0.00000000E+00
  0.00000000E+00  0.00000000E+00  0.00000000E+00
  0.00000000E+00  0.00000000E+00  0.00000000E+00
  0.00000000E+00  0.00000000E+00  0.00000000E+00
  0.00000000E+00  0.00000000E+00  0.00000000E+00
  0.00000000E+00  0.00000000E+00  0.00000000E+00
  0.00000000E+00  0.00000000E+00  0.00000000E+00
  0.00000000E+00  0.00000000E+00  0.00000000E+00
  0.00000000E+00  0.00000000E+00  0.00000000E+00
  0.00000000E+00  0.00000000E+00  0.00000000E+00
  0.00000000E+00  0.00000000E+00  0.00000000E+00
  0.00000000E+00  0.00000000E+00  0.00000000E+00
  0.00000000E+00  0.00000000E+00  0.00000000E+00
  0.00000000E+00  0.00000000E+00  0.00000000E+00
  0.00000000E+00  0.00000000E+00  0.00000000E+00
  0.00000000E+00  0.00000000E+00  0.00000000E+00
  0.00000000E+00  0.00000000E+00  0.00000000E+00
  0.00000000E+00  0.00000000E+00  0.00000000E+00
  0.00000000E+00  0.00000000E+00  0.00000000E+00
  0.00000000E+00  0.00000000E+00  0.00000000E+00
  0.00000000E+00  0.00000000E+00  0.00000000E+00
  0.00000000E+00  0.00000000E+00  0.00000000E+00
  0.00000000E+00  0.00000000E+00  0.00000000E+00
  0.00000000E+00  0.00000000E+00  0.00000000E+00
  0.00000000E+00  0.00000000E+00  0.00000000E+00
  0.00000000E+00  0.00000000E+00  0.00000000E+00
  0.00000000E+00  0.00000000E+00  0.00000000E+00
  0.00000000E+00  0.00000000E+00  0.00000000E+00
  0.00000000E+00  0.00000000E+00  0.00000000E+00
  0.00000000E+00  0.00000000E+00  0.00000000E+00
  0.00000000E+00  0.00000000E+00  0.00000000E+00
  0.00000000E+00  0.00000000E+00  0.00000000E+00
  0.00000000E+00  0.00000000E+00  0.00000000E+00
  0.00000000E+00  0.00000000E+00  0.00000000E+00
  0.00000000E+00  0.00000000E+00  0.00000000E+00
  0.00000000E+00  0.00000000E+00  0.00000000E+00
  0.00000000E+00  0.00000000E+00  0.00000000E+00
  0.00000000E+00  0.00000000E+00  0.00000000E+00
  0.00000000E+00  0.00000000E+00  0.00000000E+00
  0.00000000E+00  0.00000000E+00  0.00000000E+00
  0.00000000E+00  0.00000000E+00  0.00000000E+00
  0.00000000E+00  0.00000000E+00  0.00000000E+00
  0.00000000E+00  0.00000000E+00  0.00000000E+00
  0.00000000E+00  0.00000000E+00  0.00000000E+00
  0.00000000E+00  0.00000000E+00  0.00000000E+00
  0.00000000E+00  0.00000000E+00  0.00000000E+00
  0.00000000E+00  0.00000000E+00  0.00000000E+00
