generated by phonopy                    
   1.00000000000000     
    11.7777700938999992   -0.0000006592896312    0.0000118211769744
    -0.0000006477562692   11.7777479613999994   -0.0000130806483528
     0.0000177256125076   -0.0000204342245446   17.8544012557999991
   Bi   Cu   Se   O 
    36    36    35    36
Direct
  0.0000958959798965  0.1668426777141363  0.4255159260247652
  0.3331473806691392  0.1668383037266850  0.4255280169302154
  0.6666158460399032  0.1666549882854582  0.4280560018187671
  0.0000943512528195  0.4998696617582894  0.4255106799526089
  0.3331444366794827  0.4998765390408906  0.4255237761779682
  0.6666109535191680  0.5000874396747079  0.4280596355389008
  0.0000468675324683  0.8333524659757998  0.4279207194383545
  0.3331964545462540  0.8333548647468945  0.4279331654070901
  0.6666194398453058  0.8333671059212122  0.4287365967645727
  0.0000751687571778  0.1669521371483356  0.9296278362370387
  0.3329252249267043  0.1669550369585053  0.9296292165348135
  0.6664981215952679  0.1677622818517222  0.9302577789558413
  0.0000774095351161  0.4997994276294051  0.9296301578410606
  0.3329224256520646  0.4997961290367314  0.9296321781503138
  0.6664972189972644  0.4989970818117584  0.9302581072693670
  0.0008374293245836  0.8333652817888648  0.9302391031737898
  0.3321707049922153  0.8333654319969384  0.9302380146946234
  0.6665043350961568  0.8333718258073759  0.9297845430950105
  0.1665018735161325  0.0018287256531551  0.0726518144165524
  0.4993491957306233  0.0005403828439370  0.0715717877143049
  0.8336513569192476  0.0005403319433270  0.0715721272531766
  0.1664918080236220  0.3333715139502758  0.0730173639370690
  0.4979418885823321  0.3333866881710321  0.0726954233408534
  0.8350384287785459  0.3333871226706293  0.0726863313255990
  0.1665015854177412  0.6648941052185506  0.0726720496925992
  0.4993470084936220  0.6662172801038579  0.0715797348265212
  0.8336530983640529  0.6662164586651897  0.0715797018496005
  0.1666123511294231  0.0008567733261913  0.5689696611301187
  0.4993021042511074  0.0005921605277450  0.5698464789304722
  0.8339401262742570  0.0005959296125084  0.5698371655848078
  0.1666143576587373  0.3333549229470734  0.5684491420018816
  0.4991203946070542  0.3333609418668928  0.5690214812452652
  0.8341122441965965  0.3333656544492882  0.5690113281968934
  0.1666213805583112  0.6658467513586288  0.5689676063868703
  0.4993071936927009  0.6661314365849051  0.5698486393601883
  0.8339496150099279  0.6661306064491512  0.5698380373951721
  0.9987204816032644  0.9990242234539437  0.2492724767551380
  0.3344610865943807  0.9990046290488124  0.2492742539565924
  0.6665783284997318  0.0003155172390805  0.2494869055606301
  0.0178172018481106  0.3332564383601877  0.2639986402449779
  0.3152146065294446  0.3332577350909602  0.2640489916537589
  0.6665386947793337  0.3333792847834474  0.2485724660122344
  0.9986937386821637  0.6676955912863392  0.2492647528313725
  0.3344835189893871  0.6677162198203916  0.2492667388303076
  0.6665766622006757  0.6664562728080909  0.2494839501876456
  0.9997875750580718  0.9999363726579702  0.7495565879262003
  0.3333034957255165  0.9999339424979397  0.7495586580478886
  0.6665493079182028  0.0004414342191836  0.7495034922425674
  0.9998320045609006  0.3333731914340845  0.7495313358129039
  0.3332465653894872  0.3333730353670319  0.7495324995768797
  0.6665457122053553  0.3333767463445625  0.7495251116181336
  0.9997886695082556  0.6668095754235139  0.7495536327600334
  0.3333020062389664  0.6668103795946365  0.7495551822040767
  0.6665470225701497  0.6663098872290547  0.7495007526430726
  0.1665115783074640  0.1875545275778023  0.2644200442360827
  0.5007907317244218  0.1656437673011411  0.2492962421281320
  0.8322300511363352  0.1656536686971535  0.2493037171068408
  0.1665095690032459  0.4789307327514720  0.2645289801255117
  0.5008028220699927  0.5011071377031442  0.2492940589078145
  0.8322190484604590  0.5010951496158853  0.2493018686730650
  0.1665255567401545  0.8333167082441690  0.2487345904821510
  0.4996087109161564  0.8333693607987556  0.2494820868324013
  0.8334346149376728  0.8333664572540656  0.2494794030434662
  0.1665951381437552  0.1666469508026225  0.7495450380290762
  0.5000365080650369  0.1666165021142376  0.7495463547477144
  0.8331551593319375  0.1666176702884599  0.7495484663090721
  0.1665927483744838  0.5001013309215310  0.7495408863215545
  0.5000368521488241  0.5001416505595557  0.7495420511811375
  0.8331534944488368  0.5001396307988060  0.7495442128449454
  0.1665952188110040  0.8333737525163656  0.7495530612586734
  0.4995007361462953  0.8333797374208061  0.7495005799062113
  0.8337003191519443  0.8333791777827528  0.7495046538957340
  0.4994280376586673  0.3333636198153727  0.3352336876494135
  0.8336657163354388  0.3333629191492733  0.3352397591692977
  0.1665951543661279  0.6654345517218019  0.3348769172933928
  0.5002227441329410  0.6669664189719313  0.3371873327265433
  0.8329599401179593  0.6669669782852097  0.3371845467961805
  0.1665944336713778  0.0012147715414201  0.3348900857964807
  0.5002179030380560  0.9997612516004608  0.3371824304401372
  0.8329669694599104  0.9997646716284265  0.3371807726679279
  0.1665371835103500  0.3333754406177505  0.8368915521716502
  0.4999347200406490  0.3333785347144698  0.8369691003843869
  0.8331410936547599  0.3333785515777166  0.8369709535532195
  0.1665390265272890  0.6667818532395131  0.8369883182967754
  0.4997856620703587  0.6666273655203199  0.8369932366820194
  0.8332950980951992  0.6666289010078401  0.8369947303758494
  0.1665392625578050  0.9999595642372867  0.8369903683506266
  0.4997873362184961  0.0001198327017065  0.8369938956119825
  0.8332947652596943  0.0001197894439642  0.8369973504940944
  0.3295896541823993  0.1702449980383562  0.1676318877791729
  0.6665189835710947  0.1662587410147793  0.1621625399496054
  0.0034345333223129  0.1702418702947810  0.1676233219277350
  0.3295610276939342  0.4964195258793183  0.1676791848375174
  0.6665189991060529  0.5004872091474581  0.1621620534733026
  0.0034666791148297  0.4964191755365235  0.1676729983688361
  0.3336281829065086  0.8333594247688936  0.1621408751795883
  0.6665311198303598  0.8333725651188502  0.1628971674568689
  0.9994339641651493  0.8333598511942881  0.1621466778259304
  0.3330502730702491  0.1668900148346495  0.6618407043503112
  0.6666000544745359  0.1672556628184267  0.6615973321210973
  0.0001426927203596  0.1668889470284824  0.6618406173145530
  0.3330496346188880  0.4998460658078088  0.6618392609120747
  0.6665999358700248  0.4994859778022231  0.6615963342245905
  0.0001404247802057  0.4998453703381145  0.6618384880740109
  0.3326621877777072  0.8333680629920011  0.6615941831299423
  0.6666023244440780  0.8333708169535470  0.6620995105357821
  0.0005285565295097  0.8333679197717885  0.6615925761456438
  0.1666042778663765  0.1682824982165698  0.4962469449621096
  0.4991868372397974  0.1669277558351965  0.4979757238462454
  0.8340235454382423  0.1669310851490877  0.4979665759876326
  0.1666047341581489  0.4984350182631658  0.4962473403907026
  0.4991913898539053  0.4997959512998023  0.4979794073092734
  0.8340182634483497  0.4997933173496918  0.4979663582548639
  0.1666049822333804  0.8333541944578684  0.4990618882026254
  0.4993491876099085  0.8333613164530789  0.4992095213784893
  0.8338757990964680  0.8333624372345483  0.4992030022338128
  0.1665109125314643  0.1669184896518345  0.0008905740128213
  0.4991937704642169  0.1670030332764796  0.0008496460794589
  0.8338272970807168  0.1669992102983073  0.0008466294356779
  0.1665102408025305  0.4998183283750990  0.0008974391485737
  0.4991923122776640  0.4997468449562135  0.0008504213239746
  0.8338302584013348  0.4997499230467497  0.0008477867719563
  0.1665172599322275  0.8333611341030860  0.0013510788788835
  0.4997135956271421  0.8333653460006616  0.0008389707033558
  0.8333153974580441  0.8333647959291142  0.0008378740716708
  0.0001444260972718  0.0006754277156915  0.0008611120827311
  0.3328808657208242  0.0006773315068216  0.0008610455885218
  0.6665101575055274  0.0001825826816031  0.0008331797367944
  0.0000728063227911  0.3333740986291218  0.0008750537711393
  0.3329416990336753  0.3333741057946469  0.0008781074273543
  0.6665111306306741  0.3333782158235863  0.0013620928882929
  0.0001487653117422  0.6660596906817631  0.0008728130695204
  0.3328759551844769  0.6660590129637711  0.0008723318644712
  0.6665115257852960  0.6665632532323045  0.0008410184531016
  0.0002402716595569  0.0007622280240724  0.4978872012418947
  0.3329797162550179  0.0007548483248812  0.4978985938961600
  0.6666083007754580  0.0004598369498581  0.4992981767621529
  0.0014962178796907  0.3333591398642497  0.4962640736244097
  0.3317178529569489  0.3333580741208593  0.4962719175753350
  0.6666016848830623  0.3333618837925556  0.4991289654425302
  0.0002395018756118  0.6659517994517188  0.4978877630699827
  0.3329819899042619  0.6659608782711288  0.4978992833186311
  0.6666090826275592  0.6662685252037335  0.4992990337019592
 
  0.00000000E+00  0.00000000E+00  0.00000000E+00
  0.00000000E+00  0.00000000E+00  0.00000000E+00
  0.00000000E+00  0.00000000E+00  0.00000000E+00
  0.00000000E+00  0.00000000E+00  0.00000000E+00
  0.00000000E+00  0.00000000E+00  0.00000000E+00
  0.00000000E+00  0.00000000E+00  0.00000000E+00
  0.00000000E+00  0.00000000E+00  0.00000000E+00
  0.00000000E+00  0.00000000E+00  0.00000000E+00
  0.00000000E+00  0.00000000E+00  0.00000000E+00
  0.00000000E+00  0.00000000E+00  0.00000000E+00
  0.00000000E+00  0.00000000E+00  0.00000000E+00
  0.00000000E+00  0.00000000E+00  0.00000000E+00
  0.00000000E+00  0.00000000E+00  0.00000000E+00
  0.00000000E+00  0.00000000E+00  0.00000000E+00
  0.00000000E+00  0.00000000E+00  0.00000000E+00
  0.00000000E+00  0.00000000E+00  0.00000000E+00
  0.00000000E+00  0.00000000E+00  0.00000000E+00
  0.00000000E+00  0.00000000E+00  0.00000000E+00
  0.00000000E+00  0.00000000E+00  0.00000000E+00
  0.00000000E+00  0.00000000E+00  0.00000000E+00
  0.00000000E+00  0.00000000E+00  0.00000000E+00
  0.00000000E+00  0.00000000E+00  0.00000000E+00
  0.00000000E+00  0.00000000E+00  0.00000000E+00
  0.00000000E+00  0.00000000E+00  0.00000000E+00
  0.00000000E+00  0.00000000E+00  0.00000000E+00
  0.00000000E+00  0.00000000E+00  0.00000000E+00
  0.00000000E+00  0.00000000E+00  0.00000000E+00
  0.00000000E+00  0.00000000E+00  0.00000000E+00
  0.00000000E+00  0.00000000E+00  0.00000000E+00
  0.00000000E+00  0.00000000E+00  0.00000000E+00
  0.00000000E+00  0.00000000E+00  0.00000000E+00
  0.00000000E+00  0.00000000E+00  0.00000000E+00
  0.00000000E+00  0.00000000E+00  0.00000000E+00
  0.00000000E+00  0.00000000E+00  0.00000000E+00
  0.00000000E+00  0.00000000E+00  0.00000000E+00
  0.00000000E+00  0.00000000E+00  0.00000000E+00
  0.00000000E+00  0.00000000E+00  0.00000000E+00
  0.00000000E+00  0.00000000E+00  0.00000000E+00
  0.00000000E+00  0.00000000E+00  0.00000000E+00
  0.00000000E+00  0.00000000E+00  0.00000000E+00
  0.00000000E+00  0.00000000E+00  0.00000000E+00
  0.00000000E+00  0.00000000E+00  0.00000000E+00
  0.00000000E+00  0.00000000E+00  0.00000000E+00
  0.00000000E+00  0.00000000E+00  0.00000000E+00
  0.00000000E+00  0.00000000E+00  0.00000000E+00
  0.00000000E+00  0.00000000E+00  0.00000000E+00
  0.00000000E+00  0.00000000E+00  0.00000000E+00
  0.00000000E+00  0.00000000E+00  0.00000000E+00
  0.00000000E+00  0.00000000E+00  0.00000000E+00
  0.00000000E+00  0.00000000E+00  0.00000000E+00
  0.00000000E+00  0.00000000E+00  0.00000000E+00
  0.00000000E+00  0.00000000E+00  0.00000000E+00
  0.00000000E+00  0.00000000E+00  0.00000000E+00
  0.00000000E+00  0.00000000E+00  0.00000000E+00
  0.00000000E+00  0.00000000E+00  0.00000000E+00
  0.00000000E+00  0.00000000E+00  0.00000000E+00
  0.00000000E+00  0.00000000E+00  0.00000000E+00
  0.00000000E+00  0.00000000E+00  0.00000000E+00
  0.00000000E+00  0.00000000E+00  0.00000000E+00
  0.00000000E+00  0.00000000E+00  0.00000000E+00
  0.00000000E+00  0.00000000E+00  0.00000000E+00
  0.00000000E+00  0.00000000E+00  0.00000000E+00
  0.00000000E+00  0.00000000E+00  0.00000000E+00
  0.00000000E+00  0.00000000E+00  0.00000000E+00
  0.00000000E+00  0.00000000E+00  0.00000000E+00
  0.00000000E+00  0.00000000E+00  0.00000000E+00
  0.00000000E+00  0.00000000E+00  0.00000000E+00
  0.00000000E+00  0.00000000E+00  0.00000000E+00
  0.00000000E+00  0.00000000E+00  0.00000000E+00
  0.00000000E+00  0.00000000E+00  0.00000000E+00
  0.00000000E+00  0.00000000E+00  0.00000000E+00
  0.00000000E+00  0.00000000E+00  0.00000000E+00
  0.00000000E+00  0.00000000E+00  0.00000000E+00
  0.00000000E+00  0.00000000E+00  0.00000000E+00
  0.00000000E+00  0.00000000E+00  0.00000000E+00
  0.00000000E+00  0.00000000E+00  0.00000000E+00
  0.00000000E+00  0.00000000E+00  0.00000000E+00
  0.00000000E+00  0.00000000E+00  0.00000000E+00
  0.00000000E+00  0.00000000E+00  0.00000000E+00
  0.00000000E+00  0.00000000E+00  0.00000000E+00
  0.00000000E+00  0.00000000E+00  0.00000000E+00
  0.00000000E+00  0.00000000E+00  0.00000000E+00
  0.00000000E+00  0.00000000E+00  0.00000000E+00
  0.00000000E+00  0.00000000E+00  0.00000000E+00
  0.00000000E+00  0.00000000E+00  0.00000000E+00
  0.00000000E+00  0.00000000E+00  0.00000000E+00
  0.00000000E+00  0.00000000E+00  0.00000000E+00
  0.00000000E+00  0.00000000E+00  0.00000000E+00
  0.00000000E+00  0.00000000E+00  0.00000000E+00
  0.00000000E+00  0.00000000E+00  0.00000000E+00
  0.00000000E+00  0.00000000E+00  0.00000000E+00
  0.00000000E+00  0.00000000E+00  0.00000000E+00
  0.00000000E+00  0.00000000E+00  0.00000000E+00
  0.00000000E+00  0.00000000E+00  0.00000000E+00
  0.00000000E+00  0.00000000E+00  0.00000000E+00
  0.00000000E+00  0.00000000E+00  0.00000000E+00
  0.00000000E+00  0.00000000E+00  0.00000000E+00
  0.00000000E+00  0.00000000E+00  0.00000000E+00
  0.00000000E+00  0.00000000E+00  0.00000000E+00
  0.00000000E+00  0.00000000E+00  0.00000000E+00
  0.00000000E+00  0.00000000E+00  0.00000000E+00
  0.00000000E+00  0.00000000E+00  0.00000000E+00
  0.00000000E+00  0.00000000E+00  0.00000000E+00
  0.00000000E+00  0.00000000E+00  0.00000000E+00
  0.00000000E+00  0.00000000E+00  0.00000000E+00
  0.00000000E+00  0.00000000E+00  0.00000000E+00
  0.00000000E+00  0.00000000E+00  0.00000000E+00
  0.00000000E+00  0.00000000E+00  0.00000000E+00
  0.00000000E+00  0.00000000E+00  0.00000000E+00
  0.00000000E+00  0.00000000E+00  0.00000000E+00
  0.00000000E+00  0.00000000E+00  0.00000000E+00
  0.00000000E+00  0.00000000E+00  0.00000000E+00
  0.00000000E+00  0.00000000E+00  0.00000000E+00
  0.00000000E+00  0.00000000E+00  0.00000000E+00
  0.00000000E+00  0.00000000E+00  0.00000000E+00
  0.00000000E+00  0.00000000E+00  0.00000000E+00
  0.00000000E+00  0.00000000E+00  0.00000000E+00
  0.00000000E+00  0.00000000E+00  0.00000000E+00
  0.00000000E+00  0.00000000E+00  0.00000000E+00
  0.00000000E+00  0.00000000E+00  0.00000000E+00
  0.00000000E+00  0.00000000E+00  0.00000000E+00
  0.00000000E+00  0.00000000E+00  0.00000000E+00
  0.00000000E+00  0.00000000E+00  0.00000000E+00
  0.00000000E+00  0.00000000E+00  0.00000000E+00
  0.00000000E+00  0.00000000E+00  0.00000000E+00
  0.00000000E+00  0.00000000E+00  0.00000000E+00
  0.00000000E+00  0.00000000E+00  0.00000000E+00
  0.00000000E+00  0.00000000E+00  0.00000000E+00
  0.00000000E+00  0.00000000E+00  0.00000000E+00
  0.00000000E+00  0.00000000E+00  0.00000000E+00
  0.00000000E+00  0.00000000E+00  0.00000000E+00
  0.00000000E+00  0.00000000E+00  0.00000000E+00
  0.00000000E+00  0.00000000E+00  0.00000000E+00
  0.00000000E+00  0.00000000E+00  0.00000000E+00
  0.00000000E+00  0.00000000E+00  0.00000000E+00
  0.00000000E+00  0.00000000E+00  0.00000000E+00
  0.00000000E+00  0.00000000E+00  0.00000000E+00
  0.00000000E+00  0.00000000E+00  0.00000000E+00
  0.00000000E+00  0.00000000E+00  0.00000000E+00
  0.00000000E+00  0.00000000E+00  0.00000000E+00
  0.00000000E+00  0.00000000E+00  0.00000000E+00
  0.00000000E+00  0.00000000E+00  0.00000000E+00
  0.00000000E+00  0.00000000E+00  0.00000000E+00
