supercell of supercell of icsd_608626.c 
   1.00600000000000     
    18.8433725412000008    0.0042597715995000    0.0111656436851000
    -6.2786657403800001   10.8752831735999997   -0.0012954496991100
     0.0059525623905900    0.0022414031449000   10.0498800689000003
   Al   Gd   N 
    91     4    96
Direct
  0.1117057728020683  0.0836624758520372  0.2467962950635396
  0.0515397868455238  0.1617482345287797  0.9984804532630278
  0.4449451574603174  0.3351314324262589  0.7462799358775385
  0.3898426803988571  0.4163715418907117  0.4970152283754246
  0.2255219621463382  0.1725076616190151  0.9924229024656768
  0.1072535116662436  0.3300822745572205  0.7434086630167442
  0.0549960568623860  0.4174089052460204  0.5006121259693330
  0.4436338763320222  0.0824536999001992  0.2475314338905577
  0.3938847727168522  0.1754653335417871  0.9927249915605927
  0.2794040114762097  0.3323593177916777  0.7399977979233725
  0.2221715434402753  0.4159227666409890  0.4975046058758394
  0.1109706379043942  0.0831316001102920  0.7479341146880145
  0.0544390480773842  0.1637999536521377  0.4993386543194305
  0.4447296369320242  0.3336560033105442  0.2463803885238320
  0.3898386630165049  0.4154347646029777  0.9967513141145403
  0.2792300183134202  0.0861237931402243  0.7381352809800177
  0.2208512142040888  0.1640216271876724  0.4967618414136439
  0.1093292782221198  0.3313723228183747  0.2588065190497773
  0.0535864364200833  0.4163139864862018  0.0001428497860161
  0.4439898676184271  0.0823186918916292  0.7476530760700726
  0.3900037245581274  0.1666227357961105  0.4949069130603760
  0.2788492276784496  0.3318889009905845  0.2566542328966932
  0.6119425066725270  0.0834559040950040  0.2482640552622755
  0.5504803232942095  0.1615962707347975  0.9981131035318569
  0.9451598499144893  0.3345472101301254  0.7510251444397937
  0.8895884318038370  0.4163841389579801  0.5009422308673379
  0.7791348911750688  0.0857667785201528  0.2587453960216379
  0.7250673163574035  0.1690137914861651  0.9980768253570389
  0.6064351319176637  0.3297430194284132  0.7423989693987352
  0.5546838598194626  0.4173501361097465  0.4979394227817835
  0.9436573752004094  0.0828049572828959  0.2492796355877402
  0.8920247676839210  0.1720174447475671  0.9984468045136410
  0.7792334923063748  0.3317637394461812  0.7448783752246158
  0.7218573510550783  0.4163086015808801  0.4991849134761281
  0.6109791053943283  0.0833486996034551  0.7493982387216889
  0.5543901721108568  0.1638427548935155  0.4986968073097202
  0.9447618230982400  0.3335442796061585  0.2497435488641955
  0.8901030559205054  0.4154871535394236  0.9999723899302637
  0.7798724673470687  0.0879391941457399  0.7447705590030793
  0.7213646374422282  0.1657687149225708  0.5016763603343364
  0.6088791588767819  0.3313803829806474  0.2576835774056221
  0.5532264531904332  0.4167758286756680  0.9980639882040947
  0.9442593626940763  0.0825230747250885  0.7499992978589347
  0.8906029863971909  0.1682146070618913  0.5008093044365509
  0.7784916550804937  0.3320814844360740  0.2588642289839953
  0.1118062046775705  0.5842284225188621  0.2499146221384834
  0.0531143562384955  0.6642803027237392  0.0001463059400848
  0.4446165544984026  0.8345276540068909  0.7504018267420420
  0.3899603407971242  0.9163701787136844  0.5014360533529540
  0.2794623996359320  0.5861571182942669  0.2594611777085660
  0.2247197468919211  0.6709345379110232  0.9994206717648453
  0.1095576773517664  0.8318202191877759  0.7470252478853965
  0.0545879189351908  0.9170035553930376  0.5016832049090709
  0.4443135393183439  0.5832582086143603  0.2477836488530514
  0.3915544039911651  0.6723963102696260  0.9979602238486933
  0.2778668762557572  0.8332134730441396  0.7476596287229285
  0.2206782464933426  0.9120818128747885  0.4901746079878393
  0.1111023939157718  0.5830644632531943  0.7518960884254327
  0.0537142425005896  0.6629022425535069  0.5034256786755549
  0.4449916389376725  0.8339160768220850  0.2491423396692838
  0.3886710024018569  0.9150570367733266  0.9987715701945845
  0.2796078159183040  0.5878172525506926  0.7451886334458635
  0.2215808391019749  0.6648634143509184  0.5043952840600952
  0.1060621073981025  0.8276874265876231  0.2632551308450601
  0.0545628428911513  0.9168333180769821  0.9987376730960307
  0.4439076299584030  0.5823749128425959  0.7488637181264224
  0.3907220299659855  0.6681788941829581  0.5003918787660808
  0.2794321585831696  0.8292110677977220  0.2628923354084449
  0.6121851559249336  0.5848356837414030  0.2478189312354644
  0.5511694099468087  0.6621847548295037  0.9975519393313377
  0.9453489644835855  0.8343895494349667  0.7507749661114076
  0.8898917937003361  0.9168932391241924  0.5003490597838010
  0.7790242714271614  0.5856868653351412  0.2586235000816899
  0.7253403951198578  0.6691198729064070  0.9978727302049819
  0.6066970533876770  0.8300239045789937  0.7431986819311760
  0.5550034320541428  0.9175889755264635  0.4999258073175383
  0.9432968499212677  0.5815769068208638  0.2501825061225205
  0.8922225708852949  0.6719472923542185  0.9990305074958670
  0.7794857040994714  0.8317344414362182  0.7445410187204899
  0.7221688651433880  0.9165470782179952  0.4997092413531163
  0.6111261732237097  0.5832701812603815  0.7487972919008428
  0.5544474832378512  0.6640259216272284  0.4995677214936478
  0.9448058567660169  0.8337591822617938  0.2496027934140059
  0.8902074822547590  0.9147323126217586  0.9993853484782775
  0.7798646687148008  0.5877572656261520  0.7446716789821366
  0.7214201620150362  0.6659299600776123  0.5013412293163881
  0.6094803261165751  0.8318987435674643  0.2588210549013681
  0.5529250168099082  0.9164500447346029  0.9985722779292772
  0.9443160692249180  0.5826978677888377  0.7512487560578549
  0.8904994196597826  0.6680659983634456  0.5008723792817804
  0.7790061476847683  0.8327741695492037  0.2588290175093277
  0.2203506643196604  0.4152539798529418  0.0009432667816043
  0.7191567813578743  0.4149812644768573  0.9990889943967360
  0.2247420415099199  0.9293405916847846  0.0208002170971966
  0.7197695306368672  0.9152362086359034  0.9988956045916879
  0.1102323967477403  0.0821527491969931  0.4372993198555335
  0.0539322494880778  0.1666934404960614  0.1901217863083886
  0.4472141080401286  0.3407353998163174  0.9350256927502798
  0.3905218642584174  0.4184820816516961  0.6846374788703642
  0.2773683454733629  0.0804814271403700  0.4640046431048859
  0.2158740421180667  0.1805764875412308  0.1764069212473913
  0.0936430965731816  0.3194557105282030  0.9291990096628382
  0.0548446163358776  0.4182150691163926  0.6889687816481640
  0.4444755566323195  0.0816089195974072  0.4376468764921597
  0.4038886825187546  0.1781208240319714  0.1771283036758291
  0.2862550961437833  0.3295326904514155  0.9242750306990644
  0.2215630734567782  0.4170311782047236  0.6931642397696791
  0.1114680010878502  0.0839705613077442  0.9383207894556946
  0.0540797184684720  0.1634235054000968  0.6878643548957584
  0.4449159967121545  0.3336062271657241  0.4361385085773719
  0.3888081708000399  0.4173526060407511  0.1886884367809571
  0.2879498910645921  0.1076200933017191  0.9244020312400849
  0.2202631470312753  0.1660696908015140  0.6855886010355405
  0.1086919215781208  0.3309956310326783  0.4472904741280459
  0.0561018177092549  0.4163842720902196  0.1916369878099218
  0.4416900239723134  0.0787256492854453  0.9371386248625839
  0.3921604453694059  0.1695058563564871  0.6859419268067839
  0.2785857339406661  0.3313641856103402  0.4450406473191606
  0.2223300432329651  0.4186636804724202  0.2227971012447654
  0.6116175618237349  0.0832031897345402  0.4382696630186445
  0.5572804683429098  0.1669492349909660  0.1894655817808228
  0.9460472505458810  0.3370083412192315  0.9411509854104594
  0.8900776275218689  0.4172865881812911  0.6892968957941648
  0.7790713449421034  0.0857931223549357  0.4474437222124479
  0.7236034525153698  0.1671658519055370  0.1909798729807335
  0.5927940355668113  0.3190648777181124  0.9277604346482562
  0.5554736587268749  0.4190969748413593  0.6860026997537716
  0.9436340456351218  0.0824258773713638  0.4392261148626986
  0.8884030974126347  0.1666051220125055  0.1905853595926033
  0.7852095144178719  0.3265210284208706  0.9307772982557836
  0.7216613772075391  0.4164085038224457  0.6950926239475237
  0.6124943396563509  0.0846563033447296  0.9413206153466049
  0.5547713910024683  0.1634296338640979  0.6871866140231759
  0.9446137313473884  0.3335302001206131  0.4394828004374247
  0.8877691606807332  0.4151622717597689  0.1916028180089313
  0.7864969968216684  0.1033475832932851  0.9304637520130399
  0.7209668323963214  0.1656336706792487  0.6885842047269719
  0.6090719709403274  0.3313604863805111  0.4463095655423146
  0.5583244371423746  0.4196339903634296  0.1892501108614084
  0.9412788530187655  0.0791627897476772  0.9408166109004839
  0.8911273656624914  0.1686467162833480  0.6894902481990854
  0.7783845161961125  0.3318364361219395  0.4472928265232170
  0.7223320978941032  0.4166122979942912  0.2208594734814042
  0.1112151947461228  0.5832641521553725  0.4404619600043276
  0.0535474351225176  0.6638361098900489  0.1915079761350071
  0.4454368880112298  0.8372937166398913  0.9403255454299568
  0.3895074270559462  0.9166235331478916  0.6896690713972191
  0.2794060782118706  0.5855579001193973  0.4481646580917129
  0.2232671316404193  0.6650236007518302  0.1917938758847200
  0.0991309914683782  0.8238471127460301  0.9343156587179422
  0.0549815282216954  0.9175049842269374  0.6899774667684326
  0.4444456614578982  0.5830852476521500  0.4376928827049795
  0.3891940439696029  0.6672741710175885  0.1902106508897035
  0.2822518279733615  0.8299248568342392  0.9351604218642748
  0.2212295650163156  0.9148903751368636  0.6913428277224725
  0.1120510402156967  0.5836730332743940  0.9434086402336064
  0.0544758289445468  0.6634749076619286  0.6922189219982471
  0.4453465909977652  0.8337367611081987  0.4389180801813453
  0.3883852632048388  0.9153015577239287  0.1907096792674210
  0.2860110822059170  0.6043703866842876  0.9309905254784780
  0.2207154599068915  0.6657546629994826  0.6912892476676618
  0.1054253376727345  0.8278544719191245  0.4506985863988220
  0.0558638106665512  0.9157657421748908  0.1905397081275595
  0.4415899459618018  0.5805440503454093  0.9398258961891628
  0.3912294917622035  0.6688489616857325  0.6891086722373032
  0.2799367073172903  0.8289048441621247  0.4499793907530147
  0.2162491850398709  0.8994428831408996  0.2360847295266595
  0.6115367964689611  0.5839636853239796  0.4378363856940481
  0.5563033071835974  0.6681054941334423  0.1893330471902317
  0.9466235393614681  0.8366105160887116  0.9408490756888384
  0.8902433583254279  0.9172804133762114  0.6886456248997490
  0.7789124476687377  0.5856957349000567  0.4472665748398015
  0.7239393811501671  0.6682255868571687  0.1908173744503969
  0.5931663263170037  0.8197391638396212  0.9284163780444104
  0.5548828369150982  0.9184640505185797  0.6881437497382237
  0.9433550283086873  0.5815184030066050  0.4403868780651408
  0.8885677791079161  0.6664241459819706  0.1911888394821304
  0.7854485734058798  0.8262463078674287  0.9302635274982123
  0.7217916491803393  0.9165103421999490  0.6954284201555083
  0.6129269371458932  0.5854796929213819  0.9408036881825907
  0.5545716696016498  0.6636698192401482  0.6881443990163660
  0.9442649875593148  0.8334263371860970  0.4393768455336229
  0.8882286199899170  0.9159620891817966  0.1911017522185503
  0.7866954607947179  0.6031727636944026  0.9305886812232060
  0.7211029407493044  0.6657884865187071  0.6882311349099623
  0.6093165480400771  0.8316430824777541  0.4473900841414178
  0.5567224328944107  0.9165616651009216  0.1901665201048743
  0.9424163234351823  0.5805673250034573  0.9419124013547346
  0.8911082143793223  0.6684203892920877  0.6895790568424616
  0.7785835140801467  0.8322818182476297  0.4471892609730119
  0.7223871236170112  0.9167471433821106  0.2208588940142420
 
  0.00000000E+00  0.00000000E+00  0.00000000E+00
  0.00000000E+00  0.00000000E+00  0.00000000E+00
  0.00000000E+00  0.00000000E+00  0.00000000E+00
  0.00000000E+00  0.00000000E+00  0.00000000E+00
  0.00000000E+00  0.00000000E+00  0.00000000E+00
  0.00000000E+00  0.00000000E+00  0.00000000E+00
  0.00000000E+00  0.00000000E+00  0.00000000E+00
  0.00000000E+00  0.00000000E+00  0.00000000E+00
  0.00000000E+00  0.00000000E+00  0.00000000E+00
  0.00000000E+00  0.00000000E+00  0.00000000E+00
  0.00000000E+00  0.00000000E+00  0.00000000E+00
  0.00000000E+00  0.00000000E+00  0.00000000E+00
  0.00000000E+00  0.00000000E+00  0.00000000E+00
  0.00000000E+00  0.00000000E+00  0.00000000E+00
  0.00000000E+00  0.00000000E+00  0.00000000E+00
  0.00000000E+00  0.00000000E+00  0.00000000E+00
  0.00000000E+00  0.00000000E+00  0.00000000E+00
  0.00000000E+00  0.00000000E+00  0.00000000E+00
  0.00000000E+00  0.00000000E+00  0.00000000E+00
  0.00000000E+00  0.00000000E+00  0.00000000E+00
  0.00000000E+00  0.00000000E+00  0.00000000E+00
  0.00000000E+00  0.00000000E+00  0.00000000E+00
  0.00000000E+00  0.00000000E+00  0.00000000E+00
  0.00000000E+00  0.00000000E+00  0.00000000E+00
  0.00000000E+00  0.00000000E+00  0.00000000E+00
  0.00000000E+00  0.00000000E+00  0.00000000E+00
  0.00000000E+00  0.00000000E+00  0.00000000E+00
  0.00000000E+00  0.00000000E+00  0.00000000E+00
  0.00000000E+00  0.00000000E+00  0.00000000E+00
  0.00000000E+00  0.00000000E+00  0.00000000E+00
  0.00000000E+00  0.00000000E+00  0.00000000E+00
  0.00000000E+00  0.00000000E+00  0.00000000E+00
  0.00000000E+00  0.00000000E+00  0.00000000E+00
  0.00000000E+00  0.00000000E+00  0.00000000E+00
  0.00000000E+00  0.00000000E+00  0.00000000E+00
  0.00000000E+00  0.00000000E+00  0.00000000E+00
  0.00000000E+00  0.00000000E+00  0.00000000E+00
  0.00000000E+00  0.00000000E+00  0.00000000E+00
  0.00000000E+00  0.00000000E+00  0.00000000E+00
  0.00000000E+00  0.00000000E+00  0.00000000E+00
  0.00000000E+00  0.00000000E+00  0.00000000E+00
  0.00000000E+00  0.00000000E+00  0.00000000E+00
  0.00000000E+00  0.00000000E+00  0.00000000E+00
  0.00000000E+00  0.00000000E+00  0.00000000E+00
  0.00000000E+00  0.00000000E+00  0.00000000E+00
  0.00000000E+00  0.00000000E+00  0.00000000E+00
  0.00000000E+00  0.00000000E+00  0.00000000E+00
  0.00000000E+00  0.00000000E+00  0.00000000E+00
  0.00000000E+00  0.00000000E+00  0.00000000E+00
  0.00000000E+00  0.00000000E+00  0.00000000E+00
  0.00000000E+00  0.00000000E+00  0.00000000E+00
  0.00000000E+00  0.00000000E+00  0.00000000E+00
  0.00000000E+00  0.00000000E+00  0.00000000E+00
  0.00000000E+00  0.00000000E+00  0.00000000E+00
  0.00000000E+00  0.00000000E+00  0.00000000E+00
  0.00000000E+00  0.00000000E+00  0.00000000E+00
  0.00000000E+00  0.00000000E+00  0.00000000E+00
  0.00000000E+00  0.00000000E+00  0.00000000E+00
  0.00000000E+00  0.00000000E+00  0.00000000E+00
  0.00000000E+00  0.00000000E+00  0.00000000E+00
  0.00000000E+00  0.00000000E+00  0.00000000E+00
  0.00000000E+00  0.00000000E+00  0.00000000E+00
  0.00000000E+00  0.00000000E+00  0.00000000E+00
  0.00000000E+00  0.00000000E+00  0.00000000E+00
  0.00000000E+00  0.00000000E+00  0.00000000E+00
  0.00000000E+00  0.00000000E+00  0.00000000E+00
  0.00000000E+00  0.00000000E+00  0.00000000E+00
  0.00000000E+00  0.00000000E+00  0.00000000E+00
  0.00000000E+00  0.00000000E+00  0.00000000E+00
  0.00000000E+00  0.00000000E+00  0.00000000E+00
  0.00000000E+00  0.00000000E+00  0.00000000E+00
  0.00000000E+00  0.00000000E+00  0.00000000E+00
  0.00000000E+00  0.00000000E+00  0.00000000E+00
  0.00000000E+00  0.00000000E+00  0.00000000E+00
  0.00000000E+00  0.00000000E+00  0.00000000E+00
  0.00000000E+00  0.00000000E+00  0.00000000E+00
  0.00000000E+00  0.00000000E+00  0.00000000E+00
  0.00000000E+00  0.00000000E+00  0.00000000E+00
  0.00000000E+00  0.00000000E+00  0.00000000E+00
  0.00000000E+00  0.00000000E+00  0.00000000E+00
  0.00000000E+00  0.00000000E+00  0.00000000E+00
  0.00000000E+00  0.00000000E+00  0.00000000E+00
  0.00000000E+00  0.00000000E+00  0.00000000E+00
  0.00000000E+00  0.00000000E+00  0.00000000E+00
  0.00000000E+00  0.00000000E+00  0.00000000E+00
  0.00000000E+00  0.00000000E+00  0.00000000E+00
  0.00000000E+00  0.00000000E+00  0.00000000E+00
  0.00000000E+00  0.00000000E+00  0.00000000E+00
  0.00000000E+00  0.00000000E+00  0.00000000E+00
  0.00000000E+00  0.00000000E+00  0.00000000E+00
  0.00000000E+00  0.00000000E+00  0.00000000E+00
  0.00000000E+00  0.00000000E+00  0.00000000E+00
  0.00000000E+00  0.00000000E+00  0.00000000E+00
  0.00000000E+00  0.00000000E+00  0.00000000E+00
  0.00000000E+00  0.00000000E+00  0.00000000E+00
  0.00000000E+00  0.00000000E+00  0.00000000E+00
  0.00000000E+00  0.00000000E+00  0.00000000E+00
  0.00000000E+00  0.00000000E+00  0.00000000E+00
  0.00000000E+00  0.00000000E+00  0.00000000E+00
  0.00000000E+00  0.00000000E+00  0.00000000E+00
  0.00000000E+00  0.00000000E+00  0.00000000E+00
  0.00000000E+00  0.00000000E+00  0.00000000E+00
  0.00000000E+00  0.00000000E+00  0.00000000E+00
  0.00000000E+00  0.00000000E+00  0.00000000E+00
  0.00000000E+00  0.00000000E+00  0.00000000E+00
  0.00000000E+00  0.00000000E+00  0.00000000E+00
  0.00000000E+00  0.00000000E+00  0.00000000E+00
  0.00000000E+00  0.00000000E+00  0.00000000E+00
  0.00000000E+00  0.00000000E+00  0.00000000E+00
  0.00000000E+00  0.00000000E+00  0.00000000E+00
  0.00000000E+00  0.00000000E+00  0.00000000E+00
  0.00000000E+00  0.00000000E+00  0.00000000E+00
  0.00000000E+00  0.00000000E+00  0.00000000E+00
  0.00000000E+00  0.00000000E+00  0.00000000E+00
  0.00000000E+00  0.00000000E+00  0.00000000E+00
  0.00000000E+00  0.00000000E+00  0.00000000E+00
  0.00000000E+00  0.00000000E+00  0.00000000E+00
  0.00000000E+00  0.00000000E+00  0.00000000E+00
  0.00000000E+00  0.00000000E+00  0.00000000E+00
  0.00000000E+00  0.00000000E+00  0.00000000E+00
  0.00000000E+00  0.00000000E+00  0.00000000E+00
  0.00000000E+00  0.00000000E+00  0.00000000E+00
  0.00000000E+00  0.00000000E+00  0.00000000E+00
  0.00000000E+00  0.00000000E+00  0.00000000E+00
  0.00000000E+00  0.00000000E+00  0.00000000E+00
  0.00000000E+00  0.00000000E+00  0.00000000E+00
  0.00000000E+00  0.00000000E+00  0.00000000E+00
  0.00000000E+00  0.00000000E+00  0.00000000E+00
  0.00000000E+00  0.00000000E+00  0.00000000E+00
  0.00000000E+00  0.00000000E+00  0.00000000E+00
  0.00000000E+00  0.00000000E+00  0.00000000E+00
  0.00000000E+00  0.00000000E+00  0.00000000E+00
  0.00000000E+00  0.00000000E+00  0.00000000E+00
  0.00000000E+00  0.00000000E+00  0.00000000E+00
  0.00000000E+00  0.00000000E+00  0.00000000E+00
  0.00000000E+00  0.00000000E+00  0.00000000E+00
  0.00000000E+00  0.00000000E+00  0.00000000E+00
  0.00000000E+00  0.00000000E+00  0.00000000E+00
  0.00000000E+00  0.00000000E+00  0.00000000E+00
  0.00000000E+00  0.00000000E+00  0.00000000E+00
  0.00000000E+00  0.00000000E+00  0.00000000E+00
  0.00000000E+00  0.00000000E+00  0.00000000E+00
  0.00000000E+00  0.00000000E+00  0.00000000E+00
  0.00000000E+00  0.00000000E+00  0.00000000E+00
  0.00000000E+00  0.00000000E+00  0.00000000E+00
  0.00000000E+00  0.00000000E+00  0.00000000E+00
  0.00000000E+00  0.00000000E+00  0.00000000E+00
  0.00000000E+00  0.00000000E+00  0.00000000E+00
  0.00000000E+00  0.00000000E+00  0.00000000E+00
  0.00000000E+00  0.00000000E+00  0.00000000E+00
  0.00000000E+00  0.00000000E+00  0.00000000E+00
  0.00000000E+00  0.00000000E+00  0.00000000E+00
  0.00000000E+00  0.00000000E+00  0.00000000E+00
  0.00000000E+00  0.00000000E+00  0.00000000E+00
  0.00000000E+00  0.00000000E+00  0.00000000E+00
  0.00000000E+00  0.00000000E+00  0.00000000E+00
  0.00000000E+00  0.00000000E+00  0.00000000E+00
  0.00000000E+00  0.00000000E+00  0.00000000E+00
  0.00000000E+00  0.00000000E+00  0.00000000E+00
  0.00000000E+00  0.00000000E+00  0.00000000E+00
  0.00000000E+00  0.00000000E+00  0.00000000E+00
  0.00000000E+00  0.00000000E+00  0.00000000E+00
  0.00000000E+00  0.00000000E+00  0.00000000E+00
  0.00000000E+00  0.00000000E+00  0.00000000E+00
  0.00000000E+00  0.00000000E+00  0.00000000E+00
  0.00000000E+00  0.00000000E+00  0.00000000E+00
  0.00000000E+00  0.00000000E+00  0.00000000E+00
  0.00000000E+00  0.00000000E+00  0.00000000E+00
  0.00000000E+00  0.00000000E+00  0.00000000E+00
  0.00000000E+00  0.00000000E+00  0.00000000E+00
  0.00000000E+00  0.00000000E+00  0.00000000E+00
  0.00000000E+00  0.00000000E+00  0.00000000E+00
  0.00000000E+00  0.00000000E+00  0.00000000E+00
  0.00000000E+00  0.00000000E+00  0.00000000E+00
  0.00000000E+00  0.00000000E+00  0.00000000E+00
  0.00000000E+00  0.00000000E+00  0.00000000E+00
  0.00000000E+00  0.00000000E+00  0.00000000E+00
  0.00000000E+00  0.00000000E+00  0.00000000E+00
  0.00000000E+00  0.00000000E+00  0.00000000E+00
  0.00000000E+00  0.00000000E+00  0.00000000E+00
  0.00000000E+00  0.00000000E+00  0.00000000E+00
  0.00000000E+00  0.00000000E+00  0.00000000E+00
  0.00000000E+00  0.00000000E+00  0.00000000E+00
  0.00000000E+00  0.00000000E+00  0.00000000E+00
  0.00000000E+00  0.00000000E+00  0.00000000E+00
  0.00000000E+00  0.00000000E+00  0.00000000E+00
  0.00000000E+00  0.00000000E+00  0.00000000E+00
  0.00000000E+00  0.00000000E+00  0.00000000E+00
  0.00000000E+00  0.00000000E+00  0.00000000E+00
  0.00000000E+00  0.00000000E+00  0.00000000E+00
  0.00000000E+00  0.00000000E+00  0.00000000E+00
