generated by phonopy                    
   1.00000000000000     
    11.7777700938999992   -0.0000006592896312    0.0000118211769744
    -0.0000006477562692   11.7777479613999994   -0.0000130806483528
     0.0000177256125076   -0.0000204342245446   17.8544012557999991
   Ba   Bi   Cu   Se   O 
     1    35    36    36    36
Direct
  0.9999739496483215  0.1666713060108549  0.4133855657310974
  0.3335134154112467  0.1666629505646497  0.4317107072668307
  0.6664218041559593  0.1666682513304494  0.4317007247195974
  0.9999728554197489  0.5002115082432681  0.4317062672979404
  0.3337538465980145  0.5004499440701906  0.4290943984480364
  0.6661938369847249  0.5004510718923569  0.4290964968227513
  0.9999644703606378  0.8331218751720542  0.4317019402334452
  0.3337513077422045  0.8328860344876432  0.4290939400857994
  0.6661908044193723  0.8328836868106180  0.4290977036825296
  0.9999927170602305  0.1666654254852276  0.9292105424997743
  0.3329068456045476  0.1666659247560034  0.9288391305539463
  0.6670870754888725  0.1666650138693555  0.9288435497577439
  0.9999949390897314  0.4995743586560337  0.9288384988227349
  0.3333170196827808  0.4999866329342169  0.9286471816145720
  0.6666768242548073  0.4999829641615463  0.9286512048308069
  0.9999925932121485  0.8337560220481350  0.9288400762339464
  0.3333161684803301  0.8333448145039100  0.9286480563312338
  0.6666775308659041  0.8333449785025664  0.9286530069626622
  0.1667330203468467  0.9999282675670500  0.0711641224909414
  0.4999931258918053  0.9999075638174801  0.0703492704962088
  0.8332581648817126  0.9999263612963603  0.0711693908833126
  0.1667336653689873  0.3334057741258292  0.0711632629947587
  0.4999928237657656  0.3334237300541005  0.0703479524395547
  0.8332593460852706  0.3334054176906065  0.0711672411557132
  0.1667506955066074  0.6666654554671254  0.0703450464366284
  0.4999952447431113  0.6666649326682830  0.0707808964619900
  0.8332403262072532  0.6666620905908616  0.0703493888115077
  0.1655897248897915  0.0010389490766087  0.5709158234198668
  0.4999699463227074  0.9982458372494776  0.5718129227470925
  0.8343407169234354  0.0010477779384246  0.5709103994564870
  0.1656022733891902  0.3323014677806100  0.5709192844765099
  0.4999700743998048  0.3350857847149626  0.5718089496962904
  0.8343400839865680  0.3322966631259661  0.5709132176375249
  0.1683870700502297  0.6666740809055085  0.5718072800061691
  0.4999706541784832  0.6666654163484438  0.5716533854685650
  0.8315572823275872  0.6666712587512151  0.5718146787229088
  0.9999767397241399  0.9950595587477267  0.2499453692080564
  0.3381118616174774  0.9988889587687311  0.2476530142336770
  0.6618340133918466  0.9988861539895240  0.2476544677645478
  0.9999691437737255  0.3382804230220486  0.2499446769165772
  0.3381067973563816  0.3344514335857767  0.2476571130278700
  0.6618365401053907  0.3344392493010275  0.2476538090433635
  0.9999777357140403  0.6666667000202509  0.2506954587433654
  0.3329145285219397  0.6666714409370798  0.2497109205666419
  0.6670338671288221  0.6666585864529466  0.2497139306877756
  0.9999866072027643  0.9997875045413522  0.7496291242849367
  0.3337926666534514  0.9999336942952937  0.7506963090894558
  0.6661861381722787  0.9999218338804212  0.7506957335647755
  0.9999905702516543  0.3335479944158166  0.7496286799394198
  0.3337934001397613  0.3334080826080381  0.7507003870338025
  0.6661910175032162  0.3334062390771635  0.7506943091520881
  0.9999825471829880  0.6666656921027894  0.7515011119323347
  0.3337214849773105  0.6666650764568089  0.7507786497864259
  0.6662657887627148  0.6666683727717810  0.7507776705894500
  0.1715961577754470  0.1666661364246451  0.2499459633963070
  0.4999839008501681  0.1666651321346535  0.2506941899562776
  0.8283734638288109  0.1666651964981156  0.2499475663573918
  0.1677729116610820  0.5048016936342492  0.2476555603897950
  0.4999789098212091  0.4996039042598426  0.2497118806408238
  0.8322089249285938  0.5048071399141705  0.2476541965676589
  0.1677681471246473  0.8285345989576101  0.2476552647289481
  0.4999788094923190  0.8337284455753320  0.2497130151829978
  0.8322111639093421  0.8285241443317801  0.2476499844032105
  0.1668538287492183  0.1666682474383450  0.7496281014175850
  0.4999765687280870  0.1666629396732446  0.7514975516131130
  0.8330978554873312  0.1666651726751596  0.7496302849240521
  0.1667171019349567  0.5004640470774717  0.7506971356467673
  0.4999796609676608  0.5003911733458040  0.7507787256081002
  0.8332344760910999  0.5004648263473683  0.7506984659317055
  0.1667210792193643  0.8328706724239581  0.7506968725291046
  0.4999727458395000  0.8329419468968382  0.7507791853078700
  0.8332350109209870  0.8328643420599846  0.7506949582285714
  0.1724740954126105  0.3391696246374991  0.3328494092201240
  0.4999728252686566  0.3338052471267048  0.3370935260100083
  0.8274712872380121  0.3391704799694608  0.3328475441797067
  0.1671146748214341  0.6666689592984767  0.3370929997555052
  0.4999738796685094  0.6666670984864425  0.3359431202277889
  0.8328374150154687  0.6666673130107199  0.3370938643626005
  0.1724782291180418  0.9941673978100170  0.3328492727451220
  0.4999724424910070  0.9995284641116342  0.3370951570311860
  0.8274726948362172  0.9941620086801066  0.3328459450980503
  0.1662041522013311  0.3328805217994812  0.8374358377410829
  0.4999938232737833  0.3339367356946994  0.8385238258106540
  0.8337743906026844  0.3328801828588155  0.8374357191610358
  0.1672622328629956  0.6666679896531988  0.8385211840697480
  0.4999930321168975  0.6666667721486945  0.8385081885632530
  0.8327148824055968  0.6666675192413223  0.8385252352426349
  0.1662039031940310  0.0004538746767153  0.8374345881316643
  0.4999908526898338  0.9993945439117624  0.8385249654099312
  0.8337721789475836  0.0004502557153927  0.8374353045368181
  0.3348846937012269  0.1666698904578183  0.1613187035693855
  0.6650879612513592  0.1666643373699372  0.1613178441912311
  0.9999874913214626  0.1666686477666772  0.1657947639884725
  0.3347862959867669  0.5014679693480275  0.1604519348308600
  0.6651868999862813  0.5014640742136649  0.1604551287988656
  0.9999913164688365  0.5015676905280841  0.1613183767806632
  0.3347854654122386  0.8318683358539332  0.1604521355148094
  0.6651848528971058  0.8318643788770714  0.1604565445163786
  0.9999918450334633  0.8317689970569901  0.1613180262376588
  0.3350013392254567  0.1666695599711971  0.6647374006446469
  0.6649522288393044  0.1666655767638332  0.6647373447258431
  0.9999747701143633  0.1666673898222939  0.6624225177008398
  0.3335900172348190  0.5002796534999590  0.6640969412679141
  0.6663649897654835  0.5002794023925787  0.6640958594170385
  0.9999763261162826  0.5016931062521763  0.6647388125231970
  0.3335886421989187  0.8330559596406673  0.6640964050296247
  0.6663628376589372  0.8330544882852422  0.6640953410266732
  0.9999763122006939  0.8316421431696810  0.6647384180179401
  0.1770142388189839  0.1666672789110564  0.5049288605305122
  0.4999705796476022  0.1666647807695441  0.5018835850758734
  0.8229282574891954  0.1666716627737870  0.5049180325821183
  0.1688725622900051  0.5018018043984540  0.4999676719081450
  0.4999718273933311  0.5011420535545454  0.5007799166527462
  0.8310751264610516  0.5017956669639005  0.4999692735495174
  0.1688645133724123  0.8315383243116301  0.4999634490918154
  0.4999751942934196  0.8321937319745771  0.5007808895618098
  0.8310737318929711  0.8315383702082002  0.4999692608697259
  0.1663382263860598  0.1666664554027761  0.0003146496727524
  0.4999924817564363  0.1666657184141300  0.9992321302067992
  0.8336487025446218  0.1666656736818624  0.0003190198212906
  0.1663732763425827  0.4993514223279760  0.9999242077318726
  0.4999927498125558  0.4995666615099381  0.9990594587568751
  0.8336144611467091  0.4993506484911805  0.9999278927550179
  0.1663724753241240  0.8339814753414387  0.9999248082135352
  0.4999924935011606  0.8337647245569784  0.9990602905551711
  0.8336142112720140  0.8339802448443407  0.9999299309895733
  0.9999917250044064  0.0003210611072149  0.0003166553440863
  0.3326785162289099  0.0002856721149271  0.9999262636630633
  0.6673082522832630  0.0002852047791890  0.9999307592409536
  0.9999924632057855  0.3330118044338093  0.0003157439110808
  0.3326788314426707  0.3330469911132639  0.9999253817220648
  0.6673084620274210  0.3330462223562733  0.9999295964665791
  0.9999919266001953  0.6666656558530022  0.9992295318273179
  0.3328941194237345  0.6666661431881948  0.9990578785822635
  0.6670933522287186  0.6666649829530797  0.9990619411919965
  0.9999688887192804  0.9896281406799616  0.5049205368283722
  0.3351011037857674  0.9977659001018324  0.4999713485662625
  0.6648418663039095  0.9977704711912594  0.4999657954427548
  0.9999757275489642  0.3437100972597094  0.5049271378206370
  0.3351025363128244  0.3355664826846407  0.4999668092024123
  0.6648389538448569  0.3355664547904382  0.4999645358860434
  0.9999709677648738  0.6666682203795773  0.5018810228761410
  0.3344437295053169  0.6666712464480185  0.5007810117694547
  0.6655044839468403  0.6666666371178351  0.5007840859398769
 
  0.00000000E+00  0.00000000E+00  0.00000000E+00
  0.00000000E+00  0.00000000E+00  0.00000000E+00
  0.00000000E+00  0.00000000E+00  0.00000000E+00
  0.00000000E+00  0.00000000E+00  0.00000000E+00
  0.00000000E+00  0.00000000E+00  0.00000000E+00
  0.00000000E+00  0.00000000E+00  0.00000000E+00
  0.00000000E+00  0.00000000E+00  0.00000000E+00
  0.00000000E+00  0.00000000E+00  0.00000000E+00
  0.00000000E+00  0.00000000E+00  0.00000000E+00
  0.00000000E+00  0.00000000E+00  0.00000000E+00
  0.00000000E+00  0.00000000E+00  0.00000000E+00
  0.00000000E+00  0.00000000E+00  0.00000000E+00
  0.00000000E+00  0.00000000E+00  0.00000000E+00
  0.00000000E+00  0.00000000E+00  0.00000000E+00
  0.00000000E+00  0.00000000E+00  0.00000000E+00
  0.00000000E+00  0.00000000E+00  0.00000000E+00
  0.00000000E+00  0.00000000E+00  0.00000000E+00
  0.00000000E+00  0.00000000E+00  0.00000000E+00
  0.00000000E+00  0.00000000E+00  0.00000000E+00
  0.00000000E+00  0.00000000E+00  0.00000000E+00
  0.00000000E+00  0.00000000E+00  0.00000000E+00
  0.00000000E+00  0.00000000E+00  0.00000000E+00
  0.00000000E+00  0.00000000E+00  0.00000000E+00
  0.00000000E+00  0.00000000E+00  0.00000000E+00
  0.00000000E+00  0.00000000E+00  0.00000000E+00
  0.00000000E+00  0.00000000E+00  0.00000000E+00
  0.00000000E+00  0.00000000E+00  0.00000000E+00
  0.00000000E+00  0.00000000E+00  0.00000000E+00
  0.00000000E+00  0.00000000E+00  0.00000000E+00
  0.00000000E+00  0.00000000E+00  0.00000000E+00
  0.00000000E+00  0.00000000E+00  0.00000000E+00
  0.00000000E+00  0.00000000E+00  0.00000000E+00
  0.00000000E+00  0.00000000E+00  0.00000000E+00
  0.00000000E+00  0.00000000E+00  0.00000000E+00
  0.00000000E+00  0.00000000E+00  0.00000000E+00
  0.00000000E+00  0.00000000E+00  0.00000000E+00
  0.00000000E+00  0.00000000E+00  0.00000000E+00
  0.00000000E+00  0.00000000E+00  0.00000000E+00
  0.00000000E+00  0.00000000E+00  0.00000000E+00
  0.00000000E+00  0.00000000E+00  0.00000000E+00
  0.00000000E+00  0.00000000E+00  0.00000000E+00
  0.00000000E+00  0.00000000E+00  0.00000000E+00
  0.00000000E+00  0.00000000E+00  0.00000000E+00
  0.00000000E+00  0.00000000E+00  0.00000000E+00
  0.00000000E+00  0.00000000E+00  0.00000000E+00
  0.00000000E+00  0.00000000E+00  0.00000000E+00
  0.00000000E+00  0.00000000E+00  0.00000000E+00
  0.00000000E+00  0.00000000E+00  0.00000000E+00
  0.00000000E+00  0.00000000E+00  0.00000000E+00
  0.00000000E+00  0.00000000E+00  0.00000000E+00
  0.00000000E+00  0.00000000E+00  0.00000000E+00
  0.00000000E+00  0.00000000E+00  0.00000000E+00
  0.00000000E+00  0.00000000E+00  0.00000000E+00
  0.00000000E+00  0.00000000E+00  0.00000000E+00
  0.00000000E+00  0.00000000E+00  0.00000000E+00
  0.00000000E+00  0.00000000E+00  0.00000000E+00
  0.00000000E+00  0.00000000E+00  0.00000000E+00
  0.00000000E+00  0.00000000E+00  0.00000000E+00
  0.00000000E+00  0.00000000E+00  0.00000000E+00
  0.00000000E+00  0.00000000E+00  0.00000000E+00
  0.00000000E+00  0.00000000E+00  0.00000000E+00
  0.00000000E+00  0.00000000E+00  0.00000000E+00
  0.00000000E+00  0.00000000E+00  0.00000000E+00
  0.00000000E+00  0.00000000E+00  0.00000000E+00
  0.00000000E+00  0.00000000E+00  0.00000000E+00
  0.00000000E+00  0.00000000E+00  0.00000000E+00
  0.00000000E+00  0.00000000E+00  0.00000000E+00
  0.00000000E+00  0.00000000E+00  0.00000000E+00
  0.00000000E+00  0.00000000E+00  0.00000000E+00
  0.00000000E+00  0.00000000E+00  0.00000000E+00
  0.00000000E+00  0.00000000E+00  0.00000000E+00
  0.00000000E+00  0.00000000E+00  0.00000000E+00
  0.00000000E+00  0.00000000E+00  0.00000000E+00
  0.00000000E+00  0.00000000E+00  0.00000000E+00
  0.00000000E+00  0.00000000E+00  0.00000000E+00
  0.00000000E+00  0.00000000E+00  0.00000000E+00
  0.00000000E+00  0.00000000E+00  0.00000000E+00
  0.00000000E+00  0.00000000E+00  0.00000000E+00
  0.00000000E+00  0.00000000E+00  0.00000000E+00
  0.00000000E+00  0.00000000E+00  0.00000000E+00
  0.00000000E+00  0.00000000E+00  0.00000000E+00
  0.00000000E+00  0.00000000E+00  0.00000000E+00
  0.00000000E+00  0.00000000E+00  0.00000000E+00
  0.00000000E+00  0.00000000E+00  0.00000000E+00
  0.00000000E+00  0.00000000E+00  0.00000000E+00
  0.00000000E+00  0.00000000E+00  0.00000000E+00
  0.00000000E+00  0.00000000E+00  0.00000000E+00
  0.00000000E+00  0.00000000E+00  0.00000000E+00
  0.00000000E+00  0.00000000E+00  0.00000000E+00
  0.00000000E+00  0.00000000E+00  0.00000000E+00
  0.00000000E+00  0.00000000E+00  0.00000000E+00
  0.00000000E+00  0.00000000E+00  0.00000000E+00
  0.00000000E+00  0.00000000E+00  0.00000000E+00
  0.00000000E+00  0.00000000E+00  0.00000000E+00
  0.00000000E+00  0.00000000E+00  0.00000000E+00
  0.00000000E+00  0.00000000E+00  0.00000000E+00
  0.00000000E+00  0.00000000E+00  0.00000000E+00
  0.00000000E+00  0.00000000E+00  0.00000000E+00
  0.00000000E+00  0.00000000E+00  0.00000000E+00
  0.00000000E+00  0.00000000E+00  0.00000000E+00
  0.00000000E+00  0.00000000E+00  0.00000000E+00
  0.00000000E+00  0.00000000E+00  0.00000000E+00
  0.00000000E+00  0.00000000E+00  0.00000000E+00
  0.00000000E+00  0.00000000E+00  0.00000000E+00
  0.00000000E+00  0.00000000E+00  0.00000000E+00
  0.00000000E+00  0.00000000E+00  0.00000000E+00
  0.00000000E+00  0.00000000E+00  0.00000000E+00
  0.00000000E+00  0.00000000E+00  0.00000000E+00
  0.00000000E+00  0.00000000E+00  0.00000000E+00
  0.00000000E+00  0.00000000E+00  0.00000000E+00
  0.00000000E+00  0.00000000E+00  0.00000000E+00
  0.00000000E+00  0.00000000E+00  0.00000000E+00
  0.00000000E+00  0.00000000E+00  0.00000000E+00
  0.00000000E+00  0.00000000E+00  0.00000000E+00
  0.00000000E+00  0.00000000E+00  0.00000000E+00
  0.00000000E+00  0.00000000E+00  0.00000000E+00
  0.00000000E+00  0.00000000E+00  0.00000000E+00
  0.00000000E+00  0.00000000E+00  0.00000000E+00
  0.00000000E+00  0.00000000E+00  0.00000000E+00
  0.00000000E+00  0.00000000E+00  0.00000000E+00
  0.00000000E+00  0.00000000E+00  0.00000000E+00
  0.00000000E+00  0.00000000E+00  0.00000000E+00
  0.00000000E+00  0.00000000E+00  0.00000000E+00
  0.00000000E+00  0.00000000E+00  0.00000000E+00
  0.00000000E+00  0.00000000E+00  0.00000000E+00
  0.00000000E+00  0.00000000E+00  0.00000000E+00
  0.00000000E+00  0.00000000E+00  0.00000000E+00
  0.00000000E+00  0.00000000E+00  0.00000000E+00
  0.00000000E+00  0.00000000E+00  0.00000000E+00
  0.00000000E+00  0.00000000E+00  0.00000000E+00
  0.00000000E+00  0.00000000E+00  0.00000000E+00
  0.00000000E+00  0.00000000E+00  0.00000000E+00
  0.00000000E+00  0.00000000E+00  0.00000000E+00
  0.00000000E+00  0.00000000E+00  0.00000000E+00
  0.00000000E+00  0.00000000E+00  0.00000000E+00
  0.00000000E+00  0.00000000E+00  0.00000000E+00
  0.00000000E+00  0.00000000E+00  0.00000000E+00
  0.00000000E+00  0.00000000E+00  0.00000000E+00
  0.00000000E+00  0.00000000E+00  0.00000000E+00
  0.00000000E+00  0.00000000E+00  0.00000000E+00
  0.00000000E+00  0.00000000E+00  0.00000000E+00
  0.00000000E+00  0.00000000E+00  0.00000000E+00
  0.00000000E+00  0.00000000E+00  0.00000000E+00
  0.00000000E+00  0.00000000E+00  0.00000000E+00
