As   O    Li
1.0
  6.47188176278715 -9.53964754117e-05 3.50171278428e-05
  8.11906267463e-05 -5.5265590523241235 6.57174481e-07
  -4.4261239596e-05 6.071043826e-07 -5.04619636995
 As  O  Li 
2 8 6 
direct
   -0.9958363641260845   0.1716171356322462   0.0859105884132418
   -0.4958118316209976   0.8301510891650781   0.5011233708878464
   -0.9958169686489169   0.8623742644664675   0.0936193905632621
   -0.9958548663529709   0.1751214159550187   0.5741415560449142
   -0.7664311985616550   0.3248803128349352   0.0941401443282501
   -0.2252606402016326   0.3248629924636077   0.0941242132961122
   -0.7136716645164042   0.6798429775546212   0.6121333942369347
   -0.2779346913989258   0.6798535692441234   0.6121235263163030
   -0.4958182766915725   0.8262035750331621   0.1572559194122150
   -0.4958537010199606   0.1264993819318505   0.6100334909869717
   -0.7429316701326770   0.6743795206927459   0.0021932317667819
   -0.2487148148089844   0.6743499036073644   0.0021859701491067
   -0.9957859247413409   0.8341790713076874   0.5381379236394466
   -0.4958578833975195   0.1559227449739069   0.0020455149981515
   -0.7414866615954807   0.3299004718352165   0.5345213596384683
   -0.2502664404868895   0.3298622407936165   0.5345338946941851
