As   O    Li
1.0
  6.437880102831037 1.3300625267e-06 -1.97787334588e-05
  -2.0389455318e-06 -5.533578567305975 6.571744853e-07
  2.42939352085e-05 6.071043808e-07 -5.04619636995
 As  O  Li 
2 8 6 
direct
   -0.9958139637393514   0.1721151113945965   0.1330857573519637
   -0.4958410660802812   0.8272220603178653   0.4944049647903340
   -0.9958412105866825   0.8765317769423077   0.0242363141881725
   -0.9958436248673194   0.1743040765997961   0.4755995657071068
   -0.7760083676926753   0.3193428255441332   0.0220450334014402
   -0.2156023631715129   0.3193599934656746   0.0220175227353465
   -0.7168913971256571   0.6799853132588112   0.6017123473510254
   -0.2747939896115028   0.6799808536204424   0.6017084639645844
   -0.4958369015407910   0.8250271102066121   0.1507932244109682
   -0.4958507355310076   0.1248255719889357   0.5970262371391541
   -0.7481247772956151   0.6723586148546374   0.0186026570597875
   -0.2435588402059210   0.6723371640804529   0.0186396916269018
   -0.9958308877398138   0.8437479781532744   0.6211591712638481
   -0.4957646076395576   0.1607930304499376   0.0237132736382719
   -0.7452177497141220   0.3260492357494654   0.6217436437423204
   -0.2465131157602158   0.3260199508647261   0.6217356210013563
