As   O    Li                            
   1.00000000000000     
     0.0000321478393944    0.0000006071043806   -5.0461963699499996
    -0.0000083781865643   -5.5322520785493037    0.0000006571744858
    -6.4449585304104877   -0.0000087149451261    0.0000295065034369
   As   O    Li
     2     8     6
Direct
  0.1333404958369684  0.1714826369462372  0.9958130153679505
  0.4884726068709782  0.8272409589750183  0.4958447825375032
  0.0237689059008375  0.8760509257752389  0.9958455784842215
  0.4755414034065666  0.1743518954164500  0.9958435571828943
  0.0212998658434103  0.3189501647587889  0.7765357482436954
  0.0212732292755362  0.3189675804041272  0.2150723520612701
  0.5902364555750736  0.6794549353710764  0.7180407482120188
  0.5902185383673242  0.6794458427773336  0.2736504732276543
  0.1439009068618304  0.8248724292034595  0.4958394480764881
  0.5838163027895504  0.1269293725014009  0.4958500741430640
  0.0341735809309256  0.6704290615485462  0.7512159279625266
  0.0342313550983917  0.6703860525834173  0.2404615268640455
  0.6221757605202853  0.8428437878508745  0.9958369479630704
  0.0407175745388031  0.1663376565887944  0.4957576137379149
  0.6225285082430076  0.3261434235491834  0.7445787745923553
  0.6225279993130570  0.3261139432417224  0.2471470296453546
 
             NaN             NaN             NaN
             NaN             NaN             NaN
             NaN             NaN             NaN
             NaN             NaN             NaN
             NaN             NaN             NaN
             NaN             NaN             NaN
             NaN             NaN             NaN
             NaN             NaN             NaN
             NaN             NaN             NaN
             NaN             NaN             NaN
             NaN             NaN             NaN
             NaN             NaN             NaN
             NaN             NaN             NaN
             NaN             NaN             NaN
             NaN             NaN             NaN
             NaN             NaN             NaN
