As   O    Li                            
   1.00000000000000     
    -0.0000451452730171    0.0000006071043828   -5.0461963699499996
     0.0000781672906799   -5.5250500857900633    0.0000006571744805
    -6.4699557822115858    0.0000918566735729   -0.0000361367236384
   As   O    Li
     2     8     6
Direct
  0.0570743494926305  0.1716464744937127  0.9958351490657620
  0.5010013952435273  0.8300959313787786  0.4958165125276821
  0.0969586311819839  0.8634471170707343  0.9958173709599265
  0.5938546095716362  0.1752240481394836  0.9958544598038728
  0.0976558339849589  0.3243435416837883  0.7672411798639587
  0.0976423211368100  0.3243269501575341  0.2244515346523883
  0.6122725094011372  0.6798634429761989  0.7137370312894120
  0.6122645571054051  0.6798713285795159  0.2778652824756946
  0.1572727352395304  0.8261461745379250  0.4958180156999532
  0.6101542151449024  0.1264926194145559  0.4958533921152295
  0.0025145271162401  0.6742746010786789  0.7430165693641229
  0.0025075488776451  0.6742447536155609  0.2486305419001553
  0.5372961215308223  0.8342819510747717  0.9957858424471766
  0.0023484369724542  0.1560813259124316  0.4958579431095771
  0.5336967021067665  0.3298494904495683  0.7416206755485746
  0.5337089952657692  0.3298109169283876  0.2501320974785344
 
             NaN             NaN             NaN
             NaN             NaN             NaN
             NaN             NaN             NaN
             NaN             NaN             NaN
             NaN             NaN             NaN
             NaN             NaN             NaN
             NaN             NaN             NaN
             NaN             NaN             NaN
             NaN             NaN             NaN
             NaN             NaN             NaN
             NaN             NaN             NaN
             NaN             NaN             NaN
             NaN             NaN             NaN
             NaN             NaN             NaN
             NaN             NaN             NaN
             NaN             NaN             NaN
