As   O    Li
1.0
  6.470722465749775 -9.605951879e-05 3.27512467245e-05
  8.17458652706e-05 -5.526174218536298 6.571744821e-07
  -4.24030681942e-05 6.071043821e-07 -5.04619636995
 As  O  Li 
2 8 6 
direct
   -0.9958483770011101   0.1718292852955372   0.1422085923938567
   -0.4958130479488930   0.8298922225185877   0.5004169209120447
   -0.9958187356428213   0.8640373433478458   0.0877639552849629
   -0.9958520440271386   0.1746183485532598   0.5312745441774354
   -0.7674429256427973   0.3241738319147984   0.0877845294747317
   -0.2242433032211011   0.3241514141919167   0.0877679237487570
   -0.7138659704002848   0.6801156206400379   0.6118848508954500
   -0.2777430008445876   0.6801267507333293   0.6118743932415711
   -0.4958201408458224   0.8262225516712861   0.1573096540507848
   -0.4958540035115391   0.1262409185304350   0.6097665029531072
   -0.7435609455800078   0.6742302284468663   0.0024162335798010
   -0.2480906646626124   0.6741998692418107   0.0024095069736489
   -0.9957851032273484   0.8315107861007858   0.5401092159907748
   -0.4958576061883876   0.1563439394914425   0.0022403030774925
   -0.7392244020658085   0.3311732670936535   0.5364922431716650
   -0.2525133274917337   0.3311342897200261   0.5365041194461283
