As   O    Li                            
   1.00000000000000     
     0.0000429169820723    0.0000006071043788   -5.0461963699499996
    -0.0000581438127674   -5.5222531566245694    0.0000006571744900
    -6.4663436833117194   -0.0000665722619726    0.0000398558482051
   As   O    Li
     2     8     6
Direct
  0.1302458553501538  0.1700217932748345  0.9958123731075901
  0.6001064622903911  0.8282974086290480  0.4958410893999954
  0.0207404251474657  0.8734887205799851  0.9958527840205917
  0.4736142611995717  0.1739784048807635  0.9958187408691899
  0.0185453136427896  0.3200526793537719  0.7776972457172278
  0.0185386926177813  0.3200624950771527  0.2139142239791454
  0.5308514929949908  0.6766617029642319  0.7230036451738826
  0.5308462642614487  0.6766398043807769  0.2686874183928509
  0.0158176647579396  0.8246553908956216  0.4958535849252357
  0.5319180121888962  0.1346039428315109  0.4958178081208970
  0.0992025773166034  0.6701302595423826  0.7501055290924228
  0.0992017963706360  0.6700925596556075  0.2416394791769889
  0.6280824964301033  0.8435391058715140  0.9958591374256756
  0.0949243310923578  0.1657538634923910  0.4957856013781594
  0.6277905355413154  0.3260265643238540  0.7484197549015406
  0.6277973081701163  0.3259959717382515  0.2432251826206340
 
             NaN             NaN             NaN
             NaN             NaN             NaN
             NaN             NaN             NaN
             NaN             NaN             NaN
             NaN             NaN             NaN
             NaN             NaN             NaN
             NaN             NaN             NaN
             NaN             NaN             NaN
             NaN             NaN             NaN
             NaN             NaN             NaN
             NaN             NaN             NaN
             NaN             NaN             NaN
             NaN             NaN             NaN
             NaN             NaN             NaN
             NaN             NaN             NaN
             NaN             NaN             NaN
