As   O    Li
1.0
  6.462240641526652 5.83357061555e-05 -3.22068162248e-05
  -5.10185769028e-05 -5.525219599602787 6.571744874e-07
  3.63411504714e-05 6.071043799e-07 -5.04619636995
 As  O  Li 
2 8 6 
direct
   -0.9958149861880086   0.1703514447261298   0.1320279903293695
   -0.4958450429034613   0.8279025836995401   0.4718214405206353
   -0.9958479137784620   0.8744040242467647   0.0217321179900409
   -0.9958317060872161   0.1741009870706094   0.4742213128360290
   -0.7774075269742511   0.3192268603958937   0.0194104654434639
   -0.2142049717573968   0.3192426547251941   0.0193947676187989
   -0.7218643058050558   0.6773355754542436   0.5516822099008110
   -0.2698399694032645   0.6773174874993018   0.5516727705104074
   -0.4958411084323017   0.8256891570417648   0.1223391034193284
   -0.4958329645356798   0.1322642367323468   0.5504796334196698
   -0.7566921934258345   0.6667382097987584   0.0857835541291934
   -0.2349967474703192   0.6667184935742226   0.0857985004158195
   -0.9958564628323214   0.8421685563198552   0.6268226051435589
   -0.4957676591916921   0.1738960364967852   0.0822243820625772
   -0.7456311198606684   0.3263380350936629   0.6264073570034725
   -0.2460589196560646   0.3263063246165814   0.6264052786293844
