As   O    Li                            
   1.00000000000000     
     0.0000449317703836    0.0000006071043783   -5.0461963699499996
    -0.0000329394806915   -5.4956244613033416    0.0000006571744911
    -6.4237644859865535   -0.0000372105458144    0.0000428440428931
   As   O    Li
     2     8     6
Direct
  0.1306397817054119  0.1709683654863738  0.9958189648898497
  0.6306572900745024  0.8283442228851996  0.4958379309063901
  0.0205334142817861  0.8728234716566021  0.9958374034546154
  0.4733418706653509  0.1756198482847537  0.9958279055063386
  0.0181261645522000  0.3199791960524294  0.7752753236934140
  0.0181205342055222  0.3199834329170912  0.2163510849331729
  0.5220534861481383  0.6795952167825234  0.7182078826465528
  0.5220497504477635  0.6795778319114163  0.2734760766455295
  0.9755650664870075  0.8236851124751610  0.4958338048578028
  0.5244790961951153  0.1282068038347361  0.4958277340439778
  0.1147387205355770  0.6700874270042902  0.7491416639776247
  0.1147407449638322  0.6700649065855444  0.2425320401608104
  0.6239096863042022  0.8388694288372420  0.9958633306378459
  0.1122537676580606  0.1649364802801117  0.4958172915191099
  0.6235016623131813  0.3286430918502177  0.7450857898011520
  0.6235124528337295  0.3286158306479763  0.2465993706278411
 
             NaN             NaN             NaN
             NaN             NaN             NaN
             NaN             NaN             NaN
             NaN             NaN             NaN
             NaN             NaN             NaN
             NaN             NaN             NaN
             NaN             NaN             NaN
             NaN             NaN             NaN
             NaN             NaN             NaN
             NaN             NaN             NaN
             NaN             NaN             NaN
             NaN             NaN             NaN
             NaN             NaN             NaN
             NaN             NaN             NaN
             NaN             NaN             NaN
             NaN             NaN             NaN
