As   O    Li                            
   1.00000000000000     
    -0.0000424030681942    0.0000006071043821   -5.0461963699499996
     0.0000817458652706   -5.5261742185362976    0.0000006571744821
    -6.4707224657497751    0.0000960595187900   -0.0000327512467245
   As   O    Li
     2     8     6
Direct
  0.1422085923938567  0.1718292852955372  0.9958483770011100
  0.5004169209120448  0.8298922225185876  0.4958130479488929
  0.0877639552849629  0.8640373433478459  0.9958187356428212
  0.5312745441774354  0.1746183485532598  0.9958520440271386
  0.0877845294747317  0.3241738319147984  0.7674429256427970
  0.0877679237487570  0.3241514141919168  0.2242433032211011
  0.6118848508954500  0.6801156206400378  0.7138659704002848
  0.6118743932415711  0.6801267507333293  0.2777430008445876
  0.1573096540507848  0.8262225516712860  0.4958201408458223
  0.6097665029531072  0.1262409185304350  0.4958540035115391
  0.0024162335798010  0.6742302284468664  0.7435609455800076
  0.0024095069736489  0.6741998692418107  0.2480906646626124
  0.5401092159907748  0.8315107861007860  0.9957851032273481
  0.0022403030774925  0.1563439394914425  0.4958576061883875
  0.5364922431716650  0.3311732670936536  0.7392244020658083
  0.5365041194461284  0.3311342897200262  0.2525133274917337
 
             NaN             NaN             NaN
             NaN             NaN             NaN
             NaN             NaN             NaN
             NaN             NaN             NaN
             NaN             NaN             NaN
             NaN             NaN             NaN
             NaN             NaN             NaN
             NaN             NaN             NaN
             NaN             NaN             NaN
             NaN             NaN             NaN
             NaN             NaN             NaN
             NaN             NaN             NaN
             NaN             NaN             NaN
             NaN             NaN             NaN
             NaN             NaN             NaN
             NaN             NaN             NaN
