As   O    Li
1.0
  6.458348853918217 7.11364862985e-05 -3.92746161632e-05
  -6.20275023465e-05 -5.516634134858619 6.571744905e-07
  4.24219471013e-05 6.071043785e-07 -5.04619636995
 As  O  Li 
2 8 6 
direct
   -0.9958123274628293   0.1703141457310124   0.1308475442658690
   -0.4958491328409877   0.8281802535517359   0.6234702285488396
   -0.9958522550954146   0.8735327504322185   0.0206236332032290
   -0.9958201531276815   0.1742779840741377   0.4736249895417258
   -0.7772304459761584   0.3198819588868105   0.0184251938684028
   -0.2143835228298130   0.3198921891307620   0.0184177609699816
   -0.7206097522418490   0.6782283379009398   0.5288385081854089
   -0.2710748499987191   0.6782023359371436   0.5288344687398734
   -0.4958499536117600   0.8244996834087457   0.9916383784842536
   -0.4958188482389830   0.1313093318274738   0.5303759468351146
   -0.7500655329324176   0.6700648016361795   0.1023154687363856
   -0.2416666982340061   0.6700266806195073   0.1023144183372509
   -0.9958587272875548   0.8425588622669125   0.6269998340894105
   -0.4957880544661181   0.1658756726053241   0.0982205005418564
   -0.7477472945250198   0.3265936648719716   0.6266352130731434
   -0.2439060494327308   0.3265620146107864   0.6266414019518011
