As   O    Li
1.0
  6.462593364850484 -6.56812946812e-05 3.2754836792e-05
  5.57177341455e-05 -5.525168567895251 6.571744826e-07
  -4.18581684069e-05 6.071043819e-07 -5.04619636995
 As  O  Li 
2 8 6 
direct
   -0.9958428837569357   0.1721335405717497   0.1593260117696076
   -0.4958246977721216   0.8296358252437627   0.4989726316622409
   -0.9958323322981995   0.8676317148212431   0.0811910052150751
   -0.9958427463634577   0.1743331798667143   0.5091880463010128
   -0.7697793542461325   0.3227387321587472   0.0798297879001737
   -0.2219252735853772   0.3227213069985382   0.0798123863588671
   -0.7141934505215914   0.6807379287060442   0.6115889200497122
   -0.2774105052043438   0.6807485127138549   0.6115778726978648
   -0.4958303757260509   0.8259263240672539   0.1567737772581310
   -0.4958492232088858   0.1255819833160814   0.6093175095687827
   -0.7459846936379008   0.6737509887153762   0.0043315638603332
   -0.2457012228151143   0.6737176220753796   0.0043333974428421
   -0.9957683388156652   0.8261543182847433   0.5479669831833007
   -0.4958559901389207   0.1577836306923857   0.0039997354551318
   -0.7350980318367561   0.3332154713105808   0.5449942611555514
   -0.2565944783745522   0.3331895879491711   0.5450195994935925
