As   O    Li
1.0
  6.438448678300836 -5.273141878e-07 2.1364716889e-06
  -1.286854822e-07 -5.5331751594528855 6.571744847e-07
  -1.34569206524e-05 6.07104381e-07 -5.04619636995
 As  O  Li 
2 8 6 
direct
   -0.9958413170853290   0.1728264507949575   0.1369646227181534
   -0.4958151527520441   0.8279058006145021   0.4978202075124328
   -0.9958515933197983   0.8750078272548265   0.0350149365293220
   -0.9958343756281207   0.1751694444079490   0.4806206600024936
   -0.7747735958148425   0.3200390935430804   0.0297127178463370
   -0.2169106103430493   0.3200336128092687   0.0297140303565300
   -0.7155888378932074   0.6806583461735303   0.6089176002712052
   -0.2760281654104588   0.6806728276161564   0.6088882828690743
   -0.4958413128335833   0.8256767243984626   0.1553175179040380
   -0.4958424305644299   0.1235049789230445   0.6066964311299259
   -0.7466016734750266   0.6740403300371298   0.0092015761275590
   -0.2451244181094693   0.6740040183504520   0.0091700393765066
   -0.9957675627993365   0.8387140403381110   0.6055159638231871
   -0.4958259342268646   0.1563814737014724   0.0100613074976863
   -0.7434561814881772   0.3276950577470714   0.6123079322793715
   -0.2482304365582876   0.3276706407816334   0.6122996631283826
