As   O    Li
1.0
  6.36154886716 -3.55567105e-08 -8.60019734e-08
  3.09417899e-08 -5.46644630206 6.571744916e-07
  6.17356516e-08 6.071043781e-07 -5.04619636995
 As  O  Li 
2 8 6 
direct
   -0.9958334082339420   0.1711183634316384   0.1242744740328021
   -0.4958334114922350   0.8288817382029662   0.6242745731378321
   -0.9958333945889279   0.8713860489808167   0.0143815481013903
   -0.9958334187952147   0.1761018272615615   0.4670569630291723
   -0.7729601860724882   0.3207505052926152   0.0119701128468819
   -0.2187067553977471   0.3207503500457918   0.0119701702386052
   -0.7187068160574412   0.6792498341257414   0.5119703742236226
   -0.2729601147577441   0.6792496792757633   0.5119703186791043
   -0.4958334165304024   0.8238986431812022   0.9670570847027022
   -0.4958333963820962   0.1286141113097159   0.5143814299132501
   -0.7480713923827622   0.6697841512320437   0.1173791531113153
   -0.2435951749253604   0.6697839079509721   0.1173784757893443
   -0.9958332027720259   0.8357869663581712   0.6171472270314382
   -0.4958331999637123   0.1642142664618831   0.1171469832081868
   -0.7435951240847700   0.3302155922240785   0.6173784162196371
   -0.2480714507137093   0.3302153496400067   0.6173790954743410
