As   O    Li
1.0
  6.44991236560538 -1.86345315505e-05 1.82258473226e-05
  1.5353892972e-05 -5.530501935456256 6.571744837e-07
  -2.85973982975e-05 6.071043815e-07 -5.04619636995
 As  O  Li 
2 8 6 
direct
   -0.9958444695330045   0.1726955998399191   0.1488666195961912
   -0.4958131651810335   0.8289685092892114   0.4977369741004621
   -0.9958470987061362   0.8713067212919653   0.0597418509149961
   -0.9958413083913413   0.1749737150732074   0.4942130235947388
   -0.7724242689981723   0.3212480908504531   0.0536611132641198
   -0.2192690298005218   0.3212370639435990   0.0536502957528384
   -0.7147050966954892   0.6811471516324942   0.6104688262678621
   -0.2769026186113805   0.6811665750372385   0.6104440867648008
   -0.4958391753014553   0.8256460585958223   0.1557278799621642
   -0.4958456214493907   0.1243367885137161   0.6080008917430604
   -0.7474874706542920   0.6737819401122280   0.0073410856162113
   -0.2442260571277828   0.6737474855256806   0.0073322710289005
   -0.9957595823481923   0.8293030565778069   0.5744741199055383
   -0.4958341181483732   0.1577980121179650   0.0074339651470723
   -0.7375669321205435   0.3313353996338435   0.5795536118765624
   -0.2541275852349258   0.3313084994564973   0.5795768738366860
