As   O    Li
1.0
  6.444958530410488 8.7149451261e-06 -2.95065034369e-05
  -8.3781865643e-06 -5.532252078549304 6.571744858e-07
  3.21478393944e-05 6.071043806e-07 -5.04619636995
 As  O  Li 
2 8 6 
direct
   -0.9958130153679507   0.1714826369462372   0.1333404958369684
   -0.4958447825375033   0.8272409589750183   0.4884726068709782
   -0.9958455784842217   0.8760509257752388   0.0237689059008375
   -0.9958435571828945   0.1743518954164500   0.4755414034065666
   -0.7765357482436956   0.3189501647587889   0.0212998658434103
   -0.2150723520612702   0.3189675804041272   0.0212732292755362
   -0.7180407482120189   0.6794549353710764   0.5902364555750736
   -0.2736504732276544   0.6794458427773336   0.5902185383673241
   -0.4958394480764882   0.8248724292034596   0.1439009068618304
   -0.4958500741430641   0.1269293725014009   0.5838163027895504
   -0.7512159279625267   0.6704290615485462   0.0341735809309256
   -0.2404615268640456   0.6703860525834174   0.0342313550983917
   -0.9958369479630705   0.8428437878508745   0.6221757605202853
   -0.4957576137379150   0.1663376565887944   0.0407175745388031
   -0.7445787745923554   0.3261434235491834   0.6225285082430076
   -0.2471470296453546   0.3261139432417224   0.6225279993130570
