As   O    Li
1.0
  6.469955782211586 -9.18566735729e-05 3.61367236384e-05
  7.81672906799e-05 -5.525050085790063 6.571744805e-07
  -4.51452730171e-05 6.071043828e-07 -5.04619636995
 As  O  Li 
2 8 6 
direct
   -0.9958351490657623   0.1716464744937127   0.0570743494926305
   -0.4958165125276822   0.8300959313787787   0.5010013952435273
   -0.9958173709599267   0.8634471170707344   0.0969586311819839
   -0.9958544598038730   0.1752240481394836   0.5938546095716362
   -0.7672411798639588   0.3243435416837883   0.0976558339849589
   -0.2244515346523884   0.3243269501575341   0.0976423211368100
   -0.7137370312894122   0.6798634429761988   0.6122725094011371
   -0.2778652824756946   0.6798713285795159   0.6122645571054051
   -0.4958180156999534   0.8261461745379250   0.1572727352395304
   -0.4958533921152297   0.1264926194145559   0.6101542151449022
   -0.7430165693641230   0.6742746010786788   0.0025145271162401
   -0.2486305419001554   0.6742447536155609   0.0025075488776451
   -0.9957858424471768   0.8342819510747717   0.5372961215308223
   -0.4958579431095773   0.1560813259124316   0.0023484369724542
   -0.7416206755485747   0.3298494904495683   0.5336967021067663
   -0.2501320974785345   0.3298109169283876   0.5337089952657691
