As   O    Li
1.0
  6.445046447272389 -4.0928211973e-06 1.35312343015e-05
  2.8782903023e-06 -5.532029223485563 6.571744842e-07
  -2.39367410188e-05 6.071043812e-07 -5.04619636995
 As  O  Li 
2 8 6 
direct
   -0.9958444143759240   0.1728408116166946   0.1429109693816883
   -0.4958149851917711   0.8285293980453048   0.4976086031800405
   -0.9958513711799882   0.8729121266765318   0.0484116812671189
   -0.9958371560038373   0.1753454723418244   0.4875151970962577
   -0.7736256123212968   0.3205731829321081   0.0411358692440729
   -0.2180640602210390   0.3205634843103410   0.0411311495877769
   -0.7150674914971944   0.6810555650432377   0.6097381958739874
   -0.2765457464332428   0.6810702663092201   0.6097112712668036
   -0.4958414540840011   0.8256407374253597   0.1554267131995175
   -0.4958455550831787   0.1239449333743039   0.6072661873167746
   -0.7472016837068622   0.6739620377489147   0.0082636748900597
   -0.2445211534489218   0.6739249470609039   0.0082443731817676
   -0.9957611399451879   0.8332413832790948   0.5884774349466325
   -0.4958301239712100   0.1571596468867256   0.0087409532678606
   -0.7403969653255658   0.3296399802625842   0.5968127767079920
   -0.2512846855128075   0.3295966941784840   0.5968284389638469
