As   O    Li
1.0
  6.42316819069279 -4.39650632631e-05 3.80468027997e-05
  3.71427925765e-05 -5.495357533964946 6.571744789e-07
  -4.61475218757e-05 6.071043835e-07 -5.04619636995
 As  O  Li 
2 8 6 
direct
   -0.9958370055776913   0.1716585339892518   0.0004674267367548
   -0.4958201783065236   0.8290119638124410   0.5002881231146361
   -0.9958299240727160   0.8718050447961262   0.1066927330269607
   -0.9958338957019353   0.1762799146866669   0.6556343940043590
   -0.7734745722454478   0.3204360116080666   0.1090937214297867
   -0.2182112742905673   0.3204212806574844   0.1090876777819005
   -0.7163760990549479   0.6800163771104409   0.6128357750340143
   -0.2752525346715090   0.6800199852168376   0.6128287778361639
   -0.4958277959390145   0.8243770232805403   0.1575932160325237
   -0.4958375691798338   0.1271506902632993   0.6104598681307181
   -0.7466434948255911   0.6713849024220837   0.0073821524798987
   -0.2450416337417708   0.6713556401302797   0.0073789189240685
   -0.9958189303468431   0.8350789589905788   0.5185071782020501
   -0.4958579139545095   0.1611829027932288   0.0070028694387929
   -0.7425404411261454   0.3299219547071033   0.5164861852517860
   -0.2491303352669619   0.3298994830272123   0.5164844719495818
