As   O    Li
1.0
  6.4237644859865535 3.72105458144e-05 -4.28440428931e-05
  -3.29394806915e-05 -5.495624461303342 6.571744911e-07
  4.49317703836e-05 6.071043783e-07 -5.04619636995
 As  O  Li 
2 8 6 
direct
   -0.9958189648898499   0.1709683654863738   0.1306397817054119
   -0.4958379309063902   0.8283442228851996   0.6306572900745024
   -0.9958374034546156   0.8728234716566021   0.0205334142817861
   -0.9958279055063387   0.1756198482847537   0.4733418706653508
   -0.7752753236934141   0.3199791960524295   0.0181261645522000
   -0.2163510849331730   0.3199834329170912   0.0181205342055222
   -0.7182078826465528   0.6795952167825235   0.5220534861481383
   -0.2734760766455295   0.6795778319114164   0.5220497504477635
   -0.4958338048578030   0.8236851124751611   0.9755650664870075
   -0.4958277340439779   0.1282068038347361   0.5244790961951153
   -0.7491416639776249   0.6700874270042905   0.1147387205355770
   -0.2425320401608104   0.6700649065855445   0.1147407449638322
   -0.9958633306378462   0.8388694288372421   0.6239096863042022
   -0.4958172915191101   0.1649364802801117   0.1122537676580606
   -0.7450857898011523   0.3286430918502177   0.6235016623131813
   -0.2465993706278412   0.3286158306479763   0.6235124528337295
