As   O    Li
1.0
  6.36154886716 -3.55567118e-08 -8.60019703e-08
  3.09417914e-08 -5.46644630206 6.571744784e-07
  6.17356477e-08 6.071043837e-07 -5.04619636995
 As  O  Li 
2 8 6 
direct
   -0.9958333751203623   0.1711182799957029   0.0067536342842587
   -0.4958333783786558   0.8288816547670308   0.5067537333892886
   -0.9958333614753413   0.8713859655448816   0.1166465602156705
   -0.9958333856816352   0.1761017438256260   0.6639711452878885
   -0.7729601529589089   0.3207504218566797   0.1190579954701789
   -0.2187067222841677   0.3207502666098562   0.1190580528619023
   -0.7187067829438619   0.6792497506898059   0.6190582568469197
   -0.2729600816441646   0.6792495958398277   0.6190582013024013
   -0.4958333834168229   0.8238985597452667   0.1639712669614184
   -0.4958333632685097   0.1286140278737804   0.6166464420275303
   -0.7480713592691828   0.6697840677961082   0.0136489552057455
   -0.2435951418117810   0.6697838245150365   0.0136482778837745
   -0.9958331696584466   0.8357868829222354   0.5138808812856225
   -0.4958331668501330   0.1642141830259476   0.0138811251088740
   -0.7435950909711907   0.3302155087881432   0.5136482183140672
   -0.2480714176001300   0.3302152662040713   0.5136488975687712
