As   O    Li
1.0
  6.454950899751178 -3.66645951203e-05 3.39540035243e-05
  3.08225053865e-05 -5.52794357205048 6.571744832e-07
  -4.17721707151e-05 6.071043817e-07 -5.04619636995
 As  O  Li 
2 8 6 
direct
   -0.9958478904855780   0.1724489682864672   0.1548715421784905
   -0.4958113690947313   0.8293532951678985   0.4981270145185094
   -0.9958452884086382   0.8697547666622043   0.0703316308299975
   -0.9958365942959800   0.1745422265672048   0.5009521045288352
   -0.7712306981407977   0.3219486290570189   0.0666039190780907
   -0.2204717804148117   0.3219326149470518   0.0665924697027904
   -0.7144301435193865   0.6810606041142507   0.6110944164648515
   -0.2771837352207028   0.6810815954311735   0.6110709990400595
   -0.4958405083459070   0.8257148593921713   0.1561434504006982
   -0.4958451455926748   0.1248686327652280   0.6087060636835773
   -0.7473292671174362   0.6736564086541463   0.0061858514636057
   -0.2443825949761376   0.6736231047206402   0.0061854252181419
   -0.9957589441524844   0.8263503944199756   0.5613684067255846
   -0.4958458708068675   0.1581896314410542   0.0059719731331711
   -0.7353147095343999   0.3327493307126375   0.5619922135249170
   -0.2563590581954642   0.3327256051525183   0.5620260088808849
