As   O    Li
1.0
  6.4720206557971105 -9.4802280139e-05 3.39794575078e-05
  8.06809388762e-05 -5.52680301273965 6.571744816e-07
  -4.34000345121e-05 6.071043824e-07 -5.04619636995
 As  O  Li 
2 8 6 
direct
   -0.9958335713817161   0.1716901599745668   0.1148971499194360
   -0.4958118236441819   0.8300768182182592   0.5009270798761348
   -0.9958177656314431   0.8626313728044718   0.0903186366816087
   -0.9958543308087113   0.1749034003440428   0.5540026809250804
   -0.7665425852859824   0.3247961151956459   0.0906506085493888
   -0.2251533275313092   0.3247808674329278   0.0906322584613832
   -0.7137197733325137   0.6799266849276648   0.6120040450970450
   -0.2778875361774666   0.6799375006767505   0.6119939847416802
   -0.4958187092063183   0.8262220351918900   0.1572781828705132
   -0.4958538005684616   0.1264225836482069   0.6099119923839923
   -0.7430949802157726   0.6743500180683454   0.0021621142995514
   -0.2485526130370274   0.6743204889247209   0.0021549298581860
   -0.9957856352008959   0.8333286364892768   0.5388374939777876
   -0.4958581609083267   0.1560265318544225   0.0020117112911677
   -0.7407492105770429   0.3303129883067371   0.5352135748331435
   -0.2509997747948418   0.3302744654336962   0.5352270456061063
