As   O    Li
1.0
  6.466238691245193 -9.07407355928e-05 3.9269066733e-05
  7.7213323841e-05 -5.522248251119569 6.5717448e-07
  -4.75257721255e-05 6.07104383e-07 -5.04619636995
 As  O  Li 
2 8 6 
direct
   -0.9958401187200610   0.1717196504253877   0.0302722992323154
   -0.4958085362328221   0.8299562366404986   0.5006525044457462
   -0.9958177321101189   0.8654897635814008   0.0992425946776052
   -0.9958528479695234   0.1752917609325522   0.6158550658209168
   -0.7687302174697807   0.3233555785556987   0.1001882155670941
   -0.2229589647668035   0.3233362443424141   0.1001750069788088
   -0.7139191058791428   0.6799412331207150   0.6123991657545814
   -0.2776915948051056   0.6799540269955456   0.6123876622778539
   -0.4958185498944161   0.8260352936335805   0.1573102919743405
   -0.4958534552752313   0.1264577273762768   0.6102683898449541
   -0.7432555391973710   0.6740398924169851   0.0030519861272182
   -0.2483933121574680   0.6740097033894515   0.0030451695052491
   -0.9957872304059452   0.8342271090562292   0.5358814969781348
   -0.4958575577289396   0.1564698445356072   0.0028524109114443
   -0.7416447910185084   0.3298778678968191   0.5323145907315167
   -0.2501040446708060   0.3298387345924709   0.5323266385444327
