As   O    Li                            
   1.00000000000000     
     0.0000424219471013    0.0000006071043785   -5.0461963699499996
    -0.0000620275023465   -5.5166341348586192    0.0000006571744905
    -6.4583488539182170   -0.0000711364862985    0.0000392746161632
   As   O    Li
     2     8     6
Direct
  0.1308475442658690  0.1703141457310124  0.9958123274628292
  0.6234702285488396  0.8281802535517357  0.4958491328409877
  0.0206236332032290  0.8735327504322186  0.9958522550954143
  0.4736249895417259  0.1742779840741377  0.9958201531276814
  0.0184251938684028  0.3198819588868105  0.7772304459761585
  0.0184177609699816  0.3198921891307620  0.2143835228298130
  0.5288385081854088  0.6782283379009399  0.7206097522418489
  0.5288344687398734  0.6782023359371436  0.2710748499987190
  0.9916383784842537  0.8244996834087459  0.4958499536117600
  0.5303759468351146  0.1313093318274738  0.4958188482389829
  0.1023154687363856  0.6700648016361797  0.7500655329324175
  0.1023144183372509  0.6700266806195074  0.2416666982340061
  0.6269998340894105  0.8425588622669125  0.9958587272875548
  0.0982205005418564  0.1658756726053241  0.4957880544661180
  0.6266352130731434  0.3265936648719716  0.7477472945250199
  0.6266414019518010  0.3265620146107864  0.2439060494327308
 
             NaN             NaN             NaN
             NaN             NaN             NaN
             NaN             NaN             NaN
             NaN             NaN             NaN
             NaN             NaN             NaN
             NaN             NaN             NaN
             NaN             NaN             NaN
             NaN             NaN             NaN
             NaN             NaN             NaN
             NaN             NaN             NaN
             NaN             NaN             NaN
             NaN             NaN             NaN
             NaN             NaN             NaN
             NaN             NaN             NaN
             NaN             NaN             NaN
             NaN             NaN             NaN
