As   O    Li                            
   1.00000000000000     
    -0.0000487092530152    0.0000006071043833   -5.0461963699499996
     0.0000718044428545   -5.5165211289765663    0.0000006571744795
    -6.4580795338045771    0.0000844253876801   -0.0000407687399226
   As   O    Li
     2     8     6
Direct
  0.0071366849059800  0.1718304752070736  0.9958401258372973
  0.5000487300465508  0.8296576101663149  0.4958141266341087
  0.1007902725194114  0.8688162150255394  0.9958193896851952
  0.6400222255031593  0.1754513439836529  0.9958492880255037
  0.1022136991046452  0.3217736100246782  0.7711476282527485
  0.1022032005609219  0.3217552451419294  0.2205445981899032
  0.6125224442323898  0.6801169921033789  0.7143999199731894
  0.6125129247509804  0.6801273223636315  0.2772098323081735
  0.1573000867647778  0.8257245317584818  0.4958199506791701
  0.6103854018889123  0.1264157387732823  0.4958528141069252
  0.0042325368240625  0.6734528249725784  0.7439589973733476
  0.0042275331002486  0.6734216685366334  0.2476964290518922
  0.5325364934273864  0.8341120710626981  0.9957891068609328
  0.0039522417552362  0.1574836022846853  0.4958575087432848
  0.5290636426085413  0.3299505933325193  0.7416657051162190
  0.5290753713790082  0.3299108227545702  0.2500681774641151
 
             NaN             NaN             NaN
             NaN             NaN             NaN
             NaN             NaN             NaN
             NaN             NaN             NaN
             NaN             NaN             NaN
             NaN             NaN             NaN
             NaN             NaN             NaN
             NaN             NaN             NaN
             NaN             NaN             NaN
             NaN             NaN             NaN
             NaN             NaN             NaN
             NaN             NaN             NaN
             NaN             NaN             NaN
             NaN             NaN             NaN
             NaN             NaN             NaN
             NaN             NaN             NaN
