generated by phonopy                    
   1.00000000000000     
    10.0351470768999995   -0.0000022330999784   -0.0000001056124209
    -5.0175765436399997    8.6906901959899994    0.0000001395531216
    -0.0000001735893656    0.0000001431815548   14.9533752540999991
   Pb   P    O 
    21    12    49
Direct
  0.9962131310810776  0.7685771653793836  0.1303035595310504
  0.9878081586267697  0.7529348483136076  0.6189970874703690
  0.9775582618974212  0.2764904656705767  0.3667743520764049
  0.9989358330334142  0.2562248025882070  0.8727656206365424
  0.2202282592412388  0.2232941333309739  0.1223762583354429
  0.2255016889715478  0.2241819008969443  0.6136505453361565
  0.9638114253696415  0.9557330946196103  0.4202402899426829
  0.7275682461579791  0.7348122353306508  0.8761147528849520
  0.7679393770332723  0.9960229282381547  0.1276772300026323
  0.7599208473170620  0.0011691935449178  0.6159536093445084
  0.2850340927781403  0.0080064560775384  0.3705714429432376
  0.2479019088866323  0.9902863796176149  0.8738036249174002
  0.6593289858390250  0.3230235377272521  0.0000731583312188
  0.6623344540160971  0.3445368108188873  0.4992953084147942
  0.3253086052915108  0.6705623512392904  0.0070775904776283
  0.3373870414781166  0.6524327454777108  0.4976278230417606
  0.3346868809389889  0.6381007767537810  0.2531827547327481
  0.3248075350773902  0.6643739582984551  0.7424097360385247
  0.6608690897312428  0.3337345543474797  0.2469525670222268
  0.6587724779377240  0.3267228605031960  0.7499884049345908
  0.6540565255344930  0.6865842221877401  0.3618928820080143
  0.6189433385186334  0.5893425160161101  0.1194585486024451
  0.6124318103539395  0.5834050230813190  0.6317039482380480
  0.3277725981192319  0.3123778707831235  0.3791163462707701
  0.3598236347838295  0.3877108713745869  0.8722314037293089
  0.3967233075364973  0.0265754364128767  0.1208092561648257
  0.3965871179437883  0.0244706639217540  0.6266297557961877
  0.6153273958433161  0.9777584188763910  0.3745093948628480
  0.5944858937429345  0.9655659476719691  0.8728462640385075
  0.9623044773394156  0.3707397297870827  0.1177189598888262
  0.9672407122807414  0.3723791517375687  0.6243964298684830
  0.0231164659440850  0.6311222411029362  0.3776820488284045
  0.0217300180669326  0.6250019548162129  0.8755843041349607
  0.4987729110059362  0.6439215650427528  0.1190698965943398
  0.5014695554186446  0.6499004310049585  0.6278646703405073
  0.5142402518672640  0.3989278393743803  0.3719367834149097
  0.4621681266413731  0.3115242054245471  0.8707993324446193
  0.3395964065571917  0.8515706539932424  0.1216485920846040
  0.3377176754170179  0.8485467117271099  0.6216629671060687
  0.6608490344335962  0.1508842596893629  0.3793298039973010
  0.6732332705811146  0.1439355262347704  0.8722683575169938
  0.1373046423940494  0.4884821684516680  0.1168242980169651
  0.1426261101815314  0.4933510836417554  0.6208903248335602
  0.8549906087321446  0.4912020103321595  0.3762632363743990
  0.8436165193356544  0.5246174947127713  0.8763351357632416
  0.7268307021615144  0.6486406154979889  0.0361584789772706
  0.7151169312467829  0.6277279238621318  0.5455708919600610
  0.2880287466755149  0.3777367892691146  0.4673270604489446
  0.2499370928800317  0.3341271613709225  0.9553111270103187
  0.3464691918446547  0.0776933248911149  0.0337224184150884
  0.3449152094290753  0.0818178460954684  0.5422946690650292
  0.6480802488131090  0.9211973353301133  0.4654029279736278
  0.6373133176368313  0.9035786198534339  0.9575935703001051
  0.9087931205614268  0.2667934436277974  0.0320542866900908
  0.9161105903114475  0.2649119583791730  0.5402040834548245
  0.0604932945107777  0.7244089394755449  0.4662034379784643
  0.0861487944962889  0.7316867967769198  0.9596871185948146
  0.2616859005099101  0.3643505851429651  0.2967837320588274
  0.2538916268810780  0.3472925088711065  0.7881207602351523
  0.7251413400986948  0.6536025379417509  0.2048451921154992
  0.7223336367223538  0.6467704694472332  0.7143346051143666
  0.7115951897463617  0.9566195697833209  0.2994653488058319
  0.6379060677017563  0.9008726306132999  0.7896882500746898
  0.3263528212095679  0.0718983806967799  0.2014331179314581
  0.3286213111885701  0.0649353786330877  0.7099054556534057
  0.0596506142646334  0.7364921133940001  0.2952200608908697
  0.0834477130683595  0.7326739565584575  0.7919235771421000
  0.9209911286065520  0.2592232623018376  0.1999650102589072
  0.9264819791188401  0.2659995174757128  0.7083466621015333
  0.5372838977713812  0.4093432238614199  0.1221790292553990
  0.5193327924583002  0.4027590660902476  0.6370791696839930
  0.4657977438764007  0.5689521408176219  0.8759159738077429
  0.5768532493217435  0.1232560467904094  0.1270000345576676
  0.5769602745727980  0.1186379045737951  0.6311591550072961
  0.4393250237984958  0.8731333187249675  0.3555961480377192
  0.4130746358978570  0.8935843161213057  0.8720887059072950
  0.8648756102783537  0.4533057173388002  0.1244627634016382
  0.8695634558370742  0.4554174869785115  0.6271723690147084
  0.1337839525296260  0.5592998045085125  0.3757285670045860
  0.0961934478233388  0.5179304236856552  0.8738064616018022
  0.9945743512190077  0.9965072188578645  0.1191509651519240
  0.9840604532639787  0.9814333455346613  0.5725383974056086
 
  0.00000000E+00  0.00000000E+00  0.00000000E+00
  0.00000000E+00  0.00000000E+00  0.00000000E+00
  0.00000000E+00  0.00000000E+00  0.00000000E+00
  0.00000000E+00  0.00000000E+00  0.00000000E+00
  0.00000000E+00  0.00000000E+00  0.00000000E+00
  0.00000000E+00  0.00000000E+00  0.00000000E+00
  0.00000000E+00  0.00000000E+00  0.00000000E+00
  0.00000000E+00  0.00000000E+00  0.00000000E+00
  0.00000000E+00  0.00000000E+00  0.00000000E+00
  0.00000000E+00  0.00000000E+00  0.00000000E+00
  0.00000000E+00  0.00000000E+00  0.00000000E+00
  0.00000000E+00  0.00000000E+00  0.00000000E+00
  0.00000000E+00  0.00000000E+00  0.00000000E+00
  0.00000000E+00  0.00000000E+00  0.00000000E+00
  0.00000000E+00  0.00000000E+00  0.00000000E+00
  0.00000000E+00  0.00000000E+00  0.00000000E+00
  0.00000000E+00  0.00000000E+00  0.00000000E+00
  0.00000000E+00  0.00000000E+00  0.00000000E+00
  0.00000000E+00  0.00000000E+00  0.00000000E+00
  0.00000000E+00  0.00000000E+00  0.00000000E+00
  0.00000000E+00  0.00000000E+00  0.00000000E+00
  0.00000000E+00  0.00000000E+00  0.00000000E+00
  0.00000000E+00  0.00000000E+00  0.00000000E+00
  0.00000000E+00  0.00000000E+00  0.00000000E+00
  0.00000000E+00  0.00000000E+00  0.00000000E+00
  0.00000000E+00  0.00000000E+00  0.00000000E+00
  0.00000000E+00  0.00000000E+00  0.00000000E+00
  0.00000000E+00  0.00000000E+00  0.00000000E+00
  0.00000000E+00  0.00000000E+00  0.00000000E+00
  0.00000000E+00  0.00000000E+00  0.00000000E+00
  0.00000000E+00  0.00000000E+00  0.00000000E+00
  0.00000000E+00  0.00000000E+00  0.00000000E+00
  0.00000000E+00  0.00000000E+00  0.00000000E+00
  0.00000000E+00  0.00000000E+00  0.00000000E+00
  0.00000000E+00  0.00000000E+00  0.00000000E+00
  0.00000000E+00  0.00000000E+00  0.00000000E+00
  0.00000000E+00  0.00000000E+00  0.00000000E+00
  0.00000000E+00  0.00000000E+00  0.00000000E+00
  0.00000000E+00  0.00000000E+00  0.00000000E+00
  0.00000000E+00  0.00000000E+00  0.00000000E+00
  0.00000000E+00  0.00000000E+00  0.00000000E+00
  0.00000000E+00  0.00000000E+00  0.00000000E+00
  0.00000000E+00  0.00000000E+00  0.00000000E+00
  0.00000000E+00  0.00000000E+00  0.00000000E+00
  0.00000000E+00  0.00000000E+00  0.00000000E+00
  0.00000000E+00  0.00000000E+00  0.00000000E+00
  0.00000000E+00  0.00000000E+00  0.00000000E+00
  0.00000000E+00  0.00000000E+00  0.00000000E+00
  0.00000000E+00  0.00000000E+00  0.00000000E+00
  0.00000000E+00  0.00000000E+00  0.00000000E+00
  0.00000000E+00  0.00000000E+00  0.00000000E+00
  0.00000000E+00  0.00000000E+00  0.00000000E+00
  0.00000000E+00  0.00000000E+00  0.00000000E+00
  0.00000000E+00  0.00000000E+00  0.00000000E+00
  0.00000000E+00  0.00000000E+00  0.00000000E+00
  0.00000000E+00  0.00000000E+00  0.00000000E+00
  0.00000000E+00  0.00000000E+00  0.00000000E+00
  0.00000000E+00  0.00000000E+00  0.00000000E+00
  0.00000000E+00  0.00000000E+00  0.00000000E+00
  0.00000000E+00  0.00000000E+00  0.00000000E+00
  0.00000000E+00  0.00000000E+00  0.00000000E+00
  0.00000000E+00  0.00000000E+00  0.00000000E+00
  0.00000000E+00  0.00000000E+00  0.00000000E+00
  0.00000000E+00  0.00000000E+00  0.00000000E+00
  0.00000000E+00  0.00000000E+00  0.00000000E+00
  0.00000000E+00  0.00000000E+00  0.00000000E+00
  0.00000000E+00  0.00000000E+00  0.00000000E+00
  0.00000000E+00  0.00000000E+00  0.00000000E+00
  0.00000000E+00  0.00000000E+00  0.00000000E+00
  0.00000000E+00  0.00000000E+00  0.00000000E+00
  0.00000000E+00  0.00000000E+00  0.00000000E+00
  0.00000000E+00  0.00000000E+00  0.00000000E+00
  0.00000000E+00  0.00000000E+00  0.00000000E+00
  0.00000000E+00  0.00000000E+00  0.00000000E+00
  0.00000000E+00  0.00000000E+00  0.00000000E+00
  0.00000000E+00  0.00000000E+00  0.00000000E+00
  0.00000000E+00  0.00000000E+00  0.00000000E+00
  0.00000000E+00  0.00000000E+00  0.00000000E+00
  0.00000000E+00  0.00000000E+00  0.00000000E+00
  0.00000000E+00  0.00000000E+00  0.00000000E+00
  0.00000000E+00  0.00000000E+00  0.00000000E+00
  0.00000000E+00  0.00000000E+00  0.00000000E+00
