Al   Sc   N    O                        
   1.00000000000000     
    -9.4277894518652410   -0.0000025099401147   -0.0000132315524129
    -4.7138974715475754    8.1795379836656874    0.0052050365180236
     0.0000141340805500   -0.0076871537935973  -10.0069106420494673
   Al   Sc   N    O 
    34     2    35     1
Direct
  0.1108095115155976  0.0952547743785743  0.4199590782148164
  0.2246916203992626  0.2139284209975045  0.1646977982689251
  0.7739086700140803  0.0945521815216068  0.9085252465641673
  0.8798724996377842  0.2099491516182468  0.6564801473427835
  0.4468610661511434  0.0925474558834836  0.4088453030731003
  0.5558901885370275  0.2050933673659756  0.1586882793690307
  0.2270521634536422  0.2099491433095579  0.6564801448007955
  0.7774652521302272  0.0925474942249309  0.4088453164127301
  0.8782536955744007  0.2139284259223473  0.1646978044980472
  0.4484129984085641  0.0945521673643768  0.9085252432886719
  0.5559979140087208  0.2048779276742252  0.6592762772215153
  0.1098659359025618  0.4294597711431578  0.4091639933111253
  0.2225936273519906  0.5353752072815112  0.1592509281950782
  0.7727784530109574  0.4319641688490066  0.9086365210439382
  0.8889980025752990  0.5388777147740456  0.6588748428380526
  0.4451120435835278  0.4266496588135738  0.4090423859964361
  0.5589049524682963  0.5353751852759885  0.1592509185224174
  0.1121311722622025  0.4319641991497534  0.9086365167953616
  0.2232628636536447  0.5371192983697668  0.6589712386611950
  0.7775480473363601  0.4294597710730272  0.4091639939808545
  0.8883285865431105  0.5402166081561219  0.1585894118606461
  0.4448544828811194  0.4271647956307518  0.9077881073826219
  0.5564915630915195  0.5371192668323630  0.6589712611060037
  0.1100744228608548  0.7588882002291726  0.4131335577242510
  0.7778461600414204  0.7611814456593251  0.9083773432021189
  0.8878732225364843  0.8721325814296748  0.6589005660691356
  0.4479112344671421  0.7588881388967010  0.4131335619469922
  0.5604101607690026  0.8695800389489747  0.1597654877587544
  0.1095559220986289  0.7545723892740881  0.9061045701826558
  0.2261108018968656  0.8646521915309648  0.6585128014672534
  0.7783441882123228  0.7601854258131198  0.4097071977912492
  0.8868836422690407  0.8695800357829739  0.1597654883652950
  0.4527454633266714  0.7545723578396846  0.9061045836114374
  0.5568679796225240  0.8721325614838094  0.6589005707257272
  0.1081086474849116  0.1006565811389137  0.8905434507394006
  0.2227790945462687  0.8713156320484572  0.1570556725690224
  0.2215626625679548  0.2041784414904839  0.3532460410383749
  0.8650221041058330  0.2176129333320134  0.8448139265618551
  0.7770294564752973  0.0929665823403667  0.5984275916942678
  0.5560179843228852  0.2048377964274479  0.3488523333342215
  0.4424194224573910  0.0929379298595663  0.1012548824717996
  0.2342387833796806  0.2176129493043604  0.8448139123911744
  0.1107689279110531  0.0953359428800979  0.6144657004072016
  0.8911326936873039  0.2041784429338449  0.3532460502759136
  0.7815164133048285  0.0929379374572932  0.1012548887361291
  0.5558791011616933  0.2051156063062223  0.8507776900714248
  0.4468777736462144  0.0929665432650779  0.5984275756170092
  0.2228794990482825  0.5382625407168788  0.3501506762603626
  0.1106378538283579  0.4267244035990743  0.1003310736360703
  0.8893544754042040  0.5381648241770094  0.8508966943584966
  0.7773983972184411  0.4292894831209040  0.5984649013161487
  0.5557317290068937  0.5382625071108507  0.3501506621186721
  0.4451120728920728  0.4266496315945432  0.1000304355221004
  0.2238491432242427  0.5372296684495055  0.8488744208594881
  0.1101858500818125  0.4292894821886719  0.5984649017255492
  0.8889573209167168  0.5389591180061828  0.3492441491030362
  0.7795115498836651  0.4267243939157481  0.1003310790171668
  0.5557949754777951  0.5372296341011946  0.8488744374176207
  0.4452352687910093  0.4264031968585158  0.6000249323772096
  0.2219114277341134  0.8730509875657759  0.3661132693966493
  0.1028188001245738  0.7511059008362722  0.0958563468520879
  0.8876623006652906  0.8732228570290346  0.8496619075201011
  0.7783377173174841  0.7601983671880603  0.6003717211496067
  0.5562394941309705  0.8710429954041743  0.3505052377489193
  0.4629491338464007  0.7511058941276332  0.0958563608175567
  0.2319217340942288  0.8530302873092097  0.8525611951148591
  0.1103055723000921  0.7590458729463592  0.6028087475207258
  0.8895912861593942  0.8710430241167657  0.3505052449235038
  0.7780585089545511  0.7607568356319945  0.0993740228610207
  0.5559886006609247  0.8732228438963361  0.8496619184131191
  0.4475223687918799  0.7590458319419042  0.6028087599791476
  0.0982133561484702  0.1204469865838220  0.1058142697698301
 
  0.00000000E+00  0.00000000E+00  0.00000000E+00
  0.00000000E+00  0.00000000E+00  0.00000000E+00
  0.00000000E+00  0.00000000E+00  0.00000000E+00
  0.00000000E+00  0.00000000E+00  0.00000000E+00
  0.00000000E+00  0.00000000E+00  0.00000000E+00
  0.00000000E+00  0.00000000E+00  0.00000000E+00
  0.00000000E+00  0.00000000E+00  0.00000000E+00
  0.00000000E+00  0.00000000E+00  0.00000000E+00
  0.00000000E+00  0.00000000E+00  0.00000000E+00
  0.00000000E+00  0.00000000E+00  0.00000000E+00
  0.00000000E+00  0.00000000E+00  0.00000000E+00
  0.00000000E+00  0.00000000E+00  0.00000000E+00
  0.00000000E+00  0.00000000E+00  0.00000000E+00
  0.00000000E+00  0.00000000E+00  0.00000000E+00
  0.00000000E+00  0.00000000E+00  0.00000000E+00
  0.00000000E+00  0.00000000E+00  0.00000000E+00
  0.00000000E+00  0.00000000E+00  0.00000000E+00
  0.00000000E+00  0.00000000E+00  0.00000000E+00
  0.00000000E+00  0.00000000E+00  0.00000000E+00
  0.00000000E+00  0.00000000E+00  0.00000000E+00
  0.00000000E+00  0.00000000E+00  0.00000000E+00
  0.00000000E+00  0.00000000E+00  0.00000000E+00
  0.00000000E+00  0.00000000E+00  0.00000000E+00
  0.00000000E+00  0.00000000E+00  0.00000000E+00
  0.00000000E+00  0.00000000E+00  0.00000000E+00
  0.00000000E+00  0.00000000E+00  0.00000000E+00
  0.00000000E+00  0.00000000E+00  0.00000000E+00
  0.00000000E+00  0.00000000E+00  0.00000000E+00
  0.00000000E+00  0.00000000E+00  0.00000000E+00
  0.00000000E+00  0.00000000E+00  0.00000000E+00
  0.00000000E+00  0.00000000E+00  0.00000000E+00
  0.00000000E+00  0.00000000E+00  0.00000000E+00
  0.00000000E+00  0.00000000E+00  0.00000000E+00
  0.00000000E+00  0.00000000E+00  0.00000000E+00
  0.00000000E+00  0.00000000E+00  0.00000000E+00
  0.00000000E+00  0.00000000E+00  0.00000000E+00
  0.00000000E+00  0.00000000E+00  0.00000000E+00
  0.00000000E+00  0.00000000E+00  0.00000000E+00
  0.00000000E+00  0.00000000E+00  0.00000000E+00
  0.00000000E+00  0.00000000E+00  0.00000000E+00
  0.00000000E+00  0.00000000E+00  0.00000000E+00
  0.00000000E+00  0.00000000E+00  0.00000000E+00
  0.00000000E+00  0.00000000E+00  0.00000000E+00
  0.00000000E+00  0.00000000E+00  0.00000000E+00
  0.00000000E+00  0.00000000E+00  0.00000000E+00
  0.00000000E+00  0.00000000E+00  0.00000000E+00
  0.00000000E+00  0.00000000E+00  0.00000000E+00
  0.00000000E+00  0.00000000E+00  0.00000000E+00
  0.00000000E+00  0.00000000E+00  0.00000000E+00
  0.00000000E+00  0.00000000E+00  0.00000000E+00
  0.00000000E+00  0.00000000E+00  0.00000000E+00
  0.00000000E+00  0.00000000E+00  0.00000000E+00
  0.00000000E+00  0.00000000E+00  0.00000000E+00
  0.00000000E+00  0.00000000E+00  0.00000000E+00
  0.00000000E+00  0.00000000E+00  0.00000000E+00
  0.00000000E+00  0.00000000E+00  0.00000000E+00
  0.00000000E+00  0.00000000E+00  0.00000000E+00
  0.00000000E+00  0.00000000E+00  0.00000000E+00
  0.00000000E+00  0.00000000E+00  0.00000000E+00
  0.00000000E+00  0.00000000E+00  0.00000000E+00
  0.00000000E+00  0.00000000E+00  0.00000000E+00
  0.00000000E+00  0.00000000E+00  0.00000000E+00
  0.00000000E+00  0.00000000E+00  0.00000000E+00
  0.00000000E+00  0.00000000E+00  0.00000000E+00
  0.00000000E+00  0.00000000E+00  0.00000000E+00
  0.00000000E+00  0.00000000E+00  0.00000000E+00
  0.00000000E+00  0.00000000E+00  0.00000000E+00
  0.00000000E+00  0.00000000E+00  0.00000000E+00
  0.00000000E+00  0.00000000E+00  0.00000000E+00
  0.00000000E+00  0.00000000E+00  0.00000000E+00
  0.00000000E+00  0.00000000E+00  0.00000000E+00
  0.00000000E+00  0.00000000E+00  0.00000000E+00
