Al   Sc   N    O                        
   1.00000000000000     
    -9.4325090598335155   -0.0000237346258832   -0.0000047759219825
    -4.7162754462866703    8.1838610277284811    0.0027195397609636
     0.0000043470033960   -0.0106132413339321   -9.9942606111734094
   Al   Sc   N    O 
    34     2    35     1
Direct
  0.1107605949649582  0.0951484584857738  0.3964152353155157
  0.2245022073931366  0.2138655292746563  0.1409316207137081
  0.7738054423174390  0.0945060713958270  0.8849888049026760
  0.8795085579704178  0.2100626440447613  0.6328380943204053
  0.4467558368869646  0.0925389917970278  0.3851555920996077
  0.5557921684049845  0.2050853108863180  0.1350713418706917
  0.2270984326094805  0.2100626395542093  0.6328381106544185
  0.7773748211209153  0.0925389835908490  0.3851555880789732
  0.8783018891679220  0.2138655219519379  0.1409316249045176
  0.4483581067876017  0.0945060719954043  0.8849888078298633
  0.5559195346967059  0.2048305631894465  0.6357143787199249
  0.1097438789170013  0.4294490617047799  0.3854961897853784
  0.2225513581823506  0.5353088985989771  0.1357402315372980
  0.7726273647378221  0.4319806032805431  0.8851020260797355
  0.8889103894923025  0.5388488405748078  0.6353022877993908
  0.4450359080360897  0.4265978243539195  0.3854859363635654
  0.5588093783989265  0.5353088999415547  0.1357402277598396
  0.1120616465484900  0.4319806100841248  0.8851020285685252
  0.2231575426720909  0.5371292930123985  0.6353138516129064
  0.7774767060017922  0.4294490593483147  0.3854961851851826
  0.8882171281322613  0.5402353741460857  0.1349710273449887
  0.4447620305538535  0.4271455550643495  0.8841645874219708
  0.5563827949872078  0.5371292826319021  0.6353138521072097
  0.1100484851833841  0.7589512560556315  0.3893379146664344
  0.7777498320289382  0.7611699566672812  0.8847385005575248
  0.8878025001085277  0.8721236068026386  0.6352394235507290
  0.4476699174976631  0.7589512479887617  0.3893379097374066
  0.5603616577644033  0.8695364993725647  0.1362265436271883
  0.1093829911303672  0.7544619708549831  0.8825887461620141
  0.2261219929886167  0.8644256625971067  0.6351080456079501
  0.7782582055831497  0.7601532394387291  0.3861643519820603
  0.8867714887154179  0.8695364730649331  0.1362265365247808
  0.4528246723920972  0.7544619715372960  0.8825887563243882
  0.5567435284337563  0.8721236047743659  0.6352394222257232
  0.1079313500826800  0.1008068919077303  0.8659484869212477
  0.2225805813811519  0.8715083924559295  0.1326436327376257
  0.2214072955178068  0.2041327080348196  0.3297736095527952
  0.8646394726197641  0.2177375687675749  0.8213883053828752
  0.7768984599558380  0.0929494775878297  0.5749374106928258
  0.5559156962137450  0.2048382330949892  0.3254097097973840
  0.4423477228029356  0.0928800834894830  0.0778786836117504
  0.2342925778302174  0.2177375453343942  0.8213883225881631
  0.1106972024888080  0.0952752453738483  0.5914259754103881
  0.8911296581798922  0.2041327075328070  0.3297736013240851
  0.7814418374570238  0.0928800713000015  0.0778786878835760
  0.5558060687900479  0.2050574212405039  0.8274002567337249
  0.4468216984370272  0.0929494650399647  0.5749374245153618
  0.2228226037753913  0.5382186814961116  0.3267962845396113
  0.1105465897011015  0.4267516122536250  0.0769619830203823
  0.8892797820219940  0.5381100602029250  0.8275083339310214
  0.7772880007498273  0.4293189897227450  0.5749923174972267
  0.5556283546936029  0.5382186895768797  0.3267962826514363
  0.4450212889953917  0.4266270648840234  0.0765974804868179
  0.2237441268287270  0.5372309659212036  0.8254103680297646
  0.1100626533457429  0.4293189759445966  0.5749923263787480
  0.8888413260885102  0.5389869892161698  0.3258086309409904
  0.7793714414424358  0.4267516214888403  0.0769619840645674
  0.5556945046607140  0.5372309986270025  0.8254103790990968
  0.4451609968350070  0.4263476289381032  0.5766480325537842
  0.2217486876440304  0.8731722902995926  0.3421581712736597
  0.1026605576158843  0.7509594355684044  0.0725236941855201
  0.8875756827179941  0.8732111623199259  0.8261996057092986
  0.7782536233304072  0.7601623850820474  0.5770044593668402
  0.5561833955121429  0.8710164440910120  0.3271315705694136
  0.4630496232721768  0.7509594695107182  0.0725237168741870
  0.2318865370088474  0.8528965824803194  0.8295537747602779
  0.1102654983600289  0.7590718939732284  0.5792997072525949
  0.8894698133460963  0.8710164302214949  0.3271315700928668
  0.7779544684329878  0.7607606574232406  0.0759242749162965
  0.5558827637704340  0.8732111718873057  0.8261996189914953
  0.4473322782930680  0.7590718894482293  0.5792997093941494
  0.0979976455456324  0.1206743747748789  0.0817072668830008
 
  0.00000000E+00  0.00000000E+00  0.00000000E+00
  0.00000000E+00  0.00000000E+00  0.00000000E+00
  0.00000000E+00  0.00000000E+00  0.00000000E+00
  0.00000000E+00  0.00000000E+00  0.00000000E+00
  0.00000000E+00  0.00000000E+00  0.00000000E+00
  0.00000000E+00  0.00000000E+00  0.00000000E+00
  0.00000000E+00  0.00000000E+00  0.00000000E+00
  0.00000000E+00  0.00000000E+00  0.00000000E+00
  0.00000000E+00  0.00000000E+00  0.00000000E+00
  0.00000000E+00  0.00000000E+00  0.00000000E+00
  0.00000000E+00  0.00000000E+00  0.00000000E+00
  0.00000000E+00  0.00000000E+00  0.00000000E+00
  0.00000000E+00  0.00000000E+00  0.00000000E+00
  0.00000000E+00  0.00000000E+00  0.00000000E+00
  0.00000000E+00  0.00000000E+00  0.00000000E+00
  0.00000000E+00  0.00000000E+00  0.00000000E+00
  0.00000000E+00  0.00000000E+00  0.00000000E+00
  0.00000000E+00  0.00000000E+00  0.00000000E+00
  0.00000000E+00  0.00000000E+00  0.00000000E+00
  0.00000000E+00  0.00000000E+00  0.00000000E+00
  0.00000000E+00  0.00000000E+00  0.00000000E+00
  0.00000000E+00  0.00000000E+00  0.00000000E+00
  0.00000000E+00  0.00000000E+00  0.00000000E+00
  0.00000000E+00  0.00000000E+00  0.00000000E+00
  0.00000000E+00  0.00000000E+00  0.00000000E+00
  0.00000000E+00  0.00000000E+00  0.00000000E+00
  0.00000000E+00  0.00000000E+00  0.00000000E+00
  0.00000000E+00  0.00000000E+00  0.00000000E+00
  0.00000000E+00  0.00000000E+00  0.00000000E+00
  0.00000000E+00  0.00000000E+00  0.00000000E+00
  0.00000000E+00  0.00000000E+00  0.00000000E+00
  0.00000000E+00  0.00000000E+00  0.00000000E+00
  0.00000000E+00  0.00000000E+00  0.00000000E+00
  0.00000000E+00  0.00000000E+00  0.00000000E+00
  0.00000000E+00  0.00000000E+00  0.00000000E+00
  0.00000000E+00  0.00000000E+00  0.00000000E+00
  0.00000000E+00  0.00000000E+00  0.00000000E+00
  0.00000000E+00  0.00000000E+00  0.00000000E+00
  0.00000000E+00  0.00000000E+00  0.00000000E+00
  0.00000000E+00  0.00000000E+00  0.00000000E+00
  0.00000000E+00  0.00000000E+00  0.00000000E+00
  0.00000000E+00  0.00000000E+00  0.00000000E+00
  0.00000000E+00  0.00000000E+00  0.00000000E+00
  0.00000000E+00  0.00000000E+00  0.00000000E+00
  0.00000000E+00  0.00000000E+00  0.00000000E+00
  0.00000000E+00  0.00000000E+00  0.00000000E+00
  0.00000000E+00  0.00000000E+00  0.00000000E+00
  0.00000000E+00  0.00000000E+00  0.00000000E+00
  0.00000000E+00  0.00000000E+00  0.00000000E+00
  0.00000000E+00  0.00000000E+00  0.00000000E+00
  0.00000000E+00  0.00000000E+00  0.00000000E+00
  0.00000000E+00  0.00000000E+00  0.00000000E+00
  0.00000000E+00  0.00000000E+00  0.00000000E+00
  0.00000000E+00  0.00000000E+00  0.00000000E+00
  0.00000000E+00  0.00000000E+00  0.00000000E+00
  0.00000000E+00  0.00000000E+00  0.00000000E+00
  0.00000000E+00  0.00000000E+00  0.00000000E+00
  0.00000000E+00  0.00000000E+00  0.00000000E+00
  0.00000000E+00  0.00000000E+00  0.00000000E+00
  0.00000000E+00  0.00000000E+00  0.00000000E+00
  0.00000000E+00  0.00000000E+00  0.00000000E+00
  0.00000000E+00  0.00000000E+00  0.00000000E+00
  0.00000000E+00  0.00000000E+00  0.00000000E+00
  0.00000000E+00  0.00000000E+00  0.00000000E+00
  0.00000000E+00  0.00000000E+00  0.00000000E+00
  0.00000000E+00  0.00000000E+00  0.00000000E+00
  0.00000000E+00  0.00000000E+00  0.00000000E+00
  0.00000000E+00  0.00000000E+00  0.00000000E+00
  0.00000000E+00  0.00000000E+00  0.00000000E+00
  0.00000000E+00  0.00000000E+00  0.00000000E+00
  0.00000000E+00  0.00000000E+00  0.00000000E+00
  0.00000000E+00  0.00000000E+00  0.00000000E+00
