Al   Sc   N    O                        
   1.00000000000000     
    -9.4278064524756804   -0.0000095848353708   -0.0000104130089361
    -4.7139114874524388    8.1795432947385560    0.0043765375990036
     0.0000109769291707   -0.0087159826981891  -10.0068793373487708
   Al   Sc   N    O 
    34     2    35     1
Direct
  0.1107790444473693  0.0952511385602932  0.4125105576579386
  0.2246609092161904  0.2139244800873499  0.1572462254899563
  0.7738783798591911  0.0945482463881788  0.9010733648371172
  0.8798411934357944  0.2099458188147167  0.6490288358805429
  0.4468305893592301  0.0925439960550207  0.4013924394422546
  0.5558596735915486  0.2050898418635114  0.1512348227022500
  0.2270222433569344  0.2099458189389978  0.6490288338408305
  0.7774346150434113  0.0925440187100079  0.4013924432901561
  0.8782238136435723  0.2139244573354873  0.1572462346171832
  0.4483826590897024  0.0945482341880179  0.9010733590280964
  0.5559676115107948  0.2048739818305307  0.6518241040951764
  0.1098353982667746  0.4294560356425805  0.4017112403377610
  0.2225632460681410  0.5353716295674218  0.1517992744730421
  0.7727478195701849  0.4319605467122045  0.9011844548558088
  0.8889677523886732  0.5388736830302818  0.6514225916368233
  0.4450817362196773  0.4266457007555715  0.4015900172264750
  0.5588743570646031  0.5353715852482779  0.1517992698702315
  0.1121008642977159  0.4319605875614485  0.9011844586939119
  0.2232324821698057  0.5371152272888651  0.6515190173096244
  0.7775177635137140  0.4294560301604449  0.4017112466108017
  0.8882980377021852  0.5402131347222081  0.1511364484304139
  0.4448239223987187  0.4271613610936384  0.9003350501949186
  0.5564614819302136  0.5371151985230327  0.6515190264049551
  0.1100441134821466  0.7588845124490149  0.4056842990622442
  0.7778156419692337  0.7611779297536643  0.9009245938158230
  0.8878425320710335  0.8721291419590074  0.6514485675020865
  0.4478806479675654  0.7588844601754374  0.4056843019716823
  0.5603798946646990  0.8695760968131552  0.1523145816675964
  0.1095252831083968  0.7545687083073318  0.8986537563827000
  0.2260806065197301  0.8646480340675780  0.6510631421840856
  0.7783138820004964  0.7601814623563428  0.4022557937694842
  0.8868532904317590  0.8695760886415940  0.1523145741500329
  0.4527152550277052  0.7545686703160825  0.8986537623685749
  0.5568375468737727  0.8721291256362846  0.6514485650320410
  0.1080780574991707  0.1006532131462947  0.8830909523821973
  0.2227485192201115  0.8713122488870937  0.1496056035835238
  0.2215319813180372  0.2041743258920334  0.3457951437630129
  0.8649912097918033  0.2176092740447544  0.8373631206353664
  0.7769989321821527  0.0929629611836305  0.5909756880713743
  0.5559875547791506  0.2048340866379021  0.3413997624269811
  0.4423889489888850  0.0929339678538739  0.0938037256980095
  0.2342087923377392  0.2176093055739159  0.8373631094417746
  0.1107384577282531  0.0953323214565813  0.6070174571429590
  0.8911029240472246  0.2041743232943176  0.3457951477097723
  0.7814862775341496  0.0929339734494476  0.0938037381218493
  0.5558488242893489  0.2051116106846322  0.8433263650575853
  0.4468473468652050  0.0929629266350105  0.5909756780628541
  0.2228490663829277  0.5382590824935249  0.3426998583401115
  0.1106076021159481  0.4267206665088707  0.0928798454458999
  0.8893241931641782  0.5381608446048602  0.8434452785394626
  0.7773681193656827  0.4292856782493573  0.5910130662334794
  0.5557010669166118  0.5382590473624091  0.3426998580984488
  0.4450814408529098  0.4266463134716432  0.0925784343434941
  0.2238185696968031  0.5372261087687846  0.8414229704968079
  0.1101553874753094  0.4292856832964276  0.5910130594436325
  0.8889268571148676  0.5389554817945879  0.3417921567500457
  0.7794809710528412  0.4267206344237664  0.0928798478712238
  0.5557645762948979  0.5372260688392103  0.8414229841736827
  0.4452049378476914  0.4263993032555220  0.5925735005886210
  0.2218809239590627  0.8730474269059059  0.3586645281425476
  0.1027883506725615  0.7511024356907186  0.0884060992363160
  0.8876319840017928  0.8732191119715225  0.8422106649872561
  0.7783073638746885  0.7601944988560234  0.5929208170008309
  0.5562091232239936  0.8710388554258657  0.3430549360727895
  0.4629185140395151  0.7511023970023274  0.0884061042727282
  0.2318913976578685  0.8530264454102578  0.8451123513543166
  0.1102752270743821  0.7590421798644869  0.5953593754181696
  0.8895612374677455  0.8710388733198897  0.3430549333797259
  0.7780278915931333  0.7607534861056422  0.0919223875617021
  0.5559581253864465  0.8732191001298020  0.8422106651995875
  0.4474918386046838  0.7590421397528857  0.5953593819453005
  0.0981829689730915  0.1204432215486264  0.0983633177132717
 
  0.00000000E+00  0.00000000E+00  0.00000000E+00
  0.00000000E+00  0.00000000E+00  0.00000000E+00
  0.00000000E+00  0.00000000E+00  0.00000000E+00
  0.00000000E+00  0.00000000E+00  0.00000000E+00
  0.00000000E+00  0.00000000E+00  0.00000000E+00
  0.00000000E+00  0.00000000E+00  0.00000000E+00
  0.00000000E+00  0.00000000E+00  0.00000000E+00
  0.00000000E+00  0.00000000E+00  0.00000000E+00
  0.00000000E+00  0.00000000E+00  0.00000000E+00
  0.00000000E+00  0.00000000E+00  0.00000000E+00
  0.00000000E+00  0.00000000E+00  0.00000000E+00
  0.00000000E+00  0.00000000E+00  0.00000000E+00
  0.00000000E+00  0.00000000E+00  0.00000000E+00
  0.00000000E+00  0.00000000E+00  0.00000000E+00
  0.00000000E+00  0.00000000E+00  0.00000000E+00
  0.00000000E+00  0.00000000E+00  0.00000000E+00
  0.00000000E+00  0.00000000E+00  0.00000000E+00
  0.00000000E+00  0.00000000E+00  0.00000000E+00
  0.00000000E+00  0.00000000E+00  0.00000000E+00
  0.00000000E+00  0.00000000E+00  0.00000000E+00
  0.00000000E+00  0.00000000E+00  0.00000000E+00
  0.00000000E+00  0.00000000E+00  0.00000000E+00
  0.00000000E+00  0.00000000E+00  0.00000000E+00
  0.00000000E+00  0.00000000E+00  0.00000000E+00
  0.00000000E+00  0.00000000E+00  0.00000000E+00
  0.00000000E+00  0.00000000E+00  0.00000000E+00
  0.00000000E+00  0.00000000E+00  0.00000000E+00
  0.00000000E+00  0.00000000E+00  0.00000000E+00
  0.00000000E+00  0.00000000E+00  0.00000000E+00
  0.00000000E+00  0.00000000E+00  0.00000000E+00
  0.00000000E+00  0.00000000E+00  0.00000000E+00
  0.00000000E+00  0.00000000E+00  0.00000000E+00
  0.00000000E+00  0.00000000E+00  0.00000000E+00
  0.00000000E+00  0.00000000E+00  0.00000000E+00
  0.00000000E+00  0.00000000E+00  0.00000000E+00
  0.00000000E+00  0.00000000E+00  0.00000000E+00
  0.00000000E+00  0.00000000E+00  0.00000000E+00
  0.00000000E+00  0.00000000E+00  0.00000000E+00
  0.00000000E+00  0.00000000E+00  0.00000000E+00
  0.00000000E+00  0.00000000E+00  0.00000000E+00
  0.00000000E+00  0.00000000E+00  0.00000000E+00
  0.00000000E+00  0.00000000E+00  0.00000000E+00
  0.00000000E+00  0.00000000E+00  0.00000000E+00
  0.00000000E+00  0.00000000E+00  0.00000000E+00
  0.00000000E+00  0.00000000E+00  0.00000000E+00
  0.00000000E+00  0.00000000E+00  0.00000000E+00
  0.00000000E+00  0.00000000E+00  0.00000000E+00
  0.00000000E+00  0.00000000E+00  0.00000000E+00
  0.00000000E+00  0.00000000E+00  0.00000000E+00
  0.00000000E+00  0.00000000E+00  0.00000000E+00
  0.00000000E+00  0.00000000E+00  0.00000000E+00
  0.00000000E+00  0.00000000E+00  0.00000000E+00
  0.00000000E+00  0.00000000E+00  0.00000000E+00
  0.00000000E+00  0.00000000E+00  0.00000000E+00
  0.00000000E+00  0.00000000E+00  0.00000000E+00
  0.00000000E+00  0.00000000E+00  0.00000000E+00
  0.00000000E+00  0.00000000E+00  0.00000000E+00
  0.00000000E+00  0.00000000E+00  0.00000000E+00
  0.00000000E+00  0.00000000E+00  0.00000000E+00
  0.00000000E+00  0.00000000E+00  0.00000000E+00
  0.00000000E+00  0.00000000E+00  0.00000000E+00
  0.00000000E+00  0.00000000E+00  0.00000000E+00
  0.00000000E+00  0.00000000E+00  0.00000000E+00
  0.00000000E+00  0.00000000E+00  0.00000000E+00
  0.00000000E+00  0.00000000E+00  0.00000000E+00
  0.00000000E+00  0.00000000E+00  0.00000000E+00
  0.00000000E+00  0.00000000E+00  0.00000000E+00
  0.00000000E+00  0.00000000E+00  0.00000000E+00
  0.00000000E+00  0.00000000E+00  0.00000000E+00
  0.00000000E+00  0.00000000E+00  0.00000000E+00
  0.00000000E+00  0.00000000E+00  0.00000000E+00
  0.00000000E+00  0.00000000E+00  0.00000000E+00
