Al   Sc   N    O                        
   1.00000000000000     
    -9.4224207788168606   -0.0001086333689571    0.0000290465997389
    -4.7113029180251180    8.1773989524046531   -0.0072224472672763
    -0.0000314252338147    0.0147558544549911  -10.0140653136378983
   Al   Sc   N    O 
    34     2    35     1
Direct
  0.1077033964898746  0.1011934234430711  0.3368716004584371
  0.2257091728854519  0.2154293754490055  0.0716130120572274
  0.7747218132919897  0.0943920958319495  0.8196674896282232
  0.8827842042868426  0.2080959241452689  0.5630215502373375
  0.4473461098651583  0.0927792360398527  0.3190847483340704
  0.5560527297579441  0.2044947314053900  0.0688875833737228
  0.2257200621495201  0.2080959150716879  0.5630215827757112
  0.7764748382850044  0.0927792445049178  0.3190847440451705
  0.8754616359821199  0.2154293581830515  0.0716130344486459
  0.4474862329709666  0.0943920938416483  0.8196674977243106
  0.5556825563515488  0.2052350799975216  0.5692743080394891
  0.1100066183026840  0.4309691643125930  0.3188246549956517
  0.2220058528482483  0.5358321860147797  0.0677938948692756
  0.7749543735685691  0.4300888228214887  0.8193259927458598
  0.8890349433249725  0.5385303513416559  0.5693653029038117
  0.4448021932201840  0.4269958317712792  0.3193178959840637
  0.5587622108752726  0.5358321525408911  0.0677938985558413
  0.1115570133247701  0.4300887943100165  0.8193259999497045
  0.2236146213823034  0.5367668135464854  0.5697362241575377
  0.7756244582684531  0.4309691748160631  0.3188246443459448
  0.8880116593322569  0.5405768926027292  0.0690055539286192
  0.4449755863682654  0.4266490328102677  0.8194966992843788
  0.5562188023628565  0.5367668027428607  0.5697362131703088
  0.1071284033920676  0.7562602521344886  0.3210167061090843
  0.7782475725400460  0.7601050458827601  0.8182865740954597
  0.8880758370003932  0.8719868917782492  0.5697081408290714
  0.4532116043452774  0.7562602171504551  0.3210167428173349
  0.5604052914693440  0.8696563019964145  0.0674968423812530
  0.1120400722072645  0.7566537823724957  0.8162769061392083
  0.2250103933716971  0.8665794244514444  0.5598596948381882
  0.7776708017959848  0.7612586175543967  0.3193125859963715
  0.8865386641504145  0.8696563180526695  0.0674968446372901
  0.4479063285079548  0.7566537830424025  0.8162768916089789
  0.5565374897678481  0.8719868884591264  0.5697081554188941
  0.1106048418551424  0.0953903358856607  0.8097310139038854
  0.2222278201601284  0.8721448058872880  0.0838181322219924
  0.2247442698699658  0.2084720333834866  0.3731303932163641
  0.8737035122378174  0.2127650338039899  0.8848552420098912
  0.7782762794688978  0.0942024407923157  0.6281920319632377
  0.5557566733402268  0.2050868663705359  0.3778824556262421
  0.4450531317264037  0.0914540851419545  0.1284433838035852
  0.2301315883716057  0.2127649862875458  0.8848552246186969
  0.1116091342109016  0.0933818703475779  0.5991161623464691
  0.8833839221846986  0.2084720341040764  0.3731303704557902
  0.7800929028406998  0.0914541018823698  0.1284433924983972
  0.5558599957615016  0.2048801813751950  0.8787285633685684
  0.4441214413552359  0.0942024367711198  0.6281920486537018
  0.2237967665830709  0.5368560210118645  0.3796907613183365
  0.1089912100269004  0.4297687427636561  0.1291422763923151
  0.8891876229255473  0.5382249867282312  0.8777278241123696
  0.7789962390252327  0.4260221680417828  0.6281040609994051
  0.5559474874833938  0.5368559893550753  0.3796907534079352
  0.4449952252814953  0.4266097198432064  0.1273448526938949
  0.2228051456067632  0.5380645892858666  0.8771094389454888
  0.1115817833993376  0.4260221659621024  0.6281040717839872
  0.8887434227591839  0.5391134204471228  0.3782125633766640
  0.7778402564150184  0.4297687201921576  0.1291422667178850
  0.5557304809311248  0.5380646043893407  0.8771094437659954
  0.4452125984820086  0.4261750002014892  0.6285851128163955
  0.2227773422860508  0.8710455930726440  0.3629492531947633
  0.1010511551106106  0.7496035644495933  0.1329275178427309
  0.8896079543929645  0.8714583448325612  0.8763034694025720
  0.7783446457639727  0.7599108887040273  0.6281564795519330
  0.5565536753286011  0.8728218540911357  0.3795840997119413
  0.4659456626433425  0.7496034583406370  0.1329275640181393
  0.2300725527372265  0.8564551162532155  0.8753451861053350
  0.1119151390030311  0.7601764852911259  0.6241098287953051
  0.8872247135875071  0.8728218659083851  0.3795840834909399
  0.7778220002773750  0.7609562371216043  0.1280751837122054
  0.5555339190794797  0.8714583444081399  0.8763034787677455
  0.4445085533844875  0.7601764754703240  0.6241098196970682
  0.0967713498486233  0.1230574475858646  0.1354508965906476
 
  0.00000000E+00  0.00000000E+00  0.00000000E+00
  0.00000000E+00  0.00000000E+00  0.00000000E+00
  0.00000000E+00  0.00000000E+00  0.00000000E+00
  0.00000000E+00  0.00000000E+00  0.00000000E+00
  0.00000000E+00  0.00000000E+00  0.00000000E+00
  0.00000000E+00  0.00000000E+00  0.00000000E+00
  0.00000000E+00  0.00000000E+00  0.00000000E+00
  0.00000000E+00  0.00000000E+00  0.00000000E+00
  0.00000000E+00  0.00000000E+00  0.00000000E+00
  0.00000000E+00  0.00000000E+00  0.00000000E+00
  0.00000000E+00  0.00000000E+00  0.00000000E+00
  0.00000000E+00  0.00000000E+00  0.00000000E+00
  0.00000000E+00  0.00000000E+00  0.00000000E+00
  0.00000000E+00  0.00000000E+00  0.00000000E+00
  0.00000000E+00  0.00000000E+00  0.00000000E+00
  0.00000000E+00  0.00000000E+00  0.00000000E+00
  0.00000000E+00  0.00000000E+00  0.00000000E+00
  0.00000000E+00  0.00000000E+00  0.00000000E+00
  0.00000000E+00  0.00000000E+00  0.00000000E+00
  0.00000000E+00  0.00000000E+00  0.00000000E+00
  0.00000000E+00  0.00000000E+00  0.00000000E+00
  0.00000000E+00  0.00000000E+00  0.00000000E+00
  0.00000000E+00  0.00000000E+00  0.00000000E+00
  0.00000000E+00  0.00000000E+00  0.00000000E+00
  0.00000000E+00  0.00000000E+00  0.00000000E+00
  0.00000000E+00  0.00000000E+00  0.00000000E+00
  0.00000000E+00  0.00000000E+00  0.00000000E+00
  0.00000000E+00  0.00000000E+00  0.00000000E+00
  0.00000000E+00  0.00000000E+00  0.00000000E+00
  0.00000000E+00  0.00000000E+00  0.00000000E+00
  0.00000000E+00  0.00000000E+00  0.00000000E+00
  0.00000000E+00  0.00000000E+00  0.00000000E+00
  0.00000000E+00  0.00000000E+00  0.00000000E+00
  0.00000000E+00  0.00000000E+00  0.00000000E+00
  0.00000000E+00  0.00000000E+00  0.00000000E+00
  0.00000000E+00  0.00000000E+00  0.00000000E+00
  0.00000000E+00  0.00000000E+00  0.00000000E+00
  0.00000000E+00  0.00000000E+00  0.00000000E+00
  0.00000000E+00  0.00000000E+00  0.00000000E+00
  0.00000000E+00  0.00000000E+00  0.00000000E+00
  0.00000000E+00  0.00000000E+00  0.00000000E+00
  0.00000000E+00  0.00000000E+00  0.00000000E+00
  0.00000000E+00  0.00000000E+00  0.00000000E+00
  0.00000000E+00  0.00000000E+00  0.00000000E+00
  0.00000000E+00  0.00000000E+00  0.00000000E+00
  0.00000000E+00  0.00000000E+00  0.00000000E+00
  0.00000000E+00  0.00000000E+00  0.00000000E+00
  0.00000000E+00  0.00000000E+00  0.00000000E+00
  0.00000000E+00  0.00000000E+00  0.00000000E+00
  0.00000000E+00  0.00000000E+00  0.00000000E+00
  0.00000000E+00  0.00000000E+00  0.00000000E+00
  0.00000000E+00  0.00000000E+00  0.00000000E+00
  0.00000000E+00  0.00000000E+00  0.00000000E+00
  0.00000000E+00  0.00000000E+00  0.00000000E+00
  0.00000000E+00  0.00000000E+00  0.00000000E+00
  0.00000000E+00  0.00000000E+00  0.00000000E+00
  0.00000000E+00  0.00000000E+00  0.00000000E+00
  0.00000000E+00  0.00000000E+00  0.00000000E+00
  0.00000000E+00  0.00000000E+00  0.00000000E+00
  0.00000000E+00  0.00000000E+00  0.00000000E+00
  0.00000000E+00  0.00000000E+00  0.00000000E+00
  0.00000000E+00  0.00000000E+00  0.00000000E+00
  0.00000000E+00  0.00000000E+00  0.00000000E+00
  0.00000000E+00  0.00000000E+00  0.00000000E+00
  0.00000000E+00  0.00000000E+00  0.00000000E+00
  0.00000000E+00  0.00000000E+00  0.00000000E+00
  0.00000000E+00  0.00000000E+00  0.00000000E+00
  0.00000000E+00  0.00000000E+00  0.00000000E+00
  0.00000000E+00  0.00000000E+00  0.00000000E+00
  0.00000000E+00  0.00000000E+00  0.00000000E+00
  0.00000000E+00  0.00000000E+00  0.00000000E+00
  0.00000000E+00  0.00000000E+00  0.00000000E+00
