Al   Sc   N    O                        
   1.00000000000000     
    -9.5377155360534669   -0.0000308095211393   -0.0000019573785057
    -4.7688929251843097    8.2762285965242999    0.0018910408419436
    -0.0000017304363712   -0.0098189380448330   -9.7050608500472944
   Al   Sc   N    O 
    34     2    35     1
Direct
  0.1110152653647205  0.0946230402788473  0.3928997607246245
  0.2236990927288787  0.2130935371944034  0.1351767864064115
  0.7738335864887276  0.0940729729689593  0.8819879513220243
  0.8767463012844985  0.2113892636536931  0.6288190711808923
  0.4465775350434527  0.0927466328843281  0.3801406941578449
  0.5556151576141701  0.2054232707139079  0.1308127722858856
  0.2285179291020967  0.2113892755552129  0.6288190702235710
  0.7773294117504008  0.0927466102289998  0.3801406993891803
  0.8798608823444312  0.2130935496434176  0.1351767895035891
  0.4487470250115635  0.0940730395705955  0.8819879521244829
  0.5560472310216511  0.2045590636919670  0.6321839053838616
  0.1094063505363181  0.4294556327660288  0.3807985201492698
  0.2229631439168429  0.5347958353666229  0.1327777197504432
  0.7724177840078923  0.4321036493464803  0.8820091431921000
  0.8890029166318598  0.5386476808909322  0.6316736217658914
  0.4452004657527553  0.4262526443354986  0.3819648420276991
  0.5588944881824247  0.5347958940451676  0.1327777017520972
  0.1121321315921975  0.4321036703507275  0.8820091428626640
  0.2231072704623500  0.5372018310406190  0.6306019742342528
  0.7777915848837367  0.4294556373730956  0.3807985114910224
  0.8879944007951082  0.5406646986577996  0.1308338576698276
  0.4447779473657505  0.4270977005465326  0.8799735267812352
  0.5563444294747057  0.5372018305061346  0.6306019843532837
  0.1104891218422708  0.7597515235088181  0.3833444425918557
  0.7776955700801125  0.7612623565284338  0.8800586668414638
  0.8878208663389771  0.8724084039335978  0.6305522888266850
  0.4464128936487128  0.7597515416763514  0.3833444397255477
  0.5609310105910055  0.8692523133864114  0.1329472070099200
  0.1084730595332815  0.7534090961815139  0.8791484982802302
  0.2270462515974145  0.8625609571987241  0.6320215423227538
  0.7783450449093152  0.7599634335705048  0.3830303052249349
  0.8864701555681975  0.8692522437971490  0.1329472166989945
  0.4547713506453235  0.7534091386155026  0.8791484844269561
  0.5564242113525637  0.8724084306001316  0.6305522900829033
  0.1074763308778870  0.1017009688902206  0.8522663851484396
  0.2221911065367550  0.8722710703196768  0.1190249664275882
  0.2208404921589917  0.2039198673739691  0.3299528102738378
  0.8631087236091446  0.2183643825390789  0.8232066160916602
  0.7764343615071283  0.0931747662009741  0.5750215955331512
  0.5557568161490423  0.2051398306552912  0.3258850704781651
  0.4428699262767282  0.0924367580036218  0.0793705220356742
  0.2351803288067700  0.2183644033147516  0.8232065920968878
  0.1107582969615137  0.0951370465443162  0.5952855511005950
  0.8918931099920542  0.2039198550010681  0.3299527999868275
  0.7813470826183035  0.0924366977038176  0.0793705278857004
  0.5560430574358932  0.2045673825034768  0.8287772413896946
  0.4470445590573817  0.0931747710725119  0.5750215869164421
  0.2231693593935518  0.5379495394247797  0.3284627471090431
  0.1105068382290213  0.4271777310705218  0.0785069871287902
  0.8894523518630351  0.5377487412991968  0.8285958931325581
  0.7772495488765401  0.4296260381430770  0.5753201094075919
  0.5555345463345418  0.5379495624961592  0.3284627411374075
  0.4448929786523692  0.4268677383335628  0.0772115264600330
  0.2236768332968282  0.5370727608816281  0.8256560244083317
  0.1097780781042630  0.4296260689973792  0.5753201044078295
  0.8885626226729713  0.5395282015409535  0.3265270493740928
  0.7789691086548771  0.4271777231688603  0.0785069841955703
  0.5559038566656866  0.5370727963986823  0.8256560484268363
  0.4453714461004239  0.4259108203726356  0.5778924063193926
  0.2210094484524845  0.8746345334804744  0.3378302332351240
  0.1018268923112657  0.7496391860288725  0.0744750321930354
  0.8875519835412291  0.8733603105510070  0.8264005411497521
  0.7783536606711010  0.7599463329056704  0.5785603495786589
  0.5566726180710901  0.8709625285627496  0.3286145926588375
  0.4651874655395289  0.7496392820638746  0.0744750312795404
  0.2321748649673694  0.8523036251250176  0.8354551177406151
  0.1106536903481725  0.7594368994334246  0.5793789427341807
  0.8890182861615870  0.8709625093271356  0.3286146059174939
  0.7778643420699325  0.7609249205174535  0.0761534709881175
  0.5557410649309347  0.8733603644482457  0.8264005464653010
  0.4465630663984257  0.7594369081961574  0.5793789522810329
  0.0972084978173697  0.1222367078598197  0.0768518491068662
 
  0.00000000E+00  0.00000000E+00  0.00000000E+00
  0.00000000E+00  0.00000000E+00  0.00000000E+00
  0.00000000E+00  0.00000000E+00  0.00000000E+00
  0.00000000E+00  0.00000000E+00  0.00000000E+00
  0.00000000E+00  0.00000000E+00  0.00000000E+00
  0.00000000E+00  0.00000000E+00  0.00000000E+00
  0.00000000E+00  0.00000000E+00  0.00000000E+00
  0.00000000E+00  0.00000000E+00  0.00000000E+00
  0.00000000E+00  0.00000000E+00  0.00000000E+00
  0.00000000E+00  0.00000000E+00  0.00000000E+00
  0.00000000E+00  0.00000000E+00  0.00000000E+00
  0.00000000E+00  0.00000000E+00  0.00000000E+00
  0.00000000E+00  0.00000000E+00  0.00000000E+00
  0.00000000E+00  0.00000000E+00  0.00000000E+00
  0.00000000E+00  0.00000000E+00  0.00000000E+00
  0.00000000E+00  0.00000000E+00  0.00000000E+00
  0.00000000E+00  0.00000000E+00  0.00000000E+00
  0.00000000E+00  0.00000000E+00  0.00000000E+00
  0.00000000E+00  0.00000000E+00  0.00000000E+00
  0.00000000E+00  0.00000000E+00  0.00000000E+00
  0.00000000E+00  0.00000000E+00  0.00000000E+00
  0.00000000E+00  0.00000000E+00  0.00000000E+00
  0.00000000E+00  0.00000000E+00  0.00000000E+00
  0.00000000E+00  0.00000000E+00  0.00000000E+00
  0.00000000E+00  0.00000000E+00  0.00000000E+00
  0.00000000E+00  0.00000000E+00  0.00000000E+00
  0.00000000E+00  0.00000000E+00  0.00000000E+00
  0.00000000E+00  0.00000000E+00  0.00000000E+00
  0.00000000E+00  0.00000000E+00  0.00000000E+00
  0.00000000E+00  0.00000000E+00  0.00000000E+00
  0.00000000E+00  0.00000000E+00  0.00000000E+00
  0.00000000E+00  0.00000000E+00  0.00000000E+00
  0.00000000E+00  0.00000000E+00  0.00000000E+00
  0.00000000E+00  0.00000000E+00  0.00000000E+00
  0.00000000E+00  0.00000000E+00  0.00000000E+00
  0.00000000E+00  0.00000000E+00  0.00000000E+00
  0.00000000E+00  0.00000000E+00  0.00000000E+00
  0.00000000E+00  0.00000000E+00  0.00000000E+00
  0.00000000E+00  0.00000000E+00  0.00000000E+00
  0.00000000E+00  0.00000000E+00  0.00000000E+00
  0.00000000E+00  0.00000000E+00  0.00000000E+00
  0.00000000E+00  0.00000000E+00  0.00000000E+00
  0.00000000E+00  0.00000000E+00  0.00000000E+00
  0.00000000E+00  0.00000000E+00  0.00000000E+00
  0.00000000E+00  0.00000000E+00  0.00000000E+00
  0.00000000E+00  0.00000000E+00  0.00000000E+00
  0.00000000E+00  0.00000000E+00  0.00000000E+00
  0.00000000E+00  0.00000000E+00  0.00000000E+00
  0.00000000E+00  0.00000000E+00  0.00000000E+00
  0.00000000E+00  0.00000000E+00  0.00000000E+00
  0.00000000E+00  0.00000000E+00  0.00000000E+00
  0.00000000E+00  0.00000000E+00  0.00000000E+00
  0.00000000E+00  0.00000000E+00  0.00000000E+00
  0.00000000E+00  0.00000000E+00  0.00000000E+00
  0.00000000E+00  0.00000000E+00  0.00000000E+00
  0.00000000E+00  0.00000000E+00  0.00000000E+00
  0.00000000E+00  0.00000000E+00  0.00000000E+00
  0.00000000E+00  0.00000000E+00  0.00000000E+00
  0.00000000E+00  0.00000000E+00  0.00000000E+00
  0.00000000E+00  0.00000000E+00  0.00000000E+00
  0.00000000E+00  0.00000000E+00  0.00000000E+00
  0.00000000E+00  0.00000000E+00  0.00000000E+00
  0.00000000E+00  0.00000000E+00  0.00000000E+00
  0.00000000E+00  0.00000000E+00  0.00000000E+00
  0.00000000E+00  0.00000000E+00  0.00000000E+00
  0.00000000E+00  0.00000000E+00  0.00000000E+00
  0.00000000E+00  0.00000000E+00  0.00000000E+00
  0.00000000E+00  0.00000000E+00  0.00000000E+00
  0.00000000E+00  0.00000000E+00  0.00000000E+00
  0.00000000E+00  0.00000000E+00  0.00000000E+00
  0.00000000E+00  0.00000000E+00  0.00000000E+00
  0.00000000E+00  0.00000000E+00  0.00000000E+00
