Al   Sc   N    O                        
   1.00000000000000     
    -9.9481005112156158   -0.0000661839974201    0.0000121353388782
    -4.9741086170729147    8.6278614790710808   -0.0022514537531563
    -0.0000106159224203   -0.0035618053667392   -8.4584021168577834
   Al   Sc   N    O 
    34     2    35     1
Direct
  0.1091830518566113  0.0982869216641333  0.3679253661392963
  0.2269762491577794  0.2138132221677367  0.1054267594467220
  0.7742100709511419  0.0940331775234924  0.8505814573134884
  0.8813984702611108  0.2092590147058573  0.5969655629945194
  0.4473567941723005  0.0919927599273365  0.3513606461502121
  0.5559901303261583  0.2046728519281515  0.1019988863585297
  0.2259955333600630  0.2092590225342335  0.5969655112238712
  0.7773035190087469  0.0919926747615563  0.3513606473455795
  0.8758637135767415  0.2138130575775534  0.1054267575569483
  0.4484097111263381  0.0940332939214414  0.8505814641131053
  0.5553746757654139  0.2059037424545664  0.5996876107547990
  0.1093544260461812  0.4302256356852894  0.3517292096165008
  0.2225339140963882  0.5353506747281642  0.1015479998634987
  0.7741401365651299  0.4315059115450381  0.8499244279568998
  0.8888236334504143  0.5390058384283662  0.6006771357769551
  0.4449904943682768  0.4266721859945832  0.3509044483367560
  0.5587686173177318  0.5353506535700276  0.1015479779468720
  0.1110070033717250  0.4315059635430458  0.8499243776092698
  0.2244115731594505  0.5364261029259012  0.6005272268656938
  0.7770730741516090  0.4302255640999491  0.3517291924800219
  0.8882798136900831  0.5400934743755599  0.1013417729911126
  0.4451220713178117  0.4264089867837839  0.8512265428781163
  0.5558154731152456  0.5364261233464234  0.6005272422370780
  0.1080011534841887  0.7577606976435760  0.3562796250237241
  0.7781828408781521  0.7602873353436621  0.8499714565042424
  0.8875409341997127  0.8721161492147118  0.6012417835595159
  0.4508912314017905  0.7577607146015453  0.3562796219049886
  0.5600370691189696  0.8703701452129877  0.1010891944914292
  0.1098616900389757  0.7558329311482339  0.8473885177532665
  0.2251730661872529  0.8663069693267929  0.6014879917850351
  0.7780599392177407  0.7605331915624802  0.3522633279195375
  0.8862459226245676  0.8703700289455227  0.1010891723246417
  0.4509583909275960  0.7558329925248799  0.8473885047721055
  0.5569959897428873  0.8721162263869999  0.6012417840069375
  0.1083451151694916  0.0999628906990679  0.8458895121264050
  0.2247055658851522  0.8672419885438458  0.1069381690926079
  0.2225551080750208  0.2053366757441140  0.3524528597717946
  0.8704653523968275  0.2146767096807238  0.8622374961583077
  0.7771936034644042  0.0945039568387500  0.6055368565241039
  0.5556741143499266  0.2053048158341539  0.3564148159882876
  0.4463588639267684  0.0916147594789223  0.1094175204674883
  0.2315109132573241  0.2146768116310227  0.8622375010081100
  0.1092238564001278  0.0982052876610311  0.5974590095610850
  0.8887612426512277  0.2053366181707119  0.3524528380642451
  0.7786795328492602  0.0916146260333690  0.1094175032298068
  0.5560167772753459  0.2046194858270098  0.8584646065106938
  0.4449554765199082  0.0945040352208437  0.6055368573709998
  0.2240966688774435  0.5366017856896761  0.3587788052954508
  0.1090325440722992  0.4298132024435830  0.1096750948401990
  0.8894140547867622  0.5378249378223359  0.8567287160762476
  0.7778664245221449  0.4277088655551537  0.6055312276046436
  0.5559546683295977  0.5366017985302634  0.3587787983442041
  0.4448543298017569  0.4269445524269599  0.1066448021550670
  0.2230858814612517  0.5378322152136690  0.8560824357879966
  0.1110778519600757  0.4277088929704362  0.6055312057151809
  0.8884338572456230  0.5397853206451089  0.3582155347651224
  0.7778075078299764  0.4298130522418404  0.1096750536865088
  0.5557349638826565  0.5378322480406226  0.8560824331676216
  0.4453324843237780  0.4259882284998326  0.6081330005972063
  0.2211588603334107  0.8743353620306991  0.3623607553634471
  0.1029133651465415  0.7514844996314451  0.1098522166989824
  0.8885532426182152  0.8726097167898033  0.8554051361410870
  0.7782894884472711  0.7600741234136947  0.6085826013895996
  0.5575195386441081  0.8718237678139857  0.3593615356832274
  0.4622552761143268  0.7514845035597659  0.1098522181861341
  0.2295476304097406  0.8575577406856567  0.8486777327374284
  0.1104112750365900  0.7589810553743064  0.6044535386303380
  0.8873097999124440  0.8718236920301052  0.3593615329188893
  0.7781525497019288  0.7603479576972632  0.1061905467373592
  0.5554900011208090  0.8726098189155138  0.8554051515562549
  0.4472607903864017  0.7589810905411483  0.6044535490246048
  0.1003951375399481  0.1158629208907698  0.1094575296548115
 
  0.00000000E+00  0.00000000E+00  0.00000000E+00
  0.00000000E+00  0.00000000E+00  0.00000000E+00
  0.00000000E+00  0.00000000E+00  0.00000000E+00
  0.00000000E+00  0.00000000E+00  0.00000000E+00
  0.00000000E+00  0.00000000E+00  0.00000000E+00
  0.00000000E+00  0.00000000E+00  0.00000000E+00
  0.00000000E+00  0.00000000E+00  0.00000000E+00
  0.00000000E+00  0.00000000E+00  0.00000000E+00
  0.00000000E+00  0.00000000E+00  0.00000000E+00
  0.00000000E+00  0.00000000E+00  0.00000000E+00
  0.00000000E+00  0.00000000E+00  0.00000000E+00
  0.00000000E+00  0.00000000E+00  0.00000000E+00
  0.00000000E+00  0.00000000E+00  0.00000000E+00
  0.00000000E+00  0.00000000E+00  0.00000000E+00
  0.00000000E+00  0.00000000E+00  0.00000000E+00
  0.00000000E+00  0.00000000E+00  0.00000000E+00
  0.00000000E+00  0.00000000E+00  0.00000000E+00
  0.00000000E+00  0.00000000E+00  0.00000000E+00
  0.00000000E+00  0.00000000E+00  0.00000000E+00
  0.00000000E+00  0.00000000E+00  0.00000000E+00
  0.00000000E+00  0.00000000E+00  0.00000000E+00
  0.00000000E+00  0.00000000E+00  0.00000000E+00
  0.00000000E+00  0.00000000E+00  0.00000000E+00
  0.00000000E+00  0.00000000E+00  0.00000000E+00
  0.00000000E+00  0.00000000E+00  0.00000000E+00
  0.00000000E+00  0.00000000E+00  0.00000000E+00
  0.00000000E+00  0.00000000E+00  0.00000000E+00
  0.00000000E+00  0.00000000E+00  0.00000000E+00
  0.00000000E+00  0.00000000E+00  0.00000000E+00
  0.00000000E+00  0.00000000E+00  0.00000000E+00
  0.00000000E+00  0.00000000E+00  0.00000000E+00
  0.00000000E+00  0.00000000E+00  0.00000000E+00
  0.00000000E+00  0.00000000E+00  0.00000000E+00
  0.00000000E+00  0.00000000E+00  0.00000000E+00
  0.00000000E+00  0.00000000E+00  0.00000000E+00
  0.00000000E+00  0.00000000E+00  0.00000000E+00
  0.00000000E+00  0.00000000E+00  0.00000000E+00
  0.00000000E+00  0.00000000E+00  0.00000000E+00
  0.00000000E+00  0.00000000E+00  0.00000000E+00
  0.00000000E+00  0.00000000E+00  0.00000000E+00
  0.00000000E+00  0.00000000E+00  0.00000000E+00
  0.00000000E+00  0.00000000E+00  0.00000000E+00
  0.00000000E+00  0.00000000E+00  0.00000000E+00
  0.00000000E+00  0.00000000E+00  0.00000000E+00
  0.00000000E+00  0.00000000E+00  0.00000000E+00
  0.00000000E+00  0.00000000E+00  0.00000000E+00
  0.00000000E+00  0.00000000E+00  0.00000000E+00
  0.00000000E+00  0.00000000E+00  0.00000000E+00
  0.00000000E+00  0.00000000E+00  0.00000000E+00
  0.00000000E+00  0.00000000E+00  0.00000000E+00
  0.00000000E+00  0.00000000E+00  0.00000000E+00
  0.00000000E+00  0.00000000E+00  0.00000000E+00
  0.00000000E+00  0.00000000E+00  0.00000000E+00
  0.00000000E+00  0.00000000E+00  0.00000000E+00
  0.00000000E+00  0.00000000E+00  0.00000000E+00
  0.00000000E+00  0.00000000E+00  0.00000000E+00
  0.00000000E+00  0.00000000E+00  0.00000000E+00
  0.00000000E+00  0.00000000E+00  0.00000000E+00
  0.00000000E+00  0.00000000E+00  0.00000000E+00
  0.00000000E+00  0.00000000E+00  0.00000000E+00
  0.00000000E+00  0.00000000E+00  0.00000000E+00
  0.00000000E+00  0.00000000E+00  0.00000000E+00
  0.00000000E+00  0.00000000E+00  0.00000000E+00
  0.00000000E+00  0.00000000E+00  0.00000000E+00
  0.00000000E+00  0.00000000E+00  0.00000000E+00
  0.00000000E+00  0.00000000E+00  0.00000000E+00
  0.00000000E+00  0.00000000E+00  0.00000000E+00
  0.00000000E+00  0.00000000E+00  0.00000000E+00
  0.00000000E+00  0.00000000E+00  0.00000000E+00
  0.00000000E+00  0.00000000E+00  0.00000000E+00
  0.00000000E+00  0.00000000E+00  0.00000000E+00
  0.00000000E+00  0.00000000E+00  0.00000000E+00
