Al   Sc   N    O                        
   1.00000000000000     
    -9.9144279905666526   -0.0000591091021640    0.0000093167954014
    -4.9572640519419817    8.6003702532505493   -0.0014229548341363
    -0.0000079965800945   -0.0075535668251776   -8.5542217346786504
   Al   Sc   N    O 
    34     2    35     1
Direct
  0.1089850830880579  0.0986833146879889  0.3743803498685807
  0.2257967067587074  0.2130805978012305  0.1115477922262400
  0.7742104513525092  0.0931684947789932  0.8621726875426674
  0.8796541963856015  0.2101567397394675  0.6093284042047316
  0.4462382377971608  0.0929155724196988  0.3597984428158298
  0.5555955487416924  0.2054624395264071  0.1114853563251117
  0.2268425455118290  0.2101567117135446  0.6093283721154208
  0.7774997040637359  0.0929155295777875  0.3597984525111713
  0.8777762704843113  0.2130805058165848  0.1115478200342466
  0.4492744565236464  0.0931685415325987  0.8621726808667063
  0.5558030042537752  0.2050474823281974  0.6108127598696029
  0.1095784859441622  0.4290537070692793  0.3606633280101335
  0.2232222585054728  0.5350224163728612  0.1128680859326820
  0.7733849490079834  0.4324424126802100  0.8617226533643034
  0.8891615246840843  0.5383305320452436  0.6108122695388758
  0.4452800791633607  0.4260934274507733  0.3622521068411260
  0.5584089911435086  0.5350223737264770  0.1128681204768611
  0.1108261705543470  0.4324424165526892  0.8617226146021224
  0.2237157784438395  0.5367339886436966  0.6095541849099249
  0.7780214028698040  0.4290536803670406  0.3606633255774270
  0.8878840136669979  0.5408855864477786  0.1117877511854957
  0.4448895233375652  0.4268745253366220  0.8598603421044615
  0.5562038255613757  0.5367339900788792  0.6095541771727468
  0.1085992625605101  0.7583146829834035  0.3630735167572823
  0.7779188049458270  0.7608159020743130  0.8586148830066733
  0.8877711850347438  0.8726255275912251  0.6097873351453487
  0.4497395464330296  0.7583147017201952  0.3630735146698640
  0.5607247226768237  0.8698389185907018  0.1125921880959808
  0.1094788663180708  0.7552855263704998  0.8561509352385954
  0.2255358072037055  0.8655819586499476  0.6047845365590661
  0.7782813769304013  0.7600908037389189  0.3644276492828311
  0.8860899560235183  0.8698388571831472  0.1125921651535791
  0.4518891033273889  0.7552855389768141  0.8561509401417666
  0.5562568497986717  0.8726255527908364  0.6097873178425672
  0.1087502765166022  0.0991528970037550  0.8456067602265307
  0.2240962181224333  0.8684611672746385  0.1071831488357660
  0.2217306161910102  0.2047290121179799  0.3450862264795020
  0.8693710065434885  0.2151458362853589  0.8506221381804906
  0.7768949465074542  0.0942619657141037  0.5953300249922009
  0.5557265664699074  0.2052003880479774  0.3463238602199468
  0.4455781089583155  0.0918212556365248  0.1001566119379191
  0.2321365978324721  0.2151458546637812  0.8506221424042906
  0.1092411565826339  0.0981711071088753  0.5977342773366487
  0.8901938951180028  0.2047289785908646  0.3450862234896022
  0.7792541730446132  0.0918211807334401  0.1001566046616773
  0.5560185977450729  0.2046162711378088  0.8491545861911050
  0.4454965385305556  0.0942619942504095  0.5953300271937181
  0.2237246838762843  0.5370270008792204  0.3496137480895527
  0.1094648280789485  0.4292417655474736  0.0996578574004019
  0.8893611968121036  0.5379311721931543  0.8476501837375139
  0.7777614914085333  0.4282929523303309  0.5956111968981972
  0.5559019142389445  0.5370270036314437  0.3496137700015041
  0.4447890020912979  0.4270755946710381  0.0974537528916599
  0.2235095383861676  0.5373452595473722  0.8460549126097305
  0.1105991330368141  0.4282929468842767  0.5956112022159559
  0.8884476232398910  0.5397583385125984  0.3478511158088438
  0.7779470628303571  0.4292416904154948  0.0996578935506349
  0.5557987651261698  0.5373452649967732  0.8460549105928763
  0.4454560868435706  0.4257414082223434  0.5982947623164279
  0.2208066198155478  0.8750402852212318  0.3593400508488216
  0.1029887729976053  0.7512715281109408  0.0992788758810619
  0.8881427089359235  0.8729212260927071  0.8459987089228704
  0.7783334291108019  0.7599867049918458  0.5994738600577776
  0.5573487090796050  0.8715377033171947  0.3498680529680840
  0.4623932641631114  0.7512715131936432  0.0992788797746229
  0.2300794191068007  0.8564946598158372  0.8464688465354584
  0.1103844314145661  0.7591070345883040  0.5982619714728088
  0.8877671595822463  0.8715376851844567  0.3498680381179184
  0.7780784168988646  0.7604966993440812  0.0958095127911989
  0.5555895729360216  0.8729212654490865  0.8459986983920089
  0.4471620761874675  0.7591070467135168  0.5982619763691517
  0.0998760735832818  0.1169014011179286  0.0999115212648434
 
  0.00000000E+00  0.00000000E+00  0.00000000E+00
  0.00000000E+00  0.00000000E+00  0.00000000E+00
  0.00000000E+00  0.00000000E+00  0.00000000E+00
  0.00000000E+00  0.00000000E+00  0.00000000E+00
  0.00000000E+00  0.00000000E+00  0.00000000E+00
  0.00000000E+00  0.00000000E+00  0.00000000E+00
  0.00000000E+00  0.00000000E+00  0.00000000E+00
  0.00000000E+00  0.00000000E+00  0.00000000E+00
  0.00000000E+00  0.00000000E+00  0.00000000E+00
  0.00000000E+00  0.00000000E+00  0.00000000E+00
  0.00000000E+00  0.00000000E+00  0.00000000E+00
  0.00000000E+00  0.00000000E+00  0.00000000E+00
  0.00000000E+00  0.00000000E+00  0.00000000E+00
  0.00000000E+00  0.00000000E+00  0.00000000E+00
  0.00000000E+00  0.00000000E+00  0.00000000E+00
  0.00000000E+00  0.00000000E+00  0.00000000E+00
  0.00000000E+00  0.00000000E+00  0.00000000E+00
  0.00000000E+00  0.00000000E+00  0.00000000E+00
  0.00000000E+00  0.00000000E+00  0.00000000E+00
  0.00000000E+00  0.00000000E+00  0.00000000E+00
  0.00000000E+00  0.00000000E+00  0.00000000E+00
  0.00000000E+00  0.00000000E+00  0.00000000E+00
  0.00000000E+00  0.00000000E+00  0.00000000E+00
  0.00000000E+00  0.00000000E+00  0.00000000E+00
  0.00000000E+00  0.00000000E+00  0.00000000E+00
  0.00000000E+00  0.00000000E+00  0.00000000E+00
  0.00000000E+00  0.00000000E+00  0.00000000E+00
  0.00000000E+00  0.00000000E+00  0.00000000E+00
  0.00000000E+00  0.00000000E+00  0.00000000E+00
  0.00000000E+00  0.00000000E+00  0.00000000E+00
  0.00000000E+00  0.00000000E+00  0.00000000E+00
  0.00000000E+00  0.00000000E+00  0.00000000E+00
  0.00000000E+00  0.00000000E+00  0.00000000E+00
  0.00000000E+00  0.00000000E+00  0.00000000E+00
  0.00000000E+00  0.00000000E+00  0.00000000E+00
  0.00000000E+00  0.00000000E+00  0.00000000E+00
  0.00000000E+00  0.00000000E+00  0.00000000E+00
  0.00000000E+00  0.00000000E+00  0.00000000E+00
  0.00000000E+00  0.00000000E+00  0.00000000E+00
  0.00000000E+00  0.00000000E+00  0.00000000E+00
  0.00000000E+00  0.00000000E+00  0.00000000E+00
  0.00000000E+00  0.00000000E+00  0.00000000E+00
  0.00000000E+00  0.00000000E+00  0.00000000E+00
  0.00000000E+00  0.00000000E+00  0.00000000E+00
  0.00000000E+00  0.00000000E+00  0.00000000E+00
  0.00000000E+00  0.00000000E+00  0.00000000E+00
  0.00000000E+00  0.00000000E+00  0.00000000E+00
  0.00000000E+00  0.00000000E+00  0.00000000E+00
  0.00000000E+00  0.00000000E+00  0.00000000E+00
  0.00000000E+00  0.00000000E+00  0.00000000E+00
  0.00000000E+00  0.00000000E+00  0.00000000E+00
  0.00000000E+00  0.00000000E+00  0.00000000E+00
  0.00000000E+00  0.00000000E+00  0.00000000E+00
  0.00000000E+00  0.00000000E+00  0.00000000E+00
  0.00000000E+00  0.00000000E+00  0.00000000E+00
  0.00000000E+00  0.00000000E+00  0.00000000E+00
  0.00000000E+00  0.00000000E+00  0.00000000E+00
  0.00000000E+00  0.00000000E+00  0.00000000E+00
  0.00000000E+00  0.00000000E+00  0.00000000E+00
  0.00000000E+00  0.00000000E+00  0.00000000E+00
  0.00000000E+00  0.00000000E+00  0.00000000E+00
  0.00000000E+00  0.00000000E+00  0.00000000E+00
  0.00000000E+00  0.00000000E+00  0.00000000E+00
  0.00000000E+00  0.00000000E+00  0.00000000E+00
  0.00000000E+00  0.00000000E+00  0.00000000E+00
  0.00000000E+00  0.00000000E+00  0.00000000E+00
  0.00000000E+00  0.00000000E+00  0.00000000E+00
  0.00000000E+00  0.00000000E+00  0.00000000E+00
  0.00000000E+00  0.00000000E+00  0.00000000E+00
  0.00000000E+00  0.00000000E+00  0.00000000E+00
  0.00000000E+00  0.00000000E+00  0.00000000E+00
  0.00000000E+00  0.00000000E+00  0.00000000E+00
