Al   Sc   N    O                        
   1.00000000000000     
    -9.7449815428442292   -0.0000449593116517    0.0000036797084478
    -4.8725315722551468    8.4546190167880741    0.0002340430039036
    -0.0000057365863687   -0.0097667313518080   -9.0874917057219537
   Al   Sc   N    O 
    34     2    35     1
Direct
  0.1098546872658304  0.0969441224701271  0.3857789996436267
  0.2241849676392391  0.2126419895330045  0.1251030920746032
  0.7741466523736733  0.0933008462106528  0.8755576886845162
  0.8768538695148465  0.2114420945135080  0.6221352660641699
  0.4461926891072281  0.0931453265066295  0.3715032362367765
  0.5553850357047949  0.2058834798647666  0.1230387133477464
  0.2283575419864121  0.2114420892431212  0.6221352413457240
  0.7773155120794044  0.0931453097951547  0.3715032596006154
  0.8798265284239193  0.2126419841158764  0.1251030863304479
  0.4492060273033118  0.0933008759150198  0.8755577047003129
  0.5560973887999978  0.2044587379459983  0.6246635767648741
  0.1093642085409741  0.4290226585896804  0.3725472479900347
  0.2233140720439835  0.5348435349464538  0.1259825029254671
  0.7727260294036498  0.4324007100697216  0.8752065856255484
  0.8892805186448030  0.5380924821698159  0.6240482349576624
  0.4454083857665623  0.4258368424399706  0.3750482821351255
  0.5584959842700812  0.5348435340835422  0.1259825010264564
  0.1115268094404271  0.4324007056291208  0.8752065752932054
  0.2232645574963286  0.5368705460269680  0.6222564146397076
  0.7782667085542911  0.4290226483114452  0.3725472416764291
  0.8876950975138982  0.5412633506178111  0.1234847397161474
  0.4447398368305571  0.4271739137652872  0.8720242193135448
  0.5565184656167119  0.5368705469752157  0.6222564148855767
  0.1095809822525524  0.7591937062853802  0.3752004815897649
  0.7776824725688130  0.7612885517392769  0.8709056813536407
  0.8876476711766657  0.8729375852123198  0.6222798676780101
  0.4478788446777386  0.7591937204981178  0.3752004452235482
  0.5612933922442949  0.8691707797128885  0.1258633295582783
  0.1087488904866660  0.7540712867207304  0.8701657163017131
  0.2263120136824242  0.8640295636290034  0.6173441709609406
  0.7784435429070200  0.7597664397898711  0.3770792563775984
  0.8861893185564611  0.8691707393636392  0.1258633351219416
  0.4538333533474557  0.7540712912834877  0.8701657389740163
  0.5560682766333329  0.8729375976477058  0.6222798647933274
  0.1082453709820896  0.1001627858066740  0.8459238785857721
  0.2230284174027801  0.8705966314720683  0.1101698234153190
  0.2209025433487000  0.2040555525560563  0.3353853666203932
  0.8659143769357698  0.2168242830154838  0.8345384603769901
  0.7763873891753974  0.0938997620395270  0.5820957666091573
  0.5556143515809566  0.2054248181816973  0.3332320952013816
  0.4442827608099549  0.0919656510478646  0.0880801640621911
  0.2339148604368830  0.2168242467834958  0.8345384658565465
  0.1098791595750370  0.0968951852490392  0.5978390935911762
  0.8916954013263663  0.2040555556588473  0.3353853563651228
  0.7804051446879896  0.0919656180563777  0.0880801396085431
  0.5561803813291419  0.2042928225993492  0.8371114901059045
  0.4463664180044020  0.0938997561055430  0.5820957470340176
  0.2235792591047669  0.5374727905657934  0.3371452055364514
  0.1100553814062692  0.4282988620658017  0.0871594510914449
  0.8895420134590424  0.5375694598991458  0.8361340171494049
  0.7776137911425707  0.4290492194940825  0.5826123278222255
  0.5556015490757176  0.5374728141866569  0.3371451898018094
  0.4446831524818009  0.4272873451967172  0.0846153088999344
  0.2236013236981051  0.5369225718883968  0.8330188491946657
  0.1099905269183239  0.4290492428691408  0.5826123295132746
  0.8883327336603983  0.5399881007190714  0.3345360866376126
  0.7782993780660235  0.4282988273909254  0.0871594389566113
  0.5561296048685804  0.5369226178524258  0.8330188564488950
  0.4455598716429137  0.4255338607825649  0.5861339158624261
  0.2207002764512822  0.8752529759558882  0.3481983424676613
  0.1021562491902586  0.7501691608338774  0.0842260215446515
  0.8876613814722063  0.8735202768381214  0.8334769395264203
  0.7784311199962559  0.7597913373187026  0.5875984995809915
  0.5573453647152391  0.8710105160409753  0.3372497007305597
  0.4643280886993253  0.7501691700263962  0.0842260543538274
  0.2312238755086184  0.8542057872634246  0.8427060962599171
  0.1103638215062261  0.7592215821207162  0.5871226118889794
  0.8882976404379690  0.8710105114500877  0.3372497131020111
  0.7778962900037314  0.7608608691401884  0.0827493002774986
  0.5554718420754341  0.8735202899078374  0.8334769596381264
  0.4470682099594754  0.7592215581392878  0.5871225871586674
  0.0982897458742613  0.1200740121446486  0.0848939793157513
 
  0.00000000E+00  0.00000000E+00  0.00000000E+00
  0.00000000E+00  0.00000000E+00  0.00000000E+00
  0.00000000E+00  0.00000000E+00  0.00000000E+00
  0.00000000E+00  0.00000000E+00  0.00000000E+00
  0.00000000E+00  0.00000000E+00  0.00000000E+00
  0.00000000E+00  0.00000000E+00  0.00000000E+00
  0.00000000E+00  0.00000000E+00  0.00000000E+00
  0.00000000E+00  0.00000000E+00  0.00000000E+00
  0.00000000E+00  0.00000000E+00  0.00000000E+00
  0.00000000E+00  0.00000000E+00  0.00000000E+00
  0.00000000E+00  0.00000000E+00  0.00000000E+00
  0.00000000E+00  0.00000000E+00  0.00000000E+00
  0.00000000E+00  0.00000000E+00  0.00000000E+00
  0.00000000E+00  0.00000000E+00  0.00000000E+00
  0.00000000E+00  0.00000000E+00  0.00000000E+00
  0.00000000E+00  0.00000000E+00  0.00000000E+00
  0.00000000E+00  0.00000000E+00  0.00000000E+00
  0.00000000E+00  0.00000000E+00  0.00000000E+00
  0.00000000E+00  0.00000000E+00  0.00000000E+00
  0.00000000E+00  0.00000000E+00  0.00000000E+00
  0.00000000E+00  0.00000000E+00  0.00000000E+00
  0.00000000E+00  0.00000000E+00  0.00000000E+00
  0.00000000E+00  0.00000000E+00  0.00000000E+00
  0.00000000E+00  0.00000000E+00  0.00000000E+00
  0.00000000E+00  0.00000000E+00  0.00000000E+00
  0.00000000E+00  0.00000000E+00  0.00000000E+00
  0.00000000E+00  0.00000000E+00  0.00000000E+00
  0.00000000E+00  0.00000000E+00  0.00000000E+00
  0.00000000E+00  0.00000000E+00  0.00000000E+00
  0.00000000E+00  0.00000000E+00  0.00000000E+00
  0.00000000E+00  0.00000000E+00  0.00000000E+00
  0.00000000E+00  0.00000000E+00  0.00000000E+00
  0.00000000E+00  0.00000000E+00  0.00000000E+00
  0.00000000E+00  0.00000000E+00  0.00000000E+00
  0.00000000E+00  0.00000000E+00  0.00000000E+00
  0.00000000E+00  0.00000000E+00  0.00000000E+00
  0.00000000E+00  0.00000000E+00  0.00000000E+00
  0.00000000E+00  0.00000000E+00  0.00000000E+00
  0.00000000E+00  0.00000000E+00  0.00000000E+00
  0.00000000E+00  0.00000000E+00  0.00000000E+00
  0.00000000E+00  0.00000000E+00  0.00000000E+00
  0.00000000E+00  0.00000000E+00  0.00000000E+00
  0.00000000E+00  0.00000000E+00  0.00000000E+00
  0.00000000E+00  0.00000000E+00  0.00000000E+00
  0.00000000E+00  0.00000000E+00  0.00000000E+00
  0.00000000E+00  0.00000000E+00  0.00000000E+00
  0.00000000E+00  0.00000000E+00  0.00000000E+00
  0.00000000E+00  0.00000000E+00  0.00000000E+00
  0.00000000E+00  0.00000000E+00  0.00000000E+00
  0.00000000E+00  0.00000000E+00  0.00000000E+00
  0.00000000E+00  0.00000000E+00  0.00000000E+00
  0.00000000E+00  0.00000000E+00  0.00000000E+00
  0.00000000E+00  0.00000000E+00  0.00000000E+00
  0.00000000E+00  0.00000000E+00  0.00000000E+00
  0.00000000E+00  0.00000000E+00  0.00000000E+00
  0.00000000E+00  0.00000000E+00  0.00000000E+00
  0.00000000E+00  0.00000000E+00  0.00000000E+00
  0.00000000E+00  0.00000000E+00  0.00000000E+00
  0.00000000E+00  0.00000000E+00  0.00000000E+00
  0.00000000E+00  0.00000000E+00  0.00000000E+00
  0.00000000E+00  0.00000000E+00  0.00000000E+00
  0.00000000E+00  0.00000000E+00  0.00000000E+00
  0.00000000E+00  0.00000000E+00  0.00000000E+00
  0.00000000E+00  0.00000000E+00  0.00000000E+00
  0.00000000E+00  0.00000000E+00  0.00000000E+00
  0.00000000E+00  0.00000000E+00  0.00000000E+00
  0.00000000E+00  0.00000000E+00  0.00000000E+00
  0.00000000E+00  0.00000000E+00  0.00000000E+00
  0.00000000E+00  0.00000000E+00  0.00000000E+00
  0.00000000E+00  0.00000000E+00  0.00000000E+00
  0.00000000E+00  0.00000000E+00  0.00000000E+00
  0.00000000E+00  0.00000000E+00  0.00000000E+00
