generated by phonopy                    
   1.00000000000000     
    10.0351470768999995   -0.0000022330999784   -0.0000001056124209
    -5.0175765436399997    8.6906901959899994    0.0000001395531216
    -0.0000001735893656    0.0000001431815548   14.9533752540999991
   Pb   P    O 
    19    13    50
Direct
  0.0089000895898579  0.7888429736594063  0.0992402394791441
  0.9975758893080098  0.7737485104657083  0.6259386273837748
  0.0078613484512076  0.2682517702716538  0.3782596275596788
  0.0078944268429169  0.2627151950579858  0.8684786213540150
  0.2120198218934632  0.2213170552784050  0.0993562252802747
  0.2270672915066712  0.2245738026653896  0.6259910706751199
  0.7318274340791930  0.7395619543393437  0.3788277338268102
  0.7378733271690123  0.7455224129541023  0.8682777785425415
  0.7790270819219387  0.9923179447862296  0.0990655710561370
  0.7758833726784431  0.0028356190639371  0.6257563873646106
  0.2608397156333808  0.9920160727050842  0.3792235589862685
  0.2548756562515564  0.9926912912558947  0.8681878040956406
  0.6680656557155729  0.3343881982887993  0.9908128643934191
  0.6679281804249158  0.3338401641854460  0.5026206453680970
  0.3328244537168885  0.6662476396370920  0.5228627225843070
  0.3339737535389986  0.6668864449822323  0.2774750828783112
  0.3341482468047658  0.6672155968231550  0.7647208485523365
  0.6649336925592806  0.3334406097155025  0.2521117770206160
  0.6666461158253938  0.3334629051056694  0.7447860931375843
  0.3328790261553962  0.6661906882379185  0.0571603574761994
  0.5936551533422048  0.5865487151895366  0.1211306483086290
  0.6241704085158588  0.5977554757056822  0.6246140775752309
  0.3686558154123460  0.3914797681553566  0.3754586551809140
  0.3713208744737315  0.3905498400239438  0.8739077878366430
  0.4128342510520255  0.0065836397070242  0.1212616179521433
  0.4023423892501512  0.0262877957306742  0.6249743504584302
  0.6089199658472282  0.9772524907581968  0.3750624800749165
  0.6096997690800166  0.9807119945400729  0.8734901682875815
  0.9928125348213328  0.4056797888491985  0.1210480430277485
  0.9736390152382555  0.3760765668202808  0.6250644491231583
  0.0230541592360609  0.6316542559389475  0.3746402752561551
  0.0199218583742038  0.6296409468259867  0.8732856828787590
  0.4529242544889129  0.6295209049130364  0.1179357853869760
  0.5007704362886329  0.6479809801740402  0.6320357536283723
  0.4751078298487386  0.3201677444054312  0.3649677893646910
  0.4684562797113188  0.3087029109642927  0.8698824017723439
  0.3695922150649125  0.8229618917965382  0.1183361837668215
  0.3522317247085098  0.8527306559475250  0.6324886711895275
  0.6801357964289281  0.1548179049566372  0.3643425152194126
  0.6917313575961614  0.1595524576583074  0.8686720889886956
  0.1763104142428631  0.5461389834059815  0.1175082096871236
  0.1474290744104110  0.4988313409181870  0.6325936452749161
  0.8454713504028746  0.5256864903496563  0.3637357469627602
  0.8410951725401432  0.5326638200966372  0.8684302363387104
  0.7202997291605158  0.7002293696855304  0.0562263126035276
  0.7334366511303685  0.6737663661215763  0.5424845475363753
  0.2507572620766183  0.3121147917705329  0.4532717141143792
  0.2587050704289098  0.3301394899152754  0.9555350347762470
  0.2970045377117785  0.0190196007462262  0.0577804816876650
  0.3255736951733681  0.0589838879615883  0.5430478342787168
  0.6891013294988326  0.9392749768090525  0.4527760004998882
  0.6714116798159111  0.9295914143796722  0.9550118982218692
  0.9779920892068859  0.2804319830449060  0.0543963189215830
  0.9399808693916185  0.2671610772611714  0.5427053305162772
  0.0612730181014669  0.7492552337008291  0.4526783320886736
  0.0709332994239702  0.7415064406728433  0.9552415227414173
  0.2723421629328087  0.3765921204454870  0.2902353557472139
  0.2626707519012541  0.3539635994113439  0.7907537709077204
  0.6478354895887009  0.6091967345906895  0.2183768823163632
  0.7286911552088711  0.6484882408067847  0.7102784442807746
  0.6229538030761717  0.8948326392542825  0.2900020555555258
  0.6448642877596171  0.9071959592807630  0.7903774711952778
  0.3927061599005128  0.0394089416796248  0.2189012662954681
  0.3523710605798627  0.0805313911324319  0.7107891327437912
  0.1056260436977681  0.7285826192713500  0.2897205163895364
  0.0931693396043443  0.7391140880275202  0.7904786413242846
  0.9633172892989847  0.3481376607829176  0.2176522371247316
  0.9192886678338539  0.2712285261707663  0.7105806472356448
  0.5250625989595648  0.4173629891381765  0.0914595848105790
  0.5457781786913145  0.4180770707481969  0.6159810280020679
  0.4701091617591331  0.5700857370609640  0.3976028200218167
  0.4791133450924576  0.5693576525331849  0.8778714915365882
  0.5807669839720475  0.1066443165105184  0.0896935259289791
  0.5819854389005172  0.1276659720097655  0.6159775530175011
  0.4304412760364755  0.8999462781555110  0.3977543958399465
  0.4309218825263983  0.9097733292575612  0.8781856917076709
  0.8921350590908332  0.4753443005763316  0.0940510599047286
  0.8729482891286793  0.4551612762046062  0.6166766367996388
  0.0998567778442023  0.5299069326842201  0.3968691428483240
  0.0908738641726288  0.5218213136581724  0.8772379205262553
  0.9997253912539037  0.0008928335316369  0.0574509171838997
  0.0001498779515714  0.0004773459507206  0.6425059116046157
 
  0.00000000E+00  0.00000000E+00  0.00000000E+00
  0.00000000E+00  0.00000000E+00  0.00000000E+00
  0.00000000E+00  0.00000000E+00  0.00000000E+00
  0.00000000E+00  0.00000000E+00  0.00000000E+00
  0.00000000E+00  0.00000000E+00  0.00000000E+00
  0.00000000E+00  0.00000000E+00  0.00000000E+00
  0.00000000E+00  0.00000000E+00  0.00000000E+00
  0.00000000E+00  0.00000000E+00  0.00000000E+00
  0.00000000E+00  0.00000000E+00  0.00000000E+00
  0.00000000E+00  0.00000000E+00  0.00000000E+00
  0.00000000E+00  0.00000000E+00  0.00000000E+00
  0.00000000E+00  0.00000000E+00  0.00000000E+00
  0.00000000E+00  0.00000000E+00  0.00000000E+00
  0.00000000E+00  0.00000000E+00  0.00000000E+00
  0.00000000E+00  0.00000000E+00  0.00000000E+00
  0.00000000E+00  0.00000000E+00  0.00000000E+00
  0.00000000E+00  0.00000000E+00  0.00000000E+00
  0.00000000E+00  0.00000000E+00  0.00000000E+00
  0.00000000E+00  0.00000000E+00  0.00000000E+00
  0.00000000E+00  0.00000000E+00  0.00000000E+00
  0.00000000E+00  0.00000000E+00  0.00000000E+00
  0.00000000E+00  0.00000000E+00  0.00000000E+00
  0.00000000E+00  0.00000000E+00  0.00000000E+00
  0.00000000E+00  0.00000000E+00  0.00000000E+00
  0.00000000E+00  0.00000000E+00  0.00000000E+00
  0.00000000E+00  0.00000000E+00  0.00000000E+00
  0.00000000E+00  0.00000000E+00  0.00000000E+00
  0.00000000E+00  0.00000000E+00  0.00000000E+00
  0.00000000E+00  0.00000000E+00  0.00000000E+00
  0.00000000E+00  0.00000000E+00  0.00000000E+00
  0.00000000E+00  0.00000000E+00  0.00000000E+00
  0.00000000E+00  0.00000000E+00  0.00000000E+00
  0.00000000E+00  0.00000000E+00  0.00000000E+00
  0.00000000E+00  0.00000000E+00  0.00000000E+00
  0.00000000E+00  0.00000000E+00  0.00000000E+00
  0.00000000E+00  0.00000000E+00  0.00000000E+00
  0.00000000E+00  0.00000000E+00  0.00000000E+00
  0.00000000E+00  0.00000000E+00  0.00000000E+00
  0.00000000E+00  0.00000000E+00  0.00000000E+00
  0.00000000E+00  0.00000000E+00  0.00000000E+00
  0.00000000E+00  0.00000000E+00  0.00000000E+00
  0.00000000E+00  0.00000000E+00  0.00000000E+00
  0.00000000E+00  0.00000000E+00  0.00000000E+00
  0.00000000E+00  0.00000000E+00  0.00000000E+00
  0.00000000E+00  0.00000000E+00  0.00000000E+00
  0.00000000E+00  0.00000000E+00  0.00000000E+00
  0.00000000E+00  0.00000000E+00  0.00000000E+00
  0.00000000E+00  0.00000000E+00  0.00000000E+00
  0.00000000E+00  0.00000000E+00  0.00000000E+00
  0.00000000E+00  0.00000000E+00  0.00000000E+00
  0.00000000E+00  0.00000000E+00  0.00000000E+00
  0.00000000E+00  0.00000000E+00  0.00000000E+00
  0.00000000E+00  0.00000000E+00  0.00000000E+00
  0.00000000E+00  0.00000000E+00  0.00000000E+00
  0.00000000E+00  0.00000000E+00  0.00000000E+00
  0.00000000E+00  0.00000000E+00  0.00000000E+00
  0.00000000E+00  0.00000000E+00  0.00000000E+00
  0.00000000E+00  0.00000000E+00  0.00000000E+00
  0.00000000E+00  0.00000000E+00  0.00000000E+00
  0.00000000E+00  0.00000000E+00  0.00000000E+00
  0.00000000E+00  0.00000000E+00  0.00000000E+00
  0.00000000E+00  0.00000000E+00  0.00000000E+00
  0.00000000E+00  0.00000000E+00  0.00000000E+00
  0.00000000E+00  0.00000000E+00  0.00000000E+00
  0.00000000E+00  0.00000000E+00  0.00000000E+00
  0.00000000E+00  0.00000000E+00  0.00000000E+00
  0.00000000E+00  0.00000000E+00  0.00000000E+00
  0.00000000E+00  0.00000000E+00  0.00000000E+00
  0.00000000E+00  0.00000000E+00  0.00000000E+00
  0.00000000E+00  0.00000000E+00  0.00000000E+00
  0.00000000E+00  0.00000000E+00  0.00000000E+00
  0.00000000E+00  0.00000000E+00  0.00000000E+00
  0.00000000E+00  0.00000000E+00  0.00000000E+00
  0.00000000E+00  0.00000000E+00  0.00000000E+00
  0.00000000E+00  0.00000000E+00  0.00000000E+00
  0.00000000E+00  0.00000000E+00  0.00000000E+00
  0.00000000E+00  0.00000000E+00  0.00000000E+00
  0.00000000E+00  0.00000000E+00  0.00000000E+00
  0.00000000E+00  0.00000000E+00  0.00000000E+00
  0.00000000E+00  0.00000000E+00  0.00000000E+00
  0.00000000E+00  0.00000000E+00  0.00000000E+00
  0.00000000E+00  0.00000000E+00  0.00000000E+00
