supercell of icsd_181358.cif            
   1.00000000000000     
    10.1638947038541616   -0.0216114105934483   -0.0029037995604134
    -5.1006957231861998    8.7751294897882488   -0.0030084281922688
    -0.0029205349505049   -0.0053634762636005   10.5221120699217963
   N    Ga   Sc
    36    22    14
Direct
  0.2165612720997458  0.1230695151318741  0.4397166734617315
  0.1104890788945312  0.2238255920504031  0.1920745302404754
  0.8904558120001909  0.1099983137922180  0.9421185010110733
  0.7829776574884946  0.2348251715532967  0.6806652664731274
  0.5700522353318433  0.1190966446390718  0.4376058571270534
  0.4318025306286728  0.2189994846198005  0.1961480593882783
  0.2023465428805125  0.1028380302489538  0.9458380947313145
  0.1185740313507040  0.2396186573531978  0.6805826544103155
  0.8893341949595239  0.1096068074793948  0.4426044214094631
  0.8015425904504525  0.2325665234316361  0.1888968861903351
  0.5650232098777295  0.1069249389378939  0.9626159487537223
  0.4523370993347271  0.2331913234470591  0.7056961739488798
  0.2256499292431755  0.4466476926063407  0.4361670092502195
  0.1125118795183297  0.5539715830469589  0.1880157488481160
  0.9016199580256909  0.4330675218325126  0.9356139669674945
  0.7761167989047451  0.5473973731080477  0.7107731689092347
  0.5521339034493025  0.4538620820480759  0.4449971986793884
  0.4332160079992207  0.5629986112491210  0.1836177401187626
  0.2209115502666279  0.4432882448470750  0.9383797054078187
  0.1066311185185640  0.5420838389667963  0.6851108435714579
  0.8993999062462379  0.4380193622321968  0.4359406655427662
  0.7835326988650380  0.5422396917805514  0.1914925325597352
  0.5458998118788045  0.4545783952078750  0.9441421315773582
  0.4426612253897844  0.5562226780764874  0.6909610291497756
  0.2144592710659978  0.7589792135240216  0.4370287180037380
  0.1261418137436365  0.8959903303523262  0.2014301440030764
  0.8920219050195257  0.7891205552074965  0.9652793578343548
  0.7620488417944529  0.8814852478715167  0.6834999334615048
  0.5604223534736477  0.7664575408936614  0.4337150881605325
  0.4359772035549057  0.8739813207295128  0.1952781036918552
  0.2203375755431694  0.7778464459075565  0.9516265508375312
  0.1073721868991626  0.8866398562702074  0.6836949650038946
  0.8765929104606442  0.7783658336709038  0.4356424748521022
  0.7652689582710011  0.9001603114264825  0.1889495320997412
  0.5540405589844681  0.7787178931055223  0.9391671809766606
  0.4492656295772761  0.8817565979548192  0.6902886572948930
  0.2200848500376651  0.1169228159397022  0.2511595726563201
  0.1057375392736120  0.2210064843587460  0.0029115251307488
  0.7851153298384688  0.2249371501812050  0.4936436214344155
  0.1119256089911715  0.2309435323241473  0.4942157724667311
  0.8920434994084445  0.1150643303840440  0.2519763023570931
  0.7922105167374411  0.2220301543604890  0.0034353215807101
  0.2209865077534374  0.4473997414135198  0.2477331769286337
  0.1138846244068148  0.5516458676173741  0.0006934155941352
  0.8944329421158486  0.4397647767328792  0.7485998878165745
  0.4378787923274103  0.5606129442665093  0.9975675433632460
  0.2229845110186659  0.4462501777677161  0.7482601343751725
  0.1114758990075444  0.5455561835746607  0.4968297769912340
  0.8994117025540831  0.4435592831654418  0.2490357152033837
  0.5525335898953401  0.4499662947304586  0.7543186263762038
  0.4426774695898743  0.5557037437605032  0.5003962008672147
  0.2211424459646381  0.7689451155358853  0.2481131579400468
  0.1144451760535787  0.8923742636832586  0.0101488481689671
  0.7725703037331968  0.8844810390317051  0.4948303352674515
  0.5503340479108658  0.7745014618383195  0.2474152247033459
  0.4423237124922608  0.8811861509355623  0.0054666670565311
  0.7730920435015562  0.8964756054162208  0.0029559666423324
  0.5520668612619843  0.7735092131297350  0.7491657429252498
  0.8897835493361015  0.1156780830014057  0.7380787104958486
  0.5631486168960436  0.1135842460409364  0.2330166510854994
  0.4350982369890843  0.2199366682535100  0.9947229846770753
  0.2179077816665469  0.1148693648124492  0.7441544330808227
  0.5625953062736002  0.1110181800952716  0.7540477008392514
  0.4471683404834010  0.2270453054105346  0.4975760271836194
  0.7802427247270813  0.5526781593036105  0.5009399950562354
  0.5512894124809762  0.4504130481253696  0.2441703166039062
  0.7810791835389139  0.5480550908396751  0.9888756836142250
  0.8855285715862493  0.7819094316401163  0.7561337511398065
  0.2197120085128503  0.7718804575212062  0.7467483196478000
  0.1070732613667218  0.8876288461735840  0.4817278635403710
  0.8852158791251270  0.7801074645035655  0.2311111682127773
  0.4490689011528843  0.8839200995297958  0.4884483450292620
 
  0.00000000E+00  0.00000000E+00  0.00000000E+00
  0.00000000E+00  0.00000000E+00  0.00000000E+00
  0.00000000E+00  0.00000000E+00  0.00000000E+00
  0.00000000E+00  0.00000000E+00  0.00000000E+00
  0.00000000E+00  0.00000000E+00  0.00000000E+00
  0.00000000E+00  0.00000000E+00  0.00000000E+00
  0.00000000E+00  0.00000000E+00  0.00000000E+00
  0.00000000E+00  0.00000000E+00  0.00000000E+00
  0.00000000E+00  0.00000000E+00  0.00000000E+00
  0.00000000E+00  0.00000000E+00  0.00000000E+00
  0.00000000E+00  0.00000000E+00  0.00000000E+00
  0.00000000E+00  0.00000000E+00  0.00000000E+00
  0.00000000E+00  0.00000000E+00  0.00000000E+00
  0.00000000E+00  0.00000000E+00  0.00000000E+00
  0.00000000E+00  0.00000000E+00  0.00000000E+00
  0.00000000E+00  0.00000000E+00  0.00000000E+00
  0.00000000E+00  0.00000000E+00  0.00000000E+00
  0.00000000E+00  0.00000000E+00  0.00000000E+00
  0.00000000E+00  0.00000000E+00  0.00000000E+00
  0.00000000E+00  0.00000000E+00  0.00000000E+00
  0.00000000E+00  0.00000000E+00  0.00000000E+00
  0.00000000E+00  0.00000000E+00  0.00000000E+00
  0.00000000E+00  0.00000000E+00  0.00000000E+00
  0.00000000E+00  0.00000000E+00  0.00000000E+00
  0.00000000E+00  0.00000000E+00  0.00000000E+00
  0.00000000E+00  0.00000000E+00  0.00000000E+00
  0.00000000E+00  0.00000000E+00  0.00000000E+00
  0.00000000E+00  0.00000000E+00  0.00000000E+00
  0.00000000E+00  0.00000000E+00  0.00000000E+00
  0.00000000E+00  0.00000000E+00  0.00000000E+00
  0.00000000E+00  0.00000000E+00  0.00000000E+00
  0.00000000E+00  0.00000000E+00  0.00000000E+00
  0.00000000E+00  0.00000000E+00  0.00000000E+00
  0.00000000E+00  0.00000000E+00  0.00000000E+00
  0.00000000E+00  0.00000000E+00  0.00000000E+00
  0.00000000E+00  0.00000000E+00  0.00000000E+00
  0.00000000E+00  0.00000000E+00  0.00000000E+00
  0.00000000E+00  0.00000000E+00  0.00000000E+00
  0.00000000E+00  0.00000000E+00  0.00000000E+00
  0.00000000E+00  0.00000000E+00  0.00000000E+00
  0.00000000E+00  0.00000000E+00  0.00000000E+00
  0.00000000E+00  0.00000000E+00  0.00000000E+00
  0.00000000E+00  0.00000000E+00  0.00000000E+00
  0.00000000E+00  0.00000000E+00  0.00000000E+00
  0.00000000E+00  0.00000000E+00  0.00000000E+00
  0.00000000E+00  0.00000000E+00  0.00000000E+00
  0.00000000E+00  0.00000000E+00  0.00000000E+00
  0.00000000E+00  0.00000000E+00  0.00000000E+00
  0.00000000E+00  0.00000000E+00  0.00000000E+00
  0.00000000E+00  0.00000000E+00  0.00000000E+00
  0.00000000E+00  0.00000000E+00  0.00000000E+00
  0.00000000E+00  0.00000000E+00  0.00000000E+00
  0.00000000E+00  0.00000000E+00  0.00000000E+00
  0.00000000E+00  0.00000000E+00  0.00000000E+00
  0.00000000E+00  0.00000000E+00  0.00000000E+00
  0.00000000E+00  0.00000000E+00  0.00000000E+00
  0.00000000E+00  0.00000000E+00  0.00000000E+00
  0.00000000E+00  0.00000000E+00  0.00000000E+00
  0.00000000E+00  0.00000000E+00  0.00000000E+00
  0.00000000E+00  0.00000000E+00  0.00000000E+00
  0.00000000E+00  0.00000000E+00  0.00000000E+00
  0.00000000E+00  0.00000000E+00  0.00000000E+00
  0.00000000E+00  0.00000000E+00  0.00000000E+00
  0.00000000E+00  0.00000000E+00  0.00000000E+00
  0.00000000E+00  0.00000000E+00  0.00000000E+00
  0.00000000E+00  0.00000000E+00  0.00000000E+00
  0.00000000E+00  0.00000000E+00  0.00000000E+00
  0.00000000E+00  0.00000000E+00  0.00000000E+00
  0.00000000E+00  0.00000000E+00  0.00000000E+00
  0.00000000E+00  0.00000000E+00  0.00000000E+00
  0.00000000E+00  0.00000000E+00  0.00000000E+00
  0.00000000E+00  0.00000000E+00  0.00000000E+00
