Ta   Zn   N                             
   1.00000000000000     
    -0.0053890154499142   -0.0000856664887823   -5.5410773198470498
    -5.8588221102908404    0.0430583345704018    0.0008992482552481
     0.0741161927959692    9.9665026388000637    0.1012841944988525
   Ta   Zn   N 
     4     8    12
Direct
  0.8862965548687004  0.3328569280143021  0.0019763207336840
  0.3859230456225908  0.6715936656823216  0.0035305501019879
  0.0273475907621215  0.8290857508990740  0.5000073996115901
  0.5280427738350498  0.1686919993595170  0.4999041659708778
  0.0389737263799350  0.8457901565027495  0.8189476732643943
  0.8966066373117404  0.8376562834634754  0.1685079915151472
  0.5395097333695049  0.1542779480016739  0.8181425185012131
  0.4446328275446315  0.1645099180255896  0.1722635554580591
  0.0451147460835938  0.3398584932904018  0.6727155644686311
  0.0312921022498665  0.3382847965824882  0.3311318043385399
  0.5462440790166468  0.6587306064177915  0.6737814019538155
  0.5289219009449873  0.6594916027071118  0.3360561625983804
  0.9811974841542748  0.1654001911399201  0.1588807268004934
  0.9292316435207065  0.1659211979904387  0.8350775008676508
  0.0235935535975393  0.6501306283848610  0.0056698275793314
  0.4293224015454810  0.8339600069295467  0.8357764166894623
  0.5067531828518573  0.8346072950399737  0.1591376511212590
  0.5205053108586736  0.3543240222410027  0.0022957201694801
  0.9103710833733292  0.6619935635599035  0.3454232981108234
  0.9173008470086795  0.6662186173662250  0.6592599803683249
  0.4172452873871631  0.3329958295450844  0.6580319426943486
  0.4098262467517336  0.3353407631457408  0.3439900657634362
  0.8913866932338624  0.1485794906047404  0.4994539534952565
  0.3919681620039385  0.8497003545086758  0.5000377967419688
 
             NaN             NaN             NaN
             NaN             NaN             NaN
             NaN             NaN             NaN
             NaN             NaN             NaN
             NaN             NaN             NaN
             NaN             NaN             NaN
             NaN             NaN             NaN
             NaN             NaN             NaN
             NaN             NaN             NaN
             NaN             NaN             NaN
             NaN             NaN             NaN
             NaN             NaN             NaN
             NaN             NaN             NaN
             NaN             NaN             NaN
             NaN             NaN             NaN
             NaN             NaN             NaN
             NaN             NaN             NaN
             NaN             NaN             NaN
             NaN             NaN             NaN
             NaN             NaN             NaN
             NaN             NaN             NaN
             NaN             NaN             NaN
             NaN             NaN             NaN
             NaN             NaN             NaN
