Ta   Zn   N                             
   1.00000000000000     
    -0.0498529696634880   -0.0000262435501687   -5.4821999514987905
    -5.8260529966175660    0.0440935221934102    0.0002696121013516
     0.0752769666181278    9.9453932910092036   -0.0007780178257020
   Ta   Zn   N 
     4     8    12
Direct
  0.0282917648784964  0.3226328100719917  0.0000007708151885
  0.5208298082042599  0.6682291488295015  0.0000009983280073
  0.0240857446079773  0.8310799445359779  0.4999990702220997
  0.5231716215249269  0.1714033459783611  0.4999990057753892
  0.0278781698469259  0.8366920186503629  0.8264754523812748
  0.0278783165074253  0.8366921853284013  0.1735245581747777
  0.5377815510572349  0.1630967870443189  0.8254426666148974
  0.5377812944369827  0.1630967275661458  0.1745573795138825
  0.0346589922493465  0.3392727463500971  0.6716617579025798
  0.0346590796865279  0.3392727804787716  0.3283380660787895
  0.5343591737067726  0.6621315955524658  0.6706479817787013
  0.5343592897523785  0.6621315762854336  0.3293517007662376
  0.9118962482502829  0.1693548073442391  0.1619997432891574
  0.9118960006410661  0.1693543738580491  0.8380000072722559
  0.9054192623174738  0.6491642903634069  0.9999999913041007
  0.4148458806186946  0.8325007166049145  0.8395705920558829
  0.4148464508539271  0.8325001940262032  0.1604288351774761
  0.3960124505515200  0.3411723388771432  0.9999999872694799
  0.9100179961621587  0.6694085784879532  0.3413859938280940
  0.9100177030381768  0.6694081007912529  0.6586146350769105
  0.4101502658727615  0.3339362987904335  0.6591650210564396
  0.4101506027918326  0.3339358094995505  0.3408356523202445
  0.8900113238946589  0.1540631528591799  0.5000001046370702
  0.3907737599817899  0.8494698334150228  0.5000000275226856
 
             NaN             NaN             NaN
             NaN             NaN             NaN
             NaN             NaN             NaN
             NaN             NaN             NaN
             NaN             NaN             NaN
             NaN             NaN             NaN
             NaN             NaN             NaN
             NaN             NaN             NaN
             NaN             NaN             NaN
             NaN             NaN             NaN
             NaN             NaN             NaN
             NaN             NaN             NaN
             NaN             NaN             NaN
             NaN             NaN             NaN
             NaN             NaN             NaN
             NaN             NaN             NaN
             NaN             NaN             NaN
             NaN             NaN             NaN
             NaN             NaN             NaN
             NaN             NaN             NaN
             NaN             NaN             NaN
             NaN             NaN             NaN
             NaN             NaN             NaN
             NaN             NaN             NaN
