Ta   Zn   N
1.0
  9.945393291009204 0.0752769666181278 -0.000778017825702
  -0.0440935221934102 5.826052996617566 -0.0002696121013516
  2.62435501687e-05 0.049852969663488 5.4821999514987905
 Ta  Zn  N 
4 8 12 
direct
    0.0000007708151885  -0.3226328100719916  -0.0282917648784964
    0.0000009983280073  -0.6682291488295017  -0.5208298082042599
    0.4999990702220997  -0.8310799445359776  -0.0240857446079773
    0.4999990057753892  -0.1714033459783611  -0.5231716215249269
    0.8264754523812747  -0.8366920186503629  -0.0278781698469259
    0.1735245581747777  -0.8366921853284015  -0.0278783165074253
    0.8254426666148978  -0.1630967870443189  -0.5377815510572349
    0.1745573795138825  -0.1630967275661458  -0.5377812944369827
    0.6716617579025800  -0.3392727463500971  -0.0346589922493465
    0.3283380660787896  -0.3392727804787716  -0.0346590796865279
    0.6706479817787013  -0.6621315955524658  -0.5343591737067727
    0.3293517007662377  -0.6621315762854336  -0.5343592897523785
    0.1619997432891574  -0.1693548073442391  -0.9118962482502829
    0.8380000072722561  -0.1693543738580491  -0.9118960006410661
    0.9999999913041010  -0.6491642903634068  -0.9054192623174738
    0.8395705920558831  -0.8325007166049148  -0.4148458806186946
    0.1604288351774761  -0.8325001940262032  -0.4148464508539271
    0.9999999872694799  -0.3411723388771432  -0.3960124505515199
    0.3413859938280940  -0.6694085784879532  -0.9100179961621587
    0.6586146350769109  -0.6694081007912528  -0.9100177030381765
    0.6591650210564398  -0.3339362987904335  -0.4101502658727614
    0.3408356523202444  -0.3339358094995505  -0.4101506027918326
    0.5000001046370702  -0.1540631528591799  -0.8900113238946590
    0.5000000275226856  -0.8494698334150228  -0.3907737599817899
