Ta   Zn   N                             
   1.00000000000000     
    -0.0000338106662484   -0.0000041721729693   -5.4603312146837197
    -5.8016020332138725    0.0118664467095801    0.0000357472441900
     0.0203194366822037    9.9335135646330688   -0.0000090425060522
   Ta   Zn   N 
     4     8    12
Direct
  0.0017020225280293  0.3293799453581233  0.9999999766606320
  0.5017020166928018  0.6706200724083449  0.9999999971540903
  0.0017020110290309  0.8293799524888864  0.5000000082021314
  0.5017020156500582  0.1706200758905918  0.5000000223609020
  0.0120756383570509  0.8382610902911634  0.8274432899363108
  0.0120755993930882  0.8382612664993012  0.1725567601944318
  0.5120757095088569  0.1617388146826083  0.8274432515835551
  0.5120755727502502  0.1617388684162023  0.1725567324566523
  0.0120755928171024  0.3382612333494525  0.6725567381637481
  0.0120756499079774  0.3382611426864464  0.3274432637000723
  0.5120755744496144  0.6617389020986089  0.6725566951838156
  0.5120756903239988  0.6617387821040187  0.3274432228529605
  0.8880511467535941  0.1690548006087281  0.1600880929033059
  0.8880512908345175  0.1690547851857746  0.8399118755681906
  0.8698829572970812  0.6536697475457102  0.9999999626932506
  0.3880512494061996  0.8309452188378946  0.8399119121609999
  0.3880511623459078  0.8309452615558593  0.1600881423440064
  0.3698829518093419  0.3463302903522324  0.9999999718693952
  0.8880511950075831  0.6690547390704275  0.3399118681478950
  0.8880511948322279  0.6690548116119398  0.6600880970376273
  0.3880512273164918  0.3309452430295669  0.6600881389622831
  0.3880511642172874  0.3309452717879229  0.3399119109922674
  0.8698829514967362  0.1536697727091776  0.5000000285390920
  0.3698829664833572  0.8463302258755876  0.5000000341849309
 
             NaN             NaN             NaN
             NaN             NaN             NaN
             NaN             NaN             NaN
             NaN             NaN             NaN
             NaN             NaN             NaN
             NaN             NaN             NaN
             NaN             NaN             NaN
             NaN             NaN             NaN
             NaN             NaN             NaN
             NaN             NaN             NaN
             NaN             NaN             NaN
             NaN             NaN             NaN
             NaN             NaN             NaN
             NaN             NaN             NaN
             NaN             NaN             NaN
             NaN             NaN             NaN
             NaN             NaN             NaN
             NaN             NaN             NaN
             NaN             NaN             NaN
             NaN             NaN             NaN
             NaN             NaN             NaN
             NaN             NaN             NaN
             NaN             NaN             NaN
             NaN             NaN             NaN
