Ta   Zn   N
1.0
  -9.921597287286307 -0.0926119445493972 0.0002321549762939
  0.0543852104874145 -5.826437413558676 0.001259040343189
  -0.0001196224537044 -0.0012087252682987 -5.57472153033177
 Ta  Zn  N 
4 8 12 
direct
   -0.0000000225200850   0.3314245310396684   0.9230501768815074
   -0.9999999954462961   0.6685756588775791   0.4230501295053988
   -0.5000000116644936   0.8314242123228244   0.0441401559077015
   -0.4999999837135354   0.1685758690135987   0.5441400936490288
   -0.8341457649664843   0.8433178242809765   0.9172397066381348
   -0.1658542423077751   0.8433176269119168   0.9172399917323741
   -0.8341457683557442   0.1566824531374325   0.4172397945925331
   -0.1658542115569584   0.1566824762499697   0.4172399711395894
   -0.6658534385935536   0.3433176591990387   0.0499535522655696
   -0.3341465858092671   0.3433176382397615   0.0499537882794783
   -0.6658534409327340   0.6566823374263356   0.5499536329824952
   -0.3341465575138085   0.6566825276229518   0.5499537576307725
   -0.1567920110036691   0.1668842680114317   0.0377671892423871
   -0.8432079673400822   0.1668843563939703   0.0377671078004726
   -0.9999999840865613   0.6519653689618226   0.0597487167201213
   -0.8432079930139862   0.8331157555411023   0.5377671047542366
   -0.1567919963051422   0.8331157867283410   0.5377672267241030
   -0.0000000016403802   0.3480347743020348   0.5597487578238729
   -0.3432083629129979   0.6668834188718566   0.9294219586696151
   -0.6567916288378327   0.6668834769917703   0.9294218781001725
   -0.6567916389959603   0.3331166645762566   0.4294218560791866
   -0.3432083602707476   0.3331167785500398   0.4294219736600002
   -0.4999999819934127   0.1519651163081801   0.9074414557736642
   -0.5000000014296521   0.8480350518910654   0.4074414798238332
