Ta   Zn   N
1.0
  -9.923181743656446 -0.0777417185146837 0.0002218384559006
  0.0456564849743523 -5.827849695750079 0.0012230611343949
  -0.0001162268572122 -0.0011746823782764 -5.5713571092833
 Ta  Zn  N 
4 8 12 
direct
   -0.0000000104371596   0.3313838500332956   0.9136685788167047
   -0.9999999821266686   0.6686168235882596   0.4136684856422224
   -0.5000000017313955   0.8313838128076139   0.0347715396732171
   -0.4999999744638279   0.1686166923738999   0.5347714632148750
   -0.8341166125157524   0.8433107427858539   0.9079348214184652
   -0.1658833801034574   0.8433105410567809   0.9079347310221924
   -0.8341166216258409   0.1566900148178312   0.4079349207599954
   -0.1658833472565997   0.1566900442924505   0.4079347217561213
   -0.6658839230903917   0.3433103398984217   0.0404993632601986
   -0.3341160871199865   0.3433103049193859   0.0404992127975876
   -0.6658839286875624   0.6566900916597858   0.5404994704810888
   -0.3341160510104836   0.6566902979107773   0.5404992083526654
   -0.1568044465938648   0.1668723909931647   0.0282784988723921
   -0.8431955434553603   0.1668725211392176   0.0282785959123384
   -0.9999999980876801   0.6519539535163760   0.0502121157719840
   -0.8431955661958508   0.8331280385427725   0.5282785617177050
   -0.1568044352293427   0.8331281055976852   0.5282785145898260
   -0.0000000133925644   0.3480465877000928   0.5502121566981161
   -0.3431953030512434   0.6668735232626579   0.9201620025231291
   -0.6568046947765250   0.6668735674017515   0.9201621220571876
   -0.6568047277713780   0.3331270661084285   0.4201621184734818
   -0.3431952813352841   0.3331271774253187   0.4201620443444096
   -0.4999999898122481   0.1519541076505368   0.8982281544444493
   -0.5000000040528912   0.8480464964653371   0.3982282106011307
