Ta   Zn   N
1.0
  -10.015918104408051 -0.075806180179119 0.0005118043476362
  0.0444090793552832 -5.867644550374403 0.0005214665629102
  -5.00127256141e-05 -0.0337000103485322 -5.5057508988381
 Ta  Zn  N 
4 8 12 
direct
   -0.0000001478628282   0.3135314036292943   0.0143233505910474
   -0.0000001167825218   0.6801335346456142   0.3772506508589727
   -0.5000000052955736   0.8293202259950255   0.0295619807050130
   -0.5000000433221848   0.1690374134465464   0.5275737273877048
   -0.8151018930361295   0.8447578499292496   0.0263227270787442
   -0.1848981092374786   0.8447574705101611   0.0263229875416946
   -0.8261536734668085   0.1638455911665856   0.5316717081644928
   -0.1738465427166132   0.1638455408034939   0.5316721363090493
   -0.6696816966881721   0.3374798814594105   0.0408706843872679
   -0.3303182876885439   0.3374796463358797   0.0408707721947333
   -0.6713821108844681   0.6589619956426880   0.5397890605647180
   -0.3286178520451606   0.6589618042544253   0.5397893622543738
   -0.1656636299121335   0.1690943472770523   0.9120392915071983
   -0.8343362135638661   0.1690946843506729   0.9120392074286895
   -0.9999999430544314   0.6554743960038600   0.0040811803632980
   -0.8321404412078378   0.8376155995805675   0.4245620498504238
   -0.1678597486039224   0.8376159195619307   0.4245620443660507
   -0.0000000852041253   0.3352503949062062   0.3904502966268498
   -0.3432248423719297   0.6651400993041499   0.9146276411804027
   -0.6567749199973544   0.6651403904424485   0.9146275192930166
   -0.6578860486046131   0.3324730213995934   0.4153500114944734
   -0.3421138175712747   0.3324731535200771   0.4153500347890914
   -0.4999999039589809   0.1491961774490244   0.8939371654223491
   -0.4999999260846693   0.8493196199756032   0.3941271610740809
