Ta   Zn   N
1.0
  9.947275289654266 0.0716439804284594 0.1537143260433926
  -0.0443208000894472 5.846357056451174 -0.0009532170684392
  9.07598835206e-05 0.0038952506447044 5.5461239514197604
 Ta  Zn  N 
4 8 12 
direct
    0.0037744798091380  -0.3315303300301043  -0.8898737506911399
    0.0039786418655891  -0.6691119273334905  -0.3897372777403139
    0.4996022418812092  -0.8301313008174621  -0.0271877143029632
    0.4995427935104705  -0.1693354796690472  -0.5271862724098825
    0.8190362973667266  -0.8463100855912352  -0.0431561995856316
    0.1669635485155232  -0.8417485269305975  -0.8898583478626908
    0.8188648085871183  -0.1533883911080266  -0.5440460143863934
    0.1669902610249650  -0.1590096181838765  -0.3911035344712420
    0.6730745241200305  -0.3409995814786210  -0.0477912345484775
    0.3344975029388266  -0.3407286391703834  -0.0269578193584625
    0.6732851595455049  -0.6584237043682800  -0.5476214867176232
    0.3348553786412107  -0.6591318484165907  -0.5269690367826134
    0.1576658625018964  -0.1621491006850302  -0.0111162152771617
    0.8360102126158707  -0.1674895225911661  -0.9320464279903858
    0.0060133323139214  -0.6486379849352383  -0.0271351675595080
    0.8360780765583734  -0.8325972126011690  -0.4321592472920966
    0.1579086475917289  -0.8381810113843761  -0.5111152142286345
    0.0059277561722861  -0.3520249568132607  -0.5272687222900566
    0.3444559564779835  -0.6640490625969652  -0.9080579749605784
    0.6592899178368447  -0.6673073790188226  -0.9183634393236314
    0.6591450426479147  -0.3322866447062491  -0.4184832052160820
    0.3444302728008388  -0.3358633127006467  -0.4080767699014147
    0.4992334004193502  -0.1500534391637457  -0.8911170931392536
    0.4993758729527862  -0.8495111056120941  -0.3911112066228440
