Ta   Zn   N                             
   1.00000000000000     
    -0.0011915869497335   -0.0001179246554583   -5.5730393198075401
    -5.8271142473040385    0.0491083590443064    0.0012410507387919
     0.0836233646782727    9.9224156820591585   -0.0002289075879643
   Ta   Zn   N 
     4     8    12
Direct
  0.9183237919301964  0.3314135947795004  0.0000000254041326
  0.4183237383197100  0.6685867566128306  0.9999999976998427
  0.0395096301744567  0.8314137313478621  0.4999999973093244
  0.5395095597394908  0.1685864952041160  0.4999999685701427
  0.9125334089795886  0.8433339488475617  0.8341348041807839
  0.9125334314417524  0.8433337763138314  0.1658651902380410
  0.4125335021590208  0.1566664963319099  0.8341348153266066
  0.4125334100086559  0.1566665089099427  0.1658651465380584
  0.0453022998951306  0.3433340482411675  0.6658654130853696
  0.0453023237817768  0.3433340559451222  0.3341346037464072
  0.5453023832419858  0.6566660824119714  0.6658654214034357
  0.5453023111355921  0.6566662537876454  0.3341345776694635
  0.0329959534605696  0.1668941077222705  0.1567998487975036
  0.0329960026182935  0.1668942031797363  0.8432001302166324
  0.0549430154314800  0.6519684529001853  0.9999999887097252
  0.5329959986270350  0.8331060482332358  0.8432001626916875
  0.5329960008814331  0.8331060630841441  0.1567998323426996
  0.5549430768915481  0.3480318744626028 -0.0000000012380790
  0.9248378326740910  0.6668940886648933  0.3432000513493851
  0.9248378725684212  0.6668940877962688  0.6567999384746140
  0.4248378580681865  0.3331062077507591  0.6567999496456592
  0.4248378868460548  0.3331062828710993  0.3432000595314096
  0.9028901227934609  0.1519686716618325  0.5000000030535350
  0.4028901599881912  0.8480316523670713  0.5000000114414742
 
             NaN             NaN             NaN
             NaN             NaN             NaN
             NaN             NaN             NaN
             NaN             NaN             NaN
             NaN             NaN             NaN
             NaN             NaN             NaN
             NaN             NaN             NaN
             NaN             NaN             NaN
             NaN             NaN             NaN
             NaN             NaN             NaN
             NaN             NaN             NaN
             NaN             NaN             NaN
             NaN             NaN             NaN
             NaN             NaN             NaN
             NaN             NaN             NaN
             NaN             NaN             NaN
             NaN             NaN             NaN
             NaN             NaN             NaN
             NaN             NaN             NaN
             NaN             NaN             NaN
             NaN             NaN             NaN
             NaN             NaN             NaN
             NaN             NaN             NaN
             NaN             NaN             NaN
