Ta   Zn   N
1.0
  9.992569093853147 0.0874296645999532 0.0278763521779449
  -0.0353229570079201 5.8634614350754015 -0.0007733210244688
  7.37819010596e-05 0.0010343462739945 5.5293018461774
 Ta  Zn  N 
4 8 12 
direct
    0.0000082765343253  -0.3332302314799718  -0.8760636314266331
    0.0018293349009613  -0.6714821359503760  -0.3787971957997107
    0.5000152973297801  -0.8291945585272109  -0.0280202750984472
    0.5000023984530997  -0.1692235619503357  -0.5282760129771080
    0.8177134600969244  -0.8462686045145684  -0.0353064644994654
    0.1752870322530473  -0.8355756826329129  -0.9656243877494165
    0.8173453429243972  -0.1557277410937133  -0.5325953549099036
    0.1802280538015689  -0.1615354167693181  -0.5187993503833828
    0.6723642349277361  -0.3399996094738181  -0.0430367841048779
    0.3290263673554136  -0.3363637124155491  -0.0394362897502298
    0.6734762501039828  -0.6606857129932141  -0.5433489755292401
    0.3315429038045264  -0.6601771599161423  -0.5336531385736945
    0.1640303899625916  -0.1668456519906885  -0.9290258482931355
    0.8345634415104569  -0.1659483146633056  -0.9256066597673178
    0.0024523352762448  -0.6491384326681953  -0.0131148957975583
    0.8350608237809993  -0.8363766918768236  -0.4248631930237864
    0.1624630705676504  -0.8330237641319421  -0.4597675941070087
    0.9994804260931203  -0.3545001462074934  -0.5119403963014989
    0.3441894678320255  -0.6615887185349717  -0.9123667627122982
    0.6581160030879097  -0.6662373126866292  -0.9156294671476701
    0.6573204523999038  -0.3346364442308278  -0.4155020284505269
    0.3432090858611095  -0.3337921577460066  -0.4120362709308181
    0.4998267221305817  -0.1482785988144482  -0.8924337140599732
    0.5004488179297903  -0.8501697481341606  -0.3923629228828701
