Ta   Zn   N
1.0
  9.962294787585986 0.0726272952405581 0.1094056893631362
  -0.0438978799705846 5.855802505845891 -0.0009172378596451
  8.73642870284e-05 0.0057957376656979 5.54275953037129
 Ta  Zn  N 
4 8 12 
direct
    0.0024779575869058  -0.3322292770617566  -0.8874782274324399
    0.0036958959364959  -0.6710797275929530  -0.3868079886577814
    0.4999345699808098  -0.8292462663415554  -0.0273955687590453
    0.4998679481763769  -0.1688553464675759  -0.5279102462922780
    0.8190298544550424  -0.8457309782222394  -0.0394862590466962
    0.1682014217021380  -0.8390246371608310  -0.8950449925829057
    0.8183870611308370  -0.1542723900663590  -0.5401459915697785
    0.1707424793071657  -0.1632383734433911  -0.4266572573433317
    0.6727035532715345  -0.3400016711909871  -0.0455024573827896
    0.3318889376287824  -0.3388426038258107  -0.0301493746439456
    0.6737066237588519  -0.6586912606536757  -0.5463775580606599
    0.3358926870560032  -0.6594943789585804  -0.5287828739427960
    0.1581435499708020  -0.1643997231694558  -0.9934654139637915
    0.8352548135522129  -0.1662828313612422  -0.9296684797357374
    0.0056890908151759  -0.6495737091709469  -0.0243494058892400
    0.8358965231772129  -0.8337280485026810  -0.4297693303114388
    0.1588474514273876  -0.8355041548612766  -0.5082631036449080
    0.0032687120957132  -0.3538552891324430  -0.5224780821909716
    0.3452149984269975  -0.6624396309672645  -0.9100406461328808
    0.6592789718798721  -0.6664133592677699  -0.9173955166980970
    0.6583125108457184  -0.3329060790010872  -0.4173898399882617
    0.3442903317385381  -0.3356648368452366  -0.4098046861336005
    0.4993394925769261  -0.1488442994576536  -0.8914309195192193
    0.4999345524206213  -0.8496812366798400  -0.3918133943540035
