Ta   Zn   N
1.0
  9.97874222431815 0.0827765318462991 0.0734209662435156
  -0.0380287317454123 5.864660545098848 -0.000845279442057
  8.0573094044e-05 0.0018125953178643 5.53603068827434
 Ta  Zn  N 
4 8 12 
direct
    0.0005369926728284  -0.3347074465991776  -0.8815511698599215
    0.0031257397493200  -0.6729307416963489  -0.3838107448172954
    0.5001941487292939  -0.8287698215458329  -0.0273647517737704
    0.4998892552805729  -0.1684553534676850  -0.5282812130614443
    0.8186054101941247  -0.8461044300705959  -0.0378185474018548
    0.1695877273584479  -0.8335169989070169  -0.9029367378498495
    0.8175021341686695  -0.1548392595010440  -0.5365834439831836
    0.1768168657000939  -0.1665892051836141  -0.4972978934995519
    0.6725477557019991  -0.3397506605069902  -0.0440490306198500
    0.3294494598970479  -0.3368418399209382  -0.0357573564917874
    0.6738750593486044  -0.6592591288243723  -0.5454164210817110
    0.3358594087078376  -0.6590824843797896  -0.5291649185722280
    0.1617630698885021  -0.1678782094140509  -0.9447360988063728
    0.8348968369503701  -0.1656536670779210  -0.9281037794080905
    0.0053265491804250  -0.6508924070197595  -0.0209248861526127
    0.8354628523937359  -0.8350506093418159  -0.4277035734777672
    0.1598484240060299  -0.8322300756016157  -0.5015906830674618
    0.9993618145484581  -0.3557754005531825  -0.5153805651076321
    0.3457422975702935  -0.6608008556838073  -0.9116905356040936
    0.6591735496793127  -0.6659626842952696  -0.9167972963855446
    0.6573352724927696  -0.3335398993687661  -0.4165799399177555
    0.3430795740124790  -0.3336912080257093  -0.4102486952155557
    0.4997054176243580  -0.1480430578841241  -0.8915320657647817
    0.5003143730625919  -0.8496346645331933  -0.3922872663564913
