Ta   Zn   N
1.0
  9.936255203762574 0.0861846736812005 0.1496560497814099
  -0.0357113047558473 5.853665864064489 -0.0010071858816304
  9.58532782589e-05 0.0008148271620718 5.55117058299247
 Ta  Zn  N 
4 8 12 
direct
    0.0023852095511637  -0.3283023621574437  -0.8950395962490402
    0.0037101546922137  -0.6660827107137238  -0.3924232743416377
    0.4996323371112891  -0.8317216951118032  -0.0282732869745920
    0.4996163183866715  -0.1704334728110225  -0.5282246145551847
    0.8214932734659994  -0.8415040613121875  -0.0351034739625222
    0.1667394818800059  -0.8409657163545892  -0.8926012568622925
    0.8259025199126661  -0.1619065738908639  -0.4902322997208277
    0.1667100877444999  -0.1559643073125719  -0.3924199287755355
    0.6697452504832003  -0.3425200642461488  -0.0417819383422280
    0.3336670506241233  -0.3415136409052056  -0.0287913638619814
    0.6720376271846894  -0.6615612464313223  -0.5472402063123147
    0.3348115264679016  -0.6584281131324593  -0.5290567550275422
    0.1577677773000327  -0.1606838386964384  -0.0144875048412294
    0.8382825527947032  -0.1702043565716125  -0.9624603822894564
    0.0064155348283767  -0.6470522879205489  -0.0296412690564021
    0.8370926936682417  -0.8302597201765352  -0.4362374085006463
    0.1576368995333409  -0.8356791633151346  -0.5141410171968989
    0.0033988821080788  -0.3479736356230327  -0.5295120766623492
    0.3446124825728599  -0.6644033846389428  -0.9099837277689022
    0.6586695541169266  -0.6689418963637910  -0.9176312691315249
    0.6577743465369865  -0.3363078792562709  -0.4178552992222356
    0.3438292858517112  -0.3353578754473219  -0.4104700051830577
    0.4987774428987651  -0.1512844866181296  -0.8920370715199127
    0.4992916991758218  -0.8509476199013227  -0.3920555380305273
