Ta   Zn   N                             
   1.00000000000000     
    -0.0001184550811501   -0.0000126611641998   -5.4687422673048998
    -5.7979791131123735    0.0480801927082672    0.0001256952661752
     0.0823381094207745    9.9289655324480464   -0.0000218079786927
   Ta   Zn   N 
     4     8    12
Direct
  0.0127933614219764  0.3294881410871234  0.9999999680162273
  0.5127933642562812  0.6705119687396882 -0.0000000156197237
  0.0127933586528422  0.8294881199246750  0.5000000234160720
  0.5127933692341997  0.1705119368525600  0.5000000422281230
  0.0231974523159551  0.8382553183339906  0.8274979048464907
  0.0231975231366396  0.8382554559662166  0.1725020952115555
  0.5231974636793273  0.1617446767246194  0.8274978765757142
  0.5231975082007219  0.1617447547792948  0.1725020649919404
  0.0231974347842837  0.3382554253003001  0.6725021432732113
  0.0231975618118069  0.3382553090153315  0.3274979542272605
  0.5231973936615297  0.6617447740117032  0.6725021095541479
  0.5231975846676754  0.6617446380563714  0.3274979212682941
  0.8988088106882717  0.1691441756193544  0.1600788834036943
  0.8988088350520074  0.1691442034464768  0.8399211533367356
  0.8805605849852547  0.6537222328258814  1.0000000087645804
  0.3988088047859062  0.8308558465864837  0.8399211897801639
  0.3988088288646284  0.8308559477750271  0.1600789276970488
  0.3805605764401213  0.3462778883757954  1.0000000168075793
  0.8988088529126012  0.6691441061827336  0.3399210554031336
  0.8988087941378029  0.6691442433650199  0.6600787923244273
  0.3988088435384051  0.3308558485999682  0.6600788202336683
  0.3988088243034416  0.3308559106445860  0.3399210989364372
  0.8805605802141100  0.1537221866775070  0.4999999613510365
  0.3805605721992132  0.8462778651461114  0.4999999731761745
 
             NaN             NaN             NaN
             NaN             NaN             NaN
             NaN             NaN             NaN
             NaN             NaN             NaN
             NaN             NaN             NaN
             NaN             NaN             NaN
             NaN             NaN             NaN
             NaN             NaN             NaN
             NaN             NaN             NaN
             NaN             NaN             NaN
             NaN             NaN             NaN
             NaN             NaN             NaN
             NaN             NaN             NaN
             NaN             NaN             NaN
             NaN             NaN             NaN
             NaN             NaN             NaN
             NaN             NaN             NaN
             NaN             NaN             NaN
             NaN             NaN             NaN
             NaN             NaN             NaN
             NaN             NaN             NaN
             NaN             NaN             NaN
             NaN             NaN             NaN
             NaN             NaN             NaN
