Ta   Zn   N
1.0
  9.932628531272224 0.0365793954228571 -1.49888079404e-05
  -0.0213622829115331 5.800869298534275 -5.3736848587e-05
  5.8699712154e-06 5.08194868336e-05 5.46201342520796
 Ta  Zn  N 
4 8 12 
direct
    0.0000000298742222  -0.3294016285778784  -0.0038108287743495
    0.0000000450192646  -0.6705983958962282  -0.5038108234238227
    0.4999999370280765  -0.8294016291316686  -0.0038108180847689
    0.4999999508389099  -0.1705983998572056  -0.5038108095100381
    0.8274529835635636  -0.8382587578575756  -0.0142091019032174
    0.1725470465572425  -0.8382588457965444  -0.0142090335747577
    0.8274529501308013  -0.1617411539275968  -0.5142091256068370
    0.1725470137639896  -0.1617413005458913  -0.5142090020922007
    0.6725470286285378  -0.3382588855637756  -0.0142090944194822
    0.3274529665595881  -0.3382587077586092  -0.0142090194319054
    0.6725469983081415  -0.6617412631241221  -0.5142090678541017
    0.3274529341837440  -0.6617412003787703  -0.5142090554980696
    0.1600871205241103  -0.1690703020341466  -0.8900996426567782
    0.8399128067478078  -0.1690702131780578  -0.8900996904925892
    0.0000000044952151  -0.6536805588243961  -0.8719067287443213
    0.8399128485177026  -0.8309297897504493  -0.3900996694846943
    0.1600871611520965  -0.8309297611974060  -0.3900996738056228
    0.0000000105278570  -0.3463194695061011  -0.3719067348624099
    0.3399128594694124  -0.6690702742336235  -0.8900997058997905
    0.6600871694604484  -0.6690702477586628  -0.8900996287914983
    0.6600872100313154  -0.3309298166022364  -0.3900996669798819
    0.3399128966661251  -0.3309297283407202  -0.3900996667042412
    0.5000000046722776  -0.1536805482461819  -0.8719067141870911
    0.5000000163035849  -0.8463194858411303  -0.3719067189044991
