Ta   Zn   N
1.0
  -9.963368154834587 -0.0754067749968508 0.0007821146221827
  0.0442073317202049 -5.840628235846652 0.0003415705189397
  -3.30347431531e-05 -0.0518889702032296 -5.48892879359574
 Ta  Zn  N 
4 8 12 
direct
   -0.0000002245089565   0.3170902684210981   0.0296228623420373
   -0.0000003770560222   0.6692660898236122   0.4829956317768859
   -0.4999996852388344   0.8314958602199228   0.0240947570458453
   -0.4999997447864596   0.1716096902361970   0.5230539149734317
   -0.8253869394500950   0.8375083227884017   0.0227596142166300
   -0.1746132243347541   0.8375085451483670   0.0227598118954227
   -0.8247928585304637   0.1643973326118013   0.5390666947905359
   -0.1752073887233458   0.1643971810073638   0.5390666721021984
   -0.6715494787009886   0.3393774775603370   0.0346710556081065
   -0.3284503548415775   0.3393775568051184   0.0346710931061321
   -0.6697769156379388   0.6615415271536232   0.5345837802951461
   -0.3302227532007657   0.6615414289937963   0.5345838151354927
   -0.1634328126026215   0.1693048661778266   0.9113483535956897
   -0.8365673372120904   0.1693048972260222   0.9113484318922513
   -0.0000001315307679   0.6487524701962346   0.9420945777680290
   -0.8368498358128829   0.8363299935769305   0.4183419004742816
   -0.1631501660493876   0.8363301295328607   0.4183417971691117
   -0.0000001051303515   0.3330228238218944   0.3976578857716403
   -0.3417997977623106   0.6694535013653754   0.9100412364117580
   -0.6582001718951627   0.6694535637621802   0.9100412956329290
   -0.6588025656885178   0.3345370331577893   0.4103114865680335
   -0.3411973474709977   0.3345371105476483   0.4103114326887182
   -0.4999999056091683   0.1536207062237362   0.8895816261650855
   -0.4999998773871739   0.8502417852310203   0.3904230240081765
