Ta   Zn   N
1.0
  9.974151672032365 0.0788960277047285 0.0847759100977079
  -0.0402942108244943 5.863243056546361 -0.000863269046454
  8.22708922901e-05 0.0034231468316699 5.5377128987985795
 Ta  Zn  N 
4 8 12 
direct
    0.0010287541334903  -0.3341274748100188  -0.8834027658526987
    0.0032680454889578  -0.6725205271954777  -0.3845141996083927
    0.5001418025576883  -0.8288477584415636  -0.0273052189375994
    0.4998921360377462  -0.1684867002883272  -0.5282046728199906
    0.8187533331930976  -0.8459715021451101  -0.0382297569132367
    0.1691184410800548  -0.8348800561963198  -0.8998848528198049
    0.8177026037043333  -0.1545148191916090  -0.5378815346367484
    0.1751663840853555  -0.1662696341668795  -0.4800693152476844
    0.6726511625327943  -0.3397239654032068  -0.0444503100943558
    0.3299407121895572  -0.3373152018001714  -0.0339933992984031
    0.6738751396494835  -0.6589650212424866  -0.5458265168188742
    0.3361008346881176  -0.6592898940912757  -0.5290139284099764
    0.1606956647671117  -0.1671309316322952  -0.9565606237506468
    0.8349264846356996  -0.1656039848956252  -0.9285357106512436
    0.0055402293091773  -0.6508047705957030  -0.0220091343017581
    0.8355659681521693  -0.8345801385569936  -0.4283855480102788
    0.1596163792852706  -0.8330236008788423  -0.5037497981224635
    0.0003325860815641  -0.3552939527256360  -0.5169688969739721
    0.3457014491275929  -0.6611899898974445  -0.9111368831844524
    0.6592334955705439  -0.6659813164086885  -0.9170438327824346
    0.6575425312851916  -0.3332744571199629  -0.4168844629028871
    0.3433360001799297  -0.3343493116111422  -0.4099695195885036
    0.4996430060127097  -0.1481857909816359  -0.8914039701273242
    0.5002268451705107  -0.8496693091262071  -0.3921827624228750
