Ta   Zn   N
1.0
  -9.970296574587524 -0.076148054854983 -0.0933790995805365
  0.0418899561300639 -5.86127184582039 0.000881258650851
  -8.39686905362e-05 -0.0045981186078017 -5.53939510932282
 Ta  Zn  N 
4 8 12 
direct
   -0.0015018433557115   0.3334916549629642   0.8849576284978126
   -0.0033912828863873   0.6720643897233677   0.3851802676684749
   -0.5000763459573591   0.8289574532610406   0.0273125650842584
   -0.4999087921667831   0.1685701078657832   0.5281354554055344
   -0.8188601557788779   0.8458698732131658   0.0385773658326523
   -0.1688002639542448   0.8362824049494747   0.8981363628156224
   -0.8179200878031935   0.1543494210563114   0.5387896957560967
   -0.1737045044225641   0.1655127243682543   0.4624418816178423
   -0.6727030062046778   0.3397677893772765   0.0447799967808245
   -0.3304935674921616   0.3377862535079066   0.0325484579530923
   -0.6738377032059062   0.6588146018453241   0.5460736825576511
   -0.3361287083870055   0.6594254281062464   0.5289836594913692
   -0.1597291842548541   0.1663076815514848   0.9688108940609779
   -0.8349725084249580   0.1656947050609725   0.9288718376616566
   -0.0056295777114423   0.6505442469401486   0.0228420040242566
   -0.8356673455739856   0.8342319738790617   0.4288838195560506
   -0.1593878232354883   0.8337980348263628   0.5052925570035952
   -0.0013279064213764   0.3547933556625786   0.5186684360805810
   -0.3455846866612923   0.6615863170251941   0.9107230460487138
   -0.6592480901082222   0.6660758583560885   0.9171926463045071
   -0.6577780711108090   0.3331107521174193   0.4170868924068970
   -0.3436599820717119   0.3349023239282142   0.4098611927008661
   -0.4995557921321185   0.1483668406558060   0.8913704677090761
   -0.5001327595969773   0.8496959171621705   0.3920868012582226
