Ta   Zn   N
1.0
  -9.931224086184047 -0.079024616568239 -0.0815618158795582
  0.039929607464562 -5.849591031297384 0.0011151235080126
  -0.0001060400677356 -0.0018198608259421 -5.56126384613788
 Ta  Zn  N 
4 8 12 
direct
   -0.0003083983285188   0.3274888852867491   0.9020554515462763
   -0.0026759455190831   0.6653925627257484   0.4004577995419866
   -0.4998525209717511   0.8324416005433493   0.0287673055782649
   -0.4993810900081365   0.1704115980768264   0.5280869637266121
   -0.8275670657821573   0.8355199088451789   0.9893311683799291
   -0.1667278252228613   0.8426241161495032   0.8953272382893801
   -0.8322714170435296   0.1633703319889158   0.4127980830309006
   -0.1661334325277275   0.1563238223582357   0.3984603779326173
   -0.6644699715026041   0.3433274199613601   0.0361554136679850
   -0.3331840410286477   0.3433008002562352   0.0320781765060338
   -0.6706018076662987   0.6604702338441211   0.5409893883015395
   -0.3345802260745254   0.6584119144898181   0.5303710639223204
   -0.1571150263231854   0.1637357940636165   0.0182990291911293
   -0.8414696069808540   0.1712936031124763   0.0151982311920249
   -0.0049820755019056   0.6475206954561001   0.0343904948134413
   -0.8407681598849668   0.8286693014131770   0.4674291912563154
   -0.1577481450408222   0.8352257421990350   0.5182509359275791
   -0.0002371807454793   0.3456868672418542   0.5387558473152463
   -0.3446672045036334   0.6660234258431272   0.9121199805831948
   -0.6583140617876561   0.6684200436923969   0.9153047237998955
   -0.6556470155427312   0.3366282086560962   0.4167705491105227
   -0.3427878747235478   0.3350952341308299   0.4122410131108190
   -0.4989469902444439   0.1519905140434004   0.8924571614996822
   -0.4995629059353419   0.8506274845300359   0.3916049748828188
