Ta   Zn   N                             
   1.00000000000000     
    -0.0520479159668589   -0.0000364303396453   -5.4922932146442101
    -5.8452728432105703    0.0442403514360048    0.0003775497277338
     0.0754553497925465    9.9693074150361412   -0.0007829140568640
   Ta   Zn   N 
     4     8    12
Direct
  0.0310297961450598  0.3144972907964257  0.0000000262735667
  0.4584261391649253  0.6703461273905396  0.0000000278135541
  0.0242150334691368  0.8316383425850521  0.4999999645456636
  0.5230034553172757  0.1716827998010939  0.4999999631585502
  0.0214208765568893  0.8379375934442831  0.8248385220092486
  0.0214209294277420  0.8379376721407014  0.1751615165066658
  0.5393490190749447  0.1646204100665480  0.8246999156355967
  0.5393490057886449  0.1646205450920707  0.1753001189913908
  0.0347710800450677  0.3393579993288956  0.6714914680680563
  0.0347710625869131  0.3393579470718290  0.3285085724764175
  0.5346052966992232  0.6614649524029191  0.6696245430588345
  0.5346052666799339  0.6614649118106138  0.3303753661513329
  0.9113616394869463  0.1693090263250432  0.1637967237719131
  0.9113616923071379  0.1693090415223277  0.8362033195409460
  0.9612570315247844  0.6485178793239260  1.0000000253279944
  0.4205657368152906  0.8377670091441025  0.8356571257159726
  0.4205656986087074  0.8377671464160417  0.1643429340532721
  0.3988131114291125  0.3301015812506078  0.0000000325431024
  0.9101560694192633  0.6694758895155308  0.3418209213971668
  0.9101561293246621  0.6694759317622725  0.6581789798569824
  0.4104062000497914  0.3347034504274967  0.6586975261432937
  0.4104061222239925  0.3347035033363714  0.3413024699173969
  0.8895238211062986  0.1534656182615789  0.4999999742925846
  0.3902325381818608  0.8504774923728994  0.4999999619121082
 
             NaN             NaN             NaN
             NaN             NaN             NaN
             NaN             NaN             NaN
             NaN             NaN             NaN
             NaN             NaN             NaN
             NaN             NaN             NaN
             NaN             NaN             NaN
             NaN             NaN             NaN
             NaN             NaN             NaN
             NaN             NaN             NaN
             NaN             NaN             NaN
             NaN             NaN             NaN
             NaN             NaN             NaN
             NaN             NaN             NaN
             NaN             NaN             NaN
             NaN             NaN             NaN
             NaN             NaN             NaN
             NaN             NaN             NaN
             NaN             NaN             NaN
             NaN             NaN             NaN
             NaN             NaN             NaN
             NaN             NaN             NaN
             NaN             NaN             NaN
             NaN             NaN             NaN
