Ta   Zn   N
1.0
  -10.02060611638843 -0.0758420775037509 0.0005044331377205
  0.044438594029114 -5.871544152779536 0.0005754353761013
  -5.51061203524e-05 -0.0292102955513928 -5.5107975304108
 Ta  Zn  N 
4 8 12 
direct
    0.0000000454494278   0.3228750719200047   0.9698683882504038
    0.0000000726661449   0.6772099786588347   0.3740167439377227
   -0.5000000458261936   0.8288886149274703   0.0298226176674116
   -0.5000000481357897   0.1684499168753546   0.5282583240978280
   -0.8146225670510984   0.8437321494319882   0.0289828320130630
   -0.1853774278288080   0.8437318291478610   0.0289829459309243
   -0.8263616844123575   0.1631724838794720   0.5260367949740823
   -0.1736382292741620   0.1631725473977500   0.5260367332858824
   -0.6690709611549064   0.3378549893611602   0.0421100653458865
   -0.3309291631542733   0.3378546465218520   0.0421101763036618
   -0.6717409267694975   0.6589867893334108   0.5403508300485412
   -0.3282590431435001   0.6589868068780853   0.5403510327353752
   -0.1665036810874867   0.1663755621801424   0.9194052468042302
   -0.8334962592595691   0.1663758417715252   0.9194051545897921
   -0.9999999461489683   0.6600263654704177   0.0037301697286217
   -0.8322127793805486   0.8361439660870950   0.4258510664808309
   -0.1677872002277481   0.8361439563316690   0.4258510411196182
   -0.9999999756432177   0.3391737497855979   0.4199959405800547
   -0.3433834468956293   0.6642999147308419   0.9150684928693607
   -0.6566165999674680   0.6643000907893275   0.9150683881417419
   -0.6576924345185530   0.3321571238720424   0.4161192992521155
   -0.3423076219590889   0.3321571273519270   0.4161194175186836
   -0.5000000452744802   0.1486498545732304   0.8942248483560927
   -0.5000000301638269   0.8492807843124641   0.3940062014017953
