Ta   Zn   N                             
   1.00000000000000     
    -0.0012258148975052   -0.0001213202519505   -5.5764037408560103
    -5.8257025317047066    0.0623386803318481    0.0012770299475860
     0.1061595963984628    9.9207207370110826   -0.0002382263161798
   Ta   Zn   N 
     4     8    12
Direct
  0.9276976432066283  0.3314432197160800  0.0000000133371799
  0.4276975976708199  0.6685568909689604  0.9999999858744733
  0.0487682100820661  0.8314433040906455  0.5000000016934160
  0.5487681791107437  0.1685567307737477  0.4999999746026678
  0.9218487465135646  0.8433187075285608  0.8341598269955195
  0.9218486480872818  0.8433185166797003  0.1658401700034804
  0.4218488222923148  0.1566814909451265  0.8341598227148088
  0.4218486095383718  0.1566815152451113  0.1658401447893944
  0.0546123970215096  0.3433184000255337  0.6658406540573345
  0.0546122381548401  0.3433183767069280  0.3341593585754478
  0.5546124728649060  0.6566815435606986  0.6658406572802390
  0.5546122092181325  0.6566817430277597  0.3341593309911001
  0.0424690854026687  0.1668863215881563  0.1567848272452308
  0.0424691939357303  0.1668864277974328  0.8432151645906480
  0.0644740134566016  0.6519693575115162  0.9999999924248879
  0.5424691860024899  0.8331136504452226  0.8432151657687548
  0.5424691004806260  0.8331137088780640  0.1567848289792095
  0.5644740306952230  0.3480306877242199  0.0000000161021048
  0.9339973089278842  0.6668872654679695  0.3432149529676194
  0.9339974112287773  0.6668872996261521  0.6567850541032089
  0.4339974094762752  0.3331127954718497  0.6567850750497795
  0.4339973426211286  0.3331128748801739  0.3432149408044451
  0.9119919297669768  0.1519695113704770  0.4999999934211382
  0.4119919647629501  0.8480305375692815  0.5000000142900703
 
             NaN             NaN             NaN
             NaN             NaN             NaN
             NaN             NaN             NaN
             NaN             NaN             NaN
             NaN             NaN             NaN
             NaN             NaN             NaN
             NaN             NaN             NaN
             NaN             NaN             NaN
             NaN             NaN             NaN
             NaN             NaN             NaN
             NaN             NaN             NaN
             NaN             NaN             NaN
             NaN             NaN             NaN
             NaN             NaN             NaN
             NaN             NaN             NaN
             NaN             NaN             NaN
             NaN             NaN             NaN
             NaN             NaN             NaN
             NaN             NaN             NaN
             NaN             NaN             NaN
             NaN             NaN             NaN
             NaN             NaN             NaN
             NaN             NaN             NaN
             NaN             NaN             NaN
