Ta   Zn   N
1.0
  9.927135946795318 0.0734443110420566 0.0598116068000801
  -0.0431043226906796 5.84044739942056 -0.0011690923212038
  0.0001111334624739 -0.0007681393223235 5.56631047771059
 Ta  Zn  N 
4 8 12 
direct
    0.9998529319949012  -0.3293002715874327  -0.9044876980630181
    0.0010990168533477  -0.6675302075257452  -0.4047935920165932
    0.4998280569555288  -0.8320145732065192  -0.0286734514041528
    0.4996370042888947  -0.1698387700645630  -0.5282981162361767
    0.8315486893513516  -0.8388616590385286  -0.9347912677537153
    0.1663744900359682  -0.8428144311713432  -0.8973255973756804
    0.8330216948158855  -0.1591519375258454  -0.4076226913011905
    0.1659418892092722  -0.1567108518462519  -0.3994479490978486
    0.6647717987911442  -0.3430714266934691  -0.0359544298980298
    0.3333897090533008  -0.3433795121378939  -0.0325548348788281
    0.6684296546142100  -0.6587146549622368  -0.5372835190783616
    0.3345727095113751  -0.6578761326488257  -0.5313396272125220
    0.1567853365312740  -0.1650873882645604  -0.0193956950049945
    0.8421669338194633  -0.1689738527184579  -0.0194014969872904
    0.0022161393761341  -0.6497311806759510  -0.0395729106541257
    0.8431184374778548  -0.8311878218062541  -0.5058369914049643
    0.1576597049517849  -0.8343426386355932  -0.5193460358904473
    0.0002947049223488  -0.3469629922495243  -0.5411351488690214
    0.3439332253485554  -0.6663151866955312  -0.9126423836488248
    0.6571447620636544  -0.6670865291585617  -0.9154488042330299
    0.6561448564769926  -0.3350627142270137  -0.4158008131044479
    0.3429067904778269  -0.3343425915969233  -0.4124626449038706
    0.4992541848138272  -0.1519354580202028  -0.8922139500683847
    0.4999072671555113  -0.8497073264509752  -0.3918709141054307
