Ta   Zn   N                             
   1.00000000000000     
    -0.0522469006572595   -0.0000398259361375   -5.4956576356926803
    -5.8488300609262565    0.0442668816065271    0.0004135289365279
     0.0754939815584163    9.9743261159078145   -0.0007836930232672
   Ta   Zn   N 
     4     8    12
Direct
  0.0325499530400415  0.3114347885076679  0.0000000213013840
  0.4317079822826692  0.6718222491458233  0.9999999984448554
  0.0243938315020086  0.8317520761008121  0.5000000127625545
  0.5229473164040913  0.1717293611371819  0.5000000112985505
  0.0204116697518068  0.8383785505144170  0.8241488150576342
  0.0204116415807470  0.8383786277982790  0.1758512167572168
  0.5395400224687129  0.1646624489393925  0.8246187860859117
  0.5395400357181699  0.1646625879999717  0.1753812243146300
  0.0349372718903644  0.3393404051964696  0.6713949767418436
  0.0349372144083223  0.3393403306613121  0.3286051317655224
  0.5346271463972238  0.6614849923946070  0.6695931190088044
  0.5346270737537991  0.6614849238943521  0.3304068401308161
  0.9114630900593992  0.1693242925482930  0.1640624627552060
  0.9114631338525017  0.1693242714021090  0.8359374800254554
  0.9807369320298934  0.6483114390548608  0.9999999573090098
  0.4230983664763265  0.8387194342143219  0.8346967803012085
  0.4230983265078418  0.8387195423231022  0.1653032259226879
  0.4000359975322795  0.3285328951084409  0.9999999871866908
  0.9103548720039566  0.6694499813673183  0.3418089221531137
  0.9103549244567302  0.6694499828928201  0.6581909941078576
  0.4105082043795069  0.3348311195842726  0.6586166556403976
  0.4105081444159359  0.3348311429143552  0.3413833826628542
  0.8894948793598808  0.1533279214266798  0.5000000033738891
  0.3900247211614032  0.8507067964622986  0.4999999940535148
 
             NaN             NaN             NaN
             NaN             NaN             NaN
             NaN             NaN             NaN
             NaN             NaN             NaN
             NaN             NaN             NaN
             NaN             NaN             NaN
             NaN             NaN             NaN
             NaN             NaN             NaN
             NaN             NaN             NaN
             NaN             NaN             NaN
             NaN             NaN             NaN
             NaN             NaN             NaN
             NaN             NaN             NaN
             NaN             NaN             NaN
             NaN             NaN             NaN
             NaN             NaN             NaN
             NaN             NaN             NaN
             NaN             NaN             NaN
             NaN             NaN             NaN
             NaN             NaN             NaN
             NaN             NaN             NaN
             NaN             NaN             NaN
             NaN             NaN             NaN
             NaN             NaN             NaN
