Ta   Zn   N
1.0
  9.956032547838426 0.0753419097184139 -0.0007808678197176
  -0.044168861463497 5.834817076823531 -0.0003055913101456
  2.96391466609e-05 0.0514049019656701 5.48556437254726
 Ta  Zn  N 
4 8 12 
direct
    0.0000005991359134  -0.3195930341868316  -0.0287194175920902
    0.0000007606809203  -0.6685508566603228  -0.5042571219056898
    0.4999992171575571  -0.8313361052286097  -0.0240467078655810
    0.4999992496856810  -0.1715228917136263  -0.5230957055708707
    0.8259001726362557  -0.8370805465006202  -0.0246037670147476
    0.1741000422119426  -0.8370807325446439  -0.0246039570528520
    0.8249817511783467  -0.1639744755520447  -0.5386182280339958
    0.1750184488620142  -0.1639744108247206  -0.5386181416323639
    0.6715921335010080  -0.3393729029429399  -0.0346297347194548
    0.3284076911412344  -0.3393728879816840  -0.0346298207357021
    0.6700622910811538  -0.6617335434278045  -0.5345147832712701
    0.3299373048769104  -0.6617335193285302  -0.5345147474225335
    0.1629001008794058  -0.1693396373967221  -0.9114933964965241
    0.8371000512320105  -0.1693396660002462  -0.9114933832503350
    1.0000001925482409  -0.6489580755325278  -0.9233209218554521
    0.8381857278862977  -0.8345659548240579  -0.4165482211673452
    0.1618144260960825  -0.8345660416058125  -0.4165479241255159
    1.0000001717600275  -0.3366820714441662  -0.3967845002616312
    0.3416994110065369  -0.6694149067477830  -0.9099921098807962
    0.6583005734860655  -0.6694148136216361  -0.9099920086037241
    0.6589345322912269  -0.3343167853759736  -0.4102221515489584
    0.3410655020124965  -0.3343167923548225  -0.4102221704032610
    0.4999998307247547  -0.1538054628100522  -0.8897102484684711
    0.4999998170895705  -0.8499540469830459  -0.3905935825543839
