Ta   Zn   N
1.0
  -9.930813929456638 -0.0588514768300381 1.74291217708e-05
  0.034367622235625 -5.799456406990493 8.97160573811e-05
  -9.2655677076e-06 -8.47479500032e-05 -5.46537784625643
 Ta  Zn  N 
4 8 12 
direct
   -0.9999999851775170   0.3294443917994392   0.0082664606099981
   -0.9999999954692821   0.6705556551668193   0.5082664591980890
   -0.4999999830461209   0.8294443901879066   0.0082664692749716
   -0.5000000038462786   0.1705556552950175   0.5082664640306541
   -0.8274769707512001   0.8382564015763146   0.0186582698835610
   -0.1725230812468541   0.8382564942419853   0.0186584298567487
   -0.8274769299880401   0.1617435616017689   0.5186582970475602
   -0.1725230532791266   0.1617436723479750   0.5186584117165270
   -0.6725230820700342   0.3382565190403912   0.0186584138199081
   -0.3274769623803682   0.3382563482129363   0.0186582922394040
   -0.6725230508790175   0.6617436650029976   0.5186583808534432
   -0.3274769350510536   0.6617435763607491   0.5186583101353149
   -0.1600825466683570   0.1691079420564145   0.8944153946404797
   -0.8399173744701509   0.1691078717451528   0.8944153124589479
   -0.9999999915731596   0.6537007282966270   0.8761991818833571
   -0.8399174247082608   0.8308921728005934   0.3944153135982811
   -0.1600825870576070   0.8308922065758533   0.3944154091526541
    0.0000000012856228   0.3462993586948452   0.3761991654585571
   -0.3399174018009384   0.6691078648851047   0.8944153866508344
   -0.6600825815015872   0.6691078777434984   0.8944153212679938
   -0.6600826146234803   0.3308921665402036   0.3944153861639729
   -0.3399174385545665   0.3308920969569574   0.3944153622477006
   -0.4999999835906445   0.1537007019371869   0.8761991853446554
   -0.5000000035052439   0.8462993382252314   0.3761991911604909
