Ta   Zn   N
1.0
  9.92392858117788 0.0740400979360252 -0.0002062314825475
  -0.0434844738511758 5.82853470161104 -0.0012050715299978
  0.0001145290589661 0.0011571356016555 5.56967489875906
 Ta  Zn  N 
4 8 12 
direct
    0.9999998915957931  -0.3313658496650412  -0.9089475866680871
    0.0000000041320987  -0.6686349143587119  -0.4089475132316819
    0.5000000006637230  -0.8313655206394243  -0.0300755109500346
    0.4999999318293912  -0.1686353658978564  -0.5300754389192980
    0.8341032125595269  -0.8433116282044909  -0.9032493230973584
    0.1658969700116633  -0.8433106341955731  -0.9032494991203417
    0.8341030355312391  -0.1566893554892878  -0.4032498848828927
    0.1658968856571755  -0.1566898914564989  -0.4032495662949200
    0.6658958128789995  -0.3433112460966559  -0.0357754898209831
    0.3341038400397169  -0.3433106652173336  -0.0357743678826344
    0.6658960165265132  -0.6566896253725504  -0.5357755440479871
    0.3341041440491844  -0.6566901603319849  -0.5357744003620118
    0.1568117847872210  -0.1668705707282113  -0.0235020733195506
    0.8431878799137787  -0.1668713311590404  -0.0235024919436184
    0.0000000706695202  -0.6519499822999678  -0.0454126601830445
    0.8431881728584714  -0.8331295001339699  -0.5235028546244380
    0.1568119808028496  -0.8331297919071600  -0.5235020242439510
    0.0000000893828764  -0.3480506757673257  -0.5454126701424250
    0.3431886350139807  -0.6668700118958125  -0.9155187381597641
    0.6568115870323875  -0.6668706111290945  -0.9155196507960921
    0.6568115620735357  -0.3331304854899975  -0.4155196541988609
    0.3431885254820685  -0.3331308514613479  -0.4155186849260177
    0.4999998551849388  -0.1519498381167517  -0.8936103759640518
    0.5000000442735142  -0.8480511760877937  -0.3936104387157038
