Ta   Zn   N
1.0
  -9.984739138047376 -0.087453232530012 -0.0540322862587562
  0.0352954126519628 -5.865041215408321 0.0008272898376599
  -7.88752957979e-05 -0.0003799921948772 -5.53434847775011
 Ta  Zn  N 
4 8 12 
direct
   -0.0001643349729235   0.3347314050704240   0.8793224961590810
   -0.0028033873763400   0.6728652832212002   0.3826110219843720
   -0.5001867740627867   0.8288745636349715   0.0276608799534483
   -0.4999755259355084   0.1686274729640748   0.5284259730748319
   -0.8183511857411668   0.8462470084810878   0.0369956607264351
   -0.1709376187894797   0.8330903258990652   0.9144793500724800
   -0.8174423460428317   0.1553419994056086   0.5346255720133974
   -0.1785657835992681   0.1654711657229270   0.5099318279794260
   -0.6724434474478955   0.3399231321047372   0.0435099965882104
   -0.3291703583716576   0.3364504778319674   0.0377802025154741
   -0.6737444871232411   0.6598700499313120   0.5446283317373579
   -0.3347620579605937   0.6590570410570460   0.5301925367707263
   -0.1627475369169405   0.1683015986776132   0.9362136731776732
   -0.8347828205129670   0.1658390531173881   0.9271788003070162
   -0.0046477625458710   0.6505899948235621   0.0187901449497780
   -0.8352998211788576   0.8356289060085554   0.4265380539083055
   -0.1602113000458577   0.8315883517392116   0.4946865292039270
   -0.9989684532194685   0.3556553476233776   0.5138392032942457
   -0.3455012719664783   0.6606414499414669   0.9124252365570917
   -0.6588765222143025   0.6661147635020982   0.9163424454311784
   -0.6572620266841284   0.3339949116107627   0.4160929793995166
   -0.3430894347584137   0.3332972314806532   0.4109689931153728
   -0.4997312325972746   0.1480512594432294   0.8919037073218682
   -0.5003344988539156   0.8497473161102989   0.3924639980353927
