Ta   Zn   N                             
   1.00000000000000     
    -0.0045981186078017   -0.0000839686905362   -5.5393951093228200
    -5.8612718458203901    0.0418899561300639    0.0008812586508510
     0.0761480548549830    9.9702965745875236    0.0933790995805365
   Ta   Zn   N 
     4     8    12
Direct
  0.8849576284978126  0.3334916549629642  0.0015018433557115
  0.3851802676684748  0.6720643897233677  0.0033912828863873
  0.0273125650842584  0.8289574532610406  0.5000763459573592
  0.5281354554055344  0.1685701078657832  0.4999087921667832
  0.0385773658326523  0.8458698732131656  0.8188601557788782
  0.8981363628156223  0.8362824049494747  0.1688002639542448
  0.5387896957560966  0.1543494210563114  0.8179200878031934
  0.4624418816178423  0.1655127243682543  0.1737045044225641
  0.0447799967808245  0.3397677893772765  0.6727030062046779
  0.0325484579530923  0.3377862535079066  0.3304935674921617
  0.5460736825576510  0.6588146018453241  0.6738377032059063
  0.5289836594913693  0.6594254281062462  0.3361287083870056
  0.9688108940609779  0.1663076815514848  0.1597291842548541
  0.9288718376616565  0.1656947050609725  0.8349725084249581
  0.0228420040242566  0.6505442469401485  0.0056295777114423
  0.4288838195560506  0.8342319738790617  0.8356673455739858
  0.5052925570035952  0.8337980348263628  0.1593878232354883
  0.5186684360805810  0.3547933556625786  0.0013279064213764
  0.9107230460487137  0.6615863170251940  0.3455846866612923
  0.9171926463045071  0.6660758583560884  0.6592480901082222
  0.4170868924068969  0.3331107521174192  0.6577780711108091
  0.4098611927008662  0.3349023239282141  0.3436599820717119
  0.8913704677090759  0.1483668406558060  0.4995557921321186
  0.3920868012582226  0.8496959171621705  0.5001327595969773
 
             NaN             NaN             NaN
             NaN             NaN             NaN
             NaN             NaN             NaN
             NaN             NaN             NaN
             NaN             NaN             NaN
             NaN             NaN             NaN
             NaN             NaN             NaN
             NaN             NaN             NaN
             NaN             NaN             NaN
             NaN             NaN             NaN
             NaN             NaN             NaN
             NaN             NaN             NaN
             NaN             NaN             NaN
             NaN             NaN             NaN
             NaN             NaN             NaN
             NaN             NaN             NaN
             NaN             NaN             NaN
             NaN             NaN             NaN
             NaN             NaN             NaN
             NaN             NaN             NaN
             NaN             NaN             NaN
             NaN             NaN             NaN
             NaN             NaN             NaN
             NaN             NaN             NaN
