Ta   Zn   N
1.0
  9.936093635874848 0.0878384406417351 0.1431531136655382
  -0.0347569746740536 5.854528478355398 -0.0010251754860274
  9.7551076505e-05 0.0016740598626247 5.5528527935167
 Ta  Zn  N 
4 8 12 
direct
    0.0019833830311059  -0.3277014126458334  -0.8966143713032075
    0.0037081725921212  -0.6654277836521667  -0.3932051888050699
    0.4996413183013099  -0.8319521877523404  -0.0283945701577400
    0.4995043465215033  -0.1705032800562129  -0.5282840756899403
    0.8219245452558860  -0.8401186024447075  -0.0333185757094248
    0.1667296533878034  -0.8410338737892556  -0.8929447978515257
    0.8272617426682479  -0.1631934017428009  -0.4720179055357311
    0.1666345492026500  -0.1557817708594648  -0.3930363312351906
    0.6687746121411237  -0.3429561059891210  -0.0404527677199404
    0.3335387326846809  -0.3417378721076582  -0.0290766662176953
    0.6719000490262085  -0.6617527422473228  -0.5470728686106832
    0.3347877992929417  -0.6583998024422557  -0.5292133825052729
    0.1578524739265376  -0.1607828015900803  -0.0150103690094495
    0.8392285754012732  -0.1711621165150612  -0.9752079859738297
    0.0066122038318836  -0.6468659212642719  -0.0302039461162831
    0.8373622265515472  -0.8293896661573131  -0.4376345116293621
    0.1575843840296619  -0.8353940741498967  -0.5146170583547993
    0.0026282699988810  -0.3471849795932853  -0.5308849556533380
    0.3447014979425177  -0.6645993843142182  -0.9101594628854992
    0.6586474792049297  -0.6692498177904408  -0.9173676924571896
    0.6572319692072622  -0.3369167311928524  -0.4180027144072035
    0.3436401797381043  -0.3353453540072989  -0.4107814761966773
    0.4988017310148837  -0.1514755815400951  -0.8921591147152497
    0.4993200939372244  -0.8510748450644526  -0.3920397756485034
