Ta   Zn   N
1.0
  -9.974326115907814 -0.0754939815584163 0.0007836930232672
  0.0442668816065271 -5.8488300609262565 0.0004135289365279
  -3.98259361375e-05 -0.0522469006572595 -5.49565763569268
 Ta  Zn  N 
4 8 12 
direct
   -0.0000000213013840   0.3114347885076679   0.0325499530400415
   -0.9999999984448553   0.6718222491458233   0.4317079822826693
   -0.5000000127625543   0.8317520761008121   0.0243938315020086
   -0.5000000112985507   0.1717293611371819   0.5229473164040913
   -0.8241488150576342   0.8383785505144171   0.0204116697518068
   -0.1758512167572168   0.8383786277982791   0.0204116415807470
   -0.8246187860859117   0.1646624489393925   0.5395400224687128
   -0.1753812243146300   0.1646625879999717   0.5395400357181699
   -0.6713949767418435   0.3393404051964696   0.0349372718903644
   -0.3286051317655224   0.3393403306613121   0.0349372144083223
   -0.6695931190088044   0.6614849923946070   0.5346271463972238
   -0.3304068401308161   0.6614849238943520   0.5346270737537990
   -0.1640624627552060   0.1693242925482930   0.9114630900593990
   -0.8359374800254554   0.1693242714021090   0.9114631338525016
   -0.9999999573090096   0.6483114390548608   0.9807369320298935
   -0.8346967803012085   0.8387194342143217   0.4230983664763265
   -0.1653032259226879   0.8387195423231022   0.4230983265078417
   -0.9999999871866909   0.3285328951084409   0.4000359975322794
   -0.3418089221531137   0.6694499813673183   0.9103548720039565
   -0.6581909941078576   0.6694499828928201   0.9103549244567303
   -0.6586166556403976   0.3348311195842726   0.4105082043795070
   -0.3413833826628542   0.3348311429143552   0.4105081444159359
   -0.5000000033738891   0.1533279214266798   0.8894948793598808
   -0.4999999940535148   0.8507067964622985   0.3900247211614032
