Ta   Zn   N
1.0
  9.966502638800064 0.0741161927959692 0.1012841944988525
  -0.0430583345704018 5.85882211029084 -0.0008992482552481
  8.56664887823e-05 0.0053890154499142 5.54107731984705
 Ta  Zn  N 
4 8 12 
direct
    0.0019763207336840  -0.3328569280143021  -0.8862965548687005
    0.0035305501019879  -0.6715936656823214  -0.3859230456225908
    0.5000073996115901  -0.8290857508990739  -0.0273475907621215
    0.4999041659708778  -0.1686919993595170  -0.5280427738350498
    0.8189476732643944  -0.8457901565027491  -0.0389737263799350
    0.1685079915151472  -0.8376562834634750  -0.8966066373117405
    0.8181425185012132  -0.1542779480016739  -0.5395097333695049
    0.1722635554580591  -0.1645099180255896  -0.4446328275446315
    0.6727155644686313  -0.3398584932904018  -0.0451147460835938
    0.3311318043385399  -0.3382847965824882  -0.0312921022498665
    0.6737814019538154  -0.6587306064177915  -0.5462440790166468
    0.3360561625983804  -0.6594916027071118  -0.5289219009449873
    0.1588807268004934  -0.1654001911399201  -0.9811974841542748
    0.8350775008676509  -0.1659211979904386  -0.9292316435207069
    0.0056698275793314  -0.6501306283848606  -0.0235935535975393
    0.8357764166894622  -0.8339600069295465  -0.4293224015454811
    0.1591376511212590  -0.8346072950399734  -0.5067531828518573
    0.0022957201694801  -0.3543240222410027  -0.5205053108586735
    0.3454232981108233  -0.6619935635599035  -0.9103710833733292
    0.6592599803683248  -0.6662186173662250  -0.9173008470086793
    0.6580319426943488  -0.3329958295450842  -0.4172452873871631
    0.3439900657634363  -0.3353407631457408  -0.4098262467517336
    0.4994539534952565  -0.1485794906047404  -0.8913866932338624
    0.5000377967419688  -0.8497003545086754  -0.3919681620039385
