Ta   Zn   N 
   1.00000000000000     
  -0.0012435320976366  -0.0001247158484427  -5.5797681619045001
  -5.8241588133073101   0.0899433070275793   0.0013130091563801
   0.1531635502108830   9.9178112496127095  -0.0002080085296430
Ta   Zn   N 
4  8  12  
Direct
  0.9364476990260756  0.3315964035199741  0.9999984769087789  
  0.4364471948219233  0.6684103615463073  0.9999985095478864  
  0.0579426477121885  0.8315852131044323  0.5000016057547683  
  0.5579418736069073  0.1684083526096032  0.5000014740229233  
  0.9305494932711512  0.8435067349495995  0.8341952641807637  
  0.9305503719456284  0.8435066811758389  0.1658047749964453  
  0.4305504236447533  0.1564994392018093  0.8341968185351192  
  0.4305507148424539  0.1564991956925255  0.1658028345116804  
  0.0638293911557355  0.3435013513300476  0.6658036918232284  
  0.0638296263490830  0.3435018900071540  0.3341965614013489  
  0.5638304725451846  0.6564926599473395  0.6658044981517932  
  0.5638302671381012  0.6564927349891434  0.3341955927958935  
  0.0513795152246246  0.1670416076272190  0.1567884643548467  
  0.0513791054802084  0.1670428399614252  0.8432130417115999  
  0.0733890051532740  0.6520464800224630  0.0000003507710602  
  0.5513784301445597  0.8329624568416065  0.8432115756816287  
  0.5513794081719610  0.8329634700463302  0.1567897924032522  
  0.5733893358513100  0.3479620158376662  0.0000000635399147  
  0.9430082314719356  0.6670396781525056  0.3432118451390664  
  0.9430088958696032  0.6670406545069838  0.6567868085652933  
  0.4430092154743690  0.3329535508626122  0.6567854818247483  
  0.4430088316613805  0.3329549882450138  0.3432129298728057  
  0.9210049649713810  0.1520381910794342  0.4999998319681538  
  0.4210046925343320  0.8479532023483429  0.4999997115772814  
