Ta   Zn   N
1.0
  -9.925543255048103 -0.0828160498440659 5.97873766272e-05
  0.0483528388610559 -5.795226082148969 0.0001976536837634
  -1.94523571842e-05 -0.0007280854224028 -5.47547110940185
 Ta  Zn  N 
4 8 12 
direct
   -1.0000000433975345   0.3295693462498863   0.0224496723766425
   -1.0000000549458099   0.6704154759028227   0.5224388051591079
   -0.4999998632725441   0.8295764236064963   0.0224405029010647
   -0.4999998745492698   0.1704212315795519   0.5224299340805088
   -0.8275392711271423   0.8382466754468572   0.0329131248153232
   -0.1724608316547369   0.8382468758730522   0.0329131482285881
   -0.8275389248190665   0.1617430937215539   0.5329178240105110
   -0.1724611034068161   0.1617431200155028   0.5329178126217127
   -0.6724607321117970   0.3382514327739000   0.0329068093012432
   -0.3275390964670208   0.3382514170195379   0.0329068315934098
   -0.6724589782768162   0.6617466618639761   0.5329122506530155
   -0.3275407793844717   0.6617464224177961   0.5329123479794566
   -0.1600740216871627   0.1692175570743005   0.9082085245125141
   -0.8399260065820930   0.1692175919194908   0.9082085564346332
   -0.0000000755002042   0.6537639220282843   0.8898767406023181
   -0.8399273564987391   0.8307941152167972   0.4082079423005304
   -0.1600727621308457   0.8307942507813219   0.4082079848524589
   -0.0000000910061102   0.3462339617281872   0.3898825009476191
   -0.3399264775250596   0.6692214944036466   0.9082032060063949
   -0.6600735089315237   0.6692215425143653   0.9082031404084668
   -0.6600738694312639   0.3307980120910839   0.4082019368328484
   -0.3399261697813874   0.3307980142393219   0.4082019147457999
   -0.4999999665786057   0.1537714727295865   0.8898668930455578
   -0.4999999757830195   0.8462397805414821   0.3898726390976004
