Ta   Zn   N
1.0
  -9.919765944015362 -0.1268279755226797 0.0002478848096942
  0.0744719862469796 -5.8248487569252605 0.0012950195519831
  -0.0001230180501966 -0.0012429067027531 -5.57808595138024
 Ta  Zn  N 
4 8 12 
direct
   -0.0000000291473347   0.3314733691223257   0.9321924337963173
   -1.0000000021071682   0.6685266873917087   0.4321924273246067
   -0.4999999961613695   0.8314735307807868   0.0533467446941927
   -0.4999999678338721   0.1685264966681191   0.5533467244804964
   -0.8341779110512216   0.8433423067424214   0.9262864877606272
   -0.1658220783509206   0.8433421301667222   0.9262864949972059
   -0.8341779060695571   0.1566578394225786   0.4262865592183683
   -0.1658220489410602   0.1566578628706165   0.4262864512816432
   -0.6658224208893228   0.3433424362542447   0.0592545268262058
   -0.3341776153903854   0.3433424198731795   0.0592545697706590
   -0.6658224143568363   0.6566574909386261   0.5592545910457232
   -0.3341775952960723   0.6566576699491634   0.5592545266345285
   -0.1567801214333153   0.1669083932485172   0.0470257981271915
   -0.8432198528318816   0.1669084648920567   0.0470258959482543
   -0.9999999855430199   0.6519844559433305   0.0690440289909549
   -0.8432198662840034   0.8330915764463307   0.5470258803082906
   -0.1567801211031055   0.8330915745834985   0.5470258476733846
    0.0000000048357901   0.3480156509549119   0.5690440618726998
   -0.3432197216694887   0.6669084577232132   0.9385138054818627
   -0.6567802853108453   0.6669084580009781   0.9385138026631142
   -0.6567802887220660   0.3330915618233240   0.4385137957246785
   -0.3432197402270993   0.3330916263351165   0.4385138556460662
   -0.5000000024373553   0.1519845461219125   0.9164949979501943
   -0.5000000165100369   0.8480154890770187   0.4164950139694796
