Ta   Zn   N                             
   1.00000000000000     
    -0.0526887799561706   -0.0000415237343836   -5.4973398462169198
    -5.8503844667067550    0.0442786591787306    0.0004315185409250
     0.0755142082748626    9.9770095342122609   -0.0007845420094188
   Ta   Zn   N 
     4     8    12
Direct
  0.0330574017373649  0.3095732762571709  0.0000000752527819
  0.4180776668987305  0.6728639771006891 -0.0000000062399427
  0.0245065052900984  0.8317849317556166  0.4999999892292463
  0.5229133416777749  0.1717392461565189  0.4999999898944071
  0.0200343556446410  0.8386956139840754  0.8235814079992217
  0.0200342833492192  0.8386956608838246  0.1764186186928868
  0.5395954314331106  0.1646090495814260  0.8245686028877967
  0.5395954818792614  0.1646092119276046  0.1754314260771068
  0.0350775501392126  0.3393352970990948  0.6713094282532711
  0.0350774707729576  0.3393352090118278  0.3286907017899647
  0.5346561822140425  0.6615257982249503  0.6696466719145395
  0.5346560963180559  0.6615257034592221  0.3303532984779932
  0.9115164611871539  0.1692804547134239  0.1642110050282770
  0.9115166571241210  0.1692806026101316  0.8357890406245096
  0.9908243572889988  0.6480990506772790  0.9999999962883658
  0.4243395199228165  0.8389964252039555  0.8342966157519471
  0.4243394663169519  0.8389968135492887  0.1657036850173157
  0.4004400739830778  0.3284324771063435  1.0000000399442941
  0.9104928341240985  0.6693792911875535  0.3418138574639105
  0.9104930036320451  0.6693793886839930  0.6581858627649126
  0.4105700352817023  0.3348868740552631  0.6585813347616912
  0.4105699475045368  0.3348870449725134  0.3414184922144879
  0.8894803870342431  0.1532460554234678  0.4999999482049083
  0.3899082406794213  0.8508427079639266  0.4999999168677145
 
             NaN             NaN             NaN
             NaN             NaN             NaN
             NaN             NaN             NaN
             NaN             NaN             NaN
             NaN             NaN             NaN
             NaN             NaN             NaN
             NaN             NaN             NaN
             NaN             NaN             NaN
             NaN             NaN             NaN
             NaN             NaN             NaN
             NaN             NaN             NaN
             NaN             NaN             NaN
             NaN             NaN             NaN
             NaN             NaN             NaN
             NaN             NaN             NaN
             NaN             NaN             NaN
             NaN             NaN             NaN
             NaN             NaN             NaN
             NaN             NaN             NaN
             NaN             NaN             NaN
             NaN             NaN             NaN
             NaN             NaN             NaN
             NaN             NaN             NaN
             NaN             NaN             NaN
