Ta   Zn   N                             
   1.00000000000000     
    -0.0517044303857355   -0.0000313369449070   -5.4872465830715003
    -5.8379031672006558    0.0441876799760848    0.0003235809145427
     0.0753791432498755    9.9599338337750325   -0.0007813231728207
   Ta   Zn   N 
     4     8    12
Direct
  0.0291045750935464  0.3183303505450022 -0.0000003335812972
  0.4940963157930311  0.6688631623960268 -0.0000004494182527
  0.0240606955056395  0.8314195003319845  0.5000001492836449
  0.5230754449576017  0.1715678888789952  0.5000002947242779
  0.0235946620582407  0.8372924587853867  0.8256452359078182
  0.0235948231817547  0.8372927185772903  0.1743549611526450
  0.5388705637487399  0.1642167727540411  0.8248698476979350
  0.5388705095903192  0.1642166059433046  0.1751303846175992
  0.0346424121385843  0.3393802771722931  0.6715718462005011
  0.0346424402847016  0.3393803728796474  0.3284279904187533
  0.5345576573400348  0.6616201862912765  0.6698989833472807
  0.5345577201375087  0.6616200510433770  0.3301006425496865
  0.9113966279740066  0.1693189266689206  0.1631930869822816
  0.9113969455875148  0.1693193376771081  0.8368074688837204
  0.9326371447379359  0.6488624027142305  0.0000002216056432
  0.4173961313439927  0.8354811272055680  0.8375071192957408
  0.4173955615161010  0.8354818828485758  0.1624935535652693
  0.3971882232226035  0.3347788303706976  0.0000001996909345
  0.9100087233394103  0.6694347656552548  0.3417632714719163
  0.9100090046635586  0.6694352003921227  0.6582363311251758
  0.4102664331140757  0.3344352564401281  0.6588635746810613
  0.4102660880198193  0.3344357351092550  0.3411359530725565
  0.8896336574504523  0.1537078370255385  0.4999998393182190
  0.3905103906344052  0.8501085138831266  0.4999998265685113
 
             NaN             NaN             NaN
             NaN             NaN             NaN
             NaN             NaN             NaN
             NaN             NaN             NaN
             NaN             NaN             NaN
             NaN             NaN             NaN
             NaN             NaN             NaN
             NaN             NaN             NaN
             NaN             NaN             NaN
             NaN             NaN             NaN
             NaN             NaN             NaN
             NaN             NaN             NaN
             NaN             NaN             NaN
             NaN             NaN             NaN
             NaN             NaN             NaN
             NaN             NaN             NaN
             NaN             NaN             NaN
             NaN             NaN             NaN
             NaN             NaN             NaN
             NaN             NaN             NaN
             NaN             NaN             NaN
             NaN             NaN             NaN
             NaN             NaN             NaN
             NaN             NaN             NaN
