Ta   Zn   N
1.0
  9.935957293742923 0.0751990691537568 -0.0007701372336557
  -0.0440315872606042 5.817334430259127 -0.0002516224969545
  2.45457519226e-05 0.0467021462966984 5.48051774097456
 Ta  Zn  N 
4 8 12 
direct
    0.9999996908742215  -0.3249637208679236  -0.0279457969019022
   -0.0000003599166514  -0.6684524222540494  -0.5253031381083254
    0.4999998736304336  -0.8307371217624588  -0.0241626814009271
    0.4999999250499735  -0.1712733048666989  -0.5233443117691085
    0.8269209206223053  -0.8366397053629382  -0.0312911441350199
    0.1730787923664771  -0.8366398126728324  -0.0312910321366474
    0.8260548304914977  -0.1621719938116346  -0.5370521388358177
    0.1739448962128261  -0.1621720761672252  -0.5370516536431056
    0.6718273140249602  -0.3390336192301525  -0.0346965514612514
    0.3281724996232893  -0.3390336378474342  -0.0346967036704532
    0.6712792126214426  -0.6624153401159186  -0.5343609296426739
    0.3287204276317737  -0.6624152837162243  -0.5343612208496696
    0.1611999937431358  -0.1692178615973945  -0.9121255693035244
    0.8388003289466957  -0.1692179429018306  -0.9121257118690305
    0.0000001323395385  -0.6497716668760696  -0.8978846480946171
    0.8401061476984184  -0.8314637766739854  -0.4134311182952602
    0.1598945876230439  -0.8314643312736031  -0.4134305935889853
    0.0000001219847831  -0.3438942560091269  -0.3953226236036754
    0.3409280719728372  -0.6695235742400224  -0.9100883013059293
    0.6590721836185895  -0.6695235159673918  -0.9100883734644351
    0.6594722522790041  -0.3334276983694219  -0.4101794273483843
    0.3405280122290226  -0.3334276537395255  -0.4101793659703936
    0.5000000937181703  -0.1542492294758874  -0.8903944371655702
    0.5000000497758164  -0.8488706157894141  -0.3909652788688934
