Ta   Zn   N                             
   1.00000000000000     
    -0.0520912659711683   -0.0000381281378914   -5.4939754251684398
    -5.8471910835116025    0.0442551223624757    0.0003955393321309
     0.0754743285509288    9.9718723228169583   -0.0007833924280185
   Ta   Zn   N 
     4     8    12
Direct
  0.0318359145487892  0.3130571213912302  0.0000000548057991
  0.4452402621873989  0.6710161466240456  0.0000000418716047
  0.0242969364773309  0.8317017263822404  0.4999999467172668
  0.5229761690880584  0.1717107871094767  0.4999999634986002
  0.0208738298287935  0.8381490457858812  0.8245314622282275
  0.0208738296203123  0.8381491406734393  0.1754685694499255
  0.5394544834983470  0.1646689616002036  0.8246638632314842
  0.5394544940026977  0.1646690558806865  0.1753361717555152
  0.0348421235025480  0.3393473376814314  0.6714514284334921
  0.0348420743546348  0.3393472896009789  0.3285486386711666
  0.5346113872578858  0.6614621615162941  0.6695893861629487
  0.5346113477197562  0.6614620827599952  0.3304105271606609
  0.9114066638075521  0.1693245015466850  0.1639351309187782
  0.9114067719779069  0.1693245682528361  0.8360649182667731
  0.9709317016961017  0.6484176405182086  0.0000000287621851
  0.4218128679833856  0.8383170185658634  0.8351447643145921
  0.4218127890569049  0.8383172284967906  0.1648553229331431
  0.3994551607366961  0.3290812800403511  0.0000000224216872
  0.9102418643531635  0.6694739063472608  0.3418160486093342
  0.9102419607724340  0.6694739715594382  0.6581838258783289
  0.4104557045365848  0.3347718417329005  0.6586534813933717
  0.4104556169029163  0.3347719370492525  0.3413464676965854
  0.8895079586656862  0.1533959245158516  0.4999999772988595
  0.3901308388577296  0.8505894859578276  0.4999999566812913
 
             NaN             NaN             NaN
             NaN             NaN             NaN
             NaN             NaN             NaN
             NaN             NaN             NaN
             NaN             NaN             NaN
             NaN             NaN             NaN
             NaN             NaN             NaN
             NaN             NaN             NaN
             NaN             NaN             NaN
             NaN             NaN             NaN
             NaN             NaN             NaN
             NaN             NaN             NaN
             NaN             NaN             NaN
             NaN             NaN             NaN
             NaN             NaN             NaN
             NaN             NaN             NaN
             NaN             NaN             NaN
             NaN             NaN             NaN
             NaN             NaN             NaN
             NaN             NaN             NaN
             NaN             NaN             NaN
             NaN             NaN             NaN
             NaN             NaN             NaN
             NaN             NaN             NaN
