Ta   Zn   N
1.0
  -10.01364140819955 -0.0757828756566126 0.0010146848696801
  0.0442920517836403 -5.851972128566436 0.0004854873541161
  -4.66171291219e-05 -0.0691220039937719 -5.50238647778962
 Ta  Zn  N 
4 8 12 
direct
   -0.0000001378386476   0.3043523235035225   0.0314694930200140
   -0.0000002766869122   0.6787435846970979   0.3837224266958993
   -0.4999997699579880   0.8303289842464431   0.0262306890393357
   -0.4999999559757762   0.1709443066846467   0.5237789216134837
   -0.8165489540378462   0.8428224572611277   0.0237598942898007
   -0.1834507108796304   0.8428217547980631   0.0237590468543440
   -0.8248762698604168   0.1646056739850698   0.5388973759188588
   -0.1751240183587151   0.1646056476874375   0.5388974136400522
   -0.6705950372198726   0.3378659687525464   0.0375360252437645
   -0.3294048347062065   0.3378655609139959   0.0375358904969752
   -0.6709818740669836   0.6609722528690999   0.5359110990649676
   -0.3290183624780977   0.6609719999378212   0.5359109813279909
   -0.1651826102780095   0.1695938956036509   0.9109353902514942
   -0.8348174721306879   0.1695945284816426   0.9109356406834038
   -0.0000001167395560   0.6463673443090939   0.0101992250473802
   -0.8328647906131995   0.8400802284468252   0.4232372595661306
   -0.1671358048567627   0.8400807636830778   0.4232371290425886
   -0.0000002508806581   0.3319242446843835   0.3978965744122263
   -0.3428294193465218   0.6671446910423505   0.9112175672371965
   -0.6571701797167446   0.6671453393067167   0.9112178063577221
   -0.6582355489260870   0.3345085352915271   0.4121757859964512
   -0.3417640299505064   0.3345086342349483   0.4121755186049452
   -0.4999997510089111   0.1514335237392443   0.8903689910066888
   -0.4999998226469496   0.8507179174289605   0.3907666060219684
