Ta   Zn   N
1.0
  9.969307415036141 0.0754553497925465 -0.000782914056864
  -0.0442403514360048 5.84527284321057 -0.0003775497277338
  3.64303396453e-05 0.0520479159668589 5.49229321464421
 Ta  Zn  N 
4 8 12 
direct
    0.0000000262735667  -0.3144972907964257  -0.0310297961450598
    0.0000000278135541  -0.6703461273905396  -0.4584261391649254
    0.4999999645456634  -0.8316383425850520  -0.0242150334691368
    0.4999999631585502  -0.1716827998010939  -0.5230034553172758
    0.8248385220092485  -0.8379375934442832  -0.0214208765568893
    0.1751615165066658  -0.8379376721407014  -0.0214209294277420
    0.8246999156355965  -0.1646204100665480  -0.5393490190749447
    0.1753001189913908  -0.1646205450920707  -0.5393490057886449
    0.6714914680680563  -0.3393579993288956  -0.0347710800450677
    0.3285085724764174  -0.3393579470718290  -0.0347710625869131
    0.6696245430588345  -0.6614649524029191  -0.5346052966992232
    0.3303753661513327  -0.6614649118106137  -0.5346052666799338
    0.1637967237719131  -0.1693090263250432  -0.9113616394869462
    0.8362033195409458  -0.1693090415223277  -0.9113616923071379
    1.0000000253279944  -0.6485178793239258  -0.9612570315247844
    0.8356571257159725  -0.8377670091441027  -0.4205657368152905
    0.1643429340532721  -0.8377671464160419  -0.4205656986087075
    0.0000000325431024  -0.3301015812506078  -0.3988131114291125
    0.3418209213971666  -0.6694758895155313  -0.9101560694192633
    0.6581789798569824  -0.6694759317622725  -0.9101561293246619
    0.6586975261432936  -0.3347034504274967  -0.4104062000497913
    0.3413024699173969  -0.3347035033363714  -0.4104061222239925
    0.4999999742925845  -0.1534656182615789  -0.8895238211062986
    0.4999999619121082  -0.8504774923728996  -0.3902325381818607
