Ta   Zn   N
1.0
  -9.927228150851587 -0.0885458411400595 3.56437986712e-05
  0.0517011759862602 -5.796532632342747 0.0001616744749693
  -1.6056760692e-05 -0.0001534298247275 -5.47210668835338
 Ta  Zn  N 
4 8 12 
direct
   -0.0000000746099610   0.3295346922666482   0.0175529815230183
   -0.0000000957268922   0.6704655545724417   0.5175529478499791
   -0.4999998869795501   0.8295346402240819   0.0175529627697325
   -0.4999998787427750   0.1704655168497299   0.5175529717615560
   -0.8275151852013717   0.8382548873323685   0.0280320822772821
   -0.1724848504009298   0.8382549901596654   0.0280321683345637
   -0.8275151546314632   0.1617451525058532   0.5280321811656103
   -0.1724848110579376   0.1617453045901502   0.5280321585740063
   -0.6724848338115186   0.3382550272491547   0.0280321515437723
   -0.3275151740834579   0.3382549126092078   0.0280321912671033
   -0.6724848019497641   0.6617452912221623   0.5280321180378879
   -0.3275151419346866   0.6617451718329600   0.5280322173667974
   -0.1600780563691299   0.1691751347430782   0.9034572953539903
   -0.8399220240505564   0.1691751390362562   0.9034573818715651
   -0.0000000145638732   0.6537461452786784   0.8851494079721496
   -0.8399220325014940   0.8308250344607977   0.4034572972118561
   -0.1600781227945246   0.8308251471193926   0.4034573007325326
   -0.0000000324784484   0.3462540761174787   0.3851494595393821
   -0.3399218991851248   0.6691750348139752   0.9034573062127444
   -0.6600779768030516   0.6691752395378454   0.9034572952421638
   -0.6600779996870237   0.3308250542257338   0.4034573527435565
   -0.3399219317589321   0.3308251640147208   0.4034572627554938
   -0.4999999739256811   0.1537461357828905   0.8851494350132569
   -0.5000000051836612   0.8462540272198459   0.3851494243503013
