Ta   Zn   N                             
   1.00000000000000     
     0.0007681393223235   -0.0001111334624739   -5.5663104777105898
    -5.8404473994205599    0.0431043226906796    0.0011690923212038
     0.0734443110420566    9.9271359467953175    0.0598116068000801
   Ta   Zn   N 
     4     8    12
Direct
  0.9044876980630179  0.3293002715874327  0.9998529319949011
  0.4047935920165932  0.6675302075257457  0.0010990168533477
  0.0286734514041528  0.8320145732065193  0.4998280569555288
  0.5282981162361768  0.1698387700645630  0.4996370042888946
  0.9347912677537155  0.8388616590385286  0.8315486893513518
  0.8973255973756804  0.8428144311713436  0.1663744900359682
  0.4076226913011905  0.1591519375258454  0.8330216948158855
  0.3994479490978486  0.1567108518462519  0.1659418892092722
  0.0359544298980298  0.3430714266934691  0.6647717987911445
  0.0325548348788281  0.3433795121378939  0.3333897090533008
  0.5372835190783616  0.6587146549622369  0.6684296546142101
  0.5313396272125219  0.6578761326488258  0.3345727095113751
  0.0193956950049945  0.1650873882645604  0.1567853365312740
  0.0194014969872904  0.1689738527184579  0.8421669338194634
  0.0395729106541257  0.6497311806759510  0.0022161393761341
  0.5058369914049643  0.8311878218062542  0.8431184374778549
  0.5193460358904471  0.8343426386355932  0.1576597049517849
  0.5411351488690215  0.3469629922495243  0.0002947049223488
  0.9126423836488248  0.6663151866955315  0.3439332253485554
  0.9154488042330299  0.6670865291585617  0.6571447620636544
  0.4158008131044480  0.3350627142270138  0.6561448564769924
  0.4124626449038706  0.3343425915969233  0.3429067904778269
  0.8922139500683849  0.1519354580202030  0.4992541848138274
  0.3918709141054307  0.8497073264509754  0.4999072671555113
 
             NaN             NaN             NaN
             NaN             NaN             NaN
             NaN             NaN             NaN
             NaN             NaN             NaN
             NaN             NaN             NaN
             NaN             NaN             NaN
             NaN             NaN             NaN
             NaN             NaN             NaN
             NaN             NaN             NaN
             NaN             NaN             NaN
             NaN             NaN             NaN
             NaN             NaN             NaN
             NaN             NaN             NaN
             NaN             NaN             NaN
             NaN             NaN             NaN
             NaN             NaN             NaN
             NaN             NaN             NaN
             NaN             NaN             NaN
             NaN             NaN             NaN
             NaN             NaN             NaN
             NaN             NaN             NaN
             NaN             NaN             NaN
             NaN             NaN             NaN
             NaN             NaN             NaN
