Ta   Zn   N                             
   1.00000000000000     
    -0.0200280943032715   -0.0000669907080752   -5.5225730040804599
    -5.8531754434087953    0.0445360289537920    0.0007013626068806
     0.0755889857049711   10.0082370657654813   -0.0008958079154093
   Ta   Zn   N 
     4     8    12
Direct
  0.8732180117473912  0.3327356279299046  0.9999950514328946
  0.3723170162955685  0.6694951995635259  0.9999809535989382
  0.0293550428098195  0.8289974093498010  0.5000127143798074
  0.5288958794404780  0.1690426107374302  0.5000022903796004
  0.0299408075621597  0.8449825184756991  0.8165925836572465
  0.0303998627488647  0.8451530138212284  0.1834928030499003
  0.5276267423503712  0.1566960026155622  0.8191090530641099
  0.5278303175114881  0.1566529101758369  0.1809359559901668
  0.0417658023252275  0.3380871543427770  0.6716558619681282
  0.0418687367999497  0.3381718184864981  0.3283278728558907
  0.5415170193420795  0.6601403348546895  0.6721157244694945
  0.5416795290693915  0.6601450520076060  0.3278199525203527
  0.9239394840331332  0.1660232074775933  0.1650624318876281
  0.9238975860348804  0.1659748288544698  0.8349568129387461
  0.0084982439669914  0.6484415022653847  0.9999984979533025
  0.4234410929035797  0.8352424831916797  0.8345054134454022
  0.4234450303848544  0.8352712679917200  0.1654638023822503
  0.5070545676752249  0.3527400922725584  0.0000040621976482
  0.9144714097038177  0.6651905281328108  0.3427988690577644
  0.9143722293705902  0.6651174754150646  0.6571955453255045
  0.4147682262036722  0.3335976267847652  0.6574108651369408
  0.4148529917683107  0.3336252572441618  0.3425779863960398
  0.8936210614051585  0.1489230514831051  0.5000009620605155
  0.3938661817277702  0.8495513258283636  0.4999839418125466
 
             NaN             NaN             NaN
             NaN             NaN             NaN
             NaN             NaN             NaN
             NaN             NaN             NaN
             NaN             NaN             NaN
             NaN             NaN             NaN
             NaN             NaN             NaN
             NaN             NaN             NaN
             NaN             NaN             NaN
             NaN             NaN             NaN
             NaN             NaN             NaN
             NaN             NaN             NaN
             NaN             NaN             NaN
             NaN             NaN             NaN
             NaN             NaN             NaN
             NaN             NaN             NaN
             NaN             NaN             NaN
             NaN             NaN             NaN
             NaN             NaN             NaN
             NaN             NaN             NaN
             NaN             NaN             NaN
             NaN             NaN             NaN
             NaN             NaN             NaN
             NaN             NaN             NaN
