Ta   Zn   N
1.0
  9.937616598444238 0.0805999372157649 0.1619987719620763
  -0.038959225406621 5.850294393943297 -0.0009712066728363
  9.24576817667e-05 -0.0003025440778582 5.547806161944
 Ta  Zn  N 
4 8 12 
direct
    0.0033316028345221  -0.3298925860498729  -0.8916826806217309
    0.0037287577683614  -0.6676031967635851  -0.3909805243681491
    0.4996148381519399  -0.8311232721776937  -0.0278184539842823
    0.4998262775410771  -0.1702188265864873  -0.5277606493939399
    0.8203567598386119  -0.8445565908272902  -0.0393946860016369
    0.1667905701676470  -0.8409779224337969  -0.8914044323721683
    0.8222567477293106  -0.1578511954711597  -0.5267433146008430
    0.1668641852771482  -0.1568333485065871  -0.3912418216204569
    0.6717308454246603  -0.3416794598772407  -0.0449599289542501
    0.3341262686849310  -0.3410584974812584  -0.0281181608895941
    0.6725984077585073  -0.6605854242833209  -0.5472729875161932
    0.3348626175884028  -0.6586323512394607  -0.5283242186943240
    0.1575313633459258  -0.1608648853896949  -0.0131230639091400
    0.8363022115849014  -0.1681443504633235  -0.9385908376012585
    0.0060763139009583  -0.6474495637426877  -0.0283603066297343
    0.8365687749397969  -0.8321808712213468  -0.4333336314395568
    0.1577658155118424  -0.8367410030612046  -0.5129184919765469
    0.0052097923070594  -0.3500198642540668  -0.5278400423074308
    0.3444177411514566  -0.6640544725863109  -0.9093194570397145
    0.6588807170100146  -0.6682415842651591  -0.9180266001216929
    0.6588650433041267  -0.3344455952960013  -0.4177180832988548
    0.3441808016742511  -0.3355302394089764  -0.4093817820257566
    0.4988673864600767  -0.1508371641268440  -0.8916328886500118
    0.4992461489347703  -0.8504778433950626  -0.3917535203715495
