Ta   Zn   N
1.0
  -9.934872931710617 -0.0876747525509008 -0.104438765223988
  0.0348835389262028 -5.853957243276196 0.0010791442992185
  -0.0001026444712433 -0.0058220702575584 -5.55789942508941
 Ta  Zn  N 
4 8 12 
direct
   -0.0006566955575907   0.3259752180746331   0.9009081947752688
   -0.0037263391250123   0.6637292634163484   0.3967959231707623
   -0.4998146223856545   0.8327410798176518   0.0284864314855443
   -0.4992532246024661   0.1709800357392286   0.5278139459485829
   -0.8239321778460249   0.8347993892234751   0.0252500554988210
   -0.1669563843901456   0.8415275835792834   0.8941884249710739
   -0.8315749616975643   0.1664774747144848   0.4181825939068245
   -0.1663957021230796   0.1557245583907645   0.3967577690331147
   -0.6648350649972845   0.3440967171753505   0.0361686376316319
   -0.3330568464647630   0.3428283352669600   0.0308634271038507
   -0.6718917739593584   0.6618706237854710   0.5448108280291124
   -0.3348579512744707   0.6586143110393879   0.5296279931552352
   -0.1574298006227864   0.1617573418576767   0.0172099804324140
   -0.8409924841031770   0.1726689695619926   0.0115521285255925
   -0.0073178836278874   0.6453538326156266   0.0322531354372859
   -0.8387427285253836   0.8277265476175256   0.4433625057585855
   -0.1575174683261898   0.8349897330944107   0.5169133197220310
   -0.0005577994331978   0.3452764852959776   0.5368839849594522
   -0.3450558770619551   0.6654725058396390   0.9109673726295365
   -0.6588894818912253   0.6700988281875385   0.9157369208057016
   -0.6556034817028987   0.3380713450065334   0.4177645246092389
   -0.3427596645913916   0.3355387441863090   0.4115692183473241
   -0.4987282506971231   0.1522741791532564   0.8922325746032942
   -0.4994533238835792   0.8514070062686862   0.3914006744500717
