Ta   Zn   N
1.0
  9.93340660201726 -1.0010678929e-06 1.4214258345e-06
  -5.804305518e-07 5.80398773137249 2.319646041e-07
  7.765764771e-07 2.133657489e-07 5.45696679363525
 Ta  Zn  N 
4 8 12 
direct
    0.9999999089283806  -0.3294000387079379  -0.9972343249159651
    0.9999999233244663  -0.6705999220331123  -0.4972346029035606
    0.4999999996927187  -0.8294001472220955  -0.9972344865245546
    0.5000000131723114  -0.1705997252047382  -0.4972345190530802
    0.8274382889135694  -0.8383903298651844  -0.0075243157423870
    0.1725615380477025  -0.8383902371002918  -0.0075242688806867
    0.8274391018280056  -0.1616102173612717  -0.5075239047764201
    0.1725611988926872  -0.1616099930443937  -0.5075241201746722
    0.6725615577866506  -0.3383902857914549  -0.0075242916553293
    0.3274384883097312  -0.3383901415352994  -0.0075243559853249
    0.6725613270489179  -0.6616098563444626  -0.5075241149771159
    0.3274390420963584  -0.6616102222593838  -0.5075240795479630
    0.1600989686907681  -0.1690819749853674  -0.8836855435318969
    0.8399010565673992  -0.1690821970455687  -0.8836843905821257
    0.0000001956878251  -0.6536514479487678  -0.8655785977699754
    0.8399010015539190  -0.8309178992305917  -0.3836847617132690
    0.1600991189726386  -0.8309165890144500  -0.3836846047499237
    0.9999994223529640  -0.3463489311441350  -0.3655781193467647
    0.3399008722948481  -0.6690830026764020  -0.8836847088167519
    0.6600991586444211  -0.6690828598795946  -0.8836853501661186
    0.6600991576339651  -0.3309166130893360  -0.3836852114194897
    0.3399010848110890  -0.3309178848118748  -0.3836853265177211
    0.5000000937821840  -0.1536507104943610  -0.8655779466411321
    0.4999994809664727  -0.8463489270559421  -0.3655781431561493
