Ta   Zn   N
1.0
  -10.014132385092381 -0.0757934290997271 0.0005054082514236
  0.0443832561327336 -5.864251533536039 0.0006653833980865
  -6.3595111583e-05 -0.0280361736933195 -5.51920858303198
 Ta  Zn  N 
4 8 12 
direct
   -0.9999999606783914   0.3321153761285704   0.8919005290744646
   -0.9999998989669815   0.6721976691223891   0.3742543145592182
   -0.5000000540992616   0.8286726229717012   0.0298243158234201
   -0.5000000649367201   0.1682857462357359   0.5288466416339207
   -0.8150318906614754   0.8441077794611654   0.0303849771500373
   -0.1849682321082543   0.8441075582365165   0.0303853549282113
   -0.8243736443330836   0.1612196514271451   0.5237942231161491
   -0.1756264240683816   0.1612195394453561   0.5237944837820890
   -0.6696368594698834   0.3377392421195923   0.0426286586437836
   -0.3303630240857735   0.3377391132076784   0.0426288513195411
   -0.6718617239969110   0.6591718778802741   0.5408730214914113
   -0.3281381066062280   0.6591717040746524   0.5408733602249149
   -0.1653888740359283   0.1661637798649148   0.9258595595984502
   -0.8346110012425652   0.1661639408950416   0.9258595473921073
   -0.0000000385432646   0.6548819004002318   0.0074662375818967
   -0.8333833654319184   0.8356102889578000   0.4258685755977277
   -0.1666166143297107   0.8356102171230514   0.4258685978376671
   -0.0000000744301859   0.3450792111404676   0.4802121486810729
   -0.3433052881203167   0.6641756424861891   0.9149489602517088
   -0.6566948003314883   0.6641758559778198   0.9149488158707028
   -0.6576594329890065   0.3323306918880328   0.4162045617151410
   -0.3423406746777010   0.3323307004739424   0.4162046875973512
   -0.4999999778547271   0.1485207521753078   0.8941244795133643
   -0.4999999731635018   0.8492092998959356   0.3940178480493824
