Ta   Zn   N
1.0
  9.928059601767108 0.0885186830563615 -2.90992822644e-05
  -0.0516872749133825 5.797241641612235 -0.0001436848705723
  1.43589624459e-05 0.0001355782800993 5.47042447782914
 Ta  Zn  N 
4 8 12 
direct
    0.0000000652972208  -0.3295118602543017  -0.0151477737872145
    0.0000000796041173  -0.6704882441835147  -0.5151477849200926
    0.4999999210769078  -0.8295118625575429  -0.0151477802161301
    0.4999999324398796  -0.1704882439239737  -0.5151477895653080
    0.8275063501979121  -0.8382557594110787  -0.0255953483921439
    0.1724937884894255  -0.8382559217060562  -0.0255953256981051
    0.8275063125419363  -0.1617442297833278  -0.5255953776459891
    0.1724937513515902  -0.1617442987222291  -0.5255953020484478
    0.6724936748014784  -0.3382558905133052  -0.0255952815014328
    0.3275062354325169  -0.3382557971202057  -0.0255954034876048
    0.6724936419868955  -0.6617443451165924  -0.5255952482905185
    0.3275061993346923  -0.6617441930422955  -0.5255954345090221
    0.1600787266880110  -0.1691593843226641  -0.9011092950926559
    0.8399212136780991  -0.1691593595284432  -0.9011092502981103
    0.0000000671000863  -0.6537345370313369  -0.8828291111754384
    0.8399212579737106  -0.8308407103483700  -0.4011092374144641
    0.1600787659929666  -0.8308407521024851  -0.4011093311849154
    0.0000000739148764  -0.3462655521503706  -0.3828291128933900
    0.3399212391935150  -0.6691593325398990  -0.9011093770001667
    0.6600787473504212  -0.6691594049148014  -0.9011091794590470
    0.6600787877263744  -0.3308407318115621  -0.4011092265207648
    0.3399212760214290  -0.3308407399431582  -0.4011093371059073
    0.4999999218518044  -0.1537345473305812  -0.8828291203584998
    0.4999999352843336  -0.8462655619204981  -0.3828291117142025
