Ta   Zn   N
1.0
  -9.91781124961271 -0.153163550210883 0.000208008529643
  0.0899433070275793 -5.82415881330731 0.0013130091563801
  -0.0001247158484427 -0.0012435320976366 -5.5797681619045
 Ta  Zn  N 
4 8 12 
direct
   -0.9999984769087787   0.3315964035199742   0.9364476990260755
   -0.9999985095478863   0.6684103615463073   0.4364471948219233
   -0.5000016057547683   0.8315852131044323   0.0579426477121885
   -0.5000014740229233   0.1684083526096032   0.5579418736069073
   -0.8341952641807636   0.8435067349495996   0.9305494932711511
   -0.1658047749964453   0.8435066811758390   0.9305503719456283
   -0.8341968185351192   0.1564994392018093   0.4305504236447533
   -0.1658028345116804   0.1564991956925255   0.4305507148424538
   -0.6658036918232284   0.3435013513300477   0.0638293911557355
   -0.3341965614013489   0.3435018900071540   0.0638296263490830
   -0.6658044981517932   0.6564926599473396   0.5638304725451846
   -0.3341955927958934   0.6564927349891435   0.5638302671381012
   -0.1567884643548467   0.1670416076272190   0.0513795152246246
   -0.8432130417115999   0.1670428399614252   0.0513791054802084
   -0.0000003507710602   0.6520464800224631   0.0733890051532740
   -0.8432115756816287   0.8329624568416066   0.5513784301445597
   -0.1567897924032522   0.8329634700463303   0.5513794081719611
   -0.0000000635399147   0.3479620158376663   0.5733893358513100
   -0.3432118451390664   0.6670396781525058   0.9430082314719356
   -0.6567868085652933   0.6670406545069839   0.9430088958696033
   -0.6567854818247483   0.3329535508626122   0.4430092154743689
   -0.3432129298728057   0.3329549882450138   0.4430088316613805
   -0.4999998319681537   0.1520381910794342   0.9210049649713810
   -0.4999997115772814   0.8479532023483430   0.4210046925343320
