Ta   Zn   N
1.0
  10.01863498219269 0.0758273657161341 -0.0005048739680979
  -0.0444195799060675 5.869044442864507 -0.0006294041892924
  6.01995150907e-05 0.0287080621008145 5.51584416198351
 Ta  Zn  N 
4 8 12 
direct
   -0.0000000421240100  -0.3288546909352864  -0.9219617354382086
   -0.0000000590080669  -0.6742519620655366  -0.3745847893162615
    0.5000000344254287  -0.8287261036212740  -0.0298483956102851
    0.5000000348829456  -0.1683038820255438  -0.5286002639728549
    0.8147274308236994  -0.8436939795500467  -0.0299873702284141
    0.1852725645809563  -0.8436936890315734  -0.0299875521876795
    0.8256496065926363  -0.1624078794866582  -0.5243737544741730
    0.1743503077355266  -0.1624079491518988  -0.5243736346533062
    0.6691972962983709  -0.3378574830084897  -0.0425367464799010
    0.3308028348154740  -0.3378571322285325  -0.0425368567101664
    0.6718384453588115  -0.6590768329338426  -0.5406053042892190
    0.3281615227418891  -0.6590768424295262  -0.5406055096117075
    0.1662546098494709  -0.1655947897078538  -0.9241468627102549
    0.8337453776697656  -0.1655950970161311  -0.9241468038614216
    0.9999999634372095  -0.6585548468535234  -0.0062741359534102
    0.8326997936199499  -0.8358693245532572  -0.4261016008636831
    0.1673002077117029  -0.8358693067838004  -0.4261015450367335
    0.9999999870171513  -0.3419341650903258  -0.4541613240130056
    0.3433750011422813  -0.6641048277256291  -0.9150577474354201
    0.6566250039319858  -0.6641050394945185  -0.9150576298505708
    0.6576675771659357  -0.3321821227257491  -0.4162847757642080
    0.3423324708065543  -0.3321821596581317  -0.4162848488648222
    0.5000000132525863  -0.1485284584639218  -0.8941863138526582
    0.5000000164333661  -0.8492715970484795  -0.3939672502553562
