Ta   Zn   N
1.0
  -9.924213064024 -0.0757113509380295 0.0003038415719851
  0.0442126840379035 -5.795557426813481 0.0002156432881604
  -2.11501554303e-05 -0.0094831397024655 -5.47715331992608
 Ta  Zn  N 
4 8 12 
direct
   -0.9999997606330528   0.3293402360030230   0.0250225075319136
   -0.9999997383706772   0.6702101181699502   0.5248214498201342
   -0.4999996874351210   0.8296162160961970   0.0247130155889622
   -0.4999996511750959   0.1704241851287797   0.5245392301818956
   -0.8275453056596338   0.8380717186280128   0.0352587359857012
   -0.1724541047785563   0.8380718433596080   0.0352577027950390
   -0.8275107057602104   0.1616385939240205   0.5353748769660466
   -0.1724885399869707   0.1616387921700631   0.5353736911402809
   -0.6724408455834436   0.3382474259388069   0.0351015426304447
   -0.3275585355063694   0.3382474327594799   0.0351024966883567
   -0.6724012817648014   0.6617696974542815   0.5351818548865803
   -0.3275979309507067   0.6617693251119385   0.5351830022924042
   -0.1600944796673812   0.1692356772760118   0.9105961844129550
   -0.8399060806917658   0.1692354810252168   0.9105964341137519
   -0.0000002619757148   0.6535795854903450   0.8922438872955449
   -0.8399565063210900   0.8308621926443105   0.4105840288899724
   -0.1600441025533938   0.8308620635561961   0.4105838834684070
   -0.0000002611953660   0.3461824206985215   0.3923441852131700
   -0.3399431826942692   0.6693631901270172   0.9104084265418642
   -0.6600575835967732   0.6693631446247665   0.9104081862311246
   -0.6600769071959107   0.3310126138122406   0.4103935179197654
   -0.3399239188765514   0.3310125501804986   0.4103937428987292
   -0.5000002448982988   0.1538720725391101   0.8919168543879330
   -0.5000002298261922   0.8464073898940387   0.3920108737305631
