Ta   Zn   N                             
   1.00000000000000     
    -0.0032740747572805   -0.0001043422694895   -5.5595816356136503
    -5.8518798186847443    0.0381096264669150    0.0010971339036156
     0.0821827949216103    9.9325496681545307    0.0886284454073587
   Ta   Zn   N 
     4     8    12
Direct
  0.9014745586006454  0.3267969603428773  0.0004673646614656
  0.3987078121855733  0.6645972105065857  0.0031859433479196
  0.0286813856138499  0.8325570229119132  0.4999010338119951
  0.5280022243413407  0.1706238733986786  0.4992937860534822
  0.0074356280665448  0.8348062285203123  0.8260563386338028
  0.8948850054191489  0.8423245149318835  0.1668721895004647
  0.4145492423449208  0.1649261134231442  0.8320053471426166
  0.3979019645083871  0.1561047747303670  0.1662294229592128
  0.0360359624923884  0.3435863241079085  0.6645377273854280
  0.0317585359114967  0.3432026392975899  0.3331327319670737
  0.5425889409860120  0.6610656551430832  0.6711986315144789
  0.5301498066530728  0.6585323382131527  0.3346577759287229
  0.0179194678729557  0.1630124033385484  0.1572681454749350
  0.0137481380252707  0.1719615321766135  0.8412799275765295
  0.0331469835569479  0.6465440282559246  0.0061359791315924
  0.4547032866936098  0.8281016162507820  0.8397123886796309
  0.5177780074871171  0.8352182160388972  0.1575914143975631
  0.5379061428090824  0.3454900009386345  0.0002733126901405
  0.9117459046748322  0.6658592414444269  0.3448908369841457
  0.9153569895724586  0.6691374475405807  0.6587054249529292
  0.4171505284352235  0.3372220246292291  0.6555478554008938
  0.4121171683053207  0.3353125801946034  0.3427313389848037
  0.8924302979191938  0.1520817542827915  0.4988515845026015
  0.3915265804854882  0.8509356082896242  0.4994734872080412
 
             NaN             NaN             NaN
             NaN             NaN             NaN
             NaN             NaN             NaN
             NaN             NaN             NaN
             NaN             NaN             NaN
             NaN             NaN             NaN
             NaN             NaN             NaN
             NaN             NaN             NaN
             NaN             NaN             NaN
             NaN             NaN             NaN
             NaN             NaN             NaN
             NaN             NaN             NaN
             NaN             NaN             NaN
             NaN             NaN             NaN
             NaN             NaN             NaN
             NaN             NaN             NaN
             NaN             NaN             NaN
             NaN             NaN             NaN
             NaN             NaN             NaN
             NaN             NaN             NaN
             NaN             NaN             NaN
             NaN             NaN             NaN
             NaN             NaN             NaN
             NaN             NaN             NaN
