Ta   Zn   N                             
   1.00000000000000     
    -0.0000847479500032   -0.0000092655677076   -5.4653778462564304
    -5.7994564069904930    0.0343676222356250    0.0000897160573811
     0.0588514768300381    9.9308139294566384   -0.0000174291217708
   Ta   Zn   N 
     4     8    12
Direct
  0.0082664606099981  0.3294443917994392  0.9999999851775169
  0.5082664591980890  0.6705556551668193  0.9999999954692821
  0.0082664692749716  0.8294443901879067  0.4999999830461210
  0.5082664640306541  0.1705556552950175  0.5000000038462786
  0.0186582698835610  0.8382564015763146  0.8274769707512000
  0.0186584298567487  0.8382564942419853  0.1725230812468541
  0.5186582970475603  0.1617435616017689  0.8274769299880402
  0.5186584117165270  0.1617436723479750  0.1725230532791266
  0.0186584138199081  0.3382565190403912  0.6725230820700341
  0.0186582922394040  0.3382563482129363  0.3274769623803681
  0.5186583808534432  0.6617436650029975  0.6725230508790175
  0.5186583101353149  0.6617435763607491  0.3274769350510535
  0.8944153946404795  0.1691079420564145  0.1600825466683570
  0.8944153124589478  0.1691078717451528  0.8399173744701509
  0.8761991818833571  0.6537007282966268  0.9999999915731597
  0.3944153135982811  0.8308921728005935  0.8399174247082609
  0.3944154091526541  0.8308922065758534  0.1600825870576070
  0.3761991654585570  0.3462993586948452 -0.0000000012856228
  0.8944153866508346  0.6691078648851044  0.3399174018009384
  0.8944153212679938  0.6691078777434984  0.6600825815015871
  0.3944153861639729  0.3308921665402036  0.6600826146234803
  0.3944153622477006  0.3308920969569575  0.3399174385545665
  0.8761991853446554  0.1537007019371869  0.4999999835906445
  0.3761991911604909  0.8462993382252315  0.5000000035052440
 
             NaN             NaN             NaN
             NaN             NaN             NaN
             NaN             NaN             NaN
             NaN             NaN             NaN
             NaN             NaN             NaN
             NaN             NaN             NaN
             NaN             NaN             NaN
             NaN             NaN             NaN
             NaN             NaN             NaN
             NaN             NaN             NaN
             NaN             NaN             NaN
             NaN             NaN             NaN
             NaN             NaN             NaN
             NaN             NaN             NaN
             NaN             NaN             NaN
             NaN             NaN             NaN
             NaN             NaN             NaN
             NaN             NaN             NaN
             NaN             NaN             NaN
             NaN             NaN             NaN
             NaN             NaN             NaN
             NaN             NaN             NaN
             NaN             NaN             NaN
             NaN             NaN             NaN
