Ta   Zn   N                             
   1.00000000000000     
    -0.0440194612437070   -0.0000483149273680   -5.5040686883138603
    -5.8598651172416716    0.0443522472147549    0.0005034769585131
     0.0757659550750217   10.0111984302457646   -0.0005602582226579
   Ta   Zn   N 
     4     8    12
Direct
  0.0248735424611575  0.3080942865553372  0.0000001548032441
  0.3807269809813039  0.6796186888501701  0.0000003886997855
  0.0284255334778145  0.8298789289335191  0.5000000311390439
  0.5261996944874302  0.1699754497611422  0.5000004037907709
  0.0241122274082767  0.8444093498430677  0.8160860934846826
  0.0241126297427821  0.8444082404381738  0.1839133219095183
  0.5359934560159718  0.1642873544993661  0.8254244732414129
  0.5359947546639443  0.1642877978879817  0.1745765327789120
  0.0393525072984539  0.3376198011287061  0.6702914865385365
  0.0393518801380001  0.3376194224469650  0.3297085650458216
  0.5381808390473439  0.6597933065942011  0.6711583221410221
  0.5381805020380068  0.6597932328865243  0.3288425331667944
  0.9099364476392978  0.1697878513634422  0.1654026676818286
  0.9099363472759363  0.1697883654487184  0.8345964956028914
  0.0071425290413031  0.6502141283346029  0.9999995268136802
  0.4234641002198093  0.8391125049640852  0.8324598163409626
  0.4234639755732821  0.8391136210519573  0.1675409406246262
  0.3920713414147143  0.3331433341479693  0.0000002529349972
  0.9133041780484696  0.6661973733403910  0.3429587455503468
  0.9133039798827365  0.6661976141716554  0.6570401240276567
  0.4138906859711866  0.3332929355169084  0.6580617342944562
  0.4138904685511782  0.3332930773414935  0.3419378387326875
  0.8927382700843677  0.1502333020570388  0.4999996701118099
  0.3931258799709615  0.8498401940261112  0.4999998797061476
 
             NaN             NaN             NaN
             NaN             NaN             NaN
             NaN             NaN             NaN
             NaN             NaN             NaN
             NaN             NaN             NaN
             NaN             NaN             NaN
             NaN             NaN             NaN
             NaN             NaN             NaN
             NaN             NaN             NaN
             NaN             NaN             NaN
             NaN             NaN             NaN
             NaN             NaN             NaN
             NaN             NaN             NaN
             NaN             NaN             NaN
             NaN             NaN             NaN
             NaN             NaN             NaN
             NaN             NaN             NaN
             NaN             NaN             NaN
             NaN             NaN             NaN
             NaN             NaN             NaN
             NaN             NaN             NaN
             NaN             NaN             NaN
             NaN             NaN             NaN
             NaN             NaN             NaN
