Ta   Zn   N
1.0
  -9.930004970932073 -0.0766655868065597 -0.0745570381389776
  0.041282687986731 -5.847010960292493 0.0011331131124097
  -0.0001077378659817 -0.0006814607909976 -5.5629460566621205
 Ta  Zn  N 
4 8 12 
direct
   -0.0001617881916159   0.3281048639223612   0.9027338750874743
   -0.0021716240638028   0.6661374765808139   0.4020584732238234
   -0.4998140481806492   0.8323277176062281   0.0287857939032392
   -0.4994652305940936   0.1702308645086882   0.5281513934010238
   -0.8289058071512985   0.8364319607836068   0.9711956288236846
   -0.1666072829228215   0.8427737973010311   0.8958484592508762
   -0.8325166271736011   0.1619185886582044   0.4111555375239934
   -0.1660574116268002   0.1564783927711847   0.3988656852731227
   -0.6644896071573684   0.3431732085573180   0.0361795323129847
   -0.3332392231155859   0.3433530641897792   0.0322887904660458
   -0.6699670200711714   0.6599118734186975   0.5396129230662855
   -0.3345512908364938   0.6582676512121046   0.5306151852667182
   -0.1569864467135932   0.1642737400971775   0.0186426649337340
   -0.8416664342375307   0.1705840642622728   0.0165640610889532
   -0.0039736173302613   0.6483338744723895   0.0359266483483066
   -0.8416965721527978   0.8293838075392084   0.4803386842720982
   -0.1578238121199914   0.8350743681795830   0.5186530955439679
   -0.0002402079495976   0.3459830584902756   0.5395583101679837
   -0.3444396555126268   0.6661375580109961   0.9123688354947305
   -0.6579050910166105   0.6678545812576080   0.9153184052972660
   -0.6557785072933369   0.3361075598011271   0.4164219136697000
   -0.3428337168922019   0.3348668402494105   0.4123182485078939
   -0.4990407282306328   0.1519453629504469   0.8924179594988952
   -0.4996682383559383   0.8503458340877095   0.3916804587305299
