Ta   Zn   N
1.0
  9.935937054809264 0.0889733219824395 0.1360467405648397
  -0.0341055574183728 5.854973830947572 -0.0010431650904244
  9.92488747511e-05 0.0026367740853379 5.55453500404094
 Ta  Zn  N 
4 8 12 
direct
    0.0015920008456634  -0.3271548211923325  -0.8980745057959756
    0.0036993689261394  -0.6647997775092660  -0.3940821573164187
    0.4996501602030758  -0.8321794890029542  -0.0284946324157073
    0.4994167581747134  -0.1705960923570594  -0.5282626188321646
    0.8223491822560608  -0.8386804793409848  -0.0315310122457151
    0.1667377605653761  -0.8411265904929400  -0.8932040221153089
    0.8285967134858307  -0.1643206108630121  -0.4538327646075754
    0.1665706188373749  -0.1556812092535536  -0.3937802203831493
    0.6677131442196743  -0.3434063722344806  -0.0391941854824158
    0.3334439192143681  -0.3419872390508775  -0.0294203806149016
    0.6718300633805636  -0.6618507301642085  -0.5467639714546723
    0.3347725688329816  -0.6583962264654384  -0.5293049948447116
    0.1578574384638799  -0.1609942159049828  -0.0155010457178245
    0.8400510299273142  -0.1719983872565335  -0.9880513625334344
    0.0068259927603496  -0.6465631539569734  -0.0307280640328740
    0.8376768831994239  -0.8285985131001269  -0.4390586540346428
    0.1575397392343227  -0.8352063874280240  -0.5151018103748011
    0.0019392033886636  -0.3464863011969628  -0.5325550863071279
    0.3447802359358333  -0.6648171069600883  -0.9103171158803803
    0.6586575297472315  -0.6695570312279481  -0.9170500853652084
    0.6566942349578621  -0.3373917651661963  -0.4181573698641261
    0.3434251078274737  -0.3353576491438381  -0.4110117915213179
    0.4988335771728846  -0.1516782898908217  -0.8922704048608875
    0.4993467573332107  -0.8511716697487874  -0.3919523077874763
