Ta   Zn   N                             
   1.00000000000000     
    -0.0269674732515938   -0.0000652929098291   -5.5208907935562204
    -5.8600705330144187    0.0443519058913322    0.0006833730024836
     0.0757646122620386   10.0103785269867345   -0.0005026235697460
   Ta   Zn   N 
     4     8    12
Direct
  0.8790939511451723  0.3333450281439797  1.0000001877078331
  0.3732623495295853  0.6708835583398698  1.0000000756135310
  0.0297783444830712  0.8286616859783849  0.4999998917241226
  0.5290133036786866  0.1683412265561818  0.4999999093567885
  0.0303404582668055  0.8446262402293742  0.8154706492631506
  0.0303407354481121  0.8446260662621650  0.1845294673040261
  0.5239625660524629  0.1598187970847665  0.8228708913624826
  0.5239626703379756  0.1598186566202205  0.1771291825043788
  0.0424658387118912  0.3376411476900031  0.6702222078328484
  0.0424660046139660  0.3376408462519793  0.3297777227222585
  0.5411480487353205  0.6593322815885205  0.6719013903441400
  0.5411483422075358  0.6593321680045769  0.3280984290504163
  0.9259063354098108  0.1666354998955160  0.1648580930515394
  0.9259063576674674  0.1666355482775306  0.8351416619996399
  0.0078712154598908  0.6521348319591861  0.0000000404620629
  0.4253469686968676  0.8353752817146795  0.8339646535343613
  0.4253469129660045  0.8353750748539562  0.1660352447969124
  0.4947133070065618  0.3481739323538246  0.0000000550882124
  0.9148237306698854  0.6643677612438245  0.3431909229431727
  0.9148235677767044  0.6643679170141910  0.6568092215405016
  0.4159489215783192  0.3325719189677328  0.6576318881285833
  0.4159490470723269  0.3325718708330487  0.3423682768263737
  0.8940439908790843  0.1485594514294964  0.4999999691175112
  0.3941097830402243  0.8491633702965109  0.4999999668868024
 
             NaN             NaN             NaN
             NaN             NaN             NaN
             NaN             NaN             NaN
             NaN             NaN             NaN
             NaN             NaN             NaN
             NaN             NaN             NaN
             NaN             NaN             NaN
             NaN             NaN             NaN
             NaN             NaN             NaN
             NaN             NaN             NaN
             NaN             NaN             NaN
             NaN             NaN             NaN
             NaN             NaN             NaN
             NaN             NaN             NaN
             NaN             NaN             NaN
             NaN             NaN             NaN
             NaN             NaN             NaN
             NaN             NaN             NaN
             NaN             NaN             NaN
             NaN             NaN             NaN
             NaN             NaN             NaN
             NaN             NaN             NaN
             NaN             NaN             NaN
             NaN             NaN             NaN
