Ta   Zn   N
1.0
  10.019903635566102 0.0758368216171503 -0.0005044453237703
  -0.044430419142523 5.87046596311173 -0.0006114145848954
  5.85017168446e-05 0.0288087381365822 5.51416195145928
 Ta  Zn  N 
4 8 12 
direct
   -0.0000000425931286  -0.3269916600477915  -0.9378558206628792
   -0.0000000762485627  -0.6751918379109605  -0.3742988571456277
    0.5000000435720231  -0.8287661684830639  -0.0298473641565544
    0.5000000476902867  -0.1683326213632720  -0.5284920927880856
    0.8146671122085857  -0.8436227346154724  -0.0296989652488153
    0.1853328899639060  -0.8436224394992290  -0.0296991156062013
    0.8259813633225143  -0.1627214557650137  -0.5247891420803201
    0.1740185591113427  -0.1627215210273902  -0.5247890819782604
    0.6691016554763155  -0.3378803093126446  -0.0424254858919463
    0.3308984611279950  -0.3378799541330210  -0.0424255879038270
    0.6718198072765164  -0.6590495455251217  -0.5405137760216708
    0.3281801552862765  -0.6590495539386239  -0.5405139850503382
    0.1664838561790137  -0.1656214526205750  -0.9228134450744128
    0.8335160776432211  -0.1656217301834260  -0.9228133688801050
    0.9999999519397034  -0.6596650170769685  -0.0054453254260673
    0.8324851096750197  -0.8359480368990537  -0.4260873201336844
    0.1675148689131183  -0.8359480149884131  -0.4260872939481469
    0.9999999764765201  -0.3409619425443641  -0.4423207531238297
    0.3433894837978764  -0.6641291454494770  -0.9150810473189560
    0.6566105639835369  -0.6641293161426324  -0.9150809247953274
    0.6576728561861213  -0.3321541558679443  -0.4162604353692603
    0.3423272090455042  -0.3321541590484338  -0.4162605400051949
    0.5000000384998690  -0.1485519973844258  -0.8942030569243813
    0.5000000306280313  -0.8492853917622102  -0.3939699658998161
