Al   B    N                             
   1.00000000000000     
    -9.2986080937102447    0.0028147540068951   -0.0117012832605773
    -4.7087264967199491    8.0913318851100513   -0.0010952926887520
    -0.0985909888656282   -0.0586701082623432  -10.2198778240016619
   Al   B    N 
    34     2    36
Direct
  0.1160779863753092  0.0921830728555690  0.3969372954395425
  0.2117893062251710  0.2092547815841428  0.1385656290051855
  0.7821337014731000  0.0858298027479734  0.8200872532400254
  0.8885061318979695  0.2011089694212842  0.5964250547529844
  0.4513593313142081  0.0906426218422425  0.3179406996161589
  0.5602210659753339  0.2091911482352131  0.0674199490887730
  0.1002125118794481  0.0992440640568120  0.8891322899689911
  0.2172318646604054  0.2077149048306310  0.6451764782511873
  0.7821351184748195  0.0986953299546798  0.3200881480843094
  0.4499994365986169  0.0922878629212960  0.8225901617837081
  0.5602241357854112  0.1972559750268701  0.5674193641162546
  0.1117112972443550  0.4259584128767671  0.3909108438975153
  0.2172339600440409  0.5417317844584915  0.1451759629854052
  0.7749194407427282  0.4273299678339981  0.8135798737578099
  0.8941238430758318  0.5439987094601619  0.6307644407954029
  0.4500006447657654  0.4243663752254463  0.3225899873714368
  0.5586103467926620  0.5331306015688142  0.0702743106930512
  0.1117101342038112  0.4289941146785807  0.8909102313054689
  0.2117933781813051  0.5456323924378168  0.6385661106452147
  0.7810403626969347  0.4172845380263297  0.3302538374552384
  0.8941260304804928  0.5285536516102027  0.1307656477574852
  0.4513602757640385  0.4246512549838073  0.8179411389281697
  0.5542475586275160  0.5416051386140381  0.5654684394503064
  0.1002128069780639  0.7672069250762235  0.3891322542009590
  0.2089851229949602  0.8792080555386974  0.1442454387836136
  0.7810388765178473  0.7683350867010716  0.8302521259168643
  0.4496090979174596  0.7590760562133028  0.3203728682449807
  0.5542461449104508  0.8708142043690259  0.0654684854263863
  0.1160769639144661  0.7584030253690131  0.8969374261402123
  0.2089834924692084  0.8784830133968953  0.6442445371862746
  0.7749190936577648  0.7644082538309291  0.3135791725985229
  0.8885023028581998  0.8770604256004120  0.0964227564783826
  0.4496082192568664  0.7579681089656845  0.8203728507139374
  0.5586050478505342  0.8749324084652415  0.5702743635150753
  0.8856375273363071  0.2076939541882368  0.1071882214304338
  0.8856369963475359  0.8733346129567465  0.6071875213784423
  0.2159711169339147  0.2070234304518053  0.3264259814620729
  0.0788456211664084  0.1101987309646688  0.0836318288104536
  0.8894297865103624  0.2031183331817630  0.8233894248425813
  0.7912467085813830  0.0587021520071929  0.6253593703832792
  0.5565837266553331  0.2037741128072312  0.3808281499543966
  0.4527017962288795  0.0912312566156288  0.1275081304320054
  0.2159293526893293  0.2076712778559440  0.8350376049138362
  0.1229643174357875  0.0897914042040000  0.5813656344836744
  0.8824215902619912  0.2058074558080349  0.3955283200137742
  0.7912366743852459  0.1167082528342007  0.1253605691102280
  0.5565853914304810  0.2063171136584145  0.8808278759014883
  0.4505827824424102  0.0921256271060216  0.6334362097639357
  0.2159303366545018  0.5430888576396598  0.3350384772206212
  0.1158663745660036  0.4266126155960563  0.0770957710956353
  0.8914617598827945  0.5397059151143964  0.8336984659199658
  0.7722898561670988  0.4361507778483684  0.6228863436832981
  0.5542017050645640  0.5401165750991126  0.3795487338830696
  0.4505832409650168  0.4239379255776257  0.1334359542701904
  0.2159730288718791  0.5436935258789717  0.8264260412362390
  0.1158631008379416  0.4241822626253580  0.5770969764815348
  0.8914633803291849  0.5355176995941378  0.3336981570831128
  0.7926882870759826  0.3942354546732219  0.1286273913637146
  0.5554663789801566  0.5386789319938572  0.8836860046479131
  0.4527025820495041  0.4227100370505426  0.6275096365463497
  0.2148880027046616  0.8757730564384403  0.3324725189113380
  0.1229600034349971  0.7539022441944283  0.0813662643671051
  0.8824208934520072  0.8784551072888718  0.8955278372200723
  0.7926780529435860  0.7797339933112042  0.6286280164318470
  0.5554650587802143  0.8725311489015155  0.3836852103161021
  0.4489301653646010  0.7584085520295005  0.1304257066113408
  0.2148858532383926  0.8760287445184360  0.8324730951507746
  0.0788456987023309  0.7776182951655812  0.5836317536278699
  0.8894296297202615  0.8741383647936232  0.3233912069863436
  0.7722894306429495  0.7582080531389082  0.1228864290586671
  0.5541977927861552  0.8723596887950293  0.8795488412991901
  0.4489296272663168  0.7593037963355727  0.6304242482710123
 
  0.00000000E+00  0.00000000E+00  0.00000000E+00
  0.00000000E+00  0.00000000E+00  0.00000000E+00
  0.00000000E+00  0.00000000E+00  0.00000000E+00
  0.00000000E+00  0.00000000E+00  0.00000000E+00
  0.00000000E+00  0.00000000E+00  0.00000000E+00
  0.00000000E+00  0.00000000E+00  0.00000000E+00
  0.00000000E+00  0.00000000E+00  0.00000000E+00
  0.00000000E+00  0.00000000E+00  0.00000000E+00
  0.00000000E+00  0.00000000E+00  0.00000000E+00
  0.00000000E+00  0.00000000E+00  0.00000000E+00
  0.00000000E+00  0.00000000E+00  0.00000000E+00
  0.00000000E+00  0.00000000E+00  0.00000000E+00
  0.00000000E+00  0.00000000E+00  0.00000000E+00
  0.00000000E+00  0.00000000E+00  0.00000000E+00
  0.00000000E+00  0.00000000E+00  0.00000000E+00
  0.00000000E+00  0.00000000E+00  0.00000000E+00
  0.00000000E+00  0.00000000E+00  0.00000000E+00
  0.00000000E+00  0.00000000E+00  0.00000000E+00
  0.00000000E+00  0.00000000E+00  0.00000000E+00
  0.00000000E+00  0.00000000E+00  0.00000000E+00
  0.00000000E+00  0.00000000E+00  0.00000000E+00
  0.00000000E+00  0.00000000E+00  0.00000000E+00
  0.00000000E+00  0.00000000E+00  0.00000000E+00
  0.00000000E+00  0.00000000E+00  0.00000000E+00
  0.00000000E+00  0.00000000E+00  0.00000000E+00
  0.00000000E+00  0.00000000E+00  0.00000000E+00
  0.00000000E+00  0.00000000E+00  0.00000000E+00
  0.00000000E+00  0.00000000E+00  0.00000000E+00
  0.00000000E+00  0.00000000E+00  0.00000000E+00
  0.00000000E+00  0.00000000E+00  0.00000000E+00
  0.00000000E+00  0.00000000E+00  0.00000000E+00
  0.00000000E+00  0.00000000E+00  0.00000000E+00
  0.00000000E+00  0.00000000E+00  0.00000000E+00
  0.00000000E+00  0.00000000E+00  0.00000000E+00
  0.00000000E+00  0.00000000E+00  0.00000000E+00
  0.00000000E+00  0.00000000E+00  0.00000000E+00
  0.00000000E+00  0.00000000E+00  0.00000000E+00
  0.00000000E+00  0.00000000E+00  0.00000000E+00
  0.00000000E+00  0.00000000E+00  0.00000000E+00
  0.00000000E+00  0.00000000E+00  0.00000000E+00
  0.00000000E+00  0.00000000E+00  0.00000000E+00
  0.00000000E+00  0.00000000E+00  0.00000000E+00
  0.00000000E+00  0.00000000E+00  0.00000000E+00
  0.00000000E+00  0.00000000E+00  0.00000000E+00
  0.00000000E+00  0.00000000E+00  0.00000000E+00
  0.00000000E+00  0.00000000E+00  0.00000000E+00
  0.00000000E+00  0.00000000E+00  0.00000000E+00
  0.00000000E+00  0.00000000E+00  0.00000000E+00
  0.00000000E+00  0.00000000E+00  0.00000000E+00
  0.00000000E+00  0.00000000E+00  0.00000000E+00
  0.00000000E+00  0.00000000E+00  0.00000000E+00
  0.00000000E+00  0.00000000E+00  0.00000000E+00
  0.00000000E+00  0.00000000E+00  0.00000000E+00
  0.00000000E+00  0.00000000E+00  0.00000000E+00
  0.00000000E+00  0.00000000E+00  0.00000000E+00
  0.00000000E+00  0.00000000E+00  0.00000000E+00
  0.00000000E+00  0.00000000E+00  0.00000000E+00
  0.00000000E+00  0.00000000E+00  0.00000000E+00
  0.00000000E+00  0.00000000E+00  0.00000000E+00
  0.00000000E+00  0.00000000E+00  0.00000000E+00
  0.00000000E+00  0.00000000E+00  0.00000000E+00
  0.00000000E+00  0.00000000E+00  0.00000000E+00
  0.00000000E+00  0.00000000E+00  0.00000000E+00
  0.00000000E+00  0.00000000E+00  0.00000000E+00
  0.00000000E+00  0.00000000E+00  0.00000000E+00
  0.00000000E+00  0.00000000E+00  0.00000000E+00
  0.00000000E+00  0.00000000E+00  0.00000000E+00
  0.00000000E+00  0.00000000E+00  0.00000000E+00
  0.00000000E+00  0.00000000E+00  0.00000000E+00
  0.00000000E+00  0.00000000E+00  0.00000000E+00
  0.00000000E+00  0.00000000E+00  0.00000000E+00
  0.00000000E+00  0.00000000E+00  0.00000000E+00
