Al   B    N                             
   1.00000000000000     
    -9.2903400191509800    0.0035858961190357   -0.0091195524111520
    -4.6938089534808691    8.0882603833785183   -0.0012775754191771
    -0.0946379697429251   -0.0309823628232825  -10.2532371626442504
   Al   B    N 
    34     2    36
Direct
  0.1173731471614587  0.0910201200833498  0.3965929393938410
  0.2118183263729279  0.2082666588004471  0.1376941195601233
  0.7808657199540576  0.0856620037540594  0.8182219871018006
  0.8928968428160786  0.1962646360871148  0.6032824700969712
  0.4522629344601299  0.0906689615823382  0.3171556742167141
  0.5611547233391292  0.2087443681336794  0.0676373566284880
  0.1005417193426936  0.0993655095103421  0.8872237047611904
  0.2186484494280876  0.2079818418107564  0.6442583221322877
  0.7833368965599448  0.1010819315713221  0.3171408919753276
  0.4495808030709085  0.0930912917323852  0.8227161985190392
  0.5610815933475877  0.1970102670546581  0.5660789855697033
  0.1136029778801273  0.4253804519871878  0.3901295897001091
  0.2163665423094017  0.5411258113205477  0.1446163279503310
  0.7767344552220976  0.4256371610610259  0.8347490472045038
  0.8959972200795931  0.5432223328210952  0.6369716781810482
  0.4516820714924350  0.4248960732927003  0.3210080601655605
  0.5597924982198350  0.5319741165656779  0.0685123750034649
  0.1092622856677750  0.4298232627754999  0.8928519741049570
  0.2101020276611365  0.5460997976098128  0.6388384200301971
  0.7831436528722833  0.4266373161636707  0.3963078585359767
  0.8912847547706022  0.5212779373771923  0.1400631898668365
  0.4484566945936308  0.4247190715428317  0.8183627936444964
  0.5439482175973396  0.5470588152977598  0.5708959593982428
  0.1005514476504743  0.7674626030476901  0.3880496407493297
  0.2091014003108000  0.8789972565554791  0.1431818360206378
  0.7794476386423099  0.7703363304013351  0.8290593285437922
  0.4504442232084500  0.7580380923146990  0.3190237566839116
  0.5560971528056982  0.8691901308095211  0.0662834937085037
  0.1152617337532504  0.7586636734999246  0.8972735136653540
  0.2089316766069373  0.8785371325568008  0.6442184578695844
  0.7751829840786257  0.7648228996148205  0.3126191369401425
  0.8883549962073971  0.8760802728115564  0.0965755203095711
  0.4476130557616145  0.7606715564849651  0.8208293211537807
  0.5593527296543215  0.8751854931679404  0.5697564086351150
  0.8842397425354278  0.2107396163799038  0.1003788365298561
  0.8855668838100570  0.8729553111641550  0.6062302389978953
  0.2169197045164140  0.2066067882210874  0.3256219062283634
  0.0804094688919719  0.1082664974188958  0.0799077189139012
  0.8910129097346697  0.2032803129168030  0.8103001064401028
  0.7910669761283842  0.0576235046523834  0.6254267814387973
  0.5573896447598585  0.2043413790792385  0.3801829445805041
  0.4535350749931695  0.0903133716950251  0.1272966472415149
  0.2150734550504723  0.2093678434993649  0.8338575925546934
  0.1262067329618333  0.0885814579026984  0.5808091220081621
  0.8857573987342064  0.2015554525487389  0.3964514257551244
  0.7916216436386065  0.1165855722233431  0.1238069657406768
  0.5569164801056417  0.2066909158747379  0.8811631324755709
  0.4517905119226668  0.0919940443911642  0.6337969705766540
  0.2163051039474766  0.5432145564777642  0.3338080952693261
  0.1126190266227738  0.4271908927469710  0.0780726999533528
  0.8911284479624726  0.5395040035517695  0.8257405521009389
  0.7754319238520537  0.4379402757217150  0.5979531141523182
  0.5495251043744815  0.5430147445197022  0.3846790684369665
  0.4504741121870808  0.4240746204690566  0.1326796887715105
  0.2131487636288369  0.5443856407225454  0.8265732007949254
  0.1152452661519163  0.4246766687526815  0.5759795917695527
  0.8916024553585942  0.5323983845822937  0.3314287974196830
  0.7954720034405938  0.3929888027307200  0.0932938123242266
  0.5510904072688732  0.5409748717382499  0.8801223657497914
  0.4510311392005519  0.4217171470134673  0.6297232275518567
  0.2156222557570260  0.8756120198081376  0.3308869012349760
  0.1227963272865153  0.7535197275764247  0.0806640914587859
  0.8816647951649230  0.8790916360473204  0.8951903557635745
  0.7930062772463700  0.7794318547146446  0.6283805242304794
  0.5561580812215468  0.8718204065746207  0.3836523314212670
  0.4497063692648950  0.7568411693884940  0.1296882122269523
  0.2131599000776774  0.8767376880765525  0.8316643563708865
  0.0793114740883567  0.7775735055645612  0.5827541500735052
  0.8889740137868358  0.8752253311165248  0.3235660826563844
  0.7743427690876175  0.7543987992768777  0.1234584080017243
  0.5539542369047581  0.8728824620658742  0.8804118557064058
  0.4481881869276734  0.7620179206134097  0.6327871412170722
 
  0.00000000E+00  0.00000000E+00  0.00000000E+00
  0.00000000E+00  0.00000000E+00  0.00000000E+00
  0.00000000E+00  0.00000000E+00  0.00000000E+00
  0.00000000E+00  0.00000000E+00  0.00000000E+00
  0.00000000E+00  0.00000000E+00  0.00000000E+00
  0.00000000E+00  0.00000000E+00  0.00000000E+00
  0.00000000E+00  0.00000000E+00  0.00000000E+00
  0.00000000E+00  0.00000000E+00  0.00000000E+00
  0.00000000E+00  0.00000000E+00  0.00000000E+00
  0.00000000E+00  0.00000000E+00  0.00000000E+00
  0.00000000E+00  0.00000000E+00  0.00000000E+00
  0.00000000E+00  0.00000000E+00  0.00000000E+00
  0.00000000E+00  0.00000000E+00  0.00000000E+00
  0.00000000E+00  0.00000000E+00  0.00000000E+00
  0.00000000E+00  0.00000000E+00  0.00000000E+00
  0.00000000E+00  0.00000000E+00  0.00000000E+00
  0.00000000E+00  0.00000000E+00  0.00000000E+00
  0.00000000E+00  0.00000000E+00  0.00000000E+00
  0.00000000E+00  0.00000000E+00  0.00000000E+00
  0.00000000E+00  0.00000000E+00  0.00000000E+00
  0.00000000E+00  0.00000000E+00  0.00000000E+00
  0.00000000E+00  0.00000000E+00  0.00000000E+00
  0.00000000E+00  0.00000000E+00  0.00000000E+00
  0.00000000E+00  0.00000000E+00  0.00000000E+00
  0.00000000E+00  0.00000000E+00  0.00000000E+00
  0.00000000E+00  0.00000000E+00  0.00000000E+00
  0.00000000E+00  0.00000000E+00  0.00000000E+00
  0.00000000E+00  0.00000000E+00  0.00000000E+00
  0.00000000E+00  0.00000000E+00  0.00000000E+00
  0.00000000E+00  0.00000000E+00  0.00000000E+00
  0.00000000E+00  0.00000000E+00  0.00000000E+00
  0.00000000E+00  0.00000000E+00  0.00000000E+00
  0.00000000E+00  0.00000000E+00  0.00000000E+00
  0.00000000E+00  0.00000000E+00  0.00000000E+00
  0.00000000E+00  0.00000000E+00  0.00000000E+00
  0.00000000E+00  0.00000000E+00  0.00000000E+00
  0.00000000E+00  0.00000000E+00  0.00000000E+00
  0.00000000E+00  0.00000000E+00  0.00000000E+00
  0.00000000E+00  0.00000000E+00  0.00000000E+00
  0.00000000E+00  0.00000000E+00  0.00000000E+00
  0.00000000E+00  0.00000000E+00  0.00000000E+00
  0.00000000E+00  0.00000000E+00  0.00000000E+00
  0.00000000E+00  0.00000000E+00  0.00000000E+00
  0.00000000E+00  0.00000000E+00  0.00000000E+00
  0.00000000E+00  0.00000000E+00  0.00000000E+00
  0.00000000E+00  0.00000000E+00  0.00000000E+00
  0.00000000E+00  0.00000000E+00  0.00000000E+00
  0.00000000E+00  0.00000000E+00  0.00000000E+00
  0.00000000E+00  0.00000000E+00  0.00000000E+00
  0.00000000E+00  0.00000000E+00  0.00000000E+00
  0.00000000E+00  0.00000000E+00  0.00000000E+00
  0.00000000E+00  0.00000000E+00  0.00000000E+00
  0.00000000E+00  0.00000000E+00  0.00000000E+00
  0.00000000E+00  0.00000000E+00  0.00000000E+00
  0.00000000E+00  0.00000000E+00  0.00000000E+00
  0.00000000E+00  0.00000000E+00  0.00000000E+00
  0.00000000E+00  0.00000000E+00  0.00000000E+00
  0.00000000E+00  0.00000000E+00  0.00000000E+00
  0.00000000E+00  0.00000000E+00  0.00000000E+00
  0.00000000E+00  0.00000000E+00  0.00000000E+00
  0.00000000E+00  0.00000000E+00  0.00000000E+00
  0.00000000E+00  0.00000000E+00  0.00000000E+00
  0.00000000E+00  0.00000000E+00  0.00000000E+00
  0.00000000E+00  0.00000000E+00  0.00000000E+00
  0.00000000E+00  0.00000000E+00  0.00000000E+00
  0.00000000E+00  0.00000000E+00  0.00000000E+00
  0.00000000E+00  0.00000000E+00  0.00000000E+00
  0.00000000E+00  0.00000000E+00  0.00000000E+00
  0.00000000E+00  0.00000000E+00  0.00000000E+00
  0.00000000E+00  0.00000000E+00  0.00000000E+00
  0.00000000E+00  0.00000000E+00  0.00000000E+00
  0.00000000E+00  0.00000000E+00  0.00000000E+00
