Al   B    N                             
   1.00000000000000     
    -9.3224740501751704    0.0008097845153296   -0.0184137834690831
    -4.6900642057115256    8.0968276278845455   -0.0006213575896467
    -0.0737360704000931   -0.0435473076980905  -10.1602484865453633
   Al   B    N 
    34     2    36
Direct
  0.1144042131667788  0.0927454133687462  0.3986976310151249
  0.2149049394960230  0.2038957714395124  0.1365211207142991
  0.7818659173482274  0.0859479215001784  0.8219447248277092
  0.8879710342033462  0.2030673514628774  0.6016844980517462
  0.4527270592204857  0.0890515831343137  0.3198533631658194
  0.5616218101407924  0.2090701333272733  0.0682502995618606
  0.0992292682248603  0.1002713006942955  0.8898918384117849
  0.2218269782868845  0.1986963184775945  0.6436198343092059
  0.7827089205525937  0.0991436555658538  0.3213647209267165
  0.4513895244179338  0.0914885211660703  0.8256330202654567
  0.5624317099014107  0.1946895253831826  0.5679343071906615
  0.1070309946239334  0.4310969998656020  0.3278273945934984
  0.2238729937438038  0.5416952147854204  0.1280880600271601
  0.7760731899704894  0.4311522063600819  0.8140283745510715
  0.8903308847997522  0.5450376861535702  0.5682315632214454
  0.4497824293627772  0.4249401361021796  0.3271566366624228
  0.5594559115083229  0.5343201336284977  0.0720916011120210
  0.1057949192188019  0.4331167324724277  0.8222925429746226
  0.2177339899253070  0.5434130982299337  0.6163248075691357
  0.7831696030815678  0.4206403032893462  0.3274383798540157
  0.8911383452580992  0.5309060355835555  0.0681626451466357
  0.4502545767729913  0.4261487173701539  0.8178037974881889
  0.5565737785024183  0.5411070244310991  0.5665188053717500
  0.0984526224882458  0.7695862172880936  0.3899473722598259
  0.2083530983420943  0.8810098243210263  0.1452137531308111
  0.7825916768699486  0.7632861563626250  0.8275673141917039
  0.4484049584337342  0.7598454262044356  0.3220246450612763
  0.5557339693220840  0.8694408026833287  0.0666475645285729
  0.1131591075244245  0.7608030406526112  0.8965547009211932
  0.2077763658485168  0.8771924023739643  0.6458575845901819
  0.7762164214526024  0.7591723792342933  0.3135619602600812
  0.8874368143069091  0.8757514627123015  0.1017939401241534
  0.4480478696295620  0.7581928410502883  0.8221922059589204
  0.5590521523945711  0.8730301868441046  0.5722852188175764
  0.8855028156356965  0.2097886585075130  0.1090370709853516
  0.8855048148935651  0.8717960514775527  0.6100723613770569
  0.2200005831771961  0.2002361003625595  0.3299087935548428
  0.0771161612799816  0.1116421084310488  0.0844123199554119
  0.8891234944446964  0.2047257927762303  0.8213563514107705
  0.7909285766209564  0.0571452941035631  0.6263586292131009
  0.5587737260895693  0.2020293392301653  0.3807834185050751
  0.4544514790138905  0.0905215245999642  0.1273481064584558
  0.2196520891095162  0.2032881267025815  0.8409116979835503
  0.1211443660872362  0.0879202203564518  0.5830862389789004
  0.8815489428814587  0.2086769129058936  0.3960014666839413
  0.7910192806468288  0.1190612248414098  0.1257339509228927
  0.5575203038100582  0.2070106955681226  0.8812497340660812
  0.4522344628832968  0.0901365325880832  0.6342096479820469
  0.2222777133577409  0.5411779892019624  0.3607971022665808
  0.1069500742417304  0.4327300121194568  0.1303711042167421
  0.8861572421167949  0.5390959575555669  0.8811650902326633
  0.7734433527331888  0.4414768208034090  0.6270154368353715
  0.5570415346495636  0.5399872977087767  0.3791338433863345
  0.4514682589434216  0.4243985990973371  0.1358272707370887
  0.2204108159983562  0.5460239095184107  0.8333054756049592
  0.1068002955808538  0.4266608367800089  0.6267238283519632
  0.8855593012451450  0.5420547756609722  0.3812265056646922
  0.7949568165537855  0.3982994897231222  0.1301406501906328
  0.5564961302713556  0.5383831918888191  0.8844632902067318
  0.4558815886362737  0.4204338948882906  0.6263737290607168
  0.2141632275562131  0.8763220762575727  0.3337437983632583
  0.1205734957336233  0.7577390211569011  0.0828910264385527
  0.8803667782143449  0.8774602801783900  0.8963263672866759
  0.7946405205747809  0.7736418842572164  0.6305686826860608
  0.5569620418401513  0.8710113741993339  0.3845055880436448
  0.4466769635847001  0.7601927442073375  0.1307683134147481
  0.2139586571528085  0.8773119630893333  0.8344350919621135
  0.0756452785437460  0.7800942269568623  0.5848752253951375
  0.8894376383851679  0.8728538725372132  0.3194903956278168
  0.7730893692932881  0.7514909096436284  0.1265908612305395
  0.5562315298335747  0.8701595365075150  0.8794654977766214
  0.4465108915369242  0.7591986071123884  0.6308891622451966
 
  0.00000000E+00  0.00000000E+00  0.00000000E+00
  0.00000000E+00  0.00000000E+00  0.00000000E+00
  0.00000000E+00  0.00000000E+00  0.00000000E+00
  0.00000000E+00  0.00000000E+00  0.00000000E+00
  0.00000000E+00  0.00000000E+00  0.00000000E+00
  0.00000000E+00  0.00000000E+00  0.00000000E+00
  0.00000000E+00  0.00000000E+00  0.00000000E+00
  0.00000000E+00  0.00000000E+00  0.00000000E+00
  0.00000000E+00  0.00000000E+00  0.00000000E+00
  0.00000000E+00  0.00000000E+00  0.00000000E+00
  0.00000000E+00  0.00000000E+00  0.00000000E+00
  0.00000000E+00  0.00000000E+00  0.00000000E+00
  0.00000000E+00  0.00000000E+00  0.00000000E+00
  0.00000000E+00  0.00000000E+00  0.00000000E+00
  0.00000000E+00  0.00000000E+00  0.00000000E+00
  0.00000000E+00  0.00000000E+00  0.00000000E+00
  0.00000000E+00  0.00000000E+00  0.00000000E+00
  0.00000000E+00  0.00000000E+00  0.00000000E+00
  0.00000000E+00  0.00000000E+00  0.00000000E+00
  0.00000000E+00  0.00000000E+00  0.00000000E+00
  0.00000000E+00  0.00000000E+00  0.00000000E+00
  0.00000000E+00  0.00000000E+00  0.00000000E+00
  0.00000000E+00  0.00000000E+00  0.00000000E+00
  0.00000000E+00  0.00000000E+00  0.00000000E+00
  0.00000000E+00  0.00000000E+00  0.00000000E+00
  0.00000000E+00  0.00000000E+00  0.00000000E+00
  0.00000000E+00  0.00000000E+00  0.00000000E+00
  0.00000000E+00  0.00000000E+00  0.00000000E+00
  0.00000000E+00  0.00000000E+00  0.00000000E+00
  0.00000000E+00  0.00000000E+00  0.00000000E+00
  0.00000000E+00  0.00000000E+00  0.00000000E+00
  0.00000000E+00  0.00000000E+00  0.00000000E+00
  0.00000000E+00  0.00000000E+00  0.00000000E+00
  0.00000000E+00  0.00000000E+00  0.00000000E+00
  0.00000000E+00  0.00000000E+00  0.00000000E+00
  0.00000000E+00  0.00000000E+00  0.00000000E+00
  0.00000000E+00  0.00000000E+00  0.00000000E+00
  0.00000000E+00  0.00000000E+00  0.00000000E+00
  0.00000000E+00  0.00000000E+00  0.00000000E+00
  0.00000000E+00  0.00000000E+00  0.00000000E+00
  0.00000000E+00  0.00000000E+00  0.00000000E+00
  0.00000000E+00  0.00000000E+00  0.00000000E+00
  0.00000000E+00  0.00000000E+00  0.00000000E+00
  0.00000000E+00  0.00000000E+00  0.00000000E+00
  0.00000000E+00  0.00000000E+00  0.00000000E+00
  0.00000000E+00  0.00000000E+00  0.00000000E+00
  0.00000000E+00  0.00000000E+00  0.00000000E+00
  0.00000000E+00  0.00000000E+00  0.00000000E+00
  0.00000000E+00  0.00000000E+00  0.00000000E+00
  0.00000000E+00  0.00000000E+00  0.00000000E+00
  0.00000000E+00  0.00000000E+00  0.00000000E+00
  0.00000000E+00  0.00000000E+00  0.00000000E+00
  0.00000000E+00  0.00000000E+00  0.00000000E+00
  0.00000000E+00  0.00000000E+00  0.00000000E+00
  0.00000000E+00  0.00000000E+00  0.00000000E+00
  0.00000000E+00  0.00000000E+00  0.00000000E+00
  0.00000000E+00  0.00000000E+00  0.00000000E+00
  0.00000000E+00  0.00000000E+00  0.00000000E+00
  0.00000000E+00  0.00000000E+00  0.00000000E+00
  0.00000000E+00  0.00000000E+00  0.00000000E+00
  0.00000000E+00  0.00000000E+00  0.00000000E+00
  0.00000000E+00  0.00000000E+00  0.00000000E+00
  0.00000000E+00  0.00000000E+00  0.00000000E+00
  0.00000000E+00  0.00000000E+00  0.00000000E+00
  0.00000000E+00  0.00000000E+00  0.00000000E+00
  0.00000000E+00  0.00000000E+00  0.00000000E+00
  0.00000000E+00  0.00000000E+00  0.00000000E+00
  0.00000000E+00  0.00000000E+00  0.00000000E+00
  0.00000000E+00  0.00000000E+00  0.00000000E+00
  0.00000000E+00  0.00000000E+00  0.00000000E+00
  0.00000000E+00  0.00000000E+00  0.00000000E+00
  0.00000000E+00  0.00000000E+00  0.00000000E+00
