Al   B    N                             
   1.00000000000000     
    -9.3415906954027257    0.0017000715946701   -0.0042680890274421
    -4.6848920120851432    8.0823528829459139   -0.0017057661121818
    -0.0409710186357030   -0.0317093067260968  -10.2136105143823457
   Al   B    N 
    34     2    36
Direct
  0.1142763631706742  0.0939585272838883  0.3962108249247080
  0.2101855181728638  0.2099398454518706  0.1365465307211693
  0.7830141829507866  0.0827491968624017  0.8133229332739802
  0.8916016412093342  0.2022581756102468  0.6063173777550404
  0.4516520096417835  0.0912867487275406  0.3149565236842093
  0.5615830677370823  0.2081553774975191  0.0636592111977663
  0.1003909832862888  0.0992759637158258  0.8825747304245368
  0.2176094841702394  0.2097292441932126  0.6432685916949268
  0.7829935211180299  0.1024419511790526  0.3153853953709174
  0.4520024202010546  0.0903209168178449  0.8197296079696272
  0.5617651302689666  0.1967048704625114  0.5647117166525746
  0.1117301253737892  0.4249449123522950  0.3909571163596794
  0.2163769907904580  0.5396613621072532  0.1422314137480001
  0.7819652335398075  0.4208780115715172  0.8809922631384524
  0.8899857656919252  0.5492383237816085  0.6410917289735636
  0.4484528537675487  0.4204237824032546  0.3228043540208390
  0.5649853381291550  0.5304415782478884  0.1337689708712659
  0.1108771893806306  0.4288351837779700  0.8902562528109428
  0.2108747864320506  0.5465955954641259  0.6351008417881232
  0.7778089387055758  0.4302454582882120  0.3973750270886498
  0.8906863721093572  0.5294418481703218  0.1421433761317843
  0.4464746431071376  0.4199983030704502  0.8186375285289742
  0.5605650977967969  0.5410868231590058  0.6392973093035579
  0.1019509617012702  0.7674747358627840  0.3840321005517424
  0.2090358100796337  0.8790717874287921  0.1402570605381541
  0.7846399193177405  0.7556336524749412  0.8966981444073880
  0.4450684885753518  0.7621106925467132  0.3347635654698138
  0.5484843729731494  0.8753192986627170  0.0706063535856529
  0.1129780202464374  0.7591645706928105  0.8961580133651523
  0.2118371597354312  0.8770777559870737  0.6409274465329631
  0.7870795517713631  0.7610573707960171  0.3768344733249123
  0.8906207265232169  0.8733382420590132  0.1103493657563988
  0.4416374971436596  0.7640479357827061  0.8452173319710425
  0.5516560302448639  0.8783173994910101  0.5682158806120441
  0.8863803737354559  0.2075768299858112  0.0958050784208808
  0.8865760096713018  0.8725435076514287  0.5961269783326202
  0.2169285613380652  0.2065643060473903  0.3252513325126714
  0.0779009090741170  0.1099517092998354  0.0779242518671239
  0.8879668503105691  0.2082763502256739  0.8111291976928072
  0.7917618601957273  0.0571947414319069  0.6208590323566909
  0.5600461246212447  0.2005997421006711  0.3785628965386465
  0.4509938932001205  0.0942647121829268  0.1267046770510092
  0.2173156244725334  0.2076928498343378  0.8333817581553262
  0.1231333033913629  0.0911008338490689  0.5813683828156329
  0.8863755951209242  0.2029029767253476  0.3899387385923916
  0.7912111951733394  0.1193747397551164  0.1218967002605780
  0.5601505807993163  0.2026349982322060  0.8780527361228252
  0.4503569927320257  0.0935711102767343  0.6315705644529430
  0.2160083140847391  0.5420114623205237  0.3339367906406139
  0.1101635820982239  0.4280910638381457  0.0772344578400634
  0.8886475163988194  0.5405411225712555  0.8283433139731926
  0.7767682303828067  0.4420823513290699  0.5828962287901334
  0.5652110232789340  0.5340218814149935  0.3277480771952810
  0.4459000740019547  0.4206986559880193  0.1280789959798625
  0.2142606980193520  0.5435895076385862  0.8252943500278889
  0.1110163301016058  0.4273521296366098  0.5776829803566557
  0.8903046815871463  0.5353413706987382  0.3288124094126559
  0.7949576905775402  0.3967785979971197  0.0760419754563486
  0.5589953600827968  0.5368196111703298  0.8356754943032598
  0.4496756559731239  0.4204270701532522  0.6240236312898020
  0.2143497954756413  0.8771633957673117  0.3290764550294156
  0.1210058223189066  0.7535787452168279  0.0811814740935759
  0.8860395061091282  0.8783759637010036  0.8867482410731853
  0.7974988238900380  0.7749168882363264  0.5760385404492894
  0.5537255846504365  0.8750218401514900  0.3793139235968255
  0.4402842330231778  0.7629288582651839  0.1140485150088963
  0.2129455956937250  0.8757564139607723  0.8304172382968957
  0.0791068816138747  0.7792149256991934  0.5781805905588087
  0.8892882497537045  0.8715583512788214  0.3110812142398132
  0.7783995588890633  0.7489781811039151  0.0864566848093702
  0.5520526320179755  0.8755048746514120  0.8810904654302476
  0.4411887525694809  0.7649022646517309  0.6131956165859123
 
  0.00000000E+00  0.00000000E+00  0.00000000E+00
  0.00000000E+00  0.00000000E+00  0.00000000E+00
  0.00000000E+00  0.00000000E+00  0.00000000E+00
  0.00000000E+00  0.00000000E+00  0.00000000E+00
  0.00000000E+00  0.00000000E+00  0.00000000E+00
  0.00000000E+00  0.00000000E+00  0.00000000E+00
  0.00000000E+00  0.00000000E+00  0.00000000E+00
  0.00000000E+00  0.00000000E+00  0.00000000E+00
  0.00000000E+00  0.00000000E+00  0.00000000E+00
  0.00000000E+00  0.00000000E+00  0.00000000E+00
  0.00000000E+00  0.00000000E+00  0.00000000E+00
  0.00000000E+00  0.00000000E+00  0.00000000E+00
  0.00000000E+00  0.00000000E+00  0.00000000E+00
  0.00000000E+00  0.00000000E+00  0.00000000E+00
  0.00000000E+00  0.00000000E+00  0.00000000E+00
  0.00000000E+00  0.00000000E+00  0.00000000E+00
  0.00000000E+00  0.00000000E+00  0.00000000E+00
  0.00000000E+00  0.00000000E+00  0.00000000E+00
  0.00000000E+00  0.00000000E+00  0.00000000E+00
  0.00000000E+00  0.00000000E+00  0.00000000E+00
  0.00000000E+00  0.00000000E+00  0.00000000E+00
  0.00000000E+00  0.00000000E+00  0.00000000E+00
  0.00000000E+00  0.00000000E+00  0.00000000E+00
  0.00000000E+00  0.00000000E+00  0.00000000E+00
  0.00000000E+00  0.00000000E+00  0.00000000E+00
  0.00000000E+00  0.00000000E+00  0.00000000E+00
  0.00000000E+00  0.00000000E+00  0.00000000E+00
  0.00000000E+00  0.00000000E+00  0.00000000E+00
  0.00000000E+00  0.00000000E+00  0.00000000E+00
  0.00000000E+00  0.00000000E+00  0.00000000E+00
  0.00000000E+00  0.00000000E+00  0.00000000E+00
  0.00000000E+00  0.00000000E+00  0.00000000E+00
  0.00000000E+00  0.00000000E+00  0.00000000E+00
  0.00000000E+00  0.00000000E+00  0.00000000E+00
  0.00000000E+00  0.00000000E+00  0.00000000E+00
  0.00000000E+00  0.00000000E+00  0.00000000E+00
  0.00000000E+00  0.00000000E+00  0.00000000E+00
  0.00000000E+00  0.00000000E+00  0.00000000E+00
  0.00000000E+00  0.00000000E+00  0.00000000E+00
  0.00000000E+00  0.00000000E+00  0.00000000E+00
  0.00000000E+00  0.00000000E+00  0.00000000E+00
  0.00000000E+00  0.00000000E+00  0.00000000E+00
  0.00000000E+00  0.00000000E+00  0.00000000E+00
  0.00000000E+00  0.00000000E+00  0.00000000E+00
  0.00000000E+00  0.00000000E+00  0.00000000E+00
  0.00000000E+00  0.00000000E+00  0.00000000E+00
  0.00000000E+00  0.00000000E+00  0.00000000E+00
  0.00000000E+00  0.00000000E+00  0.00000000E+00
  0.00000000E+00  0.00000000E+00  0.00000000E+00
  0.00000000E+00  0.00000000E+00  0.00000000E+00
  0.00000000E+00  0.00000000E+00  0.00000000E+00
  0.00000000E+00  0.00000000E+00  0.00000000E+00
  0.00000000E+00  0.00000000E+00  0.00000000E+00
  0.00000000E+00  0.00000000E+00  0.00000000E+00
  0.00000000E+00  0.00000000E+00  0.00000000E+00
  0.00000000E+00  0.00000000E+00  0.00000000E+00
  0.00000000E+00  0.00000000E+00  0.00000000E+00
  0.00000000E+00  0.00000000E+00  0.00000000E+00
  0.00000000E+00  0.00000000E+00  0.00000000E+00
  0.00000000E+00  0.00000000E+00  0.00000000E+00
  0.00000000E+00  0.00000000E+00  0.00000000E+00
  0.00000000E+00  0.00000000E+00  0.00000000E+00
  0.00000000E+00  0.00000000E+00  0.00000000E+00
  0.00000000E+00  0.00000000E+00  0.00000000E+00
  0.00000000E+00  0.00000000E+00  0.00000000E+00
  0.00000000E+00  0.00000000E+00  0.00000000E+00
  0.00000000E+00  0.00000000E+00  0.00000000E+00
  0.00000000E+00  0.00000000E+00  0.00000000E+00
  0.00000000E+00  0.00000000E+00  0.00000000E+00
  0.00000000E+00  0.00000000E+00  0.00000000E+00
  0.00000000E+00  0.00000000E+00  0.00000000E+00
  0.00000000E+00  0.00000000E+00  0.00000000E+00
