Al   B    N                             
   1.00000000000000     
    -9.3005568963132408   -0.0012844595290307   -0.0025905564144425
    -4.6491660757370603    8.0525921580541393   -0.0000001256895077
    -0.0027747927092545   -0.0016018820848878   -9.9403803186391109
   Al   B    N 
    34     2    36
Direct
  0.1055519490693015  0.0971117005428681  0.2905691531070147
  0.2171450307247724  0.2073696284019277  0.0449356599452173
  0.7817734107153740  0.0905185323616635  0.7972606316436170
  0.8903506201227529  0.1999878679669109  0.5466842271363817
  0.4444709911330307  0.0941847610457458  0.2943304446546051
  0.5608767029033714  0.2064991122707198  0.0448169623394890
  0.1084712750329047  0.0955666265294113  0.8019057832770216
  0.2210549030195068  0.2046311502211893  0.5449933165499843
  0.7817733890940417  0.0943750777584214  0.2972604759766000
  0.4445245318394129  0.0947612508417706  0.7951431872823918
  0.5608772560096753  0.1992907567363673  0.5448169907124480
  0.1108574685870352  0.4277424574338724  0.2948392770026871
  0.2210547609661404  0.5409807802672546  0.0449933267748719
  0.7789943559173835  0.4251471873630024  0.8018071733039562
  0.8896709885972385  0.5410222520782000  0.5452977183233827
  0.4445242077550162  0.4273805998823619  0.2951431599492551
  0.5590555408685631  0.5338381992792378  0.0450251996605360
  0.1108575815225024  0.4280661163976589  0.7948393711671358
  0.2171452837897405  0.5421519868635869  0.5449356286549900
  0.7807947069869172  0.4220741811234276  0.2910567122246022
  0.8896704867288747  0.5359735084670305  0.0452977699341304
  0.4444708871244458  0.4280107552542134  0.7943303770691301
  0.5573476864102389  0.5375715021318115  0.5445211693291370
  0.1084710503409667  0.7626284314709224  0.3019057696189975
  0.2161673786832736  0.8749834806470673  0.0452084662993002
  0.7807952537675291  0.7637975223808837  0.7910566252736615
  0.4444088215042967  0.7615347808308286  0.2951077576177425
  0.5573479021411174  0.8717474100688563  0.0445212499979064
  0.1055520483448262  0.7640025322440422  0.7905692145244174
  0.2161676638461145  0.8755162744359311  0.5452084144625360
  0.7789945240126883  0.7625250749115722  0.3018073500857810
  0.8903501514580014  0.8763284239884186  0.0466842274406147
  0.4444088856958288  0.7607235622096624  0.7951076825189034
  0.5590560449722162  0.8737729961860055  0.5450252493243113
  0.8890485929140794  0.2046847064887487  0.0423666863530485
  0.8890489824757424  0.8729332996139121  0.5423667085355888
  0.2210393895364930  0.2042511988101054  0.3521809844837236
  0.0859363308959331  0.1068764408674028  0.0964141535002128
  0.8880448169126396  0.2043918866708978  0.8749404686911930
  0.7909665078295944  0.0699068259511364  0.6011024136146617
  0.5575111469200138  0.2040601034846716  0.3529176210956777
  0.4444387414424185  0.0951693673854308  0.1027329317917065
  0.2223300944174227  0.2060708728739655  0.8548917465085282
  0.1094585618293280  0.0954623739794584  0.6098095772204459
  0.8893479562546389  0.2056052365766874  0.3584966459644860
  0.7909661341528036  0.1057937174772690  0.1011022985142205
  0.5575111076119370  0.2050953797889861  0.8529176379421628
  0.4434240392324185  0.0951330603513370  0.6041027857886334
  0.2223298024432268  0.5382653692800261  0.3548917083334189
  0.1110638791590262  0.4287058860527253  0.1040815698014725
  0.8879209064664124  0.5414469394110242  0.8535180932533777
  0.7791682086782146  0.4250433026637239  0.6087125648012162
  0.5579118710266471  0.5377112934596298  0.3521805064206518
  0.4434236509221421  0.4281099295453572  0.1041027809999804
  0.2210393606384358  0.5413756768106381  0.8521809681098205
  0.1110641737058273  0.4268968163912135  0.6040816529132798
  0.8879208372530272  0.5372985773708905  0.3535180657633177
  0.7906565466743487  0.4027896361599090  0.0966939323111760
  0.5550685467767806  0.5389167692677361  0.8547799658008941
  0.4444388669470811  0.4270584644828617  0.6027328773201859
  0.2211878843854365  0.8750842258213893  0.3534414102482089
  0.1094583331537606  0.7617460400324489  0.1098094858032468
  0.8893480093636015  0.8717135031557746  0.8584966622120334
  0.7906570507607285  0.7732200669321685  0.5966938979989038
  0.5550688855643315  0.8726813232041977  0.3547801459325797
  0.4439584073640148  0.7614154188910547  0.1031329649577302
  0.2211879845990126  0.8703942580837065  0.8534414436255702
  0.0859367497555610  0.7738538567338438  0.5964141399822438
  0.8880447910930300  0.8742302432625024  0.3749404961289002
  0.7791680562170455  0.7624551771205930  0.1087127674667769
  0.5579124092166978  0.8710431729974744  0.8521806216145933
  0.4439586457250186  0.7612931019563831  0.6031328950133741
 
  0.00000000E+00  0.00000000E+00  0.00000000E+00
  0.00000000E+00  0.00000000E+00  0.00000000E+00
  0.00000000E+00  0.00000000E+00  0.00000000E+00
  0.00000000E+00  0.00000000E+00  0.00000000E+00
  0.00000000E+00  0.00000000E+00  0.00000000E+00
  0.00000000E+00  0.00000000E+00  0.00000000E+00
  0.00000000E+00  0.00000000E+00  0.00000000E+00
  0.00000000E+00  0.00000000E+00  0.00000000E+00
  0.00000000E+00  0.00000000E+00  0.00000000E+00
  0.00000000E+00  0.00000000E+00  0.00000000E+00
  0.00000000E+00  0.00000000E+00  0.00000000E+00
  0.00000000E+00  0.00000000E+00  0.00000000E+00
  0.00000000E+00  0.00000000E+00  0.00000000E+00
  0.00000000E+00  0.00000000E+00  0.00000000E+00
  0.00000000E+00  0.00000000E+00  0.00000000E+00
  0.00000000E+00  0.00000000E+00  0.00000000E+00
  0.00000000E+00  0.00000000E+00  0.00000000E+00
  0.00000000E+00  0.00000000E+00  0.00000000E+00
  0.00000000E+00  0.00000000E+00  0.00000000E+00
  0.00000000E+00  0.00000000E+00  0.00000000E+00
  0.00000000E+00  0.00000000E+00  0.00000000E+00
  0.00000000E+00  0.00000000E+00  0.00000000E+00
  0.00000000E+00  0.00000000E+00  0.00000000E+00
  0.00000000E+00  0.00000000E+00  0.00000000E+00
  0.00000000E+00  0.00000000E+00  0.00000000E+00
  0.00000000E+00  0.00000000E+00  0.00000000E+00
  0.00000000E+00  0.00000000E+00  0.00000000E+00
  0.00000000E+00  0.00000000E+00  0.00000000E+00
  0.00000000E+00  0.00000000E+00  0.00000000E+00
  0.00000000E+00  0.00000000E+00  0.00000000E+00
  0.00000000E+00  0.00000000E+00  0.00000000E+00
  0.00000000E+00  0.00000000E+00  0.00000000E+00
  0.00000000E+00  0.00000000E+00  0.00000000E+00
  0.00000000E+00  0.00000000E+00  0.00000000E+00
  0.00000000E+00  0.00000000E+00  0.00000000E+00
  0.00000000E+00  0.00000000E+00  0.00000000E+00
  0.00000000E+00  0.00000000E+00  0.00000000E+00
  0.00000000E+00  0.00000000E+00  0.00000000E+00
  0.00000000E+00  0.00000000E+00  0.00000000E+00
  0.00000000E+00  0.00000000E+00  0.00000000E+00
  0.00000000E+00  0.00000000E+00  0.00000000E+00
  0.00000000E+00  0.00000000E+00  0.00000000E+00
  0.00000000E+00  0.00000000E+00  0.00000000E+00
  0.00000000E+00  0.00000000E+00  0.00000000E+00
  0.00000000E+00  0.00000000E+00  0.00000000E+00
  0.00000000E+00  0.00000000E+00  0.00000000E+00
  0.00000000E+00  0.00000000E+00  0.00000000E+00
  0.00000000E+00  0.00000000E+00  0.00000000E+00
  0.00000000E+00  0.00000000E+00  0.00000000E+00
  0.00000000E+00  0.00000000E+00  0.00000000E+00
  0.00000000E+00  0.00000000E+00  0.00000000E+00
  0.00000000E+00  0.00000000E+00  0.00000000E+00
  0.00000000E+00  0.00000000E+00  0.00000000E+00
  0.00000000E+00  0.00000000E+00  0.00000000E+00
  0.00000000E+00  0.00000000E+00  0.00000000E+00
  0.00000000E+00  0.00000000E+00  0.00000000E+00
  0.00000000E+00  0.00000000E+00  0.00000000E+00
  0.00000000E+00  0.00000000E+00  0.00000000E+00
  0.00000000E+00  0.00000000E+00  0.00000000E+00
  0.00000000E+00  0.00000000E+00  0.00000000E+00
  0.00000000E+00  0.00000000E+00  0.00000000E+00
  0.00000000E+00  0.00000000E+00  0.00000000E+00
  0.00000000E+00  0.00000000E+00  0.00000000E+00
  0.00000000E+00  0.00000000E+00  0.00000000E+00
  0.00000000E+00  0.00000000E+00  0.00000000E+00
  0.00000000E+00  0.00000000E+00  0.00000000E+00
  0.00000000E+00  0.00000000E+00  0.00000000E+00
  0.00000000E+00  0.00000000E+00  0.00000000E+00
  0.00000000E+00  0.00000000E+00  0.00000000E+00
  0.00000000E+00  0.00000000E+00  0.00000000E+00
  0.00000000E+00  0.00000000E+00  0.00000000E+00
  0.00000000E+00  0.00000000E+00  0.00000000E+00
