generated by phonopy                    
   1.00000000000000     
    10.0351470768999995   -0.0000022330999784   -0.0000001056124209
    -5.0175765436399997    8.6906901959899994    0.0000001395531216
    -0.0000001735893656    0.0000001431815548   14.9533752540999991
   Pb   P    O 
    21    11    50
Direct
  0.9953856947639821  0.7736414290927343  0.1239561376955649
  0.9942541193386560  0.7686767020157532  0.6235891768602499
  0.0055326932368231  0.2552308709478979  0.3735736550686539
  0.9997515384974776  0.2597529962141962  0.8742459814556653
  0.2254961588900173  0.2278063623143751  0.1247531220364095
  0.2297451747950063  0.2283989071206847  0.6210117053385602
  0.7544825265979043  0.7631764180320957  0.3733674483890255
  0.7380828111700950  0.7428483663388832  0.8742786080667884
  0.7683934320073078  0.0050769120107930  0.1216373773559241
  0.7678188517254227  0.0072499857683610  0.6262386598323957
  0.2671308704118474  0.9919489772082102  0.3722540342946701
  0.2560664552745777  0.9942347279260133  0.8745930839023117
  0.6559274440200156  0.3337184058307656  0.0020226798686949
  0.6882007987262710  0.3320757028267494  0.4994183373365715
  0.3321149919378357  0.6670016222288453  0.0030283240396898
  0.3295173437808430  0.6587153824618284  0.5031105263834874
  0.3276882758554933  0.6571492768088234  0.2440656406544477
  0.3318931461840222  0.6669863606045254  0.7445171669205592
  0.6890212706796888  0.3323893559457787  0.2479507714156313
  0.6569458866708047  0.3330261941264325  0.7481572452660075
  0.3854018043910443  0.3841100684343388  0.3734060439868401
  0.6228172341991680  0.5969477089754136  0.1253343958710929
  0.6216246058652573  0.5964374866258240  0.6233499468630157
  0.3672299416520843  0.3988432415205381  0.8724315248669896
  0.3995559837965743  0.0244369599737695  0.1216988934711836
  0.4003655632322207  0.0254622673359677  0.6265924714661253
  0.6184258134502940  0.9809372811878134  0.3745767599950369
  0.6044209954278870  0.9748647193649802  0.8734487544665370
  0.9699279617592111  0.3788257305790026  0.1173809540468724
  0.9700191551016530  0.3789053936716797  0.6303919775605067
  0.0301032631528884  0.6269457128147096  0.3748876618336112
  0.0219214999000954  0.6300377970012718  0.8734764364322629
  0.5017697037363646  0.6516874450162646  0.1252388017343478
  0.5033716212033212  0.6546092184158567  0.6228406235660557
  0.4987770769384028  0.2629311698600674  0.3731059304785660
  0.4671969362792510  0.3203079047012309  0.8733582335361731
  0.3495812331383732  0.8500825747294130  0.1208869133755925
  0.3463391273263454  0.8502525295847434  0.6266329089854992
  0.6944683476565530  0.1593934145567317  0.3751179286700506
  0.6799021572194732  0.1530624628861474  0.8738226040352615
  0.1466639299738191  0.4935173150653256  0.1191239105515436
  0.1472103534023148  0.4914104378441664  0.6283704378264829
  0.8519353422856639  0.5262254602192442  0.3751218935493839
  0.8431717447336098  0.5300495029450119  0.8740435460349829
  0.7241995692045222  0.6518775029420283  0.0383878911310447
  0.7329962592654624  0.6605305338386387  0.5410552446729255
  0.2268795980130349  0.3352284508437506  0.4779960254276290
  0.2598206634143025  0.3554606684061952  0.9559637272022243
  0.3517883117711307  0.0746012906221480  0.0335906955065468
  0.3268240143142123  0.0657378696322652  0.5460633235602899
  0.6665407244633172  0.9234124054859691  0.4591313042214296
  0.6504440427785667  0.9128350651574095  0.9570928521940871
  0.9243155489815820  0.2639121349999272  0.0368384234570982
  0.9130413672387618  0.2786915768688871  0.5429400556882129
  0.0921369552608056  0.7315682722943109  0.4597992061012803
  0.0865785314832266  0.7377937229583722  0.9571974581522085
  0.2229926657782784  0.3331081423657309  0.2724875764375980
  0.2607007613791339  0.3541451312513857  0.7882372083471267
  0.7351628338655232  0.6659105155091609  0.2069898562957064
  0.7250345952492054  0.6522033201397335  0.7094035990514413
  0.6725861770398751  0.9266470919578964  0.2911821700007522
  0.6517553674960936  0.9140845935386395  0.7896610505468828
  0.3218449834809931  0.0603981977777508  0.2017142894609876
  0.3522633801841479  0.0765133029134688  0.7141455895877300
  0.0911974446578725  0.7326019936684816  0.2903193349348498
  0.0846434072408542  0.7381062192645800  0.7897020282905700
  0.9149280721900723  0.2786579263336364  0.2048699663553109
  0.9223124642587379  0.2634415000528350  0.7107875732636870
  0.5396437757400392  0.4166914157767678  0.1300916467237769
  0.5341379852260033  0.4155021056054835  0.6205361980583248
  0.4970470032689107  0.6222661143287738  0.3731100904489679
  0.4758343855899625  0.5800027759656743  0.8722985787085946
  0.5795761658773770  0.1252678279881536  0.1298093734369701
  0.5810090362277833  0.1229080604445159  0.6197204507982903
  0.4369338378377066  0.9026734876563154  0.3725671982294116
  0.4227552695867374  0.8975015503829056  0.8730031793831188
  0.8785208234808692  0.4669386994999272  0.1095966985935348
  0.8809853920960933  0.4694834615959635  0.6382595446507580
  0.1053679435463835  0.5204601646688261  0.3742090866375563
  0.0956051687561512  0.5223298871077375  0.8727670095142130
  0.9961226543700263  0.0054364879925544  0.1199532170770325
  0.0003094066775304  0.0110348705507377  0.6260015849152651
 
  0.00000000E+00  0.00000000E+00  0.00000000E+00
  0.00000000E+00  0.00000000E+00  0.00000000E+00
  0.00000000E+00  0.00000000E+00  0.00000000E+00
  0.00000000E+00  0.00000000E+00  0.00000000E+00
  0.00000000E+00  0.00000000E+00  0.00000000E+00
  0.00000000E+00  0.00000000E+00  0.00000000E+00
  0.00000000E+00  0.00000000E+00  0.00000000E+00
  0.00000000E+00  0.00000000E+00  0.00000000E+00
  0.00000000E+00  0.00000000E+00  0.00000000E+00
  0.00000000E+00  0.00000000E+00  0.00000000E+00
  0.00000000E+00  0.00000000E+00  0.00000000E+00
  0.00000000E+00  0.00000000E+00  0.00000000E+00
  0.00000000E+00  0.00000000E+00  0.00000000E+00
  0.00000000E+00  0.00000000E+00  0.00000000E+00
  0.00000000E+00  0.00000000E+00  0.00000000E+00
  0.00000000E+00  0.00000000E+00  0.00000000E+00
  0.00000000E+00  0.00000000E+00  0.00000000E+00
  0.00000000E+00  0.00000000E+00  0.00000000E+00
  0.00000000E+00  0.00000000E+00  0.00000000E+00
  0.00000000E+00  0.00000000E+00  0.00000000E+00
  0.00000000E+00  0.00000000E+00  0.00000000E+00
  0.00000000E+00  0.00000000E+00  0.00000000E+00
  0.00000000E+00  0.00000000E+00  0.00000000E+00
  0.00000000E+00  0.00000000E+00  0.00000000E+00
  0.00000000E+00  0.00000000E+00  0.00000000E+00
  0.00000000E+00  0.00000000E+00  0.00000000E+00
  0.00000000E+00  0.00000000E+00  0.00000000E+00
  0.00000000E+00  0.00000000E+00  0.00000000E+00
  0.00000000E+00  0.00000000E+00  0.00000000E+00
  0.00000000E+00  0.00000000E+00  0.00000000E+00
  0.00000000E+00  0.00000000E+00  0.00000000E+00
  0.00000000E+00  0.00000000E+00  0.00000000E+00
  0.00000000E+00  0.00000000E+00  0.00000000E+00
  0.00000000E+00  0.00000000E+00  0.00000000E+00
  0.00000000E+00  0.00000000E+00  0.00000000E+00
  0.00000000E+00  0.00000000E+00  0.00000000E+00
  0.00000000E+00  0.00000000E+00  0.00000000E+00
  0.00000000E+00  0.00000000E+00  0.00000000E+00
  0.00000000E+00  0.00000000E+00  0.00000000E+00
  0.00000000E+00  0.00000000E+00  0.00000000E+00
  0.00000000E+00  0.00000000E+00  0.00000000E+00
  0.00000000E+00  0.00000000E+00  0.00000000E+00
  0.00000000E+00  0.00000000E+00  0.00000000E+00
  0.00000000E+00  0.00000000E+00  0.00000000E+00
  0.00000000E+00  0.00000000E+00  0.00000000E+00
  0.00000000E+00  0.00000000E+00  0.00000000E+00
  0.00000000E+00  0.00000000E+00  0.00000000E+00
  0.00000000E+00  0.00000000E+00  0.00000000E+00
  0.00000000E+00  0.00000000E+00  0.00000000E+00
  0.00000000E+00  0.00000000E+00  0.00000000E+00
  0.00000000E+00  0.00000000E+00  0.00000000E+00
  0.00000000E+00  0.00000000E+00  0.00000000E+00
  0.00000000E+00  0.00000000E+00  0.00000000E+00
  0.00000000E+00  0.00000000E+00  0.00000000E+00
  0.00000000E+00  0.00000000E+00  0.00000000E+00
  0.00000000E+00  0.00000000E+00  0.00000000E+00
  0.00000000E+00  0.00000000E+00  0.00000000E+00
  0.00000000E+00  0.00000000E+00  0.00000000E+00
  0.00000000E+00  0.00000000E+00  0.00000000E+00
  0.00000000E+00  0.00000000E+00  0.00000000E+00
  0.00000000E+00  0.00000000E+00  0.00000000E+00
  0.00000000E+00  0.00000000E+00  0.00000000E+00
  0.00000000E+00  0.00000000E+00  0.00000000E+00
  0.00000000E+00  0.00000000E+00  0.00000000E+00
  0.00000000E+00  0.00000000E+00  0.00000000E+00
  0.00000000E+00  0.00000000E+00  0.00000000E+00
  0.00000000E+00  0.00000000E+00  0.00000000E+00
  0.00000000E+00  0.00000000E+00  0.00000000E+00
  0.00000000E+00  0.00000000E+00  0.00000000E+00
  0.00000000E+00  0.00000000E+00  0.00000000E+00
  0.00000000E+00  0.00000000E+00  0.00000000E+00
  0.00000000E+00  0.00000000E+00  0.00000000E+00
  0.00000000E+00  0.00000000E+00  0.00000000E+00
  0.00000000E+00  0.00000000E+00  0.00000000E+00
  0.00000000E+00  0.00000000E+00  0.00000000E+00
  0.00000000E+00  0.00000000E+00  0.00000000E+00
  0.00000000E+00  0.00000000E+00  0.00000000E+00
  0.00000000E+00  0.00000000E+00  0.00000000E+00
  0.00000000E+00  0.00000000E+00  0.00000000E+00
  0.00000000E+00  0.00000000E+00  0.00000000E+00
  0.00000000E+00  0.00000000E+00  0.00000000E+00
  0.00000000E+00  0.00000000E+00  0.00000000E+00
