supercell of icsd_191774.cif            
   1.00000000000000     
    10.4714591094090892   -0.0005730425488117    0.0014786060404950
    -5.2362258853081682    9.0694025832040026    0.0000006748489089
     0.0016038895852340    0.0009268307627667   11.1699807662247093
   N    In   B 
    36    34     2
Direct
  0.2224994363103079  0.1106387216904778  0.4413119856610379
  0.1108693188356824  0.2221015718633339  0.1900911644689103
  0.8896206727570188  0.1114775012722546  0.9381937614212958
  0.7717456756322463  0.2206368074728857  0.6953022810971135
  0.5545091218009119  0.1083443355896136  0.4293572872948417
  0.4674757047468887  0.2675002035391927  0.2030070202315386
  0.2274505456758646  0.1140436965101017  0.9411935911662539
  0.1122689748784680  0.2228006663665383  0.6916712852210338
  0.8870740010791422  0.1102038750749230  0.4440976646825447
  0.7788637089835291  0.2218369312709854  0.1880377045940591
  0.5302195550870721  0.0674653212343017  0.9584265693209275
  0.4486576944573173  0.2220037395660341  0.6825828817215580
  0.2224990476283821  0.4451936558992955  0.4413120357356277
  0.1101999724279494  0.5528479278233007  0.1916149285650874
  0.8879693677289495  0.4463606068960289  0.9453104397195986
  0.7756020160798585  0.5544676047296662  0.6806090573197991
  0.5545490776690301  0.4439409102621141  0.3989292035601579
  0.4674760826510180  0.5333093553760122  0.2030073331235869
  0.2274508660406482  0.4467397926235535  0.9411935920437600
  0.1129576061095889  0.5601069341199079  0.6948017318995454
  0.8889787552267094  0.4432699890642695  0.4405799618834081
  0.7318268460427504  0.5325801519479967  0.2057832732631724
  0.5534222012956747  0.4433778521474494  0.9353603175242782
  0.4486573807453027  0.5599873379199778  0.6825825411780073
  0.2242205312638390  0.7787769162118821  0.4320647076634501
  0.1101998946590754  0.8906856349239263  0.1916149327510297
  0.8879693746790522  0.7749424216184480  0.9453107901859852
  0.7717454392356871  0.8844417146382710  0.6953024482119545
  0.5545084317188369  0.7794978427537274  0.4293574357622560
  0.4458034827974089  0.8895684103725117  0.1516837276036256
  0.2682040097823162  0.8007684386304774  0.9569076957533653
  0.1129576271905961  0.8861833137346693  0.6948013142640619
  0.8889782327082614  0.7790418872374261  0.4405801607902546
  0.7788643584471373  0.8903611742876834  0.1880380185489443
  0.5302198810663086  0.7960882334754373  0.9584265856930188
  0.4456035395588387  0.8894685485224159  0.6858730599531739
  0.2311412471563727  0.1207990910584087  0.2503020310211070
  0.1112756359855780  0.2223041713755407  0.5003796902884332
  0.8881188718187332  0.1107259774884639  0.7478277562037334
  0.7695206111672306  0.2128800243933000  0.9981175094954793
  0.5537037055406131  0.1140619040730755  0.2375280317883295
  0.4501119643884195  0.2276769407709551  0.4871826736541323
  0.2265707639911057  0.1127576079625712  0.7482775083514781
  0.1114354963104844  0.2223840712123959  0.9989531985399225
  0.8888601882240579  0.1110976546689528  0.2519935101405650
  0.7729299578525470  0.2203936651136189  0.5015277138378949
  0.5485093325565700  0.1037393261906772  0.7609367934569704
  0.4474673781405656  0.2233289300227312  0.0093615656871791
  0.2311419235803100  0.4436763878157066  0.2503019781849503
  0.1124946399173368  0.5588710636252330  0.5001646499503209
  0.8869317598912758  0.4465474702663457  0.7509718095811664
  0.7683615166337745  0.5508473723705052  0.0111873806843406
  0.4501117071425327  0.5557673541027128  0.4871822477633785
  0.2265706341179765  0.4471457088746362  0.7482773938723426
  0.1209004220696741  0.5633118629492913  0.0003935271596873
  0.8796926373240481  0.4423872436719947  0.2492090905340731
  0.7703566693067145  0.5518446635818393  0.4876363695913426
  0.5552883634821910  0.4443111878427572  0.7461300265328319
  0.4474679644369033  0.5574720730649076  0.0093615784226984
  0.2290534280297436  0.7811936972999689  0.2395677592878229
  0.1124945323444635  0.8869563879803337  0.5001642754720663
  0.8869322898608303  0.7737176796883816  0.7509720182805637
  0.7695210061474711  0.8899749343050516  0.9981178785629510
  0.5537042977183546  0.7729759067429924  0.2375281006064682
  0.4445748639746725  0.8889543122161356  0.4970463612382048
  0.2317230180582399  0.7825279218223926  0.7614799411785427
  0.1209003242357412  0.8909206951091875  0.0003935992214750
  0.8796922009205019  0.7706386506877863  0.2492090213039546
  0.7729294141271623  0.8858695075821714  0.5015278257353870
  0.5485087211508954  0.7781029755052202  0.7609367273652623
  0.5567998847699158  0.4450666609680169  0.2527057357394042
  0.4420841946293734  0.8877088909286641  0.0066282313872463
 
  0.00000000E+00  0.00000000E+00  0.00000000E+00
  0.00000000E+00  0.00000000E+00  0.00000000E+00
  0.00000000E+00  0.00000000E+00  0.00000000E+00
  0.00000000E+00  0.00000000E+00  0.00000000E+00
  0.00000000E+00  0.00000000E+00  0.00000000E+00
  0.00000000E+00  0.00000000E+00  0.00000000E+00
  0.00000000E+00  0.00000000E+00  0.00000000E+00
  0.00000000E+00  0.00000000E+00  0.00000000E+00
  0.00000000E+00  0.00000000E+00  0.00000000E+00
  0.00000000E+00  0.00000000E+00  0.00000000E+00
  0.00000000E+00  0.00000000E+00  0.00000000E+00
  0.00000000E+00  0.00000000E+00  0.00000000E+00
  0.00000000E+00  0.00000000E+00  0.00000000E+00
  0.00000000E+00  0.00000000E+00  0.00000000E+00
  0.00000000E+00  0.00000000E+00  0.00000000E+00
  0.00000000E+00  0.00000000E+00  0.00000000E+00
  0.00000000E+00  0.00000000E+00  0.00000000E+00
  0.00000000E+00  0.00000000E+00  0.00000000E+00
  0.00000000E+00  0.00000000E+00  0.00000000E+00
  0.00000000E+00  0.00000000E+00  0.00000000E+00
  0.00000000E+00  0.00000000E+00  0.00000000E+00
  0.00000000E+00  0.00000000E+00  0.00000000E+00
  0.00000000E+00  0.00000000E+00  0.00000000E+00
  0.00000000E+00  0.00000000E+00  0.00000000E+00
  0.00000000E+00  0.00000000E+00  0.00000000E+00
  0.00000000E+00  0.00000000E+00  0.00000000E+00
  0.00000000E+00  0.00000000E+00  0.00000000E+00
  0.00000000E+00  0.00000000E+00  0.00000000E+00
  0.00000000E+00  0.00000000E+00  0.00000000E+00
  0.00000000E+00  0.00000000E+00  0.00000000E+00
  0.00000000E+00  0.00000000E+00  0.00000000E+00
  0.00000000E+00  0.00000000E+00  0.00000000E+00
  0.00000000E+00  0.00000000E+00  0.00000000E+00
  0.00000000E+00  0.00000000E+00  0.00000000E+00
  0.00000000E+00  0.00000000E+00  0.00000000E+00
  0.00000000E+00  0.00000000E+00  0.00000000E+00
  0.00000000E+00  0.00000000E+00  0.00000000E+00
  0.00000000E+00  0.00000000E+00  0.00000000E+00
  0.00000000E+00  0.00000000E+00  0.00000000E+00
  0.00000000E+00  0.00000000E+00  0.00000000E+00
  0.00000000E+00  0.00000000E+00  0.00000000E+00
  0.00000000E+00  0.00000000E+00  0.00000000E+00
  0.00000000E+00  0.00000000E+00  0.00000000E+00
  0.00000000E+00  0.00000000E+00  0.00000000E+00
  0.00000000E+00  0.00000000E+00  0.00000000E+00
  0.00000000E+00  0.00000000E+00  0.00000000E+00
  0.00000000E+00  0.00000000E+00  0.00000000E+00
  0.00000000E+00  0.00000000E+00  0.00000000E+00
  0.00000000E+00  0.00000000E+00  0.00000000E+00
  0.00000000E+00  0.00000000E+00  0.00000000E+00
  0.00000000E+00  0.00000000E+00  0.00000000E+00
  0.00000000E+00  0.00000000E+00  0.00000000E+00
  0.00000000E+00  0.00000000E+00  0.00000000E+00
  0.00000000E+00  0.00000000E+00  0.00000000E+00
  0.00000000E+00  0.00000000E+00  0.00000000E+00
  0.00000000E+00  0.00000000E+00  0.00000000E+00
  0.00000000E+00  0.00000000E+00  0.00000000E+00
  0.00000000E+00  0.00000000E+00  0.00000000E+00
  0.00000000E+00  0.00000000E+00  0.00000000E+00
  0.00000000E+00  0.00000000E+00  0.00000000E+00
  0.00000000E+00  0.00000000E+00  0.00000000E+00
  0.00000000E+00  0.00000000E+00  0.00000000E+00
  0.00000000E+00  0.00000000E+00  0.00000000E+00
  0.00000000E+00  0.00000000E+00  0.00000000E+00
  0.00000000E+00  0.00000000E+00  0.00000000E+00
  0.00000000E+00  0.00000000E+00  0.00000000E+00
  0.00000000E+00  0.00000000E+00  0.00000000E+00
  0.00000000E+00  0.00000000E+00  0.00000000E+00
  0.00000000E+00  0.00000000E+00  0.00000000E+00
  0.00000000E+00  0.00000000E+00  0.00000000E+00
  0.00000000E+00  0.00000000E+00  0.00000000E+00
  0.00000000E+00  0.00000000E+00  0.00000000E+00
