Al   Gd   N                             
   1.00000000000000     
    -9.6135533830521336   -0.0000005712207742   -0.0000001671568050
    -4.8067775080397865    8.3255822622195463   -0.0000001402386246
     0.0000002009149046    0.0000003853705527   -9.8611835568160604
   Al   Gd   N 
    34     2    36
Direct
  0.1118833773593764  0.0952167210459720  0.3271963154557156
  0.2222222126831994  0.2055555462103626  0.0749531447974263
  0.7726598382615322  0.1046803494248607  0.8326229770128748
  0.8930515240065517  0.2075395535130937  0.5754773892379603
  0.4428998723122533  0.0952167082402511  0.3271962764908025
  0.5539188630140117  0.2042079192432098  0.0776848104149792
  0.1108250972553009  0.0941584583291828  0.8252112097370983
  0.2222222354593555  0.2055555756159180  0.5788009766003199
  0.7769362832361253  0.0961273872203563  0.3201570851898339
  0.8918732053339866  0.2042079242806167  0.0776848237047005
  0.4450164341318370  0.0941584524449581  0.8252112582001203
  0.5494089294742039  0.2075395016044297  0.5754773913490538
  0.1118833657406384  0.4262332133691089  0.3271962764463439
  0.2208745989641869  0.5372521761698366  0.0776847958795770
  0.7888659813842622  0.4222336768724873  0.8326781567080772
  0.8930515849641552  0.5327422085369378  0.5754773947917968
  0.4439483568675584  0.4272816911263035  0.3194644721493844
  0.5555555497172833  0.5388888905671507  0.0748812660950051
  0.1108251122066193  0.4283497539283374  0.8252112607716668
  0.2242062097988793  0.5327422127850454  0.5754774113132441
  0.7787698817040223  0.4272816972010602  0.3194644516269776
  0.8918731955438162  0.5372522213940343  0.0776848236852601
  0.4389003628034800  0.4222336613055546  0.8326781142863027
  0.1127940721648457  0.7602696064918675  0.3201570742542401
  0.2208745805499248  0.8752065555835884  0.0776848089091686
  0.7726598259956248  0.7559931415258845  0.8326229386208723
  0.4439483520565446  0.7621032373239842  0.3194644274251317
  0.5539189017749848  0.8752065385592402  0.0776848240993431
  0.1213470662409719  0.7559931374272679  0.8326229892350128
  0.2242062103733176  0.8763849113876745  0.5754774063393597
  0.7769362754551494  0.7602696066215628  0.3201571314357565
  0.8888888999166156  0.8722222104198707  0.0749910920158712
  0.4389003383162020  0.7721993601674271  0.8326781834844112
  0.5494088805959620  0.8763849637866059  0.5754773912587865
  0.5555555102869505  0.5388889975599298  0.5919975741664416
  0.8888889562541777  0.8722222006172871  0.5908837066962889
  0.2222222047754272  0.2055555716221420  0.3842755313894415
  0.1122042760884625  0.0955375919636694  0.1338636197514589
  0.8931586941518503  0.2029896871380643  0.8868823861365485
  0.7593826747081920  0.1312346725576248  0.6400560825356294
  0.5556208136018768  0.2060084837078904  0.3790863289787012
  0.4422581029950123  0.0955376040484452  0.1338635806800141
  0.2222222035073216  0.2055555547438459  0.8792732157819785
  0.1102078861094498  0.0935412490839909  0.6302903165238760
  0.8883706538408589  0.2060085021810281  0.3790863301802858
  0.7771323087867401  0.0957353751576306  0.1266816274206164
  0.5538516407446039  0.2029896888087066  0.8868823771753682
  0.4462508590985337  0.0935412574000836  0.6302903643513247
  0.2226751282960961  0.5389541644266913  0.3790863432629195
  0.1122042856587271  0.4255914236794425  0.1338635791026590
  0.8931586866930843  0.5371849732213008  0.8868823862867572
  0.8128166760297688  0.4102583122094217  0.6429084547406347
  0.5555555165033184  0.5388888998754808  0.3611327533227353
  0.4436395478538557  0.4269728653443821  0.1263169812138258
  0.2196563570699794  0.5371849578034045  0.8868823602074940
  0.1102079122169499  0.4295841866358074  0.6302903687958974
  0.8883706686196859  0.5389541293850186  0.3790863369434945
  0.7793875705913820  0.4269728678829594  0.1263169712489045
  0.5555555443927531  0.5388889222708357  0.8734423732783725
  0.4269250160773552  0.4102583397883066  0.6429084140899803
  0.2226751485867737  0.8717040065145980  0.3790863386052763
  0.1124020934934720  0.7604655965523932  0.1266816155543466
  0.8888889217373261  0.8722222104027395  0.8721231671584277
  0.7593826704567093  0.7427159712004183  0.6400560390562262
  0.5556207793567935  0.8717040167008534  0.3790863305128553
  0.4436395441746654  0.7627209002064248  0.1263169472989176
  0.2196563192054626  0.8764920636509146  0.8868823775545494
  0.1479014764275490  0.7427159230790892  0.6400560996026243
  0.8888888902908221  0.8722222054778612  0.3616823229079529
  0.7771323185971539  0.7604656120527409  0.1266816688100221
  0.5538516545386329  0.8764920414318382  0.8868823953226226
  0.4269249340047594  0.7961501092909060  0.6429084992525560
 
  0.00000000E+00  0.00000000E+00  0.00000000E+00
  0.00000000E+00  0.00000000E+00  0.00000000E+00
  0.00000000E+00  0.00000000E+00  0.00000000E+00
  0.00000000E+00  0.00000000E+00  0.00000000E+00
  0.00000000E+00  0.00000000E+00  0.00000000E+00
  0.00000000E+00  0.00000000E+00  0.00000000E+00
  0.00000000E+00  0.00000000E+00  0.00000000E+00
  0.00000000E+00  0.00000000E+00  0.00000000E+00
  0.00000000E+00  0.00000000E+00  0.00000000E+00
  0.00000000E+00  0.00000000E+00  0.00000000E+00
  0.00000000E+00  0.00000000E+00  0.00000000E+00
  0.00000000E+00  0.00000000E+00  0.00000000E+00
  0.00000000E+00  0.00000000E+00  0.00000000E+00
  0.00000000E+00  0.00000000E+00  0.00000000E+00
  0.00000000E+00  0.00000000E+00  0.00000000E+00
  0.00000000E+00  0.00000000E+00  0.00000000E+00
  0.00000000E+00  0.00000000E+00  0.00000000E+00
  0.00000000E+00  0.00000000E+00  0.00000000E+00
  0.00000000E+00  0.00000000E+00  0.00000000E+00
  0.00000000E+00  0.00000000E+00  0.00000000E+00
  0.00000000E+00  0.00000000E+00  0.00000000E+00
  0.00000000E+00  0.00000000E+00  0.00000000E+00
  0.00000000E+00  0.00000000E+00  0.00000000E+00
  0.00000000E+00  0.00000000E+00  0.00000000E+00
  0.00000000E+00  0.00000000E+00  0.00000000E+00
  0.00000000E+00  0.00000000E+00  0.00000000E+00
  0.00000000E+00  0.00000000E+00  0.00000000E+00
  0.00000000E+00  0.00000000E+00  0.00000000E+00
  0.00000000E+00  0.00000000E+00  0.00000000E+00
  0.00000000E+00  0.00000000E+00  0.00000000E+00
  0.00000000E+00  0.00000000E+00  0.00000000E+00
  0.00000000E+00  0.00000000E+00  0.00000000E+00
  0.00000000E+00  0.00000000E+00  0.00000000E+00
  0.00000000E+00  0.00000000E+00  0.00000000E+00
  0.00000000E+00  0.00000000E+00  0.00000000E+00
  0.00000000E+00  0.00000000E+00  0.00000000E+00
  0.00000000E+00  0.00000000E+00  0.00000000E+00
  0.00000000E+00  0.00000000E+00  0.00000000E+00
  0.00000000E+00  0.00000000E+00  0.00000000E+00
  0.00000000E+00  0.00000000E+00  0.00000000E+00
  0.00000000E+00  0.00000000E+00  0.00000000E+00
  0.00000000E+00  0.00000000E+00  0.00000000E+00
  0.00000000E+00  0.00000000E+00  0.00000000E+00
  0.00000000E+00  0.00000000E+00  0.00000000E+00
  0.00000000E+00  0.00000000E+00  0.00000000E+00
  0.00000000E+00  0.00000000E+00  0.00000000E+00
  0.00000000E+00  0.00000000E+00  0.00000000E+00
  0.00000000E+00  0.00000000E+00  0.00000000E+00
  0.00000000E+00  0.00000000E+00  0.00000000E+00
  0.00000000E+00  0.00000000E+00  0.00000000E+00
  0.00000000E+00  0.00000000E+00  0.00000000E+00
  0.00000000E+00  0.00000000E+00  0.00000000E+00
  0.00000000E+00  0.00000000E+00  0.00000000E+00
  0.00000000E+00  0.00000000E+00  0.00000000E+00
  0.00000000E+00  0.00000000E+00  0.00000000E+00
  0.00000000E+00  0.00000000E+00  0.00000000E+00
  0.00000000E+00  0.00000000E+00  0.00000000E+00
  0.00000000E+00  0.00000000E+00  0.00000000E+00
  0.00000000E+00  0.00000000E+00  0.00000000E+00
  0.00000000E+00  0.00000000E+00  0.00000000E+00
  0.00000000E+00  0.00000000E+00  0.00000000E+00
  0.00000000E+00  0.00000000E+00  0.00000000E+00
  0.00000000E+00  0.00000000E+00  0.00000000E+00
  0.00000000E+00  0.00000000E+00  0.00000000E+00
  0.00000000E+00  0.00000000E+00  0.00000000E+00
  0.00000000E+00  0.00000000E+00  0.00000000E+00
  0.00000000E+00  0.00000000E+00  0.00000000E+00
  0.00000000E+00  0.00000000E+00  0.00000000E+00
  0.00000000E+00  0.00000000E+00  0.00000000E+00
  0.00000000E+00  0.00000000E+00  0.00000000E+00
  0.00000000E+00  0.00000000E+00  0.00000000E+00
  0.00000000E+00  0.00000000E+00  0.00000000E+00
