supercell of icsd_608626.cif            
   1.13463349675962     
     9.4539210377030791    0.0214401468315440   -0.0326113065559860
    -4.7085053915778623    8.1856010244986575    0.0066188252965266
    -0.0335747750754406   -0.0130300587619554    8.9837052006490019
   Y    Al   N 
    20    16    36
Direct
  0.2235289645594278  0.1091481621521879  0.2107900047949940
  0.1159127440540288  0.2240650767328987  0.4664623822044831
  0.8948721742646413  0.1236950044725944  0.7333760731750871
  0.5606093473082083  0.1052858029922632  0.2435911751173592
  0.4425540340730052  0.2121349052544517  0.5231094656782318
  0.4617671244546671  0.2363701852271163  0.9561608794538685
  0.0927534489862367  0.5397620606203049  0.4749622885185047
  0.5537165330094354  0.4446811042103747  0.2728941546173189
  0.2199988137483331  0.4291988018374155  0.7293647792241273
  0.1035804301652519  0.5391749012417009  0.9914550264488966
  0.8744320866907174  0.4414453595719934  0.2243787781060931
  0.4505968278425527  0.5486541635887647  0.9793400944790918
  0.1028694334127565  0.8825233519335569  0.4855031847122575
  0.5467015871503307  0.7714353818084305  0.2370128146829060
  0.2217808846018698  0.7730017072953572  0.7176728109705834
  0.1054847855180157  0.8751483397769633  0.9734631858950564
  0.8853748674444830  0.7687656249871537  0.2146277168535988
  0.7824918916202890  0.8945770384245293  0.4694963680613498
  0.5860848712642195  0.7947346570328975  0.7431237933775279
  0.4511241923263754  0.8936531653965005  0.9801578915266944
  0.7821977965404017  0.2215682281346218  0.9906085789822043
  0.2040601826802231  0.0967700208331834  0.7642187977050767
  0.0985531882356341  0.2232909636548683  0.0081627048995827
  0.8918350575445402  0.1347964067801186  0.2444989238329640
  0.7592727815078391  0.2274575211246912  0.5039466310236449
  0.5612969818524576  0.1117354184322679  0.7493767047125246
  0.2296001864583843  0.4531137716333404  0.2550024889806863
  0.8694808294642584  0.4407992153803448  0.7507886919854627
  0.7670436806226633  0.5522064348452886  0.9737880525493168
  0.4513255877689559  0.5696279185237998  0.5167368685244966
  0.7773895932160073  0.5567474427776133  0.5126564078001365
  0.5929133989999613  0.4962879379737970  0.7178223584163774
  0.2320590820439463  0.7732853922645546  0.2609456395553593
  0.8900752201211475  0.7830897166155211  0.7563410022111654
  0.7903321845173465  0.9123554684045985  0.0109413681291528
  0.4570920018044902  0.8932697868775676  0.5104272170116246
  0.2271673592964660  0.1050472294268658  0.4285867343830887
  0.0997166417298274  0.2452715514394939  0.2074600118269245
  0.8945663320277575  0.1178606449928168  0.9561049991685309
  0.7548778668930254  0.2418803210134399  0.6900426091813188
  0.5607336166027181  0.0930949674009725  0.4629834620413362
  0.4564464369179788  0.2299480297366898  0.1890671694124180
  0.1994387857760032  0.1177465988605988  0.9629650763080804
  0.1233447615238461  0.1995731533208769  0.6861669720008337
  0.8759979284854751  0.1448785387137050  0.4414160320587754
  0.7892009218011751  0.2161135784333936  0.1732471683210832
  0.5907344867802138  0.1247585434757355  0.9354916942113860
  0.4056351402310483  0.1596314484648644  0.7336960789037121
  0.2558047444555314  0.4622818832342688  0.4551037371607052
  0.1306935093773944  0.5632827261522593  0.2303018925328146
  0.8621811569987585  0.4332674346002108  0.9434247085253276
  0.7997190782598054  0.5783660958735339  0.6991755793290793
  0.5659518901004432  0.4683851729372321  0.5100524372824680
  0.4212085961212111  0.5360842829329968  0.1996088504204536
  0.2085113350200487  0.4131712858820293  0.9461137469180159
  0.0688734315484183  0.5218226984301424  0.6997687613765464
  0.8298698914468687  0.4233394270808546  0.4416687691534307
  0.7490763196032120  0.5444695914553819  0.1562676850277498
  0.5849911540330339  0.4631732414612841  0.8981887461485201
  0.4584649520723190  0.5632011731641668  0.7063253674910683
  0.2481444934610977  0.7848014934084802  0.4652467106059461
  0.1227313598261262  0.8601879892993125  0.2075467545635874
  0.8648671154361764  0.7708201173166174  0.9500153897913179
  0.8113246039147413  0.8925533779433721  0.6865519086028655
  0.5414629626468042  0.7713382850047594  0.4725126154329686
  0.4200032582600031  0.8731284367121432  0.1985599415887833
  0.2240048169861240  0.7604492024505376  0.9295633157108725
  0.0935954378741215  0.8906382241567883  0.7274904202418426
  0.8677766108154401  0.7394129433729688  0.4317422584710968
  0.8022500915710893  0.9290626678915430  0.2055669964430322
  0.5907270935548325  0.7951328634981181  0.9751533494492222
  0.4691430226778834  0.9119683416479702  0.7016167456970166
 
  0.00000000E+00  0.00000000E+00  0.00000000E+00
  0.00000000E+00  0.00000000E+00  0.00000000E+00
  0.00000000E+00  0.00000000E+00  0.00000000E+00
  0.00000000E+00  0.00000000E+00  0.00000000E+00
  0.00000000E+00  0.00000000E+00  0.00000000E+00
  0.00000000E+00  0.00000000E+00  0.00000000E+00
  0.00000000E+00  0.00000000E+00  0.00000000E+00
  0.00000000E+00  0.00000000E+00  0.00000000E+00
  0.00000000E+00  0.00000000E+00  0.00000000E+00
  0.00000000E+00  0.00000000E+00  0.00000000E+00
  0.00000000E+00  0.00000000E+00  0.00000000E+00
  0.00000000E+00  0.00000000E+00  0.00000000E+00
  0.00000000E+00  0.00000000E+00  0.00000000E+00
  0.00000000E+00  0.00000000E+00  0.00000000E+00
  0.00000000E+00  0.00000000E+00  0.00000000E+00
  0.00000000E+00  0.00000000E+00  0.00000000E+00
  0.00000000E+00  0.00000000E+00  0.00000000E+00
  0.00000000E+00  0.00000000E+00  0.00000000E+00
  0.00000000E+00  0.00000000E+00  0.00000000E+00
  0.00000000E+00  0.00000000E+00  0.00000000E+00
  0.00000000E+00  0.00000000E+00  0.00000000E+00
  0.00000000E+00  0.00000000E+00  0.00000000E+00
  0.00000000E+00  0.00000000E+00  0.00000000E+00
  0.00000000E+00  0.00000000E+00  0.00000000E+00
  0.00000000E+00  0.00000000E+00  0.00000000E+00
  0.00000000E+00  0.00000000E+00  0.00000000E+00
  0.00000000E+00  0.00000000E+00  0.00000000E+00
  0.00000000E+00  0.00000000E+00  0.00000000E+00
  0.00000000E+00  0.00000000E+00  0.00000000E+00
  0.00000000E+00  0.00000000E+00  0.00000000E+00
  0.00000000E+00  0.00000000E+00  0.00000000E+00
  0.00000000E+00  0.00000000E+00  0.00000000E+00
  0.00000000E+00  0.00000000E+00  0.00000000E+00
  0.00000000E+00  0.00000000E+00  0.00000000E+00
  0.00000000E+00  0.00000000E+00  0.00000000E+00
  0.00000000E+00  0.00000000E+00  0.00000000E+00
  0.00000000E+00  0.00000000E+00  0.00000000E+00
  0.00000000E+00  0.00000000E+00  0.00000000E+00
  0.00000000E+00  0.00000000E+00  0.00000000E+00
  0.00000000E+00  0.00000000E+00  0.00000000E+00
  0.00000000E+00  0.00000000E+00  0.00000000E+00
  0.00000000E+00  0.00000000E+00  0.00000000E+00
  0.00000000E+00  0.00000000E+00  0.00000000E+00
  0.00000000E+00  0.00000000E+00  0.00000000E+00
  0.00000000E+00  0.00000000E+00  0.00000000E+00
  0.00000000E+00  0.00000000E+00  0.00000000E+00
  0.00000000E+00  0.00000000E+00  0.00000000E+00
  0.00000000E+00  0.00000000E+00  0.00000000E+00
  0.00000000E+00  0.00000000E+00  0.00000000E+00
  0.00000000E+00  0.00000000E+00  0.00000000E+00
  0.00000000E+00  0.00000000E+00  0.00000000E+00
  0.00000000E+00  0.00000000E+00  0.00000000E+00
  0.00000000E+00  0.00000000E+00  0.00000000E+00
  0.00000000E+00  0.00000000E+00  0.00000000E+00
  0.00000000E+00  0.00000000E+00  0.00000000E+00
  0.00000000E+00  0.00000000E+00  0.00000000E+00
  0.00000000E+00  0.00000000E+00  0.00000000E+00
  0.00000000E+00  0.00000000E+00  0.00000000E+00
  0.00000000E+00  0.00000000E+00  0.00000000E+00
  0.00000000E+00  0.00000000E+00  0.00000000E+00
  0.00000000E+00  0.00000000E+00  0.00000000E+00
  0.00000000E+00  0.00000000E+00  0.00000000E+00
  0.00000000E+00  0.00000000E+00  0.00000000E+00
  0.00000000E+00  0.00000000E+00  0.00000000E+00
  0.00000000E+00  0.00000000E+00  0.00000000E+00
  0.00000000E+00  0.00000000E+00  0.00000000E+00
  0.00000000E+00  0.00000000E+00  0.00000000E+00
  0.00000000E+00  0.00000000E+00  0.00000000E+00
  0.00000000E+00  0.00000000E+00  0.00000000E+00
  0.00000000E+00  0.00000000E+00  0.00000000E+00
  0.00000000E+00  0.00000000E+00  0.00000000E+00
  0.00000000E+00  0.00000000E+00  0.00000000E+00
