Al   Sc   N                             
   1.00000000000000     
    -9.5189245275614400   -0.0000313844657986    0.0000173312766691
    -4.7594807610916154    8.2526309376714195    0.0096934759033071
    -0.0000162754570621   -0.0065105206250330   -9.7416934121444410
   Al   Sc   N 
    34     2    35
Direct
  0.1108857190602066  0.0950878410477074  0.3914328566053555
  0.2216722905307194  0.2100216401851114  0.1321131773765671
  0.7736889674509086  0.0939425832029670  0.8822844517110298
  0.8768456727551239  0.2114554539343203  0.6287964671128847
  0.4464575850351054  0.0927806667350310  0.3793341957644856
  0.5553524572238473  0.2061544636526946  0.1314854124388560
  0.2285582992486113  0.2114553837859958  0.6287964905455041
  0.7776210521286444  0.0927806857477194  0.3793341907970174
  0.8851654657336638  0.2100216636237562  0.1321131859511198
  0.4492277271544509  0.0939425326630214  0.8822844367956293
  0.5561207565939483  0.2046178633580311  0.6315738436508767
  0.1097117167876789  0.4293487802413551  0.3799236355153965
  0.2235588384154141  0.5351044638499403  0.1327094681132905
  0.7721044143931834  0.4328953126732600  0.8820629893247514
  0.8891643280415593  0.5385307822515983  0.6309469654069417
  0.4451058408072228  0.4266476458733734  0.3821876192657356
  0.5581960865027042  0.5351044169552281  0.1327094794437684
  0.1118596317345606  0.4328952839224058  0.8820629719905497
  0.2229266819428517  0.5377259496515094  0.6305448215789937
  0.7777988163602814  0.4293487955116149  0.3799236162560575
  0.8882651969257580  0.5403290571813031  0.1310198364918449
  0.4448567098798790  0.4271458822229235  0.8796404798792707
  0.5562067849864363  0.5377259358731976  0.6305448141982808
  0.1107112088863431  0.7601251662111821  0.3827306735314693
  0.7778548556585108  0.7611496530684505  0.8797554066902009
  0.8880622076426334  0.8725040792646510  0.6304174632115505
  0.4460229779267593  0.7601251503053419  0.3827306781726705
  0.5609143965030228  0.8690894259714241  0.1327553594450919
  0.1085926657013800  0.7543132657308576  0.8798932130977235
  0.2266795558195582  0.8635003197828297  0.6321261172974673
  0.7783721851386929  0.7601149940436756  0.3829096661146352
  0.8868556424962932  0.8690894575649537  0.1327553636774965
  0.4539534665226910  0.7543131975609327  0.8798932074110013
  0.5562931743259227  0.8725040607873424  0.6304174616108469
  0.1065966958859690  0.1036657457472145  0.8525790738989372
  0.2184242150246263  0.8800111347631798  0.1185626757451530
  0.2207881241327954  0.2037489694425503  0.3279812951684562
  0.8625952435196638  0.2188003863585024  0.8230050077442996
  0.7767362095912134  0.0933515912897960  0.5737594349555408
  0.5557176100634891  0.2054242334798673  0.3255157396066650
  0.4441187230026102  0.0921842092525438  0.0786264481072436
  0.2354637711875114  0.2188002991086222  0.8230050251484897
  0.1105315129434246  0.0957961776786860  0.5944332066823819
  0.8923223397515443  0.2037489833115060  0.3279813040025772
  0.7805562574688736  0.0921842591209483  0.0786264625962687
  0.5561705270741797  0.2045183255015388  0.8273378331317218
  0.4467714321280596  0.0933515642555918  0.5737594469193041
  0.2233009183415078  0.5380410655311607  0.3274741082449708
  0.1104276084253826  0.4269873495732242  0.0776067969249539
  0.8896360353494046  0.5375874379776349  0.8271096754752350
  0.7771790591069063  0.4295285437728893  0.5740425499054780
  0.5555174883276024  0.5380410652755074  0.3274741048306282
  0.4450410605496771  0.4267770681959959  0.0760367920484839
  0.2234364126964934  0.5378866189569891  0.8249734338698005
  0.1101517005626960  0.4295284936028736  0.5740425713663484
  0.8886687491637204  0.5395219933969457  0.3257747736632624
  0.7794442843383891  0.4269873846106691  0.0776068274506798
  0.5555364530955345  0.5378865710367293  0.8249734275661140
  0.4452413437086093  0.4263765474021071  0.5772594837290015
  0.2208582889378334  0.8751428952330755  0.3362451578224892
  0.1032313645905703  0.7508592184399632  0.0743744921832672
  0.8878255957091099  0.8732568177979800  0.8256170770334990
  0.7783453050318911  0.7601686980143896  0.5776663381242102
  0.5568810518464318  0.8708032870802285  0.3275765224011806
  0.4627688038643356  0.7508591208882294  0.0743744946249905
  0.2313053486328300  0.8542488671590505  0.8352565568780506
  0.1108161048856857  0.7599546430504418  0.5782759110184585
  0.8891751637706022  0.8708033058376827  0.3275765169265057
  0.7782059286161669  0.7604474731644757  0.0751214104221418
  0.5557771239281806  0.8732567532651316  0.8256170731281287
  0.4460885232008494  0.7599546480116928  0.5782759120699268
 
  0.00000000E+00  0.00000000E+00  0.00000000E+00
  0.00000000E+00  0.00000000E+00  0.00000000E+00
  0.00000000E+00  0.00000000E+00  0.00000000E+00
  0.00000000E+00  0.00000000E+00  0.00000000E+00
  0.00000000E+00  0.00000000E+00  0.00000000E+00
  0.00000000E+00  0.00000000E+00  0.00000000E+00
  0.00000000E+00  0.00000000E+00  0.00000000E+00
  0.00000000E+00  0.00000000E+00  0.00000000E+00
  0.00000000E+00  0.00000000E+00  0.00000000E+00
  0.00000000E+00  0.00000000E+00  0.00000000E+00
  0.00000000E+00  0.00000000E+00  0.00000000E+00
  0.00000000E+00  0.00000000E+00  0.00000000E+00
  0.00000000E+00  0.00000000E+00  0.00000000E+00
  0.00000000E+00  0.00000000E+00  0.00000000E+00
  0.00000000E+00  0.00000000E+00  0.00000000E+00
  0.00000000E+00  0.00000000E+00  0.00000000E+00
  0.00000000E+00  0.00000000E+00  0.00000000E+00
  0.00000000E+00  0.00000000E+00  0.00000000E+00
  0.00000000E+00  0.00000000E+00  0.00000000E+00
  0.00000000E+00  0.00000000E+00  0.00000000E+00
  0.00000000E+00  0.00000000E+00  0.00000000E+00
  0.00000000E+00  0.00000000E+00  0.00000000E+00
  0.00000000E+00  0.00000000E+00  0.00000000E+00
  0.00000000E+00  0.00000000E+00  0.00000000E+00
  0.00000000E+00  0.00000000E+00  0.00000000E+00
  0.00000000E+00  0.00000000E+00  0.00000000E+00
  0.00000000E+00  0.00000000E+00  0.00000000E+00
  0.00000000E+00  0.00000000E+00  0.00000000E+00
  0.00000000E+00  0.00000000E+00  0.00000000E+00
  0.00000000E+00  0.00000000E+00  0.00000000E+00
  0.00000000E+00  0.00000000E+00  0.00000000E+00
  0.00000000E+00  0.00000000E+00  0.00000000E+00
  0.00000000E+00  0.00000000E+00  0.00000000E+00
  0.00000000E+00  0.00000000E+00  0.00000000E+00
  0.00000000E+00  0.00000000E+00  0.00000000E+00
  0.00000000E+00  0.00000000E+00  0.00000000E+00
  0.00000000E+00  0.00000000E+00  0.00000000E+00
  0.00000000E+00  0.00000000E+00  0.00000000E+00
  0.00000000E+00  0.00000000E+00  0.00000000E+00
  0.00000000E+00  0.00000000E+00  0.00000000E+00
  0.00000000E+00  0.00000000E+00  0.00000000E+00
  0.00000000E+00  0.00000000E+00  0.00000000E+00
  0.00000000E+00  0.00000000E+00  0.00000000E+00
  0.00000000E+00  0.00000000E+00  0.00000000E+00
  0.00000000E+00  0.00000000E+00  0.00000000E+00
  0.00000000E+00  0.00000000E+00  0.00000000E+00
  0.00000000E+00  0.00000000E+00  0.00000000E+00
  0.00000000E+00  0.00000000E+00  0.00000000E+00
  0.00000000E+00  0.00000000E+00  0.00000000E+00
  0.00000000E+00  0.00000000E+00  0.00000000E+00
  0.00000000E+00  0.00000000E+00  0.00000000E+00
  0.00000000E+00  0.00000000E+00  0.00000000E+00
  0.00000000E+00  0.00000000E+00  0.00000000E+00
  0.00000000E+00  0.00000000E+00  0.00000000E+00
  0.00000000E+00  0.00000000E+00  0.00000000E+00
  0.00000000E+00  0.00000000E+00  0.00000000E+00
  0.00000000E+00  0.00000000E+00  0.00000000E+00
  0.00000000E+00  0.00000000E+00  0.00000000E+00
  0.00000000E+00  0.00000000E+00  0.00000000E+00
  0.00000000E+00  0.00000000E+00  0.00000000E+00
  0.00000000E+00  0.00000000E+00  0.00000000E+00
  0.00000000E+00  0.00000000E+00  0.00000000E+00
  0.00000000E+00  0.00000000E+00  0.00000000E+00
  0.00000000E+00  0.00000000E+00  0.00000000E+00
  0.00000000E+00  0.00000000E+00  0.00000000E+00
  0.00000000E+00  0.00000000E+00  0.00000000E+00
  0.00000000E+00  0.00000000E+00  0.00000000E+00
  0.00000000E+00  0.00000000E+00  0.00000000E+00
  0.00000000E+00  0.00000000E+00  0.00000000E+00
  0.00000000E+00  0.00000000E+00  0.00000000E+00
  0.00000000E+00  0.00000000E+00  0.00000000E+00
