Al   Sc   N                             
   1.00000000000000     
    -9.4623721952246367    0.0000296014533233    0.0000083164737440
    -4.7311662882712637    8.2065733167953798    0.0064463983940080
    -0.0000095855863012   -0.0000407637771406   -9.9054536551233774
   Al   Sc   N 
    34     2    35
Direct
  0.1091061467076315  0.0986477871726308  0.3751891775362068
  0.2217254827605188  0.2112666639148628  0.0759786065796746
  0.7735643828095888  0.0946418822929544  0.8262762526828169
  0.8776290406254503  0.2108921874742222  0.5731736891367447
  0.4471269646444185  0.0923825266780440  0.3246330281527108
  0.5559277203676061  0.2050045832014433  0.0753755119714796
  0.2283388323950248  0.2108922265112270  0.5731736652474311
  0.7773505780687344  0.0923825285680522  0.3246330243277882
  0.8838678787089762  0.2112666452828833  0.0759785882645616
  0.4486538076774806  0.0946419466685811  0.8262762708193137
  0.5557270786157460  0.2054058831222463  0.5747925731545891
  0.1101984363997559  0.4297445040688643  0.3246514854865836
  0.2226554786503812  0.5356934607285453  0.0745328268493211
  0.7732314418026078  0.4324983690950930  0.8258254023452309
  0.8887347547689757  0.5393904710402353  0.5754256573307970
  0.4451071857594684  0.4266456470081152  0.3253910885877289
  0.5585110184011484  0.5356934801150075  0.0745328258869691
  0.1111302252089459  0.4324983995953460  0.8258254019152744
  0.2236877994968367  0.5373049331797901  0.5762572162888588
  0.7769170789173856  0.4297444777043751  0.3246514828138771
  0.8886602213461714  0.5395395165654122  0.0755828605291597
  0.4448670091225466  0.4271260277666755  0.8263916586819633
  0.5558672666974047  0.5373049035031698  0.5762572188550976
  0.1069583723753098  0.7552904463893242  0.3273452515700370
  0.7782305494252171  0.7603989071947339  0.8251853000908582
  0.8879710045623526  0.8719220416272364  0.5765702254166740
  0.4546112471941655  0.7552904489765240  0.3273452474901646
  0.5600245798703583  0.8697178933570839  0.0741266170209514
  0.1121497032493224  0.7580870067788723  0.8253992795755920
  0.2272734769957196  0.8623130821755751  0.5701359780459896
  0.7779312374509644  0.7609975288407611  0.3255832786933652
  0.8871175729647263  0.8697178418170566  0.0741266266665193
  0.4466233481980737  0.7580869796237053  0.8253992896731219
  0.5569669247726097  0.8719220752297190  0.5765702471830565
  0.1097334903222844  0.0973931751391461  0.8202325046812149
  0.2173046353227903  0.8822506895309203  0.0972483603390657
  0.2256752020028756  0.2087266765919651  0.3803981078766725
  0.8697947289911596  0.2155374793158913  0.8854192278067643
  0.7771135391073187  0.0939533718347718  0.6332982510006246
  0.5561178229697461  0.2046243059649342  0.3819574072069472
  0.4444966617303763  0.0917258711471689  0.1327002550320984
  0.2315277407475449  0.2155375361064031  0.8854192569868573
  0.1114972672536894  0.0938656468533168  0.5990403100934927
  0.8824580859913880  0.2087266610031335  0.3803980991030400
  0.7806376120327059  0.0917258427422851  0.1327002421343693
  0.5556045619253069  0.2056508817297313  0.8838486132611507
  0.4457932147349339  0.0939533979962661  0.6332982713833530
  0.2238782597113627  0.5363072321999667  0.3845274291651535
  0.1096845037113710  0.4280333637679803  0.1335517543707425
  0.8890385800535228  0.5387827656459123  0.8826358672259076
  0.7777855733718511  0.4284174887005250  0.6331574075224680
  0.5566744227992046  0.5363072391461259  0.3845274168281989
  0.4451080087751507  0.4266440690301110  0.1323832468132551
  0.2227960990426823  0.5393611867394412  0.8823529801359840
  0.1106570244047802  0.4284175328073019  0.6331574045544954
  0.8890028393221954  0.5388542179194786  0.3829153156502869
  0.7791422154197534  0.4280333302940633  0.1335517455830413
  0.5547026624361990  0.5393611757213961  0.8823529770237215
  0.4452086515967650  0.4264427907871564  0.6333688932850734
  0.2239466833571768  0.8689665988748558  0.3692969868840095
  0.1021928037609285  0.7504619692868175  0.1375937241638923
  0.8891881080634789  0.8720207572158856  0.8812909427376070
  0.7783079751527282  0.7602441319149591  0.6332486041748240
  0.5567614389068538  0.8726207866745241  0.3848122841671540
  0.4642053398762940  0.7504620015505736  0.1375937005067271
  0.2291636892601332  0.8585325314754471  0.8839836854210361
  0.1115829134419073  0.7603706988500178  0.6306629688388909
  0.8874776955101424  0.8726207689195107  0.3848122631980146
  0.7780813906992563  0.7606973087267406  0.1328445840880903
  0.5556510197504636  0.8720208048748077  0.8812909413887127
  0.4449065101183436  0.7603706814054334  0.6306629908166954
 
  0.00000000E+00  0.00000000E+00  0.00000000E+00
  0.00000000E+00  0.00000000E+00  0.00000000E+00
  0.00000000E+00  0.00000000E+00  0.00000000E+00
  0.00000000E+00  0.00000000E+00  0.00000000E+00
  0.00000000E+00  0.00000000E+00  0.00000000E+00
  0.00000000E+00  0.00000000E+00  0.00000000E+00
  0.00000000E+00  0.00000000E+00  0.00000000E+00
  0.00000000E+00  0.00000000E+00  0.00000000E+00
  0.00000000E+00  0.00000000E+00  0.00000000E+00
  0.00000000E+00  0.00000000E+00  0.00000000E+00
  0.00000000E+00  0.00000000E+00  0.00000000E+00
  0.00000000E+00  0.00000000E+00  0.00000000E+00
  0.00000000E+00  0.00000000E+00  0.00000000E+00
  0.00000000E+00  0.00000000E+00  0.00000000E+00
  0.00000000E+00  0.00000000E+00  0.00000000E+00
  0.00000000E+00  0.00000000E+00  0.00000000E+00
  0.00000000E+00  0.00000000E+00  0.00000000E+00
  0.00000000E+00  0.00000000E+00  0.00000000E+00
  0.00000000E+00  0.00000000E+00  0.00000000E+00
  0.00000000E+00  0.00000000E+00  0.00000000E+00
  0.00000000E+00  0.00000000E+00  0.00000000E+00
  0.00000000E+00  0.00000000E+00  0.00000000E+00
  0.00000000E+00  0.00000000E+00  0.00000000E+00
  0.00000000E+00  0.00000000E+00  0.00000000E+00
  0.00000000E+00  0.00000000E+00  0.00000000E+00
  0.00000000E+00  0.00000000E+00  0.00000000E+00
  0.00000000E+00  0.00000000E+00  0.00000000E+00
  0.00000000E+00  0.00000000E+00  0.00000000E+00
  0.00000000E+00  0.00000000E+00  0.00000000E+00
  0.00000000E+00  0.00000000E+00  0.00000000E+00
  0.00000000E+00  0.00000000E+00  0.00000000E+00
  0.00000000E+00  0.00000000E+00  0.00000000E+00
  0.00000000E+00  0.00000000E+00  0.00000000E+00
  0.00000000E+00  0.00000000E+00  0.00000000E+00
  0.00000000E+00  0.00000000E+00  0.00000000E+00
  0.00000000E+00  0.00000000E+00  0.00000000E+00
  0.00000000E+00  0.00000000E+00  0.00000000E+00
  0.00000000E+00  0.00000000E+00  0.00000000E+00
  0.00000000E+00  0.00000000E+00  0.00000000E+00
  0.00000000E+00  0.00000000E+00  0.00000000E+00
  0.00000000E+00  0.00000000E+00  0.00000000E+00
  0.00000000E+00  0.00000000E+00  0.00000000E+00
  0.00000000E+00  0.00000000E+00  0.00000000E+00
  0.00000000E+00  0.00000000E+00  0.00000000E+00
  0.00000000E+00  0.00000000E+00  0.00000000E+00
  0.00000000E+00  0.00000000E+00  0.00000000E+00
  0.00000000E+00  0.00000000E+00  0.00000000E+00
  0.00000000E+00  0.00000000E+00  0.00000000E+00
  0.00000000E+00  0.00000000E+00  0.00000000E+00
  0.00000000E+00  0.00000000E+00  0.00000000E+00
  0.00000000E+00  0.00000000E+00  0.00000000E+00
  0.00000000E+00  0.00000000E+00  0.00000000E+00
  0.00000000E+00  0.00000000E+00  0.00000000E+00
  0.00000000E+00  0.00000000E+00  0.00000000E+00
  0.00000000E+00  0.00000000E+00  0.00000000E+00
  0.00000000E+00  0.00000000E+00  0.00000000E+00
  0.00000000E+00  0.00000000E+00  0.00000000E+00
  0.00000000E+00  0.00000000E+00  0.00000000E+00
  0.00000000E+00  0.00000000E+00  0.00000000E+00
  0.00000000E+00  0.00000000E+00  0.00000000E+00
  0.00000000E+00  0.00000000E+00  0.00000000E+00
  0.00000000E+00  0.00000000E+00  0.00000000E+00
  0.00000000E+00  0.00000000E+00  0.00000000E+00
  0.00000000E+00  0.00000000E+00  0.00000000E+00
  0.00000000E+00  0.00000000E+00  0.00000000E+00
  0.00000000E+00  0.00000000E+00  0.00000000E+00
  0.00000000E+00  0.00000000E+00  0.00000000E+00
  0.00000000E+00  0.00000000E+00  0.00000000E+00
  0.00000000E+00  0.00000000E+00  0.00000000E+00
  0.00000000E+00  0.00000000E+00  0.00000000E+00
  0.00000000E+00  0.00000000E+00  0.00000000E+00
