Al   Sc   N                             
   1.00000000000000     
    -9.4210076259199163   -0.0000557788334474    0.0000209371978391
    -4.7105519978296968    8.1685553053686668    0.0109923069070268
    -0.0000224028273783   -0.0140281657134845  -10.0023265812889495
   Al   Sc   N 
    34     2    35
Direct
  0.1106898179359845  0.0952122415639920  0.4186962840265664
  0.2227976507078040  0.2111991847557704  0.1632583418802156
  0.7738877807099414  0.0945407935631621  0.9086126942163730
  0.8805706109452203  0.2096924976525543  0.6565609475004379
  0.4468338803030250  0.0923678827728267  0.4088078128793242
  0.5554849054596289  0.2056220859085300  0.1592888001533339
  0.2263287593041028  0.2096925161802403  0.6565609482377752
  0.7773901120857047  0.0923678710731650  0.4088078079115292
  0.8825950472931297  0.2111991887725466  0.1632583456011787
  0.4481632893242349  0.0945408045397897  0.9086126861470234
  0.5557718104308478  0.2050482673848322  0.6592979530798146
  0.1097007356066229  0.4295330523580674  0.4090768474192714
  0.2229596062336725  0.5356163371092677  0.1596217016348334
  0.7721920724626870  0.4326512324405343  0.9083903169693173
  0.8887957190379296  0.5390004379013149  0.6587270804570338
  0.4449438282305991  0.4267042228572109  0.4093954085832365
  0.5580159194830685  0.5356163475588929  0.1596217024721724
  0.1117485385352950  0.4326512499587523  0.9083903189922395
  0.2229568645587676  0.5376996921350710  0.6590298965108801
  0.7773580894772039  0.4295330518453895  0.4090768499913509
  0.8884252515784112  0.5397413584810238  0.1587483227152902
  0.4446062635741370  0.4273793347696895  0.9079321382230390
  0.5559353315334548  0.5376996813249733  0.6590298962918055
  0.1102700424341023  0.7591449479016887  0.4127371654525831
  0.7776344505242108  0.7613229549163592  0.9084279577602743
  0.8878688281350549  0.8722426946468289  0.6589728064824101
  0.4471768663199498  0.7591449574095961  0.4127371678561218
  0.5601473669714281  0.8692849794850304  0.1599765248316132
  0.1092685473803670  0.7557661678642731  0.9069396251903612
  0.2249891705422300  0.8666135308415832  0.6593716247566945
  0.7781999046882078  0.7601920516748351  0.4098359399317246
  0.8871595148775526  0.8692849535176848  0.1599765279786922
  0.4515571625926711  0.7557661605828088  0.9069396264104483
  0.5564803430563927  0.8722426961630276  0.6589728077548926
  0.1063651125881222  0.1038616307370077  0.8962882801290277
  0.2185230601915009  0.8795457210300981  0.1557418385589173
  0.2214954245729217  0.2039858432677448  0.3528719956187842
  0.8652519650803896  0.2177106765940309  0.8450674199227066
  0.7769794615588168  0.0931803549900891  0.5985010041801431
  0.5559159725453640  0.2047599363274557  0.3491853405987726
  0.4431909083684999  0.0924806939176790  0.1012195970930847
  0.2336292189858966  0.2177106960888153  0.8450674180138478
  0.1104005223621556  0.0957908470546158  0.6127995002247246
  0.8911106175755492  0.2039858360477282  0.3528719936602513
  0.7809202982952073  0.0924806779549314  0.1012196024760499
  0.5556935637416416  0.2052047464940685  0.8507735323532728
  0.4464320667134274  0.0931803571726633  0.5985010102024120
  0.2227962686575111  0.5380354751343859  0.3503457204740172
  0.1104594053088306  0.4260764979221321  0.1000650885865184
  0.8891448327553135  0.5383021993099248  0.8506527111358579
  0.7771091417047629  0.4293394989903589  0.5985217068766460
  0.5557601381558257  0.5380354837944807  0.3503457214356445
  0.4450751580053591  0.4264415618557109  0.1000459682468744
  0.2234867379034142  0.5381782464305402  0.8491265437427487
  0.1101432362732453  0.4293395160903515  0.5985216960826136
  0.8888860271130739  0.5388198219201428  0.3492812129613867
  0.7800559667633067  0.4260764999792670  0.1000650850741636
  0.5549268826221621  0.5381782474855115  0.8491265491615962
  0.4449714107353984  0.4266490633110394  0.6002592217406715
  0.2217872620575179  0.8730173400123249  0.3645020256999771
  0.1039395774171794  0.7520010931336216  0.0968682574872801
  0.8876177401084320  0.8731629071491724  0.8498202279666103
  0.7781033741971513  0.7603851227759364  0.6004529475255111
  0.5562265000537963  0.8708258652263368  0.3506349306227676
  0.4606511883712372  0.7520011023928248  0.0968682630999069
  0.2300116324030625  0.8565686113518112  0.8541647111076713
  0.1103850783118006  0.7597174952181405  0.6028510570454984
  0.8895395119645144  0.8708258546918302  0.3506349300032952
  0.7781619806548932  0.7602678853875844  0.0994643984950585
  0.5558112123482246  0.8731629105247833  0.8498202339155867
  0.4464893110631749  0.7597174846869876  0.6028510595385796
 
  0.00000000E+00  0.00000000E+00  0.00000000E+00
  0.00000000E+00  0.00000000E+00  0.00000000E+00
  0.00000000E+00  0.00000000E+00  0.00000000E+00
  0.00000000E+00  0.00000000E+00  0.00000000E+00
  0.00000000E+00  0.00000000E+00  0.00000000E+00
  0.00000000E+00  0.00000000E+00  0.00000000E+00
  0.00000000E+00  0.00000000E+00  0.00000000E+00
  0.00000000E+00  0.00000000E+00  0.00000000E+00
  0.00000000E+00  0.00000000E+00  0.00000000E+00
  0.00000000E+00  0.00000000E+00  0.00000000E+00
  0.00000000E+00  0.00000000E+00  0.00000000E+00
  0.00000000E+00  0.00000000E+00  0.00000000E+00
  0.00000000E+00  0.00000000E+00  0.00000000E+00
  0.00000000E+00  0.00000000E+00  0.00000000E+00
  0.00000000E+00  0.00000000E+00  0.00000000E+00
  0.00000000E+00  0.00000000E+00  0.00000000E+00
  0.00000000E+00  0.00000000E+00  0.00000000E+00
  0.00000000E+00  0.00000000E+00  0.00000000E+00
  0.00000000E+00  0.00000000E+00  0.00000000E+00
  0.00000000E+00  0.00000000E+00  0.00000000E+00
  0.00000000E+00  0.00000000E+00  0.00000000E+00
  0.00000000E+00  0.00000000E+00  0.00000000E+00
  0.00000000E+00  0.00000000E+00  0.00000000E+00
  0.00000000E+00  0.00000000E+00  0.00000000E+00
  0.00000000E+00  0.00000000E+00  0.00000000E+00
  0.00000000E+00  0.00000000E+00  0.00000000E+00
  0.00000000E+00  0.00000000E+00  0.00000000E+00
  0.00000000E+00  0.00000000E+00  0.00000000E+00
  0.00000000E+00  0.00000000E+00  0.00000000E+00
  0.00000000E+00  0.00000000E+00  0.00000000E+00
  0.00000000E+00  0.00000000E+00  0.00000000E+00
  0.00000000E+00  0.00000000E+00  0.00000000E+00
  0.00000000E+00  0.00000000E+00  0.00000000E+00
  0.00000000E+00  0.00000000E+00  0.00000000E+00
  0.00000000E+00  0.00000000E+00  0.00000000E+00
  0.00000000E+00  0.00000000E+00  0.00000000E+00
  0.00000000E+00  0.00000000E+00  0.00000000E+00
  0.00000000E+00  0.00000000E+00  0.00000000E+00
  0.00000000E+00  0.00000000E+00  0.00000000E+00
  0.00000000E+00  0.00000000E+00  0.00000000E+00
  0.00000000E+00  0.00000000E+00  0.00000000E+00
  0.00000000E+00  0.00000000E+00  0.00000000E+00
  0.00000000E+00  0.00000000E+00  0.00000000E+00
  0.00000000E+00  0.00000000E+00  0.00000000E+00
  0.00000000E+00  0.00000000E+00  0.00000000E+00
  0.00000000E+00  0.00000000E+00  0.00000000E+00
  0.00000000E+00  0.00000000E+00  0.00000000E+00
  0.00000000E+00  0.00000000E+00  0.00000000E+00
  0.00000000E+00  0.00000000E+00  0.00000000E+00
  0.00000000E+00  0.00000000E+00  0.00000000E+00
  0.00000000E+00  0.00000000E+00  0.00000000E+00
  0.00000000E+00  0.00000000E+00  0.00000000E+00
  0.00000000E+00  0.00000000E+00  0.00000000E+00
  0.00000000E+00  0.00000000E+00  0.00000000E+00
  0.00000000E+00  0.00000000E+00  0.00000000E+00
  0.00000000E+00  0.00000000E+00  0.00000000E+00
  0.00000000E+00  0.00000000E+00  0.00000000E+00
  0.00000000E+00  0.00000000E+00  0.00000000E+00
  0.00000000E+00  0.00000000E+00  0.00000000E+00
  0.00000000E+00  0.00000000E+00  0.00000000E+00
  0.00000000E+00  0.00000000E+00  0.00000000E+00
  0.00000000E+00  0.00000000E+00  0.00000000E+00
  0.00000000E+00  0.00000000E+00  0.00000000E+00
  0.00000000E+00  0.00000000E+00  0.00000000E+00
  0.00000000E+00  0.00000000E+00  0.00000000E+00
  0.00000000E+00  0.00000000E+00  0.00000000E+00
  0.00000000E+00  0.00000000E+00  0.00000000E+00
  0.00000000E+00  0.00000000E+00  0.00000000E+00
  0.00000000E+00  0.00000000E+00  0.00000000E+00
  0.00000000E+00  0.00000000E+00  0.00000000E+00
  0.00000000E+00  0.00000000E+00  0.00000000E+00
