Al   Sc   N                             
   1.00000000000000     
    -9.6814732878016834   -0.0000222365779303    0.0000159790562304
    -4.8407471688378720    8.3887606509234427    0.0092064142769123
    -0.0000140531565124   -0.0054570513266441   -9.2699490475305844
   Al   Sc   N 
    34     2    35
Direct
  0.1100795807451362  0.0967001343700886  0.3872390145931632
  0.2218271299473216  0.2091372410129395  0.1234613989238369
  0.7734947980089402  0.0932386656933275  0.8788454115897935
  0.8763968996254974  0.2116536242070879  0.6249910434445454
  0.4457614435406825  0.0931926514773380  0.3724600353391736
  0.5550124099158893  0.2068347707137761  0.1266599137078757
  0.2288087005834640  0.2116536166310397  0.6249909360700414
  0.7779052608617221  0.0931926105506022  0.3724600386889279
  0.8858950393034988  0.2091372543411296  0.1234613495552566
  0.4501259439488834  0.0932387024817558  0.8788453586676681
  0.5562638793878634  0.2043318502816049  0.6259819970741276
  0.1098786627825135  0.4285856863171489  0.3733846988474312
  0.2239119975810411  0.5351208548157658  0.1283299230360413
  0.7721451257759782  0.4334082801281411  0.8784566841169124
  0.8896093305937711  0.5376408070125365  0.6254837255550640
  0.4451631817480859  0.4265330335190498  0.3780593908357162
  0.5578267307689515  0.5351206999593145  0.1283299221199741
  0.1113057989678126  0.4334084035296328  0.8784566903649917
  0.2228365978099731  0.5374967579763563  0.6247698981891858
  0.7783950464122498  0.4285857200900409  0.3733847278978928
  0.8879710197539481  0.5409173333332973  0.1263846672849738
  0.4448455955078927  0.4271683448719870  0.8738373092319307
  0.5565262576355323  0.5374966729352693  0.6247699496421930
  0.1101338308953999  0.7599858209082555  0.3768361748117712
  0.7779057929700315  0.7610479869825895  0.8730741606987706
  0.8879844246380699  0.8730789982915752  0.6246622073576447
  0.4467396372737014  0.7599858397937425  0.3768361633594353
  0.5614666196126379  0.8689185926468355  0.1281415594001629
  0.1086123304888744  0.7546294486070479  0.8743475947003887
  0.2263154944635346  0.8642282988190786  0.6228392542925221
  0.7784648998112544  0.7599295887394533  0.3793894817012244
  0.8864741272788450  0.8689186818366750  0.1281415077397838
  0.4536176126411462  0.7546291716485811  0.8743475775795275
  0.5557961725299521  0.8730788880480063  0.6246621352795287
  0.1070329672487986  0.1027923908636765  0.8471352107335832
  0.2192769786782307  0.8783054629383926  0.1112299936612331
  0.2202887639896005  0.2033019627643853  0.3305657445855203
  0.8643259620028871  0.2176935225773491  0.8322408286024938
  0.7768703083090429  0.0940541939353920  0.5780876863820197
  0.5554493826372493  0.2059606725823997  0.3310506346283901
  0.4454458644294021  0.0919758358313629  0.0853764942472139
  0.2348399946163298  0.2176934447540830  0.8322409279879110
  0.1098195721327073  0.0972200391289277  0.5976366597990221
  0.8932687328598092  0.2033019928466544  0.3305658004874275
  0.7794375609361239  0.0919758262334298  0.0853765906959367
  0.5563518012883080  0.2041555103880910  0.8326276280715845
  0.4459346394467971  0.0940542266825020  0.5780878226413364
  0.2237261449980821  0.5377258007617769  0.3336491219362117
  0.1101812889152427  0.4280789712558146  0.0843993139970536
  0.8899081336967143  0.5370432890981292  0.8321676865970744
  0.7775835383961720  0.4287036339730221  0.5786365402941982
  0.5554075752330050  0.5377258275983081  0.3336491720305617
  0.4447950038753916  0.4272692202931623  0.0807778052890740
  0.2232019766700120  0.5377349688144548  0.8299899810205318
  0.1105722546986456  0.4287035185054933  0.5786366315767566
  0.8884525658566176  0.5399544068448350  0.3316630526229076
  0.7785990734303496  0.4280789788627644  0.0843993697414760
  0.5559224087784784  0.5377351290271619  0.8299899349715716
  0.4453046960200311  0.4262499276830667  0.5834317549380117
  0.2202911274820138  0.8762771900870021  0.3428358918436203
  0.1031583724596885  0.7511288290570732  0.0812690616664042
  0.8878748719530236  0.8735079251568934  0.8304448479435678
  0.7784276272325883  0.7600040410095019  0.5844324974728892
  0.5575747342626158  0.8706529517121808  0.3336949910351805
  0.4625720912860700  0.7511287952031935  0.0812690683034774
  0.2306276497054256  0.8556043043186889  0.8415024195109666
  0.1106665875994253  0.7599196761216191  0.5834488035199215
  0.8886317826433299  0.8706529409868224  0.3336949574570411
  0.7782468095441644  0.7603655208916678  0.0792789582739246
  0.5554766716004877  0.8735079377095047  0.8304448501673889
  0.4462730287776964  0.7599197028340399  0.5834488023061652
 
  0.00000000E+00  0.00000000E+00  0.00000000E+00
  0.00000000E+00  0.00000000E+00  0.00000000E+00
  0.00000000E+00  0.00000000E+00  0.00000000E+00
  0.00000000E+00  0.00000000E+00  0.00000000E+00
  0.00000000E+00  0.00000000E+00  0.00000000E+00
  0.00000000E+00  0.00000000E+00  0.00000000E+00
  0.00000000E+00  0.00000000E+00  0.00000000E+00
  0.00000000E+00  0.00000000E+00  0.00000000E+00
  0.00000000E+00  0.00000000E+00  0.00000000E+00
  0.00000000E+00  0.00000000E+00  0.00000000E+00
  0.00000000E+00  0.00000000E+00  0.00000000E+00
  0.00000000E+00  0.00000000E+00  0.00000000E+00
  0.00000000E+00  0.00000000E+00  0.00000000E+00
  0.00000000E+00  0.00000000E+00  0.00000000E+00
  0.00000000E+00  0.00000000E+00  0.00000000E+00
  0.00000000E+00  0.00000000E+00  0.00000000E+00
  0.00000000E+00  0.00000000E+00  0.00000000E+00
  0.00000000E+00  0.00000000E+00  0.00000000E+00
  0.00000000E+00  0.00000000E+00  0.00000000E+00
  0.00000000E+00  0.00000000E+00  0.00000000E+00
  0.00000000E+00  0.00000000E+00  0.00000000E+00
  0.00000000E+00  0.00000000E+00  0.00000000E+00
  0.00000000E+00  0.00000000E+00  0.00000000E+00
  0.00000000E+00  0.00000000E+00  0.00000000E+00
  0.00000000E+00  0.00000000E+00  0.00000000E+00
  0.00000000E+00  0.00000000E+00  0.00000000E+00
  0.00000000E+00  0.00000000E+00  0.00000000E+00
  0.00000000E+00  0.00000000E+00  0.00000000E+00
  0.00000000E+00  0.00000000E+00  0.00000000E+00
  0.00000000E+00  0.00000000E+00  0.00000000E+00
  0.00000000E+00  0.00000000E+00  0.00000000E+00
  0.00000000E+00  0.00000000E+00  0.00000000E+00
  0.00000000E+00  0.00000000E+00  0.00000000E+00
  0.00000000E+00  0.00000000E+00  0.00000000E+00
  0.00000000E+00  0.00000000E+00  0.00000000E+00
  0.00000000E+00  0.00000000E+00  0.00000000E+00
  0.00000000E+00  0.00000000E+00  0.00000000E+00
  0.00000000E+00  0.00000000E+00  0.00000000E+00
  0.00000000E+00  0.00000000E+00  0.00000000E+00
  0.00000000E+00  0.00000000E+00  0.00000000E+00
  0.00000000E+00  0.00000000E+00  0.00000000E+00
  0.00000000E+00  0.00000000E+00  0.00000000E+00
  0.00000000E+00  0.00000000E+00  0.00000000E+00
  0.00000000E+00  0.00000000E+00  0.00000000E+00
  0.00000000E+00  0.00000000E+00  0.00000000E+00
  0.00000000E+00  0.00000000E+00  0.00000000E+00
  0.00000000E+00  0.00000000E+00  0.00000000E+00
  0.00000000E+00  0.00000000E+00  0.00000000E+00
  0.00000000E+00  0.00000000E+00  0.00000000E+00
  0.00000000E+00  0.00000000E+00  0.00000000E+00
  0.00000000E+00  0.00000000E+00  0.00000000E+00
  0.00000000E+00  0.00000000E+00  0.00000000E+00
  0.00000000E+00  0.00000000E+00  0.00000000E+00
  0.00000000E+00  0.00000000E+00  0.00000000E+00
  0.00000000E+00  0.00000000E+00  0.00000000E+00
  0.00000000E+00  0.00000000E+00  0.00000000E+00
  0.00000000E+00  0.00000000E+00  0.00000000E+00
  0.00000000E+00  0.00000000E+00  0.00000000E+00
  0.00000000E+00  0.00000000E+00  0.00000000E+00
  0.00000000E+00  0.00000000E+00  0.00000000E+00
  0.00000000E+00  0.00000000E+00  0.00000000E+00
  0.00000000E+00  0.00000000E+00  0.00000000E+00
  0.00000000E+00  0.00000000E+00  0.00000000E+00
  0.00000000E+00  0.00000000E+00  0.00000000E+00
  0.00000000E+00  0.00000000E+00  0.00000000E+00
  0.00000000E+00  0.00000000E+00  0.00000000E+00
  0.00000000E+00  0.00000000E+00  0.00000000E+00
  0.00000000E+00  0.00000000E+00  0.00000000E+00
  0.00000000E+00  0.00000000E+00  0.00000000E+00
  0.00000000E+00  0.00000000E+00  0.00000000E+00
  0.00000000E+00  0.00000000E+00  0.00000000E+00
