Al   Sc   N                             
   1.00000000000000     
    -9.9096585889303732    0.0000021577897184    0.0000123731350603
    -4.9548257414640080    8.5815209091534932    0.0079075832731926
    -0.0000107760090459    0.0062542739046396   -8.5727620002493179
   Al   Sc   N 
    34     2    35
Direct
  0.1093318686385345  0.0981963691821264  0.3717848468505949
  0.2256322731400289  0.2101107083867220  0.1035325431247287
  0.7739938981691168  0.0942074327725848  0.8468767762032456
  0.8812732475171714  0.2093773992896146  0.5944639899113042
  0.4479834012624693  0.0917249679693057  0.3465670985924660
  0.5558836109325540  0.2050927508435763  0.0972367927867168
  0.2262094392179748  0.2093774280837195  0.5944641723372470
  0.7771515175481269  0.0917249138014213  0.3465671307946678
  0.8811169951562334  0.2101107488318092  0.1035326069770193
  0.4486586722773254  0.0942074673484541  0.8468768421905182
  0.5552388675236983  0.2063821719562071  0.5949269402692750
  0.1093691748133381  0.4306283897471275  0.3466107930631779
  0.2225689498703858  0.5357899884589372  0.0964827968949535
  0.7738786175992871  0.4317806926609293  0.8465511625784714
  0.8889218112638844  0.5390164075949784  0.5962506981804765
  0.4448774544821248  0.4271050100934559  0.3453912362648381
  0.5585011996414195  0.5357898358896520  0.0964827931105603
  0.1112006471614251  0.4317807832508649  0.8465512208300225
  0.2245302371014049  0.5366505655640523  0.5961906948944318
  0.7768625235898057  0.4306283500117019  0.3466108265021006
  0.8889455511351514  0.5389688690016143  0.0963923634835027
  0.4450448978185904  0.4267701069074548  0.8470864715537729
  0.5556792691155223  0.5366505266102024  0.5961907065981791
  0.1079635212657166  0.7580824244645044  0.3521940565304007
  0.7784112754623251  0.7600373371927276  0.8457970382921189
  0.8875767113451900  0.8719392609920149  0.5971486553692529
  0.4508141271672201  0.7580823372943186  0.3521939793482289
  0.5596474554060933  0.8704804492533000  0.0957431625952765
  0.1102875508750500  0.7567288021475349  0.8440885134787166
  0.2249940363301590  0.8668721467573519  0.6009092219878340
  0.7781352661004064  0.7605893661510521  0.3464173041109788
  0.8867320369146157  0.8704805135228071  0.0957431820771504
  0.4498436855900394  0.7567287529131477  0.8440885716640736
  0.5573440495949384  0.8719391940852006  0.5971486518601026
  0.1074760432717454  0.1019078433292364  0.8455264314807138
  0.2214999900164756  0.8738600846989328  0.1069999477232955
  0.2222572798780504  0.2051131448628567  0.3542031832363435
  0.8701182326911407  0.2148349978902004  0.8650056297603044
  0.7771846129384556  0.0948265664836327  0.6091727572515708
  0.5555995566349026  0.2056607870497587  0.3603908935696936
  0.4470785093919645  0.0917098761195092  0.1129989791268144
  0.2319067436677145  0.2148350132283028  0.8650055164772041
  0.1092327468267982  0.0983944909752026  0.5985098565977083
  0.8894896590124617  0.2051130497267621  0.3542031570408568
  0.7780715448838293  0.0917098921459427  0.1129990356726580
  0.5560033561180191  0.2048533280942664  0.8623266961954741
  0.4448488350220785  0.0948264987402254  0.6091727958946294
  0.2242550623081740  0.5365599202480311  0.3625793970384237
  0.1097206317136283  0.4289243529565283  0.1131777957513833
  0.8896948583566271  0.5374702736838017  0.8605871671920085
  0.7777918282507699  0.4277447309989739  0.6093590108230984
  0.5560450927990246  0.5365598251442023  0.3625794094500279
  0.4447960014419294  0.4272679600898144  0.1101855698465144
  0.2228455576426924  0.5385576921254511  0.8602018042366240
  0.1113234625831652  0.4277447835853465  0.6093590388947376
  0.8886442028567103  0.5395716516797648  0.3621535812089718
  0.7782150546478093  0.4289243171596340  0.1131778659057545
  0.5554568120480923  0.5385576056881476  0.8602017805804323
  0.4451920605689992  0.4264758604015739  0.6126150692402419
  0.2208227622188446  0.8752145714634807  0.3620555960212499
  0.1036031821153074  0.7524037076748584  0.1142830753884851
  0.8888772147033279  0.8723924794889228  0.8589803102777367
  0.7784418893587670  0.7599761962607658  0.6128924321837061
  0.5578462061348404  0.8717736180355615  0.3635521138925881
  0.4608531374521334  0.7524035799408821  0.1142830523659057
  0.2289773351541271  0.8589053865238157  0.8510996148886747
  0.1106875513923669  0.7595152341587692  0.6069517742683388
  0.8872401364334905  0.8717735855723632  0.3635521260505143
  0.7783931754399589  0.7600736095330518  0.1099638464788057
  0.5555902687611578  0.8723925032252566  0.8589803431715808
  0.4466573118164163  0.7595151437538092  0.6069518084280006
 
  0.00000000E+00  0.00000000E+00  0.00000000E+00
  0.00000000E+00  0.00000000E+00  0.00000000E+00
  0.00000000E+00  0.00000000E+00  0.00000000E+00
  0.00000000E+00  0.00000000E+00  0.00000000E+00
  0.00000000E+00  0.00000000E+00  0.00000000E+00
  0.00000000E+00  0.00000000E+00  0.00000000E+00
  0.00000000E+00  0.00000000E+00  0.00000000E+00
  0.00000000E+00  0.00000000E+00  0.00000000E+00
  0.00000000E+00  0.00000000E+00  0.00000000E+00
  0.00000000E+00  0.00000000E+00  0.00000000E+00
  0.00000000E+00  0.00000000E+00  0.00000000E+00
  0.00000000E+00  0.00000000E+00  0.00000000E+00
  0.00000000E+00  0.00000000E+00  0.00000000E+00
  0.00000000E+00  0.00000000E+00  0.00000000E+00
  0.00000000E+00  0.00000000E+00  0.00000000E+00
  0.00000000E+00  0.00000000E+00  0.00000000E+00
  0.00000000E+00  0.00000000E+00  0.00000000E+00
  0.00000000E+00  0.00000000E+00  0.00000000E+00
  0.00000000E+00  0.00000000E+00  0.00000000E+00
  0.00000000E+00  0.00000000E+00  0.00000000E+00
  0.00000000E+00  0.00000000E+00  0.00000000E+00
  0.00000000E+00  0.00000000E+00  0.00000000E+00
  0.00000000E+00  0.00000000E+00  0.00000000E+00
  0.00000000E+00  0.00000000E+00  0.00000000E+00
  0.00000000E+00  0.00000000E+00  0.00000000E+00
  0.00000000E+00  0.00000000E+00  0.00000000E+00
  0.00000000E+00  0.00000000E+00  0.00000000E+00
  0.00000000E+00  0.00000000E+00  0.00000000E+00
  0.00000000E+00  0.00000000E+00  0.00000000E+00
  0.00000000E+00  0.00000000E+00  0.00000000E+00
  0.00000000E+00  0.00000000E+00  0.00000000E+00
  0.00000000E+00  0.00000000E+00  0.00000000E+00
  0.00000000E+00  0.00000000E+00  0.00000000E+00
  0.00000000E+00  0.00000000E+00  0.00000000E+00
  0.00000000E+00  0.00000000E+00  0.00000000E+00
  0.00000000E+00  0.00000000E+00  0.00000000E+00
  0.00000000E+00  0.00000000E+00  0.00000000E+00
  0.00000000E+00  0.00000000E+00  0.00000000E+00
  0.00000000E+00  0.00000000E+00  0.00000000E+00
  0.00000000E+00  0.00000000E+00  0.00000000E+00
  0.00000000E+00  0.00000000E+00  0.00000000E+00
  0.00000000E+00  0.00000000E+00  0.00000000E+00
  0.00000000E+00  0.00000000E+00  0.00000000E+00
  0.00000000E+00  0.00000000E+00  0.00000000E+00
  0.00000000E+00  0.00000000E+00  0.00000000E+00
  0.00000000E+00  0.00000000E+00  0.00000000E+00
  0.00000000E+00  0.00000000E+00  0.00000000E+00
  0.00000000E+00  0.00000000E+00  0.00000000E+00
  0.00000000E+00  0.00000000E+00  0.00000000E+00
  0.00000000E+00  0.00000000E+00  0.00000000E+00
  0.00000000E+00  0.00000000E+00  0.00000000E+00
  0.00000000E+00  0.00000000E+00  0.00000000E+00
  0.00000000E+00  0.00000000E+00  0.00000000E+00
  0.00000000E+00  0.00000000E+00  0.00000000E+00
  0.00000000E+00  0.00000000E+00  0.00000000E+00
  0.00000000E+00  0.00000000E+00  0.00000000E+00
  0.00000000E+00  0.00000000E+00  0.00000000E+00
  0.00000000E+00  0.00000000E+00  0.00000000E+00
  0.00000000E+00  0.00000000E+00  0.00000000E+00
  0.00000000E+00  0.00000000E+00  0.00000000E+00
  0.00000000E+00  0.00000000E+00  0.00000000E+00
  0.00000000E+00  0.00000000E+00  0.00000000E+00
  0.00000000E+00  0.00000000E+00  0.00000000E+00
  0.00000000E+00  0.00000000E+00  0.00000000E+00
  0.00000000E+00  0.00000000E+00  0.00000000E+00
  0.00000000E+00  0.00000000E+00  0.00000000E+00
  0.00000000E+00  0.00000000E+00  0.00000000E+00
  0.00000000E+00  0.00000000E+00  0.00000000E+00
  0.00000000E+00  0.00000000E+00  0.00000000E+00
  0.00000000E+00  0.00000000E+00  0.00000000E+00
  0.00000000E+00  0.00000000E+00  0.00000000E+00
