Al   Sc   N                             
   1.00000000000000     
    -9.7799225404984274   -0.0000161379860181    0.0000150775759378
    -4.8899690656061292    8.4717485095241436    0.0088817065259823
    -0.0000131767292226   -0.0041979774671845   -8.9680590431366021
   Al   Sc   N 
    34     2    35
Direct
  0.1094488812481629  0.0979615877194888  0.3835936609209583
  0.2224304513726096  0.2088923795482103  0.1176629324277272
  0.7735341043450319  0.0929414652697744  0.8747131760951135
  0.8773658502269228  0.2112050788502273  0.6206698331710783
  0.4456108430496926  0.0933100935558997  0.3670888955687701
  0.5549523935249070  0.2069546296596343  0.1221359430456275
  0.2282883380710601  0.2112050476958132  0.6206699328132146
  0.7779384009236239  0.0933100464292735  0.3670888233607812
  0.8855366730957428  0.2088923478921885  0.1176630495063051
  0.4503837457018776  0.0929414212733377  0.8747130928483884
  0.5562448362026799  0.2043697290979054  0.6208090475235295
  0.1099573888149834  0.4283624961714736  0.3680934600178318
  0.2240291315288374  0.5351798184555037  0.1237101404894503
  0.7723471050091675  0.4335145005788448  0.8742468647375006
  0.8897845080273967  0.5372905330910811  0.6204035026698236
  0.4451821699599066  0.4264950630592637  0.3737061242971578
  0.5576505964496477  0.5351797706717747  0.1237101927629780
  0.1109977763837620  0.4335144322235607  0.8742468829077836
  0.2228931235409277  0.5373522308098302  0.6196864746195487
  0.7785395165800111  0.4283625484657207  0.3680935071685738
  0.8879476965779389  0.5409640256004309  0.1219509749375973
  0.4448221072458836  0.4272151863717397  0.8687763551833427
  0.5566141828964462  0.5373522521285352  0.6196864385594552
  0.1095591236533124  0.7595195103903620  0.3718414951352074
  0.7779599711793921  0.7609394244176144  0.8675477426763578
  0.8880207971362140  0.8732203456041532  0.6195611329607331
  0.4477805814149249  0.7595195832299169  0.3718414596681114
  0.5614848015320675  0.8690428097222380  0.1234414151943000
  0.1089843632905030  0.7552832583745896  0.8687411424086449
  0.2258155055332551  0.8652284859469006  0.6146449447305145
  0.7784928553299153  0.7598735775470118  0.3753825739159993
  0.8863316510371035  0.8690427620169956  0.1234413967710779
  0.4525917678993707  0.7552832677950292  0.8687412019844274
  0.5556182691142268  0.8732203232641282  0.6195611210762095
  0.1074416206841704  0.1019758343058399  0.8465068544561092
  0.2199095923687082  0.8770401109947059  0.1090122343097448
  0.2203014543191131  0.2032649664444506  0.3339845106849708
  0.8660810039098266  0.2167201960261806  0.8391855581177836
  0.7770297040507614  0.0944273969185119  0.5826009266683982
  0.5553876685877981  0.2060840694255788  0.3359804719075825
  0.4460158142527320  0.0919676884385723  0.0908130447671809
  0.2340581415270435  0.2167200814673436  0.8391856817163230
  0.1093295409716930  0.0982001221926296  0.5984217474505442
  0.8932929903260600  0.2032649931936064  0.3339846010913377
  0.7788758043697825  0.0919676977064441  0.0908131282224360
  0.5563525874820670  0.2041542045994689  0.8374694530230400
  0.4454020837191734  0.0944274369509941  0.5826010087784965
  0.2239058107448528  0.5374917038257863  0.3387683165232431
  0.1101185837082070  0.4284395902483666  0.0898945964089819
  0.8899907280827861  0.5368780560515631  0.8367820277374136
  0.7777936392968172  0.4282040200907957  0.5832160233574655
  0.5554619800154299  0.5374917177371117  0.3387683378178323
  0.4447277423602500  0.4274038973275651  0.0853995835694477
  0.2231016145920108  0.5377530145830747  0.8348462247916899
  0.1108617651171642  0.4282039801251329  0.5832160322340840
  0.8884164921135067  0.5400265349220490  0.3368441005593397
  0.7783012057095959  0.4284395516633523  0.0898945965818996
  0.5560047961071248  0.5377530809683364  0.8348461942398657
  0.4453114873510131  0.4262364401132572  0.5885650928421384
  0.2201528700642470  0.8765535702841021  0.3497135540249801
  0.1034633082179397  0.7516693632229234  0.0872779828852686
  0.8879901845823994  0.8735001209769422  0.8350952884257978
  0.7784564695558203  0.7599463949501981  0.5898550246396468
  0.5578403946754733  0.8707251471386215  0.3388948075508225
  0.4617265567685962  0.7516693345584500  0.0872780519416665
  0.2300590407363998  0.8567414285182480  0.8441186323526466
  0.1105834679358964  0.7598140908853850  0.5881941454960540
  0.8882938780568779  0.8707251011165411  0.3388947833289464
  0.7783053087917509  0.7602485229939049  0.0836442232610253
  0.5553691775389211  0.8735000864783444  0.8350952708121540
  0.4464617558492137  0.7598140832619578  0.5881940942906851
 
  0.00000000E+00  0.00000000E+00  0.00000000E+00
  0.00000000E+00  0.00000000E+00  0.00000000E+00
  0.00000000E+00  0.00000000E+00  0.00000000E+00
  0.00000000E+00  0.00000000E+00  0.00000000E+00
  0.00000000E+00  0.00000000E+00  0.00000000E+00
  0.00000000E+00  0.00000000E+00  0.00000000E+00
  0.00000000E+00  0.00000000E+00  0.00000000E+00
  0.00000000E+00  0.00000000E+00  0.00000000E+00
  0.00000000E+00  0.00000000E+00  0.00000000E+00
  0.00000000E+00  0.00000000E+00  0.00000000E+00
  0.00000000E+00  0.00000000E+00  0.00000000E+00
  0.00000000E+00  0.00000000E+00  0.00000000E+00
  0.00000000E+00  0.00000000E+00  0.00000000E+00
  0.00000000E+00  0.00000000E+00  0.00000000E+00
  0.00000000E+00  0.00000000E+00  0.00000000E+00
  0.00000000E+00  0.00000000E+00  0.00000000E+00
  0.00000000E+00  0.00000000E+00  0.00000000E+00
  0.00000000E+00  0.00000000E+00  0.00000000E+00
  0.00000000E+00  0.00000000E+00  0.00000000E+00
  0.00000000E+00  0.00000000E+00  0.00000000E+00
  0.00000000E+00  0.00000000E+00  0.00000000E+00
  0.00000000E+00  0.00000000E+00  0.00000000E+00
  0.00000000E+00  0.00000000E+00  0.00000000E+00
  0.00000000E+00  0.00000000E+00  0.00000000E+00
  0.00000000E+00  0.00000000E+00  0.00000000E+00
  0.00000000E+00  0.00000000E+00  0.00000000E+00
  0.00000000E+00  0.00000000E+00  0.00000000E+00
  0.00000000E+00  0.00000000E+00  0.00000000E+00
  0.00000000E+00  0.00000000E+00  0.00000000E+00
  0.00000000E+00  0.00000000E+00  0.00000000E+00
  0.00000000E+00  0.00000000E+00  0.00000000E+00
  0.00000000E+00  0.00000000E+00  0.00000000E+00
  0.00000000E+00  0.00000000E+00  0.00000000E+00
  0.00000000E+00  0.00000000E+00  0.00000000E+00
  0.00000000E+00  0.00000000E+00  0.00000000E+00
  0.00000000E+00  0.00000000E+00  0.00000000E+00
  0.00000000E+00  0.00000000E+00  0.00000000E+00
  0.00000000E+00  0.00000000E+00  0.00000000E+00
  0.00000000E+00  0.00000000E+00  0.00000000E+00
  0.00000000E+00  0.00000000E+00  0.00000000E+00
  0.00000000E+00  0.00000000E+00  0.00000000E+00
  0.00000000E+00  0.00000000E+00  0.00000000E+00
  0.00000000E+00  0.00000000E+00  0.00000000E+00
  0.00000000E+00  0.00000000E+00  0.00000000E+00
  0.00000000E+00  0.00000000E+00  0.00000000E+00
  0.00000000E+00  0.00000000E+00  0.00000000E+00
  0.00000000E+00  0.00000000E+00  0.00000000E+00
  0.00000000E+00  0.00000000E+00  0.00000000E+00
  0.00000000E+00  0.00000000E+00  0.00000000E+00
  0.00000000E+00  0.00000000E+00  0.00000000E+00
  0.00000000E+00  0.00000000E+00  0.00000000E+00
  0.00000000E+00  0.00000000E+00  0.00000000E+00
  0.00000000E+00  0.00000000E+00  0.00000000E+00
  0.00000000E+00  0.00000000E+00  0.00000000E+00
  0.00000000E+00  0.00000000E+00  0.00000000E+00
  0.00000000E+00  0.00000000E+00  0.00000000E+00
  0.00000000E+00  0.00000000E+00  0.00000000E+00
  0.00000000E+00  0.00000000E+00  0.00000000E+00
  0.00000000E+00  0.00000000E+00  0.00000000E+00
  0.00000000E+00  0.00000000E+00  0.00000000E+00
  0.00000000E+00  0.00000000E+00  0.00000000E+00
  0.00000000E+00  0.00000000E+00  0.00000000E+00
  0.00000000E+00  0.00000000E+00  0.00000000E+00
  0.00000000E+00  0.00000000E+00  0.00000000E+00
  0.00000000E+00  0.00000000E+00  0.00000000E+00
  0.00000000E+00  0.00000000E+00  0.00000000E+00
  0.00000000E+00  0.00000000E+00  0.00000000E+00
  0.00000000E+00  0.00000000E+00  0.00000000E+00
  0.00000000E+00  0.00000000E+00  0.00000000E+00
  0.00000000E+00  0.00000000E+00  0.00000000E+00
  0.00000000E+00  0.00000000E+00  0.00000000E+00
