Al   Sc   N                             
   1.00000000000000     
    -9.5778631460557815    0.0000235028614111    0.0000092179540365
    -4.7889193020131513    8.3000710247735743    0.0067711061449379
    -0.0000104186124537    0.0044784497246527   -9.5930120109901296
   Al   Sc   N 
    34     2    35
Direct
  0.1089059229993339  0.0990482553910326  0.3737968908176725
  0.2235403211733313  0.2111326004427951  0.0812908702661232
  0.7735678202251819  0.0947652170471613  0.8286204902681291
  0.8784189925053809  0.2105437445549043  0.5756494907439631
  0.4478158129065051  0.0919912995135235  0.3278070929999117
  0.5560032853866801  0.2048534444842076  0.0781376921947086
  0.2278972288793994  0.2105438069429226  0.5756494859191932
  0.7770529436273108  0.0919912704338586  0.3278070831005024
  0.8821870442994850  0.2111325664041388  0.0812908571037951
  0.4485269259585820  0.0947653122929637  0.8286205048797228
  0.5554683011347024  0.2059234218692083  0.5773215864022490
  0.1098530655330023  0.4303282872212293  0.3278028612281645
  0.2222627549067937  0.5358651343775165  0.0768812977832383
  0.7733370272638922  0.4321363694083971  0.8282014258181860
  0.8886918451056687  0.5394763364271782  0.5783338442770400
  0.4450248594723973  0.4268103747083174  0.3273563211320791
  0.5587320718500024  0.5358651840287436  0.0768813068472127
  0.1113866471365910  0.4321363735787926  0.8282014242458260
  0.2242425388954743  0.5368975661846278  0.5789624292580768
  0.7766787453986126  0.4303282405392466  0.3278028485644171
  0.8888496341777952  0.5391607263628728  0.0780013911895168
  0.4449280310697716  0.4270040263436599  0.8294311371377034
  0.5557199357412941  0.5368975149019803  0.5789624235958684
  0.1065849671205470  0.7555155265871605  0.3312870799473089
  0.7783781653487125  0.7601036512087944  0.8281383190097600
  0.8875378709117783  0.8719682335476833  0.5796243461738015
  0.4547595975251895  0.7555155058616023  0.3312871011209779
  0.5600266297939385  0.8697105337064528  0.0763883945045478
  0.1119984566412811  0.7580674450487734  0.8272036938212182
  0.2263789431977159  0.8641020290779338  0.5748054809134757
  0.7779549508386481  0.7609501142406430  0.3277635591742865
  0.8871228202589521  0.8697104244054259  0.0763883973704296
  0.4467941087338900  0.7580674547198569  0.8272036837032317
  0.5573538042932711  0.8719682983891772  0.5796243598519624
  0.1090064071254773  0.0988472022870184  0.8278534279407168
  0.2187381013855259  0.8793837369526187  0.1021795561534944
  0.2249654913878416  0.2078286440718102  0.3759179079050483
  0.8686129533617759  0.2158946016845249  0.8837431059932115
  0.7769363520874393  0.0943308682491519  0.6297057971680289
  0.5558828585560178  0.2050941945922560  0.3789526981885842
  0.4459510198292236  0.0912544830855566  0.1303615013398414
  0.2323522667290021  0.2158946505569759  0.8837431274229957
  0.1110314585011523  0.0947972016982419  0.6001203355798310
  0.8840657879915526  0.2078285967553839  0.3759178884929781
  0.7796546396095181  0.0912544089192338  0.1303614903409027
  0.5557883822097907  0.2052831221180753  0.8807913374144363
  0.4455928618704235  0.0943309224091422  0.6297058062690439
  0.2243190248084446  0.5359973855948255  0.3816325035288060
  0.1095204834221946  0.4286156500168303  0.1310093173560603
  0.8893798198744136  0.5381002656388389  0.8793312658023353
  0.7777380426565088  0.4282745760404367  0.6296027961872497
  0.5565435570770774  0.5359973694418656  0.3816324915695759
  0.4449455063864036  0.4269691227802426  0.1286850882760717
  0.2225798160151484  0.5394416570508014  0.8788606624271935
  0.1108475048946289  0.4282746428667679  0.6296027959180606
  0.8888217285359872  0.5392164542007620  0.3802342699051522
  0.7787240096662345  0.4286156082629020  0.1310092999421428
  0.5548384193491245  0.5394416878228512  0.8788606731633095
  0.4452258439541339  0.4264084458563033  0.6308547523069521
  0.2230717351359601  0.8707164823482714  0.3660821425237728
  0.1019309243204063  0.7504286199208892  0.1347869151109506
  0.8893089710235174  0.8720263837386142  0.8776954748952690
  0.7783822588670191  0.7600955336700110  0.6307340270945474
  0.5574463963703735  0.8724118666299177  0.3822587475773886
  0.4645005601470515  0.7504286563291274  0.1347869145479734
  0.2293183397751264  0.8582231428661800  0.8796172412181420
  0.1114648748251881  0.7602602866332120  0.6265066401086656
  0.8870016318407110  0.8724118435529249  0.3822587399249713
  0.7782123856826928  0.7604352590207597  0.1291923614002215
  0.5555244400603101  0.8720264660795038  0.8776954687656158
  0.4451349069475015  0.7602602817969455  0.6265066323036024
 
  0.00000000E+00  0.00000000E+00  0.00000000E+00
  0.00000000E+00  0.00000000E+00  0.00000000E+00
  0.00000000E+00  0.00000000E+00  0.00000000E+00
  0.00000000E+00  0.00000000E+00  0.00000000E+00
  0.00000000E+00  0.00000000E+00  0.00000000E+00
  0.00000000E+00  0.00000000E+00  0.00000000E+00
  0.00000000E+00  0.00000000E+00  0.00000000E+00
  0.00000000E+00  0.00000000E+00  0.00000000E+00
  0.00000000E+00  0.00000000E+00  0.00000000E+00
  0.00000000E+00  0.00000000E+00  0.00000000E+00
  0.00000000E+00  0.00000000E+00  0.00000000E+00
  0.00000000E+00  0.00000000E+00  0.00000000E+00
  0.00000000E+00  0.00000000E+00  0.00000000E+00
  0.00000000E+00  0.00000000E+00  0.00000000E+00
  0.00000000E+00  0.00000000E+00  0.00000000E+00
  0.00000000E+00  0.00000000E+00  0.00000000E+00
  0.00000000E+00  0.00000000E+00  0.00000000E+00
  0.00000000E+00  0.00000000E+00  0.00000000E+00
  0.00000000E+00  0.00000000E+00  0.00000000E+00
  0.00000000E+00  0.00000000E+00  0.00000000E+00
  0.00000000E+00  0.00000000E+00  0.00000000E+00
  0.00000000E+00  0.00000000E+00  0.00000000E+00
  0.00000000E+00  0.00000000E+00  0.00000000E+00
  0.00000000E+00  0.00000000E+00  0.00000000E+00
  0.00000000E+00  0.00000000E+00  0.00000000E+00
  0.00000000E+00  0.00000000E+00  0.00000000E+00
  0.00000000E+00  0.00000000E+00  0.00000000E+00
  0.00000000E+00  0.00000000E+00  0.00000000E+00
  0.00000000E+00  0.00000000E+00  0.00000000E+00
  0.00000000E+00  0.00000000E+00  0.00000000E+00
  0.00000000E+00  0.00000000E+00  0.00000000E+00
  0.00000000E+00  0.00000000E+00  0.00000000E+00
  0.00000000E+00  0.00000000E+00  0.00000000E+00
  0.00000000E+00  0.00000000E+00  0.00000000E+00
  0.00000000E+00  0.00000000E+00  0.00000000E+00
  0.00000000E+00  0.00000000E+00  0.00000000E+00
  0.00000000E+00  0.00000000E+00  0.00000000E+00
  0.00000000E+00  0.00000000E+00  0.00000000E+00
  0.00000000E+00  0.00000000E+00  0.00000000E+00
  0.00000000E+00  0.00000000E+00  0.00000000E+00
  0.00000000E+00  0.00000000E+00  0.00000000E+00
  0.00000000E+00  0.00000000E+00  0.00000000E+00
  0.00000000E+00  0.00000000E+00  0.00000000E+00
  0.00000000E+00  0.00000000E+00  0.00000000E+00
  0.00000000E+00  0.00000000E+00  0.00000000E+00
  0.00000000E+00  0.00000000E+00  0.00000000E+00
  0.00000000E+00  0.00000000E+00  0.00000000E+00
  0.00000000E+00  0.00000000E+00  0.00000000E+00
  0.00000000E+00  0.00000000E+00  0.00000000E+00
  0.00000000E+00  0.00000000E+00  0.00000000E+00
  0.00000000E+00  0.00000000E+00  0.00000000E+00
  0.00000000E+00  0.00000000E+00  0.00000000E+00
  0.00000000E+00  0.00000000E+00  0.00000000E+00
  0.00000000E+00  0.00000000E+00  0.00000000E+00
  0.00000000E+00  0.00000000E+00  0.00000000E+00
  0.00000000E+00  0.00000000E+00  0.00000000E+00
  0.00000000E+00  0.00000000E+00  0.00000000E+00
  0.00000000E+00  0.00000000E+00  0.00000000E+00
  0.00000000E+00  0.00000000E+00  0.00000000E+00
  0.00000000E+00  0.00000000E+00  0.00000000E+00
  0.00000000E+00  0.00000000E+00  0.00000000E+00
  0.00000000E+00  0.00000000E+00  0.00000000E+00
  0.00000000E+00  0.00000000E+00  0.00000000E+00
  0.00000000E+00  0.00000000E+00  0.00000000E+00
  0.00000000E+00  0.00000000E+00  0.00000000E+00
  0.00000000E+00  0.00000000E+00  0.00000000E+00
  0.00000000E+00  0.00000000E+00  0.00000000E+00
  0.00000000E+00  0.00000000E+00  0.00000000E+00
  0.00000000E+00  0.00000000E+00  0.00000000E+00
  0.00000000E+00  0.00000000E+00  0.00000000E+00
  0.00000000E+00  0.00000000E+00  0.00000000E+00
