Al   Sc   N                             
   1.00000000000000     
    -9.4202297198430998    0.0000539958209721    0.0000047105525740
    -4.7101487952711398    8.1747763789950092    0.0051475673902884
     0.0000031109919246   -0.0062552377138705  -10.0118966300269996
   Al   Sc   N 
    34     2    35
Direct
  0.1097322553730322  0.0977024819735490  0.3484470739745973
  0.2206135293866183  0.2113252157050169  0.0445505747827681
  0.7737879588404510  0.0945601808231871  0.7960941572237061
  0.8770648767609472  0.2111775028498641  0.5427172266879907
  0.4469410006201144  0.0924502727956025  0.2939158830923674
  0.5560478395466930  0.2050528932840905  0.0449992420224703
  0.2289292270248495  0.2111732741913883  0.5427240045031922
  0.7777634780157356  0.0924450027962394  0.2939254471035042
  0.8852178009082650  0.2112848739897046  0.0445565429863777
  0.4488081212769899  0.0945720171425677  0.7960931812066576
  0.5560533473135933  0.2050534315064780  0.5444352937887942
  0.1104493258467514  0.4293918390635270  0.2940244510125467
  0.2229831549487855  0.5356943792276638  0.0444685476241489
  0.7734144867576305  0.4325696592086601  0.7956313102587202
  0.8889099295512608  0.5393384594685600  0.5449683761340225
  0.4453699492412753  0.4264318095420450  0.2952715770699186
  0.5585338904222681  0.5356723734241200  0.0444779022048110
  0.1111769103877549  0.4325921820487082  0.7956266665075944
  0.2236962094670076  0.5372151311032169  0.5457231269276832
  0.7773439504132043  0.4293828604144920  0.2940237283831237
  0.8886405314852652  0.5399057605471143  0.0452972355713612
  0.4450303702890679  0.4271131300754050  0.7959782145892476
  0.5562418094174149  0.5372167701341866  0.5457147718224320
  0.1076497923230804  0.7553326895130255  0.2966539143904825
  0.7782763384682454  0.7605999930019962  0.7947689046571895
  0.8882820171839185  0.8718189717738341  0.5459155135124405
  0.4541692922476201  0.7553404041898801  0.2966511637792877
  0.5599444503197120  0.8698845623838736  0.0440351806181454
  0.1121445492389483  0.7577787186825233  0.7950536059218507
  0.2281124466635234  0.8609439150437481  0.5400054013708413
  0.7780734083687548  0.7610092124367327  0.2954072530141900
  0.8873269240837658  0.8698679404009582  0.0440373871055257
  0.4472391606366131  0.7577699154698152  0.7950585626821081
  0.5570641068766093  0.8718115758086071  0.5459152563700300
  0.1099898915891728  0.0971988273404847  0.7871196891696854
  0.2168357500814579  0.8834888213034944  0.0640647475170510
  0.2260459345540298  0.2089127912111621  0.3520587797628991
  0.8707174265724404  0.2152733640293150  0.8559634253916428
  0.7774132623333614  0.0936774667298081  0.6047947339505626
  0.5564352042995822  0.2042852938935766  0.3531597450747199
  0.4437630303160205  0.0920975590405106  0.1035823477677482
  0.2311632553244323  0.2153017925111982  0.8559640289417061
  0.1118237797343582  0.0935286988008102  0.5680609660943077
  0.8822115355621420  0.2089054531589269  0.3520566393755331
  0.7812847059034169  0.0920829115450132  0.1035849102335433
  0.5557046191939747  0.2057600717038000  0.8551609905110240
  0.4460780800971520  0.0936712061648137  0.6047962961316955
  0.2238798499507126  0.5363043179404414  0.3556310071215449
  0.1098031293971502  0.4279087293059547  0.1045847740220722
  0.8890028880463419  0.5391626169994765  0.8539913250374909
  0.7780440850280925  0.4283621312638672  0.6046411225036081
  0.5569842557735356  0.5363085955155356  0.3556207589064400
  0.4453587006559445  0.4264636842410141  0.1039447556365829
  0.2230434364868259  0.5392636638694555  0.8539440478487634
  0.1107529265979608  0.4283635950368705  0.6046380666860856
  0.8892159852935606  0.5387378144208697  0.3540910776708444
  0.7795012303778321  0.4278909032566887  0.1045856696712733
  0.5548756832929485  0.5392469967342777  0.8539498722660568
  0.4454233338211537  0.4263197874379898  0.6044673069088660
  0.2246718147026385  0.8678060351977166  0.3421030764344053
  0.1027716106646039  0.7508506739050844  0.1087635909287172
  0.8892973816463012  0.8720433501068143  0.8528605433623184
  0.7784406842723470  0.7602842729245580  0.6043540219000292
  0.5565630347128661  0.8726668614449267  0.3557945934428304
  0.4635350180926920  0.7508474097733213  0.1087537041454851
  0.2291562231676281  0.8588425701350886  0.8538018125571583
  0.1116362401502684  0.7599958148010799  0.6022855410601267
  0.8879228321618555  0.8726606624009747  0.3557966700699922
  0.7780721490220870  0.7610012668719932  0.1043634737493306
  0.5558077412401374  0.8720525741844014  0.8528608869977816
  0.4455406152616419  0.7599914070124925  0.6022943240017469
 
  0.00000000E+00  0.00000000E+00  0.00000000E+00
  0.00000000E+00  0.00000000E+00  0.00000000E+00
  0.00000000E+00  0.00000000E+00  0.00000000E+00
  0.00000000E+00  0.00000000E+00  0.00000000E+00
  0.00000000E+00  0.00000000E+00  0.00000000E+00
  0.00000000E+00  0.00000000E+00  0.00000000E+00
  0.00000000E+00  0.00000000E+00  0.00000000E+00
  0.00000000E+00  0.00000000E+00  0.00000000E+00
  0.00000000E+00  0.00000000E+00  0.00000000E+00
  0.00000000E+00  0.00000000E+00  0.00000000E+00
  0.00000000E+00  0.00000000E+00  0.00000000E+00
  0.00000000E+00  0.00000000E+00  0.00000000E+00
  0.00000000E+00  0.00000000E+00  0.00000000E+00
  0.00000000E+00  0.00000000E+00  0.00000000E+00
  0.00000000E+00  0.00000000E+00  0.00000000E+00
  0.00000000E+00  0.00000000E+00  0.00000000E+00
  0.00000000E+00  0.00000000E+00  0.00000000E+00
  0.00000000E+00  0.00000000E+00  0.00000000E+00
  0.00000000E+00  0.00000000E+00  0.00000000E+00
  0.00000000E+00  0.00000000E+00  0.00000000E+00
  0.00000000E+00  0.00000000E+00  0.00000000E+00
  0.00000000E+00  0.00000000E+00  0.00000000E+00
  0.00000000E+00  0.00000000E+00  0.00000000E+00
  0.00000000E+00  0.00000000E+00  0.00000000E+00
  0.00000000E+00  0.00000000E+00  0.00000000E+00
  0.00000000E+00  0.00000000E+00  0.00000000E+00
  0.00000000E+00  0.00000000E+00  0.00000000E+00
  0.00000000E+00  0.00000000E+00  0.00000000E+00
  0.00000000E+00  0.00000000E+00  0.00000000E+00
  0.00000000E+00  0.00000000E+00  0.00000000E+00
  0.00000000E+00  0.00000000E+00  0.00000000E+00
  0.00000000E+00  0.00000000E+00  0.00000000E+00
  0.00000000E+00  0.00000000E+00  0.00000000E+00
  0.00000000E+00  0.00000000E+00  0.00000000E+00
  0.00000000E+00  0.00000000E+00  0.00000000E+00
  0.00000000E+00  0.00000000E+00  0.00000000E+00
  0.00000000E+00  0.00000000E+00  0.00000000E+00
  0.00000000E+00  0.00000000E+00  0.00000000E+00
  0.00000000E+00  0.00000000E+00  0.00000000E+00
  0.00000000E+00  0.00000000E+00  0.00000000E+00
  0.00000000E+00  0.00000000E+00  0.00000000E+00
  0.00000000E+00  0.00000000E+00  0.00000000E+00
  0.00000000E+00  0.00000000E+00  0.00000000E+00
  0.00000000E+00  0.00000000E+00  0.00000000E+00
  0.00000000E+00  0.00000000E+00  0.00000000E+00
  0.00000000E+00  0.00000000E+00  0.00000000E+00
  0.00000000E+00  0.00000000E+00  0.00000000E+00
  0.00000000E+00  0.00000000E+00  0.00000000E+00
  0.00000000E+00  0.00000000E+00  0.00000000E+00
  0.00000000E+00  0.00000000E+00  0.00000000E+00
  0.00000000E+00  0.00000000E+00  0.00000000E+00
  0.00000000E+00  0.00000000E+00  0.00000000E+00
  0.00000000E+00  0.00000000E+00  0.00000000E+00
  0.00000000E+00  0.00000000E+00  0.00000000E+00
  0.00000000E+00  0.00000000E+00  0.00000000E+00
  0.00000000E+00  0.00000000E+00  0.00000000E+00
  0.00000000E+00  0.00000000E+00  0.00000000E+00
  0.00000000E+00  0.00000000E+00  0.00000000E+00
  0.00000000E+00  0.00000000E+00  0.00000000E+00
  0.00000000E+00  0.00000000E+00  0.00000000E+00
  0.00000000E+00  0.00000000E+00  0.00000000E+00
  0.00000000E+00  0.00000000E+00  0.00000000E+00
  0.00000000E+00  0.00000000E+00  0.00000000E+00
  0.00000000E+00  0.00000000E+00  0.00000000E+00
  0.00000000E+00  0.00000000E+00  0.00000000E+00
  0.00000000E+00  0.00000000E+00  0.00000000E+00
  0.00000000E+00  0.00000000E+00  0.00000000E+00
  0.00000000E+00  0.00000000E+00  0.00000000E+00
  0.00000000E+00  0.00000000E+00  0.00000000E+00
  0.00000000E+00  0.00000000E+00  0.00000000E+00
  0.00000000E+00  0.00000000E+00  0.00000000E+00
