Al   Sc   N                             
   1.00000000000000     
    -9.4212610192608608   -0.0000405323536669    0.0000186834971079
    -4.7106655660905137    8.1688557040332004    0.0101805375297020
    -0.0000195741418122   -0.0147833632315822  -10.0016153987999878
   Al   Sc   N 
    34     2    35
Direct
  0.1108032216037245  0.0951815927831987  0.3995905718173987
  0.2228941886863183  0.2111657058357324  0.1441226096809345
  0.7740005245029664  0.0945047945524777  0.8895135795779652
  0.8806520724644002  0.2096759968167916  0.6374394199320932
  0.4469433593451981  0.0923421824159760  0.3896882017978953
  0.5555962891812811  0.2055954414266736  0.1401825662602576
  0.2264599431198491  0.2096759849320406  0.6374394329142916
  0.7775024734596911  0.0923422033050443  0.3896882021418833
  0.8827281462642134  0.2111657024139859  0.1441226192947127
  0.4482827445327970  0.0945047925124243  0.8895135723997427
  0.5558879173312405  0.2050121770507687  0.6401944013464416
  0.1098108143316026  0.4295067344615688  0.3899589489984834
  0.2230770120855681  0.5355842282750345  0.1405183285062819
  0.7723063297301920  0.4326179386111164  0.8892917451755196
  0.8889100516108996  0.5389678753089484  0.6396208614204681
  0.4450563713393052  0.4266752440343637  0.3902934051949885
  0.5581267603863793  0.5355842333526653  0.1405183197430020
  0.1118637531323898  0.4326179575773210  0.8892917368726145
  0.2230688076481329  0.5376685205022156  0.6399191752046960
  0.7774704407216788  0.4295067386617148  0.3899589499562026
  0.8885342979657480  0.5397194145183946  0.1396412013916191
  0.4447225131212278  0.4273429887378839  0.8888214424532492
  0.5560506588978811  0.5376685069398803  0.6399191986094905
  0.1103851623694041  0.7591229303957334  0.3936044193183008
  0.7777492206683974  0.7612895769624117  0.8893170062904616
  0.8879853947649821  0.8722109405446119  0.6398598658302745
  0.4472799522482305  0.7591228956965566  0.3936044174272055
  0.5602615474144557  0.8692561515877770  0.1408706821870993
  0.1093806498491787  0.7557179795263451  0.8878334256521825
  0.2251209269632710  0.8665461504288317  0.6402582721914811
  0.7783113083165816  0.7601654036088590  0.3907336234658132
  0.8872703434188836  0.8692561480948484  0.1408706816332881
  0.4516893826552817  0.7557179748242646  0.8878334380486876
  0.5565916737729921  0.8722109325358858  0.6398598684058854
  0.1064865207694510  0.1038149482232882  0.8770200653334399
  0.2186258386769140  0.8795363059481645  0.1365689149434957
  0.2216001794276892  0.2039591039470281  0.3337640494867742
  0.8653306724208250  0.2176945573292457  0.8259618445258354
  0.7770892266703129  0.0931473615531004  0.5793924971371993
  0.5560251897113915  0.2047376330541084  0.3300864582192133
  0.4433037380885949  0.0924511267667611  0.0821254111158609
  0.2337628121414070  0.2176945492000897  0.8259618537278826
  0.1105167402826694  0.0957545294508577  0.5937428852422073
  0.8912287623327160  0.2039591077763490  0.3337640600778471
  0.7810331731321867  0.0924511256809666  0.0821254242731797
  0.5558108923784317  0.2051662564884325  0.8316780518343592
  0.4465514321577544  0.0931473487411623  0.5793925047160968
  0.2229116896149748  0.5380079645291644  0.3312482931754346
  0.1105691421990116  0.4260565121891347  0.0809721323936827
  0.8892608897512133  0.5382662424744069  0.8315556080485536
  0.7772207887637990  0.4293137519665180  0.5794142945420262
  0.5558683453131010  0.5380079493971408  0.3312482931133758
  0.4451880782548940  0.4264118531285916  0.0809444710666440
  0.2235997758615582  0.5381417798351507  0.8300249501594195
  0.1102534452063963  0.4293137442030144  0.5794142958780384
  0.8889937308589992  0.5388005426680209  0.3301821314279181
  0.7801623689121797  0.4260565083162007  0.0809721411012063
  0.5550464727523234  0.5381417742940329  0.8300249829983386
  0.4450866010563317  0.4266147940964515  0.5811664672241506
  0.2218908548173886  0.8730063336139438  0.3453635959508503
  0.1040491388223188  0.7519655955253697  0.0777717316884861
  0.8877341342659548  0.8731310157661838  0.8307178643372239
  0.7782172205898874  0.7603535714458758  0.5813590462240938
  0.5563411387144654  0.8707999377902595  0.3315356109353829
  0.4607732735093890  0.7519656180630037  0.0777717572815675
  0.2301478107584671  0.8564924008710832  0.8350720987919544
  0.1105002402367745  0.7596838800811483  0.5837352253356372
  0.8896469331259169  0.8707999540551299  0.3315356116590209
  0.7782723455165552  0.7602433561768294  0.0803621435104631
  0.5559228665288458  0.8731310158876227  0.8307178689594892
  0.4466039033042009  0.7596838609834933  0.5837352338031749
 
  0.00000000E+00  0.00000000E+00  0.00000000E+00
  0.00000000E+00  0.00000000E+00  0.00000000E+00
  0.00000000E+00  0.00000000E+00  0.00000000E+00
  0.00000000E+00  0.00000000E+00  0.00000000E+00
  0.00000000E+00  0.00000000E+00  0.00000000E+00
  0.00000000E+00  0.00000000E+00  0.00000000E+00
  0.00000000E+00  0.00000000E+00  0.00000000E+00
  0.00000000E+00  0.00000000E+00  0.00000000E+00
  0.00000000E+00  0.00000000E+00  0.00000000E+00
  0.00000000E+00  0.00000000E+00  0.00000000E+00
  0.00000000E+00  0.00000000E+00  0.00000000E+00
  0.00000000E+00  0.00000000E+00  0.00000000E+00
  0.00000000E+00  0.00000000E+00  0.00000000E+00
  0.00000000E+00  0.00000000E+00  0.00000000E+00
  0.00000000E+00  0.00000000E+00  0.00000000E+00
  0.00000000E+00  0.00000000E+00  0.00000000E+00
  0.00000000E+00  0.00000000E+00  0.00000000E+00
  0.00000000E+00  0.00000000E+00  0.00000000E+00
  0.00000000E+00  0.00000000E+00  0.00000000E+00
  0.00000000E+00  0.00000000E+00  0.00000000E+00
  0.00000000E+00  0.00000000E+00  0.00000000E+00
  0.00000000E+00  0.00000000E+00  0.00000000E+00
  0.00000000E+00  0.00000000E+00  0.00000000E+00
  0.00000000E+00  0.00000000E+00  0.00000000E+00
  0.00000000E+00  0.00000000E+00  0.00000000E+00
  0.00000000E+00  0.00000000E+00  0.00000000E+00
  0.00000000E+00  0.00000000E+00  0.00000000E+00
  0.00000000E+00  0.00000000E+00  0.00000000E+00
  0.00000000E+00  0.00000000E+00  0.00000000E+00
  0.00000000E+00  0.00000000E+00  0.00000000E+00
  0.00000000E+00  0.00000000E+00  0.00000000E+00
  0.00000000E+00  0.00000000E+00  0.00000000E+00
  0.00000000E+00  0.00000000E+00  0.00000000E+00
  0.00000000E+00  0.00000000E+00  0.00000000E+00
  0.00000000E+00  0.00000000E+00  0.00000000E+00
  0.00000000E+00  0.00000000E+00  0.00000000E+00
  0.00000000E+00  0.00000000E+00  0.00000000E+00
  0.00000000E+00  0.00000000E+00  0.00000000E+00
  0.00000000E+00  0.00000000E+00  0.00000000E+00
  0.00000000E+00  0.00000000E+00  0.00000000E+00
  0.00000000E+00  0.00000000E+00  0.00000000E+00
  0.00000000E+00  0.00000000E+00  0.00000000E+00
  0.00000000E+00  0.00000000E+00  0.00000000E+00
  0.00000000E+00  0.00000000E+00  0.00000000E+00
  0.00000000E+00  0.00000000E+00  0.00000000E+00
  0.00000000E+00  0.00000000E+00  0.00000000E+00
  0.00000000E+00  0.00000000E+00  0.00000000E+00
  0.00000000E+00  0.00000000E+00  0.00000000E+00
  0.00000000E+00  0.00000000E+00  0.00000000E+00
  0.00000000E+00  0.00000000E+00  0.00000000E+00
  0.00000000E+00  0.00000000E+00  0.00000000E+00
  0.00000000E+00  0.00000000E+00  0.00000000E+00
  0.00000000E+00  0.00000000E+00  0.00000000E+00
  0.00000000E+00  0.00000000E+00  0.00000000E+00
  0.00000000E+00  0.00000000E+00  0.00000000E+00
  0.00000000E+00  0.00000000E+00  0.00000000E+00
  0.00000000E+00  0.00000000E+00  0.00000000E+00
  0.00000000E+00  0.00000000E+00  0.00000000E+00
  0.00000000E+00  0.00000000E+00  0.00000000E+00
  0.00000000E+00  0.00000000E+00  0.00000000E+00
  0.00000000E+00  0.00000000E+00  0.00000000E+00
  0.00000000E+00  0.00000000E+00  0.00000000E+00
  0.00000000E+00  0.00000000E+00  0.00000000E+00
  0.00000000E+00  0.00000000E+00  0.00000000E+00
  0.00000000E+00  0.00000000E+00  0.00000000E+00
  0.00000000E+00  0.00000000E+00  0.00000000E+00
  0.00000000E+00  0.00000000E+00  0.00000000E+00
  0.00000000E+00  0.00000000E+00  0.00000000E+00
  0.00000000E+00  0.00000000E+00  0.00000000E+00
  0.00000000E+00  0.00000000E+00  0.00000000E+00
  0.00000000E+00  0.00000000E+00  0.00000000E+00
