Al   Sc   N                             
   1.00000000000000     
    -9.4195112783425490    0.0000478972290599    0.0000056120328665
    -4.7097127779829844    8.1747839708974457    0.0054722751412183
    -0.0000052476337928   -0.0058344516181057  -10.0114720171810703
   Al   Sc   N 
    34     2    35
Direct
  0.1096542969741279  0.0977813157764587  0.3554779999296116
  0.2206000017373881  0.2113344003072939  0.0518070056713142
  0.7737673841748531  0.0945663585368663  0.8033290494903724
  0.8770415034913057  0.2111708627330628  0.5499011941719800
  0.4469165520995375  0.0924481916277173  0.3011386485858978
  0.5560241100003225  0.2050415681982329  0.0522200832070681
  0.2288777080641751  0.2111709240099415  0.5499011972514722
  0.7777250884078413  0.0924482406911480  0.3011386531336058
  0.8851554981254282  0.2113343634971656  0.0518070495434557
  0.4487562698230505  0.0945663421907454  0.8033290446967030
  0.5560163333956254  0.2050572845768102  0.5516801122874000
  0.1103940833581660  0.4294314237033205  0.3012449636123478
  0.2229322153261251  0.5357002715979036  0.0516846288060506
  0.7733707567327528  0.4325780260414902  0.8028479546518383
  0.8888759351011117  0.5393379743897384  0.5522066262761385
  0.4453295954163110  0.4264305707699165  0.3025023109871370
  0.5584574347783544  0.5357001472756551  0.0516846027862385
  0.1111410942621305  0.4325781082240141  0.8028479587048878
  0.2236610116730589  0.5372342971851225  0.5529531011847268
  0.7772642735930830  0.4294314168617319  0.3012449771832948
  0.8885946546301753  0.5399005376189336  0.0525139586820842
  0.4449919049154119  0.4271060376404350  0.8032081561787976
  0.5561945717516537  0.5372342112490003  0.5529531045913103
  0.1076030188072110  0.7553487329635047  0.3038602809098876
  0.7782485958913696  0.7605927607402023  0.8019962907118128
  0.8882496669601636  0.8718172176557104  0.5531509463441111
  0.4541382353481538  0.7553486737608779  0.3038602485688600
  0.5599301961766869  0.8698623116675464  0.0512433083803714
  0.1121257553667476  0.7577997013342923  0.8022788470687772
  0.2280503140988088  0.8609895162391297  0.5471415857541189
  0.7780423585570517  0.7610051685204340  0.3026403751037208
  0.8872974883146583  0.8698623616568426  0.0512433301459794
  0.4471646310597635  0.7577995950584935  0.8022788615856911
  0.5570230901802802  0.8718171962924970  0.5531509561955872
  0.1099399661669835  0.0972100605947901  0.7942920076380062
  0.2167642871553284  0.8835616178156087  0.0713459048892346
  0.2259965409219902  0.2089520507517548  0.3592369569076936
  0.8706848553537583  0.2152970022247089  0.8632173154795240
  0.7773962816846520  0.0936773014772143  0.6120217147280087
  0.5563982739163151  0.2042932959218575  0.3603953034690619
  0.4437547736755434  0.0920707519266628  0.1108011194957186
  0.2311081358232698  0.2152970351271932  0.8632172678322831
  0.1117740981058404  0.0935419056169096  0.5752536237542714
  0.8821413531402982  0.2089520431868124  0.3592369451262769
  0.7812642233573399  0.0920708120664528  0.1108011309944743
  0.5556631620813803  0.2057636648313945  0.8623788074080707
  0.4460164473139088  0.0936772535023565  0.6120217264799450
  0.2238363460798851  0.5363332910371170  0.3628579129799476
  0.1097410840604169  0.4279324839650656  0.1118078532838922
  0.8889643661162978  0.5391611797991445  0.8612116270569601
  0.7780088781349548  0.4283506974543485  0.6118639865422253
  0.5569202012142469  0.5363332619138248  0.3628579309402582
  0.4453187318565810  0.4264523675104925  0.1111610373951635
  0.2230015850644449  0.5392735652789469  0.8611580750046954
  0.1107302760818101  0.4283507569880172  0.6118639928129070
  0.8891724777319610  0.5387448628429965  0.3613270638271757
  0.7794163141180164  0.4279324369383275  0.1118078871315760
  0.5548148480278385  0.5392734552174687  0.8611580497303351
  0.4453840034513021  0.4263218297011093  0.6117019782067814
  0.2246076505389212  0.8678747228987476  0.3492340069041546
  0.1027509087307266  0.7508548087895335  0.1159669954620881
  0.8892654189978373  0.8720447002162501  0.8600728193292042
  0.7784068779891413  0.7602762162993599  0.6115872261133930
  0.5565314829535808  0.8726700341859441  0.3630273891457918
  0.4634843903952586  0.7508546755458596  0.1159669571803832
  0.2290945524383332  0.8589010194618822  0.8610744201822342
  0.1116132586235778  0.7600159813334741  0.6095011270490929
  0.8878884104891682  0.8726700499144613  0.3630273866693514
  0.7780576899978016  0.7609746336772716  0.1115844993412054
  0.5557798838115673  0.8720446983824530  0.8600728131539555
  0.4454608492618775  0.7600158803424577  0.6095011659924978
 
  0.00000000E+00  0.00000000E+00  0.00000000E+00
  0.00000000E+00  0.00000000E+00  0.00000000E+00
  0.00000000E+00  0.00000000E+00  0.00000000E+00
  0.00000000E+00  0.00000000E+00  0.00000000E+00
  0.00000000E+00  0.00000000E+00  0.00000000E+00
  0.00000000E+00  0.00000000E+00  0.00000000E+00
  0.00000000E+00  0.00000000E+00  0.00000000E+00
  0.00000000E+00  0.00000000E+00  0.00000000E+00
  0.00000000E+00  0.00000000E+00  0.00000000E+00
  0.00000000E+00  0.00000000E+00  0.00000000E+00
  0.00000000E+00  0.00000000E+00  0.00000000E+00
  0.00000000E+00  0.00000000E+00  0.00000000E+00
  0.00000000E+00  0.00000000E+00  0.00000000E+00
  0.00000000E+00  0.00000000E+00  0.00000000E+00
  0.00000000E+00  0.00000000E+00  0.00000000E+00
  0.00000000E+00  0.00000000E+00  0.00000000E+00
  0.00000000E+00  0.00000000E+00  0.00000000E+00
  0.00000000E+00  0.00000000E+00  0.00000000E+00
  0.00000000E+00  0.00000000E+00  0.00000000E+00
  0.00000000E+00  0.00000000E+00  0.00000000E+00
  0.00000000E+00  0.00000000E+00  0.00000000E+00
  0.00000000E+00  0.00000000E+00  0.00000000E+00
  0.00000000E+00  0.00000000E+00  0.00000000E+00
  0.00000000E+00  0.00000000E+00  0.00000000E+00
  0.00000000E+00  0.00000000E+00  0.00000000E+00
  0.00000000E+00  0.00000000E+00  0.00000000E+00
  0.00000000E+00  0.00000000E+00  0.00000000E+00
  0.00000000E+00  0.00000000E+00  0.00000000E+00
  0.00000000E+00  0.00000000E+00  0.00000000E+00
  0.00000000E+00  0.00000000E+00  0.00000000E+00
  0.00000000E+00  0.00000000E+00  0.00000000E+00
  0.00000000E+00  0.00000000E+00  0.00000000E+00
  0.00000000E+00  0.00000000E+00  0.00000000E+00
  0.00000000E+00  0.00000000E+00  0.00000000E+00
  0.00000000E+00  0.00000000E+00  0.00000000E+00
  0.00000000E+00  0.00000000E+00  0.00000000E+00
  0.00000000E+00  0.00000000E+00  0.00000000E+00
  0.00000000E+00  0.00000000E+00  0.00000000E+00
  0.00000000E+00  0.00000000E+00  0.00000000E+00
  0.00000000E+00  0.00000000E+00  0.00000000E+00
  0.00000000E+00  0.00000000E+00  0.00000000E+00
  0.00000000E+00  0.00000000E+00  0.00000000E+00
  0.00000000E+00  0.00000000E+00  0.00000000E+00
  0.00000000E+00  0.00000000E+00  0.00000000E+00
  0.00000000E+00  0.00000000E+00  0.00000000E+00
  0.00000000E+00  0.00000000E+00  0.00000000E+00
  0.00000000E+00  0.00000000E+00  0.00000000E+00
  0.00000000E+00  0.00000000E+00  0.00000000E+00
  0.00000000E+00  0.00000000E+00  0.00000000E+00
  0.00000000E+00  0.00000000E+00  0.00000000E+00
  0.00000000E+00  0.00000000E+00  0.00000000E+00
  0.00000000E+00  0.00000000E+00  0.00000000E+00
  0.00000000E+00  0.00000000E+00  0.00000000E+00
  0.00000000E+00  0.00000000E+00  0.00000000E+00
  0.00000000E+00  0.00000000E+00  0.00000000E+00
  0.00000000E+00  0.00000000E+00  0.00000000E+00
  0.00000000E+00  0.00000000E+00  0.00000000E+00
  0.00000000E+00  0.00000000E+00  0.00000000E+00
  0.00000000E+00  0.00000000E+00  0.00000000E+00
  0.00000000E+00  0.00000000E+00  0.00000000E+00
  0.00000000E+00  0.00000000E+00  0.00000000E+00
  0.00000000E+00  0.00000000E+00  0.00000000E+00
  0.00000000E+00  0.00000000E+00  0.00000000E+00
  0.00000000E+00  0.00000000E+00  0.00000000E+00
  0.00000000E+00  0.00000000E+00  0.00000000E+00
  0.00000000E+00  0.00000000E+00  0.00000000E+00
  0.00000000E+00  0.00000000E+00  0.00000000E+00
  0.00000000E+00  0.00000000E+00  0.00000000E+00
  0.00000000E+00  0.00000000E+00  0.00000000E+00
  0.00000000E+00  0.00000000E+00  0.00000000E+00
  0.00000000E+00  0.00000000E+00  0.00000000E+00
