Al   Sc   N                             
   1.00000000000000     
    -9.7317589678305243   -0.0000191872819742    0.0000155283160841
    -4.8658885673633856    8.4311055990834998    0.0090440604014473
    -0.0000135947096471   -0.0049180066170335   -9.1167880559012637
   Al   Sc   N 
    34     2    35
Direct
  0.1097473779352782  0.0973645458111605  0.3855169224450563
  0.2220790909005785  0.2089784549431855  0.1205427259168275
  0.7734992435263308  0.0930627428916893  0.8770160453522422
  0.8767944906043041  0.2114706992124482  0.6230558079661250
  0.4456476954720685  0.0932743784681378  0.3698446363196268
  0.5549617812224099  0.2069358915913142  0.1245559140386021
  0.2285940927063379  0.2114706298442357  0.6230559213332327
  0.7779372873442156  0.0932743410973842  0.3698445754840947
  0.8858019636913212  0.2089784126670295  0.1205428401462214
  0.4502972519619419  0.0930627057948996  0.8770159652473311
  0.5562701647528385  0.2043190746602903  0.6235643752453583
  0.1099255073488834  0.4284344116863537  0.3708312549483068
  0.2239926621239192  0.5351487786402700  0.1262207186208570
  0.7722245390919653  0.4334967099527773  0.8765788041529987
  0.8897183580257817  0.5374228327965653  0.6231051341474938
  0.4451778042112906  0.4265038127733973  0.3760958284410165
  0.5577180816478133  0.5351487271898279  0.1262207743836044
  0.1111381503714171  0.4334966131508935  0.8765788067266413
  0.2228476229222522  0.5374185855811788  0.6223782945920178
  0.7784994851399816  0.4284344455847915  0.3708312878062756
  0.8879366730134421  0.5409861200895847  0.1243333469722572
  0.4448318284213855  0.4271957215354547  0.8714264417149309
  0.5565933330178439  0.5374186042841345  0.6223782521490477
  0.1098442811953362  0.7597598904433482  0.3744953960619881
  0.7779292275215610  0.7610009160443951  0.8704010926320009
  0.8879953057076762  0.8731848649151246  0.6222605766690990
  0.4472550859653168  0.7597599333496774  0.3744953884224103
  0.5615174562078806  0.8689481266424295  0.1259879895834430
  0.1087865116236415  0.7549413669884544  0.8717453627096390
  0.2260592041181155  0.8647410606392327  0.6187037226523913
  0.7784846058660335  0.7598901344483764  0.3776144823274805
  0.8863937278270271  0.8689481009686801  0.1259879871720528
  0.4531314940826832  0.7549413925270727  0.8717453942373581
  0.5556792913220221  0.8731848484596725  0.6222605750904648
  0.1072452890066700  0.1023684163410152  0.8466742447828253
  0.2195900097852004  0.8776793831283953  0.1099769522913192
  0.2202584611858214  0.2032486378765128  0.3320556280539364
  0.8651805258701302  0.2172100782280353  0.8356394971025694
  0.7769507067584129  0.0942574816048420  0.5801278178526132
  0.5554032023451825  0.2060530459690426  0.3333617429889983
  0.4457634661423882  0.0919573821453099  0.0880053332531645
  0.2344686549725381  0.2172099174296207  0.8356396420255336
  0.1095579482757643  0.0977432279106552  0.5980982707875313
  0.8933523198449365  0.2032486745820634  0.3320556885375652
  0.7791384562438779  0.0919573930843214  0.0880053774663523
  0.5563669786427994  0.2041254323028951  0.8348862413181237
  0.4456509953266163  0.0942575276458157  0.5801279061774878
  0.2238338971593379  0.5376057473265732  0.3360792826356374
  0.1101399795191185  0.4282961696254830  0.0870442239242379
  0.8899643620844273  0.5369307637484368  0.8343156809373937
  0.7777032091211211  0.4284333674219027  0.5807236246931282
  0.5554198801982082  0.5376057530432448  0.3360792952554945
  0.4447528131155849  0.4273537266037408  0.0828886733728638
  0.2231399393186635  0.5377325901430510  0.8322315412691808
  0.1107228085392435  0.4284333447553976  0.5807236323514431
  0.8884195549209011  0.5400204116930567  0.3341020393323859
  0.7784232084269718  0.4282961174380162  0.0870442126802757
  0.5559869310585270  0.5377326021495747  0.8322315125320259
  0.4453129571328773  0.4262334963422063  0.5858888998760605
  0.2202044019810288  0.8764505703496610  0.3462343791155504
  0.1032973270923705  0.7513892515583933  0.0840936242429606
  0.8879249437529140  0.8735325359872022  0.8325916959692279
  0.7784448359803733  0.7599696901122570  0.5870605364409371
  0.5577380461417718  0.8706642856956037  0.3361553859106152
  0.4621726697113999  0.7513891779091679  0.0840936614649479
  0.2303437043579137  0.8561720968262136  0.8428949180873957
  0.1106083558187905  0.7598599411208582  0.5856800505358208
  0.8884571241279815  0.8706642675341243  0.3361553328623685
  0.7782741655191643  0.7603108506010017  0.0812365102946160
  0.5554020635166594  0.8735324723148352  0.8325916919830405
  0.4463909911245523  0.7598599245619582  0.5856800340774626
 
  0.00000000E+00  0.00000000E+00  0.00000000E+00
  0.00000000E+00  0.00000000E+00  0.00000000E+00
  0.00000000E+00  0.00000000E+00  0.00000000E+00
  0.00000000E+00  0.00000000E+00  0.00000000E+00
  0.00000000E+00  0.00000000E+00  0.00000000E+00
  0.00000000E+00  0.00000000E+00  0.00000000E+00
  0.00000000E+00  0.00000000E+00  0.00000000E+00
  0.00000000E+00  0.00000000E+00  0.00000000E+00
  0.00000000E+00  0.00000000E+00  0.00000000E+00
  0.00000000E+00  0.00000000E+00  0.00000000E+00
  0.00000000E+00  0.00000000E+00  0.00000000E+00
  0.00000000E+00  0.00000000E+00  0.00000000E+00
  0.00000000E+00  0.00000000E+00  0.00000000E+00
  0.00000000E+00  0.00000000E+00  0.00000000E+00
  0.00000000E+00  0.00000000E+00  0.00000000E+00
  0.00000000E+00  0.00000000E+00  0.00000000E+00
  0.00000000E+00  0.00000000E+00  0.00000000E+00
  0.00000000E+00  0.00000000E+00  0.00000000E+00
  0.00000000E+00  0.00000000E+00  0.00000000E+00
  0.00000000E+00  0.00000000E+00  0.00000000E+00
  0.00000000E+00  0.00000000E+00  0.00000000E+00
  0.00000000E+00  0.00000000E+00  0.00000000E+00
  0.00000000E+00  0.00000000E+00  0.00000000E+00
  0.00000000E+00  0.00000000E+00  0.00000000E+00
  0.00000000E+00  0.00000000E+00  0.00000000E+00
  0.00000000E+00  0.00000000E+00  0.00000000E+00
  0.00000000E+00  0.00000000E+00  0.00000000E+00
  0.00000000E+00  0.00000000E+00  0.00000000E+00
  0.00000000E+00  0.00000000E+00  0.00000000E+00
  0.00000000E+00  0.00000000E+00  0.00000000E+00
  0.00000000E+00  0.00000000E+00  0.00000000E+00
  0.00000000E+00  0.00000000E+00  0.00000000E+00
  0.00000000E+00  0.00000000E+00  0.00000000E+00
  0.00000000E+00  0.00000000E+00  0.00000000E+00
  0.00000000E+00  0.00000000E+00  0.00000000E+00
  0.00000000E+00  0.00000000E+00  0.00000000E+00
  0.00000000E+00  0.00000000E+00  0.00000000E+00
  0.00000000E+00  0.00000000E+00  0.00000000E+00
  0.00000000E+00  0.00000000E+00  0.00000000E+00
  0.00000000E+00  0.00000000E+00  0.00000000E+00
  0.00000000E+00  0.00000000E+00  0.00000000E+00
  0.00000000E+00  0.00000000E+00  0.00000000E+00
  0.00000000E+00  0.00000000E+00  0.00000000E+00
  0.00000000E+00  0.00000000E+00  0.00000000E+00
  0.00000000E+00  0.00000000E+00  0.00000000E+00
  0.00000000E+00  0.00000000E+00  0.00000000E+00
  0.00000000E+00  0.00000000E+00  0.00000000E+00
  0.00000000E+00  0.00000000E+00  0.00000000E+00
  0.00000000E+00  0.00000000E+00  0.00000000E+00
  0.00000000E+00  0.00000000E+00  0.00000000E+00
  0.00000000E+00  0.00000000E+00  0.00000000E+00
  0.00000000E+00  0.00000000E+00  0.00000000E+00
  0.00000000E+00  0.00000000E+00  0.00000000E+00
  0.00000000E+00  0.00000000E+00  0.00000000E+00
  0.00000000E+00  0.00000000E+00  0.00000000E+00
  0.00000000E+00  0.00000000E+00  0.00000000E+00
  0.00000000E+00  0.00000000E+00  0.00000000E+00
  0.00000000E+00  0.00000000E+00  0.00000000E+00
  0.00000000E+00  0.00000000E+00  0.00000000E+00
  0.00000000E+00  0.00000000E+00  0.00000000E+00
  0.00000000E+00  0.00000000E+00  0.00000000E+00
  0.00000000E+00  0.00000000E+00  0.00000000E+00
  0.00000000E+00  0.00000000E+00  0.00000000E+00
  0.00000000E+00  0.00000000E+00  0.00000000E+00
  0.00000000E+00  0.00000000E+00  0.00000000E+00
  0.00000000E+00  0.00000000E+00  0.00000000E+00
  0.00000000E+00  0.00000000E+00  0.00000000E+00
  0.00000000E+00  0.00000000E+00  0.00000000E+00
  0.00000000E+00  0.00000000E+00  0.00000000E+00
  0.00000000E+00  0.00000000E+00  0.00000000E+00
  0.00000000E+00  0.00000000E+00  0.00000000E+00
