Al   Sc   N                             
   1.00000000000000     
    -9.8259243169770123    0.0000082563816306    0.0000114716547678
    -4.9129569076631103    8.5105687170387121    0.0075828755222627
    -0.0000107796885056    0.0066997600783214   -8.8358262465392681
   Al   Sc   N 
    34     2    35
Direct
  0.1094473586047329  0.0979653993813443  0.3727905667796563
  0.2252156040617947  0.2103313893793981  0.0977252287282084
  0.7739019143621633  0.0946706069279770  0.8394404531462385
  0.8805543078666105  0.2097044983948564  0.5865269028812534
  0.4484927574178883  0.0914079878066687  0.3395455192261849
  0.5560840814983905  0.2046918426375441  0.0898531010250210
  0.2266011632175378  0.2097045660783294  0.5865269911976512
  0.7769592166974419  0.0914079249038124  0.3395455526445446
  0.8813129759846348  0.2103313912593165  0.0977252903463679
  0.4482874011471623  0.0946706721835895  0.8394405015571849
  0.5551310302125003  0.2065978455825075  0.5879123579481345
  0.1092425809388970  0.4311010091182794  0.3396002877231936
  0.2221203794369870  0.5360062598598461  0.0885732258193030
  0.7739236786532899  0.4315296351254432  0.8390337510067951
  0.8887202221284554  0.5394195905750436  0.5895663964730389
  0.4448781229431873  0.4271037883968916  0.3375956971009941
  0.5587334609268382  0.5360061378223904  0.0885732175393699
  0.1114066802018883  0.4315297089681280  0.8390337848449860
  0.2248965815228985  0.5363182426669226  0.5895371181884457
  0.7765165803410881  0.4311009506397312  0.3396003220840598
  0.8890081701535237  0.5388436557485150  0.0889127527116358
  0.4450928103381599  0.4266743837715694  0.8409072455927529
  0.5556452648709680  0.5363181815467399  0.5895371246415380
  0.1075485550263480  0.7574264417078780  0.3458548020436112
  0.7784755787012827  0.7599087817846524  0.8394298830488296
  0.8871764738770906  0.8719354603681566  0.5907463281282546
  0.4518851079092485  0.7574263461598392  0.3458547585910594
  0.5595070685807428  0.8703228765492028  0.0877178189827745
  0.1107078369284196  0.7569580728947543  0.8366406738158645
  0.2250818427038652  0.8666964626882674  0.5951663794823645
  0.7780317397625112  0.7607965058446666  0.3385069285371074
  0.8870299567711584  0.8703229130570591  0.0877178228541950
  0.4491940957708067  0.7569580670833105  0.8366407034582153
  0.5577480546207383  0.8719354105314210  0.5907463127315893
  0.1075496505576439  0.1017606103583120  0.8417814354450570
  0.2209896270810745  0.8748807942621255  0.1064907506879820
  0.2229356745015210  0.2057338533181508  0.3605081334532940
  0.8693700174422716  0.2152927550310295  0.8731001284565139
  0.7770443698203238  0.0949015082076201  0.6167021757806168
  0.5555573647640060  0.2057451785806208  0.3673526684112147
  0.4472696620342589  0.0912372938644594  0.1199049667993819
  0.2321970850149313  0.2152927887555904  0.8731000787138115
  0.1095989126711316  0.0976621815019456  0.5991638814730962
  0.8881905058219033  0.2057337572938351  0.3605080904930063
  0.7783530321508039  0.0912372939756523  0.1199050077002326
  0.5560542866132110  0.2047513596271244  0.8694905591107229
  0.4449141097306750  0.0949014728870381  0.6167022190762523
  0.2246603430202683  0.5360601276745030  0.3699688623656527
  0.1093948757849290  0.4292576580956720  0.1202795689159970
  0.8897179721695778  0.5374240170197666  0.8674656295033358
  0.7778307222424914  0.4277636607081376  0.6167499312964182
  0.5561396185093059  0.5360600520527186  0.3699688682063851
  0.4448006770361488  0.4272586632718358  0.1165018340512347
  0.2225268437416830  0.5389633237902416  0.8671284754868793
  0.1112656653208930  0.4277637351867085  0.6167499582111304
  0.8885463130949418  0.5397674254516502  0.3693853506569056
  0.7782075657501508  0.4292576030895816  0.1202796075769044
  0.5553698473837230  0.5389632830276625  0.8671284682022886
  0.4452526617083308  0.4263547213187167  0.6202641364985553
  0.2213557513510835  0.8741485885013063  0.3628890057774683
  0.1030872621094545  0.7518752508246607  0.1226516541074787
  0.8891876288456260  0.8722956670976032  0.8656295455324283
  0.7784581043997676  0.7599437984875337  0.6202915648325131
  0.5580889993089855  0.8719350088980562  0.3711301046366913
  0.4618975635963949  0.7518751325278501  0.1226516418304300
  0.2291019849918285  0.8586559991571079  0.8577514473181651
  0.1107890506704550  0.7595363967621509  0.6128781478130989
  0.8868359288916281  0.8719349941024319  0.3711301236756483
  0.7783321593789125  0.7601956544756163  0.1167125004125396
  0.5553766020558726  0.8722957067769528  0.8656295697887160
  0.4465346652203195  0.7595363054817881  0.6128781811061685
 
  0.00000000E+00  0.00000000E+00  0.00000000E+00
  0.00000000E+00  0.00000000E+00  0.00000000E+00
  0.00000000E+00  0.00000000E+00  0.00000000E+00
  0.00000000E+00  0.00000000E+00  0.00000000E+00
  0.00000000E+00  0.00000000E+00  0.00000000E+00
  0.00000000E+00  0.00000000E+00  0.00000000E+00
  0.00000000E+00  0.00000000E+00  0.00000000E+00
  0.00000000E+00  0.00000000E+00  0.00000000E+00
  0.00000000E+00  0.00000000E+00  0.00000000E+00
  0.00000000E+00  0.00000000E+00  0.00000000E+00
  0.00000000E+00  0.00000000E+00  0.00000000E+00
  0.00000000E+00  0.00000000E+00  0.00000000E+00
  0.00000000E+00  0.00000000E+00  0.00000000E+00
  0.00000000E+00  0.00000000E+00  0.00000000E+00
  0.00000000E+00  0.00000000E+00  0.00000000E+00
  0.00000000E+00  0.00000000E+00  0.00000000E+00
  0.00000000E+00  0.00000000E+00  0.00000000E+00
  0.00000000E+00  0.00000000E+00  0.00000000E+00
  0.00000000E+00  0.00000000E+00  0.00000000E+00
  0.00000000E+00  0.00000000E+00  0.00000000E+00
  0.00000000E+00  0.00000000E+00  0.00000000E+00
  0.00000000E+00  0.00000000E+00  0.00000000E+00
  0.00000000E+00  0.00000000E+00  0.00000000E+00
  0.00000000E+00  0.00000000E+00  0.00000000E+00
  0.00000000E+00  0.00000000E+00  0.00000000E+00
  0.00000000E+00  0.00000000E+00  0.00000000E+00
  0.00000000E+00  0.00000000E+00  0.00000000E+00
  0.00000000E+00  0.00000000E+00  0.00000000E+00
  0.00000000E+00  0.00000000E+00  0.00000000E+00
  0.00000000E+00  0.00000000E+00  0.00000000E+00
  0.00000000E+00  0.00000000E+00  0.00000000E+00
  0.00000000E+00  0.00000000E+00  0.00000000E+00
  0.00000000E+00  0.00000000E+00  0.00000000E+00
  0.00000000E+00  0.00000000E+00  0.00000000E+00
  0.00000000E+00  0.00000000E+00  0.00000000E+00
  0.00000000E+00  0.00000000E+00  0.00000000E+00
  0.00000000E+00  0.00000000E+00  0.00000000E+00
  0.00000000E+00  0.00000000E+00  0.00000000E+00
  0.00000000E+00  0.00000000E+00  0.00000000E+00
  0.00000000E+00  0.00000000E+00  0.00000000E+00
  0.00000000E+00  0.00000000E+00  0.00000000E+00
  0.00000000E+00  0.00000000E+00  0.00000000E+00
  0.00000000E+00  0.00000000E+00  0.00000000E+00
  0.00000000E+00  0.00000000E+00  0.00000000E+00
  0.00000000E+00  0.00000000E+00  0.00000000E+00
  0.00000000E+00  0.00000000E+00  0.00000000E+00
  0.00000000E+00  0.00000000E+00  0.00000000E+00
  0.00000000E+00  0.00000000E+00  0.00000000E+00
  0.00000000E+00  0.00000000E+00  0.00000000E+00
  0.00000000E+00  0.00000000E+00  0.00000000E+00
  0.00000000E+00  0.00000000E+00  0.00000000E+00
  0.00000000E+00  0.00000000E+00  0.00000000E+00
  0.00000000E+00  0.00000000E+00  0.00000000E+00
  0.00000000E+00  0.00000000E+00  0.00000000E+00
  0.00000000E+00  0.00000000E+00  0.00000000E+00
  0.00000000E+00  0.00000000E+00  0.00000000E+00
  0.00000000E+00  0.00000000E+00  0.00000000E+00
  0.00000000E+00  0.00000000E+00  0.00000000E+00
  0.00000000E+00  0.00000000E+00  0.00000000E+00
  0.00000000E+00  0.00000000E+00  0.00000000E+00
  0.00000000E+00  0.00000000E+00  0.00000000E+00
  0.00000000E+00  0.00000000E+00  0.00000000E+00
  0.00000000E+00  0.00000000E+00  0.00000000E+00
  0.00000000E+00  0.00000000E+00  0.00000000E+00
  0.00000000E+00  0.00000000E+00  0.00000000E+00
  0.00000000E+00  0.00000000E+00  0.00000000E+00
  0.00000000E+00  0.00000000E+00  0.00000000E+00
  0.00000000E+00  0.00000000E+00  0.00000000E+00
  0.00000000E+00  0.00000000E+00  0.00000000E+00
  0.00000000E+00  0.00000000E+00  0.00000000E+00
  0.00000000E+00  0.00000000E+00  0.00000000E+00
