Al   Sc   N                             
   1.00000000000000     
    -9.4194892437495490    0.0000417986371477    0.0000065135131590
    -4.7097085140052624    8.1747585269829255    0.0057969828921482
    -0.0000065935202445   -0.0054360172824593  -10.0115368258087134
   Al   Sc   N 
    34     2    35
Direct
  0.1096100057370180  0.0977933790065606  0.3629386877648386
  0.2205560451396451  0.2113461377533383  0.0592673876267540
  0.7737234517138134  0.0945775145682646  0.8107882330985490
  0.8769976675955320  0.2111824069686676  0.5573623813062980
  0.4468721781850959  0.0924606276472062  0.3086001681737542
  0.5559800966920960  0.2050530803682733  0.0596797769235948
  0.2288334537060521  0.2111824472003718  0.5573624070208538
  0.7776805489303413  0.0924606712290981  0.3086001963614962
  0.8851111959173679  0.2113461320143202  0.0592674449060766
  0.4487124772867048  0.0945774864980891  0.8107882148753873
  0.5559721180193762  0.2050691488398471  0.5591412564274663
  0.1103497892416030  0.4294430337684787  0.3087061656421213
  0.2228883468406835  0.5357113202451771  0.0591450822338118
  0.7733263284884941  0.4325898149413945  0.8103078135386141
  0.8888316528094009  0.5393500209258164  0.5596674280774110
  0.4452856725008871  0.4264419550801009  0.3099621937858075
  0.5584137146985384  0.5357112595941516  0.0591450998500562
  0.1110972566764517  0.4325898429363093  0.8103078075981429
  0.2236166065205651  0.5372465408967813  0.5604114307153552
  0.7772204671997756  0.4294430190595193  0.3087061898708470
  0.8885507647480324  0.5399118418342468  0.0599741591438629
  0.4449476368904399  0.4271180455433452  0.8106672225679006
  0.5561501887597515  0.5372464964314432  0.5604114231171238
  0.1075590692433508  0.7553610085024687  0.3113168696786914
  0.7782042800480085  0.7606048578963964  0.8094567880138825
  0.8882060523530555  0.8718282608188019  0.5606091673375886
  0.4540933683996755  0.7553609697360244  0.3113168462602758
  0.5598859726743441  0.8698748258031586  0.0587043598773107
  0.1120813004353991  0.7578111149552456  0.8097390208189807
  0.2280065966546303  0.8610003850102217  0.5545996804986757
  0.7779984186259412  0.7610165329635592  0.3100999981260131
  0.8872526256147921  0.8698748551983186  0.0587043917561232
  0.4471211198741543  0.7578110717826618  0.8097390277873373
  0.5569791061099565  0.8718282511159572  0.5606091701311442
  0.1098958799887555  0.0972217471030703  0.8017513704467802
  0.2167194962422698  0.8835744786816804  0.0788021741464462
  0.2259523406141000  0.2089640956715115  0.3666987350300843
  0.8706408224592650  0.2153084442514270  0.8706776169482211
  0.7773525527830287  0.0936883270277917  0.6194817644994117
  0.5563539452376531  0.2043054593670135  0.3678574287147072
  0.4437105752429957  0.0920830216364763  0.1182629453306419
  0.2310641524632686  0.2153084577921831  0.8706775885302420
  0.1117302539471439  0.0935530408151592  0.5827133724882358
  0.8820969958299045  0.2089640773414558  0.3666987516791735
  0.7812196922006720  0.0920830764311305  0.1182629268419291
  0.5556191194513218  0.2057753077917184  0.8698383861447283
  0.4459726184506607  0.0936882897503679  0.6194817727269140
  0.2237919338840442  0.5363458984164637  0.3703171792839797
  0.1096968729638022  0.4279441775010255  0.1192694799657517
  0.8889203552460785  0.5391726404399293  0.8686722389054822
  0.7779643300333916  0.4283626513870189  0.6193245741823787
  0.5568754815337513  0.5363458806361479  0.3703171901893114
  0.4452747829393360  0.4264637958217961  0.1186217762224828
  0.2229577140238206  0.5392849094180932  0.8686189442641776
  0.1106863424122864  0.4283627114098536  0.6193245566472854
  0.8891282254538595  0.5387568317771709  0.3687886077657154
  0.7793723680152951  0.4279441151000754  0.1192694736476057
  0.5547708747297193  0.5392847655893434  0.8686189638757114
  0.4453395388765387  0.4263342695288088  0.6191616423818758
  0.2245634531067466  0.8678865549394885  0.3566931083437197
  0.1027072128724669  0.7508668861408907  0.1234250308203926
  0.8892211234256990  0.8720565717184385  0.8675340453174485
  0.7783625107203278  0.7602884454025300  0.6190479487028639
  0.5564872874188964  0.8726812522050551  0.3704865093564322
  0.4634394051028394  0.7508667986121011  0.1234249890452546
  0.2290503786863667  0.8589127752296974  0.8685326122157235
  0.1115691011284099  0.7600276348348771  0.6169612387874537
  0.8878448525139007  0.8726812700118316  0.3704864966147241
  0.7780137864338954  0.7609858917433954  0.1190451664714232
  0.5557358022912879  0.8720565273824405  0.8675340393483850
  0.4454168012355950  0.7600275460777084  0.6169612518184309
 
  0.00000000E+00  0.00000000E+00  0.00000000E+00
  0.00000000E+00  0.00000000E+00  0.00000000E+00
  0.00000000E+00  0.00000000E+00  0.00000000E+00
  0.00000000E+00  0.00000000E+00  0.00000000E+00
  0.00000000E+00  0.00000000E+00  0.00000000E+00
  0.00000000E+00  0.00000000E+00  0.00000000E+00
  0.00000000E+00  0.00000000E+00  0.00000000E+00
  0.00000000E+00  0.00000000E+00  0.00000000E+00
  0.00000000E+00  0.00000000E+00  0.00000000E+00
  0.00000000E+00  0.00000000E+00  0.00000000E+00
  0.00000000E+00  0.00000000E+00  0.00000000E+00
  0.00000000E+00  0.00000000E+00  0.00000000E+00
  0.00000000E+00  0.00000000E+00  0.00000000E+00
  0.00000000E+00  0.00000000E+00  0.00000000E+00
  0.00000000E+00  0.00000000E+00  0.00000000E+00
  0.00000000E+00  0.00000000E+00  0.00000000E+00
  0.00000000E+00  0.00000000E+00  0.00000000E+00
  0.00000000E+00  0.00000000E+00  0.00000000E+00
  0.00000000E+00  0.00000000E+00  0.00000000E+00
  0.00000000E+00  0.00000000E+00  0.00000000E+00
  0.00000000E+00  0.00000000E+00  0.00000000E+00
  0.00000000E+00  0.00000000E+00  0.00000000E+00
  0.00000000E+00  0.00000000E+00  0.00000000E+00
  0.00000000E+00  0.00000000E+00  0.00000000E+00
  0.00000000E+00  0.00000000E+00  0.00000000E+00
  0.00000000E+00  0.00000000E+00  0.00000000E+00
  0.00000000E+00  0.00000000E+00  0.00000000E+00
  0.00000000E+00  0.00000000E+00  0.00000000E+00
  0.00000000E+00  0.00000000E+00  0.00000000E+00
  0.00000000E+00  0.00000000E+00  0.00000000E+00
  0.00000000E+00  0.00000000E+00  0.00000000E+00
  0.00000000E+00  0.00000000E+00  0.00000000E+00
  0.00000000E+00  0.00000000E+00  0.00000000E+00
  0.00000000E+00  0.00000000E+00  0.00000000E+00
  0.00000000E+00  0.00000000E+00  0.00000000E+00
  0.00000000E+00  0.00000000E+00  0.00000000E+00
  0.00000000E+00  0.00000000E+00  0.00000000E+00
  0.00000000E+00  0.00000000E+00  0.00000000E+00
  0.00000000E+00  0.00000000E+00  0.00000000E+00
  0.00000000E+00  0.00000000E+00  0.00000000E+00
  0.00000000E+00  0.00000000E+00  0.00000000E+00
  0.00000000E+00  0.00000000E+00  0.00000000E+00
  0.00000000E+00  0.00000000E+00  0.00000000E+00
  0.00000000E+00  0.00000000E+00  0.00000000E+00
  0.00000000E+00  0.00000000E+00  0.00000000E+00
  0.00000000E+00  0.00000000E+00  0.00000000E+00
  0.00000000E+00  0.00000000E+00  0.00000000E+00
  0.00000000E+00  0.00000000E+00  0.00000000E+00
  0.00000000E+00  0.00000000E+00  0.00000000E+00
  0.00000000E+00  0.00000000E+00  0.00000000E+00
  0.00000000E+00  0.00000000E+00  0.00000000E+00
  0.00000000E+00  0.00000000E+00  0.00000000E+00
  0.00000000E+00  0.00000000E+00  0.00000000E+00
  0.00000000E+00  0.00000000E+00  0.00000000E+00
  0.00000000E+00  0.00000000E+00  0.00000000E+00
  0.00000000E+00  0.00000000E+00  0.00000000E+00
  0.00000000E+00  0.00000000E+00  0.00000000E+00
  0.00000000E+00  0.00000000E+00  0.00000000E+00
  0.00000000E+00  0.00000000E+00  0.00000000E+00
  0.00000000E+00  0.00000000E+00  0.00000000E+00
  0.00000000E+00  0.00000000E+00  0.00000000E+00
  0.00000000E+00  0.00000000E+00  0.00000000E+00
  0.00000000E+00  0.00000000E+00  0.00000000E+00
  0.00000000E+00  0.00000000E+00  0.00000000E+00
  0.00000000E+00  0.00000000E+00  0.00000000E+00
  0.00000000E+00  0.00000000E+00  0.00000000E+00
  0.00000000E+00  0.00000000E+00  0.00000000E+00
  0.00000000E+00  0.00000000E+00  0.00000000E+00
  0.00000000E+00  0.00000000E+00  0.00000000E+00
  0.00000000E+00  0.00000000E+00  0.00000000E+00
  0.00000000E+00  0.00000000E+00  0.00000000E+00
