Al   Sc   N                             
   1.00000000000000     
    -9.5213593454568350    0.0000265521573672    0.0000087672138903
    -4.7606646712397040    8.2535150663336943    0.0066087522694730
    -0.0000101413424985    0.0028630550947601   -9.7502655245902208
   Al   Sc   N 
    34     2    35
Direct
  0.1089153908207621  0.0990292983671210  0.3741037290918712
  0.2228155714629452  0.2112074323080506  0.0785222687629954
  0.7735340820635415  0.0947037653743692  0.8273159376267714
  0.8780904119489676  0.2106792127255659  0.5743819358628386
  0.4474962118056283  0.0921929971249540  0.3261554553595332
  0.5559607415813019  0.2049385242453781  0.0766360360763727
  0.2280903749372243  0.2106792671894553  0.5743819163890009
  0.7771708558567596  0.0921929790307416  0.3261554475162995
  0.8828369787454804  0.2112073959054612  0.0785222449264538
  0.4486221666473469  0.0947038640103912  0.8273159579812273
  0.5555860634908925  0.2056879000277689  0.5759463035691539
  0.1100417354657708  0.4300354562838038  0.3261434763829385
  0.2224441908756276  0.5357674979400713  0.0755342026438157
  0.7732461221263307  0.4323411067927267  0.8268865397957583
  0.8887159383275289  0.5394281127979497  0.5767672938822841
  0.4450573491758831  0.4267453541846109  0.3262504769431516
  0.5586482433871893  0.5357675433812048  0.0755342121323253
  0.1112727974688781  0.4323411245162276  0.8268865426725327
  0.2239678543492758  0.5371296828650074  0.5775309656808858
  0.7767828623118618  0.4300354154074952  0.3261434649432076
  0.8887829402025034  0.5392940739670138  0.0766813351203623
  0.4448912351411423  0.4270775914138341  0.8277758594576312
  0.5557624655314015  0.5371296460079762  0.5775309624786189
  0.1066495527657310  0.7553234392271051  0.3291513452611596
  0.7783205594162936  0.7602188671556149  0.8265358728200241
  0.8877542772064544  0.8719477395374184  0.5780213867633819
  0.4548870843580417  0.7553234310759649  0.3291513497338698
  0.5600861514542572  0.8696730378977975  0.0751047270099932
  0.1121412483202135  0.7581695878288741  0.8262605196491180
  0.2267690767799664  0.8633217917379099  0.5720515832696762
  0.7779477521702773  0.7609644861613774  0.3265470824929366
  0.8871008219521954  0.8696729409360771  0.0751047370097169
  0.4465491879881398  0.7581695800641768  0.8262605249125201
  0.5571578946680305  0.8719477993007985  0.5780214129867218
  0.1093966180755146  0.0980669345021425  0.8243166714663417
  0.2180726255801844  0.8807146204642322  0.1002601869672048
  0.2253427957933312  0.2082807103417679  0.3783233637712371
  0.8690293974659085  0.2157821050493425  0.8847158662863137
  0.7769928937173631  0.0941542673114171  0.6315812890209784
  0.5559874823709379  0.2048849468250324  0.3805477296607762
  0.4453311560531574  0.0914399970743887  0.1316542906159626
  0.2320483809549359  0.2157821672795066  0.8847159049804674
  0.1112871931975974  0.0942857763354468  0.5998486598453496
  0.8832364208667514  0.2082806679616596  0.3783233244298927
  0.7800889972124949  0.0914399350907757  0.1316542697944882
  0.5556969792395137  0.2054659682998192  0.8823930027737958
  0.4457129546495580  0.0941543205494355  0.6315812997236065
  0.2241128784550668  0.5361404437105861  0.3831867167098153
  0.1096280388490030  0.4283088806180260  0.1323803430555728
  0.8892331293874847  0.5383936281186834  0.8810667893836879
  0.7777378112132851  0.4283730838570534  0.6314605365554584
  0.5566065975285639  0.5361404488555834  0.3831867075223059
  0.4450126067998923  0.4268348975570291  0.1305974174890920
  0.2226824951332560  0.5394330482476448  0.8806397674468514
  0.1107492109225774  0.4283731389918941  0.6314605303928644
  0.8889185029847937  0.5390228742111773  0.3816472455883755
  0.7789231920584712  0.4283088429922586  0.1323803371162811
  0.5547443452252949  0.5394330661706022  0.8806397677231104
  0.4452107916832944  0.4264385398934039  0.6321807409834861
  0.2234629838003670  0.8699339745447219  0.3673210670515985
  0.1019454335775549  0.7503323607408916  0.1362759667039626
  0.8892550927362208  0.8720085160569084  0.8795442974422372
  0.7783510041167432  0.7601580563114183  0.6320624259621255
  0.5571464386094362  0.8725092784156629  0.3836461886522358
  0.4645823074127406  0.7503324109719713  0.1362759558390039
  0.2292808381146827  0.8582981564488037  0.8824810107865702
  0.1115694878422246  0.7603916986537840  0.6286816948401821
  0.8872041605554841  0.8725092578511777  0.3836461800206479
  0.7781693519793862  0.7605213395477506  0.1310910136183665
  0.5555962010129818  0.8720085945422156  0.8795442730377303
  0.4448988943108176  0.7603917035933065  0.6286817154311208
 
  0.00000000E+00  0.00000000E+00  0.00000000E+00
  0.00000000E+00  0.00000000E+00  0.00000000E+00
  0.00000000E+00  0.00000000E+00  0.00000000E+00
  0.00000000E+00  0.00000000E+00  0.00000000E+00
  0.00000000E+00  0.00000000E+00  0.00000000E+00
  0.00000000E+00  0.00000000E+00  0.00000000E+00
  0.00000000E+00  0.00000000E+00  0.00000000E+00
  0.00000000E+00  0.00000000E+00  0.00000000E+00
  0.00000000E+00  0.00000000E+00  0.00000000E+00
  0.00000000E+00  0.00000000E+00  0.00000000E+00
  0.00000000E+00  0.00000000E+00  0.00000000E+00
  0.00000000E+00  0.00000000E+00  0.00000000E+00
  0.00000000E+00  0.00000000E+00  0.00000000E+00
  0.00000000E+00  0.00000000E+00  0.00000000E+00
  0.00000000E+00  0.00000000E+00  0.00000000E+00
  0.00000000E+00  0.00000000E+00  0.00000000E+00
  0.00000000E+00  0.00000000E+00  0.00000000E+00
  0.00000000E+00  0.00000000E+00  0.00000000E+00
  0.00000000E+00  0.00000000E+00  0.00000000E+00
  0.00000000E+00  0.00000000E+00  0.00000000E+00
  0.00000000E+00  0.00000000E+00  0.00000000E+00
  0.00000000E+00  0.00000000E+00  0.00000000E+00
  0.00000000E+00  0.00000000E+00  0.00000000E+00
  0.00000000E+00  0.00000000E+00  0.00000000E+00
  0.00000000E+00  0.00000000E+00  0.00000000E+00
  0.00000000E+00  0.00000000E+00  0.00000000E+00
  0.00000000E+00  0.00000000E+00  0.00000000E+00
  0.00000000E+00  0.00000000E+00  0.00000000E+00
  0.00000000E+00  0.00000000E+00  0.00000000E+00
  0.00000000E+00  0.00000000E+00  0.00000000E+00
  0.00000000E+00  0.00000000E+00  0.00000000E+00
  0.00000000E+00  0.00000000E+00  0.00000000E+00
  0.00000000E+00  0.00000000E+00  0.00000000E+00
  0.00000000E+00  0.00000000E+00  0.00000000E+00
  0.00000000E+00  0.00000000E+00  0.00000000E+00
  0.00000000E+00  0.00000000E+00  0.00000000E+00
  0.00000000E+00  0.00000000E+00  0.00000000E+00
  0.00000000E+00  0.00000000E+00  0.00000000E+00
  0.00000000E+00  0.00000000E+00  0.00000000E+00
  0.00000000E+00  0.00000000E+00  0.00000000E+00
  0.00000000E+00  0.00000000E+00  0.00000000E+00
  0.00000000E+00  0.00000000E+00  0.00000000E+00
  0.00000000E+00  0.00000000E+00  0.00000000E+00
  0.00000000E+00  0.00000000E+00  0.00000000E+00
  0.00000000E+00  0.00000000E+00  0.00000000E+00
  0.00000000E+00  0.00000000E+00  0.00000000E+00
  0.00000000E+00  0.00000000E+00  0.00000000E+00
  0.00000000E+00  0.00000000E+00  0.00000000E+00
  0.00000000E+00  0.00000000E+00  0.00000000E+00
  0.00000000E+00  0.00000000E+00  0.00000000E+00
  0.00000000E+00  0.00000000E+00  0.00000000E+00
  0.00000000E+00  0.00000000E+00  0.00000000E+00
  0.00000000E+00  0.00000000E+00  0.00000000E+00
  0.00000000E+00  0.00000000E+00  0.00000000E+00
  0.00000000E+00  0.00000000E+00  0.00000000E+00
  0.00000000E+00  0.00000000E+00  0.00000000E+00
  0.00000000E+00  0.00000000E+00  0.00000000E+00
  0.00000000E+00  0.00000000E+00  0.00000000E+00
  0.00000000E+00  0.00000000E+00  0.00000000E+00
  0.00000000E+00  0.00000000E+00  0.00000000E+00
  0.00000000E+00  0.00000000E+00  0.00000000E+00
  0.00000000E+00  0.00000000E+00  0.00000000E+00
  0.00000000E+00  0.00000000E+00  0.00000000E+00
  0.00000000E+00  0.00000000E+00  0.00000000E+00
  0.00000000E+00  0.00000000E+00  0.00000000E+00
  0.00000000E+00  0.00000000E+00  0.00000000E+00
  0.00000000E+00  0.00000000E+00  0.00000000E+00
  0.00000000E+00  0.00000000E+00  0.00000000E+00
  0.00000000E+00  0.00000000E+00  0.00000000E+00
  0.00000000E+00  0.00000000E+00  0.00000000E+00
  0.00000000E+00  0.00000000E+00  0.00000000E+00
