Al   Sc   N                             
   1.00000000000000     
    -9.6291248042284927   -0.0000252858738864    0.0000164297963766
    -4.8145747072052485    8.3447995231999972    0.0093687681523772
    -0.0000146463500843   -0.0058224858761075   -9.4261702919155308
   Al   Sc   N 
    34     2    35
Direct
  0.1104082386938856  0.0960428017914197  0.3887788931184701
  0.2216645557430965  0.2093615743963539  0.1263804770549868
  0.7735213736422821  0.0934540730618494  0.8802982553522725
  0.8762124435874412  0.2117401648005597  0.6265471647365075
  0.4459414361946301  0.0930795691156305  0.3749187297399672
  0.5550955664594852  0.2066682551777532  0.1284999512360443
  0.2289067737374495  0.2117400362579644  0.6265473167705906
  0.7778383220892024  0.0930795780547342  0.3749186660478330
  0.8858333741652942  0.2093615498867010  0.1263805694515057
  0.4498836726561208  0.0934540212293058  0.8802982109944111
  0.5562312523269952  0.2043968123372011  0.6281118001918529
  0.1098217879805077  0.4288032251227420  0.3757533713724257
  0.2238074804639609  0.5350932927555334  0.1301010997286696
  0.7720978659418165  0.4332698917412330  0.8799695816234987
  0.8894714257129266  0.5379167008983075  0.6275767823548293
  0.4451429588279652  0.4265734639872178  0.3796930940707526
  0.5579586191249959  0.5350932890230027  0.1301011528949232
  0.1114916793105820  0.4332697343573741  0.8799695558359772
  0.2228511788098615  0.5375819320359341  0.6269091260298012
  0.7782343637250975  0.4288032387130229  0.3757533495750351
  0.8880426494106999  0.5407742573569720  0.1281639643210184
  0.4448567692338230  0.4271457266814522  0.8760140535805618
  0.5564263554808377  0.5375819707571452  0.6269090616788873
  0.1104017152525572  0.7601556432662520  0.3789301931796132
  0.7778874518487910  0.7610843710534709  0.8755420661309898
  0.8879944020052477  0.8729178331996366  0.6268041365565651
  0.4463019748686037  0.7601556560079956  0.3789302098819860
  0.5613433750322443  0.8689419516008243  0.1299693587887063
  0.1084935272847645  0.7543785482977796  0.8765740266788953
  0.2265503661994188  0.8637587316673319  0.6266565383829317
  0.7784383490534594  0.7599826610401195  0.3808191411607851
  0.8865740796979225  0.8689419048062703  0.1299693756286544
  0.4539872950980737  0.7543786116801670  0.8765740435305105
  0.5559472283786704  0.8729178570194165  0.6268041708145518
  0.1068350182067590  0.1031894202681798  0.8480214320203885
  0.2189710629969923  0.8789175404582608  0.1128933654927877
  0.2203879340755321  0.2034113681724463  0.3294425889225181
  0.8635484221561924  0.2181507854468592  0.8289941141115733
  0.7767973418098109  0.0938264205199815  0.5763862212760671
  0.5555205829632470  0.2058183071080393  0.3289949328269159
  0.4450631262866196  0.0920200827493431  0.0829350373616649
  0.2351599478656823  0.2181506120222281  0.8289941634014397
  0.1100894047330101  0.0966802712082071  0.5969827299209669
  0.8930601360039248  0.2034113993454767  0.3294426004729090
  0.7797760225878108  0.0920201243183456  0.0829350331718643
  0.5563142650153878  0.2042310473173856  0.8306435451109238
  0.4462354681487355  0.0938264192443725  0.5763862064526393
  0.2235948001375476  0.5378449710821656  0.3314318792687416
  0.1102435391714423  0.4277851024465207  0.0819529901688938
  0.8898311679935347  0.5371971106902151  0.8302813558735096
  0.7774461463183187  0.4289961148035317  0.5768664198875513
  0.5554197612193263  0.5378449640184186  0.3314318844010558
  0.4448562749509009  0.4271467395700839  0.0789764133032236
  0.2232759547200942  0.5377613364823119  0.8280576971330547
  0.1104170354791236  0.4289961237336470  0.5768663901246995
  0.8885076321373333  0.5398442756614088  0.3294822026862008
  0.7788306230259039  0.4277850712480316  0.0819529702037443
  0.5558223071955268  0.5377611866526593  0.8280576668659734
  0.4452896332458209  0.4262800718641699  0.5811798532648282
  0.2204185348168792  0.8760223844067738  0.3398276711404336
  0.1030699860655702  0.7509189922418784  0.0787473086551529
  0.8878397319105389  0.8734441327902687  0.8285919406031468
  0.7784050726275069  0.7600492179385654  0.5819843500410684
  0.5573679715754594  0.8706807770419474  0.3314696645934561
  0.4628703352036183  0.7509188443864403  0.0787473005351700
  0.2308990462578961  0.8550613708730310  0.8398912319331728
  0.1107413645799014  0.7599776857473941  0.5814791432169883
  0.8888107574757811  0.8706807821963665  0.3314696371820958
  0.7782236815883650  0.7604119213025271  0.0776603158203315
  0.5555757525729064  0.8734440016542919  0.8285919377046440
  0.4461401936140064  0.7599776754379519  0.5814791530514540
 
  0.00000000E+00  0.00000000E+00  0.00000000E+00
  0.00000000E+00  0.00000000E+00  0.00000000E+00
  0.00000000E+00  0.00000000E+00  0.00000000E+00
  0.00000000E+00  0.00000000E+00  0.00000000E+00
  0.00000000E+00  0.00000000E+00  0.00000000E+00
  0.00000000E+00  0.00000000E+00  0.00000000E+00
  0.00000000E+00  0.00000000E+00  0.00000000E+00
  0.00000000E+00  0.00000000E+00  0.00000000E+00
  0.00000000E+00  0.00000000E+00  0.00000000E+00
  0.00000000E+00  0.00000000E+00  0.00000000E+00
  0.00000000E+00  0.00000000E+00  0.00000000E+00
  0.00000000E+00  0.00000000E+00  0.00000000E+00
  0.00000000E+00  0.00000000E+00  0.00000000E+00
  0.00000000E+00  0.00000000E+00  0.00000000E+00
  0.00000000E+00  0.00000000E+00  0.00000000E+00
  0.00000000E+00  0.00000000E+00  0.00000000E+00
  0.00000000E+00  0.00000000E+00  0.00000000E+00
  0.00000000E+00  0.00000000E+00  0.00000000E+00
  0.00000000E+00  0.00000000E+00  0.00000000E+00
  0.00000000E+00  0.00000000E+00  0.00000000E+00
  0.00000000E+00  0.00000000E+00  0.00000000E+00
  0.00000000E+00  0.00000000E+00  0.00000000E+00
  0.00000000E+00  0.00000000E+00  0.00000000E+00
  0.00000000E+00  0.00000000E+00  0.00000000E+00
  0.00000000E+00  0.00000000E+00  0.00000000E+00
  0.00000000E+00  0.00000000E+00  0.00000000E+00
  0.00000000E+00  0.00000000E+00  0.00000000E+00
  0.00000000E+00  0.00000000E+00  0.00000000E+00
  0.00000000E+00  0.00000000E+00  0.00000000E+00
  0.00000000E+00  0.00000000E+00  0.00000000E+00
  0.00000000E+00  0.00000000E+00  0.00000000E+00
  0.00000000E+00  0.00000000E+00  0.00000000E+00
  0.00000000E+00  0.00000000E+00  0.00000000E+00
  0.00000000E+00  0.00000000E+00  0.00000000E+00
  0.00000000E+00  0.00000000E+00  0.00000000E+00
  0.00000000E+00  0.00000000E+00  0.00000000E+00
  0.00000000E+00  0.00000000E+00  0.00000000E+00
  0.00000000E+00  0.00000000E+00  0.00000000E+00
  0.00000000E+00  0.00000000E+00  0.00000000E+00
  0.00000000E+00  0.00000000E+00  0.00000000E+00
  0.00000000E+00  0.00000000E+00  0.00000000E+00
  0.00000000E+00  0.00000000E+00  0.00000000E+00
  0.00000000E+00  0.00000000E+00  0.00000000E+00
  0.00000000E+00  0.00000000E+00  0.00000000E+00
  0.00000000E+00  0.00000000E+00  0.00000000E+00
  0.00000000E+00  0.00000000E+00  0.00000000E+00
  0.00000000E+00  0.00000000E+00  0.00000000E+00
  0.00000000E+00  0.00000000E+00  0.00000000E+00
  0.00000000E+00  0.00000000E+00  0.00000000E+00
  0.00000000E+00  0.00000000E+00  0.00000000E+00
  0.00000000E+00  0.00000000E+00  0.00000000E+00
  0.00000000E+00  0.00000000E+00  0.00000000E+00
  0.00000000E+00  0.00000000E+00  0.00000000E+00
  0.00000000E+00  0.00000000E+00  0.00000000E+00
  0.00000000E+00  0.00000000E+00  0.00000000E+00
  0.00000000E+00  0.00000000E+00  0.00000000E+00
  0.00000000E+00  0.00000000E+00  0.00000000E+00
  0.00000000E+00  0.00000000E+00  0.00000000E+00
  0.00000000E+00  0.00000000E+00  0.00000000E+00
  0.00000000E+00  0.00000000E+00  0.00000000E+00
  0.00000000E+00  0.00000000E+00  0.00000000E+00
  0.00000000E+00  0.00000000E+00  0.00000000E+00
  0.00000000E+00  0.00000000E+00  0.00000000E+00
  0.00000000E+00  0.00000000E+00  0.00000000E+00
  0.00000000E+00  0.00000000E+00  0.00000000E+00
  0.00000000E+00  0.00000000E+00  0.00000000E+00
  0.00000000E+00  0.00000000E+00  0.00000000E+00
  0.00000000E+00  0.00000000E+00  0.00000000E+00
  0.00000000E+00  0.00000000E+00  0.00000000E+00
  0.00000000E+00  0.00000000E+00  0.00000000E+00
  0.00000000E+00  0.00000000E+00  0.00000000E+00
