Al   Sc   N                             
   1.00000000000000     
    -9.6837384527069297    0.0000174042694989    0.0000101194343290
    -4.8418604233263425    8.3892672936897661    0.0070958138958678
    -0.0000106967466277    0.0061278245116761   -9.2805317925884871
   Al   Sc   N 
    34     2    35
Direct
  0.1091209799122410  0.0986181232357950  0.3735477417955266
  0.2244616761267579  0.2108658252130908  0.0875324756406499
  0.7737066724654085  0.0948537063776769  0.8319626050590472
  0.8791656925944693  0.2102626884028922  0.5787798319651003
  0.4483312565441651  0.0916112238897071  0.3316842090412422
  0.5560901353643288  0.2046797653391792  0.0818857536906705
  0.2274315537492626  0.2102627448520948  0.5787798684733616
  0.7769175446036201  0.0916111974868770  0.3316842057123566
  0.8815324720150528  0.2108657635976598  0.0875325027174867
  0.4482994999463941  0.0948538153705059  0.8319626135983427
  0.5552679161291110  0.2063241413970047  0.5807151447456107
  0.1094927237712540  0.4308604847257698  0.3317182541724577
  0.2220222245814085  0.5360235970007352  0.0804782377207758
  0.7736211253824621  0.4317275472168447  0.8315487016066641
  0.8886566081646450  0.5395468957076588  0.5820950642387572
  0.4449602086361750  0.4269396904507090  0.3303386876948480
  0.5588142331033055  0.5360235803533158  0.0804782465952272
  0.1115113303085664  0.4317275966082263  0.8315487034073854
  0.2247012568323967  0.5364738367224433  0.5824005100963845
  0.7765069431461171  0.4308604683408035  0.3317182498616802
  0.8889415208446749  0.5389769515645781  0.0813661912062358
  0.4450135088074560  0.4268330845520438  0.8334023889981381
  0.5556849713980014  0.5364737740438983  0.5824005062851612
  0.1068346430390363  0.7561954448596282  0.3364640543368225
  0.7784512939925250  0.7599573420947223  0.8319884681554015
  0.8871923321827211  0.8719864818247132  0.5833808109152017
  0.4538299733484408  0.7561953953460190  0.3364640678631687
  0.5597786001252842  0.8699112204276176  0.0798083248521024
  0.1115057964998911  0.7576167696792311  0.8297494887132828
  0.2256957524067218  0.8654684337563125  0.5823619780733935
  0.7779691920168901  0.7609217163239919  0.3309653655404432
  0.8871701028032035  0.8699111268140669  0.0798083146901760
  0.4477374415208359  0.7576167941312093  0.8297494837625052
  0.5576811498830381  0.8719864840200913  0.5833808042588799
  0.1082624964521344  0.1003349880959732  0.8341263119045408
  0.2198437800480804  0.8771723884668390  0.1045709087653393
  0.2241446697657281  0.2069304884374361  0.3702613077775894
  0.8684906131452905  0.2158323399814606  0.8808970855253264
  0.7769297952558532  0.0946489284150971  0.6253322180784977
  0.5557048835014484  0.2054501330629179  0.3751299761204265
  0.4468179530631033  0.0910547206352774  0.1270780787408370
  0.2325368491277615  0.2158323802307009  0.8808970904671440
  0.1104266117550168  0.0960068353817078  0.6000216644251140
  0.8857848072945629  0.2069304187784979  0.3702612642051832
  0.7789874306274527  0.0910546617307446  0.1270780848357447
  0.5559478476400912  0.2049641641918214  0.8770535952027529
  0.4452812933660582  0.0946489552839580  0.6253322266335246
  0.2246303101297471  0.5358411992315979  0.3778610295217320
  0.1093350488282212  0.4291138060755486  0.1276187621668541
  0.8895881324755948  0.5376836520831390  0.8752986223570858
  0.7777893285171444  0.4280238133372052  0.6252677427727065
  0.5563885313239396  0.5358411600604640  0.3778610212245397
  0.4448589993732881  0.4271421182577413  0.1243664893913135
  0.2224388862695434  0.5393347179041470  0.8748727034069574
  0.1110469600188893  0.4280238987019302  0.6252677596636289
  0.8886480131111085  0.5395639635708704  0.3768059034456073
  0.7784112993821211  0.4291137621947243  0.1276187513449898
  0.5550863221982567  0.5393347345235711  0.8748727056309349
  0.4452545815945825  0.4263509601113071  0.6276165901953661
  0.2223505618577803  0.8721588761818992  0.3645115841090032
  0.1022568887069966  0.7509189973321071  0.1311167355174305
  0.8893505341901644  0.8721158516481964  0.8735203013084671
  0.7784280410847231  0.7600039603740214  0.6275023201162782
  0.5578853635039849  0.8722231933239328  0.3787907005656166
  0.4636841950501704  0.7509189690921190  0.1311167343559916
  0.2292727199240332  0.8583144338069317  0.8714732221017201
  0.1111498778742401  0.7598893107646560  0.6215444708024833
  0.8867513693628837  0.8722231818032640  0.3787907135584376
  0.7782641114515840  0.7603317737445394  0.1248445872938859
  0.5553934359666357  0.8721159117769446  0.8735203114241585
  0.4458209059187581  0.7598892631101322  0.6215444617672858
 
  0.00000000E+00  0.00000000E+00  0.00000000E+00
  0.00000000E+00  0.00000000E+00  0.00000000E+00
  0.00000000E+00  0.00000000E+00  0.00000000E+00
  0.00000000E+00  0.00000000E+00  0.00000000E+00
  0.00000000E+00  0.00000000E+00  0.00000000E+00
  0.00000000E+00  0.00000000E+00  0.00000000E+00
  0.00000000E+00  0.00000000E+00  0.00000000E+00
  0.00000000E+00  0.00000000E+00  0.00000000E+00
  0.00000000E+00  0.00000000E+00  0.00000000E+00
  0.00000000E+00  0.00000000E+00  0.00000000E+00
  0.00000000E+00  0.00000000E+00  0.00000000E+00
  0.00000000E+00  0.00000000E+00  0.00000000E+00
  0.00000000E+00  0.00000000E+00  0.00000000E+00
  0.00000000E+00  0.00000000E+00  0.00000000E+00
  0.00000000E+00  0.00000000E+00  0.00000000E+00
  0.00000000E+00  0.00000000E+00  0.00000000E+00
  0.00000000E+00  0.00000000E+00  0.00000000E+00
  0.00000000E+00  0.00000000E+00  0.00000000E+00
  0.00000000E+00  0.00000000E+00  0.00000000E+00
  0.00000000E+00  0.00000000E+00  0.00000000E+00
  0.00000000E+00  0.00000000E+00  0.00000000E+00
  0.00000000E+00  0.00000000E+00  0.00000000E+00
  0.00000000E+00  0.00000000E+00  0.00000000E+00
  0.00000000E+00  0.00000000E+00  0.00000000E+00
  0.00000000E+00  0.00000000E+00  0.00000000E+00
  0.00000000E+00  0.00000000E+00  0.00000000E+00
  0.00000000E+00  0.00000000E+00  0.00000000E+00
  0.00000000E+00  0.00000000E+00  0.00000000E+00
  0.00000000E+00  0.00000000E+00  0.00000000E+00
  0.00000000E+00  0.00000000E+00  0.00000000E+00
  0.00000000E+00  0.00000000E+00  0.00000000E+00
  0.00000000E+00  0.00000000E+00  0.00000000E+00
  0.00000000E+00  0.00000000E+00  0.00000000E+00
  0.00000000E+00  0.00000000E+00  0.00000000E+00
  0.00000000E+00  0.00000000E+00  0.00000000E+00
  0.00000000E+00  0.00000000E+00  0.00000000E+00
  0.00000000E+00  0.00000000E+00  0.00000000E+00
  0.00000000E+00  0.00000000E+00  0.00000000E+00
  0.00000000E+00  0.00000000E+00  0.00000000E+00
  0.00000000E+00  0.00000000E+00  0.00000000E+00
  0.00000000E+00  0.00000000E+00  0.00000000E+00
  0.00000000E+00  0.00000000E+00  0.00000000E+00
  0.00000000E+00  0.00000000E+00  0.00000000E+00
  0.00000000E+00  0.00000000E+00  0.00000000E+00
  0.00000000E+00  0.00000000E+00  0.00000000E+00
  0.00000000E+00  0.00000000E+00  0.00000000E+00
  0.00000000E+00  0.00000000E+00  0.00000000E+00
  0.00000000E+00  0.00000000E+00  0.00000000E+00
  0.00000000E+00  0.00000000E+00  0.00000000E+00
  0.00000000E+00  0.00000000E+00  0.00000000E+00
  0.00000000E+00  0.00000000E+00  0.00000000E+00
  0.00000000E+00  0.00000000E+00  0.00000000E+00
  0.00000000E+00  0.00000000E+00  0.00000000E+00
  0.00000000E+00  0.00000000E+00  0.00000000E+00
  0.00000000E+00  0.00000000E+00  0.00000000E+00
  0.00000000E+00  0.00000000E+00  0.00000000E+00
  0.00000000E+00  0.00000000E+00  0.00000000E+00
  0.00000000E+00  0.00000000E+00  0.00000000E+00
  0.00000000E+00  0.00000000E+00  0.00000000E+00
  0.00000000E+00  0.00000000E+00  0.00000000E+00
  0.00000000E+00  0.00000000E+00  0.00000000E+00
  0.00000000E+00  0.00000000E+00  0.00000000E+00
  0.00000000E+00  0.00000000E+00  0.00000000E+00
  0.00000000E+00  0.00000000E+00  0.00000000E+00
  0.00000000E+00  0.00000000E+00  0.00000000E+00
  0.00000000E+00  0.00000000E+00  0.00000000E+00
  0.00000000E+00  0.00000000E+00  0.00000000E+00
  0.00000000E+00  0.00000000E+00  0.00000000E+00
  0.00000000E+00  0.00000000E+00  0.00000000E+00
  0.00000000E+00  0.00000000E+00  0.00000000E+00
  0.00000000E+00  0.00000000E+00  0.00000000E+00
