generated by phonopy                    
   1.00000000000000     
    10.0351470768999995   -0.0000022330999784   -0.0000001056124209
    -5.0175765436399997    8.6906901959899994    0.0000001395531216
    -0.0000001735893656    0.0000001431815548   14.9533752540999991
   Pb   P    Cu   O 
    20    11     1    50
Direct
  0.0003696068918728  0.7661175859462901  0.1309755164803477
  0.9996480466857705  0.7653085374132829  0.6162314454702624
  0.0348974726817559  0.2673676644952252  0.3754597405133140
  0.0021851858588349  0.2607416292707114  0.8739171569347519
  0.2356808763275922  0.2380027850470583  0.1377716398865800
  0.2348619049948937  0.2365264800838318  0.6096441162654074
  0.7375889243719911  0.7489318088639294  0.3736724104631293
  0.7328477726478226  0.7389217290973917  0.8737980424622478
  0.7727032812268675  0.0088006903466749  0.1263355848538126
  0.7726851530251082  0.0082366176450108  0.6215094043875737
  0.2793886650029478  0.0125554559146579  0.3734912306844365
  0.2561420951853464  0.9969310829386231  0.8740107234042114
  0.6589546818232819  0.3292479730673605  0.0009384523584259
  0.6705521782953525  0.3254472305500045  0.4944147060973165
  0.3300035056810486  0.6689481887197957  0.0051834929489232
  0.3352480402478903  0.6380208615230245  0.4968914949373726
  0.3331759189391192  0.6377748732222628  0.2508742486649140
  0.3284382347709993  0.6692719472313371  0.7425755801256955
  0.6725091433973276  0.3256276283329242  0.2538139660495204
  0.6584292402664218  0.3291774306853483  0.7473134741811265
  0.6213479843205576  0.5942673391507185  0.1226591614151005
  0.6210721633010010  0.5938317859735704  0.6259252499043839
  0.3659249480955253  0.3954311196222662  0.8742855387606525
  0.4007663682536418  0.0265503586790672  0.1188863537905291
  0.4012466980301426  0.0274665350379522  0.6291782879556820
  0.6231048896819686  0.9857153824680722  0.3740705312893979
  0.6003674108189898  0.9723627260810019  0.8742190662850788
  0.9678322328980045  0.3752415061999272  0.1175396606889691
  0.9676833604442052  0.3751375900558998  0.6304608752618464
  0.0222348337257969  0.6269770852592558  0.3741678607761472
  0.0224987444361204  0.6301324613428463  0.8742213107985179
  0.4037050811006537  0.3974450983125593  0.3727036612062591
  0.5033810346784691  0.6527979675882420  0.1241035166767404
  0.5036219908347874  0.6529431986793526  0.6241868832139019
  0.4837843560913342  0.2658830944789869  0.3733009792954718
  0.4705999536283514  0.3218103568766892  0.8744096469127385
  0.3322413529066708  0.8494341313070635  0.1178678391721633
  0.3327305183805009  0.8504020773940937  0.6297650710226108
  0.7049585878410340  0.1648218707376614  0.3745405992469983
  0.6744084628597875  0.1504125387045576  0.8744292998443299
  0.1462016151804235  0.4808957197052166  0.1165709894513043
  0.1456313763808836  0.4830699449670561  0.6311161681048816
  0.8442289660930697  0.5169118877131424  0.3743339312625267
  0.8440675686770334  0.5287209179800385  0.8741945245918146
  0.7231734846847431  0.6480011836430748  0.0366240618743774
  0.7308769223151614  0.6555157167267680  0.5427873668550731
  0.2556386645468507  0.3569028161044230  0.4736611466449290
  0.2594192610761823  0.3495970667930379  0.9585284006417538
  0.3630027837058307  0.0867009911086285  0.0312320004056232
  0.3340691731124394  0.0748837060068723  0.5475079324872496
  0.6709534260582899  0.9261845748480795  0.4580215534900702
  0.6451753544906964  0.9108578148533439  0.9584655900275436
  0.9105141000330335  0.2645816145470974  0.0342909221769432
  0.9158525465738165  0.2698765355282475  0.5450765575314094
  0.0768497418302445  0.7308696890190873  0.4586939484886159
  0.0852845875464823  0.7376019331228889  0.9581385819226114
  0.2541591619298771  0.3563343650238266  0.2745558775813137
  0.2578096558764429  0.3473478307332201  0.7907090755037416
  0.7319934977901852  0.6580019729066962  0.2053388689539446
  0.7238103910921581  0.6490296190663614  0.7116093594281665
  0.6737488341423301  0.9278664124066438  0.2905452768455845
  0.6480460513260269  0.9120836904878544  0.7906133477348263
  0.3310005662688482  0.0725238448223919  0.1998401266400123
  0.3611285386798073  0.0867180340511524  0.7163709635407756
  0.0768891876984839  0.7293767052033431  0.2890341823289759
  0.0854725053251144  0.7375099550581581  0.7902653887242508
  0.9153272085510693  0.2697393441471689  0.2027613709939473
  0.9124118494935729  0.2641135187995189  0.7135288969804918
  0.5320685721179288  0.4128930101961217  0.1257000817920684
  0.5314078866211176  0.4125101290263871  0.6240524423336922
  0.4797229085195838  0.6108594517844423  0.3734083971595581
  0.4711152675275088  0.5772517650043127  0.8734936149847670
  0.5806844560232065  0.1149110370485147  0.1291210642738960
  0.5813963043676367  0.1158808252663164  0.6204291852200896
  0.4433072292696636  0.9134595966134711  0.3731002728680863
  0.4183289642176362  0.8953077720190166  0.8732562901231375
  0.8852942350358504  0.4723916726921473  0.1161048067082575
  0.8827924408813885  0.4700754634901330  0.6322990468140475
  0.1046102595427882  0.5256572498970726  0.3745982542168207
  0.0975217078727155  0.5232996177280498  0.8741749050934899
  0.0117645393685066  0.0187397789070545  0.1290232121605968
  0.0109562597431179  0.0164436406933746  0.6157129763468419
 
  0.00000000E+00  0.00000000E+00  0.00000000E+00
  0.00000000E+00  0.00000000E+00  0.00000000E+00
  0.00000000E+00  0.00000000E+00  0.00000000E+00
  0.00000000E+00  0.00000000E+00  0.00000000E+00
  0.00000000E+00  0.00000000E+00  0.00000000E+00
  0.00000000E+00  0.00000000E+00  0.00000000E+00
  0.00000000E+00  0.00000000E+00  0.00000000E+00
  0.00000000E+00  0.00000000E+00  0.00000000E+00
  0.00000000E+00  0.00000000E+00  0.00000000E+00
  0.00000000E+00  0.00000000E+00  0.00000000E+00
  0.00000000E+00  0.00000000E+00  0.00000000E+00
  0.00000000E+00  0.00000000E+00  0.00000000E+00
  0.00000000E+00  0.00000000E+00  0.00000000E+00
  0.00000000E+00  0.00000000E+00  0.00000000E+00
  0.00000000E+00  0.00000000E+00  0.00000000E+00
  0.00000000E+00  0.00000000E+00  0.00000000E+00
  0.00000000E+00  0.00000000E+00  0.00000000E+00
  0.00000000E+00  0.00000000E+00  0.00000000E+00
  0.00000000E+00  0.00000000E+00  0.00000000E+00
  0.00000000E+00  0.00000000E+00  0.00000000E+00
  0.00000000E+00  0.00000000E+00  0.00000000E+00
  0.00000000E+00  0.00000000E+00  0.00000000E+00
  0.00000000E+00  0.00000000E+00  0.00000000E+00
  0.00000000E+00  0.00000000E+00  0.00000000E+00
  0.00000000E+00  0.00000000E+00  0.00000000E+00
  0.00000000E+00  0.00000000E+00  0.00000000E+00
  0.00000000E+00  0.00000000E+00  0.00000000E+00
  0.00000000E+00  0.00000000E+00  0.00000000E+00
  0.00000000E+00  0.00000000E+00  0.00000000E+00
  0.00000000E+00  0.00000000E+00  0.00000000E+00
  0.00000000E+00  0.00000000E+00  0.00000000E+00
  0.00000000E+00  0.00000000E+00  0.00000000E+00
  0.00000000E+00  0.00000000E+00  0.00000000E+00
  0.00000000E+00  0.00000000E+00  0.00000000E+00
  0.00000000E+00  0.00000000E+00  0.00000000E+00
  0.00000000E+00  0.00000000E+00  0.00000000E+00
  0.00000000E+00  0.00000000E+00  0.00000000E+00
  0.00000000E+00  0.00000000E+00  0.00000000E+00
  0.00000000E+00  0.00000000E+00  0.00000000E+00
  0.00000000E+00  0.00000000E+00  0.00000000E+00
  0.00000000E+00  0.00000000E+00  0.00000000E+00
  0.00000000E+00  0.00000000E+00  0.00000000E+00
  0.00000000E+00  0.00000000E+00  0.00000000E+00
  0.00000000E+00  0.00000000E+00  0.00000000E+00
  0.00000000E+00  0.00000000E+00  0.00000000E+00
  0.00000000E+00  0.00000000E+00  0.00000000E+00
  0.00000000E+00  0.00000000E+00  0.00000000E+00
  0.00000000E+00  0.00000000E+00  0.00000000E+00
  0.00000000E+00  0.00000000E+00  0.00000000E+00
  0.00000000E+00  0.00000000E+00  0.00000000E+00
  0.00000000E+00  0.00000000E+00  0.00000000E+00
  0.00000000E+00  0.00000000E+00  0.00000000E+00
  0.00000000E+00  0.00000000E+00  0.00000000E+00
  0.00000000E+00  0.00000000E+00  0.00000000E+00
  0.00000000E+00  0.00000000E+00  0.00000000E+00
  0.00000000E+00  0.00000000E+00  0.00000000E+00
  0.00000000E+00  0.00000000E+00  0.00000000E+00
  0.00000000E+00  0.00000000E+00  0.00000000E+00
  0.00000000E+00  0.00000000E+00  0.00000000E+00
  0.00000000E+00  0.00000000E+00  0.00000000E+00
  0.00000000E+00  0.00000000E+00  0.00000000E+00
  0.00000000E+00  0.00000000E+00  0.00000000E+00
  0.00000000E+00  0.00000000E+00  0.00000000E+00
  0.00000000E+00  0.00000000E+00  0.00000000E+00
  0.00000000E+00  0.00000000E+00  0.00000000E+00
  0.00000000E+00  0.00000000E+00  0.00000000E+00
  0.00000000E+00  0.00000000E+00  0.00000000E+00
  0.00000000E+00  0.00000000E+00  0.00000000E+00
  0.00000000E+00  0.00000000E+00  0.00000000E+00
  0.00000000E+00  0.00000000E+00  0.00000000E+00
  0.00000000E+00  0.00000000E+00  0.00000000E+00
  0.00000000E+00  0.00000000E+00  0.00000000E+00
  0.00000000E+00  0.00000000E+00  0.00000000E+00
  0.00000000E+00  0.00000000E+00  0.00000000E+00
  0.00000000E+00  0.00000000E+00  0.00000000E+00
  0.00000000E+00  0.00000000E+00  0.00000000E+00
  0.00000000E+00  0.00000000E+00  0.00000000E+00
  0.00000000E+00  0.00000000E+00  0.00000000E+00
  0.00000000E+00  0.00000000E+00  0.00000000E+00
  0.00000000E+00  0.00000000E+00  0.00000000E+00
  0.00000000E+00  0.00000000E+00  0.00000000E+00
  0.00000000E+00  0.00000000E+00  0.00000000E+00
