supercell of icsd_608626.cif            
   1.14557275840605     
     9.0833610267070082   -0.0607685444285138   -0.0859210195732967
    -4.6000033747083036    8.5241074160314714    0.0851890759940596
    -0.0955593238511204    0.0436292395348899    9.1240589237599643
   La   Al   N 
    16    20    36
Direct
  0.2183654907565327  0.0771901464321019  0.2022475661831606
  0.7675108964887514  0.1747976661668815  0.9891937362453689
  0.4108614550765850  0.2610550663851328  0.4716914453954857
  0.5645719472706645  0.1772810899587540  0.7197237816592690
  0.2540358911014096  0.4271172781448414  0.2000840198494060
  0.1374277970814930  0.5430856501882104  0.4751712549853195
  0.8005224989749564  0.5519658177461864  0.9523686798337749
  0.5099102105376048  0.6006723966362983  0.4873710051795541
  0.2517214918182518  0.4179494728195436  0.7703754634432016
  0.8937714058296820  0.4028897715292956  0.2234350461860544
  0.8127399050567803  0.5492650983900518  0.5245887026415943
  0.0750198272251197  0.9017729316216148  0.5447940917713652
  0.5535080074838845  0.8158575956895149  0.2154285814755070
  0.4199841580943513  0.9060004720000521  0.4935339748843788
  0.8810931838131140  0.7599389803858543  0.2444304387971172
  0.3957373528510715  0.8958064142814237  0.9697963029830774
  0.0908530636517781  0.2009162391935604  0.4945263068849926
  0.8893468258020647  0.1079637910929563  0.7233128362056434
  0.5504568936560332  0.1236538159210383  0.2679672812054861
  0.2169953468989476  0.1362118414499704  0.7843021238603498
  0.0617576000705995  0.1638515264809612  0.0053828032510523
  0.8690262464246672  0.0948212043538916  0.2579684398991375
  0.7889309993396196  0.2146134115577283  0.4979428892783559
  0.4498978770958573  0.2620603301346733  0.0027085117061816
  0.9070045906009341  0.4060355263551401  0.7628492770185389
  0.5918150394955219  0.4548478498406752  0.2304472340697359
  0.1314999630953011  0.5622692094727952  0.0047652994437399
  0.5528577367387655  0.4456446306554582  0.7666902630541301
  0.4873219468982839  0.5890286271195748  0.9996330891121943
  0.2039496770994731  0.7797993466192352  0.2403538644344607
  0.9205872450889245  0.9132740489969038  0.8040959060006188
  0.7824342106375752  0.8842961672162915  0.0048770716505970
  0.2176768260808970  0.6903605834347744  0.7676753141099653
  0.0752612785246711  0.8384621435383579  0.9494068015413220
  0.7688475509933923  0.9085264542524314  0.5074720307488221
  0.5700439237451249  0.7750665379063690  0.7674087044323485
  0.1675452341687205  0.0938413372087084  0.4167691314552044
  0.0356470294936670  0.2114472691299554  0.1620358636447250
  0.9010757244492495  0.0566170891641420  0.9045506115904018
  0.8149897991359083  0.2253630567381109  0.6938498718379051
  0.5778196417483841  0.1455187527580435  0.4628122057502395
  0.4782271122206510  0.2559264709737477  0.1946456791907849
  0.2407489063398529  0.1916750653291572  0.9623647838911538
  0.0845865115491762  0.1728938735390528  0.6779898660956505
  0.8805739257905927  0.1038633729645895  0.4460109563828851
  0.7290064030951200  0.1515747277601989  0.2083426233790533
  0.5163948733261847  0.1360967852694870  0.9412719800460820
  0.4007404893198654  0.2707610079130873  0.7109380480633831
  0.2449790945003016  0.3919254913986379  0.4521388784224882
  0.1608084297305297  0.5956258122498284  0.1905385492134783
  0.9381347927379764  0.4130282449387011  0.9497266230552341
  0.7328708069703893  0.4369981588823038  0.7342961769115277
  0.6021193198802663  0.4647923943631369  0.4104427318474251
  0.5133556222458893  0.5769452030169759  0.1845242337967790
  0.2858940711777009  0.5298840861601093  0.9662371541739390
  0.0936434657745835  0.5277081306549150  0.6964530744154942
  0.8996985913958326  0.3972477842217117  0.4442753568091291
  0.7845580868607485  0.5313837608580982  0.1773011749723707
  0.5360307230953367  0.4491126147136697  0.9447543810374412
  0.5170562337807638  0.5907554773575185  0.7134585730142788
  0.1460474588659082  0.7680905787658716  0.4147766377909932
  0.1188268642373984  0.8567365644770462  0.1249005985925749
  0.8759342290667860  0.7919236382117845  0.9414203813499427
  0.7706802151092660  0.9127747350008875  0.6913217983922735
  0.5752662178584984  0.8299346866540347  0.4380994353083523
  0.4038686776018494  0.9330324500078291  0.2404978360154146
  0.1482872155802326  0.7196435505999830  0.9146460718219842
  0.1156537313824657  0.9444353712220135  0.7905200540100736
  0.8358761042775953  0.7805649721110370  0.4717296701050842
  0.8073537868568650  0.9247220896676396  0.1768920314023603
  0.5846290735418975  0.7900751551882124  0.9541859591581385
  0.4077251754348978  0.8127311065613014  0.7292608576344719
 
  0.00000000E+00  0.00000000E+00  0.00000000E+00
  0.00000000E+00  0.00000000E+00  0.00000000E+00
  0.00000000E+00  0.00000000E+00  0.00000000E+00
  0.00000000E+00  0.00000000E+00  0.00000000E+00
  0.00000000E+00  0.00000000E+00  0.00000000E+00
  0.00000000E+00  0.00000000E+00  0.00000000E+00
  0.00000000E+00  0.00000000E+00  0.00000000E+00
  0.00000000E+00  0.00000000E+00  0.00000000E+00
  0.00000000E+00  0.00000000E+00  0.00000000E+00
  0.00000000E+00  0.00000000E+00  0.00000000E+00
  0.00000000E+00  0.00000000E+00  0.00000000E+00
  0.00000000E+00  0.00000000E+00  0.00000000E+00
  0.00000000E+00  0.00000000E+00  0.00000000E+00
  0.00000000E+00  0.00000000E+00  0.00000000E+00
  0.00000000E+00  0.00000000E+00  0.00000000E+00
  0.00000000E+00  0.00000000E+00  0.00000000E+00
  0.00000000E+00  0.00000000E+00  0.00000000E+00
  0.00000000E+00  0.00000000E+00  0.00000000E+00
  0.00000000E+00  0.00000000E+00  0.00000000E+00
  0.00000000E+00  0.00000000E+00  0.00000000E+00
  0.00000000E+00  0.00000000E+00  0.00000000E+00
  0.00000000E+00  0.00000000E+00  0.00000000E+00
  0.00000000E+00  0.00000000E+00  0.00000000E+00
  0.00000000E+00  0.00000000E+00  0.00000000E+00
  0.00000000E+00  0.00000000E+00  0.00000000E+00
  0.00000000E+00  0.00000000E+00  0.00000000E+00
  0.00000000E+00  0.00000000E+00  0.00000000E+00
  0.00000000E+00  0.00000000E+00  0.00000000E+00
  0.00000000E+00  0.00000000E+00  0.00000000E+00
  0.00000000E+00  0.00000000E+00  0.00000000E+00
  0.00000000E+00  0.00000000E+00  0.00000000E+00
  0.00000000E+00  0.00000000E+00  0.00000000E+00
  0.00000000E+00  0.00000000E+00  0.00000000E+00
  0.00000000E+00  0.00000000E+00  0.00000000E+00
  0.00000000E+00  0.00000000E+00  0.00000000E+00
  0.00000000E+00  0.00000000E+00  0.00000000E+00
  0.00000000E+00  0.00000000E+00  0.00000000E+00
  0.00000000E+00  0.00000000E+00  0.00000000E+00
  0.00000000E+00  0.00000000E+00  0.00000000E+00
  0.00000000E+00  0.00000000E+00  0.00000000E+00
  0.00000000E+00  0.00000000E+00  0.00000000E+00
  0.00000000E+00  0.00000000E+00  0.00000000E+00
  0.00000000E+00  0.00000000E+00  0.00000000E+00
  0.00000000E+00  0.00000000E+00  0.00000000E+00
  0.00000000E+00  0.00000000E+00  0.00000000E+00
  0.00000000E+00  0.00000000E+00  0.00000000E+00
  0.00000000E+00  0.00000000E+00  0.00000000E+00
  0.00000000E+00  0.00000000E+00  0.00000000E+00
  0.00000000E+00  0.00000000E+00  0.00000000E+00
  0.00000000E+00  0.00000000E+00  0.00000000E+00
  0.00000000E+00  0.00000000E+00  0.00000000E+00
  0.00000000E+00  0.00000000E+00  0.00000000E+00
  0.00000000E+00  0.00000000E+00  0.00000000E+00
  0.00000000E+00  0.00000000E+00  0.00000000E+00
  0.00000000E+00  0.00000000E+00  0.00000000E+00
  0.00000000E+00  0.00000000E+00  0.00000000E+00
  0.00000000E+00  0.00000000E+00  0.00000000E+00
  0.00000000E+00  0.00000000E+00  0.00000000E+00
  0.00000000E+00  0.00000000E+00  0.00000000E+00
  0.00000000E+00  0.00000000E+00  0.00000000E+00
  0.00000000E+00  0.00000000E+00  0.00000000E+00
  0.00000000E+00  0.00000000E+00  0.00000000E+00
  0.00000000E+00  0.00000000E+00  0.00000000E+00
  0.00000000E+00  0.00000000E+00  0.00000000E+00
  0.00000000E+00  0.00000000E+00  0.00000000E+00
  0.00000000E+00  0.00000000E+00  0.00000000E+00
  0.00000000E+00  0.00000000E+00  0.00000000E+00
  0.00000000E+00  0.00000000E+00  0.00000000E+00
  0.00000000E+00  0.00000000E+00  0.00000000E+00
  0.00000000E+00  0.00000000E+00  0.00000000E+00
  0.00000000E+00  0.00000000E+00  0.00000000E+00
  0.00000000E+00  0.00000000E+00  0.00000000E+00
