Se   Ga   Li                            
   1.00000000000000     
    -0.0014861919622881    0.0000003850211669   -6.6546365286700002
    -6.9789702053250906    0.0054923482448595   -0.0000034758734684
    -0.0058455935353087    8.3877521529081669   -0.1176241571325913
   Se   Ga   Li
     8     4     4
Direct
  0.9874448236431395  0.9257154795461769  0.8723164457241017
  0.9829537486834047  0.4125704248475592  0.1207109374032890
  0.9752433667237066  0.9024580765925871  0.3683672835184890
  0.4942468414624836  0.0601190362338003  0.1021098303293018
  0.9868292471047381  0.4313450328898358  0.6071190387389631
  0.4697600249004716  0.5889699101663173  0.8454841061929349
  0.4667074252995685  0.0863606907842203  0.6160831857007921
  0.4890483003006140  0.5585361138345192  0.3629470162579080
  0.9022645227694647  0.0721037689356184  0.1236588627964119
  0.3563458353963526  0.9240097233773628  0.8614124451229564
  0.8555056981787909  0.5680040584938967  0.3635296029546199
  0.3560847194733761  0.4199283622821914  0.6092601588647331
  0.8504438415247927  0.5816584032929859  0.8653083232022495
  0.8485366713852330  0.0928063330112835  0.6205616214042016
  0.3718373369417814  0.4047167086585378  0.1011293234721107
  0.3636411344823937  0.9040111421335307  0.3599884952524779
 
             NaN             NaN             NaN
             NaN             NaN             NaN
             NaN             NaN             NaN
             NaN             NaN             NaN
             NaN             NaN             NaN
             NaN             NaN             NaN
             NaN             NaN             NaN
             NaN             NaN             NaN
             NaN             NaN             NaN
             NaN             NaN             NaN
             NaN             NaN             NaN
             NaN             NaN             NaN
             NaN             NaN             NaN
             NaN             NaN             NaN
             NaN             NaN             NaN
             NaN             NaN             NaN
