Se   Ga   Li                            
   1.00000000000000     
     0.0098668780796041    0.0000003850211666   -6.6546365286700002
    -7.0329583566453362    0.0041916690926039   -0.0000034758734827
    -0.0098466724960589    8.5647094855489758   -0.0076306753045804
   Se   Ga   Li
     8     4     4
Direct
  0.8873132630669170  0.9277432658087196  0.8744128989966093
  0.9592219804784583  0.4068255918399683  0.1224052187078411
  0.9516740714210257  0.8994658728017173  0.3626903928307116
  0.3844545041040299  0.0650247316849401  0.0994439669081926
  0.9826912176071531  0.4328438030230884  0.6044828095313655
  0.4608756999673462  0.5823552652431419  0.8523254789566500
  0.4510747899309721  0.0923825921905372  0.6175861248972444
  0.4844651884331934  0.5524660368856634  0.3697572511586724
  0.0118484349739182  0.0584737019135801  0.1158366438616858
  0.5158823514746068  0.9294394755161259  0.8630644890644030
  0.8539859452029583  0.5630065267989822  0.3614454148301275
  0.3508099287497033  0.4288909043382099  0.6135496226341139
  0.8484778557309361  0.5647518917071273  0.8653705877126865
  0.8457177650546136  0.0972988236934564  0.6040207978874415
  0.3449731845831100  0.4273191097962497  0.1084864718721181
  0.4234273574716985  0.9050256718388529  0.3651085070856984
 
             NaN             NaN             NaN
             NaN             NaN             NaN
             NaN             NaN             NaN
             NaN             NaN             NaN
             NaN             NaN             NaN
             NaN             NaN             NaN
             NaN             NaN             NaN
             NaN             NaN             NaN
             NaN             NaN             NaN
             NaN             NaN             NaN
             NaN             NaN             NaN
             NaN             NaN             NaN
             NaN             NaN             NaN
             NaN             NaN             NaN
             NaN             NaN             NaN
             NaN             NaN             NaN
