Se   Ga   Li                            
   1.00000000000000     
     0.0099561836767254    0.0000003850211660   -6.6546365286700002
    -6.9969596890103709   -0.0084713453079918   -0.0000034758735113
     0.0071070726544378    8.4112319086107057   -0.1663805326847299
   Se   Ga   Li
     8     4     4
Direct
  0.8589829788877819  0.9310775422779167  0.8678794803896128
  0.8745476705712600  0.4015051308051337  0.0999793101801298
  0.8642226233086111  0.9189227667062233  0.3556462711988315
  0.3553053890672129  0.0565863236425452  0.1123722985945052
  0.8733069840438603  0.4248953448625417  0.6024450742001179
  0.3796940615899768  0.5862184082363189  0.8592317970654217
  0.3768800826744642  0.0897786503008795  0.6325395972950250
  0.4132872579225546  0.5596739039383658  0.3742811457512584
  0.9887279665308851  0.0667935536382416  0.1110328226679789
  0.4897992785346510  0.9191077513114674  0.8664891188171334
  0.8267515025965901  0.5731395206207126  0.3467730373784222
  0.5044379804536228  0.4189807558796880  0.6216200427747803
  0.9992578946261971  0.5949628676471497  0.8527497997256160
  0.9967463792426284  0.0810301972563103  0.6105237370910740
  0.4822582384836620  0.3992736710207462  0.1102310685714997
  0.4726872497164576  0.9113668769364105  0.3761920752352355
 
             NaN             NaN             NaN
             NaN             NaN             NaN
             NaN             NaN             NaN
             NaN             NaN             NaN
             NaN             NaN             NaN
             NaN             NaN             NaN
             NaN             NaN             NaN
             NaN             NaN             NaN
             NaN             NaN             NaN
             NaN             NaN             NaN
             NaN             NaN             NaN
             NaN             NaN             NaN
             NaN             NaN             NaN
             NaN             NaN             NaN
             NaN             NaN             NaN
             NaN             NaN             NaN
