Se   Ga   Li                            
   1.00000000000000     
    -0.0108167629704276    0.0000003850211668   -6.6546365286700002
    -6.9971163162207404    0.0073278913099929   -0.0000034758734725
    -0.0080981126967393    8.4088000016095688   -0.1563314734696051
   Se   Ga   Li
     8     4     4
Direct
  0.9709241344082162  0.9250070676009848  0.8725680096369027
  0.9804076315314095  0.4190637621540466  0.1192224413799248
  0.9702060840030494  0.9014487943400081  0.3750910409096355
  0.4308026854890293  0.0596013739821492  0.1009203805497217
  0.9857885450461230  0.4309158784782567  0.6070238325422161
  0.4677256699997163  0.5899192268373110  0.8425772870808375
  0.4649030914154146  0.0861566732168624  0.6161026754367882
  0.4892689149774913  0.5565779815899833  0.3626275698328724
  0.0187887493343612  0.0732893813067704  0.1283606759942745
  0.3394586553356086  0.9188488838634103  0.8533882408304633
  0.8558730178768110  0.5667891931546463  0.3638324482354028
  0.3549635273821233  0.4190489022524755  0.6085260796768247
  0.8478476062553527  0.5811035104815682  0.8641005313865774
  0.8453114161530064  0.0949460417493017  0.6219710506534458
  0.3720757173133364  0.4112663226498020  0.0986885154570371
  0.3625480917498615  0.8993302714228695  0.3649858973326142
 
             NaN             NaN             NaN
             NaN             NaN             NaN
             NaN             NaN             NaN
             NaN             NaN             NaN
             NaN             NaN             NaN
             NaN             NaN             NaN
             NaN             NaN             NaN
             NaN             NaN             NaN
             NaN             NaN             NaN
             NaN             NaN             NaN
             NaN             NaN             NaN
             NaN             NaN             NaN
             NaN             NaN             NaN
             NaN             NaN             NaN
             NaN             NaN             NaN
             NaN             NaN             NaN
