Se   Ga   Li                            
   1.00000000000000     
     0.0015459167597513    0.0000003850211662   -6.6546365286700002
    -7.0385772147719372    0.1362825300871870   -0.0000034758735031
     0.1585792713712917    8.5067574934694772    0.0024433836111462
   Se   Ga   Li
     8     4     4
Direct
  0.8575433711868699  0.9315013422447116  0.8704435896995937
  0.8830883683546452  0.3984172032216212  0.1129854909082164
  0.8820656219322000  0.9075250899221186  0.3531924489281539
  0.3576233249745243  0.0602505566010153  0.1045580776537003
  0.9535136800978955  0.4267305037494621  0.6025829188739970
  0.3829221818236452  0.5932906982260894  0.8620582506770835
  0.3821400434045333  0.0841563264859289  0.6217634131920500
  0.4535354422707477  0.5648107073819233  0.3724199523243082
  0.9887448315161051  0.0639417942042430  0.1129290693683333
  0.4886555184008229  0.9277631539520537  0.8620974274747030
  0.8259706741704318  0.5604929073518565  0.3620664144482664
  0.3259218613865676  0.4311581302258101  0.6129394070266384
  0.9922568090002791  0.5964149352478618  0.8738506647430112
  0.9952863989944272  0.0646351178239810  0.6100147496285901
  0.4924637565626587  0.3953527917098130  0.1011022923584937
  0.4951616542764312  0.9268720067328919  0.3649825096318704
 
             NaN             NaN             NaN
             NaN             NaN             NaN
             NaN             NaN             NaN
             NaN             NaN             NaN
             NaN             NaN             NaN
             NaN             NaN             NaN
             NaN             NaN             NaN
             NaN             NaN             NaN
             NaN             NaN             NaN
             NaN             NaN             NaN
             NaN             NaN             NaN
             NaN             NaN             NaN
             NaN             NaN             NaN
             NaN             NaN             NaN
             NaN             NaN             NaN
             NaN             NaN             NaN
