Se   Ga   Li                            
   1.00000000000000     
     0.0352627451139160    0.0000003850211666   -6.6546365286700002
    -7.0265572023861029    0.0211793541668189   -0.0000034758734807
     0.0336826025761318    8.5343091398719295    0.0753405309177026
   Se   Ga   Li
     8     4     4
Direct
  0.8919942390131287  0.9264889249141826  0.8715850409199372
  0.9592450159215824  0.4061467762734886  0.1218993960204250
  0.9667498220189741  0.8969896576380390  0.3615138054908242
  0.3919888417985663  0.0672257993560178  0.1020393443011811
  0.9864738988857474  0.4304661352165949  0.6040289890776405
  0.4599988052107012  0.5850968502204182  0.8551886652247158
  0.4578672331567039  0.0934457166595563  0.6156850160804198
  0.4868056110898036  0.5598011685815900  0.3719854598173421
  0.0191020527630493  0.0594062231100528  0.1130015041221215
  0.5212344011381639  0.9324306946742535  0.8639680484086160
  0.8557635568389762  0.5627151379628810  0.3617082956841847
  0.3555049035910907  0.4288342362254001  0.6141601490369396
  0.8464650131389129  0.5619309864549042  0.8636279148195399
  0.8475747307957222  0.0949235095637253  0.5971107632509928
  0.3458561269766898  0.4288419251044049  0.1111005996504535
  0.3642692859026670  0.8985695231248948  0.3713836850303828
 
             NaN             NaN             NaN
             NaN             NaN             NaN
             NaN             NaN             NaN
             NaN             NaN             NaN
             NaN             NaN             NaN
             NaN             NaN             NaN
             NaN             NaN             NaN
             NaN             NaN             NaN
             NaN             NaN             NaN
             NaN             NaN             NaN
             NaN             NaN             NaN
             NaN             NaN             NaN
             NaN             NaN             NaN
             NaN             NaN             NaN
             NaN             NaN             NaN
             NaN             NaN             NaN
