Se   Ga   Li                            
   1.00000000000000     
     0.0127730209438612    0.0000003850211662   -6.6546365286700002
    -7.0317302253136686    0.1497454414318150   -0.0000034758735011
     0.1932813348608561    8.5595332241118118    0.0015447509837477
   Se   Ga   Li
     8     4     4
Direct
  0.8597093466813436  0.9387571531228650  0.8699223305430672
  0.8925669686342599  0.3991310640838870  0.1174065973164193
  0.8836102428188121  0.9090971430809279  0.3525534976376909
  0.3614859502933624  0.0589255437438135  0.1043979153589577
  0.9593377961363289  0.4264030010875015  0.5996845283303073
  0.3905601845707549  0.5923858311427563  0.8626305017177952
  0.3852291107343664  0.0847969914408341  0.6223077230129715
  0.4568776648564056  0.5639426652835495  0.3741564521749420
  0.9933312101029580  0.0628384816462465  0.1135996528364710
  0.4902449884950888  0.9284461390510836  0.8614246699533955
  0.8283573181230686  0.5620049205993072  0.3631215862763764
  0.3320181024679729  0.4329760986628838  0.6155348736238200
  0.9296097796077543  0.5878110054932182  0.8658943850422728
  0.9994369095071437  0.0642621771463710  0.6086454137817866
  0.4984525863237780  0.3945829726266205  0.1034722818123423
  0.4960653789581310  0.9269520768695937  0.3652342675184061
 
             NaN             NaN             NaN
             NaN             NaN             NaN
             NaN             NaN             NaN
             NaN             NaN             NaN
             NaN             NaN             NaN
             NaN             NaN             NaN
             NaN             NaN             NaN
             NaN             NaN             NaN
             NaN             NaN             NaN
             NaN             NaN             NaN
             NaN             NaN             NaN
             NaN             NaN             NaN
             NaN             NaN             NaN
             NaN             NaN             NaN
             NaN             NaN             NaN
             NaN             NaN             NaN
