supercell of icsd_191774.cif            
   1.00000000000000     
    10.9808625570579306    0.0029957024023086    0.0194023860673234
    -5.4878188173205604    9.4957488192571411    0.0102576627229309
     0.0215254262065556    0.0259691689541885   11.2164023779657605
   N    Y    In
    36    12    24
Direct
  0.2161631189856195  0.1084508396634760  0.4432336687413283
  0.1040743828721276  0.2256033101897756  0.1904141454396395
  0.8860793774714679  0.1079855102129912  0.9364108647001572
  0.7769431624945753  0.2236914050756766  0.6994511113321948
  0.5627939323635403  0.1096569482011631  0.4426900882630846
  0.4516604578181003  0.2243507017085946  0.1994632551524873
  0.2296796129624639  0.1178976646536114  0.9484481678135950
  0.1126651082351131  0.2236873545433369  0.6969225548403770
  0.8909509451075266  0.1141664218805261  0.4463224721445087
  0.7721869183390595  0.2120494313418746  0.1865022164639214
  0.5454407796824015  0.1108404945486328  0.9404107057130346
  0.4449300672308141  0.2235133083535175  0.6915804580914013
  0.2289627198287363  0.4374728100139009  0.4396542833935655
  0.1192209362268741  0.5610345853322940  0.2013539765087344
  0.8962478004529046  0.4550077210057566  0.9465809012929256
  0.7771905961925469  0.5543707793631540  0.6955482273517291
  0.5636471168846811  0.4536909876828261  0.4397509053704027
  0.4454905663495765  0.5564035864726762  0.1915317517728923
  0.2289552432701356  0.4584543132098489  0.9396401522417648
  0.1056059719230191  0.5438766920367257  0.6847422290526524
  0.8787713536476929  0.4384282256616387  0.4400716474495070
  0.7705868476868716  0.5533540816484788  0.1874384859913860
  0.5544232854176414  0.4445052527354818  0.9435340760910265
  0.4390572911947643  0.5420056654457994  0.6892309771225911
  0.2250012871615255  0.7853744648511736  0.4542754389734114
  0.1124418546952555  0.8829483646901579  0.1893829480171476
  0.8834530091372912  0.7714196434541449  0.9406928949459754
  0.7861677972140981  0.8938263335363672  0.6911833308857354
  0.5557303745545568  0.7756392591191954  0.4518500330357540
  0.4431845297014618  0.8863361660843694  0.2010868516960969
  0.2215207338703564  0.7713879659348208  0.9328899109695712
  0.1096157913533631  0.8968155085931784  0.7011688767567108
  0.8911759782632203  0.7769094980036044  0.4519456310754606
  0.7725853119969130  0.8902457654895457  0.1995642320452120
  0.5504908843023344  0.7716258835358403  0.9347988174527657
  0.4503563910311570  0.8977447498784770  0.6911755581448062
  0.2190686837543225  0.1110636404541978  0.2417608654444763
  0.7736968352967963  0.2220526954602420  0.9857935424946618
  0.4466322625071157  0.2237965320112423  0.4910596603395163
  0.1114364559520169  0.2305221408088656  0.9895956707138751
  0.1089175683547694  0.5484316678740413  0.4854281960276410
  0.8830843098414292  0.4391676970389682  0.2388533535337061
  0.7713663731858702  0.8839163984577993  0.9960222248761710
  0.2199345946768290  0.7736864208975902  0.7337171943604091
  0.1111473674351870  0.8840883567781717  0.9868169620096765
  0.8866692177799180  0.7758800282000635  0.2512187872177094
  0.5555740006634409  0.7729795333401555  0.7343876182006213
  0.4405276497829078  0.8840490784555328  0.9970004917172801
  0.1116960535592284  0.2202597920578597  0.5005103828296384
  0.8905106616732397  0.1113427991301066  0.7443013340258844
  0.5589502193467055  0.1082704568511730  0.2490271309904699
  0.2269474097266269  0.1174851330958688  0.7513088997309936
  0.8848805520348932  0.1117962197616009  0.2509212512056678
  0.7775280361355428  0.2213673293096221  0.5029163201978335
  0.5522264609793766  0.1130200238899093  0.7475906851012510
  0.4476400856304394  0.2262369554046302  0.0013108460452784
  0.2257611281280560  0.4443041858675301  0.2464346601593164
  0.8916356701634456  0.4466657343819236  0.7493604072021043
  0.7746466302385429  0.5554997811618847  0.9944317662448015
  0.5572549854204638  0.4480095094600856  0.2458955600956685
  0.4455110593994860  0.5499620488534234  0.4965306096305397
  0.2219229040236428  0.4445362767569634  0.7461393362596240
  0.1167959353054613  0.5618456636124094  0.0004820010070077
  0.7774730475053531  0.5545883705403511  0.5018584413049183
  0.5536117150222708  0.4403618065168473  0.7500257374011738
  0.4458776790073458  0.5577005898355054  0.9964188803607570
  0.2252100273449074  0.7825210687949564  0.2550612887299266
  0.1100352404285019  0.8944101146673518  0.5047338196097897
  0.8873524774079371  0.7774336371241688  0.7460747383867741
  0.5531072119919429  0.7764962767989587  0.2552478388245234
  0.4498165319284340  0.8940176378252644  0.4967784628470113
  0.7821014224477665  0.8914627043721310  0.4978431885397185
 
  0.00000000E+00  0.00000000E+00  0.00000000E+00
  0.00000000E+00  0.00000000E+00  0.00000000E+00
  0.00000000E+00  0.00000000E+00  0.00000000E+00
  0.00000000E+00  0.00000000E+00  0.00000000E+00
  0.00000000E+00  0.00000000E+00  0.00000000E+00
  0.00000000E+00  0.00000000E+00  0.00000000E+00
  0.00000000E+00  0.00000000E+00  0.00000000E+00
  0.00000000E+00  0.00000000E+00  0.00000000E+00
  0.00000000E+00  0.00000000E+00  0.00000000E+00
  0.00000000E+00  0.00000000E+00  0.00000000E+00
  0.00000000E+00  0.00000000E+00  0.00000000E+00
  0.00000000E+00  0.00000000E+00  0.00000000E+00
  0.00000000E+00  0.00000000E+00  0.00000000E+00
  0.00000000E+00  0.00000000E+00  0.00000000E+00
  0.00000000E+00  0.00000000E+00  0.00000000E+00
  0.00000000E+00  0.00000000E+00  0.00000000E+00
  0.00000000E+00  0.00000000E+00  0.00000000E+00
  0.00000000E+00  0.00000000E+00  0.00000000E+00
  0.00000000E+00  0.00000000E+00  0.00000000E+00
  0.00000000E+00  0.00000000E+00  0.00000000E+00
  0.00000000E+00  0.00000000E+00  0.00000000E+00
  0.00000000E+00  0.00000000E+00  0.00000000E+00
  0.00000000E+00  0.00000000E+00  0.00000000E+00
  0.00000000E+00  0.00000000E+00  0.00000000E+00
  0.00000000E+00  0.00000000E+00  0.00000000E+00
  0.00000000E+00  0.00000000E+00  0.00000000E+00
  0.00000000E+00  0.00000000E+00  0.00000000E+00
  0.00000000E+00  0.00000000E+00  0.00000000E+00
  0.00000000E+00  0.00000000E+00  0.00000000E+00
  0.00000000E+00  0.00000000E+00  0.00000000E+00
  0.00000000E+00  0.00000000E+00  0.00000000E+00
  0.00000000E+00  0.00000000E+00  0.00000000E+00
  0.00000000E+00  0.00000000E+00  0.00000000E+00
  0.00000000E+00  0.00000000E+00  0.00000000E+00
  0.00000000E+00  0.00000000E+00  0.00000000E+00
  0.00000000E+00  0.00000000E+00  0.00000000E+00
  0.00000000E+00  0.00000000E+00  0.00000000E+00
  0.00000000E+00  0.00000000E+00  0.00000000E+00
  0.00000000E+00  0.00000000E+00  0.00000000E+00
  0.00000000E+00  0.00000000E+00  0.00000000E+00
  0.00000000E+00  0.00000000E+00  0.00000000E+00
  0.00000000E+00  0.00000000E+00  0.00000000E+00
  0.00000000E+00  0.00000000E+00  0.00000000E+00
  0.00000000E+00  0.00000000E+00  0.00000000E+00
  0.00000000E+00  0.00000000E+00  0.00000000E+00
  0.00000000E+00  0.00000000E+00  0.00000000E+00
  0.00000000E+00  0.00000000E+00  0.00000000E+00
  0.00000000E+00  0.00000000E+00  0.00000000E+00
  0.00000000E+00  0.00000000E+00  0.00000000E+00
  0.00000000E+00  0.00000000E+00  0.00000000E+00
  0.00000000E+00  0.00000000E+00  0.00000000E+00
  0.00000000E+00  0.00000000E+00  0.00000000E+00
  0.00000000E+00  0.00000000E+00  0.00000000E+00
  0.00000000E+00  0.00000000E+00  0.00000000E+00
  0.00000000E+00  0.00000000E+00  0.00000000E+00
  0.00000000E+00  0.00000000E+00  0.00000000E+00
  0.00000000E+00  0.00000000E+00  0.00000000E+00
  0.00000000E+00  0.00000000E+00  0.00000000E+00
  0.00000000E+00  0.00000000E+00  0.00000000E+00
  0.00000000E+00  0.00000000E+00  0.00000000E+00
  0.00000000E+00  0.00000000E+00  0.00000000E+00
  0.00000000E+00  0.00000000E+00  0.00000000E+00
  0.00000000E+00  0.00000000E+00  0.00000000E+00
  0.00000000E+00  0.00000000E+00  0.00000000E+00
  0.00000000E+00  0.00000000E+00  0.00000000E+00
  0.00000000E+00  0.00000000E+00  0.00000000E+00
  0.00000000E+00  0.00000000E+00  0.00000000E+00
  0.00000000E+00  0.00000000E+00  0.00000000E+00
  0.00000000E+00  0.00000000E+00  0.00000000E+00
  0.00000000E+00  0.00000000E+00  0.00000000E+00
  0.00000000E+00  0.00000000E+00  0.00000000E+00
  0.00000000E+00  0.00000000E+00  0.00000000E+00
