Se   Ga   Li                            
   1.00000000000000     
    -0.0252026649070221    0.0000003850211665   -6.6546365286700002
    -7.0095774107832742   -0.1295275590634556   -0.0000034758734868
    -0.1782055234133351    8.5598988179346005    0.0299158556925420
   Se   Ga   Li
     8     4     4
Direct
  0.8838804560031074  0.9249391725443713  0.8749803180783352
  0.9552943404311046  0.4050844744316887  0.1229316476651624
  0.9192707922404855  0.9013462960468969  0.3583521885533582
  0.3810240516000048  0.0615571358761414  0.1012152985327395
  0.9787578669462302  0.4330714844475408  0.6057291603852055
  0.4540759083391958  0.5821864109060231  0.8539431328842043
  0.4390401002871863  0.0881893498052205  0.6154872369237763
  0.4759687885844051  0.5592050390572237  0.3714737373792115
  0.0103487612879362  0.0560458324187260  0.1160931965099510
  0.5121821348920539  0.9302436653898608  0.8621793079096227
  0.8451185622247056  0.5564376745318953  0.3620907129064346
  0.3482911949615938  0.4284548698611689  0.6138705987747396
  0.8403664248408825  0.5616900671664835  0.8659637661372821
  0.8478182219684319  0.0961954632473015  0.6090825763379663
  0.3413183124683982  0.4269708929877754  0.1113213735171830
  0.5241376212878180  0.9216954363630359  0.3552724244413055
 
             NaN             NaN             NaN
             NaN             NaN             NaN
             NaN             NaN             NaN
             NaN             NaN             NaN
             NaN             NaN             NaN
             NaN             NaN             NaN
             NaN             NaN             NaN
             NaN             NaN             NaN
             NaN             NaN             NaN
             NaN             NaN             NaN
             NaN             NaN             NaN
             NaN             NaN             NaN
             NaN             NaN             NaN
             NaN             NaN             NaN
             NaN             NaN             NaN
             NaN             NaN             NaN
