Se   Ga   Li
1.0
  6.978970205325091 -0.0054923482448595 3.4758734684e-06
  -0.0058455935353087 8.387752152908167 -0.1176241571325913
  0.0014861919622881 -3.850211669e-07 6.65463652867
 Se  Ga  Li 
8 4 4 
direct
   -0.9257154795461768   0.8723164457241016  -0.9874448236431396
   -0.4125704248475592   0.1207109374032890  -0.9829537486834048
   -0.9024580765925870   0.3683672835184890  -0.9752433667237066
   -0.0601190362338003   0.1021098303293018  -0.4942468414624836
   -0.4313450328898357   0.6071190387389631  -0.9868292471047381
   -0.5889699101663173   0.8454841061929349  -0.4697600249004715
   -0.0863606907842203   0.6160831857007922  -0.4667074252995685
   -0.5585361138345192   0.3629470162579080  -0.4890483003006140
   -0.0721037689356184   0.1236588627964119  -0.9022645227694646
   -0.9240097233773626   0.8614124451229564  -0.3563458353963526
   -0.5680040584938967   0.3635296029546199  -0.8555056981787910
   -0.4199283622821913   0.6092601588647331  -0.3560847194733761
   -0.5816584032929860   0.8653083232022496  -0.8504438415247926
   -0.0928063330112835   0.6205616214042016  -0.8485366713852330
   -0.4047167086585378   0.1011293234721107  -0.3718373369417813
   -0.9040111421335306   0.3599884952524778  -0.3636411344823938
