Se   Ga   Li
1.0
  7.037104839109658 -0.0073716305298224 3.4758735072e-06
  -0.0090021135074302 8.482754988173038 -0.1079539436656047
  -0.0118875463249984 -3.850211661e-07 6.65463652867
 Se  Ga  Li 
8 4 4 
direct
   -0.9323390176059584   0.8682494065635122  -0.8610532149259772
   -0.4017865657194574   0.1092667824385507  -0.8833729051335021
   -0.9077804559936343   0.3533127742450696  -0.8802660824974811
   -0.0571387229500402   0.1063652732804870  -0.3552490146475440
   -0.4254009663626724   0.6036179822375015  -0.9127968898778150
   -0.5941340577727260   0.8657968465854475  -0.3746952331698874
   -0.0810399976140008   0.6263055341311933  -0.3744242172820876
   -0.5671782516363064   0.3702547060344518  -0.4370691108343446
   -0.0671550708198722   0.1129200484571400  -0.9841021228827977
   -0.9264257664578799   0.8654556827532719  -0.4955661573859927
   -0.5599284620468707   0.3614384519188237  -0.8169450245912930
   -0.4222279993025992   0.6236332411131481  -0.4182071341297439
   -0.5932542099853759   0.8590192648202456  -0.9845093441276906
   -0.0784792638905903   0.6054417078014899  -0.9859874389009049
   -0.3906633918841920   0.1020037471255688  -0.4960645721032607
   -0.9283810650381309   0.3669052274297444  -0.4965850757615020
