Se   Ga   Li                            
   1.00000000000000     
     0.0118875463249984    0.0000003850211661   -6.6546365286700002
    -7.0371048391096576    0.0073716305298224   -0.0000034758735072
    -0.0090021135074302    8.4827549881730384   -0.1079539436656047
   Se   Ga   Li
     8     4     4
Direct
  0.8610532149259772  0.9323390176059585  0.8682494065635123
  0.8833729051335020  0.4017865657194574  0.1092667824385507
  0.8802660824974811  0.9077804559936344  0.3533127742450696
  0.3552490146475439  0.0571387229500402  0.1063652732804870
  0.9127968898778149  0.4254009663626724  0.6036179822375015
  0.3746952331698874  0.5941340577727261  0.8657968465854476
  0.3744242172820876  0.0810399976140008  0.6263055341311934
  0.4370691108343446  0.5671782516363063  0.3702547060344519
  0.9841021228827975  0.0671550708198722  0.1129200484571400
  0.4955661573859928  0.9264257664578798  0.8654556827532720
  0.8169450245912929  0.5599284620468709  0.3614384519188237
  0.4182071341297438  0.4222279993025992  0.6236332411131481
  0.9845093441276905  0.5932542099853760  0.8590192648202456
  0.9859874389009047  0.0784792638905903  0.6054417078014899
  0.4960645721032607  0.3906633918841921  0.1020037471255688
  0.4965850757615020  0.9283810650381309  0.3669052274297444
 
             NaN             NaN             NaN
             NaN             NaN             NaN
             NaN             NaN             NaN
             NaN             NaN             NaN
             NaN             NaN             NaN
             NaN             NaN             NaN
             NaN             NaN             NaN
             NaN             NaN             NaN
             NaN             NaN             NaN
             NaN             NaN             NaN
             NaN             NaN             NaN
             NaN             NaN             NaN
             NaN             NaN             NaN
             NaN             NaN             NaN
             NaN             NaN             NaN
             NaN             NaN             NaN
