Se   Ga   Li
1.0
  7.00647953802089 0.1040198140846392 3.4758734888e-06
  -0.1386188849813834 8.579654725735592 0.0222009537915614
  0.0171521740034754 -3.850211665e-07 6.65463652867
 Se  Ga  Li 
8 4 4 
direct
   -0.9274200826872108   0.8746601880020834  -0.8792494981067280
   -0.4075524520399692   0.1225065711598007  -0.9562025900341459
   -0.9041013684174206   0.3531702166362413  -0.9073592820536389
   -0.0595102324831778   0.1020233180154185  -0.3792772993009751
   -0.4396386768256100   0.6053415536382484  -0.9777499944394190
   -0.5815497250031153   0.8541973318113262  -0.4543185079566421
   -0.0822405183794657   0.6179733403174705  -0.4122716090248091
   -0.5577792149809784   0.3723514199219307  -0.4748466966996244
   -0.0585063179467408   0.1142800793319213  -0.0097352701497748
   -0.9313076365133791   0.8608283142328269  -0.5083172856443166
   -0.5568538239594605   0.3612112116081481  -0.8433228558765113
   -0.4275132184402605   0.6149267463829466  -0.3481909122060092
   -0.5632208344829353   0.8663114152703445  -0.8399089029025635
   -0.0874255342041305   0.6093047044720732  -0.9066513657645893
   -0.4258157328799342   0.1115214823488593  -0.3428480026595994
   -0.9228778958372642   0.3593787837864635  -0.5166434655002722
