Se   Ga   Li
1.0
  6.995207525645978 0.09916089696346 3.4758734909e-06
  -0.1201808894991851 8.568875860548408 0.0313491091136039
  0.0152438541658795 -3.850211664e-07 6.65463652867
 Se  Ga  Li 
8 4 4 
direct
   -0.9310169434185903   0.8721446681389814  -0.8745888591454105
   -0.4087172629019011   0.1219927003431459  -0.9547207443873599
   -0.9074853919732484   0.3523414627696727  -0.8991762169328111
   -0.0582943102919041   0.1023278007456510  -0.3766539861610477
   -0.4409634017034617   0.6049751940516996  -0.9754226892780524
   -0.5801694630414981   0.8545245048170387  -0.4544138239227927
   -0.0780628222944974   0.6198549471660064  -0.3873050889303824
   -0.5574826797275882   0.3723975955801859  -0.4736438221281432
   -0.0587925497846273   0.1133997111996462  -0.0074618067849269
   -0.9311732408162565   0.8596151378464981  -0.5046585438641601
   -0.5583000998084889   0.3608687901850970  -0.8422367670517490
   -0.4284520643651049   0.6146887443459296  -0.3457086543222354
   -0.5650617846642190   0.8660497857642513  -0.8399139876783971
   -0.0788277926317576   0.6106213702137772  -0.9688572877727253
   -0.4258163505348481   0.1116537044264513  -0.3400806661967036
   -0.9246971071233516   0.3625305593424076  -0.5120505937733785
