Se   Ga   Li
1.0
  7.009577410783274 0.1295275590634556 3.4758734868e-06
  -0.1782055234133351 8.5598988179346 0.029915855692542
  0.0252026649070221 -3.850211665e-07 6.65463652867
 Se  Ga  Li 
8 4 4 
direct
   -0.9249391725443715   0.8749803180783350  -0.8838804560031073
   -0.4050844744316888   0.1229316476651624  -0.9552943404311048
   -0.9013462960468970   0.3583521885533582  -0.9192707922404856
   -0.0615571358761414   0.1012152985327395  -0.3810240516000048
   -0.4330714844475408   0.6057291603852055  -0.9787578669462302
   -0.5821864109060231   0.8539431328842043  -0.4540759083391959
   -0.0881893498052205   0.6154872369237763  -0.4390401002871863
   -0.5592050390572237   0.3714737373792115  -0.4759687885844052
   -0.0560458324187260   0.1160931965099510  -0.0103487612879362
   -0.9302436653898609   0.8621793079096227  -0.5121821348920539
   -0.5564376745318953   0.3620907129064346  -0.8451185622247057
   -0.4284548698611689   0.6138705987747396  -0.3482911949615939
   -0.5616900671664835   0.8659637661372820  -0.8403664248408824
   -0.0961954632473015   0.6090825763379663  -0.8478182219684320
   -0.4269708929877754   0.1113213735171830  -0.3413183124683983
   -0.9216954363630359   0.3552724244413056  -0.5241376212878180
