Se   Ga   Li
1.0
  6.95286990058 -3.684154485e-07 3.4758735174e-06
  -4.550289939e-07 8.38658817955 -5.058251499e-07
  3.3229550773e-06 -3.850211659e-07 6.65463652867
 Se  Ga  Li 
8 4 4 
direct
   -0.9301315446900134   0.8685537694427911  -0.8508181031782129
   -0.4033615622973555   0.1217072992824768  -0.8661027134711717
   -0.9033621396971723   0.3532903897347098  -0.8661019197245637
   -0.0615303196586510   0.1064433877225426  -0.3508165929556029
   -0.4301313201656143   0.6064432950201920  -0.8508177190233184
   -0.5882995781966471   0.8532902637481360  -0.3661015668214489
   -0.0882994477612655   0.6217059487415285  -0.3661016318119296
   -0.5615304286088190   0.3685528096837062  -0.3508160858973782
   -0.0692732782211181   0.1135172995982003  -0.9826101694939169
   -0.9223875112699954   0.8614789311805569  -0.4826092042134675
   -0.5692748461156113   0.3614800687356451  -0.9826092712795429
   -0.4223857534730086   0.6135163790287026  -0.4826080353858160
   -0.5840601928242108   0.8659338979507256  -0.9789190933494325
   -0.0840605842531090   0.6090631973734234  -0.9789203970080252
   -0.4076020842486726   0.1090626058988704  -0.4789202790317333
   -0.9076026047579614   0.3659338103712245  -0.4789189591988078
