Se   Ga   Li
1.0
  7.031730225313669 -0.149745441431815 3.4758735011e-06
  0.1932813348608561 8.559533224111812 0.0015447509837477
  -0.0127730209438612 -3.850211662e-07 6.65463652867
 Se  Ga  Li 
8 4 4 
direct
   -0.9387571531228650   0.8699223305430672  -0.8597093466813436
   -0.3991310640838870   0.1174065973164193  -0.8925669686342598
   -0.9090971430809280   0.3525534976376909  -0.8836102428188120
   -0.0589255437438135   0.1043979153589577  -0.3614859502933623
   -0.4264030010875015   0.5996845283303072  -0.9593377961363286
   -0.5923858311427563   0.8626305017177952  -0.3905601845707549
   -0.0847969914408341   0.6223077230129714  -0.3852291107343664
   -0.5639426652835495   0.3741564521749419  -0.4568776648564056
   -0.0628384816462465   0.1135996528364710  -0.9933312101029580
   -0.9284461390510835   0.8614246699533954  -0.4902449884950888
   -0.5620049205993073   0.3631215862763765  -0.8283573181230686
   -0.4329760986628837   0.6155348736238200  -0.3320181024679729
   -0.5878110054932182   0.8658943850422727  -0.9296097796077543
   -0.0642621771463710   0.6086454137817865  -0.9994369095071437
   -0.3945829726266206   0.1034722818123423  -0.4984525863237779
   -0.9269520768695938   0.3652342675184061  -0.4960653789581310
