Se   Ga   Li
1.0
  6.990233413915835 -0.0057089435766026 3.4758734705e-06
  -0.006192084923634 8.402478850322504 -0.1394960032109102
  0.0080404282049107 -3.850211668e-07 6.65463652867
 Se  Ga  Li 
8 4 4 
direct
   -0.9242179091250528   0.8714466633558198  -0.9785724905976991
   -0.4171981764814723   0.1197740771386469  -0.9821721264847026
   -0.9009197355155494   0.3728880934425640  -0.9732598278871037
   -0.0596954222874671   0.1004493312178754  -0.4647952646966760
   -0.4317685028805092   0.6068924986765173  -0.9864579198594775
   -0.5893754578175989   0.8439044453375421  -0.4678107021857835
   -0.0857356614059464   0.6153310626210108  -0.4647812777297753
   -0.5576949915508277   0.3627012024239735  -0.4884969720138824
   -0.0730706255984891   0.1268286506772640  -0.9618842706697260
   -0.9232006684942976   0.8596326960796719  -0.3498060621465657
   -0.5662158720316053   0.3643692942541424  -0.8537206963280585
   -0.4190531911072076   0.6092692466898009  -0.3566427135787313
   -0.5808458077784333   0.8644466827533542  -0.8476748003844884
   -0.0950940333535537   0.6215339733104310  -0.8456471893024088
   -0.4067450966066652   0.0996034594672525  -0.3719673950380478
   -0.9024821130457567   0.3609152994896627  -0.3632038293673417
