Se   Ga   Li
1.0
  6.977998038517356 0.0068961563717458 3.4758735154e-06
  0.0054660332753749 8.388066627371161 -0.1271513410011814
  -0.0004844969940475 -3.850211659e-07 6.65463652867
 Se  Ga  Li 
8 4 4 
direct
   -0.9314102936025567   0.8677837755366445  -0.8579338685721147
   -0.4026554282992843   0.1066640594763886  -0.8694220860837278
   -0.9124673992611518   0.3541843657744829  -0.8614573813699845
   -0.0585116585549166   0.1121721907463608  -0.3554460107411355
   -0.4257722932869413   0.6024612911260951  -0.8569102596034474
   -0.5863579469546059   0.8591266129282955  -0.3779291067167488
   -0.0888764839450810   0.6297112791062158  -0.3748311103979861
   -0.5600629165842878   0.3730498237365791  -0.3498545828804360
   -0.0681427354093345   0.1114063982254961  -0.9889485907765092
   -0.9199345316301193   0.8658540673234352  -0.4887328381130375
   -0.5721327437179169   0.3512858774985325  -0.9435831080931397
   -0.4239476100670179   0.6137030418914095  -0.4880704989769685
   -0.5927406021101557   0.8541031986262795  -0.9961324029216266
   -0.0816764745593635   0.6093979148949170  -0.9941417971747151
   -0.4039733659235458   0.1151885746055972  -0.4809826367604372
   -0.9046507811743372   0.3738942054397505  -0.4725172590686215
