Se   Ga   Li
1.0
  6.95286990058 -3.684154422e-07 3.4758734664e-06
  -4.550289887e-07 8.38658817955 -5.058251507e-07
  3.322955024e-06 -3.850211669e-07 6.65463652867
 Se  Ga  Li 
8 4 4 
direct
   -0.9301340532583990   0.8685554348482044  -0.9937938806870578
   -0.4033640708657273   0.1217089646878904  -0.9785092703940992
   -0.9033646482655441   0.3532920551401234  -0.9785084766474980
   -0.0615328282270298   0.1064450531279491  -0.4937953909096677
   -0.4301338287340001   0.6064449604255985  -0.9937934965321703
   -0.5883020867650187   0.8532919291535422  -0.4785081237443762
   -0.0883019563296372   0.6217076141469350  -0.4785081887348568
   -0.5615329371772048   0.3685544750891125  -0.4937958979678925
   -0.0692757867894898   0.1135189650036068  -0.8620018143713537
   -0.9223900198383672   0.8614805965859704  -0.3620008490909045
   -0.5692773546839831   0.3614817341410514  -0.8620009161569798
   -0.4223882620413803   0.6135180444341090  -0.3620039484794546
   -0.5840627013925824   0.8659355633561391  -0.8656928905158381
   -0.0840630928214807   0.6090648627788370  -0.8656941941744378
   -0.4076045928170515   0.1090642713042769  -0.3656940761981389
   -0.9076051133263332   0.3659354757766380  -0.3656927563652133
