Se   Ga   Li
1.0
  6.99711631622074 -0.0073278913099929 3.4758734725e-06
  -0.0080981126967393 8.408800001609569 -0.1563314734696051
  0.0108167629704276 -3.850211668e-07 6.65463652867
 Se  Ga  Li 
8 4 4 
direct
   -0.9250070676009848   0.8725680096369027  -0.9709241344082162
   -0.4190637621540465   0.1192224413799248  -0.9804076315314096
   -0.9014487943400079   0.3750910409096355  -0.9702060840030494
   -0.0596013739821492   0.1009203805497217  -0.4308026854890293
   -0.4309158784782566   0.6070238325422161  -0.9857885450461230
   -0.5899192268373110   0.8425772870808376  -0.4677256699997164
   -0.0861566732168624   0.6161026754367882  -0.4649030914154146
   -0.5565779815899832   0.3626275698328725  -0.4892689149774913
   -0.0732893813067704   0.1283606759942745  -0.0187887493343612
   -0.9188488838634102   0.8533882408304634  -0.3394586553356087
   -0.5667891931546462   0.3638324482354027  -0.8558730178768111
   -0.4190489022524754   0.6085260796768247  -0.3549635273821233
   -0.5811035104815681   0.8641005313865774  -0.8478476062553526
   -0.0949460417493017   0.6219710506534458  -0.8453114161530064
   -0.4112663226498020   0.0986885154570371  -0.3720757173133364
   -0.8993302714228693   0.3649858973326142  -0.3625480917498616
