Se   Ga   Li
1.0
  7.031095560921163 -0.0064284308920031 3.4758734848e-06
  -0.0068464805646669 8.569027618248183 -0.0038514697740773
  -0.0070595415016763 -3.850211665e-07 6.65463652867
 Se  Ga  Li 
8 4 4 
direct
   -0.9283667559498159   0.8740848836437107  -0.8859022649790353
   -0.4069604751318788   0.1221018074542110  -0.9591244622951833
   -0.9037633666822108   0.3582968270923952  -0.9192188379397830
   -0.0617422347068316   0.1017392593333741  -0.3816592966205185
   -0.4341430030143687   0.6045206617707138  -0.9814459627549814
   -0.5816417744258224   0.8528346973661838  -0.4601081353564263
   -0.0897221947659455   0.6188383501046156  -0.4432353475535424
   -0.5506642872979060   0.3703234877693223  -0.4812018721093270
   -0.0580473773790108   0.1159120617764162  -0.0104025524634448
   -0.9292935224541747   0.8639582740544901  -0.5144331212165493
   -0.5601712125404925   0.3610527939955321  -0.8510006059944407
   -0.4279982427331442   0.6142513229742710  -0.3499211523747883
   -0.5652533955749172   0.8652693297714021  -0.8475506727030501
   -0.0991830139785923   0.6067756583811088  -0.8440485916670325
   -0.4257292275654089   0.1088020703063000  -0.3449215839819885
   -0.9106331808798279   0.3612251911415058  -0.4827190782402254
