supercell of POSCAR                     
   1.03600000000000     
     9.6051007291200001   -5.6678653607799996   -9.9907275475200006
     9.5551777488200003    5.5783510108199996    9.9928581731800001
    -1.5573508785200001   -8.3719044994900003    4.9655686364999996
   Al   Gd   N 
    72    23    96
Direct
  0.2990577819715341  0.2897593014606556  0.5327586900695351
  0.1468861325292181  0.2433258002275736  0.3043400884746816
  0.3091087531463756  0.4081808629441355  0.3081563308840600
  0.4546241220584335  0.3188434453293425  0.7886598127917921
  0.1408539929066563  0.4985542304469917  0.7835507091293223
  0.2902999359665586  0.1682436755449572  0.7762744257330851
  0.4690093188787046  0.4453527855271275  0.5319448595122438
  0.1432705773754677  0.1199851877237990  0.5361162465889819
  0.4777572348068517  0.0755569860512182  0.2971978801116535
  0.2783057581183641  0.1114264676822998  0.3341533797618368
  0.1189226677505033  0.0729192229305013  0.0993081249190766
  0.1129395256094767  0.1958785145337600  0.8164493359419538
  0.2720865179091803  0.3555735730289911  0.8084727381148653
  0.1110653885268462  0.3244630814115510  0.5858303931777158
  0.2705063835605586  0.4863965082663881  0.5748507897627775
  0.4545352778778380  0.2799647010213349  0.3329053352387419
  0.1115855144739442  0.4457204256097569  0.3382923753268088
  0.4515825582637660  0.4082145014636041  0.1085805100179655
  0.8016408052502157  0.2882158155514247  0.5419096278484403
  0.6451807271533241  0.2459796393423517  0.3153750128616863
  0.8086203062073807  0.4096147833755879  0.3118233394384262
  0.9599362090321506  0.3233890070216745  0.7891206992862934
  0.6370517577532766  0.4907716714741355  0.7910732664110469
  0.7950977556890848  0.1614930556009497  0.7773992164132366
  0.9693236769452440  0.4464856852257029  0.5344214971766235
  0.6449676249271477  0.1178240897954339  0.5356249672906657
  0.9798712264887754  0.0716844375038477  0.2947730475259362
  0.7770578301549662  0.1097144664443803  0.3336987223166048
  0.6123904470942847  0.0754614425257287  0.0922206324150636
  0.6142530596369085  0.1861931007584943  0.8114040271269687
  0.7644135258028086  0.3516274332230225  0.8183848477829088
  0.6123389119005935  0.3239495772729697  0.5917396784144628
  0.7704284132774646  0.4840527657400600  0.5798970001349417
  0.9491856995835946  0.2798552274999011  0.3358064795327778
  0.6135180516688123  0.4460257727598247  0.3404059532832306
  0.9490546300949418  0.4049081955279448  0.1042353752359944
  0.3021124434851785  0.7908034014385379  0.5396632164806761
  0.1441983337418193  0.7441381979501287  0.3110946919237136
  0.3098368855524356  0.9113094602207141  0.3109782910097678
  0.4648364853937821  0.8321212566759186  0.7886744656842737
  0.1424308846741553  0.9988285963463284  0.7848073415359877
  0.2960383818646264  0.6672352361692759  0.7803468701584535
  0.4711027092422384  0.9492814344404508  0.5373844424761032
  0.1440551767301130  0.6205982324379633  0.5385047056337768
  0.4796913382008512  0.5736756307351243  0.3003735960070273
  0.2772857921389473  0.6095623790087075  0.3356998245686569
  0.1160159150183517  0.5696890024985635  0.1011261228440716
  0.1157619587535095  0.6964200169269432  0.8181817763137857
  0.2777238171214478  0.8594948548964823  0.8137206620033481
  0.1132570382417697  0.8255476758841880  0.5893358253119061
  0.2736770274016607  0.9878318097105350  0.5788018700296078
  0.4499793363716407  0.7819969622748459  0.3362208269294555
  0.1136099898594409  0.9464752980343931  0.3393832795267002
  0.4494180129707317  0.9074878303894423  0.1025246692918316
  0.8019663915742896  0.7866322939045105  0.5393805717648235
  0.6443175956350800  0.7427563362547787  0.3107054629438935
  0.8092758764883072  0.9086015935116336  0.3083374659153222
  0.9632598482794705  0.8233580156726035  0.7897838138096489
  0.6427991039166230  0.9931044258410964  0.7805053140330713
  0.7936367560875155  0.6601266657744986  0.7820915478270862
  0.9705504689186668  0.9454326615613766  0.5323657750802866
  0.6432311199934873  0.6172887338449158  0.5409204808366468
  0.9780351325048642  0.5725901494295798  0.2980023929179652
  0.7773843131992706  0.6089834411653854  0.3375639126831658
  0.6156926283315016  0.5692028272061833  0.1022234360812959
  0.6140989954484724  0.6956637416470315  0.8168359793673261
  0.7756076221275308  0.8526459201462728  0.8125057823195831
  0.6127194602709167  0.8234702440434276  0.5866848590315215
  0.7718305482322663  0.9832011012522202  0.5740107920110518
  0.9497263757732028  0.7797097195643801  0.3363955157535727
  0.6119506216054660  0.9469005067691683  0.3381651694022310
  0.9494090785793219  0.9043181068853272  0.1028533400934464
  0.1400620679848643  0.3604130800365652  0.0303527682015243
  0.3129790135981168  0.0268238131418954  0.0397212254197754
  0.3073382316204132  0.2344867454525783  0.0727841106229974
  0.4507292984417433  0.0412515291843718  0.8344678521511426
  0.4451976752971376  0.1607813956063922  0.5789106946654599
  0.9809865858849562  0.1945072659748632  0.0394720546046159
  0.5999061740168230  0.3299522148783112  0.0473015283501965
  0.8047668061462900  0.0231927495569977  0.0404560406976699
  0.7839841838607811  0.2388476786584377  0.0817313933919337
  0.9477841807081049  0.0177676094059436  0.8191361333402867
  0.9438054056775798  0.1535065726719864  0.5698131414137606
  0.4834581099642605  0.6950989170429409  0.0377550615773927
  0.1368084038655297  0.8656785336614803  0.0322260728383839
  0.3078365954348286  0.5217339465958730  0.0392331036981801
  0.2856340527274028  0.7354222052535988  0.0847641212128849
  0.4472661172026591  0.5166593141786606  0.8181662672066423
  0.4431540252003998  0.6573986063102666  0.5754972665777203
  0.9795411768850997  0.6908344108042925  0.0392915728101428
  0.6354149131716795  0.8663485077029165  0.0330722575063618
  0.7936894661739942  0.5082655686034769  0.0417678565402966
  0.7849709943994156  0.7317945127324705  0.0824130606433968
  0.9454187103368525  0.5169926859375593  0.8232744723444725
  0.9450451755929308  0.6543460107091903  0.5745487345379701
  0.2359289928894555  0.3696670118083034  0.6230220911073445
  0.0761201419712023  0.3252202301681351  0.3964192846088608
  0.2390907861726745  0.4902331613723945  0.3884359569301594
  0.4491563667306693  0.2959053269314538  0.1552580743090743
  0.0714828463404302  0.4550272462454501  0.1488469908596812
  0.2387243414870213  0.1073027322392974  0.1536508616850867
  0.3990343160434406  0.3912505277742753  0.9120815693961291
  0.0921248525147718  0.0826931237966662  0.8993470720772336
  0.2300640130896952  0.2475103050646297  0.8688356935994719
  0.3989878442112200  0.0205089974931028  0.6183059845092203
  0.0897345752656733  0.2037923859915338  0.6305667511800337
  0.4058961815545103  0.1581520583736520  0.3580945430045475
  0.2184385478752020  0.1911210084865544  0.4320176733771035
  0.0629571023555968  0.1459750484960622  0.2058584556112280
  0.2230097021377802  0.3172016203311188  0.2048828479901204
  0.3602838480987103  0.1290090841569764  0.9125533035794646
  0.0393737280959243  0.2680956318876611  0.8856534129227924
  0.2100847156248662  0.4368154792170458  0.8875145658895889
  0.3585069715776825  0.2480966768990100  0.6772526675215360
  0.0383585162941529  0.4060272796228972  0.6833557354051152
  0.2107781316757169  0.0686777001439651  0.6698334087043278
  0.3831597327499949  0.3521736520863712  0.4294363653130020
  0.0490151313725491  0.0259049925786385  0.4382278222546319
  0.3917589090245244  0.4765923403582519  0.2108545466409666
  0.7377791546922552  0.3675405519459645  0.6319307895046506
  0.5789873285862370  0.3267927690538031  0.4049392747818530
  0.7405152413273584  0.4905296809184989  0.3938187326218028
  0.9273337750806974  0.2931540479757615  0.1570464681771497
  0.5735200659363358  0.4571156152672557  0.1518971416686128
  0.7323537488039946  0.1082743119523997  0.1554364363004623
  0.8935442575361989  0.3906236653967881  0.9100665714923508
  0.5998695871778139  0.0762886488108308  0.8970682418617102
  0.7311688363489850  0.2376670541896999  0.8648122107875977
  0.8960015130193781  0.0147861356852914  0.6082593089530093
  0.5934689847265631  0.2021464516952420  0.6272905707132139
  0.9050378924877549  0.1550729499196990  0.3520630496176764
  0.7209373357116249  0.1910418071785855  0.4341992552103662
  0.5616510423740664  0.1512402042666494  0.2080260651223398
  0.7143765218793661  0.3225056511241533  0.2108028401965711
  0.8654657441211597  0.1148994037083924  0.9077756765092815
  0.5205149807753813  0.2391781590132638  0.8557464549792257
  0.6885745101015530  0.4167985970476167  0.9011700577157598
  0.8669341873585665  0.2428835351841698  0.6806175012887437
  0.5351083044076361  0.4029399923432919  0.6842215239605096
  0.7126935671135328  0.0650172915438958  0.6674506186455886
  0.8818834781509750  0.3523429413590762  0.4343188616446980
  0.5493041258794946  0.0269687575715594  0.4370033242262323
  0.8905767736110448  0.4756003327822569  0.2095770297342270
  0.2386192102314197  0.8702900541142071  0.6270897159841979
  0.0763882857576093  0.8257159036611981  0.4000796048264803
  0.2412642925949058  0.9923958079466999  0.3918652020044462
  0.4295701565047949  0.7948584803921577  0.1552437722208637
  0.0714613555782222  0.9584261098661386  0.1511874779821198
  0.2358485501345982  0.6044155479146625  0.1555275272840717
  0.4034618710472486  0.9026408511837261  0.9076404685201638
  0.0922058231596949  0.5828999838714566  0.9011618464643760
  0.2347837680533900  0.7472402164849541  0.8694784581962480
  0.3950974351811425  0.5168135411319099  0.6077957020092555
  0.0914479672394393  0.7046627366452043  0.6329484746873959
  0.4051406223899292  0.6573642813865490  0.3564423494821014
  0.2204765719857420  0.6920105547243622  0.4353471872700254
  0.0624964101944556  0.6454333776971737  0.2087799223693452
  0.2170462719622108  0.8215591085757339  0.2115590804681418
  0.3658964733158925  0.6170817723698221  0.9076940969052814
  0.0409319046804484  0.7665854090101263  0.8879798271331651
  0.2120268725564927  0.9384017882666953  0.8915034822021113
  0.3674345820228879  0.7500755609052874  0.6847541290930508
  0.0400680241430393  0.9054558772544112  0.6832352877141119
  0.2122589048860704  0.5695326105003033  0.6710395809705645
  0.3833250038032148  0.8552457303250307  0.4346013403274682
  0.0486553723974907  0.5264702210238710  0.4399221959332777
  0.3914176276171162  0.9768634808917511  0.2104662173039955
  0.7387277389536138  0.8663073503350134  0.6257039871899934
  0.5767163016095864  0.8252113508038974  0.3976686679969035
  0.7399668585981516  0.9902152888026805  0.3878822390362515
  0.9292945163620843  0.7922093424939547  0.1564042014904459
  0.5707209503279600  0.9617852025607476  0.1508425304411460
  0.7352760832256919  0.6042126316487710  0.1586282088279631
  0.9007929752180743  0.8910643539854277  0.9078962102589472
  0.5909084418400212  0.5825330364900694  0.9030764556826867
  0.7331737186999163  0.7416948903971914  0.8670538755847943
  0.8949918823584468  0.5157608562217035  0.6125037610259838
  0.5899456388666806  0.7023050326788933  0.6315612910598105
  0.9052914112573589  0.6561697578669268  0.3575782081585999
  0.7193402653286753  0.6895575848001769  0.4368578879735878
  0.5619071550432295  0.6455283267953433  0.2086216775036078
  0.7164460412677087  0.8194039024873305  0.2089324402820267
  0.8587130789412427  0.6088705202084057  0.9148975261861310
  0.5414527893980932  0.7705137192129499  0.8845767247136180
  0.7119051564249617  0.9324235339356193  0.8887367035079734
  0.8664931242847729  0.7430600757150074  0.6839725374839247
  0.5427587446841358  0.9042630249018728  0.6779720874513515
  0.7091063869746037  0.5631977357460585  0.6757679708648894
  0.8823385393036247  0.8517380139531383  0.4327117277280763
  0.5493014771892035  0.5252878589592882  0.4400484984402979
  0.8906960751388340  0.9751687415652839  0.2066009410280572
 
  0.00000000E+00  0.00000000E+00  0.00000000E+00
  0.00000000E+00  0.00000000E+00  0.00000000E+00
  0.00000000E+00  0.00000000E+00  0.00000000E+00
  0.00000000E+00  0.00000000E+00  0.00000000E+00
  0.00000000E+00  0.00000000E+00  0.00000000E+00
  0.00000000E+00  0.00000000E+00  0.00000000E+00
  0.00000000E+00  0.00000000E+00  0.00000000E+00
  0.00000000E+00  0.00000000E+00  0.00000000E+00
  0.00000000E+00  0.00000000E+00  0.00000000E+00
  0.00000000E+00  0.00000000E+00  0.00000000E+00
  0.00000000E+00  0.00000000E+00  0.00000000E+00
  0.00000000E+00  0.00000000E+00  0.00000000E+00
  0.00000000E+00  0.00000000E+00  0.00000000E+00
  0.00000000E+00  0.00000000E+00  0.00000000E+00
  0.00000000E+00  0.00000000E+00  0.00000000E+00
  0.00000000E+00  0.00000000E+00  0.00000000E+00
  0.00000000E+00  0.00000000E+00  0.00000000E+00
  0.00000000E+00  0.00000000E+00  0.00000000E+00
  0.00000000E+00  0.00000000E+00  0.00000000E+00
  0.00000000E+00  0.00000000E+00  0.00000000E+00
  0.00000000E+00  0.00000000E+00  0.00000000E+00
  0.00000000E+00  0.00000000E+00  0.00000000E+00
  0.00000000E+00  0.00000000E+00  0.00000000E+00
  0.00000000E+00  0.00000000E+00  0.00000000E+00
  0.00000000E+00  0.00000000E+00  0.00000000E+00
  0.00000000E+00  0.00000000E+00  0.00000000E+00
  0.00000000E+00  0.00000000E+00  0.00000000E+00
  0.00000000E+00  0.00000000E+00  0.00000000E+00
  0.00000000E+00  0.00000000E+00  0.00000000E+00
  0.00000000E+00  0.00000000E+00  0.00000000E+00
  0.00000000E+00  0.00000000E+00  0.00000000E+00
  0.00000000E+00  0.00000000E+00  0.00000000E+00
  0.00000000E+00  0.00000000E+00  0.00000000E+00
  0.00000000E+00  0.00000000E+00  0.00000000E+00
  0.00000000E+00  0.00000000E+00  0.00000000E+00
  0.00000000E+00  0.00000000E+00  0.00000000E+00
  0.00000000E+00  0.00000000E+00  0.00000000E+00
  0.00000000E+00  0.00000000E+00  0.00000000E+00
  0.00000000E+00  0.00000000E+00  0.00000000E+00
  0.00000000E+00  0.00000000E+00  0.00000000E+00
  0.00000000E+00  0.00000000E+00  0.00000000E+00
  0.00000000E+00  0.00000000E+00  0.00000000E+00
  0.00000000E+00  0.00000000E+00  0.00000000E+00
  0.00000000E+00  0.00000000E+00  0.00000000E+00
  0.00000000E+00  0.00000000E+00  0.00000000E+00
  0.00000000E+00  0.00000000E+00  0.00000000E+00
  0.00000000E+00  0.00000000E+00  0.00000000E+00
  0.00000000E+00  0.00000000E+00  0.00000000E+00
  0.00000000E+00  0.00000000E+00  0.00000000E+00
  0.00000000E+00  0.00000000E+00  0.00000000E+00
  0.00000000E+00  0.00000000E+00  0.00000000E+00
  0.00000000E+00  0.00000000E+00  0.00000000E+00
  0.00000000E+00  0.00000000E+00  0.00000000E+00
  0.00000000E+00  0.00000000E+00  0.00000000E+00
  0.00000000E+00  0.00000000E+00  0.00000000E+00
  0.00000000E+00  0.00000000E+00  0.00000000E+00
  0.00000000E+00  0.00000000E+00  0.00000000E+00
  0.00000000E+00  0.00000000E+00  0.00000000E+00
  0.00000000E+00  0.00000000E+00  0.00000000E+00
  0.00000000E+00  0.00000000E+00  0.00000000E+00
  0.00000000E+00  0.00000000E+00  0.00000000E+00
  0.00000000E+00  0.00000000E+00  0.00000000E+00
  0.00000000E+00  0.00000000E+00  0.00000000E+00
  0.00000000E+00  0.00000000E+00  0.00000000E+00
  0.00000000E+00  0.00000000E+00  0.00000000E+00
  0.00000000E+00  0.00000000E+00  0.00000000E+00
  0.00000000E+00  0.00000000E+00  0.00000000E+00
  0.00000000E+00  0.00000000E+00  0.00000000E+00
  0.00000000E+00  0.00000000E+00  0.00000000E+00
  0.00000000E+00  0.00000000E+00  0.00000000E+00
  0.00000000E+00  0.00000000E+00  0.00000000E+00
  0.00000000E+00  0.00000000E+00  0.00000000E+00
  0.00000000E+00  0.00000000E+00  0.00000000E+00
  0.00000000E+00  0.00000000E+00  0.00000000E+00
  0.00000000E+00  0.00000000E+00  0.00000000E+00
  0.00000000E+00  0.00000000E+00  0.00000000E+00
  0.00000000E+00  0.00000000E+00  0.00000000E+00
  0.00000000E+00  0.00000000E+00  0.00000000E+00
  0.00000000E+00  0.00000000E+00  0.00000000E+00
  0.00000000E+00  0.00000000E+00  0.00000000E+00
  0.00000000E+00  0.00000000E+00  0.00000000E+00
  0.00000000E+00  0.00000000E+00  0.00000000E+00
  0.00000000E+00  0.00000000E+00  0.00000000E+00
  0.00000000E+00  0.00000000E+00  0.00000000E+00
  0.00000000E+00  0.00000000E+00  0.00000000E+00
  0.00000000E+00  0.00000000E+00  0.00000000E+00
  0.00000000E+00  0.00000000E+00  0.00000000E+00
  0.00000000E+00  0.00000000E+00  0.00000000E+00
  0.00000000E+00  0.00000000E+00  0.00000000E+00
  0.00000000E+00  0.00000000E+00  0.00000000E+00
  0.00000000E+00  0.00000000E+00  0.00000000E+00
  0.00000000E+00  0.00000000E+00  0.00000000E+00
  0.00000000E+00  0.00000000E+00  0.00000000E+00
  0.00000000E+00  0.00000000E+00  0.00000000E+00
  0.00000000E+00  0.00000000E+00  0.00000000E+00
  0.00000000E+00  0.00000000E+00  0.00000000E+00
  0.00000000E+00  0.00000000E+00  0.00000000E+00
  0.00000000E+00  0.00000000E+00  0.00000000E+00
  0.00000000E+00  0.00000000E+00  0.00000000E+00
  0.00000000E+00  0.00000000E+00  0.00000000E+00
  0.00000000E+00  0.00000000E+00  0.00000000E+00
  0.00000000E+00  0.00000000E+00  0.00000000E+00
  0.00000000E+00  0.00000000E+00  0.00000000E+00
  0.00000000E+00  0.00000000E+00  0.00000000E+00
  0.00000000E+00  0.00000000E+00  0.00000000E+00
  0.00000000E+00  0.00000000E+00  0.00000000E+00
  0.00000000E+00  0.00000000E+00  0.00000000E+00
  0.00000000E+00  0.00000000E+00  0.00000000E+00
  0.00000000E+00  0.00000000E+00  0.00000000E+00
  0.00000000E+00  0.00000000E+00  0.00000000E+00
  0.00000000E+00  0.00000000E+00  0.00000000E+00
  0.00000000E+00  0.00000000E+00  0.00000000E+00
  0.00000000E+00  0.00000000E+00  0.00000000E+00
  0.00000000E+00  0.00000000E+00  0.00000000E+00
  0.00000000E+00  0.00000000E+00  0.00000000E+00
  0.00000000E+00  0.00000000E+00  0.00000000E+00
  0.00000000E+00  0.00000000E+00  0.00000000E+00
  0.00000000E+00  0.00000000E+00  0.00000000E+00
  0.00000000E+00  0.00000000E+00  0.00000000E+00
  0.00000000E+00  0.00000000E+00  0.00000000E+00
  0.00000000E+00  0.00000000E+00  0.00000000E+00
  0.00000000E+00  0.00000000E+00  0.00000000E+00
  0.00000000E+00  0.00000000E+00  0.00000000E+00
  0.00000000E+00  0.00000000E+00  0.00000000E+00
  0.00000000E+00  0.00000000E+00  0.00000000E+00
  0.00000000E+00  0.00000000E+00  0.00000000E+00
  0.00000000E+00  0.00000000E+00  0.00000000E+00
  0.00000000E+00  0.00000000E+00  0.00000000E+00
  0.00000000E+00  0.00000000E+00  0.00000000E+00
  0.00000000E+00  0.00000000E+00  0.00000000E+00
  0.00000000E+00  0.00000000E+00  0.00000000E+00
  0.00000000E+00  0.00000000E+00  0.00000000E+00
  0.00000000E+00  0.00000000E+00  0.00000000E+00
  0.00000000E+00  0.00000000E+00  0.00000000E+00
  0.00000000E+00  0.00000000E+00  0.00000000E+00
  0.00000000E+00  0.00000000E+00  0.00000000E+00
  0.00000000E+00  0.00000000E+00  0.00000000E+00
  0.00000000E+00  0.00000000E+00  0.00000000E+00
  0.00000000E+00  0.00000000E+00  0.00000000E+00
  0.00000000E+00  0.00000000E+00  0.00000000E+00
  0.00000000E+00  0.00000000E+00  0.00000000E+00
  0.00000000E+00  0.00000000E+00  0.00000000E+00
  0.00000000E+00  0.00000000E+00  0.00000000E+00
  0.00000000E+00  0.00000000E+00  0.00000000E+00
  0.00000000E+00  0.00000000E+00  0.00000000E+00
  0.00000000E+00  0.00000000E+00  0.00000000E+00
  0.00000000E+00  0.00000000E+00  0.00000000E+00
  0.00000000E+00  0.00000000E+00  0.00000000E+00
  0.00000000E+00  0.00000000E+00  0.00000000E+00
  0.00000000E+00  0.00000000E+00  0.00000000E+00
  0.00000000E+00  0.00000000E+00  0.00000000E+00
  0.00000000E+00  0.00000000E+00  0.00000000E+00
  0.00000000E+00  0.00000000E+00  0.00000000E+00
  0.00000000E+00  0.00000000E+00  0.00000000E+00
  0.00000000E+00  0.00000000E+00  0.00000000E+00
  0.00000000E+00  0.00000000E+00  0.00000000E+00
  0.00000000E+00  0.00000000E+00  0.00000000E+00
  0.00000000E+00  0.00000000E+00  0.00000000E+00
  0.00000000E+00  0.00000000E+00  0.00000000E+00
  0.00000000E+00  0.00000000E+00  0.00000000E+00
  0.00000000E+00  0.00000000E+00  0.00000000E+00
  0.00000000E+00  0.00000000E+00  0.00000000E+00
  0.00000000E+00  0.00000000E+00  0.00000000E+00
  0.00000000E+00  0.00000000E+00  0.00000000E+00
  0.00000000E+00  0.00000000E+00  0.00000000E+00
  0.00000000E+00  0.00000000E+00  0.00000000E+00
  0.00000000E+00  0.00000000E+00  0.00000000E+00
  0.00000000E+00  0.00000000E+00  0.00000000E+00
  0.00000000E+00  0.00000000E+00  0.00000000E+00
  0.00000000E+00  0.00000000E+00  0.00000000E+00
  0.00000000E+00  0.00000000E+00  0.00000000E+00
  0.00000000E+00  0.00000000E+00  0.00000000E+00
  0.00000000E+00  0.00000000E+00  0.00000000E+00
  0.00000000E+00  0.00000000E+00  0.00000000E+00
  0.00000000E+00  0.00000000E+00  0.00000000E+00
  0.00000000E+00  0.00000000E+00  0.00000000E+00
  0.00000000E+00  0.00000000E+00  0.00000000E+00
  0.00000000E+00  0.00000000E+00  0.00000000E+00
  0.00000000E+00  0.00000000E+00  0.00000000E+00
  0.00000000E+00  0.00000000E+00  0.00000000E+00
  0.00000000E+00  0.00000000E+00  0.00000000E+00
  0.00000000E+00  0.00000000E+00  0.00000000E+00
  0.00000000E+00  0.00000000E+00  0.00000000E+00
  0.00000000E+00  0.00000000E+00  0.00000000E+00
  0.00000000E+00  0.00000000E+00  0.00000000E+00
  0.00000000E+00  0.00000000E+00  0.00000000E+00
  0.00000000E+00  0.00000000E+00  0.00000000E+00
  0.00000000E+00  0.00000000E+00  0.00000000E+00
  0.00000000E+00  0.00000000E+00  0.00000000E+00
  0.00000000E+00  0.00000000E+00  0.00000000E+00
  0.00000000E+00  0.00000000E+00  0.00000000E+00
