supercell of 100% icsd_608626.cif, 0% i 
   1.00000000000000     
    -9.3310253663286495   -0.0023998084027713   -0.0002455326724439
    -4.6634336064358353    8.0800084654374551   -0.0013007473731577
    -0.0002632870768210    0.0014607661532898   -9.9905025701907739
   Al   Ge   Be   N 
    30     3     3    36
Direct
  0.1148259406928034  0.0924257928943817  0.2948272169187689
  0.2203156168577607  0.2077104340639835  0.0450419323633682
  0.8901579163850570  0.2081362149667569  0.5469843022335539
  0.4459358696366849  0.0911094218476691  0.3029562555037302
  0.5550801471346176  0.2119417364465903  0.0479117154124893
  0.1149486365309897  0.0921509603279915  0.7930344701990251
  0.2250929105527035  0.2065533251624245  0.5459113818366461
  0.7756381630695870  0.0932614828048557  0.2950344973361112
  0.8876817921158846  0.2060445891673410  0.0469944523279153
  0.4430098483188232  0.0928964136138788  0.7881069438011110
  0.5468868850735547  0.2100050187424998  0.5451045518282385
  0.1157315682002888  0.4280915436145989  0.2994177186223865
  0.2263667359820758  0.5386180271458514  0.0468690054076788
  0.7720861987212686  0.4330834344509356  0.7963925106889960
  0.8896184154566242  0.5409412501814259  0.5491015409429423
  0.4408776240884009  0.4300026903145522  0.2949791307347525
  0.1132224264889601  0.4293614061951558  0.7891031287042125
  0.8901052023419780  0.5373958340321749  0.0441764965407572
  0.4413250885268738  0.4340705892008785  0.7927075286413441
  0.5513312735413507  0.5425239253759386  0.5501528123874877
  0.1137120051424390  0.7572915568343817  0.3000385234372871
  0.2238350494300789  0.8687402641541695  0.0449144421264336
  0.7759827827358805  0.7594765042442475  0.7880961535226234
  0.8921651852997172  0.8646086967236428  0.5453918468127696
  0.4454568221353412  0.7629926279290231  0.2983710336322503
  0.1164324053488883  0.7560071033582716  0.7887461997510954
  0.2268040471786534  0.8676757711978809  0.5464148824925275
  0.7727461454573188  0.7651112917561207  0.3028385795616302
  0.8912107963091955  0.8720714735115465  0.0476285153223159
  0.4455381090495933  0.7574917676995625  0.7925417677859983
  0.7769409437968378  0.0944276387071739  0.7931247329917781
  0.7739478623101874  0.4306082757730465  0.2909094176033094
  0.5543057262732560  0.8689467113753295  0.0464811203915545
  0.5520887929101761  0.5374670342606152  0.0401129526394826
  0.2229735613921733  0.5385152012627117  0.5431935011200153
  0.5544277566789901  0.8717206180603938  0.5437223320798026
  0.2218434630329824  0.2053209574052133  0.3540695106109695
  0.1109890170581522  0.0940909993840009  0.1036575232462980
  0.8881346508247319  0.2047186616934908  0.8546670509548804
  0.7775798817172301  0.0945933834683359  0.6043767958674024
  0.5559299620876672  0.2063145657446839  0.3539852634418921
  0.4460724622697469  0.0927214277215569  0.1059975090381187
  0.2228283552089820  0.2060068066126846  0.8543349447633730
  0.1109733878404384  0.0943184227186933  0.6036618694513223
  0.8872408933981646  0.2078717928760341  0.3535708350352138
  0.7778961366204129  0.0940287152291148  0.1044042226376334
  0.5566055154589193  0.2041783201665908  0.8543995801116040
  0.4485015850222425  0.0866744187791255  0.6013048262892084
  0.2233213022468590  0.5386985161026416  0.3598296010274780
  0.1111624417631205  0.4286062271681956  0.1067194615375655
  0.8894873165045070  0.5391878930260319  0.8544641617060122
  0.7773539271755681  0.4279451066604665  0.6059867933921552
  0.5574710548741564  0.5379641911918895  0.3565044247498079
  0.4484038056049826  0.4322486002388146  0.1040132468184964
  0.2215259461137293  0.5388302781521830  0.8572694651866044
  0.1140254774549589  0.4310072131496980  0.6005384404586636
  0.8873841051865767  0.5374531105023976  0.3540038844732365
  0.7717945963246677  0.4309516146492953  0.1023280625578664
  0.5549275029896421  0.5390979640570848  0.8606779145869723
  0.4382404435366212  0.4314230834721471  0.6035303627343609
  0.2225423922892489  0.8721109479129652  0.3541743806742588
  0.1107512737163958  0.7610189751364871  0.1068112928374347
  0.8880046326859627  0.8729631464384866  0.8541142877449133
  0.7702136285751990  0.7648257158930818  0.6012062467223984
  0.5548800696794771  0.8715794358451348  0.3592608468940739
  0.4486260449263426  0.7548875030662643  0.1045451762763392
  0.2221973224873182  0.8716104430437071  0.8544050548515116
  0.1143867160488981  0.7551810247382988  0.6012093779688072
  0.8888310310080669  0.8729660742984322  0.3546075098135688
  0.7764474700123003  0.7617597233023119  0.1067774884090511
  0.5558358957136207  0.8722807054829786  0.8574790706234339
  0.4487840413771025  0.7650874072735050  0.6037799228046126
 
  0.00000000E+00  0.00000000E+00  0.00000000E+00
  0.00000000E+00  0.00000000E+00  0.00000000E+00
  0.00000000E+00  0.00000000E+00  0.00000000E+00
  0.00000000E+00  0.00000000E+00  0.00000000E+00
  0.00000000E+00  0.00000000E+00  0.00000000E+00
  0.00000000E+00  0.00000000E+00  0.00000000E+00
  0.00000000E+00  0.00000000E+00  0.00000000E+00
  0.00000000E+00  0.00000000E+00  0.00000000E+00
  0.00000000E+00  0.00000000E+00  0.00000000E+00
  0.00000000E+00  0.00000000E+00  0.00000000E+00
  0.00000000E+00  0.00000000E+00  0.00000000E+00
  0.00000000E+00  0.00000000E+00  0.00000000E+00
  0.00000000E+00  0.00000000E+00  0.00000000E+00
  0.00000000E+00  0.00000000E+00  0.00000000E+00
  0.00000000E+00  0.00000000E+00  0.00000000E+00
  0.00000000E+00  0.00000000E+00  0.00000000E+00
  0.00000000E+00  0.00000000E+00  0.00000000E+00
  0.00000000E+00  0.00000000E+00  0.00000000E+00
  0.00000000E+00  0.00000000E+00  0.00000000E+00
  0.00000000E+00  0.00000000E+00  0.00000000E+00
  0.00000000E+00  0.00000000E+00  0.00000000E+00
  0.00000000E+00  0.00000000E+00  0.00000000E+00
  0.00000000E+00  0.00000000E+00  0.00000000E+00
  0.00000000E+00  0.00000000E+00  0.00000000E+00
  0.00000000E+00  0.00000000E+00  0.00000000E+00
  0.00000000E+00  0.00000000E+00  0.00000000E+00
  0.00000000E+00  0.00000000E+00  0.00000000E+00
  0.00000000E+00  0.00000000E+00  0.00000000E+00
  0.00000000E+00  0.00000000E+00  0.00000000E+00
  0.00000000E+00  0.00000000E+00  0.00000000E+00
  0.00000000E+00  0.00000000E+00  0.00000000E+00
  0.00000000E+00  0.00000000E+00  0.00000000E+00
  0.00000000E+00  0.00000000E+00  0.00000000E+00
  0.00000000E+00  0.00000000E+00  0.00000000E+00
  0.00000000E+00  0.00000000E+00  0.00000000E+00
  0.00000000E+00  0.00000000E+00  0.00000000E+00
  0.00000000E+00  0.00000000E+00  0.00000000E+00
  0.00000000E+00  0.00000000E+00  0.00000000E+00
  0.00000000E+00  0.00000000E+00  0.00000000E+00
  0.00000000E+00  0.00000000E+00  0.00000000E+00
  0.00000000E+00  0.00000000E+00  0.00000000E+00
  0.00000000E+00  0.00000000E+00  0.00000000E+00
  0.00000000E+00  0.00000000E+00  0.00000000E+00
  0.00000000E+00  0.00000000E+00  0.00000000E+00
  0.00000000E+00  0.00000000E+00  0.00000000E+00
  0.00000000E+00  0.00000000E+00  0.00000000E+00
  0.00000000E+00  0.00000000E+00  0.00000000E+00
  0.00000000E+00  0.00000000E+00  0.00000000E+00
  0.00000000E+00  0.00000000E+00  0.00000000E+00
  0.00000000E+00  0.00000000E+00  0.00000000E+00
  0.00000000E+00  0.00000000E+00  0.00000000E+00
  0.00000000E+00  0.00000000E+00  0.00000000E+00
  0.00000000E+00  0.00000000E+00  0.00000000E+00
  0.00000000E+00  0.00000000E+00  0.00000000E+00
  0.00000000E+00  0.00000000E+00  0.00000000E+00
  0.00000000E+00  0.00000000E+00  0.00000000E+00
  0.00000000E+00  0.00000000E+00  0.00000000E+00
  0.00000000E+00  0.00000000E+00  0.00000000E+00
  0.00000000E+00  0.00000000E+00  0.00000000E+00
  0.00000000E+00  0.00000000E+00  0.00000000E+00
  0.00000000E+00  0.00000000E+00  0.00000000E+00
  0.00000000E+00  0.00000000E+00  0.00000000E+00
  0.00000000E+00  0.00000000E+00  0.00000000E+00
  0.00000000E+00  0.00000000E+00  0.00000000E+00
  0.00000000E+00  0.00000000E+00  0.00000000E+00
  0.00000000E+00  0.00000000E+00  0.00000000E+00
  0.00000000E+00  0.00000000E+00  0.00000000E+00
  0.00000000E+00  0.00000000E+00  0.00000000E+00
  0.00000000E+00  0.00000000E+00  0.00000000E+00
  0.00000000E+00  0.00000000E+00  0.00000000E+00
  0.00000000E+00  0.00000000E+00  0.00000000E+00
  0.00000000E+00  0.00000000E+00  0.00000000E+00
