supercell of 100% icsd_608626.cif, 0% i 
   1.00000000000000     
    -9.3363883923855653    0.0023630663211808    0.0035577566617924
    -4.6702376152852807    8.0927275803804779    0.0017292338197498
     0.0038065514642545    0.0000630707814963   -9.9838753327613112
   Al   Be   Ge   N 
    30     3     3    36
Direct
  0.1138650690350858  0.0957294438869809  0.2936326338194988
  0.2293830388947740  0.2044902575770067  0.0513920921400413
  0.7728226980730781  0.0971818977782561  0.8023645291092194
  0.8890431297462840  0.2064142556455764  0.5426186874098349
  0.1100329391364028  0.0984208553391568  0.7963359657709930
  0.2200968836693633  0.2071088132927486  0.5383993409670325
  0.7689076912409121  0.0991042819043813  0.2884275104582770
  0.8853651947374175  0.2049548910950563  0.0471902263704749
  0.4446512963744453  0.0995569323963181  0.8060060680054235
  0.1192213626032910  0.4240738461192564  0.2941362094592748
  0.2301194109066813  0.5324560103495273  0.0513589585326457
  0.7799462193616407  0.4264190137461696  0.7956752293116764
  0.8912014732846600  0.5352458407052723  0.5423853759311399
  0.5536500501376196  0.5323447022971024  0.0557358773274785
  0.1127734018211441  0.4271825437707832  0.7971387434555126
  0.2228692999818307  0.5379574428412965  0.5385696356604726
  0.7754601031646402  0.4273013030331896  0.2943008296950183
  0.8896843389268909  0.5380239355929817  0.0466724002298662
  0.4444542223255183  0.4225123502548342  0.8034764750448105
  0.5577778767749493  0.5326159315594481  0.5370547001695911
  0.1140639727811887  0.7569112396645394  0.2938322093675652
  0.2219526398401825  0.8725042999363026  0.0502938487679856
  0.7800289909283791  0.7601429688339039  0.7990337822579932
  0.8905577834030041  0.8728996922380361  0.5421165379598349
  0.4439732718455289  0.7574352972694172  0.2937560078841699
  0.5530023886786068  0.8809586549547461  0.0555370191815072
  0.1105377955855360  0.7579028859779626  0.7967904814238054
  0.2165276371864948  0.8752393301648667  0.5419062493490543
  0.7795234828049828  0.7606825056281323  0.2934715494320415
  0.8855690668254397  0.8767186492609511  0.0474471816947002
  0.4383829700056552  0.1090859195878693  0.2848770790677833
  0.5518839826800459  0.2080138448880788  0.0531856444882024
  0.4420956575542974  0.4244699027599097  0.2861283557446797
  0.5539372432851266  0.2086318064742798  0.5346339517022471
  0.4458250108365931  0.7604233448279203  0.8001547392756407
  0.5567905024679121  0.8741679163177167  0.5371867916737685
  0.2300469549903710  0.2014758124053913  0.3514730844479459
  0.1108359663377243  0.0949926674904233  0.1028461524783921
  0.8889063001064841  0.2054444423060886  0.8539242477501148
  0.7741280546752378  0.0961598009532025  0.6054531756915580
  0.5465818706234131  0.2095222839896351  0.3508324136921388
  0.4486503269131887  0.0995116096907367  0.1090807766981641
  0.2224081297450127  0.2054474595871127  0.8561597615388550
  0.1115978708433971  0.0945416666344343  0.6049527915474826
  0.8886869290053525  0.2040993469287855  0.3537003177830798
  0.7709466642620839  0.0978799509748995  0.1008271771068081
  0.5556978244374378  0.2055651955669973  0.8608437143150525
  0.4459377762725651  0.0934302745745867  0.6078780459139281
  0.2293292932585445  0.5359574818982793  0.3514354463768186
  0.1101851243347340  0.4283077041540935  0.1038836899804139
  0.8887998404625321  0.5390020894753462  0.8536171328154154
  0.7764755656091396  0.4283985834804938  0.6045764851111173
  0.5525547835710682  0.5357968183529138  0.3511986298718384
  0.4489425029796763  0.4182879297818189  0.1084493034284577
  0.2223757600012704  0.5389735104719549  0.8564163489657943
  0.1125118198168806  0.4272865674892259  0.6048200157744361
  0.8907434640114005  0.5376553838596578  0.3537560063692098
  0.7786698146670972  0.4275745679303924  0.1036593827381864
  0.5547924513974252  0.5404661344039425  0.8561553733885461
  0.4451217369268932  0.4255868352786152  0.6081655259516765
  0.2222817085216420  0.8723108701233926  0.3543756182782332
  0.1108215338162069  0.7609831014113624  0.1029873578370726
  0.8889661452543507  0.8724588354065475  0.8539364152636253
  0.7754794517649231  0.7624414350812145  0.6050983976258024
  0.5538643594405670  0.8745212989933790  0.3526395793584598
  0.4454161507505319  0.7610264713398749  0.1038090404317700
  0.2240879875930517  0.8714267396755417  0.8543096598461943
  0.1118444715371396  0.7602598993769618  0.6053275986792741
  0.8882199901427725  0.8737415932754971  0.3538166411582395
  0.7780542258815402  0.7606501119648641  0.1038407080190993
  0.5549174254213582  0.8717038818445175  0.8566435370015242
  0.4451416277214193  0.7618288358578909  0.6058875286259564
 
  0.00000000E+00  0.00000000E+00  0.00000000E+00
  0.00000000E+00  0.00000000E+00  0.00000000E+00
  0.00000000E+00  0.00000000E+00  0.00000000E+00
  0.00000000E+00  0.00000000E+00  0.00000000E+00
  0.00000000E+00  0.00000000E+00  0.00000000E+00
  0.00000000E+00  0.00000000E+00  0.00000000E+00
  0.00000000E+00  0.00000000E+00  0.00000000E+00
  0.00000000E+00  0.00000000E+00  0.00000000E+00
  0.00000000E+00  0.00000000E+00  0.00000000E+00
  0.00000000E+00  0.00000000E+00  0.00000000E+00
  0.00000000E+00  0.00000000E+00  0.00000000E+00
  0.00000000E+00  0.00000000E+00  0.00000000E+00
  0.00000000E+00  0.00000000E+00  0.00000000E+00
  0.00000000E+00  0.00000000E+00  0.00000000E+00
  0.00000000E+00  0.00000000E+00  0.00000000E+00
  0.00000000E+00  0.00000000E+00  0.00000000E+00
  0.00000000E+00  0.00000000E+00  0.00000000E+00
  0.00000000E+00  0.00000000E+00  0.00000000E+00
  0.00000000E+00  0.00000000E+00  0.00000000E+00
  0.00000000E+00  0.00000000E+00  0.00000000E+00
  0.00000000E+00  0.00000000E+00  0.00000000E+00
  0.00000000E+00  0.00000000E+00  0.00000000E+00
  0.00000000E+00  0.00000000E+00  0.00000000E+00
  0.00000000E+00  0.00000000E+00  0.00000000E+00
  0.00000000E+00  0.00000000E+00  0.00000000E+00
  0.00000000E+00  0.00000000E+00  0.00000000E+00
  0.00000000E+00  0.00000000E+00  0.00000000E+00
  0.00000000E+00  0.00000000E+00  0.00000000E+00
  0.00000000E+00  0.00000000E+00  0.00000000E+00
  0.00000000E+00  0.00000000E+00  0.00000000E+00
  0.00000000E+00  0.00000000E+00  0.00000000E+00
  0.00000000E+00  0.00000000E+00  0.00000000E+00
  0.00000000E+00  0.00000000E+00  0.00000000E+00
  0.00000000E+00  0.00000000E+00  0.00000000E+00
  0.00000000E+00  0.00000000E+00  0.00000000E+00
  0.00000000E+00  0.00000000E+00  0.00000000E+00
  0.00000000E+00  0.00000000E+00  0.00000000E+00
  0.00000000E+00  0.00000000E+00  0.00000000E+00
  0.00000000E+00  0.00000000E+00  0.00000000E+00
  0.00000000E+00  0.00000000E+00  0.00000000E+00
  0.00000000E+00  0.00000000E+00  0.00000000E+00
  0.00000000E+00  0.00000000E+00  0.00000000E+00
  0.00000000E+00  0.00000000E+00  0.00000000E+00
  0.00000000E+00  0.00000000E+00  0.00000000E+00
  0.00000000E+00  0.00000000E+00  0.00000000E+00
  0.00000000E+00  0.00000000E+00  0.00000000E+00
  0.00000000E+00  0.00000000E+00  0.00000000E+00
  0.00000000E+00  0.00000000E+00  0.00000000E+00
  0.00000000E+00  0.00000000E+00  0.00000000E+00
  0.00000000E+00  0.00000000E+00  0.00000000E+00
  0.00000000E+00  0.00000000E+00  0.00000000E+00
  0.00000000E+00  0.00000000E+00  0.00000000E+00
  0.00000000E+00  0.00000000E+00  0.00000000E+00
  0.00000000E+00  0.00000000E+00  0.00000000E+00
  0.00000000E+00  0.00000000E+00  0.00000000E+00
  0.00000000E+00  0.00000000E+00  0.00000000E+00
  0.00000000E+00  0.00000000E+00  0.00000000E+00
  0.00000000E+00  0.00000000E+00  0.00000000E+00
  0.00000000E+00  0.00000000E+00  0.00000000E+00
  0.00000000E+00  0.00000000E+00  0.00000000E+00
  0.00000000E+00  0.00000000E+00  0.00000000E+00
  0.00000000E+00  0.00000000E+00  0.00000000E+00
  0.00000000E+00  0.00000000E+00  0.00000000E+00
  0.00000000E+00  0.00000000E+00  0.00000000E+00
  0.00000000E+00  0.00000000E+00  0.00000000E+00
  0.00000000E+00  0.00000000E+00  0.00000000E+00
  0.00000000E+00  0.00000000E+00  0.00000000E+00
  0.00000000E+00  0.00000000E+00  0.00000000E+00
  0.00000000E+00  0.00000000E+00  0.00000000E+00
  0.00000000E+00  0.00000000E+00  0.00000000E+00
  0.00000000E+00  0.00000000E+00  0.00000000E+00
  0.00000000E+00  0.00000000E+00  0.00000000E+00
