supercell of 100% icsd_608626.cif, 0% i 
   1.00000000000000     
    -9.3380608078246663   -0.0031221870900584   -0.0008126618423332
    -4.6663237332964673    8.0834603025101206   -0.0032228299019405
    -0.0008675154640727    0.0034851665535079   -9.9942885786871916
   Al   Be   Ge   N 
    30     3     3    36
Direct
  0.1094492203374671  0.0939297723806476  0.2987063199268150
  0.2223833189943889  0.2071480447360869  0.0463534978452742
  0.8867011362881527  0.1994024949127891  0.5498127749658934
  0.4439692034565041  0.0981153243675053  0.2949099131013071
  0.5588940186573694  0.2046652957674553  0.0441172706463320
  0.1038992603014037  0.0923012190146295  0.7935011820270361
  0.2166544189195747  0.2082141265430053  0.5440293593990830
  0.7801092360009108  0.0906017729665791  0.2999483437512112
  0.8836703885567445  0.2049303594857221  0.0399373453157494
  0.5674524702923662  0.2024408760047578  0.5488506389616035
  0.1109269928068386  0.4296287590138164  0.2958728978106677
  0.2215900884989281  0.5402211845957225  0.0397057272117181
  0.7787041113032274  0.4237069192399758  0.7942529839203729
  0.8894435448699483  0.5389671452368106  0.5451267349111220
  0.4430402871869035  0.4274060563842141  0.2965712089165393
  0.5572810458460538  0.5350307372863128  0.0447404804343137
  0.1092736186572125  0.4352481987665158  0.7949202174116365
  0.2164454888573744  0.5468614914295813  0.5497400379378874
  0.7790799705788771  0.4261270899031118  0.2958971039862064
  0.8881361201894435  0.5399432484290188  0.0438728772495054
  0.4401661257618770  0.4311837443392434  0.7947420684307573
  0.5572369386339631  0.5345627254235339  0.5449216292149899
  0.1070962449553150  0.7629606227736190  0.3032043002319540
  0.7886220257629688  0.7659151169008922  0.7929206799166835
  0.4415953007689737  0.7601264829078076  0.2977135620109124
  0.5588369727079368  0.8727476373765342  0.0461540917715766
  0.2120990585061833  0.8715990275578562  0.5486653176159919
  0.7845281346771458  0.7617776054398320  0.2978410772128370
  0.8879485308801947  0.8763822100796048  0.0370276684869495
  0.4429904363258999  0.7587448337326492  0.7958251708438269
  0.7953817161465722  0.0790517345915163  0.7848764162013708
  0.8934317971110346  0.8779523713266073  0.5479658459983625
  0.0988107494271446  0.7643945062924757  0.7864650674190869
  0.4470727485852422  0.0963612225895503  0.7983171438549732
  0.2195647730050112  0.8709228706122545  0.0401527896995262
  0.5619018708691357  0.8679149451227275  0.5453843166997530
  0.2225517952411593  0.2051760130284919  0.3538533847925862
  0.1110960436549746  0.0925308613356606  0.1041673062608979
  0.8852820264844823  0.2023635113242719  0.8518898697175601
  0.7835251299067210  0.0842286851273713  0.6082368498946451
  0.5553466099166968  0.2052865906976109  0.3570781135803358
  0.4446818598532332  0.0939468777554353  0.1045470857913671
  0.2224361491477467  0.2044522430454023  0.8538437931690765
  0.1124389382529145  0.0938694147761652  0.6047006413805391
  0.8891040529464718  0.2055846597027227  0.3564764083348066
  0.7775641495971612  0.0941476758263633  0.1079598433180493
  0.5569665160755122  0.2044604891786221  0.8529101822200076
  0.4446268857223075  0.0928046282499224  0.6053276525416322
  0.2220134519534582  0.5389491024012258  0.3562251788575850
  0.1107309219131309  0.4284877439180264  0.1042344639092079
  0.8868329725952862  0.5408636562893676  0.8533989363570100
  0.7779622825348937  0.4272265502513122  0.6035494681054772
  0.5555623294799972  0.5390306441652584  0.3541513242272387
  0.4435701685181073  0.4277603832796970  0.1045450233678196
  0.2180213051179791  0.5467790202150908  0.8517214594167868
  0.1110874706437954  0.4269875143260791  0.6048870270676190
  0.8887455592694451  0.5388349181665433  0.3543656702417763
  0.7785065512704321  0.4270453005929511  0.1044062926887008
  0.5557123315569967  0.5390307988367837  0.8550820367036778
  0.4437322019388219  0.4273629544000528  0.6043918408692832
  0.2224496004732543  0.8724131802163271  0.3565317811583384
  0.1114873151181186  0.7625463164674002  0.1079692683363476
  0.8948696668183587  0.8767296267674638  0.8510189666156123
  0.7788182212303596  0.7636286745092633  0.6022620562086516
  0.5551835315403366  0.8726365528287445  0.3554560840442065
  0.4428888639029296  0.7624611098510528  0.1044947595295724
  0.2213601928224449  0.8698022177804532  0.8533943829567221
  0.1021529434620803  0.7651712600952436  0.6086544863875929
  0.8889877687559462  0.8726640185081891  0.3618748324679615
  0.7785645588141534  0.7620041970804934  0.1056341014162356
  0.5565343037924038  0.8729309412281623  0.8536268798143283
  0.4442179649536158  0.7623138942458425  0.6040884869108254
 
  0.00000000E+00  0.00000000E+00  0.00000000E+00
  0.00000000E+00  0.00000000E+00  0.00000000E+00
  0.00000000E+00  0.00000000E+00  0.00000000E+00
  0.00000000E+00  0.00000000E+00  0.00000000E+00
  0.00000000E+00  0.00000000E+00  0.00000000E+00
  0.00000000E+00  0.00000000E+00  0.00000000E+00
  0.00000000E+00  0.00000000E+00  0.00000000E+00
  0.00000000E+00  0.00000000E+00  0.00000000E+00
  0.00000000E+00  0.00000000E+00  0.00000000E+00
  0.00000000E+00  0.00000000E+00  0.00000000E+00
  0.00000000E+00  0.00000000E+00  0.00000000E+00
  0.00000000E+00  0.00000000E+00  0.00000000E+00
  0.00000000E+00  0.00000000E+00  0.00000000E+00
  0.00000000E+00  0.00000000E+00  0.00000000E+00
  0.00000000E+00  0.00000000E+00  0.00000000E+00
  0.00000000E+00  0.00000000E+00  0.00000000E+00
  0.00000000E+00  0.00000000E+00  0.00000000E+00
  0.00000000E+00  0.00000000E+00  0.00000000E+00
  0.00000000E+00  0.00000000E+00  0.00000000E+00
  0.00000000E+00  0.00000000E+00  0.00000000E+00
  0.00000000E+00  0.00000000E+00  0.00000000E+00
  0.00000000E+00  0.00000000E+00  0.00000000E+00
  0.00000000E+00  0.00000000E+00  0.00000000E+00
  0.00000000E+00  0.00000000E+00  0.00000000E+00
  0.00000000E+00  0.00000000E+00  0.00000000E+00
  0.00000000E+00  0.00000000E+00  0.00000000E+00
  0.00000000E+00  0.00000000E+00  0.00000000E+00
  0.00000000E+00  0.00000000E+00  0.00000000E+00
  0.00000000E+00  0.00000000E+00  0.00000000E+00
  0.00000000E+00  0.00000000E+00  0.00000000E+00
  0.00000000E+00  0.00000000E+00  0.00000000E+00
  0.00000000E+00  0.00000000E+00  0.00000000E+00
  0.00000000E+00  0.00000000E+00  0.00000000E+00
  0.00000000E+00  0.00000000E+00  0.00000000E+00
  0.00000000E+00  0.00000000E+00  0.00000000E+00
  0.00000000E+00  0.00000000E+00  0.00000000E+00
  0.00000000E+00  0.00000000E+00  0.00000000E+00
  0.00000000E+00  0.00000000E+00  0.00000000E+00
  0.00000000E+00  0.00000000E+00  0.00000000E+00
  0.00000000E+00  0.00000000E+00  0.00000000E+00
  0.00000000E+00  0.00000000E+00  0.00000000E+00
  0.00000000E+00  0.00000000E+00  0.00000000E+00
  0.00000000E+00  0.00000000E+00  0.00000000E+00
  0.00000000E+00  0.00000000E+00  0.00000000E+00
  0.00000000E+00  0.00000000E+00  0.00000000E+00
  0.00000000E+00  0.00000000E+00  0.00000000E+00
  0.00000000E+00  0.00000000E+00  0.00000000E+00
  0.00000000E+00  0.00000000E+00  0.00000000E+00
  0.00000000E+00  0.00000000E+00  0.00000000E+00
  0.00000000E+00  0.00000000E+00  0.00000000E+00
  0.00000000E+00  0.00000000E+00  0.00000000E+00
  0.00000000E+00  0.00000000E+00  0.00000000E+00
  0.00000000E+00  0.00000000E+00  0.00000000E+00
  0.00000000E+00  0.00000000E+00  0.00000000E+00
  0.00000000E+00  0.00000000E+00  0.00000000E+00
  0.00000000E+00  0.00000000E+00  0.00000000E+00
  0.00000000E+00  0.00000000E+00  0.00000000E+00
  0.00000000E+00  0.00000000E+00  0.00000000E+00
  0.00000000E+00  0.00000000E+00  0.00000000E+00
  0.00000000E+00  0.00000000E+00  0.00000000E+00
  0.00000000E+00  0.00000000E+00  0.00000000E+00
  0.00000000E+00  0.00000000E+00  0.00000000E+00
  0.00000000E+00  0.00000000E+00  0.00000000E+00
  0.00000000E+00  0.00000000E+00  0.00000000E+00
  0.00000000E+00  0.00000000E+00  0.00000000E+00
  0.00000000E+00  0.00000000E+00  0.00000000E+00
  0.00000000E+00  0.00000000E+00  0.00000000E+00
  0.00000000E+00  0.00000000E+00  0.00000000E+00
  0.00000000E+00  0.00000000E+00  0.00000000E+00
  0.00000000E+00  0.00000000E+00  0.00000000E+00
  0.00000000E+00  0.00000000E+00  0.00000000E+00
  0.00000000E+00  0.00000000E+00  0.00000000E+00
