supercell of 100% icsd_608626.cif, 0% i 
   1.00000000000000     
    -9.3300419166040900   -0.0006771474753638   -0.0007006512695437
    -4.6644334498088282    8.0779658145785529    0.0004470360537887
    -0.0007502304789031   -0.0009912395143516   -9.9894197348213876
   Al   Ge   Be   N 
    30     3     3    36
Direct
  0.1116221971467226  0.0945926229450293  0.2901351045446035
  0.2171019282933884  0.2073442094260969  0.0410302660304680
  0.7815258145030910  0.0922204792183692  0.7887848525031487
  0.8871392402893221  0.2034937579008229  0.5446680664469810
  0.4432761155258547  0.0950064434071365  0.2981497289933088
  0.1131771176606549  0.0941151917398813  0.8021754367450384
  0.2208517286974185  0.2100213516538361  0.5483835360623459
  0.7798269221496810  0.0908906556954108  0.3022487398932938
  0.8940448017839202  0.2032054557278116  0.0452928046139931
  0.4373522014097659  0.0993193240728161  0.7938331798890133
  0.5589665291590364  0.2025962297087816  0.5448901693548791
  0.1111681662222566  0.4280774999896551  0.2963386620892834
  0.2170034558418479  0.5431776323333324  0.0407219887698176
  0.7799467543300125  0.4268745871381583  0.7948109898890934
  0.8936325552294448  0.5376407654291526  0.5472236596920865
  0.4429197874146098  0.4285410271646128  0.2982641890137074
  0.5538806065530366  0.5434419210705244  0.0443729019332721
  0.2178518418368753  0.5393183081881716  0.5485875338894388
  0.7784839217526311  0.4281114412219935  0.2948173850662457
  0.8914309203362336  0.5383855953171093  0.0445950897833427
  0.4383723718180335  0.4315473437745254  0.7938938473899455
  0.5566553973461126  0.5367738970117344  0.5447724444599018
  0.1086776584672577  0.7612515678834697  0.2937594120277112
  0.4438072781451723  0.7612354881567356  0.2903024352081758
  0.5548921541593259  0.8687633383781161  0.0473144789092004
  0.1136963212285238  0.7587616962734032  0.7979931740438246
  0.7803212458860784  0.7615964033005795  0.2982638878514265
  0.8945229403489421  0.8685376767800648  0.0490204525544300
  0.4393096966240293  0.7617853880536174  0.8013598637632811
  0.5575890221170852  0.8739430288616958  0.5441313405334753
  0.5565156845605586  0.2052926280818141  0.0446625214251384
  0.7829841339202162  0.7577807667011101  0.7912574948408135
  0.2177612299810150  0.8719928425670957  0.5465771299976936
  0.1156269057369599  0.4265370926878376  0.7911967041319201
  0.2211945487794225  0.8722804767006735  0.0424457582390829
  0.8883823241358044  0.8758521115497047  0.5404015952706658
  0.2218404735343995  0.2048681543510327  0.3561305715688903
  0.1156798957041829  0.0871743346749838  0.1015990347368785
  0.8878599703265451  0.2048765233323806  0.8545712086216071
  0.7813102106662484  0.0869596972655984  0.6009064906656718
  0.5550793702098318  0.2057116993326318  0.3540639666506920
  0.4448149957364009  0.0957758599482617  0.1039965118321504
  0.2181504417898594  0.2134812345586425  0.8521123118095986
  0.1117109185322462  0.0929254776906774  0.6066479571271515
  0.8901244690614618  0.2051923299617187  0.3538887484847848
  0.7762956489499047  0.0950214300906538  0.1064632092140130
  0.5571082803820104  0.2045513571267392  0.8547849062950377
  0.4447819326382145  0.0944091854948255  0.6046729446958423
  0.2220774548560982  0.5394204354580125  0.3563996272738805
  0.1118655301112952  0.4276008252265768  0.1064543468000991
  0.8937960644813714  0.5382586517402643  0.8523869408048768
  0.7783576065234783  0.4275463866185945  0.6042186795857276
  0.5549037011749149  0.5398022396593518  0.3538615866756061
  0.4447217705133610  0.4260504584007450  0.1041159435734897
  0.2180122156613038  0.5353987556681545  0.8513824111023283
  0.1109504580999001  0.4277595515893822  0.6106833113044630
  0.8888302630933822  0.5389032211158380  0.3561646905203801
  0.7779191312227454  0.4276556681367509  0.1033036169599626
  0.5559976301492853  0.5376551823699671  0.8538150562012916
  0.4447518053780541  0.4268576352510749  0.6038768111785942
  0.2222593767951366  0.8723339807285697  0.3573709812525578
  0.1156499587117139  0.7640677324548975  0.1036207318887676
  0.8873421825095988  0.8720919598563412  0.8568711191829479
  0.7812310301474383  0.7644003077779900  0.6029594821102222
  0.5550046291788533  0.8717975598603900  0.3541598411195253
  0.4369172958362526  0.7650659079611657  0.1016301123763270
  0.2205459991987055  0.8726193685027042  0.8595571839744807
  0.1042059654027554  0.7660428604792600  0.6046179574871786
  0.8900483773519099  0.8712475420578727  0.3602665056667718
  0.7778256428726138  0.7615035761520232  0.1056603885927885
  0.5580865444154313  0.8720768746849714  0.8538736425947491
  0.4424312393927323  0.7625897883101302  0.6062343442205673
 
  0.00000000E+00  0.00000000E+00  0.00000000E+00
  0.00000000E+00  0.00000000E+00  0.00000000E+00
  0.00000000E+00  0.00000000E+00  0.00000000E+00
  0.00000000E+00  0.00000000E+00  0.00000000E+00
  0.00000000E+00  0.00000000E+00  0.00000000E+00
  0.00000000E+00  0.00000000E+00  0.00000000E+00
  0.00000000E+00  0.00000000E+00  0.00000000E+00
  0.00000000E+00  0.00000000E+00  0.00000000E+00
  0.00000000E+00  0.00000000E+00  0.00000000E+00
  0.00000000E+00  0.00000000E+00  0.00000000E+00
  0.00000000E+00  0.00000000E+00  0.00000000E+00
  0.00000000E+00  0.00000000E+00  0.00000000E+00
  0.00000000E+00  0.00000000E+00  0.00000000E+00
  0.00000000E+00  0.00000000E+00  0.00000000E+00
  0.00000000E+00  0.00000000E+00  0.00000000E+00
  0.00000000E+00  0.00000000E+00  0.00000000E+00
  0.00000000E+00  0.00000000E+00  0.00000000E+00
  0.00000000E+00  0.00000000E+00  0.00000000E+00
  0.00000000E+00  0.00000000E+00  0.00000000E+00
  0.00000000E+00  0.00000000E+00  0.00000000E+00
  0.00000000E+00  0.00000000E+00  0.00000000E+00
  0.00000000E+00  0.00000000E+00  0.00000000E+00
  0.00000000E+00  0.00000000E+00  0.00000000E+00
  0.00000000E+00  0.00000000E+00  0.00000000E+00
  0.00000000E+00  0.00000000E+00  0.00000000E+00
  0.00000000E+00  0.00000000E+00  0.00000000E+00
  0.00000000E+00  0.00000000E+00  0.00000000E+00
  0.00000000E+00  0.00000000E+00  0.00000000E+00
  0.00000000E+00  0.00000000E+00  0.00000000E+00
  0.00000000E+00  0.00000000E+00  0.00000000E+00
  0.00000000E+00  0.00000000E+00  0.00000000E+00
  0.00000000E+00  0.00000000E+00  0.00000000E+00
  0.00000000E+00  0.00000000E+00  0.00000000E+00
  0.00000000E+00  0.00000000E+00  0.00000000E+00
  0.00000000E+00  0.00000000E+00  0.00000000E+00
  0.00000000E+00  0.00000000E+00  0.00000000E+00
  0.00000000E+00  0.00000000E+00  0.00000000E+00
  0.00000000E+00  0.00000000E+00  0.00000000E+00
  0.00000000E+00  0.00000000E+00  0.00000000E+00
  0.00000000E+00  0.00000000E+00  0.00000000E+00
  0.00000000E+00  0.00000000E+00  0.00000000E+00
  0.00000000E+00  0.00000000E+00  0.00000000E+00
  0.00000000E+00  0.00000000E+00  0.00000000E+00
  0.00000000E+00  0.00000000E+00  0.00000000E+00
  0.00000000E+00  0.00000000E+00  0.00000000E+00
  0.00000000E+00  0.00000000E+00  0.00000000E+00
  0.00000000E+00  0.00000000E+00  0.00000000E+00
  0.00000000E+00  0.00000000E+00  0.00000000E+00
  0.00000000E+00  0.00000000E+00  0.00000000E+00
  0.00000000E+00  0.00000000E+00  0.00000000E+00
  0.00000000E+00  0.00000000E+00  0.00000000E+00
  0.00000000E+00  0.00000000E+00  0.00000000E+00
  0.00000000E+00  0.00000000E+00  0.00000000E+00
  0.00000000E+00  0.00000000E+00  0.00000000E+00
  0.00000000E+00  0.00000000E+00  0.00000000E+00
  0.00000000E+00  0.00000000E+00  0.00000000E+00
  0.00000000E+00  0.00000000E+00  0.00000000E+00
  0.00000000E+00  0.00000000E+00  0.00000000E+00
  0.00000000E+00  0.00000000E+00  0.00000000E+00
  0.00000000E+00  0.00000000E+00  0.00000000E+00
  0.00000000E+00  0.00000000E+00  0.00000000E+00
  0.00000000E+00  0.00000000E+00  0.00000000E+00
  0.00000000E+00  0.00000000E+00  0.00000000E+00
  0.00000000E+00  0.00000000E+00  0.00000000E+00
  0.00000000E+00  0.00000000E+00  0.00000000E+00
  0.00000000E+00  0.00000000E+00  0.00000000E+00
  0.00000000E+00  0.00000000E+00  0.00000000E+00
  0.00000000E+00  0.00000000E+00  0.00000000E+00
  0.00000000E+00  0.00000000E+00  0.00000000E+00
  0.00000000E+00  0.00000000E+00  0.00000000E+00
  0.00000000E+00  0.00000000E+00  0.00000000E+00
  0.00000000E+00  0.00000000E+00  0.00000000E+00
