supercell of icsd_191774.cif            
   1.00000000000000     
    10.8866013537792892   -0.0158487939792358   -0.0088651316104120
    -5.4570282228559313    9.4323874944391850   -0.0023513160301439
    -0.0095468975849854   -0.0084860953578472   11.4905861205248154
   N    In   La
    36    30     6
Direct
  0.2290266767572504  0.0969519948970259  0.4299280136396391
  0.1140183159275523  0.2242799561956019  0.1912189756325873
  0.8892060749600290  0.1077366277236180  0.9473910029647712
  0.7860955992414134  0.2255545654243960  0.7134900205598811
  0.5491053833427628  0.1056725995798828  0.4506868241891269
  0.4339364929772813  0.2360996684613283  0.1869958543608945
  0.2200252622903278  0.1081187994085440  0.9416351461344661
  0.1090364255369280  0.2214213209282292  0.7046297285790644
  0.8903743215977045  0.0973410296828519  0.4302780240034707
  0.7909970316292103  0.2211172600907076  0.1897612126834431
  0.5516710463884706  0.1101806327691790  0.9720340975665849
  0.4288210259322867  0.2242742352119151  0.6850801526728461
  0.2275712535116980  0.4615916240426827  0.4321533293562396
  0.1298225763163785  0.5647081132216627  0.1789822697085484
  0.8890173321225348  0.4491228291939464  0.9485401170705003
  0.7731102476748433  0.5546194134170221  0.6942822567850300
  0.5561077417081108  0.4427964451422213  0.4395761559343541
  0.4455777039901392  0.5576103630293758  0.1914409947104829
  0.2244742356655394  0.4450942356963381  0.9418673247061946
  0.1093342146273812  0.5534283902601089  0.6948589383107304
  0.8981898057530557  0.4621720728883574  0.4480735227633517
  0.7646757465318998  0.5676665996408943  0.1805764867052488
  0.5515679524192834  0.4451283486018625  0.9337152287842940
  0.4289212388176153  0.5357681018347975  0.6800186476367287
  0.2210599743155655  0.7760685980767832  0.4372776063767816
  0.1103221380322807  0.8841728012673826  0.1871994897072113
  0.8895175160735747  0.7805600492788329  0.9365323703494823
  0.7976794054720315  0.8998808201691375  0.6838565514121271
  0.5596837669656409  0.7785895400972436  0.4445803570510023
  0.4379354928605679  0.8697023477802261  0.1923589393278391
  0.2238707478500359  0.7805263375446785  0.9365001251619134
  0.1108275424064900  0.8879632361657812  0.6874898216087146
  0.8906688721528155  0.7748902685065318  0.4378861580518745
  0.7782452874114227  0.8881234910932534  0.1914136489642004
  0.5566219457447943  0.7769452155378929  0.9485692747463119
  0.4278490638013963  0.8788691033156013  0.6836671784140265
  0.2182386177111439  0.1075361162529660  0.2433709815533547
  0.8945357801518483  0.1114060451401500  0.7593604816477466
  0.7828417524561928  0.2227111949362097  0.0002926559870886
  0.4421371711532558  0.2187683139362377  0.4970232989104133
  0.2148214137444668  0.1077204639481479  0.7527042214312232
  0.1127284639262172  0.2229155522590247  0.0000829289636286
  0.8924368906754339  0.1075044970012726  0.2435908298495093
  0.4392443011813540  0.2288712457871824  0.0017832011048498
  0.2269594089407860  0.4501204094745219  0.2434265070151795
  0.1166343405685382  0.5635919782497183  0.5036281172648884
  0.8906612097553790  0.4486053112185289  0.7562386026221191
  0.7719360405868869  0.5601968331332685  0.9928382532015476
  0.5523586195994028  0.4504504483490095  0.2493319819505331
  0.4439823655108270  0.5551271736341050  0.4926123887756120
  0.2187035527069980  0.4406755592974818  0.7531993908071755
  0.1174121991540034  0.5598967371844807  0.9934136396471445
  0.7783276800687773  0.5590621123356669  0.5033114411655859
  0.5466329001597501  0.4403648168715719  0.7441886767733337
  0.4449624449905585  0.5557857410499238  0.0034904472855430
  0.2228140679245527  0.7748304650561479  0.2487114045675867
  0.1125725605715076  0.8841967335960987  0.4962078025716679
  0.8933591569537711  0.7805151204936038  0.7471688867616066
  0.7779706757978886  0.8868025909855248  0.0039080657316077
  0.5577021837125073  0.7744348991783738  0.2512297239228403
  0.4385992000322432  0.8843415826828149  0.4961858895228062
  0.2161813882122132  0.7749553844832775  0.7471900792472255
  0.1101358753771322  0.8863468961270158  0.9978158474363497
  0.8880873032083656  0.7807503596164125  0.2480351768477362
  0.7846793397842049  0.8872468914848497  0.4941973026053859
  0.4404060632940059  0.8794285705495213  0.0059444852849211
  0.1236691863280512  0.2246279707973358  0.4967531463463004
  0.5485912614470934  0.1089142990968881  0.2373684916641352
  0.7857914790365896  0.2241066379054288  0.5041836029807172
  0.5446627434753850  0.1095769705553522  0.7598616872825303
  0.8964977747068659  0.4611110189147496  0.2392911535097682
  0.5577591282894900  0.7717560222412558  0.7413133611303948
 
  0.00000000E+00  0.00000000E+00  0.00000000E+00
  0.00000000E+00  0.00000000E+00  0.00000000E+00
  0.00000000E+00  0.00000000E+00  0.00000000E+00
  0.00000000E+00  0.00000000E+00  0.00000000E+00
  0.00000000E+00  0.00000000E+00  0.00000000E+00
  0.00000000E+00  0.00000000E+00  0.00000000E+00
  0.00000000E+00  0.00000000E+00  0.00000000E+00
  0.00000000E+00  0.00000000E+00  0.00000000E+00
  0.00000000E+00  0.00000000E+00  0.00000000E+00
  0.00000000E+00  0.00000000E+00  0.00000000E+00
  0.00000000E+00  0.00000000E+00  0.00000000E+00
  0.00000000E+00  0.00000000E+00  0.00000000E+00
  0.00000000E+00  0.00000000E+00  0.00000000E+00
  0.00000000E+00  0.00000000E+00  0.00000000E+00
  0.00000000E+00  0.00000000E+00  0.00000000E+00
  0.00000000E+00  0.00000000E+00  0.00000000E+00
  0.00000000E+00  0.00000000E+00  0.00000000E+00
  0.00000000E+00  0.00000000E+00  0.00000000E+00
  0.00000000E+00  0.00000000E+00  0.00000000E+00
  0.00000000E+00  0.00000000E+00  0.00000000E+00
  0.00000000E+00  0.00000000E+00  0.00000000E+00
  0.00000000E+00  0.00000000E+00  0.00000000E+00
  0.00000000E+00  0.00000000E+00  0.00000000E+00
  0.00000000E+00  0.00000000E+00  0.00000000E+00
  0.00000000E+00  0.00000000E+00  0.00000000E+00
  0.00000000E+00  0.00000000E+00  0.00000000E+00
  0.00000000E+00  0.00000000E+00  0.00000000E+00
  0.00000000E+00  0.00000000E+00  0.00000000E+00
  0.00000000E+00  0.00000000E+00  0.00000000E+00
  0.00000000E+00  0.00000000E+00  0.00000000E+00
  0.00000000E+00  0.00000000E+00  0.00000000E+00
  0.00000000E+00  0.00000000E+00  0.00000000E+00
  0.00000000E+00  0.00000000E+00  0.00000000E+00
  0.00000000E+00  0.00000000E+00  0.00000000E+00
  0.00000000E+00  0.00000000E+00  0.00000000E+00
  0.00000000E+00  0.00000000E+00  0.00000000E+00
  0.00000000E+00  0.00000000E+00  0.00000000E+00
  0.00000000E+00  0.00000000E+00  0.00000000E+00
  0.00000000E+00  0.00000000E+00  0.00000000E+00
  0.00000000E+00  0.00000000E+00  0.00000000E+00
  0.00000000E+00  0.00000000E+00  0.00000000E+00
  0.00000000E+00  0.00000000E+00  0.00000000E+00
  0.00000000E+00  0.00000000E+00  0.00000000E+00
  0.00000000E+00  0.00000000E+00  0.00000000E+00
  0.00000000E+00  0.00000000E+00  0.00000000E+00
  0.00000000E+00  0.00000000E+00  0.00000000E+00
  0.00000000E+00  0.00000000E+00  0.00000000E+00
  0.00000000E+00  0.00000000E+00  0.00000000E+00
  0.00000000E+00  0.00000000E+00  0.00000000E+00
  0.00000000E+00  0.00000000E+00  0.00000000E+00
  0.00000000E+00  0.00000000E+00  0.00000000E+00
  0.00000000E+00  0.00000000E+00  0.00000000E+00
  0.00000000E+00  0.00000000E+00  0.00000000E+00
  0.00000000E+00  0.00000000E+00  0.00000000E+00
  0.00000000E+00  0.00000000E+00  0.00000000E+00
  0.00000000E+00  0.00000000E+00  0.00000000E+00
  0.00000000E+00  0.00000000E+00  0.00000000E+00
  0.00000000E+00  0.00000000E+00  0.00000000E+00
  0.00000000E+00  0.00000000E+00  0.00000000E+00
  0.00000000E+00  0.00000000E+00  0.00000000E+00
  0.00000000E+00  0.00000000E+00  0.00000000E+00
  0.00000000E+00  0.00000000E+00  0.00000000E+00
  0.00000000E+00  0.00000000E+00  0.00000000E+00
  0.00000000E+00  0.00000000E+00  0.00000000E+00
  0.00000000E+00  0.00000000E+00  0.00000000E+00
  0.00000000E+00  0.00000000E+00  0.00000000E+00
  0.00000000E+00  0.00000000E+00  0.00000000E+00
  0.00000000E+00  0.00000000E+00  0.00000000E+00
  0.00000000E+00  0.00000000E+00  0.00000000E+00
  0.00000000E+00  0.00000000E+00  0.00000000E+00
  0.00000000E+00  0.00000000E+00  0.00000000E+00
  0.00000000E+00  0.00000000E+00  0.00000000E+00
