generated by phonopy                    
   1.00000000000000     
    10.0351470768999995   -0.0000022330999784   -0.0000001056124209
    -5.0175765436399997    8.6906901959899994    0.0000001395531216
    -0.0000001735893656    0.0000001431815548   14.9533752540999991
   Pb   P    O    Cu
    20    12    49     1
Direct
  0.9938072875919204  0.7699918768908631  0.1169240981572628
  0.0021681573121626  0.7738154851671410  0.6276027141899831
  0.9791787220090526  0.2491797009873054  0.3812367370044640
  0.0031441888974726  0.2638008499845483  0.8744593136532046
  0.2254587438467865  0.2243901883910908  0.1182622942948157
  0.2263708646473646  0.2249696715007161  0.6292217122202644
  0.7867917575709882  0.7888939588720234  0.3974717495961357
  0.7358637709219664  0.7415383944622320  0.8748474786168359
  0.7736337150367163  0.0012454034505680  0.1236010912648027
  0.7734213380759769  0.0056715726187306  0.6292806285019026
  0.2536111715000544  0.9825208885010426  0.3768396045789686
  0.2526554586795839  0.9996704927542908  0.8724842016158973
  0.6636760706440086  0.3252827545505070  0.9994029298571689
  0.6577041070421146  0.3349019522574395  0.4989442254808552
  0.3333786027716457  0.6715336170860908  0.0024588219151127
  0.3298366417943654  0.6379330944918422  0.5003462740539959
  0.3112727153463695  0.6606141776878189  0.2442044232690179
  0.3351695660018947  0.6761019133940707  0.7428821655333167
  0.6604189466434391  0.3286678188944094  0.2465474580684273
  0.6658108026231417  0.3360185385078651  0.7459185837459330
  0.6147746725282204  0.5905314793662555  0.1161744389749586
  0.6249564846622491  0.5983674553380425  0.6285330066380936
  0.3091291339110143  0.3114097933582158  0.3753912948633342
  0.3657070812553300  0.3923614141855865  0.8762856521996412
  0.3995718213144457  0.0285405609646716  0.1237847276865836
  0.4033848945747565  0.0285701829463036  0.6260750192738556
  0.6172360529043175  0.9776122676852452  0.3739060004308072
  0.5988943393464368  0.9719632342566200  0.8731839817128844
  0.9664662376186683  0.3747262711954633  0.1245761945964716
  0.9726439141456069  0.3788514484075165  0.6242595482696274
  0.0228224211285024  0.6214291094794859  0.3752640995741814
  0.0223589448880759  0.6327471150936788  0.8750751087175530
  0.4934713140783842  0.6436508590507017  0.1152912594100215
  0.5023985059714349  0.6505053960806109  0.6271484784006063
  0.4811739588980188  0.3377593416428653  0.3828120148258094
  0.4655701540759480  0.3137727941401636  0.8752396549097270
  0.3423785802670594  0.8528313994536703  0.1213569289771002
  0.3497543509588255  0.8538753473873300  0.6269539200195808
  0.6807252602834026  0.1559907305315917  0.3768541386244593
  0.6825127629474252  0.1503721421103918  0.8711038151705921
  0.1403832584880718  0.5006613729215061  0.1227126730017147
  0.1485305428689898  0.5008685189513358  0.6213228356142579
  0.8456501146574738  0.5161587717945650  0.3714226252906414
  0.8440635437913215  0.5331329681119641  0.8740883525588643
  0.7324989362248431  0.6612482768875125  0.0372931359409350
  0.7363932010382470  0.6666636144728670  0.5462821787134686
  0.2736053550591535  0.3761370597539937  0.4645000734222080
  0.2565553206496247  0.3445477371387824  0.9598271401301446
  0.3393247853791834  0.0774295697207918  0.0398353081268326
  0.3416795020081338  0.0730253556965792  0.5411684720192227
  0.6662317135189255  0.9251436997279399  0.4614231230058223
  0.6397648753723502  0.9083037073641265  0.9578856747708855
  0.9224051007429139  0.2687176885725933  0.0399179121756461
  0.9253992464205041  0.2699025370913901  0.5406155858826835
  0.0757513468950748  0.7304105739991726  0.4582305577421835
  0.0826770469340232  0.7416175744656996  0.9585402029874217
  0.3296845131100170  0.4281139945228887  0.2956302778515152
  0.2580136201473238  0.3481295988797370  0.7926634124656999
  0.7127514701639797  0.6468752044370660  0.2048580999084706
  0.7277236126040449  0.6547352418782140  0.7142747753707113
  0.6910870655719918  0.9371335076747442  0.2945825184258908
  0.6386704024696286  0.9035390450564336  0.7898607142676610
  0.3405057882239433  0.0740313174316896  0.2089573250772432
  0.3405973686473374  0.0753041513988109  0.7099386415707087
  0.0902459156281097  0.7242263860280502  0.2896740492279903
  0.0875875203880980  0.7404894219265969  0.7914049433227959
  0.9278937151035791  0.2695045746455662  0.2091383458113754
  0.9331466028975441  0.2731462010103414  0.7087332233331480
  0.5365874633429115  0.4107994033442210  0.1125252899713729
  0.5443354760408852  0.4184562986201499  0.6249271316452578
  0.4726010379991763  0.5732619674874400  0.8779898717780625
  0.5802737784384107  0.1244007139544436  0.1231319467908563
  0.5834994121513688  0.1292084665854532  0.6267350770992905
  0.4376965724515287  0.8892356316756107  0.3672461554639384
  0.4181237692362885  0.9029902399174858  0.8726890162712451
  0.8631406867385252  0.4516473012367257  0.1256146277332562
  0.8739479020564289  0.4595351490370660  0.6268975707973610
  0.1027979606361527  0.5189502153087560  0.3805153545184581
  0.0962620464455242  0.5256720538257937  0.8764942125382120
  0.9984637016055373  0.9984472652053711  0.1069728053145340
  0.9987910241687246  0.9999757602962589  0.6323528838777079
  0.5619130472955760  0.5656887981642313  0.3067246905199923
 
  0.00000000E+00  0.00000000E+00  0.00000000E+00
  0.00000000E+00  0.00000000E+00  0.00000000E+00
  0.00000000E+00  0.00000000E+00  0.00000000E+00
  0.00000000E+00  0.00000000E+00  0.00000000E+00
  0.00000000E+00  0.00000000E+00  0.00000000E+00
  0.00000000E+00  0.00000000E+00  0.00000000E+00
  0.00000000E+00  0.00000000E+00  0.00000000E+00
  0.00000000E+00  0.00000000E+00  0.00000000E+00
  0.00000000E+00  0.00000000E+00  0.00000000E+00
  0.00000000E+00  0.00000000E+00  0.00000000E+00
  0.00000000E+00  0.00000000E+00  0.00000000E+00
  0.00000000E+00  0.00000000E+00  0.00000000E+00
  0.00000000E+00  0.00000000E+00  0.00000000E+00
  0.00000000E+00  0.00000000E+00  0.00000000E+00
  0.00000000E+00  0.00000000E+00  0.00000000E+00
  0.00000000E+00  0.00000000E+00  0.00000000E+00
  0.00000000E+00  0.00000000E+00  0.00000000E+00
  0.00000000E+00  0.00000000E+00  0.00000000E+00
  0.00000000E+00  0.00000000E+00  0.00000000E+00
  0.00000000E+00  0.00000000E+00  0.00000000E+00
  0.00000000E+00  0.00000000E+00  0.00000000E+00
  0.00000000E+00  0.00000000E+00  0.00000000E+00
  0.00000000E+00  0.00000000E+00  0.00000000E+00
  0.00000000E+00  0.00000000E+00  0.00000000E+00
  0.00000000E+00  0.00000000E+00  0.00000000E+00
  0.00000000E+00  0.00000000E+00  0.00000000E+00
  0.00000000E+00  0.00000000E+00  0.00000000E+00
  0.00000000E+00  0.00000000E+00  0.00000000E+00
  0.00000000E+00  0.00000000E+00  0.00000000E+00
  0.00000000E+00  0.00000000E+00  0.00000000E+00
  0.00000000E+00  0.00000000E+00  0.00000000E+00
  0.00000000E+00  0.00000000E+00  0.00000000E+00
  0.00000000E+00  0.00000000E+00  0.00000000E+00
  0.00000000E+00  0.00000000E+00  0.00000000E+00
  0.00000000E+00  0.00000000E+00  0.00000000E+00
  0.00000000E+00  0.00000000E+00  0.00000000E+00
  0.00000000E+00  0.00000000E+00  0.00000000E+00
  0.00000000E+00  0.00000000E+00  0.00000000E+00
  0.00000000E+00  0.00000000E+00  0.00000000E+00
  0.00000000E+00  0.00000000E+00  0.00000000E+00
  0.00000000E+00  0.00000000E+00  0.00000000E+00
  0.00000000E+00  0.00000000E+00  0.00000000E+00
  0.00000000E+00  0.00000000E+00  0.00000000E+00
  0.00000000E+00  0.00000000E+00  0.00000000E+00
  0.00000000E+00  0.00000000E+00  0.00000000E+00
  0.00000000E+00  0.00000000E+00  0.00000000E+00
  0.00000000E+00  0.00000000E+00  0.00000000E+00
  0.00000000E+00  0.00000000E+00  0.00000000E+00
  0.00000000E+00  0.00000000E+00  0.00000000E+00
  0.00000000E+00  0.00000000E+00  0.00000000E+00
  0.00000000E+00  0.00000000E+00  0.00000000E+00
  0.00000000E+00  0.00000000E+00  0.00000000E+00
  0.00000000E+00  0.00000000E+00  0.00000000E+00
  0.00000000E+00  0.00000000E+00  0.00000000E+00
  0.00000000E+00  0.00000000E+00  0.00000000E+00
  0.00000000E+00  0.00000000E+00  0.00000000E+00
  0.00000000E+00  0.00000000E+00  0.00000000E+00
  0.00000000E+00  0.00000000E+00  0.00000000E+00
  0.00000000E+00  0.00000000E+00  0.00000000E+00
  0.00000000E+00  0.00000000E+00  0.00000000E+00
  0.00000000E+00  0.00000000E+00  0.00000000E+00
  0.00000000E+00  0.00000000E+00  0.00000000E+00
  0.00000000E+00  0.00000000E+00  0.00000000E+00
  0.00000000E+00  0.00000000E+00  0.00000000E+00
  0.00000000E+00  0.00000000E+00  0.00000000E+00
  0.00000000E+00  0.00000000E+00  0.00000000E+00
  0.00000000E+00  0.00000000E+00  0.00000000E+00
  0.00000000E+00  0.00000000E+00  0.00000000E+00
  0.00000000E+00  0.00000000E+00  0.00000000E+00
  0.00000000E+00  0.00000000E+00  0.00000000E+00
  0.00000000E+00  0.00000000E+00  0.00000000E+00
  0.00000000E+00  0.00000000E+00  0.00000000E+00
  0.00000000E+00  0.00000000E+00  0.00000000E+00
  0.00000000E+00  0.00000000E+00  0.00000000E+00
  0.00000000E+00  0.00000000E+00  0.00000000E+00
  0.00000000E+00  0.00000000E+00  0.00000000E+00
  0.00000000E+00  0.00000000E+00  0.00000000E+00
  0.00000000E+00  0.00000000E+00  0.00000000E+00
  0.00000000E+00  0.00000000E+00  0.00000000E+00
  0.00000000E+00  0.00000000E+00  0.00000000E+00
  0.00000000E+00  0.00000000E+00  0.00000000E+00
  0.00000000E+00  0.00000000E+00  0.00000000E+00
