Al   Gd   N                             
   1.00000000000000     
    -9.8754183187605555   -0.0911820654807022    0.0224182116961286
    -4.9747625055531275    8.4824114669124420    0.0252913836710313
    -0.1427463228293841   -0.0922460204663441  -10.7972203967306832
   Al   Gd   N 
    28     8    36
Direct
  0.1159202044570620  0.0821234840567087  0.3088710104904777
  0.2195454234472436  0.2105106901254317  0.1366372678871031
  0.5400170398026702  0.2190387364915836  0.1303331707431425
  0.1110284831541861  0.0875740356211594  0.8246362259119167
  0.2341002436166235  0.1983629143107777  0.6599218085573568
  0.7884629497250657  0.0924214618220773  0.2899235619178313
  0.9087191491322955  0.1977120160052550  0.0740502344201772
  0.4161647016762871  0.1169938747966768  0.8932801520441203
  0.5299486829952755  0.2190365245670591  0.6535149141917529
  0.1145945103821475  0.4366414700490679  0.3099687026535420
  0.2109331569833515  0.5432313832297666  0.0641181004498748
  0.4639035625557568  0.4237532713158316  0.3956457287708730
  0.1136238903725939  0.4368661115573289  0.8248033804536163
  0.2286834768191071  0.5354834582803250  0.5701285509665368
  0.8014333566322804  0.4193306834289316  0.3044029086522642
  0.9128958927337365  0.5322612973441991  0.0690040505210661
  0.4183935049743326  0.4396736770476082  0.8844908965048148
  0.5301465942076931  0.5490763688881799  0.6441814965235579
  0.1210493695406996  0.7591118972457238  0.3147318089494675
  0.2043974858539173  0.8782515856867406  0.0594865421496777
  0.7860755581416612  0.7573296721154890  0.8330036155074652
  0.4693316770372178  0.7476191111269088  0.4026150660193650
  0.1174215533431351  0.7542233678963655  0.8191097952651489
  0.2288931096164646  0.8699010981028010  0.5738618286545147
  0.7981771129866928  0.7483413248970905  0.3005543055080224
  0.9098581106875017  0.8552322705403057  0.0695350457438622
  0.4201752516316617  0.7697165985114438  0.8831455418494087
  0.5397434429296055  0.8790249245555586  0.6641966003052602
  0.7628291811083514  0.0964989944936008  0.8576123481445990
  0.8834887011223813  0.2052425968098319  0.5614748193372208
  0.4500705646936822  0.0934635806888195  0.3932047408807335
  0.7619567548333137  0.4409681246196229  0.8515711807837505
  0.8876115697954887  0.5384388029489386  0.5704944160851468
  0.5392182042498135  0.5405104142737187  0.1420069575289560
  0.8870158272366453  0.8715398073895884  0.5672183295562405
  0.5567566283527370  0.8726691479965680  0.1083605381719011
  0.2071984295132765  0.2132040187642161  0.3188238587627339
  0.1193655161620413  0.0818091778679815  0.1289241205865537
  0.9153929169529036  0.1943464219140409  0.8997540363685417
  0.7494527898629002  0.1059857507498876  0.6422801326003409
  0.5643974520254886  0.2271590244398425  0.3066359857149266
  0.4241928808822806  0.1270833880267972  0.0717297444382723
  0.2107517065653965  0.2102896785599810  0.8397647057783502
  0.1316894440440208  0.0768270648227229  0.6434394965882007
  0.8945099444757503  0.1999842071661462  0.3448386715414173
  0.7825958106448994  0.0880618318015038  0.1073521517069622
  0.4988115981493877  0.2366337006946253  0.8256141432872610
  0.4431190242856573  0.0898438476091741  0.6044356294900837
  0.2214560222093809  0.5423535208512860  0.3822781948183547
  0.1175575014990144  0.4326640905975054  0.1298631564470725
  0.9049935703301415  0.5494480545622338  0.8897272763444946
  0.7513868049871419  0.4381773586348459  0.6426158289199151
  0.5710011385907094  0.5331478703578796  0.3518299092764750
  0.4326115236994497  0.4160443878286557  0.0606046860347931
  0.2018295467238573  0.5524337224134825  0.8870623991689399
  0.1382129889581236  0.4218904652649655  0.6439084487621258
  0.8990349727224398  0.5362245648333754  0.3574943279051297
  0.8078986123855501  0.4176921807240177  0.1200466508341478
  0.4955143097920995  0.5662573490903213  0.8199683744185577
  0.4516998841555591  0.4192290404022501  0.5729374201574728
  0.2239139484352464  0.8719494823718250  0.3859462678624013
  0.1221273857322558  0.7563174702407167  0.1326218092464302
  0.9069621734666455  0.8436134650313178  0.8891734723819411
  0.7582123976193387  0.7704763643157406  0.6593213879988014
  0.5754910957767763  0.8420975885007351  0.3258225269239858
  0.4194152885995308  0.7663557048643739  0.0569875530128101
  0.1991377611505385  0.8808382622271083  0.8800137460746527
  0.1424514771455989  0.7445804973784220  0.6390832061269975
  0.8902452366627429  0.8765977364762847  0.3503536258362274
  0.8189827140146804  0.7400568613351552  0.1254011591286570
  0.5385769523161414  0.8817285135573272  0.8498155266044236
  0.4529125694305236  0.7613493754288214  0.5833704628765375
 
  0.00000000E+00  0.00000000E+00  0.00000000E+00
  0.00000000E+00  0.00000000E+00  0.00000000E+00
  0.00000000E+00  0.00000000E+00  0.00000000E+00
  0.00000000E+00  0.00000000E+00  0.00000000E+00
  0.00000000E+00  0.00000000E+00  0.00000000E+00
  0.00000000E+00  0.00000000E+00  0.00000000E+00
  0.00000000E+00  0.00000000E+00  0.00000000E+00
  0.00000000E+00  0.00000000E+00  0.00000000E+00
  0.00000000E+00  0.00000000E+00  0.00000000E+00
  0.00000000E+00  0.00000000E+00  0.00000000E+00
  0.00000000E+00  0.00000000E+00  0.00000000E+00
  0.00000000E+00  0.00000000E+00  0.00000000E+00
  0.00000000E+00  0.00000000E+00  0.00000000E+00
  0.00000000E+00  0.00000000E+00  0.00000000E+00
  0.00000000E+00  0.00000000E+00  0.00000000E+00
  0.00000000E+00  0.00000000E+00  0.00000000E+00
  0.00000000E+00  0.00000000E+00  0.00000000E+00
  0.00000000E+00  0.00000000E+00  0.00000000E+00
  0.00000000E+00  0.00000000E+00  0.00000000E+00
  0.00000000E+00  0.00000000E+00  0.00000000E+00
  0.00000000E+00  0.00000000E+00  0.00000000E+00
  0.00000000E+00  0.00000000E+00  0.00000000E+00
  0.00000000E+00  0.00000000E+00  0.00000000E+00
  0.00000000E+00  0.00000000E+00  0.00000000E+00
  0.00000000E+00  0.00000000E+00  0.00000000E+00
  0.00000000E+00  0.00000000E+00  0.00000000E+00
  0.00000000E+00  0.00000000E+00  0.00000000E+00
  0.00000000E+00  0.00000000E+00  0.00000000E+00
  0.00000000E+00  0.00000000E+00  0.00000000E+00
  0.00000000E+00  0.00000000E+00  0.00000000E+00
  0.00000000E+00  0.00000000E+00  0.00000000E+00
  0.00000000E+00  0.00000000E+00  0.00000000E+00
  0.00000000E+00  0.00000000E+00  0.00000000E+00
  0.00000000E+00  0.00000000E+00  0.00000000E+00
  0.00000000E+00  0.00000000E+00  0.00000000E+00
  0.00000000E+00  0.00000000E+00  0.00000000E+00
  0.00000000E+00  0.00000000E+00  0.00000000E+00
  0.00000000E+00  0.00000000E+00  0.00000000E+00
  0.00000000E+00  0.00000000E+00  0.00000000E+00
  0.00000000E+00  0.00000000E+00  0.00000000E+00
  0.00000000E+00  0.00000000E+00  0.00000000E+00
  0.00000000E+00  0.00000000E+00  0.00000000E+00
  0.00000000E+00  0.00000000E+00  0.00000000E+00
  0.00000000E+00  0.00000000E+00  0.00000000E+00
  0.00000000E+00  0.00000000E+00  0.00000000E+00
  0.00000000E+00  0.00000000E+00  0.00000000E+00
  0.00000000E+00  0.00000000E+00  0.00000000E+00
  0.00000000E+00  0.00000000E+00  0.00000000E+00
  0.00000000E+00  0.00000000E+00  0.00000000E+00
  0.00000000E+00  0.00000000E+00  0.00000000E+00
  0.00000000E+00  0.00000000E+00  0.00000000E+00
  0.00000000E+00  0.00000000E+00  0.00000000E+00
  0.00000000E+00  0.00000000E+00  0.00000000E+00
  0.00000000E+00  0.00000000E+00  0.00000000E+00
  0.00000000E+00  0.00000000E+00  0.00000000E+00
  0.00000000E+00  0.00000000E+00  0.00000000E+00
  0.00000000E+00  0.00000000E+00  0.00000000E+00
  0.00000000E+00  0.00000000E+00  0.00000000E+00
  0.00000000E+00  0.00000000E+00  0.00000000E+00
  0.00000000E+00  0.00000000E+00  0.00000000E+00
  0.00000000E+00  0.00000000E+00  0.00000000E+00
  0.00000000E+00  0.00000000E+00  0.00000000E+00
  0.00000000E+00  0.00000000E+00  0.00000000E+00
  0.00000000E+00  0.00000000E+00  0.00000000E+00
  0.00000000E+00  0.00000000E+00  0.00000000E+00
  0.00000000E+00  0.00000000E+00  0.00000000E+00
  0.00000000E+00  0.00000000E+00  0.00000000E+00
  0.00000000E+00  0.00000000E+00  0.00000000E+00
  0.00000000E+00  0.00000000E+00  0.00000000E+00
  0.00000000E+00  0.00000000E+00  0.00000000E+00
  0.00000000E+00  0.00000000E+00  0.00000000E+00
  0.00000000E+00  0.00000000E+00  0.00000000E+00
