Al   Gd   N                             
   1.00000000000000     
   -10.0193552336421998   -0.0754183786813673    0.0085682781995174
    -4.8917069107883018    8.5691365355343052    0.0096290126678923
     0.1041205951174102    0.0339661741878266  -10.4276891561785234
   Al   Gd   N 
    28     8    36
Direct
  0.1262833100673433  0.0868091766971375  0.3995501065393015
  0.2129279437335470  0.2146204711712301  0.1522200077957052
  0.5348256251638048  0.2224583409539278  0.1500189183145153
  0.1141226014019239  0.0936275177474784  0.9031061242757517
  0.2286957915431387  0.1991625571777291  0.6598241481228655
  0.7856568162497410  0.0882757942250620  0.3169865022850331
  0.9096758345191986  0.1979938067024776  0.1516913082817339
  0.4181925180004313  0.1168275125215672  0.9071762141833304
  0.5264831515268540  0.2208880569454479  0.6731568864965780
  0.1253260609839728  0.4194038048875299  0.4042297870764955
  0.2198119185018257  0.5307139968017651  0.1585395361113058
  0.4549382819279657  0.4273785849723382  0.4130720372046213
  0.1184531447959429  0.4256979620062538  0.9048461615387495
  0.2318720257160720  0.5269145804237994  0.6517734540284792
  0.7941716187535661  0.4279303980112346  0.3338545389551584
  0.9092611204822276  0.5340633287917314  0.0885567070483688
  0.4077771440280529  0.4434900664360839  0.9060025015501836
  0.5229153009715546  0.5546784140617831  0.6667965004278145
  0.1189172017544635  0.7588344966654148  0.3368877191553850
  0.2176000524574135  0.8825801690672890  0.1567317454985258
  0.7864907611973706  0.7584037616128541  0.8534199376594529
  0.4618479725132474  0.7514140629536712  0.4172099480277183
  0.1145677569930612  0.7584813275127331  0.8303452580915476
  0.2306887671681608  0.8764475025163279  0.6506276239521398
  0.8009750713587991  0.7425981851991921  0.3236582616509835
  0.9184679157317035  0.8491835355601367  0.0892572122206232
  0.4120855245876172  0.7757503126449947  0.9034441546032710
  0.5379400132542074  0.8807372194461749  0.6827500813483525
  0.7656090159263442  0.0959178999920454  0.8827491269870293
  0.8784577859243186  0.2099938659390546  0.6153239514010522
  0.4523580520546773  0.0882511117005293  0.4080998686393542
  0.7589985883435517  0.4346844687368261  0.8809411077577352
  0.8831449629196015  0.5404067378095974  0.6104539598890071
  0.5383648886224819  0.5457373749737897  0.1513242197078597
  0.8799143903238047  0.8760035058450626  0.5877443580322819
  0.5618247499807296  0.8732603359264886  0.1192409024150152
  0.2034263548480197  0.2153466252408975  0.3333955659953176
  0.1132500879411396  0.0946202153921973  0.0934550986764435
  0.9170958921893018  0.1903330800149305  0.8414695726789603
  0.7357531366547718  0.1086812018049059  0.6555309855678217
  0.5690079580093723  0.2227217467090838  0.3315707009349680
  0.4211212208194866  0.1268952401372587  0.0962625467050557
  0.2114828328931324  0.2104848063952076  0.8474517870487119
  0.1440210631816825  0.0808692105652611  0.5815647586465715
  0.9030352932191619  0.1960747930234490  0.3476244489076095
  0.7842708030066063  0.0902869089920415  0.1262851478400577
  0.5044110173560838  0.2365713722409239  0.8530716104641343
  0.4416863467791146  0.0903249997415330  0.6261138044022232
  0.2343246245564785  0.5289733625977391  0.3466192101833840
  0.1218123179688249  0.4224457863320339  0.0922140969087835
  0.9004840189558507  0.5478838935088888  0.8982135803804354
  0.7334134155304639  0.4522440458263333  0.6623413038258477
  0.5671186248915419  0.5340239995334315  0.3685065747520611
  0.4172207578291633  0.4246491604820974  0.0876555294946542
  0.2094239617591143  0.5374258862684229  0.8383315072428701
  0.1490710331968543  0.4029083016872619  0.5884178144308478
  0.9020481743601394  0.5334762122102674  0.3859603949265562
  0.8054332193473144  0.4203894388098846  0.1379785095922301
  0.4947740449986711  0.5668288196175979  0.8532879274654590
  0.4394223700290922  0.4281989719103692  0.5966978469979196
  0.2386878679366404  0.8695514601585614  0.3456812118142807
  0.1199093020018651  0.7574512199648709  0.1495515968062833
  0.9158436393493474  0.8399481206541068  0.9042660322667047
  0.7494391078950500  0.7777441594878809  0.6765025269487310
  0.5825845000165017  0.8364685484011076  0.3465664153588577
  0.4046762587416595  0.7827622834174477  0.0809440505688741
  0.2136954980386037  0.8871563951904662  0.8380141025723589
  0.1332566531537012  0.7503613926496016  0.6413317042208391
  0.8945671560751265  0.8722796649039353  0.3684625632291656
  0.8226420313264740  0.7375440310406916  0.1430054968861043
  0.5419316402361289  0.8817302793019479  0.8747889367381134
  0.4425329012503525  0.7665517364823984  0.6043458229635306
 
  0.00000000E+00  0.00000000E+00  0.00000000E+00
  0.00000000E+00  0.00000000E+00  0.00000000E+00
  0.00000000E+00  0.00000000E+00  0.00000000E+00
  0.00000000E+00  0.00000000E+00  0.00000000E+00
  0.00000000E+00  0.00000000E+00  0.00000000E+00
  0.00000000E+00  0.00000000E+00  0.00000000E+00
  0.00000000E+00  0.00000000E+00  0.00000000E+00
  0.00000000E+00  0.00000000E+00  0.00000000E+00
  0.00000000E+00  0.00000000E+00  0.00000000E+00
  0.00000000E+00  0.00000000E+00  0.00000000E+00
  0.00000000E+00  0.00000000E+00  0.00000000E+00
  0.00000000E+00  0.00000000E+00  0.00000000E+00
  0.00000000E+00  0.00000000E+00  0.00000000E+00
  0.00000000E+00  0.00000000E+00  0.00000000E+00
  0.00000000E+00  0.00000000E+00  0.00000000E+00
  0.00000000E+00  0.00000000E+00  0.00000000E+00
  0.00000000E+00  0.00000000E+00  0.00000000E+00
  0.00000000E+00  0.00000000E+00  0.00000000E+00
  0.00000000E+00  0.00000000E+00  0.00000000E+00
  0.00000000E+00  0.00000000E+00  0.00000000E+00
  0.00000000E+00  0.00000000E+00  0.00000000E+00
  0.00000000E+00  0.00000000E+00  0.00000000E+00
  0.00000000E+00  0.00000000E+00  0.00000000E+00
  0.00000000E+00  0.00000000E+00  0.00000000E+00
  0.00000000E+00  0.00000000E+00  0.00000000E+00
  0.00000000E+00  0.00000000E+00  0.00000000E+00
  0.00000000E+00  0.00000000E+00  0.00000000E+00
  0.00000000E+00  0.00000000E+00  0.00000000E+00
  0.00000000E+00  0.00000000E+00  0.00000000E+00
  0.00000000E+00  0.00000000E+00  0.00000000E+00
  0.00000000E+00  0.00000000E+00  0.00000000E+00
  0.00000000E+00  0.00000000E+00  0.00000000E+00
  0.00000000E+00  0.00000000E+00  0.00000000E+00
  0.00000000E+00  0.00000000E+00  0.00000000E+00
  0.00000000E+00  0.00000000E+00  0.00000000E+00
  0.00000000E+00  0.00000000E+00  0.00000000E+00
  0.00000000E+00  0.00000000E+00  0.00000000E+00
  0.00000000E+00  0.00000000E+00  0.00000000E+00
  0.00000000E+00  0.00000000E+00  0.00000000E+00
  0.00000000E+00  0.00000000E+00  0.00000000E+00
  0.00000000E+00  0.00000000E+00  0.00000000E+00
  0.00000000E+00  0.00000000E+00  0.00000000E+00
  0.00000000E+00  0.00000000E+00  0.00000000E+00
  0.00000000E+00  0.00000000E+00  0.00000000E+00
  0.00000000E+00  0.00000000E+00  0.00000000E+00
  0.00000000E+00  0.00000000E+00  0.00000000E+00
  0.00000000E+00  0.00000000E+00  0.00000000E+00
  0.00000000E+00  0.00000000E+00  0.00000000E+00
  0.00000000E+00  0.00000000E+00  0.00000000E+00
  0.00000000E+00  0.00000000E+00  0.00000000E+00
  0.00000000E+00  0.00000000E+00  0.00000000E+00
  0.00000000E+00  0.00000000E+00  0.00000000E+00
  0.00000000E+00  0.00000000E+00  0.00000000E+00
  0.00000000E+00  0.00000000E+00  0.00000000E+00
  0.00000000E+00  0.00000000E+00  0.00000000E+00
  0.00000000E+00  0.00000000E+00  0.00000000E+00
  0.00000000E+00  0.00000000E+00  0.00000000E+00
  0.00000000E+00  0.00000000E+00  0.00000000E+00
  0.00000000E+00  0.00000000E+00  0.00000000E+00
  0.00000000E+00  0.00000000E+00  0.00000000E+00
  0.00000000E+00  0.00000000E+00  0.00000000E+00
  0.00000000E+00  0.00000000E+00  0.00000000E+00
  0.00000000E+00  0.00000000E+00  0.00000000E+00
  0.00000000E+00  0.00000000E+00  0.00000000E+00
  0.00000000E+00  0.00000000E+00  0.00000000E+00
  0.00000000E+00  0.00000000E+00  0.00000000E+00
  0.00000000E+00  0.00000000E+00  0.00000000E+00
  0.00000000E+00  0.00000000E+00  0.00000000E+00
  0.00000000E+00  0.00000000E+00  0.00000000E+00
  0.00000000E+00  0.00000000E+00  0.00000000E+00
  0.00000000E+00  0.00000000E+00  0.00000000E+00
  0.00000000E+00  0.00000000E+00  0.00000000E+00
