Al   Gd   N                             
   1.00000000000000     
    -9.9025161523249121   -0.0841388669678550    0.0168761441459763
    -4.9438652240776051    8.4969204377230234    0.0183474550111663
    -0.0604801227930360   -0.0514410459498954  -10.7421029658191056
   Al   Gd   N 
    28     8    36
Direct
  0.1268922689566949  0.0827322389763054  0.3879490431439763
  0.2190834021850989  0.2063758000685851  0.1452911151731158
  0.5397099618324006  0.2188776441603864  0.1383585147702533
  0.1142953998289471  0.0961194502872900  0.8995874871741805
  0.2261681157516335  0.1955656328297550  0.6566426274037056
  0.7941086505053718  0.0883696736470725  0.2969607348186400
  0.8980816385653441  0.2035826604974744  0.0824865630556033
  0.4152232349354676  0.1168804156455323  0.8976307004618747
  0.5238629993613628  0.2198030951824776  0.6615341086026021
  0.1177288853448957  0.4320671014512669  0.3170100317684543
  0.2109490555794622  0.5413388406847659  0.0706524697244006
  0.4661341326976043  0.4209023912307899  0.4026494331018284
  0.1152364264728050  0.4352391043470973  0.8274644595463556
  0.2287230814636274  0.5334610480245772  0.5734410796509692
  0.8046781837513990  0.4167953816699921  0.3112815737934511
  0.9151012854642389  0.5311440946746302  0.0755269295608869
  0.4171835302562528  0.4409826937392793  0.8926052329917624
  0.5257892922156984  0.5517585626852508  0.6526345284232207
  0.1245535057239309  0.7546904880996266  0.3215217232925696
  0.2125145508979074  0.8781354082608956  0.1109857883727514
  0.7905019078601114  0.7558057814799781  0.8396424130799289
  0.4634149201838795  0.7484202694796522  0.4088478383173211
  0.1176165319741571  0.7547334679029163  0.8234383376129628
  0.2289011524859390  0.8737971933654762  0.6245512488110876
  0.8005548787594208  0.7451505879659805  0.3066655257993531
  0.9113140548018990  0.8544963900500449  0.0748093075328811
  0.4129562969635430  0.7754109147393109  0.8862919757648839
  0.5416313011510212  0.8789794322859521  0.6719120164967762
  0.7590538090189156  0.0967298691291774  0.8636706618441607
  0.8601687481737414  0.2177557916422188  0.5686174844381426
  0.4563180646068474  0.0876782530672031  0.3994753277107392
  0.7551160630539471  0.4489716282096836  0.8611256731282069
  0.8864740784759277  0.5380506006018635  0.5777309294116648
  0.5363690799470433  0.5451519431694152  0.1515809066100928
  0.8865226219723610  0.8719765136708588  0.5733902188884414
  0.5592574735893336  0.8717220378497217  0.1110017420333591
  0.2110636538040538  0.2064734084297442  0.3242274617469363
  0.1206213610524784  0.0924698582393191  0.0857823349462805
  0.9008481016063143  0.2032239842123147  0.9042420739904173
  0.7421764317949950  0.1041856676698458  0.6498666057748608
  0.5696285616878143  0.2230003056500180  0.3151526644459182
  0.4235634270007296  0.1268549555612424  0.0787074464014168
  0.2093941237164358  0.2062514117575063  0.8380695596867511
  0.1307584439754308  0.0891153547083263  0.5746919621810207
  0.9015491372035314  0.1956008503037836  0.3508429600978502
  0.7831179455324175  0.0868870933222325  0.1146198611844937
  0.4952733702318568  0.2388448297793815  0.8340250519790047
  0.4403592473423430  0.0894156024077120  0.6120359919150573
  0.2256088025144436  0.5372330682424362  0.3865827789168179
  0.1191160789559689  0.4295158488233852  0.1366061384220458
  0.9090377343454605  0.5473609644763116  0.8953334695837185
  0.7442580826677059  0.4468799839052906  0.6528686327254434
  0.5755833791154856  0.5289851426644461  0.3621003747710034
  0.4324563134165658  0.4173896105749790  0.0703819876856002
  0.2018439803432912  0.5523784797701410  0.8930725539283415
  0.1382847285087863  0.4204445948621469  0.6471442845437991
  0.9032967963872238  0.5326155548742904  0.3638837544981328
  0.8036019498546239  0.4216097395207186  0.1273463760007445
  0.4908415009754989  0.5691634882505028  0.8286522024294527
  0.4512552759435167  0.4187796719937893  0.5804882305827306
  0.2401915346664651  0.8590104622919057  0.3595538862206666
  0.1203956180097165  0.7544728503732401  0.1380626468643271
  0.9107965395049149  0.8437160083060959  0.8949097513916442
  0.7586447127299394  0.7701824199332492  0.6654380529473300
  0.5793784377348956  0.8367558097294463  0.3317656464924994
  0.4126095095846196  0.7712870736657038  0.0599321716537560
  0.2047374480847566  0.8904459755529714  0.8384788803092391
  0.1398393454065570  0.7406651157387003  0.6421714066736115
  0.8945015061125545  0.8726431642159795  0.3566673900059527
  0.8205406428079627  0.7391658352327397  0.1304605542871684
  0.5425423923302120  0.8806852263757108  0.8586119415477071
  0.4479775897125648  0.7646099350190525  0.5930145655402868
 
  0.00000000E+00  0.00000000E+00  0.00000000E+00
  0.00000000E+00  0.00000000E+00  0.00000000E+00
  0.00000000E+00  0.00000000E+00  0.00000000E+00
  0.00000000E+00  0.00000000E+00  0.00000000E+00
  0.00000000E+00  0.00000000E+00  0.00000000E+00
  0.00000000E+00  0.00000000E+00  0.00000000E+00
  0.00000000E+00  0.00000000E+00  0.00000000E+00
  0.00000000E+00  0.00000000E+00  0.00000000E+00
  0.00000000E+00  0.00000000E+00  0.00000000E+00
  0.00000000E+00  0.00000000E+00  0.00000000E+00
  0.00000000E+00  0.00000000E+00  0.00000000E+00
  0.00000000E+00  0.00000000E+00  0.00000000E+00
  0.00000000E+00  0.00000000E+00  0.00000000E+00
  0.00000000E+00  0.00000000E+00  0.00000000E+00
  0.00000000E+00  0.00000000E+00  0.00000000E+00
  0.00000000E+00  0.00000000E+00  0.00000000E+00
  0.00000000E+00  0.00000000E+00  0.00000000E+00
  0.00000000E+00  0.00000000E+00  0.00000000E+00
  0.00000000E+00  0.00000000E+00  0.00000000E+00
  0.00000000E+00  0.00000000E+00  0.00000000E+00
  0.00000000E+00  0.00000000E+00  0.00000000E+00
  0.00000000E+00  0.00000000E+00  0.00000000E+00
  0.00000000E+00  0.00000000E+00  0.00000000E+00
  0.00000000E+00  0.00000000E+00  0.00000000E+00
  0.00000000E+00  0.00000000E+00  0.00000000E+00
  0.00000000E+00  0.00000000E+00  0.00000000E+00
  0.00000000E+00  0.00000000E+00  0.00000000E+00
  0.00000000E+00  0.00000000E+00  0.00000000E+00
  0.00000000E+00  0.00000000E+00  0.00000000E+00
  0.00000000E+00  0.00000000E+00  0.00000000E+00
  0.00000000E+00  0.00000000E+00  0.00000000E+00
  0.00000000E+00  0.00000000E+00  0.00000000E+00
  0.00000000E+00  0.00000000E+00  0.00000000E+00
  0.00000000E+00  0.00000000E+00  0.00000000E+00
  0.00000000E+00  0.00000000E+00  0.00000000E+00
  0.00000000E+00  0.00000000E+00  0.00000000E+00
  0.00000000E+00  0.00000000E+00  0.00000000E+00
  0.00000000E+00  0.00000000E+00  0.00000000E+00
  0.00000000E+00  0.00000000E+00  0.00000000E+00
  0.00000000E+00  0.00000000E+00  0.00000000E+00
  0.00000000E+00  0.00000000E+00  0.00000000E+00
  0.00000000E+00  0.00000000E+00  0.00000000E+00
  0.00000000E+00  0.00000000E+00  0.00000000E+00
  0.00000000E+00  0.00000000E+00  0.00000000E+00
  0.00000000E+00  0.00000000E+00  0.00000000E+00
  0.00000000E+00  0.00000000E+00  0.00000000E+00
  0.00000000E+00  0.00000000E+00  0.00000000E+00
  0.00000000E+00  0.00000000E+00  0.00000000E+00
  0.00000000E+00  0.00000000E+00  0.00000000E+00
  0.00000000E+00  0.00000000E+00  0.00000000E+00
  0.00000000E+00  0.00000000E+00  0.00000000E+00
  0.00000000E+00  0.00000000E+00  0.00000000E+00
  0.00000000E+00  0.00000000E+00  0.00000000E+00
  0.00000000E+00  0.00000000E+00  0.00000000E+00
  0.00000000E+00  0.00000000E+00  0.00000000E+00
  0.00000000E+00  0.00000000E+00  0.00000000E+00
  0.00000000E+00  0.00000000E+00  0.00000000E+00
  0.00000000E+00  0.00000000E+00  0.00000000E+00
  0.00000000E+00  0.00000000E+00  0.00000000E+00
  0.00000000E+00  0.00000000E+00  0.00000000E+00
  0.00000000E+00  0.00000000E+00  0.00000000E+00
  0.00000000E+00  0.00000000E+00  0.00000000E+00
  0.00000000E+00  0.00000000E+00  0.00000000E+00
  0.00000000E+00  0.00000000E+00  0.00000000E+00
  0.00000000E+00  0.00000000E+00  0.00000000E+00
  0.00000000E+00  0.00000000E+00  0.00000000E+00
  0.00000000E+00  0.00000000E+00  0.00000000E+00
  0.00000000E+00  0.00000000E+00  0.00000000E+00
  0.00000000E+00  0.00000000E+00  0.00000000E+00
  0.00000000E+00  0.00000000E+00  0.00000000E+00
  0.00000000E+00  0.00000000E+00  0.00000000E+00
  0.00000000E+00  0.00000000E+00  0.00000000E+00
