Al   Gd   N                             
   1.00000000000000     
   -10.0515980780722245   -0.0757150527583870    0.0071491584052151
    -4.8871158213340395    8.5730660277633692    0.0097833746085251
     0.1293471239032876    0.0567252571676103  -10.3350119224174826
   Al   Gd   N 
    28     8    36
Direct
  0.1268828051915278  0.0872678624927801  0.3995099481194870
  0.2123537853868740  0.2150163685567392  0.1511294757511550
  0.5328684605342815  0.2240454245649417  0.1498769792141488
  0.1138221369885031  0.0920940990910637  0.9024201305485420
  0.2289198653602682  0.1989855205066817  0.6591114222953323
  0.7855189910536069  0.0884926890415372  0.3181634664024813
  0.9104768780274881  0.1973171575664097  0.1513788607483946
  0.4173136630252614  0.1168491795325082  0.9071972384331914
  0.5257193397826541  0.2213277643182323  0.6724098835107313
  0.1256384858215753  0.4187936072198966  0.4040681704327156
  0.2178259696200939  0.5352668342960811  0.1610412950822138
  0.4568264715900270  0.4261745916221855  0.4126032646178359
  0.1187719953435504  0.4267608618403074  0.9031031387799686
  0.2320249792714790  0.5308754750890401  0.6447148758104930
  0.7943531268106838  0.4282230956852757  0.3337194512462176
  0.9104057645159074  0.5339757930554541  0.0889359334935023
  0.4072043785645008  0.4445331504470147  0.9048700130287557
  0.5252060857271985  0.5533916788216189  0.6657895983315072
  0.1252679006690016  0.7556884503262395  0.3662308226401976
  0.2162459802498233  0.8798158195722294  0.1597055864206354
  0.7844018758893085  0.7587484950898187  0.8544868487874666
  0.4635613417553728  0.7509320975672367  0.4172006015059821
  0.1139809871632380  0.7589344552588173  0.8524492101297056
  0.2305797186753864  0.8728825596170253  0.6440974476949322
  0.8008759946729924  0.7430246212259064  0.3245533907279565
  0.9161661614800991  0.8517596973777799  0.0952804675055390
  0.4116285963641744  0.7750743070841466  0.9018574768968008
  0.5376559444283444  0.8807674149863089  0.6816354556599293
  0.7630916595729218  0.0980639307158242  0.8837990849040551
  0.8785108995881643  0.2093316597201209  0.6137190244564437
  0.4522570463861229  0.0885477875812839  0.4064286048155381
  0.7609608171590878  0.4336200197049820  0.8813907293185252
  0.8848448774425464  0.5400299435121312  0.6120390233582000
  0.5387969167123643  0.5453222529303972  0.1487909627615025
  0.8785985573522197  0.8769150710528351  0.5903943667107185
  0.5600626026582347  0.8728124166356537  0.1197015659067517
  0.2030871286918767  0.2155747585709804  0.3333494767235408
  0.1137637845737842  0.0930984357991136  0.0937490151428761
  0.9169561306387521  0.1891138395373346  0.8423492141697650
  0.7342726710451544  0.1104266014359325  0.6557901464261704
  0.5698518069613172  0.2225880417014992  0.3320504140894371
  0.4207530410893838  0.1266850118398253  0.0974813531239960
  0.2111079355750576  0.2099295608826424  0.8478500898651333
  0.1438665861179729  0.0809791449336075  0.5826008578741337
  0.9033639929072237  0.1960306883230842  0.3484453326010382
  0.7840435450545442  0.0908863809165936  0.1266871006224690
  0.5020296715482360  0.2377547544377450  0.8535594313202637
  0.4411906711598164  0.0906471115358087  0.6256718191109627
  0.2365984635511822  0.5267435296474545  0.3486507444824483
  0.1223766403379116  0.4238696210997546  0.0918456680884390
  0.9018005615913012  0.5474850683176413  0.8959855314849321
  0.7349437245282573  0.4514213706763641  0.6608027233648954
  0.5678878943121575  0.5338354857243601  0.3678730778759132
  0.4148034272791534  0.4264355560780686  0.0878814500922118
  0.2079035902001678  0.5428658435166227  0.8341659634771901
  0.1497570226671243  0.4031021757688791  0.5892604476846302
  0.9029857462916766  0.5330860047890553  0.3853588074598804
  0.8063282371676479  0.4199371149435720  0.1367768465305232
  0.4971423306760272  0.5653181023273177  0.8541358033641018
  0.4414202721975116  0.4272287084360684  0.5970260771856246
  0.2410015733286102  0.8693414021821226  0.3480204141359522
  0.1196448812540538  0.7574364234331341  0.1460591950831400
  0.9117963401960552  0.8422232619636816  0.9050881719366188
  0.7480889703429980  0.7777657667158309  0.6763239173125868
  0.5835126100118799  0.8360858357553838  0.3477210670875053
  0.4022575882898352  0.7833812941966443  0.0807249031111965
  0.2112459803455309  0.8826358078620871  0.8345239081242539
  0.1398017671375555  0.7472228221782515  0.6023677899965421
  0.8930410097048735  0.8729123881357594  0.3692580879410556
  0.8202616248517529  0.7381698049202186  0.1419379866165471
  0.5400443217078532  0.8819539337848283  0.8746524659578867
  0.4439661784319711  0.7659938345798949  0.6052651788106473
 
  0.00000000E+00  0.00000000E+00  0.00000000E+00
  0.00000000E+00  0.00000000E+00  0.00000000E+00
  0.00000000E+00  0.00000000E+00  0.00000000E+00
  0.00000000E+00  0.00000000E+00  0.00000000E+00
  0.00000000E+00  0.00000000E+00  0.00000000E+00
  0.00000000E+00  0.00000000E+00  0.00000000E+00
  0.00000000E+00  0.00000000E+00  0.00000000E+00
  0.00000000E+00  0.00000000E+00  0.00000000E+00
  0.00000000E+00  0.00000000E+00  0.00000000E+00
  0.00000000E+00  0.00000000E+00  0.00000000E+00
  0.00000000E+00  0.00000000E+00  0.00000000E+00
  0.00000000E+00  0.00000000E+00  0.00000000E+00
  0.00000000E+00  0.00000000E+00  0.00000000E+00
  0.00000000E+00  0.00000000E+00  0.00000000E+00
  0.00000000E+00  0.00000000E+00  0.00000000E+00
  0.00000000E+00  0.00000000E+00  0.00000000E+00
  0.00000000E+00  0.00000000E+00  0.00000000E+00
  0.00000000E+00  0.00000000E+00  0.00000000E+00
  0.00000000E+00  0.00000000E+00  0.00000000E+00
  0.00000000E+00  0.00000000E+00  0.00000000E+00
  0.00000000E+00  0.00000000E+00  0.00000000E+00
  0.00000000E+00  0.00000000E+00  0.00000000E+00
  0.00000000E+00  0.00000000E+00  0.00000000E+00
  0.00000000E+00  0.00000000E+00  0.00000000E+00
  0.00000000E+00  0.00000000E+00  0.00000000E+00
  0.00000000E+00  0.00000000E+00  0.00000000E+00
  0.00000000E+00  0.00000000E+00  0.00000000E+00
  0.00000000E+00  0.00000000E+00  0.00000000E+00
  0.00000000E+00  0.00000000E+00  0.00000000E+00
  0.00000000E+00  0.00000000E+00  0.00000000E+00
  0.00000000E+00  0.00000000E+00  0.00000000E+00
  0.00000000E+00  0.00000000E+00  0.00000000E+00
  0.00000000E+00  0.00000000E+00  0.00000000E+00
  0.00000000E+00  0.00000000E+00  0.00000000E+00
  0.00000000E+00  0.00000000E+00  0.00000000E+00
  0.00000000E+00  0.00000000E+00  0.00000000E+00
  0.00000000E+00  0.00000000E+00  0.00000000E+00
  0.00000000E+00  0.00000000E+00  0.00000000E+00
  0.00000000E+00  0.00000000E+00  0.00000000E+00
  0.00000000E+00  0.00000000E+00  0.00000000E+00
  0.00000000E+00  0.00000000E+00  0.00000000E+00
  0.00000000E+00  0.00000000E+00  0.00000000E+00
  0.00000000E+00  0.00000000E+00  0.00000000E+00
  0.00000000E+00  0.00000000E+00  0.00000000E+00
  0.00000000E+00  0.00000000E+00  0.00000000E+00
  0.00000000E+00  0.00000000E+00  0.00000000E+00
  0.00000000E+00  0.00000000E+00  0.00000000E+00
  0.00000000E+00  0.00000000E+00  0.00000000E+00
  0.00000000E+00  0.00000000E+00  0.00000000E+00
  0.00000000E+00  0.00000000E+00  0.00000000E+00
  0.00000000E+00  0.00000000E+00  0.00000000E+00
  0.00000000E+00  0.00000000E+00  0.00000000E+00
  0.00000000E+00  0.00000000E+00  0.00000000E+00
  0.00000000E+00  0.00000000E+00  0.00000000E+00
  0.00000000E+00  0.00000000E+00  0.00000000E+00
  0.00000000E+00  0.00000000E+00  0.00000000E+00
  0.00000000E+00  0.00000000E+00  0.00000000E+00
  0.00000000E+00  0.00000000E+00  0.00000000E+00
  0.00000000E+00  0.00000000E+00  0.00000000E+00
  0.00000000E+00  0.00000000E+00  0.00000000E+00
  0.00000000E+00  0.00000000E+00  0.00000000E+00
  0.00000000E+00  0.00000000E+00  0.00000000E+00
  0.00000000E+00  0.00000000E+00  0.00000000E+00
  0.00000000E+00  0.00000000E+00  0.00000000E+00
  0.00000000E+00  0.00000000E+00  0.00000000E+00
  0.00000000E+00  0.00000000E+00  0.00000000E+00
  0.00000000E+00  0.00000000E+00  0.00000000E+00
  0.00000000E+00  0.00000000E+00  0.00000000E+00
  0.00000000E+00  0.00000000E+00  0.00000000E+00
  0.00000000E+00  0.00000000E+00  0.00000000E+00
  0.00000000E+00  0.00000000E+00  0.00000000E+00
  0.00000000E+00  0.00000000E+00  0.00000000E+00
