Al   Gd   N                             
   1.00000000000000     
   -10.1141374039692291   -0.0765309064701912    0.0032465789708837
    -4.8784742156732008    8.5922472018593830    0.0102078699452654
     0.1245334477594077    0.0839543723572597  -10.2056661601692031
   Al   Gd   N 
    28     8    36
Direct
  0.1270365692885207  0.0859173161488087  0.3994904934804211
  0.2138071979372000  0.2127242552911568  0.1495415292779967
  0.5293396711395388  0.2255250480713471  0.1518094068401581
  0.1145724511853174  0.0906543446895824  0.9019135130285676
  0.2273420224501024  0.2011408345951295  0.6582340330273766
  0.7807596972863919  0.0977400167010387  0.3308393328764581
  0.9119571535368038  0.1958859678710425  0.1542671537983935
  0.4172420472130440  0.1174211639006941  0.9031847202009260
  0.5262440910219155  0.2219202893080450  0.6704261678577907
  0.1266438316014771  0.4198207773221299  0.4021179207596077
  0.2167927921409003  0.5388261166903874  0.1542312927142930
  0.4534875652219981  0.4289730985239686  0.4132023534949170
  0.1137592897404289  0.4313478171400860  0.9014573869515914
  0.2303221655574319  0.5349347907114392  0.6504055661705905
  0.7892397664347044  0.4270430361826953  0.3393969399819099
  0.9151093997436490  0.5289297235169457  0.1210106017457804
  0.4099482444187217  0.4424232789956477  0.9031063226438434
  0.5270528374278953  0.5516643473882894  0.6659019865100220
  0.1383744065577872  0.7495457168290400  0.4010403274013541
  0.2164173156077709  0.8778274401945865  0.1538463838214454
  0.7836548641347321  0.7588577762547999  0.8404737646658234
  0.4612628583442842  0.7506075731085957  0.4158952030534380
  0.1113233372164544  0.7586236433797211  0.9002936679785165
  0.2294532858761471  0.8697955406662672  0.6488359128417756
  0.7943915553255394  0.7442855942724549  0.3328580120982210
  0.9159169590649228  0.8591656376954546  0.1548670285454534
  0.4122892084238998  0.7741664966502029  0.8995467217968454
  0.5321911762818416  0.8824687151895745  0.6758014924057889
  0.7663247473598389  0.0926997268302756  0.8912404964531859
  0.8821351015800332  0.2069066928687135  0.6181815151108623
  0.4504112397088846  0.0881995915421498  0.4054191859670340
  0.7661240433972978  0.4341161066168056  0.8846753245845989
  0.8858952304854668  0.5377021287834651  0.6144630397234749
  0.5401806432227261  0.5444281206103128  0.1447243018170710
  0.8845645533883157  0.8744958948492609  0.6109796936693925
  0.5649974142043064  0.8710774738230782  0.1136376199469282
  0.2027388462535953  0.2153905168940682  0.3337130955651517
  0.1136850019226472  0.0928857567607935  0.0955011580747751
  0.9163063368764242  0.1881890172180505  0.8471286707288002
  0.7306589754947765  0.1143541965689394  0.6444038896414739
  0.5666002177962852  0.2250416139748239  0.3351469315900886
  0.4215194457594080  0.1251066075202374  0.0980674726836384
  0.2103402874294744  0.2110887242352604  0.8490657278717748
  0.1465539767072741  0.0777191665205024  0.5837726119105326
  0.9023030310888984  0.1981536839712845  0.3539485340757338
  0.7867115718517752  0.0898992396666785  0.1344801378939167
  0.5063712037073387  0.2350464534018144  0.8538120025328197
  0.4370641673598428  0.0942110949437094  0.6257885256289839
  0.2328879568410684  0.5338665269217628  0.3425817714931014
  0.1204499229958742  0.4242434409461922  0.0928432462342599
  0.9040449489810030  0.5474021298301324  0.8731685397852260
  0.7348141786946840  0.4493987453094093  0.6565839674436518
  0.5654706956356819  0.5343922105796324  0.3672474949608784
  0.4146921084379827  0.4262942856554588  0.0887040067906710
  0.2091008078854415  0.5461870865039984  0.8404115058827841
  0.1500213231744212  0.4062703045504463  0.5883583098547760
  0.9051599227373117  0.5293833293554684  0.3750959013934718
  0.8063529512075149  0.4175702359211400  0.1390805827613733
  0.5026509329109814  0.5626655316179452  0.8570884960241116
  0.4379127603357489  0.4299874987861685  0.5991399257714249
  0.2364116335000688  0.8669826685687099  0.3426796657405475
  0.1181531655679109  0.7591616072385108  0.0970729262062520
  0.9079232995605011  0.8471998486777252  0.8519885664572868
  0.7375019744748599  0.7790396841386169  0.6566278439188267
  0.5806597899236152  0.8359938209112414  0.3470459464693363
  0.4050467790235075  0.7839456202950146  0.0816277999225505
  0.2100177515933268  0.8792818094676562  0.8387134870118871
  0.1486209783219010  0.7428371242069076  0.5850067355559787
  0.9032925238774467  0.8698913395586914  0.3572206839880465
  0.8222228416233790  0.7387582024889170  0.1462273174564501
  0.5411787313868501  0.8809005007180275  0.8702422224987174
  0.4400657034814301  0.7656278919617847  0.6053512086216344
 
  0.00000000E+00  0.00000000E+00  0.00000000E+00
  0.00000000E+00  0.00000000E+00  0.00000000E+00
  0.00000000E+00  0.00000000E+00  0.00000000E+00
  0.00000000E+00  0.00000000E+00  0.00000000E+00
  0.00000000E+00  0.00000000E+00  0.00000000E+00
  0.00000000E+00  0.00000000E+00  0.00000000E+00
  0.00000000E+00  0.00000000E+00  0.00000000E+00
  0.00000000E+00  0.00000000E+00  0.00000000E+00
  0.00000000E+00  0.00000000E+00  0.00000000E+00
  0.00000000E+00  0.00000000E+00  0.00000000E+00
  0.00000000E+00  0.00000000E+00  0.00000000E+00
  0.00000000E+00  0.00000000E+00  0.00000000E+00
  0.00000000E+00  0.00000000E+00  0.00000000E+00
  0.00000000E+00  0.00000000E+00  0.00000000E+00
  0.00000000E+00  0.00000000E+00  0.00000000E+00
  0.00000000E+00  0.00000000E+00  0.00000000E+00
  0.00000000E+00  0.00000000E+00  0.00000000E+00
  0.00000000E+00  0.00000000E+00  0.00000000E+00
  0.00000000E+00  0.00000000E+00  0.00000000E+00
  0.00000000E+00  0.00000000E+00  0.00000000E+00
  0.00000000E+00  0.00000000E+00  0.00000000E+00
  0.00000000E+00  0.00000000E+00  0.00000000E+00
  0.00000000E+00  0.00000000E+00  0.00000000E+00
  0.00000000E+00  0.00000000E+00  0.00000000E+00
  0.00000000E+00  0.00000000E+00  0.00000000E+00
  0.00000000E+00  0.00000000E+00  0.00000000E+00
  0.00000000E+00  0.00000000E+00  0.00000000E+00
  0.00000000E+00  0.00000000E+00  0.00000000E+00
  0.00000000E+00  0.00000000E+00  0.00000000E+00
  0.00000000E+00  0.00000000E+00  0.00000000E+00
  0.00000000E+00  0.00000000E+00  0.00000000E+00
  0.00000000E+00  0.00000000E+00  0.00000000E+00
  0.00000000E+00  0.00000000E+00  0.00000000E+00
  0.00000000E+00  0.00000000E+00  0.00000000E+00
  0.00000000E+00  0.00000000E+00  0.00000000E+00
  0.00000000E+00  0.00000000E+00  0.00000000E+00
  0.00000000E+00  0.00000000E+00  0.00000000E+00
  0.00000000E+00  0.00000000E+00  0.00000000E+00
  0.00000000E+00  0.00000000E+00  0.00000000E+00
  0.00000000E+00  0.00000000E+00  0.00000000E+00
  0.00000000E+00  0.00000000E+00  0.00000000E+00
  0.00000000E+00  0.00000000E+00  0.00000000E+00
  0.00000000E+00  0.00000000E+00  0.00000000E+00
  0.00000000E+00  0.00000000E+00  0.00000000E+00
  0.00000000E+00  0.00000000E+00  0.00000000E+00
  0.00000000E+00  0.00000000E+00  0.00000000E+00
  0.00000000E+00  0.00000000E+00  0.00000000E+00
  0.00000000E+00  0.00000000E+00  0.00000000E+00
  0.00000000E+00  0.00000000E+00  0.00000000E+00
  0.00000000E+00  0.00000000E+00  0.00000000E+00
  0.00000000E+00  0.00000000E+00  0.00000000E+00
  0.00000000E+00  0.00000000E+00  0.00000000E+00
  0.00000000E+00  0.00000000E+00  0.00000000E+00
  0.00000000E+00  0.00000000E+00  0.00000000E+00
  0.00000000E+00  0.00000000E+00  0.00000000E+00
  0.00000000E+00  0.00000000E+00  0.00000000E+00
  0.00000000E+00  0.00000000E+00  0.00000000E+00
  0.00000000E+00  0.00000000E+00  0.00000000E+00
  0.00000000E+00  0.00000000E+00  0.00000000E+00
  0.00000000E+00  0.00000000E+00  0.00000000E+00
  0.00000000E+00  0.00000000E+00  0.00000000E+00
  0.00000000E+00  0.00000000E+00  0.00000000E+00
  0.00000000E+00  0.00000000E+00  0.00000000E+00
  0.00000000E+00  0.00000000E+00  0.00000000E+00
  0.00000000E+00  0.00000000E+00  0.00000000E+00
  0.00000000E+00  0.00000000E+00  0.00000000E+00
  0.00000000E+00  0.00000000E+00  0.00000000E+00
  0.00000000E+00  0.00000000E+00  0.00000000E+00
  0.00000000E+00  0.00000000E+00  0.00000000E+00
  0.00000000E+00  0.00000000E+00  0.00000000E+00
  0.00000000E+00  0.00000000E+00  0.00000000E+00
  0.00000000E+00  0.00000000E+00  0.00000000E+00
