Al   Gd   N                             
   1.00000000000000     
    -9.8754638284429177   -0.0885508052155467    0.0196382608735772
    -4.9724710549573414    8.4837520483108975    0.0254209834507757
    -0.1397123574875225   -0.0902418492171483  -10.7972296967848767
   Al   Gd   N 
    28     8    36
Direct
  0.1160822190794448  0.0819776047059335  0.2991034062956928
  0.2197070914531238  0.2103643762502685  0.1268694791196552
  0.5401769433844308  0.2188945351071538  0.1205663131365782
  0.1111907182790262  0.0874273134156027  0.8148645368155911
  0.2342615882724814  0.1982176250716492  0.6501531805589664
  0.7886268844951019  0.0922748273416119  0.2801521793082244
  0.9088822851449763  0.1975656096178753  0.0642768509083496
  0.4163253525388981  0.1168485650305371  0.8835125361399676
  0.5301089839046540  0.2188918528644166  0.6437489963640459
  0.1147569321248270  0.4364950762509139  0.3001988335091710
  0.2110948403881920  0.5430861340701014  0.0543515340759484
  0.4640688828029056  0.4236061973832577  0.3858796073872099
  0.1137861646887828  0.4367206264423018  0.8150322976034801
  0.2288446758290945  0.5353378432141085  0.5603567702486529
  0.8015979165072551  0.4191832014223635  0.2946306714174298
  0.9130585805067497  0.5321158301211000  0.0592320073716550
  0.4185534224366165  0.4395291260135252  0.8747220351821170
  0.5303072539274609  0.5489319445276877  0.6344157329947038
  0.1212123976539701  0.7589661622963675  0.3049651248823224
  0.2045582718545802  0.8781067916517955  0.0497177955977719
  0.7862376102743696  0.7571839523728698  0.8232326035273729
  0.4694958324495673  0.7474723228535751  0.3928491425531249
  0.1175839826059288  0.7540771657862280  0.8093388387119802
  0.2290544537529087  0.8697559046754719  0.5640934618274258
  0.7983409627609959  0.7481945273522044  0.2907865354743322
  0.9100211158130094  0.8550848578394579  0.0597643903034850
  0.4203369969006800  0.7695716311293666  0.8733795243972438
  0.5399040209112300  0.8788802481580049  0.6544289367961866
  0.7629890024165320  0.0963531733713694  0.8478458017538841
  0.8836471998871787  0.2050994013960405  0.5517073238523835
  0.4502333379677523  0.0933175309781262  0.3834370601895998
  0.7621176623444299  0.4408225719820393  0.8418046685061569
  0.8877718504544276  0.5382937236472927  0.5607259651970864
  0.5393796566115583  0.5403655616459702  0.1322384839445547
  0.8871758682825615  0.8713965557587571  0.5574503536865407
  0.5569194914187960  0.8725237279785816  0.0985935062890348
  0.2073612659583475  0.2130577781659966  0.3090558525718379
  0.1195258809944377  0.0816643378467035  0.1191550501853129
  0.9155555149328976  0.1941991265570451  0.8899804340996411
  0.7496117772554101  0.1058417493144077  0.6325123100755548
  0.5645621640140774  0.2270121241822523  0.2968688673922486
  0.4243540259091745  0.1269376570040492  0.0619629667940771
  0.2109131740973496  0.2101439905614697  0.8299959411189946
  0.1318502562948041  0.0766822345839486  0.6336686135229854
  0.8946727387023472  0.1998381570797818  0.3350695999482483
  0.7827574049450092  0.0879159935959777  0.0975809218508701
  0.4989720932570378  0.2364888789480233  0.8158478894959487
  0.4432796458889783  0.0896990897796712  0.5946683766306222
  0.2216200470792771  0.5422064536968918  0.3725080586683589
  0.1177188364415613  0.4325175590671435  0.1200932818995639
  0.9051561354611124  0.5493022469204618  0.8799548243102251
  0.7515463136462230  0.4380335958648587  0.6328484766044511
  0.5711655819841752  0.5330013311529669  0.3420620574514075
  0.4327717980396102  0.4158998661234961  0.0508372824717753
  0.2019906168523278  0.5522886374128788  0.8772939892451390
  0.1383745633377629  0.4217445949148342  0.6341376242510179
  0.8991985354228973  0.5360772107638709  0.3477246908673095
  0.8080600364381070  0.4175462543307731  0.1102733543900101
  0.4956758087823729  0.5661125491890573  0.8102028427841503
  0.4518604936666790  0.4190845375510150  0.5631712904986657
  0.2240775523442338  0.8718032670881612  0.3761781101629893
  0.1222885712057931  0.7561723365897777  0.1228535168245415
  0.9071250815950265  0.8434671968231839  0.8794018645508430
  0.7583718013222338  0.7703322087873659  0.6495503400919986
  0.5756556940235384  0.8419509946618575  0.3160563192580739
  0.4195752396389594  0.7662127167806858  0.0472219727207559
  0.1993004856447911  0.8806921785473563  0.8702441057488386
  0.1426127526780547  0.7444345118550473  0.6293122810744620
  0.8904089334806216  0.8764515189854052  0.3405848994477054
  0.8191452441908567  0.7399101477065884  0.1156317659860662
  0.5387394418965243  0.8815828428426755  0.8400481570428227
  0.4530730577956845  0.7612043545845211  0.5736042471711613
 
  0.00000000E+00  0.00000000E+00  0.00000000E+00
  0.00000000E+00  0.00000000E+00  0.00000000E+00
  0.00000000E+00  0.00000000E+00  0.00000000E+00
  0.00000000E+00  0.00000000E+00  0.00000000E+00
  0.00000000E+00  0.00000000E+00  0.00000000E+00
  0.00000000E+00  0.00000000E+00  0.00000000E+00
  0.00000000E+00  0.00000000E+00  0.00000000E+00
  0.00000000E+00  0.00000000E+00  0.00000000E+00
  0.00000000E+00  0.00000000E+00  0.00000000E+00
  0.00000000E+00  0.00000000E+00  0.00000000E+00
  0.00000000E+00  0.00000000E+00  0.00000000E+00
  0.00000000E+00  0.00000000E+00  0.00000000E+00
  0.00000000E+00  0.00000000E+00  0.00000000E+00
  0.00000000E+00  0.00000000E+00  0.00000000E+00
  0.00000000E+00  0.00000000E+00  0.00000000E+00
  0.00000000E+00  0.00000000E+00  0.00000000E+00
  0.00000000E+00  0.00000000E+00  0.00000000E+00
  0.00000000E+00  0.00000000E+00  0.00000000E+00
  0.00000000E+00  0.00000000E+00  0.00000000E+00
  0.00000000E+00  0.00000000E+00  0.00000000E+00
  0.00000000E+00  0.00000000E+00  0.00000000E+00
  0.00000000E+00  0.00000000E+00  0.00000000E+00
  0.00000000E+00  0.00000000E+00  0.00000000E+00
  0.00000000E+00  0.00000000E+00  0.00000000E+00
  0.00000000E+00  0.00000000E+00  0.00000000E+00
  0.00000000E+00  0.00000000E+00  0.00000000E+00
  0.00000000E+00  0.00000000E+00  0.00000000E+00
  0.00000000E+00  0.00000000E+00  0.00000000E+00
  0.00000000E+00  0.00000000E+00  0.00000000E+00
  0.00000000E+00  0.00000000E+00  0.00000000E+00
  0.00000000E+00  0.00000000E+00  0.00000000E+00
  0.00000000E+00  0.00000000E+00  0.00000000E+00
  0.00000000E+00  0.00000000E+00  0.00000000E+00
  0.00000000E+00  0.00000000E+00  0.00000000E+00
  0.00000000E+00  0.00000000E+00  0.00000000E+00
  0.00000000E+00  0.00000000E+00  0.00000000E+00
  0.00000000E+00  0.00000000E+00  0.00000000E+00
  0.00000000E+00  0.00000000E+00  0.00000000E+00
  0.00000000E+00  0.00000000E+00  0.00000000E+00
  0.00000000E+00  0.00000000E+00  0.00000000E+00
  0.00000000E+00  0.00000000E+00  0.00000000E+00
  0.00000000E+00  0.00000000E+00  0.00000000E+00
  0.00000000E+00  0.00000000E+00  0.00000000E+00
  0.00000000E+00  0.00000000E+00  0.00000000E+00
  0.00000000E+00  0.00000000E+00  0.00000000E+00
  0.00000000E+00  0.00000000E+00  0.00000000E+00
  0.00000000E+00  0.00000000E+00  0.00000000E+00
  0.00000000E+00  0.00000000E+00  0.00000000E+00
  0.00000000E+00  0.00000000E+00  0.00000000E+00
  0.00000000E+00  0.00000000E+00  0.00000000E+00
  0.00000000E+00  0.00000000E+00  0.00000000E+00
  0.00000000E+00  0.00000000E+00  0.00000000E+00
  0.00000000E+00  0.00000000E+00  0.00000000E+00
  0.00000000E+00  0.00000000E+00  0.00000000E+00
  0.00000000E+00  0.00000000E+00  0.00000000E+00
  0.00000000E+00  0.00000000E+00  0.00000000E+00
  0.00000000E+00  0.00000000E+00  0.00000000E+00
  0.00000000E+00  0.00000000E+00  0.00000000E+00
  0.00000000E+00  0.00000000E+00  0.00000000E+00
  0.00000000E+00  0.00000000E+00  0.00000000E+00
  0.00000000E+00  0.00000000E+00  0.00000000E+00
  0.00000000E+00  0.00000000E+00  0.00000000E+00
  0.00000000E+00  0.00000000E+00  0.00000000E+00
  0.00000000E+00  0.00000000E+00  0.00000000E+00
  0.00000000E+00  0.00000000E+00  0.00000000E+00
  0.00000000E+00  0.00000000E+00  0.00000000E+00
  0.00000000E+00  0.00000000E+00  0.00000000E+00
  0.00000000E+00  0.00000000E+00  0.00000000E+00
  0.00000000E+00  0.00000000E+00  0.00000000E+00
  0.00000000E+00  0.00000000E+00  0.00000000E+00
  0.00000000E+00  0.00000000E+00  0.00000000E+00
  0.00000000E+00  0.00000000E+00  0.00000000E+00
