supercell of icsd_191774.cif            
   1.00000000000000     
    10.8765587166650164   -0.0072407254648354    0.0014868047460842
    -5.4445465773906774    9.4176941645302499   -0.0042128987503230
     0.0016464746642401   -0.0043090052431427   11.3614286010742056
   N    In   Y 
    36    26    10
Direct
  0.2232456859972700  0.1111265210689680  0.4397072924755534
  0.1118202255665182  0.2186908839830082  0.1933346870032295
  0.8842392340540783  0.1034069349566877  0.9386832850201543
  0.7777860397070739  0.2236000643083358  0.6986613819453495
  0.5486134772460147  0.1097311562167107  0.4392826442786273
  0.4431367962976154  0.2222431449014266  0.1890615922621706
  0.2256606298270327  0.1024309061234874  0.9369774882998172
  0.1074183687620973  0.2121536186799347  0.6919905443005447
  0.8939209074307897  0.1093843459713426  0.4398461039176240
  0.7771194653505518  0.2205537623871336  0.1961456869613230
  0.5471610904501318  0.1038736842701056  0.9395220734689786
  0.4444082795064332  0.2227390074532352  0.6891100186845875
  0.2219318330294939  0.4444004924749478  0.4576609099971733
  0.1085052019605897  0.5589726512161945  0.1926446118477756
  0.8938937377824416  0.4526742188976982  0.9429601525761058
  0.7780924013159023  0.5575481080215283  0.6922211147234520
  0.5471602006163465  0.4396601542037715  0.4387696903079785
  0.4450358556884240  0.5535971666755017  0.1917396803061777
  0.2175270477007984  0.4445177056345742  0.9393249225480957
  0.1010875793609500  0.5558123117119536  0.6881180910261406
  0.8935725897242222  0.4467650343584353  0.4376697761541806
  0.7759792677275215  0.5559885467874039  0.1937076508595368
  0.5610795433055102  0.4361299082517718  0.9411326936903777
  0.4512525852748794  0.5543455234926782  0.6977801186234487
  0.2212532311113975  0.7782797105872135  0.4410729623169729
  0.1121128664701629  0.8904082878618880  0.1906479559861225
  0.8891867495045744  0.7773026862093602  0.9419590002243368
  0.7884885135203632  0.8934885939074206  0.6874872192195127
  0.5574346056093447  0.7788873399305487  0.4502397335202275
  0.4405214620624065  0.8924495863302297  0.1928432077308031
  0.2217403525211665  0.7759808916425186  0.9452853776768890
  0.1057887767726911  0.8922491473397045  0.6855173606860561
  0.8941711216333843  0.7853083001709678  0.4356626188187960
  0.7856256665348695  0.8923530992432163  0.1895277141940923
  0.5580942907077286  0.7841529400903866  0.9445531424241480
  0.4461181446667126  0.8974703353275899  0.6869012913027603
  0.2224868895164533  0.1097559549595672  0.2490460504007359
  0.1110932826743181  0.2162454214259810  0.5003017979444095
  0.8891095934633526  0.1087299336720520  0.7487605053279154
  0.5514989442292517  0.1122373147714129  0.2487894380202036
  0.4404865483352296  0.2206456760749518  0.4978829495557591
  0.2225419598105773  0.1079341734466510  0.7463489741194280
  0.8924198139611335  0.1102407528624241  0.2491429430303498
  0.5531757797225225  0.1126314632245240  0.7487006344883156
  0.4433360247881097  0.2160498296560291  0.9975281186458389
  0.1082766218369997  0.5577620411229347  0.4984836632395329
  0.8868394804569348  0.4476535726016664  0.7515489951309249
  0.7806035227991401  0.5568268996859018  0.9997833931002305
  0.5519938062332628  0.4419509411722089  0.2468324041098882
  0.4461728859333647  0.5544469280199493  0.5037330145280379
  0.1121145668233225  0.5575275169617484  0.0005794385330375
  0.8885463345903517  0.4461492781344063  0.2471746399528101
  0.5591172274420089  0.4413377554199371  0.7500036562653207
  0.2196394670323798  0.7799869948903151  0.2480922529739615
  0.1109077090351178  0.8919160144222715  0.4956936101051639
  0.8903649701569236  0.7796603376609355  0.7497760884262092
  0.7795790376134661  0.8884451593774259  0.9988808777739280
  0.4420294600338508  0.8911856368395661  0.4971062073386179
  0.1119378860478264  0.8857882525375942  0.0001413778432990
  0.8927965633155353  0.7813860187460833  0.2454924518955508
  0.7852536932580634  0.8917710224962576  0.4981106563152835
  0.4412928655448525  0.8886042053729568  0.0010765909733905
  0.7753809905066902  0.2217753018167556  0.9949884592377742
  0.1111628117116510  0.2153030036828554  0.9948873136067746
  0.7773229935029917  0.2200835085134898  0.4970721012771762
  0.2198756179323880  0.4435442465519799  0.2557893127398216
  0.2168170537327470  0.4416964581149685  0.7382367301643313
  0.7771933052895363  0.5584283357356483  0.4933164140898896
  0.4476212743840975  0.5535526292953676  0.9929411111354440
  0.5586277793616006  0.7815002788774450  0.2493638344574052
  0.2191759349603046  0.7819352181406103  0.7466284520184274
  0.5630234791661834  0.7866351530272127  0.7438157458556987
 
  0.00000000E+00  0.00000000E+00  0.00000000E+00
  0.00000000E+00  0.00000000E+00  0.00000000E+00
  0.00000000E+00  0.00000000E+00  0.00000000E+00
  0.00000000E+00  0.00000000E+00  0.00000000E+00
  0.00000000E+00  0.00000000E+00  0.00000000E+00
  0.00000000E+00  0.00000000E+00  0.00000000E+00
  0.00000000E+00  0.00000000E+00  0.00000000E+00
  0.00000000E+00  0.00000000E+00  0.00000000E+00
  0.00000000E+00  0.00000000E+00  0.00000000E+00
  0.00000000E+00  0.00000000E+00  0.00000000E+00
  0.00000000E+00  0.00000000E+00  0.00000000E+00
  0.00000000E+00  0.00000000E+00  0.00000000E+00
  0.00000000E+00  0.00000000E+00  0.00000000E+00
  0.00000000E+00  0.00000000E+00  0.00000000E+00
  0.00000000E+00  0.00000000E+00  0.00000000E+00
  0.00000000E+00  0.00000000E+00  0.00000000E+00
  0.00000000E+00  0.00000000E+00  0.00000000E+00
  0.00000000E+00  0.00000000E+00  0.00000000E+00
  0.00000000E+00  0.00000000E+00  0.00000000E+00
  0.00000000E+00  0.00000000E+00  0.00000000E+00
  0.00000000E+00  0.00000000E+00  0.00000000E+00
  0.00000000E+00  0.00000000E+00  0.00000000E+00
  0.00000000E+00  0.00000000E+00  0.00000000E+00
  0.00000000E+00  0.00000000E+00  0.00000000E+00
  0.00000000E+00  0.00000000E+00  0.00000000E+00
  0.00000000E+00  0.00000000E+00  0.00000000E+00
  0.00000000E+00  0.00000000E+00  0.00000000E+00
  0.00000000E+00  0.00000000E+00  0.00000000E+00
  0.00000000E+00  0.00000000E+00  0.00000000E+00
  0.00000000E+00  0.00000000E+00  0.00000000E+00
  0.00000000E+00  0.00000000E+00  0.00000000E+00
  0.00000000E+00  0.00000000E+00  0.00000000E+00
  0.00000000E+00  0.00000000E+00  0.00000000E+00
  0.00000000E+00  0.00000000E+00  0.00000000E+00
  0.00000000E+00  0.00000000E+00  0.00000000E+00
  0.00000000E+00  0.00000000E+00  0.00000000E+00
  0.00000000E+00  0.00000000E+00  0.00000000E+00
  0.00000000E+00  0.00000000E+00  0.00000000E+00
  0.00000000E+00  0.00000000E+00  0.00000000E+00
  0.00000000E+00  0.00000000E+00  0.00000000E+00
  0.00000000E+00  0.00000000E+00  0.00000000E+00
  0.00000000E+00  0.00000000E+00  0.00000000E+00
  0.00000000E+00  0.00000000E+00  0.00000000E+00
  0.00000000E+00  0.00000000E+00  0.00000000E+00
  0.00000000E+00  0.00000000E+00  0.00000000E+00
  0.00000000E+00  0.00000000E+00  0.00000000E+00
  0.00000000E+00  0.00000000E+00  0.00000000E+00
  0.00000000E+00  0.00000000E+00  0.00000000E+00
  0.00000000E+00  0.00000000E+00  0.00000000E+00
  0.00000000E+00  0.00000000E+00  0.00000000E+00
  0.00000000E+00  0.00000000E+00  0.00000000E+00
  0.00000000E+00  0.00000000E+00  0.00000000E+00
  0.00000000E+00  0.00000000E+00  0.00000000E+00
  0.00000000E+00  0.00000000E+00  0.00000000E+00
  0.00000000E+00  0.00000000E+00  0.00000000E+00
  0.00000000E+00  0.00000000E+00  0.00000000E+00
  0.00000000E+00  0.00000000E+00  0.00000000E+00
  0.00000000E+00  0.00000000E+00  0.00000000E+00
  0.00000000E+00  0.00000000E+00  0.00000000E+00
  0.00000000E+00  0.00000000E+00  0.00000000E+00
  0.00000000E+00  0.00000000E+00  0.00000000E+00
  0.00000000E+00  0.00000000E+00  0.00000000E+00
  0.00000000E+00  0.00000000E+00  0.00000000E+00
  0.00000000E+00  0.00000000E+00  0.00000000E+00
  0.00000000E+00  0.00000000E+00  0.00000000E+00
  0.00000000E+00  0.00000000E+00  0.00000000E+00
  0.00000000E+00  0.00000000E+00  0.00000000E+00
  0.00000000E+00  0.00000000E+00  0.00000000E+00
  0.00000000E+00  0.00000000E+00  0.00000000E+00
  0.00000000E+00  0.00000000E+00  0.00000000E+00
  0.00000000E+00  0.00000000E+00  0.00000000E+00
  0.00000000E+00  0.00000000E+00  0.00000000E+00
