supercell of POSCAR                     
   1.03600000000000     
     9.6051007291200001   -5.6678653607799996   -9.9907275475200006
     9.5551777488200003    5.5783510108199996    9.9928581731800001
    -1.5573508785200001   -8.3719044994900003    4.9655686364999996
   Al   Gd   N    O 
    72    24    95     1
Direct
  0.3015298019630208  0.2878653162465383  0.5380317933248548
  0.1424155560215183  0.2450497232004167  0.3112730452489956
  0.3071782379572099  0.4101279856414664  0.3096467078329894
  0.4631802131238700  0.3225490199769112  0.7859536698794045
  0.1415833360119763  0.4980214576703190  0.7837804224223888
  0.2970582474945687  0.1640584688844484  0.7751263975499114
  0.4694046275641170  0.4474067013037981  0.5339319312683344
  0.1421914381776901  0.1193966410687750  0.5388094208054710
  0.5031890209202814  0.0443184925229687  0.2736230224381799
  0.2696272194637288  0.1109481615969301  0.3336972703529355
  0.1149482968267819  0.0699978278641566  0.0991843442588731
  0.1155813104320629  0.1960035707792045  0.8155997948144957
  0.2737966010440331  0.3556703917689887  0.8121035597526287
  0.1121272508861679  0.3243105353263473  0.5889746832111271
  0.2709583247240488  0.4847827804465226  0.5767436908988017
  0.4454466659440683  0.2858071136202227  0.3347269908650787
  0.1111948736803114  0.4462119069441002  0.3411746528527360
  0.4482150544084433  0.4038339464364640  0.1010423391354820
  0.8010560039129260  0.2885470213755355  0.5391829470619456
  0.6430706845544591  0.2432581750576475  0.3126337984871341
  0.8080083641954658  0.4089365627613617  0.3115230356574799
  0.9633994189396375  0.3254828528579381  0.7887423504351503
  0.6418621690776760  0.4981694661090259  0.7847349600089117
  0.7960264699696467  0.1652516030249629  0.7807638079597723
  0.9695143237403130  0.4462279741693749  0.5337945365900651
  0.6455182175473908  0.1187734278494261  0.5400412023790153
  0.9791286264554486  0.0717471545108452  0.2989390268072682
  0.7771514046768075  0.1083163756100305  0.3356927778313405
  0.6183982478971117  0.0740734091868234  0.0957463106549881
  0.6147934573209071  0.1958039406160097  0.8164365898395047
  0.7746834029802088  0.3552926021412048  0.8125344101069203
  0.6110424860602421  0.3242092393298108  0.5895526718773567
  0.7704248048962015  0.4847936991673407  0.5772448680648097
  0.9489371335481351  0.2804916867396798  0.3366152497618344
  0.6112202414911323  0.4452638531492852  0.3401087490292625
  0.9478591863246564  0.4049678414065951  0.1036393207985356
  0.3012081088022143  0.7885072391021737  0.5384855559943702
  0.1438881516699340  0.7443110266729605  0.3123047378506669
  0.3089697158590212  0.9100325373934766  0.3106505773891399
  0.4632074610841883  0.8251838475814210  0.7887785148173379
  0.1425619069248825  0.9981253330708171  0.7836805085075156
  0.2954685902444609  0.6645492795885204  0.7795697537864044
  0.4702153449892705  0.9446040666951490  0.5329473600582304
  0.1435680549216087  0.6194539740286160  0.5391862299040397
  0.4785106057488520  0.5710206750947364  0.2984706510849051
  0.2757076406363410  0.6084607991912065  0.3362648183696777
  0.1145302163267559  0.5709698584211580  0.1008506295243876
  0.1149641283332485  0.6959351620844245  0.8174066094558654
  0.2743344386623150  0.8551355941089085  0.8113481518534229
  0.1120379645724654  0.8246000555616675  0.5891356494351356
  0.2709125927222829  0.9856429392530259  0.5752361449879544
  0.4486826593686644  0.7789826129537758  0.3355642429368473
  0.1115670186790467  0.9454509758526086  0.3396964024924713
  0.4438872206171283  0.9009574107664093  0.0980931902505233
  0.8012646339321350  0.7883318263706940  0.5404079748847508
  0.6434180351149053  0.7420880756381649  0.3128356234497858
  0.8098857517207279  0.9092000071511990  0.3118089879382495
  0.9627576900365327  0.8250702049889540  0.7893573175843613
  0.6422100856208175  0.9973106956672453  0.7841808097672853
  0.7954443162250868  0.6647766708162095  0.7798399859628162
  0.9700707677978215  0.9460964974163630  0.5334894925745033
  0.6432792288787539  0.6190813781414022  0.5398983702609499
  0.9789362193230033  0.5714267350669147  0.2990239595119135
  0.7761547148428320  0.6086532955730206  0.3372852244422404
  0.6152404315634783  0.5695964591894693  0.1016804030155924
  0.6149097024639687  0.6963080713925578  0.8184558858536022
  0.7740498106461260  0.8550925026810319  0.8141441526261772
  0.6120758361163752  0.8232576316973024  0.5915685804486230
  0.7724109448173948  0.9849662609430681  0.5793176238960669
  0.9484290794845194  0.7797884631481509  0.3371809158225432
  0.6184651632476843  0.9390909505221714  0.3470894901966943
  0.9487936485937141  0.9041004259276235  0.1039409873959940
  0.4820361959708919  0.1951337643587294  0.0399402401793623
  0.1341431735929319  0.3669156909670761  0.0336284693399804
  0.3080899629376574  0.0221075415589596  0.0394833868334672
  0.2825579590105747  0.2346292601432651  0.0785330418308661
  0.4481127581465429  0.0206914023812672  0.8163178548034153
  0.4450418673198300  0.1523285550472266  0.5564231115567395
  0.9837800737247164  0.1952045341173587  0.0387684778784916
  0.6365450901612135  0.3643641112229474  0.0321812119638238
  0.8097319035328354  0.0200353349487798  0.0389195153372768
  0.7858262684610366  0.2339775825124875  0.0839768747642111
  0.9496368161601367  0.0193593629530397  0.8190005303199968
  0.9427525172080564  0.1556571557888375  0.5724730464373522
  0.4838861443587845  0.6930896987726882  0.0381782405311100
  0.1367730445614086  0.8649537836295949  0.0320583738995168
  0.3073300009922164  0.5210626395095872  0.0396108609048014
  0.2843570091951619  0.7326560956639341  0.0834624861852404
  0.4482146790192161  0.5179499251946922  0.8188779342279702
  0.4430977077069116  0.6556018531667860  0.5720828088985286
  0.9817998318852545  0.6958790523797660  0.0404344196148614
  0.6316654338427554  0.8698335258402068  0.0367021673597918
  0.8072151672103303  0.5223400552320001  0.0412027868429021
  0.7820813063256082  0.7356638071216537  0.0836119140140568
  0.9480922761662640  0.5198392974310906  0.8200575519902671
  0.9438437883083139  0.6549555553522382  0.5730071938711774
  0.2381841417136812  0.3673309650885130  0.6265039811375175
  0.0750103168323975  0.3257278245013850  0.4002299749835672
  0.2385034375338648  0.4903009105703902  0.3908908831040137
  0.4258310237324565  0.2922225808106447  0.1552273060513372
  0.0687629250406872  0.4584201870367295  0.1535012380350054
  0.2345827667272644  0.1043588599544876  0.1537398197960158
  0.3992986467754704  0.3910283876386984  0.9062270528127883
  0.0940631585672449  0.0834606222764123  0.9018929557368764
  0.2346707346070644  0.2432321722456408  0.8619528966014300
  0.3960182495046922  0.0169128104418945  0.6051495006468457
  0.0887133834289955  0.2031740376983535  0.6314199993352858
  0.2164414884709842  0.1918450193418550  0.4348912867944676
  0.0619664690920274  0.1450582239032769  0.2089280807718694
  0.2150481678236531  0.3206230022390884  0.2088378366405905
  0.3659162184777003  0.1170946922623060  0.9080061859464692
  0.0424283443070692  0.2687633394527609  0.8850610905722363
  0.2094378399172570  0.4350638078120710  0.8890710537858837
  0.3702669306906827  0.2417989450858755  0.6748820410710437
  0.0397082599885223  0.4066389941178414  0.6833351385831534
  0.2119035805193192  0.0676652725789353  0.6694941969891914
  0.3806443857087274  0.3555077201184957  0.4333774599855786
  0.0489373350614670  0.0255013873088856  0.4396220670920172
  0.3910036037117521  0.4746170067838023  0.2084769864403455
  0.7365611537484043  0.3673477718767444  0.6262844146668343
  0.5722595142353128  0.3229440380973045  0.4000803040167185
  0.7383767776426495  0.4895713011019112  0.3909824813190781
  0.9291376862507548  0.2929897930414214  0.1565884029260758
  0.5698286312815242  0.4559374260176909  0.1516117103243744
  0.7366682824450521  0.1019467868706130  0.1549967442843609
  0.9000897182261909  0.3933887616376310  0.9091321125265210
  0.5932987964700587  0.0822876350337438  0.9019197351552535
  0.7333875072428029  0.2442903648348249  0.8686131933243644
  0.8962166741226056  0.0163343903704884  0.6097916011749618
  0.5891619973762374  0.2018978166748440  0.6312836393317838
  0.9046176713083582  0.1557745662166496  0.3539630077422231
  0.7196027930099049  0.1901269044970988  0.4349797787097529
  0.5627272506506102  0.1454139669403816  0.2083463835694204
  0.7157010489571505  0.3191727592694704  0.2114154799324268
  0.8664678250713322  0.1172665422929384  0.9092051479690255
  0.5417896398615127  0.2678231563452940  0.8863480288401462
  0.7104150634305668  0.4357653048882923  0.8894879337053041
  0.8665865573121891  0.2468015068852267  0.6829662837993027
  0.5393911384226868  0.4065408431524773  0.6833985346828513
  0.7129934679683672  0.0677583017270038  0.6728398962342439
  0.8818316905396202  0.3523977462775605  0.4335299485400839
  0.5533578270234614  0.0219758691150176  0.4421719004063789
  0.8901071796813653  0.4751246840125987  0.2105658362139167
  0.2378723540679744  0.8684302175310705  0.6254667982881017
  0.0753042191470357  0.8252347407103784  0.3999925521470757
  0.2397032246333879  0.9918964794453657  0.3892262769879551
  0.4291064242697828  0.7911744986774139  0.1552101055857733
  0.0702037842452228  0.9564876366881023  0.1513348351492922
  0.2342764100837869  0.6025793166391225  0.1561855723918271
  0.4004823257533019  0.8942409680864642  0.9077252459165450
  0.0932830784427523  0.5831755297312355  0.9024015068289160
  0.2337947128659081  0.7444159580704763  0.8682450590522421
  0.3952126073666662  0.5171922348620797  0.6099584642235243
  0.0902196650337430  0.7036726183265074  0.6325896144454859
  0.4037389311177506  0.6549099168885064  0.3534221520266811
  0.2193004228780353  0.6909079804837859  0.4351343206163776
  0.0615691329724157  0.6463146762896343  0.2097336150849713
  0.2168582654638769  0.8205212502099073  0.2107706714895983
  0.3657198948155624  0.6167026937707476  0.9088776783155907
  0.0413957459538707  0.7685369771918076  0.8863941459407059
  0.2107230359755690  0.9355523027670927  0.8886404504530319
  0.3667254474333177  0.7466423634605306  0.6825282930972776
  0.0396613538033890  0.9066971442760234  0.6840980132821031
  0.2120137871354615  0.5677905962223093  0.6711812176171605
  0.3823733909268370  0.8520650399574663  0.4321567219770586
  0.0486078401116217  0.5263370993957821  0.4408278113499264
  0.3913341619014830  0.9748556421792074  0.2091920462960388
  0.7373913590076810  0.8678684237367946  0.6282638409583754
  0.5754829139779645  0.8223268191284347  0.4022657337047733
  0.7418146391569707  0.9898380300611080  0.3930517605716659
  0.9258034095748897  0.7925547991687907  0.1577356849567195
  0.5649435853569429  0.9635110599622934  0.1621519065122214
  0.7347470928873179  0.6048913949931674  0.1575186611985018
  0.8994950947282234  0.8937832857957773  0.9096239379502435
  0.5927078241021775  0.5833217956064587  0.9035577734195073
  0.7335553905903609  0.7438259617947836  0.8675296153220771
  0.8947807333792568  0.5158694825182408  0.6098348681441834
  0.5893491102110744  0.7027018325078274  0.6338038061508158
  0.9042314148493489  0.6551586332203669  0.3551498975048730
  0.7194109329720035  0.6907329556706685  0.4364093902931572
  0.5619402741589852  0.6446824193044520  0.2103373795626666
  0.7125576836722374  0.8230597926377357  0.2114834858929626
  0.8654402599265083  0.6173481282320239  0.9098431812676964
  0.5425240591967224  0.7702224672215223  0.8878482312057514
  0.7087694355774516  0.9345498496093327  0.8915956859055498
  0.8670876641896044  0.7459999224675258  0.6826867655588487
  0.5395347542513633  0.9061998906781668  0.6837402743508676
  0.7118573871614160  0.5677870561640219  0.6717543700749431
  0.8818909148303433  0.8520141560003367  0.4342636488175842
  0.5487440330736177  0.5257838740634782  0.4400934176943991
  0.8915480628721610  0.9747808724201334  0.2110796815052254
  0.3891520812583948  0.1698982951486414  0.3554267597717953
 
  0.00000000E+00  0.00000000E+00  0.00000000E+00
  0.00000000E+00  0.00000000E+00  0.00000000E+00
  0.00000000E+00  0.00000000E+00  0.00000000E+00
  0.00000000E+00  0.00000000E+00  0.00000000E+00
  0.00000000E+00  0.00000000E+00  0.00000000E+00
  0.00000000E+00  0.00000000E+00  0.00000000E+00
  0.00000000E+00  0.00000000E+00  0.00000000E+00
  0.00000000E+00  0.00000000E+00  0.00000000E+00
  0.00000000E+00  0.00000000E+00  0.00000000E+00
  0.00000000E+00  0.00000000E+00  0.00000000E+00
  0.00000000E+00  0.00000000E+00  0.00000000E+00
  0.00000000E+00  0.00000000E+00  0.00000000E+00
  0.00000000E+00  0.00000000E+00  0.00000000E+00
  0.00000000E+00  0.00000000E+00  0.00000000E+00
  0.00000000E+00  0.00000000E+00  0.00000000E+00
  0.00000000E+00  0.00000000E+00  0.00000000E+00
  0.00000000E+00  0.00000000E+00  0.00000000E+00
  0.00000000E+00  0.00000000E+00  0.00000000E+00
  0.00000000E+00  0.00000000E+00  0.00000000E+00
  0.00000000E+00  0.00000000E+00  0.00000000E+00
  0.00000000E+00  0.00000000E+00  0.00000000E+00
  0.00000000E+00  0.00000000E+00  0.00000000E+00
  0.00000000E+00  0.00000000E+00  0.00000000E+00
  0.00000000E+00  0.00000000E+00  0.00000000E+00
  0.00000000E+00  0.00000000E+00  0.00000000E+00
  0.00000000E+00  0.00000000E+00  0.00000000E+00
  0.00000000E+00  0.00000000E+00  0.00000000E+00
  0.00000000E+00  0.00000000E+00  0.00000000E+00
  0.00000000E+00  0.00000000E+00  0.00000000E+00
  0.00000000E+00  0.00000000E+00  0.00000000E+00
  0.00000000E+00  0.00000000E+00  0.00000000E+00
  0.00000000E+00  0.00000000E+00  0.00000000E+00
  0.00000000E+00  0.00000000E+00  0.00000000E+00
  0.00000000E+00  0.00000000E+00  0.00000000E+00
  0.00000000E+00  0.00000000E+00  0.00000000E+00
  0.00000000E+00  0.00000000E+00  0.00000000E+00
  0.00000000E+00  0.00000000E+00  0.00000000E+00
  0.00000000E+00  0.00000000E+00  0.00000000E+00
  0.00000000E+00  0.00000000E+00  0.00000000E+00
  0.00000000E+00  0.00000000E+00  0.00000000E+00
  0.00000000E+00  0.00000000E+00  0.00000000E+00
  0.00000000E+00  0.00000000E+00  0.00000000E+00
  0.00000000E+00  0.00000000E+00  0.00000000E+00
  0.00000000E+00  0.00000000E+00  0.00000000E+00
  0.00000000E+00  0.00000000E+00  0.00000000E+00
  0.00000000E+00  0.00000000E+00  0.00000000E+00
  0.00000000E+00  0.00000000E+00  0.00000000E+00
  0.00000000E+00  0.00000000E+00  0.00000000E+00
  0.00000000E+00  0.00000000E+00  0.00000000E+00
  0.00000000E+00  0.00000000E+00  0.00000000E+00
  0.00000000E+00  0.00000000E+00  0.00000000E+00
  0.00000000E+00  0.00000000E+00  0.00000000E+00
  0.00000000E+00  0.00000000E+00  0.00000000E+00
  0.00000000E+00  0.00000000E+00  0.00000000E+00
  0.00000000E+00  0.00000000E+00  0.00000000E+00
  0.00000000E+00  0.00000000E+00  0.00000000E+00
  0.00000000E+00  0.00000000E+00  0.00000000E+00
  0.00000000E+00  0.00000000E+00  0.00000000E+00
  0.00000000E+00  0.00000000E+00  0.00000000E+00
  0.00000000E+00  0.00000000E+00  0.00000000E+00
  0.00000000E+00  0.00000000E+00  0.00000000E+00
  0.00000000E+00  0.00000000E+00  0.00000000E+00
  0.00000000E+00  0.00000000E+00  0.00000000E+00
  0.00000000E+00  0.00000000E+00  0.00000000E+00
  0.00000000E+00  0.00000000E+00  0.00000000E+00
  0.00000000E+00  0.00000000E+00  0.00000000E+00
  0.00000000E+00  0.00000000E+00  0.00000000E+00
  0.00000000E+00  0.00000000E+00  0.00000000E+00
  0.00000000E+00  0.00000000E+00  0.00000000E+00
  0.00000000E+00  0.00000000E+00  0.00000000E+00
  0.00000000E+00  0.00000000E+00  0.00000000E+00
  0.00000000E+00  0.00000000E+00  0.00000000E+00
  0.00000000E+00  0.00000000E+00  0.00000000E+00
  0.00000000E+00  0.00000000E+00  0.00000000E+00
  0.00000000E+00  0.00000000E+00  0.00000000E+00
  0.00000000E+00  0.00000000E+00  0.00000000E+00
  0.00000000E+00  0.00000000E+00  0.00000000E+00
  0.00000000E+00  0.00000000E+00  0.00000000E+00
  0.00000000E+00  0.00000000E+00  0.00000000E+00
  0.00000000E+00  0.00000000E+00  0.00000000E+00
  0.00000000E+00  0.00000000E+00  0.00000000E+00
  0.00000000E+00  0.00000000E+00  0.00000000E+00
  0.00000000E+00  0.00000000E+00  0.00000000E+00
  0.00000000E+00  0.00000000E+00  0.00000000E+00
  0.00000000E+00  0.00000000E+00  0.00000000E+00
  0.00000000E+00  0.00000000E+00  0.00000000E+00
  0.00000000E+00  0.00000000E+00  0.00000000E+00
  0.00000000E+00  0.00000000E+00  0.00000000E+00
  0.00000000E+00  0.00000000E+00  0.00000000E+00
  0.00000000E+00  0.00000000E+00  0.00000000E+00
  0.00000000E+00  0.00000000E+00  0.00000000E+00
  0.00000000E+00  0.00000000E+00  0.00000000E+00
  0.00000000E+00  0.00000000E+00  0.00000000E+00
  0.00000000E+00  0.00000000E+00  0.00000000E+00
  0.00000000E+00  0.00000000E+00  0.00000000E+00
  0.00000000E+00  0.00000000E+00  0.00000000E+00
  0.00000000E+00  0.00000000E+00  0.00000000E+00
  0.00000000E+00  0.00000000E+00  0.00000000E+00
  0.00000000E+00  0.00000000E+00  0.00000000E+00
  0.00000000E+00  0.00000000E+00  0.00000000E+00
  0.00000000E+00  0.00000000E+00  0.00000000E+00
  0.00000000E+00  0.00000000E+00  0.00000000E+00
  0.00000000E+00  0.00000000E+00  0.00000000E+00
  0.00000000E+00  0.00000000E+00  0.00000000E+00
  0.00000000E+00  0.00000000E+00  0.00000000E+00
  0.00000000E+00  0.00000000E+00  0.00000000E+00
  0.00000000E+00  0.00000000E+00  0.00000000E+00
  0.00000000E+00  0.00000000E+00  0.00000000E+00
  0.00000000E+00  0.00000000E+00  0.00000000E+00
  0.00000000E+00  0.00000000E+00  0.00000000E+00
  0.00000000E+00  0.00000000E+00  0.00000000E+00
  0.00000000E+00  0.00000000E+00  0.00000000E+00
  0.00000000E+00  0.00000000E+00  0.00000000E+00
  0.00000000E+00  0.00000000E+00  0.00000000E+00
  0.00000000E+00  0.00000000E+00  0.00000000E+00
  0.00000000E+00  0.00000000E+00  0.00000000E+00
  0.00000000E+00  0.00000000E+00  0.00000000E+00
  0.00000000E+00  0.00000000E+00  0.00000000E+00
  0.00000000E+00  0.00000000E+00  0.00000000E+00
  0.00000000E+00  0.00000000E+00  0.00000000E+00
  0.00000000E+00  0.00000000E+00  0.00000000E+00
  0.00000000E+00  0.00000000E+00  0.00000000E+00
  0.00000000E+00  0.00000000E+00  0.00000000E+00
  0.00000000E+00  0.00000000E+00  0.00000000E+00
  0.00000000E+00  0.00000000E+00  0.00000000E+00
  0.00000000E+00  0.00000000E+00  0.00000000E+00
  0.00000000E+00  0.00000000E+00  0.00000000E+00
  0.00000000E+00  0.00000000E+00  0.00000000E+00
  0.00000000E+00  0.00000000E+00  0.00000000E+00
  0.00000000E+00  0.00000000E+00  0.00000000E+00
  0.00000000E+00  0.00000000E+00  0.00000000E+00
  0.00000000E+00  0.00000000E+00  0.00000000E+00
  0.00000000E+00  0.00000000E+00  0.00000000E+00
  0.00000000E+00  0.00000000E+00  0.00000000E+00
  0.00000000E+00  0.00000000E+00  0.00000000E+00
  0.00000000E+00  0.00000000E+00  0.00000000E+00
  0.00000000E+00  0.00000000E+00  0.00000000E+00
  0.00000000E+00  0.00000000E+00  0.00000000E+00
  0.00000000E+00  0.00000000E+00  0.00000000E+00
  0.00000000E+00  0.00000000E+00  0.00000000E+00
  0.00000000E+00  0.00000000E+00  0.00000000E+00
  0.00000000E+00  0.00000000E+00  0.00000000E+00
  0.00000000E+00  0.00000000E+00  0.00000000E+00
  0.00000000E+00  0.00000000E+00  0.00000000E+00
  0.00000000E+00  0.00000000E+00  0.00000000E+00
  0.00000000E+00  0.00000000E+00  0.00000000E+00
  0.00000000E+00  0.00000000E+00  0.00000000E+00
  0.00000000E+00  0.00000000E+00  0.00000000E+00
  0.00000000E+00  0.00000000E+00  0.00000000E+00
  0.00000000E+00  0.00000000E+00  0.00000000E+00
  0.00000000E+00  0.00000000E+00  0.00000000E+00
  0.00000000E+00  0.00000000E+00  0.00000000E+00
  0.00000000E+00  0.00000000E+00  0.00000000E+00
  0.00000000E+00  0.00000000E+00  0.00000000E+00
  0.00000000E+00  0.00000000E+00  0.00000000E+00
  0.00000000E+00  0.00000000E+00  0.00000000E+00
  0.00000000E+00  0.00000000E+00  0.00000000E+00
  0.00000000E+00  0.00000000E+00  0.00000000E+00
  0.00000000E+00  0.00000000E+00  0.00000000E+00
  0.00000000E+00  0.00000000E+00  0.00000000E+00
  0.00000000E+00  0.00000000E+00  0.00000000E+00
  0.00000000E+00  0.00000000E+00  0.00000000E+00
  0.00000000E+00  0.00000000E+00  0.00000000E+00
  0.00000000E+00  0.00000000E+00  0.00000000E+00
  0.00000000E+00  0.00000000E+00  0.00000000E+00
  0.00000000E+00  0.00000000E+00  0.00000000E+00
  0.00000000E+00  0.00000000E+00  0.00000000E+00
  0.00000000E+00  0.00000000E+00  0.00000000E+00
  0.00000000E+00  0.00000000E+00  0.00000000E+00
  0.00000000E+00  0.00000000E+00  0.00000000E+00
  0.00000000E+00  0.00000000E+00  0.00000000E+00
  0.00000000E+00  0.00000000E+00  0.00000000E+00
  0.00000000E+00  0.00000000E+00  0.00000000E+00
  0.00000000E+00  0.00000000E+00  0.00000000E+00
  0.00000000E+00  0.00000000E+00  0.00000000E+00
  0.00000000E+00  0.00000000E+00  0.00000000E+00
  0.00000000E+00  0.00000000E+00  0.00000000E+00
  0.00000000E+00  0.00000000E+00  0.00000000E+00
  0.00000000E+00  0.00000000E+00  0.00000000E+00
  0.00000000E+00  0.00000000E+00  0.00000000E+00
  0.00000000E+00  0.00000000E+00  0.00000000E+00
  0.00000000E+00  0.00000000E+00  0.00000000E+00
  0.00000000E+00  0.00000000E+00  0.00000000E+00
  0.00000000E+00  0.00000000E+00  0.00000000E+00
  0.00000000E+00  0.00000000E+00  0.00000000E+00
  0.00000000E+00  0.00000000E+00  0.00000000E+00
  0.00000000E+00  0.00000000E+00  0.00000000E+00
  0.00000000E+00  0.00000000E+00  0.00000000E+00
  0.00000000E+00  0.00000000E+00  0.00000000E+00
  0.00000000E+00  0.00000000E+00  0.00000000E+00
  0.00000000E+00  0.00000000E+00  0.00000000E+00
  0.00000000E+00  0.00000000E+00  0.00000000E+00
