0% icsd_608626.cif, 100% icsd_608626.ci 
   1.00000000000000     
    -3.2447773379192695   -0.0000001723605176   -0.0000000045468966
    -1.6223883999183939    2.8100598211116234   -0.0000000212025242
     0.0000000063465580   -0.0000000297908799   -4.4995607700004623
   Al   N 
     2     2
Direct
  0.3333333468527897  0.2833344181167803  0.6746643288348508
  0.6666668429378930  0.6166676896811651  0.1746643290957337
  0.6666668260204105  0.6166676988911135  0.7437602633179665
  0.3333333513691699  0.2833343899576661  0.2437602632063758
 
  0.00000000E+00  0.00000000E+00  0.00000000E+00
  0.00000000E+00  0.00000000E+00  0.00000000E+00
  0.00000000E+00  0.00000000E+00  0.00000000E+00
  0.00000000E+00  0.00000000E+00  0.00000000E+00
