0% icsd_608626.cif, 100% icsd_608626.ci 
   1.00000000000000     
    -3.2044798177260017   -0.0000001723854588   -0.0000000042331849
    -1.6022393144468017    2.7751871006059576   -0.0000000210686883
     0.0000000140726545   -0.0000000355477921   -4.6875868019475471
   Al   N 
     2     2
Direct
  0.3333337355027766  0.2833336722875615  0.6630749035161116
  0.6666664494649623  0.6166684305010790  0.1630749038845281
  0.6666653231894415  0.6166706796456367  0.7555247056224630
  0.3333348595178478  0.2833314198803194  0.2555247055169971
 
  0.00000000E+00  0.00000000E+00  0.00000000E+00
  0.00000000E+00  0.00000000E+00  0.00000000E+00
  0.00000000E+00  0.00000000E+00  0.00000000E+00
  0.00000000E+00  0.00000000E+00  0.00000000E+00
