0% icsd_608626.cif, 100% icsd_608626.ci 
   1.00000000000000     
    -3.1281148067619586   -0.0000001721360468   -0.0000000073703014
    -1.5640572543470292    2.7090359909670871   -0.0000000224070473
    -0.0000000115106093    0.0000000344086927   -5.0147722240937211
   Al   N 
     2     2
Direct
  0.3333323655723746  0.2833376806256638  0.8276608106192995
  0.6666679985080819  0.6166665323605329  0.3276608018427680
  0.6666659994593971  0.6166704658225015  0.7092126612869691
  0.3333343709025485  0.2833337154193245  0.2092126224848272
 
  0.00000000E+00  0.00000000E+00  0.00000000E+00
  0.00000000E+00  0.00000000E+00  0.00000000E+00
  0.00000000E+00  0.00000000E+00  0.00000000E+00
  0.00000000E+00  0.00000000E+00  0.00000000E+00
