0% icsd_608626.cif, 100% icsd_608626.ci 
   1.00000000000000     
    -3.1281692173446607   -0.0000001724602824   -0.0000000032920500
    -1.5640846853986483    2.7090740331792373   -0.0000000206671806
     0.0000000046734670   -0.0000000350389023   -5.0149593678885678
   Al   N 
     2     2
Direct
  0.3333333745968829  0.2833337158295848  0.6119259116693243
  0.6666666914667019  0.6166670355697761  0.1119259120323335
  0.6666666968220483  0.6166670671856380  0.7303845724364777
  0.3333333685191207  0.2833336835039830  0.2303845724072389
 
  0.00000000E+00  0.00000000E+00  0.00000000E+00
  0.00000000E+00  0.00000000E+00  0.00000000E+00
  0.00000000E+00  0.00000000E+00  0.00000000E+00
  0.00000000E+00  0.00000000E+00  0.00000000E+00
