0% icsd_608626.cif, 100% icsd_608626.ci 
   1.00000000000000     
    -3.2797413741447770   -0.0000001723355764   -0.0000000048606082
    -1.6398703079339643    2.8403395785511818   -0.0000000213363601
     0.0000000049607473   -0.0000000276418631   -4.3301882753063587
   Al   N 
     2     2
Direct
  0.3333334206429655  0.2833343777215944  0.6899957328997957
  0.6666667634901700  0.6166677220393311  0.1899957328218633
  0.6666667740709045  0.6166677335184261  0.7284894006805729
  0.3333334091535249  0.2833343653962856  0.2284894006982441
 
  0.00000000E+00  0.00000000E+00  0.00000000E+00
  0.00000000E+00  0.00000000E+00  0.00000000E+00
  0.00000000E+00  0.00000000E+00  0.00000000E+00
  0.00000000E+00  0.00000000E+00  0.00000000E+00
