0% icsd_608626.cif, 100% icsd_608626.ci 
   1.00000000000000     
    -3.1289117163620714   -0.0000001721859292   -0.0000000067428781
    -1.5644556310160478    2.7097185197485456   -0.0000000221393755
     0.0000000119850543   -0.0000000386715731   -5.0119691160405351
   Al   N 
     2     2
Direct
  0.3333334153124170  0.2833347639106094  0.7850708342759631
  0.6666668193615379  0.6166679220421116  0.2850708346421058
  0.6666666853004628  0.6166682683181577  0.6667791544341526
  0.3333335500619015  0.2833344179275343  0.1667791544005937
 
  0.00000000E+00  0.00000000E+00  0.00000000E+00
  0.00000000E+00  0.00000000E+00  0.00000000E+00
  0.00000000E+00  0.00000000E+00  0.00000000E+00
  0.00000000E+00  0.00000000E+00  0.00000000E+00
