POSCAR
1.00
  6.25680000  0.00000000  0.00000000
  1.56420000 -8.12790000  0.00000000
  1.56420000 -2.70930000 -10.03060000
  Gd  Al   N
  21   3  24
Direct
  0.73633333  0.80566667  0.25000000
  0.56966667  0.47233333  0.25000000
  0.40300000  0.13900000  0.25000000
  0.90300000  0.13900000  0.25000000
  0.65300000  0.63900000  0.75000000
  0.15300000  0.63900000  0.75000000
  0.48633333  0.30566667  0.75000000
  0.98633333  0.30566667  0.75000000
  0.31966667  0.97233333  0.75000000
  0.81966667  0.97233333  0.75000000
  0.47200000  0.61100000  0.50000000
  0.97200000  0.61100000  0.50000000
  0.80533333  0.27766667  0.50000000
  0.13866667  0.94433333  0.50000000
  0.63866667  0.94433333  0.50000000
  0.38866667  0.44433333  1.00000000
  0.88866667  0.44433333  1.00000000
  0.22200000  0.11100000  1.00000000
  0.72200000  0.11100000  1.00000000
  0.05533333  0.77766667  1.00000000
  0.55533333  0.77766667  1.00000000
  0.23633333  0.80566667  0.25000000
  0.06966667  0.47233333  0.25000000
  0.30533333  0.27766667  0.50000000
  0.76808333  0.86916667  0.05950000
  0.26808333  0.86916667  0.05950000
  0.60141667  0.53583333  0.05950000
  0.10141667  0.53583333  0.05950000
  0.43475000  0.20250000  0.05950000
  0.93475000  0.20250000  0.05950000
  0.68475000  0.70250000  0.55950000
  0.18475000  0.70250000  0.55950000
  0.51808333  0.36916667  0.55950000
  0.01808333  0.36916667  0.55950000
  0.35141667  0.03583333  0.55950000
  0.85141667  0.03583333  0.55950000
  0.50375000  0.67450000  0.30950000
  0.00375000  0.67450000  0.30950000
  0.33708333  0.34116667  0.30950000
  0.83708333  0.34116667  0.30950000
  0.17041667  0.00783333  0.30950000
  0.67041667  0.00783333  0.30950000
  0.42041667  0.50783333  0.80950000
  0.92041667  0.50783333  0.80950000
  0.25375000  0.17450000  0.80950000
  0.75375000  0.17450000  0.80950000
  0.08708333  0.84116667  0.80950000
  0.58708333  0.84116667  0.80950000
