supercell of icsd_191774.cif            
   1.00000000000000     
    10.6049352640366727   -0.0007028242585014   -0.0011696035147854
    -5.3030764214368782    9.1836157357457910    0.0009111129249656
    -0.0012390162506589    0.0003962154686799   11.1910232728797201
   N    In   Sc
    36    26    10
Direct
  0.2222036902823490  0.1116260344514188  0.4408905178930453
  0.1146039332253963  0.2282389184202032  0.1852203067189677
  0.8903727064514015  0.1147431903333498  0.9448762771315984
  0.7776604324227279  0.2220427300430288  0.6855298027279488
  0.5601626439291891  0.1129804376594237  0.4431965090623819
  0.4454186719718862  0.2231146670470494  0.1920006625820108
  0.2196117143027081  0.1119916349917318  0.9437108879822915
  0.1136559284004619  0.2280350665784354  0.6932558335663188
  0.8875621067399990  0.1144250088633427  0.4410161263743859
  0.7781093679022035  0.2229092752430191  0.1848573973068497
  0.5597561882524715  0.1117321821035517  0.9430037526344606
  0.4447662624284661  0.2227453752568209  0.6920027114369418
  0.2225752670257179  0.4451809469919183  0.4338928822831960
  0.1129305017181323  0.5529132795882177  0.1919570873562080
  0.8870803906729421  0.4401266733223892  0.9416694958310927
  0.7767272083144050  0.5551807307173675  0.6845243116190289
  0.5590327154796455  0.4476048471848912  0.4428732335945824
  0.4418393621567773  0.5585082659928702  0.1858898296315985
  0.2251598119168534  0.4410332491226470  0.9391959465838511
  0.1149456691097797  0.5570104479496933  0.6953948739278744
  0.8850471601377521  0.4421015860474142  0.4451760821455011
  0.7775254429960583  0.5551482614107215  0.1926954621512706
  0.5538488024733326  0.4460391052005548  0.9432401443796294
  0.4414427275622117  0.5586102819846914  0.6957539908139694
  0.2225180439687691  0.7769539470034204  0.4426720333949845
  0.1114058715625532  0.8884270732272270  0.1910444896094958
  0.8878199439306513  0.7771051493540924  0.9403161603808101
  0.7731135159235336  0.8877938194655570  0.6921370136001883
  0.5551829772848649  0.7775363849536987  0.4341537414186121
  0.4469457861384996  0.8868641651889320  0.1917706850862544
  0.2218785224715631  0.7758141892654535  0.9353201016721826
  0.1134995726261963  0.8872839223846043  0.6933883194500368
  0.8872461455414680  0.7740659853300116  0.4439109743211915
  0.7735364646497658  0.8867514878670804  0.1928944345868260
  0.5526846057849752  0.7717758514670194  0.9370654356914940
  0.4426282169670870  0.8847644660540155  0.6953273877205817
  0.2213166758597325  0.1124073373376717  0.2476715767754527
  0.1109851672370823  0.2236171763953578  0.4991614550305457
  0.8888843195531564  0.1115827916410410  0.7505078501497451
  0.5561696912210294  0.1106972087770046  0.2491303994033061
  0.4452784046793923  0.2229775707715689  0.4989630660952926
  0.2215101609263073  0.1111296884858390  0.7503145543233458
  0.8908791056645953  0.1126025368330019  0.2468586407619924
  0.5556528941834102  0.1099694251382886  0.7493625454568686
  0.4448221819963649  0.2214201464774987  0.9991720641773298
  0.1096061761846414  0.5532236284124110  0.5004279713416508
  0.8888536393060065  0.4449642021420601  0.7475305607013283
  0.7781182665702104  0.5546041423673245  0.9997498161531695
  0.5529802653361671  0.4469103907985854  0.2485627165442850
  0.4435113025854136  0.5561520343219257  0.4997229412715356
  0.1118562271811001  0.5532972625508776  0.9976032087762334
  0.8895466808683921  0.4440200398606251  0.2507175227682694
  0.5555209601546949  0.4462608796088361  0.7494228779127141
  0.2229319316922940  0.7770823654918146  0.2496251192141443
  0.1108057369970155  0.8890859358318934  0.5003121978395768
  0.8881678268306885  0.7777030416775759  0.7474461146239548
  0.7767811121161827  0.8890637295976092  0.9989990248196250
  0.4457606043789113  0.8891239593669553  0.5006210195439280
  0.1113034046731656  0.8874295149825073  0.9981004956889237
  0.8889579491870876  0.7787282745949895  0.2503681798125399
  0.7777185207445569  0.8898628479710879  0.4982927441334510
  0.4443408612077278  0.8872418344313644  0.9976845635230873
  0.7785420344054899  0.2226154742528337  0.9980059406627504
  0.1117565331263890  0.2223871825401034  0.9969965679246258
  0.7777317519970168  0.2221548214716975  0.4983456243220843
  0.2234760996997949  0.4453098129145445  0.2451424093915477
  0.2222091394940975  0.4454034355281351  0.7503762257007267
  0.7770872302561926  0.5550994287142217  0.4971160327307160
  0.4444374535529221  0.5545589055369362  0.9961993663177111
  0.5544095087531318  0.7766723690103277  0.2462975773707612
  0.2223400778062654  0.7772247278550424  0.7476854686268197
  0.5552517308506140  0.7782372382445928  0.7494806574422981
 
  0.00000000E+00  0.00000000E+00  0.00000000E+00
  0.00000000E+00  0.00000000E+00  0.00000000E+00
  0.00000000E+00  0.00000000E+00  0.00000000E+00
  0.00000000E+00  0.00000000E+00  0.00000000E+00
  0.00000000E+00  0.00000000E+00  0.00000000E+00
  0.00000000E+00  0.00000000E+00  0.00000000E+00
  0.00000000E+00  0.00000000E+00  0.00000000E+00
  0.00000000E+00  0.00000000E+00  0.00000000E+00
  0.00000000E+00  0.00000000E+00  0.00000000E+00
  0.00000000E+00  0.00000000E+00  0.00000000E+00
  0.00000000E+00  0.00000000E+00  0.00000000E+00
  0.00000000E+00  0.00000000E+00  0.00000000E+00
  0.00000000E+00  0.00000000E+00  0.00000000E+00
  0.00000000E+00  0.00000000E+00  0.00000000E+00
  0.00000000E+00  0.00000000E+00  0.00000000E+00
  0.00000000E+00  0.00000000E+00  0.00000000E+00
  0.00000000E+00  0.00000000E+00  0.00000000E+00
  0.00000000E+00  0.00000000E+00  0.00000000E+00
  0.00000000E+00  0.00000000E+00  0.00000000E+00
  0.00000000E+00  0.00000000E+00  0.00000000E+00
  0.00000000E+00  0.00000000E+00  0.00000000E+00
  0.00000000E+00  0.00000000E+00  0.00000000E+00
  0.00000000E+00  0.00000000E+00  0.00000000E+00
  0.00000000E+00  0.00000000E+00  0.00000000E+00
  0.00000000E+00  0.00000000E+00  0.00000000E+00
  0.00000000E+00  0.00000000E+00  0.00000000E+00
  0.00000000E+00  0.00000000E+00  0.00000000E+00
  0.00000000E+00  0.00000000E+00  0.00000000E+00
  0.00000000E+00  0.00000000E+00  0.00000000E+00
  0.00000000E+00  0.00000000E+00  0.00000000E+00
  0.00000000E+00  0.00000000E+00  0.00000000E+00
  0.00000000E+00  0.00000000E+00  0.00000000E+00
  0.00000000E+00  0.00000000E+00  0.00000000E+00
  0.00000000E+00  0.00000000E+00  0.00000000E+00
  0.00000000E+00  0.00000000E+00  0.00000000E+00
  0.00000000E+00  0.00000000E+00  0.00000000E+00
  0.00000000E+00  0.00000000E+00  0.00000000E+00
  0.00000000E+00  0.00000000E+00  0.00000000E+00
  0.00000000E+00  0.00000000E+00  0.00000000E+00
  0.00000000E+00  0.00000000E+00  0.00000000E+00
  0.00000000E+00  0.00000000E+00  0.00000000E+00
  0.00000000E+00  0.00000000E+00  0.00000000E+00
  0.00000000E+00  0.00000000E+00  0.00000000E+00
  0.00000000E+00  0.00000000E+00  0.00000000E+00
  0.00000000E+00  0.00000000E+00  0.00000000E+00
  0.00000000E+00  0.00000000E+00  0.00000000E+00
  0.00000000E+00  0.00000000E+00  0.00000000E+00
  0.00000000E+00  0.00000000E+00  0.00000000E+00
  0.00000000E+00  0.00000000E+00  0.00000000E+00
  0.00000000E+00  0.00000000E+00  0.00000000E+00
  0.00000000E+00  0.00000000E+00  0.00000000E+00
  0.00000000E+00  0.00000000E+00  0.00000000E+00
  0.00000000E+00  0.00000000E+00  0.00000000E+00
  0.00000000E+00  0.00000000E+00  0.00000000E+00
  0.00000000E+00  0.00000000E+00  0.00000000E+00
  0.00000000E+00  0.00000000E+00  0.00000000E+00
  0.00000000E+00  0.00000000E+00  0.00000000E+00
  0.00000000E+00  0.00000000E+00  0.00000000E+00
  0.00000000E+00  0.00000000E+00  0.00000000E+00
  0.00000000E+00  0.00000000E+00  0.00000000E+00
  0.00000000E+00  0.00000000E+00  0.00000000E+00
  0.00000000E+00  0.00000000E+00  0.00000000E+00
  0.00000000E+00  0.00000000E+00  0.00000000E+00
  0.00000000E+00  0.00000000E+00  0.00000000E+00
  0.00000000E+00  0.00000000E+00  0.00000000E+00
  0.00000000E+00  0.00000000E+00  0.00000000E+00
  0.00000000E+00  0.00000000E+00  0.00000000E+00
  0.00000000E+00  0.00000000E+00  0.00000000E+00
  0.00000000E+00  0.00000000E+00  0.00000000E+00
  0.00000000E+00  0.00000000E+00  0.00000000E+00
  0.00000000E+00  0.00000000E+00  0.00000000E+00
  0.00000000E+00  0.00000000E+00  0.00000000E+00
