generated by phonopy                    
   1.00000000000000     
    10.0351470768999995   -0.0000022330999784   -0.0000001056124209
    -5.0175765436399997    8.6906901959899994    0.0000001395531216
    -0.0000001735893656    0.0000001431815548   14.9533752540999991
   Pb   O    P 
    19    51    12
Direct
  0.9867160640725174  0.7629108160120452  0.1151240825314446
  0.9876726309837309  0.7529550441034161  0.6249012845613748
  0.0038021002472348  0.2647687908975058  0.3741068084244645
  0.9949052970417966  0.2650916418991898  0.8738143559109375
  0.2353286867029780  0.2308817777397252  0.1147692817346950
  0.2419907283051614  0.2265720542510081  0.6239730440434386
  0.7373784072639111  0.7395208852646107  0.3732120766457925
  0.7375611937849484  0.7299891024206460  0.8767018145248997
  0.7681791157910070  0.0163393571244939  0.1136607229259354
  0.7712184857354316  0.0058471369007549  0.6243512250486134
  0.2625418971483597  0.9968588234010554  0.3730958871630321
  0.2704515826311678  0.0053774514616265  0.8762082705017846
  0.6626201582425111  0.3292602455902554  0.5018410884278524
  0.3309870781821189  0.6645677034092188  0.0034915346395081
  0.3330006742437490  0.6662937181767674  0.5041165836381580
  0.3346643052046829  0.6668242985772963  0.2473455149419266
  0.3342973153787412  0.6653601441132864  0.7458958289087576
  0.6664681737097808  0.3356332091824896  0.2438504852676786
  0.6623790527634128  0.3297543240369905  0.7640074323855259
  0.6637576995276717  0.3358355639626964  0.0387463178839056
  0.5040689011888091  0.6544652957798505  0.1251572938083072
  0.5085714519815241  0.6584344142108165  0.6232643299239129
  0.4740589036424936  0.3213562529536134  0.3714775250092117
  0.4618125860664222  0.3107740381130597  0.8677623001377768
  0.3498627986035743  0.8488552430506076  0.1254551924519163
  0.3397314744086657  0.8502880243557627  0.6231466149444245
  0.6795355261650968  0.1537272962118834  0.3713938063268429
  0.6895155466239515  0.1524136017813689  0.8669526494515125
  0.1478167618151147  0.4965474653641451  0.1255955088078338
  0.1521633886237197  0.4953093372726656  0.6239234374083225
  0.8464109115845204  0.5272251678130218  0.3737708345452120
  0.8479490157674832  0.5378836069315298  0.8628811764168844
  0.7350996468307329  0.6690006901828411  0.0428785918762244
  0.7308493254042929  0.6527405936339150  0.5384002987987486
  0.2604439008459138  0.3430581818075780  0.4569377383164408
  0.2547188115398171  0.3359906583544472  0.9572855248937699
  0.3215734935071808  0.0597441968531456  0.0463138748423333
  0.3553637545721671  0.0841959803493921  0.5394581552092745
  0.6625478937766829  0.9191863109371852  0.4549334399411578
  0.6698143564612664  0.9237968743805709  0.9579917151389381
  0.9338033306547544  0.2637246857109474  0.0436774358764822
  0.9260006695105645  0.2698304109499219  0.5396224479058702
  0.0819211819240167  0.7386516566978258  0.4613710511235141
  0.0778631862072245  0.7476234584341981  0.9516888597011928
  0.2631620461799002  0.3532706581126206  0.2888884066790354
  0.2593941091141261  0.3594722186813755  0.7896582964717211
  0.7223487523999168  0.6381847675775845  0.2097644867114141
  0.7303269531552488  0.6518000543788105  0.7065309456075255
  0.6475820355166988  0.9122545965294862  0.2868477551916513
  0.6437829662921288  0.9010455139081515  0.7908996088434748
  0.3660255716210230  0.0812469004727063  0.2123906692519526
  0.3570457903385460  0.0827165905589311  0.7081165708938428
  0.0892424957296285  0.7407469077922073  0.2934417614966449
  0.0988491659998729  0.7406154047664373  0.7842053542021432
  0.9144772983219127  0.2773027641754453  0.2102597669138078
  0.9250957047726089  0.2716430685733187  0.7075229031612906
  0.5276178430884499  0.4136525656026890  0.1163795773505214
  0.5321881419214805  0.4137861409059838  0.6211991202856382
  0.4734358557903278  0.5770594538605138  0.3765865670390340
  0.4723302110119363  0.5721220720907354  0.8815853914738412
  0.5857194440467737  0.1158783496670210  0.1117360530591043
  0.5901195753826016  0.1144571440856339  0.6213567591453355
  0.4252476609508307  0.8959304312835172  0.3777856142516924
  0.4302376129446728  0.9001944057247115  0.8830348464476430
  0.8814741492907814  0.4694169935560524  0.1157682132801412
  0.8838431447807622  0.4687147390244562  0.6213882235660719
  0.1030229919833943  0.5280231440161742  0.3784028516085627
  0.1000403833998647  0.5302124481144190  0.8782515554819241
  0.9808635562859820  0.9979827466262421  0.1188491654947157
  0.0129286018675927  0.9887569492525117  0.6240282155761392
  0.6216077233833204  0.5954922262139846  0.1229708279386372
  0.6220459613073217  0.5944107189386543  0.6224957967992140
  0.3692384309720751  0.3946763028471025  0.3732525980138490
  0.3648211935924692  0.3909737442595542  0.8736980735800728
  0.4031246478325841  0.0237156599266797  0.1238147580136797
  0.4098833690859607  0.0286858170867319  0.6233667179900451
  0.6076757738910956  0.9759039754964505  0.3724538811707987
  0.6114103715569925  0.9755885178430219  0.8741165462239380
  0.9716758810886503  0.3782591741041443  0.1234452996845619
  0.9756710730237188  0.3788216522878187  0.6233109583614862
  0.0243592721261408  0.6317386488781622  0.3765176145219797
  0.0248017491659951  0.6361836547170938  0.8690915534107688
 
  0.00000000E+00  0.00000000E+00  0.00000000E+00
  0.00000000E+00  0.00000000E+00  0.00000000E+00
  0.00000000E+00  0.00000000E+00  0.00000000E+00
  0.00000000E+00  0.00000000E+00  0.00000000E+00
  0.00000000E+00  0.00000000E+00  0.00000000E+00
  0.00000000E+00  0.00000000E+00  0.00000000E+00
  0.00000000E+00  0.00000000E+00  0.00000000E+00
  0.00000000E+00  0.00000000E+00  0.00000000E+00
  0.00000000E+00  0.00000000E+00  0.00000000E+00
  0.00000000E+00  0.00000000E+00  0.00000000E+00
  0.00000000E+00  0.00000000E+00  0.00000000E+00
  0.00000000E+00  0.00000000E+00  0.00000000E+00
  0.00000000E+00  0.00000000E+00  0.00000000E+00
  0.00000000E+00  0.00000000E+00  0.00000000E+00
  0.00000000E+00  0.00000000E+00  0.00000000E+00
  0.00000000E+00  0.00000000E+00  0.00000000E+00
  0.00000000E+00  0.00000000E+00  0.00000000E+00
  0.00000000E+00  0.00000000E+00  0.00000000E+00
  0.00000000E+00  0.00000000E+00  0.00000000E+00
  0.00000000E+00  0.00000000E+00  0.00000000E+00
  0.00000000E+00  0.00000000E+00  0.00000000E+00
  0.00000000E+00  0.00000000E+00  0.00000000E+00
  0.00000000E+00  0.00000000E+00  0.00000000E+00
  0.00000000E+00  0.00000000E+00  0.00000000E+00
  0.00000000E+00  0.00000000E+00  0.00000000E+00
  0.00000000E+00  0.00000000E+00  0.00000000E+00
  0.00000000E+00  0.00000000E+00  0.00000000E+00
  0.00000000E+00  0.00000000E+00  0.00000000E+00
  0.00000000E+00  0.00000000E+00  0.00000000E+00
  0.00000000E+00  0.00000000E+00  0.00000000E+00
  0.00000000E+00  0.00000000E+00  0.00000000E+00
  0.00000000E+00  0.00000000E+00  0.00000000E+00
  0.00000000E+00  0.00000000E+00  0.00000000E+00
  0.00000000E+00  0.00000000E+00  0.00000000E+00
  0.00000000E+00  0.00000000E+00  0.00000000E+00
  0.00000000E+00  0.00000000E+00  0.00000000E+00
  0.00000000E+00  0.00000000E+00  0.00000000E+00
  0.00000000E+00  0.00000000E+00  0.00000000E+00
  0.00000000E+00  0.00000000E+00  0.00000000E+00
  0.00000000E+00  0.00000000E+00  0.00000000E+00
  0.00000000E+00  0.00000000E+00  0.00000000E+00
  0.00000000E+00  0.00000000E+00  0.00000000E+00
  0.00000000E+00  0.00000000E+00  0.00000000E+00
  0.00000000E+00  0.00000000E+00  0.00000000E+00
  0.00000000E+00  0.00000000E+00  0.00000000E+00
  0.00000000E+00  0.00000000E+00  0.00000000E+00
  0.00000000E+00  0.00000000E+00  0.00000000E+00
  0.00000000E+00  0.00000000E+00  0.00000000E+00
  0.00000000E+00  0.00000000E+00  0.00000000E+00
  0.00000000E+00  0.00000000E+00  0.00000000E+00
  0.00000000E+00  0.00000000E+00  0.00000000E+00
  0.00000000E+00  0.00000000E+00  0.00000000E+00
  0.00000000E+00  0.00000000E+00  0.00000000E+00
  0.00000000E+00  0.00000000E+00  0.00000000E+00
  0.00000000E+00  0.00000000E+00  0.00000000E+00
  0.00000000E+00  0.00000000E+00  0.00000000E+00
  0.00000000E+00  0.00000000E+00  0.00000000E+00
  0.00000000E+00  0.00000000E+00  0.00000000E+00
  0.00000000E+00  0.00000000E+00  0.00000000E+00
  0.00000000E+00  0.00000000E+00  0.00000000E+00
  0.00000000E+00  0.00000000E+00  0.00000000E+00
  0.00000000E+00  0.00000000E+00  0.00000000E+00
  0.00000000E+00  0.00000000E+00  0.00000000E+00
  0.00000000E+00  0.00000000E+00  0.00000000E+00
  0.00000000E+00  0.00000000E+00  0.00000000E+00
  0.00000000E+00  0.00000000E+00  0.00000000E+00
  0.00000000E+00  0.00000000E+00  0.00000000E+00
  0.00000000E+00  0.00000000E+00  0.00000000E+00
  0.00000000E+00  0.00000000E+00  0.00000000E+00
  0.00000000E+00  0.00000000E+00  0.00000000E+00
  0.00000000E+00  0.00000000E+00  0.00000000E+00
  0.00000000E+00  0.00000000E+00  0.00000000E+00
  0.00000000E+00  0.00000000E+00  0.00000000E+00
  0.00000000E+00  0.00000000E+00  0.00000000E+00
  0.00000000E+00  0.00000000E+00  0.00000000E+00
  0.00000000E+00  0.00000000E+00  0.00000000E+00
  0.00000000E+00  0.00000000E+00  0.00000000E+00
  0.00000000E+00  0.00000000E+00  0.00000000E+00
  0.00000000E+00  0.00000000E+00  0.00000000E+00
  0.00000000E+00  0.00000000E+00  0.00000000E+00
  0.00000000E+00  0.00000000E+00  0.00000000E+00
  0.00000000E+00  0.00000000E+00  0.00000000E+00
