supercell of icsd_608626.cif            
   1.00000000000000     
    10.2676325996467366   -0.0063051638286713   -0.0006290293166935
    -5.1392390978434754    8.8911328517043824    0.0029214456667499
     0.0005280855277998    0.0031717251879474    9.5635279599500418
   Al   Sc   N 
    16    20    36
Direct
  0.2226619237418461  0.1078246160433451  0.2551098769075821
  0.7712504299859475  0.2186180547016860  0.9980811594145251
  0.5610775587466819  0.1117779900729232  0.2531942519746266
  0.7834759798921382  0.2274251993629122  0.4928877282363047
  0.2272259547023125  0.4504715739048137  0.2439910224324535
  0.8925131990380351  0.4427674899865437  0.7468680366360090
  0.4396937253116704  0.5553475551423404  0.4923455485882258
  0.2245753551354781  0.4499759637998082  0.7465409892753598
  0.8835212688417329  0.4348239405489807  0.2438566649484386
  0.4474425629728884  0.5647807721835250  0.9984234906626241
  0.1054326880210468  0.8779042441965217  0.4971423989653871
  0.8955887846285862  0.7795595928899175  0.7523722610736172
  0.7721500620322672  0.8858468188932846  0.9997074161120239
  0.5489868692141755  0.7764582342743864  0.2504355619028971
  0.2114180687207678  0.7714840900941766  0.7530367734918784
  0.1122474508215561  0.8982668688482036  0.9920240300484195
  0.1137476979092469  0.2299756319193236  0.4785874841695659
  0.8887310854268975  0.1134470455943912  0.7402058734948085
  0.4473181192463471  0.2252076649395391  0.4741119164884182
  0.2159699463389302  0.1020731306586953  0.7215232540655592
  0.1212109323258446  0.2257513456621467  0.9860093315338290
  0.8854167321392410  0.1165417307228722  0.2258499825386693
  0.5611754366361978  0.1151724150986269  0.7252053228443671
  0.4414845100720228  0.2135961821873664  0.9928605957902050
  0.1091669552556098  0.5543190210175979  0.4860411672558200
  0.7818417076134665  0.5529654423291177  0.9770177375018889
  0.5535636377427835  0.4518694583086855  0.2288929909922786
  0.1070237914224208  0.5460011369623743  0.9818677067925634
  0.7848131031612127  0.5588959946576679  0.4885094172780882
  0.5503780978084478  0.4486484674796074  0.7371367156663027
  0.2181180824494788  0.7783758591177161  0.2229829659737277
  0.4346564869225844  0.8836048437318240  0.4815660678482132
  0.8950594317335216  0.7806353779746757  0.2231535166338077
  0.7829339518784053  0.8875775538163921  0.4758264204464808
  0.5552104173655721  0.7719728155529211  0.7276205159920437
  0.4516051130658738  0.8894256680985322  0.9819638222304903
  0.2104789802577116  0.0907682125067240  0.4609340860360689
  0.1342677359969002  0.2326276345697096  0.2137989357215062
  0.8751687910006396  0.1037691774357370  0.9711458913948263
  0.7914410670752119  0.2407120225741650  0.6894677801689397
  0.5730458527072102  0.1170490188707731  0.4575952437739019
  0.4387499713514131  0.2076017337939433  0.2233458713570116
  0.2182549455445795  0.0992571724634459  0.9389791506652401
  0.1165165054668265  0.2397544275944128  0.7082944976671328
  0.8835922459014043  0.1209698737701714  0.4494457074794340
  0.7640715995759990  0.2281022347258741  0.1958231704047151
  0.5691995301056636  0.1157815437614218  0.9443429144388773
  0.4456476532387228  0.2256033304207179  0.6985024690136683
  0.2384072352097348  0.4576715371879061  0.4409325396410466
  0.0977513089401327  0.5321865386399693  0.2047882267738785
  0.8794264467737349  0.4199996950630833  0.9430955478696816
  0.7943295788839464  0.5636605994994426  0.7206423924483616
  0.5530021082097463  0.4596053936034323  0.4549542053967386
  0.4347069391705460  0.5716443630072945  0.1955744725149273
  0.2441694906339720  0.4560988801300780  0.9444007708399056
  0.1104385957232381  0.5553587693809874  0.7168291892580783
  0.8811829460764642  0.4293893469408232  0.4421889458876223
  0.7866666263356734  0.5469418628319147  0.2008351303721199
  0.5456252592361892  0.4496166634994694  0.9684671958036333
  0.4252144273747902  0.5473015345756878  0.6896812291240693
  0.2081369531885500  0.7800323469246280  0.4400558860381807
  0.1229539649405353  0.9124981988764773  0.1881835047079790
  0.8973263849528976  0.7965767052798540  0.9585875692655677
  0.7920974332859245  0.8817297614180077  0.6955100556753777
  0.5466483223675098  0.7639375861349933  0.4546565486135705
  0.4591470819632448  0.8985447112592837  0.2135366108861305
  0.2102387296120725  0.7827768126231831  0.9599255188580074
  0.0994280884389411  0.8637182141989967  0.6971702726358870
  0.9059732949017985  0.7826892697352292  0.4393806285154582
  0.7582295791018083  0.8791369648948546  0.2061394316384622
  0.5667381599453662  0.7711822274588016  0.9473100511158705
  0.4230390481897217  0.8763158435750640  0.7105283417906207
 
  0.00000000E+00  0.00000000E+00  0.00000000E+00
  0.00000000E+00  0.00000000E+00  0.00000000E+00
  0.00000000E+00  0.00000000E+00  0.00000000E+00
  0.00000000E+00  0.00000000E+00  0.00000000E+00
  0.00000000E+00  0.00000000E+00  0.00000000E+00
  0.00000000E+00  0.00000000E+00  0.00000000E+00
  0.00000000E+00  0.00000000E+00  0.00000000E+00
  0.00000000E+00  0.00000000E+00  0.00000000E+00
  0.00000000E+00  0.00000000E+00  0.00000000E+00
  0.00000000E+00  0.00000000E+00  0.00000000E+00
  0.00000000E+00  0.00000000E+00  0.00000000E+00
  0.00000000E+00  0.00000000E+00  0.00000000E+00
  0.00000000E+00  0.00000000E+00  0.00000000E+00
  0.00000000E+00  0.00000000E+00  0.00000000E+00
  0.00000000E+00  0.00000000E+00  0.00000000E+00
  0.00000000E+00  0.00000000E+00  0.00000000E+00
  0.00000000E+00  0.00000000E+00  0.00000000E+00
  0.00000000E+00  0.00000000E+00  0.00000000E+00
  0.00000000E+00  0.00000000E+00  0.00000000E+00
  0.00000000E+00  0.00000000E+00  0.00000000E+00
  0.00000000E+00  0.00000000E+00  0.00000000E+00
  0.00000000E+00  0.00000000E+00  0.00000000E+00
  0.00000000E+00  0.00000000E+00  0.00000000E+00
  0.00000000E+00  0.00000000E+00  0.00000000E+00
  0.00000000E+00  0.00000000E+00  0.00000000E+00
  0.00000000E+00  0.00000000E+00  0.00000000E+00
  0.00000000E+00  0.00000000E+00  0.00000000E+00
  0.00000000E+00  0.00000000E+00  0.00000000E+00
  0.00000000E+00  0.00000000E+00  0.00000000E+00
  0.00000000E+00  0.00000000E+00  0.00000000E+00
  0.00000000E+00  0.00000000E+00  0.00000000E+00
  0.00000000E+00  0.00000000E+00  0.00000000E+00
  0.00000000E+00  0.00000000E+00  0.00000000E+00
  0.00000000E+00  0.00000000E+00  0.00000000E+00
  0.00000000E+00  0.00000000E+00  0.00000000E+00
  0.00000000E+00  0.00000000E+00  0.00000000E+00
  0.00000000E+00  0.00000000E+00  0.00000000E+00
  0.00000000E+00  0.00000000E+00  0.00000000E+00
  0.00000000E+00  0.00000000E+00  0.00000000E+00
  0.00000000E+00  0.00000000E+00  0.00000000E+00
  0.00000000E+00  0.00000000E+00  0.00000000E+00
  0.00000000E+00  0.00000000E+00  0.00000000E+00
  0.00000000E+00  0.00000000E+00  0.00000000E+00
  0.00000000E+00  0.00000000E+00  0.00000000E+00
  0.00000000E+00  0.00000000E+00  0.00000000E+00
  0.00000000E+00  0.00000000E+00  0.00000000E+00
  0.00000000E+00  0.00000000E+00  0.00000000E+00
  0.00000000E+00  0.00000000E+00  0.00000000E+00
  0.00000000E+00  0.00000000E+00  0.00000000E+00
  0.00000000E+00  0.00000000E+00  0.00000000E+00
  0.00000000E+00  0.00000000E+00  0.00000000E+00
  0.00000000E+00  0.00000000E+00  0.00000000E+00
  0.00000000E+00  0.00000000E+00  0.00000000E+00
  0.00000000E+00  0.00000000E+00  0.00000000E+00
  0.00000000E+00  0.00000000E+00  0.00000000E+00
  0.00000000E+00  0.00000000E+00  0.00000000E+00
  0.00000000E+00  0.00000000E+00  0.00000000E+00
  0.00000000E+00  0.00000000E+00  0.00000000E+00
  0.00000000E+00  0.00000000E+00  0.00000000E+00
  0.00000000E+00  0.00000000E+00  0.00000000E+00
  0.00000000E+00  0.00000000E+00  0.00000000E+00
  0.00000000E+00  0.00000000E+00  0.00000000E+00
  0.00000000E+00  0.00000000E+00  0.00000000E+00
  0.00000000E+00  0.00000000E+00  0.00000000E+00
  0.00000000E+00  0.00000000E+00  0.00000000E+00
  0.00000000E+00  0.00000000E+00  0.00000000E+00
  0.00000000E+00  0.00000000E+00  0.00000000E+00
  0.00000000E+00  0.00000000E+00  0.00000000E+00
  0.00000000E+00  0.00000000E+00  0.00000000E+00
  0.00000000E+00  0.00000000E+00  0.00000000E+00
  0.00000000E+00  0.00000000E+00  0.00000000E+00
  0.00000000E+00  0.00000000E+00  0.00000000E+00
