Al   B    N                             
   1.00000000000000     
    -9.3421660154904522    0.0014715310114270   -0.0042888889151182
    -4.6856233053390026    8.0817253338076647   -0.0017100077943254
    -0.0409789316678124   -0.0319564398527501  -10.2111397131822130
   Al   B    N 
    34     2    36
Direct
  0.1142205493174657  0.0940601437581705  0.3961882200213012
  0.2101349721503709  0.2099290911112988  0.1365009537542790
  0.7829652663494997  0.0827722222564091  0.8132942610368303
  0.8915761268993379  0.2022730650193836  0.6063613743067222
  0.4516228492274692  0.0913965054123551  0.3148698815701394
  0.5615854732443424  0.2082502477964638  0.0636304765288997
  0.1004095523299355  0.0992786668100152  0.8825049885902843
  0.2175729512450815  0.2097146565932917  0.6432272765478970
  0.7829704967308260  0.1024523522498484  0.3153575747089334
  0.4520113975646609  0.0902612730466785  0.8196227057238730
  0.5617390391768637  0.1967977462311623  0.5647205314168033
  0.1117479430011343  0.4249498216465710  0.3909671127163392
  0.2163750495636165  0.5396783141854513  0.1421781490876555
  0.7820090245669533  0.4208810825733806  0.8809138671049652
  0.8899554654178985  0.5492119677022913  0.6410604553258352
  0.4484492637622637  0.4204126236779828  0.3226860941345819
  0.5646417560769379  0.5310345026952987  0.1339024502316875
  0.1109050485553382  0.4288132043370538  0.8902482796849256
  0.2109021832612896  0.5466276267017847  0.6350375513304130
  0.7778661084054761  0.4302437459291326  0.3973738770747630
  0.8906787638969362  0.5294053089333985  0.1421125481248993
  0.4464807041548227  0.4199598755698091  0.8184420596133322
  0.5601089869141020  0.5419404665562979  0.6394544897955328
  0.1019090257349049  0.7674868296071651  0.3840419530932806
  0.2096717902487342  0.8786584062763652  0.1401842636883259
  0.7846871095291732  0.7556513948354109  0.8965799467983402
  0.4444599298382030  0.7615751379944768  0.3418052130939415
  0.5488211769421625  0.8755297256766497  0.0708688903869259
  0.1128781119593114  0.7591668499525710  0.8960823277911487
  0.2126908603346180  0.8766747479914798  0.6408544164800603
  0.7872074273032510  0.7610526761873189  0.3767187813093003
  0.8906940895585649  0.8733729978421110  0.1103316243217449
  0.4408924152472693  0.7633181901455899  0.8534105603462478
  0.5518520153357827  0.8783907413682499  0.5682725191548101
  0.8863606168170861  0.2075901322718892  0.0957795759551203
  0.8866277899332928  0.8725497842816949  0.5961168918120734
  0.2169298843618748  0.2065688595456976  0.3252520048419498
  0.0779198339190543  0.1098852804444732  0.0779056829122737
  0.8879722932043776  0.2082362282793824  0.8111402940721106
  0.7917210465653284  0.0572231821564273  0.6208329061591868
  0.5600538100596637  0.2006819513625757  0.3785281613956073
  0.4509091500141906  0.0944129111479270  0.1266643732057133
  0.2173331483457446  0.2076678420387452  0.8333862134874579
  0.1230777693011760  0.0910743485206780  0.5813966780985993
  0.8863674533745112  0.2029163787422732  0.3898556800630288
  0.7911882858377268  0.1193882781919626  0.1218671565151368
  0.5601330744677426  0.2026809431870689  0.8780142718810211
  0.4502938356989077  0.0936249477466546  0.6314867104377484
  0.2160385290406879  0.5420370098560952  0.3339568348231623
  0.1101592213257447  0.4280927059183810  0.0772473364432429
  0.8887123098797645  0.5404966226343291  0.8283525749247289
  0.7766283881140126  0.4421221264078383  0.5829283265684779
  0.5651598587113256  0.5343429218095395  0.3272560576588290
  0.4459171686032946  0.4207551533349019  0.1280927539223313
  0.2142807456304610  0.5435889786291028  0.8253109369291352
  0.1110097054506127  0.4273663689503167  0.5776922556138615
  0.8903495284224618  0.5353118214233419  0.3288115275809744
  0.7948340439169641  0.3968522133555510  0.0760038890170733
  0.5589191049794877  0.5371228113566531  0.8351322603241798
  0.4497067595137381  0.4204617069981680  0.6240350433647066
  0.2146607886865723  0.8770461622671561  0.3286982514677987
  0.1209593946110914  0.7536142897904412  0.0811722214193580
  0.8860671528654294  0.8784126441197913  0.8867266497735713
  0.7975334077423994  0.7749082339081710  0.5760226493975722
  0.5541414478036799  0.8752763968309552  0.3787756957562038
  0.4397024744613915  0.7624374797068469  0.1085670002161194
  0.2134638054289084  0.8754598992276996  0.8301371770857671
  0.0790939509972119  0.7792868675788043  0.5781786918761682
  0.8893898537721867  0.8715874230337448  0.3110662460645131
  0.7785006257431846  0.7489750096725416  0.0864846262061292
  0.5524197396328674  0.8755600915454096  0.8806501881672872
  0.4405097404129847  0.7642921620753071  0.6072378818254265
 
  0.00000000E+00  0.00000000E+00  0.00000000E+00
  0.00000000E+00  0.00000000E+00  0.00000000E+00
  0.00000000E+00  0.00000000E+00  0.00000000E+00
  0.00000000E+00  0.00000000E+00  0.00000000E+00
  0.00000000E+00  0.00000000E+00  0.00000000E+00
  0.00000000E+00  0.00000000E+00  0.00000000E+00
  0.00000000E+00  0.00000000E+00  0.00000000E+00
  0.00000000E+00  0.00000000E+00  0.00000000E+00
  0.00000000E+00  0.00000000E+00  0.00000000E+00
  0.00000000E+00  0.00000000E+00  0.00000000E+00
  0.00000000E+00  0.00000000E+00  0.00000000E+00
  0.00000000E+00  0.00000000E+00  0.00000000E+00
  0.00000000E+00  0.00000000E+00  0.00000000E+00
  0.00000000E+00  0.00000000E+00  0.00000000E+00
  0.00000000E+00  0.00000000E+00  0.00000000E+00
  0.00000000E+00  0.00000000E+00  0.00000000E+00
  0.00000000E+00  0.00000000E+00  0.00000000E+00
  0.00000000E+00  0.00000000E+00  0.00000000E+00
  0.00000000E+00  0.00000000E+00  0.00000000E+00
  0.00000000E+00  0.00000000E+00  0.00000000E+00
  0.00000000E+00  0.00000000E+00  0.00000000E+00
  0.00000000E+00  0.00000000E+00  0.00000000E+00
  0.00000000E+00  0.00000000E+00  0.00000000E+00
  0.00000000E+00  0.00000000E+00  0.00000000E+00
  0.00000000E+00  0.00000000E+00  0.00000000E+00
  0.00000000E+00  0.00000000E+00  0.00000000E+00
  0.00000000E+00  0.00000000E+00  0.00000000E+00
  0.00000000E+00  0.00000000E+00  0.00000000E+00
  0.00000000E+00  0.00000000E+00  0.00000000E+00
  0.00000000E+00  0.00000000E+00  0.00000000E+00
  0.00000000E+00  0.00000000E+00  0.00000000E+00
  0.00000000E+00  0.00000000E+00  0.00000000E+00
  0.00000000E+00  0.00000000E+00  0.00000000E+00
  0.00000000E+00  0.00000000E+00  0.00000000E+00
  0.00000000E+00  0.00000000E+00  0.00000000E+00
  0.00000000E+00  0.00000000E+00  0.00000000E+00
  0.00000000E+00  0.00000000E+00  0.00000000E+00
  0.00000000E+00  0.00000000E+00  0.00000000E+00
  0.00000000E+00  0.00000000E+00  0.00000000E+00
  0.00000000E+00  0.00000000E+00  0.00000000E+00
  0.00000000E+00  0.00000000E+00  0.00000000E+00
  0.00000000E+00  0.00000000E+00  0.00000000E+00
  0.00000000E+00  0.00000000E+00  0.00000000E+00
  0.00000000E+00  0.00000000E+00  0.00000000E+00
  0.00000000E+00  0.00000000E+00  0.00000000E+00
  0.00000000E+00  0.00000000E+00  0.00000000E+00
  0.00000000E+00  0.00000000E+00  0.00000000E+00
  0.00000000E+00  0.00000000E+00  0.00000000E+00
  0.00000000E+00  0.00000000E+00  0.00000000E+00
  0.00000000E+00  0.00000000E+00  0.00000000E+00
  0.00000000E+00  0.00000000E+00  0.00000000E+00
  0.00000000E+00  0.00000000E+00  0.00000000E+00
  0.00000000E+00  0.00000000E+00  0.00000000E+00
  0.00000000E+00  0.00000000E+00  0.00000000E+00
  0.00000000E+00  0.00000000E+00  0.00000000E+00
  0.00000000E+00  0.00000000E+00  0.00000000E+00
  0.00000000E+00  0.00000000E+00  0.00000000E+00
  0.00000000E+00  0.00000000E+00  0.00000000E+00
  0.00000000E+00  0.00000000E+00  0.00000000E+00
  0.00000000E+00  0.00000000E+00  0.00000000E+00
  0.00000000E+00  0.00000000E+00  0.00000000E+00
  0.00000000E+00  0.00000000E+00  0.00000000E+00
  0.00000000E+00  0.00000000E+00  0.00000000E+00
  0.00000000E+00  0.00000000E+00  0.00000000E+00
  0.00000000E+00  0.00000000E+00  0.00000000E+00
  0.00000000E+00  0.00000000E+00  0.00000000E+00
  0.00000000E+00  0.00000000E+00  0.00000000E+00
  0.00000000E+00  0.00000000E+00  0.00000000E+00
  0.00000000E+00  0.00000000E+00  0.00000000E+00
  0.00000000E+00  0.00000000E+00  0.00000000E+00
  0.00000000E+00  0.00000000E+00  0.00000000E+00
  0.00000000E+00  0.00000000E+00  0.00000000E+00
