Al   B    N                             
   1.00000000000000     
    -9.3151791843987279    0.0011182413601859   -0.0173810911293130
    -4.6990483698049319    8.0902993693903493   -0.0006942706818167
    -0.0824300052728521   -0.0486590381045035  -10.1989608932536804
   Al   B    N 
    34     2    36
Direct
  0.1143940735737701  0.0926067829159578  0.3985219266024629
  0.2147378188588291  0.2042539853909346  0.1354297842523593
  0.7826981164312414  0.0848427902650712  0.8211066785459451
  0.8877519862781043  0.2033046861883960  0.6006434207325739
  0.4527551224002337  0.0891938057394697  0.3189287852275697
  0.5610572242999723  0.2093983156994810  0.0678633701013069
  0.0991470282512736  0.0988554668373283  0.8900518448715005
  0.2211339260363800  0.2003169895620687  0.6439206606165158
  0.7824843601705425  0.0991258974781886  0.3213577635845581
  0.4522608888536226  0.0902919090065168  0.8247790120560694
  0.5607258402280095  0.1964991235794358  0.5679599227989129
  0.1062332394064853  0.4297132818431280  0.3284446617929007
  0.2211513489597863  0.5454006913218166  0.1436846865199968
  0.7763124786010920  0.4307877728741474  0.8132120992537608
  0.8910257445280862  0.5449353882800381  0.5683810610025830
  0.4520516790004763  0.4241836273616215  0.3244993809127124
  0.5590258980066594  0.5342117052203292  0.0715607399458591
  0.1064401990530541  0.4303861842611170  0.8296307778854271
  0.2144445553655459  0.5479091804175980  0.6368284239319877
  0.7827774970558607  0.4208316496103421  0.3270854168213333
  0.8907254523470769  0.5308284313986391  0.0683603374005486
  0.4530734247660391  0.4245891642707562  0.8192963932828832
  0.5557969953595006  0.5414767300872896  0.5665567889447729
  0.0992120542152009  0.7683067946545421  0.3900645737718378
  0.2080184125090625  0.8808693149190745  0.1454483203175343
  0.7829513100281815  0.7629070941796172  0.8269505782799982
  0.4483689056556059  0.7601231918962554  0.3215754423877968
  0.5559798617566472  0.8692862420014862  0.0665104326029180
  0.1144976091228358  0.7597190963093894  0.8987497176476040
  0.2080947874152628  0.8778559613099617  0.6452408735765189
  0.7762297383892758  0.7596269871828980  0.3133781876206143
  0.8877313141855865  0.8756584584196929  0.1006942040776906
  0.4484819931446395  0.7581669312881587  0.8214655872597874
  0.5589992792685194  0.8735837145028498  0.5715459521676678
  0.8855257815879227  0.2093658780520187  0.1091452708416583
  0.8855214836334540  0.8717371839265908  0.6089717656998985
  0.2196117691553425  0.2000320960266606  0.3286925951767614
  0.0773125226181222  0.1109532600830647  0.0838403015044520
  0.8891703272758562  0.2043093546171448  0.8211092640264610
  0.7911848117351425  0.0571035875380232  0.6258256167808298
  0.5576002867692509  0.2030324278791937  0.3812234474866685
  0.4548651012267868  0.0901425625458501  0.1273677426076674
  0.2202362874901027  0.2013138725124648  0.8406390216473341
  0.1213320974723260  0.0886750556518621  0.5824381976903865
  0.8811039647713983  0.2089709311214634  0.3958713433670482
  0.7912225899263703  0.1183314223186827  0.1260188795169910
  0.5579889583660105  0.2058081939628451  0.8811926714437988
  0.4522219637785554  0.0903731287961023  0.6343881647342968
  0.2199037958012156  0.5451216306426545  0.3395334368803944
  0.1079536475675695  0.4314807088179364  0.1247568908889605
  0.8848700194036141  0.5392749034513713  0.8815161760711376
  0.7734158558085937  0.4415262180343618  0.6268352362546707
  0.5563704398080702  0.5404129650138856  0.3796951393279642
  0.4523091108823252  0.4241149194868896  0.1340931024337095
  0.2198609893483976  0.5467296504519510  0.8295873463508698
  0.1078425227577995  0.4273954643553921  0.6257722317233103
  0.8850355242946151  0.5423287820033309  0.3814316862807061
  0.7947704459276252  0.3980936604482253  0.1305409683905268
  0.5567811600765538  0.5386345810128077  0.8844039562583532
  0.4545820177724025  0.4219440011152216  0.6277271887387457
  0.2139015495082006  0.8763740622263327  0.3336253713173676
  0.1212321697470031  0.7569960452144571  0.0825521637712825
  0.8812478647028925  0.8764383073847100  0.8958091020981485
  0.7947952152798621  0.7737869040598255  0.6303990790219984
  0.5565871452164473  0.8714638601349876  0.3843765250803273
  0.4469820542727732  0.7601010670763770  0.1309773638206764
  0.2139988365668657  0.8762022597701602  0.8334506690883074
  0.0774707018227332  0.7781782307910703  0.5839563169651996
  0.8890263308459723  0.8732010898066918  0.3215188095336572
  0.7734882339195295  0.7517616759486216  0.1269895610596805
  0.5566235110685298  0.8696512052384477  0.8796686814293935
  0.4470214097636074  0.7597218832283659  0.6309002600548652
 
  0.00000000E+00  0.00000000E+00  0.00000000E+00
  0.00000000E+00  0.00000000E+00  0.00000000E+00
  0.00000000E+00  0.00000000E+00  0.00000000E+00
  0.00000000E+00  0.00000000E+00  0.00000000E+00
  0.00000000E+00  0.00000000E+00  0.00000000E+00
  0.00000000E+00  0.00000000E+00  0.00000000E+00
  0.00000000E+00  0.00000000E+00  0.00000000E+00
  0.00000000E+00  0.00000000E+00  0.00000000E+00
  0.00000000E+00  0.00000000E+00  0.00000000E+00
  0.00000000E+00  0.00000000E+00  0.00000000E+00
  0.00000000E+00  0.00000000E+00  0.00000000E+00
  0.00000000E+00  0.00000000E+00  0.00000000E+00
  0.00000000E+00  0.00000000E+00  0.00000000E+00
  0.00000000E+00  0.00000000E+00  0.00000000E+00
  0.00000000E+00  0.00000000E+00  0.00000000E+00
  0.00000000E+00  0.00000000E+00  0.00000000E+00
  0.00000000E+00  0.00000000E+00  0.00000000E+00
  0.00000000E+00  0.00000000E+00  0.00000000E+00
  0.00000000E+00  0.00000000E+00  0.00000000E+00
  0.00000000E+00  0.00000000E+00  0.00000000E+00
  0.00000000E+00  0.00000000E+00  0.00000000E+00
  0.00000000E+00  0.00000000E+00  0.00000000E+00
  0.00000000E+00  0.00000000E+00  0.00000000E+00
  0.00000000E+00  0.00000000E+00  0.00000000E+00
  0.00000000E+00  0.00000000E+00  0.00000000E+00
  0.00000000E+00  0.00000000E+00  0.00000000E+00
  0.00000000E+00  0.00000000E+00  0.00000000E+00
  0.00000000E+00  0.00000000E+00  0.00000000E+00
  0.00000000E+00  0.00000000E+00  0.00000000E+00
  0.00000000E+00  0.00000000E+00  0.00000000E+00
  0.00000000E+00  0.00000000E+00  0.00000000E+00
  0.00000000E+00  0.00000000E+00  0.00000000E+00
  0.00000000E+00  0.00000000E+00  0.00000000E+00
  0.00000000E+00  0.00000000E+00  0.00000000E+00
  0.00000000E+00  0.00000000E+00  0.00000000E+00
  0.00000000E+00  0.00000000E+00  0.00000000E+00
  0.00000000E+00  0.00000000E+00  0.00000000E+00
  0.00000000E+00  0.00000000E+00  0.00000000E+00
  0.00000000E+00  0.00000000E+00  0.00000000E+00
  0.00000000E+00  0.00000000E+00  0.00000000E+00
  0.00000000E+00  0.00000000E+00  0.00000000E+00
  0.00000000E+00  0.00000000E+00  0.00000000E+00
  0.00000000E+00  0.00000000E+00  0.00000000E+00
  0.00000000E+00  0.00000000E+00  0.00000000E+00
  0.00000000E+00  0.00000000E+00  0.00000000E+00
  0.00000000E+00  0.00000000E+00  0.00000000E+00
  0.00000000E+00  0.00000000E+00  0.00000000E+00
  0.00000000E+00  0.00000000E+00  0.00000000E+00
  0.00000000E+00  0.00000000E+00  0.00000000E+00
  0.00000000E+00  0.00000000E+00  0.00000000E+00
  0.00000000E+00  0.00000000E+00  0.00000000E+00
  0.00000000E+00  0.00000000E+00  0.00000000E+00
  0.00000000E+00  0.00000000E+00  0.00000000E+00
  0.00000000E+00  0.00000000E+00  0.00000000E+00
  0.00000000E+00  0.00000000E+00  0.00000000E+00
  0.00000000E+00  0.00000000E+00  0.00000000E+00
  0.00000000E+00  0.00000000E+00  0.00000000E+00
  0.00000000E+00  0.00000000E+00  0.00000000E+00
  0.00000000E+00  0.00000000E+00  0.00000000E+00
  0.00000000E+00  0.00000000E+00  0.00000000E+00
  0.00000000E+00  0.00000000E+00  0.00000000E+00
  0.00000000E+00  0.00000000E+00  0.00000000E+00
  0.00000000E+00  0.00000000E+00  0.00000000E+00
  0.00000000E+00  0.00000000E+00  0.00000000E+00
  0.00000000E+00  0.00000000E+00  0.00000000E+00
  0.00000000E+00  0.00000000E+00  0.00000000E+00
  0.00000000E+00  0.00000000E+00  0.00000000E+00
  0.00000000E+00  0.00000000E+00  0.00000000E+00
  0.00000000E+00  0.00000000E+00  0.00000000E+00
  0.00000000E+00  0.00000000E+00  0.00000000E+00
  0.00000000E+00  0.00000000E+00  0.00000000E+00
  0.00000000E+00  0.00000000E+00  0.00000000E+00
