Al   B    N                             
   1.00000000000000     
    -9.3316332761169463   -0.0011687956157998   -0.0130497624337416
    -4.6639426259753130    8.0873283438505972   -0.0000874085293891
    -0.0018898145589921    0.0120688580800348  -10.0083361291033111
   Al   B    N 
    34     2    36
Direct
  0.1018355309230259  0.1036797751922478  0.3076875406320880
  0.2181194153461590  0.2070883742042398  0.0611367058015944
  0.7816954294347909  0.0911453013000099  0.8235942524182676
  0.8910494362759209  0.1977937094568105  0.5631187869063865
  0.4462847536912591  0.0932839429513166  0.3110795436285017
  0.5600304688339861  0.2076638834374123  0.0588514940719236
  0.1056272944569656  0.1030112753156658  0.8228225739965893
  0.2210482165421084  0.2047587336243950  0.5602915113561551
  0.7790155510170464  0.1005028935796233  0.3034605369364414
  0.4442813075596419  0.0954006296588901  0.8101247867335886
  0.5613167959062224  0.1982326101145802  0.5617535211065672
  0.1097604110368522  0.4286294214524347  0.3120728559652477
  0.2289163331432320  0.5271204940224195  0.0621442013536608
  0.7789828766223010  0.4251030187160083  0.8147563343057485
  0.8899741535561674  0.5423561374712733  0.5621535700885261
  0.4453259806815240  0.4270039393693210  0.3127872476513645
  0.5612931299285009  0.5313470069730499  0.0602621240994310
  0.1119696280955935  0.4277052893239315  0.8083323839803072
  0.2124049934397334  0.5475437997260713  0.5604588293197921
  0.7807486767637499  0.4228830398870613  0.3074999328608783
  0.8905272695658510  0.5314333753165812  0.0582353430861318
  0.4444995558124205  0.4279221179575998  0.8079368236758953
  0.5566812440003872  0.5382191383954904  0.5592515785422520
  0.1082936675607513  0.7603401293038914  0.3094778406593264
  0.2206322434668806  0.8780802931709388  0.1128122810287593
  0.7818264769912560  0.7634201898861406  0.8164653355515554
  0.4502615637687413  0.7590339131407760  0.3103925836803683
  0.5569044409629598  0.8705337895320824  0.0567239488965257
  0.1083592920442769  0.7627440726066368  0.8733339585814903
  0.2102911007801040  0.8725602061204043  0.6307476846832714
  0.7763363256911830  0.7596661553141146  0.3062261261673385
  0.8826794978069685  0.8787022995247256  0.0866531230252434
  0.4519756231508723  0.7564406779319413  0.8133887794003414
  0.5593493651435324  0.8747829638037885  0.5615957973531280
  0.8847008691017990  0.2098250427151527  0.0567962992690596
  0.8920352502957627  0.8704955800797762  0.6075939292912551
  0.2217272106312507  0.2050459351673837  0.3690583002790504
  0.0824235542557332  0.1137715156078940  0.1103693107278048
  0.8869567491733221  0.2079993007989103  0.8906273205173107
  0.7933194334162437  0.0650211690532743  0.6254491732771044
  0.5585461535125020  0.2041221677380349  0.3709275095240017
  0.4463477246627789  0.0933612696440278  0.1193343933039941
  0.2237272790187177  0.2075514048627056  0.8720605786579867
  0.1060865178803994  0.1024347832434529  0.6278444873026814
  0.8871027905666367  0.2063988732084923  0.3758629783645517
  0.7863996209014985  0.1175756225130939  0.1106717123080827
  0.5552155829640739  0.2067746482356938  0.8682442256340508
  0.4429729500238295  0.0954513743371876  0.6200652139982310
  0.2214225961743423  0.5404301493947088  0.3690475899037082
  0.1106795066679780  0.4267959135601842  0.1222938267639293
  0.8901264194546954  0.5381989895417121  0.8673374933047597
  0.7783140506053172  0.4252097066670402  0.6232406431714708
  0.5583425218191209  0.5374995815210113  0.3684544558678695
  0.4463095395381771  0.4257927022190557  0.1227368522769225
  0.2255474352283287  0.5326647995248734  0.8711191436330097
  0.1114873251571069  0.4273607731169520  0.6188134961904552
  0.8868501138812732  0.5389894770334891  0.3711422237742354
  0.7908017745519871  0.4030687472039958  0.1130463365746976
  0.5564534594049348  0.5362065943480161  0.8707268726658484
  0.4426405867922227  0.4286177203234232  0.6173743497999808
  0.2212160262076992  0.8752928350843092  0.3202994180284549
  0.1172659406502632  0.7541651921101078  0.0950845653739236
  0.8815642381252502  0.8759497274591297  0.8875882593244668
  0.7921671644942663  0.7764171691640200  0.6201660995133196
  0.5571250376367303  0.8717996557919747  0.3723003287191133
  0.4531580712808179  0.7553963839854561  0.1156582763537202
  0.2221714510068509  0.8716760817641216  0.8368750103008935
  0.0755927540011925  0.7767932443335823  0.6073003827781491
  0.8850954055410938  0.8759327876561116  0.3168822894910264
  0.7740775850935364  0.7520656064849049  0.1159045988649865
  0.5567922902805478  0.8729127715182017  0.8669029107739448
  0.4476469168554900  0.7594479634595430  0.6194565636220517
 
  0.00000000E+00  0.00000000E+00  0.00000000E+00
  0.00000000E+00  0.00000000E+00  0.00000000E+00
  0.00000000E+00  0.00000000E+00  0.00000000E+00
  0.00000000E+00  0.00000000E+00  0.00000000E+00
  0.00000000E+00  0.00000000E+00  0.00000000E+00
  0.00000000E+00  0.00000000E+00  0.00000000E+00
  0.00000000E+00  0.00000000E+00  0.00000000E+00
  0.00000000E+00  0.00000000E+00  0.00000000E+00
  0.00000000E+00  0.00000000E+00  0.00000000E+00
  0.00000000E+00  0.00000000E+00  0.00000000E+00
  0.00000000E+00  0.00000000E+00  0.00000000E+00
  0.00000000E+00  0.00000000E+00  0.00000000E+00
  0.00000000E+00  0.00000000E+00  0.00000000E+00
  0.00000000E+00  0.00000000E+00  0.00000000E+00
  0.00000000E+00  0.00000000E+00  0.00000000E+00
  0.00000000E+00  0.00000000E+00  0.00000000E+00
  0.00000000E+00  0.00000000E+00  0.00000000E+00
  0.00000000E+00  0.00000000E+00  0.00000000E+00
  0.00000000E+00  0.00000000E+00  0.00000000E+00
  0.00000000E+00  0.00000000E+00  0.00000000E+00
  0.00000000E+00  0.00000000E+00  0.00000000E+00
  0.00000000E+00  0.00000000E+00  0.00000000E+00
  0.00000000E+00  0.00000000E+00  0.00000000E+00
  0.00000000E+00  0.00000000E+00  0.00000000E+00
  0.00000000E+00  0.00000000E+00  0.00000000E+00
  0.00000000E+00  0.00000000E+00  0.00000000E+00
  0.00000000E+00  0.00000000E+00  0.00000000E+00
  0.00000000E+00  0.00000000E+00  0.00000000E+00
  0.00000000E+00  0.00000000E+00  0.00000000E+00
  0.00000000E+00  0.00000000E+00  0.00000000E+00
  0.00000000E+00  0.00000000E+00  0.00000000E+00
  0.00000000E+00  0.00000000E+00  0.00000000E+00
  0.00000000E+00  0.00000000E+00  0.00000000E+00
  0.00000000E+00  0.00000000E+00  0.00000000E+00
  0.00000000E+00  0.00000000E+00  0.00000000E+00
  0.00000000E+00  0.00000000E+00  0.00000000E+00
  0.00000000E+00  0.00000000E+00  0.00000000E+00
  0.00000000E+00  0.00000000E+00  0.00000000E+00
  0.00000000E+00  0.00000000E+00  0.00000000E+00
  0.00000000E+00  0.00000000E+00  0.00000000E+00
  0.00000000E+00  0.00000000E+00  0.00000000E+00
  0.00000000E+00  0.00000000E+00  0.00000000E+00
  0.00000000E+00  0.00000000E+00  0.00000000E+00
  0.00000000E+00  0.00000000E+00  0.00000000E+00
  0.00000000E+00  0.00000000E+00  0.00000000E+00
  0.00000000E+00  0.00000000E+00  0.00000000E+00
  0.00000000E+00  0.00000000E+00  0.00000000E+00
  0.00000000E+00  0.00000000E+00  0.00000000E+00
  0.00000000E+00  0.00000000E+00  0.00000000E+00
  0.00000000E+00  0.00000000E+00  0.00000000E+00
  0.00000000E+00  0.00000000E+00  0.00000000E+00
  0.00000000E+00  0.00000000E+00  0.00000000E+00
  0.00000000E+00  0.00000000E+00  0.00000000E+00
  0.00000000E+00  0.00000000E+00  0.00000000E+00
  0.00000000E+00  0.00000000E+00  0.00000000E+00
  0.00000000E+00  0.00000000E+00  0.00000000E+00
  0.00000000E+00  0.00000000E+00  0.00000000E+00
  0.00000000E+00  0.00000000E+00  0.00000000E+00
  0.00000000E+00  0.00000000E+00  0.00000000E+00
  0.00000000E+00  0.00000000E+00  0.00000000E+00
  0.00000000E+00  0.00000000E+00  0.00000000E+00
  0.00000000E+00  0.00000000E+00  0.00000000E+00
  0.00000000E+00  0.00000000E+00  0.00000000E+00
  0.00000000E+00  0.00000000E+00  0.00000000E+00
  0.00000000E+00  0.00000000E+00  0.00000000E+00
  0.00000000E+00  0.00000000E+00  0.00000000E+00
  0.00000000E+00  0.00000000E+00  0.00000000E+00
  0.00000000E+00  0.00000000E+00  0.00000000E+00
  0.00000000E+00  0.00000000E+00  0.00000000E+00
  0.00000000E+00  0.00000000E+00  0.00000000E+00
  0.00000000E+00  0.00000000E+00  0.00000000E+00
  0.00000000E+00  0.00000000E+00  0.00000000E+00
