Al   B    N                             
   1.00000000000000     
    -9.2999600735758641   -0.0012357589339861   -0.0069944326330948
    -4.6488956840535192    8.0522426492206804   -0.0000368763589314
     0.0023403150850645    0.0016623341524035   -9.9421671871384891
   Al   B    N 
    34     2    36
Direct
  0.1055121051779224  0.0971228061400211  0.3070781042057433
  0.2171634389545574  0.2073484508878778  0.0614412024209798
  0.7817751777557334  0.0905265243347415  0.8139654040046054
  0.8903112991106283  0.1999567139014573  0.5631734091483054
  0.4444842962475093  0.0941967674481603  0.3108445948807557
  0.5608115251556214  0.2065338890204131  0.0612951299725211
  0.1084719560677954  0.0955960530714179  0.8183644349530184
  0.2210368738218520  0.2046443611060269  0.5614287245125666
  0.7817313025323003  0.0944013826617791  0.3136464926445512
  0.4445127028298472  0.0947631768727177  0.8115962154155270
  0.5609020011260810  0.1992760920499421  0.5613253306404644
  0.1108163102153767  0.4277979258666988  0.3113405696121490
  0.2211070739022816  0.5408912850577323  0.0614576679728103
  0.7789671503096542  0.4251521221093668  0.8182114638529683
  0.8896313474244479  0.5411089225763206  0.5617852544530422
  0.4444735299963654  0.4274293099953326  0.3116624383684794
  0.5590399173864000  0.5338450925347829  0.0615140584805900
  0.1108863283971431  0.4280224048947190  0.8112670841058574
  0.2170510069815350  0.5422570211843905  0.5614299847682176
  0.7807664002550538  0.4221081459711868  0.3075627245994994
  0.8897118760659453  0.5358452161171101  0.0617175466799722
  0.4444748307954214  0.4280125671285901  0.8107687593215971
  0.5573083395176042  0.5376015520785487  0.5609568730318983
  0.1084037892933409  0.7626852025175594  0.3182530388192149
  0.2161929504944098  0.8750180624295254  0.0616670051609844
  0.7807861231885198  0.7637854207988397  0.8077404768785854
  0.4443566464393172  0.7615820939689826  0.3116235910542571
  0.5572773399929289  0.8717462567186587  0.0609831358161372
  0.1055512989449738  0.7639909674404066  0.8072797469713890
  0.2160755014402866  0.8755270581064352  0.5617321630486316
  0.7789739990341928  0.7625426962806401  0.3181355642627537
  0.8903391614244001  0.8762963868365290  0.0632889596032769
  0.4444019966900967  0.7607188799751583  0.8115408727419791
  0.5590973504710277  0.8737797752675078  0.5615150262881912
  0.8890254619102080  0.2047397979985774  0.0588592045758602
  0.8890029131560908  0.8729571600656669  0.5592501715808709
  0.2210210514449074  0.2042742132675031  0.3686621519498345
  0.0859311955381656  0.1068789916375437  0.1129380552315240
  0.8880622313334783  0.2044419927546528  0.8914532659396031
  0.7909771819138953  0.0698551362497639  0.6177948435159948
  0.5575014836008023  0.2041024056266636  0.3694494147081713
  0.4444635447463270  0.0951420342723921  0.1192660481468337
  0.2223476347042848  0.2060611070638458  0.8714083667959613
  0.1094338396226888  0.0954922423212849  0.6262987972450844
  0.8892877138225472  0.2056197003389642  0.3750011146092760
  0.7909200443221280  0.1058443362968262  0.1175246289422418
  0.5574555297236188  0.2051250547761896  0.8694372010988971
  0.4434083399522777  0.0951451112925668  0.6205878267424580
  0.2222601982678327  0.5383664589986381  0.3714054808440537
  0.1110742400585423  0.4286790486448382  0.1206026020146709
  0.8879640897970091  0.5413556882973722  0.8699864763090730
  0.7791362453471891  0.4250624838017742  0.6251590325722987
  0.5578764288426115  0.5377522857150794  0.3686668293025690
  0.4434320409722687  0.4281008336711736  0.1206434871472482
  0.2210781694125572  0.5412959366807328  0.8686938223233511
  0.1110491694303377  0.4269071654497978  0.6205464144026109
  0.8878698742616180  0.5373663159228101  0.3700281227839071
  0.7906498757750668  0.4027726936131728  0.1132091409103211
  0.5550603931717433  0.5389212927432609  0.8712784006905920
  0.4444024849667088  0.4270896153240287  0.6192074666084508
  0.2211260928442798  0.8750886644828100  0.3699783909985825
  0.1095472846344947  0.7616870226644323  0.1261914752076549
  0.8893356364143798  0.8717052246472932  0.8751728269911965
  0.7906691690974910  0.7732825927648932  0.6133872187383673
  0.5550921496335164  0.8726753115630146  0.3712889451936121
  0.4439345334087434  0.7614159677462737  0.1196679868775732
  0.2212116765831738  0.8704309820316567  0.8699477148816328
  0.0858215455053823  0.7739140215418487  0.6131320366053927
  0.8879916148705860  0.8742630810134600  0.3912512733840359
  0.7791361255108598  0.7623349293194792  0.1250798588498085
  0.5578492841818772  0.8710602183929907  0.8686905051792451
  0.4439354333383534  0.7613151787259085  0.6196051418292186
 
  0.00000000E+00  0.00000000E+00  0.00000000E+00
  0.00000000E+00  0.00000000E+00  0.00000000E+00
  0.00000000E+00  0.00000000E+00  0.00000000E+00
  0.00000000E+00  0.00000000E+00  0.00000000E+00
  0.00000000E+00  0.00000000E+00  0.00000000E+00
  0.00000000E+00  0.00000000E+00  0.00000000E+00
  0.00000000E+00  0.00000000E+00  0.00000000E+00
  0.00000000E+00  0.00000000E+00  0.00000000E+00
  0.00000000E+00  0.00000000E+00  0.00000000E+00
  0.00000000E+00  0.00000000E+00  0.00000000E+00
  0.00000000E+00  0.00000000E+00  0.00000000E+00
  0.00000000E+00  0.00000000E+00  0.00000000E+00
  0.00000000E+00  0.00000000E+00  0.00000000E+00
  0.00000000E+00  0.00000000E+00  0.00000000E+00
  0.00000000E+00  0.00000000E+00  0.00000000E+00
  0.00000000E+00  0.00000000E+00  0.00000000E+00
  0.00000000E+00  0.00000000E+00  0.00000000E+00
  0.00000000E+00  0.00000000E+00  0.00000000E+00
  0.00000000E+00  0.00000000E+00  0.00000000E+00
  0.00000000E+00  0.00000000E+00  0.00000000E+00
  0.00000000E+00  0.00000000E+00  0.00000000E+00
  0.00000000E+00  0.00000000E+00  0.00000000E+00
  0.00000000E+00  0.00000000E+00  0.00000000E+00
  0.00000000E+00  0.00000000E+00  0.00000000E+00
  0.00000000E+00  0.00000000E+00  0.00000000E+00
  0.00000000E+00  0.00000000E+00  0.00000000E+00
  0.00000000E+00  0.00000000E+00  0.00000000E+00
  0.00000000E+00  0.00000000E+00  0.00000000E+00
  0.00000000E+00  0.00000000E+00  0.00000000E+00
  0.00000000E+00  0.00000000E+00  0.00000000E+00
  0.00000000E+00  0.00000000E+00  0.00000000E+00
  0.00000000E+00  0.00000000E+00  0.00000000E+00
  0.00000000E+00  0.00000000E+00  0.00000000E+00
  0.00000000E+00  0.00000000E+00  0.00000000E+00
  0.00000000E+00  0.00000000E+00  0.00000000E+00
  0.00000000E+00  0.00000000E+00  0.00000000E+00
  0.00000000E+00  0.00000000E+00  0.00000000E+00
  0.00000000E+00  0.00000000E+00  0.00000000E+00
  0.00000000E+00  0.00000000E+00  0.00000000E+00
  0.00000000E+00  0.00000000E+00  0.00000000E+00
  0.00000000E+00  0.00000000E+00  0.00000000E+00
  0.00000000E+00  0.00000000E+00  0.00000000E+00
  0.00000000E+00  0.00000000E+00  0.00000000E+00
  0.00000000E+00  0.00000000E+00  0.00000000E+00
  0.00000000E+00  0.00000000E+00  0.00000000E+00
  0.00000000E+00  0.00000000E+00  0.00000000E+00
  0.00000000E+00  0.00000000E+00  0.00000000E+00
  0.00000000E+00  0.00000000E+00  0.00000000E+00
  0.00000000E+00  0.00000000E+00  0.00000000E+00
  0.00000000E+00  0.00000000E+00  0.00000000E+00
  0.00000000E+00  0.00000000E+00  0.00000000E+00
  0.00000000E+00  0.00000000E+00  0.00000000E+00
  0.00000000E+00  0.00000000E+00  0.00000000E+00
  0.00000000E+00  0.00000000E+00  0.00000000E+00
  0.00000000E+00  0.00000000E+00  0.00000000E+00
  0.00000000E+00  0.00000000E+00  0.00000000E+00
  0.00000000E+00  0.00000000E+00  0.00000000E+00
  0.00000000E+00  0.00000000E+00  0.00000000E+00
  0.00000000E+00  0.00000000E+00  0.00000000E+00
  0.00000000E+00  0.00000000E+00  0.00000000E+00
  0.00000000E+00  0.00000000E+00  0.00000000E+00
  0.00000000E+00  0.00000000E+00  0.00000000E+00
  0.00000000E+00  0.00000000E+00  0.00000000E+00
  0.00000000E+00  0.00000000E+00  0.00000000E+00
  0.00000000E+00  0.00000000E+00  0.00000000E+00
  0.00000000E+00  0.00000000E+00  0.00000000E+00
  0.00000000E+00  0.00000000E+00  0.00000000E+00
  0.00000000E+00  0.00000000E+00  0.00000000E+00
  0.00000000E+00  0.00000000E+00  0.00000000E+00
  0.00000000E+00  0.00000000E+00  0.00000000E+00
  0.00000000E+00  0.00000000E+00  0.00000000E+00
  0.00000000E+00  0.00000000E+00  0.00000000E+00
