generated by phonopy                    
   1.00000000000000     
    11.7777700938999992   -0.0000006592896312    0.0000118211769744
    -0.0000006477562692   11.7777479613999994   -0.0000130806483528
     0.0000177256125076   -0.0000204342245446   17.8544012557999991
   Bi   Cu   Se   O 
    37    36    36    35
Direct
  0.9808573880926232  0.1661977230395664  0.4268255116427042
  0.3493145899781851  0.1655164212618558  0.3341886916848793
  0.6519174567070749  0.1663531968290570  0.4340072950707494
  0.9953392636513669  0.5001886912400479  0.4313984364901629
  0.3317041952667807  0.5005585740630067  0.4344614670277878
  0.6649029467817940  0.5017454885660797  0.4310975888837802
  0.9952046079979695  0.8325684597684599  0.4314773491657249
  0.3318915484033766  0.8324011241370570  0.4344213371064356
  0.6645295406718787  0.8314188573859482  0.4310797870568308
  0.0011919219742822  0.1666015862218870  0.9286098332048525
  0.3345799379216317  0.1665525224703330  0.9297404479985616
  0.6675952299644550  0.1665710456107163  0.9292499782743207
  0.0004478285986522  0.4999944545081547  0.9277065793509962
  0.3340409745150126  0.4995278545095445  0.9288771332269974
  0.6675532931999371  0.4997496395319203  0.9277910158064842
  0.0004456602692429  0.8331203096657731  0.9276540668841449
  0.3341302647413116  0.8337280964682208  0.9289574621366015
  0.6674228584525110  0.8335451493225037  0.9278498490813334
  0.1659920376176274  0.9987326453874275  0.0691721935305267
  0.5016775181187612  0.9984209603819281  0.0694795571101565
  0.8351348897053725  0.9974833315739744  0.0684732188860480
  0.1661200992078165  0.3343504281992509  0.0692393167989849
  0.5016916749381366  0.3351354617723814  0.0692283640360642
  0.8351697006425809  0.3355945046050195  0.0684862239093675
  0.1649138780812791  0.6665504331664209  0.0686352360552860
  0.5022270657268351  0.6666890982336682  0.0683716415414750
  0.8335459550803037  0.6666399024463274  0.0695702541361669
  0.1513304961754471  0.9757207714131084  0.5877324979450691
  0.5009789039054979  0.9957248212250533  0.5773703176999803
  0.8287448900619694  0.0007045495640057  0.5724789282959364
  0.1511841454922376  0.3570475092710765  0.5877242246597802
  0.5010916009593913  0.3372260766310333  0.5772753853261321
  0.8287472597028298  0.3320873834234419  0.5723979777613479
  0.1625645278556505  0.6664339650145337  0.5735187573727387
  0.4999467069533594  0.6663434390722287  0.5737658753970933
  0.8297874341946851  0.6664639040694027  0.5725805950275031
  0.2850748255785973  0.1665443835625240  0.4923447652538400
  0.9928769044709682  0.9994853187931980  0.2477635045272635
  0.3247261937239756  0.9785466749369718  0.2418113921789029
  0.6767604920483947  0.0039233037507245  0.2443880605237254
  0.9932657602261656  0.3337691045803055  0.2478226968408990
  0.3266941030035824  0.3550394217312416  0.2427818709288943
  0.6803283334800980  0.3315247484167045  0.2440802692516257
  0.9992374064116945  0.6665163666748271  0.2508883798898083
  0.3293894652120457  0.6664142760270835  0.2526900283680362
  0.6664388994910198  0.6669326470396726  0.2511770393893471
  0.9979850331821112  0.0025430082005116  0.7531694417923021
  0.3342382247489439  0.9973114247055861  0.7509744588864748
  0.6666324711318126  0.0014355434712101  0.7516129681035366
  0.9979431738956634  0.3304479301228511  0.7531588542053171
  0.3342447462597775  0.3355926755301368  0.7509711371722929
  0.6666201623173791  0.3315375449666718  0.7516252901931040
  0.0059208310860939  0.6664203627806842  0.7554297492982016
  0.3311969107084565  0.6664389313383481  0.7541431569890023
  0.6648939340374440  0.6664693078558273  0.7519349730383098
  0.1483812855409923  0.1665330216937733  0.2475066882657515
  0.5229447789925530  0.1733710610285257  0.2348920928079323
  0.8353397626427181  0.1665226240063475  0.2493051656070406
  0.1649730775614628  0.5082520612202046  0.2487900897226609
  0.4977080377298364  0.5156477378775506  0.2435930911488384
  0.8356618830793110  0.5017120823334764  0.2507521252184475
  0.1647755834650937  0.8242379339960948  0.2487524224436868
  0.4972781044592054  0.8181062785532092  0.2437351036399278
  0.8351375912720655  0.8320390178242434  0.2508800941226141
  0.1645414730937844  0.1664894597638451  0.7490808687315038
  0.5026829927403185  0.1665877241687284  0.7515509361468560
  0.8321206337165776  0.1665612714622995  0.7509564853406658
  0.1653403673647560  0.5019560112526662  0.7555571805907917
  0.5015192527107217  0.4992729704573904  0.7525488922905836
  0.8242120525125429  0.4959308231770905  0.7547585416049358
  0.1654157013689641  0.8311101474507936  0.7555745458436149
  0.5015704675344779  0.8337868979002678  0.7525770861150676
  0.8241007234865094  0.8371439543944277  0.7547817241467385
  0.1620240222047329  0.3385054674344588  0.3353044475337157
  0.5119503723170595  0.3461877471745893  0.3286194664291457
  0.8342498626885302  0.3300341709668473  0.3400519827283546
  0.1651263248194752  0.6663483050761769  0.3408666536946683
  0.4979712295798961  0.6664105349043936  0.3403931307405799
  0.8328342409929590  0.6665528747387768  0.3390658853610162
  0.1615178235757142  0.9940170457232327  0.3353626493933888
  0.5113136415165869  0.9862870539773212  0.3292185991312948
  0.8336444948280857  0.0031430317879142  0.3398517590386376
  0.1671537693310654  0.3317076698996786  0.8366463722810167
  0.4998267289774176  0.3325681563569560  0.8372498968499187
  0.8325589371326387  0.3313097499372617  0.8388221007768948
  0.1675746789376333  0.6665371230210155  0.8416339579803562
  0.4996327012603601  0.6665482367935454  0.8373345712307412
  0.8351850060294694  0.6665429998687529  0.8347247929297055
  0.1671764667258415  0.0013395885697065  0.8366781389316102
  0.4998272301438078  0.0005422040042902  0.8372310986773712
  0.8325593706429189  0.0018042670108045  0.8388076885293714
  0.3344902924827124  0.1663309295029407  0.1626271524367482
  0.6795279619498800  0.1664923374395642  0.1556013409954176
  0.9970609498271017  0.1665766397765367  0.1595428138321964
  0.3318769118858427  0.5083252825834279  0.1582349032529322
  0.6699846466012573  0.5013535868089960  0.1634834497434738
  0.0000910256386106  0.5006119944984917  0.1629175871515471
  0.3318163280407376  0.8243508524892817  0.1582486013727689
  0.6698671137208478  0.8324624679828148  0.1637322972364572
  0.9999044347108494  0.8324899773612131  0.1630127612134586
  0.3343170582603605  0.1664452734151496  0.6656532580239514
  0.6668426060106825  0.1664668914973362  0.6634250203980372
  0.9971768853814424  0.1664866521662276  0.6634118753861031
  0.3301832096412838  0.5037877223335343  0.6665148308311259
  0.6661415137274247  0.5000736092852591  0.6641179513065083
  0.9949534670829578  0.5015027115169985  0.6676038796308319
  0.3302164422107055  0.8290748815975917  0.6665145804328034
  0.6660985264003827  0.8328334501562082  0.6640982495857486
  0.9949633811701872  0.8314287819227815  0.6676771610109213
  0.4882700790905687  0.1664461008924434  0.5084241224434649
  0.8258914710987781  0.1663872569892959  0.4992048632318742
  0.1606686516197868  0.5029674484519262  0.5035976047505244
  0.5006915506136451  0.5027428034824126  0.5019552552034909
  0.8311163894686686  0.4982980384513311  0.5025385564125671
  0.1606087617625036  0.8298743048829706  0.5036236909175429
  0.5006187652132184  0.8300176147371658  0.5021004642650126
  0.8310936042978909  0.8346317194242303  0.5025710318841448
  0.1674096202445980  0.1665421107222258  0.9998631964306881
  0.5008001567342646  0.1666033309075985  0.0006952612768529
  0.8345410547594909  0.1665770484794677  0.9991218957082566
  0.1667145543981405  0.4990846705860790  0.9987668110125156
  0.5012308012901556  0.4996885498434551  0.9990283969639648
  0.8339281323193788  0.5005689446935833  0.9979615976597884
  0.1666895853537440  0.8340262526304159  0.9987467153776990
  0.5012233375212247  0.8336337971166330  0.9991529654167053
  0.8339017987468651  0.8326562010345384  0.9979480908313150
  0.0015594459716226  0.9994281873024207  0.9988147885576169
  0.3344041238711100  0.9995741459806737  0.0001487035765635
  0.6668605300230936  0.9988561207464386  0.9992793858368643
  0.0016252971749182  0.3336734635644376  0.9988309962043687
  0.3343922309754106  0.3335697418621066  0.0000560659794075
  0.6669001208236480  0.3343545569572512  0.9992247265880323
  0.9995750740603455  0.6665867226405098  0.9980208429794786
  0.3343919436809486  0.6665809876082704  0.9990746208988028
  0.6678993662130353  0.6666210157087349  0.9980565356952980
  0.9994374301712270  0.0026959475302064  0.5035929467526614
  0.3317718334472630  0.9838665129178068  0.5133900391770752
  0.6616261797509182  0.0005136767879890  0.5017594580183129
  0.9994143729977267  0.3301536829492235  0.5035531387544694
  0.3318756316725526  0.3490298548806550  0.5133563530216634
  0.6616699848711178  0.3323505398566198  0.5016590351181804
  0.9952476293314874  0.6664206906225800  0.5021293709085271
  0.3300180924059859  0.6663572801185822  0.5035600576714998
  0.6668525802879657  0.6663904104812701  0.5019173052903980
 
  0.00000000E+00  0.00000000E+00  0.00000000E+00
  0.00000000E+00  0.00000000E+00  0.00000000E+00
  0.00000000E+00  0.00000000E+00  0.00000000E+00
  0.00000000E+00  0.00000000E+00  0.00000000E+00
  0.00000000E+00  0.00000000E+00  0.00000000E+00
  0.00000000E+00  0.00000000E+00  0.00000000E+00
  0.00000000E+00  0.00000000E+00  0.00000000E+00
  0.00000000E+00  0.00000000E+00  0.00000000E+00
  0.00000000E+00  0.00000000E+00  0.00000000E+00
  0.00000000E+00  0.00000000E+00  0.00000000E+00
  0.00000000E+00  0.00000000E+00  0.00000000E+00
  0.00000000E+00  0.00000000E+00  0.00000000E+00
  0.00000000E+00  0.00000000E+00  0.00000000E+00
  0.00000000E+00  0.00000000E+00  0.00000000E+00
  0.00000000E+00  0.00000000E+00  0.00000000E+00
  0.00000000E+00  0.00000000E+00  0.00000000E+00
  0.00000000E+00  0.00000000E+00  0.00000000E+00
  0.00000000E+00  0.00000000E+00  0.00000000E+00
  0.00000000E+00  0.00000000E+00  0.00000000E+00
  0.00000000E+00  0.00000000E+00  0.00000000E+00
  0.00000000E+00  0.00000000E+00  0.00000000E+00
  0.00000000E+00  0.00000000E+00  0.00000000E+00
  0.00000000E+00  0.00000000E+00  0.00000000E+00
  0.00000000E+00  0.00000000E+00  0.00000000E+00
  0.00000000E+00  0.00000000E+00  0.00000000E+00
  0.00000000E+00  0.00000000E+00  0.00000000E+00
  0.00000000E+00  0.00000000E+00  0.00000000E+00
  0.00000000E+00  0.00000000E+00  0.00000000E+00
  0.00000000E+00  0.00000000E+00  0.00000000E+00
  0.00000000E+00  0.00000000E+00  0.00000000E+00
  0.00000000E+00  0.00000000E+00  0.00000000E+00
  0.00000000E+00  0.00000000E+00  0.00000000E+00
  0.00000000E+00  0.00000000E+00  0.00000000E+00
  0.00000000E+00  0.00000000E+00  0.00000000E+00
  0.00000000E+00  0.00000000E+00  0.00000000E+00
  0.00000000E+00  0.00000000E+00  0.00000000E+00
  0.00000000E+00  0.00000000E+00  0.00000000E+00
  0.00000000E+00  0.00000000E+00  0.00000000E+00
  0.00000000E+00  0.00000000E+00  0.00000000E+00
  0.00000000E+00  0.00000000E+00  0.00000000E+00
  0.00000000E+00  0.00000000E+00  0.00000000E+00
  0.00000000E+00  0.00000000E+00  0.00000000E+00
  0.00000000E+00  0.00000000E+00  0.00000000E+00
  0.00000000E+00  0.00000000E+00  0.00000000E+00
  0.00000000E+00  0.00000000E+00  0.00000000E+00
  0.00000000E+00  0.00000000E+00  0.00000000E+00
  0.00000000E+00  0.00000000E+00  0.00000000E+00
  0.00000000E+00  0.00000000E+00  0.00000000E+00
  0.00000000E+00  0.00000000E+00  0.00000000E+00
  0.00000000E+00  0.00000000E+00  0.00000000E+00
  0.00000000E+00  0.00000000E+00  0.00000000E+00
  0.00000000E+00  0.00000000E+00  0.00000000E+00
  0.00000000E+00  0.00000000E+00  0.00000000E+00
  0.00000000E+00  0.00000000E+00  0.00000000E+00
  0.00000000E+00  0.00000000E+00  0.00000000E+00
  0.00000000E+00  0.00000000E+00  0.00000000E+00
  0.00000000E+00  0.00000000E+00  0.00000000E+00
  0.00000000E+00  0.00000000E+00  0.00000000E+00
  0.00000000E+00  0.00000000E+00  0.00000000E+00
  0.00000000E+00  0.00000000E+00  0.00000000E+00
  0.00000000E+00  0.00000000E+00  0.00000000E+00
  0.00000000E+00  0.00000000E+00  0.00000000E+00
  0.00000000E+00  0.00000000E+00  0.00000000E+00
  0.00000000E+00  0.00000000E+00  0.00000000E+00
  0.00000000E+00  0.00000000E+00  0.00000000E+00
  0.00000000E+00  0.00000000E+00  0.00000000E+00
  0.00000000E+00  0.00000000E+00  0.00000000E+00
  0.00000000E+00  0.00000000E+00  0.00000000E+00
  0.00000000E+00  0.00000000E+00  0.00000000E+00
  0.00000000E+00  0.00000000E+00  0.00000000E+00
  0.00000000E+00  0.00000000E+00  0.00000000E+00
  0.00000000E+00  0.00000000E+00  0.00000000E+00
  0.00000000E+00  0.00000000E+00  0.00000000E+00
  0.00000000E+00  0.00000000E+00  0.00000000E+00
  0.00000000E+00  0.00000000E+00  0.00000000E+00
  0.00000000E+00  0.00000000E+00  0.00000000E+00
  0.00000000E+00  0.00000000E+00  0.00000000E+00
  0.00000000E+00  0.00000000E+00  0.00000000E+00
  0.00000000E+00  0.00000000E+00  0.00000000E+00
  0.00000000E+00  0.00000000E+00  0.00000000E+00
  0.00000000E+00  0.00000000E+00  0.00000000E+00
  0.00000000E+00  0.00000000E+00  0.00000000E+00
  0.00000000E+00  0.00000000E+00  0.00000000E+00
  0.00000000E+00  0.00000000E+00  0.00000000E+00
  0.00000000E+00  0.00000000E+00  0.00000000E+00
  0.00000000E+00  0.00000000E+00  0.00000000E+00
  0.00000000E+00  0.00000000E+00  0.00000000E+00
  0.00000000E+00  0.00000000E+00  0.00000000E+00
  0.00000000E+00  0.00000000E+00  0.00000000E+00
  0.00000000E+00  0.00000000E+00  0.00000000E+00
  0.00000000E+00  0.00000000E+00  0.00000000E+00
  0.00000000E+00  0.00000000E+00  0.00000000E+00
  0.00000000E+00  0.00000000E+00  0.00000000E+00
  0.00000000E+00  0.00000000E+00  0.00000000E+00
  0.00000000E+00  0.00000000E+00  0.00000000E+00
  0.00000000E+00  0.00000000E+00  0.00000000E+00
  0.00000000E+00  0.00000000E+00  0.00000000E+00
  0.00000000E+00  0.00000000E+00  0.00000000E+00
  0.00000000E+00  0.00000000E+00  0.00000000E+00
  0.00000000E+00  0.00000000E+00  0.00000000E+00
  0.00000000E+00  0.00000000E+00  0.00000000E+00
  0.00000000E+00  0.00000000E+00  0.00000000E+00
  0.00000000E+00  0.00000000E+00  0.00000000E+00
  0.00000000E+00  0.00000000E+00  0.00000000E+00
  0.00000000E+00  0.00000000E+00  0.00000000E+00
  0.00000000E+00  0.00000000E+00  0.00000000E+00
  0.00000000E+00  0.00000000E+00  0.00000000E+00
  0.00000000E+00  0.00000000E+00  0.00000000E+00
  0.00000000E+00  0.00000000E+00  0.00000000E+00
  0.00000000E+00  0.00000000E+00  0.00000000E+00
  0.00000000E+00  0.00000000E+00  0.00000000E+00
  0.00000000E+00  0.00000000E+00  0.00000000E+00
  0.00000000E+00  0.00000000E+00  0.00000000E+00
  0.00000000E+00  0.00000000E+00  0.00000000E+00
  0.00000000E+00  0.00000000E+00  0.00000000E+00
  0.00000000E+00  0.00000000E+00  0.00000000E+00
  0.00000000E+00  0.00000000E+00  0.00000000E+00
  0.00000000E+00  0.00000000E+00  0.00000000E+00
  0.00000000E+00  0.00000000E+00  0.00000000E+00
  0.00000000E+00  0.00000000E+00  0.00000000E+00
  0.00000000E+00  0.00000000E+00  0.00000000E+00
  0.00000000E+00  0.00000000E+00  0.00000000E+00
  0.00000000E+00  0.00000000E+00  0.00000000E+00
  0.00000000E+00  0.00000000E+00  0.00000000E+00
  0.00000000E+00  0.00000000E+00  0.00000000E+00
  0.00000000E+00  0.00000000E+00  0.00000000E+00
  0.00000000E+00  0.00000000E+00  0.00000000E+00
  0.00000000E+00  0.00000000E+00  0.00000000E+00
  0.00000000E+00  0.00000000E+00  0.00000000E+00
  0.00000000E+00  0.00000000E+00  0.00000000E+00
  0.00000000E+00  0.00000000E+00  0.00000000E+00
  0.00000000E+00  0.00000000E+00  0.00000000E+00
  0.00000000E+00  0.00000000E+00  0.00000000E+00
  0.00000000E+00  0.00000000E+00  0.00000000E+00
  0.00000000E+00  0.00000000E+00  0.00000000E+00
  0.00000000E+00  0.00000000E+00  0.00000000E+00
  0.00000000E+00  0.00000000E+00  0.00000000E+00
  0.00000000E+00  0.00000000E+00  0.00000000E+00
  0.00000000E+00  0.00000000E+00  0.00000000E+00
  0.00000000E+00  0.00000000E+00  0.00000000E+00
  0.00000000E+00  0.00000000E+00  0.00000000E+00
  0.00000000E+00  0.00000000E+00  0.00000000E+00
  0.00000000E+00  0.00000000E+00  0.00000000E+00
  0.00000000E+00  0.00000000E+00  0.00000000E+00
