Sc   Al   N                             
   1.00000000000000     
   -10.3871873460074244   -0.0180559126182799    0.0049869675728078
    -5.1785663578634482    8.9497947299552649   -0.0048691091228987
     0.0059466161577654   -0.0015521253483122   -8.7905757481206841
   Sc   Al   N 
    11    25    36
Direct
  0.1139152765659546  0.0929719198008812  0.3467918477526553
  0.8797773523918977  0.2040998749376612  0.5984106085611458
  0.4509494898723929  0.0887889827161388  0.3460142402600255
  0.1120770567841944  0.0977541353217077  0.8485506978183537
  0.1142878428482135  0.4309293020902487  0.3441130535384644
  0.8882547262456058  0.5414008371819676  0.6060141636419800
  0.4463904130462026  0.4279412955409470  0.3449510219962733
  0.7667606728000464  0.4337992024441846  0.3391076212858195
  0.2321857069590436  0.8609261959231702  0.0989601018660977
  0.1060890362406965  0.7588684289935728  0.8419481714336854
  0.7731380104324259  0.7702028125795763  0.3433915514572448
  0.2261543126952787  0.2082911520828219  0.0942114090982216
  0.7696748725516258  0.0959994698565509  0.8609789066608684
  0.5605845179434681  0.2016651273126442  0.0980065295941515
  0.2343736925512090  0.2037048515500928  0.6189451140749895
  0.7791005033071841  0.0900947443320348  0.3499691238930254
  0.8835273321414476  0.2055935472228256  0.0946209308434760
  0.4507962102376695  0.0927097533486787  0.8572936896685235
  0.5548037462455966  0.2030065246426886  0.6176786638603673
  0.2210148841174373  0.5404274304130041  0.0969004426314370
  0.7702356929462582  0.4290780237944531  0.8546773969039307
  0.5532268355283065  0.5428490788168716  0.0917773145515497
  0.1200928278400681  0.4254904444972638  0.8533156923825089
  0.2293626998645806  0.5332428159750222  0.6065337214110045
  0.8894437135194764  0.5405418912692710  0.0857398823474469
  0.4456994197403574  0.4228232721931136  0.8557250957885145
  0.5491845591173359  0.5396808577765952  0.6222685043338458
  0.1089415068037454  0.7647972309933877  0.3603218372196508
  0.7705166008045623  0.7698316416735125  0.8549653228505676
  0.8773617078522307  0.8794093584244820  0.6083957812875980
  0.4446620917215895  0.7571354394450722  0.3694618637460252
  0.5556936844825913  0.8674215217425925  0.0965036749135422
  0.2303203482626373  0.8675072540851616  0.6013369226645153
  0.8891054086972616  0.8742603311970640  0.1023004762105657
  0.4517269024641450  0.7579319625775440  0.8501159941246286
  0.5536440381075565  0.8745943971956720  0.6155848612154031
  0.2276952607615996  0.2057489562867545  0.3210623871418932
  0.1039511969464542  0.1060167684493081  0.0925926796091332
  0.8705116125147043  0.2115795023038913  0.8490526267110710
  0.7625369813460878  0.0886297812655670  0.5858385905718251
  0.5746729448790404  0.1948268416134979  0.3235645534395601
  0.4506894541913269  0.0892019689003689  0.0815100352595266
  0.2358660888261852  0.2111812318331303  0.8481635032801762
  0.1284928894155541  0.0912661572682509  0.5974945754302183
  0.8795668199156808  0.1984344950629833  0.3378343666460779
  0.7791152620852273  0.0918461595850246  0.0837490360822883
  0.5563512949443989  0.2048371196120300  0.8440155529481359
  0.4469352326799907  0.0936465906893602  0.6023454161639492
  0.2162924933649464  0.5577670232823877  0.3390275544951606
  0.1119965533577698  0.4309558987123623  0.0819767673352345
  0.8890274464514363  0.5402746158029288  0.8545379905608002
  0.7565042304843743  0.4389300694624083  0.6007102393254300
  0.5408894563332325  0.5583755164422612  0.3218279685377894
  0.4429664115234644  0.4269480707110844  0.0821430206377229
  0.2333317662348620  0.5237340714844549  0.8385292143923309
  0.1297181985689235  0.4171929682403075  0.6020605008227875
  0.8875144327735214  0.5416640942816429  0.3392310321377821
  0.7761058374386707  0.4281717064983894  0.0825626114649936
  0.5530410269182937  0.5367691811519535  0.8449574473868822
  0.4475636789609752  0.4245245575088674  0.6013581338908054
  0.2332401165252165  0.8543719256286693  0.3548909756888108
  0.1022908038670707  0.7541487432138609  0.0896504337882007
  0.8687049937962072  0.8841958534785377  0.8374316198193910
  0.7660111520614805  0.7780601570248038  0.5982634073640085
  0.5436844359081903  0.8606213569419694  0.3312313253243957
  0.4628592941642466  0.7524455288090621  0.0708145837381764
  0.2393273677005752  0.8613803700498934  0.8349886040154786
  0.1054732136576888  0.7624311088934590  0.5896005660518568
  0.8992608645236828  0.8811576985191891  0.3342655157824552
  0.7760584551371892  0.7655770038863707  0.0839668615858216
  0.5553472392143775  0.8729306298592263  0.8391640134269593
  0.4496808076049774  0.7567406018939096  0.5971202263954254
 
  0.00000000E+00  0.00000000E+00  0.00000000E+00
  0.00000000E+00  0.00000000E+00  0.00000000E+00
  0.00000000E+00  0.00000000E+00  0.00000000E+00
  0.00000000E+00  0.00000000E+00  0.00000000E+00
  0.00000000E+00  0.00000000E+00  0.00000000E+00
  0.00000000E+00  0.00000000E+00  0.00000000E+00
  0.00000000E+00  0.00000000E+00  0.00000000E+00
  0.00000000E+00  0.00000000E+00  0.00000000E+00
  0.00000000E+00  0.00000000E+00  0.00000000E+00
  0.00000000E+00  0.00000000E+00  0.00000000E+00
  0.00000000E+00  0.00000000E+00  0.00000000E+00
  0.00000000E+00  0.00000000E+00  0.00000000E+00
  0.00000000E+00  0.00000000E+00  0.00000000E+00
  0.00000000E+00  0.00000000E+00  0.00000000E+00
  0.00000000E+00  0.00000000E+00  0.00000000E+00
  0.00000000E+00  0.00000000E+00  0.00000000E+00
  0.00000000E+00  0.00000000E+00  0.00000000E+00
  0.00000000E+00  0.00000000E+00  0.00000000E+00
  0.00000000E+00  0.00000000E+00  0.00000000E+00
  0.00000000E+00  0.00000000E+00  0.00000000E+00
  0.00000000E+00  0.00000000E+00  0.00000000E+00
  0.00000000E+00  0.00000000E+00  0.00000000E+00
  0.00000000E+00  0.00000000E+00  0.00000000E+00
  0.00000000E+00  0.00000000E+00  0.00000000E+00
  0.00000000E+00  0.00000000E+00  0.00000000E+00
  0.00000000E+00  0.00000000E+00  0.00000000E+00
  0.00000000E+00  0.00000000E+00  0.00000000E+00
  0.00000000E+00  0.00000000E+00  0.00000000E+00
  0.00000000E+00  0.00000000E+00  0.00000000E+00
  0.00000000E+00  0.00000000E+00  0.00000000E+00
  0.00000000E+00  0.00000000E+00  0.00000000E+00
  0.00000000E+00  0.00000000E+00  0.00000000E+00
  0.00000000E+00  0.00000000E+00  0.00000000E+00
  0.00000000E+00  0.00000000E+00  0.00000000E+00
  0.00000000E+00  0.00000000E+00  0.00000000E+00
  0.00000000E+00  0.00000000E+00  0.00000000E+00
  0.00000000E+00  0.00000000E+00  0.00000000E+00
  0.00000000E+00  0.00000000E+00  0.00000000E+00
  0.00000000E+00  0.00000000E+00  0.00000000E+00
  0.00000000E+00  0.00000000E+00  0.00000000E+00
  0.00000000E+00  0.00000000E+00  0.00000000E+00
  0.00000000E+00  0.00000000E+00  0.00000000E+00
  0.00000000E+00  0.00000000E+00  0.00000000E+00
  0.00000000E+00  0.00000000E+00  0.00000000E+00
  0.00000000E+00  0.00000000E+00  0.00000000E+00
  0.00000000E+00  0.00000000E+00  0.00000000E+00
  0.00000000E+00  0.00000000E+00  0.00000000E+00
  0.00000000E+00  0.00000000E+00  0.00000000E+00
  0.00000000E+00  0.00000000E+00  0.00000000E+00
  0.00000000E+00  0.00000000E+00  0.00000000E+00
  0.00000000E+00  0.00000000E+00  0.00000000E+00
  0.00000000E+00  0.00000000E+00  0.00000000E+00
  0.00000000E+00  0.00000000E+00  0.00000000E+00
  0.00000000E+00  0.00000000E+00  0.00000000E+00
  0.00000000E+00  0.00000000E+00  0.00000000E+00
  0.00000000E+00  0.00000000E+00  0.00000000E+00
  0.00000000E+00  0.00000000E+00  0.00000000E+00
  0.00000000E+00  0.00000000E+00  0.00000000E+00
  0.00000000E+00  0.00000000E+00  0.00000000E+00
  0.00000000E+00  0.00000000E+00  0.00000000E+00
  0.00000000E+00  0.00000000E+00  0.00000000E+00
  0.00000000E+00  0.00000000E+00  0.00000000E+00
  0.00000000E+00  0.00000000E+00  0.00000000E+00
  0.00000000E+00  0.00000000E+00  0.00000000E+00
  0.00000000E+00  0.00000000E+00  0.00000000E+00
  0.00000000E+00  0.00000000E+00  0.00000000E+00
  0.00000000E+00  0.00000000E+00  0.00000000E+00
  0.00000000E+00  0.00000000E+00  0.00000000E+00
  0.00000000E+00  0.00000000E+00  0.00000000E+00
  0.00000000E+00  0.00000000E+00  0.00000000E+00
  0.00000000E+00  0.00000000E+00  0.00000000E+00
  0.00000000E+00  0.00000000E+00  0.00000000E+00
