Sc   Al   N                             
   1.00000000000000     
   -10.4379712604938124   -0.0183571294381730    0.0049413652164635
    -5.2089719366491680    8.9954130705062418   -0.0054624322111039
     0.0124206483958941   -0.0005692905072706   -8.6593439275655797
   Sc   Al   N 
    11    25    36
Direct
  0.1135799001961288  0.0930253117228759  0.3486314514433531
  0.8793616874166972  0.2030246074604847  0.6002194080253034
  0.4518591387582589  0.0883142821232141  0.3467200713063221
  0.1131773590736813  0.0980217863909658  0.8494685836888891
  0.1138977949900735  0.4319078445445328  0.3446256729521906
  0.8885641801718620  0.5409897725585324  0.6079699929542457
  0.4461819392242603  0.4277891045958810  0.3464335150050104
  0.7673548651930844  0.4332466272666977  0.3413212017657230
  0.2323230127157530  0.8613497222958060  0.1004027580895439
  0.1061697300022715  0.7593379460419243  0.8429231872767460
  0.7732147953157096  0.7699896061243550  0.3444194731380747
  0.2263808140657915  0.2082100597874472  0.0950676531705454
  0.7690169253084918  0.0954027321286617  0.8526343785620512
  0.5587711714010908  0.2027318240464595  0.0938621415404199
  0.2336982985280258  0.2039771507096759  0.6131023876606321
  0.7806771208156675  0.0903550170453613  0.3320011311686528
  0.8837044687598024  0.2069171244378865  0.0920704517752498
  0.4496547116952314  0.0934731173996042  0.8534791986957586
  0.5556862211781279  0.2025696056280637  0.6130489616535613
  0.2222165164146332  0.5383492083981096  0.0886092796135927
  0.7696543048427458  0.4295938977043434  0.8539400737281184
  0.5534749079568968  0.5426937268739991  0.0917404326253148
  0.1207194600136461  0.4244039389086822  0.8508044464591364
  0.2279450286766647  0.5356580102822761  0.6003583052924597
  0.8887366499479654  0.5405951012300747  0.0877938173738855
  0.4458048914528305  0.4229841010802531  0.8523899631241960
  0.5490101035137513  0.5401964663500749  0.6196739998792609
  0.1088351483059142  0.7643217055314295  0.3551761828459945
  0.7706579266658906  0.7696919375262539  0.8503845099351395
  0.8801106822994953  0.8796928026150965  0.5986675349544512
  0.4444115648547466  0.7573183011052365  0.3676405720061240
  0.5563503409778079  0.8679069146100815  0.0897088672888842
  0.2299394876738887  0.8668043859608048  0.6014885104196424
  0.8873046580920061  0.8727108220176660  0.0914911782750067
  0.4512240217443662  0.7578302018532312  0.8492571395031590
  0.5533550986941975  0.8736607913291152  0.6096745881113748
  0.2278645656820117  0.2061901762937737  0.3328135391322036
  0.1051763347698156  0.1065291454123880  0.0959736595838478
  0.8715272615265803  0.2113734008307446  0.8554093168066430
  0.7637500203963157  0.0884614725051520  0.6071967251104482
  0.5754264254148325  0.1946532608720872  0.3355139342076967
  0.4502663166650223  0.0887332979781164  0.0854210568112137
  0.2356642856783893  0.2110350782111610  0.8511264428148948
  0.1277938409163966  0.0906728773370489  0.5995066951472765
  0.8795856386775043  0.1986762934615740  0.3405469100936998
  0.7784718126953507  0.0918788771082220  0.0918831167316867
  0.5549276704949122  0.2055077768192817  0.8514789094711546
  0.4471781951647102  0.0939672962589597  0.6079231835212724
  0.2170522184325918  0.5564957188152704  0.3553040252748119
  0.1128174768049561  0.4300789125306750  0.0852271418941797
  0.8892476146142059  0.5399231681239343  0.8576229068499259
  0.7572487735037114  0.4380782952620166  0.6063280123770411
  0.5417974649323511  0.5569454932098594  0.3315010136395884
  0.4427539647159051  0.4275311699952979  0.0860523393249721
  0.2323739870152579  0.5250573529517553  0.8457026964315588
  0.1288141309845727  0.4182145256464693  0.6077014776243033
  0.8873437795124133  0.5416630599334127  0.3412990878361626
  0.7751686405771636  0.4291313546084936  0.0850943466088268
  0.5523655026113019  0.5377538274259592  0.8490902676899168
  0.4475620839218593  0.4242354632610201  0.6080597070242604
  0.2332247933848706  0.8546709706847651  0.3576389112731491
  0.1024941454299579  0.7527183033482174  0.1006495600481401
  0.8711007578485592  0.8819254640912177  0.8506717726553532
  0.7680286531211422  0.7778813037896981  0.6059283699348512
  0.5447423389704440  0.8609605060827121  0.3474631003070883
  0.4630228637220597  0.7528726646808082  0.0795275098559287
  0.2387732307670731  0.8616350073491290  0.8396394220883892
  0.1054833159507353  0.7645484562421530  0.5925816742398382
  0.8971837754812242  0.8823475952509838  0.3475829027297763
  0.7745715343851884  0.7651290301042835  0.0869731025407958
  0.5547329501884803  0.8726403065355584  0.8433878957667318
  0.4484826858720510  0.7564260799169205  0.6023140656950616
 
  0.00000000E+00  0.00000000E+00  0.00000000E+00
  0.00000000E+00  0.00000000E+00  0.00000000E+00
  0.00000000E+00  0.00000000E+00  0.00000000E+00
  0.00000000E+00  0.00000000E+00  0.00000000E+00
  0.00000000E+00  0.00000000E+00  0.00000000E+00
  0.00000000E+00  0.00000000E+00  0.00000000E+00
  0.00000000E+00  0.00000000E+00  0.00000000E+00
  0.00000000E+00  0.00000000E+00  0.00000000E+00
  0.00000000E+00  0.00000000E+00  0.00000000E+00
  0.00000000E+00  0.00000000E+00  0.00000000E+00
  0.00000000E+00  0.00000000E+00  0.00000000E+00
  0.00000000E+00  0.00000000E+00  0.00000000E+00
  0.00000000E+00  0.00000000E+00  0.00000000E+00
  0.00000000E+00  0.00000000E+00  0.00000000E+00
  0.00000000E+00  0.00000000E+00  0.00000000E+00
  0.00000000E+00  0.00000000E+00  0.00000000E+00
  0.00000000E+00  0.00000000E+00  0.00000000E+00
  0.00000000E+00  0.00000000E+00  0.00000000E+00
  0.00000000E+00  0.00000000E+00  0.00000000E+00
  0.00000000E+00  0.00000000E+00  0.00000000E+00
  0.00000000E+00  0.00000000E+00  0.00000000E+00
  0.00000000E+00  0.00000000E+00  0.00000000E+00
  0.00000000E+00  0.00000000E+00  0.00000000E+00
  0.00000000E+00  0.00000000E+00  0.00000000E+00
  0.00000000E+00  0.00000000E+00  0.00000000E+00
  0.00000000E+00  0.00000000E+00  0.00000000E+00
  0.00000000E+00  0.00000000E+00  0.00000000E+00
  0.00000000E+00  0.00000000E+00  0.00000000E+00
  0.00000000E+00  0.00000000E+00  0.00000000E+00
  0.00000000E+00  0.00000000E+00  0.00000000E+00
  0.00000000E+00  0.00000000E+00  0.00000000E+00
  0.00000000E+00  0.00000000E+00  0.00000000E+00
  0.00000000E+00  0.00000000E+00  0.00000000E+00
  0.00000000E+00  0.00000000E+00  0.00000000E+00
  0.00000000E+00  0.00000000E+00  0.00000000E+00
  0.00000000E+00  0.00000000E+00  0.00000000E+00
  0.00000000E+00  0.00000000E+00  0.00000000E+00
  0.00000000E+00  0.00000000E+00  0.00000000E+00
  0.00000000E+00  0.00000000E+00  0.00000000E+00
  0.00000000E+00  0.00000000E+00  0.00000000E+00
  0.00000000E+00  0.00000000E+00  0.00000000E+00
  0.00000000E+00  0.00000000E+00  0.00000000E+00
  0.00000000E+00  0.00000000E+00  0.00000000E+00
  0.00000000E+00  0.00000000E+00  0.00000000E+00
  0.00000000E+00  0.00000000E+00  0.00000000E+00
  0.00000000E+00  0.00000000E+00  0.00000000E+00
  0.00000000E+00  0.00000000E+00  0.00000000E+00
  0.00000000E+00  0.00000000E+00  0.00000000E+00
  0.00000000E+00  0.00000000E+00  0.00000000E+00
  0.00000000E+00  0.00000000E+00  0.00000000E+00
  0.00000000E+00  0.00000000E+00  0.00000000E+00
  0.00000000E+00  0.00000000E+00  0.00000000E+00
  0.00000000E+00  0.00000000E+00  0.00000000E+00
  0.00000000E+00  0.00000000E+00  0.00000000E+00
  0.00000000E+00  0.00000000E+00  0.00000000E+00
  0.00000000E+00  0.00000000E+00  0.00000000E+00
  0.00000000E+00  0.00000000E+00  0.00000000E+00
  0.00000000E+00  0.00000000E+00  0.00000000E+00
  0.00000000E+00  0.00000000E+00  0.00000000E+00
  0.00000000E+00  0.00000000E+00  0.00000000E+00
  0.00000000E+00  0.00000000E+00  0.00000000E+00
  0.00000000E+00  0.00000000E+00  0.00000000E+00
  0.00000000E+00  0.00000000E+00  0.00000000E+00
  0.00000000E+00  0.00000000E+00  0.00000000E+00
  0.00000000E+00  0.00000000E+00  0.00000000E+00
  0.00000000E+00  0.00000000E+00  0.00000000E+00
  0.00000000E+00  0.00000000E+00  0.00000000E+00
  0.00000000E+00  0.00000000E+00  0.00000000E+00
  0.00000000E+00  0.00000000E+00  0.00000000E+00
  0.00000000E+00  0.00000000E+00  0.00000000E+00
  0.00000000E+00  0.00000000E+00  0.00000000E+00
  0.00000000E+00  0.00000000E+00  0.00000000E+00
