Ge   Li   O    Cd                       
   1.00000000000000     
     0.0000060768095348    0.0000000337377935   -5.2290946400099996
     0.0000053948443861   -5.6677170347749062    0.0000000468105632
    -6.7814699462621046    0.0000123613715961    0.0000044953823839
   Ge   Li   O    Cd
     2     4     8     2
Direct
  0.6072841824130566  0.1679691387533475  0.0166636121659244
  0.9541513344363209  0.8045833713711957  0.5166619732001139
  0.9792012549253087  0.3222870254332831  0.2798194856314997
  0.9792095523531932  0.3223227097645438  0.7535533314427832
  0.4691374604542826  0.6583814366564701  0.2695805716450354
  0.4691419540534274  0.6583764698866322  0.7637477425592230
  0.9533587454936240  0.1803273363148720  0.0166746560147722
  0.5121922178911618  0.8650137677936609  0.0166567122848749
  0.0825042770754828  0.6519909151644842  0.7239024534166395
  0.0824949764948005  0.6519905890563272  0.3094168876383012
  0.5394202778665640  0.3278124005723119  0.7979719898466343
  0.5394005246241310  0.3278118541955368  0.2353512685485403
  0.0316931752399416  0.1130029656352004  0.5166761052882682
  0.6144379775986293  0.7853444819620916  0.5166617037874625
  0.0541090203275247  0.8076450389898330  0.0166583593014345
  0.4638903394742120  0.1551340306576200  0.5166618890712763
 
             NaN             NaN             NaN
             NaN             NaN             NaN
             NaN             NaN             NaN
             NaN             NaN             NaN
             NaN             NaN             NaN
             NaN             NaN             NaN
             NaN             NaN             NaN
             NaN             NaN             NaN
             NaN             NaN             NaN
             NaN             NaN             NaN
             NaN             NaN             NaN
             NaN             NaN             NaN
             NaN             NaN             NaN
             NaN             NaN             NaN
             NaN             NaN             NaN
             NaN             NaN             NaN
