Ge   Li   O    Cd
1.0
  6.70729516742 -2.0039209e-08 -2.408048289e-07
  1.3429794e-08 -5.56031769673 4.68105623e-08
  2.021091599e-07 3.37377945e-08 -5.22909464001
 Ge  Li  O  Cd 
2 4 8 2 
direct
   -0.0166658410335074   0.1722954834664492   0.5851663252274476
   -0.5166658556704321   0.8027025084902278   0.0851657707788007
   -0.2669600888121407   0.3175513591301282   0.0791237665266280
   -0.7663704326309427   0.3175513120652269   0.0791235867758076
   -0.2663704554878946   0.6574474940306557   0.5791229019637426
   -0.7669600585929998   0.6574474457639355   0.5791230803812937
   -0.0166656747454326   0.1906718791465067   0.9258613473299776
   -0.0166657156710954   0.8582624381108488   0.5040025130180226
   -0.7296524492972906   0.6526509140873955   0.9577616124499569
   -0.3036793076945870   0.6526507942822662   0.9577615297618746
   -0.8036796759692777   0.3223472779773360   0.4577626474738494
   -0.2296520741187678   0.3223471653659615   0.4577627292584339
   -0.5166657227087653   0.1167359449360958   0.0040015712831973
   -0.5166656733904630   0.7843265722560276   0.4258592805554001
   -0.0166658993859841   0.8101154045341802   0.0761637211180286
   -0.5166658918337815   0.1648830708025315   0.5761628631890686
