Ge   Li   O    Cd
1.0
  6.781625205906826 1.7449677262e-05 2.44486743932e-05
  -7.2538848573e-06 -5.665897446258168 4.68105627e-08
  -1.37045245758e-05 3.37377941e-08 -5.22909464001
 Ge  Li  O  Cd 
2 4 8 2 
direct
   -0.0166654953064351   0.1703890779489229   0.5873663412168291
   -0.5166573993799772   0.8070555112595055   0.9337323422025301
   -0.2637562476226808   0.3166583906777979   0.0724742795452219
   -0.7696072120020104   0.3166823998653323   0.0724925095834326
   -0.2534079153917997   0.6525619045347950   0.5633541672522375
   -0.7799442859017295   0.6525805422857219   0.5633728058311727
   -0.0166680702203273   0.1896170644651232   0.9270671644488495
   -0.0166646203021797   0.8619010968368301   0.5098054474853995
   -0.7354890729119412   0.6470889338283092   0.0008728472451389
   -0.2978373398071921   0.6470891539960336   0.0008711402492561
   -0.8094609839841409   0.3230714518777014   0.4588936846600400
   -0.2238516269582003   0.3230669146699898   0.4588817021075043
   -0.5166649656601502   0.1100371553120456   0.0289622541575404
   -0.5166662847174337   0.7947018841626131   0.5875641083535790
   -0.0166598822077606   0.8197305133004523   0.0779472104295741
   -0.5166573394687889   0.1677615371862295   0.4879692659532128
