Ge   Li   O    Cd
1.0
  6.7746873974922375 -6.5457033573e-06 -1.50736825422e-05
  1.34867548007e-05 -5.627064338497036 4.68105625e-08
  1.77309220644e-05 3.37377943e-08 -5.22909464001
 Ge  Li  O  Cd 
2 4 8 2 
direct
   -0.0166668510554951   0.1729231560944323   0.5865251823234109
   -0.5166659334554594   0.8024480827441270   0.0326378247018795
   -0.2631275541960000   0.3147296156931748   0.0803048384479460
   -0.7701970713354228   0.3147263408379002   0.0803073597737953
   -0.2623412732400924   0.6571813104483136   0.5725980653023687
   -0.7710004134536879   0.6572025358329444   0.5725825604874200
   -0.0166647828968913   0.1893344943179374   0.9277209901359020
   -0.0166691338359997   0.8617595083882369   0.5090758220378778
   -0.7362944448694979   0.6461224167311941   0.9712402914240751
   -0.2970358991297652   0.6461217049378580   0.9712387306295079
   -0.8082353374843290   0.3245836828860172   0.4583611105136454
   -0.2250986758016487   0.3245814875889431   0.4583609562828075
   -0.5166635541552642   0.1154923861173206   0.0057974921855981
   -0.5166650502648751   0.7857895820261573   0.4826192980936528
   -0.0166661553558769   0.8195678950599663   0.0843436217061789
   -0.5166666113124329   0.1674293325028774   0.5379131266754533
