Ge   Li   O    Cd
1.0
  6.781429185598121 5.72919197114e-05 0.00037614169104
  -6.08238580408e-05 -5.681996037220034 4.68105631e-08
  -0.0002853203585621 3.37377936e-08 -5.22909464001
 Ge  Li  O  Cd 
2 4 8 2 
direct
   -0.0166954850673907   0.1680792354967111   0.6019866855757110
   -0.5166743464769014   0.8051078601079776   0.9545853428044991
   -0.2775809631954932   0.3213216546491506   0.9989318315349368
   -0.7557107348779929   0.3213929111635802   0.9980779913440475
   -0.2693260373118496   0.6579324446462427   0.4697326223046888
   -0.7640115467969433   0.6578962732019468   0.4697306376345492
   -0.0167522766290941   0.1824989209216916   0.9472199830325891
   -0.0166372653155596   0.8643834891842735   0.5111147319348395
   -0.7244969811234987   0.6538519452864727   0.0819163734546955
   -0.3088211521711783   0.6539104431644261   0.0819124256688600
   -0.7998765048798927   0.3257482741164686   0.5224009644807829
   -0.2333690925576665   0.3256909213883766   0.5216978945672610
   -0.5166994975489443   0.1129127569115951   0.0318655119931024
   -0.5166643396116096   0.7841780566040587   0.6148314708493997
   -0.0166477198474410   0.8116716465790786   0.0561731086037255
   -0.5166947984313128   0.1534166987853658   0.4694496949379603
