Ge   Li   O    Cd                       
   1.00000000000000     
    -0.0000098392465022    0.0000000337377935   -5.2290946400099996
    -0.0000151734234491   -5.6428785406454844    0.0000000468105632
    -6.7813483521597293   -0.0000119957246405   -0.0000144787395916
   Ge   Li   O    Cd
     2     4     8     2
Direct
  0.6119292905059732  0.1699605803203260  0.0166620478095636
  0.9533383153034043  0.8035538572229085  0.5166674311372260
  0.9724499549944766  0.3210935383785371  0.2795879184845376
  0.9724351771411655  0.3211130489909665  0.7537689225092793
  0.4648584918643215  0.6603666376470119  0.2688503708240678
  0.4648599324973970  0.6603424280507075  0.7644662048594983
  0.9624990460000873  0.1818134231466348  0.0166706574518395
  0.5226533747851628  0.8640915816242931  0.0166605089904694
  0.0829581032563872  0.6508706003925695  0.7240216397833816
  0.0829598836292966  0.6508719924864452  0.3093110616762813
  0.5525985122321404  0.3302702839633404  0.7963154185700155
  0.5525868433006466  0.3302779131675124  0.2370128088912940
  0.0321521209546924  0.1129395528915937  0.5166722304931622
  0.6137184251358414  0.7857385594269869  0.5166629463109003
  0.0288406539421319  0.7998548485452440  0.0166643704067869
  0.4607891451785285  0.1568346859523319  0.5166642036444730
 
             NaN             NaN             NaN
             NaN             NaN             NaN
             NaN             NaN             NaN
             NaN             NaN             NaN
             NaN             NaN             NaN
             NaN             NaN             NaN
             NaN             NaN             NaN
             NaN             NaN             NaN
             NaN             NaN             NaN
             NaN             NaN             NaN
             NaN             NaN             NaN
             NaN             NaN             NaN
             NaN             NaN             NaN
             NaN             NaN             NaN
             NaN             NaN             NaN
             NaN             NaN             NaN
