Ge   Li   O    Cd
1.0
  6.778898734192018 -9.9874475102e-06 -1.55944132868e-05
  1.63566465278e-05 -5.629208310259331 4.68105625e-08
  1.81244647732e-05 3.37377943e-08 -5.22909464001
 Ge  Li  O  Cd 
2 4 8 2 
direct
   -0.0166673004265601   0.1729054650385609   0.5864081426174613
   -0.5166680874821000   0.8033112192916908   0.0040437162864524
   -0.2630161853136141   0.3145528219618104   0.0805812563100039
   -0.7703094388733182   0.3145499291254110   0.0805836079761471
   -0.2617634120127615   0.6569676050459160   0.5719741071798736
   -0.7715722817803249   0.6569905902284440   0.5719583603687465
   -0.0166652213211833   0.1892623209377455   0.9277475406457661
   -0.0166691500228165   0.8617948174080162   0.5092328157570140
   -0.7373692546507268   0.6451240883929316   0.9740245657853954
   -0.2959616390009283   0.6451232755899979   0.9740231537839859
   -0.8084528843087374   0.3246920605528982   0.4583656739050111
   -0.2248819892978037   0.3246896091538726   0.4583652784292638
   -0.5166643391348772   0.1157345123780287   0.0082592157164195
   -0.5166639878374260   0.7863263417084302   0.5059848859970665
   -0.0166669955605924   0.8200645016231553   0.0848277000358156
   -0.5166665748189836   0.1679043737704786   0.5352472499270965
