Ge   Li   O    Cd
1.0
  6.772093276200654 5.03144997075e-05 0.0007471993969637
  -6.41298234533e-05 -5.690530267860462 4.68105629e-08
  -0.0005668242633769 3.37377938e-08 -5.22909464001
 Ge  Li  O  Cd 
2 4 8 2 
direct
   -0.0166608297144273   0.1682746414197818   0.5851723814610800
   -0.5166391164859009   0.8064667856227985   0.9531877813389803
   -0.2652406175487075   0.3174795348284543   0.0724862235836313
   -0.7681832223550937   0.3175127375872934   0.0725158333343258
   -0.2643371964384493   0.6567187217331752   0.4828393622289938
   -0.7690263342629200   0.6566403806779371   0.4836996899655114
   -0.0167058772137740   0.1940874491762571   0.9256104986345702
   -0.0165984498004071   0.8607229518225850   0.5100597239399098
   -0.7284501252448751   0.6565535267616500   0.0686020683647088
   -0.3049203040218800   0.6566855081250912   0.0692144427047856
   -0.8070032093089439   0.3165412872940485   0.4603961494093166
   -0.2263367479737798   0.3164915685249317   0.4603286381552815
   -0.5167167031445213   0.1135167738800618   0.0306429870551995
   -0.5165346733066913   0.7834554839886287   0.6109796616441309
   -0.0166332210023844   0.8229610327343171   0.0544034809214980
   -0.5166721140200120   0.1558851480304051   0.4914883479795958
