Ge   Li   O    Cd
1.0
  6.780038804411796 8.19261917811e-05 0.0007532384818585
  -8.94560585129e-05 -5.688340151156378 4.68105631e-08
  -0.0005750411415051 3.37377937e-08 -5.22909464001
 Ge  Li  O  Cd 
2 4 8 2 
direct
   -0.0167273764008742   0.1683705854017910   0.5973137761137250
   -0.5166834693160273   0.8055893761372664   0.9549106036316661
   -0.2750479800854305   0.3201481799144884   0.0197253241860540
   -0.7581235768957997   0.3202518514060028   0.0180257364845283
   -0.2689172639590541   0.6578815313730483   0.4697212633007262
   -0.7644255678209747   0.6578339938259740   0.4697066717333141
   -0.0168308921963334   0.1850648743871683   0.9416958528230380
   -0.0166287987726607   0.8635671126245130   0.5108878120989758
   -0.7250456946729721   0.6554459298741995   0.0814175912502605
   -0.3082776803325692   0.6555405083129882   0.0814283291606055
   -0.8016814686539202   0.3236991135192462   0.5055778365072107
   -0.2315191328390127   0.3235528103324047   0.5042624200691161
   -0.5167176632918725   0.1130911019095040   0.0318823370950718
   -0.5166628776227440   0.7831478451011090   0.6150528975662005
   -0.0166482841762429   0.8142360824240973   0.0550540872892489
   -0.5167210148062953   0.1525726356636290   0.4749647314119200
