Ge   Li   O    Cd
1.0
  6.782044130392151 -1.38940301732e-05 -1.56661229742e-05
  1.9615011797e-05 -5.632746306634609 4.68105626e-08
  1.8131529659e-05 3.37377942e-08 -5.22909464001
 Ge  Li  O  Cd 
2 4 8 2 
direct
   -0.0166684473882275   0.1726344725018454   0.5871816134098571
   -0.5166673292165821   0.8039198141998236   0.9469917359428799
   -0.2633890795357113   0.3145554567182734   0.0800791178234833
   -0.7699399857668585   0.3145519629960320   0.0800818309390312
   -0.2587595707591119   0.6556735496136961   0.5712149287221679
   -0.7745649902673265   0.6556971004819450   0.5711999553290019
   -0.0166663262077781   0.1893349742137129   0.9276940432822389
   -0.0166693332475737   0.8620336629268163   0.5093981441168811
   -0.7382168001206271   0.6442884825738284   0.9802856885617243
   -0.2951159912126745   0.6442878536919150   0.9802840892614005
   -0.8085257872739363   0.3244965531081681   0.4584786498499813
   -0.2248111139439302   0.3244935267029885   0.4584777562410580
   -0.5166657681551347   0.1136477244754050   0.0122385334143376
   -0.5166626824057586   0.7887608396012725   0.5540629885502465
   -0.0166679096120548   0.8196754345434509   0.0839776292861453
   -0.5166676267294659   0.1719421238582134   0.5299805659911083
