Ge   Li   O    Cd
1.0
  6.774926362279442 3.68081046134e-05 1.3932103991e-05
  -3.57570356442e-05 -5.627104722323647 4.68105634e-08
  -9.6151401355e-06 3.37377933e-08 -5.22909464001
 Ge  Li  O  Cd 
2 4 8 2 
direct
   -0.0166696082912971   0.1725860294273827   0.5095621369043929
   -0.5166709693750219   0.8020276610356197   0.9549250751778375
   -0.2710041974384798   0.3176951685509289   0.9689346852930467
   -0.7623152573187797   0.3176910453632529   0.9689193284491940
   -0.2702089919571509   0.6603604012175518   0.4611140150574162
   -0.7631088761836438   0.6603390990013119   0.4611092689185328
   -0.0166632603293673   0.1891795242860003   0.0582366496633250
   -0.0166676771102021   0.8595505407448020   0.5355758558364903
   -0.7251006240114600   0.6503626793617775   0.0830555943436669
   -0.3082432956743302   0.6503635366130844   0.0830612687984316
   -0.7970050453988967   0.3289618694191275   0.5701550219233528
   -0.2363299320476372   0.3289679031284534   0.5701538425517680
   -0.5166650758974665   0.1131891203053679   0.0323979558230507
   -0.5166672929581591   0.7857078088917716   0.6137155243206890
   -0.0166700852703316   0.8075433446114285   0.0036026798540997
   -0.5166685525805672   0.1554678002495616   0.4571083678063391
