Ge   Li   O    Cd
1.0
  6.782160976190241 3.48959364161e-05 1.69652386493e-05
  -3.41881500087e-05 -5.632862191484338 4.68105633e-08
  -1.18921284183e-05 3.37377934e-08 -5.22909464001
 Ge  Li  O  Cd 
2 4 8 2 
direct
   -0.0166692257905073   0.1711325497925302   0.5956520468661265
   -0.5166719400542819   0.8023321916649970   0.9542270130589900
   -0.2746882854015280   0.3192512910191486   0.9703375208454988
   -0.7586206013230171   0.3192474800213101   0.9703215339342709
   -0.2699212152276528   0.6605365442941703   0.4613959348906008
   -0.7633997634624449   0.6605146773602215   0.4613914705358046
   -0.0166615762745288   0.1861198014081447   0.9862077009379857
   -0.0166683195534904   0.8615025410132868   0.5291294749171320
   -0.7248153647318100   0.6504645313123589   0.0829387714959179
   -0.3085310055067095   0.6504659731482373   0.0829440352040899
   -0.7951243949343489   0.3307680148703111   0.5610161630331028
   -0.2382104248997355   0.3307733908596777   0.5610153896136252
   -0.5166665778054454   0.1129052063014808   0.0320818979890574
   -0.5166688764964691   0.7856992134289841   0.6137447242047617
   -0.0166713883316626   0.8028669274520208   0.0116673463238352
   -0.5166697820491714   0.1554131982605364   0.4575562468708659
