Ge   Li   O    Cd
1.0
  6.771440850634291 9.438459203e-05 0.0007690799826305
  -0.000117554778474 -5.690170844245584 4.6810563e-08
  -0.0005872821194076 3.37377938e-08 -5.22909464001
 Ge  Li  O  Cd 
2 4 8 2 
direct
   -0.0166958637393240   0.1685472549015264   0.5878718438484957
   -0.5166748386067506   0.8067135496984191   0.9564535678448204
   -0.2687026985307168   0.3181897359913015   0.0601867258230259
   -0.7644891015730879   0.3182408191847371   0.0591603512313800
   -0.2681304026910095   0.6577121767988123   0.4686093180747026
   -0.7652031574992946   0.6576960442961574   0.4685707969848126
   -0.0167904986261197   0.1917664016853837   0.9300188867958362
   -0.0166376831514174   0.8613979795316181   0.5107536490937846
   -0.7263671696013005   0.6585590941628868   0.0812953003362597
   -0.3069612132984703   0.6586091765800836   0.0813472076825214
   -0.8049553278691918   0.3182773575300626   0.4718002134733682
   -0.2283260059699753   0.3181417268254211   0.4711382829017651
   -0.5167128586242016   0.1142883053224293   0.0314397447359158
   -0.5166539447941177   0.7807227388558006   0.6160077733757672
   -0.0166616443255062   0.8191045703049029   0.0492167797141058
   -0.5166963329422996   0.1520266005378741   0.4877568288050919
