Ge   Li   O    Cd
1.0
  6.781469946262105 -1.23613715961e-05 -4.4953823839e-06
  5.3948443861e-06 -5.667717034774906 4.68105632e-08
  6.0768095348e-06 3.37377935e-08 -5.22909464001
 Ge  Li  O  Cd 
2 4 8 2 
direct
   -0.0166636121659244   0.1679691387533475   0.6072841824130566
   -0.5166619732001138   0.8045833713711957   0.9541513344363208
   -0.2798194856314997   0.3222870254332831   0.9792012549253087
   -0.7535533314427830   0.3223227097645438   0.9792095523531932
   -0.2695805716450354   0.6583814366564700   0.4691374604542826
   -0.7637477425592227   0.6583764698866322   0.4691419540534275
   -0.0166746560147722   0.1803273363148720   0.9533587454936240
   -0.0166567122848749   0.8650137677936609   0.5121922178911618
   -0.7239024534166393   0.6519909151644842   0.0825042770754828
   -0.3094168876383011   0.6519905890563272   0.0824949764948005
   -0.7979719898466340   0.3278124005723119   0.5394202778665640
   -0.2353512685485402   0.3278118541955368   0.5394005246241310
   -0.5166761052882681   0.1130029656352004   0.0316931752399416
   -0.5166617037874625   0.7853444819620916   0.6144379775986293
   -0.0166583593014345   0.8076450389898328   0.0541090203275247
   -0.5166618890712762   0.1551340306576200   0.4638903394742119
