Ge   Li   O    Cd
1.0
  6.78161886219645 5.09570199141e-05 0.0004081150513832
  -4.48003615929e-05 -5.6812338036693655 4.68105628e-08
  -0.0003071402270818 3.3737794e-08 -5.22909464001
 Ge  Li  O  Cd 
2 4 8 2 
direct
   -0.0166508370139880   0.1698316988837152   0.5868988600203392
   -0.5166287456468366   0.8070167276453439   0.9390844144357670
   -0.2639660522525605   0.3172475323083719   0.0717542888410761
   -0.7694213610131272   0.3173136344716788   0.0717845262533851
   -0.2555940507458525   0.6534195665699256   0.5439766029286824
   -0.7777948416986430   0.6533605312769409   0.5448912738667601
   -0.0166755256713846   0.1908166331326742   0.9266317992016592
   -0.0166311783209784   0.8619789023376203   0.5096692292816046
   -0.7335887364634023   0.6492193442926897   0.0178286083673455
   -0.2998145356876298   0.6492804678510609   0.0185579366256631
   -0.8088728946405522   0.3211555791656917   0.4594670332262882
   -0.2244519235221897   0.3210954180174125   0.4594479668667616
   -0.5166982044161347   0.1106494181872087   0.0302247898501505
   -0.5165747158379120   0.7925783120066283   0.5938080581810181
   -0.0166241050168935   0.8215975608418009   0.0724493525693579
   -0.5166710338946775   0.1634322052186314   0.4851525302056610
