Ge   Li   O    Cd                       
   1.00000000000000     
    -0.0005750411415051    0.0000000337377937   -5.2290946400099996
    -0.0000894560585129   -5.6883401511563783    0.0000000468105631
    -6.7800388044117961   -0.0000819261917811   -0.0007532384818585
   Ge   Li   O    Cd
     2     4     8     2
Direct
  0.5973137761137250  0.1683705854017910  0.0167273764008742
  0.9549106036316661  0.8055893761372666  0.5166834693160273
  0.0197253241860540  0.3201481799144884  0.2750479800854304
  0.0180257364845283  0.3202518514060028  0.7581235768957997
  0.4697212633007261  0.6578815313730484  0.2689172639590540
  0.4697066717333141  0.6578339938259741  0.7644255678209747
  0.9416958528230380  0.1850648743871683  0.0168308921963334
  0.5108878120989758  0.8635671126245130  0.0166287987726607
  0.0814175912502605  0.6554459298741996  0.7250456946729719
  0.0814283291606055  0.6555405083129882  0.3082776803325692
  0.5055778365072107  0.3236991135192462  0.8016814686539202
  0.5042624200691160  0.3235528103324047  0.2315191328390127
  0.0318823370950718  0.1130911019095040  0.5167176632918725
  0.6150528975662006  0.7831478451011091  0.5166628776227439
  0.0550540872892489  0.8142360824240973  0.0166482841762429
  0.4749647314119200  0.1525726356636290  0.5167210148062952
 
             NaN             NaN             NaN
             NaN             NaN             NaN
             NaN             NaN             NaN
             NaN             NaN             NaN
             NaN             NaN             NaN
             NaN             NaN             NaN
             NaN             NaN             NaN
             NaN             NaN             NaN
             NaN             NaN             NaN
             NaN             NaN             NaN
             NaN             NaN             NaN
             NaN             NaN             NaN
             NaN             NaN             NaN
             NaN             NaN             NaN
             NaN             NaN             NaN
             NaN             NaN             NaN
