Ge   Li   O    Cd
1.0
  6.7680603554160585 4.10297585048e-05 1.34385375949e-05
  -3.92318803175e-05 -5.623680216785804 4.68105635e-08
  -9.1730115643e-06 3.37377932e-08 -5.22909464001
 Ge  Li  O  Cd 
2 4 8 2 
direct
   -0.0166697398765558   0.1735736399332236   0.4826526659680276
   -0.5166701233465893   0.8020455431294402   0.9545803806047708
   -0.2704683454686592   0.3175297378988757   0.9678245860887094
   -0.7628527885139422   0.3175232591750953   0.9678109319770059
   -0.2699370641016333   0.6600480977174452   0.4616329452876121
   -0.7633809310408621   0.6600266544470959   0.4616286279423205
   -0.0166643901756270   0.1895283667055394   0.0831774517694309
   -0.0166673300290089   0.8604953076362060   0.5376593686222534
   -0.7255342421133330   0.6506010494514716   0.0829903395125610
   -0.3078094398009464   0.6506026493823618   0.0829958129424310
   -0.7985452400422561   0.3275195586664409   0.5723195778939806
   -0.2347886672359587   0.3275248612373907   0.5723180622679117
   -0.5166651057611527   0.1132195983393356   0.0326180135610372
   -0.5166670564117505   0.7855487540778043   0.6137645862555443
   -0.0166696036915651   0.8077441078277318   0.9995440834511389
   -0.5166686742329707   0.1564623465819720   0.4581098365769291
