Ge   Li   O    Cd                       
   1.00000000000000     
    -0.0002853203585621    0.0000000337377936   -5.2290946400099996
    -0.0000608238580408   -5.6819960372200340    0.0000000468105631
    -6.7814291855981210   -0.0000572919197114   -0.0003761416910400
   Ge   Li   O    Cd
     2     4     8     2
Direct
  0.6019866855757109  0.1680792354967111  0.0166954850673907
  0.9545853428044990  0.8051078601079776  0.5166743464769015
  0.9989318315349367  0.3213216546491507  0.2775809631954932
  0.9980779913440475  0.3213929111635802  0.7557107348779929
  0.4697326223046887  0.6579324446462427  0.2693260373118497
  0.4697306376345492  0.6578962732019469  0.7640115467969435
  0.9472199830325893  0.1824989209216916  0.0167522766290941
  0.5111147319348395  0.8643834891842738  0.0166372653155596
  0.0819163734546955  0.6538519452864727  0.7244969811234989
  0.0819124256688600  0.6539104431644261  0.3088211521711783
  0.5224009644807828  0.3257482741164686  0.7998765048798927
  0.5216978945672610  0.3256909213883766  0.2333690925576665
  0.0318655119931024  0.1129127569115951  0.5166994975489443
  0.6148314708493997  0.7841780566040587  0.5166643396116097
  0.0561731086037255  0.8116716465790790  0.0166477198474410
  0.4694496949379603  0.1534166987853658  0.5166947984313129
 
             NaN             NaN             NaN
             NaN             NaN             NaN
             NaN             NaN             NaN
             NaN             NaN             NaN
             NaN             NaN             NaN
             NaN             NaN             NaN
             NaN             NaN             NaN
             NaN             NaN             NaN
             NaN             NaN             NaN
             NaN             NaN             NaN
             NaN             NaN             NaN
             NaN             NaN             NaN
             NaN             NaN             NaN
             NaN             NaN             NaN
             NaN             NaN             NaN
             NaN             NaN             NaN
