Ge   Li   O    Cd
1.0
  6.7485178049288255 -2.2087101133e-05 -1.67374693948e-05
  2.63285667969e-05 -5.613138384572575 4.68105624e-08
  1.89824904205e-05 3.37377944e-08 -5.22909464001
 Ge  Li  O  Cd 
2 4 8 2 
direct
   -0.0166659491904601   0.1728466889207754   0.5872054460403786
   -0.5166651295554477   0.8009803962648766   0.0806208241589276
   -0.2644982038508396   0.3158976841296534   0.0786466304229098
   -0.7688333365470021   0.3158907015694294   0.0786515862136113
   -0.2639999843205691   0.6575865191070475   0.5767075189896524
   -0.7693333441531820   0.6576014715392441   0.5766987395814971
   -0.0166656512464101   0.1899272268281662   0.9275799871223996
   -0.0166688718780943   0.8614083254347862   0.5079828070259071
   -0.7322029572313341   0.6500880777307810   0.9658300654705674
   -0.3011280647202409   0.6500879782377614   0.9658298289518198
   -0.8064674928839249   0.3236833640555751   0.4586406280556494
   -0.2268667797573536   0.3236818588274439   0.4586405148722923
   -0.5166644164115409   0.1129579719826867   0.0010347791255806
   -0.5166657934847801   0.7850686733194714   0.4331947261746545
   -0.0166659723031689   0.8157668623024024   0.0806828469363125
   -0.5166667943084184   0.1665197319572922   0.5536803415793646
