Ge   Li   O    Cd
   1.00000000000000     
   0.0000002021091599   0.0000000337377931  -5.2290946400099996
   0.0000000134297940  -5.5603176967300003   0.0000000468105636
  -6.7072951674199999   0.0000000200392090   0.0000002408048289
Ge   Li   O    Cd
2  4  8  2  
Direct
  0.4562873360491082  0.1722962919385864  0.0166668316349643  
  0.9562867816004612  0.8027033169623650  0.5166668462718818  
  0.9623298947499280  0.3175521676022655  0.2669610794135977  
  0.9623297149991076  0.3175521205373641  0.7663714232323926  
  0.4623290301870426  0.6574483025027931  0.2663714460893516  
  0.4623292086045936  0.6574482542360727  0.7669610491944496  
  0.1155923139465784  0.1906726876186440  0.0166666653468894  
  0.5374511482585334  0.8582632465829860  0.0166667062725523  
  0.0836920488265989  0.6526517225595327  0.7296534398987404  
  0.0836919661385167  0.6526516027544034  0.3036802982960438  
  0.5836930838504912  0.3223480864494732  0.8036806665707275  
  0.5836931656350757  0.3223479738380988  0.2296530647202246  
  0.0374502065237081  0.1167367534082331  0.5166667133102223  
  0.6155943807211557  0.7843273807281648  0.5166666639919200  
  0.9652899401585272  0.8101162130063173  0.0166668899874409  
  0.4652890822295674  0.1648838792746687  0.5166668824352385  
