Ge   Li   O    Cd
1.0
  6.781089948411229 -9.8414590757e-06 -1.57161166775e-05
  1.62423475571e-05 -5.630812727791973 4.68105626e-08
  1.82016244203e-05 3.37377942e-08 -5.22909464001
 Ge  Li  O  Cd 
2 4 8 2 
direct
   -0.0166681053129193   0.1728256484163261   0.5866231155328749
   -0.5166659914739307   0.8038113076280974   0.9747796884233402
   -0.2630976329970830   0.3145088321963480   0.0805346533192791
   -0.7702301386865393   0.3145054380499531   0.0805372448450365
   -0.2607025282050981   0.6565142272881880   0.5716741013050348
   -0.7726264193358851   0.6565384024287886   0.5716573725897848
   -0.0166662975462306   0.1892666785161218   0.9277339207899166
   -0.0166697158477603   0.8618800015723453   0.5093382411038474
   -0.7380098379050980   0.6445346719297861   0.9771914428293790
   -0.2953230140169705   0.6445342954062050   0.9771899500762737
   -0.8085036312473027   0.3246572070422360   0.4584332064890247
   -0.2248326925020087   0.3246546006947988   0.4584326643663694
   -0.5166650242667857   0.1151172267258977   0.0106384101559866
   -0.5166626890470145   0.7872627517047369   0.5290263445047797
   -0.0166674204085419   0.8200625877699370   0.0847058813149930
   -0.5166676030435656   0.1693196548376238   0.5331310330755957
