supercell of icsd_608626.cif            
   1.12248915506316     
     9.3791062511060499    0.0146839118852489    0.0683536642298330
    -4.6765375118418806    8.1215672792469107   -0.0511276473506703
     0.0650110253274602   -0.0176117568948791    9.3016505550104576
   Y    Al   N 
    18    18    36
Direct
  0.2451837436035191  0.1032184891503718  0.2270020729048312
  0.1220546179450537  0.2202799469219059  0.4638852616210301
  0.7937312361301068  0.2161325825377105  0.9756157010953217
  0.2119927251201545  0.1020795474774303  0.7607104178885606
  0.8783079594189758  0.1066244880664442  0.2397889416072658
  0.5640719896449866  0.1079610397708706  0.7170685725159132
  0.4726017278687138  0.2281290285764541  0.9928999523147368
  0.0889575885041225  0.5556823099712460  0.5049399620765840
  0.4599785264758296  0.5684612921178243  0.4764522094400547
  0.2053238644765045  0.4266388957384137  0.7373552501188811
  0.1185805566951075  0.5671586505521233  0.9849547658252362
  0.5764094745777015  0.4520315273112914  0.7263954536124899
  0.4313072733541929  0.5297088888613004  0.0051395163248884
  0.0996597305120090  0.8866191038563755  0.4822220326745565
  0.8824927670224127  0.7764476560913351  0.7393719938345384
  0.5489525694696837  0.7816860659218818  0.2117373513401972
  0.4350186839379404  0.8980650628374747  0.4672738799172791
  0.5416636924654981  0.7902974068589970  0.7697629611028276
  0.8851027218947536  0.1152891004659296  0.6539049898288880
  0.5706944099971238  0.1413446779531071  0.2573191542173277
  0.4604306945429855  0.2317745472933623  0.4941065551992452
  0.1118339494719010  0.2117547641226238  0.0293347717001282
  0.7805750239163558  0.2433899954688883  0.4885399681093077
  0.2208229900855443  0.4488767465670023  0.2600904066359533
  0.8983885030366423  0.4601136331600770  0.7533596421569300
  0.7862495947588499  0.5610491634887893  0.0077945304731486
  0.5704576658891725  0.4434683159411890  0.2604226500385565
  0.8773212938604473  0.4413004831719931  0.2436382722753052
  0.7769517988095700  0.5448485702703323  0.4858729383343459
  0.2008273633153479  0.7655711118593871  0.2445716813272085
  0.8459610326126352  0.8993837073325537  0.0298262751866289
  0.2173446580805987  0.7869057358418132  0.7588597081631363
  0.1054698682678890  0.8795017479706502  0.0150280972859349
  0.8738665114335618  0.7518015414745065  0.2543700999408145
  0.7598866406225468  0.8819262006524227  0.4912376136528422
  0.4237455831573413  0.9002171091040125  0.0120606866535411
  0.2647069810053040  0.1203591533583577  0.4418257370598084
  0.1265130222616762  0.2417770326335145  0.2194654074513736
  0.9109013280184399  0.0913887065541559  0.0075399531853506
  0.8199656475806023  0.2566616726811404  0.6791486983591213
  0.5788478721323003  0.1459315631253588  0.4482280492953166
  0.4873797102745101  0.2505638436174848  0.2019675998051866
  0.2079395907834183  0.0971426040834089  0.9920383962325232
  0.0837801153659754  0.1922251679579148  0.6755156577365966
  0.8640635689857419  0.1061110196492621  0.4642864683934533
  0.7681596327697946  0.2364746551261163  0.1928757999901265
  0.5562189728730544  0.0809798842253215  0.9299712219704759
  0.4410535321948288  0.2203210746783455  0.6833550589806805
  0.2202385782792931  0.4552850625108675  0.4455742637358782
  0.1133319653341402  0.5524832602898471  0.2062164469527872
  0.8773152788455079  0.4589044331945260  0.9356854736103557
  0.8107171618708335  0.5499825487524959  0.6635178312665531
  0.5742480341885141  0.4351094211699333  0.4479823130096534
  0.4376447020895924  0.5288151577436793  0.2276243109214207
  0.1960673174121084  0.3955603553228357  0.9505129172201734
  0.1074022960580052  0.5754228502164977  0.7335656251850011
  0.8652617388874972  0.4353990182926424  0.4214340594084192
  0.7780540404094936  0.5514856180332188  0.1948602510506561
  0.5949650385110630  0.4659219171625537  0.9402215917804710
  0.4472257923356224  0.5624049407322573  0.7023257504743228
  0.2034085880630556  0.7675767803468005  0.4195220515060214
  0.0819699865662145  0.8481248353189130  0.2003192100682156
  0.9006142638226748  0.7735544635756284  0.9588403454768084
  0.7710082453879679  0.9097609977508654  0.6748765860696722
  0.5742792059466524  0.8022437790905173  0.4270387117816981
  0.4216744371971899  0.9262704641619379  0.2017811525937034
  0.2290012696939030  0.8155417776729408  0.9452337595611056
  0.1133776312436012  0.8755091975075757  0.6947342390733127
  0.8490756011808713  0.7560635092108328  0.4409971013004466
  0.7885735353116772  0.8602982274437991  0.1951020529271474
  0.4869296753166168  0.7606535590333081  0.9887651188359499
  0.4058666108265214  0.8719523130170970  0.6821364503357970
 
  0.00000000E+00  0.00000000E+00  0.00000000E+00
  0.00000000E+00  0.00000000E+00  0.00000000E+00
  0.00000000E+00  0.00000000E+00  0.00000000E+00
  0.00000000E+00  0.00000000E+00  0.00000000E+00
  0.00000000E+00  0.00000000E+00  0.00000000E+00
  0.00000000E+00  0.00000000E+00  0.00000000E+00
  0.00000000E+00  0.00000000E+00  0.00000000E+00
  0.00000000E+00  0.00000000E+00  0.00000000E+00
  0.00000000E+00  0.00000000E+00  0.00000000E+00
  0.00000000E+00  0.00000000E+00  0.00000000E+00
  0.00000000E+00  0.00000000E+00  0.00000000E+00
  0.00000000E+00  0.00000000E+00  0.00000000E+00
  0.00000000E+00  0.00000000E+00  0.00000000E+00
  0.00000000E+00  0.00000000E+00  0.00000000E+00
  0.00000000E+00  0.00000000E+00  0.00000000E+00
  0.00000000E+00  0.00000000E+00  0.00000000E+00
  0.00000000E+00  0.00000000E+00  0.00000000E+00
  0.00000000E+00  0.00000000E+00  0.00000000E+00
  0.00000000E+00  0.00000000E+00  0.00000000E+00
  0.00000000E+00  0.00000000E+00  0.00000000E+00
  0.00000000E+00  0.00000000E+00  0.00000000E+00
  0.00000000E+00  0.00000000E+00  0.00000000E+00
  0.00000000E+00  0.00000000E+00  0.00000000E+00
  0.00000000E+00  0.00000000E+00  0.00000000E+00
  0.00000000E+00  0.00000000E+00  0.00000000E+00
  0.00000000E+00  0.00000000E+00  0.00000000E+00
  0.00000000E+00  0.00000000E+00  0.00000000E+00
  0.00000000E+00  0.00000000E+00  0.00000000E+00
  0.00000000E+00  0.00000000E+00  0.00000000E+00
  0.00000000E+00  0.00000000E+00  0.00000000E+00
  0.00000000E+00  0.00000000E+00  0.00000000E+00
  0.00000000E+00  0.00000000E+00  0.00000000E+00
  0.00000000E+00  0.00000000E+00  0.00000000E+00
  0.00000000E+00  0.00000000E+00  0.00000000E+00
  0.00000000E+00  0.00000000E+00  0.00000000E+00
  0.00000000E+00  0.00000000E+00  0.00000000E+00
  0.00000000E+00  0.00000000E+00  0.00000000E+00
  0.00000000E+00  0.00000000E+00  0.00000000E+00
  0.00000000E+00  0.00000000E+00  0.00000000E+00
  0.00000000E+00  0.00000000E+00  0.00000000E+00
  0.00000000E+00  0.00000000E+00  0.00000000E+00
  0.00000000E+00  0.00000000E+00  0.00000000E+00
  0.00000000E+00  0.00000000E+00  0.00000000E+00
  0.00000000E+00  0.00000000E+00  0.00000000E+00
  0.00000000E+00  0.00000000E+00  0.00000000E+00
  0.00000000E+00  0.00000000E+00  0.00000000E+00
  0.00000000E+00  0.00000000E+00  0.00000000E+00
  0.00000000E+00  0.00000000E+00  0.00000000E+00
  0.00000000E+00  0.00000000E+00  0.00000000E+00
  0.00000000E+00  0.00000000E+00  0.00000000E+00
  0.00000000E+00  0.00000000E+00  0.00000000E+00
  0.00000000E+00  0.00000000E+00  0.00000000E+00
  0.00000000E+00  0.00000000E+00  0.00000000E+00
  0.00000000E+00  0.00000000E+00  0.00000000E+00
  0.00000000E+00  0.00000000E+00  0.00000000E+00
  0.00000000E+00  0.00000000E+00  0.00000000E+00
  0.00000000E+00  0.00000000E+00  0.00000000E+00
  0.00000000E+00  0.00000000E+00  0.00000000E+00
  0.00000000E+00  0.00000000E+00  0.00000000E+00
  0.00000000E+00  0.00000000E+00  0.00000000E+00
  0.00000000E+00  0.00000000E+00  0.00000000E+00
  0.00000000E+00  0.00000000E+00  0.00000000E+00
  0.00000000E+00  0.00000000E+00  0.00000000E+00
  0.00000000E+00  0.00000000E+00  0.00000000E+00
  0.00000000E+00  0.00000000E+00  0.00000000E+00
  0.00000000E+00  0.00000000E+00  0.00000000E+00
  0.00000000E+00  0.00000000E+00  0.00000000E+00
  0.00000000E+00  0.00000000E+00  0.00000000E+00
  0.00000000E+00  0.00000000E+00  0.00000000E+00
  0.00000000E+00  0.00000000E+00  0.00000000E+00
  0.00000000E+00  0.00000000E+00  0.00000000E+00
  0.00000000E+00  0.00000000E+00  0.00000000E+00
