supercell of icsd_191774.cif            
   1.00000000000000     
    10.7347800882481526    0.0043707681220013    0.0001128516684077
    -5.3636062447421953    9.2897370825130707   -0.0012912227928362
     0.0001188520339567   -0.0015713658838302   11.3540778047027686
   N    Y    In
    36     4    32
Direct
  0.2214801127988437  0.1109764497754924  0.4433106815855439
  0.1083019259596369  0.2275403356470704  0.1879510372705369
  0.8886299439790406  0.1099253603214905  0.9424748397732685
  0.7781825844235115  0.2231210987277450  0.6977366504069309
  0.5469121558795322  0.1065466088429829  0.4396438385729979
  0.4526228975825148  0.2275157253157687  0.1885452854660130
  0.2224228977843126  0.1112087056577096  0.9439009010420634
  0.1103196084660638  0.2216864197128317  0.6926261823331927
  0.8953963237842544  0.1144408315072170  0.4386433616485803
  0.7730962781424253  0.2148914748464819  0.1908463603194051
  0.5542297659023561  0.1100002708492411  0.9405004468283238
  0.4443245450998035  0.2220560825337543  0.6917242593169490
  0.2213614797730443  0.4434297141154673  0.4415702761691946
  0.1227210164148147  0.5614339943058582  0.1873836436250471
  0.8897313351499037  0.4453430589395637  0.9476502466789114
  0.7785981796273163  0.5556498417840245  0.6919671389233599
  0.5567355135044565  0.4448163635076696  0.4420943699106914
  0.4436798839757188  0.5538456848582101  0.1898085159868614
  0.2236568571911448  0.4450870280630923  0.9377655169166417
  0.1106378357342450  0.5552924884152048  0.6914245907543020
  0.8932419523342574  0.4503887229175376  0.4378112676245465
  0.7722873662091985  0.5601653607367822  0.1870605102799416
  0.5549277968209196  0.4449804164359819  0.9374820707864018
  0.4448519590943150  0.5563753091364489  0.6896288946839704
  0.2216045630079151  0.7770269901051492  0.4410949408826284
  0.1081791779539216  0.8807726880629190  0.1880263423999438
  0.8889456716770212  0.7785676532229147  0.9400979144681472
  0.7769829523694298  0.8886062325815089  0.6935563696081601
  0.5466381847743662  0.7732808637807977  0.4373580282664946
  0.4436098833318596  0.8892782001490005  0.1889887658790670
  0.2233956249040006  0.7784483924323524  0.9377108036119353
  0.1111392240810147  0.8890340394902054  0.6917859573330176
  0.8946969703608545  0.7743384834226390  0.4387353100936124
  0.7775398567469196  0.8884820075980073  0.1935185991751922
  0.5551277192565394  0.7773052104828864  0.9424767843830111
  0.4452345798685116  0.8888195527015696  0.6904208665609417
  0.2222821390095433  0.1113056906882477  0.2445541240347282
  0.7766385924828398  0.2238646112937985  0.4991471513144248
  0.8916616606388885  0.4485121934389795  0.2394937836777160
  0.7765825870392078  0.8850714571196860  0.4951907108272806
  0.1123563074761549  0.2225753683644953  0.5012091014679712
  0.8885260120271070  0.1101792105440680  0.7527502821011609
  0.7753409792179866  0.2185854367904270  0.9986870648648747
  0.5535941606300554  0.1089539414413210  0.2483147717476157
  0.4416897908934985  0.2211811493349103  0.5007353263028520
  0.2222405628784188  0.1111289314120683  0.7508999052929539
  0.1106280156535462  0.2247247129644805  0.9977537590623911
  0.8894342721130641  0.1119482140712620  0.2476035899743465
  0.5545470389873728  0.1103628845617735  0.7508742605786836
  0.4475480874676592  0.2247082407214194  0.9979716617786494
  0.2239170762577274  0.4465469407061846  0.2499745831350566
  0.1112809555863734  0.5563959967515046  0.5001034076455539
  0.8898146482035685  0.4454294841928217  0.7545393957484308
  0.7748932660287409  0.5574584933057380  0.9974619395207398
  0.5565479260559698  0.4468819375801658  0.2500715367484219
  0.4421208209645400  0.5542890541054035  0.4987475382310720
  0.2229510007009665  0.4448632738523557  0.7479355725006087
  0.1167112026332049  0.5583378549308762  0.9975995208429111
  0.7808048774960312  0.5557507479596140  0.5003771773938226
  0.5554299410452543  0.4449476634763201  0.7474346025812864
  0.4440078777481347  0.5545086981238398  0.9991495730577995
  0.2243182217447810  0.7776093403466078  0.2497691840703737
  0.1129486846111973  0.8884763422819475  0.5006670944395495
  0.8890692895990639  0.7783371150319240  0.7504153088890462
  0.7774229826198251  0.8881533382025779  0.0009283015823840
  0.5518639222735828  0.7759568721292638  0.2467658502637136
  0.4403354220685998  0.8861586927942326  0.4990793624287519
  0.2229189790106503  0.7780488768627691  0.7480811181815739
  0.1102941029029338  0.8857846563126515  0.9975701775682140
  0.8889681750118328  0.7762938698753246  0.2479497452766424
  0.5552375279861295  0.7774070821496579  0.7516646505878981
  0.4436282689716293  0.8885839652977126  0.9990072967146446
 
  0.00000000E+00  0.00000000E+00  0.00000000E+00
  0.00000000E+00  0.00000000E+00  0.00000000E+00
  0.00000000E+00  0.00000000E+00  0.00000000E+00
  0.00000000E+00  0.00000000E+00  0.00000000E+00
  0.00000000E+00  0.00000000E+00  0.00000000E+00
  0.00000000E+00  0.00000000E+00  0.00000000E+00
  0.00000000E+00  0.00000000E+00  0.00000000E+00
  0.00000000E+00  0.00000000E+00  0.00000000E+00
  0.00000000E+00  0.00000000E+00  0.00000000E+00
  0.00000000E+00  0.00000000E+00  0.00000000E+00
  0.00000000E+00  0.00000000E+00  0.00000000E+00
  0.00000000E+00  0.00000000E+00  0.00000000E+00
  0.00000000E+00  0.00000000E+00  0.00000000E+00
  0.00000000E+00  0.00000000E+00  0.00000000E+00
  0.00000000E+00  0.00000000E+00  0.00000000E+00
  0.00000000E+00  0.00000000E+00  0.00000000E+00
  0.00000000E+00  0.00000000E+00  0.00000000E+00
  0.00000000E+00  0.00000000E+00  0.00000000E+00
  0.00000000E+00  0.00000000E+00  0.00000000E+00
  0.00000000E+00  0.00000000E+00  0.00000000E+00
  0.00000000E+00  0.00000000E+00  0.00000000E+00
  0.00000000E+00  0.00000000E+00  0.00000000E+00
  0.00000000E+00  0.00000000E+00  0.00000000E+00
  0.00000000E+00  0.00000000E+00  0.00000000E+00
  0.00000000E+00  0.00000000E+00  0.00000000E+00
  0.00000000E+00  0.00000000E+00  0.00000000E+00
  0.00000000E+00  0.00000000E+00  0.00000000E+00
  0.00000000E+00  0.00000000E+00  0.00000000E+00
  0.00000000E+00  0.00000000E+00  0.00000000E+00
  0.00000000E+00  0.00000000E+00  0.00000000E+00
  0.00000000E+00  0.00000000E+00  0.00000000E+00
  0.00000000E+00  0.00000000E+00  0.00000000E+00
  0.00000000E+00  0.00000000E+00  0.00000000E+00
  0.00000000E+00  0.00000000E+00  0.00000000E+00
  0.00000000E+00  0.00000000E+00  0.00000000E+00
  0.00000000E+00  0.00000000E+00  0.00000000E+00
  0.00000000E+00  0.00000000E+00  0.00000000E+00
  0.00000000E+00  0.00000000E+00  0.00000000E+00
  0.00000000E+00  0.00000000E+00  0.00000000E+00
  0.00000000E+00  0.00000000E+00  0.00000000E+00
  0.00000000E+00  0.00000000E+00  0.00000000E+00
  0.00000000E+00  0.00000000E+00  0.00000000E+00
  0.00000000E+00  0.00000000E+00  0.00000000E+00
  0.00000000E+00  0.00000000E+00  0.00000000E+00
  0.00000000E+00  0.00000000E+00  0.00000000E+00
  0.00000000E+00  0.00000000E+00  0.00000000E+00
  0.00000000E+00  0.00000000E+00  0.00000000E+00
  0.00000000E+00  0.00000000E+00  0.00000000E+00
  0.00000000E+00  0.00000000E+00  0.00000000E+00
  0.00000000E+00  0.00000000E+00  0.00000000E+00
  0.00000000E+00  0.00000000E+00  0.00000000E+00
  0.00000000E+00  0.00000000E+00  0.00000000E+00
  0.00000000E+00  0.00000000E+00  0.00000000E+00
  0.00000000E+00  0.00000000E+00  0.00000000E+00
  0.00000000E+00  0.00000000E+00  0.00000000E+00
  0.00000000E+00  0.00000000E+00  0.00000000E+00
  0.00000000E+00  0.00000000E+00  0.00000000E+00
  0.00000000E+00  0.00000000E+00  0.00000000E+00
  0.00000000E+00  0.00000000E+00  0.00000000E+00
  0.00000000E+00  0.00000000E+00  0.00000000E+00
  0.00000000E+00  0.00000000E+00  0.00000000E+00
  0.00000000E+00  0.00000000E+00  0.00000000E+00
  0.00000000E+00  0.00000000E+00  0.00000000E+00
  0.00000000E+00  0.00000000E+00  0.00000000E+00
  0.00000000E+00  0.00000000E+00  0.00000000E+00
  0.00000000E+00  0.00000000E+00  0.00000000E+00
  0.00000000E+00  0.00000000E+00  0.00000000E+00
  0.00000000E+00  0.00000000E+00  0.00000000E+00
  0.00000000E+00  0.00000000E+00  0.00000000E+00
  0.00000000E+00  0.00000000E+00  0.00000000E+00
  0.00000000E+00  0.00000000E+00  0.00000000E+00
  0.00000000E+00  0.00000000E+00  0.00000000E+00
