generated by phonopy                    
   1.00000000000000     
    11.7777700938999992   -0.0000006592896312    0.0000118211769744
    -0.0000006477562692   11.7777479613999994   -0.0000130806483528
     0.0000177256125076   -0.0000204342245446   17.8544012557999991
   Cu   Bi   Se   O 
    37    35    36    36
Direct
  0.0000300898487211  0.1666715927131719  0.4559580669825252
  0.9999989541968546  0.0027471690659837  0.2516321203111147
  0.3297748964040892  0.9982926357041109  0.2515788118024886
  0.6702078476944351  0.9982787952339720  0.2515715318489811
  0.0000052521017722  0.3307180336699815  0.2516292411526990
  0.3298056537453817  0.3351725648536998  0.2515611164374860
  0.6702045377139356  0.3351591487890175  0.2515604815192347
  0.0000117143740326  0.6667378175903309  0.2502319960191812
  0.3324480299768453  0.6667335020592517  0.2495420074642212
  0.6675597556510198  0.6667220912408354  0.2495425155338822
  0.0000016267760969  0.9990631054097534  0.7496449491836330
  0.3341543079355205  0.9992565574238128  0.7493605104446104
  0.6658559378052686  0.9992546355216518  0.7493601479865788
  0.0000069348003464  0.3342885707818084  0.7496505302713246
  0.3341545302433602  0.3341107643071695  0.7493653341324489
  0.6658608882304335  0.3341071043409443  0.7493655709116211
  0.9999989757013168  0.6666678478273482  0.7506591072372188
  0.3340151709555386  0.6666734601079725  0.7491764059942838
  0.6659909832846935  0.6666703997134178  0.7491758049532393
  0.1639652872686455  0.1667207490419784  0.2516368950230827
  0.4999865733734126  0.1667031772011214  0.2502319384275751
  0.8360145816196436  0.1667128706978289  0.2516346527561666
  0.1684393368774053  0.4965276807752446  0.2515634586693309
  0.4999915397599040  0.4991656245130827  0.2495397593776190
  0.8315543204033133  0.4965165761947361  0.2515590010269477
  0.1684233015289536  0.8369476505940554  0.2515760187111979
  0.4999867372890421  0.8342609671872481  0.2495413222353093
  0.8315559141919806  0.8369248895969292  0.2515668845654133
  0.1676364361712572  0.1666952337431340  0.7496456858994520
  0.5000157766430249  0.1666913022784158  0.7506543351933601
  0.8323960268966459  0.1666887165780082  0.7496475878045104
  0.1674406106821422  0.5008290138305895  0.7493626565793150
  0.5000148571976766  0.5006880790941963  0.7491750809638233
  0.8325874732898129  0.5008243640227334  0.7493631978252182
  0.1674419256971902  0.8325428502208823  0.7493641640360735
  0.5000134929694724  0.8326860766464605  0.7491801938229372
  0.8325826679982598  0.8325374855871033  0.7493657367658102
  0.3278192091382692  0.1666913279844522  0.4282850683585622
  0.6722119264618058  0.1666816637099089  0.4282814069468088
  0.0000198857866351  0.4945006246005121  0.4282777331139727
  0.3326870008705924  0.4993615489382179  0.4273596168596612
  0.6673520148284382  0.4993525344974614  0.4273598582110907
  0.0000096013730086  0.8388726399394528  0.4282903230470296
  0.3326778012527427  0.8340239427560761  0.4273705977674567
  0.6673494815837131  0.8340151421677646  0.4273631906650905
  0.9999923382682780  0.1667107138793966  0.9290427767789851
  0.3333702692483840  0.1667122797571494  0.9291195420932468
  0.6666114847578228  0.1667101422299382  0.9291200546103227
  0.9999931916927167  0.5000939711762129  0.9291184653182043
  0.3333992528776619  0.5001215647627646  0.9291250469447974
  0.6665836094377511  0.5001185022186476  0.9291261970783182
  0.9999913743513957  0.8333341749223138  0.9291164970101704
  0.3333981083930126  0.8333091681308602  0.9291225809266663
  0.6665834645762132  0.8333087751529860  0.9291247586218034
  0.1666242352481504  0.0000789978175462  0.0715467335391793
  0.4999882691476927  0.0001167411264689  0.0715898540400275
  0.8333546458838441  0.0000772184157896  0.0715481733797887
  0.1666257530730348  0.3333564087635210  0.0715468291699537
  0.4999900672907742  0.3333111842028771  0.0715890033098745
  0.8333558925499460  0.3333534894658925  0.0715482137341752
  0.1665855135575285  0.6667199300946081  0.0715828624364505
  0.4999905123056791  0.6667174559463120  0.0715462576801542
  0.8333945408571992  0.6667166343569448  0.0715850622877241
  0.1638371494012105  0.0028545477231887  0.5680366882382515
  0.5000140327573845  0.0009922706691512  0.5686181216464163
  0.8361866607087407  0.0028575139128009  0.5680300727580416
  0.1638393577364070  0.3305174285033203  0.5680276800836879
  0.5000166587149764  0.3323831572145721  0.5686147747885855
  0.8361981179640381  0.3305001164053536  0.5680141708414013
  0.1657066966864846  0.6666821212456000  0.5686215050010972
  0.5000138669509582  0.6666847499256079  0.5691223002659882
  0.8343166829171622  0.6666806047608347  0.5686209869991288
  0.1650868667090890  0.3317976158502276  0.3383255466589574
  0.5000075639552364  0.3338545740264394  0.3355595986233908
  0.8349306688687363  0.3317907969335181  0.3383249433414406
  0.1671547037766459  0.6667175652769757  0.3355643143129754
  0.5000066078193655  0.6667026429289606  0.3353697119981476
  0.8328591158880414  0.6667095911938432  0.3355611062015385
  0.1650595202592768  0.0016487936623690  0.3383447745686752
  0.5000013975324507  0.9995516531301050  0.3355631676803768
  0.8349334869154248  0.0016291649350677  0.3383349365238075
  0.1668065714736855  0.3334992590532337  0.8372172707208634
  0.5000034618831393  0.3342395131779057  0.8381360296174449
  0.8331962316429085  0.3334955542447560  0.8372178033891018
  0.1675474178994776  0.6666912236619993  0.8381323444248636
  0.5000005183485783  0.6666930028636102  0.8383156497466970
  0.8324520584865169  0.6666892766723933  0.8381343290442800
  0.1668048664434707  0.9998947735568180  0.8372118230670296
  0.5000026048622956  0.9991560237537698  0.8381336508691746
  0.8331917856361528  0.9998890677998347  0.8372145827012645
  0.3323213251173129  0.1667165496790943  0.1635231476664245
  0.6676586503269277  0.1667113253193264  0.1635230809415731
  0.9999923699346738  0.1667252527930643  0.1617255547638550
  0.3335407554779337  0.5002706095469591  0.1612248290907914
  0.6664481579684107  0.5002657016426397  0.1612246910753115
  0.9999962426719051  0.4990664851382931  0.1635190296915923
  0.3335329287139217  0.8331805954136371  0.1612319832031375
  0.6664505506225495  0.8331686632505679  0.1612288777114728
  0.9999951492229968  0.8343924721843337  0.1635176558296223
  0.3347466577871927  0.1666903177420522  0.6639669232554652
  0.6652897173045815  0.1666867062030377  0.6639668851232727
  0.0000141691197726  0.1666834433941062  0.6632514659969715
  0.3336788998182740  0.5003472762947681  0.6628022809081315
  0.6663481221043597  0.5003445374737936  0.6628010242322588
  0.0000126035973551  0.5014013907767136  0.6639680585527046
  0.3336807681093674  0.8330156700097504  0.6628061665220102
  0.6663427094627039  0.8330117678394870  0.6628050309286095
  0.0000084419402739  0.8319481618778894  0.6639728024543601
  0.1692935382974028  0.1666827446862342  0.5005197557032659
  0.5000126565988197  0.1666897236392444  0.4990067480194540
  0.8307466556406240  0.1666759648811862  0.5005024959245006
  0.1676970956941801  0.5003316111881517  0.4985380662276455
  0.5000157495145388  0.5002210377345051  0.4986490179270717
  0.8323328284793590  0.5003282176982538  0.4985370127182662
  0.1676977698904807  0.8330470582475371  0.4985457797691950
  0.5000133990699069  0.8331533940131521  0.4986567812959493
  0.8323232349458323  0.8330429088998912  0.4985441030911133
  0.1665558895614012  0.1667141334797932  0.9999832938874675
  0.4999924352778393  0.1667108305101763  0.0001232663719435
  0.8334292675115691  0.1667125014483375  0.9999843031399678
  0.1663933618427080  0.4999510123553250  0.0002401537647003
  0.4999932486292167  0.4997880147681286  0.0001807332327246
  0.8335947817062390  0.4999501915142019  0.0002408156524680
  0.1663929049509676  0.8334797593971146  0.0002371512863988
  0.4999918646658088  0.8336404983995536  0.0001778421813867
  0.8335948975921639  0.8334778757009005  0.0002385261445497
  0.9999920185726126  0.0001465425849503  0.9999824560453519
  0.3332286465872727  0.0003111383244629  0.0002414874076564
  0.6667553616706243  0.0003095130588235  0.0002434320067124
  0.9999924789973278  0.3332750325409251  0.9999835600066191
  0.3332296339144207  0.3331091128031218  0.0002424719677165
  0.6667552935642647  0.3331082984221396  0.0002436044298051
  0.9999942975127070  0.6667137394185616  0.0001179086371152
  0.3330686532137719  0.6667142230608576  0.0001758513488355
  0.6669162348658304  0.6667124383681653  0.0001777904098361
  0.0000116192350035  0.9974101413309455  0.5005147708973681
  0.3336529714377505  0.9990070464951160  0.4985426659795351
  0.6663748373422322  0.9990027684604215  0.4985408340566906
  0.0000220891754807  0.3359498188807919  0.5004914761604340
  0.3336520524684232  0.3343820840009144  0.4985385922064367
  0.6663778461456005  0.3343710594760338  0.4985368628046700
  0.0000144002126703  0.6666931792995925  0.4990166563243008
  0.3335470566790164  0.6666889396103315  0.4986584600764203
  0.6664801847771642  0.6666876658040266  0.4986540420068621
 
  0.00000000E+00  0.00000000E+00  0.00000000E+00
  0.00000000E+00  0.00000000E+00  0.00000000E+00
  0.00000000E+00  0.00000000E+00  0.00000000E+00
  0.00000000E+00  0.00000000E+00  0.00000000E+00
  0.00000000E+00  0.00000000E+00  0.00000000E+00
  0.00000000E+00  0.00000000E+00  0.00000000E+00
  0.00000000E+00  0.00000000E+00  0.00000000E+00
  0.00000000E+00  0.00000000E+00  0.00000000E+00
  0.00000000E+00  0.00000000E+00  0.00000000E+00
  0.00000000E+00  0.00000000E+00  0.00000000E+00
  0.00000000E+00  0.00000000E+00  0.00000000E+00
  0.00000000E+00  0.00000000E+00  0.00000000E+00
  0.00000000E+00  0.00000000E+00  0.00000000E+00
  0.00000000E+00  0.00000000E+00  0.00000000E+00
  0.00000000E+00  0.00000000E+00  0.00000000E+00
  0.00000000E+00  0.00000000E+00  0.00000000E+00
  0.00000000E+00  0.00000000E+00  0.00000000E+00
  0.00000000E+00  0.00000000E+00  0.00000000E+00
  0.00000000E+00  0.00000000E+00  0.00000000E+00
  0.00000000E+00  0.00000000E+00  0.00000000E+00
  0.00000000E+00  0.00000000E+00  0.00000000E+00
  0.00000000E+00  0.00000000E+00  0.00000000E+00
  0.00000000E+00  0.00000000E+00  0.00000000E+00
  0.00000000E+00  0.00000000E+00  0.00000000E+00
  0.00000000E+00  0.00000000E+00  0.00000000E+00
  0.00000000E+00  0.00000000E+00  0.00000000E+00
  0.00000000E+00  0.00000000E+00  0.00000000E+00
  0.00000000E+00  0.00000000E+00  0.00000000E+00
  0.00000000E+00  0.00000000E+00  0.00000000E+00
  0.00000000E+00  0.00000000E+00  0.00000000E+00
  0.00000000E+00  0.00000000E+00  0.00000000E+00
  0.00000000E+00  0.00000000E+00  0.00000000E+00
  0.00000000E+00  0.00000000E+00  0.00000000E+00
  0.00000000E+00  0.00000000E+00  0.00000000E+00
  0.00000000E+00  0.00000000E+00  0.00000000E+00
  0.00000000E+00  0.00000000E+00  0.00000000E+00
  0.00000000E+00  0.00000000E+00  0.00000000E+00
  0.00000000E+00  0.00000000E+00  0.00000000E+00
  0.00000000E+00  0.00000000E+00  0.00000000E+00
  0.00000000E+00  0.00000000E+00  0.00000000E+00
  0.00000000E+00  0.00000000E+00  0.00000000E+00
  0.00000000E+00  0.00000000E+00  0.00000000E+00
  0.00000000E+00  0.00000000E+00  0.00000000E+00
  0.00000000E+00  0.00000000E+00  0.00000000E+00
  0.00000000E+00  0.00000000E+00  0.00000000E+00
  0.00000000E+00  0.00000000E+00  0.00000000E+00
  0.00000000E+00  0.00000000E+00  0.00000000E+00
  0.00000000E+00  0.00000000E+00  0.00000000E+00
  0.00000000E+00  0.00000000E+00  0.00000000E+00
  0.00000000E+00  0.00000000E+00  0.00000000E+00
  0.00000000E+00  0.00000000E+00  0.00000000E+00
  0.00000000E+00  0.00000000E+00  0.00000000E+00
  0.00000000E+00  0.00000000E+00  0.00000000E+00
  0.00000000E+00  0.00000000E+00  0.00000000E+00
  0.00000000E+00  0.00000000E+00  0.00000000E+00
  0.00000000E+00  0.00000000E+00  0.00000000E+00
  0.00000000E+00  0.00000000E+00  0.00000000E+00
  0.00000000E+00  0.00000000E+00  0.00000000E+00
  0.00000000E+00  0.00000000E+00  0.00000000E+00
  0.00000000E+00  0.00000000E+00  0.00000000E+00
  0.00000000E+00  0.00000000E+00  0.00000000E+00
  0.00000000E+00  0.00000000E+00  0.00000000E+00
  0.00000000E+00  0.00000000E+00  0.00000000E+00
  0.00000000E+00  0.00000000E+00  0.00000000E+00
  0.00000000E+00  0.00000000E+00  0.00000000E+00
  0.00000000E+00  0.00000000E+00  0.00000000E+00
  0.00000000E+00  0.00000000E+00  0.00000000E+00
  0.00000000E+00  0.00000000E+00  0.00000000E+00
  0.00000000E+00  0.00000000E+00  0.00000000E+00
  0.00000000E+00  0.00000000E+00  0.00000000E+00
  0.00000000E+00  0.00000000E+00  0.00000000E+00
  0.00000000E+00  0.00000000E+00  0.00000000E+00
  0.00000000E+00  0.00000000E+00  0.00000000E+00
  0.00000000E+00  0.00000000E+00  0.00000000E+00
  0.00000000E+00  0.00000000E+00  0.00000000E+00
  0.00000000E+00  0.00000000E+00  0.00000000E+00
  0.00000000E+00  0.00000000E+00  0.00000000E+00
  0.00000000E+00  0.00000000E+00  0.00000000E+00
  0.00000000E+00  0.00000000E+00  0.00000000E+00
  0.00000000E+00  0.00000000E+00  0.00000000E+00
  0.00000000E+00  0.00000000E+00  0.00000000E+00
  0.00000000E+00  0.00000000E+00  0.00000000E+00
  0.00000000E+00  0.00000000E+00  0.00000000E+00
  0.00000000E+00  0.00000000E+00  0.00000000E+00
  0.00000000E+00  0.00000000E+00  0.00000000E+00
  0.00000000E+00  0.00000000E+00  0.00000000E+00
  0.00000000E+00  0.00000000E+00  0.00000000E+00
  0.00000000E+00  0.00000000E+00  0.00000000E+00
  0.00000000E+00  0.00000000E+00  0.00000000E+00
  0.00000000E+00  0.00000000E+00  0.00000000E+00
  0.00000000E+00  0.00000000E+00  0.00000000E+00
  0.00000000E+00  0.00000000E+00  0.00000000E+00
  0.00000000E+00  0.00000000E+00  0.00000000E+00
  0.00000000E+00  0.00000000E+00  0.00000000E+00
  0.00000000E+00  0.00000000E+00  0.00000000E+00
  0.00000000E+00  0.00000000E+00  0.00000000E+00
  0.00000000E+00  0.00000000E+00  0.00000000E+00
  0.00000000E+00  0.00000000E+00  0.00000000E+00
  0.00000000E+00  0.00000000E+00  0.00000000E+00
  0.00000000E+00  0.00000000E+00  0.00000000E+00
  0.00000000E+00  0.00000000E+00  0.00000000E+00
  0.00000000E+00  0.00000000E+00  0.00000000E+00
  0.00000000E+00  0.00000000E+00  0.00000000E+00
  0.00000000E+00  0.00000000E+00  0.00000000E+00
  0.00000000E+00  0.00000000E+00  0.00000000E+00
  0.00000000E+00  0.00000000E+00  0.00000000E+00
  0.00000000E+00  0.00000000E+00  0.00000000E+00
  0.00000000E+00  0.00000000E+00  0.00000000E+00
  0.00000000E+00  0.00000000E+00  0.00000000E+00
  0.00000000E+00  0.00000000E+00  0.00000000E+00
  0.00000000E+00  0.00000000E+00  0.00000000E+00
  0.00000000E+00  0.00000000E+00  0.00000000E+00
  0.00000000E+00  0.00000000E+00  0.00000000E+00
  0.00000000E+00  0.00000000E+00  0.00000000E+00
  0.00000000E+00  0.00000000E+00  0.00000000E+00
  0.00000000E+00  0.00000000E+00  0.00000000E+00
  0.00000000E+00  0.00000000E+00  0.00000000E+00
  0.00000000E+00  0.00000000E+00  0.00000000E+00
  0.00000000E+00  0.00000000E+00  0.00000000E+00
  0.00000000E+00  0.00000000E+00  0.00000000E+00
  0.00000000E+00  0.00000000E+00  0.00000000E+00
  0.00000000E+00  0.00000000E+00  0.00000000E+00
  0.00000000E+00  0.00000000E+00  0.00000000E+00
  0.00000000E+00  0.00000000E+00  0.00000000E+00
  0.00000000E+00  0.00000000E+00  0.00000000E+00
  0.00000000E+00  0.00000000E+00  0.00000000E+00
  0.00000000E+00  0.00000000E+00  0.00000000E+00
  0.00000000E+00  0.00000000E+00  0.00000000E+00
  0.00000000E+00  0.00000000E+00  0.00000000E+00
  0.00000000E+00  0.00000000E+00  0.00000000E+00
  0.00000000E+00  0.00000000E+00  0.00000000E+00
  0.00000000E+00  0.00000000E+00  0.00000000E+00
  0.00000000E+00  0.00000000E+00  0.00000000E+00
  0.00000000E+00  0.00000000E+00  0.00000000E+00
  0.00000000E+00  0.00000000E+00  0.00000000E+00
  0.00000000E+00  0.00000000E+00  0.00000000E+00
  0.00000000E+00  0.00000000E+00  0.00000000E+00
  0.00000000E+00  0.00000000E+00  0.00000000E+00
  0.00000000E+00  0.00000000E+00  0.00000000E+00
  0.00000000E+00  0.00000000E+00  0.00000000E+00
  0.00000000E+00  0.00000000E+00  0.00000000E+00
  0.00000000E+00  0.00000000E+00  0.00000000E+00
  0.00000000E+00  0.00000000E+00  0.00000000E+00
  0.00000000E+00  0.00000000E+00  0.00000000E+00
