Si   N    Li
1.0
  4.627281205623653 -2.6787671212287516 -0.4227621032382644
  -0.002119003620321 5.314157803274799 0.0108460335252
  0.3355209262090761 0.0124902125348449 5.14234635536234
 Si  N  Li 
4 6 2 
direct
   -0.6796984356342647   0.9902633679618588   0.0336318846535022
   -0.3237232788286802   0.6672183057466938   0.8708897211025499
   -0.3202490167081109   0.9875393500255923   0.3673948884401099
   -0.6762293264576725   0.3105714167479050   0.5301228894047654
   -0.0075002140591494   0.7010803549163073   0.9704574316419963
   -0.6185379026003162   0.3027046321233298   0.8714353565328851
   -0.3925622416099941   0.9144558360246646   0.0271398943469237
   -0.9924953866058246   0.2767140360133523   0.4307199293431269
   -0.6073832942331164   0.0633493142344435   0.3738701565307351
   -0.3814009294305549   0.6750826408876736   0.5295750913685636
   -0.9877601600376450   0.3341150229943678   0.9847452020280513
   -0.0124198126874902   0.6435472345740222   0.4156487456445673
