Si   N    Li
1.0
  4.572279005832269 -2.670643974009017 0.0134376508769836
  0.0374094389527435 5.360896981428014 0.007231346625906
  -0.0724209600355916 0.0083231098585981 5.03337986727764
 Si  N  Li 
4 6 2 
direct
   -0.6629570263446710   0.9954007878899206   0.0262583318077105
   -0.3183204233949510   0.6591959098981591   0.8643047669616664
   -0.3336072532745931   0.0000846902441296   0.5257348100979655
   -0.6795111233776082   0.3076948835437321   0.5261503349807769
   -0.9994396776095086   0.7054234852769666   0.9761385000080908
   -0.6241403832175295   0.3093833608833165   0.8811344850821143
   -0.3826184382410673   0.9551948221785055   0.8857892107403913
   -0.0026941237329439   0.2684155366800525   0.4325660773822904
   -0.6071692031702014   0.0487325606963366   0.3777185040018765
   -0.3745206671343341   0.6549537865629916   0.4997774699366246
   -0.9990302891370463   0.3212274271989698   0.0173510844006799
   -0.0159417306729566   0.6409393123527919   0.3925735575722770
