Si   N    Li
1.0
  4.652900820389373 -2.6669395135231855 -0.0195716330852882
  -0.0167519793924824 5.309230172755056 0.0116801920404217
  -0.1219300442751937 0.0134518516139788 5.16749246799727
 Si  N  Li 
4 6 2 
direct
   -0.6798280484896324   0.9902001785906763   0.0337748030451408
   -0.3239332848101029   0.6671031350087873   0.8709910514761247
   -0.3201259728935852   0.9875997308190706   0.3672430982382763
   -0.6760253168803345   0.3106855248698749   0.5300139518621451
   -0.0080151174887959   0.7007023900041390   0.9715193966510755
   -0.6188138161563970   0.3021083862913584   0.8704965692554865
   -0.3931397164892658   0.9136281246489234   0.0279374171620930
   -0.9919797492023930   0.2770906155157107   0.4296247975902503
   -0.6068126254464730   0.0641740140224698   0.3730655683076449
   -0.3811327857071518   0.6756779181545838   0.5305069355835030
   -0.9870904956537530   0.3341351031741127   0.9865016624470683
   -0.0130630676140626   0.6435363922050997   0.4139558448212952
