Si   N    Li                            
   1.00000000000000     
    -0.9389029806763312    0.0044765535420626    4.9327954167379104
    -0.0205903476875241    5.3627723100205813    0.0038947125650191
    -4.5326550104957493    2.6219731097391281   -0.8063694194407603
   Si   N    Li
     4     6     2
Direct
  0.0261982779558068  0.9953506086766311  0.6629885981050450
  0.8646947027121072  0.6592279739614995  0.3183318305076099
  0.5256202521952886  0.9999345323955922  0.3336346592906949
  0.5260443739281229  0.3077606092588923  0.6796534545455515
  0.9754153315916412  0.7056048474718466  0.9991117348776015
  0.8816701893597241  0.3096799314992964  0.6238414654662066
  0.8863109929623079  0.9551417353497129  0.3825057847339934
  0.4326647145714730  0.2681500191252937  0.0029200198756740
  0.3781877352491989  0.0485676873599559  0.6073577573435927
  0.4991042055186199  0.6547527621999905  0.3749843378101261
  0.0169357929652776  0.3214597900125256  0.9989699415142042
  0.3935288792741360  0.6410138555551157  0.0156526213732775
 
  0.00000000E+00  0.00000000E+00  0.00000000E+00
  0.00000000E+00  0.00000000E+00  0.00000000E+00
  0.00000000E+00  0.00000000E+00  0.00000000E+00
  0.00000000E+00  0.00000000E+00  0.00000000E+00
  0.00000000E+00  0.00000000E+00  0.00000000E+00
  0.00000000E+00  0.00000000E+00  0.00000000E+00
  0.00000000E+00  0.00000000E+00  0.00000000E+00
  0.00000000E+00  0.00000000E+00  0.00000000E+00
  0.00000000E+00  0.00000000E+00  0.00000000E+00
  0.00000000E+00  0.00000000E+00  0.00000000E+00
  0.00000000E+00  0.00000000E+00  0.00000000E+00
  0.00000000E+00  0.00000000E+00  0.00000000E+00
