Si   N    Li                            
   1.00000000000000     
     0.6126207060315557    0.0108874807362884    5.1004361676374499
     0.0950484130006924    5.3190394928217435    0.0094557693331638
    -4.5491969765268090    2.7630913981526968    0.6623076734506620
   Si   N    Li
     4     6     2
Direct
  0.0336533027005217  0.9901928870084618  0.6797977312268912
  0.8709177139677919  0.6673033791254355  0.3237649514353151
  0.3673657397830326  0.9876078593508737  0.3201511552022538
  0.5300886085776000  0.3104852932693305  0.6761885810908339
  0.9698309602900466  0.7013758573875535  0.0072809140342400
  0.8723692279783251  0.3032215018017226  0.6185689021409715
  0.0262579938307752  0.9151278848821747  0.3922603261637221
  0.4313342172337045  0.2764164037806509  0.9927143108606771
  0.3747454602499118  0.0626754280319659  0.6076865422748199
  0.5286346546510856  0.6745651273522384  0.3813716110949983
  0.9830952869872576  0.3343156241030698  0.9882588870474791
  0.4173380304443768  0.6433542660344571  0.0119160865620955
 
  0.00000000E+00  0.00000000E+00  0.00000000E+00
  0.00000000E+00  0.00000000E+00  0.00000000E+00
  0.00000000E+00  0.00000000E+00  0.00000000E+00
  0.00000000E+00  0.00000000E+00  0.00000000E+00
  0.00000000E+00  0.00000000E+00  0.00000000E+00
  0.00000000E+00  0.00000000E+00  0.00000000E+00
  0.00000000E+00  0.00000000E+00  0.00000000E+00
  0.00000000E+00  0.00000000E+00  0.00000000E+00
  0.00000000E+00  0.00000000E+00  0.00000000E+00
  0.00000000E+00  0.00000000E+00  0.00000000E+00
  0.00000000E+00  0.00000000E+00  0.00000000E+00
  0.00000000E+00  0.00000000E+00  0.00000000E+00
