Si   N    Li                            
   1.00000000000000     
     0.1819483078636637    0.0128107588945562    5.1507283929073200
    -0.0078068558316673    5.3138112142050131    0.0111240863636073
    -4.6407488115131761    2.6741976135462222    0.2865207692586457
   Si   N    Li
     4     6     2
Direct
  0.0336384893061421  0.9902587049175722  0.6797188672115979
  0.8709180345679144  0.6672114497947845  0.3237567467731566
  0.3673881204149794  0.9875439179396963  0.3202289015585222
  0.5300944304493669  0.3105782748618964  0.6761961723012107
  0.9705759365548374  0.7010638838985130  0.0075577906982360
  0.8713844537657849  0.3026774313480658  0.6185610720854626
  0.0271730192979120  0.9143882684064053  0.3926458707170255
  0.4305997588908212  0.2767305690754895  0.9924376659572403
  0.3738369502551606  0.0634167859468278  0.6072999881823122
  0.5296259201104547  0.6751098413654475  0.3813781315212665
  0.9849017918310210  0.3341208994512073  0.9877041326716594
  0.4154942829425323  0.6435414852478374  0.0124746592087988
 
  0.00000000E+00  0.00000000E+00  0.00000000E+00
  0.00000000E+00  0.00000000E+00  0.00000000E+00
  0.00000000E+00  0.00000000E+00  0.00000000E+00
  0.00000000E+00  0.00000000E+00  0.00000000E+00
  0.00000000E+00  0.00000000E+00  0.00000000E+00
  0.00000000E+00  0.00000000E+00  0.00000000E+00
  0.00000000E+00  0.00000000E+00  0.00000000E+00
  0.00000000E+00  0.00000000E+00  0.00000000E+00
  0.00000000E+00  0.00000000E+00  0.00000000E+00
  0.00000000E+00  0.00000000E+00  0.00000000E+00
  0.00000000E+00  0.00000000E+00  0.00000000E+00
  0.00000000E+00  0.00000000E+00  0.00000000E+00
