Si   N    Li
1.0
  4.625812964477247 -2.650033314709027 0.2467368781904609
  0.0015808435088484 5.2937274426189465 0.0125143505556435
  -0.4096104323134439 0.0144134906931126 5.1926385806322
 Si  N  Li 
4 6 2 
direct
   -0.6824759066684508   0.9874347881693593   0.0275486616455964
   -0.3261987883371376   0.6669175966169760   0.8640527082928814
   -0.3249115012581072   0.9855187557770435   0.3631764192671554
   -0.6811569040420480   0.3083038703001151   0.5267478553555948
   -0.9994769584252341   0.7027012458348664   0.9291678619890434
   -0.6190364665714655   0.3017989790462394   0.8658318817642155
   -0.3918190852960208   0.9125985620591807   0.0270760167581940
   -0.9977207957858312   0.2764429082310187   0.4259480600434672
   -0.6172526033040385   0.0581866976744577   0.3660721641227340
   -0.3901106682156410   0.6738589390152682   0.5272326096641250
   -0.9839294012414044   0.3388812675406712   0.0010610168278831
   -0.9859622145963414   0.6539440190323873   0.4985003371236162
