Si   N    Li
1.0
  4.546847840526284 -2.8005307132107466 -0.5265509817112602
  0.1375088815337698 5.324840777712103 0.0091777164947566
  0.4648568689962212 0.0105669343765771 5.09205413009248
 Si  N  Li 
4 6 2 
direct
   -0.6796611247602797   0.9903030594100809   0.0335098202210418
   -0.3235785405750775   0.6674965174418475   0.8709686426611043
   -0.3201956872041337   0.9875561898802728   0.3676642395162020
   -0.6762917887693761   0.3103233584714715   0.5301624469355843
   -0.0067679264870932   0.7019544724698575   0.9690022725458575
   -0.6182597613132188   0.3041351725623612   0.8738314573520327
   -0.3916726342546752   0.9162862036941561   0.0249891686916897
   -0.9932438315662608   0.2758613838677986   0.4326718041076062
   -0.6081399099494007   0.0616367205864704   0.3760754391349081
   -0.3815706604825381   0.6736701636381141   0.5272718772579309
   -0.9891609681870792   0.3342826132218163   0.9808434429250565
   -0.0114171655853923   0.6431356568838352   0.4186405853451802
