Si   N    Li
1.0
  4.640748811513176 -2.674197613546222 -0.2865207692586457
  -0.0078068558316673 5.313811214205013 0.0111240863636073
  0.1819483078636637 0.0128107588945562 5.15072839290732
 Si  N  Li 
4 6 2 
direct
   -0.6797188672115979   0.9902587049175724   0.0336384893061421
   -0.3237567467731565   0.6672114497947846   0.8709180345679142
   -0.3202289015585221   0.9875439179396963   0.3673881204149794
   -0.6761961723012107   0.3105782748618964   0.5300944304493668
   -0.0075577906982360   0.7010638838985130   0.9705759365548373
   -0.6185610720854625   0.3026774313480659   0.8713844537657848
   -0.3926458707170255   0.9143882684064054   0.0271730192979120
   -0.9924376659572403   0.2767305690754894   0.4305997588908211
   -0.6072999881823122   0.0634167859468279   0.3738369502551606
   -0.3813781315212664   0.6751098413654475   0.5296259201104547
   -0.9877041326716594   0.3341208994512076   0.9849017918310208
   -0.0124746592087988   0.6435414852478374   0.4154942829425323
