Si   N    Li
1.0
  4.611463500920656 -2.679173927114551 -0.5611315465571178
  -0.0010856415944741 5.3130915297041375 0.0105679806867928
  0.4905077816607166 0.0121696661751336 5.13396431781736
 Si  N  Li 
4 6 2 
direct
   -0.6796946126023188   0.9902576811430065   0.0336627250346382
   -0.3237217968080515   0.6671930423993543   0.8708690308519139
   -0.3202526846974862   0.9875454320495579   0.3673649191497077
   -0.6762306834713172   0.3105969592351485   0.5301442564832898
   -0.0075601374102590   0.7009855056620822   0.9705959681183672
   -0.6185760925258919   0.3025572819625779   0.8712129431580494
   -0.3925944611609395   0.9143071611165539   0.0273513242671442
   -0.9924355868160077   0.2768091261877856   0.4305827315002588
   -0.6073508444931761   0.0634984866641872   0.3736593464979947
   -0.3813625769660193   0.6752301867008796   0.5297981955153048
   -0.9876411928153460   0.3341015629381232   0.9850582605049995
   -0.0125393291554659   0.6435590861754291   0.4153314919277875
