Si   N    Li
1.0
  4.580437026623517 -2.6923812225048476 0.3839212354663972
  0.0474626950570014 5.382769490129239 0.0022263955345757
  -0.4718318961873872 0.0025532753837948 4.88250319146805
 Si  N  Li 
4 6 2 
direct
   -0.6637339414510918   0.9943308838556248   0.0247302250340624
   -0.3188259123299844   0.6593635397861418   0.8680308740730991
   -0.3337501754604588   0.9987760980139768   0.5233324151111418
   -0.6804217986559067   0.3086353670747783   0.5238357221506149
   -0.9969510415510144   0.7066790005358642   0.9678272544965266
   -0.6216953872782439   0.3117013079882798   0.8856423268024116
   -0.3820512774859636   0.9539730320242228   0.8903528243503230
   -0.0040329609179324   0.2666827966302776   0.4326607340713053
   -0.6088802436459488   0.0473568615470158   0.3818066050687179
   -0.3783707516588706   0.6537910598308301   0.4919124129427744
   -0.9987109322907840   0.3235945051815391   0.0117779857174369
   -0.0125355928082342   0.6417570585305725   0.4037134683863500
