Si   N    Li
1.0
  4.6118801640394995 -2.689920355984948 0.3421004792824567
  0.0253691756613695 5.288590848383623 0.0130704562324579
  -0.5372406717995063 0.0150545834125352 5.20940265572215
 Si  N  Li 
4 6 2 
direct
   -0.6811308133816781   0.9888253003172308   0.0240637637788410
   -0.3252121740001499   0.6665302765390493   0.8609871994830556
   -0.3220598178648189   0.9868330123151736   0.3576069901170982
   -0.6777585187826602   0.3101352421886787   0.5213807426602629
   -0.0059940919250252   0.6998093861937632   0.9501089576422643
   -0.6194884920893529   0.3000922621028791   0.8582700713538642
   -0.3939333876299145   0.9107923703616906   0.0228022204094529
   -0.9932277797115888   0.2773235265842614   0.4183815802264094
   -0.6098167555020453   0.0641533258309011   0.3603027021860115
   -0.3843516593274003   0.6768235457993653   0.5245863279614512
   -0.9842858570548997   0.3354625147612750   0.9890504941566010
   -0.0038444399904805   0.6493295118256837   0.4347371634315493
