Si   N    Li
1.0
  4.611786466117925 -2.6658408814556203 -0.5445502371801262
  -0.0013630529073895 5.314197697440813 0.0102899278483856
  0.4861202883503775 0.0118491198154223 5.12558228027238
 Si  N  Li 
4 6 2 
direct
   -0.6812615178277639   0.9885833756487516   0.0288104226817438
   -0.3249839846849767   0.6672312730297209   0.8660870141654869
   -0.3231876644133749   0.9862169792868943   0.3641988952576510
   -0.6793385813371273   0.3090382606381183   0.5274324177016183
   -0.0021427343169407   0.7025757452434293   0.9428497708750996
   -0.6185467613276786   0.3033742559765287   0.8693155212818695
   -0.3915673854589983   0.9149257326171850   0.0242962372629520
   -0.9959527258948526   0.2753907058894215   0.4278224564687818
   -0.6136560559376605   0.0589520565386792   0.3703169896230704
   -0.3868252109194259   0.6731091383162211   0.5251445529468198
   -0.9860535458645784   0.3369202295921739   0.9922784457673971
   -0.9964438309471930   0.6503237594532723   0.4670784692485057
