Si   N    Li
1.0
  4.602025668842234 -2.680917531518814 0.3525303353641294
  0.0351833313611196 5.287630496768671 0.0127924033940507
  -0.5373936056855312 0.0147340370528239 5.20102061817718
 Si  N  Li 
4 6 2 
direct
   -0.6823207929681557   0.9874470440126186   0.0198045694558004
   -0.3261148954863557   0.6667216936647264   0.8564435779591477
   -0.3246688417815164   0.9857109129671783   0.3552018796182921
   -0.6807635831789298   0.3086666247610809   0.5188902100910937
   -0.0003514498496955   0.7018635521595370   0.9242327347468875
   -0.6190996180752890   0.3010331820802392   0.8567583296427871
   -0.3923487551107243   0.9115827963012108   0.0202730593394520
   -0.9970243142699501   0.2768025916757750   0.4173447832255022
   -0.6162113810073038   0.0595465730253650   0.3572357939927430
   -0.3894898515968279   0.6748128224619451   0.5205968259575613
   -0.9836522602888209   0.3382000947793598   0.9932047832694053
   -0.9890482334710881   0.6537270150144180   0.4829676852518432
