Si   N    Li
1.0
  4.549196976526809 -2.7630913981526968 -0.662307673450662
  0.0950484130006924 5.3190394928217435 0.0094557693331638
  0.6126207060315557 0.0108874807362884 5.10043616763745
 Si  N  Li 
4 6 2 
direct
   -0.6797977312268912   0.9901928870084618   0.0336533027005217
   -0.3237649514353151   0.6673033791254355   0.8709177139677919
   -0.3201511552022538   0.9876078593508735   0.3673657397830327
   -0.6761885810908338   0.3104852932693305   0.5300886085776000
   -0.0072809140342400   0.7013758573875535   0.9698309602900467
   -0.6185689021409714   0.3032215018017225   0.8723692279783251
   -0.3922603261637220   0.9151278848821746   0.0262579938307752
   -0.9927143108606771   0.2764164037806509   0.4313342172337046
   -0.6076865422748199   0.0626754280319658   0.3747454602499118
   -0.3813716110949983   0.6745651273522382   0.5286346546510856
   -0.9882588870474789   0.3343156241030697   0.9830952869872578
   -0.0119160865620955   0.6433542660344570   0.4173380304443768
