Si   N    Li
1.0
  4.599843221774537 -2.634306159929711 -0.1408895676315025
  -0.008749748445692 5.366851296725017 0.006119135272277
  0.0973031460618601 0.0070409244197529 4.99985171709773
 Si  N  Li 
4 6 2 
direct
   -0.6631764327880559   0.9950973505255618   0.0259648379280577
   -0.3184371310481993   0.6592112662201403   0.8651352859115491
   -0.3336343774804575   0.9997983253478611   0.5251484841350518
   -0.6797115723147016   0.3079780119904569   0.5256015073246942
   -0.9988304852067528   0.7056978491431849   0.9742026117327499
   -0.6235573026433555   0.3099165109925012   0.8822486729892135
   -0.3824430222695980   0.9548641652815916   0.8869400251426072
   -0.0029501507859635   0.2680839882553911   0.4325075829246786
   -0.6076027846400506   0.0484140125892836   0.3787463013508869
   -0.3754313470049767   0.6547566081874833   0.4978152015136956
   -0.9989576521389265   0.3217897514720607   0.0159770372893533
   -0.0151918262152648   0.6410519938697732   0.3949638271271567
