Si   N    Li
1.0
  4.481741420532182 -2.781924688514725 -0.3866513838423462
  0.1704221759188853 5.352504389569668 0.0080655051411277
  0.3680324974108241 0.009284748937732 5.05852597991257
 Si  N  Li 
4 6 2 
direct
   -0.6628309446322049   0.9953891150426274   0.0265776375655449
   -0.3183764362067691   0.6590809294393833   0.8636731091285129
   -0.3334223861890848   0.0005720234199487   0.5261046302252694
   -0.6790704583119832   0.3074806973302984   0.5266480512118292
   -0.0003436734864266   0.7049115302804337   0.9784348395353819
   -0.6248476165158436   0.3085084458007402   0.8797521100379202
   -0.3830901431918647   0.9551531761877852   0.8847997942170523
   -0.0021210581478570   0.2690792904283512   0.4326318599186294
   -0.6065929405082997   0.0493617536435806   0.3765499895352562
   -0.3733287837932124   0.6555093566334236   0.5021175747109082
   -0.9990800785729448   0.3207133427538978   0.0179755511556152
   -0.0168554795781120   0.6408818511676059   0.3903660494522825
