Si   N    Li                            
   1.00000000000000     
    -0.2231481708737254    0.0006299972255271    4.8322109661981898
     0.0255590778146294    5.3277811002665532    0.0005580785041323
    -4.6201390580381831    2.6858336126719626   -0.2151928247385347
   Si   N    Li
     4     6     2
Direct
  0.0119111127794653  0.9918469127909830  0.6679978853067752
  0.0118471663875965  0.6598340089035801  0.3320022466679262
  0.5118837342383600  0.9859221516922716  0.3320081863747575
  0.5119182520563896  0.3179262176308271  0.6680224058938009
  0.9339605740702410  0.7152664462566065  0.9999589909166531
  0.8722946748973399  0.3266013050651324  0.6026155025984536
  0.8722938266564100  0.9292263481187035  0.3973552672622631
  0.4338686293715028  0.2624522864464680  0.9999980080933071
  0.3722888308116694  0.0485996130393005  0.6025760419633954
  0.3722862227169941  0.6511733827168626  0.3974195061310795
  0.0004133792562229  0.3291114284265291  0.0000000919499286
  0.4997930637054324  0.6486693997855539  0.0000312011061467
 
  0.00000000E+00  0.00000000E+00  0.00000000E+00
  0.00000000E+00  0.00000000E+00  0.00000000E+00
  0.00000000E+00  0.00000000E+00  0.00000000E+00
  0.00000000E+00  0.00000000E+00  0.00000000E+00
  0.00000000E+00  0.00000000E+00  0.00000000E+00
  0.00000000E+00  0.00000000E+00  0.00000000E+00
  0.00000000E+00  0.00000000E+00  0.00000000E+00
  0.00000000E+00  0.00000000E+00  0.00000000E+00
  0.00000000E+00  0.00000000E+00  0.00000000E+00
  0.00000000E+00  0.00000000E+00  0.00000000E+00
  0.00000000E+00  0.00000000E+00  0.00000000E+00
  0.00000000E+00  0.00000000E+00  0.00000000E+00
