Si   N    Li
1.0
  4.634667445418879 -2.6719923174243725 0.1068999655282302
  0.0080460601847797 5.329977775040423 0.000280025665725
  -0.1107856153033069 0.0003094508658158 4.82382892865321
 Si  N  Li 
4 6 2 
direct
   -0.6681298883827083   0.9917138319497028   0.0096648915846984
   -0.3319125428819305   0.6598222594580676   0.0096528019762729
   -0.3319116919632065   0.9860264421179395   0.5096485851491580
   -0.6681308037466849   0.3179168731940152   0.5096607438131785
   -0.0000118892878120   0.7153294564054847   0.9315805414943129
   -0.6026138641226381   0.3265734509923277   0.8705104992259579
   -0.3974201465618278   0.9291672818722388   0.8705084289017010
   -0.0000122698632126   0.2624292144279465   0.4315748378464194
   -0.6026209879057730   0.0485761307975068   0.3705118485047195
   -0.3974140508863400   0.6511828148112569   0.3705094056603997
   -0.0000200600305931   0.3291759760141916   0.9974196456652893
   -0.0000173277612276   0.6486180195159222   0.4974293167808241
