Si   N    Li                            
   1.00000000000000     
    -0.3383920502990400    0.0156956761319578    5.2261667308120900
    -0.0255522963533408    5.2892208004101402    0.0136265619092724
    -4.6476100376772695    2.6579969371921899   -0.1566079537502300
   Si   N    Li
     4     6     2
Direct
  0.0399656565858137  0.9898488480681991  0.6801891576593349
  0.8767925198383395  0.6665929317444466  0.3245294000447672
  0.3723697568300608  0.9878079742536698  0.3199650318351956
  0.5355867952690687  0.3111102409020958  0.6756029604663780
  0.9799198426412801  0.6990894045392935  0.0095368712928448
  0.8723682388977352  0.2995271933316346  0.6197565956262352
  0.0371508798012528  0.9104196478112527  0.3947792772610512
  0.4320243516193116  0.2786189380675168  0.9904549292685161
  0.3752608013577685  0.0671988503193859  0.6054081626244638
  0.5400227719180251  0.6781921942473872  0.3804104449385690
  0.9985466090213890  0.3341832999100802  0.9845070063165480
  0.4153871302464154  0.6440280535179923  0.0147807953529124
 
  0.00000000E+00  0.00000000E+00  0.00000000E+00
  0.00000000E+00  0.00000000E+00  0.00000000E+00
  0.00000000E+00  0.00000000E+00  0.00000000E+00
  0.00000000E+00  0.00000000E+00  0.00000000E+00
  0.00000000E+00  0.00000000E+00  0.00000000E+00
  0.00000000E+00  0.00000000E+00  0.00000000E+00
  0.00000000E+00  0.00000000E+00  0.00000000E+00
  0.00000000E+00  0.00000000E+00  0.00000000E+00
  0.00000000E+00  0.00000000E+00  0.00000000E+00
  0.00000000E+00  0.00000000E+00  0.00000000E+00
  0.00000000E+00  0.00000000E+00  0.00000000E+00
  0.00000000E+00  0.00000000E+00  0.00000000E+00
