Si   N    Li
1.0
  4.5103455679430455 -2.7534168568691157 -0.2511154103755812
  0.1369611864981138 5.356199631803351 0.0077874523027204
  0.2199052167036453 0.0089642025780207 5.05014394236759
 Si  N  Li 
4 6 2 
direct
   -0.6628615640533581   0.9954487284331466   0.0264543033854849
   -0.3183036357071103   0.6590902667089937   0.8638324787412869
   -0.3335537029158219   0.0003664275108690   0.5260846411376008
   -0.6792747205421178   0.3076189382423992   0.5264044746041704
   -0.9999044876827058   0.7051159140532237   0.9774554033752807
   -0.6245756842799892   0.3088970475643862   0.8803451806835980
   -0.3828344483087918   0.9552087807124113   0.8850857717353761
   -0.0024161039835704   0.2688184717757666   0.4325759898687451
   -0.6068617170206210   0.0490865279689601   0.3770535564910559
   -0.3738116151883731   0.6552970240013779   0.5010226288532990
   -0.9991156027628705   0.3208056543600081   0.0181496457563242
   -0.0164467166891740   0.6408877307965000   0.3911671220620221
