Si   N    Li
1.0
  4.651223055089239 -2.6654388061224847 0.1114306724697897
  -0.01872330550601 5.305050918124528 0.011958244878829
  -0.2729704714040767 0.01377239797369 5.17587450554225
 Si  N  Li 
4 6 2 
direct
   -0.6799095038014684   0.9901437082392377   0.0338934972929934
   -0.3240691045170934   0.6670013093314964   0.8710294116944011
   -0.3200525039025237   0.9876519636422005   0.3671109140047121
   -0.6758966069443771   0.3107852761902450   0.5299642135002215
   -0.0083990831739484   0.7003612988006792   0.9722882545781670
   -0.6190341625907506   0.3015685629281037   0.8696745889551208
   -0.3935324106240116   0.9129455292338661   0.0286580546274706
   -0.9915954911358682   0.2774287453039931   0.4288159213583426
   -0.6064281976671423   0.0648520711759986   0.3723339577818479
   -0.3809218818510728   0.6762159463187841   0.5313180451759791
   -0.9865492028015765   0.3341385263179005   0.9878892996630311
   -0.0135718472909829   0.6435485760984463   0.4126548983541837
