Si   N    Li
1.0
  4.600119580826094 -2.6419442311802595 -0.0097858145919603
  -0.0008535151197071 5.368417984848512 0.0058410824338698
  -0.0458371062224305 0.0067203780600416 4.9914696795527504
 Si  N  Li 
4 6 2 
direct
   -0.6632253562582305   0.9950142429625901   0.0258811480647623
   -0.3184685569983968   0.6592105517683180   0.8653944456462169
   -0.3336452526293741   0.9997166795238072   0.5250025441948125
   -0.6797758034735820   0.3080556633850903   0.5254490724933092
   -0.9986405274469731   0.7057821670451857   0.9736553692829730
   -0.6233780216691116   0.3100749388691780   0.8825690764590063
   -0.3823991246536877   0.9547652913647294   0.8872788099389124
   -0.0030535026729339   0.2679678475952088   0.4325196808348720
   -0.6077281271387064   0.0483317809337152   0.3790431850540443
   -0.3757079837703756   0.6546880925600148   0.4972776634092071
   -0.9989315679043500   0.3219450502556569   0.0155942120425721
   -0.0149826207887997   0.6411013161272904   0.3956714761900031
