Si   N    Li
1.0
  4.641878692064702 -2.658945791880448 0.1767059753429883
  -0.0086058932870664 5.300704815430269 0.0122362977172362
  -0.33655567755442 0.0140929443334013 5.18425654308722
 Si  N  Li 
4 6 2 
direct
   -0.6812366040214926   0.9886852142616219   0.0298253902138512
   -0.3251423947420804   0.6669208567612445   0.8669171338113131
   -0.3225779992835668   0.9865204807716382   0.3642232722668624
   -0.6784896396040878   0.3095776317321040   0.5277884481088861
   -0.0038927993110676   0.7012551457733451   0.9493226797439364
   -0.6189602223640521   0.3017930908415706   0.8670794482846843
   -0.3927949203160850   0.9127673313943989   0.0270854945502208
   -0.9945760995399269   0.2763064497826662   0.4263344459930991
   -0.6117084460880803   0.0615825448207589   0.3685852271790112
   -0.3856997962253885   0.6749622004778858   0.5283707435816681
   -0.9850566275704437   0.3362835308294549   0.9944136048135022
   -0.9998244472052065   0.6499870361504635   0.4556851629284537
