Si   N    Li                            
   1.00000000000000     
    -0.1107856153033069    0.0003094508658158    4.8238289286532101
     0.0080460601847797    5.3299777750404234    0.0002800256657250
    -4.6346674454188790    2.6719923174243725   -0.1068999655282302
   Si   N    Li
     4     6     2
Direct
  0.0096648915846984  0.9917138319497028  0.6681298883827083
  0.0096528019762729  0.6598222594580676  0.3319125428819305
  0.5096485851491579  0.9860264421179394  0.3319116919632066
  0.5096607438131784  0.3179168731940152  0.6681308037466849
  0.9315805414943128  0.7153294564054846  0.0000118892878120
  0.8705104992259578  0.3265734509923277  0.6026138641226382
  0.8705084289017009  0.9291672818722390  0.3974201465618279
  0.4315748378464193  0.2624292144279465  0.0000122698632126
  0.3705118485047194  0.0485761307975068  0.6026209879057731
  0.3705094056603997  0.6511828148112571  0.3974140508863400
  0.9974196456652891  0.3291759760141915  0.0000200600305931
  0.4974293167808241  0.6486180195159221  0.0000173277612276
 
  0.00000000E+00  0.00000000E+00  0.00000000E+00
  0.00000000E+00  0.00000000E+00  0.00000000E+00
  0.00000000E+00  0.00000000E+00  0.00000000E+00
  0.00000000E+00  0.00000000E+00  0.00000000E+00
  0.00000000E+00  0.00000000E+00  0.00000000E+00
  0.00000000E+00  0.00000000E+00  0.00000000E+00
  0.00000000E+00  0.00000000E+00  0.00000000E+00
  0.00000000E+00  0.00000000E+00  0.00000000E+00
  0.00000000E+00  0.00000000E+00  0.00000000E+00
  0.00000000E+00  0.00000000E+00  0.00000000E+00
  0.00000000E+00  0.00000000E+00  0.00000000E+00
  0.00000000E+00  0.00000000E+00  0.00000000E+00
