Si   N    Li
1.0
  4.527320643261014 -2.744735961585954 -0.2046640628843807
  0.1229262211193756 5.36261735250891 0.0066752409490915
  0.168446632979241 0.0076820171391755 5.01661579218768
 Si  N  Li 
4 6 2 
direct
   -0.6630658029263188   0.9951825789624917   0.0260309244574515
   -0.3183883439631288   0.6591421534905918   0.8645466538397529
   -0.3335876548029120   0.0000334756292588   0.5253488392399248
   -0.6795196168215228   0.3078988981931159   0.5257347384908116
   -0.9991913550211891   0.7054719223009014   0.9752303571618840
   -0.6239031210820017   0.3095299115676581   0.8814336921149605
   -0.3825826833481615   0.9549324224260614   0.8861798331059562
   -0.0027239278257767   0.2683968592561428   0.4323849920946117
   -0.6073312511076665   0.0486993817490741   0.3780263077712220
   -0.3748374252495452   0.6550182713744945   0.4987951233034522
   -0.9990111634931936   0.3214385887844100   0.0165785108077898
   -0.0156161480335939   0.6410011970860197   0.3935364990287979
