Si   N    Li
1.0
  4.596360511563279 -2.648516594478042 0.1178997453693466
  0.0062527988368768 5.369208553390657 0.0055630295954625
  -0.1852457390759924 0.0063998317003303 4.98308764200778
 Si  N  Li 
4 6 2 
direct
   -0.6632383132415427   0.9949835988840191   0.0258244925261266
   -0.3184781958556187   0.6592210381117667   0.8655436807898770
   -0.3336567877372190   0.9996607722571796   0.5249272287937075
   -0.6798295242632690   0.3080846822872160   0.5253673971391707
   -0.9985165332707523   0.7058427268122713   0.9733268564651639
   -0.6232619316204477   0.3101837853330665   0.8827596321693890
   -0.3823651152655003   0.9547277253452079   0.8874733913969735
   -0.0031388555310556   0.2678716742061624   0.4325355818483204
   -0.6078036138671266   0.0482738999682297   0.3792133808767774
   -0.3758886139632979   0.6546214214414333   0.4969717149288043
   -0.9989029121224248   0.3220426818098188   0.0153816692878195
   -0.0148639607032095   0.6411356252232493   0.3960762230884641
