Si   N    Li
1.0
  4.6096148690707235 -2.688214986539293 0.2433878060599795
  0.0398723029886639 5.346998031720654 0.0008361313425395
  -0.272134348298187 0.0009505435852384 4.84059300374317
 Si  N  Li 
4 6 2 
direct
   -0.6664099626225165   0.9931496673100214   0.0171415707777030
   -0.3300543185049207   0.6597771069129620   0.9990685029223911
   -0.3329074737908755   0.9869244219016621   0.5145483570691239
   -0.6708930829819053   0.3186597907153724   0.5142308951007876
   -0.9961853265490960   0.7106466509138016   0.9421075917969689
   -0.6096664625443182   0.3236927715835805   0.8765901648692490
   -0.3902512965475751   0.9378989017729109   0.8778875786399283
   -0.0027541128486419   0.2628945704229722   0.4332942982618562
   -0.6053570639240320   0.0486223203096188   0.3769947614380699
   -0.3926523239739410   0.6516495998446813   0.3857217614103874
   -0.9998403938328835   0.3260774175621249   0.0070346374454999
   -0.0029881974142043   0.6466482917493082   0.4610027284726144
