Si   N    Li
1.0
  4.578399529118665 -2.6576977219712514 0.3630193327563633
  0.0170954726412496 5.36874584015045 0.0050069239186481
  -0.4532869949644002 0.0057587389809078 4.96632356691782
 Si  N  Li 
4 6 2 
direct
   -0.6631827469632795   0.9950559830146944   0.0258080241758023
   -0.3184459728527074   0.6592667504414892   0.8655442292466591
   -0.3336743538104939   0.9996250500509876   0.5249698945757403
   -0.6798917064732635   0.3080222638526139   0.5254045143761630
   -0.9984667516634784   0.7058883441534933   0.9733072005023544
   -0.6232230950754244   0.3102510579865267   0.8827895317702144
   -0.3823259570310212   0.9548150529993437   0.8874701634758964
   -0.0032313723864448   0.2677617101445975   0.4325690610259514
   -0.6078138290011167   0.0482278173195142   0.3792144642487187
   -0.3759611507823166   0.6545149017797983   0.4970054608127440
   -0.9988542766768943   0.3220687845503677   0.0154428501962229
   -0.0148854703102685   0.6411456257949837   0.3960171175850178
