Si   N    Li                            
   1.00000000000000     
    -1.0491457654185061    0.0041560071823513    4.9244133791929396
     0.0290791283021020    5.3595232799739323    0.0036166597266119
    -4.4871277311224480    2.6630500963726340   -0.9028832715040026
   Si   N    Li
     4     6     2
Direct
  0.0262154367676146  0.9957074692800063  0.6628534337067435
  0.8642586032718071  0.6594282476210083  0.3182128213522830
  0.5257861122969842  0.9998832467120806  0.3336726680420199
  0.5263425808877003  0.3074379339089646  0.6797208136272630
  0.9760046169162635  0.7056501051497364  0.9993644203118635
  0.8813015079662350  0.3096491638847567  0.6240644671406059
  0.8857246930561047  0.9556079098676094  0.3824448999031560
  0.4326491043756207  0.2680555074610922  0.0028848915858148
  0.3777508243091035  0.0484206984396280  0.6072017807693513
  0.4998479696078917  0.6545225877234984  0.3747059858059174
  0.0175193452822668  0.3213782020790816  0.9989193156159359
  0.3924084024159953  0.6409031938259560  0.0159084406905095
 
  0.00000000E+00  0.00000000E+00  0.00000000E+00
  0.00000000E+00  0.00000000E+00  0.00000000E+00
  0.00000000E+00  0.00000000E+00  0.00000000E+00
  0.00000000E+00  0.00000000E+00  0.00000000E+00
  0.00000000E+00  0.00000000E+00  0.00000000E+00
  0.00000000E+00  0.00000000E+00  0.00000000E+00
  0.00000000E+00  0.00000000E+00  0.00000000E+00
  0.00000000E+00  0.00000000E+00  0.00000000E+00
  0.00000000E+00  0.00000000E+00  0.00000000E+00
  0.00000000E+00  0.00000000E+00  0.00000000E+00
  0.00000000E+00  0.00000000E+00  0.00000000E+00
  0.00000000E+00  0.00000000E+00  0.00000000E+00
