Si   N    Li
1.0
  4.509706479206862 -2.805134139437609 -0.4674251472913241
  0.1714282499137091 5.3495830433694085 0.0083435579795349
  0.4148644315362155 0.0096052952974433 5.06690801745755
 Si  N  Li 
4 6 2 
direct
   -0.6669458920990294   0.9911850657234637   0.0247953580895128
   -0.3213096268745375   0.6641433502908570   0.8703145612936611
   -0.3284554907644974   0.9983941076502348   0.4899016909484715
   -0.6774016813832021   0.3066155101686051   0.5312032902575153
   -0.0038669241625300   0.7036590901019651   0.9767495222057860
   -0.6232557954868625   0.3078354583760687   0.8795263241105218
   -0.3826372523986096   0.9494558649604558   0.9181663186739540
   -0.9961599709929628   0.2735256761670613   0.4324000869791931
   -0.6098769689354171   0.0497563177910010   0.3773204999685049
   -0.3751936179634329   0.6558858129339954   0.5070282801565114
   -0.9981464619635361   0.3241058014306760   0.0041720101163847
   -0.0167103161100286   0.6420794565336863   0.3940532538941923
