Si   N    Li
1.0
  4.5284616114724905 -2.6642882128879672 0.7049415281657904
  0.0276262925723315 5.364040553605539 0.0041727654034263
  -0.8295601975483766 0.0047970999017739 4.94117745428289
 Si  N  Li 
4 6 2 
direct
   -0.6629814564718686   0.9954106478696686   0.0260048067571290
   -0.3183101008521518   0.6593687556729434   0.8649120843437573
   -0.3336859787401777   0.9997362619856387   0.5254014459743246
   -0.6798505771676701   0.3077054390513182   0.5258819822949831
   -0.9988587877987812   0.7057914277629536   0.9746098489266470
   -0.6236018652241596   0.3099967563797533   0.8820841962371870
   -0.3823539973755813   0.9552470811571607   0.8866294038440471
   -0.0031261908025826   0.2678396258934015   0.4326182422460008
   -0.6075275960570039   0.0483039538110716   0.3785060076506496
   -0.3754063211105461   0.6544633720845638   0.4984011502424224
   -0.9988469410428279   0.3217480470984880   0.0164983600710755
   -0.0154091540455426   0.6410305260443252   0.3942056979389362
