Si   N    Li                            
   1.00000000000000     
     0.4861202883503775    0.0118491198154223    5.1255822802723801
    -0.0013630529073895    5.3141976974408127    0.0102899278483856
    -4.6117864661179251    2.6658408814556203    0.5445502371801262
   Si   N    Li
     4     6     2
Direct
  0.0288104226817438  0.9885833756487514  0.6812615178277639
  0.8660870141654868  0.6672312730297207  0.3249839846849767
  0.3641988952576511  0.9862169792868940  0.3231876644133749
  0.5274324177016183  0.3090382606381183  0.6793385813371273
  0.9428497708750996  0.7025757452434291  0.0021427343169407
  0.8693155212818695  0.3033742559765287  0.6185467613276785
  0.0242962372629520  0.9149257326171849  0.3915673854589983
  0.4278224564687818  0.2753907058894214  0.9959527258948526
  0.3703169896230705  0.0589520565386792  0.6136560559376605
  0.5251445529468199  0.6731091383162209  0.3868252109194259
  0.9922784457673970  0.3369202295921738  0.9860535458645785
  0.4670784692485057  0.6503237594532720  0.9964438309471930
 
  0.00000000E+00  0.00000000E+00  0.00000000E+00
  0.00000000E+00  0.00000000E+00  0.00000000E+00
  0.00000000E+00  0.00000000E+00  0.00000000E+00
  0.00000000E+00  0.00000000E+00  0.00000000E+00
  0.00000000E+00  0.00000000E+00  0.00000000E+00
  0.00000000E+00  0.00000000E+00  0.00000000E+00
  0.00000000E+00  0.00000000E+00  0.00000000E+00
  0.00000000E+00  0.00000000E+00  0.00000000E+00
  0.00000000E+00  0.00000000E+00  0.00000000E+00
  0.00000000E+00  0.00000000E+00  0.00000000E+00
  0.00000000E+00  0.00000000E+00  0.00000000E+00
  0.00000000E+00  0.00000000E+00  0.00000000E+00
