Si   N    Li
1.0
  4.589138355562486 -2.6535337176911282 0.2421952178560776
  0.0119746906378876 5.369285356749098 0.0052849767570553
  -0.3210517351410584 0.006079285340619 4.9747056044628
 Si  N  Li 
4 6 2 
direct
   -0.6632223795386950   0.9949992789621546   0.0258005436705702
   -0.3184699751154412   0.6592402295924343   0.8655919176963495
   -0.3336657300497521   0.9996313633948827   0.5249188912578120
   -0.6798681135538943   0.3080720003905028   0.5253541855437405
   -0.9984600541040438   0.7058768586789979   0.9732188940721330
   -0.6232124556207310   0.3102416394648769   0.8828302886840121
   -0.3823405326611606   0.9547468907154267   0.8875338374198448
   -0.0031985003990513   0.2678033221452267   0.4325521615437609
   -0.6078306430816838   0.0482401233009355   0.3792673081662059
   -0.3759701987390828   0.6545631834389098   0.4968880587510752
   -0.9988762662368487   0.3220815041469364   0.0153381792125984
   -0.0148367596869505   0.6411495549931557   0.3961786058865471
