Si   N    Li
1.0
  4.548538225971662 -2.661778538187446 0.5943153193542167
  0.0234347144071828 5.366091868470266 0.0044508182418336
  -0.7073338490029846 0.0051176462614852 4.94955949182787
 Si  N  Li 
4 6 2 
direct
   -0.6630580741612847   0.9952625883067158   0.0259141439565624
   -0.3183638618040874   0.6593294630678914   0.8651973096669536
   -0.3336854924402388   0.9996813904876235   0.5252180250888685
   -0.6798829615547248   0.3078379072673342   0.5256728909905775
   -0.9986665993547135   0.7058413170301849   0.9740194659913686
   -0.6234197790733162   0.3101240700229014   0.8824071119269448
   -0.3823331161982111   0.9550655511572329   0.8870111371227763
   -0.0031968062159038   0.2677817368475672   0.4326016057070561
   -0.6076606942099688   0.0482656282656251   0.3788256104890664
   -0.3756760535316914   0.6544681716611009   0.4977780323046234
   -0.9988378314606550   0.3218971200827311   0.0160356862407269
   -0.0151797006509895   0.6410860593655627   0.3950096575557255
