Si   N    Li
1.0
  4.610259832085845 -2.6980458242611576 0.2259391548910016
  0.0475412743683508 5.380233220768836 0.0016702898577612
  -0.2918064285314851 0.0019121826643723 4.8657391163781
 Si  N  Li 
4 6 2 
direct
   -0.6654972844436670   0.9934593529855673   0.0223485501946357
   -0.3215589559109162   0.6595788844605293   0.8795612066156338
   -0.3343682397964328   0.9952232647354008   0.5182093255652730
   -0.6791845568279767   0.3108703170378816   0.5194908299417094
   -0.9944667083737924   0.7079673836365570   0.9515392323251106
   -0.6210608379974758   0.3131715240628025   0.8841384471144735
   -0.3845859039425150   0.9519620669324168   0.8879458674081492
   -0.0046294054833922   0.2645013416631699   0.4320750990769042
   -0.6094538186487597   0.0464902450177646   0.3801949506735199
   -0.3818852461583900   0.6524367846096053   0.4765484380297380
   -0.0004314502480156   0.3251879392031540   0.0106389404761273
   -0.0028376077035901   0.6457924066541878   0.4429319607832838
