Si   N    Li                            
   1.00000000000000     
     0.2199052167036453    0.0089642025780207    5.0501439423675896
     0.1369611864981138    5.3561996318033511    0.0077874523027204
    -4.5103455679430455    2.7534168568691157    0.2511154103755812
   Si   N    Li
     4     6     2
Direct
  0.0264543033854849  0.9954487284331464  0.6628615640533582
  0.8638324787412870  0.6590902667089935  0.3183036357071103
  0.5260846411376008  0.0003664275108690  0.3335537029158218
  0.5264044746041705  0.3076189382423991  0.6792747205421179
  0.9774554033752807  0.7051159140532235  0.9999044876827057
  0.8803451806835980  0.3088970475643862  0.6245756842799892
  0.8850857717353762  0.9552087807124110  0.3828344483087918
  0.4325759898687451  0.2688184717757665  0.0024161039835704
  0.3770535564910560  0.0490865279689601  0.6068617170206210
  0.5010226288532991  0.6552970240013778  0.3738116151883730
  0.0181496457563242  0.3208056543600080  0.9991156027628705
  0.3911671220620221  0.6408877307965000  0.0164467166891740
 
  0.00000000E+00  0.00000000E+00  0.00000000E+00
  0.00000000E+00  0.00000000E+00  0.00000000E+00
  0.00000000E+00  0.00000000E+00  0.00000000E+00
  0.00000000E+00  0.00000000E+00  0.00000000E+00
  0.00000000E+00  0.00000000E+00  0.00000000E+00
  0.00000000E+00  0.00000000E+00  0.00000000E+00
  0.00000000E+00  0.00000000E+00  0.00000000E+00
  0.00000000E+00  0.00000000E+00  0.00000000E+00
  0.00000000E+00  0.00000000E+00  0.00000000E+00
  0.00000000E+00  0.00000000E+00  0.00000000E+00
  0.00000000E+00  0.00000000E+00  0.00000000E+00
  0.00000000E+00  0.00000000E+00  0.00000000E+00
