Si   N    Li                            
   1.00000000000000     
    -0.2860129538012348    0.0015916363046610    4.8573570788331200
     0.0444329830258488    5.3709223531095702    0.0013922370193540
    -4.6153453850111426    2.6961529447113342   -0.2308068868950651
   Si   N    Li
     4     6     2
Direct
  0.0225709253865318  0.9940555115670406  0.6648856451469456
  0.9186690325419136  0.6598804194003165  0.3233161487476224
  0.5158275228138507  0.9905851905508527  0.3345427156489436
  0.5164549306419630  0.3153342388674290  0.6761393799525806
  0.9473536320127494  0.7087229618665916  0.9922504970216721
  0.8818020503829658  0.3155649478562665  0.6186558071900166
  0.8849371647629738  0.9486123918143647  0.3862264326092699
  0.4329726194825909  0.2634916239256242  0.0049855940094545
  0.3797803239862887  0.0474030636300284  0.6085681868434065
  0.4456425520792990  0.6518843702344697  0.3864640563542707
  0.0100992594860685  0.3252141820225134  0.0001011326643834
  0.4495128346273631  0.6458926092635195  0.0038244193463299
 
  0.00000000E+00  0.00000000E+00  0.00000000E+00
  0.00000000E+00  0.00000000E+00  0.00000000E+00
  0.00000000E+00  0.00000000E+00  0.00000000E+00
  0.00000000E+00  0.00000000E+00  0.00000000E+00
  0.00000000E+00  0.00000000E+00  0.00000000E+00
  0.00000000E+00  0.00000000E+00  0.00000000E+00
  0.00000000E+00  0.00000000E+00  0.00000000E+00
  0.00000000E+00  0.00000000E+00  0.00000000E+00
  0.00000000E+00  0.00000000E+00  0.00000000E+00
  0.00000000E+00  0.00000000E+00  0.00000000E+00
  0.00000000E+00  0.00000000E+00  0.00000000E+00
  0.00000000E+00  0.00000000E+00  0.00000000E+00
