Si   N    Li
1.0
  4.630732121160597 -2.681772708421642 0.2377392377397395
  0.0017421209659771 5.2895813221938885 0.0133485090708652
  -0.4296330238998439 0.0153751297722465 5.21778469326713
 Si  N  Li 
4 6 2 
direct
   -0.6803124816980669   0.9897831439984021   0.0271264088893517
   -0.3246349813425978   0.6665513607409964   0.8639863655809422
   -0.3201238170948528   0.9877304166850255   0.3596179777840264
   -0.6757724457016536   0.3110328643989035   0.5228406248971709
   -0.0094672494981509   0.6990998323532409   0.9664821840057912
   -0.6197992963908945   0.2995634231943782   0.8597096801162466
   -0.3947770742492125   0.9105187601333572   0.0242922884841192
   -0.9906954865371559   0.2784783800466641   0.4194267778014691
   -0.6057117757249911   0.0669288833118742   0.3625794688886259
   -0.3806818246125870   0.6780427390708681   0.5271348952779604
   -0.9849468446757115   0.3340424444464531   0.9854940540474786
   -0.0141431915576931   0.6443568257835752   0.4044552276865260
