Si   N    Li
1.0
  4.64131521158635 -2.66592209089255 -2.3392929652e-06
  1.70604629847e-05 5.3317638623694 1.9728273178e-06
  -1.3959608672e-06 -1.10954938955e-05 4.81544689110823
 Si  N  Li 
4 6 2 
direct
   -0.6681887357149280   0.9916447474547782   0.0058114595086494
   -0.3318101361781345   0.6598341400278116   0.0058117318173601
   -0.3318125194672490   0.9861285603124796   0.5058117989090007
   -0.6681920101505341   0.3179402093037993   0.5058118653374777
   -0.9999978691711674   0.7153487368443977   0.9276794290151144
   -0.6026140720612786   0.3265635232755812   0.8670325383352236
   -0.3973867542086040   0.9291760552668292   0.8670333331282052
   -0.9999976855689071   0.2624285519893945   0.4276800376153744
   -0.6026132973739849   0.0485979636705025   0.3670331005896585
   -0.3973869779216840   0.6512103090528711   0.3670321991559645
   -0.0000005931468650   0.3291996843206633   0.9932996382223251
   -0.9999993490366778   0.6485941851476297   0.4932997785062553
