Si   N    Li
1.0
  4.605605434308555 -2.6295333015847464 -0.6472772552505108
  -0.0301375500353013 5.3112326268120285 0.0100118750099783
  0.6110100380683503 0.011528573455711 5.11720024272741
 Si  N  Li 
4 6 2 
direct
   -0.6822868565826353   0.9877850423279426   0.0260080950084287
   -0.3258628289852155   0.6672642190889562   0.8626624032098106
   -0.3250801647347644   0.9852624510541761   0.3621822951142093
   -0.6815010901834312   0.3079009699619064   0.5254982286934647
   -0.9991550125359084   0.7037539218654983   0.9272971842433151
   -0.6188837493122108   0.3034311870117889   0.8674585148129808
   -0.3909336795634886   0.9150774571479231   0.0226736527429097
   -0.9983024290663849   0.2753720580017928   0.4260731813078920
   -0.6179546057534254   0.0560940995289910   0.3675757446754914
   -0.3900686219917305   0.6720471571689970   0.5227585259812597
   -0.9847972736904254   0.3395042220480562   0.9975531393453068
   -0.9851336867013174   0.6531487269385606   0.4978902310487570
