Si   N    Li
1.0
  4.520177303946052 -2.80654946845215 -0.4733167002034392
  0.1684328868524491 5.346596991078889 0.0086216108179421
  0.4111934442683025 0.0099258416571545 5.07529005500252
 Si  N  Li 
4 6 2 
direct
   -0.6696691170319227   0.9898482745503755   0.0250389342280641
   -0.3219974816380073   0.6675577736577620   0.8721669686171937
   -0.3251918156465408   0.9945935881900496   0.4416017126903141
   -0.6769678949078894   0.3066540658035207   0.5339075282883954
   -0.0051416920086496   0.7029498952756796   0.9759832239575985
   -0.6225295024752810   0.3078335885658702   0.8793550641058732
   -0.3825854800065969   0.9426403730583744   0.9558290363088773
   -0.9934217661077938   0.2768563123192465   0.4342058461131870
   -0.6126482232498276   0.0513946644597638   0.3791481555331160
   -0.3758125645880240   0.6588918707118906   0.5119801218583574
   -0.9975197699135094   0.3250449810846375   0.0014740714270474
   -0.0164746915606102   0.6423761244508909   0.3949405335661709
