Si   N    Li                            
   1.00000000000000     
     0.4111934442683025    0.0099258416571545    5.0752900550025197
     0.1684328868524491    5.3465969910788891    0.0086216108179421
    -4.5201773039460518    2.8065494684521499    0.4733167002034392
   Si   N    Li
     4     6     2
Direct
  0.0250389342280641  0.9898482745503756  0.6696691170319227
  0.8721669686171936  0.6675577736577623  0.3219974816380073
  0.4416017126903142  0.9945935881900496  0.3251918156465408
  0.5339075282883954  0.3066540658035208  0.6769678949078894
  0.9759832239575985  0.7029498952756796  0.0051416920086496
  0.8793550641058729  0.3078335885658703  0.6225295024752810
  0.9558290363088773  0.9426403730583743  0.3825854800065969
  0.4342058461131870  0.2768563123192465  0.9934217661077938
  0.3791481555331160  0.0513946644597638  0.6126482232498276
  0.5119801218583575  0.6588918707118907  0.3758125645880241
  0.0014740714270474  0.3250449810846376  0.9975197699135094
  0.3949405335661709  0.6423761244508910  0.0164746915606102
 
  0.00000000E+00  0.00000000E+00  0.00000000E+00
  0.00000000E+00  0.00000000E+00  0.00000000E+00
  0.00000000E+00  0.00000000E+00  0.00000000E+00
  0.00000000E+00  0.00000000E+00  0.00000000E+00
  0.00000000E+00  0.00000000E+00  0.00000000E+00
  0.00000000E+00  0.00000000E+00  0.00000000E+00
  0.00000000E+00  0.00000000E+00  0.00000000E+00
  0.00000000E+00  0.00000000E+00  0.00000000E+00
  0.00000000E+00  0.00000000E+00  0.00000000E+00
  0.00000000E+00  0.00000000E+00  0.00000000E+00
  0.00000000E+00  0.00000000E+00  0.00000000E+00
  0.00000000E+00  0.00000000E+00  0.00000000E+00
