Si   N    Li                            
   1.00000000000000     
    -0.2801370325515452    0.0012710899449497    4.8489750412881403
     0.0426186717765838    5.3618944213721216    0.0011141841809468
    -4.6142415597825082    2.6932652616157418   -0.2364876669181183
   Si   N    Li
     4     6     2
Direct
  0.0208463038035021  0.9938140820721415  0.6652754930199052
  0.9599928169076506  0.6598160478824227  0.3263013278059645
  0.5148210752461324  0.9883888851969971  0.3340297390871640
  0.5148768867012805  0.3174495717396510  0.6738766343086908
  0.9442345154115728  0.7093987446264407  0.9928771351483974
  0.8790450369934533  0.3188699554607837  0.6152607163841566
  0.8814424911692100  0.9445386932356996  0.3874596751040897
  0.4331070612275880  0.2632065905964467  0.0044802684110508
  0.3787473046044383  0.0479262194195940  0.6075719986258008
  0.4159053505797488  0.6517035448380710  0.3890500846719078
  0.0092281500663063  0.3254643265894046  0.9999207388644678
  0.4533758554936682  0.6460648493413572  0.0038562041033074
 
  0.00000000E+00  0.00000000E+00  0.00000000E+00
  0.00000000E+00  0.00000000E+00  0.00000000E+00
  0.00000000E+00  0.00000000E+00  0.00000000E+00
  0.00000000E+00  0.00000000E+00  0.00000000E+00
  0.00000000E+00  0.00000000E+00  0.00000000E+00
  0.00000000E+00  0.00000000E+00  0.00000000E+00
  0.00000000E+00  0.00000000E+00  0.00000000E+00
  0.00000000E+00  0.00000000E+00  0.00000000E+00
  0.00000000E+00  0.00000000E+00  0.00000000E+00
  0.00000000E+00  0.00000000E+00  0.00000000E+00
  0.00000000E+00  0.00000000E+00  0.00000000E+00
  0.00000000E+00  0.00000000E+00  0.00000000E+00
