Si   N    Li                            
   1.00000000000000     
    -0.4718318961873872    0.0025532753837948    4.8825031914680501
     0.0474626950570014    5.3827694901292391    0.0022263955345757
    -4.5804370266235166    2.6923812225048476   -0.3839212354663972
   Si   N    Li
     4     6     2
Direct
  0.0247302250340624  0.9943308838556248  0.6637339414510919
  0.8680308740730993  0.6593635397861419  0.3188259123299844
  0.5233324151111418  0.9987760980139768  0.3337501754604588
  0.5238357221506149  0.3086353670747783  0.6804217986559067
  0.9678272544965267  0.7066790005358641  0.9969510415510143
  0.8856423268024116  0.3117013079882796  0.6216953872782440
  0.8903528243503231  0.9539730320242228  0.3820512774859637
  0.4326607340713053  0.2666827966302776  0.0040329609179324
  0.3818066050687179  0.0473568615470157  0.6088802436459488
  0.4919124129427743  0.6537910598308301  0.3783707516588706
  0.0117779857174369  0.3235945051815392  0.9987109322907841
  0.4037134683863499  0.6417570585305725  0.0125355928082342
 
  0.00000000E+00  0.00000000E+00  0.00000000E+00
  0.00000000E+00  0.00000000E+00  0.00000000E+00
  0.00000000E+00  0.00000000E+00  0.00000000E+00
  0.00000000E+00  0.00000000E+00  0.00000000E+00
  0.00000000E+00  0.00000000E+00  0.00000000E+00
  0.00000000E+00  0.00000000E+00  0.00000000E+00
  0.00000000E+00  0.00000000E+00  0.00000000E+00
  0.00000000E+00  0.00000000E+00  0.00000000E+00
  0.00000000E+00  0.00000000E+00  0.00000000E+00
  0.00000000E+00  0.00000000E+00  0.00000000E+00
  0.00000000E+00  0.00000000E+00  0.00000000E+00
  0.00000000E+00  0.00000000E+00  0.00000000E+00
