Si   N    Li
1.0
  4.6153453850111426 -2.696152944711334 0.2308068868950651
  0.0444329830258488 5.37092235310957 0.001392237019354
  -0.2860129538012348 0.001591636304661 4.85735707883312
 Si  N  Li 
4 6 2 
direct
   -0.6648856451469455   0.9940555115670408   0.0225709253865318
   -0.3233161487476224   0.6598804194003165   0.9186690325419136
   -0.3345427156489436   0.9905851905508528   0.5158275228138507
   -0.6761393799525806   0.3153342388674290   0.5164549306419629
   -0.9922504970216720   0.7087229618665914   0.9473536320127492
   -0.6186558071900166   0.3155649478562664   0.8818020503829658
   -0.3862264326092699   0.9486123918143646   0.8849371647629738
   -0.0049855940094545   0.2634916239256242   0.4329726194825909
   -0.6085681868434065   0.0474030636300284   0.3797803239862887
   -0.3864640563542707   0.6518843702344695   0.4456425520792990
   -0.0001011326643834   0.3252141820225133   0.0100992594860685
   -0.0038244193463299   0.6458926092635194   0.4495128346273631
