Si   N    Li                            
   1.00000000000000     
    -0.7073338490029846    0.0051176462614852    4.9495594918278698
     0.0234347144071828    5.3660918684702663    0.0044508182418336
    -4.5485382259716616    2.6617785381874461   -0.5943153193542167
   Si   N    Li
     4     6     2
Direct
  0.0259141439565624  0.9952625883067157  0.6630580741612846
  0.8651973096669536  0.6593294630678912  0.3183638618040874
  0.5252180250888685  0.9996813904876234  0.3336854924402388
  0.5256728909905775  0.3078379072673343  0.6798829615547248
  0.9740194659913683  0.7058413170301847  0.9986665993547135
  0.8824071119269448  0.3101240700229013  0.6234197790733162
  0.8870111371227765  0.9550655511572330  0.3823331161982111
  0.4326016057070561  0.2677817368475672  0.0031968062159038
  0.3788256104890664  0.0482656282656251  0.6076606942099687
  0.4977780323046233  0.6544681716611009  0.3756760535316914
  0.0160356862407269  0.3218971200827312  0.9988378314606550
  0.3950096575557254  0.6410860593655627  0.0151797006509895
 
  0.00000000E+00  0.00000000E+00  0.00000000E+00
  0.00000000E+00  0.00000000E+00  0.00000000E+00
  0.00000000E+00  0.00000000E+00  0.00000000E+00
  0.00000000E+00  0.00000000E+00  0.00000000E+00
  0.00000000E+00  0.00000000E+00  0.00000000E+00
  0.00000000E+00  0.00000000E+00  0.00000000E+00
  0.00000000E+00  0.00000000E+00  0.00000000E+00
  0.00000000E+00  0.00000000E+00  0.00000000E+00
  0.00000000E+00  0.00000000E+00  0.00000000E+00
  0.00000000E+00  0.00000000E+00  0.00000000E+00
  0.00000000E+00  0.00000000E+00  0.00000000E+00
  0.00000000E+00  0.00000000E+00  0.00000000E+00
