Si   N    Li                            
   1.00000000000000     
    -0.1852457390759924    0.0063998317003303    4.9830876420077796
     0.0062527988368768    5.3692085533906573    0.0055630295954625
    -4.5963605115632786    2.6485165944780422   -0.1178997453693466
   Si   N    Li
     4     6     2
Direct
  0.0258244925261266  0.9949835988840192  0.6632383132415427
  0.8655436807898766  0.6592210381117667  0.3184781958556187
  0.5249272287937075  0.9996607722571795  0.3336567877372190
  0.5253673971391706  0.3080846822872161  0.6798295242632690
  0.9733268564651638  0.7058427268122713  0.9985165332707524
  0.8827596321693889  0.3101837853330665  0.6232619316204477
  0.8874733913969735  0.9547277253452080  0.3823651152655003
  0.4325355818483203  0.2678716742061624  0.0031388555310556
  0.3792133808767773  0.0482738999682297  0.6078036138671266
  0.4969717149288044  0.6546214214414334  0.3758886139632978
  0.0153816692878195  0.3220426818098190  0.9989029121224249
  0.3960762230884640  0.6411356252232494  0.0148639607032095
 
  0.00000000E+00  0.00000000E+00  0.00000000E+00
  0.00000000E+00  0.00000000E+00  0.00000000E+00
  0.00000000E+00  0.00000000E+00  0.00000000E+00
  0.00000000E+00  0.00000000E+00  0.00000000E+00
  0.00000000E+00  0.00000000E+00  0.00000000E+00
  0.00000000E+00  0.00000000E+00  0.00000000E+00
  0.00000000E+00  0.00000000E+00  0.00000000E+00
  0.00000000E+00  0.00000000E+00  0.00000000E+00
  0.00000000E+00  0.00000000E+00  0.00000000E+00
  0.00000000E+00  0.00000000E+00  0.00000000E+00
  0.00000000E+00  0.00000000E+00  0.00000000E+00
  0.00000000E+00  0.00000000E+00  0.00000000E+00
