supercell of POSCAR                     
   1.01800000000000     
     3.1310994802600001   -5.4896946145000003   10.0244832682999991
    -9.4821132118399998   -5.5089477087900001    0.0170740616273000
     6.3359946057599998  -11.0114127993000004  -10.0652216442999993
   Al   Gd   N    O 
    84    12    95     1
Direct
  0.0890222622485695  0.5835433198851305  0.3347499445291007
  0.5000871729851823  0.3242322827918116  0.2551902220390474
  0.0869052813709388  0.0845275666699195  0.3340121481339295
  0.2523381677058723  0.5789289909170492  0.4941167308931114
  0.3318045169905375  0.3189310879619498  0.0787001141892816
  0.4181508405711725  0.0893009246705603  0.1702166345034399
  0.0074654687150328  0.8432785575185875  0.2545594031665672
  0.1685102648732411  0.3317914307842855  0.4122083450884517
  0.2482190067187560  0.0869686674686179  0.4957964357680424
  0.1628813099267603  0.8369166762745834  0.4158929054252596
  0.3378336381730946  0.6753640485425834  0.3389751174741278
  0.1556579135335951  0.6738486313098022  0.1689613471234424
  0.2501715968735496  0.4004680569782408  0.2521629118663640
  0.3350433238520125  0.1636880983349940  0.3337163856148635
  0.0073324501048191  0.6732771671096813  0.4943167103859096
  0.1676121789946379  0.1581194419754368  0.1695111213943221
  0.2553022321170673  0.9178934385083721  0.2546990572164276
  0.4131478523490415  0.4147976719847719  0.4152302580730804
  0.4990826985244752  0.1617578544884495  0.4968451270719427
  0.0826288052807413  0.9235934035623501  0.0796022666382825
  0.4210009904906116  0.9203631019709420  0.4118434258089962
  0.0886337349712534  0.5853006680044004  0.8343330922541838
  0.4994960392908681  0.3225945814727567  0.7551236088170938
  0.0857550799619702  0.0849643234665720  0.8344397135669794
  0.2485284562286552  0.5731685592630313  0.9898561737910825
  0.3323286738304532  0.3183864392482860  0.5782030077169011
  0.4171295256376268  0.0870008388868300  0.6708376643088485
  0.0074075978417127  0.8434285480343249  0.7553481931536865
  0.1673252473044968  0.3304454889965953  0.9121522869606409
  0.2483166370335397  0.0858737571896029  0.9968408063693914
  0.1628428688418921  0.8373587232543613  0.9165266466980029
  0.3364066070333038  0.6743877283342172  0.8396633717366981
  0.1547376735043926  0.6753557410301099  0.6655669145143150
  0.2499790350742614  0.4020665995607047  0.7521660287608256
  0.3341217540990158  0.1642783494429167  0.8340511604827725
  0.0058804457880512  0.6727632859268695  0.9950500857716378
  0.1670093214392452  0.1591496878976244  0.6693066392028655
  0.2526651293026205  0.9204544402342378  0.7556661878991804
  0.4132422995970089  0.4145767389395516  0.9150396220823538
  0.4985992078821226  0.1629123963631756  0.9969433364540379
  0.0836872263802135  0.9238304431918465  0.5796630605808843
  0.4188948256334797  0.9209332152294536  0.9126704095848979
  0.5919593130948329  0.5840458756921549  0.3351802702271343
  0.9998958207724158  0.3221090491709333  0.2557100562495052
  0.5862994164353665  0.0858834769337307  0.3341535352898219
  0.7528457606478725  0.5789269297116064  0.4949099918343904
  0.8303444655389498  0.3183543722860946  0.0781468480003582
  0.9174413221191386  0.0870674266354641  0.1709027242868331
  0.5076711040562287  0.8440273692462128  0.2546833048232386
  0.6686405734598750  0.3317946301086607  0.4122679260212365
  0.7481617010604822  0.0868073183675691  0.4959981057149037
  0.6626162848461803  0.8367790105548352  0.4160074564375691
  0.8377270413242641  0.6736448294652959  0.3399854691685320
  0.6536325359110791  0.6768036286037713  0.1661570120466962
  0.7509607868601762  0.4022584736430872  0.2518581569836300
  0.8348585716779198  0.1640073734796985  0.3341028146761502
  0.5071762152498209  0.6730911112579321  0.4940142956630780
  0.6672713140837914  0.1599882929065757  0.1691996959976834
  0.7531456973724318  0.9209255322220358  0.2559335788251929
  0.9128281145990869  0.4144494569888550  0.4154945430135442
  0.9991035714207754  0.1613204662458685  0.4967463854977083
  0.5818080605817784  0.9251773267869083  0.0800616890468291
  0.9207193456369041  0.9198358635697019  0.4115100884815206
  0.5889968497524052  0.5853925905011721  0.8344375642238475
  0.9994819417252998  0.3224261645588840  0.7552872186550772
  0.5854412451247768  0.0852693663696087  0.8344725708745813
  0.7506684187380159  0.5789139140881545  0.9945942703040060
  0.8324571688569762  0.3180383837583491  0.5783871934657725
  0.9172443181097165  0.0868983669652010  0.6710474267647299
  0.5068824289034524  0.8437357752745100  0.7552857415762233
  0.6673069300007057  0.3326797881796750  0.9126437808098729
  0.7468753883928514  0.0872588645161869  0.9959465535650267
  0.6620303501659635  0.8376315859689356  0.9158092231503332
  0.8363752334531114  0.6736209364340198  0.8402932479168683
  0.6546951021374525  0.6753294896437225  0.6657411489873084
  0.7498145056123136  0.4019110925480120  0.7521792544901444
  0.8338106367282379  0.1640736633142694  0.8341840365091144
  0.5060856183041480  0.6759268133662530  0.9939893058825078
  0.6669051904497962  0.1589983825214887  0.6694058146646142
  0.7526608279870430  0.9202328636690069  0.7557422139884480
  0.9121755435693970  0.4146021893368825  0.9151248704274622
  0.9977971260447589  0.1609047794055769  0.9968208772832057
  0.5836889325134038  0.9237515317700442  0.5796980726490233
  0.9198209481893684  0.9195949719810486  0.9117787882620902
  0.3974790577944063  0.5842788604780864  0.1813310160245578
  0.3315372069512961  0.8293727438135861  0.0871723957641848
  0.0797580565806655  0.4159524075304972  0.0853051342223807
  0.3980255883397419  0.5795538541911611  0.6782800318521609
  0.3327657103981139  0.8363207955082856  0.5830763583119136
  0.0824252443992748  0.4191856726997045  0.5846180442122701
  0.8977672486701067  0.5801679818393239  0.1778218083812959
  0.8303586056074650  0.8372070882476947  0.0832888006619186
  0.5793100996730871  0.4233140010887482  0.0860486898947670
  0.8981703154924645  0.5794392569185831  0.6786905875353568
  0.8328357737750309  0.8363804885783921  0.5833374035762446
  0.5827015562544346  0.4192442817614008  0.5845659457653483
  0.2175909889653411  0.5782337801682260  0.2656939130094926
  0.0365048077362999  0.6103363961949171  0.1011781840282424
  0.1298037161077517  0.3159593438241828  0.2005413187267138
  0.2133177615303765  0.0808826081196230  0.2718053201186379
  0.3823903315635917  0.5841776402762022  0.4364862461220511
  0.4488286213221500  0.3208241568930390  0.0107549200947545
  0.0407313971527898  0.0854514167230960  0.1034889311018006
  0.1330099734273489  0.8415099908950339  0.1841335707619933
  0.2967162327968609  0.3289880700235628  0.3523393597186839
  0.3773782236985284  0.0808885802439363  0.4350741181026549
  0.4727985071889549  0.8397034103817731  0.0094106430308685
  0.2938310683027225  0.8358349568944163  0.3565318145296388
  0.4753862348352200  0.6846570843816906  0.2878772705782779
  0.3734154164813575  0.3844740398462463  0.1854650921152370
  0.4625651794982346  0.1641509056854318  0.2737216807648650
  0.1349393534842847  0.6654241152429705  0.4326227075700189
  0.2225535203294982  0.4105417154864242  0.0095065253151745
  0.2901057992959437  0.1584914632415533  0.1019639338080367
  0.3867162428030397  0.9308910671568427  0.2000589897393397
  0.0427971684347526  0.4188252955729652  0.3523247584684839
  0.1272429370575736  0.1705306863866056  0.4343462150662845
  0.1992070574396152  0.9292549611982395  0.0123017957345439
  0.0492758381698906  0.9234486980594170  0.3520662832516948
  0.2178751636650773  0.5815656034895369  0.7669130428919502
  0.0329238564399290  0.6113726177766878  0.6006532258356501
  0.1295650774815300  0.3175414869858102  0.7002476226938228
  0.2120459708990481  0.0828840332057652  0.7722273528633039
  0.3811322544479623  0.5843845298793653  0.9377505139222109
  0.4493561215715758  0.3195214134016524  0.5105641452065939
  0.0406076196161678  0.0855485943651431  0.6037232534395400
  0.1320467495421127  0.8427193710083571  0.6859744677781947
  0.2958035083560020  0.3298853550033485  0.8524939265745672
  0.3763876864936719  0.0818730290753251  0.9352315880233988
  0.4767802926439799  0.8378308227664135  0.5077681046017801
  0.2924502490266718  0.8356163843163031  0.8564303859714357
  0.4708051697489708  0.6852165683380278  0.7868020082050222
  0.2636850314729529  0.6553012228112181  0.5948339866789141
  0.3736723108503455  0.3823001442578331  0.6853984844597747
  0.4615042869482053  0.1628589757175334  0.7739570210197115
  0.1340225385700862  0.6659024250458643  0.9335025543289674
  0.2247944986753652  0.4120650127701069  0.5090656847817741
  0.2900090700074855  0.1575209235748289  0.6019725129049007
  0.3842750636849317  0.9279577125803158  0.7018469445930648
  0.0426864134075018  0.4195329773427119  0.8521755131964497
  0.1265934705991754  0.1694876846193836  0.9350266506835609
  0.1971554581979618  0.9317915165759700  0.5101506348331384
  0.0489603237116540  0.9238418140072255  0.8531362635652471
  0.7198231058164382  0.5812655863937337  0.2664271776709910
  0.5285915178660332  0.6175990407613128  0.1009104710269924
  0.6302054732697613  0.3185837487390089  0.1995400592343799
  0.7127095359672282  0.0834424251184700  0.2720735048686151
  0.8830540586538618  0.5837747444722012  0.4372852262518165
  0.9469786205925814  0.3185129443119123  0.0098411163388690
  0.5411672845780018  0.0877247619386097  0.1032864620592235
  0.6328759916515594  0.8442158402058269  0.1858017450277742
  0.7965730192221301  0.3294960951878494  0.3519956042151833
  0.8772072977042384  0.0805056335679524  0.4351106054560674
  0.9754178853171211  0.8374321244684637  0.0081410700356912
  0.7933671292660591  0.8351629090011983  0.3562158353442015
  0.9722469524085398  0.6846240990990111  0.2860251159803227
  0.7621156152483266  0.6554113123480079  0.0949618066956006
  0.8751574626158813  0.3826125933771465  0.1848516418966781
  0.9622443801149316  0.1622250015384452  0.2740396778929863
  0.6358307695866330  0.6654130335344419  0.4335762840381392
  0.7220835991706451  0.4126164022926702  0.0099328020955838
  0.7901592974035623  0.1571815532087157  0.1020181141314396
  0.8847853228233404  0.9278684702035989  0.2017475265777335
  0.5437696290920684  0.4193898248349299  0.3523729638264115
  0.6273731347581304  0.1708443341340242  0.4347304862478012
  0.6950508418497137  0.9322999341471530  0.0100266100705895
  0.5491552903303685  0.9245365287042873  0.3523070832661261
  0.7179163585947492  0.5813353846065681  0.7669195008007819
  0.5329781336575650  0.6113333354369672  0.6005020743781060
  0.6295121223066715  0.3174579315737489  0.7001105033037405
  0.7118774074530947  0.0825922896163291  0.7722874619148712
  0.8816496256554274  0.5835217210935895  0.9377917547188872
  0.9493288916894969  0.3189580562504162  0.5105908363502962
  0.5405610894035675  0.0855504049780080  0.6036589662231790
  0.6319240260479546  0.8427474615096813  0.6860552218425582
  0.7954305007527225  0.3297248318610073  0.8524063959394894
  0.8760443851386910  0.0801321558070711  0.9351204225014840
  0.9766482161676890  0.8379221618002148  0.5077550202950079
  0.7924189991488149  0.8351427779265492  0.8564395662920035
  0.9709087828769043  0.6852313685643452  0.7871453120038296
  0.7640694808879260  0.6553789630555897  0.5954331819404430
  0.8737757000675046  0.3820994710260877  0.6855184637489131
  0.9615938360572756  0.1626675745322643  0.7742732049569483
  0.6334578524688226  0.6663405376571845  0.9331045082424581
  0.7252653357053589  0.4119741537023813  0.5091603462398808
  0.7900751909263093  0.1572359599575890  0.6021982966746791
  0.8846290253121651  0.9278417985864209  0.7022436692073626
  0.5423649407621625  0.4200965652058812  0.8517966995757433
  0.6263371938221383  0.1715171440243779  0.9343939097737959
  0.6972475369723909  0.9316429902441001  0.5102499106593967
  0.5476627468850950  0.9241637320069600  0.8530108025795400
  0.2573244456973782  0.6437267675687295  0.0896873906068194
 
  0.00000000E+00  0.00000000E+00  0.00000000E+00
  0.00000000E+00  0.00000000E+00  0.00000000E+00
  0.00000000E+00  0.00000000E+00  0.00000000E+00
  0.00000000E+00  0.00000000E+00  0.00000000E+00
  0.00000000E+00  0.00000000E+00  0.00000000E+00
  0.00000000E+00  0.00000000E+00  0.00000000E+00
  0.00000000E+00  0.00000000E+00  0.00000000E+00
  0.00000000E+00  0.00000000E+00  0.00000000E+00
  0.00000000E+00  0.00000000E+00  0.00000000E+00
  0.00000000E+00  0.00000000E+00  0.00000000E+00
  0.00000000E+00  0.00000000E+00  0.00000000E+00
  0.00000000E+00  0.00000000E+00  0.00000000E+00
  0.00000000E+00  0.00000000E+00  0.00000000E+00
  0.00000000E+00  0.00000000E+00  0.00000000E+00
  0.00000000E+00  0.00000000E+00  0.00000000E+00
  0.00000000E+00  0.00000000E+00  0.00000000E+00
  0.00000000E+00  0.00000000E+00  0.00000000E+00
  0.00000000E+00  0.00000000E+00  0.00000000E+00
  0.00000000E+00  0.00000000E+00  0.00000000E+00
  0.00000000E+00  0.00000000E+00  0.00000000E+00
  0.00000000E+00  0.00000000E+00  0.00000000E+00
  0.00000000E+00  0.00000000E+00  0.00000000E+00
  0.00000000E+00  0.00000000E+00  0.00000000E+00
  0.00000000E+00  0.00000000E+00  0.00000000E+00
  0.00000000E+00  0.00000000E+00  0.00000000E+00
  0.00000000E+00  0.00000000E+00  0.00000000E+00
  0.00000000E+00  0.00000000E+00  0.00000000E+00
  0.00000000E+00  0.00000000E+00  0.00000000E+00
  0.00000000E+00  0.00000000E+00  0.00000000E+00
  0.00000000E+00  0.00000000E+00  0.00000000E+00
  0.00000000E+00  0.00000000E+00  0.00000000E+00
  0.00000000E+00  0.00000000E+00  0.00000000E+00
  0.00000000E+00  0.00000000E+00  0.00000000E+00
  0.00000000E+00  0.00000000E+00  0.00000000E+00
  0.00000000E+00  0.00000000E+00  0.00000000E+00
  0.00000000E+00  0.00000000E+00  0.00000000E+00
  0.00000000E+00  0.00000000E+00  0.00000000E+00
  0.00000000E+00  0.00000000E+00  0.00000000E+00
  0.00000000E+00  0.00000000E+00  0.00000000E+00
  0.00000000E+00  0.00000000E+00  0.00000000E+00
  0.00000000E+00  0.00000000E+00  0.00000000E+00
  0.00000000E+00  0.00000000E+00  0.00000000E+00
  0.00000000E+00  0.00000000E+00  0.00000000E+00
  0.00000000E+00  0.00000000E+00  0.00000000E+00
  0.00000000E+00  0.00000000E+00  0.00000000E+00
  0.00000000E+00  0.00000000E+00  0.00000000E+00
  0.00000000E+00  0.00000000E+00  0.00000000E+00
  0.00000000E+00  0.00000000E+00  0.00000000E+00
  0.00000000E+00  0.00000000E+00  0.00000000E+00
  0.00000000E+00  0.00000000E+00  0.00000000E+00
  0.00000000E+00  0.00000000E+00  0.00000000E+00
  0.00000000E+00  0.00000000E+00  0.00000000E+00
  0.00000000E+00  0.00000000E+00  0.00000000E+00
  0.00000000E+00  0.00000000E+00  0.00000000E+00
  0.00000000E+00  0.00000000E+00  0.00000000E+00
  0.00000000E+00  0.00000000E+00  0.00000000E+00
  0.00000000E+00  0.00000000E+00  0.00000000E+00
  0.00000000E+00  0.00000000E+00  0.00000000E+00
  0.00000000E+00  0.00000000E+00  0.00000000E+00
  0.00000000E+00  0.00000000E+00  0.00000000E+00
  0.00000000E+00  0.00000000E+00  0.00000000E+00
  0.00000000E+00  0.00000000E+00  0.00000000E+00
  0.00000000E+00  0.00000000E+00  0.00000000E+00
  0.00000000E+00  0.00000000E+00  0.00000000E+00
  0.00000000E+00  0.00000000E+00  0.00000000E+00
  0.00000000E+00  0.00000000E+00  0.00000000E+00
  0.00000000E+00  0.00000000E+00  0.00000000E+00
  0.00000000E+00  0.00000000E+00  0.00000000E+00
  0.00000000E+00  0.00000000E+00  0.00000000E+00
  0.00000000E+00  0.00000000E+00  0.00000000E+00
  0.00000000E+00  0.00000000E+00  0.00000000E+00
  0.00000000E+00  0.00000000E+00  0.00000000E+00
  0.00000000E+00  0.00000000E+00  0.00000000E+00
  0.00000000E+00  0.00000000E+00  0.00000000E+00
  0.00000000E+00  0.00000000E+00  0.00000000E+00
  0.00000000E+00  0.00000000E+00  0.00000000E+00
  0.00000000E+00  0.00000000E+00  0.00000000E+00
  0.00000000E+00  0.00000000E+00  0.00000000E+00
  0.00000000E+00  0.00000000E+00  0.00000000E+00
  0.00000000E+00  0.00000000E+00  0.00000000E+00
  0.00000000E+00  0.00000000E+00  0.00000000E+00
  0.00000000E+00  0.00000000E+00  0.00000000E+00
  0.00000000E+00  0.00000000E+00  0.00000000E+00
  0.00000000E+00  0.00000000E+00  0.00000000E+00
  0.00000000E+00  0.00000000E+00  0.00000000E+00
  0.00000000E+00  0.00000000E+00  0.00000000E+00
  0.00000000E+00  0.00000000E+00  0.00000000E+00
  0.00000000E+00  0.00000000E+00  0.00000000E+00
  0.00000000E+00  0.00000000E+00  0.00000000E+00
  0.00000000E+00  0.00000000E+00  0.00000000E+00
  0.00000000E+00  0.00000000E+00  0.00000000E+00
  0.00000000E+00  0.00000000E+00  0.00000000E+00
  0.00000000E+00  0.00000000E+00  0.00000000E+00
  0.00000000E+00  0.00000000E+00  0.00000000E+00
  0.00000000E+00  0.00000000E+00  0.00000000E+00
  0.00000000E+00  0.00000000E+00  0.00000000E+00
  0.00000000E+00  0.00000000E+00  0.00000000E+00
  0.00000000E+00  0.00000000E+00  0.00000000E+00
  0.00000000E+00  0.00000000E+00  0.00000000E+00
  0.00000000E+00  0.00000000E+00  0.00000000E+00
  0.00000000E+00  0.00000000E+00  0.00000000E+00
  0.00000000E+00  0.00000000E+00  0.00000000E+00
  0.00000000E+00  0.00000000E+00  0.00000000E+00
  0.00000000E+00  0.00000000E+00  0.00000000E+00
  0.00000000E+00  0.00000000E+00  0.00000000E+00
  0.00000000E+00  0.00000000E+00  0.00000000E+00
  0.00000000E+00  0.00000000E+00  0.00000000E+00
  0.00000000E+00  0.00000000E+00  0.00000000E+00
  0.00000000E+00  0.00000000E+00  0.00000000E+00
  0.00000000E+00  0.00000000E+00  0.00000000E+00
  0.00000000E+00  0.00000000E+00  0.00000000E+00
  0.00000000E+00  0.00000000E+00  0.00000000E+00
  0.00000000E+00  0.00000000E+00  0.00000000E+00
  0.00000000E+00  0.00000000E+00  0.00000000E+00
  0.00000000E+00  0.00000000E+00  0.00000000E+00
  0.00000000E+00  0.00000000E+00  0.00000000E+00
  0.00000000E+00  0.00000000E+00  0.00000000E+00
  0.00000000E+00  0.00000000E+00  0.00000000E+00
  0.00000000E+00  0.00000000E+00  0.00000000E+00
  0.00000000E+00  0.00000000E+00  0.00000000E+00
  0.00000000E+00  0.00000000E+00  0.00000000E+00
  0.00000000E+00  0.00000000E+00  0.00000000E+00
  0.00000000E+00  0.00000000E+00  0.00000000E+00
  0.00000000E+00  0.00000000E+00  0.00000000E+00
  0.00000000E+00  0.00000000E+00  0.00000000E+00
  0.00000000E+00  0.00000000E+00  0.00000000E+00
  0.00000000E+00  0.00000000E+00  0.00000000E+00
  0.00000000E+00  0.00000000E+00  0.00000000E+00
  0.00000000E+00  0.00000000E+00  0.00000000E+00
  0.00000000E+00  0.00000000E+00  0.00000000E+00
  0.00000000E+00  0.00000000E+00  0.00000000E+00
  0.00000000E+00  0.00000000E+00  0.00000000E+00
  0.00000000E+00  0.00000000E+00  0.00000000E+00
  0.00000000E+00  0.00000000E+00  0.00000000E+00
  0.00000000E+00  0.00000000E+00  0.00000000E+00
  0.00000000E+00  0.00000000E+00  0.00000000E+00
  0.00000000E+00  0.00000000E+00  0.00000000E+00
  0.00000000E+00  0.00000000E+00  0.00000000E+00
  0.00000000E+00  0.00000000E+00  0.00000000E+00
  0.00000000E+00  0.00000000E+00  0.00000000E+00
  0.00000000E+00  0.00000000E+00  0.00000000E+00
  0.00000000E+00  0.00000000E+00  0.00000000E+00
  0.00000000E+00  0.00000000E+00  0.00000000E+00
  0.00000000E+00  0.00000000E+00  0.00000000E+00
  0.00000000E+00  0.00000000E+00  0.00000000E+00
  0.00000000E+00  0.00000000E+00  0.00000000E+00
  0.00000000E+00  0.00000000E+00  0.00000000E+00
  0.00000000E+00  0.00000000E+00  0.00000000E+00
  0.00000000E+00  0.00000000E+00  0.00000000E+00
  0.00000000E+00  0.00000000E+00  0.00000000E+00
  0.00000000E+00  0.00000000E+00  0.00000000E+00
  0.00000000E+00  0.00000000E+00  0.00000000E+00
  0.00000000E+00  0.00000000E+00  0.00000000E+00
  0.00000000E+00  0.00000000E+00  0.00000000E+00
  0.00000000E+00  0.00000000E+00  0.00000000E+00
  0.00000000E+00  0.00000000E+00  0.00000000E+00
  0.00000000E+00  0.00000000E+00  0.00000000E+00
  0.00000000E+00  0.00000000E+00  0.00000000E+00
  0.00000000E+00  0.00000000E+00  0.00000000E+00
  0.00000000E+00  0.00000000E+00  0.00000000E+00
  0.00000000E+00  0.00000000E+00  0.00000000E+00
  0.00000000E+00  0.00000000E+00  0.00000000E+00
  0.00000000E+00  0.00000000E+00  0.00000000E+00
  0.00000000E+00  0.00000000E+00  0.00000000E+00
  0.00000000E+00  0.00000000E+00  0.00000000E+00
  0.00000000E+00  0.00000000E+00  0.00000000E+00
  0.00000000E+00  0.00000000E+00  0.00000000E+00
  0.00000000E+00  0.00000000E+00  0.00000000E+00
  0.00000000E+00  0.00000000E+00  0.00000000E+00
  0.00000000E+00  0.00000000E+00  0.00000000E+00
  0.00000000E+00  0.00000000E+00  0.00000000E+00
  0.00000000E+00  0.00000000E+00  0.00000000E+00
  0.00000000E+00  0.00000000E+00  0.00000000E+00
  0.00000000E+00  0.00000000E+00  0.00000000E+00
  0.00000000E+00  0.00000000E+00  0.00000000E+00
  0.00000000E+00  0.00000000E+00  0.00000000E+00
  0.00000000E+00  0.00000000E+00  0.00000000E+00
  0.00000000E+00  0.00000000E+00  0.00000000E+00
  0.00000000E+00  0.00000000E+00  0.00000000E+00
  0.00000000E+00  0.00000000E+00  0.00000000E+00
  0.00000000E+00  0.00000000E+00  0.00000000E+00
  0.00000000E+00  0.00000000E+00  0.00000000E+00
  0.00000000E+00  0.00000000E+00  0.00000000E+00
  0.00000000E+00  0.00000000E+00  0.00000000E+00
  0.00000000E+00  0.00000000E+00  0.00000000E+00
  0.00000000E+00  0.00000000E+00  0.00000000E+00
  0.00000000E+00  0.00000000E+00  0.00000000E+00
  0.00000000E+00  0.00000000E+00  0.00000000E+00
  0.00000000E+00  0.00000000E+00  0.00000000E+00
  0.00000000E+00  0.00000000E+00  0.00000000E+00
  0.00000000E+00  0.00000000E+00  0.00000000E+00
  0.00000000E+00  0.00000000E+00  0.00000000E+00
