generated by phonopy                    
   1.00000000000000     
    11.7777700938999992   -0.0000006592896312    0.0000118211769744
    -0.0000006477562692   11.7777479613999994   -0.0000130806483528
     0.0000177256125076   -0.0000204342245446   17.8544012557999991
   Bi   Cu   Se   O 
    37    36    35    36
Direct
  0.9979472199046029  0.1646742907909839  0.4334083453507347
  0.3353488440614285  0.1646772796182674  0.4334143848340020
  0.6666471752571539  0.1654550329728792  0.4320092598955796
  0.9979467849774721  0.5020784192770051  0.4334118054342611
  0.3353493473933824  0.5020773400049166  0.4334102031572300
  0.6666483739515598  0.5012954392530418  0.4320070905970681
  0.9987286834496203  0.8333745709387514  0.4320034842828093
  0.3345686633747533  0.8333749073934982  0.4320115851898620
  0.6666476468570863  0.8333774404932939  0.4306186860648538
  0.9998688562015801  0.1666159039142201  0.9279938567642887
  0.3333893022322059  0.1666255179240252  0.9279899775850566
  0.6666331720042820  0.1659198158204589  0.9270728751449298
  0.9998805391641241  0.5001386619189319  0.9279890637149890
  0.3334030512560062  0.5001457767351738  0.9279908784416051
  0.6666368088087182  0.5008422962461196  0.9270713570518367
  0.9991749212912993  0.8333796636398532  0.9270729763973620
  0.3340976328366736  0.8333845662985624  0.9270701705337743
  0.6666367486489193  0.8333816570382808  0.9270745966767251
  0.1666319270629444  0.9984537127710311  0.0684160350346161
  0.5005960312699216  0.9994201915790057  0.0690489858379664
  0.8326534594026143  0.9994014805601523  0.0690487991813811
  0.1666342540926919  0.3333832934350909  0.0686592491151217
  0.5015625741505261  0.3333840033137960  0.0684158084153026
  0.8317066691659889  0.3333815731665410  0.0684152381331202
  0.1666400762358151  0.6683098791176008  0.0684137349514415
  0.5006160147498093  0.6673634513153672  0.0690471785148503
  0.8326726661714687  0.6673438214367096  0.0690495322622056
  0.1666450968250714  0.9992163430114900  0.5738267229598222
  0.5009199757164353  0.9991030963401357  0.5740232003881829
  0.8323741631733625  0.9990985097504606  0.5740210811741377
  0.1666448672603238  0.3333774649158698  0.5729387363932901
  0.5008102786800563  0.3333777110096463  0.5738276253767722
  0.8324867441438286  0.3333722332245088  0.5738244150094687
  0.1666514875307641  0.6675385463178429  0.5738258252581758
  0.5009263527607573  0.6676496476633460  0.5740215846932273
  0.8323779746344115  0.6676482691261540  0.5740221200749289
  0.1666473501454249  0.3333816924488957  0.3313150263958491
  0.9968402845267335  0.9969586893891602  0.2501295478358614
  0.3363984963426390  0.9970067688810218  0.2501313127647578
  0.6666038326446966  0.9997956420375971  0.2506269698581463
  0.9872796909955568  0.3333190893089792  0.2392896774719944
  0.3460011493543007  0.3334556486502720  0.2392830994596267
  0.6666400193313322  0.3333867786128693  0.2515201536593779
  0.9968839780907928  0.6697577018253753  0.2501266985564143
  0.3364369349914895  0.6698085775355338  0.2501342271646720
  0.6666670076801111  0.6669810066257611  0.2506309608642638
  0.0002899709702859  0.0006369197341698  0.7503826173713293
  0.3329830082374059  0.0006453620232563  0.7503816434115294
  0.6666400921138944  0.0001925450905844  0.7508967093920305
  0.0002610734748174  0.3333712453014499  0.7503476707711414
  0.3330211073357461  0.3333797651221531  0.7503480645331493
  0.6666437328284829  0.3333778782664254  0.7509496650323513
  0.0003061751511453  0.6661064761256839  0.7503799733578020
  0.3329957929204568  0.6661192269941338  0.7503819855653688
  0.6666517550804443  0.6665584377573097  0.7508979075801889
  0.1665603431136375  0.1540202070187107  0.2392867097297611
  0.5030079876425333  0.1636267651902230  0.2501291912608679
  0.8302048743299864  0.1635837886130176  0.2501325402394841
  0.1667039562895525  0.5127420762097898  0.2392860148824454
  0.5030608798721730  0.5031830179769443  0.2501308482151074
  0.8302644454846302  0.5031373475569438  0.2501276867068327
  0.1666377829870243  0.8333775956088232  0.2515202783730430
  0.5002255565227927  0.8334120838741370  0.2506270173501903
  0.8330390681438971  0.8333509688709313  0.2506286853839299
  0.1666423488151096  0.1669980926840609  0.7503469089171944
  0.4993783801970650  0.1670380638100823  0.7503813911311994
  0.8339064745803952  0.1670236286478328  0.7503833817650900
  0.1666531111103779  0.4997577592881868  0.7503490863962057
  0.4993899480723485  0.4997301415004500  0.7503807947607086
  0.8339236341336189  0.4997165020315180  0.7503818742419313
  0.1666482609719395  0.8333811471302113  0.7509485543365741
  0.4998355198085349  0.8333841932150179  0.7508951320340813
  0.8334687077189784  0.8333757426722315  0.7508985073345258
  0.4963882224246134  0.3333964575218999  0.3349663934761296
  0.8368881033570403  0.3333645803482170  0.3349695940188226
  0.1666561948471141  0.6631294536742942  0.3349701643376477
  0.5002207627427282  0.6669598851926608  0.3385533846804378
  0.8330986018826323  0.6669232388364392  0.3385544797025872
  0.1666262348718490  0.0036298844582703  0.3349679389745219
  0.5001876351927734  0.9998346230727932  0.3385570273385596
  0.8330623010835154  0.9998013777879038  0.3385507351320882
  0.1666390512930533  0.3333787303877287  0.8372787397694168
  0.4995789018067498  0.3333841855287645  0.8372605898161183
  0.8337042215866219  0.3333739451203570  0.8372622224320310
  0.1666465491612499  0.6663183112260853  0.8372607542793560
  0.4997646507453979  0.6665010606099813  0.8370783781542812
  0.8335319468325437  0.6664908181542017  0.8370791055259161
  0.1666348982847836  0.0004438022826747  0.8372612599790585
  0.4997538786552767  0.0002672850890306  0.8370786026540742
  0.8335195732389593  0.0002588568343711  0.8370811045974094
  0.3372407160723228  0.1627738051945826  0.1610511961575369
  0.6666136141489147  0.1666121701424927  0.1627558910995006
  0.9959516163180950  0.1627073553617606  0.1610205462699454
  0.3373154146436903  0.5040661798667401  0.1610186435995900
  0.6666545324919184  0.5001599601908282  0.1627574542657442
  0.9960302202119067  0.5039904588144566  0.1610474663376564
  0.3334103198310032  0.8333998190368348  0.1627574077293659
  0.6666357241876142  0.8333831625138259  0.1642370812813496
  0.9998625998184067  0.8333637926996644  0.1627569172316115
  0.3332937212060614  0.1667300063782520  0.6632378817353626
  0.6666447814520282  0.1665256310773202  0.6640351342844042
  0.9999925393710427  0.1667224097373321  0.6632377256114097
  0.3332999990798839  0.5000300546073575  0.6632387291267037
  0.6666539525110551  0.5002281099192274  0.6640344632288233
  0.0000017682307742  0.5000226828852021  0.6632376778481230
  0.3334993170406548  0.8333804659686521  0.6640351977105752
  0.6666513636453075  0.8333757261145607  0.6637622497182889
  0.9997964034285900  0.8333735167001706  0.6640334680101461
  0.1666450347536284  0.1650021953962977  0.5026132876909983
  0.5017103043726507  0.1661719351327449  0.5027013904902304
  0.8315780693713108  0.1661660203074860  0.5026975200658796
  0.1666479992054306  0.5017528719784039  0.5026114199853566
  0.5017182033538674  0.5005844340479513  0.5026995147727078
  0.8315844268790045  0.5005804519396193  0.5026969419571756
  0.1666458540758313  0.8333759939416581  0.5008207104404647
  0.5002487706027239  0.8333776033616402  0.5016938677303671
  0.8330476700766880  0.8333742493838372  0.5016911313596921
  0.1666312082737349  0.1669485663227377  0.9994865725252708
  0.5004371395662019  0.1666862855939044  0.9987887155208313
  0.8328233628498865  0.1666808010622276  0.9987920649914841
  0.1666417307510812  0.4998150801871191  0.9994847715671114
  0.5004474933967842  0.5000830490511916  0.9987902490603346
  0.8328331191075478  0.5000772244134453  0.9987888588667957
  0.1666379631454546  0.8333827006911889  0.9984084235276214
  0.5002330033793712  0.8333923823884959  0.9983369656924665
  0.8330390502240093  0.8333727917401390  0.9983385293252027
  0.9999336792133917  0.9995690811680262  0.9987919493049731
  0.3333283418073663  0.9995795203819213  0.9987886828057526
  0.6666268392134000  0.9997842876213952  0.9983387637585963
  0.0002026705901486  0.3333797294760430  0.9994863852487796
  0.3330683289865917  0.3333846611314470  0.9994853807251545
  0.6666337333352814  0.3333816852510907  0.9984094338363789
  0.9999420445277067  0.6671842868550613  0.9987899039856316
  0.3333391679877877  0.6671940962883767  0.9987880939867395
  0.6666441779644359  0.6669791969407015  0.9983372777550201
  0.9994396611997090  0.9983060291649863  0.5026978729724476
  0.3338524008711659  0.9983139080624355  0.5027011819708846
  0.6666446263793091  0.9997755030906887  0.5016931720878901
  0.9982718845850584  0.3333740227618733  0.5026104172075492
  0.3350225757224266  0.3333797066773485  0.5026149346299036
  0.6666476025869059  0.3333761210187021  0.5008207229639865
  0.9994421337131740  0.6684400856593271  0.5026968791029205
  0.3338582769934462  0.6684455156160070  0.5027011454247443
  0.6666510190827211  0.6669769976023119  0.5016914230639742
 
  0.00000000E+00  0.00000000E+00  0.00000000E+00
  0.00000000E+00  0.00000000E+00  0.00000000E+00
  0.00000000E+00  0.00000000E+00  0.00000000E+00
  0.00000000E+00  0.00000000E+00  0.00000000E+00
  0.00000000E+00  0.00000000E+00  0.00000000E+00
  0.00000000E+00  0.00000000E+00  0.00000000E+00
  0.00000000E+00  0.00000000E+00  0.00000000E+00
  0.00000000E+00  0.00000000E+00  0.00000000E+00
  0.00000000E+00  0.00000000E+00  0.00000000E+00
  0.00000000E+00  0.00000000E+00  0.00000000E+00
  0.00000000E+00  0.00000000E+00  0.00000000E+00
  0.00000000E+00  0.00000000E+00  0.00000000E+00
  0.00000000E+00  0.00000000E+00  0.00000000E+00
  0.00000000E+00  0.00000000E+00  0.00000000E+00
  0.00000000E+00  0.00000000E+00  0.00000000E+00
  0.00000000E+00  0.00000000E+00  0.00000000E+00
  0.00000000E+00  0.00000000E+00  0.00000000E+00
  0.00000000E+00  0.00000000E+00  0.00000000E+00
  0.00000000E+00  0.00000000E+00  0.00000000E+00
  0.00000000E+00  0.00000000E+00  0.00000000E+00
  0.00000000E+00  0.00000000E+00  0.00000000E+00
  0.00000000E+00  0.00000000E+00  0.00000000E+00
  0.00000000E+00  0.00000000E+00  0.00000000E+00
  0.00000000E+00  0.00000000E+00  0.00000000E+00
  0.00000000E+00  0.00000000E+00  0.00000000E+00
  0.00000000E+00  0.00000000E+00  0.00000000E+00
  0.00000000E+00  0.00000000E+00  0.00000000E+00
  0.00000000E+00  0.00000000E+00  0.00000000E+00
  0.00000000E+00  0.00000000E+00  0.00000000E+00
  0.00000000E+00  0.00000000E+00  0.00000000E+00
  0.00000000E+00  0.00000000E+00  0.00000000E+00
  0.00000000E+00  0.00000000E+00  0.00000000E+00
  0.00000000E+00  0.00000000E+00  0.00000000E+00
  0.00000000E+00  0.00000000E+00  0.00000000E+00
  0.00000000E+00  0.00000000E+00  0.00000000E+00
  0.00000000E+00  0.00000000E+00  0.00000000E+00
  0.00000000E+00  0.00000000E+00  0.00000000E+00
  0.00000000E+00  0.00000000E+00  0.00000000E+00
  0.00000000E+00  0.00000000E+00  0.00000000E+00
  0.00000000E+00  0.00000000E+00  0.00000000E+00
  0.00000000E+00  0.00000000E+00  0.00000000E+00
  0.00000000E+00  0.00000000E+00  0.00000000E+00
  0.00000000E+00  0.00000000E+00  0.00000000E+00
  0.00000000E+00  0.00000000E+00  0.00000000E+00
  0.00000000E+00  0.00000000E+00  0.00000000E+00
  0.00000000E+00  0.00000000E+00  0.00000000E+00
  0.00000000E+00  0.00000000E+00  0.00000000E+00
  0.00000000E+00  0.00000000E+00  0.00000000E+00
  0.00000000E+00  0.00000000E+00  0.00000000E+00
  0.00000000E+00  0.00000000E+00  0.00000000E+00
  0.00000000E+00  0.00000000E+00  0.00000000E+00
  0.00000000E+00  0.00000000E+00  0.00000000E+00
  0.00000000E+00  0.00000000E+00  0.00000000E+00
  0.00000000E+00  0.00000000E+00  0.00000000E+00
  0.00000000E+00  0.00000000E+00  0.00000000E+00
  0.00000000E+00  0.00000000E+00  0.00000000E+00
  0.00000000E+00  0.00000000E+00  0.00000000E+00
  0.00000000E+00  0.00000000E+00  0.00000000E+00
  0.00000000E+00  0.00000000E+00  0.00000000E+00
  0.00000000E+00  0.00000000E+00  0.00000000E+00
  0.00000000E+00  0.00000000E+00  0.00000000E+00
  0.00000000E+00  0.00000000E+00  0.00000000E+00
  0.00000000E+00  0.00000000E+00  0.00000000E+00
  0.00000000E+00  0.00000000E+00  0.00000000E+00
  0.00000000E+00  0.00000000E+00  0.00000000E+00
  0.00000000E+00  0.00000000E+00  0.00000000E+00
  0.00000000E+00  0.00000000E+00  0.00000000E+00
  0.00000000E+00  0.00000000E+00  0.00000000E+00
  0.00000000E+00  0.00000000E+00  0.00000000E+00
  0.00000000E+00  0.00000000E+00  0.00000000E+00
  0.00000000E+00  0.00000000E+00  0.00000000E+00
  0.00000000E+00  0.00000000E+00  0.00000000E+00
  0.00000000E+00  0.00000000E+00  0.00000000E+00
  0.00000000E+00  0.00000000E+00  0.00000000E+00
  0.00000000E+00  0.00000000E+00  0.00000000E+00
  0.00000000E+00  0.00000000E+00  0.00000000E+00
  0.00000000E+00  0.00000000E+00  0.00000000E+00
  0.00000000E+00  0.00000000E+00  0.00000000E+00
  0.00000000E+00  0.00000000E+00  0.00000000E+00
  0.00000000E+00  0.00000000E+00  0.00000000E+00
  0.00000000E+00  0.00000000E+00  0.00000000E+00
  0.00000000E+00  0.00000000E+00  0.00000000E+00
  0.00000000E+00  0.00000000E+00  0.00000000E+00
  0.00000000E+00  0.00000000E+00  0.00000000E+00
  0.00000000E+00  0.00000000E+00  0.00000000E+00
  0.00000000E+00  0.00000000E+00  0.00000000E+00
  0.00000000E+00  0.00000000E+00  0.00000000E+00
  0.00000000E+00  0.00000000E+00  0.00000000E+00
  0.00000000E+00  0.00000000E+00  0.00000000E+00
  0.00000000E+00  0.00000000E+00  0.00000000E+00
  0.00000000E+00  0.00000000E+00  0.00000000E+00
  0.00000000E+00  0.00000000E+00  0.00000000E+00
  0.00000000E+00  0.00000000E+00  0.00000000E+00
  0.00000000E+00  0.00000000E+00  0.00000000E+00
  0.00000000E+00  0.00000000E+00  0.00000000E+00
  0.00000000E+00  0.00000000E+00  0.00000000E+00
  0.00000000E+00  0.00000000E+00  0.00000000E+00
  0.00000000E+00  0.00000000E+00  0.00000000E+00
  0.00000000E+00  0.00000000E+00  0.00000000E+00
  0.00000000E+00  0.00000000E+00  0.00000000E+00
  0.00000000E+00  0.00000000E+00  0.00000000E+00
  0.00000000E+00  0.00000000E+00  0.00000000E+00
  0.00000000E+00  0.00000000E+00  0.00000000E+00
  0.00000000E+00  0.00000000E+00  0.00000000E+00
  0.00000000E+00  0.00000000E+00  0.00000000E+00
  0.00000000E+00  0.00000000E+00  0.00000000E+00
  0.00000000E+00  0.00000000E+00  0.00000000E+00
  0.00000000E+00  0.00000000E+00  0.00000000E+00
  0.00000000E+00  0.00000000E+00  0.00000000E+00
  0.00000000E+00  0.00000000E+00  0.00000000E+00
  0.00000000E+00  0.00000000E+00  0.00000000E+00
  0.00000000E+00  0.00000000E+00  0.00000000E+00
  0.00000000E+00  0.00000000E+00  0.00000000E+00
  0.00000000E+00  0.00000000E+00  0.00000000E+00
  0.00000000E+00  0.00000000E+00  0.00000000E+00
  0.00000000E+00  0.00000000E+00  0.00000000E+00
  0.00000000E+00  0.00000000E+00  0.00000000E+00
  0.00000000E+00  0.00000000E+00  0.00000000E+00
  0.00000000E+00  0.00000000E+00  0.00000000E+00
  0.00000000E+00  0.00000000E+00  0.00000000E+00
  0.00000000E+00  0.00000000E+00  0.00000000E+00
  0.00000000E+00  0.00000000E+00  0.00000000E+00
  0.00000000E+00  0.00000000E+00  0.00000000E+00
  0.00000000E+00  0.00000000E+00  0.00000000E+00
  0.00000000E+00  0.00000000E+00  0.00000000E+00
  0.00000000E+00  0.00000000E+00  0.00000000E+00
  0.00000000E+00  0.00000000E+00  0.00000000E+00
  0.00000000E+00  0.00000000E+00  0.00000000E+00
  0.00000000E+00  0.00000000E+00  0.00000000E+00
  0.00000000E+00  0.00000000E+00  0.00000000E+00
  0.00000000E+00  0.00000000E+00  0.00000000E+00
  0.00000000E+00  0.00000000E+00  0.00000000E+00
  0.00000000E+00  0.00000000E+00  0.00000000E+00
  0.00000000E+00  0.00000000E+00  0.00000000E+00
  0.00000000E+00  0.00000000E+00  0.00000000E+00
  0.00000000E+00  0.00000000E+00  0.00000000E+00
  0.00000000E+00  0.00000000E+00  0.00000000E+00
  0.00000000E+00  0.00000000E+00  0.00000000E+00
  0.00000000E+00  0.00000000E+00  0.00000000E+00
  0.00000000E+00  0.00000000E+00  0.00000000E+00
  0.00000000E+00  0.00000000E+00  0.00000000E+00
  0.00000000E+00  0.00000000E+00  0.00000000E+00
  0.00000000E+00  0.00000000E+00  0.00000000E+00
  0.00000000E+00  0.00000000E+00  0.00000000E+00
