supercell of POSCAR                     
   1.03600000000000     
     9.6051007291200001   -5.6678653607799996   -9.9907275475200006
     9.5551777488200003    5.5783510108199996    9.9928581731800001
    -1.5573508785200001   -8.3719044994900003    4.9655686364999996
   Al   Gd   N 
    71    24    96
Direct
  0.2971463394053160  0.2906485146533271  0.5390380983730836
  0.1428495211811196  0.2446841049604487  0.3119093055594178
  0.3092328122469610  0.4117755546142519  0.3174809157369296
  0.1386916321143516  0.5003686865142569  0.7852980838399262
  0.2889175845588454  0.1611016469093229  0.7826900897229763
  0.4741753541526492  0.4470274718258267  0.5278276514677600
  0.1426430573992832  0.1192405013121842  0.5388575873842143
  0.4784863914540551  0.0733040895026491  0.3010332430817684
  0.2784301730273029  0.1098990286423245  0.3386203429304615
  0.1172657167888573  0.0709146693076264  0.1021755569251042
  0.1110053899434220  0.1936437950256291  0.8172998321976763
  0.2643309562874592  0.3551095670157736  0.8212117010888136
  0.1098979544105134  0.3249706023252799  0.5905355386259075
  0.2738391781662202  0.4854719066235447  0.5879889005852590
  0.4490937274147981  0.2783992356549234  0.3403174520256442
  0.1140192140797254  0.4464265725801795  0.3433670548087520
  0.4446883987384567  0.4070457726741594  0.1190508856397230
  0.8024795404071838  0.2878352385303060  0.5357804603251353
  0.6429876657063929  0.2430149417332004  0.3076036531884085
  0.8086504767819562  0.4088998965153792  0.3074418782812245
  0.9627600276858033  0.3246260907866159  0.7878531503488659
  0.6515076383520082  0.4999062979619140  0.7744895464304022
  0.7957239004865855  0.1632954414695433  0.7768387921020974
  0.9698590033573851  0.4464283940422931  0.5304624470737949
  0.6439038844152591  0.1191363261948339  0.5369592058984693
  0.9788873027938152  0.0719775597302217  0.2965104768335891
  0.7764061597623311  0.1087442577801028  0.3337249663101716
  0.6137575504477439  0.0706489914741439  0.1000066224338241
  0.6178034396500820  0.1974665872079342  0.8178474129509965
  0.7772696361757099  0.3552304783147875  0.8095968639784488
  0.6162316591360266  0.3272250834975310  0.5866183053593375
  0.7733574332213635  0.4856824219564331  0.5714608942535335
  0.9488976694017950  0.2798461229984923  0.3344257331070253
  0.6118492453216291  0.4452870605793464  0.3374110270403747
  0.9486076769193943  0.4044501055843526  0.1035021410811510
  0.3027739976771571  0.7883818936327032  0.5380470229191516
  0.1459213408967983  0.7437822313561782  0.3106710695366672
  0.3092344826130287  0.9089289046058866  0.3104029248796962
  0.4607776430925981  0.8250014119037132  0.7873265416641431
  0.1394872204519686  0.9967217126848524  0.7845062314256097
  0.2905037349479471  0.6681947526454834  0.7824351393792952
  0.4696938938137762  0.9486153978571821  0.5320339192979802
  0.1440679564609511  0.6196428671818168  0.5384906395336699
  0.4785403106018720  0.5772465270009519  0.3045437581316150
  0.2800069511193612  0.6087973824539503  0.3417637833373419
  0.1165957535006683  0.5699598787720106  0.1019726860804369
  0.1124918803773056  0.6981522695162425  0.8159439845215317
  0.2742051910594228  0.8580380297365693  0.8124218954413749
  0.1129358465374182  0.8249012973973109  0.5874935139284716
  0.2719592935828103  0.9865743636261470  0.5766293317579496
  0.4504563574261411  0.7785974923616763  0.3371265135811043
  0.1126681385572610  0.9458148964507416  0.3391128395936533
  0.4488181618184583  0.9021189040853557  0.1061772881887819
  0.8012519494605996  0.7891270877533501  0.5364752669795863
  0.6431587884211964  0.7444348734715547  0.3078938449456530
  0.8091522198139316  0.9094197862638680  0.3077665857222769
  0.9621129422602479  0.8258218945943199  0.7880403629789967
  0.6409815414685127  0.9966808828210105  0.7826479886592921
  0.7976887359941927  0.6668978330163000  0.7770622549437576
  0.9697623624346079  0.9459444003303332  0.5314804645895208
  0.6452927160951560  0.6204937310326031  0.5343890507162286
  0.9801553968627275  0.5712587539622405  0.2964236304119510
  0.7768396724846838  0.6092956912330649  0.3319822129507841
  0.6138321569333556  0.5695707757679642  0.1024330785422976
  0.6133746959617099  0.6915103161301559  0.8122824220342224
  0.7716355026715149  0.8538442633843886  0.8113345917695653
  0.6109178286241388  0.8236037630598574  0.5866127357891600
  0.7704031330600287  0.9842191183666742  0.5743120749850661
  0.9495547854144846  0.7801742906889331  0.3338646146867816
  0.6121421358474208  0.9455490101947390  0.3381375446223842
  0.9497767068426555  0.9050210458292938  0.1024445065488493
  0.4816508960554415  0.1998442261604225  0.0348990771472160
  0.1308347182055627  0.3621898850203777  0.0371479506972392
  0.3095268170226575  0.0234444993903509  0.0420222958411358
  0.2850041067071771  0.2389438676914821  0.0861502137532000
  0.4490922480456234  0.0203676728914033  0.8197076295179855
  0.4461992303752709  0.1645855398445804  0.5869363964070970
  0.9798960561170773  0.1908623165209136  0.0384774112927531
  0.6378848004710704  0.3680030734395316  0.0285574058656124
  0.8036030009800470  0.0182679286469991  0.0389994449681481
  0.7838447050830268  0.2333980117492800  0.0806854928257650
  0.9458332274398629  0.0180962632444945  0.8178011135427354
  0.9431278803544387  0.1539319295270758  0.5698039005344597
  0.4807591944917746  0.6819100785267409  0.0221590610400995
  0.1387258064249721  0.8639634619915881  0.0323499525858466
  0.3072193020440253  0.5155365505812455  0.0365119212588354
  0.2888717669895087  0.7302199583507303  0.0778944956353058
  0.4668516872734472  0.4601801306211115  0.8096797694978548
  0.4442967745021917  0.6490422767321391  0.5924208740912036
  0.9843158819264559  0.6948958990896870  0.0387661672667008
  0.6293944064922457  0.8596912178365983  0.0304019464580989
  0.8094266384371309  0.5230030678925317  0.0390546777670835
  0.7854627908589507  0.7347755430700715  0.0803996951936838
  0.9469236979875575  0.5196891015609708  0.8160161212502288
  0.9435914466211699  0.6567007765791004  0.5684310492756310
  0.2349092143745892  0.3685873143363949  0.6329190604397752
  0.0749883630319275  0.3254375122780999  0.4011923336311867
  0.2412974975527504  0.4913554408197456  0.4011456282983659
  0.4273370110215211  0.2934537036388392  0.1630250334106194
  0.0697707077139356  0.4578316743846642  0.1551771388631735
  0.2371172385307219  0.1063301002512915  0.1577158383896347
  0.3735044120829869  0.3980962452481904  0.9454622935940620
  0.0902692373191059  0.0811414452681092  0.9022808482773854
  0.2285108580826147  0.2418479605130059  0.8714831015516751
  0.3967783762362203  0.0205364808533091  0.6092306214757173
  0.0887290332631920  0.2031741752513625  0.6321703411654056
  0.4059314827403355  0.1559007284705771  0.3648141390013819
  0.2175186633188417  0.1908966261211873  0.4340849242066156
  0.0629603550781610  0.1463309612186521  0.2088581613935077
  0.2162234107714269  0.3235713164126821  0.2160303855257268
  0.3651101136327384  0.1169234994898360  0.9069387552794268
  0.0377688671185439  0.2653909932350516  0.8856359193281875
  0.1979294317129714  0.4346280712387198  0.8924410111458556
  0.3478050744478409  0.2335868370549008  0.6713716993368877
  0.0375137785367770  0.4068768303299493  0.6817525029891769
  0.2080168356076442  0.0653457047136570  0.6707500881514079
  0.3826143014816381  0.3521542940805205  0.4372534353764266
  0.0484942499173897  0.0260697610581957  0.4384567025921697
  0.3904485100948278  0.4809361548304025  0.2237722017675665
  0.7422390335854914  0.3687575945150883  0.6234249306984481
  0.5765269366084596  0.3246881708016076  0.3969127557662731
  0.7394604730978145  0.4903309840010692  0.3865108027008120
  0.9286953187359899  0.2920279881113501  0.1542739271745006
  0.5674192106490850  0.4562154829592657  0.1499532522970881
  0.7338362351896919  0.1039028843266792  0.1547437817761619
  0.9020575274631923  0.3937884144828772  0.9078458012262232
  0.5945657721036355  0.0822598631822302  0.8995179879219890
  0.7371650443534890  0.2442508149485008  0.8646550176490564
  0.8947622517087481  0.0151028975505483  0.6071495379614618
  0.5947364592574900  0.2053720793832454  0.6318987047388092
  0.9044816555364505  0.1556232624681613  0.3523791424623326
  0.7196629231389409  0.1906476867339393  0.4324781696450231
  0.5593437272011812  0.1460557891480860  0.2055469210004404
  0.7164050265246615  0.3201304870831834  0.2080267668781062
  0.8624429239467730  0.1134502216835571  0.9078676313788989
  0.5494185663186713  0.2700363148664522  0.8915397282062116
  0.7156162652175979  0.4374802845945780  0.8845784633450506
  0.8675618044269058  0.2450306594417668  0.6794811129093645
  0.5580305985704541  0.4159368071853038  0.6638043903655344
  0.7120430886882119  0.0665867191152429  0.6691065440424566
  0.8824615914350460  0.3525666299559447  0.4302374484890947
  0.5505645938148049  0.0258370668315564  0.4382703057486523
  0.8911789313338758  0.4750327256037892  0.2084410540505459
  0.2385281821965464  0.8690215079907802  0.6257828826933789
  0.0759105967579572  0.8252815802001194  0.3989405550602214
  0.2394572947293554  0.9906547066370308  0.3905797319490532
  0.4338048432906945  0.7878285759618606  0.1532695335372551
  0.0716439061118166  0.9569665200442543  0.1510525167463612
  0.2359415435472059  0.6019722254819300  0.1616109667291710
  0.3998511069396571  0.8936624101964199  0.9087450431387225
  0.0902993582853355  0.5855996530743255  0.9023652629690844
  0.2292232726240897  0.7492645242244009  0.8681128453028180
  0.3996396609837447  0.5072507417538219  0.6291808634874201
  0.0895696007228892  0.7038960185916991  0.6305935708568882
  0.4066889720985358  0.6579194318044230  0.3725256049242063
  0.2197542144320721  0.6912236326943386  0.4357194318404822
  0.0638580800605837  0.6460032850748263  0.2090901454728780
  0.2181931758343083  0.8193283277410544  0.2104776619187732
  0.3486743544876489  0.6274079361821450  0.9259945725722289
  0.0403349528025529  0.7707093941874987  0.8857569515912402
  0.2106140155134710  0.9382331699614497  0.8906414031255565
  0.3645242302682306  0.7456472878068894  0.6830772677955252
  0.0388041768083269  0.9061336107799889  0.6821851617919847
  0.2111864263272594  0.5692257658495876  0.6736820441996585
  0.3830924804916123  0.8535568634747648  0.4327967923605911
  0.0497646255057376  0.5264173083319363  0.4394758551609073
  0.3918020508581321  0.9745776558515828  0.2109396023802788
  0.7370158695826774  0.8674331685500718  0.6253503384890209
  0.5769366137873462  0.8257135998810767  0.3984648854447315
  0.7398872295055199  0.9898821101291801  0.3884190344776002
  0.9289598714812328  0.7930889870329025  0.1547316665799627
  0.5703088555073137  0.9567534077175637  0.1503511413811083
  0.7338325087722168  0.6036596675042887  0.1521080136943667
  0.8974739064314079  0.8924776439597863  0.9076263698586899
  0.5872950653210793  0.5767249598782769  0.8967737181948010
  0.7318055949793774  0.7416342092933164  0.8651138883140348
  0.8969007924672070  0.5178378799463559  0.6048396401665386
  0.5909461536992424  0.7024972768616351  0.6279856484918440
  0.9049421816988641  0.6554171381778673  0.3500865299456350
  0.7206085055309472  0.6919104430178606  0.4306657414773909
  0.5607597294306501  0.6464197497842648  0.2084161682502312
  0.7165818762452858  0.8209673641856838  0.2065592398165847
  0.8666079020216273  0.6191676731015860  0.9078531707316628
  0.5379103226657946  0.7633849070702112  0.8756988207722216
  0.7055499235666005  0.9312680295740137  0.8888430780680281
  0.8674978280178323  0.7475589023158875  0.6795751386151068
  0.5383510349257392  0.9063570660835794  0.6814068281476011
  0.7182408722506182  0.5720305909834806  0.6655660751781838
  0.8823640327862421  0.8524759312251504  0.4307244506318142
  0.5511853994192037  0.5281576122998999  0.4365976058021417
  0.8915724092929338  0.9755784110112913  0.2072949601159664
 
  0.00000000E+00  0.00000000E+00  0.00000000E+00
  0.00000000E+00  0.00000000E+00  0.00000000E+00
  0.00000000E+00  0.00000000E+00  0.00000000E+00
  0.00000000E+00  0.00000000E+00  0.00000000E+00
  0.00000000E+00  0.00000000E+00  0.00000000E+00
  0.00000000E+00  0.00000000E+00  0.00000000E+00
  0.00000000E+00  0.00000000E+00  0.00000000E+00
  0.00000000E+00  0.00000000E+00  0.00000000E+00
  0.00000000E+00  0.00000000E+00  0.00000000E+00
  0.00000000E+00  0.00000000E+00  0.00000000E+00
  0.00000000E+00  0.00000000E+00  0.00000000E+00
  0.00000000E+00  0.00000000E+00  0.00000000E+00
  0.00000000E+00  0.00000000E+00  0.00000000E+00
  0.00000000E+00  0.00000000E+00  0.00000000E+00
  0.00000000E+00  0.00000000E+00  0.00000000E+00
  0.00000000E+00  0.00000000E+00  0.00000000E+00
  0.00000000E+00  0.00000000E+00  0.00000000E+00
  0.00000000E+00  0.00000000E+00  0.00000000E+00
  0.00000000E+00  0.00000000E+00  0.00000000E+00
  0.00000000E+00  0.00000000E+00  0.00000000E+00
  0.00000000E+00  0.00000000E+00  0.00000000E+00
  0.00000000E+00  0.00000000E+00  0.00000000E+00
  0.00000000E+00  0.00000000E+00  0.00000000E+00
  0.00000000E+00  0.00000000E+00  0.00000000E+00
  0.00000000E+00  0.00000000E+00  0.00000000E+00
  0.00000000E+00  0.00000000E+00  0.00000000E+00
  0.00000000E+00  0.00000000E+00  0.00000000E+00
  0.00000000E+00  0.00000000E+00  0.00000000E+00
  0.00000000E+00  0.00000000E+00  0.00000000E+00
  0.00000000E+00  0.00000000E+00  0.00000000E+00
  0.00000000E+00  0.00000000E+00  0.00000000E+00
  0.00000000E+00  0.00000000E+00  0.00000000E+00
  0.00000000E+00  0.00000000E+00  0.00000000E+00
  0.00000000E+00  0.00000000E+00  0.00000000E+00
  0.00000000E+00  0.00000000E+00  0.00000000E+00
  0.00000000E+00  0.00000000E+00  0.00000000E+00
  0.00000000E+00  0.00000000E+00  0.00000000E+00
  0.00000000E+00  0.00000000E+00  0.00000000E+00
  0.00000000E+00  0.00000000E+00  0.00000000E+00
  0.00000000E+00  0.00000000E+00  0.00000000E+00
  0.00000000E+00  0.00000000E+00  0.00000000E+00
  0.00000000E+00  0.00000000E+00  0.00000000E+00
  0.00000000E+00  0.00000000E+00  0.00000000E+00
  0.00000000E+00  0.00000000E+00  0.00000000E+00
  0.00000000E+00  0.00000000E+00  0.00000000E+00
  0.00000000E+00  0.00000000E+00  0.00000000E+00
  0.00000000E+00  0.00000000E+00  0.00000000E+00
  0.00000000E+00  0.00000000E+00  0.00000000E+00
  0.00000000E+00  0.00000000E+00  0.00000000E+00
  0.00000000E+00  0.00000000E+00  0.00000000E+00
  0.00000000E+00  0.00000000E+00  0.00000000E+00
  0.00000000E+00  0.00000000E+00  0.00000000E+00
  0.00000000E+00  0.00000000E+00  0.00000000E+00
  0.00000000E+00  0.00000000E+00  0.00000000E+00
  0.00000000E+00  0.00000000E+00  0.00000000E+00
  0.00000000E+00  0.00000000E+00  0.00000000E+00
  0.00000000E+00  0.00000000E+00  0.00000000E+00
  0.00000000E+00  0.00000000E+00  0.00000000E+00
  0.00000000E+00  0.00000000E+00  0.00000000E+00
  0.00000000E+00  0.00000000E+00  0.00000000E+00
  0.00000000E+00  0.00000000E+00  0.00000000E+00
  0.00000000E+00  0.00000000E+00  0.00000000E+00
  0.00000000E+00  0.00000000E+00  0.00000000E+00
  0.00000000E+00  0.00000000E+00  0.00000000E+00
  0.00000000E+00  0.00000000E+00  0.00000000E+00
  0.00000000E+00  0.00000000E+00  0.00000000E+00
  0.00000000E+00  0.00000000E+00  0.00000000E+00
  0.00000000E+00  0.00000000E+00  0.00000000E+00
  0.00000000E+00  0.00000000E+00  0.00000000E+00
  0.00000000E+00  0.00000000E+00  0.00000000E+00
  0.00000000E+00  0.00000000E+00  0.00000000E+00
  0.00000000E+00  0.00000000E+00  0.00000000E+00
  0.00000000E+00  0.00000000E+00  0.00000000E+00
  0.00000000E+00  0.00000000E+00  0.00000000E+00
  0.00000000E+00  0.00000000E+00  0.00000000E+00
  0.00000000E+00  0.00000000E+00  0.00000000E+00
  0.00000000E+00  0.00000000E+00  0.00000000E+00
  0.00000000E+00  0.00000000E+00  0.00000000E+00
  0.00000000E+00  0.00000000E+00  0.00000000E+00
  0.00000000E+00  0.00000000E+00  0.00000000E+00
  0.00000000E+00  0.00000000E+00  0.00000000E+00
  0.00000000E+00  0.00000000E+00  0.00000000E+00
  0.00000000E+00  0.00000000E+00  0.00000000E+00
  0.00000000E+00  0.00000000E+00  0.00000000E+00
  0.00000000E+00  0.00000000E+00  0.00000000E+00
  0.00000000E+00  0.00000000E+00  0.00000000E+00
  0.00000000E+00  0.00000000E+00  0.00000000E+00
  0.00000000E+00  0.00000000E+00  0.00000000E+00
  0.00000000E+00  0.00000000E+00  0.00000000E+00
  0.00000000E+00  0.00000000E+00  0.00000000E+00
  0.00000000E+00  0.00000000E+00  0.00000000E+00
  0.00000000E+00  0.00000000E+00  0.00000000E+00
  0.00000000E+00  0.00000000E+00  0.00000000E+00
  0.00000000E+00  0.00000000E+00  0.00000000E+00
  0.00000000E+00  0.00000000E+00  0.00000000E+00
  0.00000000E+00  0.00000000E+00  0.00000000E+00
  0.00000000E+00  0.00000000E+00  0.00000000E+00
  0.00000000E+00  0.00000000E+00  0.00000000E+00
  0.00000000E+00  0.00000000E+00  0.00000000E+00
  0.00000000E+00  0.00000000E+00  0.00000000E+00
  0.00000000E+00  0.00000000E+00  0.00000000E+00
  0.00000000E+00  0.00000000E+00  0.00000000E+00
  0.00000000E+00  0.00000000E+00  0.00000000E+00
  0.00000000E+00  0.00000000E+00  0.00000000E+00
  0.00000000E+00  0.00000000E+00  0.00000000E+00
  0.00000000E+00  0.00000000E+00  0.00000000E+00
  0.00000000E+00  0.00000000E+00  0.00000000E+00
  0.00000000E+00  0.00000000E+00  0.00000000E+00
  0.00000000E+00  0.00000000E+00  0.00000000E+00
  0.00000000E+00  0.00000000E+00  0.00000000E+00
  0.00000000E+00  0.00000000E+00  0.00000000E+00
  0.00000000E+00  0.00000000E+00  0.00000000E+00
  0.00000000E+00  0.00000000E+00  0.00000000E+00
  0.00000000E+00  0.00000000E+00  0.00000000E+00
  0.00000000E+00  0.00000000E+00  0.00000000E+00
  0.00000000E+00  0.00000000E+00  0.00000000E+00
  0.00000000E+00  0.00000000E+00  0.00000000E+00
  0.00000000E+00  0.00000000E+00  0.00000000E+00
  0.00000000E+00  0.00000000E+00  0.00000000E+00
  0.00000000E+00  0.00000000E+00  0.00000000E+00
  0.00000000E+00  0.00000000E+00  0.00000000E+00
  0.00000000E+00  0.00000000E+00  0.00000000E+00
  0.00000000E+00  0.00000000E+00  0.00000000E+00
  0.00000000E+00  0.00000000E+00  0.00000000E+00
  0.00000000E+00  0.00000000E+00  0.00000000E+00
  0.00000000E+00  0.00000000E+00  0.00000000E+00
  0.00000000E+00  0.00000000E+00  0.00000000E+00
  0.00000000E+00  0.00000000E+00  0.00000000E+00
  0.00000000E+00  0.00000000E+00  0.00000000E+00
  0.00000000E+00  0.00000000E+00  0.00000000E+00
  0.00000000E+00  0.00000000E+00  0.00000000E+00
  0.00000000E+00  0.00000000E+00  0.00000000E+00
  0.00000000E+00  0.00000000E+00  0.00000000E+00
  0.00000000E+00  0.00000000E+00  0.00000000E+00
  0.00000000E+00  0.00000000E+00  0.00000000E+00
  0.00000000E+00  0.00000000E+00  0.00000000E+00
  0.00000000E+00  0.00000000E+00  0.00000000E+00
  0.00000000E+00  0.00000000E+00  0.00000000E+00
  0.00000000E+00  0.00000000E+00  0.00000000E+00
  0.00000000E+00  0.00000000E+00  0.00000000E+00
  0.00000000E+00  0.00000000E+00  0.00000000E+00
  0.00000000E+00  0.00000000E+00  0.00000000E+00
  0.00000000E+00  0.00000000E+00  0.00000000E+00
  0.00000000E+00  0.00000000E+00  0.00000000E+00
  0.00000000E+00  0.00000000E+00  0.00000000E+00
  0.00000000E+00  0.00000000E+00  0.00000000E+00
  0.00000000E+00  0.00000000E+00  0.00000000E+00
  0.00000000E+00  0.00000000E+00  0.00000000E+00
  0.00000000E+00  0.00000000E+00  0.00000000E+00
  0.00000000E+00  0.00000000E+00  0.00000000E+00
  0.00000000E+00  0.00000000E+00  0.00000000E+00
  0.00000000E+00  0.00000000E+00  0.00000000E+00
  0.00000000E+00  0.00000000E+00  0.00000000E+00
  0.00000000E+00  0.00000000E+00  0.00000000E+00
  0.00000000E+00  0.00000000E+00  0.00000000E+00
  0.00000000E+00  0.00000000E+00  0.00000000E+00
  0.00000000E+00  0.00000000E+00  0.00000000E+00
  0.00000000E+00  0.00000000E+00  0.00000000E+00
  0.00000000E+00  0.00000000E+00  0.00000000E+00
  0.00000000E+00  0.00000000E+00  0.00000000E+00
  0.00000000E+00  0.00000000E+00  0.00000000E+00
  0.00000000E+00  0.00000000E+00  0.00000000E+00
  0.00000000E+00  0.00000000E+00  0.00000000E+00
  0.00000000E+00  0.00000000E+00  0.00000000E+00
  0.00000000E+00  0.00000000E+00  0.00000000E+00
  0.00000000E+00  0.00000000E+00  0.00000000E+00
  0.00000000E+00  0.00000000E+00  0.00000000E+00
  0.00000000E+00  0.00000000E+00  0.00000000E+00
  0.00000000E+00  0.00000000E+00  0.00000000E+00
  0.00000000E+00  0.00000000E+00  0.00000000E+00
  0.00000000E+00  0.00000000E+00  0.00000000E+00
  0.00000000E+00  0.00000000E+00  0.00000000E+00
  0.00000000E+00  0.00000000E+00  0.00000000E+00
  0.00000000E+00  0.00000000E+00  0.00000000E+00
  0.00000000E+00  0.00000000E+00  0.00000000E+00
  0.00000000E+00  0.00000000E+00  0.00000000E+00
  0.00000000E+00  0.00000000E+00  0.00000000E+00
  0.00000000E+00  0.00000000E+00  0.00000000E+00
  0.00000000E+00  0.00000000E+00  0.00000000E+00
  0.00000000E+00  0.00000000E+00  0.00000000E+00
  0.00000000E+00  0.00000000E+00  0.00000000E+00
  0.00000000E+00  0.00000000E+00  0.00000000E+00
  0.00000000E+00  0.00000000E+00  0.00000000E+00
  0.00000000E+00  0.00000000E+00  0.00000000E+00
  0.00000000E+00  0.00000000E+00  0.00000000E+00
  0.00000000E+00  0.00000000E+00  0.00000000E+00
  0.00000000E+00  0.00000000E+00  0.00000000E+00
  0.00000000E+00  0.00000000E+00  0.00000000E+00
  0.00000000E+00  0.00000000E+00  0.00000000E+00
  0.00000000E+00  0.00000000E+00  0.00000000E+00
  0.00000000E+00  0.00000000E+00  0.00000000E+00
