Al   Sc   N                             
   1.00000000000000     
    -9.5003706608046574   -0.0000001239730784    0.0000004293967601
    -4.7501861207022271    8.2236658043154609   -0.0021835337438972
     0.0000020749638049    0.0002219501085979   -9.9919031687945967
   Al   Sc   N 
    34     2    36
Direct
  0.1078270148837319  0.1010127160946510  0.3045062717179974
  0.2239225827524294  0.2116127402370864  0.0553773143268117
  0.7736508800389785  0.0958316505124799  0.8024915351820354
  0.8861883786072653  0.2066936719292300  0.5482002410564490
  0.4461044360970163  0.0939124746929707  0.3025678625350920
  0.5556638674293595  0.2053389603811766  0.0524162601311957
  0.2237846126827989  0.2066937047201591  0.5482002746945938
  0.7766498343329360  0.0939122669265302  0.3025680740608294
  0.8811310864771684  0.2116129577783852  0.0553775651480777
  0.4471838888026411  0.0958317668876916  0.8024916620785874
  0.5553506018949079  0.2059655393284530  0.5523623596212133
  0.1108352694403223  0.4291715806739376  0.3022166895511518
  0.2206535087032861  0.5360675549237186  0.0516292286632307
  0.7740302932027845  0.4307491434421280  0.8022682169287023
  0.8889182430055271  0.5388304994882489  0.5524545694064855
  0.4444868779413511  0.4276928888720590  0.3024496994509107
  0.5599454768187613  0.5360677098014435  0.0516293593139281
  0.1118873390554427  0.4307491176674532  0.8022682276300657
  0.2232730291809801  0.5371464404656692  0.5528903714514826
  0.7766599470525364  0.4291716996773758  0.3022168872718680
  0.8889468229045434  0.5387731633222188  0.0534098675986812
  0.4444038942865944  0.4278589531966688  0.8034005363767989
  0.5562472158222889  0.5371464675969193  0.5528905475434414
  0.1070313055660392  0.7569007256673288  0.3054613102091039
  0.7780680518839489  0.7605306094352358  0.8024973304130754
  0.8874851533661285  0.8726244306049722  0.5530928159431809
  0.4527344345220641  0.7569009035892904  0.3054612172679398
  0.5597856031099795  0.8710172406485270  0.0519479947393080
  0.1116430759261036  0.7575562449157829  0.7990094105943513
  0.2231849239680130  0.8702968655895447  0.5454775188353551
  0.7776396208319625  0.7613875503228442  0.3020717745999519
  0.8858635245991522  0.8710173136277959  0.0519479834143866
  0.4474671919054884  0.7575563333645192  0.7990095923192371
  0.5565571090647623  0.8726245628226437  0.5530927323549690
  0.1099023224284537  0.0968614201637905  0.8048554320510419
  0.2247177370457223  0.8672304711779688  0.0674296730050798
  0.2241844916730642  0.2073344692549455  0.3576517151984078
  0.1003937279699016  0.1158794780307204  0.1106383198209002
  0.8679451111821663  0.2160358482508187  0.8653626627829922
  0.7774266993913415  0.0948164668015110  0.6099176945724878
  0.5553230587593774  0.2060204747044807  0.3601809663151627
  0.4463273026196646  0.0929165569484525  0.1109191570640533
  0.2326857482906277  0.2160355735498243  0.8653626036132849
  0.1112096770307360  0.0942474681239318  0.5913718623489501
  0.8851478756893059  0.2073344427321544  0.3576517673451534
  0.7774226874218826  0.0929166523914873  0.1109192496917686
  0.5553692286000995  0.2059274956548904  0.8605417779075211
  0.4444233884653528  0.0948165831203056  0.6099179075226928
  0.2238125928053449  0.5364999384499356  0.3621150306138290
  0.1099715493897548  0.4295629274479253  0.1114997603193899
  0.8892802786373650  0.5381066728438384  0.8600320828913084
  0.7784089301916950  0.4273356404001021  0.6098292899268856
  0.5563540511027085  0.5365003607366319  0.3621148635414997
  0.4439759926753979  0.4287147797009538  0.1090949887463069
  0.2220791596236893  0.5394059572600227  0.8591800251277633
  0.1109224741021180  0.4273354575432293  0.6098295199708090
  0.8887196201977616  0.5392281411434894  0.3601281118579038
  0.7771320443982006  0.4295636739045534  0.1114996529263550
  0.5551815861662774  0.5394062881165098  0.8591801979058999
  0.4446935476273879  0.4272797859535018  0.6111108113077748
  0.2230487744892642  0.8705693677782307  0.3481787489899872
  0.0986933903859040  0.7489483417353782  0.1168454875426406
  0.8891742164269516  0.8724456903578073  0.8585649330531666
  0.7781204519941483  0.7604254493684479  0.6108540255071873
  0.5570275101302116  0.8731377207547695  0.3621791120314128
  0.4690244487631006  0.7489488116396643  0.1168453226221686
  0.2314484997360609  0.8537697708401950  0.8553788428346039
  0.1109115654279833  0.7606578485319346  0.6059409536913165
  0.8865014088813368  0.8731373528756308  0.3621792066444129
  0.7778805084982778  0.7609048739643924  0.1097162196598376
  0.5550464244881255  0.8724461130360766  0.8585650971587953
  0.4450975105771562  0.7606579874222348  0.6059412584035115
 
  0.00000000E+00  0.00000000E+00  0.00000000E+00
  0.00000000E+00  0.00000000E+00  0.00000000E+00
  0.00000000E+00  0.00000000E+00  0.00000000E+00
  0.00000000E+00  0.00000000E+00  0.00000000E+00
  0.00000000E+00  0.00000000E+00  0.00000000E+00
  0.00000000E+00  0.00000000E+00  0.00000000E+00
  0.00000000E+00  0.00000000E+00  0.00000000E+00
  0.00000000E+00  0.00000000E+00  0.00000000E+00
  0.00000000E+00  0.00000000E+00  0.00000000E+00
  0.00000000E+00  0.00000000E+00  0.00000000E+00
  0.00000000E+00  0.00000000E+00  0.00000000E+00
  0.00000000E+00  0.00000000E+00  0.00000000E+00
  0.00000000E+00  0.00000000E+00  0.00000000E+00
  0.00000000E+00  0.00000000E+00  0.00000000E+00
  0.00000000E+00  0.00000000E+00  0.00000000E+00
  0.00000000E+00  0.00000000E+00  0.00000000E+00
  0.00000000E+00  0.00000000E+00  0.00000000E+00
  0.00000000E+00  0.00000000E+00  0.00000000E+00
  0.00000000E+00  0.00000000E+00  0.00000000E+00
  0.00000000E+00  0.00000000E+00  0.00000000E+00
  0.00000000E+00  0.00000000E+00  0.00000000E+00
  0.00000000E+00  0.00000000E+00  0.00000000E+00
  0.00000000E+00  0.00000000E+00  0.00000000E+00
  0.00000000E+00  0.00000000E+00  0.00000000E+00
  0.00000000E+00  0.00000000E+00  0.00000000E+00
  0.00000000E+00  0.00000000E+00  0.00000000E+00
  0.00000000E+00  0.00000000E+00  0.00000000E+00
  0.00000000E+00  0.00000000E+00  0.00000000E+00
  0.00000000E+00  0.00000000E+00  0.00000000E+00
  0.00000000E+00  0.00000000E+00  0.00000000E+00
  0.00000000E+00  0.00000000E+00  0.00000000E+00
  0.00000000E+00  0.00000000E+00  0.00000000E+00
  0.00000000E+00  0.00000000E+00  0.00000000E+00
  0.00000000E+00  0.00000000E+00  0.00000000E+00
  0.00000000E+00  0.00000000E+00  0.00000000E+00
  0.00000000E+00  0.00000000E+00  0.00000000E+00
  0.00000000E+00  0.00000000E+00  0.00000000E+00
  0.00000000E+00  0.00000000E+00  0.00000000E+00
  0.00000000E+00  0.00000000E+00  0.00000000E+00
  0.00000000E+00  0.00000000E+00  0.00000000E+00
  0.00000000E+00  0.00000000E+00  0.00000000E+00
  0.00000000E+00  0.00000000E+00  0.00000000E+00
  0.00000000E+00  0.00000000E+00  0.00000000E+00
  0.00000000E+00  0.00000000E+00  0.00000000E+00
  0.00000000E+00  0.00000000E+00  0.00000000E+00
  0.00000000E+00  0.00000000E+00  0.00000000E+00
  0.00000000E+00  0.00000000E+00  0.00000000E+00
  0.00000000E+00  0.00000000E+00  0.00000000E+00
  0.00000000E+00  0.00000000E+00  0.00000000E+00
  0.00000000E+00  0.00000000E+00  0.00000000E+00
  0.00000000E+00  0.00000000E+00  0.00000000E+00
  0.00000000E+00  0.00000000E+00  0.00000000E+00
  0.00000000E+00  0.00000000E+00  0.00000000E+00
  0.00000000E+00  0.00000000E+00  0.00000000E+00
  0.00000000E+00  0.00000000E+00  0.00000000E+00
  0.00000000E+00  0.00000000E+00  0.00000000E+00
  0.00000000E+00  0.00000000E+00  0.00000000E+00
  0.00000000E+00  0.00000000E+00  0.00000000E+00
  0.00000000E+00  0.00000000E+00  0.00000000E+00
  0.00000000E+00  0.00000000E+00  0.00000000E+00
  0.00000000E+00  0.00000000E+00  0.00000000E+00
  0.00000000E+00  0.00000000E+00  0.00000000E+00
  0.00000000E+00  0.00000000E+00  0.00000000E+00
  0.00000000E+00  0.00000000E+00  0.00000000E+00
  0.00000000E+00  0.00000000E+00  0.00000000E+00
  0.00000000E+00  0.00000000E+00  0.00000000E+00
  0.00000000E+00  0.00000000E+00  0.00000000E+00
  0.00000000E+00  0.00000000E+00  0.00000000E+00
  0.00000000E+00  0.00000000E+00  0.00000000E+00
  0.00000000E+00  0.00000000E+00  0.00000000E+00
  0.00000000E+00  0.00000000E+00  0.00000000E+00
  0.00000000E+00  0.00000000E+00  0.00000000E+00
