Al   Sc   N                             
   1.00000000000000     
    -9.7995754765272558   -0.0000001131354811    0.0000002885327778
    -4.8997871211749029    8.4832156513797905   -0.0021722986543690
    -0.0000003180112458   -0.0063356106590009   -9.1122952293699484
   Al   Sc   N 
    34     2    36
Direct
  0.1083519337621084  0.0999627740670306  0.3432508904707063
  0.2247242347774616  0.2117087853266071  0.0886522187179821
  0.7728681305216938  0.0962043144336135  0.8331083861356063
  0.8852993521418711  0.2072914673794415  0.5822315617626970
  0.4465106089741582  0.0931356326229817  0.3359612519650241
  0.5561912381824996  0.2042842074739326  0.0862433686319264
  0.2240758684258992  0.2072914657899219  0.5822315436709999
  0.7770204378155086  0.0931356120395108  0.3359612563424150
  0.8802336500189654  0.2117087973176552  0.0886522012302535
  0.4475942184063868  0.0962043544158533  0.8331083784480029
  0.5547742329342924  0.2071182251364192  0.5825756988923416
  0.1109917288393802  0.4292666582414384  0.3360233405091151
  0.2198666275045369  0.5366032038676138  0.0830937701813070
  0.7743556250938539  0.4312937226173901  0.8324940684508277
  0.8883114372622885  0.5400437968033458  0.5832951181248447
  0.4443107504080217  0.4280451969952139  0.3322515353969493
  0.5601968320400346  0.5366032083676089  0.0830937483588912
  0.1110173261698009  0.4312936985919009  0.8324940738773847
  0.2247995756095449  0.5359029510966593  0.5856717030260015
  0.7764082806280186  0.4292666872825492  0.3360233439027809
  0.8892769444370572  0.5381127911648704  0.0863815387847069
  0.4448430797268728  0.4269805178076638  0.8376906395629788
  0.5559641402376556  0.5359029845690770  0.5856717184735132
  0.1066156995990397  0.7565842781501928  0.3425693631925597
  0.7784613891987320  0.7597438772432668  0.8364997366470917
  0.8859932922560105  0.8727171189677421  0.5864977370590196
  0.4534667126871597  0.7565842911745051  0.3425693338424267
  0.5587034784824922  0.8714625069420308  0.0828654539688074
  0.1111883971911851  0.7572504006337795  0.8293097534837202
  0.2230439187873543  0.8705788743613851  0.5843943211613265
  0.7773415225280687  0.7619836745182340  0.3324205327998300
  0.8865007385309838  0.8714624659372276  0.0828654454014526
  0.4482278401572160  0.7572504413114132  0.8293097739590607
  0.5579562758723711  0.8727171311781916  0.5864977168963463
  0.1093142425520881  0.0980381568418949  0.8471957589028420
  0.2257029310651006  0.8652607507026246  0.1051709533875780
  0.2241604260820154  0.2069409795817663  0.3712106747931045
  0.1015290857254030  0.1136084730416655  0.1185350273931789
  0.8663459751939087  0.2170315579943818  0.8756366096113339
  0.7760170334197412  0.0952803347145803  0.6215068763272527
  0.5548436757219335  0.2069793340596959  0.3715207059708874
  0.4465407437240287  0.0922784969517068  0.1252643995727070
  0.2332891350109705  0.2170315390007858  0.8756366207187511
  0.1104953678960854  0.0956759201558413  0.6070744501119592
  0.8855652405046541  0.2069410050133982  0.3712106794029850
  0.7778474514887250  0.0922784777125756  0.1252643850353792
  0.5558348757941687  0.2049969426070746  0.8752137164351765
  0.4453692917011765  0.0952803519553100  0.6215068754777775
  0.2253032027798909  0.5351968431367311  0.3762181681807206
  0.1100901217129646  0.4295716271340666  0.1259285645701880
  0.8896938151860425  0.5372790534545615  0.8740044784297680
  0.7781744073617176  0.4285752048179816  0.6211035594887235
  0.5561666484255667  0.5351968597492913  0.3762181723637070
  0.4437795602268650  0.4291075290958020  0.1198804192320324
  0.2213438403169263  0.5395627711934807  0.8709853305414157
  0.1099170401341496  0.4285752015453141  0.6211035687251538
  0.8881157536499842  0.5404351865153671  0.3722681395605463
  0.7770049118292661  0.4295716221189636  0.1259285549794953
  0.5557600530866864  0.5395627953565452  0.8709853168415762
  0.4451177728570386  0.4264311258031483  0.6265469969985702
  0.2230059219156004  0.8706548699416174  0.3656082014437132
  0.0990373385641234  0.7493606655983314  0.1309154161490298
  0.8893101959224339  0.8729997168322683  0.8699986879112416
  0.7784495632441306  0.7597675591493811  0.6262727213227990
  0.5584705584962677  0.8729104838238726  0.3768228411504779
  0.4682686630751505  0.7493606846356897  0.1309153726745578
  0.2317388732982835  0.8531889152815637  0.8647871333194814
  0.1102064441424488  0.7600874381854226  0.6163920612301084
  0.8852856814124550  0.8729104896503941  0.3768228658290127
  0.7775866915818170  0.7614932982253535  0.1202863316324354
  0.5543567595996848  0.8729997609862750  0.8699986984849915
  0.4463727933238815  0.7600874542442426  0.6163920930372555
 
  0.00000000E+00  0.00000000E+00  0.00000000E+00
  0.00000000E+00  0.00000000E+00  0.00000000E+00
  0.00000000E+00  0.00000000E+00  0.00000000E+00
  0.00000000E+00  0.00000000E+00  0.00000000E+00
  0.00000000E+00  0.00000000E+00  0.00000000E+00
  0.00000000E+00  0.00000000E+00  0.00000000E+00
  0.00000000E+00  0.00000000E+00  0.00000000E+00
  0.00000000E+00  0.00000000E+00  0.00000000E+00
  0.00000000E+00  0.00000000E+00  0.00000000E+00
  0.00000000E+00  0.00000000E+00  0.00000000E+00
  0.00000000E+00  0.00000000E+00  0.00000000E+00
  0.00000000E+00  0.00000000E+00  0.00000000E+00
  0.00000000E+00  0.00000000E+00  0.00000000E+00
  0.00000000E+00  0.00000000E+00  0.00000000E+00
  0.00000000E+00  0.00000000E+00  0.00000000E+00
  0.00000000E+00  0.00000000E+00  0.00000000E+00
  0.00000000E+00  0.00000000E+00  0.00000000E+00
  0.00000000E+00  0.00000000E+00  0.00000000E+00
  0.00000000E+00  0.00000000E+00  0.00000000E+00
  0.00000000E+00  0.00000000E+00  0.00000000E+00
  0.00000000E+00  0.00000000E+00  0.00000000E+00
  0.00000000E+00  0.00000000E+00  0.00000000E+00
  0.00000000E+00  0.00000000E+00  0.00000000E+00
  0.00000000E+00  0.00000000E+00  0.00000000E+00
  0.00000000E+00  0.00000000E+00  0.00000000E+00
  0.00000000E+00  0.00000000E+00  0.00000000E+00
  0.00000000E+00  0.00000000E+00  0.00000000E+00
  0.00000000E+00  0.00000000E+00  0.00000000E+00
  0.00000000E+00  0.00000000E+00  0.00000000E+00
  0.00000000E+00  0.00000000E+00  0.00000000E+00
  0.00000000E+00  0.00000000E+00  0.00000000E+00
  0.00000000E+00  0.00000000E+00  0.00000000E+00
  0.00000000E+00  0.00000000E+00  0.00000000E+00
  0.00000000E+00  0.00000000E+00  0.00000000E+00
  0.00000000E+00  0.00000000E+00  0.00000000E+00
  0.00000000E+00  0.00000000E+00  0.00000000E+00
  0.00000000E+00  0.00000000E+00  0.00000000E+00
  0.00000000E+00  0.00000000E+00  0.00000000E+00
  0.00000000E+00  0.00000000E+00  0.00000000E+00
  0.00000000E+00  0.00000000E+00  0.00000000E+00
  0.00000000E+00  0.00000000E+00  0.00000000E+00
  0.00000000E+00  0.00000000E+00  0.00000000E+00
  0.00000000E+00  0.00000000E+00  0.00000000E+00
  0.00000000E+00  0.00000000E+00  0.00000000E+00
  0.00000000E+00  0.00000000E+00  0.00000000E+00
  0.00000000E+00  0.00000000E+00  0.00000000E+00
  0.00000000E+00  0.00000000E+00  0.00000000E+00
  0.00000000E+00  0.00000000E+00  0.00000000E+00
  0.00000000E+00  0.00000000E+00  0.00000000E+00
  0.00000000E+00  0.00000000E+00  0.00000000E+00
  0.00000000E+00  0.00000000E+00  0.00000000E+00
  0.00000000E+00  0.00000000E+00  0.00000000E+00
  0.00000000E+00  0.00000000E+00  0.00000000E+00
  0.00000000E+00  0.00000000E+00  0.00000000E+00
  0.00000000E+00  0.00000000E+00  0.00000000E+00
  0.00000000E+00  0.00000000E+00  0.00000000E+00
  0.00000000E+00  0.00000000E+00  0.00000000E+00
  0.00000000E+00  0.00000000E+00  0.00000000E+00
  0.00000000E+00  0.00000000E+00  0.00000000E+00
  0.00000000E+00  0.00000000E+00  0.00000000E+00
  0.00000000E+00  0.00000000E+00  0.00000000E+00
  0.00000000E+00  0.00000000E+00  0.00000000E+00
  0.00000000E+00  0.00000000E+00  0.00000000E+00
  0.00000000E+00  0.00000000E+00  0.00000000E+00
  0.00000000E+00  0.00000000E+00  0.00000000E+00
  0.00000000E+00  0.00000000E+00  0.00000000E+00
  0.00000000E+00  0.00000000E+00  0.00000000E+00
  0.00000000E+00  0.00000000E+00  0.00000000E+00
  0.00000000E+00  0.00000000E+00  0.00000000E+00
  0.00000000E+00  0.00000000E+00  0.00000000E+00
  0.00000000E+00  0.00000000E+00  0.00000000E+00
  0.00000000E+00  0.00000000E+00  0.00000000E+00
