Al   Sc   N                             
   1.00000000000000     
   -10.0946587019819152   -0.0018746803994237    0.0031299161443136
    -5.0408786612846237    8.7310856113581004   -0.0031725684226112
    -0.0052028770572389   -0.0135945536420027   -9.4096641750956032
   Al   Sc   N 
    26    10    36
Direct
  0.1211395909136570  0.0925691215687081  0.3750868968043193
  0.7711300489896828  0.1025989985223745  0.8741539605033708
  0.4441727975601495  0.0938261764092658  0.3773923411195170
  0.5654850733867818  0.1944873047078843  0.1235553483504148
  0.2380379425209398  0.1925218452037996  0.6270068186294893
  0.7709391823460550  0.0909013653495307  0.3776771765036173
  0.8861998813249485  0.2009820225365786  0.1330927710874974
  0.4609427901180823  0.0899339155394827  0.8761633987520696
  0.5552288310973239  0.2034193822375912  0.6288441868152219
  0.1136498383739308  0.4145974059586806  0.3763814545412387
  0.2184027256613419  0.5389068936702373  0.1224358439715161
  0.7716576343296779  0.4249814792850088  0.8838555735700524
  0.5553271711377263  0.5475924419086624  0.1199200302088244
  0.7724076341507953  0.4312734522126433  0.3638824884769392
  0.8897766972752237  0.5345166331016387  0.1240390337148654
  0.4485563101124370  0.4234917900366995  0.8825073294540502
  0.5556764231861635  0.5319428696949231  0.6295728402859737
  0.2274255118271000  0.8724096919668440  0.1268219793964178
  0.7740861818866591  0.7630064736615054  0.8831468365690398
  0.8825458017123822  0.8772188527107687  0.6365213595380581
  0.4463258069847384  0.7661609572575045  0.3813514828280802
  0.5513362744727175  0.8733419704478109  0.1270587795670295
  0.1127020273780275  0.7589214023763802  0.8820494791299822
  0.2198948032088666  0.8709640760655120  0.6213444108103019
  0.8844279792985503  0.8816751125188347  0.1093753452577673
  0.5606682617427339  0.8809592815483356  0.6235427552373238
  0.2282881125008700  0.2009926394017185  0.1104165648221880
  0.8819464823316352  0.2062378399280078  0.6011004808538658
  0.1036998771052637  0.0922111921356432  0.8599743592255038
  0.8766396373902552  0.5445832876569483  0.6094704483462223
  0.4542516129100349  0.4222038792289382  0.3521084374670735
  0.1083318264926802  0.4316030992327882  0.8570511302383252
  0.2267532533619629  0.5424048103919787  0.6083138261185042
  0.1043843820179902  0.7721410574894065  0.3539076232981628
  0.7742379098750050  0.7672909227063585  0.3520027886726211
  0.4484958133794308  0.7611272149016486  0.8539459099641604
  0.2267933861406775  0.2023408254228869  0.3391258335058254
  0.0992350686214323  0.0864203707709663  0.0902063604806571
  0.8670253046305305  0.2174680129602820  0.8286243563580058
  0.7644370374379363  0.0837999684825306  0.5815471336105418
  0.5639769545037367  0.1845132602755797  0.3248585016091923
  0.4689412262204158  0.0815085204883346  0.0772625676749925
  0.2474606091954641  0.1896419998685062  0.8401257376783775
  0.1311119753169407  0.0853318492449873  0.5868633655771731
  0.8867928977528692  0.2026014555157687  0.3426446757807753
  0.7764166376156396  0.1004766491740909  0.0753063906155376
  0.5550816617527445  0.2082351345858910  0.8334248997122273
  0.4480140515788378  0.0955334575539553  0.5807921820045010
  0.2124694188825771  0.5288507532387641  0.3384522103509582
  0.1020008664662342  0.4429287748831143  0.0849863375967601
  0.8622605303798423  0.5491692652320026  0.8409790670649144
  0.7532793140446614  0.4394825381840235  0.5652784610851711
  0.5605964753516304  0.5578529032346609  0.3206988849670296
  0.4460311570542430  0.4254297389936781  0.0930766259285463
  0.2342526872467872  0.5461002409942353  0.8416424227394828
  0.1198848756102038  0.4066970857634615  0.5936595450762852
  0.9001802371897298  0.5182874581420833  0.3357140231496274
  0.7791163657142093  0.4230372559054345  0.0900505503816618
  0.5626271797874338  0.5195260876532544  0.8364200770576531
  0.4638459081576087  0.4151514020484228  0.5805638192139568
  0.2358359738797446  0.8805301134790113  0.3319819746713364
  0.1151097746502359  0.7606271958631652  0.0912659383914303
  0.8894143344824883  0.8703384536848873  0.8474272675335044
  0.7715950201351802  0.7811428926263062  0.5797814015275122
  0.5348409720158571  0.8845815111061981  0.3307471580980987
  0.4430954226367234  0.7662464437211227  0.0801955722125953
  0.2128614630422874  0.8606986649462698  0.8245950023190147
  0.0924811260226193  0.7853646609403810  0.5816366632741534
  0.8768115099374469  0.8954350382478040  0.3093867001783579
  0.7748068465234255  0.7587111947785203  0.0921700114421427
  0.5697559077126613  0.8826098571561261  0.8257709758668810
  0.4463296782302564  0.7590600685572966  0.5921333285080763
 
  0.00000000E+00  0.00000000E+00  0.00000000E+00
  0.00000000E+00  0.00000000E+00  0.00000000E+00
  0.00000000E+00  0.00000000E+00  0.00000000E+00
  0.00000000E+00  0.00000000E+00  0.00000000E+00
  0.00000000E+00  0.00000000E+00  0.00000000E+00
  0.00000000E+00  0.00000000E+00  0.00000000E+00
  0.00000000E+00  0.00000000E+00  0.00000000E+00
  0.00000000E+00  0.00000000E+00  0.00000000E+00
  0.00000000E+00  0.00000000E+00  0.00000000E+00
  0.00000000E+00  0.00000000E+00  0.00000000E+00
  0.00000000E+00  0.00000000E+00  0.00000000E+00
  0.00000000E+00  0.00000000E+00  0.00000000E+00
  0.00000000E+00  0.00000000E+00  0.00000000E+00
  0.00000000E+00  0.00000000E+00  0.00000000E+00
  0.00000000E+00  0.00000000E+00  0.00000000E+00
  0.00000000E+00  0.00000000E+00  0.00000000E+00
  0.00000000E+00  0.00000000E+00  0.00000000E+00
  0.00000000E+00  0.00000000E+00  0.00000000E+00
  0.00000000E+00  0.00000000E+00  0.00000000E+00
  0.00000000E+00  0.00000000E+00  0.00000000E+00
  0.00000000E+00  0.00000000E+00  0.00000000E+00
  0.00000000E+00  0.00000000E+00  0.00000000E+00
  0.00000000E+00  0.00000000E+00  0.00000000E+00
  0.00000000E+00  0.00000000E+00  0.00000000E+00
  0.00000000E+00  0.00000000E+00  0.00000000E+00
  0.00000000E+00  0.00000000E+00  0.00000000E+00
  0.00000000E+00  0.00000000E+00  0.00000000E+00
  0.00000000E+00  0.00000000E+00  0.00000000E+00
  0.00000000E+00  0.00000000E+00  0.00000000E+00
  0.00000000E+00  0.00000000E+00  0.00000000E+00
  0.00000000E+00  0.00000000E+00  0.00000000E+00
  0.00000000E+00  0.00000000E+00  0.00000000E+00
  0.00000000E+00  0.00000000E+00  0.00000000E+00
  0.00000000E+00  0.00000000E+00  0.00000000E+00
  0.00000000E+00  0.00000000E+00  0.00000000E+00
  0.00000000E+00  0.00000000E+00  0.00000000E+00
  0.00000000E+00  0.00000000E+00  0.00000000E+00
  0.00000000E+00  0.00000000E+00  0.00000000E+00
  0.00000000E+00  0.00000000E+00  0.00000000E+00
  0.00000000E+00  0.00000000E+00  0.00000000E+00
  0.00000000E+00  0.00000000E+00  0.00000000E+00
  0.00000000E+00  0.00000000E+00  0.00000000E+00
  0.00000000E+00  0.00000000E+00  0.00000000E+00
  0.00000000E+00  0.00000000E+00  0.00000000E+00
  0.00000000E+00  0.00000000E+00  0.00000000E+00
  0.00000000E+00  0.00000000E+00  0.00000000E+00
  0.00000000E+00  0.00000000E+00  0.00000000E+00
  0.00000000E+00  0.00000000E+00  0.00000000E+00
  0.00000000E+00  0.00000000E+00  0.00000000E+00
  0.00000000E+00  0.00000000E+00  0.00000000E+00
  0.00000000E+00  0.00000000E+00  0.00000000E+00
  0.00000000E+00  0.00000000E+00  0.00000000E+00
  0.00000000E+00  0.00000000E+00  0.00000000E+00
  0.00000000E+00  0.00000000E+00  0.00000000E+00
  0.00000000E+00  0.00000000E+00  0.00000000E+00
  0.00000000E+00  0.00000000E+00  0.00000000E+00
  0.00000000E+00  0.00000000E+00  0.00000000E+00
  0.00000000E+00  0.00000000E+00  0.00000000E+00
  0.00000000E+00  0.00000000E+00  0.00000000E+00
  0.00000000E+00  0.00000000E+00  0.00000000E+00
  0.00000000E+00  0.00000000E+00  0.00000000E+00
  0.00000000E+00  0.00000000E+00  0.00000000E+00
  0.00000000E+00  0.00000000E+00  0.00000000E+00
  0.00000000E+00  0.00000000E+00  0.00000000E+00
  0.00000000E+00  0.00000000E+00  0.00000000E+00
  0.00000000E+00  0.00000000E+00  0.00000000E+00
  0.00000000E+00  0.00000000E+00  0.00000000E+00
  0.00000000E+00  0.00000000E+00  0.00000000E+00
  0.00000000E+00  0.00000000E+00  0.00000000E+00
  0.00000000E+00  0.00000000E+00  0.00000000E+00
  0.00000000E+00  0.00000000E+00  0.00000000E+00
  0.00000000E+00  0.00000000E+00  0.00000000E+00
