Al   Sc   N                             
   1.00000000000000     
   -10.0443181942081470   -0.0021156775270663    0.0026759661938595
    -5.0236793123119705    8.6866596357100345   -0.0054248579759679
    -0.0014185151870246   -0.0147927835735860   -9.5525427336490853
   Al   Sc   N 
    26    10    36
Direct
  0.1063246849974036  0.0942959800047376  0.3261571599735404
  0.7702057385271601  0.0939974914859789  0.8341458411925728
  0.4554711447759985  0.0879220697518193  0.3314640210265196
  0.5576379754100245  0.2040272722515226  0.0737302535115063
  0.2308476197770588  0.1970945196691716  0.5676507579955228
  0.7749443469320170  0.0974958217102326  0.3177799794469323
  0.8815105953944524  0.2057982169340491  0.0761458899031098
  0.4524528351606705  0.0953594532372790  0.8223159241006783
  0.5606606891527974  0.1966875097708893  0.5782695973687524
  0.1059117441100810  0.4277128653486244  0.3211828528645810
  0.2238610207060034  0.5460607613807440  0.0717904837598482
  0.7639539350343938  0.4291638664095956  0.8326799851452407
  0.5564274532174238  0.5333747137083833  0.0824179314340938
  0.7816709951381569  0.4250048984295063  0.3200429781613821
  0.8774271970032785  0.5474899110348872  0.0733290115503635
  0.4553379707110636  0.4214447334155338  0.8255819809030314
  0.5546667839429773  0.5462608777459153  0.5712446409510008
  0.2168292917520844  0.8674834682492900  0.0818428548055508
  0.7743714049490080  0.7713819437120790  0.8235656889450809
  0.8785062257660812  0.8863848756516717  0.5791031398689910
  0.4467621402670758  0.7684196633772373  0.3193145295991116
  0.5662766168722158  0.8758379719076643  0.0729914272539602
  0.1053789540962313  0.7692207067275945  0.8241129586744336
  0.2308193041747089  0.8753829844818952  0.5713518996743829
  0.8896663951255164  0.8700068871121118  0.0737156461154811
  0.5469507550715491  0.8781969919771626  0.5793984990577314
  0.2347000226388829  0.1954272608033563  0.1047858632704717
  0.8855512009607978  0.2020489401214931  0.5886508603611560
  0.1144651408766961  0.0912074280358866  0.8415249086849670
  0.8871162306064448  0.5340338343588584  0.5960046271927482
  0.4470128360951549  0.4237365101051509  0.3428194561700337
  0.1135563147067060  0.4211551875685586  0.8544385331936226
  0.2218301385649610  0.5357519760303120  0.6016639094105400
  0.1088456253246193  0.7645621390864292  0.3428099351625207
  0.7748147876402314  0.7615177664688559  0.3424928358437072
  0.4492768364945334  0.7580996692959943  0.8468410146566185
  0.2243177474183611  0.2044029430837995  0.3561958913563927
  0.0980128975960852  0.0852968764252111  0.1200006576195136
  0.8707292647398930  0.2125576660121666  0.8711077538316871
  0.7645660501752118  0.0886610145283910  0.6374432068296301
  0.5679938442758612  0.1863699575028761  0.3794784517879606
  0.4745390203378221  0.0811537228162962  0.1344359300415405
  0.2514163317550313  0.1860240817606851  0.8867754203135121
  0.1314026245827833  0.0860145968161632  0.6140956215619511
  0.8838433688284155  0.2067118277452309  0.3620142322815099
  0.7760619234658463  0.0938986727854854  0.1164844692701053
  0.5529321553752382  0.2072621995145525  0.8741276204470552
  0.4439214798803377  0.0960102047009173  0.6205472818193769
  0.2102711996736844  0.5276016947322546  0.3778937997624325
  0.1002025739788905  0.4471455580925934  0.1085549661810319
  0.8627580578507548  0.5521935746965880  0.8670032075552641
  0.7547429327736594  0.4353329431028072  0.6341248627905642
  0.5654888927835344  0.5525871137663572  0.3681466698093914
  0.4417485722907486  0.4258941037832926  0.1184928448522911
  0.2327009488409360  0.5482438815692134  0.8600566051059602
  0.1222544164838126  0.3991305988753666  0.6325810770944074
  0.8985097881835955  0.5165937394561340  0.3694738999471809
  0.7778348935629893  0.4269984464870262  0.1193743106886131
  0.5592202171730847  0.5210615754365762  0.8851404842955901
  0.4654144436340459  0.4174043462632184  0.6155864023037410
  0.2344826268969413  0.8801462420611088  0.3684066961172761
  0.1085165785001081  0.7591067373337026  0.1187256273880735
  0.8900243125828027  0.8707361259800237  0.8732166449379690
  0.7677141710816642  0.7797906071343803  0.6172339591217977
  0.5373224101775875  0.8814402523607185  0.3804978564669739
  0.4476376887162417  0.7639474157898221  0.1134911603670758
  0.2144887336696186  0.8608728417675238  0.8839715369672589
  0.0993490754560042  0.7867767790399185  0.6173779374588264
  0.8763028942380728  0.8959211514151377  0.3798565260044739
  0.7798566945699719  0.7610639112574020  0.1177742857035113
  0.5670340163129950  0.8860173333702548  0.8736495039699719
  0.4442861049613356  0.7605534175733766  0.6216453442243051
 
  0.00000000E+00  0.00000000E+00  0.00000000E+00
  0.00000000E+00  0.00000000E+00  0.00000000E+00
  0.00000000E+00  0.00000000E+00  0.00000000E+00
  0.00000000E+00  0.00000000E+00  0.00000000E+00
  0.00000000E+00  0.00000000E+00  0.00000000E+00
  0.00000000E+00  0.00000000E+00  0.00000000E+00
  0.00000000E+00  0.00000000E+00  0.00000000E+00
  0.00000000E+00  0.00000000E+00  0.00000000E+00
  0.00000000E+00  0.00000000E+00  0.00000000E+00
  0.00000000E+00  0.00000000E+00  0.00000000E+00
  0.00000000E+00  0.00000000E+00  0.00000000E+00
  0.00000000E+00  0.00000000E+00  0.00000000E+00
  0.00000000E+00  0.00000000E+00  0.00000000E+00
  0.00000000E+00  0.00000000E+00  0.00000000E+00
  0.00000000E+00  0.00000000E+00  0.00000000E+00
  0.00000000E+00  0.00000000E+00  0.00000000E+00
  0.00000000E+00  0.00000000E+00  0.00000000E+00
  0.00000000E+00  0.00000000E+00  0.00000000E+00
  0.00000000E+00  0.00000000E+00  0.00000000E+00
  0.00000000E+00  0.00000000E+00  0.00000000E+00
  0.00000000E+00  0.00000000E+00  0.00000000E+00
  0.00000000E+00  0.00000000E+00  0.00000000E+00
  0.00000000E+00  0.00000000E+00  0.00000000E+00
  0.00000000E+00  0.00000000E+00  0.00000000E+00
  0.00000000E+00  0.00000000E+00  0.00000000E+00
  0.00000000E+00  0.00000000E+00  0.00000000E+00
  0.00000000E+00  0.00000000E+00  0.00000000E+00
  0.00000000E+00  0.00000000E+00  0.00000000E+00
  0.00000000E+00  0.00000000E+00  0.00000000E+00
  0.00000000E+00  0.00000000E+00  0.00000000E+00
  0.00000000E+00  0.00000000E+00  0.00000000E+00
  0.00000000E+00  0.00000000E+00  0.00000000E+00
  0.00000000E+00  0.00000000E+00  0.00000000E+00
  0.00000000E+00  0.00000000E+00  0.00000000E+00
  0.00000000E+00  0.00000000E+00  0.00000000E+00
  0.00000000E+00  0.00000000E+00  0.00000000E+00
  0.00000000E+00  0.00000000E+00  0.00000000E+00
  0.00000000E+00  0.00000000E+00  0.00000000E+00
  0.00000000E+00  0.00000000E+00  0.00000000E+00
  0.00000000E+00  0.00000000E+00  0.00000000E+00
  0.00000000E+00  0.00000000E+00  0.00000000E+00
  0.00000000E+00  0.00000000E+00  0.00000000E+00
  0.00000000E+00  0.00000000E+00  0.00000000E+00
  0.00000000E+00  0.00000000E+00  0.00000000E+00
  0.00000000E+00  0.00000000E+00  0.00000000E+00
  0.00000000E+00  0.00000000E+00  0.00000000E+00
  0.00000000E+00  0.00000000E+00  0.00000000E+00
  0.00000000E+00  0.00000000E+00  0.00000000E+00
  0.00000000E+00  0.00000000E+00  0.00000000E+00
  0.00000000E+00  0.00000000E+00  0.00000000E+00
  0.00000000E+00  0.00000000E+00  0.00000000E+00
  0.00000000E+00  0.00000000E+00  0.00000000E+00
  0.00000000E+00  0.00000000E+00  0.00000000E+00
  0.00000000E+00  0.00000000E+00  0.00000000E+00
  0.00000000E+00  0.00000000E+00  0.00000000E+00
  0.00000000E+00  0.00000000E+00  0.00000000E+00
  0.00000000E+00  0.00000000E+00  0.00000000E+00
  0.00000000E+00  0.00000000E+00  0.00000000E+00
  0.00000000E+00  0.00000000E+00  0.00000000E+00
  0.00000000E+00  0.00000000E+00  0.00000000E+00
  0.00000000E+00  0.00000000E+00  0.00000000E+00
  0.00000000E+00  0.00000000E+00  0.00000000E+00
  0.00000000E+00  0.00000000E+00  0.00000000E+00
  0.00000000E+00  0.00000000E+00  0.00000000E+00
  0.00000000E+00  0.00000000E+00  0.00000000E+00
  0.00000000E+00  0.00000000E+00  0.00000000E+00
  0.00000000E+00  0.00000000E+00  0.00000000E+00
  0.00000000E+00  0.00000000E+00  0.00000000E+00
  0.00000000E+00  0.00000000E+00  0.00000000E+00
  0.00000000E+00  0.00000000E+00  0.00000000E+00
  0.00000000E+00  0.00000000E+00  0.00000000E+00
  0.00000000E+00  0.00000000E+00  0.00000000E+00
