Al   Sc   N                             
   1.00000000000000     
    -9.8903695643783340   -0.0021608644884993    0.0025908505781494
    -4.9459103507742190    8.5540338875756223   -0.0058471622672223
    -0.0041459805009374    0.0030892080359776   -9.9848085355422782
   Al   Sc   N 
    26    10    36
Direct
  0.1068308559578881  0.0935499379322522  0.3210841741444952
  0.7709380591152026  0.0943195597985849  0.8282323116677262
  0.4537846481133414  0.0888653772278687  0.3264031098500197
  0.5590667131395293  0.2033106518516234  0.0700684804051619
  0.2310727118446962  0.1976411008735397  0.5640914708936435
  0.7748939072749295  0.0964371328986786  0.3168426562262994
  0.8815848223469800  0.2049511187199613  0.0735544237637455
  0.4523740484965870  0.0950515251412156  0.8209004216043425
  0.5597738486145829  0.1966124410244845  0.5755684000349177
  0.1066844512082170  0.4279382991816760  0.3156963506711818
  0.2245819586205116  0.5461251819581463  0.0648784668485973
  0.7658182421168576  0.4280722645761870  0.8288607399602483
  0.5563262794020005  0.5340499420998981  0.0753375470338611
  0.7808523029770598  0.4254304572943965  0.3164227553510841
  0.8771578575036401  0.5472851828798397  0.0690003863249729
  0.4560184713317170  0.4208119125352781  0.8215209261544487
  0.5558275434515849  0.5445807982743176  0.5705512015001517
  0.2175282112707109  0.8679806092700844  0.0756042988500383
  0.7738027682480606  0.7710931051505554  0.8213136920614375
  0.8788578010049761  0.8849213373477909  0.5774559462426652
  0.4459369071642030  0.7678248692949907  0.3188941484406698
  0.5649745655751630  0.8751485147543647  0.0704837084038132
  0.1055177416501749  0.7699328687498763  0.8210442266544931
  0.2295811259279574  0.8751691832142541  0.5685051675658812
  0.8892684003602369  0.8709863910746520  0.0683357348533775
  0.5475052358631984  0.8783753875673597  0.5746372118109448
  0.2327857488404277  0.1961382593928320  0.0993608670859416
  0.8858137411484819  0.2017775465869320  0.5783954410298051
  0.1134999668896555  0.0928753335247734  0.8317044879324484
  0.8876754234610331  0.5345911877585792  0.5868393758086157
  0.4469913635481930  0.4244054962722146  0.3348570087030041
  0.1126366637085709  0.4225453455053838  0.8486609623163304
  0.2219746876183990  0.5367423871246046  0.5959951698615527
  0.1088252290829175  0.7644029592167598  0.3328803156218143
  0.7746087571707889  0.7618344524870295  0.3329700966395777
  0.4496566414648697  0.7584191630630528  0.8379122559450281
  0.2241998497790192  0.2045687171991375  0.3582123228076739
  0.0978366065358429  0.0835744777893481  0.1270418475530306
  0.8708251344290829  0.2121119725863991  0.8790893534218327
  0.7649548257569734  0.0889201587821518  0.6402425195029053
  0.5668086629887839  0.1866484977402365  0.3847594075434912
  0.4746659094305414  0.0810899690435392  0.1380059433851457
  0.2508323421578851  0.1860550698414514  0.8915818585838551
  0.1311148263625412  0.0866492281118880  0.6171399725566218
  0.8840017223990557  0.2067346644399848  0.3642704915428183
  0.7763797355026938  0.0928846145495115  0.1238267646090421
  0.5542848547905734  0.2063787939971462  0.8783452374139316
  0.4437122197798402  0.0954272496587336  0.6264811697018331
  0.2100362390112593  0.5278061529265159  0.3834566102682828
  0.1000247190635761  0.4486009264542901  0.1123770436022227
  0.8618489712030168  0.5523623974192731  0.8737955819648278
  0.7569971775751867  0.4341961802110745  0.6399097902301278
  0.5662566863600489  0.5518285228020972  0.3768561640687267
  0.4422454725010851  0.4263127166063754  0.1206413230363523
  0.2336057765088171  0.5488335027745421  0.8641893481206111
  0.1224360649444662  0.3987358546556905  0.6378941806677432
  0.8990950366517012  0.5164238498077225  0.3723655723484072
  0.7767054405815728  0.4276389340145670  0.1245100939162427
  0.5601028982135006  0.5208959446537662  0.8872687267589825
  0.4663435286251456  0.4163476306177998  0.6229675089496141
  0.2334642419234285  0.8800612025195491  0.3760372902011966
  0.1090321935262324  0.7591255161745707  0.1196859187827712
  0.8895454514827321  0.8716570223957305  0.8766129211532956
  0.7668059697987601  0.7797913690786018  0.6253157964141423
  0.5372213357012399  0.8819848030409361  0.3844557536529933
  0.4466858341647821  0.7631395061267909  0.1200338599960560
  0.2141657595684592  0.8627778588336454  0.8876968668558547
  0.0987461506249900  0.7877277618668757  0.6254892836498200
  0.8769869043852978  0.8946789571773976  0.3874974372140372
  0.7799456231923472  0.7612643715123610  0.1199423372455968
  0.5666576176783309  0.8858515584266300  0.8803872474543795
  0.4443473972852061  0.7606880282333464  0.6237547917555091
 
  0.00000000E+00  0.00000000E+00  0.00000000E+00
  0.00000000E+00  0.00000000E+00  0.00000000E+00
  0.00000000E+00  0.00000000E+00  0.00000000E+00
  0.00000000E+00  0.00000000E+00  0.00000000E+00
  0.00000000E+00  0.00000000E+00  0.00000000E+00
  0.00000000E+00  0.00000000E+00  0.00000000E+00
  0.00000000E+00  0.00000000E+00  0.00000000E+00
  0.00000000E+00  0.00000000E+00  0.00000000E+00
  0.00000000E+00  0.00000000E+00  0.00000000E+00
  0.00000000E+00  0.00000000E+00  0.00000000E+00
  0.00000000E+00  0.00000000E+00  0.00000000E+00
  0.00000000E+00  0.00000000E+00  0.00000000E+00
  0.00000000E+00  0.00000000E+00  0.00000000E+00
  0.00000000E+00  0.00000000E+00  0.00000000E+00
  0.00000000E+00  0.00000000E+00  0.00000000E+00
  0.00000000E+00  0.00000000E+00  0.00000000E+00
  0.00000000E+00  0.00000000E+00  0.00000000E+00
  0.00000000E+00  0.00000000E+00  0.00000000E+00
  0.00000000E+00  0.00000000E+00  0.00000000E+00
  0.00000000E+00  0.00000000E+00  0.00000000E+00
  0.00000000E+00  0.00000000E+00  0.00000000E+00
  0.00000000E+00  0.00000000E+00  0.00000000E+00
  0.00000000E+00  0.00000000E+00  0.00000000E+00
  0.00000000E+00  0.00000000E+00  0.00000000E+00
  0.00000000E+00  0.00000000E+00  0.00000000E+00
  0.00000000E+00  0.00000000E+00  0.00000000E+00
  0.00000000E+00  0.00000000E+00  0.00000000E+00
  0.00000000E+00  0.00000000E+00  0.00000000E+00
  0.00000000E+00  0.00000000E+00  0.00000000E+00
  0.00000000E+00  0.00000000E+00  0.00000000E+00
  0.00000000E+00  0.00000000E+00  0.00000000E+00
  0.00000000E+00  0.00000000E+00  0.00000000E+00
  0.00000000E+00  0.00000000E+00  0.00000000E+00
  0.00000000E+00  0.00000000E+00  0.00000000E+00
  0.00000000E+00  0.00000000E+00  0.00000000E+00
  0.00000000E+00  0.00000000E+00  0.00000000E+00
  0.00000000E+00  0.00000000E+00  0.00000000E+00
  0.00000000E+00  0.00000000E+00  0.00000000E+00
  0.00000000E+00  0.00000000E+00  0.00000000E+00
  0.00000000E+00  0.00000000E+00  0.00000000E+00
  0.00000000E+00  0.00000000E+00  0.00000000E+00
  0.00000000E+00  0.00000000E+00  0.00000000E+00
  0.00000000E+00  0.00000000E+00  0.00000000E+00
  0.00000000E+00  0.00000000E+00  0.00000000E+00
  0.00000000E+00  0.00000000E+00  0.00000000E+00
  0.00000000E+00  0.00000000E+00  0.00000000E+00
  0.00000000E+00  0.00000000E+00  0.00000000E+00
  0.00000000E+00  0.00000000E+00  0.00000000E+00
  0.00000000E+00  0.00000000E+00  0.00000000E+00
  0.00000000E+00  0.00000000E+00  0.00000000E+00
  0.00000000E+00  0.00000000E+00  0.00000000E+00
  0.00000000E+00  0.00000000E+00  0.00000000E+00
  0.00000000E+00  0.00000000E+00  0.00000000E+00
  0.00000000E+00  0.00000000E+00  0.00000000E+00
  0.00000000E+00  0.00000000E+00  0.00000000E+00
  0.00000000E+00  0.00000000E+00  0.00000000E+00
  0.00000000E+00  0.00000000E+00  0.00000000E+00
  0.00000000E+00  0.00000000E+00  0.00000000E+00
  0.00000000E+00  0.00000000E+00  0.00000000E+00
  0.00000000E+00  0.00000000E+00  0.00000000E+00
  0.00000000E+00  0.00000000E+00  0.00000000E+00
  0.00000000E+00  0.00000000E+00  0.00000000E+00
  0.00000000E+00  0.00000000E+00  0.00000000E+00
  0.00000000E+00  0.00000000E+00  0.00000000E+00
  0.00000000E+00  0.00000000E+00  0.00000000E+00
  0.00000000E+00  0.00000000E+00  0.00000000E+00
  0.00000000E+00  0.00000000E+00  0.00000000E+00
  0.00000000E+00  0.00000000E+00  0.00000000E+00
  0.00000000E+00  0.00000000E+00  0.00000000E+00
  0.00000000E+00  0.00000000E+00  0.00000000E+00
  0.00000000E+00  0.00000000E+00  0.00000000E+00
  0.00000000E+00  0.00000000E+00  0.00000000E+00
