Al   Sc   N                             
   1.00000000000000     
    -9.8469105926789293   -0.0017089948741694    0.0034420067352508
    -4.9219777534028202    8.5179341057697098   -0.0016241193546785
     0.0038509416277841    0.0045713362235381  -10.1148704624052996
   Al   Sc   N 
    26    10    36
Direct
  0.1188206068297717  0.0927809279707148  0.4099381601955727
  0.7728110725469222  0.0980471750810139  0.9083584805339413
  0.4445155523526267  0.0928973683850884  0.4107854194556495
  0.5638249982721391  0.1958467321165074  0.1549644638778460
  0.2360149624936270  0.1940426274322391  0.6556246394987681
  0.7717245508299015  0.0922189959749957  0.4067838917200888
  0.8851646964652460  0.2023683136354606  0.1641156195306266
  0.4581235862592408  0.0914098380460899  0.9050050529988525
  0.5561342058729295  0.2020574562445816  0.6598458600858450
  0.1123561425784203  0.4169878357619439  0.4105900150313957
  0.2186512237483669  0.5399059238810295  0.1570675730583844
  0.7704886195964917  0.4253746885536316  0.9135375360085121
  0.5570410802304977  0.5446301474306097  0.1566526481547257
  0.7757521256025086  0.4289802067947974  0.4005045380528003
  0.8888415794821398  0.5350851678922197  0.1578684345428769
  0.4504007249121216  0.4229827179605152  0.9135207268168131
  0.5558882659197408  0.5337993124316753  0.6579486992392845
  0.2255431172052766  0.8715579715461388  0.1604640439836658
  0.7747947199582370  0.7654609231671330  0.9144005087436540
  0.8814898375163267  0.8781774141223480  0.6634179068018256
  0.4456685303883319  0.7670195636415897  0.4097392038755885
  0.5529748240295689  0.8735619691819565  0.1572877103390553
  0.1105328265090790  0.7611645806329577  0.9134341781196014
  0.2215213587983484  0.8719011066477762  0.6550674673532768
  0.8858783589786512  0.8788476535026035  0.1498343453589257
  0.5579175768570082  0.8798658896557754  0.6571837677523078
  0.2278690753471935  0.2013571588019047  0.1567076881374163
  0.8836495351579003  0.2041045781484669  0.6406938506100559
  0.1055097585465532  0.0923883911869368  0.9007528428092115
  0.8774964005977210  0.5449324148968984  0.6518012339319696
  0.4530867793828293  0.4220490302256152  0.3911166616413766
  0.1092056667066998  0.4303564783521239  0.8997193070236307
  0.2270118825576404  0.5423770563481369  0.6526969955371200
  0.1065258677634588  0.7698891020443313  0.3945701684371130
  0.7734154338477381  0.7646116178327702  0.3906352705096268
  0.4490992085401118  0.7592080236030441  0.8932195300798611
  0.2257893261904158  0.2027415630528751  0.3646431407241053
  0.0998400566341928  0.0868527816270159  0.1108631903073416
  0.8678988366574174  0.2153823732006757  0.8508138694989569
  0.7639476274543071  0.0846066251281172  0.5959791851736185
  0.5630695829583630  0.1838755141558011  0.3427511224944340
  0.4659507704552865  0.0832931995612824  0.0929363420929477
  0.2460610915071584  0.1908246273570811  0.8479407634281415
  0.1314618243880759  0.0842453813223329  0.6017493096331208
  0.8867575945633064  0.2032429024504125  0.3607908061949558
  0.7774699922807145  0.0971901688306218  0.0974763484922789
  0.5565519360723812  0.2069644807542161  0.8518445088395623
  0.4484006943912959  0.0942320745304244  0.6001793392449173
  0.2118735405177787  0.5285353771044328  0.3496448957250138
  0.1025841081165453  0.4420209574131704  0.1061555154711940
  0.8627766676793627  0.5498797006570015  0.8622107439915965
  0.7558791453817619  0.4391695614066933  0.5857258405232102
  0.5632521509534527  0.5556599286347108  0.3433279432998333
  0.4471809636803528  0.4257768077924098  0.1112660556324983
  0.2342409845630513  0.5464029683927336  0.8634141645937561
  0.1190704123172424  0.4093308180923145  0.6047740378224660
  0.9005746249741193  0.5165816555684160  0.3498816302444681
  0.7777272572097615  0.4240217680616638  0.1054708192567020
  0.5630601957218246  0.5187274216055329  0.8490171329927847
  0.4631839813755718  0.4152117348664390  0.6011763234263370
  0.2344246150410996  0.8812504568795845  0.3490589286908801
  0.1126805743836101  0.7619319916963505  0.1085558319768722
  0.8891282879337439  0.8712767905627672  0.8592955134965052
  0.7693572609437922  0.7808459362191300  0.6000459552790574
  0.5338671202646097  0.8857894762889060  0.3459808209322119
  0.4435146196288429  0.7636983046868124  0.1037119048903890
  0.2125157527152624  0.8615248410120131  0.8420402380443122
  0.0944527116675502  0.7845949121126239  0.6030897192096347
  0.8778411293843860  0.8934637565565566  0.3338687139035557
  0.7763557258393519  0.7599623554229424  0.1103880922840759
  0.5692832078041192  0.8822672175966986  0.8453362744161765
  0.4461168393542820  0.7601121877454275  0.6086116955088414
 
  0.00000000E+00  0.00000000E+00  0.00000000E+00
  0.00000000E+00  0.00000000E+00  0.00000000E+00
  0.00000000E+00  0.00000000E+00  0.00000000E+00
  0.00000000E+00  0.00000000E+00  0.00000000E+00
  0.00000000E+00  0.00000000E+00  0.00000000E+00
  0.00000000E+00  0.00000000E+00  0.00000000E+00
  0.00000000E+00  0.00000000E+00  0.00000000E+00
  0.00000000E+00  0.00000000E+00  0.00000000E+00
  0.00000000E+00  0.00000000E+00  0.00000000E+00
  0.00000000E+00  0.00000000E+00  0.00000000E+00
  0.00000000E+00  0.00000000E+00  0.00000000E+00
  0.00000000E+00  0.00000000E+00  0.00000000E+00
  0.00000000E+00  0.00000000E+00  0.00000000E+00
  0.00000000E+00  0.00000000E+00  0.00000000E+00
  0.00000000E+00  0.00000000E+00  0.00000000E+00
  0.00000000E+00  0.00000000E+00  0.00000000E+00
  0.00000000E+00  0.00000000E+00  0.00000000E+00
  0.00000000E+00  0.00000000E+00  0.00000000E+00
  0.00000000E+00  0.00000000E+00  0.00000000E+00
  0.00000000E+00  0.00000000E+00  0.00000000E+00
  0.00000000E+00  0.00000000E+00  0.00000000E+00
  0.00000000E+00  0.00000000E+00  0.00000000E+00
  0.00000000E+00  0.00000000E+00  0.00000000E+00
  0.00000000E+00  0.00000000E+00  0.00000000E+00
  0.00000000E+00  0.00000000E+00  0.00000000E+00
  0.00000000E+00  0.00000000E+00  0.00000000E+00
  0.00000000E+00  0.00000000E+00  0.00000000E+00
  0.00000000E+00  0.00000000E+00  0.00000000E+00
  0.00000000E+00  0.00000000E+00  0.00000000E+00
  0.00000000E+00  0.00000000E+00  0.00000000E+00
  0.00000000E+00  0.00000000E+00  0.00000000E+00
  0.00000000E+00  0.00000000E+00  0.00000000E+00
  0.00000000E+00  0.00000000E+00  0.00000000E+00
  0.00000000E+00  0.00000000E+00  0.00000000E+00
  0.00000000E+00  0.00000000E+00  0.00000000E+00
  0.00000000E+00  0.00000000E+00  0.00000000E+00
  0.00000000E+00  0.00000000E+00  0.00000000E+00
  0.00000000E+00  0.00000000E+00  0.00000000E+00
  0.00000000E+00  0.00000000E+00  0.00000000E+00
  0.00000000E+00  0.00000000E+00  0.00000000E+00
  0.00000000E+00  0.00000000E+00  0.00000000E+00
  0.00000000E+00  0.00000000E+00  0.00000000E+00
  0.00000000E+00  0.00000000E+00  0.00000000E+00
  0.00000000E+00  0.00000000E+00  0.00000000E+00
  0.00000000E+00  0.00000000E+00  0.00000000E+00
  0.00000000E+00  0.00000000E+00  0.00000000E+00
  0.00000000E+00  0.00000000E+00  0.00000000E+00
  0.00000000E+00  0.00000000E+00  0.00000000E+00
  0.00000000E+00  0.00000000E+00  0.00000000E+00
  0.00000000E+00  0.00000000E+00  0.00000000E+00
  0.00000000E+00  0.00000000E+00  0.00000000E+00
  0.00000000E+00  0.00000000E+00  0.00000000E+00
  0.00000000E+00  0.00000000E+00  0.00000000E+00
  0.00000000E+00  0.00000000E+00  0.00000000E+00
  0.00000000E+00  0.00000000E+00  0.00000000E+00
  0.00000000E+00  0.00000000E+00  0.00000000E+00
  0.00000000E+00  0.00000000E+00  0.00000000E+00
  0.00000000E+00  0.00000000E+00  0.00000000E+00
  0.00000000E+00  0.00000000E+00  0.00000000E+00
  0.00000000E+00  0.00000000E+00  0.00000000E+00
  0.00000000E+00  0.00000000E+00  0.00000000E+00
  0.00000000E+00  0.00000000E+00  0.00000000E+00
  0.00000000E+00  0.00000000E+00  0.00000000E+00
  0.00000000E+00  0.00000000E+00  0.00000000E+00
  0.00000000E+00  0.00000000E+00  0.00000000E+00
  0.00000000E+00  0.00000000E+00  0.00000000E+00
  0.00000000E+00  0.00000000E+00  0.00000000E+00
  0.00000000E+00  0.00000000E+00  0.00000000E+00
  0.00000000E+00  0.00000000E+00  0.00000000E+00
  0.00000000E+00  0.00000000E+00  0.00000000E+00
  0.00000000E+00  0.00000000E+00  0.00000000E+00
  0.00000000E+00  0.00000000E+00  0.00000000E+00
