Al   Sc   N                             
   1.00000000000000     
   -10.3397949951755557   -0.0019650543222897    0.0029596849128933
    -5.1566987002639078    8.9479150584290057   -0.0040171770051200
    -0.0022695177072611   -0.0187810575552203   -8.6933774837333040
   Al   Sc   N 
    26    10    36
Direct
  0.1147279715537053  0.0924133414291290  0.3527660117733760
  0.7712236551235989  0.0991479779740345  0.8632390902406257
  0.4490804749080510  0.0919843699600591  0.3625114931143258
  0.5623532234195991  0.1989458096897820  0.1065886188687557
  0.2337423111871146  0.1961003457211703  0.5994025595207191
  0.7732384909570484  0.0942153390079241  0.3561615853689801
  0.8840534663687762  0.2033055340058851  0.1100643005519402
  0.4561592691683103  0.0916808128950848  0.8607757919572165
  0.5572421165539154  0.2006745623666930  0.6151669441907828
  0.1105606463093878  0.4219281012272091  0.3510710435548461
  0.2213516066697423  0.5414421456216516  0.1006721511182036
  0.7705807515863086  0.4264041128575258  0.8721961002329692
  0.5554211891496550  0.5412286838050306  0.1070268540409458
  0.7746502673033078  0.4288785520754033  0.3475355999766450
  0.8849224777644835  0.5394733507242009  0.1044634119613619
  0.4512510603710922  0.4225007896035180  0.8605745189614424
  0.5542025655840987  0.5386334572488352  0.6082609571806046
  0.2234321009707756  0.8700688938547358  0.1060603512892939
  0.7736568878231935  0.7657764646683347  0.8604482424895892
  0.8823809446232573  0.8791990500365969  0.6257920940224295
  0.4458521192655880  0.7656616256728341  0.3538902627451961
  0.5569061254147343  0.8734035904389899  0.1089402081629203
  0.1093519212409007  0.7632725016827493  0.8595616175728509
  0.2245821040391718  0.8728525086386014  0.5998246682878303
  0.8851303696463830  0.8787131002596666  0.0986568479516094
  0.5550776767680219  0.8793702987631491  0.6075862250643382
  0.2319242296924955  0.1986753206220726  0.1081818523903095
  0.8824619379812120  0.2057953253132254  0.5979813835234893
  0.1088592222819500  0.0924618057985285  0.8527311674838316
  0.8811291677734658  0.5394642086114345  0.6031374809150805
  0.4518891851372615  0.4219686276603767  0.3483760658916850
  0.1108851845811856  0.4264015119390336  0.8557056195299566
  0.2246913149959227  0.5396811841146274  0.6047314820282210
  0.1053312615165609  0.7694942747419731  0.3492235843839495
  0.7752921652307734  0.7661510680068204  0.3494135693844527
  0.4486171774137659  0.7599430198445276  0.8526018386499956
  0.2277110707188541  0.2022562344922108  0.3572214079117302
  0.1025652676596209  0.0869981593131754  0.1101728690848987
  0.8713899710132296  0.2143920224706406  0.8546060208846811
  0.7671058855048756  0.0860992311897419  0.5976882039998017
  0.5640127422248895  0.1885664743366675  0.3407863699300862
  0.4664072288145746  0.0834930345519567  0.0953225235575701
  0.2451471777884535  0.1914363650899631  0.8490229523511346
  0.1260030084009713  0.0872664178381015  0.5924365170275507
  0.8845667080307607  0.2044027976947049  0.3420128131872318
  0.7754129874191378  0.0974687509146221  0.0904176007875890
  0.5560850343456849  0.2052040476766734  0.8478911945392795
  0.4483076074830805  0.0949649996255104  0.5944577200904675
  0.2150420989364648  0.5316638522483643  0.3456667885002531
  0.1040674069902607  0.4394798498921730  0.1061922247389688
  0.8679898341490784  0.5455141900241642  0.8598794625962896
  0.7577080815189987  0.4355509043303698  0.5848651659907560
  0.5600115997424595  0.5511436727467540  0.3380814960003065
  0.4468630087421133  0.4241368128569434  0.0931520885376500
  0.2310430889958752  0.5451762466096852  0.8589065295900227
  0.1180349426986851  0.4098879352910956  0.5989026398142130
  0.8954165438656361  0.5233332951977019  0.3416939117566713
  0.7764003676389848  0.4255139131223160  0.1026098067129482
  0.5620559226964374  0.5242398289653423  0.8531884335175874
  0.4616819683312414  0.4171428562147526  0.6048360556888213
  0.2323309016006476  0.8778830617443418  0.3490548387049728
  0.1115068568519177  0.7619995702076281  0.0927994668833563
  0.8873726126218600  0.8739570907993297  0.8566796536161831
  0.7721379184253934  0.7774137161552872  0.6056410892010220
  0.5407646214478419  0.8818189789877735  0.3485974677137449
  0.4446445856625942  0.7649694904423328  0.1048593245029465
  0.2171510412659217  0.8632743418814570  0.8497170748426512
  0.0970058507109357  0.7817994493753346  0.6066782501474464
  0.8786969601284937  0.8912698085834307  0.3283891876074136
  0.7753555531485432  0.7612497877904545  0.0925841782570345
  0.5637117929260640  0.8818883925452710  0.8432858443046811
  0.4460211504294236  0.7595646653830030  0.5940771394682045
 
  0.00000000E+00  0.00000000E+00  0.00000000E+00
  0.00000000E+00  0.00000000E+00  0.00000000E+00
  0.00000000E+00  0.00000000E+00  0.00000000E+00
  0.00000000E+00  0.00000000E+00  0.00000000E+00
  0.00000000E+00  0.00000000E+00  0.00000000E+00
  0.00000000E+00  0.00000000E+00  0.00000000E+00
  0.00000000E+00  0.00000000E+00  0.00000000E+00
  0.00000000E+00  0.00000000E+00  0.00000000E+00
  0.00000000E+00  0.00000000E+00  0.00000000E+00
  0.00000000E+00  0.00000000E+00  0.00000000E+00
  0.00000000E+00  0.00000000E+00  0.00000000E+00
  0.00000000E+00  0.00000000E+00  0.00000000E+00
  0.00000000E+00  0.00000000E+00  0.00000000E+00
  0.00000000E+00  0.00000000E+00  0.00000000E+00
  0.00000000E+00  0.00000000E+00  0.00000000E+00
  0.00000000E+00  0.00000000E+00  0.00000000E+00
  0.00000000E+00  0.00000000E+00  0.00000000E+00
  0.00000000E+00  0.00000000E+00  0.00000000E+00
  0.00000000E+00  0.00000000E+00  0.00000000E+00
  0.00000000E+00  0.00000000E+00  0.00000000E+00
  0.00000000E+00  0.00000000E+00  0.00000000E+00
  0.00000000E+00  0.00000000E+00  0.00000000E+00
  0.00000000E+00  0.00000000E+00  0.00000000E+00
  0.00000000E+00  0.00000000E+00  0.00000000E+00
  0.00000000E+00  0.00000000E+00  0.00000000E+00
  0.00000000E+00  0.00000000E+00  0.00000000E+00
  0.00000000E+00  0.00000000E+00  0.00000000E+00
  0.00000000E+00  0.00000000E+00  0.00000000E+00
  0.00000000E+00  0.00000000E+00  0.00000000E+00
  0.00000000E+00  0.00000000E+00  0.00000000E+00
  0.00000000E+00  0.00000000E+00  0.00000000E+00
  0.00000000E+00  0.00000000E+00  0.00000000E+00
  0.00000000E+00  0.00000000E+00  0.00000000E+00
  0.00000000E+00  0.00000000E+00  0.00000000E+00
  0.00000000E+00  0.00000000E+00  0.00000000E+00
  0.00000000E+00  0.00000000E+00  0.00000000E+00
  0.00000000E+00  0.00000000E+00  0.00000000E+00
  0.00000000E+00  0.00000000E+00  0.00000000E+00
  0.00000000E+00  0.00000000E+00  0.00000000E+00
  0.00000000E+00  0.00000000E+00  0.00000000E+00
  0.00000000E+00  0.00000000E+00  0.00000000E+00
  0.00000000E+00  0.00000000E+00  0.00000000E+00
  0.00000000E+00  0.00000000E+00  0.00000000E+00
  0.00000000E+00  0.00000000E+00  0.00000000E+00
  0.00000000E+00  0.00000000E+00  0.00000000E+00
  0.00000000E+00  0.00000000E+00  0.00000000E+00
  0.00000000E+00  0.00000000E+00  0.00000000E+00
  0.00000000E+00  0.00000000E+00  0.00000000E+00
  0.00000000E+00  0.00000000E+00  0.00000000E+00
  0.00000000E+00  0.00000000E+00  0.00000000E+00
  0.00000000E+00  0.00000000E+00  0.00000000E+00
  0.00000000E+00  0.00000000E+00  0.00000000E+00
  0.00000000E+00  0.00000000E+00  0.00000000E+00
  0.00000000E+00  0.00000000E+00  0.00000000E+00
  0.00000000E+00  0.00000000E+00  0.00000000E+00
  0.00000000E+00  0.00000000E+00  0.00000000E+00
  0.00000000E+00  0.00000000E+00  0.00000000E+00
  0.00000000E+00  0.00000000E+00  0.00000000E+00
  0.00000000E+00  0.00000000E+00  0.00000000E+00
  0.00000000E+00  0.00000000E+00  0.00000000E+00
  0.00000000E+00  0.00000000E+00  0.00000000E+00
  0.00000000E+00  0.00000000E+00  0.00000000E+00
  0.00000000E+00  0.00000000E+00  0.00000000E+00
  0.00000000E+00  0.00000000E+00  0.00000000E+00
  0.00000000E+00  0.00000000E+00  0.00000000E+00
  0.00000000E+00  0.00000000E+00  0.00000000E+00
  0.00000000E+00  0.00000000E+00  0.00000000E+00
  0.00000000E+00  0.00000000E+00  0.00000000E+00
  0.00000000E+00  0.00000000E+00  0.00000000E+00
  0.00000000E+00  0.00000000E+00  0.00000000E+00
  0.00000000E+00  0.00000000E+00  0.00000000E+00
  0.00000000E+00  0.00000000E+00  0.00000000E+00
