generated by phonopy                    
   1.00000000000000     
    10.0351470768999995   -0.0000022330999784   -0.0000001056124209
    -5.0175765436399997    8.6906901959899994    0.0000001395531216
    -0.0000001735893656    0.0000001431815548   14.9533752540999991
   Pb   P    O 
    20    11    50
Direct
  0.6841580127046996  0.6640672144116948  0.1242722169397652
  0.9974656519589118  0.7514184726948798  0.6217935030530128
  0.0086732397560780  0.2592690958245640  0.3730032384514743
  0.0087089839374741  0.2597523818631089  0.8621191602261717
  0.2722417697288648  0.2649412172195227  0.1243394376794313
  0.2419304392783559  0.2236179962166673  0.6206811395811300
  0.7592476165252577  0.7546818597905300  0.3753784626766006
  0.7560994161506471  0.7463286511791907  0.8665935658149593
  0.7120662814484220  0.9966975155983491  0.1076251217286455
  0.7725710996008317  0.0032253571970315  0.6174879325715068
  0.2651641891625687  0.9977940610665641  0.3697595677944818
  0.2610578268668391  0.0013733500140134  0.8780984991966676
  0.6698784774169866  0.3664257877313091  0.0012357059905028
  0.6690607677218026  0.3336614639566591  0.4971936429347394
  0.3042289816555339  0.6630509694009419  0.0031267830128456
  0.3506858834509075  0.6655249137723800  0.5016250019019708
  0.3159182919487264  0.6742558708538482  0.2430012961808998
  0.3535957566822532  0.6812234297286821  0.7439092854008820
  0.6786429942888006  0.3677110790662113  0.2482912586541559
  0.6655457065067196  0.3308872667293770  0.7490998405957257
  0.6288507827167535  0.5917024778253790  0.6242155336704727
  0.3820834603249068  0.4057081502275111  0.3761911367216939
  0.3771633343405369  0.4014980214910935  0.8715509363920262
  0.3790906509717544  0.0138414870095929  0.1236541159849054
  0.4169237159464956  0.0319237726570094  0.6232157052428988
  0.6172999648669517  0.9853743864915643  0.3744442998914081
  0.6121169789734680  0.9872815410172038  0.8725312504106455
  0.9653766008166897  0.3677749238955812  0.1336424929392592
  0.9880234191620190  0.3757558399156693  0.6257504671892775
  0.0396679609631860  0.6306503532754135  0.3889142670482570
  0.0361070588063370  0.6320493843731114  0.8585687125420449
  0.5191825447797385  0.7452074743169206  0.1210523928539970
  0.5243978196442072  0.6662545735520169  0.6246076491819821
  0.4832108223121523  0.3278693330823756  0.3757366523149557
  0.4751421843194450  0.3200085146447478  0.8718677082651851
  0.3051882848498693  0.8372907261919025  0.1234064313986636
  0.3504139337926020  0.8548569260233947  0.6226840877108870
  0.6928570543725385  0.1622918719523838  0.3838709679601635
  0.6926539470470345  0.1644071916893708  0.8654470607223814
  0.1433743835278420  0.4767746705683891  0.1187446475171470
  0.1638030671909192  0.4906481269427445  0.6254588706483020
  0.8624850581137338  0.5331593411921602  0.3891773933571514
  0.8586128466991667  0.5369698249938253  0.8571069837611631
  0.7261614328626607  0.6177657540721597  0.9952662096951457
  0.7345871323131234  0.6410965345353787  0.5394609363092968
  0.2768746153830861  0.3588083963219546  0.4611634253198105
  0.2838873930586914  0.3722251389063445  0.9602067231210327
  0.3380145364244314  0.0761257103529189  0.0391562142643949
  0.3634094521361746  0.0861571029970634  0.5385747287730425
  0.6392948425346177  0.9114813359871761  0.4616945495007201
  0.6753702636201524  0.9390822588105934  0.9558163304235663
  0.9056839341861007  0.2312484920903799  0.0622590708826820
  0.9363514756314615  0.2617460198947583  0.5445963085209939
  0.1030488801518885  0.7434332087363842  0.4711907886443996
  0.1031964134686163  0.7395119009880347  0.9416247274450171
  0.2734605326534023  0.3560699342443883  0.2923791213689526
  0.2562190647138962  0.3360430862825297  0.7931471907897460
  0.7413077990890002  0.6232898568522174  0.2499469940992896
  0.7394768949650157  0.6452177597829518  0.7069735427394477
  0.6859624602725063  0.9396199704627151  0.2940522652534767
  0.6393232957747799  0.9118914559169440  0.7886675596612207
  0.3361779053032876  0.0755005357561984  0.2075191229976170
  0.3627566571287204  0.0856384905990026  0.7075574062167078
  0.1083746437838968  0.7358834294010776  0.3047963665821243
  0.1033833822746644  0.7393667159292363  0.7744565526540157
  0.9334306506595453  0.2948262170776914  0.2279892683905729
  0.9357358684492496  0.2691040801977991  0.7109608057837278
  0.5327525956176444  0.4050413595275089  0.1253652311965752
  0.5301611000159170  0.4120282077311330  0.6261279122655949
  0.4860520599945346  0.5870476246685854  0.3768281583095927
  0.4840474991072412  0.5798842481692574  0.8566267711604567
  0.5643144100656343  0.0931449452059994  0.1255486331567397
  0.5978594950813800  0.1194892434365897  0.6235764998106745
  0.4369447210575785  0.9090746240012635  0.3587217466795920
  0.4324138374354760  0.9130579478504544  0.8847209462270271
  0.8762790451037361  0.4556356253020297  0.1195553521404378
  0.8953148630461030  0.4645470725649403  0.6233956824636309
  0.1115703799911714  0.5219756482835365  0.3922202835143977
  0.1050798854223203  0.5202288455149073  0.8613441091348903
  0.8595899418081387  0.9122013850443906  0.1217947269353488
  0.0123895737085391  0.9808824437050632  0.6185199402685413
 
  0.00000000E+00  0.00000000E+00  0.00000000E+00
  0.00000000E+00  0.00000000E+00  0.00000000E+00
  0.00000000E+00  0.00000000E+00  0.00000000E+00
  0.00000000E+00  0.00000000E+00  0.00000000E+00
  0.00000000E+00  0.00000000E+00  0.00000000E+00
  0.00000000E+00  0.00000000E+00  0.00000000E+00
  0.00000000E+00  0.00000000E+00  0.00000000E+00
  0.00000000E+00  0.00000000E+00  0.00000000E+00
  0.00000000E+00  0.00000000E+00  0.00000000E+00
  0.00000000E+00  0.00000000E+00  0.00000000E+00
  0.00000000E+00  0.00000000E+00  0.00000000E+00
  0.00000000E+00  0.00000000E+00  0.00000000E+00
  0.00000000E+00  0.00000000E+00  0.00000000E+00
  0.00000000E+00  0.00000000E+00  0.00000000E+00
  0.00000000E+00  0.00000000E+00  0.00000000E+00
  0.00000000E+00  0.00000000E+00  0.00000000E+00
  0.00000000E+00  0.00000000E+00  0.00000000E+00
  0.00000000E+00  0.00000000E+00  0.00000000E+00
  0.00000000E+00  0.00000000E+00  0.00000000E+00
  0.00000000E+00  0.00000000E+00  0.00000000E+00
  0.00000000E+00  0.00000000E+00  0.00000000E+00
  0.00000000E+00  0.00000000E+00  0.00000000E+00
  0.00000000E+00  0.00000000E+00  0.00000000E+00
  0.00000000E+00  0.00000000E+00  0.00000000E+00
  0.00000000E+00  0.00000000E+00  0.00000000E+00
  0.00000000E+00  0.00000000E+00  0.00000000E+00
  0.00000000E+00  0.00000000E+00  0.00000000E+00
  0.00000000E+00  0.00000000E+00  0.00000000E+00
  0.00000000E+00  0.00000000E+00  0.00000000E+00
  0.00000000E+00  0.00000000E+00  0.00000000E+00
  0.00000000E+00  0.00000000E+00  0.00000000E+00
  0.00000000E+00  0.00000000E+00  0.00000000E+00
  0.00000000E+00  0.00000000E+00  0.00000000E+00
  0.00000000E+00  0.00000000E+00  0.00000000E+00
  0.00000000E+00  0.00000000E+00  0.00000000E+00
  0.00000000E+00  0.00000000E+00  0.00000000E+00
  0.00000000E+00  0.00000000E+00  0.00000000E+00
  0.00000000E+00  0.00000000E+00  0.00000000E+00
  0.00000000E+00  0.00000000E+00  0.00000000E+00
  0.00000000E+00  0.00000000E+00  0.00000000E+00
  0.00000000E+00  0.00000000E+00  0.00000000E+00
  0.00000000E+00  0.00000000E+00  0.00000000E+00
  0.00000000E+00  0.00000000E+00  0.00000000E+00
  0.00000000E+00  0.00000000E+00  0.00000000E+00
  0.00000000E+00  0.00000000E+00  0.00000000E+00
  0.00000000E+00  0.00000000E+00  0.00000000E+00
  0.00000000E+00  0.00000000E+00  0.00000000E+00
  0.00000000E+00  0.00000000E+00  0.00000000E+00
  0.00000000E+00  0.00000000E+00  0.00000000E+00
  0.00000000E+00  0.00000000E+00  0.00000000E+00
  0.00000000E+00  0.00000000E+00  0.00000000E+00
  0.00000000E+00  0.00000000E+00  0.00000000E+00
  0.00000000E+00  0.00000000E+00  0.00000000E+00
  0.00000000E+00  0.00000000E+00  0.00000000E+00
  0.00000000E+00  0.00000000E+00  0.00000000E+00
  0.00000000E+00  0.00000000E+00  0.00000000E+00
  0.00000000E+00  0.00000000E+00  0.00000000E+00
  0.00000000E+00  0.00000000E+00  0.00000000E+00
  0.00000000E+00  0.00000000E+00  0.00000000E+00
  0.00000000E+00  0.00000000E+00  0.00000000E+00
  0.00000000E+00  0.00000000E+00  0.00000000E+00
  0.00000000E+00  0.00000000E+00  0.00000000E+00
  0.00000000E+00  0.00000000E+00  0.00000000E+00
  0.00000000E+00  0.00000000E+00  0.00000000E+00
  0.00000000E+00  0.00000000E+00  0.00000000E+00
  0.00000000E+00  0.00000000E+00  0.00000000E+00
  0.00000000E+00  0.00000000E+00  0.00000000E+00
  0.00000000E+00  0.00000000E+00  0.00000000E+00
  0.00000000E+00  0.00000000E+00  0.00000000E+00
  0.00000000E+00  0.00000000E+00  0.00000000E+00
  0.00000000E+00  0.00000000E+00  0.00000000E+00
  0.00000000E+00  0.00000000E+00  0.00000000E+00
  0.00000000E+00  0.00000000E+00  0.00000000E+00
  0.00000000E+00  0.00000000E+00  0.00000000E+00
  0.00000000E+00  0.00000000E+00  0.00000000E+00
  0.00000000E+00  0.00000000E+00  0.00000000E+00
  0.00000000E+00  0.00000000E+00  0.00000000E+00
  0.00000000E+00  0.00000000E+00  0.00000000E+00
  0.00000000E+00  0.00000000E+00  0.00000000E+00
  0.00000000E+00  0.00000000E+00  0.00000000E+00
  0.00000000E+00  0.00000000E+00  0.00000000E+00
