supercell of POSCAR                     
   1.01800000000000     
     3.1310994802600001   -5.4896946145000003   10.0244832682999991
    -9.4821132118399998   -5.5089477087900001    0.0170740616273000
     6.3359946057599998  -11.0114127993000004  -10.0652216442999993
   Al   Gd   N 
    84    12    96
Direct
  0.0893283523894368  0.5851058488396035  0.3347276819799063
  0.4997463069131953  0.3224399201169490  0.2553244905717946
  0.0859985601418458  0.0851749789988574  0.3343508996300883
  0.2518263533269760  0.5787128326117355  0.4947429554733134
  0.3319952715452246  0.3182238807136386  0.0782436921879466
  0.4171662157542499  0.0869336141591077  0.1708904275374010
  0.0073486803637195  0.8434555808869604  0.2551131421892592
  0.1679977017417542  0.3320944594596398  0.4122385709388539
  0.2477502213627574  0.0869443483570649  0.4959238813749494
  0.1621548907600499  0.8368745949690393  0.4162177053644882
  0.3368053938286266  0.6737401506819864  0.3402783023988007
  0.1545048199899881  0.6751389276148245  0.1658608860943787
  0.2501709315534058  0.4018105632480484  0.2520909792783428
  0.3344040166046582  0.1641033191886478  0.3340117378151746
  0.0066518692842692  0.6732898981602560  0.4944847968758310
  0.1670095027078631  0.1590507757521209  0.1692980243276239
  0.2527807105927096  0.9202568562351487  0.2558330758819096
  0.4127207192149029  0.4147431033473410  0.4153013551064859
  0.4986477207278810  0.1615642084475866  0.4968148338562131
  0.0833646661409304  0.9238067902570748  0.0797139269173286
  0.4201349976951860  0.9199912248173518  0.4116919777472603
  0.0893283523894368  0.5851058488396035  0.8347276819799063
  0.4997463069131953  0.3224399201169490  0.7553244905717946
  0.0859985601418458  0.0851749789988574  0.8343508996300883
  0.2518263533269760  0.5787128326117355  0.9947429554733134
  0.3319952715452175  0.3182238807136386  0.5782436921879466
  0.4171662157542499  0.0869336141591077  0.6708904275374081
  0.0073486803637195  0.8434555808869604  0.7551131421892592
  0.1679977017417542  0.3320944594596398  0.9122385709388539
  0.2477502213627574  0.0869443483570649  0.9959238813749494
  0.1621548907600499  0.8368745949690393  0.9162177053644882
  0.3368053938286266  0.6737401506819864  0.8402783023988007
  0.1545048199899881  0.6751389276148245  0.6658608860943787
  0.2501709315534058  0.4018105632480484  0.7520909792783428
  0.3344040166046582  0.1641033191886478  0.8340117378151746
  0.0066518692842692  0.6732898981602560  0.9944847968758310
  0.1670095027078631  0.1590507757521209  0.6692980243276239
  0.2527807105927096  0.9202568562351487  0.7558330758819096
  0.4127207192149029  0.4147431033473410  0.9153013551064859
  0.4986477207278881  0.1615642084475866  0.9968148338562131
  0.0833646661409375  0.9238067902570748  0.5797139269173286
  0.4201349976951860  0.9199912248173518  0.9116919777472603
  0.5893283523894368  0.5851058488396035  0.3347276819799063
  0.9997463069131953  0.3224399201169490  0.2553244905717946
  0.5859985601418458  0.0851749789988574  0.3343508996300883
  0.7518263533269760  0.5787128326117355  0.4947429554733134
  0.8319952715452246  0.3182238807136386  0.0782436921879466
  0.9171662157542499  0.0869336141591077  0.1708904275374010
  0.5073486803637195  0.8434555808869604  0.2551131421892592
  0.6679977017417542  0.3320944594596398  0.4122385709388539
  0.7477502213627574  0.0869443483570649  0.4959238813749494
  0.6621548907600499  0.8368745949690393  0.4162177053644882
  0.8368053938286266  0.6737401506819864  0.3402783023988007
  0.6545048199899881  0.6751389276148245  0.1658608860943787
  0.7501709315534129  0.4018105632480484  0.2520909792783428
  0.8344040166046582  0.1641033191886478  0.3340117378151746
  0.5066518692842692  0.6732898981602560  0.4944847968758310
  0.6670095027078702  0.1590507757521209  0.1692980243276239
  0.7527807105927096  0.9202568562351487  0.2558330758819025
  0.9127207192149029  0.4147431033473410  0.4153013551064930
  0.9986477207278810  0.1615642084475866  0.4968148338562131
  0.5833646661409304  0.9238067902570748  0.0797139269173286
  0.9201349976951860  0.9199912248173518  0.4116919777472603
  0.5893283523894368  0.5851058488396035  0.8347276819799063
  0.9997463069131953  0.3224399201169490  0.7553244905717946
  0.5859985601418458  0.0851749789988574  0.8343508996300883
  0.7518263533269760  0.5787128326117355  0.9947429554733134
  0.8319952715452175  0.3182238807136386  0.5782436921879466
  0.9171662157542499  0.0869336141591077  0.6708904275374010
  0.5073486803637195  0.8434555808869604  0.7551131421892592
  0.6679977017417542  0.3320944594596398  0.9122385709388539
  0.7477502213627574  0.0869443483570649  0.9959238813749494
  0.6621548907600499  0.8368745949690393  0.9162177053644882
  0.8368053938286266  0.6737401506819864  0.8402783023988007
  0.6545048199899881  0.6751389276148245  0.6658608860943787
  0.7501709315534058  0.4018105632480484  0.7520909792783428
  0.8344040166046582  0.1641033191886478  0.8340117378151746
  0.5066518692842692  0.6732898981602560  0.9944847968758310
  0.6670095027078631  0.1590507757521209  0.6692980243276239
  0.7527807105927096  0.9202568562351487  0.7558330758819025
  0.9127207192149029  0.4147431033473410  0.9153013551064859
  0.9986477207278810  0.1615642084475866  0.9968148338562131
  0.5833646661409304  0.9238067902570748  0.5797139269173286
  0.9201349976951860  0.9199912248173518  0.9116919777472603
  0.3977859610430485  0.5794248024162556  0.1788918709387559
  0.3322829461984043  0.8360339432450843  0.0834836623172706
  0.0817862096757338  0.4193468153436939  0.0848376123804044
  0.3977859610430485  0.5794248024162556  0.6788918709387559
  0.3322829461983972  0.8360339432450843  0.5834836623172706
  0.0817862096757338  0.4193468153436939  0.5848376123803973
  0.8977859610430485  0.5794248024162556  0.1788918709387559
  0.8322829461984043  0.8360339432450843  0.0834836623172706
  0.5817862096757409  0.4193468153436939  0.0848376123804044
  0.8977859610430485  0.5794248024162556  0.6788918709387559
  0.8322829461983972  0.8360339432450843  0.5834836623172706
  0.5817862096757338  0.4193468153436939  0.5848376123804044
  0.2181930797033260  0.5812026513915924  0.2667113223170219
  0.0324418221355103  0.6116913484416528  0.1008041951039687
  0.1297787495621492  0.3174996736718327  0.2000438531743356
  0.2123202537696045  0.0828375260831251  0.2721558379416820
  0.3822184096986092  0.5837765454276820  0.4373898835909031
  0.4488961657953965  0.3192809451889431  0.0103874552752785
  0.0405128768389176  0.0857834808440856  0.1035916452068619
  0.1321833670534360  0.8428337141128424  0.1858494069875860
  0.2961752834337261  0.3296262318810577  0.3522230862432281
  0.3767433038133987  0.0808027337579489  0.4350321297776532
  0.4760747933033898  0.8380702328803267  0.0079115410990198
  0.2926988388177278  0.8352856604357086  0.3564172939334753
  0.4713855547481742  0.6852597657858084  0.2869148868744205
  0.2634974372611580  0.6549138516198170  0.0952385619267773
  0.3741258570243531  0.3818962577707694  0.1852981690533539
  0.4618492046109566  0.1625479932069638  0.2739241063312292
  0.1345293358495852  0.6654228062481380  0.4332626624204110
  0.2241924040554153  0.4118473970003080  0.0092691307119281
  0.2899238392333530  0.1572309103476144  0.1019531015689950
  0.3845357947634795  0.9278039502982836  0.2019412768711959
  0.0428271288675788  0.4195222889247319  0.3519472472839311
  0.1267724066325968  0.1708479527389031  0.4344726717925056
  0.1969714977556194  0.9317256273382810  0.0103123942586194
  0.0487895757156451  0.9240290167355312  0.3525816510717732
  0.2181930797033260  0.5812026513915924  0.7667113223170219
  0.0324418221355103  0.6116913484416528  0.6008041951039687
  0.1297787495621492  0.3174996736718327  0.7000438531743356
  0.2123202537696045  0.0828375260831251  0.7721558379416820
  0.3822184096986092  0.5837765454276820  0.9373898835909031
  0.4488961657953965  0.3192809451889431  0.5103874552752785
  0.0405128768389176  0.0857834808440856  0.6035916452068619
  0.1321833670534360  0.8428337141128424  0.6858494069875860
  0.2961752834337261  0.3296262318810577  0.8522230862432210
  0.3767433038133987  0.0808027337579489  0.9350321297776532
  0.4760747933033898  0.8380702328803267  0.5079115410990198
  0.2926988388177278  0.8352856604357086  0.8564172939334753
  0.4713855547481742  0.6852597657858084  0.7869148868744205
  0.2634974372611580  0.6549138516198170  0.5952385619267773
  0.3741258570243531  0.3818962577707694  0.6852981690533539
  0.4618492046109566  0.1625479932069638  0.7739241063312292
  0.1345293358495780  0.6654228062481380  0.9332626624204039
  0.2241924040554153  0.4118473970003080  0.5092691307119281
  0.2899238392333530  0.1572309103476144  0.6019531015689950
  0.3845357947634795  0.9278039502982836  0.7019412768711959
  0.0428271288675788  0.4195222889247319  0.8519472472839311
  0.1267724066325968  0.1708479527389031  0.9344726717925056
  0.1969714977556265  0.9317256273382810  0.5103123942586194
  0.0487895757156451  0.9240290167355312  0.8525816510717732
  0.7181930797033260  0.5812026513915924  0.2667113223170219
  0.5324418221355103  0.6116913484416528  0.1008041951039687
  0.6297787495621492  0.3174996736718327  0.2000438531743356
  0.7123202537696045  0.0828375260831251  0.2721558379416820
  0.8822184096986092  0.5837765454276820  0.4373898835909031
  0.9488961657953965  0.3192809451889431  0.0103874552752856
  0.5405128768389176  0.0857834808440856  0.1035916452068619
  0.6321833670534360  0.8428337141128424  0.1858494069875860
  0.7961752834337261  0.3296262318810577  0.3522230862432281
  0.8767433038133987  0.0808027337579489  0.4350321297776532
  0.9760747933033969  0.8380702328803267  0.0079115410990198
  0.7926988388177278  0.8352856604357086  0.3564172939334753
  0.9713855547481742  0.6852597657858084  0.2869148868744205
  0.7634974372611651  0.6549138516198170  0.0952385619267773
  0.8741258570243531  0.3818962577707694  0.1852981690533539
  0.9618492046109566  0.1625479932069638  0.2739241063312292
  0.6345293358495780  0.6654228062481380  0.4332626624204110
  0.7241924040554153  0.4118473970003080  0.0092691307119210
  0.7899238392333530  0.1572309103476144  0.1019531015689950
  0.8845357947634795  0.9278039502982836  0.2019412768711959
  0.5428271288675788  0.4195222889247319  0.3519472472839311
  0.6267724066325968  0.1708479527389031  0.4344726717925056
  0.6969714977556265  0.9317256273382810  0.0103123942586194
  0.5487895757156451  0.9240290167355312  0.3525816510717803
  0.7181930797033260  0.5812026513915924  0.7667113223170219
  0.5324418221355103  0.6116913484416528  0.6008041951039687
  0.6297787495621492  0.3174996736718327  0.7000438531743356
  0.7123202537696045  0.0828375260831251  0.7721558379416820
  0.8822184096986092  0.5837765454276820  0.9373898835909031
  0.9488961657953894  0.3192809451889431  0.5103874552752785
  0.5405128768389176  0.0857834808440856  0.6035916452068619
  0.6321833670534360  0.8428337141128424  0.6858494069875860
  0.7961752834337261  0.3296262318810577  0.8522230862432210
  0.8767433038133987  0.0808027337579489  0.9350321297776532
  0.9760747933033898  0.8380702328803267  0.5079115410990198
  0.7926988388177278  0.8352856604357086  0.8564172939334753
  0.9713855547481742  0.6852597657858084  0.7869148868744205
  0.7634974372611580  0.6549138516198170  0.5952385619267773
  0.8741258570243531  0.3818962577707694  0.6852981690533539
  0.9618492046109566  0.1625479932069638  0.7739241063312292
  0.6345293358495780  0.6654228062481380  0.9332626624204039
  0.7241924040554153  0.4118473970003080  0.5092691307119210
  0.7899238392333530  0.1572309103476144  0.6019531015689950
  0.8845357947634795  0.9278039502982836  0.7019412768711959
  0.5428271288675788  0.4195222889247319  0.8519472472839311
  0.6267724066325968  0.1708479527389031  0.9344726717925056
  0.6969714977556194  0.9317256273382810  0.5103123942586194
  0.5487895757156451  0.9240290167355312  0.8525816510717732
 
  0.00000000E+00  0.00000000E+00  0.00000000E+00
  0.00000000E+00  0.00000000E+00  0.00000000E+00
  0.00000000E+00  0.00000000E+00  0.00000000E+00
  0.00000000E+00  0.00000000E+00  0.00000000E+00
  0.00000000E+00  0.00000000E+00  0.00000000E+00
  0.00000000E+00  0.00000000E+00  0.00000000E+00
  0.00000000E+00  0.00000000E+00  0.00000000E+00
  0.00000000E+00  0.00000000E+00  0.00000000E+00
  0.00000000E+00  0.00000000E+00  0.00000000E+00
  0.00000000E+00  0.00000000E+00  0.00000000E+00
  0.00000000E+00  0.00000000E+00  0.00000000E+00
  0.00000000E+00  0.00000000E+00  0.00000000E+00
  0.00000000E+00  0.00000000E+00  0.00000000E+00
  0.00000000E+00  0.00000000E+00  0.00000000E+00
  0.00000000E+00  0.00000000E+00  0.00000000E+00
  0.00000000E+00  0.00000000E+00  0.00000000E+00
  0.00000000E+00  0.00000000E+00  0.00000000E+00
  0.00000000E+00  0.00000000E+00  0.00000000E+00
  0.00000000E+00  0.00000000E+00  0.00000000E+00
  0.00000000E+00  0.00000000E+00  0.00000000E+00
  0.00000000E+00  0.00000000E+00  0.00000000E+00
  0.00000000E+00  0.00000000E+00  0.00000000E+00
  0.00000000E+00  0.00000000E+00  0.00000000E+00
  0.00000000E+00  0.00000000E+00  0.00000000E+00
  0.00000000E+00  0.00000000E+00  0.00000000E+00
  0.00000000E+00  0.00000000E+00  0.00000000E+00
  0.00000000E+00  0.00000000E+00  0.00000000E+00
  0.00000000E+00  0.00000000E+00  0.00000000E+00
  0.00000000E+00  0.00000000E+00  0.00000000E+00
  0.00000000E+00  0.00000000E+00  0.00000000E+00
  0.00000000E+00  0.00000000E+00  0.00000000E+00
  0.00000000E+00  0.00000000E+00  0.00000000E+00
  0.00000000E+00  0.00000000E+00  0.00000000E+00
  0.00000000E+00  0.00000000E+00  0.00000000E+00
  0.00000000E+00  0.00000000E+00  0.00000000E+00
  0.00000000E+00  0.00000000E+00  0.00000000E+00
  0.00000000E+00  0.00000000E+00  0.00000000E+00
  0.00000000E+00  0.00000000E+00  0.00000000E+00
  0.00000000E+00  0.00000000E+00  0.00000000E+00
  0.00000000E+00  0.00000000E+00  0.00000000E+00
  0.00000000E+00  0.00000000E+00  0.00000000E+00
  0.00000000E+00  0.00000000E+00  0.00000000E+00
  0.00000000E+00  0.00000000E+00  0.00000000E+00
  0.00000000E+00  0.00000000E+00  0.00000000E+00
  0.00000000E+00  0.00000000E+00  0.00000000E+00
  0.00000000E+00  0.00000000E+00  0.00000000E+00
  0.00000000E+00  0.00000000E+00  0.00000000E+00
  0.00000000E+00  0.00000000E+00  0.00000000E+00
  0.00000000E+00  0.00000000E+00  0.00000000E+00
  0.00000000E+00  0.00000000E+00  0.00000000E+00
  0.00000000E+00  0.00000000E+00  0.00000000E+00
  0.00000000E+00  0.00000000E+00  0.00000000E+00
  0.00000000E+00  0.00000000E+00  0.00000000E+00
  0.00000000E+00  0.00000000E+00  0.00000000E+00
  0.00000000E+00  0.00000000E+00  0.00000000E+00
  0.00000000E+00  0.00000000E+00  0.00000000E+00
  0.00000000E+00  0.00000000E+00  0.00000000E+00
  0.00000000E+00  0.00000000E+00  0.00000000E+00
  0.00000000E+00  0.00000000E+00  0.00000000E+00
  0.00000000E+00  0.00000000E+00  0.00000000E+00
  0.00000000E+00  0.00000000E+00  0.00000000E+00
  0.00000000E+00  0.00000000E+00  0.00000000E+00
  0.00000000E+00  0.00000000E+00  0.00000000E+00
  0.00000000E+00  0.00000000E+00  0.00000000E+00
  0.00000000E+00  0.00000000E+00  0.00000000E+00
  0.00000000E+00  0.00000000E+00  0.00000000E+00
  0.00000000E+00  0.00000000E+00  0.00000000E+00
  0.00000000E+00  0.00000000E+00  0.00000000E+00
  0.00000000E+00  0.00000000E+00  0.00000000E+00
  0.00000000E+00  0.00000000E+00  0.00000000E+00
  0.00000000E+00  0.00000000E+00  0.00000000E+00
  0.00000000E+00  0.00000000E+00  0.00000000E+00
  0.00000000E+00  0.00000000E+00  0.00000000E+00
  0.00000000E+00  0.00000000E+00  0.00000000E+00
  0.00000000E+00  0.00000000E+00  0.00000000E+00
  0.00000000E+00  0.00000000E+00  0.00000000E+00
  0.00000000E+00  0.00000000E+00  0.00000000E+00
  0.00000000E+00  0.00000000E+00  0.00000000E+00
  0.00000000E+00  0.00000000E+00  0.00000000E+00
  0.00000000E+00  0.00000000E+00  0.00000000E+00
  0.00000000E+00  0.00000000E+00  0.00000000E+00
  0.00000000E+00  0.00000000E+00  0.00000000E+00
  0.00000000E+00  0.00000000E+00  0.00000000E+00
  0.00000000E+00  0.00000000E+00  0.00000000E+00
  0.00000000E+00  0.00000000E+00  0.00000000E+00
  0.00000000E+00  0.00000000E+00  0.00000000E+00
  0.00000000E+00  0.00000000E+00  0.00000000E+00
  0.00000000E+00  0.00000000E+00  0.00000000E+00
  0.00000000E+00  0.00000000E+00  0.00000000E+00
  0.00000000E+00  0.00000000E+00  0.00000000E+00
  0.00000000E+00  0.00000000E+00  0.00000000E+00
  0.00000000E+00  0.00000000E+00  0.00000000E+00
  0.00000000E+00  0.00000000E+00  0.00000000E+00
  0.00000000E+00  0.00000000E+00  0.00000000E+00
  0.00000000E+00  0.00000000E+00  0.00000000E+00
  0.00000000E+00  0.00000000E+00  0.00000000E+00
  0.00000000E+00  0.00000000E+00  0.00000000E+00
  0.00000000E+00  0.00000000E+00  0.00000000E+00
  0.00000000E+00  0.00000000E+00  0.00000000E+00
  0.00000000E+00  0.00000000E+00  0.00000000E+00
  0.00000000E+00  0.00000000E+00  0.00000000E+00
  0.00000000E+00  0.00000000E+00  0.00000000E+00
  0.00000000E+00  0.00000000E+00  0.00000000E+00
  0.00000000E+00  0.00000000E+00  0.00000000E+00
  0.00000000E+00  0.00000000E+00  0.00000000E+00
  0.00000000E+00  0.00000000E+00  0.00000000E+00
  0.00000000E+00  0.00000000E+00  0.00000000E+00
  0.00000000E+00  0.00000000E+00  0.00000000E+00
  0.00000000E+00  0.00000000E+00  0.00000000E+00
  0.00000000E+00  0.00000000E+00  0.00000000E+00
  0.00000000E+00  0.00000000E+00  0.00000000E+00
  0.00000000E+00  0.00000000E+00  0.00000000E+00
  0.00000000E+00  0.00000000E+00  0.00000000E+00
  0.00000000E+00  0.00000000E+00  0.00000000E+00
  0.00000000E+00  0.00000000E+00  0.00000000E+00
  0.00000000E+00  0.00000000E+00  0.00000000E+00
  0.00000000E+00  0.00000000E+00  0.00000000E+00
  0.00000000E+00  0.00000000E+00  0.00000000E+00
  0.00000000E+00  0.00000000E+00  0.00000000E+00
  0.00000000E+00  0.00000000E+00  0.00000000E+00
  0.00000000E+00  0.00000000E+00  0.00000000E+00
  0.00000000E+00  0.00000000E+00  0.00000000E+00
  0.00000000E+00  0.00000000E+00  0.00000000E+00
  0.00000000E+00  0.00000000E+00  0.00000000E+00
  0.00000000E+00  0.00000000E+00  0.00000000E+00
  0.00000000E+00  0.00000000E+00  0.00000000E+00
  0.00000000E+00  0.00000000E+00  0.00000000E+00
  0.00000000E+00  0.00000000E+00  0.00000000E+00
  0.00000000E+00  0.00000000E+00  0.00000000E+00
  0.00000000E+00  0.00000000E+00  0.00000000E+00
  0.00000000E+00  0.00000000E+00  0.00000000E+00
  0.00000000E+00  0.00000000E+00  0.00000000E+00
  0.00000000E+00  0.00000000E+00  0.00000000E+00
  0.00000000E+00  0.00000000E+00  0.00000000E+00
  0.00000000E+00  0.00000000E+00  0.00000000E+00
  0.00000000E+00  0.00000000E+00  0.00000000E+00
  0.00000000E+00  0.00000000E+00  0.00000000E+00
  0.00000000E+00  0.00000000E+00  0.00000000E+00
  0.00000000E+00  0.00000000E+00  0.00000000E+00
  0.00000000E+00  0.00000000E+00  0.00000000E+00
  0.00000000E+00  0.00000000E+00  0.00000000E+00
  0.00000000E+00  0.00000000E+00  0.00000000E+00
  0.00000000E+00  0.00000000E+00  0.00000000E+00
  0.00000000E+00  0.00000000E+00  0.00000000E+00
  0.00000000E+00  0.00000000E+00  0.00000000E+00
  0.00000000E+00  0.00000000E+00  0.00000000E+00
  0.00000000E+00  0.00000000E+00  0.00000000E+00
  0.00000000E+00  0.00000000E+00  0.00000000E+00
  0.00000000E+00  0.00000000E+00  0.00000000E+00
  0.00000000E+00  0.00000000E+00  0.00000000E+00
  0.00000000E+00  0.00000000E+00  0.00000000E+00
  0.00000000E+00  0.00000000E+00  0.00000000E+00
  0.00000000E+00  0.00000000E+00  0.00000000E+00
  0.00000000E+00  0.00000000E+00  0.00000000E+00
  0.00000000E+00  0.00000000E+00  0.00000000E+00
  0.00000000E+00  0.00000000E+00  0.00000000E+00
  0.00000000E+00  0.00000000E+00  0.00000000E+00
  0.00000000E+00  0.00000000E+00  0.00000000E+00
  0.00000000E+00  0.00000000E+00  0.00000000E+00
  0.00000000E+00  0.00000000E+00  0.00000000E+00
  0.00000000E+00  0.00000000E+00  0.00000000E+00
  0.00000000E+00  0.00000000E+00  0.00000000E+00
  0.00000000E+00  0.00000000E+00  0.00000000E+00
  0.00000000E+00  0.00000000E+00  0.00000000E+00
  0.00000000E+00  0.00000000E+00  0.00000000E+00
  0.00000000E+00  0.00000000E+00  0.00000000E+00
  0.00000000E+00  0.00000000E+00  0.00000000E+00
  0.00000000E+00  0.00000000E+00  0.00000000E+00
  0.00000000E+00  0.00000000E+00  0.00000000E+00
  0.00000000E+00  0.00000000E+00  0.00000000E+00
  0.00000000E+00  0.00000000E+00  0.00000000E+00
  0.00000000E+00  0.00000000E+00  0.00000000E+00
  0.00000000E+00  0.00000000E+00  0.00000000E+00
  0.00000000E+00  0.00000000E+00  0.00000000E+00
  0.00000000E+00  0.00000000E+00  0.00000000E+00
  0.00000000E+00  0.00000000E+00  0.00000000E+00
  0.00000000E+00  0.00000000E+00  0.00000000E+00
  0.00000000E+00  0.00000000E+00  0.00000000E+00
  0.00000000E+00  0.00000000E+00  0.00000000E+00
  0.00000000E+00  0.00000000E+00  0.00000000E+00
  0.00000000E+00  0.00000000E+00  0.00000000E+00
  0.00000000E+00  0.00000000E+00  0.00000000E+00
  0.00000000E+00  0.00000000E+00  0.00000000E+00
  0.00000000E+00  0.00000000E+00  0.00000000E+00
  0.00000000E+00  0.00000000E+00  0.00000000E+00
  0.00000000E+00  0.00000000E+00  0.00000000E+00
  0.00000000E+00  0.00000000E+00  0.00000000E+00
  0.00000000E+00  0.00000000E+00  0.00000000E+00
  0.00000000E+00  0.00000000E+00  0.00000000E+00
  0.00000000E+00  0.00000000E+00  0.00000000E+00
  0.00000000E+00  0.00000000E+00  0.00000000E+00
  0.00000000E+00  0.00000000E+00  0.00000000E+00
