supercell of POSCAR                     
   1.03600000000000     
     9.6051007291200001   -5.6678653607799996   -9.9907275475200006
     9.5551777488200003    5.5783510108199996    9.9928581731800001
    -1.5573508785200001   -8.3719044994900003    4.9655686364999996
   Al   Gd   N 
    71    24    96
Direct
  0.2971442873452261  0.2904447632802984  0.5392331439869125
  0.1428544151592988  0.2445979175512747  0.3123010668693169
  0.3086175648342788  0.4112695889938109  0.3178077701641655
  0.1386094052239955  0.5002324011213730  0.7855008437757718
  0.2890374206888424  0.1611362811598482  0.7832165076607964
  0.4736114089645085  0.4466065815867921  0.5271493835016372
  0.1426163851158648  0.1191692706551493  0.5393796916977109
  0.4782730798206742  0.0728091539794207  0.3006093930891183
  0.2781068531085467  0.1096635421697840  0.3387308368898871
  0.1171873346241838  0.0707676616703381  0.1023597594031216
  0.1110148552563217  0.1936267345410201  0.8174674310436387
  0.2641735951755351  0.3551193379614190  0.8212741817572038
  0.1099360797541209  0.3249563867908947  0.5906909070745101
  0.2735835181567836  0.4854538026954458  0.5877453796091388
  0.4493350665455438  0.2782294316382803  0.3397584358282586
  0.1138659052637152  0.4464418282346259  0.3434655466695986
  0.4448945317159669  0.4067206389690554  0.1186296331748622
  0.8024032081187968  0.2879679723544086  0.5357746360140467
  0.6428872282783189  0.2433197125443982  0.3071221492740506
  0.8088555346150557  0.4090954412730525  0.3073498218818145
  0.9627368903247273  0.3247264167277564  0.7880553026705499
  0.6516483972559968  0.5002697631271431  0.7754906663502936
  0.7957675420914470  0.1634599911246539  0.7771161136331344
  0.9698544846722044  0.4465047458709179  0.5306076014882635
  0.6440331987442605  0.1189676923313954  0.5357593662752151
  0.9788970758902948  0.0719372016447792  0.2968289286736479
  0.7763878923267669  0.1088418196357921  0.3335472722224750
  0.6133953493065789  0.0705598825119438  0.0993103496522565
  0.6183711532532854  0.1960530720111322  0.8142033213244702
  0.7776254048351632  0.3553010469343221  0.8097469235776202
  0.6165832194477048  0.3269986446716118  0.5857525628112512
  0.7734970262824206  0.4858190521343388  0.5715895424943653
  0.9491068114109993  0.2799193404119791  0.3344791519409753
  0.6123960364861034  0.4451106223700876  0.3368183064893131
  0.9488883449264662  0.4045679393979995  0.1034820733599346
  0.3026437669201130  0.7884643876295314  0.5383544540066936
  0.1458341263531580  0.7437333395823700  0.3114080738622533
  0.3094177484832770  0.9089936336070608  0.3111070141310108
  0.4607086799811526  0.8249029203796141  0.7877490324440188
  0.1394225138247762  0.9967261338875630  0.7848345172425795
  0.2902426591131970  0.6682618515137762  0.7817215971573859
  0.4697164357264825  0.9484753124971874  0.5320174155705644
  0.1439428125371904  0.6196355823414734  0.5387820609403846
  0.4783167634793841  0.5769299279987976  0.3052942161588419
  0.2798843908919864  0.6089330752941748  0.3422625619183748
  0.1165908944703702  0.5697302587157864  0.1008320597904984
  0.1124501370914288  0.6981267383018803  0.8163197177254986
  0.2740796460057950  0.8578870427277820  0.8126402956964114
  0.1128314890633746  0.8249469322511018  0.5879049759797113
  0.2717365466692314  0.9864127312216269  0.5768646891705131
  0.4505526976743823  0.7785974564967262  0.3374988580845084
  0.1123486491592658  0.9459330122889256  0.3395782012088944
  0.4489359620245423  0.9020171653730742  0.1060056715947155
  0.8013195824247319  0.7893102885079060  0.5369127244054752
  0.6436239089223719  0.7448764129363070  0.3085867304042864
  0.8092325568335568  0.9095554975905955  0.3081403596699914
  0.9620123292057343  0.8259130245800961  0.7883804056118180
  0.6407523941347293  0.9966252505223068  0.7821025514549262
  0.7976763623844150  0.6670958889094081  0.7774730939767736
  0.9696716007929780  0.9461092587485069  0.5319899323350370
  0.6455150380600969  0.6206207643154045  0.5348090531156728
  0.9803600148958296  0.5712187245876663  0.2967551328879168
  0.7770184460063163  0.6093236754338420  0.3320497766416111
  0.6141576020254860  0.5690596263358856  0.1011865380584567
  0.6133602263991662  0.6916647898966346  0.8123814910890701
  0.7715842318624624  0.8541108618097226  0.8116348494955901
  0.6110455150314991  0.8236387669902783  0.5867580119993718
  0.7703997356720151  0.9844270870776484  0.5744810528140079
  0.9495035531088902  0.7803619941822646  0.3340601188207941
  0.6122684020690699  0.9455019714503621  0.3380195647713506
  0.9496678365235951  0.9050821921479510  0.1025212967452873
  0.4832717433345266  0.2010854146468972  0.0319186950326369
  0.1308282300771921  0.3618983735375210  0.0374568441404861
  0.3097116357188625  0.0233729012945005  0.0426593539455311
  0.2850841485693749  0.2383068636688819  0.0862412703465765
  0.4484060982067888  0.0197470926222465  0.8195302638534514
  0.4461967247375895  0.1640082584862697  0.5860875458043537
  0.9802728574283890  0.1906951835784838  0.0387288862099098
  0.6374689028320333  0.3672237330984274  0.0269219111834644
  0.8033823047564468  0.0183201436394995  0.0394482692709914
  0.7846846369753280  0.2335360595232814  0.0808554807443045
  0.9456975850399303  0.0183572640927423  0.8181472471132096
  0.9431309844155251  0.1541965321270382  0.5698029953706936
  0.4808375271023024  0.6816211122569484  0.0232286569059070
  0.1385518856467627  0.8641288171027028  0.0324085931969833
  0.3074851150554636  0.5154441315069462  0.0374073003548716
  0.2891556184423365  0.7311677649264254  0.0784731319082752
  0.4660397003372410  0.4619555716147943  0.8092716144200551
  0.4442041914140589  0.6495185492725355  0.5922276233936614
  0.9843223134480255  0.6948887824700378  0.0392468860112203
  0.6293868107552498  0.8595678558179998  0.0305697205207025
  0.8096991496004478  0.5229216911185475  0.0395658082533856
  0.7855851913152421  0.7348669578100129  0.0806811628107909
  0.9469960658826793  0.5199182038657781  0.8160853819491365
  0.9436313199353705  0.6569370155262959  0.5684544774638027
  0.2351512326599945  0.3686366319116203  0.6331604128742043
  0.0751347784507317  0.3254826302195468  0.4014324739765769
  0.2412540060860735  0.4913642699943779  0.4009447323781998
  0.4280446485029898  0.2925216978743919  0.1615657393816790
  0.0700764876520239  0.4579285805824966  0.1550840569398986
  0.2370994229451640  0.1060084126865988  0.1579158586017329
  0.3735716947706962  0.3986412916973165  0.9457547658630929
  0.0903223511465470  0.0812566117456868  0.9027097175633259
  0.2286849233401398  0.2419619115557481  0.8718860326827524
  0.3966470114602174  0.0203039611273255  0.6091815912602812
  0.0888341977887990  0.2032309423595109  0.6324701414600682
  0.4058944831019247  0.1557676514027122  0.3640552909778236
  0.2176708332825541  0.1907063666033935  0.4345403733467492
  0.0631198920445613  0.1462608799718481  0.2094079935480622
  0.2163737855700987  0.3232118399287458  0.2160783876058190
  0.3659943359698445  0.1180880032073190  0.9089331932807596
  0.0377945609728769  0.2654505672480525  0.8857290217789071
  0.1984500109483207  0.4350300032116081  0.8932820876585552
  0.3479667225544816  0.2332582012802220  0.6714020743820726
  0.0376331749360759  0.4069097381015396  0.6821293786899005
  0.2082891872451356  0.0654030135818928  0.6714002933709082
  0.3826597900690629  0.3517708556357917  0.4368467204610553
  0.0484849973841293  0.0261163270200839  0.4389444118828223
  0.3905060892499463  0.4800330411912554  0.2241806597221156
  0.7421992551783561  0.3690179273855918  0.6238335260444217
  0.5766316202205815  0.3248484859606364  0.3963766202566603
  0.7395697614557193  0.4902528493688010  0.3864861204560839
  0.9293069821489937  0.2921895688203051  0.1543117812727246
  0.5677202067070724  0.4556325022130991  0.1488387708364627
  0.7332463104579361  0.1042664152851245  0.1545915546783547
  0.9017774258157587  0.3939519007450514  0.9079129056227941
  0.5936872486405065  0.0832824994361800  0.8988805093226517
  0.7365276503383384  0.2445775992624775  0.8651604118512779
  0.8946902170318438  0.0154660147744394  0.6075026853847376
  0.5947637921070807  0.2053622982853511  0.6298137740374088
  0.9043080295154198  0.1556675198359514  0.3521080456092562
  0.7194817971808689  0.1909447263817441  0.4315898927119548
  0.5583411341398374  0.1463948066633023  0.2040650193911659
  0.7157252156834488  0.3207106927506231  0.2063172370279815
  0.8620691584543678  0.1139485107013272  0.9087520273205030
  0.5469867517014322  0.2701665141267355  0.8821117065059099
  0.7150209991305587  0.4370850458973123  0.8854858842443036
  0.8672301295169831  0.2452337811828897  0.6798148212896251
  0.5579200961249455  0.4156418315726000  0.6643840401587369
  0.7117435308538589  0.0669803554499921  0.6692299096690988
  0.8823407027889587  0.3525623277767167  0.4300770525588078
  0.5504474208611256  0.0258114107895935  0.4378187467393104
  0.8914559513542528  0.4750768836680663  0.2085645486645475
  0.2385010626711477  0.8689474855588415  0.6261327100634375
  0.0759781544798130  0.8252569887185999  0.3990938274756672
  0.2393894427477719  0.9903760872681886  0.3906819698024080
  0.4343507384972938  0.7875348154335526  0.1532830163585999
  0.0716134004986557  0.9569170758599483  0.1514318682768874
  0.2361737950389085  0.6024686956639442  0.1614644118287387
  0.3997650477905381  0.8933136542116813  0.9092785000136985
  0.0904703586037883  0.5855038852575021  0.9025629735408458
  0.2294270567720531  0.7490167871572169  0.8686909076014118
  0.3996104507994360  0.5075002617338100  0.6279406277793811
  0.0896746857094755  0.7038781426781853  0.6310307796951307
  0.4067338318838480  0.6576612082402562  0.3720403812289206
  0.2198261530784080  0.6911749472113087  0.4360520932888505
  0.0644648341292466  0.6458290596744689  0.2092811019945700
  0.2184033777860463  0.8190215596240478  0.2107999199772905
  0.3492451285190583  0.6264079583557915  0.9244686438170575
  0.0403299672919104  0.7707215036998321  0.8861788527750463
  0.2108533193220694  0.9383240287349111  0.8909330948980170
  0.3644664322653526  0.7457299264021628  0.6834012676260457
  0.0387779948109710  0.9062010891918177  0.6825875016267418
  0.2112858976471088  0.5690682650771564  0.6739620519248177
  0.3831180889615169  0.8533095541654490  0.4329558459264220
  0.0498723323142443  0.5264052371138348  0.4396733391976255
  0.3917284054048764  0.9740851076866903  0.2110525018332723
  0.7369395661870612  0.8676589427063703  0.6256256680485563
  0.5768972019423231  0.8256747702732454  0.3985718240463427
  0.7397815809161159  0.9901165035431845  0.3885487231193565
  0.9290253776029331  0.7931625716200088  0.1548882360454300
  0.5702504875247598  0.9569395329174029  0.1500786889205017
  0.7337977640004567  0.6035094613543848  0.1521919828488194
  0.8972621802243665  0.8927052976026246  0.9078504832058769
  0.5872983924205570  0.5767452557371371  0.8969516351853102
  0.7316300721058084  0.7418798729601264  0.8654809755839139
  0.8969619163212101  0.5180227944512978  0.6049508524922658
  0.5908251668476794  0.7024834918171692  0.6281281600369084
  0.9051042708590771  0.6554453047707156  0.3498037080715832
  0.7206259833012183  0.6919001503926339  0.4308905354246875
  0.5611058385849006  0.6457406153297498  0.2088327472059106
  0.7164823275472898  0.8210828212339720  0.2068173485324962
  0.8664581767109780  0.6192091042818788  0.9083796987643993
  0.5374196019675921  0.7628338640160663  0.8764217565535546
  0.7051012966532966  0.9315744542146689  0.8890124492689253
  0.8674134339777879  0.7475672156984885  0.6799199010813837
  0.5381661597201841  0.9064218827309531  0.6818398011064914
  0.7180491549430883  0.5719002045565347  0.6660046942115514
  0.8823567661871010  0.8525925722126999  0.4310769771955236
  0.5516558466617525  0.5278396142565072  0.4364525580419567
  0.8915093734837640  0.9756794944991185  0.2074951452540645
 
  0.00000000E+00  0.00000000E+00  0.00000000E+00
  0.00000000E+00  0.00000000E+00  0.00000000E+00
  0.00000000E+00  0.00000000E+00  0.00000000E+00
  0.00000000E+00  0.00000000E+00  0.00000000E+00
  0.00000000E+00  0.00000000E+00  0.00000000E+00
  0.00000000E+00  0.00000000E+00  0.00000000E+00
  0.00000000E+00  0.00000000E+00  0.00000000E+00
  0.00000000E+00  0.00000000E+00  0.00000000E+00
  0.00000000E+00  0.00000000E+00  0.00000000E+00
  0.00000000E+00  0.00000000E+00  0.00000000E+00
  0.00000000E+00  0.00000000E+00  0.00000000E+00
  0.00000000E+00  0.00000000E+00  0.00000000E+00
  0.00000000E+00  0.00000000E+00  0.00000000E+00
  0.00000000E+00  0.00000000E+00  0.00000000E+00
  0.00000000E+00  0.00000000E+00  0.00000000E+00
  0.00000000E+00  0.00000000E+00  0.00000000E+00
  0.00000000E+00  0.00000000E+00  0.00000000E+00
  0.00000000E+00  0.00000000E+00  0.00000000E+00
  0.00000000E+00  0.00000000E+00  0.00000000E+00
  0.00000000E+00  0.00000000E+00  0.00000000E+00
  0.00000000E+00  0.00000000E+00  0.00000000E+00
  0.00000000E+00  0.00000000E+00  0.00000000E+00
  0.00000000E+00  0.00000000E+00  0.00000000E+00
  0.00000000E+00  0.00000000E+00  0.00000000E+00
  0.00000000E+00  0.00000000E+00  0.00000000E+00
  0.00000000E+00  0.00000000E+00  0.00000000E+00
  0.00000000E+00  0.00000000E+00  0.00000000E+00
  0.00000000E+00  0.00000000E+00  0.00000000E+00
  0.00000000E+00  0.00000000E+00  0.00000000E+00
  0.00000000E+00  0.00000000E+00  0.00000000E+00
  0.00000000E+00  0.00000000E+00  0.00000000E+00
  0.00000000E+00  0.00000000E+00  0.00000000E+00
  0.00000000E+00  0.00000000E+00  0.00000000E+00
  0.00000000E+00  0.00000000E+00  0.00000000E+00
  0.00000000E+00  0.00000000E+00  0.00000000E+00
  0.00000000E+00  0.00000000E+00  0.00000000E+00
  0.00000000E+00  0.00000000E+00  0.00000000E+00
  0.00000000E+00  0.00000000E+00  0.00000000E+00
  0.00000000E+00  0.00000000E+00  0.00000000E+00
  0.00000000E+00  0.00000000E+00  0.00000000E+00
  0.00000000E+00  0.00000000E+00  0.00000000E+00
  0.00000000E+00  0.00000000E+00  0.00000000E+00
  0.00000000E+00  0.00000000E+00  0.00000000E+00
  0.00000000E+00  0.00000000E+00  0.00000000E+00
  0.00000000E+00  0.00000000E+00  0.00000000E+00
  0.00000000E+00  0.00000000E+00  0.00000000E+00
  0.00000000E+00  0.00000000E+00  0.00000000E+00
  0.00000000E+00  0.00000000E+00  0.00000000E+00
  0.00000000E+00  0.00000000E+00  0.00000000E+00
  0.00000000E+00  0.00000000E+00  0.00000000E+00
  0.00000000E+00  0.00000000E+00  0.00000000E+00
  0.00000000E+00  0.00000000E+00  0.00000000E+00
  0.00000000E+00  0.00000000E+00  0.00000000E+00
  0.00000000E+00  0.00000000E+00  0.00000000E+00
  0.00000000E+00  0.00000000E+00  0.00000000E+00
  0.00000000E+00  0.00000000E+00  0.00000000E+00
  0.00000000E+00  0.00000000E+00  0.00000000E+00
  0.00000000E+00  0.00000000E+00  0.00000000E+00
  0.00000000E+00  0.00000000E+00  0.00000000E+00
  0.00000000E+00  0.00000000E+00  0.00000000E+00
  0.00000000E+00  0.00000000E+00  0.00000000E+00
  0.00000000E+00  0.00000000E+00  0.00000000E+00
  0.00000000E+00  0.00000000E+00  0.00000000E+00
  0.00000000E+00  0.00000000E+00  0.00000000E+00
  0.00000000E+00  0.00000000E+00  0.00000000E+00
  0.00000000E+00  0.00000000E+00  0.00000000E+00
  0.00000000E+00  0.00000000E+00  0.00000000E+00
  0.00000000E+00  0.00000000E+00  0.00000000E+00
  0.00000000E+00  0.00000000E+00  0.00000000E+00
  0.00000000E+00  0.00000000E+00  0.00000000E+00
  0.00000000E+00  0.00000000E+00  0.00000000E+00
  0.00000000E+00  0.00000000E+00  0.00000000E+00
  0.00000000E+00  0.00000000E+00  0.00000000E+00
  0.00000000E+00  0.00000000E+00  0.00000000E+00
  0.00000000E+00  0.00000000E+00  0.00000000E+00
  0.00000000E+00  0.00000000E+00  0.00000000E+00
  0.00000000E+00  0.00000000E+00  0.00000000E+00
  0.00000000E+00  0.00000000E+00  0.00000000E+00
  0.00000000E+00  0.00000000E+00  0.00000000E+00
  0.00000000E+00  0.00000000E+00  0.00000000E+00
  0.00000000E+00  0.00000000E+00  0.00000000E+00
  0.00000000E+00  0.00000000E+00  0.00000000E+00
  0.00000000E+00  0.00000000E+00  0.00000000E+00
  0.00000000E+00  0.00000000E+00  0.00000000E+00
  0.00000000E+00  0.00000000E+00  0.00000000E+00
  0.00000000E+00  0.00000000E+00  0.00000000E+00
  0.00000000E+00  0.00000000E+00  0.00000000E+00
  0.00000000E+00  0.00000000E+00  0.00000000E+00
  0.00000000E+00  0.00000000E+00  0.00000000E+00
  0.00000000E+00  0.00000000E+00  0.00000000E+00
  0.00000000E+00  0.00000000E+00  0.00000000E+00
  0.00000000E+00  0.00000000E+00  0.00000000E+00
  0.00000000E+00  0.00000000E+00  0.00000000E+00
  0.00000000E+00  0.00000000E+00  0.00000000E+00
  0.00000000E+00  0.00000000E+00  0.00000000E+00
  0.00000000E+00  0.00000000E+00  0.00000000E+00
  0.00000000E+00  0.00000000E+00  0.00000000E+00
  0.00000000E+00  0.00000000E+00  0.00000000E+00
  0.00000000E+00  0.00000000E+00  0.00000000E+00
  0.00000000E+00  0.00000000E+00  0.00000000E+00
  0.00000000E+00  0.00000000E+00  0.00000000E+00
  0.00000000E+00  0.00000000E+00  0.00000000E+00
  0.00000000E+00  0.00000000E+00  0.00000000E+00
  0.00000000E+00  0.00000000E+00  0.00000000E+00
  0.00000000E+00  0.00000000E+00  0.00000000E+00
  0.00000000E+00  0.00000000E+00  0.00000000E+00
  0.00000000E+00  0.00000000E+00  0.00000000E+00
  0.00000000E+00  0.00000000E+00  0.00000000E+00
  0.00000000E+00  0.00000000E+00  0.00000000E+00
  0.00000000E+00  0.00000000E+00  0.00000000E+00
  0.00000000E+00  0.00000000E+00  0.00000000E+00
  0.00000000E+00  0.00000000E+00  0.00000000E+00
  0.00000000E+00  0.00000000E+00  0.00000000E+00
  0.00000000E+00  0.00000000E+00  0.00000000E+00
  0.00000000E+00  0.00000000E+00  0.00000000E+00
  0.00000000E+00  0.00000000E+00  0.00000000E+00
  0.00000000E+00  0.00000000E+00  0.00000000E+00
  0.00000000E+00  0.00000000E+00  0.00000000E+00
  0.00000000E+00  0.00000000E+00  0.00000000E+00
  0.00000000E+00  0.00000000E+00  0.00000000E+00
  0.00000000E+00  0.00000000E+00  0.00000000E+00
  0.00000000E+00  0.00000000E+00  0.00000000E+00
  0.00000000E+00  0.00000000E+00  0.00000000E+00
  0.00000000E+00  0.00000000E+00  0.00000000E+00
  0.00000000E+00  0.00000000E+00  0.00000000E+00
  0.00000000E+00  0.00000000E+00  0.00000000E+00
  0.00000000E+00  0.00000000E+00  0.00000000E+00
  0.00000000E+00  0.00000000E+00  0.00000000E+00
  0.00000000E+00  0.00000000E+00  0.00000000E+00
  0.00000000E+00  0.00000000E+00  0.00000000E+00
  0.00000000E+00  0.00000000E+00  0.00000000E+00
  0.00000000E+00  0.00000000E+00  0.00000000E+00
  0.00000000E+00  0.00000000E+00  0.00000000E+00
  0.00000000E+00  0.00000000E+00  0.00000000E+00
  0.00000000E+00  0.00000000E+00  0.00000000E+00
  0.00000000E+00  0.00000000E+00  0.00000000E+00
  0.00000000E+00  0.00000000E+00  0.00000000E+00
  0.00000000E+00  0.00000000E+00  0.00000000E+00
  0.00000000E+00  0.00000000E+00  0.00000000E+00
  0.00000000E+00  0.00000000E+00  0.00000000E+00
  0.00000000E+00  0.00000000E+00  0.00000000E+00
  0.00000000E+00  0.00000000E+00  0.00000000E+00
  0.00000000E+00  0.00000000E+00  0.00000000E+00
  0.00000000E+00  0.00000000E+00  0.00000000E+00
  0.00000000E+00  0.00000000E+00  0.00000000E+00
  0.00000000E+00  0.00000000E+00  0.00000000E+00
  0.00000000E+00  0.00000000E+00  0.00000000E+00
  0.00000000E+00  0.00000000E+00  0.00000000E+00
  0.00000000E+00  0.00000000E+00  0.00000000E+00
  0.00000000E+00  0.00000000E+00  0.00000000E+00
  0.00000000E+00  0.00000000E+00  0.00000000E+00
  0.00000000E+00  0.00000000E+00  0.00000000E+00
  0.00000000E+00  0.00000000E+00  0.00000000E+00
  0.00000000E+00  0.00000000E+00  0.00000000E+00
  0.00000000E+00  0.00000000E+00  0.00000000E+00
  0.00000000E+00  0.00000000E+00  0.00000000E+00
  0.00000000E+00  0.00000000E+00  0.00000000E+00
  0.00000000E+00  0.00000000E+00  0.00000000E+00
  0.00000000E+00  0.00000000E+00  0.00000000E+00
  0.00000000E+00  0.00000000E+00  0.00000000E+00
  0.00000000E+00  0.00000000E+00  0.00000000E+00
  0.00000000E+00  0.00000000E+00  0.00000000E+00
  0.00000000E+00  0.00000000E+00  0.00000000E+00
  0.00000000E+00  0.00000000E+00  0.00000000E+00
  0.00000000E+00  0.00000000E+00  0.00000000E+00
  0.00000000E+00  0.00000000E+00  0.00000000E+00
  0.00000000E+00  0.00000000E+00  0.00000000E+00
  0.00000000E+00  0.00000000E+00  0.00000000E+00
  0.00000000E+00  0.00000000E+00  0.00000000E+00
  0.00000000E+00  0.00000000E+00  0.00000000E+00
  0.00000000E+00  0.00000000E+00  0.00000000E+00
  0.00000000E+00  0.00000000E+00  0.00000000E+00
  0.00000000E+00  0.00000000E+00  0.00000000E+00
  0.00000000E+00  0.00000000E+00  0.00000000E+00
  0.00000000E+00  0.00000000E+00  0.00000000E+00
  0.00000000E+00  0.00000000E+00  0.00000000E+00
  0.00000000E+00  0.00000000E+00  0.00000000E+00
  0.00000000E+00  0.00000000E+00  0.00000000E+00
  0.00000000E+00  0.00000000E+00  0.00000000E+00
  0.00000000E+00  0.00000000E+00  0.00000000E+00
  0.00000000E+00  0.00000000E+00  0.00000000E+00
  0.00000000E+00  0.00000000E+00  0.00000000E+00
  0.00000000E+00  0.00000000E+00  0.00000000E+00
  0.00000000E+00  0.00000000E+00  0.00000000E+00
  0.00000000E+00  0.00000000E+00  0.00000000E+00
  0.00000000E+00  0.00000000E+00  0.00000000E+00
  0.00000000E+00  0.00000000E+00  0.00000000E+00
  0.00000000E+00  0.00000000E+00  0.00000000E+00
  0.00000000E+00  0.00000000E+00  0.00000000E+00
  0.00000000E+00  0.00000000E+00  0.00000000E+00
  0.00000000E+00  0.00000000E+00  0.00000000E+00
