supercell of icsd_608626.cif            
   1.08461629154403     
     9.2731009772007393   -0.0321623965910077    0.0128922699048850
    -4.6665590050076968    8.1468037051213233   -0.0245395719988426
     0.0147334656759885   -0.0238004266129030    9.4247596838331535
   Al   Y    N 
    24    12    36
Direct
  0.2234334879242894  0.1063281612167728  0.2601070827331569
  0.1139597480783934  0.2418314018044541  0.4928868236769617
  0.7729171549319531  0.2349910851964623  0.0003334738961414
  0.5652455722837146  0.1326089163689232  0.2488041109934684
  0.4547483058839958  0.2334479293574461  0.4878129237064073
  0.1208078513692499  0.2272821886122287  0.0021263504125102
  0.8867549040194618  0.1195055736084782  0.2496607052977637
  0.7796757997124857  0.2438205697878573  0.4922014803412935
  0.5533739054149365  0.1219790913870114  0.7475774112353335
  0.4438867403998259  0.2331489629905903  0.0082735048564402
  0.1043413793741905  0.5472756861420009  0.5044778908252425
  0.8782971305395932  0.4436745059302112  0.7392928473718641
  0.7594078047116000  0.5290018895073629  0.0044298377947598
  0.5561406361584318  0.4380946911878993  0.2506984642235750
  0.4350120377252651  0.5425961925333382  0.4954359137356192
  0.2230174930007323  0.4436377940286107  0.7460947566747791
  0.8827911219335718  0.4387188093098970  0.2540533002858183
  0.7829707912071697  0.5496804557791677  0.4959403495138304
  0.4540880542596355  0.5503070684955702  0.0087145553219869
  0.2150368184842861  0.7721429764725798  0.2632951009460527
  0.0976186807430750  0.8585891755193273  0.5034521217720567
  0.8931158724797044  0.7573374842553733  0.7513201853281828
  0.5568950349814585  0.7733814721594783  0.2644047405480521
  0.2219858356573994  0.7738096966734673  0.7393943706532724
  0.8867875848147619  0.1308444203349737  0.7397448531815982
  0.2174149388106201  0.1075906368247459  0.7174693806587698
  0.2209842764046002  0.4449312387985316  0.2335018930278920
  0.0938851553265536  0.5442500897690294  0.9753059861693316
  0.5597058291204604  0.4388274789466706  0.7467910853799680
  0.7846239193852256  0.8944575409116169  0.9932371445656969
  0.4444473107582638  0.9054313367312332  0.4789591138109586
  0.1247798209164301  0.9006021968727396  0.9900647698544063
  0.8904915105166609  0.7598223804042235  0.2331424626260770
  0.7975712848741097  0.8963990890927960  0.4846449704356317
  0.5473905553827763  0.7684896069710376  0.7320942793569003
  0.4509520970618652  0.8951093357781659  0.0073232088900994
  0.2175064484053024  0.1106305936860750  0.4521228840783493
  0.0982164454270986  0.1899645281544977  0.1907519900613082
  0.9056415281882551  0.1524805502943138  0.9563826389935244
  0.7579804170437043  0.2413570834617076  0.6765772408948081
  0.5771476449973960  0.1536840249385136  0.4264420156369155
  0.4387882107545593  0.2217444788536014  0.1986551342307834
  0.2396677837499936  0.1432740080253581  0.9390378298494966
  0.1187589606102506  0.2519378718033067  0.6746187623340916
  0.9015402601534959  0.1502166346987011  0.4401397086351224
  0.7797280750211968  0.2271007809455483  0.1894376339934567
  0.5612305245106057  0.1391106517759013  0.9401449445881909
  0.4560288984423551  0.2120463078395929  0.6670953705161509
  0.2212756595738767  0.4501901020778973  0.4484418192019106
  0.0910874701810442  0.5704663763059443  0.1968737646137413
  0.8477513941210972  0.4260316250164990  0.9234710059116154
  0.8005671934090799  0.5633714629095152  0.6785477949232259
  0.5559729649622653  0.4460155862532176  0.4428868610107273
  0.4765477774042921  0.5697312173087568  0.1974639176465161
  0.2410939358116764  0.4364133030018067  0.9522273528224403
  0.1081740502687865  0.5486551383829479  0.7023650885476940
  0.8924389938968389  0.4478707326553248  0.4413403351189089
  0.7582301854505857  0.5123378357426560  0.1904631554727843
  0.5505029136772066  0.4398256658222479  0.9662400903073660
  0.4182636212532174  0.5323488908273930  0.6781100719363806
  0.1951637436434481  0.7533281217367147  0.4487546110327472
  0.1465322457887126  0.9030340127518812  0.2073369587766578
  0.8762017712343138  0.7377132306296161  0.9507784531110843
  0.8059050043748570  0.8820414233954992  0.7165198793104608
  0.5464185508103441  0.7529366386920984  0.4547102967729373
  0.4433931509087117  0.8842394974723220  0.2341343415675112
  0.2294123831485564  0.7778905783451933  0.9197537126345097
  0.0981874601648514  0.8550975852091085  0.6905173809783918
  0.8970230449825465  0.7539453042718378  0.4447166237815807
  0.7693599496513457  0.9032798843778664  0.2248485333028896
  0.5450253015915791  0.7501565687785146  0.9489670232809360
  0.4386795917398061  0.9095845737978436  0.7040573240228980
 
  0.00000000E+00  0.00000000E+00  0.00000000E+00
  0.00000000E+00  0.00000000E+00  0.00000000E+00
  0.00000000E+00  0.00000000E+00  0.00000000E+00
  0.00000000E+00  0.00000000E+00  0.00000000E+00
  0.00000000E+00  0.00000000E+00  0.00000000E+00
  0.00000000E+00  0.00000000E+00  0.00000000E+00
  0.00000000E+00  0.00000000E+00  0.00000000E+00
  0.00000000E+00  0.00000000E+00  0.00000000E+00
  0.00000000E+00  0.00000000E+00  0.00000000E+00
  0.00000000E+00  0.00000000E+00  0.00000000E+00
  0.00000000E+00  0.00000000E+00  0.00000000E+00
  0.00000000E+00  0.00000000E+00  0.00000000E+00
  0.00000000E+00  0.00000000E+00  0.00000000E+00
  0.00000000E+00  0.00000000E+00  0.00000000E+00
  0.00000000E+00  0.00000000E+00  0.00000000E+00
  0.00000000E+00  0.00000000E+00  0.00000000E+00
  0.00000000E+00  0.00000000E+00  0.00000000E+00
  0.00000000E+00  0.00000000E+00  0.00000000E+00
  0.00000000E+00  0.00000000E+00  0.00000000E+00
  0.00000000E+00  0.00000000E+00  0.00000000E+00
  0.00000000E+00  0.00000000E+00  0.00000000E+00
  0.00000000E+00  0.00000000E+00  0.00000000E+00
  0.00000000E+00  0.00000000E+00  0.00000000E+00
  0.00000000E+00  0.00000000E+00  0.00000000E+00
  0.00000000E+00  0.00000000E+00  0.00000000E+00
  0.00000000E+00  0.00000000E+00  0.00000000E+00
  0.00000000E+00  0.00000000E+00  0.00000000E+00
  0.00000000E+00  0.00000000E+00  0.00000000E+00
  0.00000000E+00  0.00000000E+00  0.00000000E+00
  0.00000000E+00  0.00000000E+00  0.00000000E+00
  0.00000000E+00  0.00000000E+00  0.00000000E+00
  0.00000000E+00  0.00000000E+00  0.00000000E+00
  0.00000000E+00  0.00000000E+00  0.00000000E+00
  0.00000000E+00  0.00000000E+00  0.00000000E+00
  0.00000000E+00  0.00000000E+00  0.00000000E+00
  0.00000000E+00  0.00000000E+00  0.00000000E+00
  0.00000000E+00  0.00000000E+00  0.00000000E+00
  0.00000000E+00  0.00000000E+00  0.00000000E+00
  0.00000000E+00  0.00000000E+00  0.00000000E+00
  0.00000000E+00  0.00000000E+00  0.00000000E+00
  0.00000000E+00  0.00000000E+00  0.00000000E+00
  0.00000000E+00  0.00000000E+00  0.00000000E+00
  0.00000000E+00  0.00000000E+00  0.00000000E+00
  0.00000000E+00  0.00000000E+00  0.00000000E+00
  0.00000000E+00  0.00000000E+00  0.00000000E+00
  0.00000000E+00  0.00000000E+00  0.00000000E+00
  0.00000000E+00  0.00000000E+00  0.00000000E+00
  0.00000000E+00  0.00000000E+00  0.00000000E+00
  0.00000000E+00  0.00000000E+00  0.00000000E+00
  0.00000000E+00  0.00000000E+00  0.00000000E+00
  0.00000000E+00  0.00000000E+00  0.00000000E+00
  0.00000000E+00  0.00000000E+00  0.00000000E+00
  0.00000000E+00  0.00000000E+00  0.00000000E+00
  0.00000000E+00  0.00000000E+00  0.00000000E+00
  0.00000000E+00  0.00000000E+00  0.00000000E+00
  0.00000000E+00  0.00000000E+00  0.00000000E+00
  0.00000000E+00  0.00000000E+00  0.00000000E+00
  0.00000000E+00  0.00000000E+00  0.00000000E+00
  0.00000000E+00  0.00000000E+00  0.00000000E+00
  0.00000000E+00  0.00000000E+00  0.00000000E+00
  0.00000000E+00  0.00000000E+00  0.00000000E+00
  0.00000000E+00  0.00000000E+00  0.00000000E+00
  0.00000000E+00  0.00000000E+00  0.00000000E+00
  0.00000000E+00  0.00000000E+00  0.00000000E+00
  0.00000000E+00  0.00000000E+00  0.00000000E+00
  0.00000000E+00  0.00000000E+00  0.00000000E+00
  0.00000000E+00  0.00000000E+00  0.00000000E+00
  0.00000000E+00  0.00000000E+00  0.00000000E+00
  0.00000000E+00  0.00000000E+00  0.00000000E+00
  0.00000000E+00  0.00000000E+00  0.00000000E+00
  0.00000000E+00  0.00000000E+00  0.00000000E+00
  0.00000000E+00  0.00000000E+00  0.00000000E+00
