Al   Gd   N                             
   1.00000000000000     
    -9.6102223856077664    0.0029041507410305   -0.0024263093702630
    -4.8362267357416187    8.3437151142145733    0.0070138964163549
    -0.0761139344083484   -0.0349481975092908  -10.7640254488410374
   Al   Gd   N 
    31     5    36
Direct
  0.1221377862828987  0.0811282936230810  0.3997198271899833
  0.7780966186730609  0.0909710697846933  0.7965662077220230
  0.8895473688456406  0.2001959372603679  0.5667601426782625
  0.4475858670951780  0.0928734638449740  0.3300118376108685
  0.1186051629348981  0.0882620481426031  0.8672583177660513
  0.2141437393438892  0.2095952389453686  0.6206150683905989
  0.7867110616232154  0.0882672957212733  0.3137336863505809
  0.8877901512924566  0.1964994455290068  0.0384572945380697
  0.4492215298168603  0.0920551560272145  0.7844364381343638
  0.5551571358852669  0.2025514207085521  0.5558971149489551
  0.1221369931264888  0.4300659306452630  0.3997197491994839
  0.2133041892719660  0.5440120165011635  0.1247600679188352
  0.7857542039700292  0.4237888179481502  0.8080310425731341
  0.8895474955163181  0.5435904983837929  0.5667605414896926
  0.4414037589951860  0.4284277169250501  0.3016277690376938
  0.5502091137522669  0.5415625565546947  0.0440605220829866
  0.1186050034686019  0.4264646240922758  0.8672584974115694
  0.2116807556085050  0.5425234830207017  0.6342192206141917
  0.8877895293848681  0.5490440894702857  0.0384572244053842
  0.4481243805669592  0.4215704310920074  0.7987318073654137
  0.1045840209998730  0.7643738677502654  0.3142734781359522
  0.2133053614739637  0.8760179716143170  0.1247593700097838
  0.7780963633490288  0.7642644456808725  0.7965658356838503
  0.8921487637729584  0.8705923830890114  0.5528811012018764
  0.4414043501380789  0.7635010643288780  0.3016277787775579
  0.1050032895484065  0.7641636614787330  0.8340867797090183
  0.2116802855258442  0.8791300519849514  0.6342197051947025
  0.7867098845074025  0.7583539688030925  0.3137342349161827
  0.8974573612013046  0.8679381440157101  0.0647761316213717
  0.4481236946158518  0.7636371724327375  0.7987320599021572
  0.5551565075011453  0.8756260766857409  0.5558974158644290
  0.1786675671756868  0.2273325662615377  0.1498227229925178
  0.5563840363442196  0.2047416895481859  0.0533348906217554
  0.7860171873680741  0.4236572157499126  0.2947699698884065
  0.5546227653296967  0.5393573052567717  0.5574276412784300
  0.5563845925851894  0.8722111384258326  0.0533342833636539
  0.2173103555727423  0.2080125559297343  0.3616371423478242
  0.1142492375349420  0.0718466761808898  0.0432523206863920
  0.8812996488742471  0.2025855430440231  0.8590124829836085
  0.7786297075492001  0.0897380717196654  0.6169035343423985
  0.5586777342154932  0.2091876698241393  0.3707556768977653
  0.4374845620680006  0.0979233011431120  0.1544259176817064
  0.2162258928626883  0.2085545336193135  0.8063883708720212
  0.1165058155100525  0.0874006399601441  0.5765239883019078
  0.8937091736146527  0.1862639762294052  0.3868440794090162
  0.8074752790462369  0.0828302143787951  0.1323100269595656
  0.5543449544545638  0.2015932224606942  0.8422180163355435
  0.4474475873778161  0.0929417164775543  0.6050302231540243
  0.2129080567226964  0.5341155559704944  0.3109786645265942
  0.1142486341359046  0.4472370283186109  0.0432526497281103
  0.8812997955891717  0.5494485796289936  0.8590117342361552
  0.8105247381547613  0.4114025422924641  0.6301227903934006
  0.5294919204155448  0.5519213353143257  0.3528709592592065
  0.4401178887623090  0.4479819259065820  0.1206292582169723
  0.2181162352962929  0.5423316830294880  0.8155763006944170
  0.1165059741171603  0.4294253216332322  0.5765234478759780
  0.8937074302924159  0.5533612221395572  0.3868450107692212
  0.7872041446164033  0.4230628007477577  0.0807020552328268
  0.5525612009041652  0.5403860509131064  0.8578092628126512
  0.4361726363766394  0.4103121294592142  0.6229152221864922
  0.2129088725845421  0.8863109614604667  0.3109784251475958
  0.1088681181687932  0.7622319405325371  0.1110729706244626
  0.8810243877878747  0.8761541805271733  0.8750283104129579
  0.7786292033320947  0.7649626674006811  0.6169032674774115
  0.5586769259985971  0.8654697188122142  0.3707562400972790
  0.4401188501789193  0.7452314345259339  0.1206286114377519
  0.2181152983010790  0.8728872237793937  0.8155773579171068
  0.1087846069410432  0.7622734181822182  0.6012878688268302
  0.8873559525950867  0.8729888006751807  0.3713560065365442
  0.8074748774561797  0.7430239479103022  0.1323102246748107
  0.5543449356122920  0.8773950583511834  0.8422174887223335
  0.4361715220797961  0.7868468149843721  0.6229155407613121
 
  0.00000000E+00  0.00000000E+00  0.00000000E+00
  0.00000000E+00  0.00000000E+00  0.00000000E+00
  0.00000000E+00  0.00000000E+00  0.00000000E+00
  0.00000000E+00  0.00000000E+00  0.00000000E+00
  0.00000000E+00  0.00000000E+00  0.00000000E+00
  0.00000000E+00  0.00000000E+00  0.00000000E+00
  0.00000000E+00  0.00000000E+00  0.00000000E+00
  0.00000000E+00  0.00000000E+00  0.00000000E+00
  0.00000000E+00  0.00000000E+00  0.00000000E+00
  0.00000000E+00  0.00000000E+00  0.00000000E+00
  0.00000000E+00  0.00000000E+00  0.00000000E+00
  0.00000000E+00  0.00000000E+00  0.00000000E+00
  0.00000000E+00  0.00000000E+00  0.00000000E+00
  0.00000000E+00  0.00000000E+00  0.00000000E+00
  0.00000000E+00  0.00000000E+00  0.00000000E+00
  0.00000000E+00  0.00000000E+00  0.00000000E+00
  0.00000000E+00  0.00000000E+00  0.00000000E+00
  0.00000000E+00  0.00000000E+00  0.00000000E+00
  0.00000000E+00  0.00000000E+00  0.00000000E+00
  0.00000000E+00  0.00000000E+00  0.00000000E+00
  0.00000000E+00  0.00000000E+00  0.00000000E+00
  0.00000000E+00  0.00000000E+00  0.00000000E+00
  0.00000000E+00  0.00000000E+00  0.00000000E+00
  0.00000000E+00  0.00000000E+00  0.00000000E+00
  0.00000000E+00  0.00000000E+00  0.00000000E+00
  0.00000000E+00  0.00000000E+00  0.00000000E+00
  0.00000000E+00  0.00000000E+00  0.00000000E+00
  0.00000000E+00  0.00000000E+00  0.00000000E+00
  0.00000000E+00  0.00000000E+00  0.00000000E+00
  0.00000000E+00  0.00000000E+00  0.00000000E+00
  0.00000000E+00  0.00000000E+00  0.00000000E+00
  0.00000000E+00  0.00000000E+00  0.00000000E+00
  0.00000000E+00  0.00000000E+00  0.00000000E+00
  0.00000000E+00  0.00000000E+00  0.00000000E+00
  0.00000000E+00  0.00000000E+00  0.00000000E+00
  0.00000000E+00  0.00000000E+00  0.00000000E+00
  0.00000000E+00  0.00000000E+00  0.00000000E+00
  0.00000000E+00  0.00000000E+00  0.00000000E+00
  0.00000000E+00  0.00000000E+00  0.00000000E+00
  0.00000000E+00  0.00000000E+00  0.00000000E+00
  0.00000000E+00  0.00000000E+00  0.00000000E+00
  0.00000000E+00  0.00000000E+00  0.00000000E+00
  0.00000000E+00  0.00000000E+00  0.00000000E+00
  0.00000000E+00  0.00000000E+00  0.00000000E+00
  0.00000000E+00  0.00000000E+00  0.00000000E+00
  0.00000000E+00  0.00000000E+00  0.00000000E+00
  0.00000000E+00  0.00000000E+00  0.00000000E+00
  0.00000000E+00  0.00000000E+00  0.00000000E+00
  0.00000000E+00  0.00000000E+00  0.00000000E+00
  0.00000000E+00  0.00000000E+00  0.00000000E+00
  0.00000000E+00  0.00000000E+00  0.00000000E+00
  0.00000000E+00  0.00000000E+00  0.00000000E+00
  0.00000000E+00  0.00000000E+00  0.00000000E+00
  0.00000000E+00  0.00000000E+00  0.00000000E+00
  0.00000000E+00  0.00000000E+00  0.00000000E+00
  0.00000000E+00  0.00000000E+00  0.00000000E+00
  0.00000000E+00  0.00000000E+00  0.00000000E+00
  0.00000000E+00  0.00000000E+00  0.00000000E+00
  0.00000000E+00  0.00000000E+00  0.00000000E+00
  0.00000000E+00  0.00000000E+00  0.00000000E+00
  0.00000000E+00  0.00000000E+00  0.00000000E+00
  0.00000000E+00  0.00000000E+00  0.00000000E+00
  0.00000000E+00  0.00000000E+00  0.00000000E+00
  0.00000000E+00  0.00000000E+00  0.00000000E+00
  0.00000000E+00  0.00000000E+00  0.00000000E+00
  0.00000000E+00  0.00000000E+00  0.00000000E+00
  0.00000000E+00  0.00000000E+00  0.00000000E+00
  0.00000000E+00  0.00000000E+00  0.00000000E+00
  0.00000000E+00  0.00000000E+00  0.00000000E+00
  0.00000000E+00  0.00000000E+00  0.00000000E+00
  0.00000000E+00  0.00000000E+00  0.00000000E+00
  0.00000000E+00  0.00000000E+00  0.00000000E+00
