Al   Gd   N                             
   1.00000000000000     
    -9.6808214651444686    0.0095120491605786    0.0098276409003759
    -4.8547452378334279    8.4011001768081925    0.0103907230960520
    -0.0880814118442482   -0.0789895178786462  -10.5731879522951981
   Al   Gd   N 
    31     5    36
Direct
  0.1215280123784481  0.0820111637779206  0.3973581074506498
  0.7787569906905318  0.0888551032725005  0.7981629239061476
  0.8882435967299642  0.2016493214379480  0.5643452357837901
  0.4483031975744325  0.0950431206279490  0.3282505707074606
  0.1166725876884271  0.0873015151434728  0.8638290114881855
  0.2139217348247655  0.2099527238138919  0.6172306122291928
  0.7919498422279503  0.0835825317463375  0.3131698568986678
  0.8887261947886387  0.1938319966156428  0.0403139575028533
  0.4462813422900496  0.0896634748565859  0.7894184867676231
  0.5595215604045833  0.1954609162636984  0.5595596198436183
  0.1209666075023890  0.4294746284212607  0.3977095355513498
  0.2198999885574082  0.5460718792900323  0.1245773041699536
  0.7947967454955815  0.4187974931023959  0.8064535887064253
  0.8898097289022431  0.5438998537130360  0.5651671226601707
  0.4326270231449385  0.4293852382865211  0.3799829022915304
  0.5576793385339016  0.5326454441243555  0.0328892180010527
  0.1185564225833460  0.4273975491932660  0.8651235069322922
  0.2110772533257617  0.5452156755396160  0.6275063971276538
  0.8912696862007294  0.5480314058135889  0.0399413264173063
  0.4392655855489309  0.4244643907151300  0.8286765859222314
  0.1210698546487237  0.7569462165044314  0.3756292465854330
  0.2175046443443378  0.8659334416818751  0.1198023882900259
  0.7748887319851647  0.7658496584788566  0.8006565421738472
  0.8874387070190011  0.8732512683220790  0.5543575684890243
  0.4298849662301194  0.7757515015956500  0.3791549728046988
  0.1152172321523111  0.7580225365794604  0.8781816511743656
  0.2130444768102109  0.8798057429337121  0.6276318014054993
  0.7964623825544734  0.7559503603867697  0.3126880216492864
  0.8983785615682578  0.8673312695457298  0.0637137005945618
  0.4314746084853738  0.7687445709391199  0.8652091797333128
  0.5583186066726071  0.8829495430395085  0.5516929123579501
  0.1721916269980710  0.2293090102818951  0.1487333712642425
  0.5574372484130450  0.2010703742333462  0.0584279375192338
  0.7711281060121991  0.4305235170440227  0.3013131743810931
  0.5497749798302181  0.5512344019677897  0.5979481582244972
  0.5603422625231715  0.8693031821381680  0.0729080639618829
  0.2206104730534477  0.2061862231378413  0.3658456644508092
  0.1123518603473030  0.0691295974932018  0.0432964319795204
  0.8815780216637137  0.2016366834884948  0.8576332251885503
  0.7801695818202532  0.0894358924976260  0.6170833347262814
  0.5660816993418365  0.1997466637218750  0.3719673962463474
  0.4264900176204236  0.1046887740920042  0.1526835980784753
  0.2146776714913727  0.2085580373916613  0.8072449648406348
  0.1105880179777117  0.0912901937971142  0.5782862379341083
  0.8967870887055085  0.1852360851640071  0.3816909163426914
  0.8116139617172706  0.0776887335775669  0.1318686205988797
  0.5524257325217192  0.2024202298726649  0.8384980584831538
  0.4476119802713825  0.0933098574434155  0.6086702961732087
  0.2189480936807371  0.5364520387879068  0.3151957622953532
  0.1151279215122329  0.4480644812445860  0.0447234768095939
  0.8828625539913517  0.5486301445213400  0.8577149449932548
  0.8142939035138141  0.4105823299335754  0.6254970284631938
  0.5253969262166365  0.5553510527732115  0.3727549053694190
  0.4327898101163683  0.4507736175419126  0.0758501040684507
  0.2165544467610445  0.5465784203936437  0.8076180401666520
  0.1131189482858304  0.4318660021332192  0.5779353763262449
  0.8965995145275016  0.5510476121421348  0.3824898481844841
  0.7844788519643018  0.4249461010720594  0.0805387493794072
  0.5587003849690859  0.5346947223909737  0.8377981313227565
  0.4253596323713893  0.4145271777944970  0.5792370511602059
  0.2197523808585657  0.8776768462562217  0.3083343484501668
  0.1191617439229020  0.7548552831136988  0.0616787289312271
  0.8791865732551827  0.8767174847207784  0.8716128401091083
  0.7767574287094376  0.7655330836906415  0.6173806079908459
  0.5687801747827592  0.8687125301072953  0.3622884950702527
  0.4241011369240795  0.7504405953876585  0.0467039666137197
  0.2180131567724288  0.8680679218351628  0.8070613577615688
  0.1198882218308412  0.7580445985737825  0.5622612035238674
  0.8912743927088655  0.8718159618303076  0.3723100232324796
  0.8174991722489153  0.7398770916000217  0.1321462874628878
  0.5515087900719280  0.8765051886545621  0.8493849807621885
  0.4160702415263700  0.8083744046588635  0.5593132892759627
 
  0.00000000E+00  0.00000000E+00  0.00000000E+00
  0.00000000E+00  0.00000000E+00  0.00000000E+00
  0.00000000E+00  0.00000000E+00  0.00000000E+00
  0.00000000E+00  0.00000000E+00  0.00000000E+00
  0.00000000E+00  0.00000000E+00  0.00000000E+00
  0.00000000E+00  0.00000000E+00  0.00000000E+00
  0.00000000E+00  0.00000000E+00  0.00000000E+00
  0.00000000E+00  0.00000000E+00  0.00000000E+00
  0.00000000E+00  0.00000000E+00  0.00000000E+00
  0.00000000E+00  0.00000000E+00  0.00000000E+00
  0.00000000E+00  0.00000000E+00  0.00000000E+00
  0.00000000E+00  0.00000000E+00  0.00000000E+00
  0.00000000E+00  0.00000000E+00  0.00000000E+00
  0.00000000E+00  0.00000000E+00  0.00000000E+00
  0.00000000E+00  0.00000000E+00  0.00000000E+00
  0.00000000E+00  0.00000000E+00  0.00000000E+00
  0.00000000E+00  0.00000000E+00  0.00000000E+00
  0.00000000E+00  0.00000000E+00  0.00000000E+00
  0.00000000E+00  0.00000000E+00  0.00000000E+00
  0.00000000E+00  0.00000000E+00  0.00000000E+00
  0.00000000E+00  0.00000000E+00  0.00000000E+00
  0.00000000E+00  0.00000000E+00  0.00000000E+00
  0.00000000E+00  0.00000000E+00  0.00000000E+00
  0.00000000E+00  0.00000000E+00  0.00000000E+00
  0.00000000E+00  0.00000000E+00  0.00000000E+00
  0.00000000E+00  0.00000000E+00  0.00000000E+00
  0.00000000E+00  0.00000000E+00  0.00000000E+00
  0.00000000E+00  0.00000000E+00  0.00000000E+00
  0.00000000E+00  0.00000000E+00  0.00000000E+00
  0.00000000E+00  0.00000000E+00  0.00000000E+00
  0.00000000E+00  0.00000000E+00  0.00000000E+00
  0.00000000E+00  0.00000000E+00  0.00000000E+00
  0.00000000E+00  0.00000000E+00  0.00000000E+00
  0.00000000E+00  0.00000000E+00  0.00000000E+00
  0.00000000E+00  0.00000000E+00  0.00000000E+00
  0.00000000E+00  0.00000000E+00  0.00000000E+00
  0.00000000E+00  0.00000000E+00  0.00000000E+00
  0.00000000E+00  0.00000000E+00  0.00000000E+00
  0.00000000E+00  0.00000000E+00  0.00000000E+00
  0.00000000E+00  0.00000000E+00  0.00000000E+00
  0.00000000E+00  0.00000000E+00  0.00000000E+00
  0.00000000E+00  0.00000000E+00  0.00000000E+00
  0.00000000E+00  0.00000000E+00  0.00000000E+00
  0.00000000E+00  0.00000000E+00  0.00000000E+00
  0.00000000E+00  0.00000000E+00  0.00000000E+00
  0.00000000E+00  0.00000000E+00  0.00000000E+00
  0.00000000E+00  0.00000000E+00  0.00000000E+00
  0.00000000E+00  0.00000000E+00  0.00000000E+00
  0.00000000E+00  0.00000000E+00  0.00000000E+00
  0.00000000E+00  0.00000000E+00  0.00000000E+00
  0.00000000E+00  0.00000000E+00  0.00000000E+00
  0.00000000E+00  0.00000000E+00  0.00000000E+00
  0.00000000E+00  0.00000000E+00  0.00000000E+00
  0.00000000E+00  0.00000000E+00  0.00000000E+00
  0.00000000E+00  0.00000000E+00  0.00000000E+00
  0.00000000E+00  0.00000000E+00  0.00000000E+00
  0.00000000E+00  0.00000000E+00  0.00000000E+00
  0.00000000E+00  0.00000000E+00  0.00000000E+00
  0.00000000E+00  0.00000000E+00  0.00000000E+00
  0.00000000E+00  0.00000000E+00  0.00000000E+00
  0.00000000E+00  0.00000000E+00  0.00000000E+00
  0.00000000E+00  0.00000000E+00  0.00000000E+00
  0.00000000E+00  0.00000000E+00  0.00000000E+00
  0.00000000E+00  0.00000000E+00  0.00000000E+00
  0.00000000E+00  0.00000000E+00  0.00000000E+00
  0.00000000E+00  0.00000000E+00  0.00000000E+00
  0.00000000E+00  0.00000000E+00  0.00000000E+00
  0.00000000E+00  0.00000000E+00  0.00000000E+00
  0.00000000E+00  0.00000000E+00  0.00000000E+00
  0.00000000E+00  0.00000000E+00  0.00000000E+00
  0.00000000E+00  0.00000000E+00  0.00000000E+00
  0.00000000E+00  0.00000000E+00  0.00000000E+00
