Al   Gd   N                             
   1.00000000000000     
    -9.7047144712074385   -0.0064851837863061    0.0122756681325529
    -4.8948769624357471    8.4185772376306627    0.0023379168501877
     0.0326017711886772   -0.0013696888376042  -10.3188186427757937
   Al   Gd   N 
    31     5    36
Direct
  0.1121300277635484  0.0858164553135410  0.4056305143960088
  0.7851406867490951  0.0877564356754732  0.8922994056596139
  0.8938359844510089  0.1965950038244912  0.6504536410910049
  0.4439858909304988  0.0938405169541738  0.4240357558768793
  0.1105492356391764  0.0899749510581387  0.8931634915463320
  0.2153977700520286  0.2087469249783211  0.6457189642655976
  0.7834566731804529  0.0839551033733912  0.4067248261019643
  0.8988396187408725  0.1883375429762282  0.1414992509879696
  0.4434978332559325  0.0953724831776412  0.8841025526307007
  0.5542447489843809  0.2004508541564647  0.6503544212309791
  0.1124595656371099  0.4345571343737191  0.4057972705347836
  0.2195976705365297  0.5494053873149909  0.1447671911716455
  0.7900920456941662  0.4218319177081113  0.8474158730433956
  0.8937406497936280  0.5425324448932471  0.6503371504875091
  0.4293454687134641  0.4261899855808124  0.4129900657581445
  0.5619581067456423  0.5363326533848607  0.0664898587525258
  0.1102562773617421  0.4334184554788507  0.8934741644296480
  0.2100927276560185  0.5404037543569515  0.6498427472227988
  0.8988807412140218  0.5473302161609936  0.1425219150963386
  0.4352313307611411  0.4258442243685892  0.8912615163537794
  0.1144955351055543  0.7590546556621760  0.3946117621789753
  0.2194646349744005  0.8652829848806647  0.1448521696215082
  0.7853414988372478  0.7605938392484362  0.8928088302459258
  0.8929407687460582  0.8698357780208141  0.6486206989100225
  0.4296269704842857  0.7761566269056175  0.4124790024506666
  0.1108995698562651  0.7614187603656077  0.8996551880064700
  0.2103804066974817  0.8821433853442784  0.6495513584534578
  0.7835537703355584  0.7653081768246182  0.4063572112734377
  0.9010900702713016  0.8667482080581692  0.1455869266034213
  0.4352666385497770  0.7726486325099486  0.8912010614777088
  0.5544407725619820  0.8777655300851279  0.6505384103445309
  0.2117325507782866  0.2115485897967204  0.1516241965435086
  0.5632989005057851  0.2121906623098866  0.1513904500002283
  0.7745386091820308  0.4293078798112617  0.3713373084397134
  0.5365008748626110  0.5479623045245390  0.6356967386506867
  0.5626968984367124  0.8604123696302963  0.1506825211909799
  0.2208814217073538  0.2056729109469444  0.3737375455475700
  0.1057895397160706  0.0744623307780543  0.0752222999019523
  0.8925431734099618  0.1985465012898615  0.8366233226182160
  0.7801951269974623  0.0911227911444854  0.5943741397398128
  0.5560267698046530  0.2014472402451304  0.3710631487053959
  0.4451981897284654  0.0955189025594336  0.0647563955624904
  0.2154569146022780  0.2091217312143812  0.8374883882189081
  0.1046111919321149  0.0952148271259574  0.5915134582011490
  0.9048519018765333  0.1680889255683766  0.3302671708866924
  0.8063930844617460  0.0745499872965354  0.0744490012790209
  0.5598405000372253  0.2052156889842038  0.8392517899136891
  0.4422510606336303  0.0950095692142838  0.6084179505224725
  0.2224687621317258  0.5362646810230629  0.3351602546952179
  0.1053773334714663  0.4543521682081888  0.0753772253553748
  0.8924848011681306  0.5425579426274183  0.8364945618610022
  0.8006784740527166  0.4160656927556801  0.6200416546049325
  0.5175950025771243  0.5569314040559803  0.3990466083412869
  0.4263423776401609  0.4532633638088654  0.0728880354624977
  0.2178582608030197  0.5441904897388952  0.8344864804330641
  0.1045277901065518  0.4329115392845964  0.5914820528509992
  0.9055709643376275  0.5595605212381543  0.3305729931747834
  0.7830820713457456  0.4256450539233185  0.1177457087157094
  0.5630517394642709  0.5353600450596332  0.8691380269764863
  0.4180445000143962  0.4087106697422698  0.5951025696750918
  0.2222928901250043  0.8737488013531021  0.3352899926216111
  0.1128063899650869  0.7606943993960300  0.0882160145547530
  0.8936855378443340  0.8697380306961051  0.8334804728763814
  0.7801480480539666  0.7614027446953031  0.5940152508737171
  0.5562333352024851  0.8739595173578465  0.3704930717772257
  0.4262914375727931  0.7551743392357437  0.0729255726265450
  0.2180146470755986  0.8712479154908976  0.8342516298948155
  0.1127243689279638  0.7599373401977800  0.5849566594517484
  0.8891520106922712  0.8718761990127888  0.3385992374299960
  0.8063822484385810  0.7532341555243889  0.0750390162598507
  0.5599044860964071  0.8685787521119934  0.8396571695123001
  0.4184645697591520  0.8054250513769290  0.5948529491928838
 
  0.00000000E+00  0.00000000E+00  0.00000000E+00
  0.00000000E+00  0.00000000E+00  0.00000000E+00
  0.00000000E+00  0.00000000E+00  0.00000000E+00
  0.00000000E+00  0.00000000E+00  0.00000000E+00
  0.00000000E+00  0.00000000E+00  0.00000000E+00
  0.00000000E+00  0.00000000E+00  0.00000000E+00
  0.00000000E+00  0.00000000E+00  0.00000000E+00
  0.00000000E+00  0.00000000E+00  0.00000000E+00
  0.00000000E+00  0.00000000E+00  0.00000000E+00
  0.00000000E+00  0.00000000E+00  0.00000000E+00
  0.00000000E+00  0.00000000E+00  0.00000000E+00
  0.00000000E+00  0.00000000E+00  0.00000000E+00
  0.00000000E+00  0.00000000E+00  0.00000000E+00
  0.00000000E+00  0.00000000E+00  0.00000000E+00
  0.00000000E+00  0.00000000E+00  0.00000000E+00
  0.00000000E+00  0.00000000E+00  0.00000000E+00
  0.00000000E+00  0.00000000E+00  0.00000000E+00
  0.00000000E+00  0.00000000E+00  0.00000000E+00
  0.00000000E+00  0.00000000E+00  0.00000000E+00
  0.00000000E+00  0.00000000E+00  0.00000000E+00
  0.00000000E+00  0.00000000E+00  0.00000000E+00
  0.00000000E+00  0.00000000E+00  0.00000000E+00
  0.00000000E+00  0.00000000E+00  0.00000000E+00
  0.00000000E+00  0.00000000E+00  0.00000000E+00
  0.00000000E+00  0.00000000E+00  0.00000000E+00
  0.00000000E+00  0.00000000E+00  0.00000000E+00
  0.00000000E+00  0.00000000E+00  0.00000000E+00
  0.00000000E+00  0.00000000E+00  0.00000000E+00
  0.00000000E+00  0.00000000E+00  0.00000000E+00
  0.00000000E+00  0.00000000E+00  0.00000000E+00
  0.00000000E+00  0.00000000E+00  0.00000000E+00
  0.00000000E+00  0.00000000E+00  0.00000000E+00
  0.00000000E+00  0.00000000E+00  0.00000000E+00
  0.00000000E+00  0.00000000E+00  0.00000000E+00
  0.00000000E+00  0.00000000E+00  0.00000000E+00
  0.00000000E+00  0.00000000E+00  0.00000000E+00
  0.00000000E+00  0.00000000E+00  0.00000000E+00
  0.00000000E+00  0.00000000E+00  0.00000000E+00
  0.00000000E+00  0.00000000E+00  0.00000000E+00
  0.00000000E+00  0.00000000E+00  0.00000000E+00
  0.00000000E+00  0.00000000E+00  0.00000000E+00
  0.00000000E+00  0.00000000E+00  0.00000000E+00
  0.00000000E+00  0.00000000E+00  0.00000000E+00
  0.00000000E+00  0.00000000E+00  0.00000000E+00
  0.00000000E+00  0.00000000E+00  0.00000000E+00
  0.00000000E+00  0.00000000E+00  0.00000000E+00
  0.00000000E+00  0.00000000E+00  0.00000000E+00
  0.00000000E+00  0.00000000E+00  0.00000000E+00
  0.00000000E+00  0.00000000E+00  0.00000000E+00
  0.00000000E+00  0.00000000E+00  0.00000000E+00
  0.00000000E+00  0.00000000E+00  0.00000000E+00
  0.00000000E+00  0.00000000E+00  0.00000000E+00
  0.00000000E+00  0.00000000E+00  0.00000000E+00
  0.00000000E+00  0.00000000E+00  0.00000000E+00
  0.00000000E+00  0.00000000E+00  0.00000000E+00
  0.00000000E+00  0.00000000E+00  0.00000000E+00
  0.00000000E+00  0.00000000E+00  0.00000000E+00
  0.00000000E+00  0.00000000E+00  0.00000000E+00
  0.00000000E+00  0.00000000E+00  0.00000000E+00
  0.00000000E+00  0.00000000E+00  0.00000000E+00
  0.00000000E+00  0.00000000E+00  0.00000000E+00
  0.00000000E+00  0.00000000E+00  0.00000000E+00
  0.00000000E+00  0.00000000E+00  0.00000000E+00
  0.00000000E+00  0.00000000E+00  0.00000000E+00
  0.00000000E+00  0.00000000E+00  0.00000000E+00
  0.00000000E+00  0.00000000E+00  0.00000000E+00
  0.00000000E+00  0.00000000E+00  0.00000000E+00
  0.00000000E+00  0.00000000E+00  0.00000000E+00
  0.00000000E+00  0.00000000E+00  0.00000000E+00
  0.00000000E+00  0.00000000E+00  0.00000000E+00
  0.00000000E+00  0.00000000E+00  0.00000000E+00
  0.00000000E+00  0.00000000E+00  0.00000000E+00
