Al   Gd   N                             
   1.00000000000000     
    -9.7041896982945115    0.0006168012881100   -0.0066680613870226
    -4.8288143619340591    8.3975189870865439    0.0058449948733828
    -0.1781729513293564    0.0041350198035549  -10.6234210506922100
   Al   Gd   N 
    31     5    36
Direct
  0.1200412619625695  0.0818925372812060  0.3916041061664046
  0.7731879288364567  0.0910373939549700  0.7979313432795436
  0.8914575564973219  0.2005796594550873  0.5673087182677747
  0.4513106185911724  0.0937341822805138  0.3267473018042892
  0.1109794832094479  0.0828946375777377  0.8678790798414511
  0.2282238957840903  0.2015702886797541  0.5687515756653596
  0.7879183035451547  0.0888919496494012  0.3158050973782238
  0.8836208680511390  0.1979819030421055  0.0418874077423510
  0.4386646319012257  0.0948856736393253  0.7885988672710766
  0.5574147376480454  0.2024125720632739  0.5566139642636543
  0.1203000843734756  0.4352660321185269  0.3946821838667418
  0.2100445696063034  0.5467649369202121  0.1343145045508010
  0.7808030961944681  0.4234703591435789  0.8116972159105131
  0.8912078805823924  0.5418929353701500  0.5696834765042240
  0.4451682506417640  0.4310304763962023  0.3061270643621512
  0.5425908826714760  0.5461621409547917  0.0455742083652027
  0.1102543881793139  0.4297947471864205  0.8566092414706432
  0.2148797031766492  0.5383154679944866  0.6292430569157474
  0.8856063187040206  0.5503984601356890  0.0400287786243894
  0.4426041893445856  0.4213925814834525  0.7993115578538337
  0.1029668958098142  0.7678118056331869  0.3151786996559238
  0.2114849136184986  0.8748265437336045  0.1297076663777759
  0.7734036237060735  0.7655948965045241  0.7973804374716877
  0.8890818670717238  0.8724879245130523  0.5561799136826053
  0.4443292990215824  0.7631146798146560  0.3036133946779529
  0.0968510870837704  0.7649361936053509  0.8089535071306599
  0.2134435958890535  0.8813096090758350  0.6317369470602330
  0.7881254515807328  0.7606997522471488  0.3165270916520058
  0.9017986337821284  0.8653169241534684  0.0661396889255457
  0.4430530228793970  0.7644882505581378  0.8002761815526753
  0.5566895423323217  0.8743184251894007  0.5566991204605998
  0.2111726441827528  0.2102247470022718  0.0904828708821839
  0.5652909554291199  0.2083578035891875  0.0556095382711206
  0.7958869537016540  0.4237478059059754  0.2922318533415762
  0.5591564170146199  0.5382120603135547  0.5594584906622302
  0.5659123359207925  0.8660353872663435  0.0546082186439705
  0.2253373797182405  0.2067695354697534  0.3715443615435774
  0.1016825698501691  0.0670283269660530  0.0480748562586157
  0.8762931089855073  0.2017285164921603  0.8597649236957494
  0.7779290026237717  0.0911237952539565  0.6169699281715637
  0.5615319748470213  0.2093727528263969  0.3710580236771861
  0.4549077657566443  0.0919018525297375  0.1522684959056875
  0.2199908014704235  0.2024979926331838  0.8464651623551163
  0.1167266516003380  0.0881562153201756  0.5741779168593837
  0.8956573570834507  0.1872142661150704  0.3848679173506468
  0.8087624963149054  0.0799556695078962  0.1346774722652455
  0.5502782523013821  0.2007972470436670  0.8419970603323463
  0.4475812990301122  0.0926477813635671  0.6057807794789980
  0.2196697518293647  0.5391705388771371  0.3250000326953142
  0.1019506915087334  0.4617319999240337  0.0534314527042667
  0.8784130240094967  0.5492140862027313  0.8574769771969741
  0.8107791074571793  0.4103350982721068  0.6311528466474101
  0.5410702119044402  0.5492584035316952  0.3513545226592214
  0.4333765727758490  0.4520437924973990  0.1234829336550902
  0.2153783610278595  0.5403579184273966  0.8129636051276918
  0.1164392242485093  0.4263837598954581  0.5801125599111785
  0.8970351332415873  0.5557477883052968  0.3887847161981881
  0.7775904188588001  0.4274181234956345  0.0764060870535488
  0.5472826248683376  0.5402893750083777  0.8564127333138245
  0.4362153446226742  0.4108254122490393  0.6195668398306466
  0.2183843596638653  0.8820249486816962  0.3177946713808240
  0.1038526285341064  0.7645134449929074  0.1288520460313052
  0.8799720975033907  0.8742593530669254  0.8739583320912843
  0.7773398454021532  0.7646003295516834  0.6171889118336793
  0.5609056987521157  0.8666479961982887  0.3706811715896876
  0.4352363086673208  0.7506234118261617  0.1196821013162577
  0.2153469165657285  0.8712547361404148  0.8147748143121518
  0.1009361287392494  0.7660887965583001  0.6166272223363833
  0.8885610412916307  0.8744581141279681  0.3756209139568867
  0.8084695655637688  0.7426607865607906  0.1346066949740177
  0.5513572717031963  0.8761061490151647  0.8412359770159838
  0.4348253942701703  0.7869280064372361  0.6206193877137594
 
  0.00000000E+00  0.00000000E+00  0.00000000E+00
  0.00000000E+00  0.00000000E+00  0.00000000E+00
  0.00000000E+00  0.00000000E+00  0.00000000E+00
  0.00000000E+00  0.00000000E+00  0.00000000E+00
  0.00000000E+00  0.00000000E+00  0.00000000E+00
  0.00000000E+00  0.00000000E+00  0.00000000E+00
  0.00000000E+00  0.00000000E+00  0.00000000E+00
  0.00000000E+00  0.00000000E+00  0.00000000E+00
  0.00000000E+00  0.00000000E+00  0.00000000E+00
  0.00000000E+00  0.00000000E+00  0.00000000E+00
  0.00000000E+00  0.00000000E+00  0.00000000E+00
  0.00000000E+00  0.00000000E+00  0.00000000E+00
  0.00000000E+00  0.00000000E+00  0.00000000E+00
  0.00000000E+00  0.00000000E+00  0.00000000E+00
  0.00000000E+00  0.00000000E+00  0.00000000E+00
  0.00000000E+00  0.00000000E+00  0.00000000E+00
  0.00000000E+00  0.00000000E+00  0.00000000E+00
  0.00000000E+00  0.00000000E+00  0.00000000E+00
  0.00000000E+00  0.00000000E+00  0.00000000E+00
  0.00000000E+00  0.00000000E+00  0.00000000E+00
  0.00000000E+00  0.00000000E+00  0.00000000E+00
  0.00000000E+00  0.00000000E+00  0.00000000E+00
  0.00000000E+00  0.00000000E+00  0.00000000E+00
  0.00000000E+00  0.00000000E+00  0.00000000E+00
  0.00000000E+00  0.00000000E+00  0.00000000E+00
  0.00000000E+00  0.00000000E+00  0.00000000E+00
  0.00000000E+00  0.00000000E+00  0.00000000E+00
  0.00000000E+00  0.00000000E+00  0.00000000E+00
  0.00000000E+00  0.00000000E+00  0.00000000E+00
  0.00000000E+00  0.00000000E+00  0.00000000E+00
  0.00000000E+00  0.00000000E+00  0.00000000E+00
  0.00000000E+00  0.00000000E+00  0.00000000E+00
  0.00000000E+00  0.00000000E+00  0.00000000E+00
  0.00000000E+00  0.00000000E+00  0.00000000E+00
  0.00000000E+00  0.00000000E+00  0.00000000E+00
  0.00000000E+00  0.00000000E+00  0.00000000E+00
  0.00000000E+00  0.00000000E+00  0.00000000E+00
  0.00000000E+00  0.00000000E+00  0.00000000E+00
  0.00000000E+00  0.00000000E+00  0.00000000E+00
  0.00000000E+00  0.00000000E+00  0.00000000E+00
  0.00000000E+00  0.00000000E+00  0.00000000E+00
  0.00000000E+00  0.00000000E+00  0.00000000E+00
  0.00000000E+00  0.00000000E+00  0.00000000E+00
  0.00000000E+00  0.00000000E+00  0.00000000E+00
  0.00000000E+00  0.00000000E+00  0.00000000E+00
  0.00000000E+00  0.00000000E+00  0.00000000E+00
  0.00000000E+00  0.00000000E+00  0.00000000E+00
  0.00000000E+00  0.00000000E+00  0.00000000E+00
  0.00000000E+00  0.00000000E+00  0.00000000E+00
  0.00000000E+00  0.00000000E+00  0.00000000E+00
  0.00000000E+00  0.00000000E+00  0.00000000E+00
  0.00000000E+00  0.00000000E+00  0.00000000E+00
  0.00000000E+00  0.00000000E+00  0.00000000E+00
  0.00000000E+00  0.00000000E+00  0.00000000E+00
  0.00000000E+00  0.00000000E+00  0.00000000E+00
  0.00000000E+00  0.00000000E+00  0.00000000E+00
  0.00000000E+00  0.00000000E+00  0.00000000E+00
  0.00000000E+00  0.00000000E+00  0.00000000E+00
  0.00000000E+00  0.00000000E+00  0.00000000E+00
  0.00000000E+00  0.00000000E+00  0.00000000E+00
  0.00000000E+00  0.00000000E+00  0.00000000E+00
  0.00000000E+00  0.00000000E+00  0.00000000E+00
  0.00000000E+00  0.00000000E+00  0.00000000E+00
  0.00000000E+00  0.00000000E+00  0.00000000E+00
  0.00000000E+00  0.00000000E+00  0.00000000E+00
  0.00000000E+00  0.00000000E+00  0.00000000E+00
  0.00000000E+00  0.00000000E+00  0.00000000E+00
  0.00000000E+00  0.00000000E+00  0.00000000E+00
  0.00000000E+00  0.00000000E+00  0.00000000E+00
  0.00000000E+00  0.00000000E+00  0.00000000E+00
  0.00000000E+00  0.00000000E+00  0.00000000E+00
  0.00000000E+00  0.00000000E+00  0.00000000E+00
