supercell of icsd_191774.cif            
   1.00000000000000     
    10.5068249602819446    0.0701255545185799   -0.0862245331385539
    -5.1943347346783000    8.8232593951232587   -0.0186887033651648
    -0.0955335011040768   -0.0790095965321387   10.8436212206481031
   N    In   B 
    36    30     6
Direct
  0.2306684684309701  0.1481289901716067  0.4515198217108463
  0.0971543079777533  0.2165840060736031  0.1865211700644025
  0.8644950099032513  0.1043403231414430  0.9366097172066148
  0.7067519091921426  0.2101313817867165  0.6940440388793903
  0.5795215098703537  0.1262158419080919  0.3979894910113941
  0.4580697794920070  0.1952830613972125  0.2048722230021340
  0.2222148799296022  0.1167268694491597  0.9434789776238617
  0.1834154330390874  0.2580654112950427  0.6447382635725631
  0.8250638347280912  0.1235378637842004  0.4476467374473998
  0.7316195128225402  0.2348432071501136  0.2010151406737037
  0.5550641624987804  0.1206945117839808  0.9006260513289561
  0.4620326179078944  0.2068212160690734  0.6993232494141921
  0.2282322908373189  0.4084696464418158  0.4499435142727179
  0.1488151606766266  0.5756095698265611  0.2212660286228925
  0.9038530258747528  0.4468438609725709  0.9427584051312294
  0.7851689457550250  0.5532401781891849  0.6885662286450511
  0.5607322734632803  0.4499251759201073  0.4470672967117082
  0.4614140445181505  0.5602874361796708  0.1849825399806946
  0.2182526949928558  0.4419723515160356  0.9343847971842649
  0.1033503944865402  0.5515737569619361  0.6644671318882445
  0.8335203056689409  0.3793414885112298  0.3997146772005138
  0.7926477852842098  0.5197460912339764  0.2151976375593136
  0.5646663726141341  0.4403693033999829  0.9516015667835092
  0.4723146688356934  0.5871730120192282  0.7153955505602596
  0.2293835571808600  0.7903030284693386  0.4510641829800406
  0.1146143774759238  0.8891660870078155  0.1961634855228240
  0.8911141281911483  0.7722714835558122  0.9519142142247077
  0.7206265663960920  0.8392593593817139  0.7050049038660546
  0.5407052189203583  0.7764913906096922  0.4415959508814282
  0.4869446464461475  0.9520595037565371  0.1858250756853863
  0.2307344031057426  0.7745326352253130  0.9393086505948176
  0.1048660649597508  0.8909299594489895  0.6983550506659526
  0.8873448741294894  0.7872203835415732  0.4504784878441868
  0.7817449700178685  0.8897187978196044  0.1988927331485471
  0.5644944778179735  0.7691242422625493  0.9027159016422530
  0.4668063766717836  0.9521736014335502  0.7040195292701412
  0.2250287146236545  0.1176837439133749  0.2543859690241916
  0.7517539534664479  0.0507155642662056  0.7569830530526147
  0.7623207742566223  0.2264379349524432  0.0043221793095043
  0.4659203871349860  0.2218959721659530  0.5012081173614291
  0.2369954130220790  0.1201472530738883  0.7470917354805735
  0.0924672018061869  0.2146027972480482  0.9893673508246863
  0.8819436836835663  0.1273672304554978  0.2598051706502602
  0.4452360802312683  0.2102915395370744  0.0050567247258684
  0.2412246129258833  0.4404075969553602  0.2532518655409248
  0.1010166387227471  0.5335063098265493  0.4618041155146670
  0.8856750748139888  0.4264082054237903  0.7442158241426142
  0.7875433210547413  0.5465646934264186  0.0131037537357486
  0.5588637392326774  0.4342025457818721  0.2513980986743363
  0.4531695626500465  0.5618979530907922  0.5150204425270388
  0.2250869910569193  0.4536306214433381  0.7384613935961610
  0.1180917934803034  0.5560664142120046  0.0227042465798988
  0.7852686990277746  0.5475268777242093  0.4949285858064627
  0.5682541962580316  0.4373649267991340  0.7540894517818231
  0.4430968228309311  0.5491232237143819  0.9880352357744826
  0.2593078596891161  0.8099578528456988  0.2543522275825296
  0.1152473923595281  0.9069589185387841  0.5035365356707899
  0.8861352609960562  0.7758816133884494  0.7535007222438779
  0.7759610459710373  0.8822548577420264  0.0031705120954513
  0.5572896106106242  0.7935061478311596  0.2490403769417284
  0.4637052169299167  0.9166410903145845  0.5112503246995175
  0.2345429073116065  0.7857772942079393  0.7372778432387150
  0.1187341972404710  0.8880725707184141  0.9984390865943595
  0.8949489412669323  0.7705256841259214  0.2551082030686302
  0.7650189950341897  0.8969981741678055  0.5024989699538196
  0.4594470836339042  0.9003958451354279  0.9747788469571361
  0.2049050228339411  0.2665960179210103  0.5148170925054814
  0.5585331869071695  0.1213429651230413  0.2467781616436753
  0.7458519794934304  0.2042296673441015  0.4297493354108539
  0.5457902400823684  0.1244525685332860  0.7473964855190758
  0.7969786266511889  0.3872551068305228  0.2673875282846510
  0.5802257225965235  0.7341371935264647  0.7704160106842295
 
  0.00000000E+00  0.00000000E+00  0.00000000E+00
  0.00000000E+00  0.00000000E+00  0.00000000E+00
  0.00000000E+00  0.00000000E+00  0.00000000E+00
  0.00000000E+00  0.00000000E+00  0.00000000E+00
  0.00000000E+00  0.00000000E+00  0.00000000E+00
  0.00000000E+00  0.00000000E+00  0.00000000E+00
  0.00000000E+00  0.00000000E+00  0.00000000E+00
  0.00000000E+00  0.00000000E+00  0.00000000E+00
  0.00000000E+00  0.00000000E+00  0.00000000E+00
  0.00000000E+00  0.00000000E+00  0.00000000E+00
  0.00000000E+00  0.00000000E+00  0.00000000E+00
  0.00000000E+00  0.00000000E+00  0.00000000E+00
  0.00000000E+00  0.00000000E+00  0.00000000E+00
  0.00000000E+00  0.00000000E+00  0.00000000E+00
  0.00000000E+00  0.00000000E+00  0.00000000E+00
  0.00000000E+00  0.00000000E+00  0.00000000E+00
  0.00000000E+00  0.00000000E+00  0.00000000E+00
  0.00000000E+00  0.00000000E+00  0.00000000E+00
  0.00000000E+00  0.00000000E+00  0.00000000E+00
  0.00000000E+00  0.00000000E+00  0.00000000E+00
  0.00000000E+00  0.00000000E+00  0.00000000E+00
  0.00000000E+00  0.00000000E+00  0.00000000E+00
  0.00000000E+00  0.00000000E+00  0.00000000E+00
  0.00000000E+00  0.00000000E+00  0.00000000E+00
  0.00000000E+00  0.00000000E+00  0.00000000E+00
  0.00000000E+00  0.00000000E+00  0.00000000E+00
  0.00000000E+00  0.00000000E+00  0.00000000E+00
  0.00000000E+00  0.00000000E+00  0.00000000E+00
  0.00000000E+00  0.00000000E+00  0.00000000E+00
  0.00000000E+00  0.00000000E+00  0.00000000E+00
  0.00000000E+00  0.00000000E+00  0.00000000E+00
  0.00000000E+00  0.00000000E+00  0.00000000E+00
  0.00000000E+00  0.00000000E+00  0.00000000E+00
  0.00000000E+00  0.00000000E+00  0.00000000E+00
  0.00000000E+00  0.00000000E+00  0.00000000E+00
  0.00000000E+00  0.00000000E+00  0.00000000E+00
  0.00000000E+00  0.00000000E+00  0.00000000E+00
  0.00000000E+00  0.00000000E+00  0.00000000E+00
  0.00000000E+00  0.00000000E+00  0.00000000E+00
  0.00000000E+00  0.00000000E+00  0.00000000E+00
  0.00000000E+00  0.00000000E+00  0.00000000E+00
  0.00000000E+00  0.00000000E+00  0.00000000E+00
  0.00000000E+00  0.00000000E+00  0.00000000E+00
  0.00000000E+00  0.00000000E+00  0.00000000E+00
  0.00000000E+00  0.00000000E+00  0.00000000E+00
  0.00000000E+00  0.00000000E+00  0.00000000E+00
  0.00000000E+00  0.00000000E+00  0.00000000E+00
  0.00000000E+00  0.00000000E+00  0.00000000E+00
  0.00000000E+00  0.00000000E+00  0.00000000E+00
  0.00000000E+00  0.00000000E+00  0.00000000E+00
  0.00000000E+00  0.00000000E+00  0.00000000E+00
  0.00000000E+00  0.00000000E+00  0.00000000E+00
  0.00000000E+00  0.00000000E+00  0.00000000E+00
  0.00000000E+00  0.00000000E+00  0.00000000E+00
  0.00000000E+00  0.00000000E+00  0.00000000E+00
  0.00000000E+00  0.00000000E+00  0.00000000E+00
  0.00000000E+00  0.00000000E+00  0.00000000E+00
  0.00000000E+00  0.00000000E+00  0.00000000E+00
  0.00000000E+00  0.00000000E+00  0.00000000E+00
  0.00000000E+00  0.00000000E+00  0.00000000E+00
  0.00000000E+00  0.00000000E+00  0.00000000E+00
  0.00000000E+00  0.00000000E+00  0.00000000E+00
  0.00000000E+00  0.00000000E+00  0.00000000E+00
  0.00000000E+00  0.00000000E+00  0.00000000E+00
  0.00000000E+00  0.00000000E+00  0.00000000E+00
  0.00000000E+00  0.00000000E+00  0.00000000E+00
  0.00000000E+00  0.00000000E+00  0.00000000E+00
  0.00000000E+00  0.00000000E+00  0.00000000E+00
  0.00000000E+00  0.00000000E+00  0.00000000E+00
  0.00000000E+00  0.00000000E+00  0.00000000E+00
  0.00000000E+00  0.00000000E+00  0.00000000E+00
  0.00000000E+00  0.00000000E+00  0.00000000E+00
