Si   O    Li                            
   1.00000000000000     
     0.5420608029007157   -0.0000001061199227   -4.7287134214100002
    -0.1509726206753902   -5.4624788810765939    0.0000002099979330
    -4.6600001664591471    2.8611819363090105   -0.5801406520445168
   Si   O    Li
     2     6     4
Direct
  0.0481198530884512  0.2218342621813818  0.9997088616183660
  0.6140548213452490  0.8809905330872283  0.0001140161565871
  0.9811334891792001  0.9201046707223171  0.9993222583190686
  0.5283815297582279  0.1780046100747299  0.0004579388500687
  0.0335241764564955  0.2104284824792941  0.7048988221930657
  0.0320497150334944  0.5049901439169346  0.2948994715204165
  0.5305662986031265  0.5992433547792189  0.7129988138639973
  0.5298951058249486  0.8865980391861754  0.2881946351865921
  0.1201183785806705  0.8777501264839387  0.3421380964468668
  0.1213771849809220  0.5353320525872647  0.6568799461955379
  0.5926209465118362  0.2190933727637656  0.6538239564878978
  0.5920129248389401  0.5657729635179152  0.3467813584161661
 
             NaN             NaN             NaN
             NaN             NaN             NaN
             NaN             NaN             NaN
             NaN             NaN             NaN
             NaN             NaN             NaN
             NaN             NaN             NaN
             NaN             NaN             NaN
             NaN             NaN             NaN
             NaN             NaN             NaN
             NaN             NaN             NaN
             NaN             NaN             NaN
             NaN             NaN             NaN
