Si   O    Li                            
   1.00000000000000     
     0.5572674982656455    0.0000000080378273   -4.7287134214100002
    -0.1570336733242577   -5.4504421534705845    0.0000002980911890
    -4.6491380284163082    2.8608169437869071   -0.5910715800306841
   Si   O    Li
     2     6     4
Direct
  0.0069306464086907  0.2180756876376151  0.9999471380705458
  0.5241328875590696  0.8802847876331299  0.0003317257873761
  0.1346084706042987  0.9261939635645575  0.9997630773129202
  0.6471956616283805  0.1732518424733769  0.0006740244223451
  0.0911184242053906  0.2127623087239172  0.7117873308462705
  0.0904616136677703  0.5003171268115807  0.2872015099691154
  0.5901257847472010  0.5974306486205236  0.7079604865321585
  0.5883880539167023  0.8891686844743347  0.2920426215031213
  0.0238139665413328  0.8804638659303876  0.3453042782484843
  0.0237524661795803  0.5347484669962057  0.6542382091926697
  0.5023281583829160  0.2221540245196607  0.6570820124599592
  0.5009982903602221  0.5652912043948390  0.3438857609097781
 
             NaN             NaN             NaN
             NaN             NaN             NaN
             NaN             NaN             NaN
             NaN             NaN             NaN
             NaN             NaN             NaN
             NaN             NaN             NaN
             NaN             NaN             NaN
             NaN             NaN             NaN
             NaN             NaN             NaN
             NaN             NaN             NaN
             NaN             NaN             NaN
             NaN             NaN             NaN
