Si   O    Li                            
   1.00000000000000     
     0.4770953042784067    0.0000000223075460   -4.7287134214100002
    -0.1234334856333580   -5.4457537206108473    0.0000003091028461
    -4.6572440722341275    2.8307015889563312   -0.4756117757197600
   Si   O    Li
     2     6     4
Direct
  0.0104988001657702  0.2212280953123340  0.0000192156717915
  0.5101565567037554  0.8786753964440237  0.0000108373321410
  0.1582330201461701  0.9361256665647915  0.9999968574556206
  0.6584030091862161  0.1639502270088258  0.0000304384162249
  0.0920499789713745  0.2144577527493183  0.7102556488555365
  0.0920653697331417  0.5042667359351185  0.2898360629667209
  0.5917285028132895  0.5958717419205541  0.7102564352930187
  0.5917159927707445  0.8856312320894517  0.2897406280024981
  0.0047939563143302  0.8799787139074908  0.3469871722000732
  0.0047914820085353  0.5329825390986116  0.6530220007310419
  0.5047127670200808  0.2199335471956232  0.6529419170660944
  0.5047049883681396  0.5670409635539926  0.3471209612639328
 
             NaN             NaN             NaN
             NaN             NaN             NaN
             NaN             NaN             NaN
             NaN             NaN             NaN
             NaN             NaN             NaN
             NaN             NaN             NaN
             NaN             NaN             NaN
             NaN             NaN             NaN
             NaN             NaN             NaN
             NaN             NaN             NaN
             NaN             NaN             NaN
             NaN             NaN             NaN
