Si   O    Li                            
   1.00000000000000     
     0.3359836505579112   -0.0000001489290790   -4.7287134214100002
    -0.0505000391346328   -5.4508421289498807    0.0000001769629619
    -4.7088857516085358    2.7694892823517758   -0.3357680864243652
   Si   O    Li
     2     6     4
Direct
  0.1103736872056658  0.2214281913961145  0.0000249039377778
  0.6102634863063656  0.8786419146042377  0.0000188524682443
  0.9629393514253621  0.9361379270052197  0.0000247850413615
  0.4629875683693427  0.1638900551091638  0.0000322621049236
  0.0288831932948099  0.2144725841744730  0.7103345577915050
  0.0288948611658668  0.5041667589935557  0.2897070082283477
  0.5287876562207785  0.5958275264675095  0.7103026875503318
  0.5288023089663909  0.8855253625924462  0.2897037421552042
  0.1154749041892131  0.8800370126616031  0.3471813566556605
  0.1154574078848896  0.5328714337456617  0.6528573234215358
  0.6154902651671179  0.2199926599011164  0.6528535728932212
  0.6154997340664039  0.5671511851292834  0.3471771230068867
 
             NaN             NaN             NaN
             NaN             NaN             NaN
             NaN             NaN             NaN
             NaN             NaN             NaN
             NaN             NaN             NaN
             NaN             NaN             NaN
             NaN             NaN             NaN
             NaN             NaN             NaN
             NaN             NaN             NaN
             NaN             NaN             NaN
             NaN             NaN             NaN
             NaN             NaN             NaN
