Si   O    Li                            
   1.00000000000000     
     0.0628305353577171   -0.0000001774685165   -4.7287134214100002
    -0.0015513615206433   -5.4545237548344199    0.0000001549396479
    -4.7475431940654600    2.7286249769238848   -0.0629944966993225
   Si   O    Li
     2     6     4
Direct
  0.1093989650540479  0.2214721404273519  0.9999830654342716
  0.6093997944104856  0.8785275299610191  0.9999806173868677
  0.9627314191705310  0.9360576548942703  0.9999820933863433
  0.4627319578358566  0.1639448359186488  0.9999861849326166
  0.0279586289726552  0.2144708683121834  0.7103747273652488
  0.0279594889812813  0.5040788941524283  0.2895923746212645
  0.5279571481933658  0.5959172589123796  0.7103760465498823
  0.5279599477194310  0.8855172053854687  0.2895833519042625
  0.1138318775933698  0.8799928997493325  0.3471790439138189
  0.1138267713264369  0.5328025549668851  0.6527906417125919
  0.6138184882201756  0.2199670768800175  0.6527663865264515
  0.6138183679700688  0.5671752293735963  0.3471913309865826
 
             NaN             NaN             NaN
             NaN             NaN             NaN
             NaN             NaN             NaN
             NaN             NaN             NaN
             NaN             NaN             NaN
             NaN             NaN             NaN
             NaN             NaN             NaN
             NaN             NaN             NaN
             NaN             NaN             NaN
             NaN             NaN             NaN
             NaN             NaN             NaN
             NaN             NaN             NaN
