Si   O    Li                            
   1.00000000000000     
     0.6528279065258645   -0.0000000490410477   -4.7287134214100002
    -0.1813928386587149   -5.4484603177106816    0.0000002540445610
    -4.6346314694123878    2.8709396795776931   -0.6965955792169473
   Si   O    Li
     2     6     4
Direct
  0.9864116604190372  0.2267854141881926  0.0000605616865386
  0.6423181322462170  0.8742283212457025  0.0006890933739854
  0.0070697376318876  0.9117177936299115  0.0007144812092719
  0.6237473422615167  0.1906719878276348  0.0008552244438889
  0.0875953548265684  0.2078547167947988  0.7116799151948427
  0.0864859979516694  0.4950877281456556  0.2866561178220053
  0.5534139342493276  0.6032109535648615  0.7110144747998888
  0.5450781252589394  0.8925007893356991  0.2897811256660034
  0.0985220971609024  0.8788928990104523  0.3416165898015038
  0.0838702771391056  0.5342761890777155  0.6550959454103022
  0.5049354285708034  0.2230698960200499  0.6610015370123818
  0.5044063364855660  0.5618459229394404  0.3410531088341315
 
             NaN             NaN             NaN
             NaN             NaN             NaN
             NaN             NaN             NaN
             NaN             NaN             NaN
             NaN             NaN             NaN
             NaN             NaN             NaN
             NaN             NaN             NaN
             NaN             NaN             NaN
             NaN             NaN             NaN
             NaN             NaN             NaN
             NaN             NaN             NaN
             NaN             NaN             NaN
