Si   O    Li                            
   1.00000000000000     
     0.5426581966405187   -0.0000000918502040   -4.7287134214100002
    -0.1516373702385022   -5.4674844053439653    0.0000002210095900
    -4.6609664612773578    2.8639857141041141   -0.5836225930946110
   Si   O    Li
     2     6     4
Direct
  0.9969166630635442  0.2237923605522738  0.9998134241232961
  0.6177990210665385  0.8777342911926880  0.0001109671944519
  0.9867764278227966  0.9156788350933027  0.9992806217937726
  0.5677603872208508  0.1816923076865606  0.0006169371234037
  0.0364421617401689  0.2102884377356276  0.7049852228784204
  0.0351624136178899  0.5044339490177094  0.2944972229998584
  0.5304723657271140  0.5998573138920591  0.7130050377964139
  0.5297464576495159  0.8871431090241089  0.2882729369463135
  0.1205810303074770  0.8776049881376196  0.3419578972744048
  0.1218739574818173  0.5353235461223207  0.6570166120259202
  0.5906644530615424  0.2190825737630533  0.6521210475013959
  0.5896590854422925  0.5675108995628335  0.3485402475969863
 
             NaN             NaN             NaN
             NaN             NaN             NaN
             NaN             NaN             NaN
             NaN             NaN             NaN
             NaN             NaN             NaN
             NaN             NaN             NaN
             NaN             NaN             NaN
             NaN             NaN             NaN
             NaN             NaN             NaN
             NaN             NaN             NaN
             NaN             NaN             NaN
             NaN             NaN             NaN
