generated by phonopy                    
   1.00000000000000     
    10.0351470768999995   -0.0000022330999784   -0.0000001056124209
    -5.0175765436399997    8.6906901959899994    0.0000001395531216
    -0.0000001735893656    0.0000001431815548   14.9533752540999991
   Pb   P    O 
    20    13    49
Direct
  0.0127131962107754  0.7764394207767324  0.1257165493182200
  0.0124309899644715  0.7755868459831845  0.6220446064468632
  0.9580867824051040  0.2761302047593190  0.3693447663343505
  0.0036132700848199  0.2654543179323454  0.8738490226349995
  0.2121811792297095  0.2174889489043181  0.1211313758152528
  0.2114657776805018  0.2176434842613162  0.6248437783398373
  0.8313097113689665  0.8323145478182710  0.3827071291360298
  0.7394070246504469  0.7474368731683256  0.8735424998482841
  0.7670394367232021  0.0099303750800530  0.1248705470579665
  0.7662015498997050  0.0098597435804493  0.6245365452650375
  0.2769866599145558  0.9690582409053761  0.3724553396970975
  0.2573502481075280  0.0052845231764067  0.8740530481463438
  0.6691891755467765  0.3364959811201302  0.0053922277165128
  0.6367888154572157  0.3618811176600687  0.4918138880272238
  0.3323507858203456  0.6780090569373840  0.0083697131535274
  0.3669865485848263  0.6138677157360917  0.4887432896424428
  0.3676137790738849  0.6134697726810217  0.2570882271867276
  0.3311242087122892  0.6767111271477546  0.7386395114209634
  0.6329600791194636  0.3783854431186313  0.2626472929223453
  0.6701772326554334  0.3375319237587462  0.7457819817157159
  0.6380841097616781  0.6090708701509726  0.1106539589942628
  0.6373977739726797  0.6069739288536624  0.6353380073194117
  0.2431058233159291  0.2359390466597731  0.3751456703015279
  0.3667009625031952  0.3965175534703249  0.8736237976648269
  0.4002249568210132  0.0317103310919720  0.1206054551106206
  0.4015787987250619  0.0328444705591906  0.6275522347307572
  0.6206946561862097  0.9754473252677869  0.3754844439530132
  0.6020322399748110  0.9791078244361842  0.8740655356533296
  0.9693344184541886  0.3836533827711932  0.1183189569452310
  0.9673630767016377  0.3820711273158182  0.6279483287787286
  0.0268993004516389  0.6188493319731307  0.3741432162311114
  0.0301630710330230  0.6332245927404117  0.8736196078032066
  0.5712905553261223  0.5782421148789822  0.3733354517776846
  0.5323675159654115  0.6816064481516122  0.1128084803821849
  0.5283655222690840  0.6757371943529975  0.6330832949703549
  0.4100339438797320  0.2484746548746415  0.3742549623334810
  0.4637615069513785  0.3148222522979438  0.8737082328625121
  0.3541924796276490  0.8594381289145829  0.1189378352493193
  0.3581690121050514  0.8613964617193730  0.6285753306918451
  0.6319611210727629  0.1346449175772975  0.3788011477521351
  0.6809294643040573  0.1573483532632807  0.8736301718474735
  0.1452826327186685  0.4974931306773485  0.1144712945532547
  0.1431657392247203  0.4982287071347500  0.6311725126755476
  0.8638225231602519  0.4696680994559657  0.3747948430784191
  0.8527916630070180  0.5327252591917215  0.8732873862721959
  0.7273863071513631  0.6394072553348167  0.0210525145598410
  0.7573528981647968  0.6760896358500759  0.5578248398778456
  0.2336222996934794  0.3281368244980385  0.4605097124131348
  0.2584418641999804  0.3509882603732279  0.9572630799533286
  0.3421149920702078  0.0797401589070716  0.0349511175900759
  0.3195270843438180  0.0630116777604712  0.5468044331514577
  0.6943385162386022  0.9458911213443884  0.4606421454884142
  0.6471296421725370  0.9172610487601034  0.9576640699910755
  0.9119006098229718  0.2769629882310554  0.0326841097828776
  0.9289083465725696  0.2689630097558435  0.5478647063049209
  0.0560866406884628  0.7183640891397545  0.4587519203011965
  0.0929194060951772  0.7406452548827147  0.9573109143942418
  0.2310037349702085  0.3262244396159701  0.2894660405650313
  0.2573888312621406  0.3501718053624074  0.7904847481398534
  0.7578112310072598  0.6763632662880639  0.1881969486668993
  0.7277471702176825  0.6403028950098317  0.7248734747355101
  0.7171858339990536  0.9657467924903074  0.2954600709744994
  0.6444566153485454  0.9155210109525385  0.7901488969337365
  0.3193342934155794  0.0616774356689760  0.2021543053850223
  0.3461183029650954  0.0799677231331444  0.7143139789897859
  0.0496024116333942  0.7207403174351015  0.2912514747127304
  0.0939941036682583  0.7404475247765419  0.7898121520880963
  0.9310389653814255  0.2734470877174644  0.2001160378158744
  0.9119594677635448  0.2802868289321481  0.7156822139256604
  0.5369055922087185  0.4300955193379181  0.1228491758799493
  0.5391182217678363  0.4276974105884150  0.6243184927578582
  0.4761473665943541  0.5766873688684129  0.8731023157130124
  0.5779923951107335  0.1376373771648076  0.1264724510049007
  0.5794765475606027  0.1409106215750384  0.6193584261652703
  0.4477858091061577  0.8456080837456454  0.3679200613366902
  0.4210661132927029  0.9072584681670008  0.8747400854281864
  0.8756878391594469  0.4695135436872562  0.1225605743715761
  0.8716248699985769  0.4660789932154472  0.6214383977656084
  0.1405654251648372  0.5519372902750135  0.3712196479258623
  0.1048563326052516  0.5266881050877572  0.8739162365332831
  0.9889361655182469  0.9965332053979097  0.1088347243043017
  0.9890047943797100  0.9954726062659063  0.6362726149461935
 
  0.00000000E+00  0.00000000E+00  0.00000000E+00
  0.00000000E+00  0.00000000E+00  0.00000000E+00
  0.00000000E+00  0.00000000E+00  0.00000000E+00
  0.00000000E+00  0.00000000E+00  0.00000000E+00
  0.00000000E+00  0.00000000E+00  0.00000000E+00
  0.00000000E+00  0.00000000E+00  0.00000000E+00
  0.00000000E+00  0.00000000E+00  0.00000000E+00
  0.00000000E+00  0.00000000E+00  0.00000000E+00
  0.00000000E+00  0.00000000E+00  0.00000000E+00
  0.00000000E+00  0.00000000E+00  0.00000000E+00
  0.00000000E+00  0.00000000E+00  0.00000000E+00
  0.00000000E+00  0.00000000E+00  0.00000000E+00
  0.00000000E+00  0.00000000E+00  0.00000000E+00
  0.00000000E+00  0.00000000E+00  0.00000000E+00
  0.00000000E+00  0.00000000E+00  0.00000000E+00
  0.00000000E+00  0.00000000E+00  0.00000000E+00
  0.00000000E+00  0.00000000E+00  0.00000000E+00
  0.00000000E+00  0.00000000E+00  0.00000000E+00
  0.00000000E+00  0.00000000E+00  0.00000000E+00
  0.00000000E+00  0.00000000E+00  0.00000000E+00
  0.00000000E+00  0.00000000E+00  0.00000000E+00
  0.00000000E+00  0.00000000E+00  0.00000000E+00
  0.00000000E+00  0.00000000E+00  0.00000000E+00
  0.00000000E+00  0.00000000E+00  0.00000000E+00
  0.00000000E+00  0.00000000E+00  0.00000000E+00
  0.00000000E+00  0.00000000E+00  0.00000000E+00
  0.00000000E+00  0.00000000E+00  0.00000000E+00
  0.00000000E+00  0.00000000E+00  0.00000000E+00
  0.00000000E+00  0.00000000E+00  0.00000000E+00
  0.00000000E+00  0.00000000E+00  0.00000000E+00
  0.00000000E+00  0.00000000E+00  0.00000000E+00
  0.00000000E+00  0.00000000E+00  0.00000000E+00
  0.00000000E+00  0.00000000E+00  0.00000000E+00
  0.00000000E+00  0.00000000E+00  0.00000000E+00
  0.00000000E+00  0.00000000E+00  0.00000000E+00
  0.00000000E+00  0.00000000E+00  0.00000000E+00
  0.00000000E+00  0.00000000E+00  0.00000000E+00
  0.00000000E+00  0.00000000E+00  0.00000000E+00
  0.00000000E+00  0.00000000E+00  0.00000000E+00
  0.00000000E+00  0.00000000E+00  0.00000000E+00
  0.00000000E+00  0.00000000E+00  0.00000000E+00
  0.00000000E+00  0.00000000E+00  0.00000000E+00
  0.00000000E+00  0.00000000E+00  0.00000000E+00
  0.00000000E+00  0.00000000E+00  0.00000000E+00
  0.00000000E+00  0.00000000E+00  0.00000000E+00
  0.00000000E+00  0.00000000E+00  0.00000000E+00
  0.00000000E+00  0.00000000E+00  0.00000000E+00
  0.00000000E+00  0.00000000E+00  0.00000000E+00
  0.00000000E+00  0.00000000E+00  0.00000000E+00
  0.00000000E+00  0.00000000E+00  0.00000000E+00
  0.00000000E+00  0.00000000E+00  0.00000000E+00
  0.00000000E+00  0.00000000E+00  0.00000000E+00
  0.00000000E+00  0.00000000E+00  0.00000000E+00
  0.00000000E+00  0.00000000E+00  0.00000000E+00
  0.00000000E+00  0.00000000E+00  0.00000000E+00
  0.00000000E+00  0.00000000E+00  0.00000000E+00
  0.00000000E+00  0.00000000E+00  0.00000000E+00
  0.00000000E+00  0.00000000E+00  0.00000000E+00
  0.00000000E+00  0.00000000E+00  0.00000000E+00
  0.00000000E+00  0.00000000E+00  0.00000000E+00
  0.00000000E+00  0.00000000E+00  0.00000000E+00
  0.00000000E+00  0.00000000E+00  0.00000000E+00
  0.00000000E+00  0.00000000E+00  0.00000000E+00
  0.00000000E+00  0.00000000E+00  0.00000000E+00
  0.00000000E+00  0.00000000E+00  0.00000000E+00
  0.00000000E+00  0.00000000E+00  0.00000000E+00
  0.00000000E+00  0.00000000E+00  0.00000000E+00
  0.00000000E+00  0.00000000E+00  0.00000000E+00
  0.00000000E+00  0.00000000E+00  0.00000000E+00
  0.00000000E+00  0.00000000E+00  0.00000000E+00
  0.00000000E+00  0.00000000E+00  0.00000000E+00
  0.00000000E+00  0.00000000E+00  0.00000000E+00
  0.00000000E+00  0.00000000E+00  0.00000000E+00
  0.00000000E+00  0.00000000E+00  0.00000000E+00
  0.00000000E+00  0.00000000E+00  0.00000000E+00
  0.00000000E+00  0.00000000E+00  0.00000000E+00
  0.00000000E+00  0.00000000E+00  0.00000000E+00
  0.00000000E+00  0.00000000E+00  0.00000000E+00
  0.00000000E+00  0.00000000E+00  0.00000000E+00
  0.00000000E+00  0.00000000E+00  0.00000000E+00
  0.00000000E+00  0.00000000E+00  0.00000000E+00
  0.00000000E+00  0.00000000E+00  0.00000000E+00
