generated by phonopy                    
   1.00000000000000     
    11.7777700938999992   -0.0000006592896312    0.0000118211769744
    -0.0000006477562692   11.7777479613999994   -0.0000130806483528
     0.0000177256125076   -0.0000204342245446   17.8544012557999991
   Ca   Bi   Cu   Se   O 
     1    35    36    36    36
Direct
  0.0001824910642867  0.1665298242308069  0.4289133848752229
  0.3319733850533950  0.1665195714563268  0.4295867337847170
  0.6683942057268339  0.1665197875150142  0.4295762984936431
  0.0001843946893771  0.4983265231691618  0.4295945121314233
  0.3336263673658380  0.4999782746602293  0.4287234417980699
  0.6667390864672242  0.4999778738149132  0.4287085016388588
  0.0001699936147261  0.8347336321957570  0.4296035267401876
  0.3336235079898202  0.8330816627146476  0.4287422111592036
  0.6667363974317055  0.8330787096754477  0.4287264657028302
  0.0000273710456753  0.1666537031617352  0.9289773492672282
  0.3334747897752592  0.1666649386887116  0.9290590195116835
  0.6665784928584770  0.1666599509553777  0.9290701636294969
  0.0000203331092337  0.5001043166169552  0.9290626424392485
  0.3334108764765062  0.5000604732798593  0.9290538823660341
  0.6666280172174552  0.5000489001635628  0.9290621158412975
  0.0000173941422261  0.8332075736847884  0.9290531396726536
  0.3334081444863770  0.8332711426945139  0.9290484401927586
  0.6666174371459377  0.8332677018363412  0.9290542750720547
  0.1667227041244885  0.9999594096003221  0.0711641117179269
  0.5000137105220830  0.9999298551759495  0.0713518028141351
  0.8333243987638497  0.9999505991196784  0.0711687859147290
  0.1667310916605516  0.3333616928833649  0.0711692607375625
  0.5000223623273854  0.3333959807908400  0.0713546931976694
  0.8333360899885278  0.3333556399439175  0.0711761671407203
  0.1667472773583754  0.6666673653640416  0.0713389891747624
  0.5000100454998204  0.6666655926753791  0.0713011894850055
  0.8332846695804221  0.6666625776107011  0.0713415080098585
  0.1642924365216203  0.0024121198602742  0.5682775799498003
  0.5001810245509972  0.9998658200259101  0.5707001722309215
  0.8360448529976310  0.0024092705310323  0.5682717875660614
  0.1643074060872181  0.3306483878553337  0.5682702176353445
  0.5001824217460040  0.3331884109608865  0.5706834631045226
  0.8360494410874253  0.3306551050804103  0.5682562491944054
  0.1668468881401566  0.6665249009606526  0.5707115936155560
  0.5001803860176750  0.6665205985387743  0.5709956621225558
  0.8335144850198262  0.6665244830911519  0.5707082419972664
  0.0001486211737429  0.0012550756403584  0.2507101937719725
  0.3316541486733229  0.9996777253678175  0.2509447215315745
  0.6685973181332869  0.9996648260251817  0.2509351687405612
  0.0001758683993742  0.3320038155042511  0.2506897862205761
  0.3317105196473875  0.3336155020640135  0.2509327708275677
  0.6686413958685620  0.3335926947383498  0.2509184394588928
  0.0001338467530658  0.6666531177048682  0.2503903104955327
  0.3331921314426651  0.6666486565299152  0.2497640461950041
  0.6670418059659937  0.6666393485870188  0.2497551081734031
  0.0000443578033682  0.9992602376118498  0.7498046180856619
  0.3337143815818280  0.9997605897567539  0.7497057691902285
  0.6663860827088612  0.9997461406665309  0.7497191610676310
  0.0000498734602559  0.3338347057175568  0.7498039198801152
  0.3337137093325779  0.3334139759582584  0.7497264034098876
  0.6664012384697315  0.3333890239682731  0.7497299489582332
  0.0000252779122860  0.6665316374802686  0.7503159789127878
  0.3340504683779955  0.6665736273350049  0.7496173741030461
  0.6660262674726170  0.6665485757809577  0.7496269055466058
  0.1654401952295572  0.1665592165640675  0.2507245454435179
  0.5000771705109983  0.1665669972185455  0.2503918434510695
  0.8347485031073489  0.1665529902462879  0.2507009619695069
  0.1670254925824537  0.4981472863354028  0.2509393604407322
  0.5000716961378586  0.4996674641829912  0.2497484006083681
  0.8331453170324892  0.4981151115530977  0.2509246391420206
  0.1670044875370849  0.8350452624761857  0.2509412259046897
  0.5000432110099595  0.8334941859665079  0.2497535157734845
  0.8330942044838636  0.8350171603141092  0.2509219893002808
  0.1674422851514024  0.1666459648232674  0.7497931798964572
  0.5001413152652674  0.1666546005847493  0.7503114815064649
  0.8328451868638780  0.1666192856507678  0.7497973410672003
  0.1669541663241532  0.5002732560937844  0.7497134941669188
  0.5001153391419422  0.5006336013111863  0.7496264034424058
  0.8332806983252894  0.5002640324604215  0.7497287276089608
  0.1669548865333468  0.8329698859781018  0.7497166353417413
  0.5001009001749566  0.8326246271258029  0.7496343149910771
  0.8332652911443645  0.8329596351483133  0.7497302533791625
  0.1657130881496940  0.3321330496516026  0.3380382168877532
  0.5001699420642538  0.3338554883540112  0.3362942576625443
  0.8346173099645355  0.3321167457893921  0.3380336094015988
  0.1674050478009974  0.6665820642965627  0.3363147041921124
  0.5001292818907643  0.6665744027802916  0.3364658213338174
  0.8328567197473191  0.6665660109632654  0.3363007332485708
  0.1656843671310142  0.0010113930804110  0.3380608753486030
  0.5001375541678712  0.9992832993575362  0.3363030150813913
  0.8345922909084464  0.0009974297266240  0.3380411445021991
  0.1667268748303101  0.3333015929450056  0.8372751853607028
  0.5000576465760531  0.3338580311543211  0.8377473157298425
  0.8333841842203924  0.3332861217809153  0.8372797035099708
  0.1672689039372059  0.6666236267416465  0.8377337614896021
  0.5000420938472558  0.6666262070900331  0.8381944781358683
  0.8328136465393285  0.6666159877929090  0.8377447437026930
  0.1667304051015606  0.9999660697822961  0.8372635153703385
  0.5000491793902100  0.9994216357398287  0.8377378785303193
  0.8333727444140493  0.9999577207963242  0.8372741946556488
  0.3328543852369350  0.1666352989394895  0.1631578062094547
  0.6672907237482235  0.1666222974175611  0.1631536848286927
  0.0000884654836000  0.1666227430195022  0.1621171085632653
  0.3332061860507807  0.4997957522533767  0.1622563835267101
  0.6669315180936337  0.4997848802854321  0.1622561712908706
  0.0000798883849811  0.4994357101772309  0.1631419968365009
  0.3331897623794191  0.8334955794693286  0.1622579199857412
  0.6669043629023861  0.8334878866580553  0.1622525141072302
  0.0000606417216744  0.8338471125867173  0.1631426364337116
  0.3341089687145811  0.1665858743747037  0.6633951161452742
  0.6661824751879735  0.1665717390052279  0.6633961926521934
  0.0001407540072975  0.1665546780340108  0.6628949571234699
  0.3335289175239851  0.4999581243553592  0.6629697926567317
  0.6667305787568054  0.4999453770375553  0.6629750076803944
  0.0001186886532949  0.5005014898332689  0.6634008934024109
  0.3335245843471455  0.8331765739685579  0.6629713034368052
  0.6667195377757835  0.8331638148894953  0.6629816074667261
  0.0001118817624928  0.8325876300174428  0.6634117581693033
  0.1694638561252688  0.1665364799097446  0.4993479609117983
  0.5001723768160176  0.1665353338663280  0.5005722738656715
  0.8308816594097124  0.1665341184078173  0.4993350204965452
  0.1676844428385991  0.5005490898199909  0.4994325945260343
  0.5001689223337848  0.5003203962629428  0.4997601253679136
  0.8326500045038614  0.5005456578676615  0.4994247414483795
  0.1676776967088429  0.8325363279954061  0.4994431283711833
  0.5001669185395272  0.8327646532522976  0.4997739708492119
  0.8326420780499575  0.8325337987407480  0.4994361819862689
  0.1666975022498249  0.1666509129776870  0.9999716008259085
  0.5000337767384835  0.1666537129709198  0.0001673554689106
  0.8333811228120354  0.1666460593077659  0.9999781858820356
  0.1665967274658087  0.4999911833124031  0.0001455728999318
  0.5000323831518969  0.4999389154133169  0.0002524414781107
  0.8334727344013970  0.4999855911968112  0.0001513689367769
  0.1665956831510940  0.8333119881731577  0.0001363737401476
  0.5000258888438864  0.8333638446853229  0.0002465706239008
  0.8334663791425783  0.8333097251476076  0.0001399480671651
  0.0000368271205389  0.9999843709791989  0.9999680516556566
  0.3333758528358715  0.0000873364072476  0.0001430095375383
  0.6666921274427864  0.0000834825445679  0.0001513337449452
  0.0000397824775504  0.3333056248553916  0.9999746665230447
  0.3333790206341334  0.3332168149608066  0.0001505545635538
  0.6667011698756369  0.3332112080570226  0.0001590301566736
  0.0000316597810652  0.6666526046552690  0.0001533352191956
  0.3333220182547478  0.6666540924046629  0.0002430411954251
  0.6667402473725446  0.6666505302330350  0.0002479207516402
  0.0001634593841473  0.9972544578862212  0.4993579031345803
  0.3341704096043472  0.9990268221988501  0.4994379383442080
  0.6661576170465580  0.9990282897209752  0.4994272596268701
  0.0001690084127972  0.3358171260620608  0.4993395675760937
  0.3341736384915350  0.3340553940590851  0.4994211111568063
  0.6661622974005610  0.3340510069364910  0.4994111053859100
  0.0001620263195008  0.6665391673323029  0.5005995868129958
  0.3339447895126071  0.6665410880793630  0.4997710281520114
  0.6663815875950689  0.6665398473138495  0.4997625704179924
 
  0.00000000E+00  0.00000000E+00  0.00000000E+00
  0.00000000E+00  0.00000000E+00  0.00000000E+00
  0.00000000E+00  0.00000000E+00  0.00000000E+00
  0.00000000E+00  0.00000000E+00  0.00000000E+00
  0.00000000E+00  0.00000000E+00  0.00000000E+00
  0.00000000E+00  0.00000000E+00  0.00000000E+00
  0.00000000E+00  0.00000000E+00  0.00000000E+00
  0.00000000E+00  0.00000000E+00  0.00000000E+00
  0.00000000E+00  0.00000000E+00  0.00000000E+00
  0.00000000E+00  0.00000000E+00  0.00000000E+00
  0.00000000E+00  0.00000000E+00  0.00000000E+00
  0.00000000E+00  0.00000000E+00  0.00000000E+00
  0.00000000E+00  0.00000000E+00  0.00000000E+00
  0.00000000E+00  0.00000000E+00  0.00000000E+00
  0.00000000E+00  0.00000000E+00  0.00000000E+00
  0.00000000E+00  0.00000000E+00  0.00000000E+00
  0.00000000E+00  0.00000000E+00  0.00000000E+00
  0.00000000E+00  0.00000000E+00  0.00000000E+00
  0.00000000E+00  0.00000000E+00  0.00000000E+00
  0.00000000E+00  0.00000000E+00  0.00000000E+00
  0.00000000E+00  0.00000000E+00  0.00000000E+00
  0.00000000E+00  0.00000000E+00  0.00000000E+00
  0.00000000E+00  0.00000000E+00  0.00000000E+00
  0.00000000E+00  0.00000000E+00  0.00000000E+00
  0.00000000E+00  0.00000000E+00  0.00000000E+00
  0.00000000E+00  0.00000000E+00  0.00000000E+00
  0.00000000E+00  0.00000000E+00  0.00000000E+00
  0.00000000E+00  0.00000000E+00  0.00000000E+00
  0.00000000E+00  0.00000000E+00  0.00000000E+00
  0.00000000E+00  0.00000000E+00  0.00000000E+00
  0.00000000E+00  0.00000000E+00  0.00000000E+00
  0.00000000E+00  0.00000000E+00  0.00000000E+00
  0.00000000E+00  0.00000000E+00  0.00000000E+00
  0.00000000E+00  0.00000000E+00  0.00000000E+00
  0.00000000E+00  0.00000000E+00  0.00000000E+00
  0.00000000E+00  0.00000000E+00  0.00000000E+00
  0.00000000E+00  0.00000000E+00  0.00000000E+00
  0.00000000E+00  0.00000000E+00  0.00000000E+00
  0.00000000E+00  0.00000000E+00  0.00000000E+00
  0.00000000E+00  0.00000000E+00  0.00000000E+00
  0.00000000E+00  0.00000000E+00  0.00000000E+00
  0.00000000E+00  0.00000000E+00  0.00000000E+00
  0.00000000E+00  0.00000000E+00  0.00000000E+00
  0.00000000E+00  0.00000000E+00  0.00000000E+00
  0.00000000E+00  0.00000000E+00  0.00000000E+00
  0.00000000E+00  0.00000000E+00  0.00000000E+00
  0.00000000E+00  0.00000000E+00  0.00000000E+00
  0.00000000E+00  0.00000000E+00  0.00000000E+00
  0.00000000E+00  0.00000000E+00  0.00000000E+00
  0.00000000E+00  0.00000000E+00  0.00000000E+00
  0.00000000E+00  0.00000000E+00  0.00000000E+00
  0.00000000E+00  0.00000000E+00  0.00000000E+00
  0.00000000E+00  0.00000000E+00  0.00000000E+00
  0.00000000E+00  0.00000000E+00  0.00000000E+00
  0.00000000E+00  0.00000000E+00  0.00000000E+00
  0.00000000E+00  0.00000000E+00  0.00000000E+00
  0.00000000E+00  0.00000000E+00  0.00000000E+00
  0.00000000E+00  0.00000000E+00  0.00000000E+00
  0.00000000E+00  0.00000000E+00  0.00000000E+00
  0.00000000E+00  0.00000000E+00  0.00000000E+00
  0.00000000E+00  0.00000000E+00  0.00000000E+00
  0.00000000E+00  0.00000000E+00  0.00000000E+00
  0.00000000E+00  0.00000000E+00  0.00000000E+00
  0.00000000E+00  0.00000000E+00  0.00000000E+00
  0.00000000E+00  0.00000000E+00  0.00000000E+00
  0.00000000E+00  0.00000000E+00  0.00000000E+00
  0.00000000E+00  0.00000000E+00  0.00000000E+00
  0.00000000E+00  0.00000000E+00  0.00000000E+00
  0.00000000E+00  0.00000000E+00  0.00000000E+00
  0.00000000E+00  0.00000000E+00  0.00000000E+00
  0.00000000E+00  0.00000000E+00  0.00000000E+00
  0.00000000E+00  0.00000000E+00  0.00000000E+00
  0.00000000E+00  0.00000000E+00  0.00000000E+00
  0.00000000E+00  0.00000000E+00  0.00000000E+00
  0.00000000E+00  0.00000000E+00  0.00000000E+00
  0.00000000E+00  0.00000000E+00  0.00000000E+00
  0.00000000E+00  0.00000000E+00  0.00000000E+00
  0.00000000E+00  0.00000000E+00  0.00000000E+00
  0.00000000E+00  0.00000000E+00  0.00000000E+00
  0.00000000E+00  0.00000000E+00  0.00000000E+00
  0.00000000E+00  0.00000000E+00  0.00000000E+00
  0.00000000E+00  0.00000000E+00  0.00000000E+00
  0.00000000E+00  0.00000000E+00  0.00000000E+00
  0.00000000E+00  0.00000000E+00  0.00000000E+00
  0.00000000E+00  0.00000000E+00  0.00000000E+00
  0.00000000E+00  0.00000000E+00  0.00000000E+00
  0.00000000E+00  0.00000000E+00  0.00000000E+00
  0.00000000E+00  0.00000000E+00  0.00000000E+00
  0.00000000E+00  0.00000000E+00  0.00000000E+00
  0.00000000E+00  0.00000000E+00  0.00000000E+00
  0.00000000E+00  0.00000000E+00  0.00000000E+00
  0.00000000E+00  0.00000000E+00  0.00000000E+00
  0.00000000E+00  0.00000000E+00  0.00000000E+00
  0.00000000E+00  0.00000000E+00  0.00000000E+00
  0.00000000E+00  0.00000000E+00  0.00000000E+00
  0.00000000E+00  0.00000000E+00  0.00000000E+00
  0.00000000E+00  0.00000000E+00  0.00000000E+00
  0.00000000E+00  0.00000000E+00  0.00000000E+00
  0.00000000E+00  0.00000000E+00  0.00000000E+00
  0.00000000E+00  0.00000000E+00  0.00000000E+00
  0.00000000E+00  0.00000000E+00  0.00000000E+00
  0.00000000E+00  0.00000000E+00  0.00000000E+00
  0.00000000E+00  0.00000000E+00  0.00000000E+00
  0.00000000E+00  0.00000000E+00  0.00000000E+00
  0.00000000E+00  0.00000000E+00  0.00000000E+00
  0.00000000E+00  0.00000000E+00  0.00000000E+00
  0.00000000E+00  0.00000000E+00  0.00000000E+00
  0.00000000E+00  0.00000000E+00  0.00000000E+00
  0.00000000E+00  0.00000000E+00  0.00000000E+00
  0.00000000E+00  0.00000000E+00  0.00000000E+00
  0.00000000E+00  0.00000000E+00  0.00000000E+00
  0.00000000E+00  0.00000000E+00  0.00000000E+00
  0.00000000E+00  0.00000000E+00  0.00000000E+00
  0.00000000E+00  0.00000000E+00  0.00000000E+00
  0.00000000E+00  0.00000000E+00  0.00000000E+00
  0.00000000E+00  0.00000000E+00  0.00000000E+00
  0.00000000E+00  0.00000000E+00  0.00000000E+00
  0.00000000E+00  0.00000000E+00  0.00000000E+00
  0.00000000E+00  0.00000000E+00  0.00000000E+00
  0.00000000E+00  0.00000000E+00  0.00000000E+00
  0.00000000E+00  0.00000000E+00  0.00000000E+00
  0.00000000E+00  0.00000000E+00  0.00000000E+00
  0.00000000E+00  0.00000000E+00  0.00000000E+00
  0.00000000E+00  0.00000000E+00  0.00000000E+00
  0.00000000E+00  0.00000000E+00  0.00000000E+00
  0.00000000E+00  0.00000000E+00  0.00000000E+00
  0.00000000E+00  0.00000000E+00  0.00000000E+00
  0.00000000E+00  0.00000000E+00  0.00000000E+00
  0.00000000E+00  0.00000000E+00  0.00000000E+00
  0.00000000E+00  0.00000000E+00  0.00000000E+00
  0.00000000E+00  0.00000000E+00  0.00000000E+00
  0.00000000E+00  0.00000000E+00  0.00000000E+00
  0.00000000E+00  0.00000000E+00  0.00000000E+00
  0.00000000E+00  0.00000000E+00  0.00000000E+00
  0.00000000E+00  0.00000000E+00  0.00000000E+00
  0.00000000E+00  0.00000000E+00  0.00000000E+00
  0.00000000E+00  0.00000000E+00  0.00000000E+00
  0.00000000E+00  0.00000000E+00  0.00000000E+00
  0.00000000E+00  0.00000000E+00  0.00000000E+00
  0.00000000E+00  0.00000000E+00  0.00000000E+00
  0.00000000E+00  0.00000000E+00  0.00000000E+00
  0.00000000E+00  0.00000000E+00  0.00000000E+00
  0.00000000E+00  0.00000000E+00  0.00000000E+00
  0.00000000E+00  0.00000000E+00  0.00000000E+00
