Sc   Al   N                             
   1.00000000000000     
   -10.3075734442578675   -0.0366674788485837   -0.0007427126822165
    -5.1259231027843777    8.8454847169125941   -0.0113498485983652
     0.0113331985611962    0.0320619754838303   -9.7799530234661631
   Sc   Al   N 
    16    20    36
Direct
  0.1008696244246678  0.1065637981124112  0.3265393905533358
  0.8720643564154216  0.2103594322679783  0.5829903049482823
  0.4529214008395073  0.0922212996834304  0.3200463235037105
  0.0981848983602944  0.1039572490724225  0.8440711518306472
  0.2285281365541607  0.2084121936166383  0.5946253975622042
  0.4526628139145501  0.0993407074213408  0.8487380452013866
  0.1004330727637495  0.4309596848373687  0.3352037460434545
  0.8813518930840232  0.5441528935943367  0.5915991486343799
  0.4543840610219334  0.4218365287447980  0.3441556661717229
  0.0965725682972973  0.7637508776110664  0.3414608546776492
  0.2252278499894942  0.8693960416989057  0.0908214241008167
  0.4624590841597964  0.7512450417244239  0.3313745607469514
  0.1001316815741689  0.7569228154542813  0.8521307752388694
  0.2225716519245893  0.8670488661039357  0.5859648120051872
  0.4559244878053264  0.7456767755938074  0.8397344498698089
  0.5664144388273087  0.8719442080167781  0.5906508813874254
  0.2137469248801054  0.2206239595595463  0.0622749473580910
  0.7699852088557790  0.0962566988699720  0.8274164819646259
  0.5614616755564867  0.2141260114976902  0.0698659551193046
  0.7740128489017337  0.0954600313941683  0.3204818225073396
  0.8762048648302425  0.2137071255972600  0.0727458352155992
  0.5650825483128017  0.1988108894011162  0.5762677096972411
  0.2245172588944797  0.5334842357401470  0.1230047262913700
  0.7695502364955047  0.4255157848271480  0.8317396227512504
  0.5636716885906594  0.5264301605345452  0.0719514764409297
  0.1105057206995212  0.4345104851923978  0.8263590593828738
  0.2274073768119749  0.5384238337231295  0.6289319857226374
  0.7764872442903723  0.4300515792092128  0.3159438442132085
  0.8895064360916223  0.5393740569992858  0.0673165302939083
  0.4563167689510834  0.4194945959403285  0.8213783298853556
  0.5616427983789336  0.5317786384356680  0.5751466138314143
  0.7839939900785851  0.7641537077609613  0.8293698365693203
  0.8800377475922900  0.8762746684989793  0.5725698123646694
  0.5711850749232212  0.8604554468443766  0.0663791200191852
  0.7762964115670172  0.7609326971598449  0.3184907911728629
  0.8763954769895150  0.8773173206139049  0.0762464251720019
  0.2283703843610994  0.2031853447924732  0.3761840512044401
  0.0976733841212365  0.1179362300808222  0.0986494917377385
  0.8641188031695748  0.2142240204445471  0.8750537398896938
  0.7699322271562750  0.0822860408963848  0.6331507352008572
  0.5770855533067305  0.1919811209204170  0.3822957805501446
  0.4458120477049761  0.0955017272716958  0.0941584006572214
  0.2125677052876256  0.2269148806271488  0.8643964548104677
  0.1025057850294004  0.0987674669986234  0.6203400801854713
  0.8674481428647098  0.2164655187125462  0.3626815921809197
  0.7753037581712405  0.0963483857508152  0.1249461860890264
  0.5677582264330638  0.2173410464153420  0.8779094879511078
  0.4579359884646337  0.1039634406472132  0.6282723522545979
  0.2236177328012872  0.5361048438239138  0.3278839681663896
  0.1069502083579366  0.4308726667173630  0.1075897214048993
  0.8907530819130614  0.5403377315521922  0.8680447225395653
  0.7575119371746695  0.4367078806303439  0.6410280020397323
  0.5810963499987665  0.5245231418797758  0.3812724108944323
  0.4487243491022923  0.4261175102843708  0.1190174964263662
  0.2404350852393407  0.5195924085949812  0.8356323506957608
  0.1140715859447852  0.4418059501032374  0.6191899367736440
  0.8660520301062249  0.5498556124460521  0.3691289824153969
  0.7786281477221877  0.4292190271498981  0.1174632751434643
  0.5652280383169810  0.5144023229079551  0.8798658111717259
  0.4506893674720374  0.4246421901345201  0.6137419056139848
  0.2246265859131427  0.8714699190377218  0.3487062423289800
  0.0963986689548690  0.7540711533238635  0.1012026321323205
  0.8637344266691258  0.8889497710765184  0.8843002695912858
  0.7918490959792734  0.7693609170568294  0.6381601848974725
  0.5761059388335994  0.8654665164414368  0.3715402764309630
  0.4697890242566487  0.7457342288009485  0.1037544732788547
  0.2225376596925841  0.8682523416190264  0.8669383517282157
  0.0983089281771043  0.7545057907400334  0.6035216745429324
  0.8631423901040804  0.8844084139738939  0.3741195614418515
  0.7806962306539234  0.7580066434610302  0.1209978341651095
  0.5786258917015061  0.8581206101228815  0.8700426681893418
  0.4556515630912941  0.7410864167436486  0.6147145351981251
 
  0.00000000E+00  0.00000000E+00  0.00000000E+00
  0.00000000E+00  0.00000000E+00  0.00000000E+00
  0.00000000E+00  0.00000000E+00  0.00000000E+00
  0.00000000E+00  0.00000000E+00  0.00000000E+00
  0.00000000E+00  0.00000000E+00  0.00000000E+00
  0.00000000E+00  0.00000000E+00  0.00000000E+00
  0.00000000E+00  0.00000000E+00  0.00000000E+00
  0.00000000E+00  0.00000000E+00  0.00000000E+00
  0.00000000E+00  0.00000000E+00  0.00000000E+00
  0.00000000E+00  0.00000000E+00  0.00000000E+00
  0.00000000E+00  0.00000000E+00  0.00000000E+00
  0.00000000E+00  0.00000000E+00  0.00000000E+00
  0.00000000E+00  0.00000000E+00  0.00000000E+00
  0.00000000E+00  0.00000000E+00  0.00000000E+00
  0.00000000E+00  0.00000000E+00  0.00000000E+00
  0.00000000E+00  0.00000000E+00  0.00000000E+00
  0.00000000E+00  0.00000000E+00  0.00000000E+00
  0.00000000E+00  0.00000000E+00  0.00000000E+00
  0.00000000E+00  0.00000000E+00  0.00000000E+00
  0.00000000E+00  0.00000000E+00  0.00000000E+00
  0.00000000E+00  0.00000000E+00  0.00000000E+00
  0.00000000E+00  0.00000000E+00  0.00000000E+00
  0.00000000E+00  0.00000000E+00  0.00000000E+00
  0.00000000E+00  0.00000000E+00  0.00000000E+00
  0.00000000E+00  0.00000000E+00  0.00000000E+00
  0.00000000E+00  0.00000000E+00  0.00000000E+00
  0.00000000E+00  0.00000000E+00  0.00000000E+00
  0.00000000E+00  0.00000000E+00  0.00000000E+00
  0.00000000E+00  0.00000000E+00  0.00000000E+00
  0.00000000E+00  0.00000000E+00  0.00000000E+00
  0.00000000E+00  0.00000000E+00  0.00000000E+00
  0.00000000E+00  0.00000000E+00  0.00000000E+00
  0.00000000E+00  0.00000000E+00  0.00000000E+00
  0.00000000E+00  0.00000000E+00  0.00000000E+00
  0.00000000E+00  0.00000000E+00  0.00000000E+00
  0.00000000E+00  0.00000000E+00  0.00000000E+00
  0.00000000E+00  0.00000000E+00  0.00000000E+00
  0.00000000E+00  0.00000000E+00  0.00000000E+00
  0.00000000E+00  0.00000000E+00  0.00000000E+00
  0.00000000E+00  0.00000000E+00  0.00000000E+00
  0.00000000E+00  0.00000000E+00  0.00000000E+00
  0.00000000E+00  0.00000000E+00  0.00000000E+00
  0.00000000E+00  0.00000000E+00  0.00000000E+00
  0.00000000E+00  0.00000000E+00  0.00000000E+00
  0.00000000E+00  0.00000000E+00  0.00000000E+00
  0.00000000E+00  0.00000000E+00  0.00000000E+00
  0.00000000E+00  0.00000000E+00  0.00000000E+00
  0.00000000E+00  0.00000000E+00  0.00000000E+00
  0.00000000E+00  0.00000000E+00  0.00000000E+00
  0.00000000E+00  0.00000000E+00  0.00000000E+00
  0.00000000E+00  0.00000000E+00  0.00000000E+00
  0.00000000E+00  0.00000000E+00  0.00000000E+00
  0.00000000E+00  0.00000000E+00  0.00000000E+00
  0.00000000E+00  0.00000000E+00  0.00000000E+00
  0.00000000E+00  0.00000000E+00  0.00000000E+00
  0.00000000E+00  0.00000000E+00  0.00000000E+00
  0.00000000E+00  0.00000000E+00  0.00000000E+00
  0.00000000E+00  0.00000000E+00  0.00000000E+00
  0.00000000E+00  0.00000000E+00  0.00000000E+00
  0.00000000E+00  0.00000000E+00  0.00000000E+00
  0.00000000E+00  0.00000000E+00  0.00000000E+00
  0.00000000E+00  0.00000000E+00  0.00000000E+00
  0.00000000E+00  0.00000000E+00  0.00000000E+00
  0.00000000E+00  0.00000000E+00  0.00000000E+00
  0.00000000E+00  0.00000000E+00  0.00000000E+00
  0.00000000E+00  0.00000000E+00  0.00000000E+00
  0.00000000E+00  0.00000000E+00  0.00000000E+00
  0.00000000E+00  0.00000000E+00  0.00000000E+00
  0.00000000E+00  0.00000000E+00  0.00000000E+00
  0.00000000E+00  0.00000000E+00  0.00000000E+00
  0.00000000E+00  0.00000000E+00  0.00000000E+00
  0.00000000E+00  0.00000000E+00  0.00000000E+00
