Sc   Al   N                             
   1.00000000000000     
   -10.1449042876348994   -0.0309737471775163    0.0037295463949295
    -5.0563987154062504    8.7402312920930108   -0.0057644588241458
     0.0106058371609199    0.0089544264838225  -10.1303229333966005
   Sc   Al   N 
    16    20    36
Direct
  0.1011892412277504  0.1072669001024806  0.3043465735543265
  0.8729254085326517  0.2108522913871553  0.5651197114385269
  0.4531143191772600  0.0928986862496473  0.3029008419414225
  0.0985875934375073  0.1031070018025488  0.8275187818022260
  0.2268765285122001  0.2123918335578239  0.5768013191183670
  0.4522400020633910  0.0976220779428658  0.8331335519627245
  0.1053386053358665  0.4331693822656320  0.3086587070042626
  0.8851630547217013  0.5433061764227176  0.5732225200809822
  0.4521248729065093  0.4232126064255795  0.3223349956525112
  0.0986147151375576  0.7595657214290483  0.3144490497107739
  0.2242467199958185  0.8672868626900367  0.0706167615974138
  0.4627941212360085  0.7495689088123214  0.3123357509944782
  0.1004750221800990  0.7565370045167654  0.8187008648084344
  0.2214234322397459  0.8693129963199624  0.5609795704387892
  0.4548034933542127  0.7464355608555451  0.8204619965245357
  0.5654404522856638  0.8727732897389089  0.5708891390569022
  0.2152567927612381  0.2181480273460039  0.0470759198638788
  0.7697306934753883  0.0974078272078742  0.8132505729902206
  0.5609295373198648  0.2118106786095808  0.0545453522381649
  0.7742738758664487  0.0950093552020093  0.3076356497257109
  0.8757419379281046  0.2138622999161868  0.0575576440221965
  0.5619803735897051  0.2027781051064963  0.5645525410896184
  0.2268927081080108  0.5298569837013218  0.0515981702396004
  0.7704730855538173  0.4266512148223782  0.8166481350962655
  0.5634279104337665  0.5275195192681466  0.0560229415288731
  0.1116728659734747  0.4345852692989496  0.8139447512170008
  0.2245510725848021  0.5395631742545746  0.5662593775674978
  0.7767482428149819  0.4291763833252631  0.3033452267828807
  0.8880467481198338  0.5398371296808406  0.0541004747872691
  0.4518357479803754  0.4212866671102020  0.8081895472748428
  0.5595963620207982  0.5315081144817526  0.5632491574488014
  0.7834957160024416  0.7622409227295108  0.8150030666846320
  0.8807079802118096  0.8767743674890625  0.5597195508705113
  0.5704108859933115  0.8607869461245272  0.0525043682637190
  0.7775192165538627  0.7613218079404476  0.3044517035927043
  0.8787347301951698  0.8746155515667979  0.0591526910058562
  0.2266398243214880  0.2067411165895550  0.3654632501629678
  0.0978671141285261  0.1169431137102990  0.0880499968800024
  0.8633326700245405  0.2156924609125994  0.8678757637358103
  0.7694469011408458  0.0841638763756336  0.6245331488621702
  0.5755887867072218  0.1940401731440176  0.3756957812374537
  0.4458322965388817  0.0947099683590267  0.0837247892716917
  0.2121182711458616  0.2264386708319179  0.8587687034437792
  0.1035985318450869  0.0993494639903929  0.6137709573056114
  0.8688802334598194  0.2155102633440293  0.3527771214767483
  0.7754500807897102  0.0946771873251677  0.1165353652003986
  0.5667108160818231  0.2176967229853375  0.8694386654857809
  0.4570032351608475  0.1040482511076277  0.6206417307938779
  0.2240034789115626  0.5361099452609466  0.3794149851991904
  0.1097005852433952  0.4302714598587229  0.0974110066265510
  0.8894251090820404  0.5401138480213419  0.8621170825935067
  0.7586252423997593  0.4374706597140872  0.6315586717772916
  0.5804174211761932  0.5234853415762970  0.3753932516819205
  0.4446839988161955  0.4273687042147856  0.1094411499077594
  0.2394862110072893  0.5182260094522277  0.8642998555387891
  0.1164818472474280  0.4442327050867476  0.6255119675750080
  0.8707941943230679  0.5480398276900402  0.3578231730452472
  0.7776163629666044  0.4290240482889800  0.1109277064280860
  0.5645080488019119  0.5153079296663279  0.8707558879579551
  0.4473175191987906  0.4265057976704441  0.6130254276450984
  0.2234659440447473  0.8717223633439488  0.3390324460624825
  0.0982042060161206  0.7474974487243387  0.0976744291332565
  0.8654010832407693  0.8877334799480536  0.8737170493606712
  0.7913361813293918  0.7689782155274045  0.6295286977783192
  0.5753732835191059  0.8660459071557156  0.3604497493455199
  0.4694564374742853  0.7453976753610974  0.0958133426198700
  0.2217580326550106  0.8671141875379291  0.8611743301551940
  0.0978733313063813  0.7578186284793347  0.6019336332351699
  0.8658422057357527  0.8835210927851733  0.3676642609238812
  0.7806862046510332  0.7584420016219227  0.1129604316040016
  0.5787508409455242  0.8566502980336494  0.8645216165414382
  0.4541853992534470  0.7425748850391898  0.6056270666985881
 
  0.00000000E+00  0.00000000E+00  0.00000000E+00
  0.00000000E+00  0.00000000E+00  0.00000000E+00
  0.00000000E+00  0.00000000E+00  0.00000000E+00
  0.00000000E+00  0.00000000E+00  0.00000000E+00
  0.00000000E+00  0.00000000E+00  0.00000000E+00
  0.00000000E+00  0.00000000E+00  0.00000000E+00
  0.00000000E+00  0.00000000E+00  0.00000000E+00
  0.00000000E+00  0.00000000E+00  0.00000000E+00
  0.00000000E+00  0.00000000E+00  0.00000000E+00
  0.00000000E+00  0.00000000E+00  0.00000000E+00
  0.00000000E+00  0.00000000E+00  0.00000000E+00
  0.00000000E+00  0.00000000E+00  0.00000000E+00
  0.00000000E+00  0.00000000E+00  0.00000000E+00
  0.00000000E+00  0.00000000E+00  0.00000000E+00
  0.00000000E+00  0.00000000E+00  0.00000000E+00
  0.00000000E+00  0.00000000E+00  0.00000000E+00
  0.00000000E+00  0.00000000E+00  0.00000000E+00
  0.00000000E+00  0.00000000E+00  0.00000000E+00
  0.00000000E+00  0.00000000E+00  0.00000000E+00
  0.00000000E+00  0.00000000E+00  0.00000000E+00
  0.00000000E+00  0.00000000E+00  0.00000000E+00
  0.00000000E+00  0.00000000E+00  0.00000000E+00
  0.00000000E+00  0.00000000E+00  0.00000000E+00
  0.00000000E+00  0.00000000E+00  0.00000000E+00
  0.00000000E+00  0.00000000E+00  0.00000000E+00
  0.00000000E+00  0.00000000E+00  0.00000000E+00
  0.00000000E+00  0.00000000E+00  0.00000000E+00
  0.00000000E+00  0.00000000E+00  0.00000000E+00
  0.00000000E+00  0.00000000E+00  0.00000000E+00
  0.00000000E+00  0.00000000E+00  0.00000000E+00
  0.00000000E+00  0.00000000E+00  0.00000000E+00
  0.00000000E+00  0.00000000E+00  0.00000000E+00
  0.00000000E+00  0.00000000E+00  0.00000000E+00
  0.00000000E+00  0.00000000E+00  0.00000000E+00
  0.00000000E+00  0.00000000E+00  0.00000000E+00
  0.00000000E+00  0.00000000E+00  0.00000000E+00
  0.00000000E+00  0.00000000E+00  0.00000000E+00
  0.00000000E+00  0.00000000E+00  0.00000000E+00
  0.00000000E+00  0.00000000E+00  0.00000000E+00
  0.00000000E+00  0.00000000E+00  0.00000000E+00
  0.00000000E+00  0.00000000E+00  0.00000000E+00
  0.00000000E+00  0.00000000E+00  0.00000000E+00
  0.00000000E+00  0.00000000E+00  0.00000000E+00
  0.00000000E+00  0.00000000E+00  0.00000000E+00
  0.00000000E+00  0.00000000E+00  0.00000000E+00
  0.00000000E+00  0.00000000E+00  0.00000000E+00
  0.00000000E+00  0.00000000E+00  0.00000000E+00
  0.00000000E+00  0.00000000E+00  0.00000000E+00
  0.00000000E+00  0.00000000E+00  0.00000000E+00
  0.00000000E+00  0.00000000E+00  0.00000000E+00
  0.00000000E+00  0.00000000E+00  0.00000000E+00
  0.00000000E+00  0.00000000E+00  0.00000000E+00
  0.00000000E+00  0.00000000E+00  0.00000000E+00
  0.00000000E+00  0.00000000E+00  0.00000000E+00
  0.00000000E+00  0.00000000E+00  0.00000000E+00
  0.00000000E+00  0.00000000E+00  0.00000000E+00
  0.00000000E+00  0.00000000E+00  0.00000000E+00
  0.00000000E+00  0.00000000E+00  0.00000000E+00
  0.00000000E+00  0.00000000E+00  0.00000000E+00
  0.00000000E+00  0.00000000E+00  0.00000000E+00
  0.00000000E+00  0.00000000E+00  0.00000000E+00
  0.00000000E+00  0.00000000E+00  0.00000000E+00
  0.00000000E+00  0.00000000E+00  0.00000000E+00
  0.00000000E+00  0.00000000E+00  0.00000000E+00
  0.00000000E+00  0.00000000E+00  0.00000000E+00
  0.00000000E+00  0.00000000E+00  0.00000000E+00
  0.00000000E+00  0.00000000E+00  0.00000000E+00
  0.00000000E+00  0.00000000E+00  0.00000000E+00
  0.00000000E+00  0.00000000E+00  0.00000000E+00
  0.00000000E+00  0.00000000E+00  0.00000000E+00
  0.00000000E+00  0.00000000E+00  0.00000000E+00
  0.00000000E+00  0.00000000E+00  0.00000000E+00
