Sc   Al   N                             
   1.00000000000000     
   -10.6297690728473047   -0.0444703609369449   -0.0048261744060054
    -5.2977095253362254    9.0804558469384737   -0.0081324795287595
     0.0301581144224487    0.0256890773848556   -8.9116268814432367
   Sc   Al   N 
    16    20    36
Direct
  0.1009175846846944  0.1049988414749237  0.3449827690383245
  0.8678726505896748  0.2129447111400324  0.5958643337365501
  0.4559911207928806  0.0924823203712251  0.3429665120495287
  0.0989470400823933  0.1075092464723539  0.8509664001189208
  0.2263589865729330  0.2139891379923782  0.6003169017695384
  0.4506883110193129  0.0978587699061961  0.8563087647317431
  0.1047907518740061  0.4376462327068893  0.3409912721906849
  0.8852906648071439  0.5404638647946101  0.6039257298138310
  0.4529762815804972  0.4248469541848223  0.3505797864750804
  0.0998488739001360  0.7594326875395296  0.3475555493365192
  0.2226177284748090  0.8710599222848430  0.0993664146946003
  0.4607487954076532  0.7466567959402397  0.3470089606613271
  0.0978118549800158  0.7596135762035487  0.8513364957482281
  0.2220802646330284  0.8675990537197578  0.5986321423970793
  0.4532932022185747  0.7533958812613548  0.8534472326319715
  0.5711845033173688  0.8664037864663712  0.5994833575736465
  0.2197896918856372  0.2124234430299552  0.0972523210760485
  0.7736710398483311  0.0973908598445234  0.8749729510937385
  0.5613515276103342  0.2075679125109033  0.1052149912656191
  0.7721725481383501  0.0934787338527414  0.3449157301538435
  0.8808723943992547  0.2100347966919287  0.0969572742790206
  0.5631797742672759  0.2054205376770213  0.6224184760881570
  0.2258193877662507  0.5344607192274964  0.1004576777338144
  0.7735636666948054  0.4244365080529846  0.8543449300107966
  0.5621873742028498  0.5306111694993945  0.0941750942402209
  0.1117554491257309  0.4314669459122200  0.8623409554424342
  0.2277105442397698  0.5340590646140626  0.6230226002319057
  0.7767141855313398  0.4303705004901346  0.3140379147006414
  0.8884556353794011  0.5393780330550371  0.0826773005925361
  0.4484892236564590  0.4213954146258203  0.8654664632855713
  0.5553704761309817  0.5294096360245817  0.6314799551983015
  0.7830245615482241  0.7634945786155640  0.8499371469692960
  0.8790546903408085  0.8771005107250573  0.5942145823324836
  0.5659504565773688  0.8655109057982031  0.0906756351914169
  0.7789385219630276  0.7582100290677189  0.3191665320876425
  0.8812119903132825  0.8750057780089193  0.0965104648335071
  0.2254269579600248  0.2084846837662866  0.3388118411866898
  0.0986603281642005  0.1141692844281366  0.0975193424729994
  0.8682602503474470  0.2107200381653342  0.8578191671645996
  0.7657891896942530  0.0859302901327297  0.5797542414887289
  0.5721238571951659  0.2002130853725674  0.3235379987875930
  0.4477528888653168  0.0921073382297735  0.0964565546784044
  0.2170386035657543  0.2224331891438496  0.8559995162057348
  0.1015859578578926  0.1041805994053249  0.5981847881030617
  0.8667100787259869  0.2184308192963726  0.3357676767289135
  0.7790642032240811  0.0941858456097577  0.0973610413950965
  0.5689015823230008  0.2121081941097032  0.8488575987218994
  0.4577371136619206  0.1035684821574634  0.6010070638214700
  0.2287470924262820  0.5363916587097179  0.3242807948959268
  0.1090459702902038  0.4318241443320687  0.0882157401176826
  0.8934703430422601  0.5392045242060561  0.8600726837259600
  0.7562903832385430  0.4395408807279537  0.6253803212793017
  0.5779623522778152  0.5227364157179863  0.3186429786941147
  0.4442463651783868  0.4256803724798743  0.0861241944434070
  0.2348043642884434  0.5206796394797095  0.8485050121861448
  0.1161963965530362  0.4426081061120115  0.5968535744172456
  0.8703407827288956  0.5460451360315375  0.3384784741846190
  0.7821338915505933  0.4273090497841139  0.0866104776974694
  0.5609195765514698  0.5200728429340060  0.8596919729742964
  0.4466234531537978  0.4263774562676659  0.6059091681088589
  0.2231928473270344  0.8700217756576905  0.3470094771749501
  0.0979416234862143  0.7554696998737498  0.0953566389738327
  0.8671059080622499  0.8889801101238533  0.8600538190378728
  0.7922456153015673  0.7649748967206733  0.6206693842631310
  0.5778406104739275  0.8599956825871331  0.3449525226838901
  0.4616438780248657  0.7535468029954941  0.0965811064196558
  0.2199836628821288  0.8719562719323477  0.8502425551308690
  0.0981779150303623  0.7537650617956828  0.6001469318751944
  0.8680105510197862  0.8783266372932204  0.3390966336571424
  0.7808904687722276  0.7585377200058119  0.0952406772466148
  0.5751306028938501  0.8627277631618853  0.8576710015360831
  0.4569580513232125  0.7381019509417044  0.6016417458396290
 
  0.00000000E+00  0.00000000E+00  0.00000000E+00
  0.00000000E+00  0.00000000E+00  0.00000000E+00
  0.00000000E+00  0.00000000E+00  0.00000000E+00
  0.00000000E+00  0.00000000E+00  0.00000000E+00
  0.00000000E+00  0.00000000E+00  0.00000000E+00
  0.00000000E+00  0.00000000E+00  0.00000000E+00
  0.00000000E+00  0.00000000E+00  0.00000000E+00
  0.00000000E+00  0.00000000E+00  0.00000000E+00
  0.00000000E+00  0.00000000E+00  0.00000000E+00
  0.00000000E+00  0.00000000E+00  0.00000000E+00
  0.00000000E+00  0.00000000E+00  0.00000000E+00
  0.00000000E+00  0.00000000E+00  0.00000000E+00
  0.00000000E+00  0.00000000E+00  0.00000000E+00
  0.00000000E+00  0.00000000E+00  0.00000000E+00
  0.00000000E+00  0.00000000E+00  0.00000000E+00
  0.00000000E+00  0.00000000E+00  0.00000000E+00
  0.00000000E+00  0.00000000E+00  0.00000000E+00
  0.00000000E+00  0.00000000E+00  0.00000000E+00
  0.00000000E+00  0.00000000E+00  0.00000000E+00
  0.00000000E+00  0.00000000E+00  0.00000000E+00
  0.00000000E+00  0.00000000E+00  0.00000000E+00
  0.00000000E+00  0.00000000E+00  0.00000000E+00
  0.00000000E+00  0.00000000E+00  0.00000000E+00
  0.00000000E+00  0.00000000E+00  0.00000000E+00
  0.00000000E+00  0.00000000E+00  0.00000000E+00
  0.00000000E+00  0.00000000E+00  0.00000000E+00
  0.00000000E+00  0.00000000E+00  0.00000000E+00
  0.00000000E+00  0.00000000E+00  0.00000000E+00
  0.00000000E+00  0.00000000E+00  0.00000000E+00
  0.00000000E+00  0.00000000E+00  0.00000000E+00
  0.00000000E+00  0.00000000E+00  0.00000000E+00
  0.00000000E+00  0.00000000E+00  0.00000000E+00
  0.00000000E+00  0.00000000E+00  0.00000000E+00
  0.00000000E+00  0.00000000E+00  0.00000000E+00
  0.00000000E+00  0.00000000E+00  0.00000000E+00
  0.00000000E+00  0.00000000E+00  0.00000000E+00
  0.00000000E+00  0.00000000E+00  0.00000000E+00
  0.00000000E+00  0.00000000E+00  0.00000000E+00
  0.00000000E+00  0.00000000E+00  0.00000000E+00
  0.00000000E+00  0.00000000E+00  0.00000000E+00
  0.00000000E+00  0.00000000E+00  0.00000000E+00
  0.00000000E+00  0.00000000E+00  0.00000000E+00
  0.00000000E+00  0.00000000E+00  0.00000000E+00
  0.00000000E+00  0.00000000E+00  0.00000000E+00
  0.00000000E+00  0.00000000E+00  0.00000000E+00
  0.00000000E+00  0.00000000E+00  0.00000000E+00
  0.00000000E+00  0.00000000E+00  0.00000000E+00
  0.00000000E+00  0.00000000E+00  0.00000000E+00
  0.00000000E+00  0.00000000E+00  0.00000000E+00
  0.00000000E+00  0.00000000E+00  0.00000000E+00
  0.00000000E+00  0.00000000E+00  0.00000000E+00
  0.00000000E+00  0.00000000E+00  0.00000000E+00
  0.00000000E+00  0.00000000E+00  0.00000000E+00
  0.00000000E+00  0.00000000E+00  0.00000000E+00
  0.00000000E+00  0.00000000E+00  0.00000000E+00
  0.00000000E+00  0.00000000E+00  0.00000000E+00
  0.00000000E+00  0.00000000E+00  0.00000000E+00
  0.00000000E+00  0.00000000E+00  0.00000000E+00
  0.00000000E+00  0.00000000E+00  0.00000000E+00
  0.00000000E+00  0.00000000E+00  0.00000000E+00
  0.00000000E+00  0.00000000E+00  0.00000000E+00
  0.00000000E+00  0.00000000E+00  0.00000000E+00
  0.00000000E+00  0.00000000E+00  0.00000000E+00
  0.00000000E+00  0.00000000E+00  0.00000000E+00
  0.00000000E+00  0.00000000E+00  0.00000000E+00
  0.00000000E+00  0.00000000E+00  0.00000000E+00
  0.00000000E+00  0.00000000E+00  0.00000000E+00
  0.00000000E+00  0.00000000E+00  0.00000000E+00
  0.00000000E+00  0.00000000E+00  0.00000000E+00
  0.00000000E+00  0.00000000E+00  0.00000000E+00
  0.00000000E+00  0.00000000E+00  0.00000000E+00
  0.00000000E+00  0.00000000E+00  0.00000000E+00
