Sc   Al   N                             
   1.00000000000000     
   -10.3667277640477913   -0.0366505579560614   -0.0008104531282353
    -5.1566853521326133    8.8896067102928029   -0.0107951603896754
     0.0168149587150411    0.0243411410604318   -9.6092307155351193
   Sc   Al   N 
    16    20    36
Direct
  0.1007667290442171  0.1062271722470669  0.3327036532362726
  0.8709252481755385  0.2109767319852907  0.5857777165182725
  0.4538514299875942  0.0913823402054845  0.3247540926003154
  0.0980685019521061  0.1044054497546583  0.8449613806455218
  0.2281049811701692  0.2101047687802904  0.5970161582295930
  0.4533007366679840  0.0992143183815202  0.8490057762691237
  0.1012276054345165  0.4322950747654133  0.3390548094534225
  0.8832473762916848  0.5429500705003605  0.5957306509754261
  0.4530616414809714  0.4225963442159966  0.3453495894885634
  0.0974432976165858  0.7629482944964323  0.3438298227683845
  0.2247670445037215  0.8698056623432393  0.0934958949716460
  0.4619085280749005  0.7514814781326749  0.3355382539074228
  0.0991068920250271  0.7577916475130451  0.8525742617778036
  0.2224532285497673  0.8668300420619204  0.5910804717798541
  0.4560211414504778  0.7455432645388171  0.8420252531591075
  0.5676336509181397  0.8705450241162112  0.5939250369679598
  0.2158651566123524  0.2173610078837100  0.0663970263346982
  0.7698716482596950  0.0959846874254779  0.8289686943139642
  0.5618051969020073  0.2140013567349897  0.0719843043665946
  0.7742773499375701  0.0957868733587617  0.3211015217393580
  0.8766923227832990  0.2131929596656263  0.0747841257548174
  0.5651984229491518  0.1991581199941024  0.5769156500743264
  0.2251662747426195  0.5339291727108488  0.1190433659624830
  0.7686315354767075  0.4255564891403196  0.8339900975523307
  0.5630721255872899  0.5266335970656257  0.0740092512688122
  0.1109916084163487  0.4345587792138375  0.8427876508885461
  0.2262657347804193  0.5376929148483214  0.6285439238178441
  0.7766466902474676  0.4299912777323058  0.3167356289335359
  0.8875406466953208  0.5401834512175512  0.0697114411336131
  0.4553542063391660  0.4198543673093695  0.8236734036311404
  0.5615936725373700  0.5314945823723676  0.5761449626134407
  0.7843017508254420  0.7644441224415033  0.8313448284509448
  0.8797402084948516  0.8763870164759524  0.5728695484426964
  0.5706413065010238  0.8609384355898086  0.0682046720376803
  0.7766697891647283  0.7601533067061723  0.3195236286183984
  0.8766814333488142  0.8775107247167000  0.0785879328276522
  0.2281190714714114  0.2042125608007765  0.3719102007313069
  0.0976777805917735  0.1174659659222144  0.0984620061286208
  0.8644527131900119  0.2137685158381686  0.8724457553452183
  0.7696340782548035  0.0820489237496673  0.6312018861740043
  0.5772716795770592  0.1931711904566455  0.3792825399295481
  0.4466164259469849  0.0945216776862665  0.0948415369925399
  0.2142551752888124  0.2247723316153483  0.8623817073476516
  0.1020854251769947  0.0998720615660744  0.6149606059960746
  0.8668645504944337  0.2169517265615966  0.3609414256368879
  0.7755182320631491  0.0966632294339504  0.1227446258859217
  0.5674689801990098  0.2171012724123997  0.8762082076455471
  0.4580994046454094  0.1035703241215487  0.6235562280598970
  0.2235687194363578  0.5366231942214981  0.3258884736531087
  0.1077850780712382  0.4314005591524293  0.0988405189842254
  0.8898798344939607  0.5407313666811930  0.8668177975350559
  0.7572412525116405  0.4373077198722157  0.6396293308026131
  0.5807375739131047  0.5239647176762290  0.3780370259174006
  0.4485394024302423  0.4262368856524290  0.1164170295455165
  0.2395436363531189  0.5196822538143593  0.8387504326945745
  0.1149471877798973  0.4423217544883471  0.6112761885050162
  0.8667729342791901  0.5490296897224525  0.3663194558401557
  0.7783885404455475  0.4291866379797540  0.1146582101705320
  0.5643004874738082  0.5147669534052355  0.8782792389099114
  0.4495750765281272  0.4253319540627558  0.6127757174055262
  0.2244332585279238  0.8710310747933718  0.3470758224523394
  0.0965426792757569  0.7547969169527562  0.0995177607006852
  0.8638906000140167  0.8890432781360076  0.8831801379515412
  0.7929254987877101  0.7686404296875295  0.6363576242443756
  0.5770735177201374  0.8640907965053870  0.3704529309781819
  0.4690855941507408  0.7463386636756226  0.1021912021728397
  0.2220584158696468  0.8687063102017731  0.8616556128372395
  0.0981703680338626  0.7543537080600373  0.6027025801997041
  0.8636734637951093  0.8841742053670600  0.3707466300563098
  0.7803986954527176  0.7581618400862311  0.1187129367101676
  0.5783016239679952  0.8586035320270682  0.8670430615894418
  0.4556558899904317  0.7409443813675054  0.6116884348232503
 
  0.00000000E+00  0.00000000E+00  0.00000000E+00
  0.00000000E+00  0.00000000E+00  0.00000000E+00
  0.00000000E+00  0.00000000E+00  0.00000000E+00
  0.00000000E+00  0.00000000E+00  0.00000000E+00
  0.00000000E+00  0.00000000E+00  0.00000000E+00
  0.00000000E+00  0.00000000E+00  0.00000000E+00
  0.00000000E+00  0.00000000E+00  0.00000000E+00
  0.00000000E+00  0.00000000E+00  0.00000000E+00
  0.00000000E+00  0.00000000E+00  0.00000000E+00
  0.00000000E+00  0.00000000E+00  0.00000000E+00
  0.00000000E+00  0.00000000E+00  0.00000000E+00
  0.00000000E+00  0.00000000E+00  0.00000000E+00
  0.00000000E+00  0.00000000E+00  0.00000000E+00
  0.00000000E+00  0.00000000E+00  0.00000000E+00
  0.00000000E+00  0.00000000E+00  0.00000000E+00
  0.00000000E+00  0.00000000E+00  0.00000000E+00
  0.00000000E+00  0.00000000E+00  0.00000000E+00
  0.00000000E+00  0.00000000E+00  0.00000000E+00
  0.00000000E+00  0.00000000E+00  0.00000000E+00
  0.00000000E+00  0.00000000E+00  0.00000000E+00
  0.00000000E+00  0.00000000E+00  0.00000000E+00
  0.00000000E+00  0.00000000E+00  0.00000000E+00
  0.00000000E+00  0.00000000E+00  0.00000000E+00
  0.00000000E+00  0.00000000E+00  0.00000000E+00
  0.00000000E+00  0.00000000E+00  0.00000000E+00
  0.00000000E+00  0.00000000E+00  0.00000000E+00
  0.00000000E+00  0.00000000E+00  0.00000000E+00
  0.00000000E+00  0.00000000E+00  0.00000000E+00
  0.00000000E+00  0.00000000E+00  0.00000000E+00
  0.00000000E+00  0.00000000E+00  0.00000000E+00
  0.00000000E+00  0.00000000E+00  0.00000000E+00
  0.00000000E+00  0.00000000E+00  0.00000000E+00
  0.00000000E+00  0.00000000E+00  0.00000000E+00
  0.00000000E+00  0.00000000E+00  0.00000000E+00
  0.00000000E+00  0.00000000E+00  0.00000000E+00
  0.00000000E+00  0.00000000E+00  0.00000000E+00
  0.00000000E+00  0.00000000E+00  0.00000000E+00
  0.00000000E+00  0.00000000E+00  0.00000000E+00
  0.00000000E+00  0.00000000E+00  0.00000000E+00
  0.00000000E+00  0.00000000E+00  0.00000000E+00
  0.00000000E+00  0.00000000E+00  0.00000000E+00
  0.00000000E+00  0.00000000E+00  0.00000000E+00
  0.00000000E+00  0.00000000E+00  0.00000000E+00
  0.00000000E+00  0.00000000E+00  0.00000000E+00
  0.00000000E+00  0.00000000E+00  0.00000000E+00
  0.00000000E+00  0.00000000E+00  0.00000000E+00
  0.00000000E+00  0.00000000E+00  0.00000000E+00
  0.00000000E+00  0.00000000E+00  0.00000000E+00
  0.00000000E+00  0.00000000E+00  0.00000000E+00
  0.00000000E+00  0.00000000E+00  0.00000000E+00
  0.00000000E+00  0.00000000E+00  0.00000000E+00
  0.00000000E+00  0.00000000E+00  0.00000000E+00
  0.00000000E+00  0.00000000E+00  0.00000000E+00
  0.00000000E+00  0.00000000E+00  0.00000000E+00
  0.00000000E+00  0.00000000E+00  0.00000000E+00
  0.00000000E+00  0.00000000E+00  0.00000000E+00
  0.00000000E+00  0.00000000E+00  0.00000000E+00
  0.00000000E+00  0.00000000E+00  0.00000000E+00
  0.00000000E+00  0.00000000E+00  0.00000000E+00
  0.00000000E+00  0.00000000E+00  0.00000000E+00
  0.00000000E+00  0.00000000E+00  0.00000000E+00
  0.00000000E+00  0.00000000E+00  0.00000000E+00
  0.00000000E+00  0.00000000E+00  0.00000000E+00
  0.00000000E+00  0.00000000E+00  0.00000000E+00
  0.00000000E+00  0.00000000E+00  0.00000000E+00
  0.00000000E+00  0.00000000E+00  0.00000000E+00
  0.00000000E+00  0.00000000E+00  0.00000000E+00
  0.00000000E+00  0.00000000E+00  0.00000000E+00
  0.00000000E+00  0.00000000E+00  0.00000000E+00
  0.00000000E+00  0.00000000E+00  0.00000000E+00
  0.00000000E+00  0.00000000E+00  0.00000000E+00
  0.00000000E+00  0.00000000E+00  0.00000000E+00
