Sc   Al   N                             
   1.00000000000000     
   -10.1444154181291992   -0.0271118559608671    0.0056613625871281
    -5.0527751812980597    8.7417009924376803   -0.0047713668716591
     0.0085783746011495    0.0091674245281043  -10.1315004818708996
   Sc   Al   N 
    16    20    36
Direct
  0.1011509222449263  0.1072536899662353  0.2965229523261641
  0.8728832972479807  0.2108587829052766  0.5573118836991853
  0.4530531618686311  0.0929325613051972  0.2950938192250874
  0.0985353111280034  0.1031020479841231  0.8197321752620184
  0.2268172186924673  0.2124149158869386  0.5689927752128341
  0.4521837061596585  0.0976226173775885  0.8253360408206234
  0.1052848157110162  0.4331767478662414  0.3008409683612285
  0.8851213002024991  0.5433262173643882  0.5654401537309965
  0.4520979010706796  0.4232106254443337  0.3145226849762821
  0.0985847398059576  0.7595620360038282  0.3067245520701292
  0.2241962529281452  0.8672505649990967  0.0627959187322915
  0.4627518687881533  0.7495715760203296  0.3045382956231677
  0.1004279190594701  0.7565265234703631  0.8108295081264600
  0.2214006192122255  0.8693377843345402  0.5531854910470457
  0.4547742409803277  0.7464420508146574  0.8126500453825543
  0.5654058244891473  0.8728034732065311  0.5630491666416901
  0.2152084604516986  0.2181341630146960  0.0392842647428964
  0.7696862857765296  0.0974092086001761  0.8054750487689546
  0.5608755068929199  0.2118012579207473  0.0467445537012949
  0.7742212000219908  0.0950086668494379  0.2998507428664325
  0.8756892102443814  0.2138541482866003  0.0497764819100013
  0.5619271472183627  0.2028024955706442  0.5567840172818208
  0.2268283960234356  0.5298706081826765  0.0438175928886224
  0.7704328070385174  0.4266500596746283  0.8088637705728416
  0.5633819127668716  0.5275227820640254  0.0482277629439096
  0.1116214698393705  0.4345849617932700  0.8061779892591403
  0.2245306719198013  0.5395442485494044  0.5584640585832403
  0.7767074569144228  0.4291785416686551  0.2955648141165028
  0.8879898527707368  0.5398347890563500  0.0463118173383847
  0.4517830447032054  0.4212978156951408  0.8004240150775530
  0.5595605322693586  0.5315177742839268  0.5554702515733680
  0.7834392595458297  0.7622497404247497  0.8072319894792130
  0.8806521897950361  0.8767942258232679  0.5519316103303353
  0.5703530563750121  0.8607946069331689  0.0447402552218392
  0.7774744773992168  0.7613298562487643  0.2966555074684365
  0.8787131972826572  0.8745928442594320  0.0513756739538991
  0.2265710793423779  0.2067524014471971  0.3576738039272769
  0.0978287761065886  0.1169062892517658  0.0802599554853245
  0.8632830049995164  0.2156948681501163  0.8601216234187206
  0.7694057116161375  0.0841776869497863  0.6167706072278847
  0.5755397697624005  0.1940507290499482  0.3679408782136520
  0.4457714893762201  0.0947175196844725  0.0759493489303509
  0.2120626221735975  0.2264330789406586  0.8510079914323612
  0.1035472238098336  0.0993683797803655  0.6060154016436030
  0.8688465659011797  0.2155006556382446  0.3449881923627345
  0.7753944119171265  0.0946664535924029  0.1087667439448623
  0.5666581345829798  0.2176914178716274  0.8616628836904141
  0.4569399016632545  0.1040673744807634  0.6128667888578931
  0.2239847367311540  0.5360696880882188  0.3716434536208553
  0.1096453308645593  0.4302612971702615  0.0896224426518728
  0.8893671803678629  0.5401162723234094  0.8543500608389607
  0.7585963336035562  0.4374681248119217  0.6237894154130217
  0.5803791731885823  0.5234873137364104  0.3676333038523225
  0.4446377078209665  0.4273633728003077  0.1016538879013851
  0.2394219522312397  0.5182458628911490  0.8565407170122299
  0.1164396366689289  0.4442467112745589  0.6177658394815353
  0.8707486766849399  0.5480509423495619  0.3500588664167736
  0.7775694466572318  0.4290193444247521  0.1031648933895042
  0.5644634782762452  0.5153227370401581  0.8629824766962599
  0.4472736037081830  0.4265258133702190  0.6052769094502395
  0.2234345005949336  0.8717258291175014  0.3313032640803399
  0.0981602848411640  0.7474821657478614  0.0899770968208031
  0.8653846303322510  0.8877181109673273  0.8659550524600519
  0.7912840849356897  0.7689985439456564  0.6217735588243940
  0.5753156048236434  0.8660740908103080  0.3526318642262183
  0.4693982018143643  0.7453956712522967  0.0880516527480069
  0.2217159272814371  0.8670870442784562  0.8533749073532277
  0.0978447928218387  0.7578259563748801  0.5940944824537837
  0.8657902780337494  0.8835255182694581  0.3599001308714875
  0.7806433620869981  0.7584347349762410  0.1051874279033385
  0.5787026064074752  0.8566584792323440  0.8567863346752986
  0.4541717918286992  0.7425962754732751  0.5978426441320295
 
  0.00000000E+00  0.00000000E+00  0.00000000E+00
  0.00000000E+00  0.00000000E+00  0.00000000E+00
  0.00000000E+00  0.00000000E+00  0.00000000E+00
  0.00000000E+00  0.00000000E+00  0.00000000E+00
  0.00000000E+00  0.00000000E+00  0.00000000E+00
  0.00000000E+00  0.00000000E+00  0.00000000E+00
  0.00000000E+00  0.00000000E+00  0.00000000E+00
  0.00000000E+00  0.00000000E+00  0.00000000E+00
  0.00000000E+00  0.00000000E+00  0.00000000E+00
  0.00000000E+00  0.00000000E+00  0.00000000E+00
  0.00000000E+00  0.00000000E+00  0.00000000E+00
  0.00000000E+00  0.00000000E+00  0.00000000E+00
  0.00000000E+00  0.00000000E+00  0.00000000E+00
  0.00000000E+00  0.00000000E+00  0.00000000E+00
  0.00000000E+00  0.00000000E+00  0.00000000E+00
  0.00000000E+00  0.00000000E+00  0.00000000E+00
  0.00000000E+00  0.00000000E+00  0.00000000E+00
  0.00000000E+00  0.00000000E+00  0.00000000E+00
  0.00000000E+00  0.00000000E+00  0.00000000E+00
  0.00000000E+00  0.00000000E+00  0.00000000E+00
  0.00000000E+00  0.00000000E+00  0.00000000E+00
  0.00000000E+00  0.00000000E+00  0.00000000E+00
  0.00000000E+00  0.00000000E+00  0.00000000E+00
  0.00000000E+00  0.00000000E+00  0.00000000E+00
  0.00000000E+00  0.00000000E+00  0.00000000E+00
  0.00000000E+00  0.00000000E+00  0.00000000E+00
  0.00000000E+00  0.00000000E+00  0.00000000E+00
  0.00000000E+00  0.00000000E+00  0.00000000E+00
  0.00000000E+00  0.00000000E+00  0.00000000E+00
  0.00000000E+00  0.00000000E+00  0.00000000E+00
  0.00000000E+00  0.00000000E+00  0.00000000E+00
  0.00000000E+00  0.00000000E+00  0.00000000E+00
  0.00000000E+00  0.00000000E+00  0.00000000E+00
  0.00000000E+00  0.00000000E+00  0.00000000E+00
  0.00000000E+00  0.00000000E+00  0.00000000E+00
  0.00000000E+00  0.00000000E+00  0.00000000E+00
  0.00000000E+00  0.00000000E+00  0.00000000E+00
  0.00000000E+00  0.00000000E+00  0.00000000E+00
  0.00000000E+00  0.00000000E+00  0.00000000E+00
  0.00000000E+00  0.00000000E+00  0.00000000E+00
  0.00000000E+00  0.00000000E+00  0.00000000E+00
  0.00000000E+00  0.00000000E+00  0.00000000E+00
  0.00000000E+00  0.00000000E+00  0.00000000E+00
  0.00000000E+00  0.00000000E+00  0.00000000E+00
  0.00000000E+00  0.00000000E+00  0.00000000E+00
  0.00000000E+00  0.00000000E+00  0.00000000E+00
  0.00000000E+00  0.00000000E+00  0.00000000E+00
  0.00000000E+00  0.00000000E+00  0.00000000E+00
  0.00000000E+00  0.00000000E+00  0.00000000E+00
  0.00000000E+00  0.00000000E+00  0.00000000E+00
  0.00000000E+00  0.00000000E+00  0.00000000E+00
  0.00000000E+00  0.00000000E+00  0.00000000E+00
  0.00000000E+00  0.00000000E+00  0.00000000E+00
  0.00000000E+00  0.00000000E+00  0.00000000E+00
  0.00000000E+00  0.00000000E+00  0.00000000E+00
  0.00000000E+00  0.00000000E+00  0.00000000E+00
  0.00000000E+00  0.00000000E+00  0.00000000E+00
  0.00000000E+00  0.00000000E+00  0.00000000E+00
  0.00000000E+00  0.00000000E+00  0.00000000E+00
  0.00000000E+00  0.00000000E+00  0.00000000E+00
  0.00000000E+00  0.00000000E+00  0.00000000E+00
  0.00000000E+00  0.00000000E+00  0.00000000E+00
  0.00000000E+00  0.00000000E+00  0.00000000E+00
  0.00000000E+00  0.00000000E+00  0.00000000E+00
  0.00000000E+00  0.00000000E+00  0.00000000E+00
  0.00000000E+00  0.00000000E+00  0.00000000E+00
  0.00000000E+00  0.00000000E+00  0.00000000E+00
  0.00000000E+00  0.00000000E+00  0.00000000E+00
  0.00000000E+00  0.00000000E+00  0.00000000E+00
  0.00000000E+00  0.00000000E+00  0.00000000E+00
  0.00000000E+00  0.00000000E+00  0.00000000E+00
  0.00000000E+00  0.00000000E+00  0.00000000E+00
