Sc   Al   N                             
   1.00000000000000     
   -10.4715845642207626   -0.0378209258252781   -0.0035040915841969
    -5.1974115410099522    8.9673350386166977   -0.0092215958276825
     0.0261779535518908    0.0100189910584260   -9.3117610945515725
   Sc   Al   N 
    16    20    36
Direct
  0.0982955252818627  0.1056168542245359  0.3429435965044973
  0.8692364269353234  0.2122817607414262  0.5932214582724669
  0.4580829788828140  0.0886138519941042  0.3356684480279455
  0.0994295810893888  0.1073983636439735  0.8503387377492402
  0.2262688596638114  0.2148520593465690  0.5997442076530106
  0.4502971947603527  0.1001249778068711  0.8517401462119594
  0.1024682283180809  0.4376169202031122  0.3433096782942400
  0.8881206686997629  0.5401578216288314  0.6013741322326283
  0.4516821611216528  0.4236748416213345  0.3467152474804749
  0.0988543141344351  0.7623551113953866  0.3468345205114431
  0.2237810365157884  0.8708181992966146  0.0975824244187109
  0.4604876185379609  0.7513577370383473  0.3426069663349125
  0.0973211946072681  0.7592720093548380  0.8525268836320166
  0.2219324497113391  0.8677674115481935  0.5979657853847513
  0.4554494308940207  0.7459791553621784  0.8460049156451817
  0.5703539864671114  0.8671942621308659  0.6000308450370682
  0.2204109483071193  0.2108065515983029  0.1000611963360001
  0.7697143066096714  0.0948470000676735  0.8330556014093347
  0.5625555367941644  0.2114624831674803  0.0764891466774529
  0.7745649931895073  0.0963640470640001  0.3233663491671521
  0.8769625331787267  0.2115482425002853  0.0788651504870046
  0.5645814452719904  0.2006194676854918  0.5802653845021410
  0.2275272505490875  0.5359500595909168  0.1127870062490004
  0.7686131480370548  0.4263516630459137  0.8406554610021075
  0.5619910335394422  0.5274293125900797  0.0778532139676145
  0.1127068398086806  0.4314921347225678  0.8792315868623319
  0.2249606293780388  0.5356833961806018  0.6277273139392960
  0.7761507264265717  0.4292977577340764  0.3181374143687989
  0.8834291158696033  0.5417035225377163  0.0797736971532572
  0.4530242462578684  0.4202202637358141  0.8323580922684997
  0.5612853497452619  0.5309356760746837  0.5804425530922330
  0.7853415092681004  0.7631594128293386  0.8380975979761942
  0.8793509019475536  0.8759378674716629  0.5748606499698710
  0.5693838046730235  0.8624851850647275  0.0733381955168042
  0.7769351116542325  0.7593396751594810  0.3208584268775851
  0.8774655493077148  0.8779156051684183  0.0835134960407800
  0.2270324432891542  0.2060589185642243  0.3400496249682021
  0.0957136408082278  0.1158475452874299  0.0985932509948739
  0.8655829398371537  0.2126711690191811  0.8669763266757187
  0.7689647430384383  0.0815849057949976  0.6274675366619604
  0.5776697608554784  0.1955536815517078  0.3739863633203555
  0.4511632309414111  0.0910476497904114  0.0975019939031583
  0.2156434965097773  0.2245904959921035  0.8572789122358557
  0.1022258734708998  0.1034601269346354  0.6035939542077813
  0.8651123635275724  0.2179561370747933  0.3578501963946081
  0.7756254407003311  0.0968592606980678  0.1184642909183324
  0.5664295440580105  0.2151362611206693  0.8721950929587834
  0.4560746306184527  0.1030358793906245  0.6111992771855483
  0.2257472191325434  0.5392351123015260  0.3221593064918125
  0.1090250758595630  0.4319074466447645  0.0926066105073602
  0.8918269869152695  0.5394952762174441  0.8677032015733843
  0.7577468517709747  0.4393984916403610  0.6373501631130694
  0.5800185443313737  0.5231601875042529  0.3726267528011746
  0.4486241373787010  0.4255752526529477  0.1086379846097500
  0.2361102898151088  0.5189513889034885  0.8443757998006731
  0.1176687587045677  0.4430310126325452  0.5838162645846765
  0.8676277156763987  0.5476524911434097  0.3553813468599145
  0.7770678705152747  0.4282877793238598  0.1082401894133511
  0.5629394786966273  0.5160521894448920  0.8745155407708154
  0.4475715392358879  0.4261187543785354  0.6126726211389979
  0.2237177208085512  0.8711971218162660  0.3467063192979865
  0.0966297179825375  0.7566636500072050  0.0979648865407583
  0.8649566016406069  0.8883678866763560  0.8809323633925175
  0.7952111620726541  0.7656015863288559  0.6338410443833382
  0.5788204781215782  0.8605937822839493  0.3674778650806800
  0.4676851890892948  0.7473702516964735  0.1007501161716178
  0.2210181772742601  0.8707804013931622  0.8548569658335197
  0.0980877295502225  0.7541868555575206  0.6027597309116928
  0.8645557941102879  0.8834274434831855  0.3646300463018548
  0.7794980289578604  0.7592849561828032  0.1133594821932604
  0.5773768016777225  0.8595678371330990  0.8625593659611113
  0.4548269310566297  0.7411693707857978  0.6069254829333701
 
  0.00000000E+00  0.00000000E+00  0.00000000E+00
  0.00000000E+00  0.00000000E+00  0.00000000E+00
  0.00000000E+00  0.00000000E+00  0.00000000E+00
  0.00000000E+00  0.00000000E+00  0.00000000E+00
  0.00000000E+00  0.00000000E+00  0.00000000E+00
  0.00000000E+00  0.00000000E+00  0.00000000E+00
  0.00000000E+00  0.00000000E+00  0.00000000E+00
  0.00000000E+00  0.00000000E+00  0.00000000E+00
  0.00000000E+00  0.00000000E+00  0.00000000E+00
  0.00000000E+00  0.00000000E+00  0.00000000E+00
  0.00000000E+00  0.00000000E+00  0.00000000E+00
  0.00000000E+00  0.00000000E+00  0.00000000E+00
  0.00000000E+00  0.00000000E+00  0.00000000E+00
  0.00000000E+00  0.00000000E+00  0.00000000E+00
  0.00000000E+00  0.00000000E+00  0.00000000E+00
  0.00000000E+00  0.00000000E+00  0.00000000E+00
  0.00000000E+00  0.00000000E+00  0.00000000E+00
  0.00000000E+00  0.00000000E+00  0.00000000E+00
  0.00000000E+00  0.00000000E+00  0.00000000E+00
  0.00000000E+00  0.00000000E+00  0.00000000E+00
  0.00000000E+00  0.00000000E+00  0.00000000E+00
  0.00000000E+00  0.00000000E+00  0.00000000E+00
  0.00000000E+00  0.00000000E+00  0.00000000E+00
  0.00000000E+00  0.00000000E+00  0.00000000E+00
  0.00000000E+00  0.00000000E+00  0.00000000E+00
  0.00000000E+00  0.00000000E+00  0.00000000E+00
  0.00000000E+00  0.00000000E+00  0.00000000E+00
  0.00000000E+00  0.00000000E+00  0.00000000E+00
  0.00000000E+00  0.00000000E+00  0.00000000E+00
  0.00000000E+00  0.00000000E+00  0.00000000E+00
  0.00000000E+00  0.00000000E+00  0.00000000E+00
  0.00000000E+00  0.00000000E+00  0.00000000E+00
  0.00000000E+00  0.00000000E+00  0.00000000E+00
  0.00000000E+00  0.00000000E+00  0.00000000E+00
  0.00000000E+00  0.00000000E+00  0.00000000E+00
  0.00000000E+00  0.00000000E+00  0.00000000E+00
  0.00000000E+00  0.00000000E+00  0.00000000E+00
  0.00000000E+00  0.00000000E+00  0.00000000E+00
  0.00000000E+00  0.00000000E+00  0.00000000E+00
  0.00000000E+00  0.00000000E+00  0.00000000E+00
  0.00000000E+00  0.00000000E+00  0.00000000E+00
  0.00000000E+00  0.00000000E+00  0.00000000E+00
  0.00000000E+00  0.00000000E+00  0.00000000E+00
  0.00000000E+00  0.00000000E+00  0.00000000E+00
  0.00000000E+00  0.00000000E+00  0.00000000E+00
  0.00000000E+00  0.00000000E+00  0.00000000E+00
  0.00000000E+00  0.00000000E+00  0.00000000E+00
  0.00000000E+00  0.00000000E+00  0.00000000E+00
  0.00000000E+00  0.00000000E+00  0.00000000E+00
  0.00000000E+00  0.00000000E+00  0.00000000E+00
  0.00000000E+00  0.00000000E+00  0.00000000E+00
  0.00000000E+00  0.00000000E+00  0.00000000E+00
  0.00000000E+00  0.00000000E+00  0.00000000E+00
  0.00000000E+00  0.00000000E+00  0.00000000E+00
  0.00000000E+00  0.00000000E+00  0.00000000E+00
  0.00000000E+00  0.00000000E+00  0.00000000E+00
  0.00000000E+00  0.00000000E+00  0.00000000E+00
  0.00000000E+00  0.00000000E+00  0.00000000E+00
  0.00000000E+00  0.00000000E+00  0.00000000E+00
  0.00000000E+00  0.00000000E+00  0.00000000E+00
  0.00000000E+00  0.00000000E+00  0.00000000E+00
  0.00000000E+00  0.00000000E+00  0.00000000E+00
  0.00000000E+00  0.00000000E+00  0.00000000E+00
  0.00000000E+00  0.00000000E+00  0.00000000E+00
  0.00000000E+00  0.00000000E+00  0.00000000E+00
  0.00000000E+00  0.00000000E+00  0.00000000E+00
  0.00000000E+00  0.00000000E+00  0.00000000E+00
  0.00000000E+00  0.00000000E+00  0.00000000E+00
  0.00000000E+00  0.00000000E+00  0.00000000E+00
  0.00000000E+00  0.00000000E+00  0.00000000E+00
  0.00000000E+00  0.00000000E+00  0.00000000E+00
  0.00000000E+00  0.00000000E+00  0.00000000E+00
