Sc   Al   N                             
   1.00000000000000     
   -10.2968046825927750   -0.0357049553255499    0.0006007800363260
    -5.1243671722528878    8.8449352971588837   -0.0089853991540659
     0.0129525881453808    0.0120021999908560   -9.7555565316154489
   Sc   Al   N 
    16    20    36
Direct
  0.1004797448619072  0.1072354745969122  0.3267679343688670
  0.8713825512609645  0.2108011730790693  0.5826570507762767
  0.4529364312844066  0.0920365957712832  0.3212217683760485
  0.0982429386008548  0.1041106885060756  0.8424514796982692
  0.2276177425694712  0.2110623812517218  0.5942332266525128
  0.4528417729700251  0.0989182131189708  0.8473786557584475
  0.1033582881027257  0.4330803621955894  0.3276983910498998
  0.8842806373969978  0.5426309711612589  0.5917092809612967
  0.4523960738175461  0.4227974117984701  0.3392013376218870
  0.0981690789832612  0.7610644805295479  0.3320481488640041
  0.2247628377596484  0.8693280528400038  0.0887490898591068
  0.4620608084485198  0.7508504737953956  0.3314890135094188
  0.0999266206342426  0.7567909727286377  0.8404215075580552
  0.2217537372657716  0.8676216318214927  0.5835593719578682
  0.4556625905603511  0.7454978430181853  0.8383764745211195
  0.5668815244777079  0.8710267118321084  0.5902722747934632
  0.2146383650214148  0.2189983536105231  0.0618179332919766
  0.7695401979200227  0.0964295027835291  0.8265769034011967
  0.5615985651053848  0.2130568009144937  0.0694456422465350
  0.7743762079716205  0.0953776745442738  0.3198324447470497
  0.8762462461878968  0.2136256985590208  0.0717771463682553
  0.5638696746878935  0.2005091352874473  0.5759020919062010
  0.2279012826598432  0.5296678078198198  0.0695835118031951
  0.7689920816864984  0.4260308003469646  0.8309730249816880
  0.5634713585944198  0.5270357289408025  0.0713808423574349
  0.1128280145376337  0.4351453140457195  0.8267096712787065
  0.2247352910940990  0.5396350210145755  0.5796804504859026
  0.7769984381763280  0.4296360665902910  0.3157851628674564
  0.8884633918050824  0.5397418138201218  0.0664501208159152
  0.4521809740054081  0.4211908784220313  0.8204638283752814
  0.5604821910558186  0.5311855489023287  0.5749577699835910
  0.7845243429664990  0.7633873600368517  0.8285120732465572
  0.8804741685903466  0.8763410662021656  0.5712448329259985
  0.5709648403449208  0.8606437774726814  0.0657649587604823
  0.7770699691612108  0.7603218355980701  0.3180462321197197
  0.8773944789862682  0.8762588442907315  0.0748161123818392
  0.2267129180141652  0.2063533256853916  0.3742777765312439
  0.0974748350689509  0.1180000553629057  0.0978173880394451
  0.8639374886809961  0.2144398692042913  0.8733371922119488
  0.7691987630203414  0.0825497729458533  0.6317246646161223
  0.5766775978148431  0.1933858632909917  0.3808865727464550
  0.4461629248302259  0.0949143016456446  0.0940258276146366
  0.2131437381099630  0.2260820098164018  0.8636851344451131
  0.1025632549308355  0.0997754769933081  0.6174542731677661
  0.8671771888094781  0.2165941517608161  0.3617347283763479
  0.7756569668476629  0.0960072844769400  0.1236802499201275
  0.5670198905602888  0.2177540671482774  0.8771252897151598
  0.4576274374495810  0.1036716889369487  0.6255857492979544
  0.2240679731254147  0.5365148045898067  0.3807645872246113
  0.1087586485130885  0.4312182429800089  0.1064853537420731
  0.8903633254702683  0.5401287867295110  0.8676858990804988
  0.7572678138431925  0.4376520360171554  0.6395551158852939
  0.5806029828343426  0.5235225709876161  0.3799890145543543
  0.4456897391646564  0.4273209702998173  0.1190188811772472
  0.2405194259189543  0.5178378589509762  0.8720278441170279
  0.1166263717972171  0.4436671756045314  0.6286600151246162
  0.8690256009319413  0.5482008425119176  0.3677648051790001
  0.7784310156232408  0.4291726990805742  0.1166509996954801
  0.5641804957031908  0.5144618305222224  0.8791695263452368
  0.4478348548989715  0.4260131118540755  0.6178173353719245
  0.2236892448953327  0.8715015187959736  0.3465780892938852
  0.0982126871115057  0.7501657083674331  0.1031061459385541
  0.8646689357715900  0.8884915927366137  0.8829667094888549
  0.7927150102556624  0.7684548767230410  0.6364634518424026
  0.5765778213804538  0.8647094154000996  0.3704635692825633
  0.4693546936995716  0.7460882516843981  0.1027418236865998
  0.2219807349913339  0.8683850846280521  0.8650629037059900
  0.0970949249433701  0.7568043105224120  0.6092872915083092
  0.8650155941015285  0.8836301444907662  0.3726044445620360
  0.7807652734159021  0.7578255056217955  0.1199076566826065
  0.5786727025557923  0.8579594419118592  0.8683974205837686
  0.4549839192322480  0.7411810057549815  0.6124383157953659
 
  0.00000000E+00  0.00000000E+00  0.00000000E+00
  0.00000000E+00  0.00000000E+00  0.00000000E+00
  0.00000000E+00  0.00000000E+00  0.00000000E+00
  0.00000000E+00  0.00000000E+00  0.00000000E+00
  0.00000000E+00  0.00000000E+00  0.00000000E+00
  0.00000000E+00  0.00000000E+00  0.00000000E+00
  0.00000000E+00  0.00000000E+00  0.00000000E+00
  0.00000000E+00  0.00000000E+00  0.00000000E+00
  0.00000000E+00  0.00000000E+00  0.00000000E+00
  0.00000000E+00  0.00000000E+00  0.00000000E+00
  0.00000000E+00  0.00000000E+00  0.00000000E+00
  0.00000000E+00  0.00000000E+00  0.00000000E+00
  0.00000000E+00  0.00000000E+00  0.00000000E+00
  0.00000000E+00  0.00000000E+00  0.00000000E+00
  0.00000000E+00  0.00000000E+00  0.00000000E+00
  0.00000000E+00  0.00000000E+00  0.00000000E+00
  0.00000000E+00  0.00000000E+00  0.00000000E+00
  0.00000000E+00  0.00000000E+00  0.00000000E+00
  0.00000000E+00  0.00000000E+00  0.00000000E+00
  0.00000000E+00  0.00000000E+00  0.00000000E+00
  0.00000000E+00  0.00000000E+00  0.00000000E+00
  0.00000000E+00  0.00000000E+00  0.00000000E+00
  0.00000000E+00  0.00000000E+00  0.00000000E+00
  0.00000000E+00  0.00000000E+00  0.00000000E+00
  0.00000000E+00  0.00000000E+00  0.00000000E+00
  0.00000000E+00  0.00000000E+00  0.00000000E+00
  0.00000000E+00  0.00000000E+00  0.00000000E+00
  0.00000000E+00  0.00000000E+00  0.00000000E+00
  0.00000000E+00  0.00000000E+00  0.00000000E+00
  0.00000000E+00  0.00000000E+00  0.00000000E+00
  0.00000000E+00  0.00000000E+00  0.00000000E+00
  0.00000000E+00  0.00000000E+00  0.00000000E+00
  0.00000000E+00  0.00000000E+00  0.00000000E+00
  0.00000000E+00  0.00000000E+00  0.00000000E+00
  0.00000000E+00  0.00000000E+00  0.00000000E+00
  0.00000000E+00  0.00000000E+00  0.00000000E+00
  0.00000000E+00  0.00000000E+00  0.00000000E+00
  0.00000000E+00  0.00000000E+00  0.00000000E+00
  0.00000000E+00  0.00000000E+00  0.00000000E+00
  0.00000000E+00  0.00000000E+00  0.00000000E+00
  0.00000000E+00  0.00000000E+00  0.00000000E+00
  0.00000000E+00  0.00000000E+00  0.00000000E+00
  0.00000000E+00  0.00000000E+00  0.00000000E+00
  0.00000000E+00  0.00000000E+00  0.00000000E+00
  0.00000000E+00  0.00000000E+00  0.00000000E+00
  0.00000000E+00  0.00000000E+00  0.00000000E+00
  0.00000000E+00  0.00000000E+00  0.00000000E+00
  0.00000000E+00  0.00000000E+00  0.00000000E+00
  0.00000000E+00  0.00000000E+00  0.00000000E+00
  0.00000000E+00  0.00000000E+00  0.00000000E+00
  0.00000000E+00  0.00000000E+00  0.00000000E+00
  0.00000000E+00  0.00000000E+00  0.00000000E+00
  0.00000000E+00  0.00000000E+00  0.00000000E+00
  0.00000000E+00  0.00000000E+00  0.00000000E+00
  0.00000000E+00  0.00000000E+00  0.00000000E+00
  0.00000000E+00  0.00000000E+00  0.00000000E+00
  0.00000000E+00  0.00000000E+00  0.00000000E+00
  0.00000000E+00  0.00000000E+00  0.00000000E+00
  0.00000000E+00  0.00000000E+00  0.00000000E+00
  0.00000000E+00  0.00000000E+00  0.00000000E+00
  0.00000000E+00  0.00000000E+00  0.00000000E+00
  0.00000000E+00  0.00000000E+00  0.00000000E+00
  0.00000000E+00  0.00000000E+00  0.00000000E+00
  0.00000000E+00  0.00000000E+00  0.00000000E+00
  0.00000000E+00  0.00000000E+00  0.00000000E+00
  0.00000000E+00  0.00000000E+00  0.00000000E+00
  0.00000000E+00  0.00000000E+00  0.00000000E+00
  0.00000000E+00  0.00000000E+00  0.00000000E+00
  0.00000000E+00  0.00000000E+00  0.00000000E+00
  0.00000000E+00  0.00000000E+00  0.00000000E+00
  0.00000000E+00  0.00000000E+00  0.00000000E+00
  0.00000000E+00  0.00000000E+00  0.00000000E+00
