Sc   Al   N                             
   1.00000000000000     
   -10.3183020812013666   -0.0361879091763190   -0.0000641922783434
    -5.1334266018176313    8.8583698860983198   -0.0102230926970845
     0.0118091200878226    0.0195734146658441   -9.7199238754189938
   Sc   Al   N 
    16    20    36
Direct
  0.1006024817904745  0.1069455834032667  0.3274790284210312
  0.8714425244265485  0.2107203105937359  0.5828602656243760
  0.4529259655315414  0.0920919585133433  0.3211161338142574
  0.0981094770545212  0.1042083962399616  0.8427371336358505
  0.2280823008878201  0.2098370232325593  0.5942294564994484
  0.4529115092377225  0.0989450134026200  0.8475543388908520
  0.1015973606610672  0.4317991126592773  0.3298729696212561
  0.8831147731491669  0.5431460918632212  0.5916645231784301
  0.4532832061774101  0.4222482301469768  0.3405237209755825
  0.0973266115197831  0.7626144227373430  0.3356921174113836
  0.2250686774869664  0.8699914417033270  0.0897721286950457
  0.4621316394738741  0.7510208000990630  0.3316458586799556
  0.0995197481653776  0.7579295766406275  0.8473630785818216
  0.2221388274305482  0.8673806817007801  0.5847705282634053
  0.4557491503891171  0.7455999514771321  0.8389365560489921
  0.5668779521243934  0.8711146614698322  0.5904866471994978
  0.2145262695724952  0.2190507903051397  0.0618056678854302
  0.7698033589811573  0.0961985370350718  0.8266724483238406
  0.5619932425532568  0.2130295800736732  0.0694510408659994
  0.7742074378566741  0.0953662640768371  0.3199839117416730
  0.8762792798318202  0.2136049494986594  0.0721794046429380
  0.5645608340030037  0.1993790876355490  0.5756323977678619
  0.2260983314092186  0.5322936905552922  0.0978021909356670
  0.7692673712222771  0.4258358942718985  0.8310801090854696
  0.5639136851215270  0.5267595626695609  0.0714202782862188
  0.1115201056715946  0.4345885442318433  0.8284667153140504
  0.2270052651090779  0.5390720751276490  0.6139923573390433
  0.7766675477936218  0.4299293664495352  0.3157383242286542
  0.8883558034041314  0.5396706055948073  0.0663706869396563
  0.4547028800756934  0.4201348564309271  0.8226177063269517
  0.5609765441604893  0.5316191262858396  0.5745959482323073
  0.7842320152107547  0.7637454985729235  0.8286845912032774
  0.8801672575008794  0.8761575261081589  0.5713866280584341
  0.5710500994389704  0.8605303765197192  0.0659467956053845
  0.7767994682260593  0.7604206621178662  0.3180999748666764
  0.8764317403761268  0.8772007002562816  0.0753525122170444
  0.2275368131056510  0.2047726453031231  0.3741711285152860
  0.0974452434935245  0.1180957981857489  0.0976014317850300
  0.8640172845291403  0.2142876449196791  0.8729584166397828
  0.7695916560014879  0.0822647221374524  0.6313316540378011
  0.5769429567233644  0.1926942531847544  0.3805241096117484
  0.4461404207808144  0.0949992132034509  0.0935644716370732
  0.2132956110592801  0.2257595393517988  0.8628240478734028
  0.1023731479729477  0.0994800218785059  0.6170259321992688
  0.8670937803219871  0.2166514723412760  0.3612870644892752
  0.7755563084473849  0.0961742540189903  0.1233557320104168
  0.5676433816384048  0.2170269427820841  0.8764540542605346
  0.4577960340053409  0.1036257173859951  0.6253539973464939
  0.2239795535903539  0.5360358815838495  0.3425097798361989
  0.1074985242611106  0.4308468366345579  0.1039188301821099
  0.8901123057794464  0.5402077020913723  0.8667431086781860
  0.7572342298109120  0.4373516862365818  0.6391316596842316
  0.5806974311345741  0.5240286477181400  0.3794736286285314
  0.4482360350420578  0.4261636412018532  0.1166005699748922
  0.2402708396874687  0.5194529646423618  0.8534215665044371
  0.1154516840014637  0.4424587281302408  0.6239124976015518
  0.8673387394874013  0.5490556945336351  0.3675763940670791
  0.7785998985692686  0.4291547076988422  0.1160041946878962
  0.5649489863784538  0.5145756809829010  0.8784684319847145
  0.4488315678819106  0.4255572116173951  0.6155640093760653
  0.2242267005007363  0.8717005423586315  0.3468459707688751
  0.0966914374916996  0.7536648871897995  0.1003213402415852
  0.8636784197922793  0.8889244081890908  0.8826737597009497
  0.7925093674921726  0.7686199079440925  0.6361795943728268
  0.5764444004261193  0.8648318921523170  0.3700518761169320
  0.4695478014096466  0.7459190655744905  0.1022580726448652
  0.2223340218248850  0.8688737230555219  0.8645469975708977
  0.0980894457083750  0.7550458006918959  0.6063832302512111
  0.8639379273780463  0.8840062145837067  0.3723031927856155
  0.7807776344950668  0.7578128945172082  0.1193524289493553
  0.5785471080256315  0.8580492384218203  0.8679068434309087
  0.4550988125955797  0.7411569891371244  0.6123136133684071
 
  0.00000000E+00  0.00000000E+00  0.00000000E+00
  0.00000000E+00  0.00000000E+00  0.00000000E+00
  0.00000000E+00  0.00000000E+00  0.00000000E+00
  0.00000000E+00  0.00000000E+00  0.00000000E+00
  0.00000000E+00  0.00000000E+00  0.00000000E+00
  0.00000000E+00  0.00000000E+00  0.00000000E+00
  0.00000000E+00  0.00000000E+00  0.00000000E+00
  0.00000000E+00  0.00000000E+00  0.00000000E+00
  0.00000000E+00  0.00000000E+00  0.00000000E+00
  0.00000000E+00  0.00000000E+00  0.00000000E+00
  0.00000000E+00  0.00000000E+00  0.00000000E+00
  0.00000000E+00  0.00000000E+00  0.00000000E+00
  0.00000000E+00  0.00000000E+00  0.00000000E+00
  0.00000000E+00  0.00000000E+00  0.00000000E+00
  0.00000000E+00  0.00000000E+00  0.00000000E+00
  0.00000000E+00  0.00000000E+00  0.00000000E+00
  0.00000000E+00  0.00000000E+00  0.00000000E+00
  0.00000000E+00  0.00000000E+00  0.00000000E+00
  0.00000000E+00  0.00000000E+00  0.00000000E+00
  0.00000000E+00  0.00000000E+00  0.00000000E+00
  0.00000000E+00  0.00000000E+00  0.00000000E+00
  0.00000000E+00  0.00000000E+00  0.00000000E+00
  0.00000000E+00  0.00000000E+00  0.00000000E+00
  0.00000000E+00  0.00000000E+00  0.00000000E+00
  0.00000000E+00  0.00000000E+00  0.00000000E+00
  0.00000000E+00  0.00000000E+00  0.00000000E+00
  0.00000000E+00  0.00000000E+00  0.00000000E+00
  0.00000000E+00  0.00000000E+00  0.00000000E+00
  0.00000000E+00  0.00000000E+00  0.00000000E+00
  0.00000000E+00  0.00000000E+00  0.00000000E+00
  0.00000000E+00  0.00000000E+00  0.00000000E+00
  0.00000000E+00  0.00000000E+00  0.00000000E+00
  0.00000000E+00  0.00000000E+00  0.00000000E+00
  0.00000000E+00  0.00000000E+00  0.00000000E+00
  0.00000000E+00  0.00000000E+00  0.00000000E+00
  0.00000000E+00  0.00000000E+00  0.00000000E+00
  0.00000000E+00  0.00000000E+00  0.00000000E+00
  0.00000000E+00  0.00000000E+00  0.00000000E+00
  0.00000000E+00  0.00000000E+00  0.00000000E+00
  0.00000000E+00  0.00000000E+00  0.00000000E+00
  0.00000000E+00  0.00000000E+00  0.00000000E+00
  0.00000000E+00  0.00000000E+00  0.00000000E+00
  0.00000000E+00  0.00000000E+00  0.00000000E+00
  0.00000000E+00  0.00000000E+00  0.00000000E+00
  0.00000000E+00  0.00000000E+00  0.00000000E+00
  0.00000000E+00  0.00000000E+00  0.00000000E+00
  0.00000000E+00  0.00000000E+00  0.00000000E+00
  0.00000000E+00  0.00000000E+00  0.00000000E+00
  0.00000000E+00  0.00000000E+00  0.00000000E+00
  0.00000000E+00  0.00000000E+00  0.00000000E+00
  0.00000000E+00  0.00000000E+00  0.00000000E+00
  0.00000000E+00  0.00000000E+00  0.00000000E+00
  0.00000000E+00  0.00000000E+00  0.00000000E+00
  0.00000000E+00  0.00000000E+00  0.00000000E+00
  0.00000000E+00  0.00000000E+00  0.00000000E+00
  0.00000000E+00  0.00000000E+00  0.00000000E+00
  0.00000000E+00  0.00000000E+00  0.00000000E+00
  0.00000000E+00  0.00000000E+00  0.00000000E+00
  0.00000000E+00  0.00000000E+00  0.00000000E+00
  0.00000000E+00  0.00000000E+00  0.00000000E+00
  0.00000000E+00  0.00000000E+00  0.00000000E+00
  0.00000000E+00  0.00000000E+00  0.00000000E+00
  0.00000000E+00  0.00000000E+00  0.00000000E+00
  0.00000000E+00  0.00000000E+00  0.00000000E+00
  0.00000000E+00  0.00000000E+00  0.00000000E+00
  0.00000000E+00  0.00000000E+00  0.00000000E+00
  0.00000000E+00  0.00000000E+00  0.00000000E+00
  0.00000000E+00  0.00000000E+00  0.00000000E+00
  0.00000000E+00  0.00000000E+00  0.00000000E+00
  0.00000000E+00  0.00000000E+00  0.00000000E+00
  0.00000000E+00  0.00000000E+00  0.00000000E+00
  0.00000000E+00  0.00000000E+00  0.00000000E+00
