Sc   Al   N                             
   1.00000000000000     
   -10.6231586752135758   -0.0452459718685416    0.0034258878978276
    -5.2901114848123623    9.0708170934508257   -0.0076921097942666
     0.0492783880720331    0.0263304682135516   -8.9347095759475916
   Sc   Al   N 
    16    20    36
Direct
  0.1008267335549178  0.1049705015131437  0.3443309744844285
  0.8673087750106490  0.2130068929304514  0.5946993486881240
  0.4569054549429907  0.0925606126341378  0.3429257429219774
  0.0993160507281416  0.1074391788501501  0.8499058526853673
  0.2261920725746194  0.2140862053879360  0.5999865738533785
  0.4496350427923801  0.0973312017858206  0.8570951758934058
  0.1048501736824861  0.4374466244356441  0.3413212035555091
  0.8851831363031124  0.5402163626299981  0.6033075913319834
  0.4543319409317448  0.4237130261492013  0.3503785526670882
  0.1010704950061410  0.7591682779545863  0.3461320966258228
  0.2226705964392579  0.8710774036096112  0.0986565687430385
  0.4610948111345792  0.7465103303480234  0.3472482168890352
  0.0966665613757058  0.7598001396031293  0.8494122150673746
  0.2219435344391343  0.8674456770111760  0.5982329843843033
  0.4531539633807640  0.7534157037855209  0.8535728749105758
  0.5709599461855035  0.8665376980896724  0.5999273534796430
  0.2198465956037268  0.2121584538586632  0.0976992923962854
  0.7741640372523761  0.0946823908873640  0.8561729901904300
  0.5615924907016492  0.2075101892992635  0.0998635194829944
  0.7745969390616594  0.0951837927575596  0.3244515177151399
  0.8815399619265563  0.2095450492596953  0.0891000099445733
  0.5612623978988225  0.2066584763016621  0.6256197493018831
  0.2254285326991550  0.5349683529670912  0.1017796953637955
  0.7734603259885660  0.4249034962113782  0.8540340480596029
  0.5618525354821813  0.5311558241273389  0.0944221637308118
  0.1115787863877031  0.4319106371770545  0.8629355997690453
  0.2273692264851874  0.5343196811064317  0.6222362539910264
  0.7773004608194469  0.4297318101795469  0.3121279450099621
  0.8883943570832145  0.5403303447727339  0.0821950838344705
  0.4467585065107684  0.4227519612288546  0.8673234129544838
  0.5551574306056111  0.5291101403856189  0.6329337118976568
  0.7840377512098371  0.7631981138287429  0.8459799444078442
  0.8771754126737150  0.8778557213083289  0.5780926252240093
  0.5666168206966447  0.8650803259944269  0.0900310504855710
  0.7784506506246274  0.7585743192217151  0.3202008810209236
  0.8810926370903189  0.8745354665971661  0.0878799544156834
  0.2258306011538522  0.2081692615026753  0.3389710662337180
  0.0988066108110317  0.1141906078015396  0.0970986741531306
  0.8688329359402189  0.2111251539710537  0.8597259616100956
  0.7659823701435897  0.0855831827887101  0.6084615000965101
  0.5746793790485754  0.1988474189071781  0.3229823010264923
  0.4473320686479028  0.0911180790455077  0.0968700956818651
  0.2165181780169476  0.2229843689208053  0.8558429474949492
  0.1014776987881802  0.1041134374585582  0.5978788331811629
  0.8665023828438123  0.2178277821382366  0.3381037677107557
  0.7809666340433949  0.0930990489737766  0.0983492170615463
  0.5658873569809657  0.2132641529354302  0.8552996527484211
  0.4574679857210029  0.1039375950701853  0.6018724349468343
  0.2294267807900496  0.5358399623160963  0.3252528114239226
  0.1090557431355208  0.4319996290188897  0.0885983205647278
  0.8932021282154636  0.5403167183906703  0.8604572180637220
  0.7560483321013081  0.4395210587948384  0.6276072343799726
  0.5785649346721939  0.5224399541422002  0.3180119702061077
  0.4430488766593328  0.4272365874211559  0.0871698924462692
  0.2340785701496202  0.5212921323488899  0.8478112188372506
  0.1159244422525489  0.4426211376631599  0.5962407550419755
  0.8705221841862922  0.5455963864272491  0.3406795735682664
  0.7825820691037748  0.4274547202103633  0.0868407159540396
  0.5604620532131861  0.5201029205913059  0.8605028457457990
  0.4467409365189781  0.4258615231690968  0.6061912462242347
  0.2235742934977551  0.8700212860810908  0.3464933346413659
  0.0976692514585267  0.7553830599804385  0.0961891732054525
  0.8677822050086945  0.8856341891445183  0.8691244622521097
  0.7926995063607407  0.7654099162882133  0.6213454859879093
  0.5776773776810629  0.8602534897269791  0.3477106035903290
  0.4618646401221298  0.7538013025573207  0.0966757037187449
  0.2197902941283232  0.8717287930274509  0.8500142212604800
  0.0979021755752925  0.7540128874555521  0.5988667664062675
  0.8666683862824414  0.8817063244974008  0.3503037620488669
  0.7809957479529501  0.7586915770931100  0.1005356266928032
  0.5763497410773368  0.8616915298155021  0.8582134516807258
  0.4568834194123284  0.7377727751900665  0.6020568029952216
 
  0.00000000E+00  0.00000000E+00  0.00000000E+00
  0.00000000E+00  0.00000000E+00  0.00000000E+00
  0.00000000E+00  0.00000000E+00  0.00000000E+00
  0.00000000E+00  0.00000000E+00  0.00000000E+00
  0.00000000E+00  0.00000000E+00  0.00000000E+00
  0.00000000E+00  0.00000000E+00  0.00000000E+00
  0.00000000E+00  0.00000000E+00  0.00000000E+00
  0.00000000E+00  0.00000000E+00  0.00000000E+00
  0.00000000E+00  0.00000000E+00  0.00000000E+00
  0.00000000E+00  0.00000000E+00  0.00000000E+00
  0.00000000E+00  0.00000000E+00  0.00000000E+00
  0.00000000E+00  0.00000000E+00  0.00000000E+00
  0.00000000E+00  0.00000000E+00  0.00000000E+00
  0.00000000E+00  0.00000000E+00  0.00000000E+00
  0.00000000E+00  0.00000000E+00  0.00000000E+00
  0.00000000E+00  0.00000000E+00  0.00000000E+00
  0.00000000E+00  0.00000000E+00  0.00000000E+00
  0.00000000E+00  0.00000000E+00  0.00000000E+00
  0.00000000E+00  0.00000000E+00  0.00000000E+00
  0.00000000E+00  0.00000000E+00  0.00000000E+00
  0.00000000E+00  0.00000000E+00  0.00000000E+00
  0.00000000E+00  0.00000000E+00  0.00000000E+00
  0.00000000E+00  0.00000000E+00  0.00000000E+00
  0.00000000E+00  0.00000000E+00  0.00000000E+00
  0.00000000E+00  0.00000000E+00  0.00000000E+00
  0.00000000E+00  0.00000000E+00  0.00000000E+00
  0.00000000E+00  0.00000000E+00  0.00000000E+00
  0.00000000E+00  0.00000000E+00  0.00000000E+00
  0.00000000E+00  0.00000000E+00  0.00000000E+00
  0.00000000E+00  0.00000000E+00  0.00000000E+00
  0.00000000E+00  0.00000000E+00  0.00000000E+00
  0.00000000E+00  0.00000000E+00  0.00000000E+00
  0.00000000E+00  0.00000000E+00  0.00000000E+00
  0.00000000E+00  0.00000000E+00  0.00000000E+00
  0.00000000E+00  0.00000000E+00  0.00000000E+00
  0.00000000E+00  0.00000000E+00  0.00000000E+00
  0.00000000E+00  0.00000000E+00  0.00000000E+00
  0.00000000E+00  0.00000000E+00  0.00000000E+00
  0.00000000E+00  0.00000000E+00  0.00000000E+00
  0.00000000E+00  0.00000000E+00  0.00000000E+00
  0.00000000E+00  0.00000000E+00  0.00000000E+00
  0.00000000E+00  0.00000000E+00  0.00000000E+00
  0.00000000E+00  0.00000000E+00  0.00000000E+00
  0.00000000E+00  0.00000000E+00  0.00000000E+00
  0.00000000E+00  0.00000000E+00  0.00000000E+00
  0.00000000E+00  0.00000000E+00  0.00000000E+00
  0.00000000E+00  0.00000000E+00  0.00000000E+00
  0.00000000E+00  0.00000000E+00  0.00000000E+00
  0.00000000E+00  0.00000000E+00  0.00000000E+00
  0.00000000E+00  0.00000000E+00  0.00000000E+00
  0.00000000E+00  0.00000000E+00  0.00000000E+00
  0.00000000E+00  0.00000000E+00  0.00000000E+00
  0.00000000E+00  0.00000000E+00  0.00000000E+00
  0.00000000E+00  0.00000000E+00  0.00000000E+00
  0.00000000E+00  0.00000000E+00  0.00000000E+00
  0.00000000E+00  0.00000000E+00  0.00000000E+00
  0.00000000E+00  0.00000000E+00  0.00000000E+00
  0.00000000E+00  0.00000000E+00  0.00000000E+00
  0.00000000E+00  0.00000000E+00  0.00000000E+00
  0.00000000E+00  0.00000000E+00  0.00000000E+00
  0.00000000E+00  0.00000000E+00  0.00000000E+00
  0.00000000E+00  0.00000000E+00  0.00000000E+00
  0.00000000E+00  0.00000000E+00  0.00000000E+00
  0.00000000E+00  0.00000000E+00  0.00000000E+00
  0.00000000E+00  0.00000000E+00  0.00000000E+00
  0.00000000E+00  0.00000000E+00  0.00000000E+00
  0.00000000E+00  0.00000000E+00  0.00000000E+00
  0.00000000E+00  0.00000000E+00  0.00000000E+00
  0.00000000E+00  0.00000000E+00  0.00000000E+00
  0.00000000E+00  0.00000000E+00  0.00000000E+00
  0.00000000E+00  0.00000000E+00  0.00000000E+00
  0.00000000E+00  0.00000000E+00  0.00000000E+00
