Sc   Al   N                             
   1.00000000000000     
   -10.1678602316892164   -0.0351254107046270    0.0013987468139292
    -5.0687839670677519    8.7542711086059004   -0.0075001669024437
     0.0137764362010777    0.0055826544675311  -10.0752987742257520
   Sc   Al   N 
    16    20    36
Direct
  0.1010566025513882  0.1075161181059059  0.3170928878343631
  0.8727530728024178  0.2108071649211141  0.5773737079350525
  0.4531690571336995  0.0925872340156246  0.3151985961643362
  0.0986113658692318  0.1032347538422087  0.8394087977887992
  0.2270955509939085  0.2122180806012750  0.5892071860546579
  0.4524604720070755  0.0977684831479024  0.8449447114198492
  0.1052406887783306  0.4332049717820183  0.3209952563958112
  0.8851846020270528  0.5430665382868085  0.5854935127838203
  0.4520669897741953  0.4231898070339710  0.3345591031488766
  0.0985675450344630  0.7597556249911861  0.3262050519883601
  0.2243354744751827  0.8676281211983152  0.0829574807703679
  0.4627693982801588  0.7497643565889334  0.3246391853006898
  0.1004790517672944  0.7565774310669227  0.8313467079570813
  0.2214163295671980  0.8691457914857139  0.5735484175192838
  0.4548468318537644  0.7462271274823209  0.8327871002484386
  0.5656845151166934  0.8723596863240388  0.5836232998877620
  0.2152373397115710  0.2183548190265157  0.0586990424830844
  0.7696742160280294  0.0972644070786117  0.8246644311422315
  0.5610818980644581  0.2120690776251095  0.0663335546029771
  0.7743692529583655  0.0950672840299518  0.3189295992479231
  0.8758073290567623  0.2139056836777797  0.0690524707342846
  0.5623006998086595  0.2023656316330076  0.5756538033367704
  0.2272467621124363  0.5297018579633956  0.0633225573495650
  0.7702069648401419  0.4265929639352919  0.8282092308312343
  0.5634551479845982  0.5273915560468794  0.0678317626334177
  0.1119676179226019  0.4346918477248352  0.8252760808337243
  0.2244454653018408  0.5397809544101122  0.5776110571143676
  0.7768471104510866  0.4292298005087289  0.3147726774176647
  0.8882196694297448  0.5398102337662536  0.0654653814445254
  0.4519690781810723  0.4211654327365224  0.8192436395989944
  0.5597121324491354  0.5314417718798339  0.5744707405430276
  0.7838281617345544  0.7623185179724103  0.8263878906719739
  0.8807302173964402  0.8767176654481261  0.5708905844454080
  0.5706708261012992  0.8606425573238496  0.0638219033889484
  0.7775257900574246  0.7611492085694707  0.3161010577224062
  0.8786212464375964  0.8748059837711821  0.0708562837237210
  0.2267476233682615  0.2068137027783834  0.3766118469435327
  0.0977955318031150  0.1172866133656854  0.0990412679024359
  0.8634167565514161  0.2155409626069869  0.8781876036635055
  0.7693574147964171  0.0839183281984006  0.6351511181618790
  0.5758194497464757  0.1938725357071931  0.3859768768414185
  0.4459952127502760  0.0946759519732865  0.0947651074301561
  0.2123769194751688  0.2264249645886096  0.8690040872987339
  0.1035035717821131  0.0994423345433404  0.6241313605189589
  0.8686427420196807  0.2157067722744870  0.3638870826450002
  0.7756045767100943  0.0948780682587440  0.1271748048454029
  0.5668039241038088  0.2177644831460626  0.8802401098827914
  0.4572432583345432  0.1039457094060339  0.6311445494708465
  0.2239166277454387  0.5364447006425266  0.3897956083053344
  0.1097466625282735  0.4304427073364891  0.1084195354364894
  0.8896891158872791  0.5400796843044517  0.8725365798792240
  0.7583324430817129  0.4375762745178591  0.6423099391568314
  0.5804796907448235  0.5234985666397378  0.3856651852773467
  0.4447667756769391  0.4274325462503370  0.1206874802673639
  0.2398676585240480  0.5180342872871293  0.8749823582357692
  0.1166068020562463  0.4442648706381078  0.6357262016761140
  0.8707324109776025  0.5479753721763103  0.3689434452354234
  0.7777727129542953  0.4290618406964910  0.1214444041306137
  0.5644700088433012  0.5150603263397855  0.8816192506098446
  0.4474425470633605  0.4263552805677904  0.6231565418248621
  0.2234458343656769  0.8717920255706986  0.3494307600490316
  0.0982959339684939  0.7477149710785937  0.1078957963063942
  0.8653089990487217  0.8878669002379809  0.8846062283482397
  0.7917433898137958  0.7687978906915092  0.6400661242784125
  0.5757101147286292  0.8657133245118231  0.3718731889970570
  0.4695425435933842  0.7454962295273120  0.1063543407261562
  0.2217709319345005  0.8673646442178722  0.8717095074385384
  0.0976992836215729  0.7578667963031762  0.6128873275553559
  0.8658497777153968  0.8835344104261935  0.3779752096882163
  0.7807587848193478  0.7583502801067752  0.1236487692884083
  0.5788941056670680  0.8567089327145609  0.8744979630699348
  0.4541516321318824  0.7422862859900192  0.6163735918922626
 
  0.00000000E+00  0.00000000E+00  0.00000000E+00
  0.00000000E+00  0.00000000E+00  0.00000000E+00
  0.00000000E+00  0.00000000E+00  0.00000000E+00
  0.00000000E+00  0.00000000E+00  0.00000000E+00
  0.00000000E+00  0.00000000E+00  0.00000000E+00
  0.00000000E+00  0.00000000E+00  0.00000000E+00
  0.00000000E+00  0.00000000E+00  0.00000000E+00
  0.00000000E+00  0.00000000E+00  0.00000000E+00
  0.00000000E+00  0.00000000E+00  0.00000000E+00
  0.00000000E+00  0.00000000E+00  0.00000000E+00
  0.00000000E+00  0.00000000E+00  0.00000000E+00
  0.00000000E+00  0.00000000E+00  0.00000000E+00
  0.00000000E+00  0.00000000E+00  0.00000000E+00
  0.00000000E+00  0.00000000E+00  0.00000000E+00
  0.00000000E+00  0.00000000E+00  0.00000000E+00
  0.00000000E+00  0.00000000E+00  0.00000000E+00
  0.00000000E+00  0.00000000E+00  0.00000000E+00
  0.00000000E+00  0.00000000E+00  0.00000000E+00
  0.00000000E+00  0.00000000E+00  0.00000000E+00
  0.00000000E+00  0.00000000E+00  0.00000000E+00
  0.00000000E+00  0.00000000E+00  0.00000000E+00
  0.00000000E+00  0.00000000E+00  0.00000000E+00
  0.00000000E+00  0.00000000E+00  0.00000000E+00
  0.00000000E+00  0.00000000E+00  0.00000000E+00
  0.00000000E+00  0.00000000E+00  0.00000000E+00
  0.00000000E+00  0.00000000E+00  0.00000000E+00
  0.00000000E+00  0.00000000E+00  0.00000000E+00
  0.00000000E+00  0.00000000E+00  0.00000000E+00
  0.00000000E+00  0.00000000E+00  0.00000000E+00
  0.00000000E+00  0.00000000E+00  0.00000000E+00
  0.00000000E+00  0.00000000E+00  0.00000000E+00
  0.00000000E+00  0.00000000E+00  0.00000000E+00
  0.00000000E+00  0.00000000E+00  0.00000000E+00
  0.00000000E+00  0.00000000E+00  0.00000000E+00
  0.00000000E+00  0.00000000E+00  0.00000000E+00
  0.00000000E+00  0.00000000E+00  0.00000000E+00
  0.00000000E+00  0.00000000E+00  0.00000000E+00
  0.00000000E+00  0.00000000E+00  0.00000000E+00
  0.00000000E+00  0.00000000E+00  0.00000000E+00
  0.00000000E+00  0.00000000E+00  0.00000000E+00
  0.00000000E+00  0.00000000E+00  0.00000000E+00
  0.00000000E+00  0.00000000E+00  0.00000000E+00
  0.00000000E+00  0.00000000E+00  0.00000000E+00
  0.00000000E+00  0.00000000E+00  0.00000000E+00
  0.00000000E+00  0.00000000E+00  0.00000000E+00
  0.00000000E+00  0.00000000E+00  0.00000000E+00
  0.00000000E+00  0.00000000E+00  0.00000000E+00
  0.00000000E+00  0.00000000E+00  0.00000000E+00
  0.00000000E+00  0.00000000E+00  0.00000000E+00
  0.00000000E+00  0.00000000E+00  0.00000000E+00
  0.00000000E+00  0.00000000E+00  0.00000000E+00
  0.00000000E+00  0.00000000E+00  0.00000000E+00
  0.00000000E+00  0.00000000E+00  0.00000000E+00
  0.00000000E+00  0.00000000E+00  0.00000000E+00
  0.00000000E+00  0.00000000E+00  0.00000000E+00
  0.00000000E+00  0.00000000E+00  0.00000000E+00
  0.00000000E+00  0.00000000E+00  0.00000000E+00
  0.00000000E+00  0.00000000E+00  0.00000000E+00
  0.00000000E+00  0.00000000E+00  0.00000000E+00
  0.00000000E+00  0.00000000E+00  0.00000000E+00
  0.00000000E+00  0.00000000E+00  0.00000000E+00
  0.00000000E+00  0.00000000E+00  0.00000000E+00
  0.00000000E+00  0.00000000E+00  0.00000000E+00
  0.00000000E+00  0.00000000E+00  0.00000000E+00
  0.00000000E+00  0.00000000E+00  0.00000000E+00
  0.00000000E+00  0.00000000E+00  0.00000000E+00
  0.00000000E+00  0.00000000E+00  0.00000000E+00
  0.00000000E+00  0.00000000E+00  0.00000000E+00
  0.00000000E+00  0.00000000E+00  0.00000000E+00
  0.00000000E+00  0.00000000E+00  0.00000000E+00
  0.00000000E+00  0.00000000E+00  0.00000000E+00
  0.00000000E+00  0.00000000E+00  0.00000000E+00
