Al   Gd   N                             
   1.00000000000000     
    -9.8836394378392392   -0.0074661345775348    0.0105679638902830
    -4.9438481792880298    8.5525466840021593    0.0114537960901903
     0.1854484404232799   -0.0988745822418046  -10.5762515168403617
   Al   Gd   N 
    28     8    36
Direct
  0.1126928219859096  0.0903243180117670  0.3187141469245063
  0.2302883915184992  0.2173548905420617  0.0497094019788591
  0.8916495295356626  0.1976422810269440  0.5631593351415276
  0.5605781152743177  0.2212485412374008  0.1200256857138697
  0.1097930074733000  0.1031321290100067  0.8108671147681932
  0.2114333760712910  0.1965472275570121  0.5730350387179328
  0.8072148666423047  0.0828116815493445  0.2961445526318087
  0.9043878394061124  0.2261791932022490  0.0564830517012496
  0.4319943736180747  0.0922326504827424  0.8050005536380027
  0.5334169575242527  0.2099164574842050  0.6303966981043416
  0.2285105470317745  0.5442595683605447  0.1147020481809378
  0.7947122465676912  0.4255432383755036  0.8075217693057937
  0.8862876253282295  0.5266560230551107  0.5711604398374064
  0.4319676353036570  0.4362458011369483  0.3681651064452112
  0.5695909527231180  0.5467893566002644  0.0412521221412661
  0.1108072874830626  0.4240580873942008  0.8098052562362312
  0.2205682832860631  0.5237571545357227  0.6187443487225863
  0.8963302608736399  0.5431865235894406  0.0356223251249972
  0.4271707368960307  0.4335226548454898  0.8756274067438881
  0.1316415409324563  0.7578027647727836  0.3717507567398002
  0.7731881533569052  0.7535838053832578  0.8082216815964500
  0.4368007751735590  0.7623330707528524  0.3169914078560296
  0.5629553846609809  0.8808020591255641  0.0485930401552395
  0.1161185283994186  0.7461936506912608  0.8674469944111109
  0.2184726987899310  0.8675154237913105  0.6371285014393209
  0.8931364860362265  0.8631652324682477  0.0411295273916181
  0.4469053735526956  0.7677434282508599  0.8168742996425422
  0.5453155158953678  0.8612833266487456  0.5715176432141007
  0.7671342667758836  0.1124803535611889  0.8418113491671804
  0.4548414343650435  0.1048977969259539  0.3520820630990258
  0.1051970334042451  0.4122360635838334  0.3028821697238655
  0.7526397507921629  0.4161733455631094  0.3101854631187351
  0.5393180457396625  0.5277796582028245  0.5974431399737909
  0.2236032597828412  0.8855782729906210  0.0863229039166100
  0.8847318475564165  0.8722092875685945  0.5771261459754342
  0.7707031211382329  0.7565133985344445  0.2982617479339069
  0.2126837289511698  0.1849267367092082  0.3981995088982728
  0.1015348081542200  0.1490442014613294  0.1370807007367745
  0.9123047999355265  0.2250493922089163  0.8792333431051063
  0.7521786157308057  0.1298317789429575  0.6205211139121687
  0.5891194521452974  0.2408621668080499  0.2949939493224392
  0.4506345944059262  0.1006906255988866  0.1105678234439083
  0.2244048740854510  0.2016687792804177  0.8658050427849275
  0.1029851950217804  0.0892720687351627  0.6306787079453215
  0.9113656892688269  0.1715442173884512  0.3827616737026531
  0.8009780841857648  0.0902270416342503  0.0934168439009682
  0.5088290719830226  0.2326596300729094  0.8112196239231579
  0.4386411952539717  0.0808070278306232  0.6179879517409574
  0.2312332572828666  0.5529549664165714  0.2957366948229634
  0.1160529889535908  0.4357472629214669  0.0817741277014647
  0.8928573022463482  0.5399621737868472  0.8575014694179117
  0.8022138168341968  0.4050062927122298  0.6267104817515019
  0.5155206249051858  0.5665484786647923  0.3856926270676766
  0.4474870442219583  0.4350421497245378  0.0549851204306648
  0.2249772484149091  0.5413490079616281  0.8031940927672139
  0.1033179208917403  0.4171303167684925  0.6250221337490061
  0.8796489684242772  0.5323919165627231  0.3933784511639544
  0.7815382226513847  0.4416061578992085  0.0952844157460433
  0.5611705559260471  0.5398275289348220  0.8531574217124671
  0.4104515227542151  0.3889000930436382  0.5386550295855983
  0.2189169649107825  0.8725982631089906  0.3088830205678619
  0.1098146811343170  0.7423170659479297  0.0462703508069708
  0.8946962605504112  0.8512564994859630  0.8457591155222630
  0.7583641030107984  0.7414096440506341  0.6280614586745017
  0.5398456268887628  0.8590825452201472  0.3923867763370055
  0.4856239694743465  0.7506045610937448  0.1167681153286466
  0.2153608622289767  0.8726765489881956  0.8370198041212831
  0.1539120972950272  0.7329499363354941  0.5599903992206308
  0.9017045934729069  0.8773370771390958  0.3571683919148327
  0.7833314520891648  0.7631078664915947  0.0818538524781189
  0.5526609152663298  0.8795269541903110  0.8674368866779787
  0.4305007613858294  0.7823308881964621  0.6414548053133302
 
  0.00000000E+00  0.00000000E+00  0.00000000E+00
  0.00000000E+00  0.00000000E+00  0.00000000E+00
  0.00000000E+00  0.00000000E+00  0.00000000E+00
  0.00000000E+00  0.00000000E+00  0.00000000E+00
  0.00000000E+00  0.00000000E+00  0.00000000E+00
  0.00000000E+00  0.00000000E+00  0.00000000E+00
  0.00000000E+00  0.00000000E+00  0.00000000E+00
  0.00000000E+00  0.00000000E+00  0.00000000E+00
  0.00000000E+00  0.00000000E+00  0.00000000E+00
  0.00000000E+00  0.00000000E+00  0.00000000E+00
  0.00000000E+00  0.00000000E+00  0.00000000E+00
  0.00000000E+00  0.00000000E+00  0.00000000E+00
  0.00000000E+00  0.00000000E+00  0.00000000E+00
  0.00000000E+00  0.00000000E+00  0.00000000E+00
  0.00000000E+00  0.00000000E+00  0.00000000E+00
  0.00000000E+00  0.00000000E+00  0.00000000E+00
  0.00000000E+00  0.00000000E+00  0.00000000E+00
  0.00000000E+00  0.00000000E+00  0.00000000E+00
  0.00000000E+00  0.00000000E+00  0.00000000E+00
  0.00000000E+00  0.00000000E+00  0.00000000E+00
  0.00000000E+00  0.00000000E+00  0.00000000E+00
  0.00000000E+00  0.00000000E+00  0.00000000E+00
  0.00000000E+00  0.00000000E+00  0.00000000E+00
  0.00000000E+00  0.00000000E+00  0.00000000E+00
  0.00000000E+00  0.00000000E+00  0.00000000E+00
  0.00000000E+00  0.00000000E+00  0.00000000E+00
  0.00000000E+00  0.00000000E+00  0.00000000E+00
  0.00000000E+00  0.00000000E+00  0.00000000E+00
  0.00000000E+00  0.00000000E+00  0.00000000E+00
  0.00000000E+00  0.00000000E+00  0.00000000E+00
  0.00000000E+00  0.00000000E+00  0.00000000E+00
  0.00000000E+00  0.00000000E+00  0.00000000E+00
  0.00000000E+00  0.00000000E+00  0.00000000E+00
  0.00000000E+00  0.00000000E+00  0.00000000E+00
  0.00000000E+00  0.00000000E+00  0.00000000E+00
  0.00000000E+00  0.00000000E+00  0.00000000E+00
  0.00000000E+00  0.00000000E+00  0.00000000E+00
  0.00000000E+00  0.00000000E+00  0.00000000E+00
  0.00000000E+00  0.00000000E+00  0.00000000E+00
  0.00000000E+00  0.00000000E+00  0.00000000E+00
  0.00000000E+00  0.00000000E+00  0.00000000E+00
  0.00000000E+00  0.00000000E+00  0.00000000E+00
  0.00000000E+00  0.00000000E+00  0.00000000E+00
  0.00000000E+00  0.00000000E+00  0.00000000E+00
  0.00000000E+00  0.00000000E+00  0.00000000E+00
  0.00000000E+00  0.00000000E+00  0.00000000E+00
  0.00000000E+00  0.00000000E+00  0.00000000E+00
  0.00000000E+00  0.00000000E+00  0.00000000E+00
  0.00000000E+00  0.00000000E+00  0.00000000E+00
  0.00000000E+00  0.00000000E+00  0.00000000E+00
  0.00000000E+00  0.00000000E+00  0.00000000E+00
  0.00000000E+00  0.00000000E+00  0.00000000E+00
  0.00000000E+00  0.00000000E+00  0.00000000E+00
  0.00000000E+00  0.00000000E+00  0.00000000E+00
  0.00000000E+00  0.00000000E+00  0.00000000E+00
  0.00000000E+00  0.00000000E+00  0.00000000E+00
  0.00000000E+00  0.00000000E+00  0.00000000E+00
  0.00000000E+00  0.00000000E+00  0.00000000E+00
  0.00000000E+00  0.00000000E+00  0.00000000E+00
  0.00000000E+00  0.00000000E+00  0.00000000E+00
  0.00000000E+00  0.00000000E+00  0.00000000E+00
  0.00000000E+00  0.00000000E+00  0.00000000E+00
  0.00000000E+00  0.00000000E+00  0.00000000E+00
  0.00000000E+00  0.00000000E+00  0.00000000E+00
  0.00000000E+00  0.00000000E+00  0.00000000E+00
  0.00000000E+00  0.00000000E+00  0.00000000E+00
  0.00000000E+00  0.00000000E+00  0.00000000E+00
  0.00000000E+00  0.00000000E+00  0.00000000E+00
  0.00000000E+00  0.00000000E+00  0.00000000E+00
  0.00000000E+00  0.00000000E+00  0.00000000E+00
  0.00000000E+00  0.00000000E+00  0.00000000E+00
  0.00000000E+00  0.00000000E+00  0.00000000E+00
