Al   Gd   N                             
   1.00000000000000     
    -9.8798693178883159   -0.0109597327761137    0.0262509386315513
    -4.9302941991638223    8.5634907834895966    0.0287200022106993
     0.0286658788834807   -0.0197037348045333  -10.4095235269945814
   Al   Gd   N 
    28     8    36
Direct
  0.1081498105604197  0.0914690079603488  0.3104752063935763
  0.2192700701030432  0.2117670161332796  0.0331615200909070
  0.8970944198380408  0.1982870288570240  0.5522689971472374
  0.5430841054145930  0.2139915615844998  0.0484893446937349
  0.1168546704147744  0.0934459453398517  0.7937245130335668
  0.2180203798577480  0.2041460236075423  0.5635036364984813
  0.7863098843984488  0.0923077442407561  0.2941598987961882
  0.8954975134519430  0.2182244546688352  0.0453278415212779
  0.4388657847589386  0.0997682012237533  0.7962023100979039
  0.5541350435380252  0.2127317747692103  0.5504040305534872
  0.2206942424523390  0.5365019055755766  0.0392135127111359
  0.7933415515327482  0.4225430263227139  0.8000266778343104
  0.8942370516700606  0.5296047412809131  0.5665422497849164
  0.4398724115968946  0.4392901294190352  0.2961413230195333
  0.5589864136887712  0.5414549094157692  0.0377786565321259
  0.1147989306013599  0.4288303499323263  0.7988312231502661
  0.2290852070518383  0.5323214006768424  0.5543777189406711
  0.8913208479361501  0.5378727241717129  0.0238461537623778
  0.4327992203565216  0.4283044469268660  0.8016857915914954
  0.1134570782133650  0.7582118104963556  0.3000972518863136
  0.7759859308118280  0.7528290564875348  0.8030943190600155
  0.4400237501246167  0.7591627234230316  0.3017961361262635
  0.5574384631259690  0.8741193449764140  0.0328224162775399
  0.1254854327295334  0.7519928717970075  0.7953774804690923
  0.2237802631556178  0.8762762954523353  0.5498862867602128
  0.8962044360671371  0.8568377214581133  0.0385822538382925
  0.4359023806320508  0.7738519311644509  0.7986418329379816
  0.5466156256406549  0.8741713820086119  0.5627369449968640
  0.7740239815798162  0.1029104450029337  0.8196811663183681
  0.4418180691349747  0.0939190596814754  0.3107420445749014
  0.1134758789446337  0.4240623714623624  0.2959100882528105
  0.7743888584133884  0.4154780839657803  0.2971497873058198
  0.5522054037668056  0.5427154241717247  0.5681731742108269
  0.2186160448059056  0.8784027786312691  0.0650704291882107
  0.8910212185762560  0.8669742526997766  0.5579122092937538
  0.7680544345806837  0.7582537550468018  0.2864931036267535
  0.2053321153304850  0.1929766285661287  0.3849426413276831
  0.0966682512341350  0.1349139548336566  0.1248400678250050
  0.9149594814123319  0.2162923295759498  0.8660208640366918
  0.7634672101227054  0.1215580240515095  0.6056407653932538
  0.5716860840494320  0.2262523062955850  0.3596867758296156
  0.4402453624204909  0.0937888023410665  0.0896685845090559
  0.2233067016601211  0.2032350208767824  0.8461460522227142
  0.1101870016010977  0.0891413455255403  0.6107758018890763
  0.9054359310814633  0.1719655879798836  0.3697478866798747
  0.7801037033481464  0.0974674105878321  0.0928799643126510
  0.5199288315488957  0.2240188463972501  0.8679322966636036
  0.4482076851658690  0.0965589027369518  0.6047715990637386
  0.2336879803516254  0.5498390613919071  0.3694099928566672
  0.1100008684423770  0.4284478139240662  0.0732805010362583
  0.8943057845236169  0.5361694670340782  0.8438222328389244
  0.8104114342674791  0.4040601551470218  0.6164356960008277
  0.5280470653189795  0.5548450383471533  0.3523034016475322
  0.4405315654309092  0.4338360943532535  0.1050837454739266
  0.2225137585684820  0.5421710475067272  0.8562749400223595
  0.1146556703238844  0.4288037654582340  0.6113492712577653
  0.8866695782164342  0.5370234298367293  0.3853557852007583
  0.7763121007885658  0.4362843249976507  0.0787062749000995
  0.5538267836932818  0.5408674354865184  0.8452898310972401
  0.4303213310871001  0.4111245746952648  0.6209824490292135
  0.2209623998231365  0.8710599366807443  0.3461558858403677
  0.0996401824820765  0.7395255930881675  0.1147919928757588
  0.9093763039884806  0.8416344207397515  0.8487953089664657
  0.7590219957026036  0.7446249921247983  0.6194762525025226
  0.5393760882676872  0.8565288865525247  0.3818464903180399
  0.4767803467982574  0.7506278597888922  0.1125444276227796
  0.2193055077945374  0.8761147275219230  0.8495182434896620
  0.1463742473970058  0.7439776240930627  0.6120529097608696
  0.8965965803750606  0.8803336165705673  0.3416229888279148
  0.7771983964216034  0.7586711944983122  0.0673063600954578
  0.5507966792497783  0.8782768962706626  0.8506882547228258
  0.4225837200176272  0.7957273247137877  0.6204234102802175
 
  0.00000000E+00  0.00000000E+00  0.00000000E+00
  0.00000000E+00  0.00000000E+00  0.00000000E+00
  0.00000000E+00  0.00000000E+00  0.00000000E+00
  0.00000000E+00  0.00000000E+00  0.00000000E+00
  0.00000000E+00  0.00000000E+00  0.00000000E+00
  0.00000000E+00  0.00000000E+00  0.00000000E+00
  0.00000000E+00  0.00000000E+00  0.00000000E+00
  0.00000000E+00  0.00000000E+00  0.00000000E+00
  0.00000000E+00  0.00000000E+00  0.00000000E+00
  0.00000000E+00  0.00000000E+00  0.00000000E+00
  0.00000000E+00  0.00000000E+00  0.00000000E+00
  0.00000000E+00  0.00000000E+00  0.00000000E+00
  0.00000000E+00  0.00000000E+00  0.00000000E+00
  0.00000000E+00  0.00000000E+00  0.00000000E+00
  0.00000000E+00  0.00000000E+00  0.00000000E+00
  0.00000000E+00  0.00000000E+00  0.00000000E+00
  0.00000000E+00  0.00000000E+00  0.00000000E+00
  0.00000000E+00  0.00000000E+00  0.00000000E+00
  0.00000000E+00  0.00000000E+00  0.00000000E+00
  0.00000000E+00  0.00000000E+00  0.00000000E+00
  0.00000000E+00  0.00000000E+00  0.00000000E+00
  0.00000000E+00  0.00000000E+00  0.00000000E+00
  0.00000000E+00  0.00000000E+00  0.00000000E+00
  0.00000000E+00  0.00000000E+00  0.00000000E+00
  0.00000000E+00  0.00000000E+00  0.00000000E+00
  0.00000000E+00  0.00000000E+00  0.00000000E+00
  0.00000000E+00  0.00000000E+00  0.00000000E+00
  0.00000000E+00  0.00000000E+00  0.00000000E+00
  0.00000000E+00  0.00000000E+00  0.00000000E+00
  0.00000000E+00  0.00000000E+00  0.00000000E+00
  0.00000000E+00  0.00000000E+00  0.00000000E+00
  0.00000000E+00  0.00000000E+00  0.00000000E+00
  0.00000000E+00  0.00000000E+00  0.00000000E+00
  0.00000000E+00  0.00000000E+00  0.00000000E+00
  0.00000000E+00  0.00000000E+00  0.00000000E+00
  0.00000000E+00  0.00000000E+00  0.00000000E+00
  0.00000000E+00  0.00000000E+00  0.00000000E+00
  0.00000000E+00  0.00000000E+00  0.00000000E+00
  0.00000000E+00  0.00000000E+00  0.00000000E+00
  0.00000000E+00  0.00000000E+00  0.00000000E+00
  0.00000000E+00  0.00000000E+00  0.00000000E+00
  0.00000000E+00  0.00000000E+00  0.00000000E+00
  0.00000000E+00  0.00000000E+00  0.00000000E+00
  0.00000000E+00  0.00000000E+00  0.00000000E+00
  0.00000000E+00  0.00000000E+00  0.00000000E+00
  0.00000000E+00  0.00000000E+00  0.00000000E+00
  0.00000000E+00  0.00000000E+00  0.00000000E+00
  0.00000000E+00  0.00000000E+00  0.00000000E+00
  0.00000000E+00  0.00000000E+00  0.00000000E+00
  0.00000000E+00  0.00000000E+00  0.00000000E+00
  0.00000000E+00  0.00000000E+00  0.00000000E+00
  0.00000000E+00  0.00000000E+00  0.00000000E+00
  0.00000000E+00  0.00000000E+00  0.00000000E+00
  0.00000000E+00  0.00000000E+00  0.00000000E+00
  0.00000000E+00  0.00000000E+00  0.00000000E+00
  0.00000000E+00  0.00000000E+00  0.00000000E+00
  0.00000000E+00  0.00000000E+00  0.00000000E+00
  0.00000000E+00  0.00000000E+00  0.00000000E+00
  0.00000000E+00  0.00000000E+00  0.00000000E+00
  0.00000000E+00  0.00000000E+00  0.00000000E+00
  0.00000000E+00  0.00000000E+00  0.00000000E+00
  0.00000000E+00  0.00000000E+00  0.00000000E+00
  0.00000000E+00  0.00000000E+00  0.00000000E+00
  0.00000000E+00  0.00000000E+00  0.00000000E+00
  0.00000000E+00  0.00000000E+00  0.00000000E+00
  0.00000000E+00  0.00000000E+00  0.00000000E+00
  0.00000000E+00  0.00000000E+00  0.00000000E+00
  0.00000000E+00  0.00000000E+00  0.00000000E+00
  0.00000000E+00  0.00000000E+00  0.00000000E+00
  0.00000000E+00  0.00000000E+00  0.00000000E+00
  0.00000000E+00  0.00000000E+00  0.00000000E+00
  0.00000000E+00  0.00000000E+00  0.00000000E+00
