supercell of 100% icsd_608626.cif, 0% i 
   1.00000000000000     
    -9.6167306732002107   -0.0445416090001845   -0.0645064099986735
    -4.7698925662833265    8.3037193671773419   -0.0078019693036681
    -0.0687870951188138   -0.0302936229042374  -10.2270238231310024
   Al   Sr   Ge   N 
    30     3     3    36
Direct
  0.1067089938804671  0.0998909700569257  0.2988844092619019
  0.2105797016447255  0.2119700209883533  0.0304464160316655
  0.7880824392973480  0.0882390731948632  0.7875610758612410
  0.8937837063067207  0.2068054945534286  0.5448617133430815
  0.1037090492946930  0.0974057082028494  0.7944450512971315
  0.2117380229816916  0.2104668009229513  0.5482287092464802
  0.7971112933891149  0.0829829529340458  0.3135536649615673
  0.9004102915245298  0.2004849553370960  0.0574455204656275
  0.4333862437247689  0.0941886449673319  0.8196062995666367
  0.0980115197068230  0.4343509274887438  0.2991176492807242
  0.2147284851749305  0.5469679284414681  0.0375255154500778
  0.7808884526540680  0.4257836852670778  0.7976664726082419
  0.8896127035973649  0.5352561822663588  0.5415423526562506
  0.5522398933746686  0.5505354968325165  0.0428969047779688
  0.1015256033307708  0.4331589207377391  0.7924786628314777
  0.2088537822404533  0.5455970017913785  0.5464492282479014
  0.7799819087922586  0.4293182153275481  0.2986253208295153
  0.8872001615434257  0.5403477682730511  0.0487954905587884
  0.4323484081876572  0.4373783568171277  0.7901184061028985
  0.5634504395321684  0.5355272025126609  0.5454790740333237
  0.1078198142051576  0.7606914701184593  0.2954448698506340
  0.2256077412509470  0.8722353241405258  0.0544396207258160
  0.7826931979026170  0.7566670594619183  0.7966207358204258
  0.8956530422992515  0.8671449099611479  0.5431108292463449
  0.4516144313309880  0.7550194081438306  0.3001950574507504
  0.5579542854857138  0.8646227488220433  0.0328010330735395
  0.1059639161951296  0.7634120534417832  0.7972233829049955
  0.2154491051901459  0.8753264970525407  0.5428670495840606
  0.7838192575225946  0.7558177318363022  0.2999055288021992
  0.8964497931124242  0.8705312127677729  0.0559039273269946
  0.4437366796885343  0.0934222092183390  0.2707745396233889
  0.5858394957586199  0.2051892192037172  0.0215918018187793
  0.4456880630806239  0.4191853362707647  0.2995664140232179
  0.5647199175179196  0.1972340633086773  0.5727837331161894
  0.4429520198322123  0.7596641828098569  0.7928731076022544
  0.5589641068102082  0.8709684065486414  0.5458415193846946
  0.1878915296639079  0.2256145172785153  0.3674989024127129
  0.1180933348224542  0.0956044543887700  0.1079722203213151
  0.8841278899629259  0.2044742317927444  0.8627929011920088
  0.7996948890556865  0.0829823959345575  0.6068046711169330
  0.5992175311475307  0.1676762673256391  0.3957683396245315
  0.4296879348687881  0.0837972495150154  0.0274947020779308
  0.2015699648880656  0.2162410143671494  0.8435207889367078
  0.1094794563304973  0.0911626905883480  0.6080051534745792
  0.8915956091479558  0.2095095315305144  0.3602197979578960
  0.8256681538852249  0.0713882390811662  0.1322079119695161
  0.5556989628203866  0.2065028476779531  0.7913039297394988
  0.4363128892542107  0.0862539664358195  0.6105740744335151
  0.1793838036989115  0.5592442077161479  0.3675387152759129
  0.1087614169703528  0.4294963758666626  0.1034292641258503
  0.8847075855369440  0.5410949721377847  0.8583720979745948
  0.7802696655413399  0.4253353681772936  0.6100909659067852
  0.5751620215296640  0.5519750751407670  0.3676119229360282
  0.4229938433108060  0.4679105943801289  0.0703501379305607
  0.2106293921929918  0.5443703786915890  0.8469145753829181
  0.1035042153729364  0.4315998072322600  0.6080158772483273
  0.8845169444528551  0.5404656852567413  0.3546374046888943
  0.7748727119084009  0.4282293214220161  0.1051427176820425
  0.5548918640439808  0.5433859051437437  0.8470547836224611
  0.4353044500874077  0.4395500474812124  0.5986896422807817
  0.2245854854134706  0.8716217475235695  0.3544051487316366
  0.1127038713970094  0.7607826859387359  0.1050563906808648
  0.8846024704032658  0.8752561786936965  0.8609362638235609
  0.7784280414267783  0.7606657386324400  0.6073863938787838
  0.5732184976812675  0.8432365921161349  0.3687515178834886
  0.4475490360511003  0.7664435921105124  0.1090478940345250
  0.2248707039027522  0.8715298066714894  0.8579964039570100
  0.1097478693286504  0.7645491839765768  0.6102622741723351
  0.8949379787861105  0.8637611349824610  0.3595322702715222
  0.7734074308182386  0.7657187933931056  0.1068242047350623
  0.5616228186181189  0.8560595678351461  0.8435533426728412
  0.4410137683172763  0.7627216935437673  0.6065653090792154
 
  0.00000000E+00  0.00000000E+00  0.00000000E+00
  0.00000000E+00  0.00000000E+00  0.00000000E+00
  0.00000000E+00  0.00000000E+00  0.00000000E+00
  0.00000000E+00  0.00000000E+00  0.00000000E+00
  0.00000000E+00  0.00000000E+00  0.00000000E+00
  0.00000000E+00  0.00000000E+00  0.00000000E+00
  0.00000000E+00  0.00000000E+00  0.00000000E+00
  0.00000000E+00  0.00000000E+00  0.00000000E+00
  0.00000000E+00  0.00000000E+00  0.00000000E+00
  0.00000000E+00  0.00000000E+00  0.00000000E+00
  0.00000000E+00  0.00000000E+00  0.00000000E+00
  0.00000000E+00  0.00000000E+00  0.00000000E+00
  0.00000000E+00  0.00000000E+00  0.00000000E+00
  0.00000000E+00  0.00000000E+00  0.00000000E+00
  0.00000000E+00  0.00000000E+00  0.00000000E+00
  0.00000000E+00  0.00000000E+00  0.00000000E+00
  0.00000000E+00  0.00000000E+00  0.00000000E+00
  0.00000000E+00  0.00000000E+00  0.00000000E+00
  0.00000000E+00  0.00000000E+00  0.00000000E+00
  0.00000000E+00  0.00000000E+00  0.00000000E+00
  0.00000000E+00  0.00000000E+00  0.00000000E+00
  0.00000000E+00  0.00000000E+00  0.00000000E+00
  0.00000000E+00  0.00000000E+00  0.00000000E+00
  0.00000000E+00  0.00000000E+00  0.00000000E+00
  0.00000000E+00  0.00000000E+00  0.00000000E+00
  0.00000000E+00  0.00000000E+00  0.00000000E+00
  0.00000000E+00  0.00000000E+00  0.00000000E+00
  0.00000000E+00  0.00000000E+00  0.00000000E+00
  0.00000000E+00  0.00000000E+00  0.00000000E+00
  0.00000000E+00  0.00000000E+00  0.00000000E+00
  0.00000000E+00  0.00000000E+00  0.00000000E+00
  0.00000000E+00  0.00000000E+00  0.00000000E+00
  0.00000000E+00  0.00000000E+00  0.00000000E+00
  0.00000000E+00  0.00000000E+00  0.00000000E+00
  0.00000000E+00  0.00000000E+00  0.00000000E+00
  0.00000000E+00  0.00000000E+00  0.00000000E+00
  0.00000000E+00  0.00000000E+00  0.00000000E+00
  0.00000000E+00  0.00000000E+00  0.00000000E+00
  0.00000000E+00  0.00000000E+00  0.00000000E+00
  0.00000000E+00  0.00000000E+00  0.00000000E+00
  0.00000000E+00  0.00000000E+00  0.00000000E+00
  0.00000000E+00  0.00000000E+00  0.00000000E+00
  0.00000000E+00  0.00000000E+00  0.00000000E+00
  0.00000000E+00  0.00000000E+00  0.00000000E+00
  0.00000000E+00  0.00000000E+00  0.00000000E+00
  0.00000000E+00  0.00000000E+00  0.00000000E+00
  0.00000000E+00  0.00000000E+00  0.00000000E+00
  0.00000000E+00  0.00000000E+00  0.00000000E+00
  0.00000000E+00  0.00000000E+00  0.00000000E+00
  0.00000000E+00  0.00000000E+00  0.00000000E+00
  0.00000000E+00  0.00000000E+00  0.00000000E+00
  0.00000000E+00  0.00000000E+00  0.00000000E+00
  0.00000000E+00  0.00000000E+00  0.00000000E+00
  0.00000000E+00  0.00000000E+00  0.00000000E+00
  0.00000000E+00  0.00000000E+00  0.00000000E+00
  0.00000000E+00  0.00000000E+00  0.00000000E+00
  0.00000000E+00  0.00000000E+00  0.00000000E+00
  0.00000000E+00  0.00000000E+00  0.00000000E+00
  0.00000000E+00  0.00000000E+00  0.00000000E+00
  0.00000000E+00  0.00000000E+00  0.00000000E+00
  0.00000000E+00  0.00000000E+00  0.00000000E+00
  0.00000000E+00  0.00000000E+00  0.00000000E+00
  0.00000000E+00  0.00000000E+00  0.00000000E+00
  0.00000000E+00  0.00000000E+00  0.00000000E+00
  0.00000000E+00  0.00000000E+00  0.00000000E+00
  0.00000000E+00  0.00000000E+00  0.00000000E+00
  0.00000000E+00  0.00000000E+00  0.00000000E+00
  0.00000000E+00  0.00000000E+00  0.00000000E+00
  0.00000000E+00  0.00000000E+00  0.00000000E+00
  0.00000000E+00  0.00000000E+00  0.00000000E+00
  0.00000000E+00  0.00000000E+00  0.00000000E+00
  0.00000000E+00  0.00000000E+00  0.00000000E+00
