supercell of 100% icsd_608626.cif, 0% i 
   1.00000000000000     
    -9.6950298219940017    0.0392700907142450    0.0343543277240753
    -4.8816836941249662    8.3070832521633999    0.0316105324039677
     0.0365941189695499   -0.0177455739313452  -10.2054154273742128
   Al   Sr   Ge   N 
    30     3     3    36
Direct
  0.1154000945088640  0.0981987613502966  0.2960319752111076
  0.2223172766687611  0.2093663520459899  0.0461527142448688
  0.8912183228637360  0.2086640702486093  0.5326068226982485
  0.4408819253008289  0.0983836489582472  0.2947693955164254
  0.5523333773790498  0.2075876205694982  0.0519728894687503
  0.1157499948126457  0.1040178569030203  0.7970536934286514
  0.2171917341368612  0.2093776801455220  0.5460114848776172
  0.7771998703434662  0.1035200838043835  0.2962004661725501
  0.8898549842410546  0.2122713350648198  0.0501073953255471
  0.5564244036885597  0.2114063989703325  0.5301357569746301
  0.1100042317560934  0.4297983685595739  0.2972166851188263
  0.2268173899818606  0.5312965789526913  0.0462831396737897
  0.7832928297801445  0.4274681407066794  0.7977210820588994
  0.8845028077085075  0.5294913722720977  0.5527239372458368
  0.4437836205931163  0.4299415461992240  0.2910281778076822
  0.5577042501323248  0.5349932216528828  0.0454555908206657
  0.1093756111021733  0.4289047214277062  0.7980780764908531
  0.2337740564452275  0.5318870490353049  0.5376576734242065
  0.7778133394920275  0.4327323120274897  0.2952232922330822
  0.8875129684455416  0.5364344184905292  0.0448923889559794
  0.4355021873937091  0.4259700434054992  0.7978016953908593
  0.5570446982608104  0.5308159509214505  0.5487450149799642
  0.1212825290623911  0.7595624834726493  0.2879668819445342
  0.7686958437053875  0.7546908049796031  0.8140212918298531
  0.4471920457134004  0.7583652242144936  0.2982685022496767
  0.5527564117668149  0.8741278502970715  0.0472139285639770
  0.2261570160845778  0.8729669250451764  0.5359600946712391
  0.7767729348297081  0.7549632719174824  0.2855456660151745
  0.8767088819289484  0.8758741912811203  0.0727570882928461
  0.4464766711886980  0.7600600021595056  0.7973478159850558
  0.7776240024645062  0.0997477510856797  0.7884961746878218
  0.8906439164484965  0.8450147125883234  0.5231786814629231
  0.1018036512477778  0.7704291095357902  0.8034324884290172
  0.4405809846742343  0.0961426945745671  0.8029953069839237
  0.2291978818682168  0.8777161993953300  0.0477958940355805
  0.5541410493459580  0.8637501999329018  0.5523024941440298
  0.2239821507079327  0.2072478469496062  0.3581189946382608
  0.1166894220850239  0.0963646429215430  0.1093098756880124
  0.9151072933775453  0.2239501738152541  0.8702533319346273
  0.7697817237546190  0.1171487224383796  0.5512511066555419
  0.5467984610394154  0.2096056140380043  0.3436768581549643
  0.4420603911908856  0.0932866265397863  0.1078591622505840
  0.2245396711763590  0.2074171294143241  0.8541481765445980
  0.1133232891616629  0.0949081232418152  0.6036130751514790
  0.8969253157263921  0.2122147982533491  0.3446429742357822
  0.7719668254143315  0.1116194933503678  0.1028988443672674
  0.5203447969311341  0.2173708682957809  0.8687895739204095
  0.4469943323286714  0.0914973271126982  0.6072720375222289
  0.2246383975199464  0.5352191669267583  0.3462569933940358
  0.1078055946265337  0.4289112543254205  0.1086113466556995
  0.8902916921601971  0.5336356116253924  0.8577789749181619
  0.7784271471428852  0.4209132848016282  0.6067983768105734
  0.5561718953881680  0.5380826026907783  0.3578277165656658
  0.4458392541682485  0.4311339654154764  0.1055962956615915
  0.2331507922764473  0.5065339774475177  0.8661921977418316
  0.1099382129366191  0.4309519865801406  0.6049807754501728
  0.8882622830234013  0.5427585631468048  0.3618604309726692
  0.7748548700092499  0.4334816908587982  0.1081396147657685
  0.5544515846686195  0.5361887614058176  0.8536951823608874
  0.4480401438191350  0.4197722786135003  0.6064474844980055
  0.2277589681012913  0.8768456514357581  0.3468714595745368
  0.1264668580191000  0.7605226152905260  0.0962849949383013
  0.8533515238846832  0.8601695465211066  0.8936191668765048
  0.7508296132852266  0.7361954935254644  0.6294422120692289
  0.5577096115640714  0.8724630396211026  0.3620596433722483
  0.4473460624248204  0.7603992201349641  0.1088997657714827
  0.2446548100626913  0.8967257883507216  0.8690650194039833
  0.1539644117565970  0.7415967991641992  0.5752617065111423
  0.8913127540419410  0.8692993676336869  0.2903823367952114
  0.7636321027121582  0.7514872704591369  0.1067678414786570
  0.5449027511389488  0.8760467380413175  0.8588048909616930
  0.4419511970105532  0.7620950074215926  0.6053699039734184
 
  0.00000000E+00  0.00000000E+00  0.00000000E+00
  0.00000000E+00  0.00000000E+00  0.00000000E+00
  0.00000000E+00  0.00000000E+00  0.00000000E+00
  0.00000000E+00  0.00000000E+00  0.00000000E+00
  0.00000000E+00  0.00000000E+00  0.00000000E+00
  0.00000000E+00  0.00000000E+00  0.00000000E+00
  0.00000000E+00  0.00000000E+00  0.00000000E+00
  0.00000000E+00  0.00000000E+00  0.00000000E+00
  0.00000000E+00  0.00000000E+00  0.00000000E+00
  0.00000000E+00  0.00000000E+00  0.00000000E+00
  0.00000000E+00  0.00000000E+00  0.00000000E+00
  0.00000000E+00  0.00000000E+00  0.00000000E+00
  0.00000000E+00  0.00000000E+00  0.00000000E+00
  0.00000000E+00  0.00000000E+00  0.00000000E+00
  0.00000000E+00  0.00000000E+00  0.00000000E+00
  0.00000000E+00  0.00000000E+00  0.00000000E+00
  0.00000000E+00  0.00000000E+00  0.00000000E+00
  0.00000000E+00  0.00000000E+00  0.00000000E+00
  0.00000000E+00  0.00000000E+00  0.00000000E+00
  0.00000000E+00  0.00000000E+00  0.00000000E+00
  0.00000000E+00  0.00000000E+00  0.00000000E+00
  0.00000000E+00  0.00000000E+00  0.00000000E+00
  0.00000000E+00  0.00000000E+00  0.00000000E+00
  0.00000000E+00  0.00000000E+00  0.00000000E+00
  0.00000000E+00  0.00000000E+00  0.00000000E+00
  0.00000000E+00  0.00000000E+00  0.00000000E+00
  0.00000000E+00  0.00000000E+00  0.00000000E+00
  0.00000000E+00  0.00000000E+00  0.00000000E+00
  0.00000000E+00  0.00000000E+00  0.00000000E+00
  0.00000000E+00  0.00000000E+00  0.00000000E+00
  0.00000000E+00  0.00000000E+00  0.00000000E+00
  0.00000000E+00  0.00000000E+00  0.00000000E+00
  0.00000000E+00  0.00000000E+00  0.00000000E+00
  0.00000000E+00  0.00000000E+00  0.00000000E+00
  0.00000000E+00  0.00000000E+00  0.00000000E+00
  0.00000000E+00  0.00000000E+00  0.00000000E+00
  0.00000000E+00  0.00000000E+00  0.00000000E+00
  0.00000000E+00  0.00000000E+00  0.00000000E+00
  0.00000000E+00  0.00000000E+00  0.00000000E+00
  0.00000000E+00  0.00000000E+00  0.00000000E+00
  0.00000000E+00  0.00000000E+00  0.00000000E+00
  0.00000000E+00  0.00000000E+00  0.00000000E+00
  0.00000000E+00  0.00000000E+00  0.00000000E+00
  0.00000000E+00  0.00000000E+00  0.00000000E+00
  0.00000000E+00  0.00000000E+00  0.00000000E+00
  0.00000000E+00  0.00000000E+00  0.00000000E+00
  0.00000000E+00  0.00000000E+00  0.00000000E+00
  0.00000000E+00  0.00000000E+00  0.00000000E+00
  0.00000000E+00  0.00000000E+00  0.00000000E+00
  0.00000000E+00  0.00000000E+00  0.00000000E+00
  0.00000000E+00  0.00000000E+00  0.00000000E+00
  0.00000000E+00  0.00000000E+00  0.00000000E+00
  0.00000000E+00  0.00000000E+00  0.00000000E+00
  0.00000000E+00  0.00000000E+00  0.00000000E+00
  0.00000000E+00  0.00000000E+00  0.00000000E+00
  0.00000000E+00  0.00000000E+00  0.00000000E+00
  0.00000000E+00  0.00000000E+00  0.00000000E+00
  0.00000000E+00  0.00000000E+00  0.00000000E+00
  0.00000000E+00  0.00000000E+00  0.00000000E+00
  0.00000000E+00  0.00000000E+00  0.00000000E+00
  0.00000000E+00  0.00000000E+00  0.00000000E+00
  0.00000000E+00  0.00000000E+00  0.00000000E+00
  0.00000000E+00  0.00000000E+00  0.00000000E+00
  0.00000000E+00  0.00000000E+00  0.00000000E+00
  0.00000000E+00  0.00000000E+00  0.00000000E+00
  0.00000000E+00  0.00000000E+00  0.00000000E+00
  0.00000000E+00  0.00000000E+00  0.00000000E+00
  0.00000000E+00  0.00000000E+00  0.00000000E+00
  0.00000000E+00  0.00000000E+00  0.00000000E+00
  0.00000000E+00  0.00000000E+00  0.00000000E+00
  0.00000000E+00  0.00000000E+00  0.00000000E+00
  0.00000000E+00  0.00000000E+00  0.00000000E+00
