generated by phonopy                    
   1.00000000000000     
    10.0351470768999995   -0.0000022330999784   -0.0000001056124209
    -5.0175765436399997    8.6906901959899994    0.0000001395531216
    -0.0000001735893656    0.0000001431815548   14.9533752540999991
   Pb   Cu   P    O 
    19     1    12    50
Direct
  0.9972586812291766  0.7690288577584781  0.1184706809482492
  0.9871013996885196  0.7568673742614394  0.6202174438577117
  0.0038112357437541  0.2666500196560762  0.3762172512492725
  0.0018503556944296  0.2674349332353501  0.8890194729289007
  0.2215617263874492  0.2197088294019238  0.1255016716602029
  0.2447436111050152  0.2290040420671033  0.6241042824083891
  0.7362999978195930  0.7369774884182334  0.3806579140300457
  0.7415634609530173  0.7455507328250306  0.8814482715351488
  0.7767090204661216  0.0078174226429226  0.1303732473621650
  0.7739517855500040  0.0158939775827136  0.6348290993632659
  0.2662422831739732  0.9980922445961440  0.3657538212486742
  0.2482197458425759  0.9936228915511975  0.8667597232451882
  0.6609508924923944  0.3238162738788901  0.4929001226602736
  0.3483748564740168  0.6756651995232374  0.0053964222734066
  0.3435512217226915  0.6758866428011174  0.5040480059687340
  0.3345414065515016  0.6527473184672417  0.2452264174503327
  0.3207712570255055  0.6646572202028480  0.7456062260855134
  0.6803500185763554  0.3451496978139232  0.2286176865901481
  0.6710313655611486  0.3410103501894497  0.7526194236841377
  0.5764664905516383  0.2694724076123975  0.9912357729695387
  0.6212934156103458  0.5785726399494777  0.1072979090352746
  0.6218254024199013  0.5960968796554624  0.6243272991055306
  0.3690046073643600  0.3911902574528199  0.3770494237867794
  0.3761656753567664  0.3935840454910320  0.8787096406450559
  0.4009427971455466  0.0264196605297187  0.1171747273330581
  0.4124333494166592  0.0318451517645855  0.6233552341217390
  0.6085522104890089  0.9704897994312205  0.3768191869449282
  0.5975665432908812  0.9904048938247527  0.8836751844597615
  0.9790171305964250  0.3792710398581605  0.1244156533843253
  0.9741594824781785  0.3841923578911306  0.6252939696901407
  0.0266669930178267  0.6323789687062913  0.3749334505124864
  0.0194332834462188  0.6331827725550809  0.8685321576119733
  0.4904852800491710  0.6188758753514421  0.1173394091066555
  0.5074789255867458  0.6584629372157025  0.6263345986643643
  0.4717445088021179  0.3163551051844635  0.3725463912600020
  0.4812638354892016  0.3180319124204871  0.8869379811758407
  0.3708741853619557  0.8590859595739673  0.1248314446117078
  0.3456000088480877  0.8537012872175254  0.6257939145021041
  0.6849555770868818  0.1483519783768799  0.3783377867516435
  0.6507136995911935  0.1651876510508288  0.9018427867629981
  0.1543072116724886  0.5014377132720469  0.1286118889352821
  0.1504134828900803  0.5013756974794532  0.6270789370210537
  0.8492432339301743  0.5240585024275290  0.3708197779102349
  0.8422338225176134  0.5372756692505476  0.8621226868587613
  0.7444803241389266  0.6887539850860520  0.0379339053202088
  0.7340267618225980  0.6623056529884721  0.5413097418770150
  0.2563031578478245  0.3344570210580429  0.4586417993579559
  0.2522730371286173  0.3364640492178950  0.9549647462251301
  0.3013933728498230  0.0429118381918414  0.0416386269349829
  0.3534384851289687  0.0815816523710140  0.5394638386577100
  0.6498015365550245  0.9040493933945228  0.4611211299357123
  0.6365139934202446  0.9114631331761274  0.9618906204053914
  0.9523558774376184  0.2634710824895876  0.0460833735122748
  0.9283623857966532  0.2751054844183329  0.5422103168291770
  0.0793987054426708  0.7394818677720920  0.4596435413939233
  0.0696769708232878  0.7520367837899542  0.9466639319503969
  0.2669782239943288  0.3584875614279639  0.2912305834702309
  0.2898023959640383  0.3545232854945226  0.7881644459550543
  0.7071724238241401  0.6040370416210195  0.1990694028583988
  0.7274541482480217  0.6472760161243798  0.7093548022239631
  0.6579106008100055  0.9110609939345409  0.2934281312976310
  0.6718241482458609  0.9710933527427130  0.7974445489581754
  0.3620815075448078  0.0803242237333066  0.2069065505692791
  0.3616578551581924  0.0874315731999857  0.7082595981343829
  0.0909299850553182  0.7413960450462582  0.2917650552193507
  0.0969340965416805  0.7320372079757647  0.7813250624590609
  0.9230900936080033  0.2754670121138219  0.2111861202200203
  0.9203661734967241  0.2795913698427555  0.7106888549226298
  0.5524388427454596  0.4049800252558313  0.0797666493286755
  0.5355911634630530  0.4156906246377972  0.6186851621295375
  0.4740392988022180  0.5731232012238507  0.3846323686212543
  0.4808351845542376  0.5743996051560458  0.8874662712539774
  0.5757091666239589  0.1416590062653142  0.0928313687687066
  0.5927728126598311  0.1202712051989678  0.6193844480473203
  0.4266926720544646  0.8946397255655967  0.3759464884051056
  0.4152503450778582  0.8987089229021308  0.8740426924158342
  0.8802928257568183  0.4574953031530242  0.1140252330296789
  0.8808100861595776  0.4728961952975368  0.6219574065133813
  0.1092846499802675  0.5321718175683117  0.3771227814037630
  0.0944893775099516  0.5282485551108422  0.8814695082955382
  0.9952748429590557  0.9959334048296924  0.1405019410958630
  0.0157564125317577  0.9923481621713890  0.6322506791729268
 
  0.00000000E+00  0.00000000E+00  0.00000000E+00
  0.00000000E+00  0.00000000E+00  0.00000000E+00
  0.00000000E+00  0.00000000E+00  0.00000000E+00
  0.00000000E+00  0.00000000E+00  0.00000000E+00
  0.00000000E+00  0.00000000E+00  0.00000000E+00
  0.00000000E+00  0.00000000E+00  0.00000000E+00
  0.00000000E+00  0.00000000E+00  0.00000000E+00
  0.00000000E+00  0.00000000E+00  0.00000000E+00
  0.00000000E+00  0.00000000E+00  0.00000000E+00
  0.00000000E+00  0.00000000E+00  0.00000000E+00
  0.00000000E+00  0.00000000E+00  0.00000000E+00
  0.00000000E+00  0.00000000E+00  0.00000000E+00
  0.00000000E+00  0.00000000E+00  0.00000000E+00
  0.00000000E+00  0.00000000E+00  0.00000000E+00
  0.00000000E+00  0.00000000E+00  0.00000000E+00
  0.00000000E+00  0.00000000E+00  0.00000000E+00
  0.00000000E+00  0.00000000E+00  0.00000000E+00
  0.00000000E+00  0.00000000E+00  0.00000000E+00
  0.00000000E+00  0.00000000E+00  0.00000000E+00
  0.00000000E+00  0.00000000E+00  0.00000000E+00
  0.00000000E+00  0.00000000E+00  0.00000000E+00
  0.00000000E+00  0.00000000E+00  0.00000000E+00
  0.00000000E+00  0.00000000E+00  0.00000000E+00
  0.00000000E+00  0.00000000E+00  0.00000000E+00
  0.00000000E+00  0.00000000E+00  0.00000000E+00
  0.00000000E+00  0.00000000E+00  0.00000000E+00
  0.00000000E+00  0.00000000E+00  0.00000000E+00
  0.00000000E+00  0.00000000E+00  0.00000000E+00
  0.00000000E+00  0.00000000E+00  0.00000000E+00
  0.00000000E+00  0.00000000E+00  0.00000000E+00
  0.00000000E+00  0.00000000E+00  0.00000000E+00
  0.00000000E+00  0.00000000E+00  0.00000000E+00
  0.00000000E+00  0.00000000E+00  0.00000000E+00
  0.00000000E+00  0.00000000E+00  0.00000000E+00
  0.00000000E+00  0.00000000E+00  0.00000000E+00
  0.00000000E+00  0.00000000E+00  0.00000000E+00
  0.00000000E+00  0.00000000E+00  0.00000000E+00
  0.00000000E+00  0.00000000E+00  0.00000000E+00
  0.00000000E+00  0.00000000E+00  0.00000000E+00
  0.00000000E+00  0.00000000E+00  0.00000000E+00
  0.00000000E+00  0.00000000E+00  0.00000000E+00
  0.00000000E+00  0.00000000E+00  0.00000000E+00
  0.00000000E+00  0.00000000E+00  0.00000000E+00
  0.00000000E+00  0.00000000E+00  0.00000000E+00
  0.00000000E+00  0.00000000E+00  0.00000000E+00
  0.00000000E+00  0.00000000E+00  0.00000000E+00
  0.00000000E+00  0.00000000E+00  0.00000000E+00
  0.00000000E+00  0.00000000E+00  0.00000000E+00
  0.00000000E+00  0.00000000E+00  0.00000000E+00
  0.00000000E+00  0.00000000E+00  0.00000000E+00
  0.00000000E+00  0.00000000E+00  0.00000000E+00
  0.00000000E+00  0.00000000E+00  0.00000000E+00
  0.00000000E+00  0.00000000E+00  0.00000000E+00
  0.00000000E+00  0.00000000E+00  0.00000000E+00
  0.00000000E+00  0.00000000E+00  0.00000000E+00
  0.00000000E+00  0.00000000E+00  0.00000000E+00
  0.00000000E+00  0.00000000E+00  0.00000000E+00
  0.00000000E+00  0.00000000E+00  0.00000000E+00
  0.00000000E+00  0.00000000E+00  0.00000000E+00
  0.00000000E+00  0.00000000E+00  0.00000000E+00
  0.00000000E+00  0.00000000E+00  0.00000000E+00
  0.00000000E+00  0.00000000E+00  0.00000000E+00
  0.00000000E+00  0.00000000E+00  0.00000000E+00
  0.00000000E+00  0.00000000E+00  0.00000000E+00
  0.00000000E+00  0.00000000E+00  0.00000000E+00
  0.00000000E+00  0.00000000E+00  0.00000000E+00
  0.00000000E+00  0.00000000E+00  0.00000000E+00
  0.00000000E+00  0.00000000E+00  0.00000000E+00
  0.00000000E+00  0.00000000E+00  0.00000000E+00
  0.00000000E+00  0.00000000E+00  0.00000000E+00
  0.00000000E+00  0.00000000E+00  0.00000000E+00
  0.00000000E+00  0.00000000E+00  0.00000000E+00
  0.00000000E+00  0.00000000E+00  0.00000000E+00
  0.00000000E+00  0.00000000E+00  0.00000000E+00
  0.00000000E+00  0.00000000E+00  0.00000000E+00
  0.00000000E+00  0.00000000E+00  0.00000000E+00
  0.00000000E+00  0.00000000E+00  0.00000000E+00
  0.00000000E+00  0.00000000E+00  0.00000000E+00
  0.00000000E+00  0.00000000E+00  0.00000000E+00
  0.00000000E+00  0.00000000E+00  0.00000000E+00
  0.00000000E+00  0.00000000E+00  0.00000000E+00
  0.00000000E+00  0.00000000E+00  0.00000000E+00
