Al   Gd   N                             
   1.00000000000000     
    -9.6945902942833850    0.0220867442753983   -0.0152479853418652
    -4.8339431564382087    8.4255354781881202   -0.0245953479172324
    -0.1251904363100511   -0.0008736021529445  -10.5117957772349033
   Al   Gd   N 
    31     5    36
Direct
  0.1121060009112256  0.0983129236880984  0.3082681145042514
  0.2225917512287907  0.2012579902489620  0.0539219431566806
  0.7959742664503651  0.0818660918173748  0.8937739386910550
  0.4331425159229170  0.1026224448333366  0.3010440682886184
  0.5499567514061354  0.2015497325605438  0.0589496115106414
  0.1273015389074814  0.0803979535516959  0.8162053849971755
  0.2322809517692335  0.1936326552504894  0.5632789406785079
  0.7646251566689699  0.1017277764692963  0.3684593013776336
  0.8908219763734451  0.2026668241307945  0.1291522744950342
  0.4578653720702803  0.0909573123786842  0.8090624950876020
  0.5358622012592704  0.2127059911619469  0.5471815917798963
  0.1019677505219718  0.4330987008615708  0.3826243801170222
  0.8015804940730575  0.4087124803854323  0.8880879294290907
  0.8741087925783830  0.5439788845683822  0.6223109066368195
  0.4314999221015228  0.4253692126829520  0.3115088115488760
  0.1160774257630095  0.4184500009505925  0.8323316740552258
  0.2284141728717302  0.5403169118712086  0.5686451441910094
  0.7774534048943664  0.4317674545228201  0.3663933282920837
  0.9007358876270075  0.5305466232542386  0.1322375618743550
  0.4628945486588876  0.4102432713641875  0.7968603201882019
  0.5424354606694308  0.5469348392897402  0.5351166975303698
  0.1066361923481480  0.7709682017747923  0.3181280517720850
  0.2095708850431350  0.8904720977076366  0.0682915584016826
  0.7967478229758527  0.7529036054598919  0.8946356548181740
  0.4292281823856712  0.7799860195964641  0.3087243469317968
  0.5505110133357931  0.8847990043891087  0.0651575117200380
  0.1250309386405419  0.7553473494826690  0.8046906007265093
  0.2287050478818458  0.8714567882992341  0.5526905106948234
  0.7720095467039698  0.7579587582196723  0.3687286563835528
  0.8780197265779535  0.8812843256516629  0.1399679617352660
  0.5413364610129605  0.8781343556376839  0.5401663998314916
  0.8811005771467393  0.2156930674280986  0.6210760338848971
  0.2161750436826537  0.5536468424981038  0.0515599737997903
  0.5577900671447082  0.5391689848813357  0.0875018539387256
  0.8734543344324024  0.8720538054765257  0.6206432191707734
  0.4591386789389489  0.7533580259350074  0.8013288959671954
  0.2180376713237848  0.2043614408116952  0.3757941767393831
  0.1156142939991796  0.0996877961569638  0.1249262994419951
  0.9012886255995198  0.1936049494451169  0.8384847748854014
  0.7533013198765417  0.1087494235262767  0.5467112001691063
  0.5327169486786758  0.2123218622084551  0.3656993866518832
  0.4400986129331272  0.0983993026866870  0.1182811964050785
  0.2345055233364448  0.1926695230588678  0.8650827587068264
  0.1506883010142417  0.0701513581617590  0.6317444319332353
  0.8776938179061133  0.2115389017962670  0.3174827255432362
  0.7790968895232027  0.0933387688690033  0.0768280826653367
  0.5611175126975496  0.2006489643718226  0.8689957531242811
  0.4507099991769294  0.0892090526998359  0.6204377122296876
  0.2142595209441751  0.5500518567697199  0.3769660795464347
  0.1041090449195607  0.4170886209746740  0.0720103411730264
  0.8864068546272748  0.5379116518384421  0.8105342223483589
  0.7634498954734070  0.4551566948998058  0.5455847774018139
  0.5418079067498454  0.5465342605893255  0.3456698311550923
  0.4486330076867873  0.3966808508051400  0.1363622251165424
  0.2327759636680398  0.5279009398686796  0.8321257852973076
  0.1054206475579775  0.4271985093361081  0.5826264480262253
  0.8897249414803809  0.5387809616127583  0.3144087074840130
  0.8162771207332540  0.4087060503633424  0.0686089406373540
  0.5770702176183704  0.5025948122763140  0.8656630351653973
  0.4514277421825383  0.4239713126324105  0.6092941055221033
  0.2105200737646769  0.8845043623738675  0.3724164600323121
  0.0995865921515460  0.7952497281836486  0.1404400123235803
  0.9004541640350112  0.8634446334416381  0.8397549664411272
  0.7618740625581850  0.7442621575698354  0.5499745668027956
  0.5415248211229837  0.8856457479810089  0.3577603618380110
  0.4237703646973259  0.8004041556111758  0.1262216657045485
  0.2079541256371797  0.8725366509635961  0.8860979350568101
  0.1421921193954319  0.7523019884106290  0.6223183762137410
  0.8722492479800508  0.8790694996186730  0.3272208614814147
  0.7880266196982646  0.7531816045717434  0.0799841280682685
  0.5729407558206887  0.8843051675107887  0.8815300257313226
  0.4463211127573885  0.7582672601172220  0.5860234171148804
 
  0.00000000E+00  0.00000000E+00  0.00000000E+00
  0.00000000E+00  0.00000000E+00  0.00000000E+00
  0.00000000E+00  0.00000000E+00  0.00000000E+00
  0.00000000E+00  0.00000000E+00  0.00000000E+00
  0.00000000E+00  0.00000000E+00  0.00000000E+00
  0.00000000E+00  0.00000000E+00  0.00000000E+00
  0.00000000E+00  0.00000000E+00  0.00000000E+00
  0.00000000E+00  0.00000000E+00  0.00000000E+00
  0.00000000E+00  0.00000000E+00  0.00000000E+00
  0.00000000E+00  0.00000000E+00  0.00000000E+00
  0.00000000E+00  0.00000000E+00  0.00000000E+00
  0.00000000E+00  0.00000000E+00  0.00000000E+00
  0.00000000E+00  0.00000000E+00  0.00000000E+00
  0.00000000E+00  0.00000000E+00  0.00000000E+00
  0.00000000E+00  0.00000000E+00  0.00000000E+00
  0.00000000E+00  0.00000000E+00  0.00000000E+00
  0.00000000E+00  0.00000000E+00  0.00000000E+00
  0.00000000E+00  0.00000000E+00  0.00000000E+00
  0.00000000E+00  0.00000000E+00  0.00000000E+00
  0.00000000E+00  0.00000000E+00  0.00000000E+00
  0.00000000E+00  0.00000000E+00  0.00000000E+00
  0.00000000E+00  0.00000000E+00  0.00000000E+00
  0.00000000E+00  0.00000000E+00  0.00000000E+00
  0.00000000E+00  0.00000000E+00  0.00000000E+00
  0.00000000E+00  0.00000000E+00  0.00000000E+00
  0.00000000E+00  0.00000000E+00  0.00000000E+00
  0.00000000E+00  0.00000000E+00  0.00000000E+00
  0.00000000E+00  0.00000000E+00  0.00000000E+00
  0.00000000E+00  0.00000000E+00  0.00000000E+00
  0.00000000E+00  0.00000000E+00  0.00000000E+00
  0.00000000E+00  0.00000000E+00  0.00000000E+00
  0.00000000E+00  0.00000000E+00  0.00000000E+00
  0.00000000E+00  0.00000000E+00  0.00000000E+00
  0.00000000E+00  0.00000000E+00  0.00000000E+00
  0.00000000E+00  0.00000000E+00  0.00000000E+00
  0.00000000E+00  0.00000000E+00  0.00000000E+00
  0.00000000E+00  0.00000000E+00  0.00000000E+00
  0.00000000E+00  0.00000000E+00  0.00000000E+00
  0.00000000E+00  0.00000000E+00  0.00000000E+00
  0.00000000E+00  0.00000000E+00  0.00000000E+00
  0.00000000E+00  0.00000000E+00  0.00000000E+00
  0.00000000E+00  0.00000000E+00  0.00000000E+00
  0.00000000E+00  0.00000000E+00  0.00000000E+00
  0.00000000E+00  0.00000000E+00  0.00000000E+00
  0.00000000E+00  0.00000000E+00  0.00000000E+00
  0.00000000E+00  0.00000000E+00  0.00000000E+00
  0.00000000E+00  0.00000000E+00  0.00000000E+00
  0.00000000E+00  0.00000000E+00  0.00000000E+00
  0.00000000E+00  0.00000000E+00  0.00000000E+00
  0.00000000E+00  0.00000000E+00  0.00000000E+00
  0.00000000E+00  0.00000000E+00  0.00000000E+00
  0.00000000E+00  0.00000000E+00  0.00000000E+00
  0.00000000E+00  0.00000000E+00  0.00000000E+00
  0.00000000E+00  0.00000000E+00  0.00000000E+00
  0.00000000E+00  0.00000000E+00  0.00000000E+00
  0.00000000E+00  0.00000000E+00  0.00000000E+00
  0.00000000E+00  0.00000000E+00  0.00000000E+00
  0.00000000E+00  0.00000000E+00  0.00000000E+00
  0.00000000E+00  0.00000000E+00  0.00000000E+00
  0.00000000E+00  0.00000000E+00  0.00000000E+00
  0.00000000E+00  0.00000000E+00  0.00000000E+00
  0.00000000E+00  0.00000000E+00  0.00000000E+00
  0.00000000E+00  0.00000000E+00  0.00000000E+00
  0.00000000E+00  0.00000000E+00  0.00000000E+00
  0.00000000E+00  0.00000000E+00  0.00000000E+00
  0.00000000E+00  0.00000000E+00  0.00000000E+00
  0.00000000E+00  0.00000000E+00  0.00000000E+00
  0.00000000E+00  0.00000000E+00  0.00000000E+00
  0.00000000E+00  0.00000000E+00  0.00000000E+00
  0.00000000E+00  0.00000000E+00  0.00000000E+00
  0.00000000E+00  0.00000000E+00  0.00000000E+00
  0.00000000E+00  0.00000000E+00  0.00000000E+00
