Al   Gd   N                             
   1.00000000000000     
    -9.6881371399249581    0.0239493274374162   -0.0174240694027388
    -4.8335216166979151    8.4214615413899381   -0.0268069317275106
    -0.1470209636386767   -0.0086024253233327  -10.5443974549909765
   Al   Gd   N 
    31     5    36
Direct
  0.1122769083625457  0.0983240955077989  0.3200528378157870
  0.2248770264456041  0.1969833393727711  0.0647458127006644
  0.7954415891830209  0.0818941899831671  0.9045395521193100
  0.4342999160205636  0.1018645068656454  0.3130622587943108
  0.5498351778808868  0.2015703564651758  0.0694423795891836
  0.1271625651160235  0.0801381262881904  0.8269325152541853
  0.2315692492975430  0.1951374854523991  0.5739086568015210
  0.7648075981489555  0.1016075480737229  0.3808643994192238
  0.8899016362684549  0.2024922557808964  0.1411386011950455
  0.4569334429985616  0.0908084356358145  0.8199994349427584
  0.5359413837918225  0.2126631891724955  0.5593877466897155
  0.1021149349874619  0.4333575752207111  0.3962642854514158
  0.7997354773123320  0.4086490993007317  0.8988368856219111
  0.8787644327226758  0.5419524488298180  0.6343244634388512
  0.4336719829166498  0.4249078495264911  0.3235816917761483
  0.1111216113625275  0.4191719128435807  0.8746540017469400
  0.2279657289581323  0.5401827839330977  0.5774472231974386
  0.7792283775970645  0.4315533499092581  0.3770722070366048
  0.8999829789491329  0.5304776217632607  0.1398475743055343
  0.4592254614845999  0.4113081462534822  0.8099552619440971
  0.5437141732346760  0.5466048877033742  0.5466324291910141
  0.1062475827386962  0.7729523879466527  0.3291013376002994
  0.2091897248052277  0.8923539882062244  0.0790696252552934
  0.7957806449522380  0.7533513171189483  0.9048335733462878
  0.4297816456601851  0.7799355038482432  0.3204982617226833
  0.5503953143356810  0.8848845913060686  0.0760732529342008
  0.1250071993829138  0.7532167725333991  0.8178202125770611
  0.2290603821169483  0.8711439753224468  0.5646267195798202
  0.7739595230622029  0.7563420223199770  0.3796826983365094
  0.8766772006733277  0.8827675432461888  0.1512816758408846
  0.5428097306134489  0.8773077446754840  0.5512409165306877
  0.8804249022027975  0.2164670699580782  0.6329612238592333
  0.2165798361831364  0.5558063245683016  0.0694750196077649
  0.5572362068226013  0.5396903125170525  0.0985822039432804
  0.8746186536172971  0.8711842149210938  0.6321690850351231
  0.4585512758159354  0.7531979557113431  0.8122096348088732
  0.2190782572258954  0.2036296752622277  0.3853697704333001
  0.1149378488723940  0.1011672911611257  0.1373958450930957
  0.9007354494716679  0.1936210599112158  0.8495234066361306
  0.7538506836047318  0.1082823191286693  0.5583949264060095
  0.5330753042185066  0.2122590422251562  0.3781092816816809
  0.4400614085980692  0.0987936519543524  0.1304491770562777
  0.2365055749349168  0.1880065216636098  0.8780789486001908
  0.1501764417113591  0.0708594754581711  0.6426718517561696
  0.8775832195890985  0.2112279668011325  0.3285813374050832
  0.7785596268368238  0.0937495303799309  0.0872862380259321
  0.5602275062089674  0.2004656761940566  0.8804983948580158
  0.4504723283042154  0.0890217367618149  0.6316063833764503
  0.2150457807364816  0.5511542094988044  0.3843637464111325
  0.0985688474474813  0.4185654532719170  0.0623484425122030
  0.8871704396626754  0.5366299412642945  0.8227641890059729
  0.7653503455161257  0.4553447994703390  0.5558611409527003
  0.5432419024348647  0.5463564217125878  0.3571791707391725
  0.4496390598318953  0.3955659123284647  0.1488951598743071
  0.2316534738257019  0.5281929319359264  0.8516201230277218
  0.1040084335745917  0.4294649326661570  0.5833923274251873
  0.8933460970635352  0.5369733858233090  0.3212905598513345
  0.8150369607104153  0.4082638191339854  0.0797533917261219
  0.5753908386759079  0.5027496352615941  0.8777427605361439
  0.4503310568715193  0.4244901355403883  0.6214548410410003
  0.2107165239496638  0.8847018046659585  0.3846097589601172
  0.0979668508444007  0.7991927060209250  0.1520094712077338
  0.8993787499639225  0.8639310406628766  0.8502862022389195
  0.7639526274926638  0.7427276417592665  0.5605792814582031
  0.5431931101679979  0.8844806879298375  0.3690834093785753
  0.4231945130998795  0.8011649115629211  0.1381959845133593
  0.2072607725986586  0.8725219104946689  0.8977223013443592
  0.1438465374556586  0.7504242097834108  0.6351012219285721
  0.8720389429175768  0.8794124235715373  0.3379756770385924
  0.7882842118340108  0.7534879574105062  0.0901465033758768
  0.5722110333065942  0.8839540323001955  0.8930112818826572
  0.4469852726067671  0.7581335172141479  0.5973025080951331
 
  0.00000000E+00  0.00000000E+00  0.00000000E+00
  0.00000000E+00  0.00000000E+00  0.00000000E+00
  0.00000000E+00  0.00000000E+00  0.00000000E+00
  0.00000000E+00  0.00000000E+00  0.00000000E+00
  0.00000000E+00  0.00000000E+00  0.00000000E+00
  0.00000000E+00  0.00000000E+00  0.00000000E+00
  0.00000000E+00  0.00000000E+00  0.00000000E+00
  0.00000000E+00  0.00000000E+00  0.00000000E+00
  0.00000000E+00  0.00000000E+00  0.00000000E+00
  0.00000000E+00  0.00000000E+00  0.00000000E+00
  0.00000000E+00  0.00000000E+00  0.00000000E+00
  0.00000000E+00  0.00000000E+00  0.00000000E+00
  0.00000000E+00  0.00000000E+00  0.00000000E+00
  0.00000000E+00  0.00000000E+00  0.00000000E+00
  0.00000000E+00  0.00000000E+00  0.00000000E+00
  0.00000000E+00  0.00000000E+00  0.00000000E+00
  0.00000000E+00  0.00000000E+00  0.00000000E+00
  0.00000000E+00  0.00000000E+00  0.00000000E+00
  0.00000000E+00  0.00000000E+00  0.00000000E+00
  0.00000000E+00  0.00000000E+00  0.00000000E+00
  0.00000000E+00  0.00000000E+00  0.00000000E+00
  0.00000000E+00  0.00000000E+00  0.00000000E+00
  0.00000000E+00  0.00000000E+00  0.00000000E+00
  0.00000000E+00  0.00000000E+00  0.00000000E+00
  0.00000000E+00  0.00000000E+00  0.00000000E+00
  0.00000000E+00  0.00000000E+00  0.00000000E+00
  0.00000000E+00  0.00000000E+00  0.00000000E+00
  0.00000000E+00  0.00000000E+00  0.00000000E+00
  0.00000000E+00  0.00000000E+00  0.00000000E+00
  0.00000000E+00  0.00000000E+00  0.00000000E+00
  0.00000000E+00  0.00000000E+00  0.00000000E+00
  0.00000000E+00  0.00000000E+00  0.00000000E+00
  0.00000000E+00  0.00000000E+00  0.00000000E+00
  0.00000000E+00  0.00000000E+00  0.00000000E+00
  0.00000000E+00  0.00000000E+00  0.00000000E+00
  0.00000000E+00  0.00000000E+00  0.00000000E+00
  0.00000000E+00  0.00000000E+00  0.00000000E+00
  0.00000000E+00  0.00000000E+00  0.00000000E+00
  0.00000000E+00  0.00000000E+00  0.00000000E+00
  0.00000000E+00  0.00000000E+00  0.00000000E+00
  0.00000000E+00  0.00000000E+00  0.00000000E+00
  0.00000000E+00  0.00000000E+00  0.00000000E+00
  0.00000000E+00  0.00000000E+00  0.00000000E+00
  0.00000000E+00  0.00000000E+00  0.00000000E+00
  0.00000000E+00  0.00000000E+00  0.00000000E+00
  0.00000000E+00  0.00000000E+00  0.00000000E+00
  0.00000000E+00  0.00000000E+00  0.00000000E+00
  0.00000000E+00  0.00000000E+00  0.00000000E+00
  0.00000000E+00  0.00000000E+00  0.00000000E+00
  0.00000000E+00  0.00000000E+00  0.00000000E+00
  0.00000000E+00  0.00000000E+00  0.00000000E+00
  0.00000000E+00  0.00000000E+00  0.00000000E+00
  0.00000000E+00  0.00000000E+00  0.00000000E+00
  0.00000000E+00  0.00000000E+00  0.00000000E+00
  0.00000000E+00  0.00000000E+00  0.00000000E+00
  0.00000000E+00  0.00000000E+00  0.00000000E+00
  0.00000000E+00  0.00000000E+00  0.00000000E+00
  0.00000000E+00  0.00000000E+00  0.00000000E+00
  0.00000000E+00  0.00000000E+00  0.00000000E+00
  0.00000000E+00  0.00000000E+00  0.00000000E+00
  0.00000000E+00  0.00000000E+00  0.00000000E+00
  0.00000000E+00  0.00000000E+00  0.00000000E+00
  0.00000000E+00  0.00000000E+00  0.00000000E+00
  0.00000000E+00  0.00000000E+00  0.00000000E+00
  0.00000000E+00  0.00000000E+00  0.00000000E+00
  0.00000000E+00  0.00000000E+00  0.00000000E+00
  0.00000000E+00  0.00000000E+00  0.00000000E+00
  0.00000000E+00  0.00000000E+00  0.00000000E+00
  0.00000000E+00  0.00000000E+00  0.00000000E+00
  0.00000000E+00  0.00000000E+00  0.00000000E+00
  0.00000000E+00  0.00000000E+00  0.00000000E+00
  0.00000000E+00  0.00000000E+00  0.00000000E+00
