Al   Gd   N                             
   1.00000000000000     
    -9.6841221209145800    0.0212878758093116   -0.0196502104707258
    -4.8585296230660386    8.3982992737373170   -0.0286262855967474
    -0.1651534353625783    0.0407249528534711  -10.6373156380806293
   Al   Gd   N 
    31     5    36
Direct
  0.1072557373327783  0.0952492909567937  0.3312083956850529
  0.2178706500105534  0.2121631253770175  0.1512943517298524
  0.7952613817197829  0.0822600231406909  0.9218371288213660
  0.4435730637531066  0.0980728145759215  0.3275052675071066
  0.5499905634739761  0.2023274091651004  0.0846162805173591
  0.1225573495917303  0.0820420997116784  0.8518230419991184
  0.2310508940950555  0.2021313972650276  0.6615759135916193
  0.7667156280278604  0.1009585584268180  0.3965666516043314
  0.8861472120848148  0.2039970369766166  0.1532784908582201
  0.4649043135080930  0.0894971466820920  0.8371379327138158
  0.5380973726565088  0.2108349303601074  0.5743338866058991
  0.1069852964422537  0.4245737202722779  0.4092387422921746
  0.7972148482183385  0.4132711473687323  0.9148972728939597
  0.8810850384893243  0.5388957805709609  0.6477458667254297
  0.4337569241463441  0.4248039660001268  0.3390134074735016
  0.1119112617273501  0.4168716364790441  0.8942377136764961
  0.2287266077469710  0.5384052364598375  0.5895026220629376
  0.7798552055867631  0.4302217458018518  0.3921149697114288
  0.8978352843373543  0.5315771091499499  0.1554741176466621
  0.4572098817439567  0.4138477890819630  0.8251382053934577
  0.5447841919946512  0.5449588120626174  0.5614446785595462
  0.1067225227578987  0.7703453085698584  0.3437898245659525
  0.2103121648575197  0.8902595945897289  0.0946919105221795
  0.7961487966601410  0.7538364977699530  0.9195722689074657
  0.4310816324183548  0.7787358087653544  0.3363424184080799
  0.5503757488201373  0.8845346351787526  0.0902790236435322
  0.1248993567110190  0.7534776222518076  0.8321403980645101
  0.2276977408274448  0.8711847935800847  0.5774101276686778
  0.7756444503891657  0.7543036670638728  0.3960702765564079
  0.8765417983674197  0.8823386223448040  0.1673737162719320
  0.5430555323926072  0.8766966599544546  0.5657459544602972
  0.8787611185989448  0.2161328231962187  0.6539436021451266
  0.2144616910122750  0.5552865643531888  0.0840148020491469
  0.5525008893292025  0.5422316098455937  0.1112363963869925
  0.8739293495070584  0.8705140225424870  0.6478792203136976
  0.4564121303875481  0.7569789821485813  0.8235648805767184
  0.2134784128167482  0.2170216925015254  0.3400463746509672
  0.1093931412690310  0.0983628883882091  0.1465412096772170
  0.8984859719422928  0.1967847241321081  0.8703236565831673
  0.7573390227840093  0.1075126413734822  0.5721040627243426
  0.5344628482053366  0.2119398030771720  0.3950865674321022
  0.4485044964364917  0.0947037455934634  0.1459224011641851
  0.2318591281722462  0.2015831257535652  0.8462777641326582
  0.1455269346243284  0.0681564463957045  0.6557020470526638
  0.8754296732745530  0.2115923371205852  0.3399387926401047
  0.7781317039507485  0.0930869544000927  0.1021613404618549
  0.5606929301716335  0.2031175931200337  0.8977188768514495
  0.4614639705479675  0.0820152968431174  0.6494386017539853
  0.2152879931368190  0.5495873596337120  0.4010841763520006
  0.0995964769439084  0.4125617630886182  0.0772172280986183
  0.8877404261155277  0.5376705660326309  0.8373511928968895
  0.7674855820043263  0.4525075143273511  0.5698983493115364
  0.5433884988423685  0.5451821413290929  0.3732741665879402
  0.4473475211841418  0.3958593043041532  0.1653689641112877
  0.2301523502109646  0.5297685769018727  0.8693911103143250
  0.1096291414573898  0.4195640045560438  0.5949365697922104
  0.8929844463402077  0.5369479059996607  0.3360638932674576
  0.8104187806945262  0.4124705446608985  0.0947984309449197
  0.5725939186032747  0.5069532720669585  0.8916441946161413
  0.4508651649306685  0.4226670692849197  0.6376344572712753
  0.2105089694674689  0.8836743848648680  0.3984132055205691
  0.0991380102506128  0.7963459825217427  0.1680570420548051
  0.8981555822130147  0.8662873418025185  0.8641990510835384
  0.7661841215548009  0.7402889624582443  0.5749397501174798
  0.5435231619540488  0.8837999012393993  0.3860058545511791
  0.4237223084418531  0.8019655449460856  0.1559928285406187
  0.2081741038315172  0.8712197745352270  0.9147929778966386
  0.1441830256976289  0.7482413184044248  0.6500892852049986
  0.8717412723261901  0.8789133490900767  0.3522167741983182
  0.7904739733982709  0.7528861594898899  0.1033273728364676
  0.5709406981816514  0.8839641343304763  0.9096763953650466
  0.4467888798211774  0.7572746858452390  0.6103644522453706
 
  0.00000000E+00  0.00000000E+00  0.00000000E+00
  0.00000000E+00  0.00000000E+00  0.00000000E+00
  0.00000000E+00  0.00000000E+00  0.00000000E+00
  0.00000000E+00  0.00000000E+00  0.00000000E+00
  0.00000000E+00  0.00000000E+00  0.00000000E+00
  0.00000000E+00  0.00000000E+00  0.00000000E+00
  0.00000000E+00  0.00000000E+00  0.00000000E+00
  0.00000000E+00  0.00000000E+00  0.00000000E+00
  0.00000000E+00  0.00000000E+00  0.00000000E+00
  0.00000000E+00  0.00000000E+00  0.00000000E+00
  0.00000000E+00  0.00000000E+00  0.00000000E+00
  0.00000000E+00  0.00000000E+00  0.00000000E+00
  0.00000000E+00  0.00000000E+00  0.00000000E+00
  0.00000000E+00  0.00000000E+00  0.00000000E+00
  0.00000000E+00  0.00000000E+00  0.00000000E+00
  0.00000000E+00  0.00000000E+00  0.00000000E+00
  0.00000000E+00  0.00000000E+00  0.00000000E+00
  0.00000000E+00  0.00000000E+00  0.00000000E+00
  0.00000000E+00  0.00000000E+00  0.00000000E+00
  0.00000000E+00  0.00000000E+00  0.00000000E+00
  0.00000000E+00  0.00000000E+00  0.00000000E+00
  0.00000000E+00  0.00000000E+00  0.00000000E+00
  0.00000000E+00  0.00000000E+00  0.00000000E+00
  0.00000000E+00  0.00000000E+00  0.00000000E+00
  0.00000000E+00  0.00000000E+00  0.00000000E+00
  0.00000000E+00  0.00000000E+00  0.00000000E+00
  0.00000000E+00  0.00000000E+00  0.00000000E+00
  0.00000000E+00  0.00000000E+00  0.00000000E+00
  0.00000000E+00  0.00000000E+00  0.00000000E+00
  0.00000000E+00  0.00000000E+00  0.00000000E+00
  0.00000000E+00  0.00000000E+00  0.00000000E+00
  0.00000000E+00  0.00000000E+00  0.00000000E+00
  0.00000000E+00  0.00000000E+00  0.00000000E+00
  0.00000000E+00  0.00000000E+00  0.00000000E+00
  0.00000000E+00  0.00000000E+00  0.00000000E+00
  0.00000000E+00  0.00000000E+00  0.00000000E+00
  0.00000000E+00  0.00000000E+00  0.00000000E+00
  0.00000000E+00  0.00000000E+00  0.00000000E+00
  0.00000000E+00  0.00000000E+00  0.00000000E+00
  0.00000000E+00  0.00000000E+00  0.00000000E+00
  0.00000000E+00  0.00000000E+00  0.00000000E+00
  0.00000000E+00  0.00000000E+00  0.00000000E+00
  0.00000000E+00  0.00000000E+00  0.00000000E+00
  0.00000000E+00  0.00000000E+00  0.00000000E+00
  0.00000000E+00  0.00000000E+00  0.00000000E+00
  0.00000000E+00  0.00000000E+00  0.00000000E+00
  0.00000000E+00  0.00000000E+00  0.00000000E+00
  0.00000000E+00  0.00000000E+00  0.00000000E+00
  0.00000000E+00  0.00000000E+00  0.00000000E+00
  0.00000000E+00  0.00000000E+00  0.00000000E+00
  0.00000000E+00  0.00000000E+00  0.00000000E+00
  0.00000000E+00  0.00000000E+00  0.00000000E+00
  0.00000000E+00  0.00000000E+00  0.00000000E+00
  0.00000000E+00  0.00000000E+00  0.00000000E+00
  0.00000000E+00  0.00000000E+00  0.00000000E+00
  0.00000000E+00  0.00000000E+00  0.00000000E+00
  0.00000000E+00  0.00000000E+00  0.00000000E+00
  0.00000000E+00  0.00000000E+00  0.00000000E+00
  0.00000000E+00  0.00000000E+00  0.00000000E+00
  0.00000000E+00  0.00000000E+00  0.00000000E+00
  0.00000000E+00  0.00000000E+00  0.00000000E+00
  0.00000000E+00  0.00000000E+00  0.00000000E+00
  0.00000000E+00  0.00000000E+00  0.00000000E+00
  0.00000000E+00  0.00000000E+00  0.00000000E+00
  0.00000000E+00  0.00000000E+00  0.00000000E+00
  0.00000000E+00  0.00000000E+00  0.00000000E+00
  0.00000000E+00  0.00000000E+00  0.00000000E+00
  0.00000000E+00  0.00000000E+00  0.00000000E+00
  0.00000000E+00  0.00000000E+00  0.00000000E+00
  0.00000000E+00  0.00000000E+00  0.00000000E+00
  0.00000000E+00  0.00000000E+00  0.00000000E+00
  0.00000000E+00  0.00000000E+00  0.00000000E+00
