supercell of POSCAR                     
   1.01800000000000     
     3.1310994802600001   -5.4896946145000003   10.0244832682999991
    -9.4821132118399998   -5.5089477087900001    0.0170740616273000
     6.3359946057599998  -11.0114127993000004  -10.0652216442999993
   Al   Gd   N 
    83    12    96
Direct
  0.0915056567918455  0.5808320351875196  0.3308494957274561
  0.5009629391418642  0.3238202644766517  0.2546146181538020
  0.0865319235154018  0.0832901183527355  0.3335374917263607
  0.2528017549416930  0.5784203477949674  0.4929408884383051
  0.3317717035605483  0.3225649314154495  0.0789985557451516
  0.4179491767084045  0.0882623948205605  0.1692082502840861
  0.0081889546278830  0.8420659542316216  0.2536380211478928
  0.1680965037602320  0.3302316032199855  0.4119585917918869
  0.2481179443856689  0.0860094354175516  0.4957638469332579
  0.1611980582047394  0.8355885541703003  0.4158998163489187
  0.1450570303049190  0.6729005472202800  0.1633464624496952
  0.2448187581989174  0.3948391534171591  0.2499778831796959
  0.3352693404374705  0.1623859491418926  0.3333921095756409
  0.0100103802053155  0.6719944720696418  0.4942941981704863
  0.1666081997814359  0.1554086901998559  0.1665356860392322
  0.2534524955145727  0.9203743309562284  0.2519508302562485
  0.4153020110244370  0.4086360910256204  0.4148576553510708
  0.5007655616975626  0.1591644547450812  0.4975550480687403
  0.0795388491706177  0.9226500978820837  0.0784357573694905
  0.4247702902142763  0.9209794786359282  0.4120191174287555
  0.0895137052250377  0.5856816487030372  0.8356275411235856
  0.4994052392060340  0.3231542973163215  0.7546953719962133
  0.0853759950175359  0.0858046633451437  0.8347203052422998
  0.2517558073621160  0.5776326039979338  0.9961413021504057
  0.3317522709304939  0.3173261325445580  0.5781227212660909
  0.4170434104378202  0.0867123707814415  0.6706932606959697
  0.0067123452410769  0.8441949831047069  0.7558840907349094
  0.1668149175191473  0.3329537834164498  0.9133813326197497
  0.2474268215405786  0.0875281947429940  0.9961276053636681
  0.1619551566850106  0.8381839366806574  0.9159498708720974
  0.3355953653459522  0.6749567729131840  0.8401269292083740
  0.1543620483308175  0.6760880637171098  0.6663002415425439
  0.2496070723813446  0.4024202009978666  0.7525237152985156
  0.3336021431233434  0.1656380786719609  0.8340290702678033
  0.0020225885575798  0.6762006524664415  0.9921585797403765
  0.1667832935722373  0.1591200009220444  0.6695276914840775
  0.2523453440962697  0.9210142153695173  0.7554158562536557
  0.4128326059436418  0.4162384549355878  0.9154379912004416
  0.4981604899116689  0.1653484866866251  0.9968176574435716
  0.0837992108433028  0.9235759616407435  0.5802255182063476
  0.4190044792555412  0.9230961089344518  0.9110532377973470
  0.6036406576206588  0.5798425675087771  0.3364465805982562
  0.0007449191034539  0.3194864643560464  0.2554600584361566
  0.5881017433181270  0.0870837039409551  0.3339894379946031
  0.7554585504698110  0.5774012903462378  0.4959361204899864
  0.8308742968930432  0.3185831666240730  0.0780815904969216
  0.9178579940394371  0.0854623572222053  0.1690066148727496
  0.5165023881303483  0.8533028045709017  0.2516021059621778
  0.6702864829882031  0.3302391631111661  0.4127834394666792
  0.7493185451354947  0.0860526576219911  0.4962392429915923
  0.6649189980645289  0.8367018379130684  0.4146378182912613
  0.8421205504792795  0.6722630530217373  0.3422413413767416
  0.6351612590576607  0.6797543384639866  0.1823713021751843
  0.7543063930824090  0.3978987783830092  0.2533919170013732
  0.8364467009324343  0.1622191518128488  0.3345181569678743
  0.5120037432323628  0.6743871170547067  0.4956049931063617
  0.6680075141817383  0.1602489149894950  0.1685099711158102
  0.7570817840435140  0.9228889804230889  0.2544579350925602
  0.9148936378357391  0.4128241804553028  0.4156967079021499
  0.9996018688443726  0.1604761436835531  0.4970649412893309
  0.5837455359827075  0.9284267085693259  0.0778500504963588
  0.9211475979103980  0.9191117169871177  0.4115659284403321
  0.5881733181496926  0.5848541026718976  0.8343174514583751
  0.9996873689090293  0.3229406373658179  0.7555587387713985
  0.5854062651905565  0.0863602362103677  0.8339701790548091
  0.7463597009896077  0.5743000780155256  0.9936365830638678
  0.8326181645615591  0.3177694873301746  0.5787759005728503
  0.9172910869660313  0.0870822708171133  0.6710009770971794
  0.5068216105738301  0.8443885371953925  0.7545703365462231
  0.6661845745867794  0.3317846646258715  0.9128781792759142
  0.7483624354920053  0.0881178524060573  0.9955260885744508
  0.6613562467603060  0.8386989132656382  0.9147581326557628
  0.8348761339669863  0.6747999497895592  0.8401995071413140
  0.6556805560451764  0.6759032329826056  0.6677477520937813
  0.7493083799809810  0.4022717605043695  0.7521302124430918
  0.8338318017160518  0.1656036301800938  0.8338253995487364
  0.5034742779545596  0.6776234128001732  0.9935296853999560
  0.6670025438910798  0.1596796491698527  0.6691225590903116
  0.7524876626132055  0.9215111858229648  0.7553187518116573
  0.9122541758288492  0.4155785019785441  0.9155544681411456
  0.9983767413823088  0.1633826029870349  0.9966917624684299
  0.5852033249959945  0.9232125757028271  0.5798953385978436
  0.9176023851652246  0.9218965763211031  0.9123870741555251
  0.3801061629785920  0.5899029286448538  0.2040862609561387
  0.3314867520642153  0.8324782373866810  0.0825025844833149
  0.0794214005755691  0.4240967718112429  0.0885340883755106
  0.3964051323207229  0.5801925248341107  0.6785437134610532
  0.3330280963820016  0.8356849543328551  0.5821765800002510
  0.0825747962610066  0.4192137375439486  0.5846463877856181
  0.8859657151158444  0.5804382996108970  0.1799031175283758
  0.8224494192464604  0.8259027086695028  0.0844980422639026
  0.5770850647896566  0.4289598425418291  0.0890492910272869
  0.8990320696831162  0.5794306059974730  0.6800769777173912
  0.8340517444200728  0.8349518803744900  0.5832674431610201
  0.5805924699084954  0.4201659902285400  0.5833265077625711
  0.1954956928449505  0.5616315648414201  0.2506370855178801
  0.0200079081439029  0.6172453575726564  0.0981953035170022
  0.1280224172727671  0.3090161656307160  0.1982643730616545
  0.2131121376819181  0.0818417257929198  0.2708033126676312
  0.3953379938810002  0.5694123316765882  0.4523088412338723
  0.4498687132133057  0.3236275959522672  0.0115259754680039
  0.0403685316068305  0.0844893455804296  0.1019657945191739
  0.1327284460267322  0.8412750404798359  0.1845054761709335
  0.2963899479889136  0.3279952677341385  0.3512339338575146
  0.3779560057156743  0.0808824007777389  0.4352279210981678
  0.4756507170980910  0.8420553787983636  0.0072155071440960
  0.2902567323856715  0.8574553057237893  0.3580265731569838
  0.5255727161875967  0.6883595372169040  0.2670983551570529
  0.2640496761743805  0.6500693856329107  0.0979305641057309
  0.3768020323340053  0.3901458226314531  0.1857253625306399
  0.4627932443112712  0.1633861087756330  0.2730020567329703
  0.1368585449156043  0.6637053392483310  0.4303580013347883
  0.2212132578868307  0.4124661111721295  0.0106552154108570
  0.2913431467392371  0.1593850493574962  0.1017239596108510
  0.3869499250312671  0.9267008916507180  0.1995892231610483
  0.0431526846491153  0.4160444826648728  0.3522906223947899
  0.1274103148259869  0.1690020595355364  0.4339870484120070
  0.1961464352478188  0.9313342974316043  0.0107568694374365
  0.0480622764921890  0.9224290323798527  0.3514327688085359
  0.2181851147895131  0.5823501930858086  0.7669052990038310
  0.0330393769933579  0.6114965598876836  0.6012746530753219
  0.1296098740980014  0.3179636560396020  0.7002119181280619
  0.2119028303073520  0.0832438263064574  0.7723677519149632
  0.3809178687557164  0.5855273723848526  0.9374718616973823
  0.4488076204327598  0.3151669495025118  0.5104969529972934
  0.0407558656641314  0.0851379267252454  0.6038750401386963
  0.1315156639761383  0.8429501743974299  0.6863729256403275
  0.2954968924631913  0.3312122911328572  0.8529738431354659
  0.3762127228859384  0.0832733351967718  0.9350964054970206
  0.4782998307808981  0.8376652418694306  0.5075072422174429
  0.2922593956052921  0.8364644681394964  0.8562520352891170
  0.4709097857333475  0.6856903191521511  0.7867984108270392
  0.2620368775369144  0.6551674841239929  0.5942206901925644
  0.3734005962100184  0.3830556633295004  0.6848130865017694
  0.4610645023717126  0.1635756685275993  0.7734760192380818
  0.1337100135714380  0.6668214651959872  0.9345988058492409
  0.2246849793222907  0.4111073916194385  0.5086084026059865
  0.2897287616208502  0.1568955153237681  0.6019719208573591
  0.3837624205517827  0.9275060582128702  0.7010635063099073
  0.0420820754327380  0.4208539112714718  0.8521498461958856
  0.1264280479260407  0.1715446088919990  0.9346264031182159
  0.1967124003078808  0.9309951140230979  0.5104507721462568
  0.0473239603702140  0.9248102479056755  0.8533516479430006
  0.7321290758498051  0.5731866854991097  0.2718941920548801
  0.5196418063866233  0.6209987525788776  0.1028657868742116
  0.6315397231661350  0.3188065205256692  0.1996929751721694
  0.7142248276635286  0.0840987982910661  0.2719096174742290
  0.8859535463935728  0.5824276204979668  0.4392977779969485
  0.9492793088725833  0.3218737837575745  0.0112057179483642
  0.5410773949132164  0.0889321408168797  0.1026673650827803
  0.6393118754098595  0.8535176229816628  0.1814384837493250
  0.7983081872272777  0.3263403651336674  0.3534223992563810
  0.8780524648589179  0.0792193930659408  0.4355441582012460
  0.9690539363660591  0.8395079434711548  0.0086893296575781
  0.7947507302363732  0.8344952933890539  0.3548571656154564
  0.9727000457869721  0.6832526232678973  0.2855307806525005
  0.7363921431727078  0.6424577807349223  0.0977614366523980
  0.8773615364805565  0.3827747611998831  0.1851077925740228
  0.9619324421931097  0.1597461735720174  0.2732067285105515
  0.6383804617382509  0.6656774855913667  0.4343043917706524
  0.7197582417342616  0.4097993517985330  0.0107137908138242
  0.7906992296991646  0.1576673873490009  0.1017043301966325
  0.8863630489573282  0.9251950040825037  0.1980072677214366
  0.5451217823042782  0.4188764582853537  0.3517300177642539
  0.6280508866946448  0.1700333747865770  0.4349054838109510
  0.6986200854927844  0.9321906919070884  0.0090920886665629
  0.5509449559719286  0.9256894030067286  0.3521620350387948
  0.7177012175372113  0.5822376686568731  0.7671713221186351
  0.5341085323386991  0.6126540533666471  0.6023044999666780
  0.6290628164819125  0.3187581231955150  0.6989216055815319
  0.7119544185200155  0.0838648222575813  0.7719302578261420
  0.8774658344822654  0.5847068576020362  0.9375695843138416
  0.9498384745970014  0.3180576824067813  0.5112603981767734
  0.5412505889628960  0.0843180344268006  0.6038800089381056
  0.6323073315708143  0.8430800223385475  0.6859861455953720
  0.7949391844851519  0.3309187299803895  0.8526620956343223
  0.8762721186827491  0.0833011341797203  0.9345416293969393
  0.9779693913596859  0.8364281890451934  0.5073990483934026
  0.7913127825449493  0.8361635901381419  0.8555913565882349
  0.9710861172409366  0.6856577935110906  0.7883569845802327
  0.7638624862417913  0.6539065788575442  0.5963064646739866
  0.8737370189034834  0.3826461385791191  0.6856783076937987
  0.9615240337982200  0.1633218891389632  0.7739168860245798
  0.6319269368426390  0.6667200002265758  0.9334107862566796
  0.7251501808765823  0.4115667600518265  0.5094214145131843
  0.7901608323551628  0.1572296352259741  0.6021199983137748
  0.8843095807659083  0.9278472133049718  0.7015824900184384
  0.5420480518345983  0.4202721017774991  0.8514886895260503
  0.6258684602659983  0.1709076835665613  0.9342215549772632
  0.6987062461200750  0.9304553099002604  0.5100117653128606
  0.5475560304081313  0.9253314296802415  0.8518453343251480
 
  0.00000000E+00  0.00000000E+00  0.00000000E+00
  0.00000000E+00  0.00000000E+00  0.00000000E+00
  0.00000000E+00  0.00000000E+00  0.00000000E+00
  0.00000000E+00  0.00000000E+00  0.00000000E+00
  0.00000000E+00  0.00000000E+00  0.00000000E+00
  0.00000000E+00  0.00000000E+00  0.00000000E+00
  0.00000000E+00  0.00000000E+00  0.00000000E+00
  0.00000000E+00  0.00000000E+00  0.00000000E+00
  0.00000000E+00  0.00000000E+00  0.00000000E+00
  0.00000000E+00  0.00000000E+00  0.00000000E+00
  0.00000000E+00  0.00000000E+00  0.00000000E+00
  0.00000000E+00  0.00000000E+00  0.00000000E+00
  0.00000000E+00  0.00000000E+00  0.00000000E+00
  0.00000000E+00  0.00000000E+00  0.00000000E+00
  0.00000000E+00  0.00000000E+00  0.00000000E+00
  0.00000000E+00  0.00000000E+00  0.00000000E+00
  0.00000000E+00  0.00000000E+00  0.00000000E+00
  0.00000000E+00  0.00000000E+00  0.00000000E+00
  0.00000000E+00  0.00000000E+00  0.00000000E+00
  0.00000000E+00  0.00000000E+00  0.00000000E+00
  0.00000000E+00  0.00000000E+00  0.00000000E+00
  0.00000000E+00  0.00000000E+00  0.00000000E+00
  0.00000000E+00  0.00000000E+00  0.00000000E+00
  0.00000000E+00  0.00000000E+00  0.00000000E+00
  0.00000000E+00  0.00000000E+00  0.00000000E+00
  0.00000000E+00  0.00000000E+00  0.00000000E+00
  0.00000000E+00  0.00000000E+00  0.00000000E+00
  0.00000000E+00  0.00000000E+00  0.00000000E+00
  0.00000000E+00  0.00000000E+00  0.00000000E+00
  0.00000000E+00  0.00000000E+00  0.00000000E+00
  0.00000000E+00  0.00000000E+00  0.00000000E+00
  0.00000000E+00  0.00000000E+00  0.00000000E+00
  0.00000000E+00  0.00000000E+00  0.00000000E+00
  0.00000000E+00  0.00000000E+00  0.00000000E+00
  0.00000000E+00  0.00000000E+00  0.00000000E+00
  0.00000000E+00  0.00000000E+00  0.00000000E+00
  0.00000000E+00  0.00000000E+00  0.00000000E+00
  0.00000000E+00  0.00000000E+00  0.00000000E+00
  0.00000000E+00  0.00000000E+00  0.00000000E+00
  0.00000000E+00  0.00000000E+00  0.00000000E+00
  0.00000000E+00  0.00000000E+00  0.00000000E+00
  0.00000000E+00  0.00000000E+00  0.00000000E+00
  0.00000000E+00  0.00000000E+00  0.00000000E+00
  0.00000000E+00  0.00000000E+00  0.00000000E+00
  0.00000000E+00  0.00000000E+00  0.00000000E+00
  0.00000000E+00  0.00000000E+00  0.00000000E+00
  0.00000000E+00  0.00000000E+00  0.00000000E+00
  0.00000000E+00  0.00000000E+00  0.00000000E+00
  0.00000000E+00  0.00000000E+00  0.00000000E+00
  0.00000000E+00  0.00000000E+00  0.00000000E+00
  0.00000000E+00  0.00000000E+00  0.00000000E+00
  0.00000000E+00  0.00000000E+00  0.00000000E+00
  0.00000000E+00  0.00000000E+00  0.00000000E+00
  0.00000000E+00  0.00000000E+00  0.00000000E+00
  0.00000000E+00  0.00000000E+00  0.00000000E+00
  0.00000000E+00  0.00000000E+00  0.00000000E+00
  0.00000000E+00  0.00000000E+00  0.00000000E+00
  0.00000000E+00  0.00000000E+00  0.00000000E+00
  0.00000000E+00  0.00000000E+00  0.00000000E+00
  0.00000000E+00  0.00000000E+00  0.00000000E+00
  0.00000000E+00  0.00000000E+00  0.00000000E+00
  0.00000000E+00  0.00000000E+00  0.00000000E+00
  0.00000000E+00  0.00000000E+00  0.00000000E+00
  0.00000000E+00  0.00000000E+00  0.00000000E+00
  0.00000000E+00  0.00000000E+00  0.00000000E+00
  0.00000000E+00  0.00000000E+00  0.00000000E+00
  0.00000000E+00  0.00000000E+00  0.00000000E+00
  0.00000000E+00  0.00000000E+00  0.00000000E+00
  0.00000000E+00  0.00000000E+00  0.00000000E+00
  0.00000000E+00  0.00000000E+00  0.00000000E+00
  0.00000000E+00  0.00000000E+00  0.00000000E+00
  0.00000000E+00  0.00000000E+00  0.00000000E+00
  0.00000000E+00  0.00000000E+00  0.00000000E+00
  0.00000000E+00  0.00000000E+00  0.00000000E+00
  0.00000000E+00  0.00000000E+00  0.00000000E+00
  0.00000000E+00  0.00000000E+00  0.00000000E+00
  0.00000000E+00  0.00000000E+00  0.00000000E+00
  0.00000000E+00  0.00000000E+00  0.00000000E+00
  0.00000000E+00  0.00000000E+00  0.00000000E+00
  0.00000000E+00  0.00000000E+00  0.00000000E+00
  0.00000000E+00  0.00000000E+00  0.00000000E+00
  0.00000000E+00  0.00000000E+00  0.00000000E+00
  0.00000000E+00  0.00000000E+00  0.00000000E+00
  0.00000000E+00  0.00000000E+00  0.00000000E+00
  0.00000000E+00  0.00000000E+00  0.00000000E+00
  0.00000000E+00  0.00000000E+00  0.00000000E+00
  0.00000000E+00  0.00000000E+00  0.00000000E+00
  0.00000000E+00  0.00000000E+00  0.00000000E+00
  0.00000000E+00  0.00000000E+00  0.00000000E+00
  0.00000000E+00  0.00000000E+00  0.00000000E+00
  0.00000000E+00  0.00000000E+00  0.00000000E+00
  0.00000000E+00  0.00000000E+00  0.00000000E+00
  0.00000000E+00  0.00000000E+00  0.00000000E+00
  0.00000000E+00  0.00000000E+00  0.00000000E+00
  0.00000000E+00  0.00000000E+00  0.00000000E+00
  0.00000000E+00  0.00000000E+00  0.00000000E+00
  0.00000000E+00  0.00000000E+00  0.00000000E+00
  0.00000000E+00  0.00000000E+00  0.00000000E+00
  0.00000000E+00  0.00000000E+00  0.00000000E+00
  0.00000000E+00  0.00000000E+00  0.00000000E+00
  0.00000000E+00  0.00000000E+00  0.00000000E+00
  0.00000000E+00  0.00000000E+00  0.00000000E+00
  0.00000000E+00  0.00000000E+00  0.00000000E+00
  0.00000000E+00  0.00000000E+00  0.00000000E+00
  0.00000000E+00  0.00000000E+00  0.00000000E+00
  0.00000000E+00  0.00000000E+00  0.00000000E+00
  0.00000000E+00  0.00000000E+00  0.00000000E+00
  0.00000000E+00  0.00000000E+00  0.00000000E+00
  0.00000000E+00  0.00000000E+00  0.00000000E+00
  0.00000000E+00  0.00000000E+00  0.00000000E+00
  0.00000000E+00  0.00000000E+00  0.00000000E+00
  0.00000000E+00  0.00000000E+00  0.00000000E+00
  0.00000000E+00  0.00000000E+00  0.00000000E+00
  0.00000000E+00  0.00000000E+00  0.00000000E+00
  0.00000000E+00  0.00000000E+00  0.00000000E+00
  0.00000000E+00  0.00000000E+00  0.00000000E+00
  0.00000000E+00  0.00000000E+00  0.00000000E+00
  0.00000000E+00  0.00000000E+00  0.00000000E+00
  0.00000000E+00  0.00000000E+00  0.00000000E+00
  0.00000000E+00  0.00000000E+00  0.00000000E+00
  0.00000000E+00  0.00000000E+00  0.00000000E+00
  0.00000000E+00  0.00000000E+00  0.00000000E+00
  0.00000000E+00  0.00000000E+00  0.00000000E+00
  0.00000000E+00  0.00000000E+00  0.00000000E+00
  0.00000000E+00  0.00000000E+00  0.00000000E+00
  0.00000000E+00  0.00000000E+00  0.00000000E+00
  0.00000000E+00  0.00000000E+00  0.00000000E+00
  0.00000000E+00  0.00000000E+00  0.00000000E+00
  0.00000000E+00  0.00000000E+00  0.00000000E+00
  0.00000000E+00  0.00000000E+00  0.00000000E+00
  0.00000000E+00  0.00000000E+00  0.00000000E+00
  0.00000000E+00  0.00000000E+00  0.00000000E+00
  0.00000000E+00  0.00000000E+00  0.00000000E+00
  0.00000000E+00  0.00000000E+00  0.00000000E+00
  0.00000000E+00  0.00000000E+00  0.00000000E+00
  0.00000000E+00  0.00000000E+00  0.00000000E+00
  0.00000000E+00  0.00000000E+00  0.00000000E+00
  0.00000000E+00  0.00000000E+00  0.00000000E+00
  0.00000000E+00  0.00000000E+00  0.00000000E+00
  0.00000000E+00  0.00000000E+00  0.00000000E+00
  0.00000000E+00  0.00000000E+00  0.00000000E+00
  0.00000000E+00  0.00000000E+00  0.00000000E+00
  0.00000000E+00  0.00000000E+00  0.00000000E+00
  0.00000000E+00  0.00000000E+00  0.00000000E+00
  0.00000000E+00  0.00000000E+00  0.00000000E+00
  0.00000000E+00  0.00000000E+00  0.00000000E+00
  0.00000000E+00  0.00000000E+00  0.00000000E+00
  0.00000000E+00  0.00000000E+00  0.00000000E+00
  0.00000000E+00  0.00000000E+00  0.00000000E+00
  0.00000000E+00  0.00000000E+00  0.00000000E+00
  0.00000000E+00  0.00000000E+00  0.00000000E+00
  0.00000000E+00  0.00000000E+00  0.00000000E+00
  0.00000000E+00  0.00000000E+00  0.00000000E+00
  0.00000000E+00  0.00000000E+00  0.00000000E+00
  0.00000000E+00  0.00000000E+00  0.00000000E+00
  0.00000000E+00  0.00000000E+00  0.00000000E+00
  0.00000000E+00  0.00000000E+00  0.00000000E+00
  0.00000000E+00  0.00000000E+00  0.00000000E+00
  0.00000000E+00  0.00000000E+00  0.00000000E+00
  0.00000000E+00  0.00000000E+00  0.00000000E+00
  0.00000000E+00  0.00000000E+00  0.00000000E+00
  0.00000000E+00  0.00000000E+00  0.00000000E+00
  0.00000000E+00  0.00000000E+00  0.00000000E+00
  0.00000000E+00  0.00000000E+00  0.00000000E+00
  0.00000000E+00  0.00000000E+00  0.00000000E+00
  0.00000000E+00  0.00000000E+00  0.00000000E+00
  0.00000000E+00  0.00000000E+00  0.00000000E+00
  0.00000000E+00  0.00000000E+00  0.00000000E+00
  0.00000000E+00  0.00000000E+00  0.00000000E+00
  0.00000000E+00  0.00000000E+00  0.00000000E+00
  0.00000000E+00  0.00000000E+00  0.00000000E+00
  0.00000000E+00  0.00000000E+00  0.00000000E+00
  0.00000000E+00  0.00000000E+00  0.00000000E+00
  0.00000000E+00  0.00000000E+00  0.00000000E+00
  0.00000000E+00  0.00000000E+00  0.00000000E+00
  0.00000000E+00  0.00000000E+00  0.00000000E+00
  0.00000000E+00  0.00000000E+00  0.00000000E+00
  0.00000000E+00  0.00000000E+00  0.00000000E+00
  0.00000000E+00  0.00000000E+00  0.00000000E+00
  0.00000000E+00  0.00000000E+00  0.00000000E+00
  0.00000000E+00  0.00000000E+00  0.00000000E+00
  0.00000000E+00  0.00000000E+00  0.00000000E+00
  0.00000000E+00  0.00000000E+00  0.00000000E+00
  0.00000000E+00  0.00000000E+00  0.00000000E+00
  0.00000000E+00  0.00000000E+00  0.00000000E+00
  0.00000000E+00  0.00000000E+00  0.00000000E+00
  0.00000000E+00  0.00000000E+00  0.00000000E+00
  0.00000000E+00  0.00000000E+00  0.00000000E+00
  0.00000000E+00  0.00000000E+00  0.00000000E+00
  0.00000000E+00  0.00000000E+00  0.00000000E+00
  0.00000000E+00  0.00000000E+00  0.00000000E+00
