Ti   Zn   N
1.0
  6.611525877024629 -4.7315849799e-06 -3.869431361e-07
  4.299821512e-07 5.74913168888169 3.67829093876e-05
  1.8301714346e-06 -8.22520728e-08 5.276308867133616
 Ti  Zn  N 
4 4 8 
direct
    0.3741734638710084  -0.9210428312119595  -0.0089014513360647
    0.1258265272691282  -0.4210427007917066  -0.0089011599482957
    0.6258265706012333  -0.0900670144415835  -0.5089019890942478
    0.8741733643577047  -0.5900667946220842  -0.5089010212755354
    0.8760527256751258  -0.9185039688535220  -0.0077092637641187
    0.1239439418710565  -0.0926112141618269  -0.5077079153623926
    0.6239474432785859  -0.4185031231165726  -0.0077093933723793
    0.3760560072804965  -0.5926105785975571  -0.5077078662096732
    0.1341058970454331  -0.0942306546661742  -0.1152342153963290
    0.8658971371673601  -0.9168795744070709  -0.6152296531819255
    0.6154820421630559  -0.0771512636036730  -0.1374850393947738
    0.8845176492601603  -0.5771513663342828  -0.1374857182483014
    0.3845151417617069  -0.9339577903684371  -0.6374831286600556
    0.1154844701477657  -0.4339579251274424  -0.6374822352928039
    0.3658942799884113  -0.5942315584081644  -0.1152340825416058
    0.6341033383014019  -0.4168805301256663  -0.6152298250447146
