Ti   Zn   N
1.0
  6.858121920313155 1.33279244619e-05 -1.2917682113e-06
  4.299821508e-07 5.931933238601069 -1.86861073223e-05
  1.8301714293e-06 -8.22520886e-08 4.82369708845574
 Ti  Zn  N 
4 4 8 
direct
    0.3712520692187282  -0.9208622367682371  -0.0645983336911291
    0.1287478447115508  -0.4208623428886181  -0.0645988199327854
    0.6287473113303296  -0.0902454386727692  -0.5645998441154152
    0.8712526249437704  -0.5902455839710519  -0.5645995544785524
    0.8785188087041397  -0.9219459229883377  -0.0566486975163291
    0.1214801070919309  -0.0891736813633037  -0.5566461115852683
    0.6214807150691605  -0.4219459955216451  -0.0566489308302625
    0.3785206017278513  -0.5891734145461182  -0.5566454772523654
    0.1338667583818131  -0.0954413833159273  -0.9883114904549235
    0.8661334900294915  -0.9156661664886994  -0.4883128025598096
    0.6144414280704615  -0.0778933672105350  -0.9718088878728651
    0.8855584605970247  -0.5778929381930071  -0.9718088905729448
    0.3855569807077109  -0.9332165486785962  -0.4718079900488869
    0.1144428809437843  -0.4332166423889816  -0.4718081073956703
    0.3661336368360952  -0.5954411822603121  -0.9883119640304475
    0.6338662816645783  -0.4156660433700479  -0.4883134009904056
