Ti   Zn   N
1.0
  6.909314850910672 2.16530668057e-05 -1.6669063232e-06
  4.299821508e-07 5.976368227839496 -1.89477575934e-05
  1.8301714296e-06 -8.22520876e-08 4.710013853833179
 Ti  Zn  N 
4 4 8 
direct
    0.3707827952783965  -0.9211686122221782  -0.0591816141141516
    0.1292171460046759  -0.4211680882887973  -0.0591815531900825
    0.6292165106328047  -0.0899389449835814  -0.5591819693687985
    0.8707832078445634  -0.5899387609762304  -0.5591817788460650
    0.8792479702526330  -0.9219473389296404  -0.0485885775879518
    0.1207523900732603  -0.0891736932314150  -0.5485903323266854
    0.6207514279534622  -0.4219471899611485  -0.0485903619917356
    0.3792482109777733  -0.5891734000427362  -0.5485884681625286
    0.1337559786468628  -0.0961238655167681  -0.9939611299860525
    0.8662447826840405  -0.9149834049618203  -0.4939622179462830
    0.6143884172448199  -0.0776758734579932  -0.9796252637940257
    0.8856120699330151  -0.5776760781131074  -0.9796254941797817
    0.3856106271751299  -0.9334333675202259  -0.4796245442255703
    0.1143892702990393  -0.4334335308549579  -0.4796245642325773
    0.3662441830562269  -0.5961236182592067  -0.9939613537702994
    0.6337550119699529  -0.4149831213062732  -0.4939619382183710
