Ti   Zn   N
1.0
  6.61296186725 4.936723015e-07 2.2884614102e-06
  4.299821506e-07 5.75137597141 -9.04496687e-08
  1.8301714266e-06 -8.22520965e-08 5.28015213616
 Ti  Zn  N 
4 4 8 
direct
    0.3741787218799433  -0.9211673719768924  -0.0206603228679398
    0.1258208008868493  -0.4211675028353952  -0.0206603031471886
    0.6258208624372589  -0.0899438931121779  -0.5206601122633855
    0.8741789132073947  -0.5899434404361514  -0.5206601757422931
    0.8761067463155146  -0.9184803916921567  -0.0218016574253284
    0.1238938582007734  -0.0926300417878636  -0.5218014147469956
    0.6238937121144944  -0.4184809945494408  -0.0218018061882859
    0.3761073900184614  -0.5926305163596055  -0.5218020733809468
    0.1341628817864446  -0.0944156833101317  -0.9142501497528102
    0.8658373995568739  -0.9166946317960264  -0.4142496302301807
    0.6154414989382246  -0.0771064004523367  -0.8919025216112073
    0.8845587989699126  -0.5771072709094724  -0.8919019536398238
    0.3845580059688489  -0.9340039056029068  -0.3919019779452951
    0.1154410459944160  -0.4340046714234018  -0.3919023664031940
    0.3658363450229913  -0.5944168887868954  -0.9142498577551950
    0.6341630187571425  -0.4166952833354075  -0.4142503069674248
