Ti   Zn   N
1.0
  -6.9094500026387635 2.27570078409e-05 4.1703578499e-06
  -4.29982151e-07 -5.976312782740733 -1.39692127139e-05
  -1.8301714319e-06 8.22520807e-08 -4.709785188684254
 Ti  Zn  N 
4 4 8 
direct
   -0.3707836687077553   0.9211687466564160  -0.0178479622478609
   -0.1292174794369533   0.4211694279259227  -0.0178475288463426
   -0.6292160753472477   0.0899383395013028   0.4821519608849740
   -0.8707829643635863   0.5899384128385464   0.4821521936617760
   -0.8792481256251143   0.9219496391497879  -0.0072410142216819
   -0.1207516311297470   0.0891711221579243   0.4927579746868526
   -0.6207520247929919   0.4219494612668704  -0.0072413830483304
   -0.3792480760861984   0.5891713229735078   0.4927574687408536
   -0.1337540759867848   0.0961205894778163   0.0473434885534125
   -0.8662462086956449   0.9149864337331682   0.5473428534076592
   -0.6143886725021781   0.0776726184262796   0.0616716607392909
   -0.8856112416908105   0.5776727933076906   0.0616717081811630
   -0.3856095811624549   0.9334367818824905   0.5616720993987901
   -0.1143903955142224   0.4334365492483553   0.5616720272393561
   -0.3662455137569743   0.5961203880468195   0.0473433411474310
   -0.6337542652301446   0.4149862620361405   0.5473429553230634
