Ti   Zn   N
1.0
  6.956551723794381 -3.97207489326e-05 -3.3138467222e-06
  4.29982151e-07 6.018878952675605 1.29519676415e-05
  1.8301714316e-06 -8.22520817e-08 4.600503924162259
 Ti  Zn  N 
4 4 8 
direct
    0.3704056292306215  -0.9216320137011692   0.0112446920061492
    0.1295975947587739  -0.4216339083702146   0.0112436660383531
    0.6295937533133513  -0.0894753374763795  -0.4887555636406746
    0.8704032931813671  -0.5894744360795361  -0.4887558669122873
    0.8799948166713120  -0.9216314775442581  -0.0014492020087709
    0.1200033656224190  -0.0894876547041817  -0.5014491336616311
    0.6200050337008697  -0.4216315641101165  -0.0014479647667541
    0.3799966540332343  -0.5894876073430060  -0.5014477310751311
    0.1336023412719231  -0.0968915417140676  -0.0410146141488693
    0.8663972944936039  -0.9142160068084937  -0.5410140302872695
    0.6143479726240781  -0.0772587316366869  -0.0527019751968971
    0.8856526869235025  -0.5772607103178724  -0.0527018012936451
    0.3856496253329368  -0.9338511409091940  -0.5527027919761291
    0.1143494593066372  -0.4338496498469160  -0.5527020964693087
    0.3663965872023817  -0.5968923345864098  -0.0410151355769386
    0.6336038923621156  -0.4142147734805491  -0.5410143457557725
