Ti   Zn   N
1.0
  -6.956778948384946 2.7577462877e-06 5.5254203014e-06
  -4.299821508e-07 -6.0187371299249275 1.10880882306e-05
  -1.8301714299e-06 8.22520866e-08 -4.600708406617469
 Ti  Zn  N 
4 4 8 
direct
   -0.3704051401176309   0.9216313851601953   0.0525924395939061
   -0.1295947371968358   0.4216306971300663   0.0525914329722917
   -0.6295931703805157   0.0894768018774435   0.5525915440900779
   -0.8704064536925311   0.5894759379704767   0.5525930932644394
   -0.8799927392392635   0.9216342197563342   0.0399199043549048
   -0.1200058971147997   0.0894858897310099   0.5399255379078215
   -0.6200072410366023   0.4216334928589350   0.0399250503228629
   -0.3799942001004654   0.5894852184496223   0.5399204730993679
   -0.1336041732253903   0.0968886666120885   1.0002719778591365
   -0.8663961060374989   0.9142176713960487   0.5002730618592486
   -0.6143473911897067   0.0772672248991361   0.9885761261568283
   -0.8856522827452605   0.5772676606487539   0.9885752948023030
   -0.3856500652384846   0.9338426319703014   0.4885748330731666
   -0.1143495328120668   0.4338430861083228   0.4885756890353428
   -0.3663964184757665   0.5968897678102318   1.0002722598807632
   -0.6336044514235682   0.4142185362471243   0.5002724501502684
