Ti   Zn   N
1.0
  6.611804002522194 9.08645010446e-05 4.703030954e-07
  4.299821506e-07 5.7490569435565755 -3.42429989842e-05
  1.8301714273e-06 -8.22520945e-08 5.276070284173621
 Ti  Zn  N 
4 4 8 
direct
    0.3741702266379430  -0.9210445779663843  -0.0444401780450422
    0.1258279848778235  -0.4210437605073267  -0.0444401393818671
    0.6258300446024122  -0.0900657568979788  -0.5444406505077778
    0.8741717828459091  -0.5900670876630350  -0.5444406746563649
    0.8760586690042819  -0.9185168328718682  -0.0455765356329132
    0.1239417984474811  -0.0925970986421348  -0.5455771509768511
    0.6239387826460487  -0.4185179737595591  -0.0455771645212023
    0.3760610199805505  -0.5925959382614241  -0.5455764631780285
    0.1341080744925418  -0.0942302199135412  -0.9381038725880555
    0.8658922097625275  -0.9168795351100719  -0.4381039490514224
    0.6154825788886118  -0.0771521844654523  -0.9158780817514760
    0.8845188423017034  -0.5771519016403621  -0.9158774919007439
    0.3845173290523152  -0.9339580658803202  -0.4158773287849682
    0.1154810973179202  -0.4339582019931243  -0.4158774441302838
    0.3658932159784296  -0.5942305191000673  -0.9381041429383716
    0.6341063430715299  -0.4168792337933124  -0.4381049366994283
