Ti   Zn   N
1.0
  -6.801866981166177 -1.95852130329e-05 1.2858293576e-06
  -4.299821508e-07 -5.8852943804980065 1.46262345949e-05
  -1.8301714289e-06 8.22520896e-08 -4.941241017731006
 Ti  Zn  N 
4 4 8 
direct
   -0.3718342557587436   0.9207160666307505   0.0691669108197727
   -0.1281636901611152   0.4207140838635550   0.0691666555653077
   -0.6281652340590953   0.0903933095935441   0.5691672268369795
   -0.8718366086857903   0.5903943523732713   0.5691682312113753
   -0.8778015963133343   0.9215978706523114   0.0638716448966419
   -0.1221975085239603   0.0895185509661935   0.5638685692070690
   -0.6221996446725500   0.4215977830793763   0.0638693624459361
   -0.3778020326422494   0.5895179162164942   0.5638703462381582
   -0.1339362603051831   0.0948749800284314   0.9833721927124216
   -0.8660637156292689   0.9162339148133833   0.4833726345610462
   -0.6145503191214340   0.0779215810394599   0.9649969974542161
   -0.8854502065802085   0.5779219034646425   0.9649968659788826
   -0.3854479901414932   0.9331891115896540   0.4649968008916863
   -0.1145508399712109   0.4331884729113382   0.4649968255337559
   -0.3660630716170998   0.5948752141014154   0.9833717898133914
   -0.6339370258494379   0.4162337773026129   0.4833724674413605
