Ti   Zn   N
1.0
  -6.7405097653778965 -5.2857362667e-06 6.3996526e-07
  -4.299821507e-07 -5.836987534815001 4.9927382007e-06
  -1.8301714286e-06 8.22520906e-08 -5.060331263543486
 Ti  Zn  N 
4 4 8 
direct
   -0.3725411204588931   0.9207145791442841   0.0731101489605677
   -0.1274607770170560   0.4207192759784739   0.0731105775483304
   -0.6274594877103711   0.0903979046585368   0.5731099692807720
   -0.8725383838716563   0.5903937349582241   0.5731097873064571
   -0.8771026594900415   0.9208733167009057   0.0703055275245583
   -0.1228965797489997   0.0902354578707864   0.5703051308888728
   -0.6228971767600359   0.4208737550732564   0.0703049229352713
   -0.3771037750772278   0.5902348771736659   0.5703044049830460
   -0.1339870952724605   0.0944585404456890   0.9790806372099897
   -0.8660121457238932   0.9166533583899550   0.4790802751628558
   -0.6147465400301483   0.0777710190313113   0.9590944729742957
   -0.8852537113330917   0.5777709930115823   0.9590949103825848
   -0.3852529329399251   0.9333403520530277   0.4590947150310214
   -0.1147470253060800   0.4333402271364606   0.4590946171301071
   -0.3660118707609324   0.5944590243529281   0.9790823993556876
   -0.6339887185400154   0.4166524726479873   0.4790823869869819
