Ti   Zn   N
1.0
  -6.61296186725 -4.93672303e-07 -2.2884614168e-06
  -4.299821512e-07 -5.75137597141 9.0449646e-08
  -1.8301714349e-06 8.22520718e-08 -5.28015213616
 Ti  Zn  N 
4 4 8 
direct
   -0.3741787218764756   0.9211673720095559   0.0206598554001687
   -0.1258208008833819   0.4211675028680588   0.0206598356794174
   -0.6258208624337912   0.0899438931448415   0.5206596447956146
   -0.8741789132039275   0.5899434404688151   0.5206597082745219
   -0.8761067463120470   0.9184803917248273   0.0195185208427944
   -0.1238938581972988   0.0926300418205273   0.5195182781644618
   -0.6238937121110198   0.4184809945821044   0.0195186696057519
   -0.3761073900149939   0.5926305163922763   0.5195189367984128
   -0.1341628817829772   0.0944156833427954   0.1270700285153055
   -0.8658373995533992   0.9166946318286905   0.6270695089926762
   -0.6154414989347573   0.0771064004850004   0.1494176566569081
   -0.8845587989664453   0.5771072709421361   0.1494170886855244
   -0.3845580059653814   0.9340039056355708   0.6494171129909958
   -0.1154410459909485   0.4340046714560657   0.6494175014488945
   -0.3658363450195240   0.5944168888195590   0.1270697365176900
   -0.6341630187536679   0.4166952833680709   0.6270701857299202
