Ti   Zn   N
1.0
  -6.672388408629778 5.02699573826e-05 3.5049804856e-06
  -4.299821507e-07 -5.787573887964051 -3.9029708392e-06
  -1.8301714283e-06 8.22520916e-08 -5.180850349318425
 Ti  Zn  N 
4 4 8 
direct
   -0.3733925777615146   0.9208600928550246   0.0760979155461821
   -0.1266048477281557   0.4208557044601928   0.0761022832641480
   -0.6266095126145971   0.0902574147736062   0.5760989384480959
   -0.8733919869571101   0.5902549470710504   0.5761004069945985
   -0.8764627960020420   0.9197342711296477   0.0756147346350916
   -0.1235366023029828   0.0913743317552549   0.5756144643929798
   -0.6235380267915380   0.4197342518725984   0.0756143530229885
   -0.3764621698748078   0.5913754323030415   0.5756145893148228
   -0.1340451334443942   0.0942268427464719   0.9748621388220534
   -0.8659563174179465   0.9168841225708694   0.4748612582363221
   -0.6150778061072142   0.0774633854025739   0.9535036416779286
   -0.8849204898008084   0.5774631861624457   0.9535041199463339
   -0.3849190983023918   0.9336453395278504   0.4535005622012834
   -0.1150814370693619   0.4336466866197821   0.4535039633482921
   -0.3659571856721854   0.5942285647798425   0.9748601262174050
   -0.6340440120966820   0.4168843145902433   0.4748608611567696
