Ti   Zn   N
1.0
  6.611650718567091 -6.88359114863e-05 -1.514348e-07
  4.299821512e-07 5.749034769349498 4.00021601141e-05
  1.8301714342e-06 -8.22520738e-08 5.2762166732458144
 Ti  Zn  N 
4 4 8 
direct
    0.3741726285527602  -0.9210441952439905   0.0031380466006307
    0.1258285417141383  -0.4210449476114784   0.0031385107041295
    0.6258275822154764  -0.0900663927122523  -0.4968611468987978
    0.8741711984729784  -0.5900657189955512  -0.4968609724751749
    0.8760599857140527  -0.9185139429973918   0.0042804420485470
    0.1239400598156299  -0.0926001594961500  -0.4957198863174119
    0.6239411089343697  -0.4185131610928144   0.0042799008051406
    0.3760587917983630  -0.5926009457164471  -0.4957204156800799
    0.1341080293935299  -0.0942337572647558  -0.1032041450313612
    0.8658921099311560  -0.9168759252296403  -0.6032035822252975
    0.6154818843457767  -0.0771532314503774  -0.1254332155178264
    0.8845164468136769  -0.5771528467352547  -0.1254325814998245
    0.3845180324427422  -0.9339568838250502  -0.6254336546670487
    0.1154837589819809  -0.4339573318796112  -0.6254332807223010
    0.3658909890515359  -0.5942331587304148  -0.1032053736343032
    0.6341088519684169  -0.4168762898079198  -0.6032048640188292
