Ti   Zn   N
1.0
  -6.612880884182353 1.52893736027e-05 -9.3414539755e-06
  -4.299821507e-07 -5.749716075022016 2.63238158925e-05
  -1.8301714276e-06 8.22520935e-08 -5.274211860699217
 Ti  Zn  N 
4 4 8 
direct
   -0.3741575889734801   0.9210333842358330   0.0565765849844160
   -0.1258452840753173   0.4210309561633134   0.0565758907098623
   -0.6258437723524825   0.0900805977091482   0.5565746156113573
   -0.8741540487422105   0.5900773776274483   0.5565741945980108
   -0.8760639052600624   0.9185356270440431   0.0577193960607737
   -0.1239352410748368   0.0925796243069750   0.5577218085457312
   -0.6239357166201865   0.4185338457520329   0.0577200667872688
   -0.3760653129247773   0.5925792606808966   0.5577219667382314
   -0.1341067405926802   0.0942123863501262   0.9503268621352324
   -0.8659034583261542   0.9168760369222315   0.4503255185402819
   -0.6154722916205394   0.0771549866576218   0.9281397689385744
   -0.8845176076649196   0.5771619750370189   0.9281194412149583
   -0.3845155805229122   0.9339474748821508   0.4281137965684382
   -0.1154727864161528   0.4339553062614687   0.4281338828937352
   -0.3659013605356848   0.5942300189306239   0.9503269557074961
   -0.6341093040325881   0.4169000299510483   0.4503265476140893
