Ti   Zn   N
1.0
  -6.802002351353749 -2.02116517688e-05 2.2710318733e-06
  -4.29982151e-07 -5.885279450130831 -1.10165401745e-05
  -1.8301714326e-06 8.22520787e-08 -4.941141849239316
 Ti  Zn  N 
4 4 8 
direct
   -0.3718341846834829   0.9207145186792351  -0.0278487748507082
   -0.1281675527019802   0.4207165773835839  -0.0278483385538001
   -0.6281653875936738   0.0903929350461652   0.4721508764663921
   -0.8718338125450993   0.5903934769320973   0.4721509603038276
   -0.8778013437799226   0.9215997119941414  -0.0225359108793556
   -0.1221968704720743   0.0895160097161806   0.4774650240802553
   -0.6221974202444389   0.4216001202964005  -0.0225356397839896
   -0.3778040252859093   0.5895160453408848   0.4774645770521720
   -0.1339344816452718   0.0948744649269225   0.0579335377976925
   -0.8660648160472001   0.9162343663972122   0.5579328922689957
   -0.6145517635366118   0.0779202534750464   0.0763114098692213
   -0.8854484029928557   0.5779199852650200   0.0763112775826456
   -0.3854468991958674   0.9331906689277191   0.5763117313122804
   -0.1145529753167911   0.4331907092318009   0.5763116399120231
   -0.3660654156479440   0.5948742319703421   0.0579335291073294
   -0.6339346483332642   0.4162348130458932   0.5579331197820372
