Ti   Zn   N
1.0
  -6.612975184495499 0.0001874613183273 -7.978982836e-07
  -4.299821511e-07 -5.749659861131165 -5.10748898868e-05
  -1.8301714339e-06 8.22520748e-08 -5.274231511787838
 Ti  Zn  N 
4 4 8 
direct
   -0.3741580246298232   0.9210355271955376  -0.0152631455585947
   -0.1258445280248696   0.4210340520627893  -0.0152604357009574
   -0.6258398274277288   0.0900757951348183   0.4847376745826990
   -0.8741573295994721   0.5900734297531832   0.4847371611910768
   -0.8760646457767260   0.9185378099127269  -0.0164171580009232
   -0.1239351897172685   0.0925775418182603   0.4835800741682966
   -0.6239388469243357   0.4185349478841218  -0.0164182864229544
   -0.3760614930022559   0.5925797497540424   0.4835810104322773
   -0.1341064227285322   0.0942066340052455   0.0909843923753578
   -0.8659058883893700   0.9168759511917675   0.5909843601476437
   -0.6154707017006580   0.0771534748071066   0.1131751984520857
   -0.8845130748901530   0.5771626767188579   0.1132006636187772
   -0.3845167208399977   0.9339484601253542   0.6131998873938527
   -0.1154730653774792   0.4339575696898829   0.6131719751113690
   -0.3659026639654986   0.5942308254108249   0.0909875692938736
   -0.6341115773238981   0.4169044432785022   0.5909864125080591
