Ti   Zn   N
1.0
  -6.740556773598317 -9.3831642161e-06 2.616659823e-06
  -4.299821511e-07 -5.836999965393453 -5.644745139e-06
  -1.8301714329e-06 8.22520777e-08 -5.060335369707542
 Ti  Zn  N 
4 4 8 
direct
   -0.3725421696703641   0.9207156824020376  -0.0318017471677929
   -0.1274584566622334   0.4207156104191131  -0.0318013663227427
   -0.6274576642421578   0.0903966004465613   0.4681980665787234
   -0.8725416580534331   0.5903966925089257   0.4681981439873376
   -0.8771013868193714   0.9208692534947107  -0.0290191541889993
   -0.1228981345533466   0.0902393714297551   0.4709836090558453
   -0.6228981798952398   0.4208693779420057  -0.0290175959407492
   -0.3771025126392756   0.5902392269706412   0.4709834381871992
   -0.1339864882914205   0.0944551236361805   0.0622275780338639
   -0.8660129971494489   0.9166568227708815   0.5622268456943187
   -0.6147474843711150   0.0777686704123836   0.0822192671289013
   -0.8852524263224975   0.5777681107037369   0.0822192909235640
   -0.3852520023022774   0.9333431372501876   0.5822191042749065
   -0.1147476952444232   0.4333432774050748   0.5822190992123935
   -0.3660140265464939   0.5944546705660044   0.0622271145854440
   -0.6339867172491956   0.4166572602696795   0.5622271021692232
