Ti   Zn   N
1.0
  6.672190039013785 -5.5449700372e-06 -1.4481183619e-06
  4.299821511e-07 5.787480529800021 2.593020643e-07
  1.8301714332e-06 -8.22520767e-08 5.18111221096831
 Ti  Zn  N 
4 4 8 
direct
    0.3733991783733216  -0.9208553789341426   0.0348056643888603
    0.1265970255060614  -0.4208615658905804   0.0348121044765398
    0.6266107068626268  -0.0902634019976124  -0.4651897078665103
    0.8733968365720356  -0.5902520753640745  -0.4651895427359027
    0.8764612724403346  -0.9197307003379128   0.0343218867286478
    0.1235363880377822  -0.0913782367968960  -0.4656794645383163
    0.6235390054811303  -0.4197321441469581   0.0343217304400115
    0.3764624660218861  -0.5913768097057186  -0.4656793663225895
    0.1340441117573176  -0.0942217971394335  -0.0664354525695667
    0.8659551187665332  -0.9168888101136741  -0.5664360094744264
    0.6150776570366541  -0.0774606989084669  -0.0877945088217175
    0.8849217088869908  -0.5774611019385799  -0.0877937927313442
    0.3849165233608441  -0.9336473348113765  -0.5877980102853938
    0.1150821960754212  -0.4336479173196165  -0.5877973331326219
    0.3659580298337967  -0.5942268852709067  -0.0664352939940919
    0.6340417750933849  -0.4168840299583138  -0.5664359496427226
