Ti   Zn   N
1.0
  -7.000467508257512 1.75592347391e-05 3.938680086e-06
  -4.299821509e-07 -6.0601208831785165 -9.0980514003e-06
  -1.8301714312e-06 8.22520827e-08 -4.49718823334207
 Ti  Zn  N 
4 4 8 
direct
   -0.3700928012962291   0.9222535359887500  -0.0027071568755858
   -0.1299091421808359   0.4222598124756066  -0.0027071254143076
   -0.6299070027064525   0.0888477204980182   0.4972930351424474
   -0.8700944607719250   0.5888516951589223   0.4972929855117432
   -0.8808001847618163   0.9210284298649830   0.0103480685111178
   -0.1191980891070068   0.0900907594904872   0.5103493775360813
   -0.6191999958112824   0.4210291619709164   0.0103492272025763
   -0.3808016834576204   0.5900913584827971   0.5103484495492254
   -0.1334411162966914   0.0977346763312227   0.0340714882618233
   -0.8665582128918323   0.9133725303704867   0.5340707849024754
   -0.6142773668850882   0.0766552319193492   0.0421991711815836
   -0.8857207685215516   0.5766527321585574   0.0421991768377564
   -0.3857190294704714   0.9344581577628361   0.5421997666590945
   -0.1142795511954888   0.4344552735364048   0.5421996023137141
   -0.3665582660124939   0.5977352592994046   0.0340714499125672
   -0.6334423286621500   0.4133725533202816   0.5340707117807675
