Ti   Zn   N
1.0
  7.043286895773805 -1.02678078736e-05 -3.3467453187e-06
  4.299821509e-07 6.101146793521095 6.0614781889e-06
  1.8301714309e-06 -8.22520837e-08 4.403912949416817
 Ti  Zn  N 
4 4 8 
direct
    0.3698121900250386  -0.9230064546880639  -0.0095374358619016
    0.1301870177739353  -0.4230067524418640  -0.0095374488719956
    0.6301860035780029  -0.0881007181648296  -0.5095373555261286
    0.8698145483575480  -0.5881000923382137  -0.5095376003674530
    0.8816859080702164  -0.9201853035989841  -0.0176748067540151
    0.1183114236607902  -0.0909351068855360  -0.5176740194271811
    0.6183145711637653  -0.4201852919718604  -0.0176748873224778
    0.3816882086683220  -0.5909347783837102  -0.5176746016350617
    0.1334402234698371  -0.0986465038581448  -0.0265704330852671
    0.8665585603708797  -0.9124605585596851  -0.5265700784657835
    0.6140624110454982  -0.0758534039355515  -0.0298855693545087
    0.8859376878117764  -0.5758533463463452  -0.0298855564440938
    0.3859347732554417  -0.9352566588778689  -0.5298857539499968
    0.1140651492099378  -0.4352569738429399  -0.5298857894151767
    0.3665601835589797  -0.5986466963642206  -0.0265704341122868
    0.6334411400136284  -0.4124602483711873  -0.5265701854358287
