Ti   Zn   N
1.0
  6.621226873100069 1.70064985388e-05 -1.48654179404e-05
  4.299821511e-07 5.7543369807150775 6.23473898749e-05
  1.8301714336e-06 -8.22520758e-08 5.262311131467346
 Ti  Zn  N 
4 4 8 
direct
    0.3740545694948132  -0.9210073613977848   0.0274153542463043
    0.1259454864137523  -0.4210069118044250   0.0274143473378581
    0.6259444483809360  -0.0901026041182173  -0.4725831590343627
    0.8740558206156631  -0.5901027597126155  -0.4725856684579552
    0.8761026610302615  -0.9187102489730919   0.0283534158318443
    0.1238947412466688  -0.0924051010551243  -0.4716473417875112
    0.6238971023268719  -0.4187117929189014   0.0283539222985968
    0.3761054962422621  -0.5924057092593489  -0.4716467281531224
    0.1340921215783615  -0.0942033068988640  -0.0782038487145089
    0.8659039368082052  -0.9169105464288396  -0.5782023798057021
    0.6154142399061111  -0.0771930390103863  -0.1003287531099065
    0.8845886647196998  -0.5771900220183549  -0.1003259658895813
    0.3845863013637812  -0.9339197492925105  -0.6003254589402782
    0.1154160992762304  -0.4339169292928295  -0.6003316032729142
    0.3659058170153323  -0.5941983590586898  -0.0782031954689787
    0.6340924940401552  -0.4169044474543211  -0.5782026150822047
