Al   Sc   N                             
   1.00000000000000     
   -10.2081440270700572   -0.0242781264689491   -0.0092215562426790
    -5.0441520706158842    8.8086486027987068    0.0010696223006955
    -0.0156226655411035   -0.0174201431183126   -9.2538533081973409
   Al   Sc   N 
    25    11    36
Direct
  0.1143565963900031  0.0954033304821493  0.3523476153967096
  0.2316935746249271  0.1946717174054200  0.0890605254991783
  0.4425804960644228  0.0940884119022272  0.3252982493186920
  0.5477935187901579  0.2130308730802071  0.0855167920323225
  0.1122314804997231  0.0959349863681282  0.8791618651581672
  0.7667518446596233  0.1069017148256250  0.3236309041391365
  0.8863023902346683  0.2101518996872542  0.0963408412161755
  0.4466432834533691  0.0952201943764521  0.8368135002924646
  0.5600009979154947  0.1991812449615793  0.5764968639135688
  0.1183432525865911  0.4146443993574636  0.3181840909046727
  0.7710841625644491  0.4318929416914301  0.8351899389243584
  0.4526678014355170  0.4223462753997964  0.3381550413756713
  0.5563613294869825  0.5356138168543509  0.0826220466352297
  0.1150005201472624  0.4220036387839698  0.8491979409803605
  0.7741818516661851  0.4254087211903297  0.3264188228002141
  0.4509950923541268  0.4268143624280256  0.8251952489265975
  0.5579250827062623  0.5418168450283787  0.5783207333189964
  0.2278714324976150  0.8728134051419119  0.0944189374804978
  0.7730394749446390  0.7641811153119633  0.8273485418584414
  0.8758514752044135  0.8834811114233716  0.5848009478232612
  0.4445094373600398  0.7651991033500067  0.3236217783430533
  0.5495818524227616  0.8758493986356086  0.0752257268188714
  0.1079996720576020  0.7620956508470513  0.8431105985768212
  0.4525952601084811  0.7551592685701252  0.8407786147289471
  0.5503317676056056  0.8771361452866415  0.5892700492163740
  0.7695568516756524  0.0991360669875121  0.8519057447945286
  0.8823388079860521  0.2060796616071556  0.5906438499213422
  0.2335736581765246  0.2001990903979305  0.5948749229701349
  0.2370808308628085  0.5329114283232954  0.0922597572417203
  0.8896243709755964  0.5358511838559679  0.5983862841686474
  0.2274370388439735  0.5340546947894254  0.5993223422734104
  0.8836997414679288  0.5378360731430263  0.0914903740179511
  0.1110811582095650  0.7650601589646513  0.3492841207106494
  0.2301650534604605  0.8707062074593708  0.6047912824566168
  0.7623092546502903  0.7664966340821451  0.3529519182863652
  0.8838958263276595  0.8735934535423198  0.0989575614457010
  0.2269368403536305  0.2039952172955708  0.3503292542322072
  0.1119948040220748  0.0932044172859463  0.1038312142826712
  0.8980880711851995  0.2154356750236275  0.8690785907839427
  0.7644477540540819  0.0901173917412805  0.6204919375016544
  0.5537713497737826  0.2035690539633705  0.3674202315768937
  0.4475362585689666  0.0909949763120323  0.1181446884454616
  0.2291941366931312  0.1960146361491013  0.8689561210760104
  0.1098180352928750  0.0962946416685853  0.5806168435321126
  0.8852544883460070  0.2067976474265478  0.3468059102697367
  0.7639712152780049  0.1136717391257349  0.1092052854067944
  0.5303429878170078  0.2217438101038240  0.8808236056350864
  0.4659994339390536  0.0864045836613840  0.6307863817473134
  0.2319777761014166  0.5175049358369463  0.3564181567191653
  0.1226894794548130  0.4076262126273988  0.1026816621027606
  0.8822066373613282  0.5438923955003006  0.8564901125486699
  0.7584184079851397  0.4360474495406805  0.6279543963660430
  0.5556688860540220  0.5455193026873104  0.3703076118204294
  0.4662668604156650  0.4194694637327601  0.1330955382124444
  0.2303808783409309  0.5410766761130361  0.8548228707878351
  0.1140074429053257  0.4232843930212766  0.6422050388382488
  0.9025337012995891  0.5164213110732305  0.3548549302851924
  0.7651352088116710  0.4227454096675700  0.1190930085093314
  0.5545788898068409  0.5366837865490410  0.8770650440337704
  0.4685366555849555  0.4154352414628733  0.6160734209000935
  0.2346018536275878  0.8780059773934283  0.3529536525977974
  0.1198532710333211  0.7691287286189095  0.1105964313268899
  0.8940756259516291  0.8553909306514456  0.8646967453763352
  0.7657246878904331  0.7783358944630834  0.6107673754990657
  0.5274850286356809  0.8876583769573401  0.3807362187803562
  0.4466500265966289  0.7606313837917824  0.1124348782257911
  0.2233319710170818  0.8732368846434113  0.8628086653569440
  0.0884349861626532  0.7732651697163604  0.6091174987914698
  0.8726866910017463  0.8964133219015835  0.3601440742897779
  0.7520599319065511  0.7705659443576209  0.1237749228269820
  0.5562517188311489  0.8739896628746067  0.8694016266061695
  0.4668170472144126  0.7492498366240952  0.6339668002922281
 
  0.00000000E+00  0.00000000E+00  0.00000000E+00
  0.00000000E+00  0.00000000E+00  0.00000000E+00
  0.00000000E+00  0.00000000E+00  0.00000000E+00
  0.00000000E+00  0.00000000E+00  0.00000000E+00
  0.00000000E+00  0.00000000E+00  0.00000000E+00
  0.00000000E+00  0.00000000E+00  0.00000000E+00
  0.00000000E+00  0.00000000E+00  0.00000000E+00
  0.00000000E+00  0.00000000E+00  0.00000000E+00
  0.00000000E+00  0.00000000E+00  0.00000000E+00
  0.00000000E+00  0.00000000E+00  0.00000000E+00
  0.00000000E+00  0.00000000E+00  0.00000000E+00
  0.00000000E+00  0.00000000E+00  0.00000000E+00
  0.00000000E+00  0.00000000E+00  0.00000000E+00
  0.00000000E+00  0.00000000E+00  0.00000000E+00
  0.00000000E+00  0.00000000E+00  0.00000000E+00
  0.00000000E+00  0.00000000E+00  0.00000000E+00
  0.00000000E+00  0.00000000E+00  0.00000000E+00
  0.00000000E+00  0.00000000E+00  0.00000000E+00
  0.00000000E+00  0.00000000E+00  0.00000000E+00
  0.00000000E+00  0.00000000E+00  0.00000000E+00
  0.00000000E+00  0.00000000E+00  0.00000000E+00
  0.00000000E+00  0.00000000E+00  0.00000000E+00
  0.00000000E+00  0.00000000E+00  0.00000000E+00
  0.00000000E+00  0.00000000E+00  0.00000000E+00
  0.00000000E+00  0.00000000E+00  0.00000000E+00
  0.00000000E+00  0.00000000E+00  0.00000000E+00
  0.00000000E+00  0.00000000E+00  0.00000000E+00
  0.00000000E+00  0.00000000E+00  0.00000000E+00
  0.00000000E+00  0.00000000E+00  0.00000000E+00
  0.00000000E+00  0.00000000E+00  0.00000000E+00
  0.00000000E+00  0.00000000E+00  0.00000000E+00
  0.00000000E+00  0.00000000E+00  0.00000000E+00
  0.00000000E+00  0.00000000E+00  0.00000000E+00
  0.00000000E+00  0.00000000E+00  0.00000000E+00
  0.00000000E+00  0.00000000E+00  0.00000000E+00
  0.00000000E+00  0.00000000E+00  0.00000000E+00
  0.00000000E+00  0.00000000E+00  0.00000000E+00
  0.00000000E+00  0.00000000E+00  0.00000000E+00
  0.00000000E+00  0.00000000E+00  0.00000000E+00
  0.00000000E+00  0.00000000E+00  0.00000000E+00
  0.00000000E+00  0.00000000E+00  0.00000000E+00
  0.00000000E+00  0.00000000E+00  0.00000000E+00
  0.00000000E+00  0.00000000E+00  0.00000000E+00
  0.00000000E+00  0.00000000E+00  0.00000000E+00
  0.00000000E+00  0.00000000E+00  0.00000000E+00
  0.00000000E+00  0.00000000E+00  0.00000000E+00
  0.00000000E+00  0.00000000E+00  0.00000000E+00
  0.00000000E+00  0.00000000E+00  0.00000000E+00
  0.00000000E+00  0.00000000E+00  0.00000000E+00
  0.00000000E+00  0.00000000E+00  0.00000000E+00
  0.00000000E+00  0.00000000E+00  0.00000000E+00
  0.00000000E+00  0.00000000E+00  0.00000000E+00
  0.00000000E+00  0.00000000E+00  0.00000000E+00
  0.00000000E+00  0.00000000E+00  0.00000000E+00
  0.00000000E+00  0.00000000E+00  0.00000000E+00
  0.00000000E+00  0.00000000E+00  0.00000000E+00
  0.00000000E+00  0.00000000E+00  0.00000000E+00
  0.00000000E+00  0.00000000E+00  0.00000000E+00
  0.00000000E+00  0.00000000E+00  0.00000000E+00
  0.00000000E+00  0.00000000E+00  0.00000000E+00
  0.00000000E+00  0.00000000E+00  0.00000000E+00
  0.00000000E+00  0.00000000E+00  0.00000000E+00
  0.00000000E+00  0.00000000E+00  0.00000000E+00
  0.00000000E+00  0.00000000E+00  0.00000000E+00
  0.00000000E+00  0.00000000E+00  0.00000000E+00
  0.00000000E+00  0.00000000E+00  0.00000000E+00
  0.00000000E+00  0.00000000E+00  0.00000000E+00
  0.00000000E+00  0.00000000E+00  0.00000000E+00
  0.00000000E+00  0.00000000E+00  0.00000000E+00
  0.00000000E+00  0.00000000E+00  0.00000000E+00
  0.00000000E+00  0.00000000E+00  0.00000000E+00
  0.00000000E+00  0.00000000E+00  0.00000000E+00
