Al   Sc   N                             
   1.00000000000000     
   -10.0402474834067181   -0.0244679598934400   -0.0120294041156106
    -4.9723836032785478    8.6775697388981179    0.0020130152479599
    -0.0161261192015268   -0.0119297463823091   -9.7059298259409523
   Al   Sc   N 
    25    11    36
Direct
  0.1142890438193191  0.0945423568724806  0.3162609168708528
  0.2297510511682717  0.1955005035356336  0.0745771701020317
  0.4405061114463109  0.0956476742339234  0.3216731363885827
  0.5475035431123416  0.2121976391197720  0.0795905227012241
  0.1112693411501198  0.0992769036422061  0.8370519993805701
  0.7678691177647039  0.1082535337176083  0.3166627632804193
  0.8881607122701993  0.2107323300922275  0.0793308340393537
  0.4456169703196338  0.0955962219730466  0.8303553490053588
  0.5607596975881464  0.1997305979641197  0.5741926882758577
  0.1184766799691346  0.4131463625396563  0.3166762522484774
  0.7714837634677565  0.4317392849184500  0.8292971223877501
  0.4524283909481852  0.4221798165696953  0.3294633362496526
  0.5559068418184552  0.5372040993380836  0.0791573582677429
  0.1146617741486367  0.4234324867444670  0.8362255806636014
  0.7758454523423026  0.4235286505157276  0.3219555093662976
  0.4501749846140513  0.4270619613849433  0.8235478130364910
  0.5588116868053561  0.5395329697374294  0.5749247295031736
  0.2266399678825834  0.8730493379992055  0.0701102316010065
  0.7737456417613231  0.7646397872822490  0.8203158299171207
  0.8741739205516623  0.8857382595190444  0.5732422520556284
  0.4399702955371936  0.7684295292662142  0.3224173445117771
  0.5486788095060788  0.8760755858656069  0.0737868442598710
  0.1053190962226012  0.7608562746940422  0.8239209517464303
  0.4542533699853308  0.7547752740492584  0.8323799563821055
  0.5508797374869729  0.8775218135585803  0.5819281523122797
  0.7712653492176571  0.0972269802228851  0.8469177292422785
  0.8840702382766281  0.2039472231401831  0.5811545969492897
  0.2325756294094319  0.1978739702317895  0.5826901269786831
  0.2340827018030183  0.5349956324773828  0.0848779404717916
  0.8891090022371628  0.5354256895078464  0.5926443044940513
  0.2303213615128499  0.5315682310490999  0.5915656826692555
  0.8840820641358036  0.5377347791675859  0.0848039644558938
  0.1143719889041819  0.7650232095397413  0.3451947141348342
  0.2307389320590190  0.8715082950125890  0.5983163820722623
  0.7633228044655311  0.7645379849429261  0.3479627655768311
  0.8865317589283492  0.8721377474943708  0.0949241857533778
  0.2234760711105039  0.2020652182612679  0.3617438207692274
  0.1132344532887970  0.0916507815871697  0.1168836959859547
  0.8962544204722391  0.2181564444150155  0.8803069748112478
  0.7653539955031761  0.0892278040641870  0.6288312567523633
  0.5546151452928072  0.2045764926216123  0.3742806071003741
  0.4453071439336469  0.0925689830747345  0.1249672188986679
  0.2283091850739396  0.2004029904782954  0.8761889182418656
  0.1080330222306571  0.0983208251502958  0.6435579624420953
  0.8894866573142934  0.2044745412507183  0.3581796788158016
  0.7650782971807715  0.1141045194337522  0.1138940365729013
  0.5302789608109748  0.2208980839998134  0.8856694370433615
  0.4651350055259087  0.0865164710991735  0.6356918387789960
  0.2335125941265446  0.5159838490612287  0.3632428255987321
  0.1226788949617159  0.4066729012945700  0.1172514288409161
  0.8840068649078390  0.5433707367474412  0.8581232847546829
  0.7591006462147121  0.4332659528219622  0.6349811106814087
  0.5547159522075660  0.5443796933975165  0.3764474773491031
  0.4652603039475736  0.4194221356728818  0.1351109714179515
  0.2273269652325709  0.5411149556725903  0.8567333505265751
  0.1158534369925945  0.4207986952011495  0.6427622000319104
  0.9019906198363046  0.5154305366100687  0.3622178701209720
  0.7655773133376087  0.4216961807253981  0.1270936277380272
  0.5548744782391850  0.5381357857446076  0.8829130891406862
  0.4701581020608288  0.4144040649253498  0.6267675710369431
  0.2313464029349674  0.8861636623427458  0.3767639672897687
  0.1231350994188816  0.7704585021378918  0.1264814668020762
  0.8958239119587219  0.8524707318780358  0.8743612415096536
  0.7660957739818031  0.7792835208478408  0.6140768858643142
  0.5267023329452840  0.8889526619868846  0.3855623316245982
  0.4429068052113152  0.7627883529118620  0.1221428668802389
  0.2245813404230432  0.8692269836148370  0.8669803249378987
  0.0868323355114882  0.7730902666775421  0.6163159233085622
  0.8728764346881093  0.8979225311739540  0.3673048015662275
  0.7516050857359673  0.7705846172817132  0.1321358846053755
  0.5564225629618278  0.8738432182773010  0.8766405126616448
  0.4695908315144806  0.7479950147498968  0.6376416223266332
 
  0.00000000E+00  0.00000000E+00  0.00000000E+00
  0.00000000E+00  0.00000000E+00  0.00000000E+00
  0.00000000E+00  0.00000000E+00  0.00000000E+00
  0.00000000E+00  0.00000000E+00  0.00000000E+00
  0.00000000E+00  0.00000000E+00  0.00000000E+00
  0.00000000E+00  0.00000000E+00  0.00000000E+00
  0.00000000E+00  0.00000000E+00  0.00000000E+00
  0.00000000E+00  0.00000000E+00  0.00000000E+00
  0.00000000E+00  0.00000000E+00  0.00000000E+00
  0.00000000E+00  0.00000000E+00  0.00000000E+00
  0.00000000E+00  0.00000000E+00  0.00000000E+00
  0.00000000E+00  0.00000000E+00  0.00000000E+00
  0.00000000E+00  0.00000000E+00  0.00000000E+00
  0.00000000E+00  0.00000000E+00  0.00000000E+00
  0.00000000E+00  0.00000000E+00  0.00000000E+00
  0.00000000E+00  0.00000000E+00  0.00000000E+00
  0.00000000E+00  0.00000000E+00  0.00000000E+00
  0.00000000E+00  0.00000000E+00  0.00000000E+00
  0.00000000E+00  0.00000000E+00  0.00000000E+00
  0.00000000E+00  0.00000000E+00  0.00000000E+00
  0.00000000E+00  0.00000000E+00  0.00000000E+00
  0.00000000E+00  0.00000000E+00  0.00000000E+00
  0.00000000E+00  0.00000000E+00  0.00000000E+00
  0.00000000E+00  0.00000000E+00  0.00000000E+00
  0.00000000E+00  0.00000000E+00  0.00000000E+00
  0.00000000E+00  0.00000000E+00  0.00000000E+00
  0.00000000E+00  0.00000000E+00  0.00000000E+00
  0.00000000E+00  0.00000000E+00  0.00000000E+00
  0.00000000E+00  0.00000000E+00  0.00000000E+00
  0.00000000E+00  0.00000000E+00  0.00000000E+00
  0.00000000E+00  0.00000000E+00  0.00000000E+00
  0.00000000E+00  0.00000000E+00  0.00000000E+00
  0.00000000E+00  0.00000000E+00  0.00000000E+00
  0.00000000E+00  0.00000000E+00  0.00000000E+00
  0.00000000E+00  0.00000000E+00  0.00000000E+00
  0.00000000E+00  0.00000000E+00  0.00000000E+00
  0.00000000E+00  0.00000000E+00  0.00000000E+00
  0.00000000E+00  0.00000000E+00  0.00000000E+00
  0.00000000E+00  0.00000000E+00  0.00000000E+00
  0.00000000E+00  0.00000000E+00  0.00000000E+00
  0.00000000E+00  0.00000000E+00  0.00000000E+00
  0.00000000E+00  0.00000000E+00  0.00000000E+00
  0.00000000E+00  0.00000000E+00  0.00000000E+00
  0.00000000E+00  0.00000000E+00  0.00000000E+00
  0.00000000E+00  0.00000000E+00  0.00000000E+00
  0.00000000E+00  0.00000000E+00  0.00000000E+00
  0.00000000E+00  0.00000000E+00  0.00000000E+00
  0.00000000E+00  0.00000000E+00  0.00000000E+00
  0.00000000E+00  0.00000000E+00  0.00000000E+00
  0.00000000E+00  0.00000000E+00  0.00000000E+00
  0.00000000E+00  0.00000000E+00  0.00000000E+00
  0.00000000E+00  0.00000000E+00  0.00000000E+00
  0.00000000E+00  0.00000000E+00  0.00000000E+00
  0.00000000E+00  0.00000000E+00  0.00000000E+00
  0.00000000E+00  0.00000000E+00  0.00000000E+00
  0.00000000E+00  0.00000000E+00  0.00000000E+00
  0.00000000E+00  0.00000000E+00  0.00000000E+00
  0.00000000E+00  0.00000000E+00  0.00000000E+00
  0.00000000E+00  0.00000000E+00  0.00000000E+00
  0.00000000E+00  0.00000000E+00  0.00000000E+00
  0.00000000E+00  0.00000000E+00  0.00000000E+00
  0.00000000E+00  0.00000000E+00  0.00000000E+00
  0.00000000E+00  0.00000000E+00  0.00000000E+00
  0.00000000E+00  0.00000000E+00  0.00000000E+00
  0.00000000E+00  0.00000000E+00  0.00000000E+00
  0.00000000E+00  0.00000000E+00  0.00000000E+00
  0.00000000E+00  0.00000000E+00  0.00000000E+00
  0.00000000E+00  0.00000000E+00  0.00000000E+00
  0.00000000E+00  0.00000000E+00  0.00000000E+00
  0.00000000E+00  0.00000000E+00  0.00000000E+00
  0.00000000E+00  0.00000000E+00  0.00000000E+00
  0.00000000E+00  0.00000000E+00  0.00000000E+00
