supercell of 100% icsd_608626.cif, 0% i 
   1.00000000000000     
    -9.6212418396936066   -0.0731498067550498    0.0173118882058734
    -4.7469083412685045    8.2975085470081726    0.0144879075778680
     0.0184789752435052   -0.0072029849983963  -10.2050911856561299
   Al   Si   Sr   N 
    28     4     4    36
Direct
  0.1159075905711759  0.1039076875202696  0.3015242691911908
  0.2260953467470728  0.1923041863410546  0.0455428145645200
  0.8902098761617268  0.2034190362759105  0.5519484090067763
  0.4401857413902164  0.0980618315848147  0.3050834998914951
  0.5609739695481437  0.1978085236245732  0.0446918686972921
  0.1187705764337963  0.0871791266982811  0.7942996074749260
  0.2236853735236650  0.2073569161897169  0.5541981999389591
  0.7643705691677809  0.1044494626332906  0.3025544269490652
  0.8916033813757238  0.1981437721671355  0.0485627477535004
  0.4434725931682735  0.0932518128170230  0.7958837580863545
  0.1089722078046265  0.4217797410145465  0.2668562626628272
  0.2343873713357070  0.5179871185632194  0.0669625271600793
  0.7785713442092401  0.4275997921999135  0.7988808710001507
  0.4573377758669466  0.4238039341737974  0.2808144268082060
  0.5594779465522350  0.5388748842329392  0.0425191425506029
  0.1278734824382681  0.4055881739037375  0.8173400221364417
  0.7762467827817403  0.4290273599073586  0.2862278843203043
  0.8883756265143461  0.5373056580431026  0.0502585012717915
  0.4526717241659810  0.4172233511058465  0.8047771773183356
  0.5661631923039963  0.5276936561323566  0.5537700437037785
  0.2238071573072489  0.8706540958090088  0.0367332458362171
  0.7619643927089541  0.7678979050655386  0.8028195093305044
  0.8675236784500413  0.8914761635148096  0.5443441101382618
  0.4481248043965138  0.7648195858779232  0.2997305490032218
  0.5487141589939952  0.8750159297723101  0.0478544020388441
  0.2195235712954045  0.8868029892305103  0.5440634075784629
  0.7656028241145307  0.7721668756624922  0.2863686996816242
  0.5577221211255434  0.8774340952652366  0.5467466733831756
  0.7677289770356026  0.0984152851773459  0.7988152340676749
  0.5578163004149914  0.2079619116139142  0.5552436320846539
  0.8781248563228914  0.8809923090512868  0.0377091510483822
  0.4464966785022142  0.7627582529775196  0.7962661744905759
  0.8972162545961950  0.5423773137986601  0.5419702046841550
  0.2362751133764789  0.5275654130292651  0.5117208930624884
  0.0927469722862853  0.7926846546126924  0.2942958523334340
  0.1051287240209504  0.7382599206267315  0.7945791233088997
  0.2174991315797428  0.2218545381417556  0.3605184599794882
  0.1106059012504588  0.0870619680668057  0.1088924236768349
  0.8851561476889387  0.1898633754181418  0.8557040307957351
  0.7624814110070375  0.1045250490879397  0.6194991356591615
  0.5484692642798734  0.2181916478963402  0.3753442756802841
  0.4458478026573189  0.0938294713896184  0.1113917296821327
  0.2323536860352533  0.1834855771997610  0.8622254121047490
  0.1101149415909575  0.0998966982935769  0.6095434702491858
  0.8878001941656137  0.2071226985010171  0.3573961205952756
  0.7824930817761242  0.0823744676685152  0.1093653578294891
  0.5691890482678659  0.1956017923335338  0.8554312373916417
  0.4522934337692774  0.1009584228687288  0.6026244446574438
  0.2399834985320481  0.5116006366320036  0.2698850580023731
  0.1065528379891774  0.4091802847005184  0.0845904106980200
  0.8869317767607470  0.5429736825887659  0.8576772224337290
  0.7694737238046017  0.4078425902984293  0.6195720294239564
  0.5568012802986146  0.5402112290056920  0.3597152747474368
  0.4765476695348241  0.4096678230030051  0.0978791530323733
  0.2611440029823129  0.4805178590034060  0.8832673665728095
  0.1418199912753053  0.3956829393779202  0.6401015621175077
  0.8868085266134713  0.5456827586024815  0.3031972687109601
  0.7769580598726691  0.4209997943506636  0.0957876741486174
  0.5503266185575129  0.5549376723479185  0.8532861189113774
  0.4818337868607543  0.3992162166673978  0.6205137287342382
  0.2514624212761731  0.9021830892907587  0.3674143752469092
  0.0872311876764797  0.7741931842013088  0.0544216769545187
  0.8341819182947674  0.9095487427329871  0.8693477066131479
  0.7543118797339901  0.8038223047899535  0.6259160525228751
  0.5562483317778870  0.8726721151470400  0.3568421499860222
  0.4442189491870394  0.7572446007551790  0.1084699672305121
  0.2527204814307069  0.8737801472355855  0.8538088680729032
  0.0832214881638436  0.8058779603324311  0.5629428570694373
  0.8278309788057712  0.9049101325777542  0.3658521877853360
  0.7758823850681082  0.7756406008697283  0.0939148399051390
  0.5452700748112278  0.8679417004010048  0.8572051757942276
  0.4480650296150017  0.7588575020082402  0.6184978544269200
 
  0.00000000E+00  0.00000000E+00  0.00000000E+00
  0.00000000E+00  0.00000000E+00  0.00000000E+00
  0.00000000E+00  0.00000000E+00  0.00000000E+00
  0.00000000E+00  0.00000000E+00  0.00000000E+00
  0.00000000E+00  0.00000000E+00  0.00000000E+00
  0.00000000E+00  0.00000000E+00  0.00000000E+00
  0.00000000E+00  0.00000000E+00  0.00000000E+00
  0.00000000E+00  0.00000000E+00  0.00000000E+00
  0.00000000E+00  0.00000000E+00  0.00000000E+00
  0.00000000E+00  0.00000000E+00  0.00000000E+00
  0.00000000E+00  0.00000000E+00  0.00000000E+00
  0.00000000E+00  0.00000000E+00  0.00000000E+00
  0.00000000E+00  0.00000000E+00  0.00000000E+00
  0.00000000E+00  0.00000000E+00  0.00000000E+00
  0.00000000E+00  0.00000000E+00  0.00000000E+00
  0.00000000E+00  0.00000000E+00  0.00000000E+00
  0.00000000E+00  0.00000000E+00  0.00000000E+00
  0.00000000E+00  0.00000000E+00  0.00000000E+00
  0.00000000E+00  0.00000000E+00  0.00000000E+00
  0.00000000E+00  0.00000000E+00  0.00000000E+00
  0.00000000E+00  0.00000000E+00  0.00000000E+00
  0.00000000E+00  0.00000000E+00  0.00000000E+00
  0.00000000E+00  0.00000000E+00  0.00000000E+00
  0.00000000E+00  0.00000000E+00  0.00000000E+00
  0.00000000E+00  0.00000000E+00  0.00000000E+00
  0.00000000E+00  0.00000000E+00  0.00000000E+00
  0.00000000E+00  0.00000000E+00  0.00000000E+00
  0.00000000E+00  0.00000000E+00  0.00000000E+00
  0.00000000E+00  0.00000000E+00  0.00000000E+00
  0.00000000E+00  0.00000000E+00  0.00000000E+00
  0.00000000E+00  0.00000000E+00  0.00000000E+00
  0.00000000E+00  0.00000000E+00  0.00000000E+00
  0.00000000E+00  0.00000000E+00  0.00000000E+00
  0.00000000E+00  0.00000000E+00  0.00000000E+00
  0.00000000E+00  0.00000000E+00  0.00000000E+00
  0.00000000E+00  0.00000000E+00  0.00000000E+00
  0.00000000E+00  0.00000000E+00  0.00000000E+00
  0.00000000E+00  0.00000000E+00  0.00000000E+00
  0.00000000E+00  0.00000000E+00  0.00000000E+00
  0.00000000E+00  0.00000000E+00  0.00000000E+00
  0.00000000E+00  0.00000000E+00  0.00000000E+00
  0.00000000E+00  0.00000000E+00  0.00000000E+00
  0.00000000E+00  0.00000000E+00  0.00000000E+00
  0.00000000E+00  0.00000000E+00  0.00000000E+00
  0.00000000E+00  0.00000000E+00  0.00000000E+00
  0.00000000E+00  0.00000000E+00  0.00000000E+00
  0.00000000E+00  0.00000000E+00  0.00000000E+00
  0.00000000E+00  0.00000000E+00  0.00000000E+00
  0.00000000E+00  0.00000000E+00  0.00000000E+00
  0.00000000E+00  0.00000000E+00  0.00000000E+00
  0.00000000E+00  0.00000000E+00  0.00000000E+00
  0.00000000E+00  0.00000000E+00  0.00000000E+00
  0.00000000E+00  0.00000000E+00  0.00000000E+00
  0.00000000E+00  0.00000000E+00  0.00000000E+00
  0.00000000E+00  0.00000000E+00  0.00000000E+00
  0.00000000E+00  0.00000000E+00  0.00000000E+00
  0.00000000E+00  0.00000000E+00  0.00000000E+00
  0.00000000E+00  0.00000000E+00  0.00000000E+00
  0.00000000E+00  0.00000000E+00  0.00000000E+00
  0.00000000E+00  0.00000000E+00  0.00000000E+00
  0.00000000E+00  0.00000000E+00  0.00000000E+00
  0.00000000E+00  0.00000000E+00  0.00000000E+00
  0.00000000E+00  0.00000000E+00  0.00000000E+00
  0.00000000E+00  0.00000000E+00  0.00000000E+00
  0.00000000E+00  0.00000000E+00  0.00000000E+00
  0.00000000E+00  0.00000000E+00  0.00000000E+00
  0.00000000E+00  0.00000000E+00  0.00000000E+00
  0.00000000E+00  0.00000000E+00  0.00000000E+00
  0.00000000E+00  0.00000000E+00  0.00000000E+00
  0.00000000E+00  0.00000000E+00  0.00000000E+00
  0.00000000E+00  0.00000000E+00  0.00000000E+00
  0.00000000E+00  0.00000000E+00  0.00000000E+00
