Sc   Al   N                             
   1.00000000000000     
    -9.9522834866934140   -0.0115965148073237   -0.0043330864048876
    -4.9625501071605154    8.5914443082824512   -0.0046764430010055
    -0.0185655389308019    0.0574750597154804  -10.0156880754360689
   Sc   Al   N 
    10    26    36
Direct
  0.0996836731931552  0.0973875699948437  0.3378825291863308
  0.4563331377498798  0.0965895396523706  0.3380399149777773
  0.1015630811973054  0.1051797434708561  0.8576581111740254
  0.2194527551765049  0.2159888225170690  0.6073898042440860
  0.4551853401691375  0.0923887399955348  0.8307374427247609
  0.8820210974324922  0.5414703552683235  0.6125273025875941
  0.1050728518882522  0.7569305320262600  0.3391785673725778
  0.4505556863733631  0.7572978079629280  0.3308734138494884
  0.2247069164184694  0.8676830020326278  0.5996496666877462
  0.4594817885872899  0.7488882651707129  0.8487871360141028
  0.2212866208307105  0.2117924399936157  0.1295798549697693
  0.7756005546558953  0.0940142382321483  0.8301161850002217
  0.8719996858043331  0.2111793063281979  0.6188982358103132
  0.5596904967912693  0.2026525469762319  0.0678726025096950
  0.7704939421723509  0.0984589604056154  0.3128764372819219
  0.8800508184658682  0.2090740803941884  0.1055782225359252
  0.5653342612719001  0.2059269314709056  0.5725205975912502
  0.1121148479116130  0.4350944926955407  0.3754647695299198
  0.2284873875930273  0.5317850948593374  0.1287642066426997
  0.7763283457832912  0.4305327928262130  0.8904587431360795
  0.4454656070808909  0.4308845476745731  0.3845910181780354
  0.5580705669239308  0.5286999055046948  0.1292339958977990
  0.1063071017058590  0.4357352213182111  0.8858999418501696
  0.2237940473494646  0.5366001506039524  0.6371703177838128
  0.7705739253190984  0.4226486130820390  0.3742946518515993
  0.8899709308037487  0.5363437346938724  0.1363015464515627
  0.4437287511050272  0.4298048256861264  0.8827841040848199
  0.5595745536700178  0.5272623049190202  0.6354689007852912
  0.2200676847399450  0.8640012593366464  0.0649549652366446
  0.7857640555428631  0.7613863396478848  0.8244321818371318
  0.8769276167237479  0.8831685343067264  0.5749803814968217
  0.5661803911668883  0.8693175343437645  0.0745926885680603
  0.1002333563768403  0.7590128499095385  0.8236862161114260
  0.7809160997120159  0.7650719889834647  0.3226783294605440
  0.8895664096463207  0.8696029650912536  0.0698170293214631
  0.5691335581612194  0.8679202107050656  0.5724753367167992
  0.2124764820154894  0.2242817010422513  0.3312409325618546
  0.1147341769156967  0.0915854326099037  0.0991468080956324
  0.8666715353123493  0.2144892043732227  0.8713632203704051
  0.7735285503488001  0.0955688647749824  0.6363420996538238
  0.5720292130753464  0.2143353083766470  0.3820836260621547
  0.4466337885282314  0.0948396883241074  0.1127863257909283
  0.2149677335526263  0.2308474703628747  0.8252985131416892
  0.0830709892524411  0.1103946420027313  0.6128070838021316
  0.8668179686645630  0.2186728007635210  0.3133198176788170
  0.7731318580376509  0.0872436387090332  0.1205288874102095
  0.5665642964698989  0.2104483423650194  0.8778624673830464
  0.4648081700939102  0.0873230985753324  0.6059995783204002
  0.2407104032364060  0.5133821462660038  0.3183090522914469
  0.1083362821512495  0.4307153286857712  0.0794603632557980
  0.8901112717384407  0.5351537277457723  0.8337770810189866
  0.7618949020110861  0.4165966718822034  0.5653612581106557
  0.5622162900784460  0.5183974982572153  0.3186232916783283
  0.4423043739753467  0.4312477863796005  0.0750985856314159
  0.2242655688358965  0.5344636704666641  0.8316734975148705
  0.1150306196760837  0.4494304874131529  0.5620595945164197
  0.8897534786114250  0.5358262695290819  0.3363347325976562
  0.7743487425195283  0.4371119440665936  0.0811919133499401
  0.5708921596649361  0.5098541811223498  0.8258861932180039
  0.4366767402468952  0.4379142236709725  0.5805023430185727
  0.2245155939715744  0.8662009131320758  0.3892591127655862
  0.1082907945672886  0.7615327808523844  0.1190527313381082
  0.8894333293533450  0.8713698976569333  0.8797399207790164
  0.7713542684211134  0.7831467290179361  0.6347162895857039
  0.5796137178965068  0.8585314073044756  0.3831039168092758
  0.4444940684681171  0.7599964770232859  0.1033130076377375
  0.2144550190487564  0.8577890895703533  0.8680064118472757
  0.0914694256187119  0.7586401370876885  0.6259579012839396
  0.8654737639014058  0.8895565814777910  0.3833484030241081
  0.7818543417572741  0.7627712691229931  0.1310546947525353
  0.5849262683374548  0.8593474037674085  0.8896264682673731
  0.4727109710925035  0.7499730195944849  0.6235407423732440
 
  0.00000000E+00  0.00000000E+00  0.00000000E+00
  0.00000000E+00  0.00000000E+00  0.00000000E+00
  0.00000000E+00  0.00000000E+00  0.00000000E+00
  0.00000000E+00  0.00000000E+00  0.00000000E+00
  0.00000000E+00  0.00000000E+00  0.00000000E+00
  0.00000000E+00  0.00000000E+00  0.00000000E+00
  0.00000000E+00  0.00000000E+00  0.00000000E+00
  0.00000000E+00  0.00000000E+00  0.00000000E+00
  0.00000000E+00  0.00000000E+00  0.00000000E+00
  0.00000000E+00  0.00000000E+00  0.00000000E+00
  0.00000000E+00  0.00000000E+00  0.00000000E+00
  0.00000000E+00  0.00000000E+00  0.00000000E+00
  0.00000000E+00  0.00000000E+00  0.00000000E+00
  0.00000000E+00  0.00000000E+00  0.00000000E+00
  0.00000000E+00  0.00000000E+00  0.00000000E+00
  0.00000000E+00  0.00000000E+00  0.00000000E+00
  0.00000000E+00  0.00000000E+00  0.00000000E+00
  0.00000000E+00  0.00000000E+00  0.00000000E+00
  0.00000000E+00  0.00000000E+00  0.00000000E+00
  0.00000000E+00  0.00000000E+00  0.00000000E+00
  0.00000000E+00  0.00000000E+00  0.00000000E+00
  0.00000000E+00  0.00000000E+00  0.00000000E+00
  0.00000000E+00  0.00000000E+00  0.00000000E+00
  0.00000000E+00  0.00000000E+00  0.00000000E+00
  0.00000000E+00  0.00000000E+00  0.00000000E+00
  0.00000000E+00  0.00000000E+00  0.00000000E+00
  0.00000000E+00  0.00000000E+00  0.00000000E+00
  0.00000000E+00  0.00000000E+00  0.00000000E+00
  0.00000000E+00  0.00000000E+00  0.00000000E+00
  0.00000000E+00  0.00000000E+00  0.00000000E+00
  0.00000000E+00  0.00000000E+00  0.00000000E+00
  0.00000000E+00  0.00000000E+00  0.00000000E+00
  0.00000000E+00  0.00000000E+00  0.00000000E+00
  0.00000000E+00  0.00000000E+00  0.00000000E+00
  0.00000000E+00  0.00000000E+00  0.00000000E+00
  0.00000000E+00  0.00000000E+00  0.00000000E+00
  0.00000000E+00  0.00000000E+00  0.00000000E+00
  0.00000000E+00  0.00000000E+00  0.00000000E+00
  0.00000000E+00  0.00000000E+00  0.00000000E+00
  0.00000000E+00  0.00000000E+00  0.00000000E+00
  0.00000000E+00  0.00000000E+00  0.00000000E+00
  0.00000000E+00  0.00000000E+00  0.00000000E+00
  0.00000000E+00  0.00000000E+00  0.00000000E+00
  0.00000000E+00  0.00000000E+00  0.00000000E+00
  0.00000000E+00  0.00000000E+00  0.00000000E+00
  0.00000000E+00  0.00000000E+00  0.00000000E+00
  0.00000000E+00  0.00000000E+00  0.00000000E+00
  0.00000000E+00  0.00000000E+00  0.00000000E+00
  0.00000000E+00  0.00000000E+00  0.00000000E+00
  0.00000000E+00  0.00000000E+00  0.00000000E+00
  0.00000000E+00  0.00000000E+00  0.00000000E+00
  0.00000000E+00  0.00000000E+00  0.00000000E+00
  0.00000000E+00  0.00000000E+00  0.00000000E+00
  0.00000000E+00  0.00000000E+00  0.00000000E+00
  0.00000000E+00  0.00000000E+00  0.00000000E+00
  0.00000000E+00  0.00000000E+00  0.00000000E+00
  0.00000000E+00  0.00000000E+00  0.00000000E+00
  0.00000000E+00  0.00000000E+00  0.00000000E+00
  0.00000000E+00  0.00000000E+00  0.00000000E+00
  0.00000000E+00  0.00000000E+00  0.00000000E+00
  0.00000000E+00  0.00000000E+00  0.00000000E+00
  0.00000000E+00  0.00000000E+00  0.00000000E+00
  0.00000000E+00  0.00000000E+00  0.00000000E+00
  0.00000000E+00  0.00000000E+00  0.00000000E+00
  0.00000000E+00  0.00000000E+00  0.00000000E+00
  0.00000000E+00  0.00000000E+00  0.00000000E+00
  0.00000000E+00  0.00000000E+00  0.00000000E+00
  0.00000000E+00  0.00000000E+00  0.00000000E+00
  0.00000000E+00  0.00000000E+00  0.00000000E+00
  0.00000000E+00  0.00000000E+00  0.00000000E+00
  0.00000000E+00  0.00000000E+00  0.00000000E+00
  0.00000000E+00  0.00000000E+00  0.00000000E+00
