Sc   Al   N                             
   1.00000000000000     
    -9.9282771725174150   -0.0169134746591702   -0.0104550668425116
    -4.9407926793047903    8.6061863652331034   -0.0091446990888304
    -0.0341706514377841    0.0539463614592531  -10.0214213346081618
   Sc   Al   N 
    10    26    36
Direct
  0.0947368507488164  0.1048157603142243  0.3674655006966958
  0.4509169164672784  0.0955551702615409  0.3497591331214736
  0.1028074528580021  0.0993931046420684  0.8817077779774891
  0.2198706286127319  0.2138243583778419  0.6193848469989689
  0.4483781048641902  0.0961853401145305  0.8616066625169481
  0.8840729741477773  0.5420998471365621  0.6111567345612059
  0.1048060974139915  0.7523035979118546  0.3580144672879086
  0.4557510447747433  0.7465710488883559  0.3690287976861626
  0.2158704670751774  0.8679948097374108  0.6236000790289040
  0.4527378967152558  0.7494936408755848  0.8676240655183918
  0.2173475455148832  0.2137338369790385  0.1335195858086848
  0.7805044973877671  0.0900675587317465  0.8254834485277414
  0.8764582170652915  0.2128134931255730  0.6356096485323590
  0.5554434698867396  0.2110256704170865  0.1110929567367833
  0.7714023943246104  0.0973824290181184  0.3113041773679157
  0.8821142701610967  0.2133943820375350  0.1271793160686769
  0.5592650895163942  0.2091603074160346  0.6218754814672920
  0.1135124941128467  0.4332186228519177  0.3765922454939599
  0.2295341352598612  0.5300911906500190  0.1285070292269950
  0.7783466928420779  0.4292638094459988  0.8836767842275108
  0.4475905896157215  0.4233207453995433  0.3813026038729319
  0.5588266078545843  0.5314690632005536  0.1316414873753331
  0.1041420863132956  0.4373688287524189  0.8846642629648969
  0.2206816362010500  0.5427145296486700  0.6342248269700761
  0.7710888228598094  0.4217123813146202  0.3795765408983627
  0.8912454728755108  0.5347174425027674  0.1341178130694303
  0.4471958386956842  0.4275211443429754  0.8812344474857170
  0.5598354046300642  0.5271191759013263  0.6338870198109134
  0.2255446537063790  0.8698215040333466  0.1335899021125400
  0.7870848360409894  0.7628086034338182  0.8220608827308240
  0.8762454664722981  0.8838566745573502  0.5660129333871282
  0.5670649165592891  0.8651453249073882  0.0762018749861824
  0.1137833147385692  0.7528919801248861  0.8892711890795013
  0.7798505048569453  0.7639658031848313  0.3190531944317598
  0.8834534540259114  0.8746032536912907  0.0699925192797792
  0.5697651347754018  0.8698027185567270  0.5735423832818753
  0.2096884023311603  0.2266010195130619  0.3255960284733561
  0.1088856930420903  0.0968917263151852  0.0980354650561068
  0.8714335543022358  0.2193413580810102  0.8304785744456922
  0.7784475400832704  0.0914623308862446  0.6273277605507701
  0.5609294725952338  0.2193253106169948  0.3273924097374987
  0.4438391869101039  0.0943781218255708  0.1017699461328476
  0.2088348040943515  0.2290861437468834  0.8304370790461491
  0.0855642931496945  0.1075141002446856  0.5829946869499096
  0.8654176963841635  0.2201328159560205  0.3158630425461908
  0.7789061976119527  0.0905615348608606  0.1127268738493683
  0.5647111579665562  0.2153189737285572  0.8442190852814306
  0.4626654208862888  0.0879669569623189  0.5994523065404991
  0.2395824187502100  0.5144766034874451  0.3156078093225929
  0.1083448894406089  0.4314653899501906  0.0775000998808721
  0.8901891747509225  0.5377376665329194  0.8320195295503865
  0.7646073235717239  0.4166826885904911  0.5683974852742750
  0.5649181401884746  0.5152218957620320  0.3192497321336276
  0.4442492640266593  0.4308823221143214  0.0714598728906353
  0.2229777980628995  0.5391823969973970  0.8298411648845132
  0.1187600366580241  0.4438266235976513  0.5639153948357958
  0.8901513835731478  0.5353201010278568  0.3352586858550168
  0.7774922928524859  0.4316396445823258  0.0757566376977366
  0.5689138634991266  0.5154301971478574  0.8235218804572000
  0.4408260503412151  0.4304213820412670  0.5771544165253175
  0.2224300560524526  0.8707836595289962  0.3251447108831371
  0.1143252388271279  0.7559605520006158  0.0905625863582031
  0.8910081195063242  0.8717548473623395  0.8793035044417437
  0.7725730136617557  0.7836959480264767  0.6327075822611761
  0.5811289259861994  0.8576826561310327  0.3814448719206425
  0.4483030444023299  0.7565443765814592  0.0973297332996665
  0.2122191525538000  0.8622360015165711  0.8351304192070330
  0.0988064301148626  0.7513161775580883  0.5747722039377265
  0.8610962360927985  0.8917189662313092  0.3731429678573335
  0.7819709423389085  0.7613919447120736  0.1285159737725294
  0.5849944463254459  0.8573484033150507  0.8867030483150486
  0.4658558487201745  0.7483125038974805  0.5985957799253399
 
  0.00000000E+00  0.00000000E+00  0.00000000E+00
  0.00000000E+00  0.00000000E+00  0.00000000E+00
  0.00000000E+00  0.00000000E+00  0.00000000E+00
  0.00000000E+00  0.00000000E+00  0.00000000E+00
  0.00000000E+00  0.00000000E+00  0.00000000E+00
  0.00000000E+00  0.00000000E+00  0.00000000E+00
  0.00000000E+00  0.00000000E+00  0.00000000E+00
  0.00000000E+00  0.00000000E+00  0.00000000E+00
  0.00000000E+00  0.00000000E+00  0.00000000E+00
  0.00000000E+00  0.00000000E+00  0.00000000E+00
  0.00000000E+00  0.00000000E+00  0.00000000E+00
  0.00000000E+00  0.00000000E+00  0.00000000E+00
  0.00000000E+00  0.00000000E+00  0.00000000E+00
  0.00000000E+00  0.00000000E+00  0.00000000E+00
  0.00000000E+00  0.00000000E+00  0.00000000E+00
  0.00000000E+00  0.00000000E+00  0.00000000E+00
  0.00000000E+00  0.00000000E+00  0.00000000E+00
  0.00000000E+00  0.00000000E+00  0.00000000E+00
  0.00000000E+00  0.00000000E+00  0.00000000E+00
  0.00000000E+00  0.00000000E+00  0.00000000E+00
  0.00000000E+00  0.00000000E+00  0.00000000E+00
  0.00000000E+00  0.00000000E+00  0.00000000E+00
  0.00000000E+00  0.00000000E+00  0.00000000E+00
  0.00000000E+00  0.00000000E+00  0.00000000E+00
  0.00000000E+00  0.00000000E+00  0.00000000E+00
  0.00000000E+00  0.00000000E+00  0.00000000E+00
  0.00000000E+00  0.00000000E+00  0.00000000E+00
  0.00000000E+00  0.00000000E+00  0.00000000E+00
  0.00000000E+00  0.00000000E+00  0.00000000E+00
  0.00000000E+00  0.00000000E+00  0.00000000E+00
  0.00000000E+00  0.00000000E+00  0.00000000E+00
  0.00000000E+00  0.00000000E+00  0.00000000E+00
  0.00000000E+00  0.00000000E+00  0.00000000E+00
  0.00000000E+00  0.00000000E+00  0.00000000E+00
  0.00000000E+00  0.00000000E+00  0.00000000E+00
  0.00000000E+00  0.00000000E+00  0.00000000E+00
  0.00000000E+00  0.00000000E+00  0.00000000E+00
  0.00000000E+00  0.00000000E+00  0.00000000E+00
  0.00000000E+00  0.00000000E+00  0.00000000E+00
  0.00000000E+00  0.00000000E+00  0.00000000E+00
  0.00000000E+00  0.00000000E+00  0.00000000E+00
  0.00000000E+00  0.00000000E+00  0.00000000E+00
  0.00000000E+00  0.00000000E+00  0.00000000E+00
  0.00000000E+00  0.00000000E+00  0.00000000E+00
  0.00000000E+00  0.00000000E+00  0.00000000E+00
  0.00000000E+00  0.00000000E+00  0.00000000E+00
  0.00000000E+00  0.00000000E+00  0.00000000E+00
  0.00000000E+00  0.00000000E+00  0.00000000E+00
  0.00000000E+00  0.00000000E+00  0.00000000E+00
  0.00000000E+00  0.00000000E+00  0.00000000E+00
  0.00000000E+00  0.00000000E+00  0.00000000E+00
  0.00000000E+00  0.00000000E+00  0.00000000E+00
  0.00000000E+00  0.00000000E+00  0.00000000E+00
  0.00000000E+00  0.00000000E+00  0.00000000E+00
  0.00000000E+00  0.00000000E+00  0.00000000E+00
  0.00000000E+00  0.00000000E+00  0.00000000E+00
  0.00000000E+00  0.00000000E+00  0.00000000E+00
  0.00000000E+00  0.00000000E+00  0.00000000E+00
  0.00000000E+00  0.00000000E+00  0.00000000E+00
  0.00000000E+00  0.00000000E+00  0.00000000E+00
  0.00000000E+00  0.00000000E+00  0.00000000E+00
  0.00000000E+00  0.00000000E+00  0.00000000E+00
  0.00000000E+00  0.00000000E+00  0.00000000E+00
  0.00000000E+00  0.00000000E+00  0.00000000E+00
  0.00000000E+00  0.00000000E+00  0.00000000E+00
  0.00000000E+00  0.00000000E+00  0.00000000E+00
  0.00000000E+00  0.00000000E+00  0.00000000E+00
  0.00000000E+00  0.00000000E+00  0.00000000E+00
  0.00000000E+00  0.00000000E+00  0.00000000E+00
  0.00000000E+00  0.00000000E+00  0.00000000E+00
  0.00000000E+00  0.00000000E+00  0.00000000E+00
  0.00000000E+00  0.00000000E+00  0.00000000E+00
