Sc   Al   N                             
   1.00000000000000     
    -9.8613431369727813   -0.0167190899075178    0.0134234778149246
    -4.8958906134793247    8.4984146619835599    0.0133836762293194
    -0.0068293724441077    0.1292063658343962  -10.3234714098637159
   Sc   Al   N 
    10    26    36
Direct
  0.0989399726125413  0.1004976639338722  0.3120616087696959
  0.4489311374300868  0.0998867528335410  0.3236390467281609
  0.0993091764885179  0.1019387222851620  0.8363618871162188
  0.2180884640886589  0.2129206988283556  0.5728839454425412
  0.4529183712053566  0.0969772523251109  0.8239202343546168
  0.8834141952244039  0.5469684617119270  0.5718749389547000
  0.1042977396678140  0.7502957005594197  0.3618694474654447
  0.4509469666740742  0.7579354015081847  0.3284418399453486
  0.2207026274411774  0.8678946712029472  0.5884129543735312
  0.4571987914483202  0.7539485116515152  0.8416645518600845
  0.2218489852237155  0.2119173981247258  0.0633780313293357
  0.7779129539165126  0.0956132522100361  0.8188529763425052
  0.8769049586762350  0.2088139371868252  0.5686858654675575
  0.5636337625003733  0.2006994831946329  0.0659767079111475
  0.7700774669005384  0.1029950463570728  0.3200989554829761
  0.8794129549013050  0.2098957346795629  0.0655212616357232
  0.5647853229973947  0.2025561887026797  0.5687885048058234
  0.1052538541165262  0.4264608344137528  0.3054910149777683
  0.2322204339477310  0.5307730299113800  0.1318704972181735
  0.7808767114090500  0.4207788970371809  0.8191720175560206
  0.4450140808991350  0.4300654762191414  0.3875000714009005
  0.5569291505012046  0.5288612997067332  0.1302729562395868
  0.1052588704913830  0.4356985035183598  0.8255158547708561
  0.2236158883310466  0.5444640316422493  0.6432184362747293
  0.7822858412721061  0.4234254260934804  0.3138652673920390
  0.8876043444968360  0.5393947233189920  0.0655641892901997
  0.4443906057243581  0.4304258623485850  0.8887009350928139
  0.5554149692269519  0.5288948616097002  0.6394083949865319
  0.2253939873040949  0.8698977080228829  0.0656952052704014
  0.7856316665826384  0.7638917389436131  0.8226132552187480
  0.8751359970054224  0.8814069196691534  0.5679205679162607
  0.5643694399424248  0.8709470982371528  0.0689230118413988
  0.1093993777368070  0.7507409599786072  0.8935085467306436
  0.7789107495536172  0.7620260638148579  0.3145205472002530
  0.8815510111972458  0.8771100546037971  0.0733234536054965
  0.5670634550133613  0.8703454588663107  0.5710630423224643
  0.2093347909895158  0.2222306900218669  0.3687857172083611
  0.1095853326567635  0.0942611682408057  0.0995669074683292
  0.8652141853931639  0.2154724746517616  0.8847278282533964
  0.7770407772867074  0.0951635795466075  0.6314654527540284
  0.5675312090951508  0.2116732590952921  0.3840423734283291
  0.4462440068681843  0.0954111120529859  0.1115375350284680
  0.2166884401271787  0.2259966694982936  0.8802579776954218
  0.0863958175889792  0.1073602914999654  0.6290056912638136
  0.8687706162582813  0.2160756335380611  0.3816632808510221
  0.7774443618706499  0.0955775016199070  0.1314903977941597
  0.5711841087778993  0.2082061646116031  0.8811274526936330
  0.4611632162948922  0.0887682591763408  0.6141198284351432
  0.2421312354541527  0.5105723552727568  0.3163005882473371
  0.1061220509304874  0.4281345204909783  0.1170511649989265
  0.8860348158988032  0.5407718353253372  0.8755528592133928
  0.7754577777100238  0.4160841448275008  0.6305465506696635
  0.5624440023488404  0.5162367989273946  0.3182939975240018
  0.4437940413638444  0.4294579411014823  0.0747141097975472
  0.2267170025134178  0.5422501330593477  0.8351776268537776
  0.1114315001937243  0.4379287228082518  0.6413659911471470
  0.8904025201183998  0.5396641974620024  0.3615583822930830
  0.7849706117955648  0.4239864008208301  0.1231372505772725
  0.5624318130691037  0.5155517787637365  0.8282842435571993
  0.4367402722722034  0.4368509109966894  0.5782883126983691
  0.2211599054890385  0.8745648193966886  0.3806907823596362
  0.1115000105438639  0.7558870511740281  0.0936994845720918
  0.8873008090949739  0.8759230307918884  0.8843380443816002
  0.7715445615881720  0.7809958300989308  0.6391621574236268
  0.5783862787576126  0.8616364254501718  0.3856601553580390
  0.4475661837624614  0.7605934868760187  0.1070475230829828
  0.2173115779907704  0.8600692611139564  0.8765418573931285
  0.0959625132953121  0.7474923453397579  0.5768865568026769
  0.8595647740226511  0.8902457124968990  0.3774254390127183
  0.7802580915301149  0.7602785253070081  0.1281995258252522
  0.5830353917469395  0.8646540726720033  0.8889176839735953
  0.4679890129711666  0.7526115726638380  0.6231175812610275
 
  0.00000000E+00  0.00000000E+00  0.00000000E+00
  0.00000000E+00  0.00000000E+00  0.00000000E+00
  0.00000000E+00  0.00000000E+00  0.00000000E+00
  0.00000000E+00  0.00000000E+00  0.00000000E+00
  0.00000000E+00  0.00000000E+00  0.00000000E+00
  0.00000000E+00  0.00000000E+00  0.00000000E+00
  0.00000000E+00  0.00000000E+00  0.00000000E+00
  0.00000000E+00  0.00000000E+00  0.00000000E+00
  0.00000000E+00  0.00000000E+00  0.00000000E+00
  0.00000000E+00  0.00000000E+00  0.00000000E+00
  0.00000000E+00  0.00000000E+00  0.00000000E+00
  0.00000000E+00  0.00000000E+00  0.00000000E+00
  0.00000000E+00  0.00000000E+00  0.00000000E+00
  0.00000000E+00  0.00000000E+00  0.00000000E+00
  0.00000000E+00  0.00000000E+00  0.00000000E+00
  0.00000000E+00  0.00000000E+00  0.00000000E+00
  0.00000000E+00  0.00000000E+00  0.00000000E+00
  0.00000000E+00  0.00000000E+00  0.00000000E+00
  0.00000000E+00  0.00000000E+00  0.00000000E+00
  0.00000000E+00  0.00000000E+00  0.00000000E+00
  0.00000000E+00  0.00000000E+00  0.00000000E+00
  0.00000000E+00  0.00000000E+00  0.00000000E+00
  0.00000000E+00  0.00000000E+00  0.00000000E+00
  0.00000000E+00  0.00000000E+00  0.00000000E+00
  0.00000000E+00  0.00000000E+00  0.00000000E+00
  0.00000000E+00  0.00000000E+00  0.00000000E+00
  0.00000000E+00  0.00000000E+00  0.00000000E+00
  0.00000000E+00  0.00000000E+00  0.00000000E+00
  0.00000000E+00  0.00000000E+00  0.00000000E+00
  0.00000000E+00  0.00000000E+00  0.00000000E+00
  0.00000000E+00  0.00000000E+00  0.00000000E+00
  0.00000000E+00  0.00000000E+00  0.00000000E+00
  0.00000000E+00  0.00000000E+00  0.00000000E+00
  0.00000000E+00  0.00000000E+00  0.00000000E+00
  0.00000000E+00  0.00000000E+00  0.00000000E+00
  0.00000000E+00  0.00000000E+00  0.00000000E+00
  0.00000000E+00  0.00000000E+00  0.00000000E+00
  0.00000000E+00  0.00000000E+00  0.00000000E+00
  0.00000000E+00  0.00000000E+00  0.00000000E+00
  0.00000000E+00  0.00000000E+00  0.00000000E+00
  0.00000000E+00  0.00000000E+00  0.00000000E+00
  0.00000000E+00  0.00000000E+00  0.00000000E+00
  0.00000000E+00  0.00000000E+00  0.00000000E+00
  0.00000000E+00  0.00000000E+00  0.00000000E+00
  0.00000000E+00  0.00000000E+00  0.00000000E+00
  0.00000000E+00  0.00000000E+00  0.00000000E+00
  0.00000000E+00  0.00000000E+00  0.00000000E+00
  0.00000000E+00  0.00000000E+00  0.00000000E+00
  0.00000000E+00  0.00000000E+00  0.00000000E+00
  0.00000000E+00  0.00000000E+00  0.00000000E+00
  0.00000000E+00  0.00000000E+00  0.00000000E+00
  0.00000000E+00  0.00000000E+00  0.00000000E+00
  0.00000000E+00  0.00000000E+00  0.00000000E+00
  0.00000000E+00  0.00000000E+00  0.00000000E+00
  0.00000000E+00  0.00000000E+00  0.00000000E+00
  0.00000000E+00  0.00000000E+00  0.00000000E+00
  0.00000000E+00  0.00000000E+00  0.00000000E+00
  0.00000000E+00  0.00000000E+00  0.00000000E+00
  0.00000000E+00  0.00000000E+00  0.00000000E+00
  0.00000000E+00  0.00000000E+00  0.00000000E+00
  0.00000000E+00  0.00000000E+00  0.00000000E+00
  0.00000000E+00  0.00000000E+00  0.00000000E+00
  0.00000000E+00  0.00000000E+00  0.00000000E+00
  0.00000000E+00  0.00000000E+00  0.00000000E+00
  0.00000000E+00  0.00000000E+00  0.00000000E+00
  0.00000000E+00  0.00000000E+00  0.00000000E+00
  0.00000000E+00  0.00000000E+00  0.00000000E+00
  0.00000000E+00  0.00000000E+00  0.00000000E+00
  0.00000000E+00  0.00000000E+00  0.00000000E+00
  0.00000000E+00  0.00000000E+00  0.00000000E+00
  0.00000000E+00  0.00000000E+00  0.00000000E+00
  0.00000000E+00  0.00000000E+00  0.00000000E+00
