Sc   Al   N                             
   1.00000000000000     
    -9.8767373418208706   -0.0164095922197526   -0.0028568148625275
    -4.9470931349400296    8.5434267634700802   -0.0058949827085474
    -0.0530069785841374    0.0252317815532822  -10.1468247177938000
   Sc   Al   N 
    10    26    36
Direct
  0.0963586953297053  0.1028296428922815  0.3677175637404630
  0.4514034838682264  0.0972025873116209  0.3581438000047612
  0.1006532534570042  0.1013319764066409  0.8835961362229341
  0.2226758432131746  0.2128790893089700  0.6223281916392551
  0.4471651266205257  0.1047366668696483  0.8803048590966895
  0.8837197722808412  0.5408517119790375  0.6132393146728248
  0.1015295512453704  0.7520667762457478  0.3731239090062815
  0.4553719233310574  0.7462161969725400  0.3674820707583351
  0.2198626615717743  0.8693589397090307  0.6268278441805535
  0.4507855125085669  0.7509928862882305  0.8726680452938069
  0.2181825783860418  0.2122910592410960  0.1357259335251086
  0.7756131639427650  0.0999484969379836  0.8808760141319141
  0.8740894164477595  0.2099041122239882  0.6321195441895497
  0.5606936511792924  0.2116145048062918  0.1336012574272942
  0.7723160832067748  0.0990847505616230  0.3819083662340006
  0.8787180457189052  0.2091608996549397  0.1319560061531035
  0.5608995834889328  0.2080057191008677  0.6296190956165688
  0.1135019576846830  0.4319432579198903  0.3752729754136155
  0.2276325497240563  0.5319468695412013  0.1268272755117792
  0.7775191461584186  0.4270811787940190  0.8815484778233014
  0.4475484547812769  0.4234805708062055  0.3806611423933077
  0.5590586549087675  0.5294209011056026  0.1300625512059952
  0.1046088029982855  0.4374366216107717  0.8854029415752152
  0.2222465395674433  0.5409071458482870  0.6353536286153769
  0.7722088940836116  0.4208135825953221  0.3777968653695396
  0.8922209048278020  0.5301294861225117  0.1294176105079785
  0.4478511468475332  0.4261539457414116  0.8783642636044107
  0.5591152561301129  0.5282923833605508  0.6319503551982564
  0.2225960591614893  0.8682627293974861  0.1341436568452750
  0.7813912998917800  0.7628961573082975  0.8250011679915943
  0.8868028566543629  0.8826964144953280  0.6393426831661486
  0.5668501031575985  0.8646522834361861  0.0772644769067483
  0.1072042586527431  0.7581725825756607  0.8876886334401419
  0.7807880659580917  0.7588715159998571  0.3115780763237481
  0.8857533944512355  0.8795187381745038  0.1255593386870189
  0.5710428049174396  0.8701799622012913  0.5682345365272710
  0.2105591959087505  0.2248895480372184  0.3228603613514665
  0.1076793906125886  0.0960620950517423  0.0981779013996373
  0.8688177697622521  0.2170772192017978  0.8211600677222606
  0.7771695329568331  0.0945360975058520  0.5729148165992015
  0.5668499126970445  0.2177915414113443  0.3197681847161178
  0.4465680562925840  0.0959980894339481  0.1032227709372933
  0.2111895580259002  0.2272653404364746  0.8306538436738506
  0.0870444145671385  0.1080683561998086  0.5808755941648798
  0.8638035231412289  0.2149154859466407  0.3160629149122798
  0.7754625531316677  0.0974123363281834  0.0695682957433661
  0.5662158746471491  0.2162529825495767  0.8178425737721469
  0.4625371308392019  0.0912082017314120  0.5823076436681447
  0.2382193813964690  0.5162170409896802  0.3126881474671706
  0.1099986050239607  0.4291637071237062  0.0753544040699907
  0.8895673983391461  0.5364977438898748  0.8324891823761718
  0.7646420583887235  0.4165806825290872  0.5649722704010145
  0.5654365790830980  0.5141285589982942  0.3155645757743386
  0.4459398003331216  0.4260699487338826  0.0677888786717347
  0.2222971517927377  0.5393263656988623  0.8283628313461122
  0.1190626763165241  0.4440457125845754  0.5609354918478431
  0.8913811656588564  0.5314393689601644  0.3295656672399190
  0.7783852757548502  0.4262955417696830  0.0724882369090238
  0.5674633652695888  0.5172116222145533  0.8204883562389611
  0.4404694632695296  0.4313411232454172  0.5732044504681255
  0.2203012949719110  0.8669327698485887  0.3230523183870204
  0.1103419215292263  0.7580214193402242  0.0811765933271005
  0.8922443958739379  0.8789231870659222  0.8342700784812891
  0.7695536365521249  0.7821967391074267  0.6342866969927243
  0.5841858510484101  0.8559790116632584  0.3782369611944247
  0.4471034632411275  0.7557249114349531  0.0965155686357235
  0.2119655779220295  0.8645021143062905  0.8347668026926698
  0.0972836168342184  0.7543703141278471  0.5821571351518102
  0.8685451991276310  0.8911782640606916  0.3156770492577081
  0.7821536647684511  0.7551809925884072  0.1205318913078770
  0.5792050281252017  0.8638487962485613  0.8888826829394390
  0.4667045556956708  0.7488532959186998  0.5926448138449913
 
  0.00000000E+00  0.00000000E+00  0.00000000E+00
  0.00000000E+00  0.00000000E+00  0.00000000E+00
  0.00000000E+00  0.00000000E+00  0.00000000E+00
  0.00000000E+00  0.00000000E+00  0.00000000E+00
  0.00000000E+00  0.00000000E+00  0.00000000E+00
  0.00000000E+00  0.00000000E+00  0.00000000E+00
  0.00000000E+00  0.00000000E+00  0.00000000E+00
  0.00000000E+00  0.00000000E+00  0.00000000E+00
  0.00000000E+00  0.00000000E+00  0.00000000E+00
  0.00000000E+00  0.00000000E+00  0.00000000E+00
  0.00000000E+00  0.00000000E+00  0.00000000E+00
  0.00000000E+00  0.00000000E+00  0.00000000E+00
  0.00000000E+00  0.00000000E+00  0.00000000E+00
  0.00000000E+00  0.00000000E+00  0.00000000E+00
  0.00000000E+00  0.00000000E+00  0.00000000E+00
  0.00000000E+00  0.00000000E+00  0.00000000E+00
  0.00000000E+00  0.00000000E+00  0.00000000E+00
  0.00000000E+00  0.00000000E+00  0.00000000E+00
  0.00000000E+00  0.00000000E+00  0.00000000E+00
  0.00000000E+00  0.00000000E+00  0.00000000E+00
  0.00000000E+00  0.00000000E+00  0.00000000E+00
  0.00000000E+00  0.00000000E+00  0.00000000E+00
  0.00000000E+00  0.00000000E+00  0.00000000E+00
  0.00000000E+00  0.00000000E+00  0.00000000E+00
  0.00000000E+00  0.00000000E+00  0.00000000E+00
  0.00000000E+00  0.00000000E+00  0.00000000E+00
  0.00000000E+00  0.00000000E+00  0.00000000E+00
  0.00000000E+00  0.00000000E+00  0.00000000E+00
  0.00000000E+00  0.00000000E+00  0.00000000E+00
  0.00000000E+00  0.00000000E+00  0.00000000E+00
  0.00000000E+00  0.00000000E+00  0.00000000E+00
  0.00000000E+00  0.00000000E+00  0.00000000E+00
  0.00000000E+00  0.00000000E+00  0.00000000E+00
  0.00000000E+00  0.00000000E+00  0.00000000E+00
  0.00000000E+00  0.00000000E+00  0.00000000E+00
  0.00000000E+00  0.00000000E+00  0.00000000E+00
  0.00000000E+00  0.00000000E+00  0.00000000E+00
  0.00000000E+00  0.00000000E+00  0.00000000E+00
  0.00000000E+00  0.00000000E+00  0.00000000E+00
  0.00000000E+00  0.00000000E+00  0.00000000E+00
  0.00000000E+00  0.00000000E+00  0.00000000E+00
  0.00000000E+00  0.00000000E+00  0.00000000E+00
  0.00000000E+00  0.00000000E+00  0.00000000E+00
  0.00000000E+00  0.00000000E+00  0.00000000E+00
  0.00000000E+00  0.00000000E+00  0.00000000E+00
  0.00000000E+00  0.00000000E+00  0.00000000E+00
  0.00000000E+00  0.00000000E+00  0.00000000E+00
  0.00000000E+00  0.00000000E+00  0.00000000E+00
  0.00000000E+00  0.00000000E+00  0.00000000E+00
  0.00000000E+00  0.00000000E+00  0.00000000E+00
  0.00000000E+00  0.00000000E+00  0.00000000E+00
  0.00000000E+00  0.00000000E+00  0.00000000E+00
  0.00000000E+00  0.00000000E+00  0.00000000E+00
  0.00000000E+00  0.00000000E+00  0.00000000E+00
  0.00000000E+00  0.00000000E+00  0.00000000E+00
  0.00000000E+00  0.00000000E+00  0.00000000E+00
  0.00000000E+00  0.00000000E+00  0.00000000E+00
  0.00000000E+00  0.00000000E+00  0.00000000E+00
  0.00000000E+00  0.00000000E+00  0.00000000E+00
  0.00000000E+00  0.00000000E+00  0.00000000E+00
  0.00000000E+00  0.00000000E+00  0.00000000E+00
  0.00000000E+00  0.00000000E+00  0.00000000E+00
  0.00000000E+00  0.00000000E+00  0.00000000E+00
  0.00000000E+00  0.00000000E+00  0.00000000E+00
  0.00000000E+00  0.00000000E+00  0.00000000E+00
  0.00000000E+00  0.00000000E+00  0.00000000E+00
  0.00000000E+00  0.00000000E+00  0.00000000E+00
  0.00000000E+00  0.00000000E+00  0.00000000E+00
  0.00000000E+00  0.00000000E+00  0.00000000E+00
  0.00000000E+00  0.00000000E+00  0.00000000E+00
  0.00000000E+00  0.00000000E+00  0.00000000E+00
  0.00000000E+00  0.00000000E+00  0.00000000E+00
