Sc   Al   N                             
   1.00000000000000     
    -9.9233433110611404   -0.0130022141463160   -0.0085287907271762
    -4.9466439407891958    8.5757036854801552   -0.0098938400594841
    -0.0630498265831229    0.0446118840388075  -10.1091198419790995
   Sc   Al   N 
    10    26    36
Direct
  0.0937802403836656  0.1053217272650571  0.3723022479269389
  0.4554987079396327  0.0953600272848121  0.3373416681731456
  0.1010767184487662  0.1079927294011256  0.8700449901905003
  0.2205567965217625  0.2169172353153854  0.6130292352350679
  0.4580276899695050  0.0918038257568767  0.8289972126416956
  0.8822622486301412  0.5413392282868372  0.6133228217063476
  0.1058224519607833  0.7548722254960012  0.3584924105413521
  0.4507329567574274  0.7575190744223406  0.3272162863582508
  0.2225696291005690  0.8663306803067101  0.6033652573434978
  0.4606857737040144  0.7497832821535013  0.8471643996942149
  0.2189064554385070  0.2104026701271380  0.1343327799167326
  0.7767213905622086  0.0916237509302036  0.8225320099809608
  0.8720729300657339  0.2152399979916169  0.6370427534215395
  0.5606473361064133  0.2020326935208061  0.0676580624343757
  0.7684901591492590  0.0989793313246921  0.3140449703744963
  0.8838433851000644  0.2099772369900492  0.1286431507012153
  0.5662633198092735  0.2055402263085782  0.5695000865499722
  0.1120779801440790  0.4340013150122459  0.3761645383308405
  0.2287708433848294  0.5295514579922198  0.1305090724630418
  0.7775500401842876  0.4278997578879000  0.8859375545074855
  0.4440984288955860  0.4319743951786350  0.3847698339932322
  0.5594584709601378  0.5257745838311365  0.1277714451113141
  0.1061342150107265  0.4349727905478957  0.8863347404376967
  0.2194207454420933  0.5430093013080750  0.6358161306953249
  0.7682198806867859  0.4234753913375329  0.3791775991463240
  0.8905938028927878  0.5337516142712957  0.1352015072773440
  0.4449509843915678  0.4286134873613321  0.8829495496010082
  0.5584476202240651  0.5277246240874760  0.6363137732570294
  0.2226328105125788  0.8676191459437561  0.0695804830162530
  0.7873684038291202  0.7617158401375619  0.8224683537154220
  0.8758405454480425  0.8829700410773427  0.5699193629737351
  0.5659269021507072  0.8697846915992216  0.0728016106409655
  0.1084932488008121  0.7516731373948602  0.8766030156601659
  0.7796649329655523  0.7636464040149136  0.3206200443464340
  0.8836923052069707  0.8731132084047530  0.0717179582501899
  0.5685008443887583  0.8675060736471778  0.5721922092360927
  0.2116199339817442  0.2242283858679315  0.3281322180197250
  0.1099107972037388  0.0950256549042621  0.0925916705860246
  0.8684004743165445  0.2197632645516094  0.8296671314880228
  0.7738921442215840  0.0931516554442666  0.6313255626885024
  0.5692706127247504  0.2154181686014596  0.3809417194119007
  0.4468306654465266  0.0937628382020392  0.1138787660967466
  0.2158094553370518  0.2298053914797578  0.8252365405530142
  0.0828433027641609  0.1129303003864308  0.5923671994007620
  0.8657352653711499  0.2198534833071477  0.3154226225895087
  0.7747290377081910  0.0898948597877194  0.1214481001969219
  0.5702970951145616  0.2088164359259039  0.8795013574469479
  0.4655163943936600  0.0870747775725036  0.6066819806108725
  0.2395280272355080  0.5143126549036481  0.3162518940021997
  0.1087467549214622  0.4289684284865203  0.0781879788569313
  0.8907396566023777  0.5354983351390530  0.8330582830837159
  0.7610004516555691  0.4177500139926948  0.5663870646617681
  0.5628616838538392  0.5171650544446109  0.3157862244991705
  0.4417567498141608  0.4304835916878318  0.0735699725606622
  0.2229411474333176  0.5367792975657935  0.8300433913856438
  0.1156518363121961  0.4477916529135015  0.5613604773686234
  0.8894322079309234  0.5341104087918751  0.3338923449990574
  0.7780717038134810  0.4290962391999003  0.0756723351702817
  0.5697200565514962  0.5107182103889585  0.8261803230256817
  0.4357703096141705  0.4385131473337012  0.5796532239389265
  0.2260839624684650  0.8685792115769573  0.3855831409383654
  0.1108581528033596  0.7559046093630641  0.0963990315971728
  0.8887176472025331  0.8728145135705390  0.8810166220598248
  0.7711420100941879  0.7832754964274997  0.6347915500105188
  0.5793281942746944  0.8572337339340450  0.3849171200096677
  0.4459187563504656  0.7592705382240581  0.1026351613177496
  0.2154599087932638  0.8616971548189269  0.8671361798949846
  0.0941958664185449  0.7543409622957924  0.5900601588647163
  0.8615814014384426  0.8906515250094671  0.3775272006999657
  0.7803870444076679  0.7615176876223089  0.1307072976943715
  0.5863479121755333  0.8600261601541206  0.8897171214366395
  0.4713868355177055  0.7507185813395623  0.6263401902527050
 
  0.00000000E+00  0.00000000E+00  0.00000000E+00
  0.00000000E+00  0.00000000E+00  0.00000000E+00
  0.00000000E+00  0.00000000E+00  0.00000000E+00
  0.00000000E+00  0.00000000E+00  0.00000000E+00
  0.00000000E+00  0.00000000E+00  0.00000000E+00
  0.00000000E+00  0.00000000E+00  0.00000000E+00
  0.00000000E+00  0.00000000E+00  0.00000000E+00
  0.00000000E+00  0.00000000E+00  0.00000000E+00
  0.00000000E+00  0.00000000E+00  0.00000000E+00
  0.00000000E+00  0.00000000E+00  0.00000000E+00
  0.00000000E+00  0.00000000E+00  0.00000000E+00
  0.00000000E+00  0.00000000E+00  0.00000000E+00
  0.00000000E+00  0.00000000E+00  0.00000000E+00
  0.00000000E+00  0.00000000E+00  0.00000000E+00
  0.00000000E+00  0.00000000E+00  0.00000000E+00
  0.00000000E+00  0.00000000E+00  0.00000000E+00
  0.00000000E+00  0.00000000E+00  0.00000000E+00
  0.00000000E+00  0.00000000E+00  0.00000000E+00
  0.00000000E+00  0.00000000E+00  0.00000000E+00
  0.00000000E+00  0.00000000E+00  0.00000000E+00
  0.00000000E+00  0.00000000E+00  0.00000000E+00
  0.00000000E+00  0.00000000E+00  0.00000000E+00
  0.00000000E+00  0.00000000E+00  0.00000000E+00
  0.00000000E+00  0.00000000E+00  0.00000000E+00
  0.00000000E+00  0.00000000E+00  0.00000000E+00
  0.00000000E+00  0.00000000E+00  0.00000000E+00
  0.00000000E+00  0.00000000E+00  0.00000000E+00
  0.00000000E+00  0.00000000E+00  0.00000000E+00
  0.00000000E+00  0.00000000E+00  0.00000000E+00
  0.00000000E+00  0.00000000E+00  0.00000000E+00
  0.00000000E+00  0.00000000E+00  0.00000000E+00
  0.00000000E+00  0.00000000E+00  0.00000000E+00
  0.00000000E+00  0.00000000E+00  0.00000000E+00
  0.00000000E+00  0.00000000E+00  0.00000000E+00
  0.00000000E+00  0.00000000E+00  0.00000000E+00
  0.00000000E+00  0.00000000E+00  0.00000000E+00
  0.00000000E+00  0.00000000E+00  0.00000000E+00
  0.00000000E+00  0.00000000E+00  0.00000000E+00
  0.00000000E+00  0.00000000E+00  0.00000000E+00
  0.00000000E+00  0.00000000E+00  0.00000000E+00
  0.00000000E+00  0.00000000E+00  0.00000000E+00
  0.00000000E+00  0.00000000E+00  0.00000000E+00
  0.00000000E+00  0.00000000E+00  0.00000000E+00
  0.00000000E+00  0.00000000E+00  0.00000000E+00
  0.00000000E+00  0.00000000E+00  0.00000000E+00
  0.00000000E+00  0.00000000E+00  0.00000000E+00
  0.00000000E+00  0.00000000E+00  0.00000000E+00
  0.00000000E+00  0.00000000E+00  0.00000000E+00
  0.00000000E+00  0.00000000E+00  0.00000000E+00
  0.00000000E+00  0.00000000E+00  0.00000000E+00
  0.00000000E+00  0.00000000E+00  0.00000000E+00
  0.00000000E+00  0.00000000E+00  0.00000000E+00
  0.00000000E+00  0.00000000E+00  0.00000000E+00
  0.00000000E+00  0.00000000E+00  0.00000000E+00
  0.00000000E+00  0.00000000E+00  0.00000000E+00
  0.00000000E+00  0.00000000E+00  0.00000000E+00
  0.00000000E+00  0.00000000E+00  0.00000000E+00
  0.00000000E+00  0.00000000E+00  0.00000000E+00
  0.00000000E+00  0.00000000E+00  0.00000000E+00
  0.00000000E+00  0.00000000E+00  0.00000000E+00
  0.00000000E+00  0.00000000E+00  0.00000000E+00
  0.00000000E+00  0.00000000E+00  0.00000000E+00
  0.00000000E+00  0.00000000E+00  0.00000000E+00
  0.00000000E+00  0.00000000E+00  0.00000000E+00
  0.00000000E+00  0.00000000E+00  0.00000000E+00
  0.00000000E+00  0.00000000E+00  0.00000000E+00
  0.00000000E+00  0.00000000E+00  0.00000000E+00
  0.00000000E+00  0.00000000E+00  0.00000000E+00
  0.00000000E+00  0.00000000E+00  0.00000000E+00
  0.00000000E+00  0.00000000E+00  0.00000000E+00
  0.00000000E+00  0.00000000E+00  0.00000000E+00
  0.00000000E+00  0.00000000E+00  0.00000000E+00
