Sc   Al   N                             
   1.00000000000000     
    -9.8767800585433037   -0.0117746913528077    0.0048159624402843
    -4.9199911202954949    8.5179726296386864    0.0056785114532094
    -0.0024805835681135    0.0494174146759476  -10.1653146939166064
   Sc   Al   N 
    10    26    36
Direct
  0.1003371205324797  0.0992715344291639  0.3013313067084624
  0.4484098434158028  0.0980778461691330  0.3144660577095664
  0.0980043186488828  0.1039078132252484  0.8281355371692953
  0.2177696560098070  0.2137519881215439  0.5639478113383376
  0.4540226396160136  0.0960919319929587  0.8146271964500542
  0.8812808522805753  0.5446218170617172  0.5652559490415925
  0.1048518941886769  0.7565920519525307  0.3232237281689407
  0.4525690771891817  0.7523192701740271  0.3100164020667080
  0.2224073698149809  0.8709098733853082  0.5771297137016305
  0.4583263811020899  0.7510325554381367  0.8213675823820097
  0.2226323204603204  0.2106021561521629  0.0527673267966549
  0.7761129572610699  0.0975751492207806  0.8092868059116256
  0.8752596643727273  0.2086974053477419  0.5594351907525805
  0.5623475061155645  0.2061408378232983  0.0571620059240843
  0.7727095422730628  0.0984865873762928  0.3112699297256469
  0.8778583152676802  0.2095544621606535  0.0575645607117963
  0.5611557905625659  0.2091597450206919  0.5581670031234154
  0.1044180444493747  0.4282939706249422  0.2967616797683164
  0.2271835216553058  0.5348015992879880  0.1077489377408298
  0.7738253056984306  0.4236579778322209  0.8098903245918905
  0.4551188828157038  0.4195723580927080  0.3062451455426825
  0.5621516373031596  0.5299403653225312  0.0570114637619668
  0.1053341890320709  0.4369624974450375  0.8197215408443341
  0.2244767729594912  0.5395384066215456  0.6312042615208284
  0.7766353275744748  0.4255669592459910  0.3074074047797737
  0.8860222017325796  0.5398656592386146  0.0570251951619341
  0.4532214334574007  0.4242511597862588  0.8156172705353200
  0.5594182613060212  0.5292104470314385  0.5586437689694534
  0.2214126904036178  0.8649372640703845  0.0484468250450618
  0.7840619590961779  0.7629096222596132  0.8124372668182218
  0.8759474953159270  0.8815279970955956  0.5628425718424168
  0.5640371237063420  0.8705760507584444  0.0580739525604557
  0.1005924249151562  0.7622319615672737  0.8152111584579416
  0.7812633774729392  0.7599538367311283  0.3050852548168592
  0.8890139702596613  0.8734513234319294  0.0583207110456598
  0.5675420012507715  0.8693072470239898  0.5570846639248686
  0.2085594430830042  0.2226612486219040  0.3567346722778026
  0.1096062382183050  0.0933249718130682  0.0851571401024671
  0.8635520403940404  0.2166803198775114  0.8737980866512913
  0.7745321798866485  0.0965723808727290  0.6202539171936010
  0.5657990856010926  0.2149444462300636  0.3712586335378703
  0.4464644798874176  0.0958362361203058  0.0988504265949999
  0.2174938578956258  0.2255032651105040  0.8664787370728391
  0.0849771790979545  0.1100001941069451  0.6168831404273760
  0.8694078542469938  0.2142385284015873  0.3694066169906449
  0.7789178468334654  0.0921665531613272  0.1201654681958004
  0.5682411910416363  0.2136104048976932  0.8714636786046341
  0.4618207340559195  0.0882159489262619  0.5998863329076514
  0.2355159057863361  0.5147544417651844  0.3136535528982733
  0.1055872722234810  0.4280984827269592  0.1046834478808734
  0.8844034995354946  0.5402505419187165  0.8640938899664761
  0.7669855794466685  0.4177144603494298  0.6226446588224093
  0.5664035169941144  0.5179316621728418  0.3695948670262084
  0.4549924636642970  0.4222462657803803  0.1136445823002674
  0.2264640465284131  0.5401114851085111  0.8375585346087675
  0.1098138802527231  0.4401527840078927  0.6303556687360370
  0.8889771874573142  0.5387761367081865  0.3524393320134749
  0.7786569818706326  0.4272695107398619  0.1172119289426377
  0.5679959101808620  0.5177042035250352  0.8727392870379447
  0.4469014610384363  0.4268542690375767  0.6212659362476174
  0.2231561639741599  0.8724027703080779  0.3706190918873915
  0.1091436029781718  0.7626665503936749  0.1059264480575379
  0.8869614828852406  0.8765860083981636  0.8691432487555772
  0.7709291448765754  0.7797799402363381  0.6265050979542366
  0.5773043686815669  0.8597158869353905  0.3693006429964498
  0.4463479670902117  0.7587131639626392  0.0930029202519265
  0.2160982846797310  0.8594010475751048  0.8579621660384404
  0.0925070066721290  0.7584418199042418  0.6169091075628401
  0.8652675934198726  0.8853534001204153  0.3730117841681349
  0.7821473709351778  0.7603872349841510  0.1156602042737092
  0.5805490994859781  0.8635321307874051  0.8754419277973469
  0.4711609042140807  0.7474023525674838  0.6074980837225965
 
  0.00000000E+00  0.00000000E+00  0.00000000E+00
  0.00000000E+00  0.00000000E+00  0.00000000E+00
  0.00000000E+00  0.00000000E+00  0.00000000E+00
  0.00000000E+00  0.00000000E+00  0.00000000E+00
  0.00000000E+00  0.00000000E+00  0.00000000E+00
  0.00000000E+00  0.00000000E+00  0.00000000E+00
  0.00000000E+00  0.00000000E+00  0.00000000E+00
  0.00000000E+00  0.00000000E+00  0.00000000E+00
  0.00000000E+00  0.00000000E+00  0.00000000E+00
  0.00000000E+00  0.00000000E+00  0.00000000E+00
  0.00000000E+00  0.00000000E+00  0.00000000E+00
  0.00000000E+00  0.00000000E+00  0.00000000E+00
  0.00000000E+00  0.00000000E+00  0.00000000E+00
  0.00000000E+00  0.00000000E+00  0.00000000E+00
  0.00000000E+00  0.00000000E+00  0.00000000E+00
  0.00000000E+00  0.00000000E+00  0.00000000E+00
  0.00000000E+00  0.00000000E+00  0.00000000E+00
  0.00000000E+00  0.00000000E+00  0.00000000E+00
  0.00000000E+00  0.00000000E+00  0.00000000E+00
  0.00000000E+00  0.00000000E+00  0.00000000E+00
  0.00000000E+00  0.00000000E+00  0.00000000E+00
  0.00000000E+00  0.00000000E+00  0.00000000E+00
  0.00000000E+00  0.00000000E+00  0.00000000E+00
  0.00000000E+00  0.00000000E+00  0.00000000E+00
  0.00000000E+00  0.00000000E+00  0.00000000E+00
  0.00000000E+00  0.00000000E+00  0.00000000E+00
  0.00000000E+00  0.00000000E+00  0.00000000E+00
  0.00000000E+00  0.00000000E+00  0.00000000E+00
  0.00000000E+00  0.00000000E+00  0.00000000E+00
  0.00000000E+00  0.00000000E+00  0.00000000E+00
  0.00000000E+00  0.00000000E+00  0.00000000E+00
  0.00000000E+00  0.00000000E+00  0.00000000E+00
  0.00000000E+00  0.00000000E+00  0.00000000E+00
  0.00000000E+00  0.00000000E+00  0.00000000E+00
  0.00000000E+00  0.00000000E+00  0.00000000E+00
  0.00000000E+00  0.00000000E+00  0.00000000E+00
  0.00000000E+00  0.00000000E+00  0.00000000E+00
  0.00000000E+00  0.00000000E+00  0.00000000E+00
  0.00000000E+00  0.00000000E+00  0.00000000E+00
  0.00000000E+00  0.00000000E+00  0.00000000E+00
  0.00000000E+00  0.00000000E+00  0.00000000E+00
  0.00000000E+00  0.00000000E+00  0.00000000E+00
  0.00000000E+00  0.00000000E+00  0.00000000E+00
  0.00000000E+00  0.00000000E+00  0.00000000E+00
  0.00000000E+00  0.00000000E+00  0.00000000E+00
  0.00000000E+00  0.00000000E+00  0.00000000E+00
  0.00000000E+00  0.00000000E+00  0.00000000E+00
  0.00000000E+00  0.00000000E+00  0.00000000E+00
  0.00000000E+00  0.00000000E+00  0.00000000E+00
  0.00000000E+00  0.00000000E+00  0.00000000E+00
  0.00000000E+00  0.00000000E+00  0.00000000E+00
  0.00000000E+00  0.00000000E+00  0.00000000E+00
  0.00000000E+00  0.00000000E+00  0.00000000E+00
  0.00000000E+00  0.00000000E+00  0.00000000E+00
  0.00000000E+00  0.00000000E+00  0.00000000E+00
  0.00000000E+00  0.00000000E+00  0.00000000E+00
  0.00000000E+00  0.00000000E+00  0.00000000E+00
  0.00000000E+00  0.00000000E+00  0.00000000E+00
  0.00000000E+00  0.00000000E+00  0.00000000E+00
  0.00000000E+00  0.00000000E+00  0.00000000E+00
  0.00000000E+00  0.00000000E+00  0.00000000E+00
  0.00000000E+00  0.00000000E+00  0.00000000E+00
  0.00000000E+00  0.00000000E+00  0.00000000E+00
  0.00000000E+00  0.00000000E+00  0.00000000E+00
  0.00000000E+00  0.00000000E+00  0.00000000E+00
  0.00000000E+00  0.00000000E+00  0.00000000E+00
  0.00000000E+00  0.00000000E+00  0.00000000E+00
  0.00000000E+00  0.00000000E+00  0.00000000E+00
  0.00000000E+00  0.00000000E+00  0.00000000E+00
  0.00000000E+00  0.00000000E+00  0.00000000E+00
  0.00000000E+00  0.00000000E+00  0.00000000E+00
  0.00000000E+00  0.00000000E+00  0.00000000E+00
