Sc   Al   N                             
   1.00000000000000     
    -9.8903199390870089   -0.0128546976273312    0.0046974915922837
    -4.9245205470854136    8.5229232977690419    0.0050849215986601
    -0.0131089160506945    0.0446303073971402  -10.1535383839194715
   Sc   Al   N 
    10    26    36
Direct
  0.0998107316104608  0.1000142487173079  0.3055230432202052
  0.4481781589255576  0.0981950101233551  0.3182361303751904
  0.0979932131221091  0.1036694965012259  0.8311838703614427
  0.2176501508523643  0.2137534751237951  0.5678754690849317
  0.4540943441864940  0.0961776312762552  0.8179209015187681
  0.8818371816553849  0.5448367117498236  0.5688063357557525
  0.1054064321182722  0.7529114266362456  0.3481541440958367
  0.4529953212849733  0.7523824238765400  0.3140883650009130
  0.2216936685500244  0.8698013210944993  0.5819750584978536
  0.4599738367639503  0.7505762123434607  0.8240862770302684
  0.2224699741446940  0.2114982536024144  0.0560744448122819
  0.7772310177197426  0.0964320839819521  0.8120743100693772
  0.8750869978202473  0.2085706273468446  0.5626341281050671
  0.5616125159021479  0.2072855519028138  0.0598046638930327
  0.7712278254040186  0.1001338744192850  0.3137793382944096
  0.8776135509782605  0.2101099734239185  0.0608189834949897
  0.5606119527434004  0.2096432679112681  0.5615953317030247
  0.1035905478310966  0.4279491589099180  0.3001299978322294
  0.2276174618370561  0.5341832421191341  0.1181481175383112
  0.7739614515735838  0.4232962617410365  0.8128354622108702
  0.4556665483617977  0.4194629793011728  0.3095863553264664
  0.5623110110752236  0.5298921442694677  0.0602397528349954
  0.1048261884297190  0.4362407769410765  0.8217121703965304
  0.2208004945386079  0.5449236187248516  0.6349547105404625
  0.7763333453653374  0.4258730665908814  0.3108594874527171
  0.8859494445791825  0.5398444194132423  0.0600563213359564
  0.4544975884765208  0.4235743673257701  0.8167459152936303
  0.5593043337146142  0.5289836544914550  0.5619246418050849
  0.2248894485467900  0.8677364297082732  0.0553950494072737
  0.7848610778043081  0.7629879936183386  0.8153106386612450
  0.8752165595756196  0.8814363366609328  0.5627782059257953
  0.5639752168847068  0.8710391905216781  0.0611511809766085
  0.1070781414429902  0.7548489144822668  0.8664304036497512
  0.7799553491469879  0.7604317024277876  0.3077567883549861
  0.8844343195653437  0.8759535573560626  0.0656434508312316
  0.5674788640770174  0.8693294482871678  0.5605668631579803
  0.2084377080199573  0.2231353587276459  0.3603986022820678
  0.1094968219827948  0.0942210650429729  0.0889826259682067
  0.8638413669009424  0.2163195103607336  0.8768945004292661
  0.7747957477583398  0.0957932181874668  0.6229285190613538
  0.5648716340222464  0.2156542423931853  0.3745569800396424
  0.4462872007564798  0.0964010088036673  0.1017989669749895
  0.2173900296883531  0.2253914523671057  0.8695201811482391
  0.0843583991952812  0.1099915104407430  0.6201972596654741
  0.8685637677303362  0.2147542648452969  0.3724582623457380
  0.7776454964666186  0.0940172288750389  0.1229437946104994
  0.5687311133732109  0.2134545957792753  0.8738686636402875
  0.4617072388990380  0.0882370507657981  0.6031805255705649
  0.2357410581737795  0.5138886990489056  0.3134223298452099
  0.1050333741523559  0.4285329657894508  0.1077024748735624
  0.8844064355165671  0.5402841030944927  0.8669750986955762
  0.7669672282956341  0.4177426361731591  0.6255905550500387
  0.5663213389251069  0.5178227001647215  0.3727449857394944
  0.4552539700683411  0.4226141755707005  0.1166563972012469
  0.2262279224229360  0.5401264828749675  0.8366812534110579
  0.1100186468931810  0.4400592323416177  0.6336632375772524
  0.8886039773498737  0.5393395295284833  0.3556379003800103
  0.7785685671254896  0.4275537822622653  0.1202864117447220
  0.5680654179434939  0.5175114692642566  0.8757544754862678
  0.4459330770068277  0.4274605209902163  0.6240665771536342
  0.2241702842691140  0.8737756407126227  0.3717417914042755
  0.1105828996443634  0.7599290364034488  0.0938640626460199
  0.8866807236647176  0.8762727754560160  0.8740568086547427
  0.7710273764385391  0.7803220913866937  0.6295325907443683
  0.5768556757839818  0.8600138142928131  0.3728207238210359
  0.4476918501304539  0.7588193964802770  0.0966959106304444
  0.2184578186903607  0.8594945038915540  0.8617236601076783
  0.0957623525319349  0.7521395187833804  0.5819018151696156
  0.8607373441367940  0.8883363684514620  0.3711920180628709
  0.7810379276766852  0.7602407614656457  0.1187393111321100
  0.5812391906496543  0.8636746085100455  0.8783599871988272
  0.4714737570152678  0.7470437992837233  0.6105784269777530
 
  0.00000000E+00  0.00000000E+00  0.00000000E+00
  0.00000000E+00  0.00000000E+00  0.00000000E+00
  0.00000000E+00  0.00000000E+00  0.00000000E+00
  0.00000000E+00  0.00000000E+00  0.00000000E+00
  0.00000000E+00  0.00000000E+00  0.00000000E+00
  0.00000000E+00  0.00000000E+00  0.00000000E+00
  0.00000000E+00  0.00000000E+00  0.00000000E+00
  0.00000000E+00  0.00000000E+00  0.00000000E+00
  0.00000000E+00  0.00000000E+00  0.00000000E+00
  0.00000000E+00  0.00000000E+00  0.00000000E+00
  0.00000000E+00  0.00000000E+00  0.00000000E+00
  0.00000000E+00  0.00000000E+00  0.00000000E+00
  0.00000000E+00  0.00000000E+00  0.00000000E+00
  0.00000000E+00  0.00000000E+00  0.00000000E+00
  0.00000000E+00  0.00000000E+00  0.00000000E+00
  0.00000000E+00  0.00000000E+00  0.00000000E+00
  0.00000000E+00  0.00000000E+00  0.00000000E+00
  0.00000000E+00  0.00000000E+00  0.00000000E+00
  0.00000000E+00  0.00000000E+00  0.00000000E+00
  0.00000000E+00  0.00000000E+00  0.00000000E+00
  0.00000000E+00  0.00000000E+00  0.00000000E+00
  0.00000000E+00  0.00000000E+00  0.00000000E+00
  0.00000000E+00  0.00000000E+00  0.00000000E+00
  0.00000000E+00  0.00000000E+00  0.00000000E+00
  0.00000000E+00  0.00000000E+00  0.00000000E+00
  0.00000000E+00  0.00000000E+00  0.00000000E+00
  0.00000000E+00  0.00000000E+00  0.00000000E+00
  0.00000000E+00  0.00000000E+00  0.00000000E+00
  0.00000000E+00  0.00000000E+00  0.00000000E+00
  0.00000000E+00  0.00000000E+00  0.00000000E+00
  0.00000000E+00  0.00000000E+00  0.00000000E+00
  0.00000000E+00  0.00000000E+00  0.00000000E+00
  0.00000000E+00  0.00000000E+00  0.00000000E+00
  0.00000000E+00  0.00000000E+00  0.00000000E+00
  0.00000000E+00  0.00000000E+00  0.00000000E+00
  0.00000000E+00  0.00000000E+00  0.00000000E+00
  0.00000000E+00  0.00000000E+00  0.00000000E+00
  0.00000000E+00  0.00000000E+00  0.00000000E+00
  0.00000000E+00  0.00000000E+00  0.00000000E+00
  0.00000000E+00  0.00000000E+00  0.00000000E+00
  0.00000000E+00  0.00000000E+00  0.00000000E+00
  0.00000000E+00  0.00000000E+00  0.00000000E+00
  0.00000000E+00  0.00000000E+00  0.00000000E+00
  0.00000000E+00  0.00000000E+00  0.00000000E+00
  0.00000000E+00  0.00000000E+00  0.00000000E+00
  0.00000000E+00  0.00000000E+00  0.00000000E+00
  0.00000000E+00  0.00000000E+00  0.00000000E+00
  0.00000000E+00  0.00000000E+00  0.00000000E+00
  0.00000000E+00  0.00000000E+00  0.00000000E+00
  0.00000000E+00  0.00000000E+00  0.00000000E+00
  0.00000000E+00  0.00000000E+00  0.00000000E+00
  0.00000000E+00  0.00000000E+00  0.00000000E+00
  0.00000000E+00  0.00000000E+00  0.00000000E+00
  0.00000000E+00  0.00000000E+00  0.00000000E+00
  0.00000000E+00  0.00000000E+00  0.00000000E+00
  0.00000000E+00  0.00000000E+00  0.00000000E+00
  0.00000000E+00  0.00000000E+00  0.00000000E+00
  0.00000000E+00  0.00000000E+00  0.00000000E+00
  0.00000000E+00  0.00000000E+00  0.00000000E+00
  0.00000000E+00  0.00000000E+00  0.00000000E+00
  0.00000000E+00  0.00000000E+00  0.00000000E+00
  0.00000000E+00  0.00000000E+00  0.00000000E+00
  0.00000000E+00  0.00000000E+00  0.00000000E+00
  0.00000000E+00  0.00000000E+00  0.00000000E+00
  0.00000000E+00  0.00000000E+00  0.00000000E+00
  0.00000000E+00  0.00000000E+00  0.00000000E+00
  0.00000000E+00  0.00000000E+00  0.00000000E+00
  0.00000000E+00  0.00000000E+00  0.00000000E+00
  0.00000000E+00  0.00000000E+00  0.00000000E+00
  0.00000000E+00  0.00000000E+00  0.00000000E+00
  0.00000000E+00  0.00000000E+00  0.00000000E+00
  0.00000000E+00  0.00000000E+00  0.00000000E+00
