Sc   Al   N                             
   1.00000000000000     
    -9.8376336627593908   -0.0088946746207450    0.0051318847016192
    -4.9111134724066599    8.5058538023645394    0.0072614177320078
     0.0054362519463850   -0.0057145027557117  -10.1473157215942997
   Sc   Al   N 
    10    26    36
Direct
  0.1005246902674131  0.1000168580697078  0.2881880925750551
  0.4504334270540866  0.0956967688072012  0.3010219309851294
  0.0985544869207189  0.1035065817680803  0.8158286473683845
  0.2190688233275111  0.2122383972005650  0.5514519467496797
  0.4539298661816389  0.0955070268091944  0.8031124244061161
  0.8829716977665925  0.5425672516084887  0.5545242106856207
  0.1059006576474459  0.7558745955206305  0.3027111862060679
  0.4525314617171929  0.7521692878420012  0.2975052508432796
  0.2216620185483151  0.8697104871041148  0.5640503496167284
  0.4587288204437527  0.7496054706278414  0.8078287976054668
  0.2223284553732370  0.2132947651282322  0.0417900082252842
  0.7755732369172037  0.0972999926300133  0.7965399120440892
  0.8752907722731820  0.2084157143789795  0.5470220731556310
  0.5589278887336562  0.2094095784376506  0.0453487239071180
  0.7727248740084462  0.0990966832406954  0.2981845620722012
  0.8771321797107419  0.2103131669009528  0.0446693289582214
  0.5615533877466703  0.2083159377469528  0.5456475106354404
  0.1090649507698487  0.4314663984092917  0.2893158835300724
  0.2241473440629704  0.5388950401615702  0.0432135083459215
  0.7727697079494220  0.4233664520292137  0.7986961245191253
  0.4487020362878837  0.4227567183600129  0.2981369060124095
  0.5586543916505065  0.5304132950459959  0.0457117823202609
  0.1092534279924067  0.4382558059836654  0.8017716102844901
  0.2254832284718589  0.5343176678547437  0.5490845040277179
  0.7767595098816145  0.4261423676897564  0.2950852948804652
  0.8880615343103599  0.5398397664197176  0.0455944380833841
  0.4459162402047312  0.4269805376105396  0.7972764779931509
  0.5593170503642710  0.5288406460895700  0.5460909919252899
  0.2210240857628349  0.8654783642531285  0.0338314015901062
  0.7850915510801002  0.7618678548659759  0.7994257209117492
  0.8787734266852212  0.8791844754111864  0.5494226820727164
  0.5641795567166383  0.8699354145066138  0.0450576117681578
  0.1044476865765773  0.7542536988869983  0.7950788440594678
  0.7827292651895803  0.7590943795428231  0.2927937192970234
  0.8883531802005180  0.8741238886220586  0.0434850868679959
  0.5682747140947697  0.8683321440221192  0.5445392662033370
  0.2103714634437495  0.2226985422449275  0.3431686790097288
  0.1092827448823854  0.0943517354265282  0.0717888512741069
  0.8633383602173197  0.2164248582218136  0.8610842987908782
  0.7754344827427175  0.0953167859870092  0.6071715777125348
  0.5651581740609188  0.2153041560205224  0.3580998482961277
  0.4466009225322267  0.0955803959673958  0.0855312014521417
  0.2163243065360732  0.2279240788537393  0.8548162963458878
  0.0853791285531642  0.1097048787233490  0.6042659101054255
  0.8693376486466278  0.2150991884034283  0.3568555119581376
  0.7775017505341992  0.0935973897371198  0.1067068375648432
  0.5656796705324467  0.2165047272283260  0.8587182231438817
  0.4628224843733122  0.0870526127576383  0.5880373408411828
  0.2344031251473098  0.5165243701503215  0.3588354284338422
  0.1099804947509568  0.4327984115294896  0.0988786526968255
  0.8868456200784181  0.5389338397340211  0.8512793915389238
  0.7665492456697720  0.4174243513607010  0.6111330515051918
  0.5657811772577830  0.5181718108402507  0.3569521159283653
  0.4432132514644280  0.4281501511510868  0.1066000668467169
  0.2250541720391936  0.5391469625557690  0.8550795841126444
  0.1154444164319131  0.4412522028997330  0.6166852860435839
  0.8903260982455024  0.5387266409866598  0.3412266657192049
  0.7777102220376690  0.4282607131653862  0.1045202640182197
  0.5647647457041955  0.5165842921892079  0.8607461265111809
  0.4429935858602931  0.4286603520729670  0.6067551055406852
  0.2213966351761343  0.8726381359522790  0.3565731377023837
  0.1102091421838125  0.7606665080662296  0.0915266966982387
  0.8887912366110058  0.8751930026777828  0.8543406423515023
  0.7722616632120491  0.7784094275764488  0.6131258067385872
  0.5783259521715252  0.8586849514337445  0.3567427145153061
  0.4453893637746162  0.7594584267401814  0.0802358518045878
  0.2156047449805527  0.8576600023705367  0.8426105017318619
  0.0967229406379815  0.7510333828605269  0.6024736485974529
  0.8676998373231442  0.8851230311588409  0.3590651727075382
  0.7825246473820116  0.7605834063235761  0.1029632220653198
  0.5809723794529305  0.8624501407253078  0.8624725640055715
  0.4709645324617568  0.7473226563209749  0.5938969149589823
 
  0.00000000E+00  0.00000000E+00  0.00000000E+00
  0.00000000E+00  0.00000000E+00  0.00000000E+00
  0.00000000E+00  0.00000000E+00  0.00000000E+00
  0.00000000E+00  0.00000000E+00  0.00000000E+00
  0.00000000E+00  0.00000000E+00  0.00000000E+00
  0.00000000E+00  0.00000000E+00  0.00000000E+00
  0.00000000E+00  0.00000000E+00  0.00000000E+00
  0.00000000E+00  0.00000000E+00  0.00000000E+00
  0.00000000E+00  0.00000000E+00  0.00000000E+00
  0.00000000E+00  0.00000000E+00  0.00000000E+00
  0.00000000E+00  0.00000000E+00  0.00000000E+00
  0.00000000E+00  0.00000000E+00  0.00000000E+00
  0.00000000E+00  0.00000000E+00  0.00000000E+00
  0.00000000E+00  0.00000000E+00  0.00000000E+00
  0.00000000E+00  0.00000000E+00  0.00000000E+00
  0.00000000E+00  0.00000000E+00  0.00000000E+00
  0.00000000E+00  0.00000000E+00  0.00000000E+00
  0.00000000E+00  0.00000000E+00  0.00000000E+00
  0.00000000E+00  0.00000000E+00  0.00000000E+00
  0.00000000E+00  0.00000000E+00  0.00000000E+00
  0.00000000E+00  0.00000000E+00  0.00000000E+00
  0.00000000E+00  0.00000000E+00  0.00000000E+00
  0.00000000E+00  0.00000000E+00  0.00000000E+00
  0.00000000E+00  0.00000000E+00  0.00000000E+00
  0.00000000E+00  0.00000000E+00  0.00000000E+00
  0.00000000E+00  0.00000000E+00  0.00000000E+00
  0.00000000E+00  0.00000000E+00  0.00000000E+00
  0.00000000E+00  0.00000000E+00  0.00000000E+00
  0.00000000E+00  0.00000000E+00  0.00000000E+00
  0.00000000E+00  0.00000000E+00  0.00000000E+00
  0.00000000E+00  0.00000000E+00  0.00000000E+00
  0.00000000E+00  0.00000000E+00  0.00000000E+00
  0.00000000E+00  0.00000000E+00  0.00000000E+00
  0.00000000E+00  0.00000000E+00  0.00000000E+00
  0.00000000E+00  0.00000000E+00  0.00000000E+00
  0.00000000E+00  0.00000000E+00  0.00000000E+00
  0.00000000E+00  0.00000000E+00  0.00000000E+00
  0.00000000E+00  0.00000000E+00  0.00000000E+00
  0.00000000E+00  0.00000000E+00  0.00000000E+00
  0.00000000E+00  0.00000000E+00  0.00000000E+00
  0.00000000E+00  0.00000000E+00  0.00000000E+00
  0.00000000E+00  0.00000000E+00  0.00000000E+00
  0.00000000E+00  0.00000000E+00  0.00000000E+00
  0.00000000E+00  0.00000000E+00  0.00000000E+00
  0.00000000E+00  0.00000000E+00  0.00000000E+00
  0.00000000E+00  0.00000000E+00  0.00000000E+00
  0.00000000E+00  0.00000000E+00  0.00000000E+00
  0.00000000E+00  0.00000000E+00  0.00000000E+00
  0.00000000E+00  0.00000000E+00  0.00000000E+00
  0.00000000E+00  0.00000000E+00  0.00000000E+00
  0.00000000E+00  0.00000000E+00  0.00000000E+00
  0.00000000E+00  0.00000000E+00  0.00000000E+00
  0.00000000E+00  0.00000000E+00  0.00000000E+00
  0.00000000E+00  0.00000000E+00  0.00000000E+00
  0.00000000E+00  0.00000000E+00  0.00000000E+00
  0.00000000E+00  0.00000000E+00  0.00000000E+00
  0.00000000E+00  0.00000000E+00  0.00000000E+00
  0.00000000E+00  0.00000000E+00  0.00000000E+00
  0.00000000E+00  0.00000000E+00  0.00000000E+00
  0.00000000E+00  0.00000000E+00  0.00000000E+00
  0.00000000E+00  0.00000000E+00  0.00000000E+00
  0.00000000E+00  0.00000000E+00  0.00000000E+00
  0.00000000E+00  0.00000000E+00  0.00000000E+00
  0.00000000E+00  0.00000000E+00  0.00000000E+00
  0.00000000E+00  0.00000000E+00  0.00000000E+00
  0.00000000E+00  0.00000000E+00  0.00000000E+00
  0.00000000E+00  0.00000000E+00  0.00000000E+00
  0.00000000E+00  0.00000000E+00  0.00000000E+00
  0.00000000E+00  0.00000000E+00  0.00000000E+00
  0.00000000E+00  0.00000000E+00  0.00000000E+00
  0.00000000E+00  0.00000000E+00  0.00000000E+00
  0.00000000E+00  0.00000000E+00  0.00000000E+00
