Sc   Al   N                             
   1.00000000000000     
    -9.8837955083629101   -0.0101908154683314   -0.0001373820825989
    -4.9255977093102903    8.5137468105124796    0.0005409540574731
     0.0133590131488186    0.0987427554901478  -10.2706774937543006
   Sc   Al   N 
    10    26    36
Direct
  0.0980088632819545  0.0953161279620929  0.3212062538639771
  0.4563946086618174  0.0937875666544272  0.3372997295587581
  0.0984525407264840  0.1049130166133097  0.8381058508642809
  0.2187703738996376  0.2146529209945385  0.6046826291440794
  0.4583613691452086  0.0920967128069776  0.8223614786990368
  0.8849545908634937  0.5399622019883523  0.6244617912576729
  0.1028475253564309  0.7577949043704635  0.3330224314457055
  0.4492800945477740  0.7579492608018654  0.3221496942954829
  0.2235376853582736  0.8678943055333477  0.5911818232281618
  0.4561737199960376  0.7516349085807761  0.8468747516817245
  0.2223015175396128  0.2122418164823117  0.1302577040106883
  0.7763376062785028  0.0986592447186467  0.8215651838666105
  0.8741247790447702  0.2047439507389299  0.5661172140563835
  0.5620317683047205  0.2009420662732424  0.0688155018075349
  0.7711142944419578  0.0989157381525558  0.3192842915823420
  0.8826620742742861  0.2030175637681566  0.0706726955101189
  0.5644082534440855  0.2066981163255690  0.5684156714978243
  0.1112868312375141  0.4346314315928197  0.3764272164523774
  0.2295230501223884  0.5307895178603843  0.1303400530598111
  0.7753048421175990  0.4323047226568306  0.8911920533198412
  0.4447330994898238  0.4324544862400117  0.3854414858709845
  0.5607768242726650  0.5259606080269137  0.1298724124262876
  0.1096398735254454  0.4335141997169600  0.8874942832069834
  0.2240536335318737  0.5366932513414184  0.6382854056741110
  0.7692877437420051  0.4299934359198119  0.3816244934900794
  0.8913586966898137  0.5347582434039282  0.1360893161627672
  0.4440374558669902  0.4294346661355277  0.8860472768604382
  0.5598513352252468  0.5284162541267392  0.6393689597482748
  0.2188577915827992  0.8657970532280288  0.0623469368892131
  0.7843105542868685  0.7647141409553058  0.8265464825803477
  0.8760846548362764  0.8823315637540290  0.5754085966674936
  0.5652805207526015  0.8706330126723572  0.0725995017548868
  0.1000335442004072  0.7606016000364306  0.8227475038782543
  0.7803277274324074  0.7629199988080941  0.3212970565203435
  0.8893455205788428  0.8719272831498230  0.0695981802299954
  0.5687161896432826  0.8657450064712648  0.5722471799829947
  0.2111093238334405  0.2230993487283754  0.3290116092395223
  0.1106800741316789  0.0939755222362635  0.1038361020124299
  0.8672445572265985  0.2117749053516036  0.8869345543641458
  0.7731709883706088  0.0991306548412538  0.6344341072870989
  0.5691270325003259  0.2141709953082582  0.3830294100814982
  0.4485693194922220  0.0939996145975570  0.1181741445855167
  0.2165539497399251  0.2300867760439331  0.8206861557678309
  0.0810327590452502  0.1095237835252547  0.6232771851060050
  0.8696712213181002  0.2077428177441547  0.3768861875544829
  0.7777769905685048  0.0922375366444399  0.1314101632637730
  0.5700602599839542  0.2075416782806982  0.8830033735833283
  0.4647776508882089  0.0875155706319717  0.6044864432564481
  0.2404468945402556  0.5127048019775557  0.3158594116429114
  0.1104168205636427  0.4299352706552710  0.0766970480467322
  0.8908475858646199  0.5358250793888928  0.8377603067329957
  0.7597848618848460  0.4273397918476647  0.5685170031312907
  0.5651732810115249  0.5155120122270063  0.3150468889571556
  0.4423420302221928  0.4315020375418257  0.0738824024596951
  0.2259368626648453  0.5330913493967628  0.8292109601799353
  0.1150638430590689  0.4502761649778861  0.5585052058480642
  0.8913764481415782  0.5327095962856347  0.3294820647759238
  0.7768713278945398  0.4333629491740041  0.0812028475180995
  0.5707646215170641  0.5092664990097546  0.8256880789318188
  0.4362186245097135  0.4407500811736114  0.5773708843745240
  0.2238928141242198  0.8667154660029652  0.3871381640105440
  0.1079701480159443  0.7624304482314130  0.1203831880116155
  0.8884957478972737  0.8748876754583677  0.8825256319457466
  0.7694429867771220  0.7846578913064803  0.6406840086437313
  0.5805450490024455  0.8529687932972720  0.3876876819876145
  0.4446863824710974  0.7604330135453310  0.1041996812124566
  0.2125535064313979  0.8590940665156310  0.8747590394996223
  0.0900767352094149  0.7605507095697561  0.6314114735776357
  0.8648256213286842  0.8861368437794397  0.3871432226404821
  0.7808545400000000  0.7651783301341055  0.1329238319167985
  0.5833519768441917  0.8611499769425919  0.8926279782590569
  0.4679642486491176  0.7545569324107646  0.6311461763791968
 
  0.00000000E+00  0.00000000E+00  0.00000000E+00
  0.00000000E+00  0.00000000E+00  0.00000000E+00
  0.00000000E+00  0.00000000E+00  0.00000000E+00
  0.00000000E+00  0.00000000E+00  0.00000000E+00
  0.00000000E+00  0.00000000E+00  0.00000000E+00
  0.00000000E+00  0.00000000E+00  0.00000000E+00
  0.00000000E+00  0.00000000E+00  0.00000000E+00
  0.00000000E+00  0.00000000E+00  0.00000000E+00
  0.00000000E+00  0.00000000E+00  0.00000000E+00
  0.00000000E+00  0.00000000E+00  0.00000000E+00
  0.00000000E+00  0.00000000E+00  0.00000000E+00
  0.00000000E+00  0.00000000E+00  0.00000000E+00
  0.00000000E+00  0.00000000E+00  0.00000000E+00
  0.00000000E+00  0.00000000E+00  0.00000000E+00
  0.00000000E+00  0.00000000E+00  0.00000000E+00
  0.00000000E+00  0.00000000E+00  0.00000000E+00
  0.00000000E+00  0.00000000E+00  0.00000000E+00
  0.00000000E+00  0.00000000E+00  0.00000000E+00
  0.00000000E+00  0.00000000E+00  0.00000000E+00
  0.00000000E+00  0.00000000E+00  0.00000000E+00
  0.00000000E+00  0.00000000E+00  0.00000000E+00
  0.00000000E+00  0.00000000E+00  0.00000000E+00
  0.00000000E+00  0.00000000E+00  0.00000000E+00
  0.00000000E+00  0.00000000E+00  0.00000000E+00
  0.00000000E+00  0.00000000E+00  0.00000000E+00
  0.00000000E+00  0.00000000E+00  0.00000000E+00
  0.00000000E+00  0.00000000E+00  0.00000000E+00
  0.00000000E+00  0.00000000E+00  0.00000000E+00
  0.00000000E+00  0.00000000E+00  0.00000000E+00
  0.00000000E+00  0.00000000E+00  0.00000000E+00
  0.00000000E+00  0.00000000E+00  0.00000000E+00
  0.00000000E+00  0.00000000E+00  0.00000000E+00
  0.00000000E+00  0.00000000E+00  0.00000000E+00
  0.00000000E+00  0.00000000E+00  0.00000000E+00
  0.00000000E+00  0.00000000E+00  0.00000000E+00
  0.00000000E+00  0.00000000E+00  0.00000000E+00
  0.00000000E+00  0.00000000E+00  0.00000000E+00
  0.00000000E+00  0.00000000E+00  0.00000000E+00
  0.00000000E+00  0.00000000E+00  0.00000000E+00
  0.00000000E+00  0.00000000E+00  0.00000000E+00
  0.00000000E+00  0.00000000E+00  0.00000000E+00
  0.00000000E+00  0.00000000E+00  0.00000000E+00
  0.00000000E+00  0.00000000E+00  0.00000000E+00
  0.00000000E+00  0.00000000E+00  0.00000000E+00
  0.00000000E+00  0.00000000E+00  0.00000000E+00
  0.00000000E+00  0.00000000E+00  0.00000000E+00
  0.00000000E+00  0.00000000E+00  0.00000000E+00
  0.00000000E+00  0.00000000E+00  0.00000000E+00
  0.00000000E+00  0.00000000E+00  0.00000000E+00
  0.00000000E+00  0.00000000E+00  0.00000000E+00
  0.00000000E+00  0.00000000E+00  0.00000000E+00
  0.00000000E+00  0.00000000E+00  0.00000000E+00
  0.00000000E+00  0.00000000E+00  0.00000000E+00
  0.00000000E+00  0.00000000E+00  0.00000000E+00
  0.00000000E+00  0.00000000E+00  0.00000000E+00
  0.00000000E+00  0.00000000E+00  0.00000000E+00
  0.00000000E+00  0.00000000E+00  0.00000000E+00
  0.00000000E+00  0.00000000E+00  0.00000000E+00
  0.00000000E+00  0.00000000E+00  0.00000000E+00
  0.00000000E+00  0.00000000E+00  0.00000000E+00
  0.00000000E+00  0.00000000E+00  0.00000000E+00
  0.00000000E+00  0.00000000E+00  0.00000000E+00
  0.00000000E+00  0.00000000E+00  0.00000000E+00
  0.00000000E+00  0.00000000E+00  0.00000000E+00
  0.00000000E+00  0.00000000E+00  0.00000000E+00
  0.00000000E+00  0.00000000E+00  0.00000000E+00
  0.00000000E+00  0.00000000E+00  0.00000000E+00
  0.00000000E+00  0.00000000E+00  0.00000000E+00
  0.00000000E+00  0.00000000E+00  0.00000000E+00
  0.00000000E+00  0.00000000E+00  0.00000000E+00
  0.00000000E+00  0.00000000E+00  0.00000000E+00
  0.00000000E+00  0.00000000E+00  0.00000000E+00
