Sc   Al   N                             
   1.00000000000000     
    -9.8784741073833224   -0.0158371558443692   -0.0035077573267660
    -4.9475154656504161    8.5448833212798849   -0.0061101110662773
    -0.0523839548623951    0.0249210743852835  -10.1421792015236480
   Sc   Al   N 
    10    26    36
Direct
  0.0962979779318758  0.1029153340304347  0.3764863964783274
  0.4513979743552525  0.0972836169580447  0.3668327422862063
  0.1007312696562295  0.1012729187526418  0.8921750306144247
  0.2227249450516950  0.2128587676543034  0.6310026471385655
  0.4472155796347579  0.1047366568850236  0.8889358672104208
  0.8837459810715771  0.5408734647894207  0.6219010924999040
  0.1014921558096731  0.7521025448625380  0.3817208700785244
  0.4553841014798081  0.7463084827001722  0.3760764972883308
  0.2199012267963312  0.8692704754439262  0.6353838079103298
  0.4508015180985936  0.7510557814656451  0.8812758239859306
  0.2181681190240070  0.2123241030653134  0.1444402091696730
  0.7756367864933083  0.0999619024999632  0.8896333018542038
  0.8741057814410667  0.2099112200913069  0.6409226810651631
  0.5607011737293490  0.2116815964636913  0.1423452186081775
  0.7723101536839039  0.0991400706943466  0.3906703997115315
  0.8787278178488407  0.2091985954897666  0.1406535584634057
  0.5609457517471697  0.2080410046864856  0.6383709006400053
  0.1135143991424954  0.4319894766940706  0.3840363316309023
  0.2276618131180399  0.5319448083686567  0.1355580445666220
  0.7775542948692902  0.4271175324371512  0.8903190350574093
  0.4475392856764842  0.4235509212859512  0.3894449378194409
  0.5590604497336642  0.5294663820050829  0.1387883933504952
  0.1046275639344856  0.4374381865170136  0.8941324202150867
  0.2222597599394334  0.5409188759270975  0.6441094750887828
  0.7721781463540225  0.4208498202159916  0.3865524016089168
  0.8922140481451279  0.5301924369174102  0.1381790671034651
  0.4478777833744303  0.4261922214289910  0.8871116063835203
  0.5591576296156475  0.5283147526260308  0.6406987661217798
  0.2225743926049759  0.8683355250318101  0.1428949953483212
  0.7814376830020890  0.7628802573126805  0.8338086384096712
  0.8868347764161726  0.8826734520718773  0.6480641163514278
  0.5668269141255280  0.8647138021295788  0.0860530231183674
  0.1072343750187628  0.7581660051050036  0.8964410795116393
  0.7807804284115107  0.7589483909293548  0.3203828902449430
  0.8857037176373339  0.8795736713373472  0.1342656128143958
  0.5710656047285525  0.8702138435680808  0.5769937289564666
  0.2105407919747648  0.2249174198362951  0.3316956857204687
  0.1076850818157027  0.0960894304101032  0.1068945826202139
  0.8688340032152979  0.2171006101196085  0.8300236052298899
  0.7772117357988364  0.0945470764042327  0.5817346770685958
  0.5668497702284512  0.2178633041710825  0.3285909505127620
  0.4465624670681052  0.0960663667318897  0.1120028170132343
  0.2112307544606011  0.2272747991138431  0.8394214339133299
  0.0870607310555656  0.1080519030108604  0.5897576314607136
  0.8637885805550169  0.2149632763137390  0.3248353786639129
  0.7754531628421830  0.0974592052687342  0.0783701165827395
  0.5662603434013462  0.2162939631650502  0.8266582754533474
  0.4626063863184555  0.0912106879974104  0.5911567818045782
  0.2382476026663767  0.5162137957598389  0.3214846768982227
  0.1099888927375829  0.4291988896527883  0.0841642292586258
  0.8895906497626598  0.5365138502072497  0.8412646416953180
  0.7646837290003532  0.4165627700478538  0.5737898875386236
  0.5654208827766922  0.5141848446359347  0.3243722124070700
  0.4459523523282058  0.4261207030189880  0.0765886267195057
  0.2223148845763916  0.5393328190405668  0.8371823416707258
  0.1191021599839459  0.4440261737629996  0.5697639634081710
  0.8913588799508290  0.5315304316095606  0.3384296108546181
  0.7783900742527550  0.4263564288049650  0.0813157157579525
  0.5675029704891443  0.5172407088407169  0.8293178386848155
  0.4404893612735847  0.4313824992396036  0.5820310982740224
  0.2202672358308959  0.8670243340406572  0.3319332755433422
  0.1103417431989016  0.7580621981917801  0.0900306296600561
  0.8922646814089248  0.8789110484007594  0.8430869151140641
  0.7696124615113149  0.7821875897547912  0.6429746994794741
  0.5841229678130802  0.8560998825650969  0.3868998113904709
  0.4470838367539542  0.7557990743930887  0.1053360165274313
  0.2120018094855212  0.8644252393167804  0.8434410893873689
  0.0972687109963601  0.7543308623147738  0.5908482341014221
  0.8684759584969228  0.8912570119161956  0.3244624863445367
  0.7821607308945602  0.7552113218060299  0.1292373571951231
  0.5792096607530581  0.8638799674229105  0.8975931690692818
  0.4667820528897906  0.7488682349076328  0.6014304120836940
 
  0.00000000E+00  0.00000000E+00  0.00000000E+00
  0.00000000E+00  0.00000000E+00  0.00000000E+00
  0.00000000E+00  0.00000000E+00  0.00000000E+00
  0.00000000E+00  0.00000000E+00  0.00000000E+00
  0.00000000E+00  0.00000000E+00  0.00000000E+00
  0.00000000E+00  0.00000000E+00  0.00000000E+00
  0.00000000E+00  0.00000000E+00  0.00000000E+00
  0.00000000E+00  0.00000000E+00  0.00000000E+00
  0.00000000E+00  0.00000000E+00  0.00000000E+00
  0.00000000E+00  0.00000000E+00  0.00000000E+00
  0.00000000E+00  0.00000000E+00  0.00000000E+00
  0.00000000E+00  0.00000000E+00  0.00000000E+00
  0.00000000E+00  0.00000000E+00  0.00000000E+00
  0.00000000E+00  0.00000000E+00  0.00000000E+00
  0.00000000E+00  0.00000000E+00  0.00000000E+00
  0.00000000E+00  0.00000000E+00  0.00000000E+00
  0.00000000E+00  0.00000000E+00  0.00000000E+00
  0.00000000E+00  0.00000000E+00  0.00000000E+00
  0.00000000E+00  0.00000000E+00  0.00000000E+00
  0.00000000E+00  0.00000000E+00  0.00000000E+00
  0.00000000E+00  0.00000000E+00  0.00000000E+00
  0.00000000E+00  0.00000000E+00  0.00000000E+00
  0.00000000E+00  0.00000000E+00  0.00000000E+00
  0.00000000E+00  0.00000000E+00  0.00000000E+00
  0.00000000E+00  0.00000000E+00  0.00000000E+00
  0.00000000E+00  0.00000000E+00  0.00000000E+00
  0.00000000E+00  0.00000000E+00  0.00000000E+00
  0.00000000E+00  0.00000000E+00  0.00000000E+00
  0.00000000E+00  0.00000000E+00  0.00000000E+00
  0.00000000E+00  0.00000000E+00  0.00000000E+00
  0.00000000E+00  0.00000000E+00  0.00000000E+00
  0.00000000E+00  0.00000000E+00  0.00000000E+00
  0.00000000E+00  0.00000000E+00  0.00000000E+00
  0.00000000E+00  0.00000000E+00  0.00000000E+00
  0.00000000E+00  0.00000000E+00  0.00000000E+00
  0.00000000E+00  0.00000000E+00  0.00000000E+00
  0.00000000E+00  0.00000000E+00  0.00000000E+00
  0.00000000E+00  0.00000000E+00  0.00000000E+00
  0.00000000E+00  0.00000000E+00  0.00000000E+00
  0.00000000E+00  0.00000000E+00  0.00000000E+00
  0.00000000E+00  0.00000000E+00  0.00000000E+00
  0.00000000E+00  0.00000000E+00  0.00000000E+00
  0.00000000E+00  0.00000000E+00  0.00000000E+00
  0.00000000E+00  0.00000000E+00  0.00000000E+00
  0.00000000E+00  0.00000000E+00  0.00000000E+00
  0.00000000E+00  0.00000000E+00  0.00000000E+00
  0.00000000E+00  0.00000000E+00  0.00000000E+00
  0.00000000E+00  0.00000000E+00  0.00000000E+00
  0.00000000E+00  0.00000000E+00  0.00000000E+00
  0.00000000E+00  0.00000000E+00  0.00000000E+00
  0.00000000E+00  0.00000000E+00  0.00000000E+00
  0.00000000E+00  0.00000000E+00  0.00000000E+00
  0.00000000E+00  0.00000000E+00  0.00000000E+00
  0.00000000E+00  0.00000000E+00  0.00000000E+00
  0.00000000E+00  0.00000000E+00  0.00000000E+00
  0.00000000E+00  0.00000000E+00  0.00000000E+00
  0.00000000E+00  0.00000000E+00  0.00000000E+00
  0.00000000E+00  0.00000000E+00  0.00000000E+00
  0.00000000E+00  0.00000000E+00  0.00000000E+00
  0.00000000E+00  0.00000000E+00  0.00000000E+00
  0.00000000E+00  0.00000000E+00  0.00000000E+00
  0.00000000E+00  0.00000000E+00  0.00000000E+00
  0.00000000E+00  0.00000000E+00  0.00000000E+00
  0.00000000E+00  0.00000000E+00  0.00000000E+00
  0.00000000E+00  0.00000000E+00  0.00000000E+00
  0.00000000E+00  0.00000000E+00  0.00000000E+00
  0.00000000E+00  0.00000000E+00  0.00000000E+00
  0.00000000E+00  0.00000000E+00  0.00000000E+00
  0.00000000E+00  0.00000000E+00  0.00000000E+00
  0.00000000E+00  0.00000000E+00  0.00000000E+00
  0.00000000E+00  0.00000000E+00  0.00000000E+00
  0.00000000E+00  0.00000000E+00  0.00000000E+00
