Sc   Al   N                             
   1.00000000000000     
    -9.8610045998751996   -0.0179683521725131    0.0146457123797464
    -4.8965852633852105    8.4977036184740395    0.0143567762902447
    -0.0082816430737472    0.1297819225904060  -10.3242580438605991
   Sc   Al   N 
    10    26    36
Direct
  0.0989143697354677  0.1005507342368261  0.3150163940874222
  0.4489251127926508  0.0998841430752293  0.3264584092824450
  0.0993099383204594  0.1019367226928196  0.8392418075965722
  0.2181653321273842  0.2129048254426138  0.5758343218507065
  0.4529027376443864  0.0970078818074711  0.8269766917433259
  0.8834636213058786  0.5469389351197975  0.5748040041058786
  0.1042701956396144  0.7502980566693083  0.3646698902248104
  0.4509726224763000  0.7579012046473181  0.3314604990112002
  0.2206754841644667  0.8678978984369294  0.5911903888864742
  0.4571391447027082  0.7540061399029838  0.8444665525752200
  0.2217901670738414  0.2119577131857682  0.0662980702365914
  0.7779261421741239  0.0956236787442606  0.8217950695419702
  0.8769166329592792  0.2088040425840205  0.5716220405658703
  0.5636349524142474  0.2007551381048955  0.0688824586862467
  0.7700471820331316  0.1030041340108667  0.3230507742515982
  0.8794150045690330  0.2099201355523803  0.0684629558744874
  0.5648028531501623  0.2024893510547230  0.5717770712328019
  0.1052533658066039  0.4264523650532368  0.3084263330923775
  0.2322260444981410  0.5307714224172884  0.1348189445796422
  0.7808809898351541  0.4208076347394183  0.8221113470282546
  0.4450114434658587  0.4300145609598616  0.3904825546378703
  0.5568995480291150  0.5289040333552677  0.1332520068024152
  0.1052473325839500  0.4357409358878428  0.8284616920504675
  0.2236223737244742  0.5444795542613505  0.6461551256114930
  0.7822713142278417  0.4234176652860953  0.3168048691664183
  0.8875799390070966  0.5394207794962327  0.0685021803952139
  0.4443787790529754  0.4304958474768839  0.8916312115002825
  0.5554405986113267  0.5288563988570587  0.6423247996824344
  0.2254031192936097  0.8699438899383196  0.0687117961957071
  0.7856333739335568  0.7639008466200039  0.8255489549253667
  0.8751693211871441  0.8813704871751540  0.5708207584282334
  0.5643482757958864  0.8709192903347045  0.0718480697782979
  0.1093933638665732  0.7507814782266280  0.8965336954567817
  0.7788807982519330  0.7620313967411150  0.3174597120422575
  0.8815041234121992  0.8771490941054907  0.0762936666104252
  0.5670758207169655  0.8703577295818974  0.5740115593758404
  0.2093759267300754  0.2222303002807493  0.3717443413117678
  0.1095579755223142  0.0943138121518956  0.1025610751360659
  0.8652324198553387  0.2154898833985328  0.8876724322201710
  0.7770867189435293  0.0951187659060935  0.6344156991173193
  0.5675087843422162  0.2116175010454242  0.3870361947670204
  0.4462307927091729  0.0954415591275151  0.1143765617597978
  0.2166276928382445  0.2260382789135349  0.8832049163932112
  0.0864371188850015  0.1073378845153314  0.6318929130063324
  0.8687423696061884  0.2160822404184941  0.3846189187463622
  0.7774113699250975  0.0956221352156845  0.1344467680582824
  0.5711935218420408  0.2082649528646883  0.8840558713380773
  0.4611989635499754  0.0887179907497639  0.6172125776565309
  0.2421560275241461  0.5105368434420328  0.3192310214220484
  0.1060999118008041  0.4281586203944983  0.1199992748852807
  0.8860327326125983  0.5407993096792865  0.8785064066840889
  0.7754901528024476  0.4160679747711313  0.6334959169690748
  0.5624347896478881  0.5161949961194523  0.3212567252911001
  0.4437775696157686  0.4295116813257565  0.0776340592120235
  0.2266913245420454  0.5423257368463581  0.8381200949480814
  0.1114646510611408  0.4379070566423451  0.6443307161419440
  0.8903928617326997  0.5396598153735184  0.3644989113754349
  0.7849457281110688  0.4240128249960051  0.1260891739011427
  0.5624263089940413  0.5156111040095226  0.8311857177243951
  0.4367621302615206  0.4367960965050912  0.5812491210359667
  0.2211262035544266  0.8745740319075495  0.3835250172079299
  0.1114691701870996  0.7559236992363481  0.0967219183898536
  0.8872849875247226  0.8759479159257850  0.8873191213109806
  0.7715720913440052  0.7809640168872676  0.6421011013429450
  0.5783588409841087  0.8616889103435454  0.3886183108959500
  0.4475571187689340  0.7606236101416499  0.1100986813133673
  0.2173100640555035  0.8601136037165205  0.8795969377449993
  0.0959897197994337  0.7474510041848603  0.5797168085479001
  0.8595477631435458  0.8902432584508020  0.3803437355490544
  0.7802216282010406  0.7602961579998322  0.1311510746473559
  0.5830268466382620  0.8646204325845730  0.8918524806806687
  0.4679592650554127  0.7525915693612788  0.6259479055736534
 
  0.00000000E+00  0.00000000E+00  0.00000000E+00
  0.00000000E+00  0.00000000E+00  0.00000000E+00
  0.00000000E+00  0.00000000E+00  0.00000000E+00
  0.00000000E+00  0.00000000E+00  0.00000000E+00
  0.00000000E+00  0.00000000E+00  0.00000000E+00
  0.00000000E+00  0.00000000E+00  0.00000000E+00
  0.00000000E+00  0.00000000E+00  0.00000000E+00
  0.00000000E+00  0.00000000E+00  0.00000000E+00
  0.00000000E+00  0.00000000E+00  0.00000000E+00
  0.00000000E+00  0.00000000E+00  0.00000000E+00
  0.00000000E+00  0.00000000E+00  0.00000000E+00
  0.00000000E+00  0.00000000E+00  0.00000000E+00
  0.00000000E+00  0.00000000E+00  0.00000000E+00
  0.00000000E+00  0.00000000E+00  0.00000000E+00
  0.00000000E+00  0.00000000E+00  0.00000000E+00
  0.00000000E+00  0.00000000E+00  0.00000000E+00
  0.00000000E+00  0.00000000E+00  0.00000000E+00
  0.00000000E+00  0.00000000E+00  0.00000000E+00
  0.00000000E+00  0.00000000E+00  0.00000000E+00
  0.00000000E+00  0.00000000E+00  0.00000000E+00
  0.00000000E+00  0.00000000E+00  0.00000000E+00
  0.00000000E+00  0.00000000E+00  0.00000000E+00
  0.00000000E+00  0.00000000E+00  0.00000000E+00
  0.00000000E+00  0.00000000E+00  0.00000000E+00
  0.00000000E+00  0.00000000E+00  0.00000000E+00
  0.00000000E+00  0.00000000E+00  0.00000000E+00
  0.00000000E+00  0.00000000E+00  0.00000000E+00
  0.00000000E+00  0.00000000E+00  0.00000000E+00
  0.00000000E+00  0.00000000E+00  0.00000000E+00
  0.00000000E+00  0.00000000E+00  0.00000000E+00
  0.00000000E+00  0.00000000E+00  0.00000000E+00
  0.00000000E+00  0.00000000E+00  0.00000000E+00
  0.00000000E+00  0.00000000E+00  0.00000000E+00
  0.00000000E+00  0.00000000E+00  0.00000000E+00
  0.00000000E+00  0.00000000E+00  0.00000000E+00
  0.00000000E+00  0.00000000E+00  0.00000000E+00
  0.00000000E+00  0.00000000E+00  0.00000000E+00
  0.00000000E+00  0.00000000E+00  0.00000000E+00
  0.00000000E+00  0.00000000E+00  0.00000000E+00
  0.00000000E+00  0.00000000E+00  0.00000000E+00
  0.00000000E+00  0.00000000E+00  0.00000000E+00
  0.00000000E+00  0.00000000E+00  0.00000000E+00
  0.00000000E+00  0.00000000E+00  0.00000000E+00
  0.00000000E+00  0.00000000E+00  0.00000000E+00
  0.00000000E+00  0.00000000E+00  0.00000000E+00
  0.00000000E+00  0.00000000E+00  0.00000000E+00
  0.00000000E+00  0.00000000E+00  0.00000000E+00
  0.00000000E+00  0.00000000E+00  0.00000000E+00
  0.00000000E+00  0.00000000E+00  0.00000000E+00
  0.00000000E+00  0.00000000E+00  0.00000000E+00
  0.00000000E+00  0.00000000E+00  0.00000000E+00
  0.00000000E+00  0.00000000E+00  0.00000000E+00
  0.00000000E+00  0.00000000E+00  0.00000000E+00
  0.00000000E+00  0.00000000E+00  0.00000000E+00
  0.00000000E+00  0.00000000E+00  0.00000000E+00
  0.00000000E+00  0.00000000E+00  0.00000000E+00
  0.00000000E+00  0.00000000E+00  0.00000000E+00
  0.00000000E+00  0.00000000E+00  0.00000000E+00
  0.00000000E+00  0.00000000E+00  0.00000000E+00
  0.00000000E+00  0.00000000E+00  0.00000000E+00
  0.00000000E+00  0.00000000E+00  0.00000000E+00
  0.00000000E+00  0.00000000E+00  0.00000000E+00
  0.00000000E+00  0.00000000E+00  0.00000000E+00
  0.00000000E+00  0.00000000E+00  0.00000000E+00
  0.00000000E+00  0.00000000E+00  0.00000000E+00
  0.00000000E+00  0.00000000E+00  0.00000000E+00
  0.00000000E+00  0.00000000E+00  0.00000000E+00
  0.00000000E+00  0.00000000E+00  0.00000000E+00
  0.00000000E+00  0.00000000E+00  0.00000000E+00
  0.00000000E+00  0.00000000E+00  0.00000000E+00
  0.00000000E+00  0.00000000E+00  0.00000000E+00
  0.00000000E+00  0.00000000E+00  0.00000000E+00
