Sc   Al   N                             
   1.00000000000000     
    -9.8742380802485314   -0.0092235163175460    0.0060900704259938
    -4.9232902208940095    8.5185894758758902    0.0075450758637674
    -0.0089340936070570    0.1498415354134555  -10.2626051094145758
   Sc   Al   N 
    10    26    36
Direct
  0.1022961712746380  0.0979108188296962  0.3088229487087517
  0.4493524654308700  0.1000599275838923  0.3223089164010489
  0.0982706040835097  0.1033342772455796  0.8343549851429657
  0.2173837314035225  0.2137165464665713  0.5709103019211241
  0.4525782133433083  0.0974984806687118  0.8220106183616522
  0.8813202363165402  0.5469160310341010  0.5724701503368834
  0.1048250097713179  0.7562417107693591  0.3319779579891033
  0.4512877171689240  0.7581558076103505  0.3236141696596206
  0.2232292353742196  0.8699807192791269  0.5857415483443091
  0.4548585289429994  0.7548557776569496  0.8416527841012709
  0.2217623315236850  0.2110478531666686  0.0614722255304159
  0.7755092704837523  0.0979536790498301  0.8165553150177942
  0.8769863052036442  0.2072033795896928  0.5649867163453948
  0.5641917906551726  0.1995400506871974  0.0649448628299325
  0.7727378233425739  0.0977518076867554  0.3179171705153649
  0.8804172658903227  0.2062287677646211  0.0659952920535432
  0.5652553726346810  0.2029021024093751  0.5662725278780272
  0.1055802110761235  0.4265165803275437  0.3048907200725637
  0.2307833692530750  0.5322011606748518  0.1269438921263628
  0.7773494657107989  0.4255675011554416  0.8433811242275340
  0.4452227596378862  0.4298644102223221  0.3844536978514839
  0.5585059266174284  0.5276938068069938  0.1274709495964572
  0.1064107004102937  0.4361842123685804  0.8240968783790166
  0.2295066621536108  0.5373807842295975  0.6414356509257217
  0.7802853761712427  0.4231927879482527  0.3265211057894319
  0.8883870571299894  0.5410755467783872  0.0667162493473796
  0.4431420270240878  0.4310977413216506  0.8877761015988170
  0.5583164788241035  0.5284639503091384  0.6369271109569041
  0.2193802911294256  0.8649610885669219  0.0591856760541631
  0.7834195616490760  0.7652766299448075  0.8208617379149317
  0.8769899743701188  0.8811724619227519  0.5713171168228044
  0.5643982026758891  0.8707637569499553  0.0675837784071049
  0.1001538455352815  0.7623428379684043  0.8205887845606767
  0.7811754959168411  0.7609974123824870  0.3140075153850290
  0.8900802686923655  0.8720515090276848  0.0662349176364003
  0.5668947495147449  0.8706779943730538  0.5690234649242996
  0.2096747695049928  0.2213437478216065  0.3658788975108678
  0.1104045655695032  0.0920793211422790  0.0956992583966212
  0.8649827504310039  0.2137032776061716  0.8832274773576145
  0.7761237442217492  0.0961713976255183  0.6293150452854945
  0.5692747329015688  0.2109956514938105  0.3804311491095262
  0.4460114439143865  0.0949588685077671  0.1093750143575107
  0.2160227751284438  0.2261920461435665  0.8771891902900890
  0.0862041086095360  0.1084039256003848  0.6258317092087040
  0.8723427082178645  0.2095302348384678  0.3755903085840586
  0.7787968557223337  0.0911244559288917  0.1287010603870584
  0.5698281238019405  0.2092520910059363  0.8790525401459917
  0.4609990468209020  0.0896113516115520  0.6105969911101852
  0.2406075427231542  0.5113523214545097  0.3178853152445527
  0.1070805451360926  0.4277310984775013  0.1153763679401791
  0.8867637436744644  0.5427488381836838  0.8743319679892423
  0.7708658848817578  0.4179362841801790  0.6091858049813794
  0.5624683185649957  0.5166370045921553  0.3158946446018120
  0.4442259905769035  0.4287005394187489  0.0745395633932802
  0.2288922560303988  0.5386383629115414  0.8346671306805860
  0.1118036669846134  0.4389315385242796  0.6372507786394621
  0.8903356078279216  0.5386599633827345  0.3594923115281148
  0.7823514684858210  0.4253325717947476  0.1100339182345635
  0.5629358518118437  0.5153609919105477  0.8265797543348654
  0.4377538583626404  0.4372873987203008  0.5755397149238561
  0.2222909982878747  0.8713542859854044  0.3810485252743234
  0.1086852495923196  0.7615268541779443  0.1177091532459613
  0.8881511319459250  0.8758657503718368  0.8783667232548922
  0.7705109527368279  0.7817345129937650  0.6370756874071901
  0.5788442301201755  0.8612684840168754  0.3820919819649191
  0.4454401532001100  0.7601403194874123  0.1018527462571797
  0.2127887265522119  0.8597565811009673  0.8711590286249304
  0.0924534710440028  0.7587153275339418  0.6259076186627652
  0.8665687200427072  0.8842211467302263  0.3824222272062130
  0.7820178645962343  0.7610375417477115  0.1260577180649207
  0.5814565074935700  0.8649583649524430  0.8867053439947341
  0.4685359975173995  0.7535500547467038  0.6230397015369178
 
  0.00000000E+00  0.00000000E+00  0.00000000E+00
  0.00000000E+00  0.00000000E+00  0.00000000E+00
  0.00000000E+00  0.00000000E+00  0.00000000E+00
  0.00000000E+00  0.00000000E+00  0.00000000E+00
  0.00000000E+00  0.00000000E+00  0.00000000E+00
  0.00000000E+00  0.00000000E+00  0.00000000E+00
  0.00000000E+00  0.00000000E+00  0.00000000E+00
  0.00000000E+00  0.00000000E+00  0.00000000E+00
  0.00000000E+00  0.00000000E+00  0.00000000E+00
  0.00000000E+00  0.00000000E+00  0.00000000E+00
  0.00000000E+00  0.00000000E+00  0.00000000E+00
  0.00000000E+00  0.00000000E+00  0.00000000E+00
  0.00000000E+00  0.00000000E+00  0.00000000E+00
  0.00000000E+00  0.00000000E+00  0.00000000E+00
  0.00000000E+00  0.00000000E+00  0.00000000E+00
  0.00000000E+00  0.00000000E+00  0.00000000E+00
  0.00000000E+00  0.00000000E+00  0.00000000E+00
  0.00000000E+00  0.00000000E+00  0.00000000E+00
  0.00000000E+00  0.00000000E+00  0.00000000E+00
  0.00000000E+00  0.00000000E+00  0.00000000E+00
  0.00000000E+00  0.00000000E+00  0.00000000E+00
  0.00000000E+00  0.00000000E+00  0.00000000E+00
  0.00000000E+00  0.00000000E+00  0.00000000E+00
  0.00000000E+00  0.00000000E+00  0.00000000E+00
  0.00000000E+00  0.00000000E+00  0.00000000E+00
  0.00000000E+00  0.00000000E+00  0.00000000E+00
  0.00000000E+00  0.00000000E+00  0.00000000E+00
  0.00000000E+00  0.00000000E+00  0.00000000E+00
  0.00000000E+00  0.00000000E+00  0.00000000E+00
  0.00000000E+00  0.00000000E+00  0.00000000E+00
  0.00000000E+00  0.00000000E+00  0.00000000E+00
  0.00000000E+00  0.00000000E+00  0.00000000E+00
  0.00000000E+00  0.00000000E+00  0.00000000E+00
  0.00000000E+00  0.00000000E+00  0.00000000E+00
  0.00000000E+00  0.00000000E+00  0.00000000E+00
  0.00000000E+00  0.00000000E+00  0.00000000E+00
  0.00000000E+00  0.00000000E+00  0.00000000E+00
  0.00000000E+00  0.00000000E+00  0.00000000E+00
  0.00000000E+00  0.00000000E+00  0.00000000E+00
  0.00000000E+00  0.00000000E+00  0.00000000E+00
  0.00000000E+00  0.00000000E+00  0.00000000E+00
  0.00000000E+00  0.00000000E+00  0.00000000E+00
  0.00000000E+00  0.00000000E+00  0.00000000E+00
  0.00000000E+00  0.00000000E+00  0.00000000E+00
  0.00000000E+00  0.00000000E+00  0.00000000E+00
  0.00000000E+00  0.00000000E+00  0.00000000E+00
  0.00000000E+00  0.00000000E+00  0.00000000E+00
  0.00000000E+00  0.00000000E+00  0.00000000E+00
  0.00000000E+00  0.00000000E+00  0.00000000E+00
  0.00000000E+00  0.00000000E+00  0.00000000E+00
  0.00000000E+00  0.00000000E+00  0.00000000E+00
  0.00000000E+00  0.00000000E+00  0.00000000E+00
  0.00000000E+00  0.00000000E+00  0.00000000E+00
  0.00000000E+00  0.00000000E+00  0.00000000E+00
  0.00000000E+00  0.00000000E+00  0.00000000E+00
  0.00000000E+00  0.00000000E+00  0.00000000E+00
  0.00000000E+00  0.00000000E+00  0.00000000E+00
  0.00000000E+00  0.00000000E+00  0.00000000E+00
  0.00000000E+00  0.00000000E+00  0.00000000E+00
  0.00000000E+00  0.00000000E+00  0.00000000E+00
  0.00000000E+00  0.00000000E+00  0.00000000E+00
  0.00000000E+00  0.00000000E+00  0.00000000E+00
  0.00000000E+00  0.00000000E+00  0.00000000E+00
  0.00000000E+00  0.00000000E+00  0.00000000E+00
  0.00000000E+00  0.00000000E+00  0.00000000E+00
  0.00000000E+00  0.00000000E+00  0.00000000E+00
  0.00000000E+00  0.00000000E+00  0.00000000E+00
  0.00000000E+00  0.00000000E+00  0.00000000E+00
  0.00000000E+00  0.00000000E+00  0.00000000E+00
  0.00000000E+00  0.00000000E+00  0.00000000E+00
  0.00000000E+00  0.00000000E+00  0.00000000E+00
  0.00000000E+00  0.00000000E+00  0.00000000E+00
