Sc   Al   N                             
   1.00000000000000     
    -9.8660578547010882    0.0033307249007253   -0.0034063729302365
    -4.9272150835416779    8.5043916876834746   -0.0033285170537806
    -0.0306746816378433    0.1496629092974684  -10.3485560023772738
   Sc   Al   N 
    10    26    36
Direct
  0.1025068566524112  0.0992201525452217  0.3037611585351314
  0.4504174892341979  0.1004063312350780  0.3162403253195123
  0.0974954576871809  0.1048163377907443  0.8297213345280099
  0.2198591816460507  0.2117336766538358  0.5656020057520905
  0.4527295013103441  0.0970188066587241  0.8184369060534493
  0.8817226461860770  0.5452480323572573  0.5925539086875915
  0.1047148780273375  0.7577751521418037  0.3266416761460107
  0.4512854885506954  0.7586940476335329  0.3170778467411921
  0.2237842969492050  0.8706819742628227  0.5806423591866476
  0.4562521353091071  0.7529226395275543  0.8355204146536082
  0.2206408451086759  0.2118793377798411  0.0570642798401622
  0.7758054739465479  0.0978011512551618  0.8130784917760181
  0.8788922513260289  0.2011702903231267  0.5596330714642477
  0.5634585078457448  0.1995986646611030  0.0598021196017129
  0.7729328375239746  0.0975333211059848  0.3134863179442817
  0.8820783855850536  0.2009735795236338  0.0612344112537855
  0.5647287880142287  0.2033022000402696  0.5623554659327752
  0.1079464940812187  0.4257226779294072  0.3064194065269845
  0.2311659225260811  0.5320867015486357  0.1244670281240445
  0.7740179759822254  0.4315477875694214  0.8821178518426436
  0.4460943090125298  0.4302414341214984  0.3809657282959833
  0.5603392337225017  0.5259937005776578  0.1257525069022876
  0.1076892937069545  0.4353335893640136  0.8170574778317317
  0.2319664476591186  0.5382997006665704  0.6374382342998928
  0.7699812696690174  0.4270224299229923  0.3770844713575769
  0.8854229980523769  0.5409440575049800  0.0995185636785934
  0.4450217337362758  0.4310228915916809  0.8827647247836481
  0.5612226335815151  0.5263675574127831  0.6327965607230297
  0.2196116938880550  0.8648276860804529  0.0547198962256914
  0.7834152603875779  0.7646455315593172  0.8158974544064392
  0.8777483997560722  0.8819534183425688  0.5673118207188992
  0.5630413014750033  0.8708188575185360  0.0632796031261051
  0.1007199135839869  0.7625210870148109  0.8169323928535661
  0.7798942560001763  0.7624055758998409  0.3158527201677330
  0.8896763497188331  0.8710606825925566  0.0620122133206849
  0.5659764356726456  0.8720381550393483  0.5649298495165311
  0.2123415617678290  0.2195463243923399  0.3632085962750082
  0.1096984384158688  0.0928079227790235  0.0925878486485701
  0.8659326746887288  0.2108413905132025  0.8791652530666880
  0.7753180148495957  0.0970366579818318  0.6269865428574448
  0.5695712575033838  0.2106464043554936  0.3778799381583937
  0.4450484803284738  0.0954902917844578  0.1053028669428215
  0.2159632660368160  0.2269336079719864  0.8749289569363157
  0.0848400903420341  0.1105313544184838  0.6230870412630836
  0.8754154654426003  0.2036007368876795  0.3703425895572678
  0.7775893263975888  0.0907085389552051  0.1253235465002334
  0.5698447817388299  0.2084009170437753  0.8759847279764514
  0.4615038076880040  0.0900208137840579  0.6092194570797815
  0.2419104017337759  0.5119178699254050  0.3137337487817788
  0.1069004904997968  0.4271279758066555  0.1157679639045952
  0.8860058259528927  0.5400531360829035  0.8417678103740087
  0.7603904036763609  0.4222773617780220  0.5630118024316673
  0.5658777503189469  0.5145789679512163  0.3095789138732883
  0.4441714091115543  0.4298117824970049  0.0691349522425142
  0.2305628436041687  0.5380045966214340  0.8289157465666861
  0.1189512053962716  0.4363954829988757  0.6294297972848071
  0.8886755171999070  0.5376683953176880  0.3489215834676358
  0.7747805902401623  0.4316610075282483  0.0730103227186163
  0.5698914001832662  0.5103917177236426  0.8178488693764550
  0.4385458623837621  0.4384665455207539  0.5704331305715797
  0.2228144226578763  0.8716301473062202  0.3775155814686286
  0.1081458041831382  0.7617808384430020  0.1142340517204303
  0.8880751062106000  0.8744192163973565  0.8754920434160738
  0.7689081885865718  0.7861590390573241  0.6320547998846564
  0.5761466123876744  0.8627474805398023  0.3800782472656294
  0.4448493565949718  0.7601928708531531  0.0994091351963036
  0.2134277675972527  0.8597315381403803  0.8687225982567313
  0.0927799729696162  0.7605493392593488  0.6238457213914401
  0.8669818210611737  0.8842779585285427  0.3800925835404598
  0.7790377373141837  0.7642335827972744  0.1268288719722435
  0.5817990800625452  0.8634433265058874  0.8842210056062640
  0.4689692138205785  0.7539206569945165  0.6211174890983742
 
  0.00000000E+00  0.00000000E+00  0.00000000E+00
  0.00000000E+00  0.00000000E+00  0.00000000E+00
  0.00000000E+00  0.00000000E+00  0.00000000E+00
  0.00000000E+00  0.00000000E+00  0.00000000E+00
  0.00000000E+00  0.00000000E+00  0.00000000E+00
  0.00000000E+00  0.00000000E+00  0.00000000E+00
  0.00000000E+00  0.00000000E+00  0.00000000E+00
  0.00000000E+00  0.00000000E+00  0.00000000E+00
  0.00000000E+00  0.00000000E+00  0.00000000E+00
  0.00000000E+00  0.00000000E+00  0.00000000E+00
  0.00000000E+00  0.00000000E+00  0.00000000E+00
  0.00000000E+00  0.00000000E+00  0.00000000E+00
  0.00000000E+00  0.00000000E+00  0.00000000E+00
  0.00000000E+00  0.00000000E+00  0.00000000E+00
  0.00000000E+00  0.00000000E+00  0.00000000E+00
  0.00000000E+00  0.00000000E+00  0.00000000E+00
  0.00000000E+00  0.00000000E+00  0.00000000E+00
  0.00000000E+00  0.00000000E+00  0.00000000E+00
  0.00000000E+00  0.00000000E+00  0.00000000E+00
  0.00000000E+00  0.00000000E+00  0.00000000E+00
  0.00000000E+00  0.00000000E+00  0.00000000E+00
  0.00000000E+00  0.00000000E+00  0.00000000E+00
  0.00000000E+00  0.00000000E+00  0.00000000E+00
  0.00000000E+00  0.00000000E+00  0.00000000E+00
  0.00000000E+00  0.00000000E+00  0.00000000E+00
  0.00000000E+00  0.00000000E+00  0.00000000E+00
  0.00000000E+00  0.00000000E+00  0.00000000E+00
  0.00000000E+00  0.00000000E+00  0.00000000E+00
  0.00000000E+00  0.00000000E+00  0.00000000E+00
  0.00000000E+00  0.00000000E+00  0.00000000E+00
  0.00000000E+00  0.00000000E+00  0.00000000E+00
  0.00000000E+00  0.00000000E+00  0.00000000E+00
  0.00000000E+00  0.00000000E+00  0.00000000E+00
  0.00000000E+00  0.00000000E+00  0.00000000E+00
  0.00000000E+00  0.00000000E+00  0.00000000E+00
  0.00000000E+00  0.00000000E+00  0.00000000E+00
  0.00000000E+00  0.00000000E+00  0.00000000E+00
  0.00000000E+00  0.00000000E+00  0.00000000E+00
  0.00000000E+00  0.00000000E+00  0.00000000E+00
  0.00000000E+00  0.00000000E+00  0.00000000E+00
  0.00000000E+00  0.00000000E+00  0.00000000E+00
  0.00000000E+00  0.00000000E+00  0.00000000E+00
  0.00000000E+00  0.00000000E+00  0.00000000E+00
  0.00000000E+00  0.00000000E+00  0.00000000E+00
  0.00000000E+00  0.00000000E+00  0.00000000E+00
  0.00000000E+00  0.00000000E+00  0.00000000E+00
  0.00000000E+00  0.00000000E+00  0.00000000E+00
  0.00000000E+00  0.00000000E+00  0.00000000E+00
  0.00000000E+00  0.00000000E+00  0.00000000E+00
  0.00000000E+00  0.00000000E+00  0.00000000E+00
  0.00000000E+00  0.00000000E+00  0.00000000E+00
  0.00000000E+00  0.00000000E+00  0.00000000E+00
  0.00000000E+00  0.00000000E+00  0.00000000E+00
  0.00000000E+00  0.00000000E+00  0.00000000E+00
  0.00000000E+00  0.00000000E+00  0.00000000E+00
  0.00000000E+00  0.00000000E+00  0.00000000E+00
  0.00000000E+00  0.00000000E+00  0.00000000E+00
  0.00000000E+00  0.00000000E+00  0.00000000E+00
  0.00000000E+00  0.00000000E+00  0.00000000E+00
  0.00000000E+00  0.00000000E+00  0.00000000E+00
  0.00000000E+00  0.00000000E+00  0.00000000E+00
  0.00000000E+00  0.00000000E+00  0.00000000E+00
  0.00000000E+00  0.00000000E+00  0.00000000E+00
  0.00000000E+00  0.00000000E+00  0.00000000E+00
  0.00000000E+00  0.00000000E+00  0.00000000E+00
  0.00000000E+00  0.00000000E+00  0.00000000E+00
  0.00000000E+00  0.00000000E+00  0.00000000E+00
  0.00000000E+00  0.00000000E+00  0.00000000E+00
  0.00000000E+00  0.00000000E+00  0.00000000E+00
  0.00000000E+00  0.00000000E+00  0.00000000E+00
  0.00000000E+00  0.00000000E+00  0.00000000E+00
  0.00000000E+00  0.00000000E+00  0.00000000E+00
