supercell of 100% icsd_608626.cif, 0% i 
   1.00000000000000     
    -9.6248860904739715    0.0079247063072573   -0.0029563513734738
    -4.8193060580167639    8.3314347322741362   -0.0029548533532212
    -0.0031353689148718    0.0018083594940113  -10.2297499470800251
   Al   Zr   Sr   N 
    32     2     2    36
Direct
  0.1095428527936519  0.1038557865851075  0.2965050620725833
  0.2182903812240653  0.2053150165726265  0.0484733355759062
  0.8939817603535118  0.2106493265133125  0.5466207854012453
  0.4386000767985081  0.1017210901305035  0.2978912527061013
  0.5516969593670353  0.2069309216877429  0.0393260221097123
  0.1187706729339766  0.0959410214903187  0.7944520856130453
  0.2233320366884826  0.2035093092490285  0.5434106914266721
  0.8953627469642740  0.2120289749708490  0.0381175028524581
  0.4352984931549457  0.0960325691719248  0.7953673151037677
  0.5491346873936109  0.2065856729744411  0.5467430306880914
  0.1073708021893296  0.4240365512255622  0.3016499730112443
  0.7792737090236415  0.4354380903543458  0.7944519674518489
  0.8868424821725753  0.5399988736936336  0.5434105888015992
  0.4468888109927605  0.4195150567074393  0.3037507625913136
  0.5656164672384136  0.5272124796707800  0.0444094053782536
  0.1101864681480720  0.4268529658917330  0.7864428970717725
  0.2221345808289783  0.5388023244006845  0.5458276737859293
  0.7871890734227023  0.4262098804418599  0.2965049537980562
  0.8886495182244474  0.5349556599445933  0.0484731963228455
  0.4374663162601351  0.4332707378259926  0.7838024686617615
  0.5610864425862729  0.5332833315774863  0.5508153734871613
  0.1028480588434988  0.7635548009734094  0.3037506213622763
  0.2105455104313805  0.8822828904058824  0.0444096235680647
  0.7793658927341980  0.7519649681947840  0.7953673361053220
  0.8899185002413361  0.8658017101520912  0.5467430650532208
  0.5566613018814124  0.8733272644767567  0.0423044643996917
  0.1166037050179938  0.7541331820944066  0.7838026032122016
  0.2166157304416600  0.8777541483250104  0.5508151940800943
  0.7850544919182383  0.7552661339064315  0.2978911532385311
  0.8902649062616348  0.8683619949104724  0.0393257751450662
  0.4435011651370999  0.7601691267325776  0.7965613689184963
  0.5580366866323061  0.8747033348073927  0.5521594224981712
  0.7782395947741207  0.0949060891449633  0.8117991729903977
  0.4433168085044557  0.7599842755827737  0.3020738171386697
  0.7793625263125250  0.0960287018382360  0.2810028690514415
  0.2246046182714210  0.5412698468461343  0.0500304733801329
  0.2254016456781684  0.2005461524915404  0.3570030807362272
  0.1112418839431371  0.0954775562940071  0.1052728787574466
  0.9031200281553495  0.2197874116030576  0.8517702244805676
  0.7785834678233883  0.0952505268646320  0.5957126941149866
  0.5197261219633376  0.2185504885845120  0.3700881002347458
  0.4453032780418482  0.0933293606339589  0.1050521110633724
  0.2209583235855561  0.2078136308661982  0.8572317352189600
  0.1142682506812349  0.0948006075336849  0.6092738004104277
  0.9092482343334467  0.2259152720226538  0.3673089909041494
  0.7788162184210421  0.0954812322621521  0.0387822422645314
  0.5271705795404671  0.2204948519878300  0.8518846899814108
  0.4421882462921758  0.0930130674638789  0.6098629581840740
  0.2232009135788076  0.5398672990032338  0.3501650024567837
  0.0915634474509091  0.4082288763426973  0.1198506270790816
  0.8911472209716322  0.5376248028485264  0.8572316761695049
  0.7781330509571234  0.4309357999421692  0.6092737009496503
  0.5683663530313652  0.5205327462183647  0.3632235221368347
  0.4931535246162753  0.3992995918785525  0.1230663100498717
  0.2206328129895780  0.5372996737091853  0.8170130182607735
  0.1086503656278950  0.4253173205944236  0.5966105065917162
  0.8838802583125869  0.5420678421019645  0.3570030023006510
  0.7788113053243535  0.4279081724006133  0.1052727442256369
  0.5554272040147197  0.5358696823400280  0.8530147863370559
  0.4475744756623570  0.4279963450056599  0.5999208079555842
  0.2038649738834692  0.8850332430216881  0.3632234363475604
  0.0826334219414946  0.8098188716325723  0.1230662036192669
  0.9038279635748907  0.8438370433209030  0.8518844811095221
  0.7763463458004480  0.7588549379968583  0.6098630366086581
  0.5638153667196946  0.8804819397423245  0.3604486097026864
  0.4424004869727369  0.7590673710714668  0.0930311535725252
  0.2192018132371061  0.8720947314480441  0.8530150113780692
  0.1113289327844953  0.7642421576256595  0.5999209779504326
  0.9018834986178987  0.8363925077959635  0.3700881614785700
  0.7766633858187362  0.7619685211117257  0.1050520553829770
  0.5554815840432354  0.8721483798829155  0.8536997845987315
  0.4443301794463395  0.7609978748851134  0.6013345733337871
 
  0.00000000E+00  0.00000000E+00  0.00000000E+00
  0.00000000E+00  0.00000000E+00  0.00000000E+00
  0.00000000E+00  0.00000000E+00  0.00000000E+00
  0.00000000E+00  0.00000000E+00  0.00000000E+00
  0.00000000E+00  0.00000000E+00  0.00000000E+00
  0.00000000E+00  0.00000000E+00  0.00000000E+00
  0.00000000E+00  0.00000000E+00  0.00000000E+00
  0.00000000E+00  0.00000000E+00  0.00000000E+00
  0.00000000E+00  0.00000000E+00  0.00000000E+00
  0.00000000E+00  0.00000000E+00  0.00000000E+00
  0.00000000E+00  0.00000000E+00  0.00000000E+00
  0.00000000E+00  0.00000000E+00  0.00000000E+00
  0.00000000E+00  0.00000000E+00  0.00000000E+00
  0.00000000E+00  0.00000000E+00  0.00000000E+00
  0.00000000E+00  0.00000000E+00  0.00000000E+00
  0.00000000E+00  0.00000000E+00  0.00000000E+00
  0.00000000E+00  0.00000000E+00  0.00000000E+00
  0.00000000E+00  0.00000000E+00  0.00000000E+00
  0.00000000E+00  0.00000000E+00  0.00000000E+00
  0.00000000E+00  0.00000000E+00  0.00000000E+00
  0.00000000E+00  0.00000000E+00  0.00000000E+00
  0.00000000E+00  0.00000000E+00  0.00000000E+00
  0.00000000E+00  0.00000000E+00  0.00000000E+00
  0.00000000E+00  0.00000000E+00  0.00000000E+00
  0.00000000E+00  0.00000000E+00  0.00000000E+00
  0.00000000E+00  0.00000000E+00  0.00000000E+00
  0.00000000E+00  0.00000000E+00  0.00000000E+00
  0.00000000E+00  0.00000000E+00  0.00000000E+00
  0.00000000E+00  0.00000000E+00  0.00000000E+00
  0.00000000E+00  0.00000000E+00  0.00000000E+00
  0.00000000E+00  0.00000000E+00  0.00000000E+00
  0.00000000E+00  0.00000000E+00  0.00000000E+00
  0.00000000E+00  0.00000000E+00  0.00000000E+00
  0.00000000E+00  0.00000000E+00  0.00000000E+00
  0.00000000E+00  0.00000000E+00  0.00000000E+00
  0.00000000E+00  0.00000000E+00  0.00000000E+00
  0.00000000E+00  0.00000000E+00  0.00000000E+00
  0.00000000E+00  0.00000000E+00  0.00000000E+00
  0.00000000E+00  0.00000000E+00  0.00000000E+00
  0.00000000E+00  0.00000000E+00  0.00000000E+00
  0.00000000E+00  0.00000000E+00  0.00000000E+00
  0.00000000E+00  0.00000000E+00  0.00000000E+00
  0.00000000E+00  0.00000000E+00  0.00000000E+00
  0.00000000E+00  0.00000000E+00  0.00000000E+00
  0.00000000E+00  0.00000000E+00  0.00000000E+00
  0.00000000E+00  0.00000000E+00  0.00000000E+00
  0.00000000E+00  0.00000000E+00  0.00000000E+00
  0.00000000E+00  0.00000000E+00  0.00000000E+00
  0.00000000E+00  0.00000000E+00  0.00000000E+00
  0.00000000E+00  0.00000000E+00  0.00000000E+00
  0.00000000E+00  0.00000000E+00  0.00000000E+00
  0.00000000E+00  0.00000000E+00  0.00000000E+00
  0.00000000E+00  0.00000000E+00  0.00000000E+00
  0.00000000E+00  0.00000000E+00  0.00000000E+00
  0.00000000E+00  0.00000000E+00  0.00000000E+00
  0.00000000E+00  0.00000000E+00  0.00000000E+00
  0.00000000E+00  0.00000000E+00  0.00000000E+00
  0.00000000E+00  0.00000000E+00  0.00000000E+00
  0.00000000E+00  0.00000000E+00  0.00000000E+00
  0.00000000E+00  0.00000000E+00  0.00000000E+00
  0.00000000E+00  0.00000000E+00  0.00000000E+00
  0.00000000E+00  0.00000000E+00  0.00000000E+00
  0.00000000E+00  0.00000000E+00  0.00000000E+00
  0.00000000E+00  0.00000000E+00  0.00000000E+00
  0.00000000E+00  0.00000000E+00  0.00000000E+00
  0.00000000E+00  0.00000000E+00  0.00000000E+00
  0.00000000E+00  0.00000000E+00  0.00000000E+00
  0.00000000E+00  0.00000000E+00  0.00000000E+00
  0.00000000E+00  0.00000000E+00  0.00000000E+00
  0.00000000E+00  0.00000000E+00  0.00000000E+00
  0.00000000E+00  0.00000000E+00  0.00000000E+00
  0.00000000E+00  0.00000000E+00  0.00000000E+00
