supercell of 100% icsd_608626.cif, 0% i 
   1.00000000000000     
    -9.5938745783239874   -0.0000016681777635    0.0000008408371896
    -4.7969358385816552    8.3629557145240110    0.0000907300774742
     0.0000008922710194   -0.0002475409704499  -10.1960462513843453
   Sr   Al   Zr   N 
     2    32     2    36
Direct
  0.1096339595025739  0.0920228122643607  0.2837807747219401
  0.7816753728845640  0.0920232349338050  0.2837810142343429
  0.2223438306183070  0.2118095629422072  0.0350255173303822
  0.7713042436166901  0.0883476140335659  0.8133297443521244
  0.4372484983543785  0.1088359176215192  0.2948847906400971
  0.5491802961018095  0.2118094212530863  0.0350254874915521
  0.1236816321214889  0.0883472433971093  0.8133298857150635
  0.2223962791383727  0.2130167050698759  0.5479491665794569
  0.8855377523135886  0.2122581147011644  0.0165485252686466
  0.4407479317686835  0.1018371223295915  0.7973912829438845
  0.5479198236382672  0.2130169344312804  0.5479493121252403
  0.1138060164282422  0.4293174359997138  0.2988652685183482
  0.2220426969870104  0.5392478349612801  0.0478673301974766
  0.7689368881305256  0.4454593936971492  0.7993657443727002
  0.8923878975620241  0.5390095694050032  0.5421932220173247
  0.4402092651395009  0.4293177613977690  0.2988652612468599
  0.5544178894658884  0.5381792276117778  0.0492113372052501
  0.1101744003198988  0.4316105413439217  0.7953078347095897
  0.2230052589424716  0.5373225124096308  0.5436792844448135
  0.7730059945238423  0.4373211309943557  0.2976232839888553
  0.8907360921377716  0.5381794462966596  0.0492113148714353
  0.4415479014241726  0.4316105611695917  0.7953079400811944
  0.5519356252563412  0.5390095155413093  0.5421931977400618
  0.1184594468826532  0.7464143717730636  0.3018790462369765
  0.2223738301890634  0.8672870609612957  0.0349072711269116
  0.7832517435228183  0.7553502091861191  0.8007333037495030
  0.8980579456300859  0.8587040307794354  0.5506612305401219
  0.4434294823353326  0.7546661169755993  0.2925633855208147
  0.5541769199355144  0.8749799851583475  0.0467058490879353
  0.1146333531482568  0.7540673357851162  0.7941889616059186
  0.2265717960830997  0.8587038638399633  0.5506610954052604
  0.7852379937393579  0.7546661005095601  0.2925634081519419
  0.8936731083536245  0.8672871590714379  0.0349072249757825
  0.4447322466886590  0.7553499321436092  0.8007333073120506
  0.8878166367334970  0.2076999906907915  0.5817596818404311
  0.5545939499896733  0.8741458508069258  0.5511167289772914
  0.2331473764408614  0.2235149991994945  0.3661836062615862
  0.1092735674426706  0.0959036858584170  0.0451587807800493
  0.8841898301242708  0.2149537219110016  0.8255017377150864
  0.7649458701800782  0.0762377614662597  0.6134567818899157
  0.5266699458205650  0.2235155206548143  0.3661838551607559
  0.4426286652020792  0.0980762673645899  0.1018585113551396
  0.2244256465525609  0.2140054758695769  0.8494744800913736
  0.1421495468669320  0.0762375107100581  0.6134567933480426
  0.8665564861997836  0.2502199654882560  0.3890678966419259
  0.7781563584742557  0.0959037163574123  0.0451589735516293
  0.5449019933904751  0.2140054379983667  0.8494745233095600
  0.4356719408273904  0.1119890578239833  0.6125694561762245
  0.2245540547855640  0.5342246545626494  0.3553417635516709
  0.1116345838322914  0.4272411281061181  0.1063510556129188
  0.8907407331399639  0.5389320386807697  0.8612763959069270
  0.7605009378929211  0.4623311818109386  0.6153612090692917
  0.5552035929749124  0.5402998052257715  0.3518126212405832
  0.4444575457502324  0.4272410070983028  0.1063510419094342
  0.2225516547827127  0.5382296434324090  0.8577001701593474
  0.1078631056773176  0.4311660514279225  0.6067271542251405
  0.8878297716525836  0.5402998244686827  0.3518126377055708
  0.7797124955868071  0.4239084007039295  0.1025991261898511
  0.5536605669310148  0.5389317816025923  0.8612764119931953
  0.4443036855493077  0.4311662147281439  0.6067272788440548
  0.2423177810095396  0.8312098317105168  0.3688592851293251
  0.1102470751755575  0.7628396379185958  0.1064652945504818
  0.8959088739999856  0.8610498675299709  0.8498048352598673
  0.7939040757531401  0.7485525624894223  0.6135157847418711
  0.5543572258531881  0.8746191877684950  0.3418003062706134
  0.4419361088826577  0.7631628736202742  0.1021561403023767
  0.2263756621117068  0.8610494952632379  0.8498049116309048
  0.1147062568900594  0.7539211428826746  0.6095041999255528
  0.9098057509209525  0.8312101661852225  0.3688593815812951
  0.7782347714739046  0.7631630421276583  0.1021561477809740
  0.5547153560130553  0.8739031962476673  0.8506086818634344
  0.4408771062307082  0.7485525222188727  0.6135157529463839
 
  0.00000000E+00  0.00000000E+00  0.00000000E+00
  0.00000000E+00  0.00000000E+00  0.00000000E+00
  0.00000000E+00  0.00000000E+00  0.00000000E+00
  0.00000000E+00  0.00000000E+00  0.00000000E+00
  0.00000000E+00  0.00000000E+00  0.00000000E+00
  0.00000000E+00  0.00000000E+00  0.00000000E+00
  0.00000000E+00  0.00000000E+00  0.00000000E+00
  0.00000000E+00  0.00000000E+00  0.00000000E+00
  0.00000000E+00  0.00000000E+00  0.00000000E+00
  0.00000000E+00  0.00000000E+00  0.00000000E+00
  0.00000000E+00  0.00000000E+00  0.00000000E+00
  0.00000000E+00  0.00000000E+00  0.00000000E+00
  0.00000000E+00  0.00000000E+00  0.00000000E+00
  0.00000000E+00  0.00000000E+00  0.00000000E+00
  0.00000000E+00  0.00000000E+00  0.00000000E+00
  0.00000000E+00  0.00000000E+00  0.00000000E+00
  0.00000000E+00  0.00000000E+00  0.00000000E+00
  0.00000000E+00  0.00000000E+00  0.00000000E+00
  0.00000000E+00  0.00000000E+00  0.00000000E+00
  0.00000000E+00  0.00000000E+00  0.00000000E+00
  0.00000000E+00  0.00000000E+00  0.00000000E+00
  0.00000000E+00  0.00000000E+00  0.00000000E+00
  0.00000000E+00  0.00000000E+00  0.00000000E+00
  0.00000000E+00  0.00000000E+00  0.00000000E+00
  0.00000000E+00  0.00000000E+00  0.00000000E+00
  0.00000000E+00  0.00000000E+00  0.00000000E+00
  0.00000000E+00  0.00000000E+00  0.00000000E+00
  0.00000000E+00  0.00000000E+00  0.00000000E+00
  0.00000000E+00  0.00000000E+00  0.00000000E+00
  0.00000000E+00  0.00000000E+00  0.00000000E+00
  0.00000000E+00  0.00000000E+00  0.00000000E+00
  0.00000000E+00  0.00000000E+00  0.00000000E+00
  0.00000000E+00  0.00000000E+00  0.00000000E+00
  0.00000000E+00  0.00000000E+00  0.00000000E+00
  0.00000000E+00  0.00000000E+00  0.00000000E+00
  0.00000000E+00  0.00000000E+00  0.00000000E+00
  0.00000000E+00  0.00000000E+00  0.00000000E+00
  0.00000000E+00  0.00000000E+00  0.00000000E+00
  0.00000000E+00  0.00000000E+00  0.00000000E+00
  0.00000000E+00  0.00000000E+00  0.00000000E+00
  0.00000000E+00  0.00000000E+00  0.00000000E+00
  0.00000000E+00  0.00000000E+00  0.00000000E+00
  0.00000000E+00  0.00000000E+00  0.00000000E+00
  0.00000000E+00  0.00000000E+00  0.00000000E+00
  0.00000000E+00  0.00000000E+00  0.00000000E+00
  0.00000000E+00  0.00000000E+00  0.00000000E+00
  0.00000000E+00  0.00000000E+00  0.00000000E+00
  0.00000000E+00  0.00000000E+00  0.00000000E+00
  0.00000000E+00  0.00000000E+00  0.00000000E+00
  0.00000000E+00  0.00000000E+00  0.00000000E+00
  0.00000000E+00  0.00000000E+00  0.00000000E+00
  0.00000000E+00  0.00000000E+00  0.00000000E+00
  0.00000000E+00  0.00000000E+00  0.00000000E+00
  0.00000000E+00  0.00000000E+00  0.00000000E+00
  0.00000000E+00  0.00000000E+00  0.00000000E+00
  0.00000000E+00  0.00000000E+00  0.00000000E+00
  0.00000000E+00  0.00000000E+00  0.00000000E+00
  0.00000000E+00  0.00000000E+00  0.00000000E+00
  0.00000000E+00  0.00000000E+00  0.00000000E+00
  0.00000000E+00  0.00000000E+00  0.00000000E+00
  0.00000000E+00  0.00000000E+00  0.00000000E+00
  0.00000000E+00  0.00000000E+00  0.00000000E+00
  0.00000000E+00  0.00000000E+00  0.00000000E+00
  0.00000000E+00  0.00000000E+00  0.00000000E+00
  0.00000000E+00  0.00000000E+00  0.00000000E+00
  0.00000000E+00  0.00000000E+00  0.00000000E+00
  0.00000000E+00  0.00000000E+00  0.00000000E+00
  0.00000000E+00  0.00000000E+00  0.00000000E+00
  0.00000000E+00  0.00000000E+00  0.00000000E+00
  0.00000000E+00  0.00000000E+00  0.00000000E+00
  0.00000000E+00  0.00000000E+00  0.00000000E+00
  0.00000000E+00  0.00000000E+00  0.00000000E+00
