generated by phonopy                    
   1.00000000000000     
    10.0351470768999995   -0.0000022330999784   -0.0000001056124209
    -5.0175765436399997    8.6906901959899994    0.0000001395531216
    -0.0000001735893656    0.0000001431815548   14.9533752540999991
   O    Pb   P 
    51    19    12
Direct
  0.0130776114647091  0.8203676524512886  0.1269723588527185
  0.4887135067726120  0.6495483007899452  0.1239304016146860
  0.5280499115247892  0.6764224168914694  0.6240634924406336
  0.4807197220570458  0.3308606627870319  0.3725534312084378
  0.4807305283028356  0.3308381485408773  0.8756522503765751
  0.3552827593355659  0.8546542241273229  0.1237965897881494
  0.3352453583781809  0.8500653799893527  0.6238778177624695
  0.6796263047128406  0.1578321456566911  0.3761068606607125
  0.6797014160472514  0.1577071394879752  0.8721024207991945
  0.1483752578621917  0.4830124614256590  0.1240897824288254
  0.1583647551840173  0.4951328515709719  0.6240329949790109
  0.8463842793498557  0.5267380753675255  0.3821142794028205
  0.8461209180162257  0.5265446949703545  0.8663136054037892
  0.7000434314736026  0.6325181264045057  0.0357532276192671
  0.7353498017563069  0.6414158083423942  0.5406572617051282
  0.2616991419352175  0.3456695053560921  0.4560521694404969
  0.2674070332474443  0.3538547408829800  0.9607394088421941
  0.3435925779009210  0.0757967004247959  0.0394344856295987
  0.3692760055565145  0.0912284994712564  0.5394348666370377
  0.6521907672821428  0.9175638174338303  0.4592026822734780
  0.6527988332537475  0.9205162934467239  0.9574529775379546
  0.9205555272400474  0.2616156163337919  0.0399424129344794
  0.9263769612975210  0.2743954661305992  0.5401736742086527
  0.0759109787633676  0.7190506952017586  0.4825708647987312
  0.0934423289245743  0.7485780651632297  0.9340854153256188
  0.2657148012542336  0.3510705692966880  0.2877179188670240
  0.2603852660579307  0.3430620052898092  0.7923991371504115
  0.7048605010737461  0.6384218594709381  0.2102808404185268
  0.7355730117829040  0.6420875466756542  0.7076874640838113
  0.6544064459174450  0.9213115516591088  0.2909241382754217
  0.6531728374462276  0.9178362061063012  0.7891295554670279
  0.3387797401883006  0.0735878466526643  0.2075831856305825
  0.3689292727389670  0.0911035812768688  0.7083708136487914
  0.0933099919958877  0.7491823573211391  0.3143946843386871
  0.0753742928148426  0.7196113252413454  0.7659357701438481
  0.9201894632527541  0.2625416437902004  0.2086677651836553
  0.9266743957079129  0.2737536771645850  0.7077473872602482
  0.5163537876534363  0.4050248254945004  0.1257313199127594
  0.5195579659111758  0.4140311324737596  0.6244243192723573
  0.4701457004877554  0.5814902993724544  0.3747936099842661
  0.4702438310146348  0.5814405666356706  0.8712314214374572
  0.5832978724824613  0.1272461321439522  0.1257497291110212
  0.5946366105553480  0.1056448748960932  0.6241365675296180
  0.4236915160538928  0.9003966064792266  0.3745423859522816
  0.4235258046541617  0.9003534226920920  0.8724789837564870
  0.8818032145122956  0.4620197587064752  0.1237975649501948
  0.8916222041205515  0.4757441072920656  0.6244564392346490
  0.1017548020861128  0.5250687948543487  0.3844367695823436
  0.1014129197778786  0.5247113400212271  0.8631144827330033
  0.9938236855047151  0.9340279617798330  0.1030269825501122
  0.0247801722644709  0.9516456777219844  0.6239615633354774
  0.9725148922765143  0.7265256948458543  0.6241649709968300
  0.0042575553609652  0.2627921137407441  0.3794410968380859
  0.0040653028986100  0.2624426519150944  0.8689070312000311
  0.2529562649433501  0.2521843240909050  0.1246070654794167
  0.2390432342989541  0.2111310408345162  0.6243739727913677
  0.7339971122840439  0.7433789688752981  0.3618367668817655
  0.7340925089461763  0.7438378619626320  0.8853753688199788
  0.7356700737984383  0.0119332874457214  0.1243643308456939
  0.7626046056550138  0.0011809416363278  0.6240339511345923
  0.2641396733687387  0.0047115369232031  0.3651463057933029
  0.2637577968588332  0.0043835895217441  0.8832698938242487
  0.6864050006600948  0.3639117452853711  0.0011924578323672
  0.6533139814381101  0.3260269933792586  0.4955398089336924
  0.3161845574461708  0.6637179134168036  0.0030728313651167
  0.3404467261017743  0.6706533781953681  0.5031390244568641
  0.3155697565924598  0.6647350080358621  0.2447986879490855
  0.3403036401324400  0.6715308728085034  0.7449153597418743
  0.6880014697520380  0.3633579937430582  0.2466645183843568
  0.6532081673873478  0.3255909617828436  0.7526337316374310
  0.6050232317811179  0.5890973924458436  0.1239188831054179
  0.6242048664977418  0.5931878092223002  0.6242110461151640
  0.3711366718439280  0.3991339333257784  0.3728510792246240
  0.3711848600528214  0.3991971537823176  0.8750056020748289
  0.4006987771218817  0.0273605906102432  0.1240591476307529
  0.4142493516921704  0.0283909908103936  0.6239358391438898
  0.6056641894455410  0.9796609951291018  0.3757668516175485
  0.6054712720010968  0.9795246665891852  0.8723436152469120
  0.9696810302549181  0.3701569453244318  0.1240500794240873
  0.9829646321376586  0.3812151874384355  0.6240914397132187
  0.0238853434358006  0.6289246700158841  0.3910929319622767
  0.0236926149626768  0.6287526982808345  0.8572307012992866
 
  0.00000000E+00  0.00000000E+00  0.00000000E+00
  0.00000000E+00  0.00000000E+00  0.00000000E+00
  0.00000000E+00  0.00000000E+00  0.00000000E+00
  0.00000000E+00  0.00000000E+00  0.00000000E+00
  0.00000000E+00  0.00000000E+00  0.00000000E+00
  0.00000000E+00  0.00000000E+00  0.00000000E+00
  0.00000000E+00  0.00000000E+00  0.00000000E+00
  0.00000000E+00  0.00000000E+00  0.00000000E+00
  0.00000000E+00  0.00000000E+00  0.00000000E+00
  0.00000000E+00  0.00000000E+00  0.00000000E+00
  0.00000000E+00  0.00000000E+00  0.00000000E+00
  0.00000000E+00  0.00000000E+00  0.00000000E+00
  0.00000000E+00  0.00000000E+00  0.00000000E+00
  0.00000000E+00  0.00000000E+00  0.00000000E+00
  0.00000000E+00  0.00000000E+00  0.00000000E+00
  0.00000000E+00  0.00000000E+00  0.00000000E+00
  0.00000000E+00  0.00000000E+00  0.00000000E+00
  0.00000000E+00  0.00000000E+00  0.00000000E+00
  0.00000000E+00  0.00000000E+00  0.00000000E+00
  0.00000000E+00  0.00000000E+00  0.00000000E+00
  0.00000000E+00  0.00000000E+00  0.00000000E+00
  0.00000000E+00  0.00000000E+00  0.00000000E+00
  0.00000000E+00  0.00000000E+00  0.00000000E+00
  0.00000000E+00  0.00000000E+00  0.00000000E+00
  0.00000000E+00  0.00000000E+00  0.00000000E+00
  0.00000000E+00  0.00000000E+00  0.00000000E+00
  0.00000000E+00  0.00000000E+00  0.00000000E+00
  0.00000000E+00  0.00000000E+00  0.00000000E+00
  0.00000000E+00  0.00000000E+00  0.00000000E+00
  0.00000000E+00  0.00000000E+00  0.00000000E+00
  0.00000000E+00  0.00000000E+00  0.00000000E+00
  0.00000000E+00  0.00000000E+00  0.00000000E+00
  0.00000000E+00  0.00000000E+00  0.00000000E+00
  0.00000000E+00  0.00000000E+00  0.00000000E+00
  0.00000000E+00  0.00000000E+00  0.00000000E+00
  0.00000000E+00  0.00000000E+00  0.00000000E+00
  0.00000000E+00  0.00000000E+00  0.00000000E+00
  0.00000000E+00  0.00000000E+00  0.00000000E+00
  0.00000000E+00  0.00000000E+00  0.00000000E+00
  0.00000000E+00  0.00000000E+00  0.00000000E+00
  0.00000000E+00  0.00000000E+00  0.00000000E+00
  0.00000000E+00  0.00000000E+00  0.00000000E+00
  0.00000000E+00  0.00000000E+00  0.00000000E+00
  0.00000000E+00  0.00000000E+00  0.00000000E+00
  0.00000000E+00  0.00000000E+00  0.00000000E+00
  0.00000000E+00  0.00000000E+00  0.00000000E+00
  0.00000000E+00  0.00000000E+00  0.00000000E+00
  0.00000000E+00  0.00000000E+00  0.00000000E+00
  0.00000000E+00  0.00000000E+00  0.00000000E+00
  0.00000000E+00  0.00000000E+00  0.00000000E+00
  0.00000000E+00  0.00000000E+00  0.00000000E+00
  0.00000000E+00  0.00000000E+00  0.00000000E+00
  0.00000000E+00  0.00000000E+00  0.00000000E+00
  0.00000000E+00  0.00000000E+00  0.00000000E+00
  0.00000000E+00  0.00000000E+00  0.00000000E+00
  0.00000000E+00  0.00000000E+00  0.00000000E+00
  0.00000000E+00  0.00000000E+00  0.00000000E+00
  0.00000000E+00  0.00000000E+00  0.00000000E+00
  0.00000000E+00  0.00000000E+00  0.00000000E+00
  0.00000000E+00  0.00000000E+00  0.00000000E+00
  0.00000000E+00  0.00000000E+00  0.00000000E+00
  0.00000000E+00  0.00000000E+00  0.00000000E+00
  0.00000000E+00  0.00000000E+00  0.00000000E+00
  0.00000000E+00  0.00000000E+00  0.00000000E+00
  0.00000000E+00  0.00000000E+00  0.00000000E+00
  0.00000000E+00  0.00000000E+00  0.00000000E+00
  0.00000000E+00  0.00000000E+00  0.00000000E+00
  0.00000000E+00  0.00000000E+00  0.00000000E+00
  0.00000000E+00  0.00000000E+00  0.00000000E+00
  0.00000000E+00  0.00000000E+00  0.00000000E+00
  0.00000000E+00  0.00000000E+00  0.00000000E+00
  0.00000000E+00  0.00000000E+00  0.00000000E+00
  0.00000000E+00  0.00000000E+00  0.00000000E+00
  0.00000000E+00  0.00000000E+00  0.00000000E+00
  0.00000000E+00  0.00000000E+00  0.00000000E+00
  0.00000000E+00  0.00000000E+00  0.00000000E+00
  0.00000000E+00  0.00000000E+00  0.00000000E+00
  0.00000000E+00  0.00000000E+00  0.00000000E+00
  0.00000000E+00  0.00000000E+00  0.00000000E+00
  0.00000000E+00  0.00000000E+00  0.00000000E+00
  0.00000000E+00  0.00000000E+00  0.00000000E+00
  0.00000000E+00  0.00000000E+00  0.00000000E+00
