POSCAR                                  
  0.945000000000000     
    -7.9718282202099999    2.2426857141599998    0.0528184088689000
    -2.6664940776099999  -11.2368398047000007    0.0300732958616000
     2.5451382214999998    2.2460400602399999   15.7389778362000001
   Tb   Al   N 
    24    24    48
Direct
  0.1306609731707766  0.6195625075299844  0.9811980230344446
  0.8675277314503944  0.5991618679393227  0.1613815080794012
  0.0471180763983128  0.5711882368587169  0.6601758322338185
  0.6263123922906217  0.6503575509628234  0.6608948509299353
  0.7822868139798089  0.5169715385064890  0.8224540692579581
  0.9024870704344679  0.3498473887103373  0.9918162913930288
  0.5156957464090297  0.5069594263468744  0.9985203661164874
  0.6232727580512787  0.3303891744565277  0.1632973695211533
  0.9550457180127978  0.4377981600620728  0.3329159700733015
  0.5864969921377110  0.5807580710912248  0.3386693504891909
  0.8636004629835980  0.2767956392108388  0.6621829411430653
  0.0892701021602775  0.8825941197429046  0.1597949030999786
  0.2868725494348752  0.5440721455105546  0.4971402512529721
  0.5030020832203874  0.2682378343546077  0.8351275185518503
  0.1689728223856619  0.9658136337726617  0.4950535634332951
  0.7098825531342001  0.1822006815453463  0.3346262219711278
  0.3252565042896904  0.2913596736322575  0.3122348813165772
  0.5342443566126605  0.0481823329683735  0.6607687773373954
  0.6086258672882465  0.8950005490795192  0.8194759443447595
  0.7643417192195727  0.7725712848237336  0.9917495591089178
  0.3358767869602133  0.8796022515645205  0.9699287361995843
  0.7852912295378758  0.8514666323284388  0.3138405533521222
  0.5683204408251825  0.8331458176813697  0.5025512811713355
  0.1970734080571930  0.7175467345805515  0.3343142679366409
  0.9227357461362757  0.7154822769470428  0.4730372511318635
  0.1189529600373262  0.3299378256070042  0.8378086223272661
  0.0456793828583812  0.2346394963468938  0.1440396932870343
  0.3096796533646327  0.5309801928271725  0.7870655718601327
  0.2864091975976422  0.5003403980090155  0.1926956670597093
  0.1035384297434163  0.2923861425479330  0.4875391863959209
  0.2125922626308991  0.1770165972570936  0.6795387776245150
  0.7695179135988468  0.4393480718923044  0.5236183964036414
  0.8563832034572485  0.1175005904375368  0.8141065555832796
  0.0311743886301628  0.0248966466110119  0.9826045999970461
  0.3681483931783873  0.3773214139362153  0.6375010704101811
  0.6631661454521449  0.1183487368753902  0.9868044481755902
  0.6305002934591997  0.9571403711086930  0.1340015712489944
  0.3104233140705475  0.2630425330928574  0.0217547339149249
  0.3503183804146985  0.0853147898201811  0.1460499074996662
  0.0769157658290212  0.0836655953904426  0.3208991904969807
  0.8473240333958998  0.0869205030056577  0.5000487765235562
  0.9518357795658048  0.9303231052005216  0.6448827534882255
  0.0014918159167010  0.7860743590121118  0.8150843482181500
  0.4828762566003988  0.1848188600451337  0.4874039538678971
  0.1905731890629809  0.0188139555346325  0.8069398529277123
  0.4124414277850619  0.7173556071482210  0.1469991371902637
  0.3999763713986226  0.9504161765722756  0.3130366031151937
  0.2698741410079606  0.8360213414177267  0.6894830877585818
  0.7700449991731091  0.7272755134709712  0.8276681079819639
  0.4085886614073431  0.6962225395686303  0.0213295729639711
  0.5058495251840043  0.8037266716784615  0.3475445509738719
  0.6914125409368737  0.6145754281913298  0.5048382590468208
  0.7807590545289287  0.4748339959403083  0.6590300148318562
  0.1714239798459261  0.7379565105386803  0.4887935205730898
  0.3586203458402579  0.5537046940468926  0.6613865058312598
  0.5077312840485035  0.4862859546577667  0.8478322321576144
  0.5549334701442135  0.2843122282092949  0.0048291767629252
  0.0162437814881145  0.7810818345364012  0.6877448021861312
  0.1186878336850370  0.6239661743492491  0.8286643484147618
  0.1933420447142780  0.3936573023330467  0.9643337915380457
  0.8243131228099188  0.5598870691099904  0.0041130104458915
  0.5238900486949589  0.5635089978753243  0.1748791683639155
  0.6653441311113895  0.3829802848450115  0.3208360156311798
  0.7205312697547441  0.2437390045787140  0.5073857875160286
  0.1734853438239625  0.6542486955080236  0.1671686482425940
  0.2865500392902476  0.5127834226880026  0.3294443938648115
  0.3474898226314238  0.3306902462265668  0.5087846132334306
  0.4532165602963403  0.2405742635495542  0.6779321493348291
  0.6462012618415045  0.1000406269020573  0.8579876535073439
  0.6196965036087079  0.9515155692155091  0.0041138418348936
  0.8872650585539574  0.6615216240660047  0.3385835010735576
  0.0115278745514402  0.4573599894766787  0.5064136478577268
  0.1580781142520280  0.3782215520847245  0.7217748383754312
  0.2275362662827263  0.1841553501365212  0.8109346327745399
  0.2642623267872821  0.0887523863740682  0.0232366035502594
  0.8747748966645688  0.3034320486021826  0.8322397260605356
  0.9057238778845971  0.1568578080305372  0.0350339335214542
  0.5934934367219569  0.1277925506979187  0.1789029814064591
  0.8861198930614691  0.0405587788394826  0.3809583931990446
  0.2823003737255192  0.3237912417990927  0.1494659002259198
  0.4423141677086377  0.1227346798921047  0.3598535000098693
  0.4590400358957041  0.0202195622448187  0.5160528761416998
  0.5014550526092592  0.8338193433400463  0.6614027776275151
  0.9210755429103088  0.3908585869323673  0.1707217382324657
  0.0593197195116772  0.2552766535305437  0.3614371049139962
  0.0612968778486760  0.1706272968655753  0.5627669250114593
  0.1942306690419642  0.9936210060986213  0.6663750012844005
  0.3158874229476325  0.8795113844522078  0.8203226165650435
  0.8265921122092266  0.0666372152151808  0.6880136029492689
  0.9851201617011967  0.9850056924960384  0.8547837259547890
  0.0451290101123760  0.8480575191991591  0.0052895855646113
  0.4105283298169269  0.9053751862062498  0.1760404471196750
  0.1410704531725315  0.1069014261919534  0.2048983344882132
  0.1615810959872306  0.9220834811458687  0.3258529742499903
  0.8613949955253446  0.8940260202236558  0.5180409502555463
  0.7944630060189581  0.8355457479355266  0.1609067284946022
 
  0.00000000E+00  0.00000000E+00  0.00000000E+00
  0.00000000E+00  0.00000000E+00  0.00000000E+00
  0.00000000E+00  0.00000000E+00  0.00000000E+00
  0.00000000E+00  0.00000000E+00  0.00000000E+00
  0.00000000E+00  0.00000000E+00  0.00000000E+00
  0.00000000E+00  0.00000000E+00  0.00000000E+00
  0.00000000E+00  0.00000000E+00  0.00000000E+00
  0.00000000E+00  0.00000000E+00  0.00000000E+00
  0.00000000E+00  0.00000000E+00  0.00000000E+00
  0.00000000E+00  0.00000000E+00  0.00000000E+00
  0.00000000E+00  0.00000000E+00  0.00000000E+00
  0.00000000E+00  0.00000000E+00  0.00000000E+00
  0.00000000E+00  0.00000000E+00  0.00000000E+00
  0.00000000E+00  0.00000000E+00  0.00000000E+00
  0.00000000E+00  0.00000000E+00  0.00000000E+00
  0.00000000E+00  0.00000000E+00  0.00000000E+00
  0.00000000E+00  0.00000000E+00  0.00000000E+00
  0.00000000E+00  0.00000000E+00  0.00000000E+00
  0.00000000E+00  0.00000000E+00  0.00000000E+00
  0.00000000E+00  0.00000000E+00  0.00000000E+00
  0.00000000E+00  0.00000000E+00  0.00000000E+00
  0.00000000E+00  0.00000000E+00  0.00000000E+00
  0.00000000E+00  0.00000000E+00  0.00000000E+00
  0.00000000E+00  0.00000000E+00  0.00000000E+00
  0.00000000E+00  0.00000000E+00  0.00000000E+00
  0.00000000E+00  0.00000000E+00  0.00000000E+00
  0.00000000E+00  0.00000000E+00  0.00000000E+00
  0.00000000E+00  0.00000000E+00  0.00000000E+00
  0.00000000E+00  0.00000000E+00  0.00000000E+00
  0.00000000E+00  0.00000000E+00  0.00000000E+00
  0.00000000E+00  0.00000000E+00  0.00000000E+00
  0.00000000E+00  0.00000000E+00  0.00000000E+00
  0.00000000E+00  0.00000000E+00  0.00000000E+00
  0.00000000E+00  0.00000000E+00  0.00000000E+00
  0.00000000E+00  0.00000000E+00  0.00000000E+00
  0.00000000E+00  0.00000000E+00  0.00000000E+00
  0.00000000E+00  0.00000000E+00  0.00000000E+00
  0.00000000E+00  0.00000000E+00  0.00000000E+00
  0.00000000E+00  0.00000000E+00  0.00000000E+00
  0.00000000E+00  0.00000000E+00  0.00000000E+00
  0.00000000E+00  0.00000000E+00  0.00000000E+00
  0.00000000E+00  0.00000000E+00  0.00000000E+00
  0.00000000E+00  0.00000000E+00  0.00000000E+00
  0.00000000E+00  0.00000000E+00  0.00000000E+00
  0.00000000E+00  0.00000000E+00  0.00000000E+00
  0.00000000E+00  0.00000000E+00  0.00000000E+00
  0.00000000E+00  0.00000000E+00  0.00000000E+00
  0.00000000E+00  0.00000000E+00  0.00000000E+00
  0.00000000E+00  0.00000000E+00  0.00000000E+00
  0.00000000E+00  0.00000000E+00  0.00000000E+00
  0.00000000E+00  0.00000000E+00  0.00000000E+00
  0.00000000E+00  0.00000000E+00  0.00000000E+00
  0.00000000E+00  0.00000000E+00  0.00000000E+00
  0.00000000E+00  0.00000000E+00  0.00000000E+00
  0.00000000E+00  0.00000000E+00  0.00000000E+00
  0.00000000E+00  0.00000000E+00  0.00000000E+00
  0.00000000E+00  0.00000000E+00  0.00000000E+00
  0.00000000E+00  0.00000000E+00  0.00000000E+00
  0.00000000E+00  0.00000000E+00  0.00000000E+00
  0.00000000E+00  0.00000000E+00  0.00000000E+00
  0.00000000E+00  0.00000000E+00  0.00000000E+00
  0.00000000E+00  0.00000000E+00  0.00000000E+00
  0.00000000E+00  0.00000000E+00  0.00000000E+00
  0.00000000E+00  0.00000000E+00  0.00000000E+00
  0.00000000E+00  0.00000000E+00  0.00000000E+00
  0.00000000E+00  0.00000000E+00  0.00000000E+00
  0.00000000E+00  0.00000000E+00  0.00000000E+00
  0.00000000E+00  0.00000000E+00  0.00000000E+00
  0.00000000E+00  0.00000000E+00  0.00000000E+00
  0.00000000E+00  0.00000000E+00  0.00000000E+00
  0.00000000E+00  0.00000000E+00  0.00000000E+00
  0.00000000E+00  0.00000000E+00  0.00000000E+00
  0.00000000E+00  0.00000000E+00  0.00000000E+00
  0.00000000E+00  0.00000000E+00  0.00000000E+00
  0.00000000E+00  0.00000000E+00  0.00000000E+00
  0.00000000E+00  0.00000000E+00  0.00000000E+00
  0.00000000E+00  0.00000000E+00  0.00000000E+00
  0.00000000E+00  0.00000000E+00  0.00000000E+00
  0.00000000E+00  0.00000000E+00  0.00000000E+00
  0.00000000E+00  0.00000000E+00  0.00000000E+00
  0.00000000E+00  0.00000000E+00  0.00000000E+00
  0.00000000E+00  0.00000000E+00  0.00000000E+00
  0.00000000E+00  0.00000000E+00  0.00000000E+00
  0.00000000E+00  0.00000000E+00  0.00000000E+00
  0.00000000E+00  0.00000000E+00  0.00000000E+00
  0.00000000E+00  0.00000000E+00  0.00000000E+00
  0.00000000E+00  0.00000000E+00  0.00000000E+00
  0.00000000E+00  0.00000000E+00  0.00000000E+00
  0.00000000E+00  0.00000000E+00  0.00000000E+00
  0.00000000E+00  0.00000000E+00  0.00000000E+00
  0.00000000E+00  0.00000000E+00  0.00000000E+00
  0.00000000E+00  0.00000000E+00  0.00000000E+00
  0.00000000E+00  0.00000000E+00  0.00000000E+00
  0.00000000E+00  0.00000000E+00  0.00000000E+00
  0.00000000E+00  0.00000000E+00  0.00000000E+00
  0.00000000E+00  0.00000000E+00  0.00000000E+00
