Al   Sc   N                             
   1.00000000000000     
    -9.6367780037211777    0.0035964012297608   -0.0021916066220373
    -4.8215031301121121    8.3616223530890323    0.0005663140782434
    -0.0024246769929123   -0.0020202846270781   -9.9269087410933103
   Al   Sc   N 
    28     8    36
Direct
  0.1088715305044232  0.0964185965549333  0.2946108094857181
  0.2282221766907568  0.1971745229625697  0.0481950311376806
  0.7777601460201140  0.0973363055628269  0.7988931262427599
  0.8864943002353840  0.2067480835532152  0.5477241437090470
  0.4407310339314776  0.0948379830068191  0.2964787814534233
  0.5550692607867305  0.2042495059854019  0.0448958717389658
  0.1061944959265730  0.0972842032498065  0.7985663225432873
  0.2191841086013753  0.2062465214520159  0.5446893186207120
  0.7814755107745270  0.0951504216314376  0.2946425678017519
  0.8865033518172467  0.2031975972312239  0.0455371864208374
  0.4435857343126628  0.0958338444007580  0.7967324611966049
  0.5618483378390593  0.1969133940365779  0.5487973002672319
  0.1170741062691860  0.4214942215418489  0.2912523201495532
  0.2284331589282544  0.5403595708049664  0.0436042470862716
  0.7789772849051104  0.4195743443145759  0.7942417146560032
  0.8902792682538845  0.5289944884413273  0.5370085805014924
  0.5581530265188661  0.5277803329462145  0.0455923434676322
  0.7787677248208595  0.4194819767470932  0.2983165901380787
  0.4539085058542867  0.4209016251535331  0.7949874600015008
  0.5650461056876068  0.5383057117365624  0.5473740576480850
  0.1107667794692162  0.7646130635781461  0.2889797743738427
  0.2160658598374638  0.8773954444664653  0.0490769261387669
  0.8882580571276648  0.8823828791898833  0.5421058950209883
  0.4430671509564519  0.7626772017419370  0.2880973788541610
  0.5548766771598181  0.8811209129994069  0.0498039089018008
  0.1056570724852151  0.7717857711779459  0.8037562583918572
  0.8861898506885382  0.8792653008178419  0.0486962878700368
  0.5483021652031610  0.8759698089861203  0.5415495849777159
  0.4476349296364575  0.4246897215310028  0.3056586770203111
  0.1116686618254334  0.4221468083690709  0.8106840214666633
  0.2171087566180887  0.5412700839590627  0.5576286812671611
  0.8821408907480830  0.5396910608423156  0.0646636324867842
  0.7788054194076253  0.7652573513213099  0.7890798247575717
  0.2234011435109267  0.8751686999558288  0.5489447399697127
  0.7752120870563672  0.7684669765811094  0.3178017761367613
  0.4473753625340322  0.7573276470217110  0.8166742954873740
  0.2219534258687261  0.2053287722714074  0.3513959244598794
  0.1072434198113257  0.0982124923117738  0.1037710745797469
  0.8885474241229119  0.2050795399151255  0.8534349796611451
  0.7775942718981170  0.0952547946808480  0.6067696795061579
  0.5671541503773554  0.1829294001227382  0.3577292756867081
  0.4437304729798655  0.0970192354896611  0.1058952763513545
  0.2313534707043416  0.1848788071916161  0.8587046687220266
  0.1016898724412343  0.1104623836656131  0.6064649132345679
  0.8890032688087928  0.2037628150856747  0.3557160188211341
  0.7755622002066858  0.0972020039157613  0.1028132656877077
  0.5546056547685652  0.2039465687435964  0.8514769445195185
  0.4416017820029552  0.0952810283235124  0.6036898925800358
  0.2048996680357149  0.5489124310684730  0.3468495000864991
  0.1303320949157794  0.4180388335812424  0.0947555474755291
  0.8739233850200421  0.5355941491671317  0.8554922489483161
  0.7802588830535200  0.4249519094452552  0.6011911952899496
  0.5641489468087144  0.5495984111321377  0.3556025396890377
  0.4447046956518577  0.4248131771429229  0.0960904450009323
  0.2329523306009875  0.5489248260332218  0.8473860511129985
  0.1011810999110381  0.4199634374960439  0.6006846264268759
  0.8992767288636188  0.5180514288750544  0.3407687259620431
  0.7675307530844862  0.4136309693169764  0.1103612486599701
  0.5689415567683653  0.5148746600868819  0.8564287967277764
  0.4638292637340555  0.4177365053931794  0.5981460430454035
  0.2235081334472184  0.8714713042829914  0.3363093912794639
  0.1099425362143762  0.7612539800144589  0.0981511986554437
  0.8916743457673419  0.8835833317320336  0.8594680121844505
  0.7780824039455965  0.7615587453347885  0.5682903092790355
  0.5299369628535189  0.8841543935667602  0.3527216484765887
  0.4468427133006330  0.7580691862645708  0.0904376537731650
  0.2053063641196147  0.8849111843316493  0.8567825693595168
  0.0921519158029369  0.7751421578277231  0.6146186812927539
  0.9026363922093879  0.8854738074814605  0.3540229994800796
  0.7692519250174996  0.7811879464379459  0.1049292775129373
  0.5537553703401201  0.8889044995060686  0.8609806202188395
  0.4617820835997790  0.7523288989108892  0.6063268588642288
 
  0.00000000E+00  0.00000000E+00  0.00000000E+00
  0.00000000E+00  0.00000000E+00  0.00000000E+00
  0.00000000E+00  0.00000000E+00  0.00000000E+00
  0.00000000E+00  0.00000000E+00  0.00000000E+00
  0.00000000E+00  0.00000000E+00  0.00000000E+00
  0.00000000E+00  0.00000000E+00  0.00000000E+00
  0.00000000E+00  0.00000000E+00  0.00000000E+00
  0.00000000E+00  0.00000000E+00  0.00000000E+00
  0.00000000E+00  0.00000000E+00  0.00000000E+00
  0.00000000E+00  0.00000000E+00  0.00000000E+00
  0.00000000E+00  0.00000000E+00  0.00000000E+00
  0.00000000E+00  0.00000000E+00  0.00000000E+00
  0.00000000E+00  0.00000000E+00  0.00000000E+00
  0.00000000E+00  0.00000000E+00  0.00000000E+00
  0.00000000E+00  0.00000000E+00  0.00000000E+00
  0.00000000E+00  0.00000000E+00  0.00000000E+00
  0.00000000E+00  0.00000000E+00  0.00000000E+00
  0.00000000E+00  0.00000000E+00  0.00000000E+00
  0.00000000E+00  0.00000000E+00  0.00000000E+00
  0.00000000E+00  0.00000000E+00  0.00000000E+00
  0.00000000E+00  0.00000000E+00  0.00000000E+00
  0.00000000E+00  0.00000000E+00  0.00000000E+00
  0.00000000E+00  0.00000000E+00  0.00000000E+00
  0.00000000E+00  0.00000000E+00  0.00000000E+00
  0.00000000E+00  0.00000000E+00  0.00000000E+00
  0.00000000E+00  0.00000000E+00  0.00000000E+00
  0.00000000E+00  0.00000000E+00  0.00000000E+00
  0.00000000E+00  0.00000000E+00  0.00000000E+00
  0.00000000E+00  0.00000000E+00  0.00000000E+00
  0.00000000E+00  0.00000000E+00  0.00000000E+00
  0.00000000E+00  0.00000000E+00  0.00000000E+00
  0.00000000E+00  0.00000000E+00  0.00000000E+00
  0.00000000E+00  0.00000000E+00  0.00000000E+00
  0.00000000E+00  0.00000000E+00  0.00000000E+00
  0.00000000E+00  0.00000000E+00  0.00000000E+00
  0.00000000E+00  0.00000000E+00  0.00000000E+00
  0.00000000E+00  0.00000000E+00  0.00000000E+00
  0.00000000E+00  0.00000000E+00  0.00000000E+00
  0.00000000E+00  0.00000000E+00  0.00000000E+00
  0.00000000E+00  0.00000000E+00  0.00000000E+00
  0.00000000E+00  0.00000000E+00  0.00000000E+00
  0.00000000E+00  0.00000000E+00  0.00000000E+00
  0.00000000E+00  0.00000000E+00  0.00000000E+00
  0.00000000E+00  0.00000000E+00  0.00000000E+00
  0.00000000E+00  0.00000000E+00  0.00000000E+00
  0.00000000E+00  0.00000000E+00  0.00000000E+00
  0.00000000E+00  0.00000000E+00  0.00000000E+00
  0.00000000E+00  0.00000000E+00  0.00000000E+00
  0.00000000E+00  0.00000000E+00  0.00000000E+00
  0.00000000E+00  0.00000000E+00  0.00000000E+00
  0.00000000E+00  0.00000000E+00  0.00000000E+00
  0.00000000E+00  0.00000000E+00  0.00000000E+00
  0.00000000E+00  0.00000000E+00  0.00000000E+00
  0.00000000E+00  0.00000000E+00  0.00000000E+00
  0.00000000E+00  0.00000000E+00  0.00000000E+00
  0.00000000E+00  0.00000000E+00  0.00000000E+00
  0.00000000E+00  0.00000000E+00  0.00000000E+00
  0.00000000E+00  0.00000000E+00  0.00000000E+00
  0.00000000E+00  0.00000000E+00  0.00000000E+00
  0.00000000E+00  0.00000000E+00  0.00000000E+00
  0.00000000E+00  0.00000000E+00  0.00000000E+00
  0.00000000E+00  0.00000000E+00  0.00000000E+00
  0.00000000E+00  0.00000000E+00  0.00000000E+00
  0.00000000E+00  0.00000000E+00  0.00000000E+00
  0.00000000E+00  0.00000000E+00  0.00000000E+00
  0.00000000E+00  0.00000000E+00  0.00000000E+00
  0.00000000E+00  0.00000000E+00  0.00000000E+00
  0.00000000E+00  0.00000000E+00  0.00000000E+00
  0.00000000E+00  0.00000000E+00  0.00000000E+00
  0.00000000E+00  0.00000000E+00  0.00000000E+00
  0.00000000E+00  0.00000000E+00  0.00000000E+00
  0.00000000E+00  0.00000000E+00  0.00000000E+00
