Sc   Al   N                             
   1.00000000000000     
    -9.7407434502760442    0.0139123601988436   -0.0058842934582998
    -4.8824387660092370    8.4270501616212314   -0.0081516154058086
    -0.0062628531957962    0.0063452319842399  -10.1416497791167508
   Sc   Al   N 
     8    28    36
Direct
  0.1093510942503926  0.0958765802344814  0.3276976876776914
  0.2219811894860158  0.2142505902361762  0.0618638278730259
  0.1094043105450382  0.0948763547278091  0.7982076121804695
  0.7739862391569048  0.4341966148243444  0.3057198029042780
  0.5540478498569286  0.5354816363265655  0.5750296553405931
  0.2207546637353488  0.8663705887843207  0.0665127752608470
  0.8880939365402796  0.8736695456880454  0.5666280960378600
  0.5604710812087745  0.8703661050792064  0.0654867746050343
  0.7693441987221092  0.1007249442927929  0.8104933391360518
  0.8824089826217403  0.2084514951966057  0.5567929760733676
  0.4501230173541160  0.0992009909607532  0.3130776181110022
  0.5577095312039901  0.2080529672188405  0.0576227660216162
  0.2274481103742687  0.2116979229644684  0.5546606747814096
  0.7724432849210245  0.0933042620040396  0.3031572363750001
  0.8800628463297926  0.2087404133224879  0.0533687899375863
  0.4489342214282033  0.0951067208356164  0.7996846759679030
  0.5527173361439637  0.2073936941553072  0.5563382736221811
  0.1129735586406397  0.4376099148395980  0.3098507678115681
  0.2193643947199249  0.5396946109605452  0.0579332797955558
  0.7809913439336071  0.4276009254323156  0.8106834313102667
  0.8941511900330639  0.5368199570968599  0.5599564705531606
  0.4415563583592217  0.4279309904941258  0.3053830553519248
  0.5563321852280367  0.5333825181933207  0.0481489686874710
  0.1126267305649549  0.4324744419347297  0.8025836386904217
  0.2247669332722779  0.5339419633229241  0.5556413023604563
  0.8918418813281619  0.5407012614185405  0.0533794904921692
  0.4391703734269967  0.4227178479457621  0.8098133800857497
  0.1091710629494926  0.7538307968921529  0.3064628152787066
  0.7753412348071009  0.7585752428693624  0.8054915874618871
  0.4468249462430620  0.7520157778351404  0.3101531336473471
  0.1178348689184361  0.7526542186616396  0.8064061462598104
  0.2275863839251002  0.8645430997764336  0.5512649607798181
  0.7842554026491939  0.7609006761121364  0.3072092321698747
  0.8896345066826896  0.8698837660613776  0.0554676713669409
  0.4438242182479399  0.7643388612518933  0.8026256824198370
  0.5532890100292036  0.8735173107934671  0.5549186482594450
  0.2331859716451206  0.2206692705010553  0.3656857575525478
  0.0905927661654218  0.1072550259892822  0.1147558052317450
  0.8717348953614703  0.2122294381050551  0.8663942506770681
  0.7646840386149307  0.1155897306626770  0.6231608968531006
  0.5570961984215046  0.2077939665400237  0.3667578344105777
  0.4558174744148360  0.1049980145084888  0.1277214686165209
  0.2313579090443767  0.2140353272874975  0.8507620573475805
  0.1123105485017319  0.0931537890773981  0.5832070718357016
  0.8686653190100628  0.2025253303363215  0.3720833938891062
  0.7770588341362199  0.0936239927069735  0.1115430394514974
  0.5533789816268921  0.2041004280742627  0.8682596735809653
  0.4488085765001628  0.0926492610569980  0.6091896978277020
  0.2248297642656780  0.5386608324023712  0.3661212083255450
  0.1010304709669541  0.4475968802503445  0.1217218059749285
  0.8922539654618760  0.5388034948245064  0.8637086901962761
  0.8014600200587196  0.4171534570188768  0.6202277866242412
  0.5399401999581812  0.5409610299132481  0.3677286735804302
  0.4441217965645947  0.4281557366003241  0.1113497760556612
  0.2209743790968091  0.5378449998047046  0.8683489411096303
  0.1116061448573618  0.4309477304261549  0.6140927822629578
  0.8990974076699487  0.5484635621297329  0.3721897725332326
  0.7761761241005942  0.4303754888244029  0.0952670026817515
  0.5533670229427656  0.5390627255718243  0.8516002979453177
  0.4317645637711465  0.4145248815397835  0.6231564424674545
  0.2302847626150992  0.8494906162642621  0.3608651612993015
  0.1006374820902778  0.7509412536882536  0.1184699895033887
  0.8890403500467201  0.8714214350882656  0.8576166086437453
  0.7674820230584842  0.7515221219228252  0.6181078840260952
  0.5565987610668941  0.8703079371657836  0.3605671300932229
  0.4581759099190705  0.7368818370589381  0.1234984946719635
  0.2299009804959553  0.8559835787350067  0.8583309002666795
  0.1320935696491148  0.7481919423979804  0.6175564564820064
  0.8875057108491475  0.8748184223303852  0.3570251218667622
  0.7963275579893789  0.7514540769638245  0.1178503955453891
  0.5539178008342986  0.8742044366608042  0.8549122634082238
  0.4348511650324056  0.7815692080551813  0.6153197312702332
 
  0.00000000E+00  0.00000000E+00  0.00000000E+00
  0.00000000E+00  0.00000000E+00  0.00000000E+00
  0.00000000E+00  0.00000000E+00  0.00000000E+00
  0.00000000E+00  0.00000000E+00  0.00000000E+00
  0.00000000E+00  0.00000000E+00  0.00000000E+00
  0.00000000E+00  0.00000000E+00  0.00000000E+00
  0.00000000E+00  0.00000000E+00  0.00000000E+00
  0.00000000E+00  0.00000000E+00  0.00000000E+00
  0.00000000E+00  0.00000000E+00  0.00000000E+00
  0.00000000E+00  0.00000000E+00  0.00000000E+00
  0.00000000E+00  0.00000000E+00  0.00000000E+00
  0.00000000E+00  0.00000000E+00  0.00000000E+00
  0.00000000E+00  0.00000000E+00  0.00000000E+00
  0.00000000E+00  0.00000000E+00  0.00000000E+00
  0.00000000E+00  0.00000000E+00  0.00000000E+00
  0.00000000E+00  0.00000000E+00  0.00000000E+00
  0.00000000E+00  0.00000000E+00  0.00000000E+00
  0.00000000E+00  0.00000000E+00  0.00000000E+00
  0.00000000E+00  0.00000000E+00  0.00000000E+00
  0.00000000E+00  0.00000000E+00  0.00000000E+00
  0.00000000E+00  0.00000000E+00  0.00000000E+00
  0.00000000E+00  0.00000000E+00  0.00000000E+00
  0.00000000E+00  0.00000000E+00  0.00000000E+00
  0.00000000E+00  0.00000000E+00  0.00000000E+00
  0.00000000E+00  0.00000000E+00  0.00000000E+00
  0.00000000E+00  0.00000000E+00  0.00000000E+00
  0.00000000E+00  0.00000000E+00  0.00000000E+00
  0.00000000E+00  0.00000000E+00  0.00000000E+00
  0.00000000E+00  0.00000000E+00  0.00000000E+00
  0.00000000E+00  0.00000000E+00  0.00000000E+00
  0.00000000E+00  0.00000000E+00  0.00000000E+00
  0.00000000E+00  0.00000000E+00  0.00000000E+00
  0.00000000E+00  0.00000000E+00  0.00000000E+00
  0.00000000E+00  0.00000000E+00  0.00000000E+00
  0.00000000E+00  0.00000000E+00  0.00000000E+00
  0.00000000E+00  0.00000000E+00  0.00000000E+00
  0.00000000E+00  0.00000000E+00  0.00000000E+00
  0.00000000E+00  0.00000000E+00  0.00000000E+00
  0.00000000E+00  0.00000000E+00  0.00000000E+00
  0.00000000E+00  0.00000000E+00  0.00000000E+00
  0.00000000E+00  0.00000000E+00  0.00000000E+00
  0.00000000E+00  0.00000000E+00  0.00000000E+00
  0.00000000E+00  0.00000000E+00  0.00000000E+00
  0.00000000E+00  0.00000000E+00  0.00000000E+00
  0.00000000E+00  0.00000000E+00  0.00000000E+00
  0.00000000E+00  0.00000000E+00  0.00000000E+00
  0.00000000E+00  0.00000000E+00  0.00000000E+00
  0.00000000E+00  0.00000000E+00  0.00000000E+00
  0.00000000E+00  0.00000000E+00  0.00000000E+00
  0.00000000E+00  0.00000000E+00  0.00000000E+00
  0.00000000E+00  0.00000000E+00  0.00000000E+00
  0.00000000E+00  0.00000000E+00  0.00000000E+00
  0.00000000E+00  0.00000000E+00  0.00000000E+00
  0.00000000E+00  0.00000000E+00  0.00000000E+00
  0.00000000E+00  0.00000000E+00  0.00000000E+00
  0.00000000E+00  0.00000000E+00  0.00000000E+00
  0.00000000E+00  0.00000000E+00  0.00000000E+00
  0.00000000E+00  0.00000000E+00  0.00000000E+00
  0.00000000E+00  0.00000000E+00  0.00000000E+00
  0.00000000E+00  0.00000000E+00  0.00000000E+00
  0.00000000E+00  0.00000000E+00  0.00000000E+00
  0.00000000E+00  0.00000000E+00  0.00000000E+00
  0.00000000E+00  0.00000000E+00  0.00000000E+00
  0.00000000E+00  0.00000000E+00  0.00000000E+00
  0.00000000E+00  0.00000000E+00  0.00000000E+00
  0.00000000E+00  0.00000000E+00  0.00000000E+00
  0.00000000E+00  0.00000000E+00  0.00000000E+00
  0.00000000E+00  0.00000000E+00  0.00000000E+00
  0.00000000E+00  0.00000000E+00  0.00000000E+00
  0.00000000E+00  0.00000000E+00  0.00000000E+00
  0.00000000E+00  0.00000000E+00  0.00000000E+00
  0.00000000E+00  0.00000000E+00  0.00000000E+00
