Sc   Al   N                             
   1.00000000000000     
    -9.7409817648106802    0.0139123601988436   -0.0058842934582998
    -4.8826457810148396    8.4272694661096672   -0.0081516154058086
    -0.0063008128389317    0.0063588455488733  -10.1410354559259446
   Sc   Al   N 
     8    28    36
Direct
  0.1093574771213852  0.0958836371889333  0.3231210695022924
  0.2219883000829697  0.2142590306199139  0.0572955747693129
  0.1094113441465225  0.0948832156028843  0.7936429183493914
  0.7739912907148536  0.4342046314156534  0.3011551560003696
  0.5540492893415703  0.5354906513130899  0.5704638984469170
  0.2207622529659972  0.8663736971945255  0.0619427230549192
  0.8880992965466703  0.8736764070719687  0.5620572999426372
  0.5604759024110848  0.8703733044022783  0.0609146340541145
  0.7693497059076506  0.1007341497273302  0.8059146094841836
  0.8824140708646908  0.2084569138031966  0.5522113968512201
  0.4501302106045983  0.0992096150792463  0.3084951152552620
  0.5577167672139964  0.2080596537380615  0.0530382859989658
  0.2274539125185626  0.2117057512784513  0.5500831499484917
  0.7724497338033132  0.0933080633781742  0.2985777108970780
  0.8800670090487230  0.2087482285432287  0.0487965958017256
  0.4489401205911037  0.0951141012358150  0.7951028956099009
  0.5527237754659566  0.2074015152099378  0.5517543890994361
  0.1129793655561429  0.4376197131509940  0.3052710091532091
  0.2193699954549615  0.5397019576363675  0.0533482002725805
  0.7810000716626462  0.4276066079537486  0.8061046297137437
  0.8941578405148434  0.5368281406112203  0.5553778892591836
  0.4415633652491380  0.4279382107079357  0.3008022272985116
  0.5563405081190282  0.5333868840423506  0.0435694452840849
  0.1126331930116535  0.4324805964560738  0.7980076055577641
  0.2247742238090638  0.5339472167068209  0.5510589244038755
  0.8918474869047301  0.5407082100007727  0.0488041433198063
  0.4391754139829658  0.4227221389622002  0.8052344691385827
  0.1091752596262623  0.7538358836040686  0.3018798892470613
  0.7753454024499646  0.7585812808757879  0.8009121702446791
  0.4468335661668306  0.7520182901984285  0.3055753870451454
  0.1178442648498432  0.7526596450748357  0.8018219772673234
  0.2275923532032706  0.8645496789398663  0.5466824593399835
  0.7842644278818298  0.7609073408592693  0.3026260653980586
  0.8896408012103620  0.8698903196273164  0.0508832400976686
  0.4438287664111016  0.7643492354195018  0.7980505544683894
  0.5532950438934492  0.8735241358803520  0.5503374864970283
  0.2331905650161232  0.2206771240335144  0.3610936823829505
  0.0906010132548190  0.1072600934008463  0.1101629251472644
  0.8717367097072497  0.2122393106753009  0.8618095627323399
  0.7646888245904790  0.1155983699515630  0.6185720561955179
  0.5571018310650757  0.2078016390491513  0.3621675906670205
  0.4558275430156868  0.1050057115188494  0.1231299237637700
  0.2313655063130540  0.2140435841187625  0.8461797552913879
  0.1123164392918383  0.0931599226919673  0.5786248679371937
  0.8686735830014385  0.2025271165437701  0.3674907741328539
  0.7770656279863601  0.0936282297404816  0.1069544653760062
  0.5533847513634882  0.2041068462567992  0.8636692779296098
  0.4488161266178992  0.0926559465350891  0.6045990490217932
  0.2248366061847804  0.5386670973609640  0.3615317009254255
  0.1010366357227852  0.4476075980254492  0.1171326483704078
  0.8922587144379861  0.5388097288820859  0.8591231128395691
  0.8014663913459827  0.4171605825411291  0.6156341918733474
  0.5399423790829374  0.5409676594852399  0.3631489631068519
  0.4441290633861357  0.4281619791588938  0.1067598637397538
  0.2209798179385913  0.5378522980710940  0.8637580420301489
  0.1116127400131859  0.4309549542050348  0.6095066106132450
  0.8991049238263500  0.5484732203825544  0.3676011617871140
  0.7761825010762848  0.4303820322307885  0.0906896469427991
  0.5533737908232368  0.5390689079680584  0.8470080707984167
  0.4317699222760041  0.4145292176405349  0.6185683897239329
  0.2302889615056571  0.8494983265976899  0.3562682330183975
  0.1006418400345623  0.7509463651443369  0.1138779207012348
  0.8890464140292949  0.8714281736835190  0.8530220125776040
  0.7674867379814145  0.7515285175363076  0.6135194666800317
  0.5566048616734633  0.8703148602814323  0.3559744518357917
  0.4581859581725638  0.7368837593050088  0.1189092317275779
  0.2299065663963376  0.8559874004310828  0.8537471190367398
  0.1321031658547227  0.7481964504376748  0.6129635936422986
  0.8875111393818642  0.8748243357341323  0.3524416305484195
  0.7963352178813281  0.7514622911620847  0.1132582534513844
  0.5539223280030470  0.8742130870290055  0.8503283916606961
  0.4348559513332617  0.7815796674098081  0.6107319441800882
 
  0.00000000E+00  0.00000000E+00  0.00000000E+00
  0.00000000E+00  0.00000000E+00  0.00000000E+00
  0.00000000E+00  0.00000000E+00  0.00000000E+00
  0.00000000E+00  0.00000000E+00  0.00000000E+00
  0.00000000E+00  0.00000000E+00  0.00000000E+00
  0.00000000E+00  0.00000000E+00  0.00000000E+00
  0.00000000E+00  0.00000000E+00  0.00000000E+00
  0.00000000E+00  0.00000000E+00  0.00000000E+00
  0.00000000E+00  0.00000000E+00  0.00000000E+00
  0.00000000E+00  0.00000000E+00  0.00000000E+00
  0.00000000E+00  0.00000000E+00  0.00000000E+00
  0.00000000E+00  0.00000000E+00  0.00000000E+00
  0.00000000E+00  0.00000000E+00  0.00000000E+00
  0.00000000E+00  0.00000000E+00  0.00000000E+00
  0.00000000E+00  0.00000000E+00  0.00000000E+00
  0.00000000E+00  0.00000000E+00  0.00000000E+00
  0.00000000E+00  0.00000000E+00  0.00000000E+00
  0.00000000E+00  0.00000000E+00  0.00000000E+00
  0.00000000E+00  0.00000000E+00  0.00000000E+00
  0.00000000E+00  0.00000000E+00  0.00000000E+00
  0.00000000E+00  0.00000000E+00  0.00000000E+00
  0.00000000E+00  0.00000000E+00  0.00000000E+00
  0.00000000E+00  0.00000000E+00  0.00000000E+00
  0.00000000E+00  0.00000000E+00  0.00000000E+00
  0.00000000E+00  0.00000000E+00  0.00000000E+00
  0.00000000E+00  0.00000000E+00  0.00000000E+00
  0.00000000E+00  0.00000000E+00  0.00000000E+00
  0.00000000E+00  0.00000000E+00  0.00000000E+00
  0.00000000E+00  0.00000000E+00  0.00000000E+00
  0.00000000E+00  0.00000000E+00  0.00000000E+00
  0.00000000E+00  0.00000000E+00  0.00000000E+00
  0.00000000E+00  0.00000000E+00  0.00000000E+00
  0.00000000E+00  0.00000000E+00  0.00000000E+00
  0.00000000E+00  0.00000000E+00  0.00000000E+00
  0.00000000E+00  0.00000000E+00  0.00000000E+00
  0.00000000E+00  0.00000000E+00  0.00000000E+00
  0.00000000E+00  0.00000000E+00  0.00000000E+00
  0.00000000E+00  0.00000000E+00  0.00000000E+00
  0.00000000E+00  0.00000000E+00  0.00000000E+00
  0.00000000E+00  0.00000000E+00  0.00000000E+00
  0.00000000E+00  0.00000000E+00  0.00000000E+00
  0.00000000E+00  0.00000000E+00  0.00000000E+00
  0.00000000E+00  0.00000000E+00  0.00000000E+00
  0.00000000E+00  0.00000000E+00  0.00000000E+00
  0.00000000E+00  0.00000000E+00  0.00000000E+00
  0.00000000E+00  0.00000000E+00  0.00000000E+00
  0.00000000E+00  0.00000000E+00  0.00000000E+00
  0.00000000E+00  0.00000000E+00  0.00000000E+00
  0.00000000E+00  0.00000000E+00  0.00000000E+00
  0.00000000E+00  0.00000000E+00  0.00000000E+00
  0.00000000E+00  0.00000000E+00  0.00000000E+00
  0.00000000E+00  0.00000000E+00  0.00000000E+00
  0.00000000E+00  0.00000000E+00  0.00000000E+00
  0.00000000E+00  0.00000000E+00  0.00000000E+00
  0.00000000E+00  0.00000000E+00  0.00000000E+00
  0.00000000E+00  0.00000000E+00  0.00000000E+00
  0.00000000E+00  0.00000000E+00  0.00000000E+00
  0.00000000E+00  0.00000000E+00  0.00000000E+00
  0.00000000E+00  0.00000000E+00  0.00000000E+00
  0.00000000E+00  0.00000000E+00  0.00000000E+00
  0.00000000E+00  0.00000000E+00  0.00000000E+00
  0.00000000E+00  0.00000000E+00  0.00000000E+00
  0.00000000E+00  0.00000000E+00  0.00000000E+00
  0.00000000E+00  0.00000000E+00  0.00000000E+00
  0.00000000E+00  0.00000000E+00  0.00000000E+00
  0.00000000E+00  0.00000000E+00  0.00000000E+00
  0.00000000E+00  0.00000000E+00  0.00000000E+00
  0.00000000E+00  0.00000000E+00  0.00000000E+00
  0.00000000E+00  0.00000000E+00  0.00000000E+00
  0.00000000E+00  0.00000000E+00  0.00000000E+00
  0.00000000E+00  0.00000000E+00  0.00000000E+00
  0.00000000E+00  0.00000000E+00  0.00000000E+00
