supercell of icsd_191774.cif            
   1.00000000000000     
    10.6160219980003916    0.0068713786919547    0.0026389355308791
    -5.3020545693418271    9.1779344803276857   -0.0016133834728826
     0.0028095524594326   -0.0003623648066418   11.0688731359837469
   N    In   Sc
    36    22    14
Direct
  0.2272008231155809  0.1131674536143095  0.4450953900998229
  0.1117292435817276  0.2208785401790152  0.1904446224943044
  0.8879906435059937  0.1101299537267977  0.9358817276130438
  0.7743812905147891  0.2177990393319931  0.6958578237784323
  0.5518446546468070  0.1135996928905669  0.4371833626022905
  0.4502302231267663  0.2242678045337101  0.1883556346340853
  0.2257425866368052  0.1093480132941309  0.9370068643820559
  0.1085586422773730  0.2179854951028304  0.6974402364352628
  0.8883424234344943  0.1109207551509286  0.4441238711184354
  0.7739868925170867  0.2205972728527072  0.1936964424218033
  0.5497401096973960  0.1090131259676710  0.9400568295254530
  0.4434229587777168  0.2173822349768244  0.6893979508918378
  0.2222173545585662  0.4441115200185095  0.4429092026128529
  0.1097718094112068  0.5560433597054697  0.1922325920058086
  0.8861008102059031  0.4452116308562069  0.9442769701882696
  0.7797750112571507  0.5607649122552019  0.6865065569683679
  0.5583550223936129  0.4415027069625452  0.4364853773922732
  0.4459973357132512  0.5534538795434898  0.1955398527558430
  0.2233037275615217  0.4449408065548042  0.9430615770435935
  0.1125212346555102  0.5593124126312006  0.6944838426774851
  0.8861510737249745  0.4462821471905798  0.4446296124653983
  0.7756511743391385  0.5599602323676294  0.1895057959064204
  0.5594856190760567  0.4416698076342982  0.9467575147988398
  0.4460375639329186  0.5556594700596378  0.6919381186088103
  0.2222011585734052  0.7793332244070186  0.4417773605880839
  0.1063016989247600  0.8875498133711943  0.1834380291588005
  0.8910718030103197  0.7730955897544973  0.9392513767071335
  0.7817160225317039  0.8905309801365249  0.6962805422295446
  0.5552164791936960  0.7789376218553841  0.4422487083048239
  0.4459086454059857  0.8944258761609660  0.1852075304837868
  0.2239762384086816  0.7817227772371780  0.9382781474007515
  0.1099851699657108  0.8890494525322836  0.7015036781175681
  0.8872131882881149  0.7728029902226794  0.4371260382765385
  0.7801580882775312  0.8870485930761660  0.1931486001446743
  0.5540735965338826  0.7793500989290365  0.9454481509511226
  0.4426773429907058  0.8922290446727033  0.6983330099520586
  0.2251354132516141  0.1105503030044304  0.2472541489552498
  0.1114484648119287  0.2217535564261084  0.5014945125255892
  0.7749623528469556  0.2198543004256592  0.9974025041404175
  0.1114086425959115  0.2196403750586597  0.9953768132070380
  0.8891718107826989  0.1114330348608519  0.2487695868613145
  0.7748234634209155  0.2216384022872333  0.5000024387181341
  0.2215966162829517  0.4441277766187497  0.2481485869167201
  0.1104382233827792  0.5553433772601011  0.4993656853989350
  0.8873641128630751  0.4443364839928279  0.7481073968247784
  0.4467886314788601  0.5538894233808591  0.4964872739580457
  0.2222799133456590  0.4440507029386538  0.7485712727029536
  0.1112295129799037  0.5573020883129303  0.9973093692405470
  0.8862810655879656  0.4456938388381602  0.2483274504367330
  0.5567455347182957  0.4422716028710880  0.7489544313009375
  0.4462705641036990  0.5546685873126620  0.0001057048389157
  0.2228173061383529  0.7812515675432010  0.2456709010466724
  0.1087677845734945  0.8882712289336183  0.5024336881235243
  0.7796349032521803  0.8871945799931282  0.9972295225639343
  0.5549598662258006  0.7800262170764896  0.2468068450467769
  0.4449250969778689  0.8914081485062866  0.5009522282236532
  0.7781750310721378  0.8865725985121671  0.4999922355278201
  0.5565185695721553  0.7791407686142335  0.7502123360733393
  0.8886091640577263  0.1109980768073200  0.7466495603028349
  0.5555831396456625  0.1113587607535251  0.2454392393928302
  0.4464336885102043  0.2236940551739153  0.4967894892397027
  0.2238568376654513  0.1125398210607642  0.7464282641403202
  0.5550513672592743  0.1121234751355189  0.7485216205479048
  0.4431363223052003  0.2209469019373032  0.9968633260375697
  0.7787677315899515  0.5555622961244708  0.9980792223226231
  0.5566527504266645  0.4448382997927141  0.2451790730641079
  0.7765319057466513  0.5551067676095016  0.4957364464000804
  0.8881486292204599  0.7769778323881695  0.7492006159524180
  0.2215396217522780  0.7777104842531983  0.7485068755221889
  0.1118756296101111  0.8896255489148288  0.9922716871780253
  0.8901063258704340  0.7790357263920953  0.2456049496215371
  0.4429263453079315  0.8889846611318717  0.9946457559101134
 
  0.00000000E+00  0.00000000E+00  0.00000000E+00
  0.00000000E+00  0.00000000E+00  0.00000000E+00
  0.00000000E+00  0.00000000E+00  0.00000000E+00
  0.00000000E+00  0.00000000E+00  0.00000000E+00
  0.00000000E+00  0.00000000E+00  0.00000000E+00
  0.00000000E+00  0.00000000E+00  0.00000000E+00
  0.00000000E+00  0.00000000E+00  0.00000000E+00
  0.00000000E+00  0.00000000E+00  0.00000000E+00
  0.00000000E+00  0.00000000E+00  0.00000000E+00
  0.00000000E+00  0.00000000E+00  0.00000000E+00
  0.00000000E+00  0.00000000E+00  0.00000000E+00
  0.00000000E+00  0.00000000E+00  0.00000000E+00
  0.00000000E+00  0.00000000E+00  0.00000000E+00
  0.00000000E+00  0.00000000E+00  0.00000000E+00
  0.00000000E+00  0.00000000E+00  0.00000000E+00
  0.00000000E+00  0.00000000E+00  0.00000000E+00
  0.00000000E+00  0.00000000E+00  0.00000000E+00
  0.00000000E+00  0.00000000E+00  0.00000000E+00
  0.00000000E+00  0.00000000E+00  0.00000000E+00
  0.00000000E+00  0.00000000E+00  0.00000000E+00
  0.00000000E+00  0.00000000E+00  0.00000000E+00
  0.00000000E+00  0.00000000E+00  0.00000000E+00
  0.00000000E+00  0.00000000E+00  0.00000000E+00
  0.00000000E+00  0.00000000E+00  0.00000000E+00
  0.00000000E+00  0.00000000E+00  0.00000000E+00
  0.00000000E+00  0.00000000E+00  0.00000000E+00
  0.00000000E+00  0.00000000E+00  0.00000000E+00
  0.00000000E+00  0.00000000E+00  0.00000000E+00
  0.00000000E+00  0.00000000E+00  0.00000000E+00
  0.00000000E+00  0.00000000E+00  0.00000000E+00
  0.00000000E+00  0.00000000E+00  0.00000000E+00
  0.00000000E+00  0.00000000E+00  0.00000000E+00
  0.00000000E+00  0.00000000E+00  0.00000000E+00
  0.00000000E+00  0.00000000E+00  0.00000000E+00
  0.00000000E+00  0.00000000E+00  0.00000000E+00
  0.00000000E+00  0.00000000E+00  0.00000000E+00
  0.00000000E+00  0.00000000E+00  0.00000000E+00
  0.00000000E+00  0.00000000E+00  0.00000000E+00
  0.00000000E+00  0.00000000E+00  0.00000000E+00
  0.00000000E+00  0.00000000E+00  0.00000000E+00
  0.00000000E+00  0.00000000E+00  0.00000000E+00
  0.00000000E+00  0.00000000E+00  0.00000000E+00
  0.00000000E+00  0.00000000E+00  0.00000000E+00
  0.00000000E+00  0.00000000E+00  0.00000000E+00
  0.00000000E+00  0.00000000E+00  0.00000000E+00
  0.00000000E+00  0.00000000E+00  0.00000000E+00
  0.00000000E+00  0.00000000E+00  0.00000000E+00
  0.00000000E+00  0.00000000E+00  0.00000000E+00
  0.00000000E+00  0.00000000E+00  0.00000000E+00
  0.00000000E+00  0.00000000E+00  0.00000000E+00
  0.00000000E+00  0.00000000E+00  0.00000000E+00
  0.00000000E+00  0.00000000E+00  0.00000000E+00
  0.00000000E+00  0.00000000E+00  0.00000000E+00
  0.00000000E+00  0.00000000E+00  0.00000000E+00
  0.00000000E+00  0.00000000E+00  0.00000000E+00
  0.00000000E+00  0.00000000E+00  0.00000000E+00
  0.00000000E+00  0.00000000E+00  0.00000000E+00
  0.00000000E+00  0.00000000E+00  0.00000000E+00
  0.00000000E+00  0.00000000E+00  0.00000000E+00
  0.00000000E+00  0.00000000E+00  0.00000000E+00
  0.00000000E+00  0.00000000E+00  0.00000000E+00
  0.00000000E+00  0.00000000E+00  0.00000000E+00
  0.00000000E+00  0.00000000E+00  0.00000000E+00
  0.00000000E+00  0.00000000E+00  0.00000000E+00
  0.00000000E+00  0.00000000E+00  0.00000000E+00
  0.00000000E+00  0.00000000E+00  0.00000000E+00
  0.00000000E+00  0.00000000E+00  0.00000000E+00
  0.00000000E+00  0.00000000E+00  0.00000000E+00
  0.00000000E+00  0.00000000E+00  0.00000000E+00
  0.00000000E+00  0.00000000E+00  0.00000000E+00
  0.00000000E+00  0.00000000E+00  0.00000000E+00
  0.00000000E+00  0.00000000E+00  0.00000000E+00
