supercell of POSCAR                     
   1.01800000000000     
     3.1310994802600001   -5.4896946145000003   10.0244832682999991
    -9.4821132118399998   -5.5089477087900001    0.0170740616273000
     6.3359946057599998  -11.0114127993000004  -10.0652216442999993
   Al   Gd   N 
    83    12    96
Direct
  0.0900901627617827  0.5850457203565114  0.3350350710887611
  0.5020884691156340  0.3225459215679507  0.2562209503763597
  0.2546595669575851  0.5836908764772772  0.4954841874876763
  0.3311093324053616  0.3183335539488681  0.0774454569103966
  0.3971202522071309  0.0862868784602924  0.1812033649294449
  0.0086364027083334  0.8449462791261695  0.2565270703810754
  0.1715129596906166  0.3338391291581786  0.4137459778926527
  0.2455091577827417  0.0904185738929613  0.4964445550093117
  0.1625270798215581  0.8398681967987685  0.4147017241717208
  0.3389016414013213  0.6748105494199308  0.3404755063813667
  0.1551062216616899  0.6750142984782812  0.1655236761354431
  0.2511895522039609  0.4011076726850860  0.2520563776237026
  0.3357662240875641  0.1647768719292344  0.3347161662040463
  0.0091472980387763  0.6728180866039040  0.4940660978100055
  0.1648818554152172  0.1593357216891960  0.1699368220212421
  0.2524181410995396  0.9205896174010704  0.2559356236539259
  0.4128388709640731  0.4159384121515828  0.4161627372956360
  0.4991839944408270  0.1604646567122501  0.4969926871632921
  0.0821033163331393  0.9241139937226421  0.0800962928485447
  0.4208909952961051  0.9206809257907338  0.4113268470457001
  0.0884954500398152  0.5849916828002932  0.8339203243572086
  0.4988381772506330  0.3227530289091831  0.7555950010860570
  0.0842640936058743  0.0850664629836047  0.8339038367522775
  0.2502735016717352  0.5786484223122272  0.9945043713058155
  0.3324884540077520  0.3173509195260635  0.5779157411824372
  0.4179700886414892  0.0870018824122738  0.6725605152570537
  0.0062785263160237  0.8429353793633112  0.7545169675897228
  0.1664901052092134  0.3322160226127053  0.9116617905283135
  0.2454623696598262  0.0880119112718347  0.9949831800929161
  0.1605833116228226  0.8371664873763152  0.9160207795043434
  0.3356622482927492  0.6731561738794269  0.8398387533124705
  0.1563854565604004  0.6743886753448933  0.6644506964234154
  0.2496259993312719  0.4020786674668457  0.7508760910552397
  0.3332784870007899  0.1638280007008177  0.8340834992942874
  0.0055946394876329  0.6728042773760308  0.9941820324426729
  0.1669469477309207  0.1578292821923526  0.6685833801831080
  0.2516285007874473  0.9197184668990914  0.7560399725574172
  0.4113990515446346  0.4146388569718837  0.9151289764700223
  0.4959885567191336  0.1602072848651162  0.9994964769878791
  0.0825827568029993  0.9242557779655414  0.5794851907852845
  0.4191503077976151  0.9195809892946727  0.9117398601059534
  0.5916211709993462  0.5846302914532515  0.3351427024265519
  0.0006266427433346  0.3189820312854721  0.2564508185284993
  0.5884676811134213  0.0848549040677256  0.3352619186343873
  0.7528323122493816  0.5790891203362776  0.4948638174716180
  0.8306310263142791  0.3176645912153546  0.0789689677327772
  0.9164062591427324  0.0876262234828573  0.1730170706903493
  0.5098561182409682  0.8415654483285877  0.2550406112423289
  0.6685906306981266  0.3322994955991447  0.4124621432397291
  0.7500315709499716  0.0872242543018942  0.4954969831025196
  0.6643617198532397  0.8372666504248798  0.4155982612172622
  0.8396313739736811  0.6740182985308536  0.3397408158908988
  0.6550123049126810  0.6749365771729643  0.1656863472631045
  0.7533081240839010  0.4012351180291631  0.2513256097110315
  0.8386416867723128  0.1630015305160981  0.3323910837078401
  0.5082608822130439  0.6743752521459925  0.4945356972134647
  0.6639931283872613  0.1571202611420972  0.1704154339263297
  0.7546955428449351  0.9198149583331201  0.2565048638646488
  0.9129802064988439  0.4140180868044325  0.4144877839672034
  0.0007545756812775  0.1629607996641553  0.4949927809903230
  0.5800443834766398  0.9258294075189752  0.0816575356085636
  0.9279041991478536  0.9216217579593646  0.4101244966480735
  0.5879961199833375  0.5848108913412347  0.8345090267724729
  0.9989041572764563  0.3222661637557707  0.7542715462480274
  0.5847448253729510  0.0851807307661119  0.8354404726224942
  0.7503452083538136  0.5788181070482992  0.9942882647186764
  0.8293774922508135  0.3181416237407930  0.5785274463261985
  0.9164852987074354  0.0866371900843532  0.6711164975390247
  0.5067739382467380  0.8428390048988561  0.7552321164746445
  0.6661581345260288  0.3319276019859458  0.9126686794497587
  0.7448599580256285  0.0876897930013527  0.9963789667322587
  0.6603473034930687  0.8366071140810689  0.9170125363687376
  0.8355761515748910  0.6725776322253196  0.8391341622197928
  0.6569263948052182  0.6746435266764408  0.6658595144279360
  0.7493565076032169  0.4022233115166927  0.7521868464592387
  0.8329630005466555  0.1639856406145199  0.8343204078721911
  0.5057299332069860  0.6726053942814332  0.9948879842422045
  0.6664743421507424  0.1584137543947577  0.6699065985683248
  0.7516406000715463  0.9197760975373228  0.7562830225800354
  0.9112214071273570  0.4140894072070083  0.9151832857520219
  0.9967549578299355  0.1603876634487875  0.9970161434048421
  0.5838893881455860  0.9239018426531302  0.5795736821916435
  0.9186785715355938  0.9192692149788684  0.9116541611136952
  0.3978415108086111  0.5802037326566207  0.1793689049642353
  0.3302747779704021  0.8366089112568531  0.0820508494802041
  0.0800702506949520  0.4166757504856804  0.0849710691933510
  0.3988585492644532  0.5809985086116711  0.6772501696389952
  0.3329825480187694  0.8431876241007785  0.5827528629470677
  0.0844305002474712  0.4093547127315418  0.5786569544751643
  0.8977017953934165  0.5823747973642952  0.1762759039390289
  0.8297787341993370  0.8390573135015416  0.0829102515981575
  0.5810640914708642  0.4175180122037574  0.0855154792410602
  0.9026273107824991  0.5772973120679055  0.6760772099689731
  0.8321180349552151  0.8384340816833884  0.5828232653277396
  0.5806827574413660  0.4183225141096827  0.5852286327328287
  0.2204205976091984  0.5818414643254712  0.2664362554146464
  0.0349323206365426  0.6096308295784496  0.0991071273779838
  0.1303139166019207  0.3192197284172806  0.2001125568085911
  0.2465597685054703  0.0847537215027927  0.2552774259776101
  0.3851380145500656  0.5860355857164024  0.4377716870978148
  0.4480521116939684  0.3198640101046877  0.0094472449970553
  0.0383666383539918  0.0852140323019697  0.1025221582543736
  0.1325566802027396  0.8419659954769330  0.1842246978813762
  0.2980937844772669  0.3313601347713515  0.3524068500196833
  0.3771422724750195  0.0803461557398393  0.4364620170676545
  0.4754124733879763  0.8371002746451808  0.0074717879936870
  0.2954317929575225  0.8354272401961111  0.3568162570385383
  0.4741663821353157  0.6834508305240234  0.2874250041195410
  0.2643016968612102  0.6545395044018463  0.0944618556163732
  0.3760334487421417  0.3819867587448726  0.1847053775405030
  0.4677051316148919  0.1651292187549984  0.2778032340039545
  0.1369786103197654  0.6650284221958742  0.4335995425327610
  0.2226543702122541  0.4125589828916389  0.0081699403030555
  0.2856615314727122  0.1609350504645590  0.0971834141206571
  0.3872881540645992  0.9173551688689301  0.2002735519013683
  0.0446269916039270  0.4200718477431025  0.3531570790897192
  0.1347470879478649  0.1922675865490149  0.4566776023922827
  0.1941167929290231  0.9329869024395236  0.0089911496962998
  0.0490273198994871  0.9108933186969068  0.3533344852000511
  0.2180283831583125  0.5810621509885294  0.7663860634590378
  0.0388596418481768  0.6035334935362613  0.5991243758998905
  0.1290271681921311  0.3172392921334506  0.6993418430004539
  0.2109699256027184  0.0822363360606531  0.7725328845997907
  0.3809967942789001  0.5835399105468255  0.9369271655787301
  0.4498631261502126  0.3179969602090438  0.5106470981191151
  0.0388256716291480  0.0843299452863349  0.6057161977722600
  0.1311705475306866  0.8413398782484478  0.6865413462990588
  0.2947902184108884  0.3296450162650189  0.8514940729654441
  0.3753755417628852  0.0800519341172290  0.9344529548447653
  0.4772098884520233  0.8384046793818172  0.5081941147382665
  0.2915907277803385  0.8345449022890108  0.8565153523572846
  0.4702299146284261  0.6847914470480276  0.7867001079914004
  0.2675840028645240  0.6627518389672389  0.5955790566959962
  0.3744607786793424  0.3833186853377484  0.6855620591823239
  0.4616183479439897  0.1631832614514579  0.7751251247064275
  0.1332197138489732  0.6657416796928075  0.9322037057155583
  0.2329586953569702  0.4200848204393282  0.5102958746619066
  0.2939157989257168  0.1562622225253065  0.6059433366323006
  0.3843666518751974  0.9283243853775573  0.7039833352366713
  0.0414033575584227  0.4197794072129639  0.8510488246666768
  0.1242224190030257  0.1713689867342509  0.9330778232159673
  0.1958959376300839  0.9338250382799202  0.5108716128469126
  0.0469832664107344  0.9236160834966611  0.8520274057063730
  0.7188353991917964  0.5816028347923421  0.2660985026414622
  0.5329489299888905  0.6100824090231924  0.1006274414536819
  0.6314240876493642  0.3179990664221677  0.2003742969808542
  0.7118250777732058  0.0806950236920159  0.2728630179485165
  0.8829742942460825  0.5837370783538134  0.4376015428817581
  0.9466713815094678  0.3181180619275352  0.0094441254552891
  0.5353856149924567  0.0858958509141701  0.1055863745203780
  0.6339801878382616  0.8418251657944893  0.1858791510418598
  0.7951607135174115  0.3310319213977309  0.3525749792271498
  0.8775938571578550  0.0802059196990683  0.4358365903464190
  0.9748286672319111  0.8372086812228900  0.0074269363544559
  0.7940372102296251  0.8346225888694363  0.3568830197257427
  0.9719009371749650  0.6805413649536760  0.2849166732860837
  0.7620101006532849  0.6577973855596895  0.0930751765589406
  0.8749908703552194  0.3879741760136923  0.1826714137226375
  0.9492294750762227  0.1699826468271084  0.2665262755353197
  0.6361389815713565  0.6661767511276793  0.4338936423987505
  0.7228021107831211  0.4123936580210454  0.0087882264512587
  0.7862665000385860  0.1573793099912919  0.1006226021188681
  0.8840461505717343  0.9255892735077822  0.2008426803948069
  0.5436073497085090  0.4204465934864245  0.3528497561704214
  0.6281314092112851  0.1709737242105192  0.4361676112640041
  0.6929655461280291  0.9329558009108609  0.0100530237129561
  0.5496008870001745  0.9234328230470439  0.3527889703271185
  0.7169421684682362  0.5808050462642953  0.7668283205410376
  0.5355308238406735  0.6113450483227680  0.6007841430792382
  0.6290445679214400  0.3167827292206127  0.7008720389074199
  0.7109146932124304  0.0821579005631250  0.7729590357225717
  0.8809799900583286  0.5831588441358662  0.9365329886837230
  0.9414902521677035  0.3191114248010933  0.5101561417774434
  0.5406962638406512  0.0846434027369440  0.6049104480161915
  0.6317666775732818  0.8419339590931543  0.6862786858424812
  0.7942706715043641  0.3293269963029601  0.8523262303930963
  0.8745901586483171  0.0797148612143630  0.9347545296885755
  0.9760598141213563  0.8362555798805147  0.5105901875277041
  0.7912581339343205  0.8339969200944068  0.8566196497767677
  0.9698696690458135  0.6842203015215418  0.7856245788857450
  0.7669459591927534  0.6557651801700004  0.5959191127982635
  0.8716847198666713  0.3816194638465049  0.6860875880963277
  0.9601408935713991  0.1630095561898628  0.7741883162400569
  0.6328310050161789  0.6651438266755036  0.9326459662373594
  0.7215541722142191  0.4134455925339608  0.5103373950243437
  0.7887304651808762  0.1567957880689335  0.6032232046662500
  0.8829627122894266  0.9277572643864573  0.7028628207860237
  0.5416345597579380  0.4198811847406176  0.8518223716879376
  0.6242976949687247  0.1712787464527494  0.9347246556177495
  0.6963119171149614  0.9326643658502007  0.5101743573671556
  0.5478710172367016  0.9235731225922734  0.8525416178041922
 
  0.00000000E+00  0.00000000E+00  0.00000000E+00
  0.00000000E+00  0.00000000E+00  0.00000000E+00
  0.00000000E+00  0.00000000E+00  0.00000000E+00
  0.00000000E+00  0.00000000E+00  0.00000000E+00
  0.00000000E+00  0.00000000E+00  0.00000000E+00
  0.00000000E+00  0.00000000E+00  0.00000000E+00
  0.00000000E+00  0.00000000E+00  0.00000000E+00
  0.00000000E+00  0.00000000E+00  0.00000000E+00
  0.00000000E+00  0.00000000E+00  0.00000000E+00
  0.00000000E+00  0.00000000E+00  0.00000000E+00
  0.00000000E+00  0.00000000E+00  0.00000000E+00
  0.00000000E+00  0.00000000E+00  0.00000000E+00
  0.00000000E+00  0.00000000E+00  0.00000000E+00
  0.00000000E+00  0.00000000E+00  0.00000000E+00
  0.00000000E+00  0.00000000E+00  0.00000000E+00
  0.00000000E+00  0.00000000E+00  0.00000000E+00
  0.00000000E+00  0.00000000E+00  0.00000000E+00
  0.00000000E+00  0.00000000E+00  0.00000000E+00
  0.00000000E+00  0.00000000E+00  0.00000000E+00
  0.00000000E+00  0.00000000E+00  0.00000000E+00
  0.00000000E+00  0.00000000E+00  0.00000000E+00
  0.00000000E+00  0.00000000E+00  0.00000000E+00
  0.00000000E+00  0.00000000E+00  0.00000000E+00
  0.00000000E+00  0.00000000E+00  0.00000000E+00
  0.00000000E+00  0.00000000E+00  0.00000000E+00
  0.00000000E+00  0.00000000E+00  0.00000000E+00
  0.00000000E+00  0.00000000E+00  0.00000000E+00
  0.00000000E+00  0.00000000E+00  0.00000000E+00
  0.00000000E+00  0.00000000E+00  0.00000000E+00
  0.00000000E+00  0.00000000E+00  0.00000000E+00
  0.00000000E+00  0.00000000E+00  0.00000000E+00
  0.00000000E+00  0.00000000E+00  0.00000000E+00
  0.00000000E+00  0.00000000E+00  0.00000000E+00
  0.00000000E+00  0.00000000E+00  0.00000000E+00
  0.00000000E+00  0.00000000E+00  0.00000000E+00
  0.00000000E+00  0.00000000E+00  0.00000000E+00
  0.00000000E+00  0.00000000E+00  0.00000000E+00
  0.00000000E+00  0.00000000E+00  0.00000000E+00
  0.00000000E+00  0.00000000E+00  0.00000000E+00
  0.00000000E+00  0.00000000E+00  0.00000000E+00
  0.00000000E+00  0.00000000E+00  0.00000000E+00
  0.00000000E+00  0.00000000E+00  0.00000000E+00
  0.00000000E+00  0.00000000E+00  0.00000000E+00
  0.00000000E+00  0.00000000E+00  0.00000000E+00
  0.00000000E+00  0.00000000E+00  0.00000000E+00
  0.00000000E+00  0.00000000E+00  0.00000000E+00
  0.00000000E+00  0.00000000E+00  0.00000000E+00
  0.00000000E+00  0.00000000E+00  0.00000000E+00
  0.00000000E+00  0.00000000E+00  0.00000000E+00
  0.00000000E+00  0.00000000E+00  0.00000000E+00
  0.00000000E+00  0.00000000E+00  0.00000000E+00
  0.00000000E+00  0.00000000E+00  0.00000000E+00
  0.00000000E+00  0.00000000E+00  0.00000000E+00
  0.00000000E+00  0.00000000E+00  0.00000000E+00
  0.00000000E+00  0.00000000E+00  0.00000000E+00
  0.00000000E+00  0.00000000E+00  0.00000000E+00
  0.00000000E+00  0.00000000E+00  0.00000000E+00
  0.00000000E+00  0.00000000E+00  0.00000000E+00
  0.00000000E+00  0.00000000E+00  0.00000000E+00
  0.00000000E+00  0.00000000E+00  0.00000000E+00
  0.00000000E+00  0.00000000E+00  0.00000000E+00
  0.00000000E+00  0.00000000E+00  0.00000000E+00
  0.00000000E+00  0.00000000E+00  0.00000000E+00
  0.00000000E+00  0.00000000E+00  0.00000000E+00
  0.00000000E+00  0.00000000E+00  0.00000000E+00
  0.00000000E+00  0.00000000E+00  0.00000000E+00
  0.00000000E+00  0.00000000E+00  0.00000000E+00
  0.00000000E+00  0.00000000E+00  0.00000000E+00
  0.00000000E+00  0.00000000E+00  0.00000000E+00
  0.00000000E+00  0.00000000E+00  0.00000000E+00
  0.00000000E+00  0.00000000E+00  0.00000000E+00
  0.00000000E+00  0.00000000E+00  0.00000000E+00
  0.00000000E+00  0.00000000E+00  0.00000000E+00
  0.00000000E+00  0.00000000E+00  0.00000000E+00
  0.00000000E+00  0.00000000E+00  0.00000000E+00
  0.00000000E+00  0.00000000E+00  0.00000000E+00
  0.00000000E+00  0.00000000E+00  0.00000000E+00
  0.00000000E+00  0.00000000E+00  0.00000000E+00
  0.00000000E+00  0.00000000E+00  0.00000000E+00
  0.00000000E+00  0.00000000E+00  0.00000000E+00
  0.00000000E+00  0.00000000E+00  0.00000000E+00
  0.00000000E+00  0.00000000E+00  0.00000000E+00
  0.00000000E+00  0.00000000E+00  0.00000000E+00
  0.00000000E+00  0.00000000E+00  0.00000000E+00
  0.00000000E+00  0.00000000E+00  0.00000000E+00
  0.00000000E+00  0.00000000E+00  0.00000000E+00
  0.00000000E+00  0.00000000E+00  0.00000000E+00
  0.00000000E+00  0.00000000E+00  0.00000000E+00
  0.00000000E+00  0.00000000E+00  0.00000000E+00
  0.00000000E+00  0.00000000E+00  0.00000000E+00
  0.00000000E+00  0.00000000E+00  0.00000000E+00
  0.00000000E+00  0.00000000E+00  0.00000000E+00
  0.00000000E+00  0.00000000E+00  0.00000000E+00
  0.00000000E+00  0.00000000E+00  0.00000000E+00
  0.00000000E+00  0.00000000E+00  0.00000000E+00
  0.00000000E+00  0.00000000E+00  0.00000000E+00
  0.00000000E+00  0.00000000E+00  0.00000000E+00
  0.00000000E+00  0.00000000E+00  0.00000000E+00
  0.00000000E+00  0.00000000E+00  0.00000000E+00
  0.00000000E+00  0.00000000E+00  0.00000000E+00
  0.00000000E+00  0.00000000E+00  0.00000000E+00
  0.00000000E+00  0.00000000E+00  0.00000000E+00
  0.00000000E+00  0.00000000E+00  0.00000000E+00
  0.00000000E+00  0.00000000E+00  0.00000000E+00
  0.00000000E+00  0.00000000E+00  0.00000000E+00
  0.00000000E+00  0.00000000E+00  0.00000000E+00
  0.00000000E+00  0.00000000E+00  0.00000000E+00
  0.00000000E+00  0.00000000E+00  0.00000000E+00
  0.00000000E+00  0.00000000E+00  0.00000000E+00
  0.00000000E+00  0.00000000E+00  0.00000000E+00
  0.00000000E+00  0.00000000E+00  0.00000000E+00
  0.00000000E+00  0.00000000E+00  0.00000000E+00
  0.00000000E+00  0.00000000E+00  0.00000000E+00
  0.00000000E+00  0.00000000E+00  0.00000000E+00
  0.00000000E+00  0.00000000E+00  0.00000000E+00
  0.00000000E+00  0.00000000E+00  0.00000000E+00
  0.00000000E+00  0.00000000E+00  0.00000000E+00
  0.00000000E+00  0.00000000E+00  0.00000000E+00
  0.00000000E+00  0.00000000E+00  0.00000000E+00
  0.00000000E+00  0.00000000E+00  0.00000000E+00
  0.00000000E+00  0.00000000E+00  0.00000000E+00
  0.00000000E+00  0.00000000E+00  0.00000000E+00
  0.00000000E+00  0.00000000E+00  0.00000000E+00
  0.00000000E+00  0.00000000E+00  0.00000000E+00
  0.00000000E+00  0.00000000E+00  0.00000000E+00
  0.00000000E+00  0.00000000E+00  0.00000000E+00
  0.00000000E+00  0.00000000E+00  0.00000000E+00
  0.00000000E+00  0.00000000E+00  0.00000000E+00
  0.00000000E+00  0.00000000E+00  0.00000000E+00
  0.00000000E+00  0.00000000E+00  0.00000000E+00
  0.00000000E+00  0.00000000E+00  0.00000000E+00
  0.00000000E+00  0.00000000E+00  0.00000000E+00
  0.00000000E+00  0.00000000E+00  0.00000000E+00
  0.00000000E+00  0.00000000E+00  0.00000000E+00
  0.00000000E+00  0.00000000E+00  0.00000000E+00
  0.00000000E+00  0.00000000E+00  0.00000000E+00
  0.00000000E+00  0.00000000E+00  0.00000000E+00
  0.00000000E+00  0.00000000E+00  0.00000000E+00
  0.00000000E+00  0.00000000E+00  0.00000000E+00
  0.00000000E+00  0.00000000E+00  0.00000000E+00
  0.00000000E+00  0.00000000E+00  0.00000000E+00
  0.00000000E+00  0.00000000E+00  0.00000000E+00
  0.00000000E+00  0.00000000E+00  0.00000000E+00
  0.00000000E+00  0.00000000E+00  0.00000000E+00
  0.00000000E+00  0.00000000E+00  0.00000000E+00
  0.00000000E+00  0.00000000E+00  0.00000000E+00
  0.00000000E+00  0.00000000E+00  0.00000000E+00
  0.00000000E+00  0.00000000E+00  0.00000000E+00
  0.00000000E+00  0.00000000E+00  0.00000000E+00
  0.00000000E+00  0.00000000E+00  0.00000000E+00
  0.00000000E+00  0.00000000E+00  0.00000000E+00
  0.00000000E+00  0.00000000E+00  0.00000000E+00
  0.00000000E+00  0.00000000E+00  0.00000000E+00
  0.00000000E+00  0.00000000E+00  0.00000000E+00
  0.00000000E+00  0.00000000E+00  0.00000000E+00
  0.00000000E+00  0.00000000E+00  0.00000000E+00
  0.00000000E+00  0.00000000E+00  0.00000000E+00
  0.00000000E+00  0.00000000E+00  0.00000000E+00
  0.00000000E+00  0.00000000E+00  0.00000000E+00
  0.00000000E+00  0.00000000E+00  0.00000000E+00
  0.00000000E+00  0.00000000E+00  0.00000000E+00
  0.00000000E+00  0.00000000E+00  0.00000000E+00
  0.00000000E+00  0.00000000E+00  0.00000000E+00
  0.00000000E+00  0.00000000E+00  0.00000000E+00
  0.00000000E+00  0.00000000E+00  0.00000000E+00
  0.00000000E+00  0.00000000E+00  0.00000000E+00
  0.00000000E+00  0.00000000E+00  0.00000000E+00
  0.00000000E+00  0.00000000E+00  0.00000000E+00
  0.00000000E+00  0.00000000E+00  0.00000000E+00
  0.00000000E+00  0.00000000E+00  0.00000000E+00
  0.00000000E+00  0.00000000E+00  0.00000000E+00
  0.00000000E+00  0.00000000E+00  0.00000000E+00
  0.00000000E+00  0.00000000E+00  0.00000000E+00
  0.00000000E+00  0.00000000E+00  0.00000000E+00
  0.00000000E+00  0.00000000E+00  0.00000000E+00
  0.00000000E+00  0.00000000E+00  0.00000000E+00
  0.00000000E+00  0.00000000E+00  0.00000000E+00
  0.00000000E+00  0.00000000E+00  0.00000000E+00
  0.00000000E+00  0.00000000E+00  0.00000000E+00
  0.00000000E+00  0.00000000E+00  0.00000000E+00
  0.00000000E+00  0.00000000E+00  0.00000000E+00
  0.00000000E+00  0.00000000E+00  0.00000000E+00
  0.00000000E+00  0.00000000E+00  0.00000000E+00
  0.00000000E+00  0.00000000E+00  0.00000000E+00
  0.00000000E+00  0.00000000E+00  0.00000000E+00
  0.00000000E+00  0.00000000E+00  0.00000000E+00
  0.00000000E+00  0.00000000E+00  0.00000000E+00
  0.00000000E+00  0.00000000E+00  0.00000000E+00
  0.00000000E+00  0.00000000E+00  0.00000000E+00
  0.00000000E+00  0.00000000E+00  0.00000000E+00
  0.00000000E+00  0.00000000E+00  0.00000000E+00
