Al   Hf   Mg   N                        
   1.00000000000000     
    -9.8297149196040596   -0.0087438731497112    0.0053647315772036
    -4.9043101244003218    8.5087705845889055    0.0002851422539485
    -0.0033065363475110    0.0133598313880352   -9.4525152990975272
   Al   Hf   Mg   N 
    30     3     3    36
Direct
  0.1176324153930449  0.0881973738532990  0.3781520574431418
  0.2174723990699187  0.2110443341979754  0.1279401400814551
  0.8952461185814722  0.2087932730538788  0.6227562055631739
  0.4396110973706647  0.0982505667422410  0.3844343298866341
  0.5501364997944603  0.2105322691402909  0.1338456616685511
  0.1162603026158935  0.0941608280802276  0.8793351881115044
  0.2175574972166146  0.2080338956574987  0.6269150691276635
  0.7777186453392404  0.0885792868823843  0.3845120595790427
  0.8963918342215033  0.1957049436902935  0.1269710723422804
  0.4358515224017536  0.1009485167194182  0.8668092017617395
  0.5454705207599271  0.2140783085478805  0.6184168062306493
  0.1142390344639011  0.4286839096668137  0.3826267043332606
  0.2220865446877971  0.5363609312390982  0.1251122191285886
  0.7811811574317334  0.4296313220627815  0.8862891990262419
  0.8932996193536969  0.5341656156418567  0.6322110919504289
  0.4398863080376154  0.4325557458883204  0.3774354375615752
  0.1152040148224303  0.4268254104795660  0.8750053228552515
  0.9027992373470994  0.5370677494200108  0.1196761064881765
  0.4356973510146835  0.4303243846657878  0.8817454367255770
  0.5552246209286377  0.5350480953059390  0.6315786800796757
  0.1131251894029135  0.7616499479804898  0.3774989549091072
  0.2181470893708860  0.8734053371585743  0.1275586413037488
  0.7849291426663220  0.7537471692006904  0.8665140662762081
  0.8990906313179222  0.8619835979306570  0.6218738088853270
  0.4364766300447034  0.7630050650181667  0.3902986879843617
  0.1165448719249461  0.7551777063848701  0.8805356762529669
  0.2159306413132754  0.8740882422572770  0.6290579695069864
  0.7825585098655398  0.7617663324856172  0.3866926803682328
  0.8947344311579467  0.8684170383708724  0.1320867009491183
  0.4382010214188520  0.7629110361274749  0.8629857604219012
  0.7760271732745082  0.0944162899961335  0.8568758640387434
  0.7750143288377019  0.4317886006863690  0.3545584608786224
  0.5553039395991235  0.8725706200836972  0.1087735215014920
  0.5454826492410284  0.5417124793233221  0.1092589782160317
  0.2226196752654492  0.5403244052199477  0.6216425031116956
  0.5563575992591225  0.8726212578401461  0.6216155828937863
  0.2202801822230362  0.2063957612681704  0.3293393281660650
  0.1117950422919011  0.0939755952584292  0.0811378591944538
  0.8982581199639210  0.2150162552906306  0.8287194640075655
  0.7783517637038254  0.0939914983945438  0.5939156852688896
  0.5577253998059984  0.2030687007967487  0.3360374621719663
  0.4335829688032989  0.1127184202157881  0.0765470594600965
  0.2192667050520898  0.2058591178842232  0.8297118901497448
  0.1123847897848755  0.0938393991814258  0.5789386893394194
  0.8971612270468785  0.1850724888665601  0.3315943080476512
  0.7761592865305360  0.0927448574157590  0.0820981918619022
  0.5370349578067520  0.2158785052939259  0.8235454864701052
  0.4333335160296295  0.1097792791506157  0.5826013041100038
  0.2206890585339468  0.5395639504773885  0.3312994792546605
  0.1147895529041064  0.4248684032380835  0.0776686956120623
  0.8909234989348845  0.5345604267028877  0.8350067745245510
  0.7778715555988164  0.4293502718377053  0.5809175797084061
  0.5373196454560211  0.5524647323491571  0.3325089288046011
  0.4367170030500828  0.4183884947514215  0.0815721621694910
  0.2209074557810428  0.5406431104018143  0.8417131748690722
  0.1027901450613415  0.4201679404328589  0.5804182113566214
  0.8984704074676624  0.5507544763950778  0.3232370524242793
  0.7951453344555907  0.4184450960324815  0.0940440794754068
  0.5598593359595039  0.5331749005585826  0.8388990089879526
  0.4584128173736998  0.4232249564450525  0.5758050042109486
  0.2236999793503653  0.8728769676092493  0.3289898752749471
  0.1098641941728711  0.7626946627545440  0.0845315220898194
  0.9011201272271755  0.8546563064223639  0.8257578060415736
  0.7943221173441820  0.7499687222973546  0.5855726460402394
  0.5558869786402645  0.8709266968137390  0.3406205319038638
  0.4237008147710434  0.7721474945380107  0.0659286835773552
  0.2139937654286452  0.8768262076787449  0.8301805530223094
  0.1060508629064649  0.7755434248495267  0.5741163452845721
  0.8869628374629619  0.8734455017511846  0.3334757540542373
  0.7987853197609962  0.7522282210737757  0.0721401744255000
  0.5585485915067991  0.8740209571914253  0.8503474088197158
  0.4351958824995091  0.7543024488225742  0.5930024589208309
 
             NaN             NaN             NaN
             NaN             NaN             NaN
             NaN             NaN             NaN
             NaN             NaN             NaN
             NaN             NaN             NaN
             NaN             NaN             NaN
             NaN             NaN             NaN
             NaN             NaN             NaN
             NaN             NaN             NaN
             NaN             NaN             NaN
             NaN             NaN             NaN
             NaN             NaN             NaN
             NaN             NaN             NaN
             NaN             NaN             NaN
             NaN             NaN             NaN
             NaN             NaN             NaN
             NaN             NaN             NaN
             NaN             NaN             NaN
             NaN             NaN             NaN
             NaN             NaN             NaN
             NaN             NaN             NaN
             NaN             NaN             NaN
             NaN             NaN             NaN
             NaN             NaN             NaN
             NaN             NaN             NaN
             NaN             NaN             NaN
             NaN             NaN             NaN
             NaN             NaN             NaN
             NaN             NaN             NaN
             NaN             NaN             NaN
             NaN             NaN             NaN
             NaN             NaN             NaN
             NaN             NaN             NaN
             NaN             NaN             NaN
             NaN             NaN             NaN
             NaN             NaN             NaN
             NaN             NaN             NaN
             NaN             NaN             NaN
             NaN             NaN             NaN
             NaN             NaN             NaN
             NaN             NaN             NaN
             NaN             NaN             NaN
             NaN             NaN             NaN
             NaN             NaN             NaN
             NaN             NaN             NaN
             NaN             NaN             NaN
             NaN             NaN             NaN
             NaN             NaN             NaN
             NaN             NaN             NaN
             NaN             NaN             NaN
             NaN             NaN             NaN
             NaN             NaN             NaN
             NaN             NaN             NaN
             NaN             NaN             NaN
             NaN             NaN             NaN
             NaN             NaN             NaN
             NaN             NaN             NaN
             NaN             NaN             NaN
             NaN             NaN             NaN
             NaN             NaN             NaN
             NaN             NaN             NaN
             NaN             NaN             NaN
             NaN             NaN             NaN
             NaN             NaN             NaN
             NaN             NaN             NaN
             NaN             NaN             NaN
             NaN             NaN             NaN
             NaN             NaN             NaN
             NaN             NaN             NaN
             NaN             NaN             NaN
             NaN             NaN             NaN
             NaN             NaN             NaN
