supercell of POSCAR                     
   1.03600000000000     
     9.6051007291200001   -5.6678653607799996   -9.9907275475200006
     9.5551777488200003    5.5783510108199996    9.9928581731800001
    -1.5573508785200001   -8.3719044994900003    4.9655686364999996
   Al   Gd   N 
    71    24    96
Direct
  0.2978163839125969  0.2911193293478291  0.5408915272780987
  0.1431594325196386  0.2433288035717140  0.3143769064937132
  0.3090334654041342  0.4089747301683175  0.3138207861193862
  0.4603395682149340  0.3254229828485151  0.7909010700760177
  0.1423737308222073  0.4975234064225447  0.7841888347139587
  0.2960315599778625  0.1668353388360586  0.7840557549163449
  0.4667876511468450  0.4441856949411971  0.5304925573298291
  0.1435164849292860  0.1189705775796881  0.5397908273169776
  0.4762629823880857  0.0668154262582092  0.2924952623431096
  0.2721391542385021  0.1024334493113912  0.3326548431913707
  0.1088580469905835  0.0683298586410857  0.1022126600727589
  0.1157648271478919  0.1949079707945600  0.8185825102777784
  0.2740083002798244  0.3556584416173010  0.8155714012856379
  0.1098317459279983  0.3243386407618658  0.5915520334518192
  0.2725973446610013  0.4830384441956994  0.5745025530518149
  0.1120595978052918  0.4447991112630234  0.3398213617243684
  0.4484346655004572  0.4062152316192780  0.1062107506100105
  0.8008777224364039  0.2887346723216879  0.5388730948792571
  0.6426035192393158  0.2465991391516482  0.3138600815988966
  0.8077168632913185  0.4084759725604385  0.3082540412985608
  0.9612055188811297  0.3229773444489439  0.7905646020064978
  0.6416617334695545  0.4980228684784933  0.7847529268201470
  0.7918156489378632  0.1665356273520899  0.7748614983146709
  0.9691535397177873  0.4459340738855460  0.5327455347616450
  0.6417541393172002  0.1193451207039686  0.5342980349018376
  0.9777395095385089  0.0709689662693975  0.2988068572978264
  0.7768298512697527  0.1085992725721070  0.3358288286163358
  0.6169735181167297  0.0707523709553328  0.1021723187978409
  0.6111224339110706  0.1963919063626491  0.8120261694988855
  0.7730716258083703  0.3567968830067230  0.8154641900129675
  0.6153575212632703  0.3260348353483877  0.5865289095047004
  0.7716641571931575  0.4848498578109428  0.5755628401888586
  0.9474142150846347  0.2783563744562727  0.3370355397150533
  0.6126636183016387  0.4442960222958661  0.3431330830323134
  0.9482498478131305  0.4025953196145053  0.1054608827718511
  0.3023607912695141  0.7892130078606527  0.5385167866560749
  0.1438787199614069  0.7424619900633331  0.3108238374371126
  0.3083565136302866  0.9080234214955496  0.3087953303115683
  0.4648189101375522  0.8281573288434245  0.7863660127430805
  0.1432626196547986  0.9982221458585983  0.7849424370584259
  0.2972189204063937  0.6648950951642831  0.7780085085521264
  0.4695837927134718  0.9502572987468554  0.5319911377457771
  0.1451278097901962  0.6185251094931772  0.5385645320707866
  0.4792029745609838  0.5719734823078042  0.2979467963483771
  0.2768691054916133  0.6085955895630022  0.3348832204208207
  0.1159038909172594  0.5690403911478867  0.1013907332831039
  0.1167694804057433  0.6961097166143446  0.8173528490434805
  0.2769100447088420  0.8568095069615183  0.8129327350441145
  0.1136637844272670  0.8244989830826626  0.5895429391203066
  0.2731467175340256  0.9872223014656285  0.5761510081810570
  0.4493394951414231  0.7802886653207253  0.3342616613693750
  0.1100030071040905  0.9433550210012314  0.3421213307543240
  0.4497838571817141  0.9014284828026575  0.0966239888792160
  0.8019187596945372  0.7873799989289409  0.5388544191070324
  0.6441194371203736  0.7431487986297256  0.3109862525252609
  0.8083577074449195  0.9083265765982347  0.3119257923985757
  0.9642451092024942  0.8244121207175539  0.7886303143055926
  0.6429569874063006  0.9991728858616256  0.7835803881964765
  0.7964911532497680  0.6639734361637153  0.7784315440531131
  0.9692635254141564  0.9457740741132881  0.5365453562059628
  0.6436041246158055  0.6187639414568906  0.5380477688582488
  0.9790463847119497  0.5713615059566877  0.2976236085253845
  0.7781858778572968  0.6092964985198108  0.3363437387258017
  0.6170199559634568  0.5712518576389485  0.1036366377644100
  0.6165383586206374  0.6973227808865587  0.8160869925522860
  0.7762197753705422  0.8552914588640022  0.8104214880927074
  0.6125024610259047  0.8252912261108420  0.5875646710730251
  0.7709676465496642  0.9850944106835229  0.5767153739733999
  0.9488189507619111  0.7794307402140674  0.3363415445308888
  0.6119881067277220  0.9449059611785771  0.3384357812184007
  0.9481922954531328  0.9057636273495007  0.1045565520318803
  0.4813102917508587  0.1944853692511828  0.0475081367754839
  0.1353310166989417  0.3612165112061803  0.0331360655291135
  0.3085957883535428  0.0225530151982412  0.0449629778145066
  0.2874453039662299  0.2327269057527772  0.0973934476547171
  0.4479905753263509  0.0271293572514324  0.8173126384198000
  0.4401596718508856  0.1674417478418349  0.5470987526980196
  0.9805719020047192  0.1909038376541830  0.0398577984264961
  0.6308926150347745  0.3633314857802787  0.0333756666559211
  0.8129528262768559  0.0225963808092544  0.0391606536094002
  0.7828236159565805  0.2317361832111402  0.0759812747916442
  0.9483099697859316  0.0204919117335365  0.8287786123157019
  0.9435530014666256  0.1534116219389645  0.5759369976606052
  0.4859876167277193  0.6945372874779068  0.0365077649194490
  0.1373654340733808  0.8663466964619246  0.0342685375713074
  0.3090392323406093  0.5203692463189995  0.0382464315782798
  0.2863224976574088  0.7326139372831975  0.0814787377756829
  0.4511947735801698  0.5220419489246524  0.8163026003004745
  0.4455062712264350  0.6576581554436984  0.5704617910319456
  0.9834430495703188  0.6948810980661477  0.0391704392016905
  0.6395775091606239  0.8672475773784072  0.0310879497397494
  0.8077042581099647  0.5204928790175885  0.0413038645699402
  0.7851380234029435  0.7340372069489618  0.0810630107330468
  0.9488638655205577  0.5176155476900988  0.8192220601230673
  0.9460738906145423  0.6550345756124045  0.5716256517404545
  0.2328031772207027  0.3689386801616905  0.6320788884486888
  0.0737105875915560  0.3254176265221957  0.4026490798587830
  0.2370145481708263  0.4923414197978602  0.3906831498285896
  0.4251167639346818  0.2934487541771347  0.1327938652007887
  0.0696796982749817  0.4555690101670677  0.1515277898138407
  0.2275274494804833  0.0967995216584754  0.1542480521170333
  0.3978217952445178  0.4003142455729147  0.9035350920440450
  0.0934515584127737  0.0813286470075383  0.8978908671002017
  0.2333373262494334  0.2454059588575603  0.8757948425982676
  0.3973431856355276  0.0236032081828981  0.6063242712184689
  0.0900110402746037  0.2029372361216417  0.6333128994360990
  0.3932122703369032  0.1322076694033640  0.3389297832516291
  0.2186388225634062  0.1892818360992408  0.4361669182552035
  0.0611959019486221  0.1467041424803384  0.2144317962567257
  0.2138039426080312  0.3216402892212358  0.2142589113203641
  0.3637511614191666  0.1169759251782239  0.9118664855519683
  0.0398683869276937  0.2656673776221226  0.8846355162202926
  0.2075810410535013  0.4352032094140625  0.8924019725581545
  0.3635640449344848  0.2479335805820284  0.6841414265204548
  0.0375337778618103  0.4067908349427398  0.6852554542140936
  0.2126541613237478  0.0684030755237188  0.6719987065964901
  0.3705478072053836  0.3621449856522929  0.4474053335857988
  0.0479638799687265  0.0246844265753623  0.4422128817097857
  0.3903840883490375  0.4770063254954451  0.2110459570103629
  0.7419158040569585  0.3700220799652953  0.6330203309550342
  0.5955577569334025  0.3337744893100094  0.4076115090028622
  0.7422906001383751  0.4926787471059129  0.3903030361993416
  0.9261186739735123  0.2905896946668136  0.1573870098409955
  0.5706271286455689  0.4596016276861334  0.1539794280228932
  0.7374515240409707  0.1017547114105639  0.1551436743425754
  0.8988434589805792  0.3924198947520878  0.9109471152846211
  0.5954027707372731  0.0823104234791501  0.8995091244118214
  0.7298058648517696  0.2452624367694867  0.8623989832183128
  0.8950420327837207  0.0146460519753262  0.6139129357722979
  0.5884215439453655  0.2034866776997575  0.6266774279833456
  0.9044850821875912  0.1545700597032749  0.3586619171723413
  0.7208535218251555  0.1906058433571545  0.4345217874576690
  0.5653096404318845  0.1435520080786219  0.2124997090976208
  0.7175620685181627  0.3203356263398902  0.2040319393293046
  0.8597062657942800  0.1228589158505287  0.9053878403292757
  0.5382405687774536  0.2661176187979279  0.8841348143782355
  0.7080243795203742  0.4357719318296489  0.8929029755002205
  0.8668601528018200  0.2460060906174846  0.6799410168342206
  0.5389026332803297  0.4089797539859887  0.6857984336671592
  0.7107173410212653  0.0678501063095922  0.6668757519526949
  0.8813015512840536  0.3528771941077835  0.4328054158048715
  0.5497379487500211  0.0236405607355863  0.4355646308528804
  0.8917482907662162  0.4748028051416426  0.2100902481685623
  0.2395382978941001  0.8689956949805406  0.6268912147152932
  0.0749278321253470  0.8226855247521598  0.4007155247210363
  0.2352751304499208  0.9847898569314566  0.3909610283375784
  0.4301481562287179  0.7899352064761302  0.1532078881518117
  0.0688694413364672  0.9540260821862887  0.1556991607222571
  0.2353765772307810  0.6029349520540279  0.1546813905579825
  0.4025588798743698  0.8952982417085238  0.9029272206923196
  0.0930636521295369  0.5833410819129838  0.9016165366113498
  0.2354984501541821  0.7447427112828109  0.8666227601465266
  0.3956066794202613  0.5224201993312221  0.6110901352919598
  0.0922053355745334  0.7033315005251026  0.6325739723553809
  0.4042062039653089  0.6566293907336558  0.3532697854619826
  0.2200701874836284  0.6912936354132668  0.4350805215081692
  0.0621897665667390  0.6444837056655714  0.2083374629972568
  0.2160245895738271  0.8172936011308067  0.2091782599930454
  0.3662898109657036  0.6189705567242498  0.9101269197109545
  0.0435786205396198  0.7686558132656742  0.8864538055673421
  0.2116224751433577  0.9353254453582167  0.8898418077314574
  0.3681890847407416  0.7470327573936473  0.6811306198798448
  0.0408659788422767  0.9046975698814492  0.6829950566552583
  0.2125569894308654  0.5676803173185263  0.6716493839045228
  0.3828416971733120  0.8533008071767583  0.4330624591164280
  0.0486428033641246  0.5261669994839551  0.4403843971446264
  0.3903709503921249  0.9655214213137242  0.2026825496458358
  0.7382136510530728  0.8670372523334677  0.6246133171505832
  0.5760006798855670  0.8240120796914923  0.3984667595762375
  0.7391474395048760  0.9888670219342188  0.3906118395630784
  0.9279456272466078  0.7921816538158737  0.1565352470393648
  0.5710230988217262  0.9553973690066897  0.1489269981604195
  0.7369796959805015  0.6049061748123350  0.1566386901825751
  0.9003704955361087  0.8890819081201329  0.9065637271027285
  0.5961717860497728  0.5860878472943227  0.9041021890278600
  0.7352451039118364  0.7443014299808866  0.8652649175259199
  0.8963412183119246  0.5172020233587915  0.6098717634780755
  0.5921030056396788  0.7042610853324831  0.6317592030562977
  0.9056246147128704  0.6556059906070928  0.3548890867361081
  0.7200965471770999  0.6905858349699301  0.4349516598428096
  0.5628288606797369  0.6463129527791978  0.2095364762275196
  0.7166243945884432  0.8190443998505259  0.2099320343673838
  0.8661582136289638  0.6161794756681900  0.9089007168232399
  0.5439420274272493  0.7714184705362754  0.8840042172443674
  0.7133930339321566  0.9361950279262814  0.8858630026014822
  0.8682657694611109  0.7445139163908010  0.6807502642450132
  0.5407188215799579  0.9070217237450535  0.6796111234696838
  0.7125164136200794  0.5676231308716169  0.6709347164475830
  0.8824478214732991  0.8513890261155694  0.4346496780145586
  0.5486484790497528  0.5272052732921679  0.4407822887294373
  0.8896549535051861  0.9729084156850476  0.2144742355999725
 
  0.00000000E+00  0.00000000E+00  0.00000000E+00
  0.00000000E+00  0.00000000E+00  0.00000000E+00
  0.00000000E+00  0.00000000E+00  0.00000000E+00
  0.00000000E+00  0.00000000E+00  0.00000000E+00
  0.00000000E+00  0.00000000E+00  0.00000000E+00
  0.00000000E+00  0.00000000E+00  0.00000000E+00
  0.00000000E+00  0.00000000E+00  0.00000000E+00
  0.00000000E+00  0.00000000E+00  0.00000000E+00
  0.00000000E+00  0.00000000E+00  0.00000000E+00
  0.00000000E+00  0.00000000E+00  0.00000000E+00
  0.00000000E+00  0.00000000E+00  0.00000000E+00
  0.00000000E+00  0.00000000E+00  0.00000000E+00
  0.00000000E+00  0.00000000E+00  0.00000000E+00
  0.00000000E+00  0.00000000E+00  0.00000000E+00
  0.00000000E+00  0.00000000E+00  0.00000000E+00
  0.00000000E+00  0.00000000E+00  0.00000000E+00
  0.00000000E+00  0.00000000E+00  0.00000000E+00
  0.00000000E+00  0.00000000E+00  0.00000000E+00
  0.00000000E+00  0.00000000E+00  0.00000000E+00
  0.00000000E+00  0.00000000E+00  0.00000000E+00
  0.00000000E+00  0.00000000E+00  0.00000000E+00
  0.00000000E+00  0.00000000E+00  0.00000000E+00
  0.00000000E+00  0.00000000E+00  0.00000000E+00
  0.00000000E+00  0.00000000E+00  0.00000000E+00
  0.00000000E+00  0.00000000E+00  0.00000000E+00
  0.00000000E+00  0.00000000E+00  0.00000000E+00
  0.00000000E+00  0.00000000E+00  0.00000000E+00
  0.00000000E+00  0.00000000E+00  0.00000000E+00
  0.00000000E+00  0.00000000E+00  0.00000000E+00
  0.00000000E+00  0.00000000E+00  0.00000000E+00
  0.00000000E+00  0.00000000E+00  0.00000000E+00
  0.00000000E+00  0.00000000E+00  0.00000000E+00
  0.00000000E+00  0.00000000E+00  0.00000000E+00
  0.00000000E+00  0.00000000E+00  0.00000000E+00
  0.00000000E+00  0.00000000E+00  0.00000000E+00
  0.00000000E+00  0.00000000E+00  0.00000000E+00
  0.00000000E+00  0.00000000E+00  0.00000000E+00
  0.00000000E+00  0.00000000E+00  0.00000000E+00
  0.00000000E+00  0.00000000E+00  0.00000000E+00
  0.00000000E+00  0.00000000E+00  0.00000000E+00
  0.00000000E+00  0.00000000E+00  0.00000000E+00
  0.00000000E+00  0.00000000E+00  0.00000000E+00
  0.00000000E+00  0.00000000E+00  0.00000000E+00
  0.00000000E+00  0.00000000E+00  0.00000000E+00
  0.00000000E+00  0.00000000E+00  0.00000000E+00
  0.00000000E+00  0.00000000E+00  0.00000000E+00
  0.00000000E+00  0.00000000E+00  0.00000000E+00
  0.00000000E+00  0.00000000E+00  0.00000000E+00
  0.00000000E+00  0.00000000E+00  0.00000000E+00
  0.00000000E+00  0.00000000E+00  0.00000000E+00
  0.00000000E+00  0.00000000E+00  0.00000000E+00
  0.00000000E+00  0.00000000E+00  0.00000000E+00
  0.00000000E+00  0.00000000E+00  0.00000000E+00
  0.00000000E+00  0.00000000E+00  0.00000000E+00
  0.00000000E+00  0.00000000E+00  0.00000000E+00
  0.00000000E+00  0.00000000E+00  0.00000000E+00
  0.00000000E+00  0.00000000E+00  0.00000000E+00
  0.00000000E+00  0.00000000E+00  0.00000000E+00
  0.00000000E+00  0.00000000E+00  0.00000000E+00
  0.00000000E+00  0.00000000E+00  0.00000000E+00
  0.00000000E+00  0.00000000E+00  0.00000000E+00
  0.00000000E+00  0.00000000E+00  0.00000000E+00
  0.00000000E+00  0.00000000E+00  0.00000000E+00
  0.00000000E+00  0.00000000E+00  0.00000000E+00
  0.00000000E+00  0.00000000E+00  0.00000000E+00
  0.00000000E+00  0.00000000E+00  0.00000000E+00
  0.00000000E+00  0.00000000E+00  0.00000000E+00
  0.00000000E+00  0.00000000E+00  0.00000000E+00
  0.00000000E+00  0.00000000E+00  0.00000000E+00
  0.00000000E+00  0.00000000E+00  0.00000000E+00
  0.00000000E+00  0.00000000E+00  0.00000000E+00
  0.00000000E+00  0.00000000E+00  0.00000000E+00
  0.00000000E+00  0.00000000E+00  0.00000000E+00
  0.00000000E+00  0.00000000E+00  0.00000000E+00
  0.00000000E+00  0.00000000E+00  0.00000000E+00
  0.00000000E+00  0.00000000E+00  0.00000000E+00
  0.00000000E+00  0.00000000E+00  0.00000000E+00
  0.00000000E+00  0.00000000E+00  0.00000000E+00
  0.00000000E+00  0.00000000E+00  0.00000000E+00
  0.00000000E+00  0.00000000E+00  0.00000000E+00
  0.00000000E+00  0.00000000E+00  0.00000000E+00
  0.00000000E+00  0.00000000E+00  0.00000000E+00
  0.00000000E+00  0.00000000E+00  0.00000000E+00
  0.00000000E+00  0.00000000E+00  0.00000000E+00
  0.00000000E+00  0.00000000E+00  0.00000000E+00
  0.00000000E+00  0.00000000E+00  0.00000000E+00
  0.00000000E+00  0.00000000E+00  0.00000000E+00
  0.00000000E+00  0.00000000E+00  0.00000000E+00
  0.00000000E+00  0.00000000E+00  0.00000000E+00
  0.00000000E+00  0.00000000E+00  0.00000000E+00
  0.00000000E+00  0.00000000E+00  0.00000000E+00
  0.00000000E+00  0.00000000E+00  0.00000000E+00
  0.00000000E+00  0.00000000E+00  0.00000000E+00
  0.00000000E+00  0.00000000E+00  0.00000000E+00
  0.00000000E+00  0.00000000E+00  0.00000000E+00
  0.00000000E+00  0.00000000E+00  0.00000000E+00
  0.00000000E+00  0.00000000E+00  0.00000000E+00
  0.00000000E+00  0.00000000E+00  0.00000000E+00
  0.00000000E+00  0.00000000E+00  0.00000000E+00
  0.00000000E+00  0.00000000E+00  0.00000000E+00
  0.00000000E+00  0.00000000E+00  0.00000000E+00
  0.00000000E+00  0.00000000E+00  0.00000000E+00
  0.00000000E+00  0.00000000E+00  0.00000000E+00
  0.00000000E+00  0.00000000E+00  0.00000000E+00
  0.00000000E+00  0.00000000E+00  0.00000000E+00
  0.00000000E+00  0.00000000E+00  0.00000000E+00
  0.00000000E+00  0.00000000E+00  0.00000000E+00
  0.00000000E+00  0.00000000E+00  0.00000000E+00
  0.00000000E+00  0.00000000E+00  0.00000000E+00
  0.00000000E+00  0.00000000E+00  0.00000000E+00
  0.00000000E+00  0.00000000E+00  0.00000000E+00
  0.00000000E+00  0.00000000E+00  0.00000000E+00
  0.00000000E+00  0.00000000E+00  0.00000000E+00
  0.00000000E+00  0.00000000E+00  0.00000000E+00
  0.00000000E+00  0.00000000E+00  0.00000000E+00
  0.00000000E+00  0.00000000E+00  0.00000000E+00
  0.00000000E+00  0.00000000E+00  0.00000000E+00
  0.00000000E+00  0.00000000E+00  0.00000000E+00
  0.00000000E+00  0.00000000E+00  0.00000000E+00
  0.00000000E+00  0.00000000E+00  0.00000000E+00
  0.00000000E+00  0.00000000E+00  0.00000000E+00
  0.00000000E+00  0.00000000E+00  0.00000000E+00
  0.00000000E+00  0.00000000E+00  0.00000000E+00
  0.00000000E+00  0.00000000E+00  0.00000000E+00
  0.00000000E+00  0.00000000E+00  0.00000000E+00
  0.00000000E+00  0.00000000E+00  0.00000000E+00
  0.00000000E+00  0.00000000E+00  0.00000000E+00
  0.00000000E+00  0.00000000E+00  0.00000000E+00
  0.00000000E+00  0.00000000E+00  0.00000000E+00
  0.00000000E+00  0.00000000E+00  0.00000000E+00
  0.00000000E+00  0.00000000E+00  0.00000000E+00
  0.00000000E+00  0.00000000E+00  0.00000000E+00
  0.00000000E+00  0.00000000E+00  0.00000000E+00
  0.00000000E+00  0.00000000E+00  0.00000000E+00
  0.00000000E+00  0.00000000E+00  0.00000000E+00
  0.00000000E+00  0.00000000E+00  0.00000000E+00
  0.00000000E+00  0.00000000E+00  0.00000000E+00
  0.00000000E+00  0.00000000E+00  0.00000000E+00
  0.00000000E+00  0.00000000E+00  0.00000000E+00
  0.00000000E+00  0.00000000E+00  0.00000000E+00
  0.00000000E+00  0.00000000E+00  0.00000000E+00
  0.00000000E+00  0.00000000E+00  0.00000000E+00
  0.00000000E+00  0.00000000E+00  0.00000000E+00
  0.00000000E+00  0.00000000E+00  0.00000000E+00
  0.00000000E+00  0.00000000E+00  0.00000000E+00
  0.00000000E+00  0.00000000E+00  0.00000000E+00
  0.00000000E+00  0.00000000E+00  0.00000000E+00
  0.00000000E+00  0.00000000E+00  0.00000000E+00
  0.00000000E+00  0.00000000E+00  0.00000000E+00
  0.00000000E+00  0.00000000E+00  0.00000000E+00
  0.00000000E+00  0.00000000E+00  0.00000000E+00
  0.00000000E+00  0.00000000E+00  0.00000000E+00
  0.00000000E+00  0.00000000E+00  0.00000000E+00
  0.00000000E+00  0.00000000E+00  0.00000000E+00
  0.00000000E+00  0.00000000E+00  0.00000000E+00
  0.00000000E+00  0.00000000E+00  0.00000000E+00
  0.00000000E+00  0.00000000E+00  0.00000000E+00
  0.00000000E+00  0.00000000E+00  0.00000000E+00
  0.00000000E+00  0.00000000E+00  0.00000000E+00
  0.00000000E+00  0.00000000E+00  0.00000000E+00
  0.00000000E+00  0.00000000E+00  0.00000000E+00
  0.00000000E+00  0.00000000E+00  0.00000000E+00
  0.00000000E+00  0.00000000E+00  0.00000000E+00
  0.00000000E+00  0.00000000E+00  0.00000000E+00
  0.00000000E+00  0.00000000E+00  0.00000000E+00
  0.00000000E+00  0.00000000E+00  0.00000000E+00
  0.00000000E+00  0.00000000E+00  0.00000000E+00
  0.00000000E+00  0.00000000E+00  0.00000000E+00
  0.00000000E+00  0.00000000E+00  0.00000000E+00
  0.00000000E+00  0.00000000E+00  0.00000000E+00
  0.00000000E+00  0.00000000E+00  0.00000000E+00
  0.00000000E+00  0.00000000E+00  0.00000000E+00
  0.00000000E+00  0.00000000E+00  0.00000000E+00
  0.00000000E+00  0.00000000E+00  0.00000000E+00
  0.00000000E+00  0.00000000E+00  0.00000000E+00
  0.00000000E+00  0.00000000E+00  0.00000000E+00
  0.00000000E+00  0.00000000E+00  0.00000000E+00
  0.00000000E+00  0.00000000E+00  0.00000000E+00
  0.00000000E+00  0.00000000E+00  0.00000000E+00
  0.00000000E+00  0.00000000E+00  0.00000000E+00
  0.00000000E+00  0.00000000E+00  0.00000000E+00
  0.00000000E+00  0.00000000E+00  0.00000000E+00
  0.00000000E+00  0.00000000E+00  0.00000000E+00
  0.00000000E+00  0.00000000E+00  0.00000000E+00
  0.00000000E+00  0.00000000E+00  0.00000000E+00
  0.00000000E+00  0.00000000E+00  0.00000000E+00
  0.00000000E+00  0.00000000E+00  0.00000000E+00
  0.00000000E+00  0.00000000E+00  0.00000000E+00
  0.00000000E+00  0.00000000E+00  0.00000000E+00
  0.00000000E+00  0.00000000E+00  0.00000000E+00
  0.00000000E+00  0.00000000E+00  0.00000000E+00
