Al   Gd   N                             
   1.00000000000000     
   -10.0029167599744380   -0.0000004531331530   -0.0000001305903164
    -5.0014570674596746    8.6627811852683845   -0.0000001054328219
    -0.0000039337941915    0.0000007444286259   -8.7313637283173371
   Al   Gd   N 
    34     2    36
Direct
  0.1126125175585670  0.0959458126352573  0.3430185262394687
  0.2222220750231116  0.2055553443313869  0.0895489826984814
  0.7738478877711827  0.1023043619331006  0.8580212073142874
  0.8931889483989792  0.2060675993464400  0.5911284361020037
  0.4414413513417870  0.0959459578854762  0.3430187593933667
  0.5528725620517534  0.2041334064281131  0.0962221433603432
  0.1106226331703439  0.0939556443190028  0.8434951722761781
  0.2222222592109304  0.2055556502082112  0.5975897423588066
  0.7750707546064106  0.0998580922717522  0.3350219853027951
  0.8929942545007705  0.2041332488035579  0.0962228781250190
  0.4454216067700969  0.0939559431752102  0.8434971651001177
  0.5507430456995763  0.2060679431754266  0.5911286066871995
  0.1126124677631992  0.4247750321675454  0.3430187732163859
  0.2208001282372365  0.5362058734195969  0.0962208790131598
  0.7867632239642077  0.4232849235463618  0.8555989233916677
  0.8931893824494423  0.5340763271545512  0.5911307859608499
  0.4419439467784017  0.4252775664680328  0.3343205578571116
  0.5555556600770757  0.5388887281442507  0.0996330466117499
  0.1106228903820252  0.4287547023619993  0.8434973985431924
  0.2227345970903301  0.5340766766413054  0.5911275519120736
  0.7827788577274291  0.4252771685003225  0.3343231128959943
  0.8929939347323028  0.5362060169076486  0.0962238498412233
  0.4399514216122142  0.4232845746383944  0.8555967643357221
  0.1165243830852916  0.7584042868108938  0.3350187481328675
  0.2207997690621397  0.8763276978823740  0.0962204101794057
  0.7738481540213868  0.7571816365573554  0.8580228701903820
  0.4419440217837831  0.7661115307057145  0.3343190819732342
  0.5528727431674341  0.8763274115643611  0.0962226483837867
  0.1189722544526930  0.7571806817100892  0.8580182068780715
  0.2227347426714630  0.8765219119995535  0.5911256366468081
  0.7750706172215658  0.7584039692129991  0.3350246374474040
  0.8888888771755106  0.8722221238146517  0.1007346325064304
  0.4399510017241965  0.7700979189073536  0.8555966069916749
  0.5507425911140942  0.8765226327120175  0.5911290284354891
  0.5555550446058817  0.5388894922408980  0.6038902186885835
  0.8888894800557594  0.8722221248299959  0.6041395751328764
  0.2222221274578402  0.2055557166171482  0.3696602408367013
  0.1132342396622690  0.0965673378312957  0.1161353509415051
  0.8928493228283685  0.2031287850105699  0.8712752558174373
  0.7619589801069040  0.1260817385222666  0.6172051624416284
  0.5547777465439836  0.2049555270780630  0.3575081905880282
  0.4401982103001174  0.0965675885731514  0.1161338819360225
  0.2222221128004591  0.2055552852569065  0.8590382016540730
  0.1099503795466461  0.0932833186905242  0.6127856697668506
  0.8902666903363397  0.2049548731099051  0.3575077712559462
  0.7759781225826856  0.0980436148008081  0.1094602944901197
  0.5540223368022694  0.2031286279304112  0.8712755644634669
  0.4467658594823476  0.0932838323824257  0.6127861566718451
  0.2216217637830624  0.5381119223447186  0.3575091637394152
  0.1132343551666040  0.4235315775252246  0.1161337282539421
  0.8928487621707433  0.5373558724013492  0.8712743509843506
  0.8080515165101119  0.4126407177873688  0.6193531867792004
  0.5555553487156786  0.5388891005097918  0.3383200500639347
  0.4425467666143845  0.4258801650410859  0.1093842213587877
  0.2197956378936965  0.5373551056758643  0.8712762821261819
  0.1099506350753430  0.4300993142583067  0.6127863943469265
  0.8902672122065525  0.5381108853455174  0.3575071018504232
  0.7815729931317534  0.4258800771427289  0.1093839815118329
  0.5555555610769787  0.5388888700024879  0.8730683034996360
  0.4293072794205841  0.4126407106670342  0.6193565093331159
  0.2216221126091114  0.8735991983297353  0.3575094671429753
  0.1147104860510169  0.7593113713843636  0.1094603882395830
  0.8888891061188815  0.8722221026057326  0.8728634391075545
  0.7619590420566169  0.7452928241143084  0.6172017050502774
  0.5547769631261232  0.8736001340161863  0.3575078229392048
  0.4425466700111400  0.7649064096041940  0.1093836070529903
  0.2197950943035991  0.8761832037795330  0.8712769996944800
  0.1427493929739967  0.7452920437570683  0.6172097925764248
  0.8888891193943067  0.8722221972203741  0.3388865707015754
  0.7759781579983311  0.7593115242438202  0.1094608726846005
  0.5540229138033794  0.8761824235731837  0.8712753833785598
  0.4293068157538897  0.7913858948530077  0.6193583223783961
 
  0.00000000E+00  0.00000000E+00  0.00000000E+00
  0.00000000E+00  0.00000000E+00  0.00000000E+00
  0.00000000E+00  0.00000000E+00  0.00000000E+00
  0.00000000E+00  0.00000000E+00  0.00000000E+00
  0.00000000E+00  0.00000000E+00  0.00000000E+00
  0.00000000E+00  0.00000000E+00  0.00000000E+00
  0.00000000E+00  0.00000000E+00  0.00000000E+00
  0.00000000E+00  0.00000000E+00  0.00000000E+00
  0.00000000E+00  0.00000000E+00  0.00000000E+00
  0.00000000E+00  0.00000000E+00  0.00000000E+00
  0.00000000E+00  0.00000000E+00  0.00000000E+00
  0.00000000E+00  0.00000000E+00  0.00000000E+00
  0.00000000E+00  0.00000000E+00  0.00000000E+00
  0.00000000E+00  0.00000000E+00  0.00000000E+00
  0.00000000E+00  0.00000000E+00  0.00000000E+00
  0.00000000E+00  0.00000000E+00  0.00000000E+00
  0.00000000E+00  0.00000000E+00  0.00000000E+00
  0.00000000E+00  0.00000000E+00  0.00000000E+00
  0.00000000E+00  0.00000000E+00  0.00000000E+00
  0.00000000E+00  0.00000000E+00  0.00000000E+00
  0.00000000E+00  0.00000000E+00  0.00000000E+00
  0.00000000E+00  0.00000000E+00  0.00000000E+00
  0.00000000E+00  0.00000000E+00  0.00000000E+00
  0.00000000E+00  0.00000000E+00  0.00000000E+00
  0.00000000E+00  0.00000000E+00  0.00000000E+00
  0.00000000E+00  0.00000000E+00  0.00000000E+00
  0.00000000E+00  0.00000000E+00  0.00000000E+00
  0.00000000E+00  0.00000000E+00  0.00000000E+00
  0.00000000E+00  0.00000000E+00  0.00000000E+00
  0.00000000E+00  0.00000000E+00  0.00000000E+00
  0.00000000E+00  0.00000000E+00  0.00000000E+00
  0.00000000E+00  0.00000000E+00  0.00000000E+00
  0.00000000E+00  0.00000000E+00  0.00000000E+00
  0.00000000E+00  0.00000000E+00  0.00000000E+00
  0.00000000E+00  0.00000000E+00  0.00000000E+00
  0.00000000E+00  0.00000000E+00  0.00000000E+00
  0.00000000E+00  0.00000000E+00  0.00000000E+00
  0.00000000E+00  0.00000000E+00  0.00000000E+00
  0.00000000E+00  0.00000000E+00  0.00000000E+00
  0.00000000E+00  0.00000000E+00  0.00000000E+00
  0.00000000E+00  0.00000000E+00  0.00000000E+00
  0.00000000E+00  0.00000000E+00  0.00000000E+00
  0.00000000E+00  0.00000000E+00  0.00000000E+00
  0.00000000E+00  0.00000000E+00  0.00000000E+00
  0.00000000E+00  0.00000000E+00  0.00000000E+00
  0.00000000E+00  0.00000000E+00  0.00000000E+00
  0.00000000E+00  0.00000000E+00  0.00000000E+00
  0.00000000E+00  0.00000000E+00  0.00000000E+00
  0.00000000E+00  0.00000000E+00  0.00000000E+00
  0.00000000E+00  0.00000000E+00  0.00000000E+00
  0.00000000E+00  0.00000000E+00  0.00000000E+00
  0.00000000E+00  0.00000000E+00  0.00000000E+00
  0.00000000E+00  0.00000000E+00  0.00000000E+00
  0.00000000E+00  0.00000000E+00  0.00000000E+00
  0.00000000E+00  0.00000000E+00  0.00000000E+00
  0.00000000E+00  0.00000000E+00  0.00000000E+00
  0.00000000E+00  0.00000000E+00  0.00000000E+00
  0.00000000E+00  0.00000000E+00  0.00000000E+00
  0.00000000E+00  0.00000000E+00  0.00000000E+00
  0.00000000E+00  0.00000000E+00  0.00000000E+00
  0.00000000E+00  0.00000000E+00  0.00000000E+00
  0.00000000E+00  0.00000000E+00  0.00000000E+00
  0.00000000E+00  0.00000000E+00  0.00000000E+00
  0.00000000E+00  0.00000000E+00  0.00000000E+00
  0.00000000E+00  0.00000000E+00  0.00000000E+00
  0.00000000E+00  0.00000000E+00  0.00000000E+00
  0.00000000E+00  0.00000000E+00  0.00000000E+00
  0.00000000E+00  0.00000000E+00  0.00000000E+00
  0.00000000E+00  0.00000000E+00  0.00000000E+00
  0.00000000E+00  0.00000000E+00  0.00000000E+00
  0.00000000E+00  0.00000000E+00  0.00000000E+00
  0.00000000E+00  0.00000000E+00  0.00000000E+00
