Al   Sc   N                             
   1.00000000000000     
    -9.9316891681830270   -0.0235662511271082    0.0013078732808144
    -4.9347424769778829    8.5947795953291415   -0.0024681012515459
     0.0095703388039443    0.0035877198527536  -10.0591204439278048
   Al   Sc   N 
    25    11    36
Direct
  0.1160464859422916  0.0945410513482727  0.3690360157190398
  0.2322720663468019  0.1900345254907521  0.1249601431679181
  0.4458657777229362  0.0931294255636317  0.3753513148872827
  0.5579524702013074  0.2068332869041782  0.1330713931169143
  0.1110262445899792  0.0967032439275286  0.8929365151933695
  0.7693268573414613  0.0989393215107057  0.3848709637824328
  0.8836184705240342  0.2070098812814365  0.1363939250213164
  0.4414261780729802  0.0958815510336990  0.8869177209065526
  0.5530616873393299  0.2035551109498570  0.6254581182128049
  0.1184862017575270  0.4148483545205650  0.3097288441789985
  0.7726450412611499  0.4256927926679239  0.8865417039489003
  0.4523718283299587  0.4212625431822303  0.3790557029897315
  0.5562565928669656  0.5366216308719984  0.1303900107618148
  0.1128670458656913  0.4236079132039023  0.8496545544850633
  0.7741516966616118  0.4282885450838521  0.3743780786238133
  0.4506665205058837  0.4258749648606184  0.8814091411865022
  0.5580463647924105  0.5383185157389576  0.6264349102387428
  0.2296706258057313  0.8754680226495779  0.1310115329724653
  0.7659241254077926  0.7670706243983645  0.8839353636072644
  0.8826278102897405  0.8724388843971980  0.6368715098437434
  0.4477739138753947  0.7611477532003548  0.3773111919638907
  0.5433684223365276  0.8778516677632453  0.1291708182972968
  0.1139525146463498  0.7658962379330845  0.8887664199445524
  0.4444027674948856  0.7615795614063856  0.8828380556372935
  0.5567541614389100  0.8753361911018089  0.6315569174885880
  0.7702133819142745  0.1048880716825735  0.8653019699021840
  0.8888665947143224  0.2088348268293601  0.6135821349064088
  0.2344233428926117  0.1957429053242450  0.6307798245515741
  0.2361046891204452  0.5325467718586268  0.1058673488314312
  0.8759637688520172  0.5463514358860309  0.6372981492794310
  0.2301403752639430  0.5399482318483138  0.6318405465380295
  0.8827497530427380  0.5360923011402434  0.1051345960724674
  0.1093877788354334  0.7618795361861714  0.3662773068627416
  0.2263433103122665  0.8709365419838306  0.6251642771562942
  0.7700329402866330  0.7634826023087342  0.3748402763524652
  0.8792754633510356  0.8851801252478921  0.1160097534353852
  0.2303613845766179  0.1968148729100818  0.3223462361210707
  0.1079705455602706  0.0940821327731953  0.0845784183648988
  0.9017929849267787  0.2170175667830421  0.8263823920043833
  0.7679204571203329  0.0864718669294504  0.5837905255761697
  0.5559902466100581  0.2054633084683886  0.3242337833148312
  0.4485334545667499  0.0938796744198882  0.0767561923278635
  0.2257938179548660  0.1968599840625629  0.8485242950661132
  0.1164492510448980  0.0929733113049025  0.5549047541448218
  0.8859590861256876  0.2052523900887522  0.3314689278124447
  0.7653713024324134  0.1181257534177149  0.0737430833961099
  0.5281345682220220  0.2179892668456347  0.8156545300500824
  0.4645917274162272  0.0832725130957144  0.5641223910171362
  0.2362757321847084  0.5164771457677517  0.3318486003119148
  0.1233669717479486  0.4045196406700242  0.1023495707596780
  0.8808341574450651  0.5422117740290204  0.8596062621776426
  0.7586981261785724  0.4397012841314663  0.5610002436839991
  0.5535143106442746  0.5409391329388384  0.3200903366261869
  0.4710903790540257  0.4137980556640670  0.0690218415605912
  0.2264489284662616  0.5430870874647411  0.8578618000057432
  0.1096443067785557  0.4287411822512155  0.6472131896611018
  0.8994084263174997  0.5200767543063236  0.3283444241778213
  0.7652122807771491  0.4156788254493762  0.0748465992686107
  0.5556651571612932  0.5397960208681312  0.8211727732638039
  0.4664993520356546  0.4167037688137114  0.5687986506401401
  0.2348352558849953  0.8778410329920661  0.3226491004224314
  0.1189611394897554  0.7752854978640471  0.0806654154385100
  0.8961221104366857  0.8565034455260943  0.8353423948317840
  0.7669107271349347  0.7794103351689259  0.5863464535188996
  0.5355170335313559  0.8821349990200034  0.3167096086167049
  0.4453215456940711  0.7586951834131455  0.0731435930763524
  0.2220061380974983  0.8762212311301099  0.8384708982965066
  0.0894740376517191  0.7720713164075264  0.5777173960758901
  0.8732523428000789  0.8944944226412801  0.3238966629390916
  0.7493597732174990  0.7772308118741833  0.0726906585046194
  0.5488233532987437  0.8770058732964472  0.8246790642864497
  0.4650115872975462  0.7521453011573271  0.5692281234405243
 
  0.00000000E+00  0.00000000E+00  0.00000000E+00
  0.00000000E+00  0.00000000E+00  0.00000000E+00
  0.00000000E+00  0.00000000E+00  0.00000000E+00
  0.00000000E+00  0.00000000E+00  0.00000000E+00
  0.00000000E+00  0.00000000E+00  0.00000000E+00
  0.00000000E+00  0.00000000E+00  0.00000000E+00
  0.00000000E+00  0.00000000E+00  0.00000000E+00
  0.00000000E+00  0.00000000E+00  0.00000000E+00
  0.00000000E+00  0.00000000E+00  0.00000000E+00
  0.00000000E+00  0.00000000E+00  0.00000000E+00
  0.00000000E+00  0.00000000E+00  0.00000000E+00
  0.00000000E+00  0.00000000E+00  0.00000000E+00
  0.00000000E+00  0.00000000E+00  0.00000000E+00
  0.00000000E+00  0.00000000E+00  0.00000000E+00
  0.00000000E+00  0.00000000E+00  0.00000000E+00
  0.00000000E+00  0.00000000E+00  0.00000000E+00
  0.00000000E+00  0.00000000E+00  0.00000000E+00
  0.00000000E+00  0.00000000E+00  0.00000000E+00
  0.00000000E+00  0.00000000E+00  0.00000000E+00
  0.00000000E+00  0.00000000E+00  0.00000000E+00
  0.00000000E+00  0.00000000E+00  0.00000000E+00
  0.00000000E+00  0.00000000E+00  0.00000000E+00
  0.00000000E+00  0.00000000E+00  0.00000000E+00
  0.00000000E+00  0.00000000E+00  0.00000000E+00
  0.00000000E+00  0.00000000E+00  0.00000000E+00
  0.00000000E+00  0.00000000E+00  0.00000000E+00
  0.00000000E+00  0.00000000E+00  0.00000000E+00
  0.00000000E+00  0.00000000E+00  0.00000000E+00
  0.00000000E+00  0.00000000E+00  0.00000000E+00
  0.00000000E+00  0.00000000E+00  0.00000000E+00
  0.00000000E+00  0.00000000E+00  0.00000000E+00
  0.00000000E+00  0.00000000E+00  0.00000000E+00
  0.00000000E+00  0.00000000E+00  0.00000000E+00
  0.00000000E+00  0.00000000E+00  0.00000000E+00
  0.00000000E+00  0.00000000E+00  0.00000000E+00
  0.00000000E+00  0.00000000E+00  0.00000000E+00
  0.00000000E+00  0.00000000E+00  0.00000000E+00
  0.00000000E+00  0.00000000E+00  0.00000000E+00
  0.00000000E+00  0.00000000E+00  0.00000000E+00
  0.00000000E+00  0.00000000E+00  0.00000000E+00
  0.00000000E+00  0.00000000E+00  0.00000000E+00
  0.00000000E+00  0.00000000E+00  0.00000000E+00
  0.00000000E+00  0.00000000E+00  0.00000000E+00
  0.00000000E+00  0.00000000E+00  0.00000000E+00
  0.00000000E+00  0.00000000E+00  0.00000000E+00
  0.00000000E+00  0.00000000E+00  0.00000000E+00
  0.00000000E+00  0.00000000E+00  0.00000000E+00
  0.00000000E+00  0.00000000E+00  0.00000000E+00
  0.00000000E+00  0.00000000E+00  0.00000000E+00
  0.00000000E+00  0.00000000E+00  0.00000000E+00
  0.00000000E+00  0.00000000E+00  0.00000000E+00
  0.00000000E+00  0.00000000E+00  0.00000000E+00
  0.00000000E+00  0.00000000E+00  0.00000000E+00
  0.00000000E+00  0.00000000E+00  0.00000000E+00
  0.00000000E+00  0.00000000E+00  0.00000000E+00
  0.00000000E+00  0.00000000E+00  0.00000000E+00
  0.00000000E+00  0.00000000E+00  0.00000000E+00
  0.00000000E+00  0.00000000E+00  0.00000000E+00
  0.00000000E+00  0.00000000E+00  0.00000000E+00
  0.00000000E+00  0.00000000E+00  0.00000000E+00
  0.00000000E+00  0.00000000E+00  0.00000000E+00
  0.00000000E+00  0.00000000E+00  0.00000000E+00
  0.00000000E+00  0.00000000E+00  0.00000000E+00
  0.00000000E+00  0.00000000E+00  0.00000000E+00
  0.00000000E+00  0.00000000E+00  0.00000000E+00
  0.00000000E+00  0.00000000E+00  0.00000000E+00
  0.00000000E+00  0.00000000E+00  0.00000000E+00
  0.00000000E+00  0.00000000E+00  0.00000000E+00
  0.00000000E+00  0.00000000E+00  0.00000000E+00
  0.00000000E+00  0.00000000E+00  0.00000000E+00
  0.00000000E+00  0.00000000E+00  0.00000000E+00
  0.00000000E+00  0.00000000E+00  0.00000000E+00
