Al   Sc   N                             
   1.00000000000000     
    -9.8657207340101198   -0.0231391259220037    0.0076255309949105
    -4.9128343356278199    8.5217068087469201   -0.0045907353828907
     0.0073867426662311    0.0098180775335834  -10.1982634400179997
   Al   Sc   N 
    25    11    36
Direct
  0.1154121516185924  0.0953690270353817  0.3967813045008484
  0.2272424049488748  0.1987426558166732  0.1602489986790587
  0.4447159768793369  0.0945730061921850  0.4025910475997563
  0.5560363969412307  0.2079239196446636  0.1604078181303805
  0.1109258806248263  0.0985547261909545  0.9202743901002890
  0.7691648226529892  0.0996208188222880  0.4110136180951400
  0.8837358491297920  0.2080648451180096  0.1636122677540115
  0.4388109553821877  0.0976150963743407  0.9132822159229690
  0.5539433855592932  0.2028193657816928  0.6530277699475135
  0.1160622826873947  0.4183752705452335  0.4048901716456257
  0.7744051651220119  0.4275525518072598  0.9138718965306154
  0.4526986384016993  0.4225563432607942  0.4081180554558586
  0.5555732544345418  0.5374315467613897  0.1571574658080976
  0.1146894324153038  0.4202475499035359  0.9167448505835480
  0.7733877853360909  0.4288098658196873  0.4038632540758300
  0.4461580328877162  0.4277048087464408  0.9089253064675091
  0.5585733587401975  0.5388643039723533  0.6551359398815535
  0.2285261399916294  0.8760126978508040  0.1566929113463686
  0.7685152953148844  0.7640822867608250  0.9097900479770331
  0.8827118685288369  0.8729105570933129  0.6664611338332094
  0.4466506025060042  0.7625156016141403  0.4036845022292610
  0.5434984632075412  0.8785118981277478  0.1557108863184595
  0.1139465739788079  0.7623794157186694  0.9155662592959857
  0.4445457803791442  0.7615468077869849  0.9123109017085014
  0.5570731619237179  0.8739676648679406  0.6605580480734332
  0.7693144837906871  0.1055214161871376  0.8974086248758510
  0.8888529362117836  0.2069973953914399  0.6433350182288962
  0.2331350357646045  0.1973784606447424  0.6552103381794510
  0.2335219858624455  0.5303376995763855  0.1488947106736234
  0.8858603133664360  0.5399059798745967  0.6635641009274451
  0.2288825078578967  0.5350664488625085  0.6585037944468581
  0.8858908051887369  0.5346137025181505  0.1451036948815556
  0.1094405656965378  0.7647108460006962  0.4000214142742777
  0.2283954139789444  0.8694147587936243  0.6581090314806275
  0.7682015279590146  0.7650402029895318  0.4081497700633108
  0.8802862462608303  0.8826517615641478  0.1459606341242647
  0.2264110144758007  0.2035931738603196  0.3495875267755579
  0.1079658753636537  0.0970751954350746  0.1102155222273353
  0.9009409897803948  0.2169147852458977  0.8531437086855647
  0.7679914654636093  0.0856438877555732  0.6067448359630632
  0.5547940094371526  0.2068076519805189  0.3498930987589688
  0.4444952935138531  0.0967255661914095  0.1023308105556993
  0.2221827594137764  0.2023702429750358  0.8650820066511216
  0.1173779259888619  0.0900236434415191  0.5807376116477627
  0.8857150264223961  0.2060593392401557  0.3567715603384229
  0.7652073877597161  0.1176151934354266  0.1027341067457570
  0.5279891654660744  0.2180648763165820  0.8412049732069988
  0.4648298733114373  0.0821845172936406  0.5896923807927905
  0.2353135829503969  0.5191398517441215  0.3609553982595415
  0.1229340716757932  0.4048986496355695  0.0995381663438906
  0.8875465166799685  0.5388367363407340  0.8780956104884368
  0.7602534478294061  0.4398687493957922  0.5887589211308963
  0.5536112298930789  0.5410871026541884  0.3458707118220516
  0.4667606639501614  0.4164804572321259  0.0946082406354449
  0.2219725778116270  0.5396765158671641  0.8744131697776254
  0.1124562380685319  0.4248754475695833  0.5916909588489645
  0.8979651867225940  0.5219449277422044  0.3564731907970895
  0.7657303168823191  0.4177810406968803  0.1000059778182134
  0.5547614233006612  0.5405372873536578  0.8481017306664995
  0.4664573851559410  0.4175553930805052  0.5955574115731750
  0.2337462777220267  0.8794197010293701  0.3457578791199580
  0.1204481202762295  0.7713936009591364  0.1043104913998079
  0.8953635781980793  0.8577638493628470  0.8608599937167867
  0.7690525938528978  0.7759223917799360  0.6167011708590877
  0.5354801966559748  0.8833626720302448  0.3414855179140943
  0.4452578123597561  0.7592709516201452  0.0999296480799572
  0.2217136190102593  0.8762978855823889  0.8677635636127832
  0.0914167424169037  0.7707668734169815  0.6079588082890623
  0.8737098791961273  0.8931210380331223  0.3511686477319031
  0.7507526654148293  0.7743828236890025  0.0960878039228419
  0.5480964907532950  0.8771760847068961  0.8513529634867893
  0.4649371449927102  0.7525003617415962  0.5938151135329406
 
  0.00000000E+00  0.00000000E+00  0.00000000E+00
  0.00000000E+00  0.00000000E+00  0.00000000E+00
  0.00000000E+00  0.00000000E+00  0.00000000E+00
  0.00000000E+00  0.00000000E+00  0.00000000E+00
  0.00000000E+00  0.00000000E+00  0.00000000E+00
  0.00000000E+00  0.00000000E+00  0.00000000E+00
  0.00000000E+00  0.00000000E+00  0.00000000E+00
  0.00000000E+00  0.00000000E+00  0.00000000E+00
  0.00000000E+00  0.00000000E+00  0.00000000E+00
  0.00000000E+00  0.00000000E+00  0.00000000E+00
  0.00000000E+00  0.00000000E+00  0.00000000E+00
  0.00000000E+00  0.00000000E+00  0.00000000E+00
  0.00000000E+00  0.00000000E+00  0.00000000E+00
  0.00000000E+00  0.00000000E+00  0.00000000E+00
  0.00000000E+00  0.00000000E+00  0.00000000E+00
  0.00000000E+00  0.00000000E+00  0.00000000E+00
  0.00000000E+00  0.00000000E+00  0.00000000E+00
  0.00000000E+00  0.00000000E+00  0.00000000E+00
  0.00000000E+00  0.00000000E+00  0.00000000E+00
  0.00000000E+00  0.00000000E+00  0.00000000E+00
  0.00000000E+00  0.00000000E+00  0.00000000E+00
  0.00000000E+00  0.00000000E+00  0.00000000E+00
  0.00000000E+00  0.00000000E+00  0.00000000E+00
  0.00000000E+00  0.00000000E+00  0.00000000E+00
  0.00000000E+00  0.00000000E+00  0.00000000E+00
  0.00000000E+00  0.00000000E+00  0.00000000E+00
  0.00000000E+00  0.00000000E+00  0.00000000E+00
  0.00000000E+00  0.00000000E+00  0.00000000E+00
  0.00000000E+00  0.00000000E+00  0.00000000E+00
  0.00000000E+00  0.00000000E+00  0.00000000E+00
  0.00000000E+00  0.00000000E+00  0.00000000E+00
  0.00000000E+00  0.00000000E+00  0.00000000E+00
  0.00000000E+00  0.00000000E+00  0.00000000E+00
  0.00000000E+00  0.00000000E+00  0.00000000E+00
  0.00000000E+00  0.00000000E+00  0.00000000E+00
  0.00000000E+00  0.00000000E+00  0.00000000E+00
  0.00000000E+00  0.00000000E+00  0.00000000E+00
  0.00000000E+00  0.00000000E+00  0.00000000E+00
  0.00000000E+00  0.00000000E+00  0.00000000E+00
  0.00000000E+00  0.00000000E+00  0.00000000E+00
  0.00000000E+00  0.00000000E+00  0.00000000E+00
  0.00000000E+00  0.00000000E+00  0.00000000E+00
  0.00000000E+00  0.00000000E+00  0.00000000E+00
  0.00000000E+00  0.00000000E+00  0.00000000E+00
  0.00000000E+00  0.00000000E+00  0.00000000E+00
  0.00000000E+00  0.00000000E+00  0.00000000E+00
  0.00000000E+00  0.00000000E+00  0.00000000E+00
  0.00000000E+00  0.00000000E+00  0.00000000E+00
  0.00000000E+00  0.00000000E+00  0.00000000E+00
  0.00000000E+00  0.00000000E+00  0.00000000E+00
  0.00000000E+00  0.00000000E+00  0.00000000E+00
  0.00000000E+00  0.00000000E+00  0.00000000E+00
  0.00000000E+00  0.00000000E+00  0.00000000E+00
  0.00000000E+00  0.00000000E+00  0.00000000E+00
  0.00000000E+00  0.00000000E+00  0.00000000E+00
  0.00000000E+00  0.00000000E+00  0.00000000E+00
  0.00000000E+00  0.00000000E+00  0.00000000E+00
  0.00000000E+00  0.00000000E+00  0.00000000E+00
  0.00000000E+00  0.00000000E+00  0.00000000E+00
  0.00000000E+00  0.00000000E+00  0.00000000E+00
  0.00000000E+00  0.00000000E+00  0.00000000E+00
  0.00000000E+00  0.00000000E+00  0.00000000E+00
  0.00000000E+00  0.00000000E+00  0.00000000E+00
  0.00000000E+00  0.00000000E+00  0.00000000E+00
  0.00000000E+00  0.00000000E+00  0.00000000E+00
  0.00000000E+00  0.00000000E+00  0.00000000E+00
  0.00000000E+00  0.00000000E+00  0.00000000E+00
  0.00000000E+00  0.00000000E+00  0.00000000E+00
  0.00000000E+00  0.00000000E+00  0.00000000E+00
  0.00000000E+00  0.00000000E+00  0.00000000E+00
  0.00000000E+00  0.00000000E+00  0.00000000E+00
  0.00000000E+00  0.00000000E+00  0.00000000E+00
