POSCAR_RbInSb4
   1.00000000000000
    11.0049085988000002   -0.0000000552588438    0.0000000856228552
    -0.0000000232951377    4.3871116829099996    0.0000000865694018
     0.0000001622093861    0.0000004030602840   19.0324609052999989
   Sb   Rb   In
    16     4     4
Direct
  0.1609075654581886  0.2499999340170049  0.3987343711841547
  0.6609076266134863  0.2500000569666909  0.1012655454510494
  0.8390924424128201  0.7500000663707880  0.6012656340206206
  0.3390923705874158  0.7499999419018266  0.8987344603499281
  0.6039255616546484  0.2500000215217213  0.7772700452189696
  0.1039256787457319  0.2499999515187383  0.7227300335999942
  0.3960744196516899  0.7499999731779141  0.2227299579121436
  0.8960743245253369  0.7500000535749223  0.2772699714928493
  0.4649108845405223  0.2499999934604844  0.5461631741177513
  0.9649108678193414  0.2500000028832332  0.9538368041987226
  0.5350891261246389  0.7500000139138550  0.4538368278172555
  0.0350891147201438  0.7499999909304478  0.0461632052404966
  0.0690375600021014  0.2500000518821892  0.2577215160505659
  0.5690376913335982  0.2499999814568810  0.2422784603990067
  0.9309624454692340  0.7499999532219306  0.7422784835422220
  0.4309622925842547  0.7500000129126931  0.7577215365201226
  0.8181308968409482  0.2500000490440328  0.4340437991192090
  0.3181308332215949  0.2499999814722642  0.0659560606905245
  0.1818691056441253  0.7499999568434319  0.5659562024965297
  0.6818691696113248  0.7500000133647475  0.9340439303979693
  0.6812847233251773  0.2500000654987389  0.6328775809862606
  0.1812840617900733  0.2499999358656453  0.8671223544133824
  0.3187153606240685  0.7499999346725303  0.3671224018371220
  0.8187158766995282  0.7500000635272812  0.1328776429431500