POSCAR_CsInSb4
   1.00000000000000
    11.2450931157999996   -0.0000001936666256   -0.0000182241711155
    -0.0000000687560409    4.4056446495900001    0.0000000392255806
    -0.0000311158415074    0.0000002498870016   19.3701962405999986
   Sb   Cs   In
    16     4     4
Direct
  0.1686310653638543  0.2499999275400953  0.3935446842274501
  0.6686317371285142  0.2500000460105412  0.1064566875864728
  0.8313681849869354  0.7500000725988940  0.6064554853262365
  0.3313689768468606  0.7499999540553901  0.8935436058169017
  0.5890804352210850  0.2500000338012001  0.7736839294505984
  0.0890801827112782  0.2499999729905724  0.7263155915981585
  0.4109191062705904  0.7499999660579491  0.2263166502854475
  0.9109204329221114  0.7500000271076104  0.2736850844089602
  0.4673601149400000  0.2499999949352940  0.5454896035962449
  0.9673592077954325  0.2499999997218936  0.9545106688597897
  0.5326403452653850  0.7500000048484736  0.4545101285504458
  0.0326405360937585  0.7500000001658407  0.0454898002481841
  0.0794466574947705  0.2500000325473906  0.2547744932195002
  0.5794453337315346  0.2499999818820200  0.2452242166659602
  0.9205545181405625  0.7499999672041469  0.7452245582235406
  0.4205539542603347  0.7500000183626696  0.7547751550162403
  0.8187922976506314  0.2500000371480340  0.4325377341196059
  0.3187903577993367  0.2499999812247253  0.0674619728799755
  0.1812077607482934  0.7499999618704578  0.5674622203897215
  0.6812093728167596  0.7500000196495762  0.9325377371971371
  0.6754206964419609  0.2500000703717404  0.6337924167681805
  0.1754290175503002  0.2499999347214654  0.8662079507327149
  0.3245809721413409  0.7499999300985962  0.3662072285712767
  0.8245687356783975  0.7500000650854304  0.1337923962612351