POSCAR_NaGaAs4
   1.00000000000000
     9.5376577853099995   -0.0000004240323721   -0.0000038729396056
    -0.0000001680560130    3.7981103089500001   -0.0000000638209940
    -0.0000063820270858   -0.0000002776447577   16.1907791948999993
   As   Na   Ga
    16     4     4
Direct
  0.1610547595611393  0.2500000609850801  0.4032807704966643
  0.6610560510361125  0.2499998656190954  0.0967188225601134
  0.8389448207399397  0.7499999524254406  0.5967191106521597
  0.3389442925744532  0.7500001244747665  0.9032810457797495
  0.6177686139007150  0.2499998876030602  0.7827235961081271
  0.1177687205927356  0.2499999332897858  0.7172757261006169
  0.3822316305309741  0.7500001268059933  0.2172765502371163
  0.8822310192147071  0.7500000479107030  0.2827242398907615
  0.4636413406744353  0.2499999811562361  0.5471733754881782
  0.9636411248977197  0.2499999844942309  0.9528265137991738
  0.5363589378926861  0.7500000162189480  0.4528266092127780
  0.0363587679726720  0.7500000312753130  0.0471734120592160
  0.0553134765376697  0.2499999974682794  0.2631564620944431
  0.5553145577638645  0.2500000306518544  0.2368431317269142
  0.9446863253411166  0.7499999947451670  0.7368433721041185
  0.4446856799921761  0.7499999710735068  0.7631567511561670
  0.8277223510531613  0.2499999287384114  0.4375994567641044
  0.3277238475476238  0.2499999465689839  0.0624034901227262
  0.1722774861348952  0.7500000685242370  0.5624006663075747
  0.6722761566214928  0.7500000497469372  0.9375965868548874
  0.6840525977231522  0.2499999427356698  0.6328090680707135
  0.1840525519759808  0.2500001382730943  0.8671906287156332
  0.3159472621608117  0.7500000642243521  0.3671911594360324
  0.8159476275597513  0.7499998549908469  0.1328094542620235