POSCAR_NaGaSb4
   1.00000000000000
    10.2130728446999992    0.0000021971883665   -0.0000680758726257
     0.0000009111374250    4.2597750991899996    0.0000002004741424
    -0.0001148362073210    0.0000007588689410   17.3768604519999990
   Sb   Na   Ga
    16     4     4
Direct
  0.1566048092676766  0.2500000028767815  0.4097515453277296
  0.6566063986136541  0.2500001711044249  0.0902484732194466
  0.8433953109679209  0.7500000005747722  0.5902487997289469
  0.3433940403945854  0.7499998164844754  0.9097513016781349
  0.6425583574917724  0.2500000998352405  0.7820401971053883
  0.1425694869526239  0.2500000101515312  0.7179566361251162
  0.3574410649447302  0.7499999071732120  0.2179600415195111
  0.8574303190826811  0.7500000032536391  0.2820428070552765
  0.4619359020423701  0.2500000447758168  0.5522847109493156
  0.9619364874391252  0.2500000843734327  0.9477167596640825
  0.5380644419569975  0.7499999374290240  0.4477160030534364
  0.0380639384632460  0.7499999225441627  0.0522825607932873
  0.0471622618052336  0.2499998518662991  0.2573179597526476
  0.5471648027500251  0.2499997563589815  0.2426763327257220
  0.9528374553095347  0.7500001644891015  0.7426823068237880
  0.4528354101957390  0.7500002433955117  0.7573236287028138
  0.8303884523350789  0.2500000180017921  0.4382082631563549
  0.3303829843414263  0.2499995644964628  0.0617934616307991
  0.1696101162342103  0.7499999969665225  0.5617916237984133
  0.6696164189442655  0.7500004145062888  0.9382068369616547
  0.6944992392174143  0.2500001071679421  0.6286977862753744
  0.1945091510139534  0.2499999409890989  0.8713085876942372
  0.3055008310637533  0.7499998938412986  0.3713026287413186
  0.8054923191719610  0.7500000473441943  0.1286907475172043