generated by phonopy                    
   1.00000000000000     
    11.7777700938999992   -0.0000006592896312    0.0000118211769744
    -0.0000006477562692   11.7777479613999994   -0.0000130806483528
     0.0000177256125076   -0.0000204342245446   17.8544012557999991
   Tl   Bi   Cu   Se   O 
     1    35    36    36    36
Direct
  0.0000523018233736  0.1667222776591615  0.4128328087273658
  0.3313440521283795  0.1667350295045651  0.4314480865827619
  0.6687625099015335  0.1667278560323595  0.4314481670434347
  0.0000599973232340  0.4980196980261482  0.4314458331860820
  0.3337827352449949  0.5004604908961383  0.4295227129869374
  0.6663273921785802  0.5004594328240159  0.4295227488000108
  0.0000525749562286  0.8354466968354970  0.4314468023029221
  0.3337801551523825  0.8330084514424172  0.4295254154851023
  0.6663277338475169  0.8330037998604638  0.4295236860337681
  0.0000175536871225  0.1666838435920894  0.9287966892815902
  0.3332364292710110  0.1666882219044936  0.9286391553385158
  0.6668016067895053  0.1666816540387970  0.9286404659013527
  0.0000201012807821  0.4999030252636771  0.9286377358853670
  0.3333801457076078  0.5000453227609469  0.9283555089704976
  0.6666587610850385  0.5000432120315423  0.9283563655209122
  0.0000156855930769  0.8334694505728493  0.9286387676195815
  0.3333782378240784  0.8333283683850254  0.9283539112579859
  0.6666594366414600  0.8333239271128789  0.9283584115737327
  0.1668170663595205  0.9998884048371579  0.0705775111661495
  0.5000164592886875  0.9996406132469389  0.0701559889469792
  0.8332163205995116  0.9998836994015505  0.0705813777577120
  0.1668183218299220  0.3334887748315936  0.0705780792523498
  0.5000213937150804  0.3337305853742549  0.0701557248877549
  0.8332205001807225  0.3334834070459678  0.0705775862150873
  0.1670652166393154  0.6666894108558665  0.0701527414363881
  0.5000172237196949  0.6666859210788658  0.0703127105748393
  0.8329741347298025  0.6666811419837160  0.0701553540688309
  0.1642349681459194  0.0025543292106747  0.5699947972910167
  0.5000521985783948  0.9993610558789072  0.5711067285804674
  0.8358710089835171  0.0025495115447001  0.5699955709130862
  0.1642377313800125  0.3309166905728134  0.5699924388871835
  0.5000545333009043  0.3341079384260226  0.5711029423821614
  0.8358747591083571  0.3309148912637099  0.5699912640242957
  0.1674292649438982  0.6667354764669611  0.5711058873530419
  0.5000533857847316  0.6667319900712272  0.5718561170862344
  0.8326834005401125  0.6667313527441863  0.5711060916713038
  0.0000396405551655  0.9962598847697066  0.2488905030740156
  0.3352815717506985  0.9997433251354693  0.2492801502959239
  0.6647921973506641  0.9997114223326662  0.2492808558539465
  0.0000448176261614  0.3371323711494512  0.2488909220875328
  0.3352842205679210  0.3336808273507899  0.2492860152676855
  0.6648202805214680  0.3336668149484510  0.2492939796480016
  0.0000514770603175  0.6667017365225192  0.2503770190985151
  0.3334857678679271  0.6667094918107068  0.2497337875588741
  0.6666034135122558  0.6666805832289810  0.2497324340867593
  0.0000274332869878  0.9992690995157787  0.7497989832757241
  0.3340241287994061  0.9996202295168928  0.7502343035639214
  0.6660336944288971  0.9996115574843998  0.7502345438950826
  0.0000280600660645  0.3341791088209547  0.7497999621728368
  0.3340248792724339  0.3338387965710368  0.7502372276445257
  0.6660395495507103  0.3338341059291139  0.7502379790492597
  0.0000282131066101  0.6667219682753114  0.7514918707910141
  0.3341196538170550  0.6667210263325600  0.7502084317131974
  0.6659428134938636  0.6667150563777398  0.7502074574089121
  0.1704552952306315  0.1667210103304768  0.2488874805731811
  0.5000347544608417  0.1667232574774289  0.2503742139137941
  0.8295969151964897  0.1667274536181154  0.2489001052047115
  0.1670105927432957  0.5019588545428135  0.2492852070827851
  0.5000362768513256  0.5001443528017546  0.2497376004494285
  0.8330633545674360  0.5019462279089311  0.2492856940273285
  0.1669985865883703  0.8314921340406514  0.2492799648109099
  0.5000234885429080  0.8332870455606454  0.2497379235146511
  0.8330459700054575  0.8314732589875931  0.2492783750136240
  0.1674952337867595  0.1667079116299348  0.7498000943533185
  0.5000475387752630  0.1666992906587410  0.7514870585423665
  0.8325962738689014  0.1667017252871403  0.7498034599725329
  0.1671571527089029  0.5006951333562313  0.7502358596875993
  0.5000458067713964  0.5007891267278026  0.7502064121070831
  0.8329384905980177  0.5006866040489228  0.7502373566497056
  0.1671581493147372  0.8327124288788994  0.7502354203183543
  0.5000464870482233  0.8326154694886299  0.7502080606170338
  0.8329296891483011  0.8327049373869073  0.7502372084049895
  0.1691229836975907  0.3357978323188107  0.3343446368925314
  0.5000475668709257  0.3336757193444697  0.3360585427329426
  0.8309773929148037  0.3357963576561716  0.3343542041397356
  0.1670082607396353  0.6667278333492206  0.3360530007414937
  0.5000460646531906  0.6667198415593063  0.3360522368603398
  0.8330860844288210  0.6667173922285414  0.3360519093356658
  0.1691197915793268  0.9976479031487102  0.3343427273354393
  0.5000388093549120  0.9997651226729687  0.3360566047073803
  0.8309625878973250  0.9976386639933210  0.3343407258533659
  0.1665383990480578  0.3332125144098868  0.8372018739992697
  0.5000298010835351  0.3343015030555918  0.8383777291183421
  0.8335197001313617  0.3332084274683282  0.8372047998012988
  0.1676321240287635  0.6667015106649430  0.8383774495587843
  0.5000301826440960  0.6666995853917328  0.8385804010732727
  0.8324246552962364  0.6666967519006803  0.8383789619654038
  0.1665381304858400  0.0001928514600564  0.8372003005571358
  0.5000282203307265  0.9990975276461924  0.8383787913055016
  0.8335165552051862  0.0001874673733795  0.8372019418991172
  0.3349929058200445  0.1667076162454038  0.1620440952860989
  0.6650702001686213  0.1666963166052469  0.1620481591102703
  0.0000236532538409  0.1666978757829867  0.1649289842885509
  0.3338554209690443  0.5005257129023803  0.1617661720080861
  0.6662107462441043  0.5005071726787236  0.1617661579304226
  0.0000316627856449  0.5016631671825138  0.1620454996731198
  0.3338497594508283  0.8328841350087686  0.1617646658434211
  0.6661975780274787  0.8328649363165468  0.1617636051052713
  0.0000253763162164  0.8317321969405143  0.1620419102830155
  0.3352542410549546  0.1667281245309766  0.6649390873417431
  0.6648407175348439  0.1667236560317988  0.6649397815289788
  0.0000446446585300  0.1667252102438042  0.6634055716961171
  0.3337498767193239  0.5004278527083841  0.6638996941005217
  0.6663455988395057  0.5004228204044381  0.6639002996511749
  0.0000469150811639  0.5019329877017498  0.6649387410753818
  0.3337497357922459  0.8330211074112199  0.6639021339399847
  0.6663425093840516  0.8330164863535359  0.6639012807144411
  0.0000442330842390  0.8315128421549716  0.6649403332053154
  0.1755875410145080  0.1667313437092162  0.5046198149004510
  0.5000511838884591  0.1667272470654453  0.5007526421972202
  0.8245163255749901  0.1667279735834057  0.5046200815381354
  0.1685339180793193  0.5015072910305065  0.4995299487558924
  0.5000508280575104  0.5009390510512404  0.5005849688423964
  0.8315747162902554  0.5015066129868586  0.4995285267456566
  0.1685288237397842  0.8319553879522914  0.4995307646165585
  0.5000506591336347  0.8325220755374616  0.5005873011524429
  0.8315741288900185  0.8319511181041150  0.4995294223975009
  0.1664834802394992  0.1666910268684063  0.0000146566440833
  0.5000225475668358  0.1666896989405444  0.9994457958079082
  0.8335591656494117  0.1666867730433097  0.0000160232303372
  0.1664712433752555  0.4993913422233405  0.9999034323519140
  0.5000220628902170  0.4998896178545635  0.9994550816110532
  0.8335747174337982  0.4993884886927944  0.9999033631948038
  0.1664701091279355  0.8339924066519515  0.9999021270531827
  0.5000205146287371  0.8334896201797477  0.9994552407745516
  0.8335727290205028  0.8339879967032999  0.9999054495672723
  0.0000198324500928  0.0002271059727974  0.0000160507463391
  0.3327217128072277  0.0002439123108431  0.9999038276672181
  0.6673212890702658  0.0002407015982158  0.9999062153769884
  0.0000228683441605  0.3331525123004013  0.0000140918532452
  0.3327222350590731  0.3331394900759079  0.9999043303646715
  0.6673230939036117  0.3331365106271562  0.9999039961122449
  0.0000222156148411  0.6666906721604562  0.9994450289290526
  0.3332233650357210  0.6666917981567764  0.9994531935969491
  0.6668203972816116  0.6666877948853482  0.9994560948865541
  0.0000515650845045  0.9911989032978923  0.5046211838843107
  0.3348283537173700  0.9982526083677996  0.4995316271569052
  0.6652726365308581  0.9982486428797870  0.4995311599619257
  0.0000554880672112  0.3422633792147778  0.5046189808518804
  0.3348325632828946  0.3352097263265463  0.4995283789894316
  0.6652713986667180  0.3352073858136535  0.4995282728965833
  0.0000534669805390  0.6667299466112055  0.5007509821295386
  0.3342569344192086  0.6667304177819204  0.5005871303307359
  0.6658467155471754  0.6667291794453618  0.5005877074273357
 
  0.00000000E+00  0.00000000E+00  0.00000000E+00
  0.00000000E+00  0.00000000E+00  0.00000000E+00
  0.00000000E+00  0.00000000E+00  0.00000000E+00
  0.00000000E+00  0.00000000E+00  0.00000000E+00
  0.00000000E+00  0.00000000E+00  0.00000000E+00
  0.00000000E+00  0.00000000E+00  0.00000000E+00
  0.00000000E+00  0.00000000E+00  0.00000000E+00
  0.00000000E+00  0.00000000E+00  0.00000000E+00
  0.00000000E+00  0.00000000E+00  0.00000000E+00
  0.00000000E+00  0.00000000E+00  0.00000000E+00
  0.00000000E+00  0.00000000E+00  0.00000000E+00
  0.00000000E+00  0.00000000E+00  0.00000000E+00
  0.00000000E+00  0.00000000E+00  0.00000000E+00
  0.00000000E+00  0.00000000E+00  0.00000000E+00
  0.00000000E+00  0.00000000E+00  0.00000000E+00
  0.00000000E+00  0.00000000E+00  0.00000000E+00
  0.00000000E+00  0.00000000E+00  0.00000000E+00
  0.00000000E+00  0.00000000E+00  0.00000000E+00
  0.00000000E+00  0.00000000E+00  0.00000000E+00
  0.00000000E+00  0.00000000E+00  0.00000000E+00
  0.00000000E+00  0.00000000E+00  0.00000000E+00
  0.00000000E+00  0.00000000E+00  0.00000000E+00
  0.00000000E+00  0.00000000E+00  0.00000000E+00
  0.00000000E+00  0.00000000E+00  0.00000000E+00
  0.00000000E+00  0.00000000E+00  0.00000000E+00
  0.00000000E+00  0.00000000E+00  0.00000000E+00
  0.00000000E+00  0.00000000E+00  0.00000000E+00
  0.00000000E+00  0.00000000E+00  0.00000000E+00
  0.00000000E+00  0.00000000E+00  0.00000000E+00
  0.00000000E+00  0.00000000E+00  0.00000000E+00
  0.00000000E+00  0.00000000E+00  0.00000000E+00
  0.00000000E+00  0.00000000E+00  0.00000000E+00
  0.00000000E+00  0.00000000E+00  0.00000000E+00
  0.00000000E+00  0.00000000E+00  0.00000000E+00
  0.00000000E+00  0.00000000E+00  0.00000000E+00
  0.00000000E+00  0.00000000E+00  0.00000000E+00
  0.00000000E+00  0.00000000E+00  0.00000000E+00
  0.00000000E+00  0.00000000E+00  0.00000000E+00
  0.00000000E+00  0.00000000E+00  0.00000000E+00
  0.00000000E+00  0.00000000E+00  0.00000000E+00
  0.00000000E+00  0.00000000E+00  0.00000000E+00
  0.00000000E+00  0.00000000E+00  0.00000000E+00
  0.00000000E+00  0.00000000E+00  0.00000000E+00
  0.00000000E+00  0.00000000E+00  0.00000000E+00
  0.00000000E+00  0.00000000E+00  0.00000000E+00
  0.00000000E+00  0.00000000E+00  0.00000000E+00
  0.00000000E+00  0.00000000E+00  0.00000000E+00
  0.00000000E+00  0.00000000E+00  0.00000000E+00
  0.00000000E+00  0.00000000E+00  0.00000000E+00
  0.00000000E+00  0.00000000E+00  0.00000000E+00
  0.00000000E+00  0.00000000E+00  0.00000000E+00
  0.00000000E+00  0.00000000E+00  0.00000000E+00
  0.00000000E+00  0.00000000E+00  0.00000000E+00
  0.00000000E+00  0.00000000E+00  0.00000000E+00
  0.00000000E+00  0.00000000E+00  0.00000000E+00
  0.00000000E+00  0.00000000E+00  0.00000000E+00
  0.00000000E+00  0.00000000E+00  0.00000000E+00
  0.00000000E+00  0.00000000E+00  0.00000000E+00
  0.00000000E+00  0.00000000E+00  0.00000000E+00
  0.00000000E+00  0.00000000E+00  0.00000000E+00
  0.00000000E+00  0.00000000E+00  0.00000000E+00
  0.00000000E+00  0.00000000E+00  0.00000000E+00
  0.00000000E+00  0.00000000E+00  0.00000000E+00
  0.00000000E+00  0.00000000E+00  0.00000000E+00
  0.00000000E+00  0.00000000E+00  0.00000000E+00
  0.00000000E+00  0.00000000E+00  0.00000000E+00
  0.00000000E+00  0.00000000E+00  0.00000000E+00
  0.00000000E+00  0.00000000E+00  0.00000000E+00
  0.00000000E+00  0.00000000E+00  0.00000000E+00
  0.00000000E+00  0.00000000E+00  0.00000000E+00
  0.00000000E+00  0.00000000E+00  0.00000000E+00
  0.00000000E+00  0.00000000E+00  0.00000000E+00
  0.00000000E+00  0.00000000E+00  0.00000000E+00
  0.00000000E+00  0.00000000E+00  0.00000000E+00
  0.00000000E+00  0.00000000E+00  0.00000000E+00
  0.00000000E+00  0.00000000E+00  0.00000000E+00
  0.00000000E+00  0.00000000E+00  0.00000000E+00
  0.00000000E+00  0.00000000E+00  0.00000000E+00
  0.00000000E+00  0.00000000E+00  0.00000000E+00
  0.00000000E+00  0.00000000E+00  0.00000000E+00
  0.00000000E+00  0.00000000E+00  0.00000000E+00
  0.00000000E+00  0.00000000E+00  0.00000000E+00
  0.00000000E+00  0.00000000E+00  0.00000000E+00
  0.00000000E+00  0.00000000E+00  0.00000000E+00
  0.00000000E+00  0.00000000E+00  0.00000000E+00
  0.00000000E+00  0.00000000E+00  0.00000000E+00
  0.00000000E+00  0.00000000E+00  0.00000000E+00
  0.00000000E+00  0.00000000E+00  0.00000000E+00
  0.00000000E+00  0.00000000E+00  0.00000000E+00
  0.00000000E+00  0.00000000E+00  0.00000000E+00
  0.00000000E+00  0.00000000E+00  0.00000000E+00
  0.00000000E+00  0.00000000E+00  0.00000000E+00
  0.00000000E+00  0.00000000E+00  0.00000000E+00
  0.00000000E+00  0.00000000E+00  0.00000000E+00
  0.00000000E+00  0.00000000E+00  0.00000000E+00
  0.00000000E+00  0.00000000E+00  0.00000000E+00
  0.00000000E+00  0.00000000E+00  0.00000000E+00
  0.00000000E+00  0.00000000E+00  0.00000000E+00
  0.00000000E+00  0.00000000E+00  0.00000000E+00
  0.00000000E+00  0.00000000E+00  0.00000000E+00
  0.00000000E+00  0.00000000E+00  0.00000000E+00
  0.00000000E+00  0.00000000E+00  0.00000000E+00
  0.00000000E+00  0.00000000E+00  0.00000000E+00
  0.00000000E+00  0.00000000E+00  0.00000000E+00
  0.00000000E+00  0.00000000E+00  0.00000000E+00
  0.00000000E+00  0.00000000E+00  0.00000000E+00
  0.00000000E+00  0.00000000E+00  0.00000000E+00
  0.00000000E+00  0.00000000E+00  0.00000000E+00
  0.00000000E+00  0.00000000E+00  0.00000000E+00
  0.00000000E+00  0.00000000E+00  0.00000000E+00
  0.00000000E+00  0.00000000E+00  0.00000000E+00
  0.00000000E+00  0.00000000E+00  0.00000000E+00
  0.00000000E+00  0.00000000E+00  0.00000000E+00
  0.00000000E+00  0.00000000E+00  0.00000000E+00
  0.00000000E+00  0.00000000E+00  0.00000000E+00
  0.00000000E+00  0.00000000E+00  0.00000000E+00
  0.00000000E+00  0.00000000E+00  0.00000000E+00
  0.00000000E+00  0.00000000E+00  0.00000000E+00
  0.00000000E+00  0.00000000E+00  0.00000000E+00
  0.00000000E+00  0.00000000E+00  0.00000000E+00
  0.00000000E+00  0.00000000E+00  0.00000000E+00
  0.00000000E+00  0.00000000E+00  0.00000000E+00
  0.00000000E+00  0.00000000E+00  0.00000000E+00
  0.00000000E+00  0.00000000E+00  0.00000000E+00
  0.00000000E+00  0.00000000E+00  0.00000000E+00
  0.00000000E+00  0.00000000E+00  0.00000000E+00
  0.00000000E+00  0.00000000E+00  0.00000000E+00
  0.00000000E+00  0.00000000E+00  0.00000000E+00
  0.00000000E+00  0.00000000E+00  0.00000000E+00
  0.00000000E+00  0.00000000E+00  0.00000000E+00
  0.00000000E+00  0.00000000E+00  0.00000000E+00
  0.00000000E+00  0.00000000E+00  0.00000000E+00
  0.00000000E+00  0.00000000E+00  0.00000000E+00
  0.00000000E+00  0.00000000E+00  0.00000000E+00
  0.00000000E+00  0.00000000E+00  0.00000000E+00
  0.00000000E+00  0.00000000E+00  0.00000000E+00
  0.00000000E+00  0.00000000E+00  0.00000000E+00
  0.00000000E+00  0.00000000E+00  0.00000000E+00
  0.00000000E+00  0.00000000E+00  0.00000000E+00
  0.00000000E+00  0.00000000E+00  0.00000000E+00
  0.00000000E+00  0.00000000E+00  0.00000000E+00
  0.00000000E+00  0.00000000E+00  0.00000000E+00
  0.00000000E+00  0.00000000E+00  0.00000000E+00
  0.00000000E+00  0.00000000E+00  0.00000000E+00
