generated by phonopy                    
   1.00000000000000     
    10.0351470768999995   -0.0000022330999784   -0.0000001056124209
    -5.0175765436399997    8.6906901959899994    0.0000001395531216
    -0.0000001735893656    0.0000001431815548   14.9533752540999991
   Pb   P    O 
    20    13    49
Direct
  0.0081512130996586  0.7610401700379654  0.1231707235960187
  0.9964179273889258  0.7707656093473290  0.6234173538402032
  0.9995625801987771  0.2585933461819536  0.3757662379549345
  0.9995767698665929  0.2589793447800517  0.8717855354949080
  0.2183092699180378  0.2158111094381141  0.1234738001818272
  0.2281151628066738  0.2269651598193363  0.6234571333383272
  0.7389854999297754  0.7392603041588117  0.3736020496900920
  0.7390000969641690  0.7405961993357266  0.8734121397122792
  0.7768529202348802  0.0023861671471579  0.1233277548980567
  0.7757965375189926  0.0033353604193636  0.6233909544196692
  0.2603075115857365  0.9959469422866007  0.3713190477109691
  0.2596014428504034  0.9963838573491941  0.8757567083881952
  0.6666624839847515  0.3309180300073535  0.0012402641270342
  0.6625142216099533  0.3321236690822857  0.5017736938654522
  0.3142940171817514  0.6545586692403305  0.9981155744978949
  0.3369572672939398  0.6704379754698593  0.5030374136589231
  0.3118023984337697  0.6531159094829562  0.2491906831843593
  0.3355974433142208  0.6697174373719648  0.7444378481732699
  0.6668068392563171  0.3312725389837254  0.2475531706636147
  0.6623838627510565  0.3332463775814389  0.7469614628461656
  0.6384310839994924  0.5787219425629715  0.1245086840036365
  0.6207920008753192  0.5982830254104528  0.6240487462467783
  0.3679713420467294  0.3958477702774701  0.3743666957953096
  0.3680855255515922  0.3960797534357638  0.8736318691416614
  0.3960977065844915  0.0253628369090464  0.1239694953140926
  0.4058001247223615  0.0292972533229374  0.6240920890817989
  0.6146065271687888  0.9807414425504248  0.3783806718660614
  0.6142333356092209  0.9808469197536169  0.8688125987847144
  0.9740992678726670  0.3776484995597329  0.1235875537196520
  0.9743616289896266  0.3755761449419808  0.6240792813978189
  0.0175569002551299  0.6312592527798699  0.3818414795644074
  0.0173828101653086  0.6314724260145681  0.8664274615870795
  0.5222767731932692  0.6999416637199403  0.1244183375205878
  0.4956236782480730  0.6479744052332634  0.6238135711072559
  0.4667879274986149  0.3160709200580598  0.3731971796967386
  0.4662720233591955  0.3156475135452865  0.8752683327809976
  0.3310824192016781  0.8486878124129618  0.1236335546577720
  0.3504798128441351  0.8534456702833069  0.6239569076242333
  0.6928985574442521  0.1593106270785540  0.3863194046317773
  0.6936006443952394  0.1595654743600008  0.8616722567298112
  0.1435325033566173  0.5133734326484216  0.1229220007754321
  0.1484434143076641  0.5016916052713896  0.6237779876189151
  0.8386046044648197  0.5361587488795436  0.3833875435232343
  0.8384296115885448  0.5362507670700580  0.8654403794962704
  0.7431572196694205  0.6232638137556847  0.0380413665095318
  0.7266903894272616  0.6616078050412355  0.5397612893758463
  0.2617015484308354  0.3512777981327631  0.4585916196781454
  0.2617756570170329  0.3559044568202765  0.9575316048198061
  0.3382862714491068  0.0754328403271103  0.0392714080504746
  0.3468765126525994  0.0755545454829232  0.5389760859335979
  0.6357321110673055  0.9033473221575576  0.4640922341710052
  0.6807841822383551  0.9347926863800780  0.9493581023383797
  0.9413304053313283  0.2800387301403759  0.0369654149659269
  0.9314968272693847  0.2687776014712782  0.5399346026344318
  0.0879056527393232  0.7442279593883825  0.4628931995352161
  0.0785072688417188  0.7350487896449991  0.9517775956245060
  0.2611043572411447  0.3541119420269965  0.2906632195717123
  0.2614620279861342  0.3507688888469360  0.7895699565093537
  0.7429295293652913  0.6234996176084451  0.2110966125509677
  0.7266185451610525  0.6623216384085566  0.7083592698641752
  0.6860470667512786  0.9371368579360180  0.2992634760106867
  0.6393718483286435  0.9044182702626742  0.7839283585856691
  0.3353304138635522  0.0738692482010777  0.2080353034500888
  0.3437961569165608  0.0744069367604396  0.7082999850211422
  0.0778869137760196  0.7355727637974638  0.2967392847880888
  0.0867776106873634  0.7451055905698212  0.7856088821807532
  0.9444494881654037  0.2793704232753811  0.2095898467592434
  0.9334885570029883  0.2673738721986254  0.7074158791016956
  0.5389664649614119  0.3968652041828875  0.1245529688736227
  0.5412307464410517  0.4184209549833540  0.6243032368459041
  0.4768912227540483  0.5771698843044248  0.3758387695243357
  0.4775091399706355  0.5772593043889600  0.8714457515508585
  0.5759724497007568  0.1179790479691150  0.1249028728638280
  0.5861022813318826  0.1269427412084170  0.6250317002660282
  0.4354090639462740  0.9106188340815393  0.3647248916274748
  0.4345648931146116  0.9111639244958312  0.8793219593990429
  0.8608969919223739  0.4428659667474832  0.1247541198940496
  0.8710235980890459  0.4522388500568368  0.6250793368123979
  0.0819418412106003  0.5169223533002238  0.3856437140621622
  0.0820238967946167  0.5173461187024202  0.8614695664520440
  0.9981445624484095  0.9824243210371080  0.1215197214581210
  0.0024263128230189  0.0003083748858401  0.6215138742476256
 
  0.00000000E+00  0.00000000E+00  0.00000000E+00
  0.00000000E+00  0.00000000E+00  0.00000000E+00
  0.00000000E+00  0.00000000E+00  0.00000000E+00
  0.00000000E+00  0.00000000E+00  0.00000000E+00
  0.00000000E+00  0.00000000E+00  0.00000000E+00
  0.00000000E+00  0.00000000E+00  0.00000000E+00
  0.00000000E+00  0.00000000E+00  0.00000000E+00
  0.00000000E+00  0.00000000E+00  0.00000000E+00
  0.00000000E+00  0.00000000E+00  0.00000000E+00
  0.00000000E+00  0.00000000E+00  0.00000000E+00
  0.00000000E+00  0.00000000E+00  0.00000000E+00
  0.00000000E+00  0.00000000E+00  0.00000000E+00
  0.00000000E+00  0.00000000E+00  0.00000000E+00
  0.00000000E+00  0.00000000E+00  0.00000000E+00
  0.00000000E+00  0.00000000E+00  0.00000000E+00
  0.00000000E+00  0.00000000E+00  0.00000000E+00
  0.00000000E+00  0.00000000E+00  0.00000000E+00
  0.00000000E+00  0.00000000E+00  0.00000000E+00
  0.00000000E+00  0.00000000E+00  0.00000000E+00
  0.00000000E+00  0.00000000E+00  0.00000000E+00
  0.00000000E+00  0.00000000E+00  0.00000000E+00
  0.00000000E+00  0.00000000E+00  0.00000000E+00
  0.00000000E+00  0.00000000E+00  0.00000000E+00
  0.00000000E+00  0.00000000E+00  0.00000000E+00
  0.00000000E+00  0.00000000E+00  0.00000000E+00
  0.00000000E+00  0.00000000E+00  0.00000000E+00
  0.00000000E+00  0.00000000E+00  0.00000000E+00
  0.00000000E+00  0.00000000E+00  0.00000000E+00
  0.00000000E+00  0.00000000E+00  0.00000000E+00
  0.00000000E+00  0.00000000E+00  0.00000000E+00
  0.00000000E+00  0.00000000E+00  0.00000000E+00
  0.00000000E+00  0.00000000E+00  0.00000000E+00
  0.00000000E+00  0.00000000E+00  0.00000000E+00
  0.00000000E+00  0.00000000E+00  0.00000000E+00
  0.00000000E+00  0.00000000E+00  0.00000000E+00
  0.00000000E+00  0.00000000E+00  0.00000000E+00
  0.00000000E+00  0.00000000E+00  0.00000000E+00
  0.00000000E+00  0.00000000E+00  0.00000000E+00
  0.00000000E+00  0.00000000E+00  0.00000000E+00
  0.00000000E+00  0.00000000E+00  0.00000000E+00
  0.00000000E+00  0.00000000E+00  0.00000000E+00
  0.00000000E+00  0.00000000E+00  0.00000000E+00
  0.00000000E+00  0.00000000E+00  0.00000000E+00
  0.00000000E+00  0.00000000E+00  0.00000000E+00
  0.00000000E+00  0.00000000E+00  0.00000000E+00
  0.00000000E+00  0.00000000E+00  0.00000000E+00
  0.00000000E+00  0.00000000E+00  0.00000000E+00
  0.00000000E+00  0.00000000E+00  0.00000000E+00
  0.00000000E+00  0.00000000E+00  0.00000000E+00
  0.00000000E+00  0.00000000E+00  0.00000000E+00
  0.00000000E+00  0.00000000E+00  0.00000000E+00
  0.00000000E+00  0.00000000E+00  0.00000000E+00
  0.00000000E+00  0.00000000E+00  0.00000000E+00
  0.00000000E+00  0.00000000E+00  0.00000000E+00
  0.00000000E+00  0.00000000E+00  0.00000000E+00
  0.00000000E+00  0.00000000E+00  0.00000000E+00
  0.00000000E+00  0.00000000E+00  0.00000000E+00
  0.00000000E+00  0.00000000E+00  0.00000000E+00
  0.00000000E+00  0.00000000E+00  0.00000000E+00
  0.00000000E+00  0.00000000E+00  0.00000000E+00
  0.00000000E+00  0.00000000E+00  0.00000000E+00
  0.00000000E+00  0.00000000E+00  0.00000000E+00
  0.00000000E+00  0.00000000E+00  0.00000000E+00
  0.00000000E+00  0.00000000E+00  0.00000000E+00
  0.00000000E+00  0.00000000E+00  0.00000000E+00
  0.00000000E+00  0.00000000E+00  0.00000000E+00
  0.00000000E+00  0.00000000E+00  0.00000000E+00
  0.00000000E+00  0.00000000E+00  0.00000000E+00
  0.00000000E+00  0.00000000E+00  0.00000000E+00
  0.00000000E+00  0.00000000E+00  0.00000000E+00
  0.00000000E+00  0.00000000E+00  0.00000000E+00
  0.00000000E+00  0.00000000E+00  0.00000000E+00
  0.00000000E+00  0.00000000E+00  0.00000000E+00
  0.00000000E+00  0.00000000E+00  0.00000000E+00
  0.00000000E+00  0.00000000E+00  0.00000000E+00
  0.00000000E+00  0.00000000E+00  0.00000000E+00
  0.00000000E+00  0.00000000E+00  0.00000000E+00
  0.00000000E+00  0.00000000E+00  0.00000000E+00
  0.00000000E+00  0.00000000E+00  0.00000000E+00
  0.00000000E+00  0.00000000E+00  0.00000000E+00
  0.00000000E+00  0.00000000E+00  0.00000000E+00
  0.00000000E+00  0.00000000E+00  0.00000000E+00
