supercell of icsd_608626.cif            
  0.966543952599769     
     9.3843912811968160   -0.0539333109640227   -0.0251980534304817
    -4.7389479332045070    8.1209617354957420    0.0218241309769312
    -0.0275075068056374    0.0116943051113812    9.7631950726652690
   Al   B    N 
    28     8    36
Direct
  0.2327888829430051  0.1073375625756370  0.2631591657953365
  0.8814182143532392  0.1142683314562305  0.7489204689481426
  0.7642508792912039  0.2193785494061942  0.9979084876878801
  0.2303465968287739  0.1110200936144352  0.7147653785885240
  0.1213931779553832  0.2230346880180463  0.9917482908005297
  0.8936157346121405  0.1181020488932845  0.2517635994765612
  0.7634873605649304  0.2212861138155375  0.4984300005493907
  0.2184516901013538  0.4392678598882540  0.2513283507157524
  0.1135055574383941  0.5639460553306890  0.5099697331353070
  0.8869055546082762  0.4416228997196257  0.7482231223581621
  0.7742260740664904  0.5525640511059535  0.0003439558873026
  0.5483287317716332  0.4272504287576382  0.2456270796385667
  0.4317131802956311  0.5363889387337153  0.5043188576548019
  0.1155521511798270  0.5590852481465305  0.9843165113969121
  0.8871957549053633  0.4424007506680496  0.2487920113397379
  0.7733179393377014  0.5530745436725226  0.4966061106265727
  0.5450639843723550  0.4256444987147177  0.7488762430473628
  0.4409208605619384  0.5478213159293830  0.9941116122565248
  0.2265204986759812  0.7854080523709541  0.2492417915600527
  0.8960653626701287  0.7761807562642815  0.7422150969763308
  0.7802773573574413  0.8898308081707924  0.0021215944184405
  0.5547808652404527  0.7822050747867380  0.2505911294767600
  0.4405383150525424  0.8986593818846202  0.5023915629830356
  0.1217717313082147  0.8993422124536750  0.9888978605180441
  0.9002004898555924  0.7835529983884868  0.2551559947696163
  0.7936830972313658  0.8972079618020246  0.4998520016750163
  0.5474052497861450  0.7772804598509495  0.7475806300859915
  0.4454273563017495  0.9012294868755433  0.9905568678520353
  0.0846781453150030  0.2605564950264991  0.5225615566693378
  0.5503541224885993  0.1119129456069885  0.2455505101192514
  0.4418880313495492  0.2009310263364341  0.5002882351521691
  0.5439113646738392  0.1119671257303949  0.7498503064698525
  0.4445160059049300  0.2164921931099855  0.9916447975543718
  0.2263778506837468  0.4556086960381975  0.7534824900464159
  0.1321557310604717  0.8883983550058545  0.5092582317329430
  0.2334819491554327  0.7880632397305334  0.7529737060857826
  0.2432090073957553  0.0864850713033505  0.4657854366579315
  0.1188181287435413  0.2191334967546510  0.1906979941695539
  0.8890189443576944  0.1150068169252734  0.9454829212732889
  0.7437866315990647  0.2039369853179380  0.6974923968282809
  0.5446939741866359  0.1193429337128578  0.4207091225554436
  0.4539183894272512  0.2040270306708933  0.1720459150641673
  0.2483993823591959  0.1265973244120246  0.9272848543390069
  0.1116938621759758  0.2551378293126376  0.6796431046260665
  0.9135670230497794  0.1351680286317460  0.4558746786017736
  0.7527549127548170  0.2090834921351572  0.1994964459809268
  0.5408694274865979  0.1259044756190804  0.9211990047690577
  0.4612442732162947  0.2068076307496440  0.6707190906047558
  0.2010724020465844  0.4246790473721305  0.4494861430065740
  0.1160667303761400  0.5579485280566772  0.1863390588832559
  0.8867776073189333  0.4435285834630776  0.9441844035252345
  0.7709310179211641  0.5511487986265706  0.6930468114737991
  0.5327532338602765  0.4092579273680172  0.4467028818199026
  0.4428342925478574  0.5529191161947509  0.1946996347350449
  0.2208829697716581  0.4429008970395074  0.9193501197085183
  0.1362882786709463  0.5692012524009087  0.7069149579479799
  0.8905716329428728  0.4460537795738091  0.4480064993260768
  0.7770627718526626  0.5576889953570685  0.1996340192357238
  0.5417494933889273  0.4165451000867151  0.9494199885739434
  0.4202719258355572  0.5391558400798502  0.7027255263068000
  0.2138438171216137  0.7844240828055007  0.4460661745979877
  0.1164591532275026  0.8922071184146532  0.1843617923115488
  0.8907983339694141  0.7792672974604997  0.9401768163851045
  0.7801230477222987  0.8892087907351112  0.6945461592428757
  0.5535200228275343  0.7752270745741257  0.4513782245911742
  0.4573708498976714  0.9144725934302755  0.1939194914647260
  0.2242973322720374  0.7831856464312636  0.9188227136859410
  0.1260473021193818  0.8700866709757022  0.6811974902402795
  0.9203063396857445  0.7935826875813916  0.4542698765144735
  0.7822488467811866  0.8914776250015919  0.2027360873077129
  0.5541096509424719  0.7787119411438965  0.9460899941898475
  0.4351231408481624  0.9021682424023254  0.7040708254064256
 
  0.00000000E+00  0.00000000E+00  0.00000000E+00
  0.00000000E+00  0.00000000E+00  0.00000000E+00
  0.00000000E+00  0.00000000E+00  0.00000000E+00
  0.00000000E+00  0.00000000E+00  0.00000000E+00
  0.00000000E+00  0.00000000E+00  0.00000000E+00
  0.00000000E+00  0.00000000E+00  0.00000000E+00
  0.00000000E+00  0.00000000E+00  0.00000000E+00
  0.00000000E+00  0.00000000E+00  0.00000000E+00
  0.00000000E+00  0.00000000E+00  0.00000000E+00
  0.00000000E+00  0.00000000E+00  0.00000000E+00
  0.00000000E+00  0.00000000E+00  0.00000000E+00
  0.00000000E+00  0.00000000E+00  0.00000000E+00
  0.00000000E+00  0.00000000E+00  0.00000000E+00
  0.00000000E+00  0.00000000E+00  0.00000000E+00
  0.00000000E+00  0.00000000E+00  0.00000000E+00
  0.00000000E+00  0.00000000E+00  0.00000000E+00
  0.00000000E+00  0.00000000E+00  0.00000000E+00
  0.00000000E+00  0.00000000E+00  0.00000000E+00
  0.00000000E+00  0.00000000E+00  0.00000000E+00
  0.00000000E+00  0.00000000E+00  0.00000000E+00
  0.00000000E+00  0.00000000E+00  0.00000000E+00
  0.00000000E+00  0.00000000E+00  0.00000000E+00
  0.00000000E+00  0.00000000E+00  0.00000000E+00
  0.00000000E+00  0.00000000E+00  0.00000000E+00
  0.00000000E+00  0.00000000E+00  0.00000000E+00
  0.00000000E+00  0.00000000E+00  0.00000000E+00
  0.00000000E+00  0.00000000E+00  0.00000000E+00
  0.00000000E+00  0.00000000E+00  0.00000000E+00
  0.00000000E+00  0.00000000E+00  0.00000000E+00
  0.00000000E+00  0.00000000E+00  0.00000000E+00
  0.00000000E+00  0.00000000E+00  0.00000000E+00
  0.00000000E+00  0.00000000E+00  0.00000000E+00
  0.00000000E+00  0.00000000E+00  0.00000000E+00
  0.00000000E+00  0.00000000E+00  0.00000000E+00
  0.00000000E+00  0.00000000E+00  0.00000000E+00
  0.00000000E+00  0.00000000E+00  0.00000000E+00
  0.00000000E+00  0.00000000E+00  0.00000000E+00
  0.00000000E+00  0.00000000E+00  0.00000000E+00
  0.00000000E+00  0.00000000E+00  0.00000000E+00
  0.00000000E+00  0.00000000E+00  0.00000000E+00
  0.00000000E+00  0.00000000E+00  0.00000000E+00
  0.00000000E+00  0.00000000E+00  0.00000000E+00
  0.00000000E+00  0.00000000E+00  0.00000000E+00
  0.00000000E+00  0.00000000E+00  0.00000000E+00
  0.00000000E+00  0.00000000E+00  0.00000000E+00
  0.00000000E+00  0.00000000E+00  0.00000000E+00
  0.00000000E+00  0.00000000E+00  0.00000000E+00
  0.00000000E+00  0.00000000E+00  0.00000000E+00
  0.00000000E+00  0.00000000E+00  0.00000000E+00
  0.00000000E+00  0.00000000E+00  0.00000000E+00
  0.00000000E+00  0.00000000E+00  0.00000000E+00
  0.00000000E+00  0.00000000E+00  0.00000000E+00
  0.00000000E+00  0.00000000E+00  0.00000000E+00
  0.00000000E+00  0.00000000E+00  0.00000000E+00
  0.00000000E+00  0.00000000E+00  0.00000000E+00
  0.00000000E+00  0.00000000E+00  0.00000000E+00
  0.00000000E+00  0.00000000E+00  0.00000000E+00
  0.00000000E+00  0.00000000E+00  0.00000000E+00
  0.00000000E+00  0.00000000E+00  0.00000000E+00
  0.00000000E+00  0.00000000E+00  0.00000000E+00
  0.00000000E+00  0.00000000E+00  0.00000000E+00
  0.00000000E+00  0.00000000E+00  0.00000000E+00
  0.00000000E+00  0.00000000E+00  0.00000000E+00
  0.00000000E+00  0.00000000E+00  0.00000000E+00
  0.00000000E+00  0.00000000E+00  0.00000000E+00
  0.00000000E+00  0.00000000E+00  0.00000000E+00
  0.00000000E+00  0.00000000E+00  0.00000000E+00
  0.00000000E+00  0.00000000E+00  0.00000000E+00
  0.00000000E+00  0.00000000E+00  0.00000000E+00
  0.00000000E+00  0.00000000E+00  0.00000000E+00
  0.00000000E+00  0.00000000E+00  0.00000000E+00
  0.00000000E+00  0.00000000E+00  0.00000000E+00
