supercell of icsd_608626.cif            
   1.07770222697014     
     9.0823985925932558   -0.0744073904865786   -0.0155711846145869
    -4.6049825953698367    8.0652631105526442   -0.0357759213061889
    -0.0156958524027335   -0.0555529109172922    9.6603190768609064
   Al   La   N 
    28     8    36
Direct
  0.2150217416502613  0.1226726141542045  0.2679634103188349
  0.1028777483395515  0.2384737065222780  0.4922335643844917
  0.8778407018852334  0.1143946932185571  0.7334613497495326
  0.7768488247546728  0.2341960719388396  0.0094522178970706
  0.5423110539914688  0.1148016286879852  0.2314562451599045
  0.4561053650202638  0.2307256577132861  0.4801487839394625
  0.1174023217830609  0.2501178990575070  0.9928025941747975
  0.8877243613504930  0.1111611044553769  0.2583810729870137
  0.7726100340232520  0.2208942379921410  0.4833202699652190
  0.5618366645885544  0.1066500561159671  0.7618198561249727
  0.4488904697749803  0.2433387929478954  0.0165590695546527
  0.2123723367111481  0.4333624984864244  0.2492011168592967
  0.1175562433482042  0.5537559770288212  0.4855722056297296
  0.7819505156472033  0.5564120588221400  0.0340294056215740
  0.5446190892931142  0.4375187339274476  0.2501414822208758
  0.4456374704207207  0.5547891048592888  0.5020459680084031
  0.2346479446498506  0.4608767555707587  0.7431494730711279
  0.1105993668569951  0.5527164993227274  0.0098126894697828
  0.8891450492267481  0.4376583094574755  0.2450499723962380
  0.7765025767853189  0.5416561613132131  0.4773741818872423
  0.4336536482260627  0.5426152542845060  0.0087138733217955
  0.2081107916618379  0.7701693874737003  0.2486167713944454
  0.1096357722791979  0.8746243331516581  0.4613797494748439
  0.2344034756159061  0.7640100584834144  0.7500809699663051
  0.8817481970552024  0.7771542439232988  0.2746805741340310
  0.7757337739025729  0.8888204088015499  0.5044437347000681
  0.5536682716401344  0.7705195021992992  0.7586075919785955
  0.4315905482002265  0.8743057655797060  0.9632079613404940
  0.2128905533756793  0.1073716725636658  0.7135929499438660
  0.9159520890672468  0.4179047521122428  0.7549929104386592
  0.5550288031268380  0.4240973497073668  0.7587636069596471
  0.9071697517672561  0.7609636047662747  0.7294585734700334
  0.7962186914609504  0.9111023932418831  0.9942775274795324
  0.5287986479378830  0.7763855499389578  0.2468625293209641
  0.4386942005092180  0.9125708451902597  0.5301290040857580
  0.1517527379506802  0.9168511698659003  0.0265048711353160
  0.2214716463549564  0.1270762081043557  0.4515148973312293
  0.0992024542723158  0.2193840253694077  0.1885505647682493
  0.9058571874947035  0.1693046392170956  0.9159914314247644
  0.7434294134001647  0.1764520088323280  0.6633446997119776
  0.5677095451423071  0.1400625976537810  0.4087708809181336
  0.4293501775099458  0.2202560079190690  0.1972013295494861
  0.2456480432652057  0.1678723337770478  0.9409950401119147
  0.0867315187987217  0.2580044169336162  0.6723115457809428
  0.8844667803473669  0.1100630237298290  0.4404645152483866
  0.7703446372806155  0.2080647603533876  0.1895248709753474
  0.5589678694332463  0.1374310882664957  0.9433006427131758
  0.4626175841584299  0.1839358611496920  0.6559256126343200
  0.2255206701510062  0.4455954975776848  0.4314858924706968
  0.1158496591338647  0.5544588730348110  0.1917935492514005
  0.8854866686188316  0.4477313510028580  0.9876923642652855
  0.7829177220708132  0.5237650853066427  0.6541608855853269
  0.5500223100236781  0.4436229454921090  0.4386036269635554
  0.4181538864218410  0.5185864200419061  0.1886858634120259
  0.2219316490518040  0.4548942436774794  0.9345025317016677
  0.1600590820915997  0.5799948734548934  0.6649582291476790
  0.8952664680164233  0.4351499351208261  0.4317338723357409
  0.7767396673433922  0.5565557978516509  0.2204581017395526
  0.5660650227335395  0.4546485080084324  0.9857210190375909
  0.4438518230369368  0.5664831289402699  0.6870635141128716
  0.2044872545770886  0.7524610014621373  0.4201587218077663
  0.1055237360874912  0.8947927701764371  0.2545875852034740
  0.8939200235339086  0.7506474421275016  0.9621834782634409
  0.7718760569904148  0.8999797504791829  0.6989225370424634
  0.5616622441044754  0.7666347534614673  0.4679633023796228
  0.4005738410277928  0.9073136682396168  0.1551557895237323
  0.2089715346184917  0.7442258606462389  0.9265749477337124
  0.1593978724169602  0.8663726996777612  0.6466193671318266
  0.8816500111870340  0.7720442067804285  0.4596320534487361
  0.7996009958419705  0.8992719984258386  0.2190625488593625
  0.5309239486735962  0.7507753642163735  0.9517776910903066
  0.4562011609111210  0.8904480006153435  0.7623183677596899
 
  0.00000000E+00  0.00000000E+00  0.00000000E+00
  0.00000000E+00  0.00000000E+00  0.00000000E+00
  0.00000000E+00  0.00000000E+00  0.00000000E+00
  0.00000000E+00  0.00000000E+00  0.00000000E+00
  0.00000000E+00  0.00000000E+00  0.00000000E+00
  0.00000000E+00  0.00000000E+00  0.00000000E+00
  0.00000000E+00  0.00000000E+00  0.00000000E+00
  0.00000000E+00  0.00000000E+00  0.00000000E+00
  0.00000000E+00  0.00000000E+00  0.00000000E+00
  0.00000000E+00  0.00000000E+00  0.00000000E+00
  0.00000000E+00  0.00000000E+00  0.00000000E+00
  0.00000000E+00  0.00000000E+00  0.00000000E+00
  0.00000000E+00  0.00000000E+00  0.00000000E+00
  0.00000000E+00  0.00000000E+00  0.00000000E+00
  0.00000000E+00  0.00000000E+00  0.00000000E+00
  0.00000000E+00  0.00000000E+00  0.00000000E+00
  0.00000000E+00  0.00000000E+00  0.00000000E+00
  0.00000000E+00  0.00000000E+00  0.00000000E+00
  0.00000000E+00  0.00000000E+00  0.00000000E+00
  0.00000000E+00  0.00000000E+00  0.00000000E+00
  0.00000000E+00  0.00000000E+00  0.00000000E+00
  0.00000000E+00  0.00000000E+00  0.00000000E+00
  0.00000000E+00  0.00000000E+00  0.00000000E+00
  0.00000000E+00  0.00000000E+00  0.00000000E+00
  0.00000000E+00  0.00000000E+00  0.00000000E+00
  0.00000000E+00  0.00000000E+00  0.00000000E+00
  0.00000000E+00  0.00000000E+00  0.00000000E+00
  0.00000000E+00  0.00000000E+00  0.00000000E+00
  0.00000000E+00  0.00000000E+00  0.00000000E+00
  0.00000000E+00  0.00000000E+00  0.00000000E+00
  0.00000000E+00  0.00000000E+00  0.00000000E+00
  0.00000000E+00  0.00000000E+00  0.00000000E+00
  0.00000000E+00  0.00000000E+00  0.00000000E+00
  0.00000000E+00  0.00000000E+00  0.00000000E+00
  0.00000000E+00  0.00000000E+00  0.00000000E+00
  0.00000000E+00  0.00000000E+00  0.00000000E+00
  0.00000000E+00  0.00000000E+00  0.00000000E+00
  0.00000000E+00  0.00000000E+00  0.00000000E+00
  0.00000000E+00  0.00000000E+00  0.00000000E+00
  0.00000000E+00  0.00000000E+00  0.00000000E+00
  0.00000000E+00  0.00000000E+00  0.00000000E+00
  0.00000000E+00  0.00000000E+00  0.00000000E+00
  0.00000000E+00  0.00000000E+00  0.00000000E+00
  0.00000000E+00  0.00000000E+00  0.00000000E+00
  0.00000000E+00  0.00000000E+00  0.00000000E+00
  0.00000000E+00  0.00000000E+00  0.00000000E+00
  0.00000000E+00  0.00000000E+00  0.00000000E+00
  0.00000000E+00  0.00000000E+00  0.00000000E+00
  0.00000000E+00  0.00000000E+00  0.00000000E+00
  0.00000000E+00  0.00000000E+00  0.00000000E+00
  0.00000000E+00  0.00000000E+00  0.00000000E+00
  0.00000000E+00  0.00000000E+00  0.00000000E+00
  0.00000000E+00  0.00000000E+00  0.00000000E+00
  0.00000000E+00  0.00000000E+00  0.00000000E+00
  0.00000000E+00  0.00000000E+00  0.00000000E+00
  0.00000000E+00  0.00000000E+00  0.00000000E+00
  0.00000000E+00  0.00000000E+00  0.00000000E+00
  0.00000000E+00  0.00000000E+00  0.00000000E+00
  0.00000000E+00  0.00000000E+00  0.00000000E+00
  0.00000000E+00  0.00000000E+00  0.00000000E+00
  0.00000000E+00  0.00000000E+00  0.00000000E+00
  0.00000000E+00  0.00000000E+00  0.00000000E+00
  0.00000000E+00  0.00000000E+00  0.00000000E+00
  0.00000000E+00  0.00000000E+00  0.00000000E+00
  0.00000000E+00  0.00000000E+00  0.00000000E+00
  0.00000000E+00  0.00000000E+00  0.00000000E+00
  0.00000000E+00  0.00000000E+00  0.00000000E+00
  0.00000000E+00  0.00000000E+00  0.00000000E+00
  0.00000000E+00  0.00000000E+00  0.00000000E+00
  0.00000000E+00  0.00000000E+00  0.00000000E+00
  0.00000000E+00  0.00000000E+00  0.00000000E+00
  0.00000000E+00  0.00000000E+00  0.00000000E+00
