supercell of icsd_181358.cif            
   1.00000000000000     
    10.0594582409467108   -0.0078826790316591   -0.0195353862085641
    -5.0365363385489710    8.7612082919232375   -0.0179144573454357
    -0.0211286731267470   -0.0348848696840659   10.6321303262762505
   N    Ga   Y 
    36    26    10
Direct
  0.2258494281625261  0.0915776322259205  0.4458705395220193
  0.1117618076591569  0.2238983384159283  0.2010533190991808
  0.9000407009418367  0.1058183593054309  0.9340891814060441
  0.7815152974748969  0.2201947034274809  0.6956478369707639
  0.5274787360720197  0.0885636265417702  0.4456263142614816
  0.4418991058997435  0.2211164407088830  0.2216639609309823
  0.2053731780722785  0.1061807850843124  0.9474389055522252
  0.1000419116984190  0.2342100756152945  0.6869056662250017
  0.8775063297012551  0.0784348906376593  0.4300651305522081
  0.7737296629827028  0.2235363334566074  0.2356090219670932
  0.5627513207636170  0.1209497676072360  0.9254857713561933
  0.4702335839507938  0.2342590703550940  0.6793295275196982
  0.2393314637491315  0.4808088891952025  0.4290642478398823
  0.0919908003099223  0.5293406071489102  0.1895593725322158
  0.8852927086618081  0.4365733578571920  0.9198923875535456
  0.7778288414255954  0.5573929558951107  0.6955189418374985
  0.5548057030100040  0.4454327213906382  0.4456883506428184
  0.4480232584484583  0.5589068090944238  0.1855727895857200
  0.2367232879305945  0.4276985714514794  0.9319195393634629
  0.1155872198774404  0.5544583902981941  0.6980674126902642
  0.9061025962200375  0.4768035116932765  0.4463848483358603
  0.7617066675336162  0.5291197017362776  0.1939658345908413
  0.5391513801107166  0.4450575698669681  0.9173265930325982
  0.4434288911138395  0.5546184429818624  0.6798200126769913
  0.2241681083095628  0.7780355657135942  0.4667648740828554
  0.1150480359115846  0.9053477808170385  0.1838901533826771
  0.9006344942343389  0.8039126564430603  0.9315358790750849
  0.7788911724753191  0.8915179977588821  0.6895773427984366
  0.5586604103655688  0.7790902027362350  0.4400843081274601
  0.4605255881516683  0.8998731666044222  0.1940248151850383
  0.2097043400175735  0.7953175175388125  0.9296922248430235
  0.0970696055624458  0.8660021098615900  0.6864690941010068
  0.8842920243301080  0.7747915876891156  0.4587157654492984
  0.7635540534505338  0.9047518116542861  0.1726058485988489
  0.5713484887708447  0.7608130889715170  0.9256940213344720
  0.4471251217188339  0.8868559197894754  0.6996398063656031
  0.2223438223298331  0.1080120427232032  0.2565441348750426
  0.1114992639966559  0.2177114389428283  0.0019173669329717
  0.8903423655327316  0.1150553093745543  0.7506867808738207
  0.5470771055682562  0.1041011628179334  0.2655437323302792
  0.8820384834272375  0.1040113172210582  0.2520364545972242
  0.5671259893656853  0.1194346898983767  0.7445631793579324
  0.4449730080322780  0.2171804975199763  0.4963807477386055
  0.2244937354696432  0.4497737165640174  0.2459006946325246
  0.8875658092636627  0.4393254625433443  0.7415897644874576
  0.7799540205663149  0.5620806180122173  0.5090016914151860
  0.5530408024561311  0.4403076661906127  0.2619328985352354
  0.4491402598524701  0.5523267502917619  0.9930567770089027
  0.2264534290210420  0.4423602198686893  0.7465823780220830
  0.1190349383495217  0.5662255209905993  0.5093654646090826
  0.8868300505091042  0.4460246608104228  0.2628954398263019
  0.5554842744853659  0.4466711506901078  0.7372353936254541
  0.4484761696510517  0.5644703140400864  0.4954733823994104
  0.1071449048584228  0.8991271390478914  0.9967523465988677
  0.8882902888965205  0.7804020685886570  0.7454391450411890
  0.7740456947254373  0.8819520529684937  0.5060333028222885
  0.5572980397196687  0.7849861065947934  0.2506074974833936
  0.2164230291752602  0.7761827072403804  0.7441401062224671
  0.1057218951457699  0.8778844970305286  0.5069062721787105
  0.7827182209986674  0.8939945837757222  0.9879450504946874
  0.5605122813606158  0.7710730363783114  0.7439289664867204
  0.4410100222577071  0.8832576702122168  0.5115824303287368
  0.7749636201958054  0.2212338090612178  0.4831638218092564
  0.4403327287355197  0.2256325263181793  0.0103387122420600
  0.2225077168779421  0.1113098531760031  0.7403353766322596
  0.1177755719124107  0.2317223422022181  0.4789558906989910
  0.7854043729977462  0.2216610973010376  0.0170459515625581
  0.1176466694002727  0.5538548743714102  0.9804090413146866
  0.7751028550923067  0.5614191691479604  0.9812163982219673
  0.2211853367438437  0.7732470487691216  0.2574390388891672
  0.4518968790870233  0.8867271896125075  0.9810729435831931
  0.8749710188732536  0.7779987321344066  0.2497217867329482
 
  0.00000000E+00  0.00000000E+00  0.00000000E+00
  0.00000000E+00  0.00000000E+00  0.00000000E+00
  0.00000000E+00  0.00000000E+00  0.00000000E+00
  0.00000000E+00  0.00000000E+00  0.00000000E+00
  0.00000000E+00  0.00000000E+00  0.00000000E+00
  0.00000000E+00  0.00000000E+00  0.00000000E+00
  0.00000000E+00  0.00000000E+00  0.00000000E+00
  0.00000000E+00  0.00000000E+00  0.00000000E+00
  0.00000000E+00  0.00000000E+00  0.00000000E+00
  0.00000000E+00  0.00000000E+00  0.00000000E+00
  0.00000000E+00  0.00000000E+00  0.00000000E+00
  0.00000000E+00  0.00000000E+00  0.00000000E+00
  0.00000000E+00  0.00000000E+00  0.00000000E+00
  0.00000000E+00  0.00000000E+00  0.00000000E+00
  0.00000000E+00  0.00000000E+00  0.00000000E+00
  0.00000000E+00  0.00000000E+00  0.00000000E+00
  0.00000000E+00  0.00000000E+00  0.00000000E+00
  0.00000000E+00  0.00000000E+00  0.00000000E+00
  0.00000000E+00  0.00000000E+00  0.00000000E+00
  0.00000000E+00  0.00000000E+00  0.00000000E+00
  0.00000000E+00  0.00000000E+00  0.00000000E+00
  0.00000000E+00  0.00000000E+00  0.00000000E+00
  0.00000000E+00  0.00000000E+00  0.00000000E+00
  0.00000000E+00  0.00000000E+00  0.00000000E+00
  0.00000000E+00  0.00000000E+00  0.00000000E+00
  0.00000000E+00  0.00000000E+00  0.00000000E+00
  0.00000000E+00  0.00000000E+00  0.00000000E+00
  0.00000000E+00  0.00000000E+00  0.00000000E+00
  0.00000000E+00  0.00000000E+00  0.00000000E+00
  0.00000000E+00  0.00000000E+00  0.00000000E+00
  0.00000000E+00  0.00000000E+00  0.00000000E+00
  0.00000000E+00  0.00000000E+00  0.00000000E+00
  0.00000000E+00  0.00000000E+00  0.00000000E+00
  0.00000000E+00  0.00000000E+00  0.00000000E+00
  0.00000000E+00  0.00000000E+00  0.00000000E+00
  0.00000000E+00  0.00000000E+00  0.00000000E+00
  0.00000000E+00  0.00000000E+00  0.00000000E+00
  0.00000000E+00  0.00000000E+00  0.00000000E+00
  0.00000000E+00  0.00000000E+00  0.00000000E+00
  0.00000000E+00  0.00000000E+00  0.00000000E+00
  0.00000000E+00  0.00000000E+00  0.00000000E+00
  0.00000000E+00  0.00000000E+00  0.00000000E+00
  0.00000000E+00  0.00000000E+00  0.00000000E+00
  0.00000000E+00  0.00000000E+00  0.00000000E+00
  0.00000000E+00  0.00000000E+00  0.00000000E+00
  0.00000000E+00  0.00000000E+00  0.00000000E+00
  0.00000000E+00  0.00000000E+00  0.00000000E+00
  0.00000000E+00  0.00000000E+00  0.00000000E+00
  0.00000000E+00  0.00000000E+00  0.00000000E+00
  0.00000000E+00  0.00000000E+00  0.00000000E+00
  0.00000000E+00  0.00000000E+00  0.00000000E+00
  0.00000000E+00  0.00000000E+00  0.00000000E+00
  0.00000000E+00  0.00000000E+00  0.00000000E+00
  0.00000000E+00  0.00000000E+00  0.00000000E+00
  0.00000000E+00  0.00000000E+00  0.00000000E+00
  0.00000000E+00  0.00000000E+00  0.00000000E+00
  0.00000000E+00  0.00000000E+00  0.00000000E+00
  0.00000000E+00  0.00000000E+00  0.00000000E+00
  0.00000000E+00  0.00000000E+00  0.00000000E+00
  0.00000000E+00  0.00000000E+00  0.00000000E+00
  0.00000000E+00  0.00000000E+00  0.00000000E+00
  0.00000000E+00  0.00000000E+00  0.00000000E+00
  0.00000000E+00  0.00000000E+00  0.00000000E+00
  0.00000000E+00  0.00000000E+00  0.00000000E+00
  0.00000000E+00  0.00000000E+00  0.00000000E+00
  0.00000000E+00  0.00000000E+00  0.00000000E+00
  0.00000000E+00  0.00000000E+00  0.00000000E+00
  0.00000000E+00  0.00000000E+00  0.00000000E+00
  0.00000000E+00  0.00000000E+00  0.00000000E+00
  0.00000000E+00  0.00000000E+00  0.00000000E+00
  0.00000000E+00  0.00000000E+00  0.00000000E+00
  0.00000000E+00  0.00000000E+00  0.00000000E+00
