supercell of icsd_181358.cif            
   1.00000000000000     
    10.6676645249644402    0.0386387853290486   -0.0015812622516898
    -5.3005985242920115    9.1573397224763315   -0.0051957725280631
    -0.0022010495993422   -0.0097183124765523   10.3280836974619987
   N    Ga   Y 
    36    20    16
Direct
  0.2319842340468696  0.0770899806535041  0.4527264998329841
  0.1755991820704992  0.2486109110857271  0.2345319082833512
  0.8865177462435128  0.0908817030038662  0.9438210528964603
  0.7626597677646387  0.2280331364541439  0.6999367014087525
  0.5846279404153663  0.1209304393727990  0.4342124207203639
  0.4474205901360406  0.1981267703490346  0.1963141320857176
  0.2485472590100599  0.1188560905055382  0.9437128993881601
  0.1169693271202092  0.2119762449950358  0.6710907015538794
  0.8607465442840407  0.0965919595065188  0.4519803937143863
  0.7702723522208501  0.2174534892039617  0.2000144446380645
  0.5327477123067084  0.0985636921314494  0.9416862626864244
  0.4746981925249472  0.2450494327198030  0.7043222305303090
  0.2207682021362558  0.4660228232063162  0.4619813522652834
  0.0963188860909767  0.5132739960132113  0.1896187293367078
  0.8681864015169865  0.4481110528439061  0.9317897746470010
  0.7728371339749813  0.5566216344104831  0.7041832323809487
  0.5808962952462693  0.4577682137188503  0.4238788211688913
  0.4410165463811566  0.5791578614448127  0.2136313163539825
  0.2184685655868677  0.4329042871442041  0.9319513352758761
  0.0898070112212181  0.5617772348063426  0.7045451300526864
  0.8986395500821232  0.4209643260909246  0.4441002423615004
  0.8133068611632481  0.5509816111652839  0.1952529464718467
  0.5634914464904455  0.4294381086920680  0.9683782973450548
  0.4685935333301572  0.5549877814391024  0.7169844383681863
  0.1703656106945743  0.7489997868714369  0.4427124731162024
  0.1285989894618211  0.9204148623109845  0.1782310160346867
  0.8430742564013016  0.7596148112684276  0.9579283022231166
  0.7864667638208758  0.8697363685471799  0.6849806807766257
  0.5756757805617667  0.8027233807280183  0.4514692483095146
  0.4497926399284751  0.8981422659964622  0.2047193002313179
  0.2352178562878180  0.7972685395253762  0.9516355166386958
  0.0787332755204488  0.8543925148883531  0.6975881602397749
  0.9019677349956368  0.8117947511011891  0.4282063368025177
  0.7483464722644158  0.8993824489378923  0.1891585526407269
  0.5552500938772553  0.8089247366561523  0.9454005373544163
  0.4137949449950682  0.9064254004144345  0.6908042868274293
  0.2476526901709732  0.1088844736954755  0.2594539049014486
  0.7764382807005887  0.2227077370507473  0.5061698612890808
  0.5609552965225575  0.1115243374385884  0.2481203183381027
  0.4496373189684135  0.2142165606382207  0.9997121608698976
  0.8112125095121385  0.0791835482181753  0.2733833375466830
  0.5454136855914058  0.1159187188869524  0.7524324280153678
  0.2316976724018431  0.4568924009807560  0.2604347227742139
  0.8708395442467918  0.4485196828660065  0.7464911813358270
  0.0964838954513851  0.5500719354854056  0.5056702942264693
  0.8956542227283961  0.4250762395669696  0.2534783012783066
  0.7806838824241282  0.5524088445006257  0.9993815110389761
  0.5712396509427720  0.4464570510858081  0.7617153663339806
  0.1734059406625477  0.9295410189901290  0.0026952604023336
  0.8748438279526241  0.7635840405288405  0.7639233218693846
  0.7831234680938834  0.8853371860978498  0.4976790413676682
  0.5494743695156572  0.7877482983988671  0.2509776813396485
  0.4471103572828881  0.9000089393899415  0.0031743475679491
  0.2058997436849168  0.7800583411240822  0.7470006732463688
  0.0927809063853431  0.8741973644509926  0.5022179006727825
  0.7594256223715092  0.8921523290454445  0.9963398663272685
  0.1155807466816299  0.2134489293952200  0.0211989000047978
  0.8916254108892332  0.1044279286319849  0.7275758130164931
  0.2313494582878448  0.0992594435465293  0.7274006448578803
  0.1059757305827276  0.2093793411683222  0.4523760790556182
  0.7688990947778933  0.2141375877099776  0.9818248231351419
  0.4703776290147914  0.2338751678745083  0.4902262194836027
  0.1012404895671750  0.5497213763847810  0.9706028718537212
  0.8071772028911468  0.5733178840475830  0.4838068717278716
  0.5644704770459370  0.4427584407025975  0.2141195318586711
  0.4487508501855828  0.5657391251639723  0.9802693595277958
  0.2229770037085146  0.4419331305516394  0.7155776731509320
  0.4638117401826065  0.5656589978683897  0.4811904763587904
  0.1999694781665511  0.7572051771425450  0.2297901671619300
  0.8911635960581847  0.7956623777807437  0.2080696394397208
  0.5570696737057972  0.7954685340503005  0.7300349178040406
  0.4231828324697844  0.8915248613382190  0.4760048558594718
 
  0.00000000E+00  0.00000000E+00  0.00000000E+00
  0.00000000E+00  0.00000000E+00  0.00000000E+00
  0.00000000E+00  0.00000000E+00  0.00000000E+00
  0.00000000E+00  0.00000000E+00  0.00000000E+00
  0.00000000E+00  0.00000000E+00  0.00000000E+00
  0.00000000E+00  0.00000000E+00  0.00000000E+00
  0.00000000E+00  0.00000000E+00  0.00000000E+00
  0.00000000E+00  0.00000000E+00  0.00000000E+00
  0.00000000E+00  0.00000000E+00  0.00000000E+00
  0.00000000E+00  0.00000000E+00  0.00000000E+00
  0.00000000E+00  0.00000000E+00  0.00000000E+00
  0.00000000E+00  0.00000000E+00  0.00000000E+00
  0.00000000E+00  0.00000000E+00  0.00000000E+00
  0.00000000E+00  0.00000000E+00  0.00000000E+00
  0.00000000E+00  0.00000000E+00  0.00000000E+00
  0.00000000E+00  0.00000000E+00  0.00000000E+00
  0.00000000E+00  0.00000000E+00  0.00000000E+00
  0.00000000E+00  0.00000000E+00  0.00000000E+00
  0.00000000E+00  0.00000000E+00  0.00000000E+00
  0.00000000E+00  0.00000000E+00  0.00000000E+00
  0.00000000E+00  0.00000000E+00  0.00000000E+00
  0.00000000E+00  0.00000000E+00  0.00000000E+00
  0.00000000E+00  0.00000000E+00  0.00000000E+00
  0.00000000E+00  0.00000000E+00  0.00000000E+00
  0.00000000E+00  0.00000000E+00  0.00000000E+00
  0.00000000E+00  0.00000000E+00  0.00000000E+00
  0.00000000E+00  0.00000000E+00  0.00000000E+00
  0.00000000E+00  0.00000000E+00  0.00000000E+00
  0.00000000E+00  0.00000000E+00  0.00000000E+00
  0.00000000E+00  0.00000000E+00  0.00000000E+00
  0.00000000E+00  0.00000000E+00  0.00000000E+00
  0.00000000E+00  0.00000000E+00  0.00000000E+00
  0.00000000E+00  0.00000000E+00  0.00000000E+00
  0.00000000E+00  0.00000000E+00  0.00000000E+00
  0.00000000E+00  0.00000000E+00  0.00000000E+00
  0.00000000E+00  0.00000000E+00  0.00000000E+00
  0.00000000E+00  0.00000000E+00  0.00000000E+00
  0.00000000E+00  0.00000000E+00  0.00000000E+00
  0.00000000E+00  0.00000000E+00  0.00000000E+00
  0.00000000E+00  0.00000000E+00  0.00000000E+00
  0.00000000E+00  0.00000000E+00  0.00000000E+00
  0.00000000E+00  0.00000000E+00  0.00000000E+00
  0.00000000E+00  0.00000000E+00  0.00000000E+00
  0.00000000E+00  0.00000000E+00  0.00000000E+00
  0.00000000E+00  0.00000000E+00  0.00000000E+00
  0.00000000E+00  0.00000000E+00  0.00000000E+00
  0.00000000E+00  0.00000000E+00  0.00000000E+00
  0.00000000E+00  0.00000000E+00  0.00000000E+00
  0.00000000E+00  0.00000000E+00  0.00000000E+00
  0.00000000E+00  0.00000000E+00  0.00000000E+00
  0.00000000E+00  0.00000000E+00  0.00000000E+00
  0.00000000E+00  0.00000000E+00  0.00000000E+00
  0.00000000E+00  0.00000000E+00  0.00000000E+00
  0.00000000E+00  0.00000000E+00  0.00000000E+00
  0.00000000E+00  0.00000000E+00  0.00000000E+00
  0.00000000E+00  0.00000000E+00  0.00000000E+00
  0.00000000E+00  0.00000000E+00  0.00000000E+00
  0.00000000E+00  0.00000000E+00  0.00000000E+00
  0.00000000E+00  0.00000000E+00  0.00000000E+00
  0.00000000E+00  0.00000000E+00  0.00000000E+00
  0.00000000E+00  0.00000000E+00  0.00000000E+00
  0.00000000E+00  0.00000000E+00  0.00000000E+00
  0.00000000E+00  0.00000000E+00  0.00000000E+00
  0.00000000E+00  0.00000000E+00  0.00000000E+00
  0.00000000E+00  0.00000000E+00  0.00000000E+00
  0.00000000E+00  0.00000000E+00  0.00000000E+00
  0.00000000E+00  0.00000000E+00  0.00000000E+00
  0.00000000E+00  0.00000000E+00  0.00000000E+00
  0.00000000E+00  0.00000000E+00  0.00000000E+00
  0.00000000E+00  0.00000000E+00  0.00000000E+00
  0.00000000E+00  0.00000000E+00  0.00000000E+00
  0.00000000E+00  0.00000000E+00  0.00000000E+00
