Al   Se   Li                            
   1.00000000000000     
     0.0134257697521992    0.0000153682549589   -6.6143883023374004
    -6.9796373908709315    0.0157989753324147    0.0000360741208511
    -0.0192925363505942    8.4820906318257574   -0.1145280016577889
   Al   Se   Li
     4     8     4
Direct
  0.9401807048932376  0.9218692161048938  0.1461329302853686
  0.3139233379008151  0.0618709082564269  0.8877638417451303
  0.9965503745513590  0.4251552937291881  0.3895648085268830
  0.4866976803366613  0.5674163228579980  0.6390222157012272
  0.9389515507102049  0.0653794955266172  0.8938298439249027
  0.4056960337399157  0.9272611411273843  0.1292738268018153
  0.8812652015241871  0.5830843110373135  0.1524769182185471
  0.8815932317910947  0.0935301843030857  0.3846936992016831
  0.3872494775861680  0.4051931564634281  0.8773153781002299
  0.3922512779915680  0.9020547150055337  0.6416150797257937
  0.8553283147506799  0.5557933059866734  0.6273085475114903
  0.3604740475937254  0.4341340642294539  0.3981945079833359
  0.9991241416915942  0.4304414161691302  0.8899081678490922
  0.0008071681623425  0.8918873857103312  0.6247001891947658
  0.4884430076459641  0.5766350506188136  0.1325043330071647
  0.4870182838530084  0.0908955707547038  0.3867674219484266
 
             NaN             NaN             NaN
             NaN             NaN             NaN
             NaN             NaN             NaN
             NaN             NaN             NaN
             NaN             NaN             NaN
             NaN             NaN             NaN
             NaN             NaN             NaN
             NaN             NaN             NaN
             NaN             NaN             NaN
             NaN             NaN             NaN
             NaN             NaN             NaN
             NaN             NaN             NaN
             NaN             NaN             NaN
             NaN             NaN             NaN
             NaN             NaN             NaN
             NaN             NaN             NaN
