Al   Se   Li                            
   1.00000000000000     
    -0.0064919545031451    0.0000054158489749   -6.6144180769631600
    -6.9662920029017785    0.0035099479932498    0.0000185003865393
    -0.0045659749381070    8.5614212639123739   -0.0075144348117309
   Al   Se   Li
     4     8     4
Direct
  0.8305043654703884  0.9272404947412335  0.1360373983814930
  0.3349932042997366  0.0609202784134685  0.8853706026719926
  0.9957775259941525  0.4260912405165227  0.3857922320317307
  0.4939188753717788  0.5643556905002396  0.6388974138220438
  0.9666540424934098  0.0594180682824959  0.9012845038478591
  0.4628593889134065  0.9314606797827382  0.1243324117238173
  0.8908513261645914  0.5829791443044804  0.1493144748196334
  0.9040720737402465  0.0894646338827763  0.3770179688306708
  0.3915383041005321  0.4066537995136874  0.8758372169194786
  0.4183152514414052  0.9038954130633474  0.6449792680282759
  0.8610493945981743  0.5477083076986768  0.6263849688980674
  0.3617988232070006  0.4364761884648380  0.3992493304112774
  0.0009651906244271  0.4271505191537442  0.8903795772881534
  0.9029904512762448  0.9078039086767618  0.6350378688153736
  0.4985129534108928  0.5638909044897801  0.1356432598476990
  0.5007526636158751  0.0970922663961368  0.3955132133884185
 
             NaN             NaN             NaN
             NaN             NaN             NaN
             NaN             NaN             NaN
             NaN             NaN             NaN
             NaN             NaN             NaN
             NaN             NaN             NaN
             NaN             NaN             NaN
             NaN             NaN             NaN
             NaN             NaN             NaN
             NaN             NaN             NaN
             NaN             NaN             NaN
             NaN             NaN             NaN
             NaN             NaN             NaN
             NaN             NaN             NaN
             NaN             NaN             NaN
             NaN             NaN             NaN
