Al   Se   Li                            
   1.00000000000000     
    -0.0061687042261718   -0.0000105080005996   -6.6144657163643803
    -6.9571939426799796   -0.0045374446755582   -0.0000096175883595
     0.0060550369110862    8.5612336219761573    0.0151495240598790
   Al   Se   Li
     4     8     4
Direct
  0.8552916161206252  0.9285671502888311  0.1386486810846689
  0.3553395938387018  0.0670105188691084  0.8855107127972215
  0.0143595699427924  0.4300378201916896  0.3850524359029962
  0.5187331928382417  0.5649159242828020  0.6357738351152885
  0.9890995934277109  0.0536732046284782  0.8990445409170962
  0.4886058235385975  0.9447985430570635  0.1261052572202909
  0.9143098700708516  0.5846505518803098  0.1471257100736106
  0.9609495763873898  0.0835217769856806  0.3758356033844926
  0.4408156025598764  0.4055710261192408  0.8771355686737619
  0.4609086917237695  0.9102791624669234  0.6491085617423092
  0.8865279576113080  0.5586221084475448  0.6243220710756254
  0.3818662937478747  0.4362370922755143  0.3993710511579446
  0.8475252380324445  0.3921651415539109  0.8934574236227776
  0.8530851525890456  0.9266482175519682  0.6355418280163257
  0.4961541698800603  0.5789344311342089  0.1389441118557929
  0.3519818924131486  0.0669688681474874  0.3900943170854637
 
             NaN             NaN             NaN
             NaN             NaN             NaN
             NaN             NaN             NaN
             NaN             NaN             NaN
             NaN             NaN             NaN
             NaN             NaN             NaN
             NaN             NaN             NaN
             NaN             NaN             NaN
             NaN             NaN             NaN
             NaN             NaN             NaN
             NaN             NaN             NaN
             NaN             NaN             NaN
             NaN             NaN             NaN
             NaN             NaN             NaN
             NaN             NaN             NaN
             NaN             NaN             NaN
