Al   Se   Li                            
   1.00000000000000     
    -0.0086301250509628   -0.0000144889629932   -6.6144776262146801
    -6.9657088223062757   -0.0042907217797473   -0.0000166470820842
     0.0054246359514304    8.5531097205230271    0.0047197926054842
   Al   Se   Li
     4     8     4
Direct
  0.8602423715567866  0.9260600587080179  0.1384853250438175
  0.3577453203619758  0.0652361344520328  0.8862758996049722
  0.0195306234119548  0.4301621099992982  0.3859524062997753
  0.5224997050888412  0.5638236678036010  0.6367383687564905
  0.9915646729162761  0.0561647464753314  0.8991578673642360
  0.4931858345679114  0.9405740683134581  0.1263100742146961
  0.9540420650582830  0.5902118561700052  0.1427065065454687
  0.9608280553169201  0.0850203822861192  0.3757036143244694
  0.4527850371023299  0.4011096195944304  0.8786740408243684
  0.4615347193178408  0.9079738220582499  0.6493582715709310
  0.8902939139328656  0.5605402492819337  0.6242863362205785
  0.3883014163129468  0.4302083230970400  0.4020488854368264
  0.8523585565830859  0.3957622055310879  0.8971801120845169
  0.8538755304593315  0.9279731032221286  0.6356419950529986
  0.4049426911649632  0.5882927264676070  0.1325045635184156
  0.3518233215700704  0.0634884644205082  0.3900474428632367
 
             NaN             NaN             NaN
             NaN             NaN             NaN
             NaN             NaN             NaN
             NaN             NaN             NaN
             NaN             NaN             NaN
             NaN             NaN             NaN
             NaN             NaN             NaN
             NaN             NaN             NaN
             NaN             NaN             NaN
             NaN             NaN             NaN
             NaN             NaN             NaN
             NaN             NaN             NaN
             NaN             NaN             NaN
             NaN             NaN             NaN
             NaN             NaN             NaN
             NaN             NaN             NaN
