Al   Se   Li                            
   1.00000000000000     
    -0.0094772479139878    0.0000074063301717   -6.6144121220380097
    -6.9653080599095336    0.0045064297372187    0.0000220151334017
    -0.0059038813612375    8.5525328015592130   -0.0045235248793403
   Al   Se   Li
     4     8     4
Direct
  0.8293558651533868  0.9277408282341154  0.1367269357436514
  0.3322406170383324  0.0614252084032196  0.8859902323352652
  0.9940672906176461  0.4262841989145794  0.3862826103232547
  0.4915651573166135  0.5655606164921057  0.6384679757570462
  0.9634583629832028  0.0614174876190958  0.9020116182104287
  0.4615458389376040  0.9310999115787234  0.1243496387434240
  0.8902969764787551  0.5835568221208042  0.1493278165072282
  0.8991302630837813  0.0903793028965711  0.3787098010479503
  0.3911384687629158  0.4065430856771773  0.8757221751768461
  0.3972388838171755  0.9013249153138229  0.6426317820202101
  0.8586199606195034  0.5510729474124424  0.6262939787471533
  0.3602577822007262  0.4354073680869534  0.3991614202535695
  0.0002529692507511  0.4281461565997192  0.8900300565802359
  0.9485571020985233  0.9030459840120664  0.6323919615061937
  0.4979654375071588  0.5636576166541670  0.1356669132537287
  0.4998628588561997  0.0959390878653517  0.3973067935197893
 
             NaN             NaN             NaN
             NaN             NaN             NaN
             NaN             NaN             NaN
             NaN             NaN             NaN
             NaN             NaN             NaN
             NaN             NaN             NaN
             NaN             NaN             NaN
             NaN             NaN             NaN
             NaN             NaN             NaN
             NaN             NaN             NaN
             NaN             NaN             NaN
             NaN             NaN             NaN
             NaN             NaN             NaN
             NaN             NaN             NaN
             NaN             NaN             NaN
             NaN             NaN             NaN
