Al   Se   Li                            
   1.00000000000000     
     0.0285857121697991   -0.0000085175194028   -6.6144597614392202
    -6.9438508229642073    0.0011624663661113   -0.0000061028414971
    -0.0035948710962402    8.5741030569289407   -0.0071282937408183
   Al   Se   Li
     4     8     4
Direct
  0.8489623074750600  0.9320727142425863  0.1382242276213488
  0.3528298683515221  0.0649102449476482  0.8859098841381691
  0.0137710749226064  0.4317327878624185  0.3853222008278144
  0.5147562419307432  0.5627092529041494  0.6380039074355665
  0.9855534350213579  0.0525181829759955  0.8979116552638325
  0.4827137350773293  0.9373907939205615  0.1256265215282751
  0.9153967436957713  0.5881869588747813  0.1483993983430727
  0.9552275496377586  0.0856920402201300  0.3751363815515482
  0.4371669989715175  0.4045573481822851  0.8795096038117596
  0.4535562263981699  0.9082297763627278  0.6486818311238860
  0.8827653008473605  0.5627485642873499  0.6220337843822503
  0.3805689288494012  0.4352498113021170  0.4004594441943106
  0.8834319068553479  0.4023864556174696  0.8909396938872834
  0.8439237608465366  0.9306269827809746  0.6346737768834216
  0.5182975197620714  0.5687717292764631  0.1416063086327359
  0.3466322360794746  0.0648178941237760  0.3886330901013794
 
             NaN             NaN             NaN
             NaN             NaN             NaN
             NaN             NaN             NaN
             NaN             NaN             NaN
             NaN             NaN             NaN
             NaN             NaN             NaN
             NaN             NaN             NaN
             NaN             NaN             NaN
             NaN             NaN             NaN
             NaN             NaN             NaN
             NaN             NaN             NaN
             NaN             NaN             NaN
             NaN             NaN             NaN
             NaN             NaN             NaN
             NaN             NaN             NaN
             NaN             NaN             NaN
