supercell of icsd_181358.cif            
   1.00000000000000     
    10.5318033087941068    0.0052485893740174   -0.0010062900515313
    -5.2613797574408299    9.0783520297953597   -0.0018424581948898
    -0.0002986148268313   -0.0021204833756828   10.2395362419850979
   N    Ga   Sc
    36    14    22
Direct
  0.2269216376661447  0.1152172551731425  0.4340128279245405
  0.1089531238291386  0.2068623722700593  0.1945427621182318
  0.8822786781547407  0.1181849665379175  0.9417590121280739
  0.7651917947987315  0.2183590184803350  0.6886532956646434
  0.5753476943661369  0.1207455591796602  0.4245300307757347
  0.4399283081341849  0.2352699598324790  0.1998324729465395
  0.2345784885014766  0.0984891641074128  0.9436551955609787
  0.1220217852844598  0.2173979295071646  0.7126721108826999
  0.8816178747794439  0.1047794635451282  0.4662691147500695
  0.7905430778961460  0.2301178091702809  0.1899406116242162
  0.5535727153046679  0.1089501313039989  0.9761712043895798
  0.4333785182071495  0.2100925912455622  0.6861305667002284
  0.2070125188554499  0.4442585245821462  0.4401406540357797
  0.1084305986158256  0.5705449536755012  0.1911850763392025
  0.8974333097857681  0.4408430527024265  0.9428535369009907
  0.7787588167272403  0.5615997145294429  0.7040768030978768
  0.5739056410382375  0.4529429844708162  0.4509327158472018
  0.4521062999533925  0.5589013228684223  0.2184958269945554
  0.2179997392521003  0.4503417075070857  0.9676859072681836
  0.1155558491413160  0.5585188751872465  0.6884085899559977
  0.8879585483244199  0.4474008981931021  0.4643330129270637
  0.7614468416837354  0.5470408987621411  0.1894089185222469
  0.5417243998306063  0.4277828330040379  0.9399068062341343
  0.4381016449563120  0.5525884528837324  0.6852201575923971
  0.2148477598004774  0.7619496766450595  0.4433463583226782
  0.1292610100735558  0.8966507434502802  0.2030598293533430
  0.9062923322788095  0.7888196706695254  0.9623773488350125
  0.7765651826924653  0.8855278992636855  0.7027533432279043
  0.5723299095146643  0.7865547496479479  0.4504913956436170
  0.4367565364532808  0.8695847215360288  0.2052652737169680
  0.2232398000225047  0.7779592256950565  0.9492558934077806
  0.1211121826014647  0.9041422306881230  0.6840957124162159
  0.8769201539920246  0.7732578876964737  0.4455773782252024
  0.7597377722690339  0.8820630180681590  0.1908741597609804
  0.5392964433212697  0.7795674832218680  0.9404261233868496
  0.4451560530375716  0.8970076607580211  0.6809257802173931
  0.2264503965131439  0.1151678581800866  0.2442773615789449
  0.7714269148787309  0.2194733465946825  0.4977616202583164
  0.4402814794111336  0.2222154992012975  0.0035659074029724
  0.2301227111019060  0.1072941595699888  0.7477835219612672
  0.7902809503418240  0.2303865062792951  0.9987194523036109
  0.1091574211454613  0.5613373323239799  0.9996425502044204
  0.7804793501428193  0.5628398806980428  0.5040968317051835
  0.5598205516750880  0.4481018063722289  0.2526012287857000
  0.1098498612539842  0.5536615623986592  0.4967240266220472
  0.2219080492104837  0.7734117286917055  0.2497708998258545
  0.1258724192098768  0.8907892269616582  0.0061371064310904
  0.7776882111472858  0.8841691206202071  0.5035274253121784
  0.5586334782598570  0.7770352557908566  0.2534769156887293
  0.4339693600388301  0.8762449794263176  0.0071181128131528
  0.1106056074329516  0.2120337945231867  0.9834695321318918
  0.8862829747869441  0.1135913817297762  0.7298976361767870
  0.5588852336017496  0.1130605609481705  0.2142281932896495
  0.1152600880548675  0.2216634474677193  0.4975625494926277
  0.8835745746111598  0.1048744645434567  0.2510439156015281
  0.5489943617392399  0.1087572655727058  0.7585933071813429
  0.4523785293446565  0.2208997004800253  0.4786769871599432
  0.2128030083336370  0.4426526048240618  0.2303251919258571
  0.8905263426713361  0.4437933063373620  0.7277044072345973
  0.4476427405152847  0.5577322053501277  0.0035076228477493
  0.2230791445930933  0.4480322405560031  0.7504802407100257
  0.8856826067725763  0.4491118369965932  0.2515402671257050
  0.7742658365871833  0.5474904823715789  0.9817472196703037
  0.5466044149824185  0.4372155883919859  0.7305855876373641
  0.4428516220467031  0.5554727627293232  0.4741086487164310
  0.9023924590401862  0.7884968066607101  0.7463203822765436
  0.2253612161252150  0.7839495418794371  0.7365703198769182
  0.1103837340168639  0.8885583283369840  0.4773691735202732
  0.8839219312499225  0.7765529261003294  0.2278456230087755
  0.7685539211754744  0.8915543713391614  0.9837635139683272
  0.5479023920754713  0.7774571270071178  0.7300559150233212
  0.4498230647686867  0.8946055866856852  0.4741349968355095
 
  0.00000000E+00  0.00000000E+00  0.00000000E+00
  0.00000000E+00  0.00000000E+00  0.00000000E+00
  0.00000000E+00  0.00000000E+00  0.00000000E+00
  0.00000000E+00  0.00000000E+00  0.00000000E+00
  0.00000000E+00  0.00000000E+00  0.00000000E+00
  0.00000000E+00  0.00000000E+00  0.00000000E+00
  0.00000000E+00  0.00000000E+00  0.00000000E+00
  0.00000000E+00  0.00000000E+00  0.00000000E+00
  0.00000000E+00  0.00000000E+00  0.00000000E+00
  0.00000000E+00  0.00000000E+00  0.00000000E+00
  0.00000000E+00  0.00000000E+00  0.00000000E+00
  0.00000000E+00  0.00000000E+00  0.00000000E+00
  0.00000000E+00  0.00000000E+00  0.00000000E+00
  0.00000000E+00  0.00000000E+00  0.00000000E+00
  0.00000000E+00  0.00000000E+00  0.00000000E+00
  0.00000000E+00  0.00000000E+00  0.00000000E+00
  0.00000000E+00  0.00000000E+00  0.00000000E+00
  0.00000000E+00  0.00000000E+00  0.00000000E+00
  0.00000000E+00  0.00000000E+00  0.00000000E+00
  0.00000000E+00  0.00000000E+00  0.00000000E+00
  0.00000000E+00  0.00000000E+00  0.00000000E+00
  0.00000000E+00  0.00000000E+00  0.00000000E+00
  0.00000000E+00  0.00000000E+00  0.00000000E+00
  0.00000000E+00  0.00000000E+00  0.00000000E+00
  0.00000000E+00  0.00000000E+00  0.00000000E+00
  0.00000000E+00  0.00000000E+00  0.00000000E+00
  0.00000000E+00  0.00000000E+00  0.00000000E+00
  0.00000000E+00  0.00000000E+00  0.00000000E+00
  0.00000000E+00  0.00000000E+00  0.00000000E+00
  0.00000000E+00  0.00000000E+00  0.00000000E+00
  0.00000000E+00  0.00000000E+00  0.00000000E+00
  0.00000000E+00  0.00000000E+00  0.00000000E+00
  0.00000000E+00  0.00000000E+00  0.00000000E+00
  0.00000000E+00  0.00000000E+00  0.00000000E+00
  0.00000000E+00  0.00000000E+00  0.00000000E+00
  0.00000000E+00  0.00000000E+00  0.00000000E+00
  0.00000000E+00  0.00000000E+00  0.00000000E+00
  0.00000000E+00  0.00000000E+00  0.00000000E+00
  0.00000000E+00  0.00000000E+00  0.00000000E+00
  0.00000000E+00  0.00000000E+00  0.00000000E+00
  0.00000000E+00  0.00000000E+00  0.00000000E+00
  0.00000000E+00  0.00000000E+00  0.00000000E+00
  0.00000000E+00  0.00000000E+00  0.00000000E+00
  0.00000000E+00  0.00000000E+00  0.00000000E+00
  0.00000000E+00  0.00000000E+00  0.00000000E+00
  0.00000000E+00  0.00000000E+00  0.00000000E+00
  0.00000000E+00  0.00000000E+00  0.00000000E+00
  0.00000000E+00  0.00000000E+00  0.00000000E+00
  0.00000000E+00  0.00000000E+00  0.00000000E+00
  0.00000000E+00  0.00000000E+00  0.00000000E+00
  0.00000000E+00  0.00000000E+00  0.00000000E+00
  0.00000000E+00  0.00000000E+00  0.00000000E+00
  0.00000000E+00  0.00000000E+00  0.00000000E+00
  0.00000000E+00  0.00000000E+00  0.00000000E+00
  0.00000000E+00  0.00000000E+00  0.00000000E+00
  0.00000000E+00  0.00000000E+00  0.00000000E+00
  0.00000000E+00  0.00000000E+00  0.00000000E+00
  0.00000000E+00  0.00000000E+00  0.00000000E+00
  0.00000000E+00  0.00000000E+00  0.00000000E+00
  0.00000000E+00  0.00000000E+00  0.00000000E+00
  0.00000000E+00  0.00000000E+00  0.00000000E+00
  0.00000000E+00  0.00000000E+00  0.00000000E+00
  0.00000000E+00  0.00000000E+00  0.00000000E+00
  0.00000000E+00  0.00000000E+00  0.00000000E+00
  0.00000000E+00  0.00000000E+00  0.00000000E+00
  0.00000000E+00  0.00000000E+00  0.00000000E+00
  0.00000000E+00  0.00000000E+00  0.00000000E+00
  0.00000000E+00  0.00000000E+00  0.00000000E+00
  0.00000000E+00  0.00000000E+00  0.00000000E+00
  0.00000000E+00  0.00000000E+00  0.00000000E+00
  0.00000000E+00  0.00000000E+00  0.00000000E+00
  0.00000000E+00  0.00000000E+00  0.00000000E+00
