Ti   Zn   N                             
   1.00000000000000     
    -4.4974579218040960    0.0000000822520856   -0.0000018301714303
     0.0000094042657259   -6.0600268687313763   -0.0000004299821509
    -0.0000029529103705    0.0000011438149724    7.0003419859530824
   Ti   Zn   N 
     4     4     8
Direct
  0.0440828799978088  0.9222509153038704  0.3700930092935306
  0.0440828955445720  0.4222509263410834  0.1299069443412517
  0.5440830610772693  0.0888557300936209  0.6299053413119363
  0.5440830985934805  0.5888557372945039  0.8700947082836141
  0.0310349852077636  0.9210353945995527  0.8807945116216226
  0.5310351166270947  0.0900843142749126  0.1192032974208279
  0.0310348904723866  0.4210353934413579  0.6192054098465020
  0.5310349981641556  0.5900843257962375  0.3807967668205044
  0.0072007415806977  0.0977284416894704  0.1334478274554546
  0.5072014504014521  0.9133788354091086  0.8665513674991415
 -0.0009468464026347  0.0766606561164031  0.6142719585797634
 -0.0009468692247719  0.5766606545633164  0.8857280539997868
  0.4990530435389333  0.9344501456226838  0.3857259175503686
  0.4990530227539979  0.4344501566343242  0.1142740638067146
  0.0072006998159660  0.5977284398972769  0.3665522141321682
  0.5072014196209143  0.4133788215483899  0.6334486080633950
 
             NaN             NaN             NaN
             NaN             NaN             NaN
             NaN             NaN             NaN
             NaN             NaN             NaN
             NaN             NaN             NaN
             NaN             NaN             NaN
             NaN             NaN             NaN
             NaN             NaN             NaN
             NaN             NaN             NaN
             NaN             NaN             NaN
             NaN             NaN             NaN
             NaN             NaN             NaN
             NaN             NaN             NaN
             NaN             NaN             NaN
             NaN             NaN             NaN
             NaN             NaN             NaN
