Ti   Zn   N                             
   1.00000000000000     
    -4.6005039241622594    0.0000000822520817   -0.0000018301714316
    -0.0000129519676415   -6.0188789526756050   -0.0000004299821510
    -0.0000033138467222   -0.0000397207489326    6.9565517237943810
   Ti   Zn   N 
     4     4     8
Direct
 -0.0112446920061492  0.9216320137011690  0.3704056292306215
 -0.0112436660383531  0.4216339083702146  0.1295975947587739
  0.4887555636406746  0.0894753374763795  0.6295937533133512
  0.4887558669122873  0.5894744360795358  0.8704032931813668
  0.0014492020087709  0.9216314775442581  0.8799948166713120
  0.5014491336616312  0.0894876547041817  0.1200033656224190
  0.0014479647667541  0.4216315641101165  0.6200050337008695
  0.5014477310751311  0.5894876073430059  0.3799966540332341
  0.0410146141488693  0.0968915417140676  0.1336023412719231
  0.5410140302872695  0.9142160068084938  0.8663972944936036
  0.0527019751968971  0.0772587316366869  0.6143479726240781
  0.0527018012936451  0.5772607103178723  0.8856526869235024
  0.5527027919761291  0.9338511409091936  0.3856496253329368
  0.5527020964693087  0.4338496498469160  0.1143494593066372
  0.0410151355769386  0.5968923345864097  0.3663965872023817
  0.5410143457557726  0.4142147734805490  0.6336038923621156
 
             NaN             NaN             NaN
             NaN             NaN             NaN
             NaN             NaN             NaN
             NaN             NaN             NaN
             NaN             NaN             NaN
             NaN             NaN             NaN
             NaN             NaN             NaN
             NaN             NaN             NaN
             NaN             NaN             NaN
             NaN             NaN             NaN
             NaN             NaN             NaN
             NaN             NaN             NaN
             NaN             NaN             NaN
             NaN             NaN             NaN
             NaN             NaN             NaN
             NaN             NaN             NaN
