Ti   Zn   N                             
   1.00000000000000     
    -5.2763088671336158    0.0000000822520728   -0.0000018301714346
    -0.0000367829093876   -5.7491316888816897   -0.0000004299821512
    -0.0000003869431361   -0.0000047315849799    6.6115258770246292
   Ti   Zn   N 
     4     4     8
Direct
  0.0089014513360647  0.9210428312119595  0.3741734638710083
  0.0089011599482957  0.4210427007917065  0.1258265272691282
  0.5089019890942479  0.0900670144415835  0.6258265706012333
  0.5089010212755353  0.5900667946220842  0.8741733643577044
  0.0077092637641187  0.9185039688535219  0.8760527256751255
  0.5077079153623925  0.0926112141618269  0.1239439418710565
  0.0077093933723793  0.4185031231165726  0.6239474432785858
  0.5077078662096732  0.5926105785975571  0.3760560072804965
  0.1152342153963290  0.0942306546661742  0.1341058970454331
  0.6152296531819254  0.9168795744070707  0.8658971371673598
  0.1374850393947738  0.0771512636036730  0.6154820421630557
  0.1374857182483014  0.5771513663342828  0.8845176492601603
  0.6374831286600555  0.9339577903684368  0.3845151417617067
  0.6374822352928037  0.4339579251274424  0.1154844701477657
  0.1152340825416058  0.5942315584081644  0.3658942799884111
  0.6152298250447146  0.4168805301256663  0.6341033383014016
 
             NaN             NaN             NaN
             NaN             NaN             NaN
             NaN             NaN             NaN
             NaN             NaN             NaN
             NaN             NaN             NaN
             NaN             NaN             NaN
             NaN             NaN             NaN
             NaN             NaN             NaN
             NaN             NaN             NaN
             NaN             NaN             NaN
             NaN             NaN             NaN
             NaN             NaN             NaN
             NaN             NaN             NaN
             NaN             NaN             NaN
             NaN             NaN             NaN
             NaN             NaN             NaN
