Ti   Zn   N                             
   1.00000000000000     
    -4.7097851886842541    0.0000000822520807   -0.0000018301714319
    -0.0000139692127139   -5.9763127827407327   -0.0000004299821510
    -0.0000041703578499   -0.0000227570078409    6.9094500026387635
   Ti   Zn   N 
     4     4     8
Direct
 -0.0178479622478609  0.9211687466564160  0.3707836687077553
 -0.0178475288463426  0.4211694279259227  0.1292174794369533
  0.4821519608849741  0.0899383395013028  0.6292160753472477
  0.4821521936617760  0.5899384128385463  0.8707829643635864
 -0.0072410142216819  0.9219496391497879  0.8792481256251145
  0.4927579746868527  0.0891711221579243  0.1207516311297470
 -0.0072413830483304  0.4219494612668705  0.6207520247929920
  0.4927574687408535  0.5891713229735078  0.3792480760861984
  0.0473434885534125  0.0961205894778163  0.1337540759867848
  0.5473428534076592  0.9149864337331683  0.8662462086956451
  0.0616716607392909  0.0776726184262796  0.6143886725021782
  0.0616717081811630  0.5776727933076905  0.8856112416908106
  0.5616720993987900  0.9334367818824904  0.3856095811624550
  0.5616720272393559  0.4334365492483553  0.1143903955142224
  0.0473433411474310  0.5961203880468195  0.3662455137569743
  0.5473429553230633  0.4149862620361405  0.6337542652301446
 
             NaN             NaN             NaN
             NaN             NaN             NaN
             NaN             NaN             NaN
             NaN             NaN             NaN
             NaN             NaN             NaN
             NaN             NaN             NaN
             NaN             NaN             NaN
             NaN             NaN             NaN
             NaN             NaN             NaN
             NaN             NaN             NaN
             NaN             NaN             NaN
             NaN             NaN             NaN
             NaN             NaN             NaN
             NaN             NaN             NaN
             NaN             NaN             NaN
             NaN             NaN             NaN
