Ti   Zn   N                             
   1.00000000000000     
    -4.7100138538331793    0.0000000822520876   -0.0000018301714296
     0.0000189477575934   -5.9763682278394956   -0.0000004299821508
    -0.0000016669063232    0.0000216530668057    6.9093148509106719
   Ti   Zn   N 
     4     4     8
Direct
  0.0591816141141516  0.9211686122221784  0.3707827952783964
  0.0591815531900825  0.4211680882887973  0.1292171460046759
  0.5591819693687985  0.0899389449835814  0.6292165106328047
  0.5591817788460649  0.5899387609762309  0.8707832078445634
  0.0485885775879518  0.9219473389296404  0.8792479702526328
  0.5485903323266852  0.0891736932314150  0.1207523900732603
  0.0485903619917356  0.4219471899611487  0.6207514279534623
  0.5485884681625284  0.5891734000427366  0.3792482109777733
  0.9939611299860525  0.0961238655167681  0.1337559786468628
  0.4939622179462829  0.9149834049618203  0.8662447826840401
  0.9796252637940254  0.0776758734579932  0.6143884172448199
  0.9796254941797817  0.5776760781131075  0.8856120699330149
  0.4796245442255701  0.9334333675202262  0.3856106271751299
  0.4796245642325773  0.4334335308549581  0.1143892702990393
  0.9939613537702994  0.5961236182592069  0.3662441830562269
  0.4939619382183710  0.4149831213062734  0.6337550119699527
 
             NaN             NaN             NaN
             NaN             NaN             NaN
             NaN             NaN             NaN
             NaN             NaN             NaN
             NaN             NaN             NaN
             NaN             NaN             NaN
             NaN             NaN             NaN
             NaN             NaN             NaN
             NaN             NaN             NaN
             NaN             NaN             NaN
             NaN             NaN             NaN
             NaN             NaN             NaN
             NaN             NaN             NaN
             NaN             NaN             NaN
             NaN             NaN             NaN
             NaN             NaN             NaN
