Ti   Zn   N                             
   1.00000000000000     
    -5.1808503493184253    0.0000000822520916   -0.0000018301714283
    -0.0000039029708392   -5.7875738879640508   -0.0000004299821507
    -0.0000035049804856   -0.0000502699573826    6.6723884086297778
   Ti   Zn   N 
     4     4     8
Direct
  0.0760979155461821  0.9208600928550245  0.3733925777615146
  0.0761022832641480  0.4208557044601928  0.1266048477281557
  0.5760989384480958  0.0902574147736062  0.6266095126145971
  0.5761004069945984  0.5902549470710504  0.8733919869571101
  0.0756147346350916  0.9197342711296477  0.8764627960020421
  0.5756144643929797  0.0913743317552549  0.1235366023029828
  0.0756143530229885  0.4197342518725984  0.6235380267915380
  0.5756145893148229  0.5913754323030413  0.3764621698748077
  0.9748621388220535  0.0942268427464719  0.1340451334443942
  0.4748612582363221  0.9168841225708694  0.8659563174179465
  0.9535036416779283  0.0774633854025739  0.6150778061072143
  0.9535041199463339  0.5774631861624457  0.8849204898008084
  0.4535005622012833  0.9336453395278503  0.3849190983023918
  0.4535039633482920  0.4336466866197821  0.1150814370693619
  0.9748601262174050  0.5942285647798425  0.3659571856721853
  0.4748608611567696  0.4168843145902432  0.6340440120966819
 
             NaN             NaN             NaN
             NaN             NaN             NaN
             NaN             NaN             NaN
             NaN             NaN             NaN
             NaN             NaN             NaN
             NaN             NaN             NaN
             NaN             NaN             NaN
             NaN             NaN             NaN
             NaN             NaN             NaN
             NaN             NaN             NaN
             NaN             NaN             NaN
             NaN             NaN             NaN
             NaN             NaN             NaN
             NaN             NaN             NaN
             NaN             NaN             NaN
             NaN             NaN             NaN
