Ti   Zn   N                             
   1.00000000000000     
    -5.2760702841736213    0.0000000822520945   -0.0000018301714273
     0.0000342429989842   -5.7490569435565755   -0.0000004299821506
     0.0000004703030954    0.0000908645010446    6.6118040025221942
   Ti   Zn   N 
     4     4     8
Direct
  0.0444401780450422  0.9210445779663841  0.3741702266379430
  0.0444401393818671  0.4210437605073267  0.1258279848778235
  0.5444406505077778  0.0900657568979788  0.6258300446024123
  0.5444406746563648  0.5900670876630351  0.8741717828459091
  0.0455765356329132  0.9185168328718684  0.8760586690042819
  0.5455771509768510  0.0925970986421348  0.1239417984474811
  0.0455771645212023  0.4185179737595592  0.6239387826460487
  0.5455764631780285  0.5925959382614241  0.3760610199805505
  0.9381038725880555  0.0942302199135412  0.1341080744925418
  0.4381039490514223  0.9168795351100717  0.8658922097625275
  0.9158780817514760  0.0771521844654523  0.6154825788886116
  0.9158774919007439  0.5771519016403621  0.8845188423017033
  0.4158773287849682  0.9339580658803202  0.3845173290523152
  0.4158774441302839  0.4339582019931243  0.1154810973179202
  0.9381041429383717  0.5942305191000673  0.3658932159784296
  0.4381049366994283  0.4168792337933126  0.6341063430715299
 
             NaN             NaN             NaN
             NaN             NaN             NaN
             NaN             NaN             NaN
             NaN             NaN             NaN
             NaN             NaN             NaN
             NaN             NaN             NaN
             NaN             NaN             NaN
             NaN             NaN             NaN
             NaN             NaN             NaN
             NaN             NaN             NaN
             NaN             NaN             NaN
             NaN             NaN             NaN
             NaN             NaN             NaN
             NaN             NaN             NaN
             NaN             NaN             NaN
             NaN             NaN             NaN
