Ti   Zn   N                             
   1.00000000000000     
    -5.0603353697075422    0.0000000822520777   -0.0000018301714329
    -0.0000056447451390   -5.8369999653934528   -0.0000004299821511
    -0.0000026166598230    0.0000093831642161    6.7405567735983167
   Ti   Zn   N 
     4     4     8
Direct
 -0.0318017471677929  0.9207156824020374  0.3725421696703641
 -0.0318013663227427  0.4207156104191130  0.1274584566622334
  0.4681980665787233  0.0903966004465613  0.6274576642421578
  0.4681981439873376  0.5903966925089257  0.8725416580534332
 -0.0290191541889993  0.9208692534947107  0.8771013868193716
  0.4709836090558452  0.0902393714297551  0.1228981345533466
 -0.0290175959407492  0.4208693779420056  0.6228981798952397
  0.4709834381871992  0.5902392269706412  0.3771025126392757
  0.0622275780338639  0.0944551236361805  0.1339864882914205
  0.5622268456943187  0.9166568227708813  0.8660129971494490
  0.0822192671289013  0.0777686704123836  0.6147474843711151
  0.0822192909235640  0.5777681107037369  0.8852524263224975
  0.5822191042749064  0.9333431372501875  0.3852520023022774
  0.5822190992123935  0.4333432774050748  0.1147476952444232
  0.0622271145854440  0.5944546705660043  0.3660140265464939
  0.5622271021692232  0.4166572602696795  0.6339867172491958
 
             NaN             NaN             NaN
             NaN             NaN             NaN
             NaN             NaN             NaN
             NaN             NaN             NaN
             NaN             NaN             NaN
             NaN             NaN             NaN
             NaN             NaN             NaN
             NaN             NaN             NaN
             NaN             NaN             NaN
             NaN             NaN             NaN
             NaN             NaN             NaN
             NaN             NaN             NaN
             NaN             NaN             NaN
             NaN             NaN             NaN
             NaN             NaN             NaN
             NaN             NaN             NaN
