Ti   Zn   N                             
   1.00000000000000     
    -5.2623111314673459    0.0000000822520758   -0.0000018301714336
    -0.0000623473898749   -5.7543369807150775   -0.0000004299821511
    -0.0000148654179404    0.0000170064985388    6.6212268731000687
   Ti   Zn   N 
     4     4     8
Direct
 -0.0274153542463043  0.9210073613977853  0.3740545694948132
 -0.0274143473378581  0.4210069118044250  0.1259454864137523
  0.4725831590343626  0.0901026041182173  0.6259444483809360
  0.4725856684579552  0.5901027597126155  0.8740558206156627
 -0.0283534158318443  0.9187102489730923  0.8761026610302614
  0.4716473417875113  0.0924051010551243  0.1238947412466688
 -0.0283539222985968  0.4187117929189014  0.6238971023268717
  0.4716467281531224  0.5924057092593491  0.3761054962422620
  0.0782038487145089  0.0942033068988640  0.1340921215783615
  0.5782023798057022  0.9169105464288395  0.8659039368082049
  0.1003287531099065  0.0771930390103863  0.6154142399061111
  0.1003259658895813  0.5771900220183549  0.8845886647196998
  0.6003254589402782  0.9339197492925105  0.3845863013637812
  0.6003316032729142  0.4339169292928295  0.1154160992762304
  0.0782031954689787  0.5941983590586898  0.3659058170153323
  0.5782026150822047  0.4169044474543211  0.6340924940401552
 
             NaN             NaN             NaN
             NaN             NaN             NaN
             NaN             NaN             NaN
             NaN             NaN             NaN
             NaN             NaN             NaN
             NaN             NaN             NaN
             NaN             NaN             NaN
             NaN             NaN             NaN
             NaN             NaN             NaN
             NaN             NaN             NaN
             NaN             NaN             NaN
             NaN             NaN             NaN
             NaN             NaN             NaN
             NaN             NaN             NaN
             NaN             NaN             NaN
             NaN             NaN             NaN
