Ti   Zn   N                             
   1.00000000000000     
    -5.2742118606992170    0.0000000822520935   -0.0000018301714276
     0.0000263238158925   -5.7497160750220164   -0.0000004299821507
     0.0000093414539755   -0.0000152893736027    6.6128808841823528
   Ti   Zn   N 
     4     4     8
Direct
  0.0565765849844160  0.9210333842358330  0.3741575889734801
  0.0565758907098623  0.4210309561633135  0.1258452840753173
  0.5565746156113573  0.0900805977091482  0.6258437723524822
  0.5565741945980108  0.5900773776274484  0.8741540487422106
  0.0577193960607737  0.9185356270440429  0.8760639052600624
  0.5577218085457311  0.0925796243069750  0.1239352410748368
  0.0577200667872688  0.4185338457520329  0.6239357166201867
  0.5577219667382314  0.5925792606808965  0.3760653129247773
  0.9503268621352323  0.0942123863501262  0.1341067405926802
  0.4503255185402819  0.9168760369222314  0.8659034583261542
  0.9281397689385744  0.0771549866576218  0.6154722916205394
  0.9281194412149583  0.5771619750370188  0.8845176076649196
  0.4281137965684381  0.9339474748821507  0.3845155805229122
  0.4281338828937351  0.4339553062614687  0.1154727864161528
  0.9503269557074960  0.5942300189306238  0.3659013605356848
  0.4503265476140892  0.4169000299510483  0.6341093040325881
 
             NaN             NaN             NaN
             NaN             NaN             NaN
             NaN             NaN             NaN
             NaN             NaN             NaN
             NaN             NaN             NaN
             NaN             NaN             NaN
             NaN             NaN             NaN
             NaN             NaN             NaN
             NaN             NaN             NaN
             NaN             NaN             NaN
             NaN             NaN             NaN
             NaN             NaN             NaN
             NaN             NaN             NaN
             NaN             NaN             NaN
             NaN             NaN             NaN
             NaN             NaN             NaN
