Ti   Zn   N                             
   1.00000000000000     
    -4.9412410177310058    0.0000000822520896   -0.0000018301714289
     0.0000146262345949   -5.8852943804980065   -0.0000004299821508
    -0.0000012858293576    0.0000195852130329    6.8018669811661772
   Ti   Zn   N 
     4     4     8
Direct
  0.0691669108197727  0.9207160666307506  0.3718342557587436
  0.0691666555653077  0.4207140838635551  0.1281636901611152
  0.5691672268369795  0.0903933095935441  0.6281652340590954
  0.5691682312113753  0.5903943523732714  0.8718366086857904
  0.0638716448966419  0.9215978706523115  0.8778015963133344
  0.5638685692070690  0.0895185509661935  0.1221975085239603
  0.0638693624459361  0.4215977830793763  0.6221996446725502
  0.5638703462381582  0.5895179162164943  0.3778020326422495
  0.9833721927124215  0.0948749800284314  0.1339362603051831
  0.4833726345610462  0.9162339148133833  0.8660637156292689
  0.9649969974542160  0.0779215810394599  0.6145503191214341
  0.9649968659788828  0.5779219034646425  0.8854502065802086
  0.4649968008916862  0.9331891115896541  0.3854479901414933
  0.4649968255337558  0.4331884729113382  0.1145508399712109
  0.9833717898133915  0.5948752141014155  0.3660630716170998
  0.4833724674413605  0.4162337773026129  0.6339370258494381
 
             NaN             NaN             NaN
             NaN             NaN             NaN
             NaN             NaN             NaN
             NaN             NaN             NaN
             NaN             NaN             NaN
             NaN             NaN             NaN
             NaN             NaN             NaN
             NaN             NaN             NaN
             NaN             NaN             NaN
             NaN             NaN             NaN
             NaN             NaN             NaN
             NaN             NaN             NaN
             NaN             NaN             NaN
             NaN             NaN             NaN
             NaN             NaN             NaN
             NaN             NaN             NaN
