Ti   Zn   N                             
   1.00000000000000     
    -4.4039129494168172    0.0000000822520837   -0.0000018301714309
    -0.0000060614781889   -6.1011467935210950   -0.0000004299821509
    -0.0000033467453187   -0.0000102678078736    7.0432868957738046
   Ti   Zn   N 
     4     4     8
Direct
  0.0095374358619016  0.9230064546880633  0.3698121900250385
  0.0095374488719956  0.4230067524418639  0.1301870177739353
  0.5095373555261286  0.0881007181648296  0.6301860035780029
  0.5095376003674531  0.5881000923382135  0.8698145483575480
  0.0176748067540151  0.9201853035989839  0.8816859080702164
  0.5176740194271809  0.0909351068855360  0.1183114236607902
  0.0176748873224778  0.4201852919718602  0.6183145711637653
  0.5176746016350617  0.5909347783837102  0.3816882086683221
  0.0265704330852671  0.0986465038581448  0.1334402234698371
  0.5265700784657834  0.9124605585596849  0.8665585603708799
  0.0298855693545087  0.0758534039355515  0.6140624110454984
  0.0298855564440938  0.5758533463463450  0.8859376878117764
  0.5298857539499969  0.9352566588778686  0.3859347732554418
  0.5298857894151767  0.4352569738429397  0.1140651492099378
  0.0265704341122868  0.5986466963642206  0.3665601835589797
  0.5265701854358289  0.4124602483711871  0.6334411400136286
 
             NaN             NaN             NaN
             NaN             NaN             NaN
             NaN             NaN             NaN
             NaN             NaN             NaN
             NaN             NaN             NaN
             NaN             NaN             NaN
             NaN             NaN             NaN
             NaN             NaN             NaN
             NaN             NaN             NaN
             NaN             NaN             NaN
             NaN             NaN             NaN
             NaN             NaN             NaN
             NaN             NaN             NaN
             NaN             NaN             NaN
             NaN             NaN             NaN
             NaN             NaN             NaN
