Ti   Zn   N                             
   1.00000000000000     
    -4.8236970884557397    0.0000000822520886   -0.0000018301714293
     0.0000186861073223   -5.9319332386010686   -0.0000004299821508
    -0.0000012917682113    0.0000133279244619    6.8581219203131552
   Ti   Zn   N 
     4     4     8
Direct
  0.0645983336911291  0.9208622367682372  0.3712520692187282
  0.0645988199327854  0.4208623428886182  0.1287478447115508
  0.5645998441154150  0.0902454386727692  0.6287473113303296
  0.5645995544785524  0.5902455839710519  0.8712526249437708
  0.0566486975163291  0.9219459229883378  0.8785188087041400
  0.5566461115852684  0.0891736813633037  0.1214801070919309
  0.0566489308302625  0.4219459955216450  0.6214807150691607
  0.5566454772523654  0.5891734145461182  0.3785206017278515
  0.9883114904549235  0.0954413833159273  0.1338667583818131
  0.4883128025598096  0.9156661664886994  0.8661334900294918
  0.9718088878728651  0.0778933672105350  0.6144414280704615
  0.9718088905729448  0.5778929381930071  0.8855584605970249
  0.4718079900488869  0.9332165486785962  0.3855569807077109
  0.4718081073956703  0.4332166423889816  0.1144428809437843
  0.9883119640304475  0.5954411822603121  0.3661336368360952
  0.4883134009904055  0.4156660433700480  0.6338662816645783
 
             NaN             NaN             NaN
             NaN             NaN             NaN
             NaN             NaN             NaN
             NaN             NaN             NaN
             NaN             NaN             NaN
             NaN             NaN             NaN
             NaN             NaN             NaN
             NaN             NaN             NaN
             NaN             NaN             NaN
             NaN             NaN             NaN
             NaN             NaN             NaN
             NaN             NaN             NaN
             NaN             NaN             NaN
             NaN             NaN             NaN
             NaN             NaN             NaN
             NaN             NaN             NaN
