Ti   Zn   N                             
   1.00000000000000     
    -4.8235561301741363    0.0000000822520797   -0.0000018301714322
    -0.0000161356393308   -5.9319074896846402   -0.0000004299821510
    -0.0000016012744746    0.0000023857255509    6.8582447182759685
   Ti   Zn   N 
     4     4     8
Direct
 -0.0232705169170273  0.9208644740390038  0.3712514326799453
 -0.0232707234401064  0.4208634716153339  0.1287477897545611
  0.4767282572690292  0.0902440852878985  0.6287479742950964
  0.4767280996844082  0.5902435470880153  0.8712524432215717
 -0.0153010520996873  0.9219497904570603  0.8785195399458562
  0.4847019646436166  0.0891697919275174  0.1214789105797936
 -0.0153004917147759  0.4219498861566509  0.6214806122071875
  0.4847012512178848  0.5891697204932222  0.3785211340533188
  0.0529955938682718  0.0954401653583249  0.1338660828780205
  0.5529943955190320  0.9156669115846401  0.8661337021813846
  0.0694928960755912  0.0778908299674598  0.6144421214785869
  0.0694929864619292  0.5778908589600819  0.8855583000360873
  0.5694937342554327  0.9332190406068969  0.3855564405442979
  0.5694938030656825  0.4332188243755700  0.1144435984252608
  0.0529958341316673  0.5954402527410727  0.3661335502120043
  0.5529949486357166  0.4156672379702234  0.6338663675344351
 
             NaN             NaN             NaN
             NaN             NaN             NaN
             NaN             NaN             NaN
             NaN             NaN             NaN
             NaN             NaN             NaN
             NaN             NaN             NaN
             NaN             NaN             NaN
             NaN             NaN             NaN
             NaN             NaN             NaN
             NaN             NaN             NaN
             NaN             NaN             NaN
             NaN             NaN             NaN
             NaN             NaN             NaN
             NaN             NaN             NaN
             NaN             NaN             NaN
             NaN             NaN             NaN
