Ti   Zn   N                             
   1.00000000000000     
    -4.9411418492393162    0.0000000822520787   -0.0000018301714326
    -0.0000110165401745   -5.8852794501308310   -0.0000004299821510
    -0.0000022710318733    0.0000202116517688    6.8020023513537486
   Ti   Zn   N 
     4     4     8
Direct
 -0.0278487748507082  0.9207145186792353  0.3718341846834829
 -0.0278483385538001  0.4207165773835839  0.1281675527019802
  0.4721508764663921  0.0903929350461652  0.6281653875936738
  0.4721509603038276  0.5903934769320973  0.8718338125450992
 -0.0225359108793556  0.9215997119941414  0.8778013437799225
  0.4774650240802554  0.0895160097161806  0.1221968704720743
 -0.0225356397839896  0.4216001202964005  0.6221974202444388
  0.4774645770521720  0.5895160453408846  0.3778040252859093
  0.0579335377976925  0.0948744649269225  0.1339344816452718
  0.5579328922689957  0.9162343663972121  0.8660648160472000
  0.0763114098692213  0.0779202534750464  0.6145517635366118
  0.0763112775826456  0.5779199852650200  0.8854484029928555
  0.5763117313122805  0.9331906689277191  0.3854468991958674
  0.5763116399120231  0.4331907092318009  0.1145529753167911
  0.0579335291073294  0.5948742319703421  0.3660654156479439
  0.5579331197820372  0.4162348130458932  0.6339346483332641
 
             NaN             NaN             NaN
             NaN             NaN             NaN
             NaN             NaN             NaN
             NaN             NaN             NaN
             NaN             NaN             NaN
             NaN             NaN             NaN
             NaN             NaN             NaN
             NaN             NaN             NaN
             NaN             NaN             NaN
             NaN             NaN             NaN
             NaN             NaN             NaN
             NaN             NaN             NaN
             NaN             NaN             NaN
             NaN             NaN             NaN
             NaN             NaN             NaN
             NaN             NaN             NaN
