Ti   Zn   N 
   1.00000000000000     
  -5.2801521361599999   0.0000000822520718  -0.0000018301714349
   0.0000000904496460  -5.7513759714099999  -0.0000004299821512
   0.0000022884614168   0.0000004936723030   6.6129618672500001
Ti   Zn   N 
4  4  8  
Direct
  0.0206598554001687  0.9211673720095560  0.3741787218764756  
  0.0206598356794174  0.4211675028680588  0.1258208008833819  
  0.5206596447956144  0.0899438931448415  0.6258208624337911  
  0.5206597082745219  0.5899434404688151  0.8741789132039273  
  0.0195185208427944  0.9184803917248274  0.8761067463120469  
  0.5195182781644618  0.0926300418205273  0.1238938581972988  
  0.0195186696057519  0.4184809945821044  0.6238937121110197  
  0.5195189367984128  0.5926305163922763  0.3761073900149938  
  0.1270700285153055  0.0944156833427954  0.1341628817829772  
  0.6270695089926761  0.9166946318286904  0.8658373995533992  
  0.1494176566569081  0.0771064004850004  0.6154414989347572  
  0.1494170886855244  0.5771072709421361  0.8845587989664452  
  0.6494171129909958  0.9340039056355708  0.3845580059653813  
  0.6494175014488945  0.4340046714560657  0.1154410459909485  
  0.1270697365176900  0.5944168888195591  0.3658363450195239  
  0.6270701857299201  0.4166952833680710  0.6341630187536680  
