Ti   Zn   N                             
   1.00000000000000     
    -4.4971882333420696    0.0000000822520827   -0.0000018301714312
    -0.0000090980514003   -6.0601208831785165   -0.0000004299821509
    -0.0000039386800860   -0.0000175592347391    7.0004675082575121
   Ti   Zn   N 
     4     4     8
Direct
 -0.0027071568755858  0.9222535359887502  0.3700928012962291
 -0.0027071254143076  0.4222598124756066  0.1299091421808359
  0.4972930351424473  0.0888477204980182  0.6299070027064524
  0.4972929855117431  0.5888516951589222  0.8700944607719250
  0.0103480685111178  0.9210284298649829  0.8808001847618164
  0.5103493775360813  0.0900907594904872  0.1191980891070068
  0.0103492272025763  0.4210291619709163  0.6191999958112825
  0.5103484495492253  0.5900913584827971  0.3808016834576204
  0.0340714882618233  0.0977346763312227  0.1334411162966914
  0.5340707849024754  0.9133725303704866  0.8665582128918323
  0.0421991711815836  0.0766552319193492  0.6142773668850883
  0.0421991768377564  0.5766527321585574  0.8857207685215517
  0.5421997666590945  0.9344581577628363  0.3857190294704715
  0.5421996023137141  0.4344552735364048  0.1142795511954888
  0.0340714499125672  0.5977352592994045  0.3665582660124939
  0.5340707117807675  0.4133725533202816  0.6334423286621500
 
             NaN             NaN             NaN
             NaN             NaN             NaN
             NaN             NaN             NaN
             NaN             NaN             NaN
             NaN             NaN             NaN
             NaN             NaN             NaN
             NaN             NaN             NaN
             NaN             NaN             NaN
             NaN             NaN             NaN
             NaN             NaN             NaN
             NaN             NaN             NaN
             NaN             NaN             NaN
             NaN             NaN             NaN
             NaN             NaN             NaN
             NaN             NaN             NaN
             NaN             NaN             NaN
