Ti   Zn   N                             
   1.00000000000000     
    -5.2742315117878382    0.0000000822520748   -0.0000018301714339
    -0.0000510748898868   -5.7496598611311649   -0.0000004299821511
     0.0000007978982836   -0.0001874613183273    6.6129751844954994
   Ti   Zn   N 
     4     4     8
Direct
 -0.0152631455585947  0.9210355271955377  0.3741580246298232
 -0.0152604357009574  0.4210340520627893  0.1258445280248696
  0.4847376745826990  0.0900757951348183  0.6258398274277288
  0.4847371611910769  0.5900734297531833  0.8741573295994721
 -0.0164171580009232  0.9185378099127269  0.8760646457767260
  0.4835800741682966  0.0925775418182603  0.1239351897172685
 -0.0164182864229544  0.4185349478841218  0.6239388469243358
  0.4835810104322774  0.5925797497540425  0.3760614930022560
  0.0909843923753578  0.0942066340052455  0.1341064227285322
  0.5909843601476437  0.9168759511917675  0.8659058883893699
  0.1131751984520857  0.0771534748071066  0.6154707017006580
  0.1132006636187772  0.5771626767188579  0.8845130748901530
  0.6131998873938527  0.9339484601253543  0.3845167208399976
  0.6131719751113691  0.4339575696898830  0.1154730653774792
  0.0909875692938736  0.5942308254108249  0.3659026639654986
  0.5909864125080592  0.4169044432785023  0.6341115773238981
 
             NaN             NaN             NaN
             NaN             NaN             NaN
             NaN             NaN             NaN
             NaN             NaN             NaN
             NaN             NaN             NaN
             NaN             NaN             NaN
             NaN             NaN             NaN
             NaN             NaN             NaN
             NaN             NaN             NaN
             NaN             NaN             NaN
             NaN             NaN             NaN
             NaN             NaN             NaN
             NaN             NaN             NaN
             NaN             NaN             NaN
             NaN             NaN             NaN
             NaN             NaN             NaN
