supercell of icsd_191774.cif            
   1.00000000000000     
    10.8082801840752172    0.0001924634756553   -0.0042025948418388
    -5.4039736283317685    9.3599759921051611   -0.0000173239974430
    -0.0045605185636142   -0.0026547848249579   11.4241401149059776
   N    In   La
    36    32     4
Direct
  0.2219249551945381  0.1121431680960825  0.4430614510488908
  0.1240157872945744  0.2286756906046534  0.1922487206076013
  0.8706183974284585  0.1019774260924180  0.9395923531176820
  0.7787235948293443  0.2262524862546016  0.6924051135705511
  0.5570334068271308  0.1129058773956473  0.4452592809001388
  0.4423611186404628  0.2195165332034108  0.1900349185830876
  0.2342183928756540  0.0994670078273785  0.9341998990624347
  0.1130441222643412  0.2231880499920962  0.7034167419777404
  0.8908252925627664  0.1120773852560788  0.4602645436445485
  0.7664835273572095  0.2274698284749448  0.1852701346468422
  0.5625078515587489  0.1272759304267126  0.9321071461838457
  0.4461294948987060  0.2259363385267363  0.6867577009981076
  0.2219277645213609  0.4431114129376539  0.4430602746602617
  0.1133956694452536  0.5564400974586903  0.1906784170836886
  0.8910149006390213  0.4459256189945222  0.9439535400374126
  0.7773262820855962  0.5553293728074209  0.7027224169778918
  0.5398505889924863  0.4365878733916020  0.4327354380228243
  0.4423644927145745  0.5561797864806479  0.1900359050042368
  0.2342219408618931  0.4680888366906757  0.9341989417436096
  0.1080232014055795  0.5542897862903189  0.6863573242952086
  0.8969530595741730  0.4348620842972224  0.4329394969226072
  0.7768322563255481  0.5550834883683677  0.1934912953328833
  0.5537032442277692  0.4435197376870406  0.9449771994687666
  0.4461329516410757  0.5535261503622593  0.6867581976335302
  0.2205484650611496  0.7769379824114679  0.4440101565433281
  0.1133950292118726  0.8902892203118853  0.1906788039270211
  0.8910124809345348  0.7784242017869047  0.9439561449680696
  0.7787243026393469  0.8858021212039944  0.6924059415217769
  0.5570341390201676  0.7774557347066349  0.4452593733823633
  0.4452852212152081  0.8893100674804728  0.2036473596003816
  0.2051987529109809  0.7692668690816689  0.9331866255884051
  0.1080215966661697  0.8870621602363826  0.6863586843415916
  0.8969542657258458  0.7954221325361956  0.4329401467609486
  0.7664889703050619  0.8723559367148681  0.1852750193761707
  0.5625085700117509  0.7685724493440773  0.9321115022159248
  0.4439635726995306  0.8886473931236907  0.6940194917268059
  0.2247737825841867  0.1126925815827136  0.2521447457015498
  0.1136996236311703  0.2235156504677960  0.5084771623398154
  0.8824018551984238  0.1078664491669414  0.7465624515223297
  0.7738119457715200  0.2257271111309649  0.9959973995543407
  0.5526989574771548  0.1132872032780980  0.2545854303018800
  0.4415130491325456  0.2220457314991293  0.4979286358584432
  0.2267729690472819  0.1066006025012953  0.7457953353007696
  0.7797538776445236  0.2227648313374502  0.5041643966200553
  0.5566325798461520  0.1161483982298606  0.7445550270854895
  0.4484871375333341  0.2231613438735920  0.9999187324249377
  0.2247767477696740  0.4454179219892325  0.2521433934977395
  0.1120704070063567  0.5528279185830911  0.4971759412957297
  0.8904702761397871  0.4459171430059072  0.7547724161079827
  0.7776638537066205  0.5554992969467705  0.9997465553980689
  0.5500770880265335  0.4417038612054398  0.2439301364564770
  0.4415162946320663  0.5527960785006201  0.4979277832809714
  0.2267760482307395  0.4535046559489473  0.7457950091617178
  0.1106312558927272  0.5585542515033808  0.9998114653284631
  0.8896356059957355  0.4443270361541494  0.2437662880256113
  0.5545219182626013  0.4439253598643376  0.7546275498706336
  0.4484897532441892  0.5586655649881109  0.9999196988218486
  0.2216402856829234  0.7774875657137699  0.2541210538446776
  0.1120703231535458  0.8925702534134317  0.4971773946018345
  0.8904690572291543  0.7778843415026699  0.7547756733310393
  0.7738131060442868  0.8814238896228872  0.9960026764185059
  0.5527007505157826  0.7727483216369890  0.2545853882630951
  0.4443030707895304  0.8888156830787750  0.5002502725268414
  0.2163902664371520  0.7748599662317446  0.7443455399332777
  0.1106301819966262  0.8854117949758873  0.9998123989873378
  0.8896361747651582  0.7786434506565385  0.2437672825044075
  0.7797543864002776  0.8903195514589228  0.5041653376358539
  0.5566344587246235  0.7738175844195609  0.7445581188846973
  0.1172983161079486  0.2253187356459421  0.9824869582273266
  0.8857720822114743  0.1095593687147058  0.2514723845797917
  0.7784142133562213  0.5558767667011395  0.4934493561057351
  0.4445306392441211  0.8889374976137745  0.9927089087235572
 
  0.00000000E+00  0.00000000E+00  0.00000000E+00
  0.00000000E+00  0.00000000E+00  0.00000000E+00
  0.00000000E+00  0.00000000E+00  0.00000000E+00
  0.00000000E+00  0.00000000E+00  0.00000000E+00
  0.00000000E+00  0.00000000E+00  0.00000000E+00
  0.00000000E+00  0.00000000E+00  0.00000000E+00
  0.00000000E+00  0.00000000E+00  0.00000000E+00
  0.00000000E+00  0.00000000E+00  0.00000000E+00
  0.00000000E+00  0.00000000E+00  0.00000000E+00
  0.00000000E+00  0.00000000E+00  0.00000000E+00
  0.00000000E+00  0.00000000E+00  0.00000000E+00
  0.00000000E+00  0.00000000E+00  0.00000000E+00
  0.00000000E+00  0.00000000E+00  0.00000000E+00
  0.00000000E+00  0.00000000E+00  0.00000000E+00
  0.00000000E+00  0.00000000E+00  0.00000000E+00
  0.00000000E+00  0.00000000E+00  0.00000000E+00
  0.00000000E+00  0.00000000E+00  0.00000000E+00
  0.00000000E+00  0.00000000E+00  0.00000000E+00
  0.00000000E+00  0.00000000E+00  0.00000000E+00
  0.00000000E+00  0.00000000E+00  0.00000000E+00
  0.00000000E+00  0.00000000E+00  0.00000000E+00
  0.00000000E+00  0.00000000E+00  0.00000000E+00
  0.00000000E+00  0.00000000E+00  0.00000000E+00
  0.00000000E+00  0.00000000E+00  0.00000000E+00
  0.00000000E+00  0.00000000E+00  0.00000000E+00
  0.00000000E+00  0.00000000E+00  0.00000000E+00
  0.00000000E+00  0.00000000E+00  0.00000000E+00
  0.00000000E+00  0.00000000E+00  0.00000000E+00
  0.00000000E+00  0.00000000E+00  0.00000000E+00
  0.00000000E+00  0.00000000E+00  0.00000000E+00
  0.00000000E+00  0.00000000E+00  0.00000000E+00
  0.00000000E+00  0.00000000E+00  0.00000000E+00
  0.00000000E+00  0.00000000E+00  0.00000000E+00
  0.00000000E+00  0.00000000E+00  0.00000000E+00
  0.00000000E+00  0.00000000E+00  0.00000000E+00
  0.00000000E+00  0.00000000E+00  0.00000000E+00
  0.00000000E+00  0.00000000E+00  0.00000000E+00
  0.00000000E+00  0.00000000E+00  0.00000000E+00
  0.00000000E+00  0.00000000E+00  0.00000000E+00
  0.00000000E+00  0.00000000E+00  0.00000000E+00
  0.00000000E+00  0.00000000E+00  0.00000000E+00
  0.00000000E+00  0.00000000E+00  0.00000000E+00
  0.00000000E+00  0.00000000E+00  0.00000000E+00
  0.00000000E+00  0.00000000E+00  0.00000000E+00
  0.00000000E+00  0.00000000E+00  0.00000000E+00
  0.00000000E+00  0.00000000E+00  0.00000000E+00
  0.00000000E+00  0.00000000E+00  0.00000000E+00
  0.00000000E+00  0.00000000E+00  0.00000000E+00
  0.00000000E+00  0.00000000E+00  0.00000000E+00
  0.00000000E+00  0.00000000E+00  0.00000000E+00
  0.00000000E+00  0.00000000E+00  0.00000000E+00
  0.00000000E+00  0.00000000E+00  0.00000000E+00
  0.00000000E+00  0.00000000E+00  0.00000000E+00
  0.00000000E+00  0.00000000E+00  0.00000000E+00
  0.00000000E+00  0.00000000E+00  0.00000000E+00
  0.00000000E+00  0.00000000E+00  0.00000000E+00
  0.00000000E+00  0.00000000E+00  0.00000000E+00
  0.00000000E+00  0.00000000E+00  0.00000000E+00
  0.00000000E+00  0.00000000E+00  0.00000000E+00
  0.00000000E+00  0.00000000E+00  0.00000000E+00
  0.00000000E+00  0.00000000E+00  0.00000000E+00
  0.00000000E+00  0.00000000E+00  0.00000000E+00
  0.00000000E+00  0.00000000E+00  0.00000000E+00
  0.00000000E+00  0.00000000E+00  0.00000000E+00
  0.00000000E+00  0.00000000E+00  0.00000000E+00
  0.00000000E+00  0.00000000E+00  0.00000000E+00
  0.00000000E+00  0.00000000E+00  0.00000000E+00
  0.00000000E+00  0.00000000E+00  0.00000000E+00
  0.00000000E+00  0.00000000E+00  0.00000000E+00
  0.00000000E+00  0.00000000E+00  0.00000000E+00
  0.00000000E+00  0.00000000E+00  0.00000000E+00
  0.00000000E+00  0.00000000E+00  0.00000000E+00
