O    Ga   Cu                            
   1.00000000000000     
    -0.0265946873622607   -0.0000084407422790   -5.3271141042199996
     5.5737687537130443    0.0161180016505408   -0.0000016880840727
    -0.0192707072141614   -6.7584827400544265    0.0840650208823568
   O    Ga   Cu
     8     4     4
Direct
  0.0821909502834686  0.9271321078826205  0.1031548721868703
  0.4733754422983552  0.0680506636863498  0.8831517925130186
  0.9994326069490995  0.8922113913287859  0.6428153201446776
  0.9990235995648078  0.3974186102674580  0.8357260388458059
  0.5553522937069388  0.0935114483678916  0.3436512222550974
  0.5043195122442441  0.5881497057544536  0.1397095488827134
  0.9545033839169292  0.4411831872391616  0.3887472693710308
  0.4552261500170474  0.5576868130202968  0.5933283287624889
  0.0992458607749001  0.0797521384206803  0.8570849194303207
  0.4465255520554194  0.9144125988744491  0.1287307870185259
  0.1055009305402734  0.5743390509691793  0.6141955434143682
  0.6016328827898505  0.4265325342388664  0.3680100740979171
  0.9972811319766990  0.0326741137834290  0.3722584768241219
  0.0432690993765590  0.5272698248666927  0.1107811979458546
  0.5521834804342447  0.9703323935727042  0.6149225916700658
  0.5801483931057874  0.4427271537880557  0.8702307244284668
 
             NaN             NaN             NaN
             NaN             NaN             NaN
             NaN             NaN             NaN
             NaN             NaN             NaN
             NaN             NaN             NaN
             NaN             NaN             NaN
             NaN             NaN             NaN
             NaN             NaN             NaN
             NaN             NaN             NaN
             NaN             NaN             NaN
             NaN             NaN             NaN
             NaN             NaN             NaN
             NaN             NaN             NaN
             NaN             NaN             NaN
             NaN             NaN             NaN
             NaN             NaN             NaN
