O    Ga   Cu
1.0
  5.5391647768978745 0.028968449765578 -1.6880840696e-06
  0.0354938745882317 6.708702007562852 0.0687359139264556
  0.0502386795495095 8.4407422778e-06 5.32711410422
 O  Ga  Cu 
8 4 4 
direct
    0.9359485681280830  -0.0928997708087138  -0.1042777452822108
    0.0509352863301586  -0.8844523928338643  -0.6089590437971708
    0.9000064031855641  -0.6394227459697531  -0.0695647821899357
    0.3993597707091893  -0.8565105163066703  -0.0492728292333808
    0.0925802248272376  -0.3314465875685996  -0.5591433240480299
    0.5920515208270771  -0.1405874860437137  -0.5529384191367582
    0.4223982509442976  -0.3875705181793023  -0.1004328225794069
    0.5596731037049097  -0.5941239760681468  -0.5841354137994728
    0.0730568773238289  -0.8676008403570420  -0.9612223304330457
    0.9140879795618131  -0.1071659028112251  -0.4538726063195426
    0.5710621359667840  -0.6251799897254030  -0.0036638939830738
    0.4122928873886167  -0.3656768860594539  -0.4559527696453642
    0.0395304917053707  -0.3718698113626003  -0.9533538105036640
    0.5748915597847528  -0.1327488036259226  -0.9558379970934111
    0.9383988888859418  -0.6025113392265310  -0.5165503069267743
    0.4571097867873632  -0.8667311408445356  -0.5200331751035421
