O    Ga   Cu
1.0
  5.573768753713044 0.0161180016505408 -1.6880840727e-06
  0.0192707072141614 6.7584827400544265 -0.0840650208823568
  0.0265946873622607 8.440742279e-06 5.32711410422
 O  Ga  Cu 
8 4 4 
direct
    0.9271321078826206  -0.1031548721868703  -0.0821909502834686
    0.0680506636863498  -0.8831517925130185  -0.4733754422983552
    0.8922113913287860  -0.6428153201446777  -0.9994326069490996
    0.3974186102674581  -0.8357260388458059  -0.9990235995648077
    0.0935114483678916  -0.3436512222550974  -0.5553522937069389
    0.5881497057544536  -0.1397095488827134  -0.5043195122442441
    0.4411831872391616  -0.3887472693710309  -0.9545033839169292
    0.5576868130202969  -0.5933283287624889  -0.4552261500170475
    0.0797521384206803  -0.8570849194303207  -0.0992458607749001
    0.9144125988744491  -0.1287307870185259  -0.4465255520554194
    0.5743390509691793  -0.6141955434143682  -0.1055009305402734
    0.4265325342388664  -0.3680100740979171  -0.6016328827898505
    0.0326741137834290  -0.3722584768241218  -0.9972811319766991
    0.5272698248666926  -0.1107811979458546  -0.0432690993765590
    0.9703323935727043  -0.6149225916700658  -0.5521834804342447
    0.4427271537880557  -0.8702307244284669  -0.5801483931057875
