O    Ga   Cu                            
   1.00000000000000     
    -0.0308674645688469   -0.0000084407422783   -5.3271141042199996
     5.5787067909641070   -0.0122885575317800   -0.0000016880840709
     0.0145537828155243   -6.7621468667397329   -0.0864255052967121
   O    Ga   Cu
     8     4     4
Direct
  0.0995606000769840  0.9347219882820141  0.0933970774332735
  0.6020543933373972  0.0512499491065554  0.8888221470885043
  0.0544520652372782  0.9032811247313930  0.6408701993409309
  0.0030116867120924  0.3991825843485159  0.8442770173750773
  0.5548600162461312  0.0924432202152659  0.3370301750019280
  0.5495063864226069  0.6009371849134340  0.1391621772934215
  0.0526701179125197  0.4244554310823858  0.3858386466700523
  0.4693887800977734  0.5635970799664491  0.6019520069456092
  0.9553975174550828  0.0658426284711453  0.8679379495007140
  0.4483615811933959  0.9197849606251012  0.1136163794196747
  0.1046636523281137  0.5753793507379754  0.6244545508868811
  0.4869085126130770  0.4150531342326005  0.3587866582456272
  0.9844888565712537  0.0504640853632239  0.3721395054072261
  0.0145129561728936  0.5156071538375286  0.1152361428654913
  0.5092097977087278  0.9658107939221878  0.6124806539057417
  0.5601643499887530  0.4555730662251776  0.8704974204112190
 
             NaN             NaN             NaN
             NaN             NaN             NaN
             NaN             NaN             NaN
             NaN             NaN             NaN
             NaN             NaN             NaN
             NaN             NaN             NaN
             NaN             NaN             NaN
             NaN             NaN             NaN
             NaN             NaN             NaN
             NaN             NaN             NaN
             NaN             NaN             NaN
             NaN             NaN             NaN
             NaN             NaN             NaN
             NaN             NaN             NaN
             NaN             NaN             NaN
             NaN             NaN             NaN
