O    Ga   Cu
1.0
  5.551448378063903 0.0248315698765882 -1.6880840703e-06
  0.0304326696697995 6.735823869565491 0.1026326900470305
  0.0501415766784 8.4407422781e-06 5.32711410422
 O  Ga  Cu 
8 4 4 
direct
    0.9368160457592934  -0.0912017449613245  -0.1041955863439199
    0.0490674799687696  -0.8843299779584582  -0.6081676041162395
    0.9023836200518430  -0.6388777042057113  -0.0614667072719044
    0.4024665010239871  -0.8572389145723561  -0.0236272225584244
    0.0915025818018265  -0.3292779947759641  -0.5597213971635425
    0.5934973531890647  -0.1405226031147321  -0.5557816907225117
    0.4170300379418491  -0.3840648437710215  -0.0871082777993593
    0.5620403124315843  -0.5997815009438199  -0.4843494275510025
    0.0726429179305939  -0.8664497194101699  -0.9615167106090111
    0.9128973071957630  -0.1066057825569189  -0.4528890388302571
    0.5732007551343442  -0.6336403735014213  -0.1117089136515190
    0.4058000831557180  -0.3538030624913516  -0.4469790243512221
    0.0395876417238057  -0.3740863599791168  -0.9566182369444859
    0.5754956911014516  -0.1361654361181692  -0.9617254612752928
    0.9478451770079203  -0.6018157018862594  -0.5277823866554953
    0.4511102306431525  -0.8686369875446756  -0.5455735842305812
