O    Ga   Cu                            
   1.00000000000000     
    -0.0335147748072562   -0.0000084407422784   -5.3271141042199996
     5.5790767978003659   -0.0103066942898493   -0.0000016880840712
     0.0121174229048801   -6.7590169305525150   -0.0820472676329436
   O    Ga   Cu
     8     4     4
Direct
  0.0990810740045518  0.9346534428899176  0.0934509033064970
  0.6022132546075412  0.0514444244157701  0.8887633337941878
  0.0556056848228152  0.9027992930428184  0.6410838161678001
  0.0042358626125250  0.3994418845285495  0.8444767775509234
  0.5531205256579099  0.0909929499759699  0.3375763209325129
  0.5455362662972689  0.6014628771914587  0.1376096328642404
  0.0178541295139354  0.4265759752763501  0.3886440622662946
  0.4657541269509693  0.5619823215302731  0.6002321459093665
  0.9558510603476833  0.0659537515917705  0.8676656360630517
  0.4473618990893939  0.9207963435527518  0.1133380633587464
  0.1030240527774140  0.5736729962775371  0.6215579361564778
  0.5256641966242412  0.4175168379908030  0.3608579943713153
  0.9873767249274223  0.0505452902334014  0.3725659885050305
  0.0178143547257505  0.5142157762517456  0.1157758547728065
  0.5081115853089315  0.9663874276564144  0.6130064289297934
  0.5606064718057269  0.4549421436554368  0.8698938128423279
 
             NaN             NaN             NaN
             NaN             NaN             NaN
             NaN             NaN             NaN
             NaN             NaN             NaN
             NaN             NaN             NaN
             NaN             NaN             NaN
             NaN             NaN             NaN
             NaN             NaN             NaN
             NaN             NaN             NaN
             NaN             NaN             NaN
             NaN             NaN             NaN
             NaN             NaN             NaN
             NaN             NaN             NaN
             NaN             NaN             NaN
             NaN             NaN             NaN
             NaN             NaN             NaN
