O    Ga   Cu
1.0
  5.55148942332298 -0.0306207858450026 -1.6880840731e-06
  -0.0376616853365703 6.73595561589572 -0.1327973139983373
  0.0605535285129603 8.4407422791e-06 5.32711410422
 O  Ga  Cu 
8 4 4 
direct
    0.9303686971124703  -0.0989710884940749  -0.0746280039011609
    0.0760687828650077  -0.8853959131631582  -0.4708630888528589
    0.8992573622394600  -0.6394377778358445  -0.0007482132004313
    0.4006590706845045  -0.8279651993625022  -0.9971563070053404
    0.0868843606382015  -0.3575481618164389  -0.5424326479435847
    0.5891321355679293  -0.1390775652651115  -0.4926841762882077
    0.4456750420423177  -0.3835410795227644  -0.9474903671021692
    0.5537704160031466  -0.5908258860140947  -0.4521676477700609
    0.0868455597643063  -0.8521965557913233  -0.1112791471824934
    0.9185750162395081  -0.1353899643815240  -0.4420598760099921
    0.5804694796450178  -0.6059137638370798  -0.1038243906568042
    0.4186707567947963  -0.3664155184722729  -0.5940936475410297
    0.0406888741941529  -0.3652928875510283  -0.9995263347876814
    0.5409196152539124  -0.1008895041374629  -0.0258928262155891
    0.9120182735798037  -0.6414902905541524  -0.5935837273567586
    0.4533802934364599  -0.8761475515925523  -0.6007808682204328
