O    Ga   Cu
1.0
  5.5467891247259855 -0.0274398363781329 -1.6880840735e-06
  -0.03354975300241 6.722297660817867 -0.0804065978878202
  0.0464106391510129 8.4407422793e-06 5.32711410422
 O  Ga  Cu 
8 4 4 
direct
    0.9297741654988840  -0.0955907805708165  -0.0132892872307124
    0.0717556340347514  -0.8854280600816152  -0.4610399902679345
    0.8999535419042104  -0.6397084220820020  -0.0029714836260624
    0.4000267813592089  -0.8302636031620239  -0.9969575989502741
    0.0926835035282068  -0.3589682687411724  -0.5125268892435101
    0.5891288951784048  -0.1392272857273440  -0.4887340975316333
    0.4407328844169029  -0.3843909424067604  -0.9477247024109232
    0.5559617706933082  -0.5924506638702312  -0.4520212969061247
    0.0818923306354051  -0.8619297185470954  -0.1014653853775300
    0.9196179787432827  -0.1291322684043195  -0.5040803021936142
    0.5781156535069840  -0.6066730915729722  -0.1023716442284908
    0.4192665246591716  -0.3681249370540201  -0.5962063672406615
    0.0332576096999659  -0.3667837577141455  -0.0306308551803340
    0.5532459183316689  -0.1016250914896091  -0.0353528799555534
    0.9155833095471950  -0.6341972544965840  -0.6004281432212295
    0.4523872343234601  -0.8720045618706606  -0.6034103464700138
