O    Ga   Cu                            
   1.00000000000000     
    -0.0545761222918056   -0.0000084407422794   -5.3271141042199996
     5.5238551761228392   -0.0289342052122578   -0.0000016880840740
     0.0355222007222882   -6.6831782829516602    0.0608024263905962
   O    Ga   Cu
     8     4     4
Direct
  0.9460657870049261  0.9360643662834747  0.0924998060007809
  0.4502692314947865  0.0657261547088979  0.8900170045302502
  0.0018732248705646  0.8985959716727550  0.6410365320589264
  0.9960803152840114  0.3981221761153648  0.8335184474602144
  0.4986935419060856  0.0911464542037805  0.3524608655604524
  0.4840956131228538  0.5950570748047923  0.1399394247669719
  0.9454985580373290  0.4403489758524657  0.3842520020542466
  0.4512284425697217  0.5548915785426161  0.5936855109343497
  0.0992461877783555  0.0772020771534443  0.8676955252851499
  0.5821404376497412  0.9212589409435239  0.1217958835317106
  0.1018312528342236  0.5763989255373758  0.6079559015413878
  0.5922677530539247  0.4170545609075020  0.3665610877348442
  0.0498136762855168  0.0388227380872266  0.3661304885999357
  0.0494996026189369  0.5519230069604575  0.1049289765610979
  0.5993908517620667  0.9194170385240312  0.6312058278938366
  0.6012167937615445  0.4513536957632951  0.8728154232772454
 
             NaN             NaN             NaN
             NaN             NaN             NaN
             NaN             NaN             NaN
             NaN             NaN             NaN
             NaN             NaN             NaN
             NaN             NaN             NaN
             NaN             NaN             NaN
             NaN             NaN             NaN
             NaN             NaN             NaN
             NaN             NaN             NaN
             NaN             NaN             NaN
             NaN             NaN             NaN
             NaN             NaN             NaN
             NaN             NaN             NaN
             NaN             NaN             NaN
             NaN             NaN             NaN
