O    Ga   Cu
1.0
  5.56096771725779 -0.0079446115205837 -1.6880840716e-06
  -0.0091528325668885 6.735172956504505 0.0604344266218076
  0.0414583978713649 8.4407422786e-06 5.32711410422
 O  Ga  Cu 
8 4 4 
direct
    0.9355383881839928  -0.0938579796903980  -0.0987888456102723
    0.0500436847241872  -0.8890232358865474  -0.6018731832299054
    0.9013763764611439  -0.6405582692029342  -0.0578150195245897
    0.3980170073622631  -0.8429432271768036  -0.0054082739395938
    0.0926521268462182  -0.3395629883709503  -0.5508640665482928
    0.5962035999926059  -0.1389528401843592  -0.5230713564079181
    0.4379649669565282  -0.3932278463266883  -0.9571900270679876
    0.5535854927765556  -0.5941992263988779  -0.4568308375977422
    0.0647985417982611  -0.8668512445614097  -0.9541955234552404
    0.9220361688859526  -0.1161422360890469  -0.4490267711960101
    0.5701233055472984  -0.6182094382534801  -0.1049981572960732
    0.4244279838959315  -0.3661911583605786  -0.5990455914568997
    0.0383077673293570  -0.3708146851433086  -0.9929987236856802
    0.5176754721394731  -0.1139898464908669  -0.0337410282214776
    0.9706825686631503  -0.6129539624619582  -0.5054272150839694
    0.4599502844980420  -0.8690205231931714  -0.5579366497524204
