O    Ga   Cu                            
   1.00000000000000     
    -0.0454937184085103   -0.0000084407422792   -5.3271141042199996
     5.5494832416360520   -0.0255858501021112   -0.0000016880840733
     0.0312672069731415   -6.7299556810178141    0.0878601667239596
   O    Ga   Cu
     8     4     4
Direct
  0.0502480168607065  0.9288323834390795  0.0981564093450586
  0.4649240543774980  0.0733769288901485  0.8838216759557724
  0.0018003504544524  0.8990921127383729  0.6400832151099820
  0.9964292872500309  0.4003560693525401  0.8299095366176203
  0.5180721644107393  0.0918831233871131  0.3586387680648713
  0.4915577320242761  0.5887367112232482  0.1390388509347744
  0.9478630207732763  0.4407528371096632  0.3844145359459503
  0.4519690603695068  0.5558476427428332  0.5919541441451059
  0.1042828248790855  0.0842531810613067  0.8577285328234865
  0.4642886982961016  0.9190383972601666  0.1311473471053546
  0.1027574075926623  0.5780913345365022  0.6064886038284740
  0.5956361785055648  0.4191401506589258  0.3674428655953648
  0.0254372019699147  0.0357773981702181  0.3686128986246899
  0.0327989013352052  0.5500047014316607  0.1017847186372762
  0.5989315477169654  0.9158300931322074  0.6345587959098609
  0.6022148232186098  0.4523706709270314  0.8727178091477299
 
             NaN             NaN             NaN
             NaN             NaN             NaN
             NaN             NaN             NaN
             NaN             NaN             NaN
             NaN             NaN             NaN
             NaN             NaN             NaN
             NaN             NaN             NaN
             NaN             NaN             NaN
             NaN             NaN             NaN
             NaN             NaN             NaN
             NaN             NaN             NaN
             NaN             NaN             NaN
             NaN             NaN             NaN
             NaN             NaN             NaN
             NaN             NaN             NaN
             NaN             NaN             NaN
