O    Ga   Cu                            
   1.00000000000000     
    -0.0414583978713649   -0.0000084407422786   -5.3271141042199996
     5.5609677172577898   -0.0079446115205837   -0.0000016880840716
     0.0091528325668885   -6.7351729565045053   -0.0604344266218076
   O    Ga   Cu
     8     4     4
Direct
  0.0987888456102723  0.9355383881839927  0.0938579796903980
  0.6018731832299054  0.0500436847241872  0.8890232358865475
  0.0578150195245897  0.9013763764611440  0.6405582692029341
  0.0054082739395938  0.3980170073622631  0.8429432271768036
  0.5508640665482929  0.0926521268462182  0.3395629883709503
  0.5230713564079181  0.5962035999926059  0.1389528401843592
  0.9571900270679876  0.4379649669565282  0.3932278463266883
  0.4568308375977423  0.5535854927765556  0.5941992263988780
  0.9541955234552404  0.0647985417982611  0.8668512445614098
  0.4490267711960101  0.9220361688859526  0.1161422360890469
  0.1049981572960732  0.5701233055472983  0.6182094382534800
  0.5990455914568997  0.4244279838959315  0.3661911583605786
  0.9929987236856803  0.0383077673293570  0.3708146851433085
  0.0337410282214776  0.5176754721394730  0.1139898464908669
  0.5054272150839694  0.9706825686631504  0.6129539624619582
  0.5579366497524205  0.4599502844980421  0.8690205231931714
 
             NaN             NaN             NaN
             NaN             NaN             NaN
             NaN             NaN             NaN
             NaN             NaN             NaN
             NaN             NaN             NaN
             NaN             NaN             NaN
             NaN             NaN             NaN
             NaN             NaN             NaN
             NaN             NaN             NaN
             NaN             NaN             NaN
             NaN             NaN             NaN
             NaN             NaN             NaN
             NaN             NaN             NaN
             NaN             NaN             NaN
             NaN             NaN             NaN
             NaN             NaN             NaN
