O    Ga   Cu
1.0
  5.549483241636052 -0.0255858501021112 -1.6880840733e-06
  -0.0312672069731415 6.729955681017814 -0.0878601667239596
  0.0454937184085103 8.4407422792e-06 5.32711410422
 O  Ga  Cu 
8 4 4 
direct
    0.9288323834390795  -0.0981564093450586  -0.0502480168607065
    0.0733769288901485  -0.8838216759557725  -0.4649240543774980
    0.8990921127383730  -0.6400832151099820  -0.0018003504544524
    0.4003560693525401  -0.8299095366176205  -0.9964292872500309
    0.0918831233871131  -0.3586387680648714  -0.5180721644107392
    0.5887367112232482  -0.1390388509347744  -0.4915577320242761
    0.4407528371096632  -0.3844145359459504  -0.9478630207732763
    0.5558476427428333  -0.5919541441451061  -0.4519690603695067
    0.0842531810613067  -0.8577285328234865  -0.1042828248790855
    0.9190383972601666  -0.1311473471053546  -0.4642886982961016
    0.5780913345365022  -0.6064886038284740  -0.1027574075926623
    0.4191401506589258  -0.3674428655953649  -0.5956361785055647
    0.0357773981702181  -0.3686128986246899  -0.0254372019699147
    0.5500047014316608  -0.1017847186372762  -0.0327989013352052
    0.9158300931322075  -0.6345587959098610  -0.5989315477169653
    0.4523706709270315  -0.8727178091477300  -0.6022148232186098
