O    Ga   Cu                            
   1.00000000000000     
    -0.0486986321456259   -0.0000084407422794   -5.3271141042199996
     5.5408471633722947   -0.0287359429926519   -0.0000016880840738
     0.0351729425862817   -6.7111043338554923    0.0731824429741560
   O    Ga   Cu
     8     4     4
Direct
  0.9775318005834848  0.9317074633699463  0.0940133121588644
  0.4564810990748995  0.0698083724263157  0.8874146695800533
  0.0034038187748067  0.8998617030058327  0.6402249778877120
  0.9971107520227349  0.3994297896815695  0.8310158741310687
  0.5080020437602073  0.0923217337224926  0.3572964598089143
  0.4866348652566614  0.5911427144852937  0.1394859678421625
  0.9473546867554106  0.4408109972351610  0.3842877919416452
  0.4520433875621634  0.5557715967965535  0.5928691208527042
  0.1003298123413359  0.0799289037180557  0.8650325595584505
  0.5455245211887174  0.9204092122380771  0.1260282660476122
  0.1024164606940801  0.5777853567129441  0.6068943932255095
  0.5952843681000957  0.4186685210576684  0.3678038278451368
  0.0348365202450083  0.0335366208504126  0.3663970119960851
  0.0384586222951242  0.5536344721634379  0.1021521096261750
  0.6005511116193389  0.9161996942924020  0.6335424321575189
  0.6032473997605408  0.4523665843048406  0.8720399331317665
 
             NaN             NaN             NaN
             NaN             NaN             NaN
             NaN             NaN             NaN
             NaN             NaN             NaN
             NaN             NaN             NaN
             NaN             NaN             NaN
             NaN             NaN             NaN
             NaN             NaN             NaN
             NaN             NaN             NaN
             NaN             NaN             NaN
             NaN             NaN             NaN
             NaN             NaN             NaN
             NaN             NaN             NaN
             NaN             NaN             NaN
             NaN             NaN             NaN
             NaN             NaN             NaN
