O    Ga   Cu
1.0
  5.503870149607388 -0.0225488090296398 -1.6880840742e-06
  -0.0277490538039497 6.650783783300967 -0.0375085375761148
  0.0469224072837064 8.4407422795e-06 5.32711410422
 O  Ga  Cu 
8 4 4 
direct
    0.9363073707656683  -0.0940776479068646  -0.9405650751805296
    0.0604172286985900  -0.8889736033089051  -0.4438502342295861
    0.8985390063927882  -0.6385580313054078  -0.9943730691343688
    0.3977279081426772  -0.8397641682390926  -0.9912101162410565
    0.0908413791272125  -0.3475765093081122  -0.4895136226282943
    0.5945167042627517  -0.1396532183325832  -0.4835886861535172
    0.4376140988931212  -0.3864048305937189  -0.9412805637015251
    0.5543397349086163  -0.5944730222372955  -0.4449855062025491
    0.0744312478982181  -0.8675036475480554  -0.0937236117224600
    0.9197047569849206  -0.1180418726909735  -0.5889308252791565
    0.5751447016799176  -0.6118245765938328  -0.0952630429164074
    0.4163550311881252  -0.3672742366331009  -0.5897567666230471
    0.0557203170540816  -0.3629920908309004  -0.0832372413227134
    0.5542826844637858  -0.1129673558755044  -0.0756094450922404
    0.9242862543859971  -0.6265719743690354  -0.5970324227177529
    0.4431553008277760  -0.8698419199049499  -0.5962890592418830
