O    Ga   Cu                            
   1.00000000000000     
    -0.0605535285129603   -0.0000084407422791   -5.3271141042199996
     5.5514894233229803   -0.0306207858450026   -0.0000016880840731
     0.0376616853365703   -6.7359556158957199    0.1327973139983373
   O    Ga   Cu
     8     4     4
Direct
  0.0746280039011609  0.9303686971124705  0.0989710884940749
  0.4708630888528589  0.0760687828650077  0.8853959131631584
  0.0007482132004313  0.8992573622394602  0.6394377778358447
  0.9971563070053406  0.4006590706845046  0.8279651993625023
  0.5424326479435848  0.0868843606382015  0.3575481618164389
  0.4926841762882077  0.5891321355679295  0.1390775652651115
  0.9474903671021693  0.4456750420423177  0.3835410795227645
  0.4521676477700609  0.5537704160031467  0.5908258860140947
  0.1112791471824934  0.0868455597643063  0.8521965557913234
  0.4420598760099921  0.9185750162395081  0.1353899643815240
  0.1038243906568042  0.5804694796450178  0.6059137638370800
  0.5940936475410297  0.4186707567947963  0.3664155184722730
  0.9995263347876815  0.0406888741941529  0.3652928875510284
  0.0258928262155891  0.5409196152539124  0.1008895041374629
  0.5935837273567586  0.9120182735798039  0.6414902905541524
  0.6007808682204328  0.4533802934364601  0.8761475515925525
 
             NaN             NaN             NaN
             NaN             NaN             NaN
             NaN             NaN             NaN
             NaN             NaN             NaN
             NaN             NaN             NaN
             NaN             NaN             NaN
             NaN             NaN             NaN
             NaN             NaN             NaN
             NaN             NaN             NaN
             NaN             NaN             NaN
             NaN             NaN             NaN
             NaN             NaN             NaN
             NaN             NaN             NaN
             NaN             NaN             NaN
             NaN             NaN             NaN
             NaN             NaN             NaN
