O    Ga   Cu
1.0
  5.559054853818117 -0.0144737282931062 -1.6880840705e-06
  -0.016818382597276 6.747664083612171 0.1503563252163759
  0.0151844964180576 8.4407422782e-06 5.32711410422
 O  Ga  Cu 
8 4 4 
direct
    0.9354113780413443  -0.0934427767043005  -0.1017849618706137
    0.0467322598990449  -0.8852897660697038  -0.6053523415999748
    0.9043226563546369  -0.6393552177273206  -0.0593141663915020
    0.4016557495685121  -0.8507661599198001  -0.0030839245440646
    0.0895391734137192  -0.3304218770768087  -0.5570367088455370
    0.5944680716954309  -0.1424618357164746  -0.5604732572901056
    0.4211572670007513  -0.3852740050995536  -0.0867265187435962
    0.5596131802951803  -0.6000479699491166  -0.4788841892779132
    0.0687192449726410  -0.8674642686556310  -0.9584567383275979
    0.9124428655696377  -0.1097226099700066  -0.4509288627502173
    0.5761353547532977  -0.6331618439221883  -0.1141677533119960
    0.4049613681335273  -0.3542080511653439  -0.4474072170530690
    0.0477011099001103  -0.3738274907876188  -0.9580456748833868
    0.5528989103262347  -0.1257822617486539  -0.9793875651095191
    0.9544602125172189  -0.6061846766947168  -0.5274381915347206
    0.4631649336197229  -0.8690878965841335  -0.5607231985398967
