O    Ga   Cu
1.0
  5.502908345762573 0.0217856234117657 -1.6880840692e-06
  0.0268395540146714 6.6485837195043525 0.0337437309193603
  0.0445299114120115 8.4407422777e-06 5.32711410422
 O  Ga  Cu 
8 4 4 
direct
    0.9372925720436596  -0.0944962095933022  -0.1118772564516277
    0.0542730586471194  -0.8867077742005661  -0.6151827608956992
    0.8973780561217026  -0.6395301616531698  -0.0722046152932023
    0.4008186948901695  -0.8472668585122916  -0.0667637221016548
    0.0939187235452650  -0.3404381431755468  -0.5654102061927517
    0.5930108844122728  -0.1383370593972728  -0.5624308684862811
    0.4317289137789330  -0.3888140109968887  -0.1127841604739075
    0.5556003702561156  -0.5942746518409051  -0.6156484082771102
    0.0752990388490957  -0.8673905457989404  -0.9665075113903114
    0.9165667374599594  -0.1122807593398747  -0.4616348685283497
    0.5721879947738699  -0.6177035901550666  -0.9670164285599726
    0.4174193376204443  -0.3674771641238975  -0.4629402914702680
    0.0496130743335073  -0.3692450681148287  -0.9604225066837914
    0.5670352020737468  -0.1260879744830774  -0.9593645067610126
    0.9369647498063998  -0.6137765467776717  -0.4782426213120488
    0.4342763426350730  -0.8626721920977615  -0.4707827518195984
