O    Ga   Cu
1.0
  5.49697861853 -4.143246315e-07 -1.688084069e-06
  -5.231003999e-07 6.64247085233 1.04885803296e-05
  -1.6323229366e-06 8.4407422776e-06 5.32711410422
 O  Ga  Cu 
8 4 4 
direct
    0.9354648435342697  -0.0945530319687720  -0.1254317260614357
    0.0561990775256618  -0.8887790347611072  -0.6254308903107884
    0.9005050724363883  -0.6376187431491330  -0.0763871967791303
    0.4005058869932441  -0.8457144884923622  -0.0763839258498535
    0.0911607317509890  -0.3457147923095079  -0.5763840614515986
    0.5911616770075199  -0.1376191818500914  -0.5763867678306552
    0.4354677017596272  -0.3887789212813216  -0.1254308175296543
    0.5562019494512783  -0.5945531069504923  -0.6254317698975455
    0.0750478591791577  -0.8676871553882534  -0.9758152333931278
    0.9166177873248671  -0.1156461044816410  -0.4758159005702751
    0.5750492058563808  -0.6156459810645032  -0.9758160658034640
    0.4166189685539123  -0.3676871973172240  -0.4758150738350365
    0.0617036183148514  -0.3615909521077754  -0.9723660006668736
    0.5617017492844029  -0.1217430143621669  -0.9723689094071303
    0.9299639820079905  -0.6217435530228741  -0.4723681725588875
    0.4299632223527539  -0.8615914081594269  -0.4723660920099063
