O    Ga   Cu
1.0
  5.578706790964107 -0.01228855753178 -1.6880840709e-06
  -0.0145537828155243 6.762146866739733 0.0864255052967121
  0.0308674645688469 8.4407422783e-06 5.32711410422
 O  Ga  Cu 
8 4 4 
direct
    0.9347219882820141  -0.0933970774332735  -0.0995606000769840
    0.0512499491065554  -0.8888221470885043  -0.6020543933373972
    0.9032811247313930  -0.6408701993409308  -0.0544520652372782
    0.3991825843485159  -0.8442770173750773  -0.0030116867120924
    0.0924432202152659  -0.3370301750019281  -0.5548600162461312
    0.6009371849134340  -0.1391621772934215  -0.5495063864226070
    0.4244554310823858  -0.3858386466700522  -0.0526701179125197
    0.5635970799664493  -0.6019520069456092  -0.4693887800977735
    0.0658426284711453  -0.8679379495007139  -0.9553975174550829
    0.9197849606251012  -0.1136163794196747  -0.4483615811933959
    0.5753793507379755  -0.6244545508868812  -0.1046636523281137
    0.4150531342326006  -0.3587866582456272  -0.4869085126130770
    0.0504640853632239  -0.3721395054072261  -0.9844888565712540
    0.5156071538375286  -0.1152361428654913  -0.0145129561728936
    0.9658107939221878  -0.6124806539057417  -0.5092097977087279
    0.4555730662251776  -0.8704974204112189  -0.5601643499887530
