supercell of icsd_181358.cif            
   1.00000000000000     
    10.4835352224237610   -0.0057777009879766    0.0067356908334632
    -5.2467420780324456    9.0491507493482217   -0.0057485916290587
     0.0073165818088637   -0.0032463954998544   10.1778140408673501
   N    Sc   Ga
    36    20    16
Direct
  0.2213964805300748  0.1207330457713880  0.4426889874252424
  0.1016570926633662  0.2336958792377928  0.1986195105516444
  0.8843205385602317  0.1254678361871626  0.9244891928643284
  0.7639413915082045  0.2347556902851196  0.6897457832906326
  0.5662604402255056  0.1249413726733621  0.4351312114085601
  0.4405119878414538  0.2196343564836738  0.1780178795328524
  0.2114248989620862  0.1070647371577351  0.9540501269206345
  0.1185321526114436  0.2120151111192499  0.6963203549610100
  0.8876891216616585  0.1114365483766093  0.4610139969405722
  0.7872236545951878  0.2131709954723604  0.1890419372686125
  0.5623150051242760  0.0984328040470857  0.9541221936893862
  0.4443840489519246  0.2211939849001112  0.7267599439072470
  0.2123206904345949  0.4301352394681572  0.4575145310719364
  0.1214112025841914  0.5607052446503644  0.2043264220258862
  0.8710217252202526  0.4351438309868385  0.9505169944198286
  0.7761092832590109  0.5544447329638800  0.6961324654072953
  0.5670313969529204  0.4437127600005226  0.4408660709579308
  0.4261922501489153  0.5469596887632093  0.2070495536676518
  0.2408022108450254  0.4553376122077424  0.9369837314604368
  0.0914521253173461  0.5436096448995755  0.7058685740486865
  0.8705497266892337  0.4397925086279315  0.4402002483526246
  0.7762437556946793  0.5561148322022618  0.1850061814716710
  0.5603022143984617  0.4639018443009846  0.9498370173377992
  0.4579256554487401  0.5515715037653734  0.6860398873580849
  0.2228446439350193  0.7775629381166809  0.4610585161177667
  0.1178385963904276  0.8780009095916199  0.2048606142935796
  0.8849808811687154  0.7623431098547186  0.9451847397848923
  0.7842453908534139  0.8792014436834918  0.7045228186399655
  0.5761031475580509  0.7873516976152217  0.4409202619781993
  0.4297473008073780  0.8794762281694446  0.2046222070872687
  0.2424697524717772  0.7832204764168509  0.9372960527466674
  0.1054652351621499  0.8921990965654203  0.7070890282453135
  0.8750647007472807  0.7679884260413061  0.4502031044887431
  0.7988074706224495  0.9132866078666453  0.1874013224190421
  0.5494896049389411  0.7732889850477207  0.9662484935801388
  0.4632601281337614  0.9069612592195213  0.6898567534562119
  0.2192038240349916  0.1144417036717797  0.2324300439735438
  0.1056920081453541  0.2302374159994258  0.9881685040612780
  0.8853517135532343  0.1160454011672272  0.7176061762614978
  0.5573519480426299  0.1130909336470864  0.2259032844186919
  0.4460284784964941  0.2236113153717838  0.9681498586402029
  0.4475914761565321  0.2251169780364251  0.5072790864633063
  0.1166284728210130  0.5569775775740595  0.9829511563987410
  0.5531809377454877  0.4399128070579152  0.2314626808507825
  0.2290223980842114  0.4422430315335930  0.7276673226611692
  0.0950777528165858  0.5450630434508028  0.4912886977149782
  0.8862710759293861  0.4410580997553524  0.2309763882950691
  0.4517595915970745  0.5555334501629474  0.4767995720070601
  0.1144901210211913  0.8795240664887274  0.9890411966047097
  0.5637014525150974  0.7831863042509823  0.2267485952139268
  0.2295110575409041  0.7825276324329025  0.7283915374454892
  0.1047782237794692  0.8923362293544415  0.4922199081884884
  0.8875561354164390  0.7774091050409808  0.2402235167235531
  0.7872441405610999  0.8990182725225893  0.9798267573780990
  0.5555773051056789  0.7740276696539254  0.7468852605893517
  0.4587788092235883  0.8990459533858726  0.4803468108400963
  0.7685372364494185  0.2312394967924050  0.4963069668505540
  0.2147062178461852  0.1054925062899201  0.7558068208390765
  0.1116972369327485  0.2169574743202318  0.4980983279898368
  0.8923785524108823  0.1167016990212630  0.2567414873837990
  0.7785138606613344  0.2167763565788547  0.9958563138368675
  0.5612582070065457  0.1108754152753590  0.7555897637896223
  0.2134654462693391  0.4412153949227218  0.2550340626525198
  0.8749409539570578  0.4410789039687089  0.7529629491499321
  0.7719310391389769  0.5515131959278960  0.4993377128930732
  0.4404348646699745  0.5560729949012853  0.0049822784347384
  0.7731292505518326  0.5537871958153175  0.9948903802707392
  0.5626129760091700  0.4554438353193220  0.7536039693616274
  0.2213901306127468  0.7721501714589394  0.2558580813399018
  0.8872240596428469  0.7698395316118578  0.7496503831594765
  0.7787834449312996  0.8821817260410185  0.5022917524916792
  0.4428636973050715  0.8834141284589734  0.0030156856482364
 
  0.00000000E+00  0.00000000E+00  0.00000000E+00
  0.00000000E+00  0.00000000E+00  0.00000000E+00
  0.00000000E+00  0.00000000E+00  0.00000000E+00
  0.00000000E+00  0.00000000E+00  0.00000000E+00
  0.00000000E+00  0.00000000E+00  0.00000000E+00
  0.00000000E+00  0.00000000E+00  0.00000000E+00
  0.00000000E+00  0.00000000E+00  0.00000000E+00
  0.00000000E+00  0.00000000E+00  0.00000000E+00
  0.00000000E+00  0.00000000E+00  0.00000000E+00
  0.00000000E+00  0.00000000E+00  0.00000000E+00
  0.00000000E+00  0.00000000E+00  0.00000000E+00
  0.00000000E+00  0.00000000E+00  0.00000000E+00
  0.00000000E+00  0.00000000E+00  0.00000000E+00
  0.00000000E+00  0.00000000E+00  0.00000000E+00
  0.00000000E+00  0.00000000E+00  0.00000000E+00
  0.00000000E+00  0.00000000E+00  0.00000000E+00
  0.00000000E+00  0.00000000E+00  0.00000000E+00
  0.00000000E+00  0.00000000E+00  0.00000000E+00
  0.00000000E+00  0.00000000E+00  0.00000000E+00
  0.00000000E+00  0.00000000E+00  0.00000000E+00
  0.00000000E+00  0.00000000E+00  0.00000000E+00
  0.00000000E+00  0.00000000E+00  0.00000000E+00
  0.00000000E+00  0.00000000E+00  0.00000000E+00
  0.00000000E+00  0.00000000E+00  0.00000000E+00
  0.00000000E+00  0.00000000E+00  0.00000000E+00
  0.00000000E+00  0.00000000E+00  0.00000000E+00
  0.00000000E+00  0.00000000E+00  0.00000000E+00
  0.00000000E+00  0.00000000E+00  0.00000000E+00
  0.00000000E+00  0.00000000E+00  0.00000000E+00
  0.00000000E+00  0.00000000E+00  0.00000000E+00
  0.00000000E+00  0.00000000E+00  0.00000000E+00
  0.00000000E+00  0.00000000E+00  0.00000000E+00
  0.00000000E+00  0.00000000E+00  0.00000000E+00
  0.00000000E+00  0.00000000E+00  0.00000000E+00
  0.00000000E+00  0.00000000E+00  0.00000000E+00
  0.00000000E+00  0.00000000E+00  0.00000000E+00
  0.00000000E+00  0.00000000E+00  0.00000000E+00
  0.00000000E+00  0.00000000E+00  0.00000000E+00
  0.00000000E+00  0.00000000E+00  0.00000000E+00
  0.00000000E+00  0.00000000E+00  0.00000000E+00
  0.00000000E+00  0.00000000E+00  0.00000000E+00
  0.00000000E+00  0.00000000E+00  0.00000000E+00
  0.00000000E+00  0.00000000E+00  0.00000000E+00
  0.00000000E+00  0.00000000E+00  0.00000000E+00
  0.00000000E+00  0.00000000E+00  0.00000000E+00
  0.00000000E+00  0.00000000E+00  0.00000000E+00
  0.00000000E+00  0.00000000E+00  0.00000000E+00
  0.00000000E+00  0.00000000E+00  0.00000000E+00
  0.00000000E+00  0.00000000E+00  0.00000000E+00
  0.00000000E+00  0.00000000E+00  0.00000000E+00
  0.00000000E+00  0.00000000E+00  0.00000000E+00
  0.00000000E+00  0.00000000E+00  0.00000000E+00
  0.00000000E+00  0.00000000E+00  0.00000000E+00
  0.00000000E+00  0.00000000E+00  0.00000000E+00
  0.00000000E+00  0.00000000E+00  0.00000000E+00
  0.00000000E+00  0.00000000E+00  0.00000000E+00
  0.00000000E+00  0.00000000E+00  0.00000000E+00
  0.00000000E+00  0.00000000E+00  0.00000000E+00
  0.00000000E+00  0.00000000E+00  0.00000000E+00
  0.00000000E+00  0.00000000E+00  0.00000000E+00
  0.00000000E+00  0.00000000E+00  0.00000000E+00
  0.00000000E+00  0.00000000E+00  0.00000000E+00
  0.00000000E+00  0.00000000E+00  0.00000000E+00
  0.00000000E+00  0.00000000E+00  0.00000000E+00
  0.00000000E+00  0.00000000E+00  0.00000000E+00
  0.00000000E+00  0.00000000E+00  0.00000000E+00
  0.00000000E+00  0.00000000E+00  0.00000000E+00
  0.00000000E+00  0.00000000E+00  0.00000000E+00
  0.00000000E+00  0.00000000E+00  0.00000000E+00
  0.00000000E+00  0.00000000E+00  0.00000000E+00
  0.00000000E+00  0.00000000E+00  0.00000000E+00
  0.00000000E+00  0.00000000E+00  0.00000000E+00
