Al   B    N                             
   1.00000000000000     
    -9.7229621767682399   -0.0000001019140677    0.0000000792703494
    -4.8614768419260761    8.4203315912950210    0.0000001492538164
    -0.0000004579435667   -0.0000004333462997   -8.8699876153472115
   Al   B    N 
    35     1    36
Direct
  0.1079492235862389  0.0923210356698263  0.3416304786572155
  0.2229469652628921  0.2041061323187137  0.0917177360600689
  0.7777777880522336  0.0944444604978543  0.8427178430266551
  0.8839963274173641  0.2006630845508894  0.5807930868010089
  0.4497297296460019  0.0923210515368851  0.3416304708253577
  0.5556300086675421  0.2055183546126074  0.0954507528639681
  0.1080712303098395  0.0961864560462402  0.8381394285795096
  0.2217912279849443  0.2064176346558781  0.5889963712088004
  0.8888516941283058  0.2055183788538741  0.0954507451454631
  0.4457423659195143  0.0961864437552009  0.8381394311847572
  0.5653406890578978  0.2006630341957774  0.5807930711571672
  0.1111111527229554  0.4277777269597109  0.3388660469550544
  0.2229469730600826  0.5396136003608945  0.0917177471124404
  0.7795197466336532  0.4247379178654072  0.8381394642663764
  0.8897509717461887  0.5384578756710496  0.5889963615912635
  0.4497297651706162  0.4246158674150848  0.3416304477719905
  0.5560331131785006  0.5379337807872986  0.0892459576559688
  0.1111111369274411  0.4277777378313345  0.8417799671163237
  0.2217912318285613  0.5384578663678283  0.5889963590298919
  0.7756543214295064  0.4246159186395673  0.3416304337672926
  0.8874394840641102  0.5396136027256802  0.0917177311665398
  0.4457423577070259  0.4247378757226414  0.8381394532790196
  0.5555887425111337  0.5388225563441225  0.5906873936829058
  0.1079491945539104  0.7663964034439772  0.3416304667143635
  0.2212670210499610  0.8726998683153937  0.0892459751943520
  0.7795197543052055  0.7624089809668035  0.8381394423198287
  0.8839963068007748  0.8820073829315049  0.5807931200185976
  0.4444443970078211  0.7611111500858385  0.3386290334900579
  0.5560331154627249  0.8726998680626750  0.0892459883324719
  0.1080712610649854  0.7624089515206762  0.8381394272284197
  0.2221557908992295  0.8722554814371364  0.5906873783800393
  0.7756543717936708  0.7663963862996042  0.3416304411862399
  0.8888517002622862  0.8722966336507767  0.0954506744152539
  0.4444444152571378  0.7611111324975113  0.8414587060559100
  0.5555887526938434  0.8722554660914028  0.5906873606870562
  0.7777778334512462  0.0944443910522921  0.3108554965954653
  0.2223165796847937  0.2053669212094746  0.3693381295438627
  0.1114499312606227  0.0939852995340758  0.1230001928415376
  0.8884654819520108  0.2051321276704030  0.8781071184200613
  0.7777777578784608  0.0944444930605712  0.6337376281998530
  0.5838010721506990  0.1914328150851290  0.3625136326975920
  0.4445647508508728  0.0939852904118794  0.1230001844881130
  0.2230537426214241  0.2038926334864684  0.8689066094991489
  0.1068096802117253  0.0968295797452328  0.6156480487664595
  0.8747661834511788  0.1914328478087981  0.3625136298745986
  0.7777777943947584  0.0944444139328198  0.1340731075670547
  0.5564025273937787  0.2051320895926096  0.8781071210248257
  0.4463607379517001  0.0968295438877362  0.6156480395058992
  0.2223165895078409  0.5389831859341996  0.3693380988085266
  0.1111110828729878  0.4277777927836937  0.1178324152447630
  0.8872260499308737  0.5397203306580423  0.8689066371911665
  0.7801627945115044  0.4234764817060324  0.6156480717360324
  0.5547226606676148  0.5405547344076140  0.3712188753785171
  0.4445647579876777  0.4281166576272213  0.1230001577058033
  0.2230537167362030  0.5397203119295924  0.8689066366388971
  0.1111110854415003  0.4277778066000053  0.6208825615509355
  0.8887003162925922  0.5389831807366932  0.3693381126370952
  0.7773185263848532  0.4281166948617425  0.1230001535013088
  0.5565099929839121  0.5369800836993051  0.8677427161377977
  0.4463607259227729  0.4234764399446007  0.6156480511730535
  0.2238880371871801  0.8713893116421190  0.3712188807177483
  0.1114499247176965  0.7612314473010855  0.1230001608246596
  0.8884654794802458  0.8730690999255231  0.8781070564496076
  0.7801628091916228  0.7630274194579840  0.6156480672315681
  0.5547226997518493  0.8713893028680317  0.3712188556696816
  0.4444443761686259  0.7611111676879929  0.1169207536495307
  0.2203133854201340  0.8731766599392472  0.8677427243250051
  0.1068096976104442  0.7630274234743979  0.6156480578060624
  0.8747661840724135  0.9004676650900976  0.3625136508057096
  0.7773185619927858  0.7612314429027265  0.1230001426043543
  0.5565100100435743  0.8731766397209597  0.8677427424286748
  0.4444443778543956  0.7611111774890631  0.6219279441653782
 
  0.00000000E+00  0.00000000E+00  0.00000000E+00
  0.00000000E+00  0.00000000E+00  0.00000000E+00
  0.00000000E+00  0.00000000E+00  0.00000000E+00
  0.00000000E+00  0.00000000E+00  0.00000000E+00
  0.00000000E+00  0.00000000E+00  0.00000000E+00
  0.00000000E+00  0.00000000E+00  0.00000000E+00
  0.00000000E+00  0.00000000E+00  0.00000000E+00
  0.00000000E+00  0.00000000E+00  0.00000000E+00
  0.00000000E+00  0.00000000E+00  0.00000000E+00
  0.00000000E+00  0.00000000E+00  0.00000000E+00
  0.00000000E+00  0.00000000E+00  0.00000000E+00
  0.00000000E+00  0.00000000E+00  0.00000000E+00
  0.00000000E+00  0.00000000E+00  0.00000000E+00
  0.00000000E+00  0.00000000E+00  0.00000000E+00
  0.00000000E+00  0.00000000E+00  0.00000000E+00
  0.00000000E+00  0.00000000E+00  0.00000000E+00
  0.00000000E+00  0.00000000E+00  0.00000000E+00
  0.00000000E+00  0.00000000E+00  0.00000000E+00
  0.00000000E+00  0.00000000E+00  0.00000000E+00
  0.00000000E+00  0.00000000E+00  0.00000000E+00
  0.00000000E+00  0.00000000E+00  0.00000000E+00
  0.00000000E+00  0.00000000E+00  0.00000000E+00
  0.00000000E+00  0.00000000E+00  0.00000000E+00
  0.00000000E+00  0.00000000E+00  0.00000000E+00
  0.00000000E+00  0.00000000E+00  0.00000000E+00
  0.00000000E+00  0.00000000E+00  0.00000000E+00
  0.00000000E+00  0.00000000E+00  0.00000000E+00
  0.00000000E+00  0.00000000E+00  0.00000000E+00
  0.00000000E+00  0.00000000E+00  0.00000000E+00
  0.00000000E+00  0.00000000E+00  0.00000000E+00
  0.00000000E+00  0.00000000E+00  0.00000000E+00
  0.00000000E+00  0.00000000E+00  0.00000000E+00
  0.00000000E+00  0.00000000E+00  0.00000000E+00
  0.00000000E+00  0.00000000E+00  0.00000000E+00
  0.00000000E+00  0.00000000E+00  0.00000000E+00
  0.00000000E+00  0.00000000E+00  0.00000000E+00
  0.00000000E+00  0.00000000E+00  0.00000000E+00
  0.00000000E+00  0.00000000E+00  0.00000000E+00
  0.00000000E+00  0.00000000E+00  0.00000000E+00
  0.00000000E+00  0.00000000E+00  0.00000000E+00
  0.00000000E+00  0.00000000E+00  0.00000000E+00
  0.00000000E+00  0.00000000E+00  0.00000000E+00
  0.00000000E+00  0.00000000E+00  0.00000000E+00
  0.00000000E+00  0.00000000E+00  0.00000000E+00
  0.00000000E+00  0.00000000E+00  0.00000000E+00
  0.00000000E+00  0.00000000E+00  0.00000000E+00
  0.00000000E+00  0.00000000E+00  0.00000000E+00
  0.00000000E+00  0.00000000E+00  0.00000000E+00
  0.00000000E+00  0.00000000E+00  0.00000000E+00
  0.00000000E+00  0.00000000E+00  0.00000000E+00
  0.00000000E+00  0.00000000E+00  0.00000000E+00
  0.00000000E+00  0.00000000E+00  0.00000000E+00
  0.00000000E+00  0.00000000E+00  0.00000000E+00
  0.00000000E+00  0.00000000E+00  0.00000000E+00
  0.00000000E+00  0.00000000E+00  0.00000000E+00
  0.00000000E+00  0.00000000E+00  0.00000000E+00
  0.00000000E+00  0.00000000E+00  0.00000000E+00
  0.00000000E+00  0.00000000E+00  0.00000000E+00
  0.00000000E+00  0.00000000E+00  0.00000000E+00
  0.00000000E+00  0.00000000E+00  0.00000000E+00
  0.00000000E+00  0.00000000E+00  0.00000000E+00
  0.00000000E+00  0.00000000E+00  0.00000000E+00
  0.00000000E+00  0.00000000E+00  0.00000000E+00
  0.00000000E+00  0.00000000E+00  0.00000000E+00
  0.00000000E+00  0.00000000E+00  0.00000000E+00
  0.00000000E+00  0.00000000E+00  0.00000000E+00
  0.00000000E+00  0.00000000E+00  0.00000000E+00
  0.00000000E+00  0.00000000E+00  0.00000000E+00
  0.00000000E+00  0.00000000E+00  0.00000000E+00
  0.00000000E+00  0.00000000E+00  0.00000000E+00
  0.00000000E+00  0.00000000E+00  0.00000000E+00
  0.00000000E+00  0.00000000E+00  0.00000000E+00
