Al   B    N                             
   1.00000000000000     
    -9.5184044821828451   -0.0000001151339385    0.0000001189462705
    -4.7591986019951165    8.2430767376326255    0.0000002663151039
    -0.0000005693560115   -0.0000051307750688   -9.5005427437055392
   Al   B    N 
    35     1    36
Direct
  0.1080512709081916  0.0924038008620300  0.3306064944670410
  0.2227708617003046  0.2044583398437183  0.0801601753437353
  0.7777776418460505  0.0944447303260816  0.8324939431557254
  0.8850795897846595  0.2017459485818449  0.5733518845790542
  0.4495449631337536  0.0924037992934501  0.3306064888094653
  0.5565996337261225  0.2050332369275836  0.0865128131092945
  0.1085639662897080  0.0957468445460918  0.8288140186288899
  0.2218221323262100  0.2063558111284607  0.5793025080186922
  0.8883671971998197  0.2050332453263337  0.0865128228632130
  0.4456891920047568  0.0957468404656296  0.8288140232109455
  0.5631745350949444  0.2017459145647607  0.5733518938927915
  0.1111109628818454  0.4277780694505466  0.3282007240407765
  0.2227708780228710  0.5394368700898511  0.0801601435749717
  0.7790795225209024  0.4252313453848728  0.8288140655679470
  0.8896898396114779  0.5384881330176299  0.5793025220529557
  0.4495451221965112  0.4247185383446563  0.3306064170340832
  0.5559027939243109  0.5381944537812302  0.0787276541750614
  0.1111109159643675  0.4277781432990793  0.8308512761522877
  0.2218220915234994  0.5384881214559556  0.5793025026261205
  0.7757363275914670  0.4247185839827665  0.3306064052147022
  0.8877923031650710  0.5394368759732302  0.0801601211268235
  0.4456891113440378  0.4252313347994985  0.8288140578206367
  0.5555274827783592  0.5389450910256599  0.5803182820980908
  0.1080514153235512  0.7662121389981849  0.3306063645757717
  0.2215282405032113  0.8725689089381561  0.0787276596994246
  0.7790796306286083  0.7623563166526068  0.8288140450354007
  0.8850797528393528  0.8798404987370958  0.5733519348085920
  0.4444441334072309  0.7611116884268938  0.3282925206649594
  0.5559028903200485  0.8725689085988151  0.0787276673128545
  0.1085640422356278  0.7623562917968059  0.8288140318192490
  0.2222787551759211  0.8721936388523659  0.5803183022048088
  0.7757364310990695  0.7662121401252335  0.3306063454714803
  0.8883673264553451  0.8732654059125338  0.0865125908624762
  0.4444441593940098  0.7611116467411492  0.8307121879926882
  0.5555276490575523  0.8721936247293627  0.5803182875319521
  0.7777781845455891  0.0944436902222421  0.3159622596932508
  0.2223213200009937  0.2053574574487556  0.3792039725291261
  0.1117107040555467  0.0938283801438686  0.1312908940552617
  0.8881482215789873  0.2048135954165744  0.8858163600585840
  0.7777772518105337  0.0944454916399238  0.6364461980424849
  0.5818025306932526  0.1924316307005896  0.3716327052534538
  0.4444609051343704  0.0938283880350923  0.1312908913202833
  0.2227979933211586  0.2044040887382579  0.8790519081614292
  0.1077276246771177  0.0963331274943897  0.6269859538694504
  0.8757659098552892  0.1924316588720671  0.3716326872101661
  0.7777774357410507  0.0944451288461110  0.1483637738778469
  0.5570382632542277  0.2048135835096332  0.8858163524549454
  0.4459392385709151  0.0963331014271134  0.6269859614017292
  0.2223212752999331  0.5389864798998758  0.3792038878333557
  0.1111106672566038  0.4277786342749437  0.1281668806386378
  0.8877389687258628  0.5394631132432508  0.8790519102946348
  0.7796648442814629  0.4243959276391394  0.6269860612042777
  0.5548683974277964  0.5402632565595766  0.3807707636575444
  0.4444610239122397  0.4283788284818826  0.1312907912577685
  0.2227979789793579  0.5394630973611640  0.8790519262769365
  0.1111106960934052  0.4277785963147167  0.6307046115433721
  0.8886923162238958  0.5389864934144484  0.3792039024569291
  0.7771601091104188  0.4283788526459702  0.1312907791643099
  0.5562124673090594  0.5375750998014084  0.8781892697481837
  0.4459392140576455  0.4243959133908888  0.6269860516017616
  0.2235976270674698  0.8715339010029766  0.3807707477935480
  0.1117108139688838  0.7611289746540990  0.1312907705861619
  0.8881482846906295  0.8737034886782737  0.8858162331292547
  0.7796649133527396  0.7626071948853763  0.6269859938204476
  0.5548685158680371  0.8715338942797217  0.3807707302991687
  0.4444438953076641  0.7611121593317591  0.1276799060703482
  0.2209096365104699  0.8728778841244562  0.8781892705406307
  0.1077278432316007  0.7626071896300104  0.6269859754334490
  0.8757658557798678  0.8984683303574670  0.3716325778336440
  0.7771601795361178  0.7611289795913621  0.1312907545140760
  0.5562125121820714  0.8728778832415856  0.8781892821856445
  0.4444438627526139  0.7611122272422648  0.6311084662680457
 
  0.00000000E+00  0.00000000E+00  0.00000000E+00
  0.00000000E+00  0.00000000E+00  0.00000000E+00
  0.00000000E+00  0.00000000E+00  0.00000000E+00
  0.00000000E+00  0.00000000E+00  0.00000000E+00
  0.00000000E+00  0.00000000E+00  0.00000000E+00
  0.00000000E+00  0.00000000E+00  0.00000000E+00
  0.00000000E+00  0.00000000E+00  0.00000000E+00
  0.00000000E+00  0.00000000E+00  0.00000000E+00
  0.00000000E+00  0.00000000E+00  0.00000000E+00
  0.00000000E+00  0.00000000E+00  0.00000000E+00
  0.00000000E+00  0.00000000E+00  0.00000000E+00
  0.00000000E+00  0.00000000E+00  0.00000000E+00
  0.00000000E+00  0.00000000E+00  0.00000000E+00
  0.00000000E+00  0.00000000E+00  0.00000000E+00
  0.00000000E+00  0.00000000E+00  0.00000000E+00
  0.00000000E+00  0.00000000E+00  0.00000000E+00
  0.00000000E+00  0.00000000E+00  0.00000000E+00
  0.00000000E+00  0.00000000E+00  0.00000000E+00
  0.00000000E+00  0.00000000E+00  0.00000000E+00
  0.00000000E+00  0.00000000E+00  0.00000000E+00
  0.00000000E+00  0.00000000E+00  0.00000000E+00
  0.00000000E+00  0.00000000E+00  0.00000000E+00
  0.00000000E+00  0.00000000E+00  0.00000000E+00
  0.00000000E+00  0.00000000E+00  0.00000000E+00
  0.00000000E+00  0.00000000E+00  0.00000000E+00
  0.00000000E+00  0.00000000E+00  0.00000000E+00
  0.00000000E+00  0.00000000E+00  0.00000000E+00
  0.00000000E+00  0.00000000E+00  0.00000000E+00
  0.00000000E+00  0.00000000E+00  0.00000000E+00
  0.00000000E+00  0.00000000E+00  0.00000000E+00
  0.00000000E+00  0.00000000E+00  0.00000000E+00
  0.00000000E+00  0.00000000E+00  0.00000000E+00
  0.00000000E+00  0.00000000E+00  0.00000000E+00
  0.00000000E+00  0.00000000E+00  0.00000000E+00
  0.00000000E+00  0.00000000E+00  0.00000000E+00
  0.00000000E+00  0.00000000E+00  0.00000000E+00
  0.00000000E+00  0.00000000E+00  0.00000000E+00
  0.00000000E+00  0.00000000E+00  0.00000000E+00
  0.00000000E+00  0.00000000E+00  0.00000000E+00
  0.00000000E+00  0.00000000E+00  0.00000000E+00
  0.00000000E+00  0.00000000E+00  0.00000000E+00
  0.00000000E+00  0.00000000E+00  0.00000000E+00
  0.00000000E+00  0.00000000E+00  0.00000000E+00
  0.00000000E+00  0.00000000E+00  0.00000000E+00
  0.00000000E+00  0.00000000E+00  0.00000000E+00
  0.00000000E+00  0.00000000E+00  0.00000000E+00
  0.00000000E+00  0.00000000E+00  0.00000000E+00
  0.00000000E+00  0.00000000E+00  0.00000000E+00
  0.00000000E+00  0.00000000E+00  0.00000000E+00
  0.00000000E+00  0.00000000E+00  0.00000000E+00
  0.00000000E+00  0.00000000E+00  0.00000000E+00
  0.00000000E+00  0.00000000E+00  0.00000000E+00
  0.00000000E+00  0.00000000E+00  0.00000000E+00
  0.00000000E+00  0.00000000E+00  0.00000000E+00
  0.00000000E+00  0.00000000E+00  0.00000000E+00
  0.00000000E+00  0.00000000E+00  0.00000000E+00
  0.00000000E+00  0.00000000E+00  0.00000000E+00
  0.00000000E+00  0.00000000E+00  0.00000000E+00
  0.00000000E+00  0.00000000E+00  0.00000000E+00
  0.00000000E+00  0.00000000E+00  0.00000000E+00
  0.00000000E+00  0.00000000E+00  0.00000000E+00
  0.00000000E+00  0.00000000E+00  0.00000000E+00
  0.00000000E+00  0.00000000E+00  0.00000000E+00
  0.00000000E+00  0.00000000E+00  0.00000000E+00
  0.00000000E+00  0.00000000E+00  0.00000000E+00
  0.00000000E+00  0.00000000E+00  0.00000000E+00
  0.00000000E+00  0.00000000E+00  0.00000000E+00
  0.00000000E+00  0.00000000E+00  0.00000000E+00
  0.00000000E+00  0.00000000E+00  0.00000000E+00
  0.00000000E+00  0.00000000E+00  0.00000000E+00
  0.00000000E+00  0.00000000E+00  0.00000000E+00
  0.00000000E+00  0.00000000E+00  0.00000000E+00
