Al   B    N                             
   1.00000000000000     
    -9.4665445105833790   -0.0000000603659023   -0.0000000454254028
    -4.7332696659148601    8.1982949941525547   -0.0000002186530872
     0.0000000837899163    0.0000022338061531   -9.6500838905020014
   Al   B    N 
    35     1    36
Direct
  0.1079368335720332  0.0925021502547096  0.3806643659354734
  0.2218946628985208  0.2062107360500747  0.1315652885451470
  0.7777778100050909  0.0944443727992095  0.8787606337574800
  0.8881743274791774  0.2048412976256273  0.6245751115207483
  0.4495610278275990  0.0925021495865792  0.3806643668673431
  0.5625717491397495  0.2020476363285297  0.1369259474232365
  0.1088073255025890  0.0955749190481114  0.8818273561686922
  0.2226719724454398  0.2046561067295656  0.6309128086802502
  0.8853806752672853  0.2020476555513966  0.1369259567539700
  0.4456177291455745  0.0955749219338315  0.8818273523010944
  0.5569844298925304  0.2048413023708306  0.6245751205930290
  0.1111112326460031  0.4277775163379616  0.3825653455675493
  0.2218947247314631  0.5385615246765454  0.1315652429234504
  0.7789084882588426  0.4254736750967893  0.8818273572313302
  0.8879891381037268  0.5393388758636135  0.6309127363391553
  0.4495610220268702  0.4246032529556913  0.3806644061927997
  0.5555650458508623  0.5388699781917055  0.1307877518304537
  0.1111112297964780  0.4277774976221664  0.8803946871794892
  0.2226720427572317  0.5393388789185565  0.6309127228606073
  0.7758357199267323  0.4246032742101278  0.3806644104430674
  0.8895438046675608  0.5385615291494830  0.1315652333798667
  0.4456178000492628  0.4254736792582747  0.8818273587556433
  0.5558173080717026  0.5383654482015956  0.6320867871923852
  0.1079368403470156  0.7662274331507959  0.3806643134919767
  0.2222030545646021  0.8722320639371972  0.1307877787708094
  0.7789084720499062  0.7622841105133134  0.8818272656493207
  0.8881743116539980  0.8736514410832825  0.6245750118005091
  0.4444445483697876  0.7611108734025649  0.3823927365671551
  0.5555649397152038  0.8722320551561467  0.1307877874229462
  0.1088073968527610  0.7622840985816737  0.8818272705701702
  0.2216985025624894  0.8724843439782219  0.6320867346949512
  0.7758357180124094  0.7662274322172919  0.3806643187968461
  0.8853805491740303  0.8792389418179383  0.1369258345374931
  0.4444445571704350  0.7611108519952481  0.8805323107154734
  0.5558172139497870  0.8724843423376143  0.6320867296762671
  0.7777776744408627  0.0944446663613334  0.3919217449261652
  0.2223674325661733  0.2052651957804557  0.3285609362408053
  0.1080256929798580  0.0961532262753408  0.0803480218167323
  0.8880995368406204  0.2047664503322935  0.8223666205888449
  0.7777779876459618  0.0944440082416520  0.5583160379355618
  0.5813930378850785  0.1926368906423690  0.3358606597604918
  0.4458210995735428  0.0961532154735210  0.0803480202487492
  0.2226992045892047  0.2046016289099128  0.8286334621480833
  0.1116737660991305  0.0938622468728667  0.5767987714312213
  0.8759701053262106  0.1926369055147461  0.3358606693635338
  0.7777780367178764  0.0944439303599367  0.0723264589695631
  0.5571340377754694  0.2047664482593063  0.8223666320094409
  0.4444639992847002  0.0938622567851581  0.5767987717590941
  0.2223673749105544  0.5390345680814335  0.3285608846249062
  0.1111111456210097  0.4277777273112946  0.0772786178119347
  0.8879345665993199  0.5393663955863985  0.8286334045797332
  0.7771960237909425  0.4283401303651360  0.5767987864321995
  0.5549684176919385  0.5400631905822948  0.3271463081538144
  0.4458209056164435  0.4246921048166001  0.0803480408789952
  0.2226990648537353  0.5393663787962666  0.8286333962476391
  0.1111111496411112  0.4277777153500608  0.5793255387897034
  0.8885980988766988  0.5390345799631362  0.3285608724129503
  0.7794869969698865  0.4246921112320194  0.0803480358325714
  0.5560851789207817  0.5378296489778265  0.8293145668666213
  0.4444638598590203  0.4283401211238598  0.5767987842527518
  0.2233960480541342  0.8716353781543447  0.3271462788331760
  0.1080255659319462  0.7624873760011681  0.0803479418564592
  0.8880995590720531  0.8738009021159527  0.8223665761729251
  0.7771960693034998  0.7611302903427699  0.5767987047206518
  0.5549686044545297  0.8716353840988802  0.3271462861457621
  0.4444445292756143  0.7611109473659212  0.0769856656843118
  0.2211625122816159  0.8727521445126669  0.8293145466821770
  0.1116736520860329  0.7611302893821019  0.5767987017950063
  0.8759701586965178  0.8980597060965607  0.3358605709919402
  0.7794870523217696  0.7624873837536441  0.0803479360303072
  0.5560853563243455  0.8727521545545684  0.8293145423518027
  0.4444445368251166  0.7611109382645367  0.5796757296882760
 
  0.00000000E+00  0.00000000E+00  0.00000000E+00
  0.00000000E+00  0.00000000E+00  0.00000000E+00
  0.00000000E+00  0.00000000E+00  0.00000000E+00
  0.00000000E+00  0.00000000E+00  0.00000000E+00
  0.00000000E+00  0.00000000E+00  0.00000000E+00
  0.00000000E+00  0.00000000E+00  0.00000000E+00
  0.00000000E+00  0.00000000E+00  0.00000000E+00
  0.00000000E+00  0.00000000E+00  0.00000000E+00
  0.00000000E+00  0.00000000E+00  0.00000000E+00
  0.00000000E+00  0.00000000E+00  0.00000000E+00
  0.00000000E+00  0.00000000E+00  0.00000000E+00
  0.00000000E+00  0.00000000E+00  0.00000000E+00
  0.00000000E+00  0.00000000E+00  0.00000000E+00
  0.00000000E+00  0.00000000E+00  0.00000000E+00
  0.00000000E+00  0.00000000E+00  0.00000000E+00
  0.00000000E+00  0.00000000E+00  0.00000000E+00
  0.00000000E+00  0.00000000E+00  0.00000000E+00
  0.00000000E+00  0.00000000E+00  0.00000000E+00
  0.00000000E+00  0.00000000E+00  0.00000000E+00
  0.00000000E+00  0.00000000E+00  0.00000000E+00
  0.00000000E+00  0.00000000E+00  0.00000000E+00
  0.00000000E+00  0.00000000E+00  0.00000000E+00
  0.00000000E+00  0.00000000E+00  0.00000000E+00
  0.00000000E+00  0.00000000E+00  0.00000000E+00
  0.00000000E+00  0.00000000E+00  0.00000000E+00
  0.00000000E+00  0.00000000E+00  0.00000000E+00
  0.00000000E+00  0.00000000E+00  0.00000000E+00
  0.00000000E+00  0.00000000E+00  0.00000000E+00
  0.00000000E+00  0.00000000E+00  0.00000000E+00
  0.00000000E+00  0.00000000E+00  0.00000000E+00
  0.00000000E+00  0.00000000E+00  0.00000000E+00
  0.00000000E+00  0.00000000E+00  0.00000000E+00
  0.00000000E+00  0.00000000E+00  0.00000000E+00
  0.00000000E+00  0.00000000E+00  0.00000000E+00
  0.00000000E+00  0.00000000E+00  0.00000000E+00
  0.00000000E+00  0.00000000E+00  0.00000000E+00
  0.00000000E+00  0.00000000E+00  0.00000000E+00
  0.00000000E+00  0.00000000E+00  0.00000000E+00
  0.00000000E+00  0.00000000E+00  0.00000000E+00
  0.00000000E+00  0.00000000E+00  0.00000000E+00
  0.00000000E+00  0.00000000E+00  0.00000000E+00
  0.00000000E+00  0.00000000E+00  0.00000000E+00
  0.00000000E+00  0.00000000E+00  0.00000000E+00
  0.00000000E+00  0.00000000E+00  0.00000000E+00
  0.00000000E+00  0.00000000E+00  0.00000000E+00
  0.00000000E+00  0.00000000E+00  0.00000000E+00
  0.00000000E+00  0.00000000E+00  0.00000000E+00
  0.00000000E+00  0.00000000E+00  0.00000000E+00
  0.00000000E+00  0.00000000E+00  0.00000000E+00
  0.00000000E+00  0.00000000E+00  0.00000000E+00
  0.00000000E+00  0.00000000E+00  0.00000000E+00
  0.00000000E+00  0.00000000E+00  0.00000000E+00
  0.00000000E+00  0.00000000E+00  0.00000000E+00
  0.00000000E+00  0.00000000E+00  0.00000000E+00
  0.00000000E+00  0.00000000E+00  0.00000000E+00
  0.00000000E+00  0.00000000E+00  0.00000000E+00
  0.00000000E+00  0.00000000E+00  0.00000000E+00
  0.00000000E+00  0.00000000E+00  0.00000000E+00
  0.00000000E+00  0.00000000E+00  0.00000000E+00
  0.00000000E+00  0.00000000E+00  0.00000000E+00
  0.00000000E+00  0.00000000E+00  0.00000000E+00
  0.00000000E+00  0.00000000E+00  0.00000000E+00
  0.00000000E+00  0.00000000E+00  0.00000000E+00
  0.00000000E+00  0.00000000E+00  0.00000000E+00
  0.00000000E+00  0.00000000E+00  0.00000000E+00
  0.00000000E+00  0.00000000E+00  0.00000000E+00
  0.00000000E+00  0.00000000E+00  0.00000000E+00
  0.00000000E+00  0.00000000E+00  0.00000000E+00
  0.00000000E+00  0.00000000E+00  0.00000000E+00
  0.00000000E+00  0.00000000E+00  0.00000000E+00
  0.00000000E+00  0.00000000E+00  0.00000000E+00
  0.00000000E+00  0.00000000E+00  0.00000000E+00
