Al   B    N                             
   1.00000000000000     
    -9.5471593937648969   -0.0000001132453855    0.0000001132782818
    -4.7735755641059026    8.2680076291075419    0.0000002495920628
    -0.0000007801695622   -0.0000042278919408   -9.4152987024818913
   Al   B    N 
    35     1    36
Direct
  0.1081056098883977  0.0923539599278627  0.3318267888576472
  0.2228193013781734  0.2043614567710321  0.0812886471439640
  0.7777778675301690  0.0944442831389765  0.8336872040985384
  0.8849142195292430  0.2015817159334148  0.5740079180647371
  0.4495404601112796  0.0923539664776172  0.3318267810084237
  0.5564017392454446  0.2051328367815870  0.0876201381047608
  0.1084374467115339  0.0958372897472515  0.8296913102505670
  0.2217891961539564  0.2064216828571688  0.5802959590864063
  0.8884654929071658  0.2051328409260122  0.0876201494877620
  0.4457252737820525  0.0958372950404467  0.8296913122630301
  0.5635041303905055  0.2015816847896446  0.5740079256912409
  0.1111114907532951  0.4277770290541483  0.3291701104852081
  0.2228194428249353  0.5394863060875537  0.0812887479259885
  0.7791710003145980  0.4251034712171347  0.8296913657983467
  0.8897545700917675  0.5384561307263169  0.5802959412741089
  0.4495405217833550  0.4247719458443200  0.3318265956189919
  0.5559433631480317  0.5381132970591409  0.0797087399512719
  0.1111114747201114  0.4277770450846248  0.8320399684212347
  0.2217893655006833  0.5384561207802676  0.5802959239376264
  0.7756875136297978  0.4247719929883758  0.3318265827623748
  0.8876943045636239  0.5394863095256355  0.0812887282431944
  0.4457255077050348  0.4251034612691953  0.8296913537498583
  0.5555109897173693  0.5389780644570266  0.5814415182525252
  0.1081057720175593  0.7662066436294310  0.3318266526870914
  0.2214459152928541  0.8726109781632232  0.0797087988338845
  0.7791709812806573  0.7623912865205398  0.8296913707107549
  0.8849140293629887  0.8801719467235429  0.5740082210815771
  0.4444446062229801  0.7611107365227099  0.3292148207471115
  0.5559431342917946  0.8726109823856234  0.0797088065280818
  0.1084377389506344  0.7623912554336982  0.8296913564288104
  0.2223106279698186  0.8721785618914026  0.5814414385960731
  0.7756875720971479  0.7662066456996115  0.3318266320535770
  0.8884655328966176  0.8730690008670692  0.0876199539106892
  0.4444446120585468  0.7611107380902808  0.8318997934452739
  0.5555108432961688  0.8721785494491670  0.5814414238731302
  0.7777778892480001  0.0944442774204290  0.3151993400610706
  0.2223002846885791  0.2053995244832478  0.3782367011112626
  0.1117215756090104  0.0938161404431384  0.1305132089922196
  0.8881768756902986  0.2048437009931021  0.8851026308095697
  0.7777780793093996  0.0944438394503209  0.6361330686363900
  0.5820475869367669  0.1923093021300488  0.3705346452927785
  0.4444622779161307  0.0938161418294001  0.1305132030614544
  0.2228481903014767  0.2043037006857631  0.8780334426110841
  0.1075626981988478  0.0964286160609120  0.6257693928939005
  0.8756431785959222  0.1923093359250103  0.3705346319216218
  0.7777781080359674  0.0944437856093359  0.1467483767125159
  0.5569795111558591  0.2048436811457890  0.8851026228208170
  0.4460086782186252  0.0964285831301268  0.6257694006135424
  0.2223002474272064  0.5389670867657088  0.3782366892713682
  0.1111110407919753  0.4277778780106871  0.1270634555082424
  0.8876368981589238  0.5395151807591674  0.8780334677536104
  0.7797619730753667  0.4242296496185460  0.6257694606569260
  0.5548202261002828  0.5403596026237167  0.3798851722487129
  0.4444620935277968  0.4283881850194433  0.1305131143038167
  0.2228479815010260  0.5395151595669532  0.8780334806644134
  0.1111110670686060  0.4277778475582181  0.6298345923033395
  0.8887327292490852  0.5389671019832960  0.3782367036288647
  0.7771496842176546  0.4283882144857856  0.1305131011241869
  0.5562775208488446  0.5374450057293458  0.8770764137446392
  0.4460083703321089  0.4242296309723343  0.6257694495809716
  0.2236921658901139  0.8714872466769137  0.3798851766050078
  0.1117214836515075  0.7611286016146082  0.1305131373250319
  0.8881770652759400  0.8736459205895812  0.8851024081743120
  0.7797622337157648  0.7626750589169831  0.6257694213455736
  0.5548206334033523  0.8714872363244766  0.3798851572081361
  0.4444444023525165  0.7611111544787335  0.1264989962644520
  0.2207777973236489  0.8729443465828339  0.8770763882974890
  0.1075626488946142  0.7626750588061881  0.6257694025418346
  0.8756432376424499  0.8987135603642002  0.3705345599734287
  0.7771498788361200  0.7611286043678334  0.1305131178272489
  0.5562778979129206  0.8729443401863577  0.8770763994578701
  0.4444443849171833  0.7611111903724677  0.6303079773776474
 
  0.00000000E+00  0.00000000E+00  0.00000000E+00
  0.00000000E+00  0.00000000E+00  0.00000000E+00
  0.00000000E+00  0.00000000E+00  0.00000000E+00
  0.00000000E+00  0.00000000E+00  0.00000000E+00
  0.00000000E+00  0.00000000E+00  0.00000000E+00
  0.00000000E+00  0.00000000E+00  0.00000000E+00
  0.00000000E+00  0.00000000E+00  0.00000000E+00
  0.00000000E+00  0.00000000E+00  0.00000000E+00
  0.00000000E+00  0.00000000E+00  0.00000000E+00
  0.00000000E+00  0.00000000E+00  0.00000000E+00
  0.00000000E+00  0.00000000E+00  0.00000000E+00
  0.00000000E+00  0.00000000E+00  0.00000000E+00
  0.00000000E+00  0.00000000E+00  0.00000000E+00
  0.00000000E+00  0.00000000E+00  0.00000000E+00
  0.00000000E+00  0.00000000E+00  0.00000000E+00
  0.00000000E+00  0.00000000E+00  0.00000000E+00
  0.00000000E+00  0.00000000E+00  0.00000000E+00
  0.00000000E+00  0.00000000E+00  0.00000000E+00
  0.00000000E+00  0.00000000E+00  0.00000000E+00
  0.00000000E+00  0.00000000E+00  0.00000000E+00
  0.00000000E+00  0.00000000E+00  0.00000000E+00
  0.00000000E+00  0.00000000E+00  0.00000000E+00
  0.00000000E+00  0.00000000E+00  0.00000000E+00
  0.00000000E+00  0.00000000E+00  0.00000000E+00
  0.00000000E+00  0.00000000E+00  0.00000000E+00
  0.00000000E+00  0.00000000E+00  0.00000000E+00
  0.00000000E+00  0.00000000E+00  0.00000000E+00
  0.00000000E+00  0.00000000E+00  0.00000000E+00
  0.00000000E+00  0.00000000E+00  0.00000000E+00
  0.00000000E+00  0.00000000E+00  0.00000000E+00
  0.00000000E+00  0.00000000E+00  0.00000000E+00
  0.00000000E+00  0.00000000E+00  0.00000000E+00
  0.00000000E+00  0.00000000E+00  0.00000000E+00
  0.00000000E+00  0.00000000E+00  0.00000000E+00
  0.00000000E+00  0.00000000E+00  0.00000000E+00
  0.00000000E+00  0.00000000E+00  0.00000000E+00
  0.00000000E+00  0.00000000E+00  0.00000000E+00
  0.00000000E+00  0.00000000E+00  0.00000000E+00
  0.00000000E+00  0.00000000E+00  0.00000000E+00
  0.00000000E+00  0.00000000E+00  0.00000000E+00
  0.00000000E+00  0.00000000E+00  0.00000000E+00
  0.00000000E+00  0.00000000E+00  0.00000000E+00
  0.00000000E+00  0.00000000E+00  0.00000000E+00
  0.00000000E+00  0.00000000E+00  0.00000000E+00
  0.00000000E+00  0.00000000E+00  0.00000000E+00
  0.00000000E+00  0.00000000E+00  0.00000000E+00
  0.00000000E+00  0.00000000E+00  0.00000000E+00
  0.00000000E+00  0.00000000E+00  0.00000000E+00
  0.00000000E+00  0.00000000E+00  0.00000000E+00
  0.00000000E+00  0.00000000E+00  0.00000000E+00
  0.00000000E+00  0.00000000E+00  0.00000000E+00
  0.00000000E+00  0.00000000E+00  0.00000000E+00
  0.00000000E+00  0.00000000E+00  0.00000000E+00
  0.00000000E+00  0.00000000E+00  0.00000000E+00
  0.00000000E+00  0.00000000E+00  0.00000000E+00
  0.00000000E+00  0.00000000E+00  0.00000000E+00
  0.00000000E+00  0.00000000E+00  0.00000000E+00
  0.00000000E+00  0.00000000E+00  0.00000000E+00
  0.00000000E+00  0.00000000E+00  0.00000000E+00
  0.00000000E+00  0.00000000E+00  0.00000000E+00
  0.00000000E+00  0.00000000E+00  0.00000000E+00
  0.00000000E+00  0.00000000E+00  0.00000000E+00
  0.00000000E+00  0.00000000E+00  0.00000000E+00
  0.00000000E+00  0.00000000E+00  0.00000000E+00
  0.00000000E+00  0.00000000E+00  0.00000000E+00
  0.00000000E+00  0.00000000E+00  0.00000000E+00
  0.00000000E+00  0.00000000E+00  0.00000000E+00
  0.00000000E+00  0.00000000E+00  0.00000000E+00
  0.00000000E+00  0.00000000E+00  0.00000000E+00
  0.00000000E+00  0.00000000E+00  0.00000000E+00
  0.00000000E+00  0.00000000E+00  0.00000000E+00
  0.00000000E+00  0.00000000E+00  0.00000000E+00
