Al   B    N                             
   1.00000000000000     
    -9.4959925721172809   -0.0000000622544552   -0.0000000397574140
    -4.7479957519289346    8.2237835287196202   -0.0000002019300461
     0.0000000065628200    0.0000007333706813   -9.5656224956520663
   Al   B    N 
    35     1    36
Direct
  0.1080084966971810  0.0924430981203983  0.3795687150430354
  0.2218520030896016  0.2062960881684432  0.1306907876926218
  0.7777781065158678  0.0944437502552731  0.8776741862371011
  0.8882871675871513  0.2049535095615767  0.6235772961240968
  0.4495484488210053  0.0924431085165907  0.3795687192585291
  0.5629143009567414  0.2018760624282976  0.1363980918374352
  0.1086656572178271  0.0956734588914259  0.8810883821935676
  0.2227285752446662  0.2045429204324520  0.6299352959038202
  0.8852096447306010  0.2018760669713231  0.1363980929046846
  0.4456609075373308  0.0956734690524996  0.8810883853865477
  0.5567593372495523  0.2049535204402275  0.6235773074286257
  0.1111108067895046  0.4277784246125975  0.3817558030868327
  0.2218515575353308  0.5385191973476822  0.1306908692127351
  0.7790071372981515  0.4253326292493611  0.8810882786185772
  0.8878761833591966  0.5393956437772331  0.6299354071397829
  0.4495480140726045  0.4246752788818355  0.3795686062999764
  0.5555429588521861  0.5389140807371504  0.1297796158349627
  0.1111107853619444  0.4277784483224707  0.8793103337768784
  0.2227282313987970  0.5393956300435860  0.6299353989230028
  0.7757766935857831  0.4246753220129662  0.3795686135585683
  0.8896292887604105  0.5385192232570830  0.1306908559588322
  0.4456602146817801  0.4253326080884463  0.8810882837420095
  0.5558657491363306  0.5382684986347286  0.6312538749926659
  0.1080080470027625  0.7662149531467719  0.3795686040169102
  0.2222471628094809  0.8722091607549061  0.1297794773062506
  0.7790072946243285  0.7623275662066220  0.8810883937013259
  0.8882873625247427  0.8734253110870398  0.6235772791454437
  0.4444443005152081  0.7611113975469692  0.3816303025422627
  0.5555436955771214  0.8722091816228712  0.1297794797230978
  0.1086651516337866  0.7623275227064710  0.8810883960250635
  0.2216016795590576  0.8725319499924851  0.6312538545299589
  0.7757769964106132  0.7662149687014690  0.3795686152503137
  0.8852100779295142  0.8795798473269443  0.1363982529569512
  0.4444442621039357  0.7611114794812011  0.8794486430458974
  0.5558663904444785  0.8725319752853054  0.6312538504451624
  0.7777778896615146  0.0944442183059593  0.3927331524164330
  0.2223402048406484  0.2053195991402958  0.3293912056581547
  0.1078520925236290  0.0962576550878609  0.0814236402369488
  0.8881241436069516  0.2047910479984978  0.8229659791853052
  0.7777773447307084  0.0944453743380222  0.5597573432864280
  0.5816192208616542  0.1925240246816102  0.3368624138351066
  0.4458902671948408  0.0962576275417675  0.0814236426305399
  0.2227559947135731  0.2044879776815378  0.8295150581222686
  0.1116985640139632  0.0938404541241056  0.5774531050235154
  0.8758568084405454  0.1925240447393008  0.3368624206252022
  0.7777771649414547  0.0944457775816119  0.0726167733587815
  0.5570848596917486  0.2047910337233674  0.8229659841994348
  0.4444609895203229  0.0938404509866473  0.5774531057515375
  0.2223404988687676  0.5390062502715907  0.3293912372098191
  0.1111114328858420  0.4277771137469273  0.0779847778762459
  0.8878216135846628  0.5394218233257675  0.8295150357804317
  0.7771732097815303  0.4283650739668019  0.5774530833216645
  0.5549103310562273  0.5401793932312131  0.3278913167864204
  0.4458910837995731  0.4245185236596640  0.0814236039535814
  0.2227565395146911  0.5394218325391620  0.8295150287547486
  0.1111113922717806  0.4277772002314251  0.5803153947607953
  0.8886532629068356  0.5390062489024672  0.3293912249968827
  0.7795904510705896  0.4245185106540248  0.0814235972395423
  0.5561594169739053  0.5376812016582235  0.8302992372387195
  0.4444617564988178  0.4283650840548532  0.5774530773200013
  0.2235134178028559  0.8715770988081672  0.3278913386577713
  0.1078525379705013  0.7625573639032552  0.0814236251946454
  0.8881238622432051  0.8737522983450461  0.8229658414659937
  0.7771729400042346  0.7611280025578111  0.5774530457460045
  0.5549095038211860  0.8715770649369858  0.3278913494436964
  0.4444444723413312  0.7611110622674460  0.0776305736854468
  0.2210151807938701  0.8728262088877230  0.8302991209489363
  0.1116990711405137  0.7611280348980074  0.5774530383442595
  0.8758568157171922  0.8982864008740421  0.3368622564574295
  0.7795901270673866  0.7625573343016896  0.0814236210199368
  0.5561586175483413  0.8728261806093229  0.8302991113358473
  0.4444444761587292  0.7611110593597417  0.5807437954594619
 
  0.00000000E+00  0.00000000E+00  0.00000000E+00
  0.00000000E+00  0.00000000E+00  0.00000000E+00
  0.00000000E+00  0.00000000E+00  0.00000000E+00
  0.00000000E+00  0.00000000E+00  0.00000000E+00
  0.00000000E+00  0.00000000E+00  0.00000000E+00
  0.00000000E+00  0.00000000E+00  0.00000000E+00
  0.00000000E+00  0.00000000E+00  0.00000000E+00
  0.00000000E+00  0.00000000E+00  0.00000000E+00
  0.00000000E+00  0.00000000E+00  0.00000000E+00
  0.00000000E+00  0.00000000E+00  0.00000000E+00
  0.00000000E+00  0.00000000E+00  0.00000000E+00
  0.00000000E+00  0.00000000E+00  0.00000000E+00
  0.00000000E+00  0.00000000E+00  0.00000000E+00
  0.00000000E+00  0.00000000E+00  0.00000000E+00
  0.00000000E+00  0.00000000E+00  0.00000000E+00
  0.00000000E+00  0.00000000E+00  0.00000000E+00
  0.00000000E+00  0.00000000E+00  0.00000000E+00
  0.00000000E+00  0.00000000E+00  0.00000000E+00
  0.00000000E+00  0.00000000E+00  0.00000000E+00
  0.00000000E+00  0.00000000E+00  0.00000000E+00
  0.00000000E+00  0.00000000E+00  0.00000000E+00
  0.00000000E+00  0.00000000E+00  0.00000000E+00
  0.00000000E+00  0.00000000E+00  0.00000000E+00
  0.00000000E+00  0.00000000E+00  0.00000000E+00
  0.00000000E+00  0.00000000E+00  0.00000000E+00
  0.00000000E+00  0.00000000E+00  0.00000000E+00
  0.00000000E+00  0.00000000E+00  0.00000000E+00
  0.00000000E+00  0.00000000E+00  0.00000000E+00
  0.00000000E+00  0.00000000E+00  0.00000000E+00
  0.00000000E+00  0.00000000E+00  0.00000000E+00
  0.00000000E+00  0.00000000E+00  0.00000000E+00
  0.00000000E+00  0.00000000E+00  0.00000000E+00
  0.00000000E+00  0.00000000E+00  0.00000000E+00
  0.00000000E+00  0.00000000E+00  0.00000000E+00
  0.00000000E+00  0.00000000E+00  0.00000000E+00
  0.00000000E+00  0.00000000E+00  0.00000000E+00
  0.00000000E+00  0.00000000E+00  0.00000000E+00
  0.00000000E+00  0.00000000E+00  0.00000000E+00
  0.00000000E+00  0.00000000E+00  0.00000000E+00
  0.00000000E+00  0.00000000E+00  0.00000000E+00
  0.00000000E+00  0.00000000E+00  0.00000000E+00
  0.00000000E+00  0.00000000E+00  0.00000000E+00
  0.00000000E+00  0.00000000E+00  0.00000000E+00
  0.00000000E+00  0.00000000E+00  0.00000000E+00
  0.00000000E+00  0.00000000E+00  0.00000000E+00
  0.00000000E+00  0.00000000E+00  0.00000000E+00
  0.00000000E+00  0.00000000E+00  0.00000000E+00
  0.00000000E+00  0.00000000E+00  0.00000000E+00
  0.00000000E+00  0.00000000E+00  0.00000000E+00
  0.00000000E+00  0.00000000E+00  0.00000000E+00
  0.00000000E+00  0.00000000E+00  0.00000000E+00
  0.00000000E+00  0.00000000E+00  0.00000000E+00
  0.00000000E+00  0.00000000E+00  0.00000000E+00
  0.00000000E+00  0.00000000E+00  0.00000000E+00
  0.00000000E+00  0.00000000E+00  0.00000000E+00
  0.00000000E+00  0.00000000E+00  0.00000000E+00
  0.00000000E+00  0.00000000E+00  0.00000000E+00
  0.00000000E+00  0.00000000E+00  0.00000000E+00
  0.00000000E+00  0.00000000E+00  0.00000000E+00
  0.00000000E+00  0.00000000E+00  0.00000000E+00
  0.00000000E+00  0.00000000E+00  0.00000000E+00
  0.00000000E+00  0.00000000E+00  0.00000000E+00
  0.00000000E+00  0.00000000E+00  0.00000000E+00
  0.00000000E+00  0.00000000E+00  0.00000000E+00
  0.00000000E+00  0.00000000E+00  0.00000000E+00
  0.00000000E+00  0.00000000E+00  0.00000000E+00
  0.00000000E+00  0.00000000E+00  0.00000000E+00
  0.00000000E+00  0.00000000E+00  0.00000000E+00
  0.00000000E+00  0.00000000E+00  0.00000000E+00
  0.00000000E+00  0.00000000E+00  0.00000000E+00
  0.00000000E+00  0.00000000E+00  0.00000000E+00
  0.00000000E+00  0.00000000E+00  0.00000000E+00
