Al   B    N                             
   1.00000000000000     
    -9.3432111338358546   -0.0000001547935510    0.0000002379740339
    -4.6716058067888815    8.0914586691176797    0.0000006174989664
     0.0000001421312613   -0.0000006536116197   -9.9834144980861499
   Al   B    N 
    35     1    36
Direct
  0.1076593890066704  0.0927368614554922  0.2981495187070493
  0.2223966390820706  0.2052065824172544  0.0483787815657593
  0.7777775986549855  0.0944444006268057  0.8001491562642897
  0.8860911552415516  0.2027570497169435  0.5441475329938044
  0.4496036344117087  0.0927364393994310  0.2981494003920204
  0.5580178899322803  0.2043244674691493  0.0548321518690145
  0.1093412383481009  0.0952003477727530  0.7984937809627795
  0.2221226889171106  0.2057542583857952  0.5481495724606162
  0.8876579180463153  0.2043242549727040  0.0548321830706371
  0.4454581026937845  0.0952004369892165  0.7984936941812748
  0.5611515069813748  0.2027573538458185  0.5441475298381206
  0.1111115080288272  0.4277775322855248  0.2975649576760802
  0.2223968013775774  0.5390636391558843  0.0483787381712375
  0.7785344062106319  0.4260073263217805  0.7984937205771629
  0.8890872436513959  0.5387896802694598  0.5481496434128346
  0.4496037085680342  0.4243268258086346  0.2981494821131605
  0.5555763514912115  0.5388478363459583  0.0477902198381770
  0.1111115250818102  0.4277775587778123  0.7982519319974131
  0.2221229650923462  0.5387899498487272  0.5481496380783923
  0.7760692246205920  0.4243271130039972  0.2981495090837782
  0.8885399350422816  0.5390633788364170  0.0483786510696618
  0.4454581153599761  0.4260075837500708  0.7984936535346776
  0.5556981710617919  0.5386041280261367  0.5484070580598512
  0.1076597192259641  0.7662700606484592  0.2981494139254153
  0.2221812946533035  0.8722425864766663  0.0477905768860154
  0.7785341718737229  0.7621249408301622  0.7984938420264811
  0.8860910354625062  0.8778182572735815  0.5441474263711967
  0.4444437239942616  0.7611118893539341  0.2979593770958147
  0.5555764407984256  0.8722423336491048  0.0477903744342925
  0.1093409087318804  0.7621251153076258  0.7984938681910023
  0.2219376623172309  0.8723643611362704  0.5484069318257880
  0.7760695608865262  0.7662698854272065  0.2981493323942459
  0.8876577134949883  0.8746850783251006  0.0548322584109897
  0.4444442606177148  0.7611113457590903  0.7981615872991412
  0.5556982370025878  0.8723641266659570  0.5484069639669187
  0.7777775157911577  0.0944446183683922  0.2944996693916622
  0.2225198396323336  0.2049602800963228  0.3568789580075489
  0.1116056231322133  0.0939593546629922  0.1079472861134079
  0.8880195861488360  0.2046858557754234  0.8623278308891429
  0.7777777162127961  0.0944443617231556  0.6113582118993577
  0.5805804570431476  0.1930431630807234  0.3502565339781611
  0.4444351363295951  0.0939592744250461  0.1079470639769013
  0.2224333393969573  0.2051331573727282  0.8568916555283081
  0.1087081478118179  0.0957292054706755  0.6060203783505642
  0.8763759790224483  0.1930433662738196  0.3502566379829375
  0.7777776554069860  0.0944446810498363  0.1291771594268951
  0.5572943436657880  0.2046860467012124  0.8623277478034481
  0.4455624987780169  0.0957292482165641  0.6060202436081141
  0.2225199403553546  0.5391864946822622  0.3568789843792928
  0.1111112427853129  0.4277778683071034  0.1068250214996382
  0.8884668394808060  0.5390999318001874  0.8568915064687914
  0.7790630430327212  0.4253743162865220  0.6060203043151091
  0.5552519286832123  0.5394959053444808  0.3579777946170282
  0.4444351050018795  0.4282723529315007  0.1079471373791847
  0.2224333282267779  0.5391002151900253  0.8568915967564337
  0.1111111283324604  0.4277779718160559  0.6074380610373851
  0.8882938209351394  0.5391863360963001  0.3568789600707092
  0.7772928828520591  0.4282722217559112  0.1079472185804562
  0.5557418072803628  0.5385165186024494  0.8566572843251876
  0.4455626510544164  0.4253746149848823  0.6060202299798121
  0.2228280255680843  0.8719193053680669  0.3579777001097071
  0.1116055187576990  0.7611017828619424  0.1079471901221751
  0.8880194329891467  0.8739612934688665  0.8623278949608348
  0.7790629507109941  0.7622292381968165  0.6060203712350827
  0.5552522456572007  0.8719191140277545  0.3579777214665967
  0.4444445130369061  0.7611111109315374  0.1068138644836907
  0.2218499096218025  0.8724083052603717  0.8566576677031961
  0.1087080082693603  0.7622294199850899  0.6060204356609304
  0.8763760851733124  0.8972472104879046  0.3502565206062656
  0.7772929931482935  0.7611016788495988  0.1079470680242167
  0.5557418409699793  0.8724082216276159  0.8566574905092423
  0.4444444984439784  0.7611110740467737  0.6075430760960288
 
  0.00000000E+00  0.00000000E+00  0.00000000E+00
  0.00000000E+00  0.00000000E+00  0.00000000E+00
  0.00000000E+00  0.00000000E+00  0.00000000E+00
  0.00000000E+00  0.00000000E+00  0.00000000E+00
  0.00000000E+00  0.00000000E+00  0.00000000E+00
  0.00000000E+00  0.00000000E+00  0.00000000E+00
  0.00000000E+00  0.00000000E+00  0.00000000E+00
  0.00000000E+00  0.00000000E+00  0.00000000E+00
  0.00000000E+00  0.00000000E+00  0.00000000E+00
  0.00000000E+00  0.00000000E+00  0.00000000E+00
  0.00000000E+00  0.00000000E+00  0.00000000E+00
  0.00000000E+00  0.00000000E+00  0.00000000E+00
  0.00000000E+00  0.00000000E+00  0.00000000E+00
  0.00000000E+00  0.00000000E+00  0.00000000E+00
  0.00000000E+00  0.00000000E+00  0.00000000E+00
  0.00000000E+00  0.00000000E+00  0.00000000E+00
  0.00000000E+00  0.00000000E+00  0.00000000E+00
  0.00000000E+00  0.00000000E+00  0.00000000E+00
  0.00000000E+00  0.00000000E+00  0.00000000E+00
  0.00000000E+00  0.00000000E+00  0.00000000E+00
  0.00000000E+00  0.00000000E+00  0.00000000E+00
  0.00000000E+00  0.00000000E+00  0.00000000E+00
  0.00000000E+00  0.00000000E+00  0.00000000E+00
  0.00000000E+00  0.00000000E+00  0.00000000E+00
  0.00000000E+00  0.00000000E+00  0.00000000E+00
  0.00000000E+00  0.00000000E+00  0.00000000E+00
  0.00000000E+00  0.00000000E+00  0.00000000E+00
  0.00000000E+00  0.00000000E+00  0.00000000E+00
  0.00000000E+00  0.00000000E+00  0.00000000E+00
  0.00000000E+00  0.00000000E+00  0.00000000E+00
  0.00000000E+00  0.00000000E+00  0.00000000E+00
  0.00000000E+00  0.00000000E+00  0.00000000E+00
  0.00000000E+00  0.00000000E+00  0.00000000E+00
  0.00000000E+00  0.00000000E+00  0.00000000E+00
  0.00000000E+00  0.00000000E+00  0.00000000E+00
  0.00000000E+00  0.00000000E+00  0.00000000E+00
  0.00000000E+00  0.00000000E+00  0.00000000E+00
  0.00000000E+00  0.00000000E+00  0.00000000E+00
  0.00000000E+00  0.00000000E+00  0.00000000E+00
  0.00000000E+00  0.00000000E+00  0.00000000E+00
  0.00000000E+00  0.00000000E+00  0.00000000E+00
  0.00000000E+00  0.00000000E+00  0.00000000E+00
  0.00000000E+00  0.00000000E+00  0.00000000E+00
  0.00000000E+00  0.00000000E+00  0.00000000E+00
  0.00000000E+00  0.00000000E+00  0.00000000E+00
  0.00000000E+00  0.00000000E+00  0.00000000E+00
  0.00000000E+00  0.00000000E+00  0.00000000E+00
  0.00000000E+00  0.00000000E+00  0.00000000E+00
  0.00000000E+00  0.00000000E+00  0.00000000E+00
  0.00000000E+00  0.00000000E+00  0.00000000E+00
  0.00000000E+00  0.00000000E+00  0.00000000E+00
  0.00000000E+00  0.00000000E+00  0.00000000E+00
  0.00000000E+00  0.00000000E+00  0.00000000E+00
  0.00000000E+00  0.00000000E+00  0.00000000E+00
  0.00000000E+00  0.00000000E+00  0.00000000E+00
  0.00000000E+00  0.00000000E+00  0.00000000E+00
  0.00000000E+00  0.00000000E+00  0.00000000E+00
  0.00000000E+00  0.00000000E+00  0.00000000E+00
  0.00000000E+00  0.00000000E+00  0.00000000E+00
  0.00000000E+00  0.00000000E+00  0.00000000E+00
  0.00000000E+00  0.00000000E+00  0.00000000E+00
  0.00000000E+00  0.00000000E+00  0.00000000E+00
  0.00000000E+00  0.00000000E+00  0.00000000E+00
  0.00000000E+00  0.00000000E+00  0.00000000E+00
  0.00000000E+00  0.00000000E+00  0.00000000E+00
  0.00000000E+00  0.00000000E+00  0.00000000E+00
  0.00000000E+00  0.00000000E+00  0.00000000E+00
  0.00000000E+00  0.00000000E+00  0.00000000E+00
  0.00000000E+00  0.00000000E+00  0.00000000E+00
  0.00000000E+00  0.00000000E+00  0.00000000E+00
  0.00000000E+00  0.00000000E+00  0.00000000E+00
  0.00000000E+00  0.00000000E+00  0.00000000E+00
