Al   B    N                             
   1.00000000000000     
    -9.8396341153164126   -0.0000000849170909    0.0000000282584508
    -4.9198158692873672    8.5213755200969548   -0.0000000012535533
    -0.0000001182240799   -0.0000002592922944   -8.5008862162571663
   Al   B    N 
    35     1    36
Direct
  0.1068125267455571  0.0927098578082095  0.3576834282077002
  0.2221648996624808  0.2056702654061908  0.1096497774844423
  0.7777777786436459  0.0944444426786859  0.8582489488412222
  0.8889076235617850  0.2055743267254471  0.6085430257937148
  0.4504775977540234  0.0927098614991451  0.3576834402533322
  0.5656905388958720  0.2004880744963202  0.1169643303564527
  0.1090772498716035  0.0958650803338799  0.8591026436249365
  0.2226143279586879  0.2047714045094935  0.6043989461417425
  0.8838214065772192  0.2004881126042690  0.1169643232135655
  0.4450576879375063  0.0958650530815675  0.8591026408062703
  0.5555180851575727  0.2055743159112353  0.6085430353309249
  0.1111111316937610  0.4277777795310413  0.3565167326117660
  0.2221649159224270  0.5388315988011314  0.1096497712550217
  0.7791984180016129  0.4257439103968537  0.8591026418127115
  0.8881047126425585  0.5392810192897102  0.6043989554759932
  0.4504776397253210  0.4234791589105456  0.3576834379920726
  0.5560074970280553  0.5379850577677558  0.1079782115090069
  0.1111111200152521  0.4277777700054557  0.8567134427144580
  0.2226143449286511  0.5392810337927045  0.6043989474114682
  0.7760431921282276  0.4234791954265660  0.3576834335847536
  0.8890035761340584  0.5388315870181160  0.1096497773424474
  0.4450576869250185  0.4257438899866699  0.8591026469887311
  0.5556392333083906  0.5387215892727824  0.6066845778825822
  0.1068124936514323  0.7671442974217015  0.3576834309004866
  0.2213183560012482  0.8726741968375862  0.1079782196631598
  0.7791983911261227  0.7617243411744354  0.8591026482829562
  0.8889076206831490  0.8721847736411164  0.6085430501634548
  0.4444444344653746  0.7611110972747781  0.3565276948181406
  0.5560074749057051  0.8726741734913901  0.1079782236102034
  0.1090772393266946  0.7617243358577355  0.8591026557479893
  0.2220548792633892  0.8723059402442459  0.6066845706107458
  0.7760432021657167  0.7671442551062881  0.3576834379244360
  0.8838213724954329  0.8823572379217026  0.1169643166460688
  0.4444444305153965  0.7611110961198833  0.8571657230597225
  0.5556392157248808  0.8723059207838588  0.6066845581348446
  0.7777777848831349  0.0944444533846536  0.4004881468734496
  0.2224950408225652  0.2050099844325146  0.3511418211595512
  0.1070792775609206  0.0966031363131137  0.1045285021179154
  0.8891040801206245  0.2057707733827456  0.8414309481781643
  0.7777777822614311  0.0944444426637574  0.5885930259988257
  0.5855237028467926  0.1905715093954328  0.3536185053162484
  0.4463176311661812  0.0966030789823691  0.1045284935983659
  0.2229108055333100  0.2041784276910974  0.8520498809593349
  0.1109403208271971  0.0944281629559924  0.5969705108326835
  0.8739048105634240  0.1905714960338827  0.3536185111813595
  0.7777777796569296  0.0944444593703793  0.0775981966378794
  0.5551251640416979  0.2057707561277127  0.8414309547616696
  0.4446315611373208  0.0944281389248545  0.5969705158423508
  0.2224950479727354  0.5391617153576291  0.3511418190964619
  0.1111111395249154  0.4277777907826348  0.1013257392955964
  0.8875117426359864  0.5395774891407612  0.8520498873938678
  0.7777614865203333  0.4276069905139224  0.5969705153013365
  0.5549337669041350  0.5401324750389804  0.3504370909497112
  0.4463176565875671  0.4237459306689075  0.1045284727969431
  0.2229107973036122  0.5395774800920918  0.8520498940919907
  0.1111111404392844  0.4277777956288986  0.6023396312689400
  0.8883433024585088  0.5391617161984925  0.3511418196835621
  0.7799364606021157  0.4237459454360391  0.1045284946598386
  0.5563442765090940  0.5373114756135564  0.8523439148220149
  0.4446315864889243  0.4276069736386674  0.5969705328754671
  0.2234657834627853  0.8716004625983516  0.3504370885253181
  0.1070792701181631  0.7629843102122251  0.1045284924626912
  0.8891040658553919  0.8717918530225930  0.8414309766846273
  0.7777614685659131  0.7612982234988195  0.5969705199484565
  0.5549337486299635  0.8716004466527068  0.3504370985757461
  0.4444444418904610  0.7611111083002626  0.1001399309236035
  0.2206447808505985  0.8730109720374486  0.8523439163950144
  0.1109403130636153  0.7612982392065675  0.5969705277985611
  0.8739048223848940  0.9021903901916630  0.3536185068522357
  0.7799364135095246  0.7629842905817128  0.1045285023292948
  0.5563442454303171  0.8730109395059245  0.8523439055617104
  0.4444444434784671  0.7611111188627930  0.6032878627115466
 
  0.00000000E+00  0.00000000E+00  0.00000000E+00
  0.00000000E+00  0.00000000E+00  0.00000000E+00
  0.00000000E+00  0.00000000E+00  0.00000000E+00
  0.00000000E+00  0.00000000E+00  0.00000000E+00
  0.00000000E+00  0.00000000E+00  0.00000000E+00
  0.00000000E+00  0.00000000E+00  0.00000000E+00
  0.00000000E+00  0.00000000E+00  0.00000000E+00
  0.00000000E+00  0.00000000E+00  0.00000000E+00
  0.00000000E+00  0.00000000E+00  0.00000000E+00
  0.00000000E+00  0.00000000E+00  0.00000000E+00
  0.00000000E+00  0.00000000E+00  0.00000000E+00
  0.00000000E+00  0.00000000E+00  0.00000000E+00
  0.00000000E+00  0.00000000E+00  0.00000000E+00
  0.00000000E+00  0.00000000E+00  0.00000000E+00
  0.00000000E+00  0.00000000E+00  0.00000000E+00
  0.00000000E+00  0.00000000E+00  0.00000000E+00
  0.00000000E+00  0.00000000E+00  0.00000000E+00
  0.00000000E+00  0.00000000E+00  0.00000000E+00
  0.00000000E+00  0.00000000E+00  0.00000000E+00
  0.00000000E+00  0.00000000E+00  0.00000000E+00
  0.00000000E+00  0.00000000E+00  0.00000000E+00
  0.00000000E+00  0.00000000E+00  0.00000000E+00
  0.00000000E+00  0.00000000E+00  0.00000000E+00
  0.00000000E+00  0.00000000E+00  0.00000000E+00
  0.00000000E+00  0.00000000E+00  0.00000000E+00
  0.00000000E+00  0.00000000E+00  0.00000000E+00
  0.00000000E+00  0.00000000E+00  0.00000000E+00
  0.00000000E+00  0.00000000E+00  0.00000000E+00
  0.00000000E+00  0.00000000E+00  0.00000000E+00
  0.00000000E+00  0.00000000E+00  0.00000000E+00
  0.00000000E+00  0.00000000E+00  0.00000000E+00
  0.00000000E+00  0.00000000E+00  0.00000000E+00
  0.00000000E+00  0.00000000E+00  0.00000000E+00
  0.00000000E+00  0.00000000E+00  0.00000000E+00
  0.00000000E+00  0.00000000E+00  0.00000000E+00
  0.00000000E+00  0.00000000E+00  0.00000000E+00
  0.00000000E+00  0.00000000E+00  0.00000000E+00
  0.00000000E+00  0.00000000E+00  0.00000000E+00
  0.00000000E+00  0.00000000E+00  0.00000000E+00
  0.00000000E+00  0.00000000E+00  0.00000000E+00
  0.00000000E+00  0.00000000E+00  0.00000000E+00
  0.00000000E+00  0.00000000E+00  0.00000000E+00
  0.00000000E+00  0.00000000E+00  0.00000000E+00
  0.00000000E+00  0.00000000E+00  0.00000000E+00
  0.00000000E+00  0.00000000E+00  0.00000000E+00
  0.00000000E+00  0.00000000E+00  0.00000000E+00
  0.00000000E+00  0.00000000E+00  0.00000000E+00
  0.00000000E+00  0.00000000E+00  0.00000000E+00
  0.00000000E+00  0.00000000E+00  0.00000000E+00
  0.00000000E+00  0.00000000E+00  0.00000000E+00
  0.00000000E+00  0.00000000E+00  0.00000000E+00
  0.00000000E+00  0.00000000E+00  0.00000000E+00
  0.00000000E+00  0.00000000E+00  0.00000000E+00
  0.00000000E+00  0.00000000E+00  0.00000000E+00
  0.00000000E+00  0.00000000E+00  0.00000000E+00
  0.00000000E+00  0.00000000E+00  0.00000000E+00
  0.00000000E+00  0.00000000E+00  0.00000000E+00
  0.00000000E+00  0.00000000E+00  0.00000000E+00
  0.00000000E+00  0.00000000E+00  0.00000000E+00
  0.00000000E+00  0.00000000E+00  0.00000000E+00
  0.00000000E+00  0.00000000E+00  0.00000000E+00
  0.00000000E+00  0.00000000E+00  0.00000000E+00
  0.00000000E+00  0.00000000E+00  0.00000000E+00
  0.00000000E+00  0.00000000E+00  0.00000000E+00
  0.00000000E+00  0.00000000E+00  0.00000000E+00
  0.00000000E+00  0.00000000E+00  0.00000000E+00
  0.00000000E+00  0.00000000E+00  0.00000000E+00
  0.00000000E+00  0.00000000E+00  0.00000000E+00
  0.00000000E+00  0.00000000E+00  0.00000000E+00
  0.00000000E+00  0.00000000E+00  0.00000000E+00
  0.00000000E+00  0.00000000E+00  0.00000000E+00
  0.00000000E+00  0.00000000E+00  0.00000000E+00
