supercell of icsd_608626.cif            
   1.12951035736429     
     9.5520485934001798   -0.2669086952140356   -0.0260797500053186
    -5.0101258413718233    8.2282606450096036   -0.0045296624442906
    -0.0306028837904402   -0.0181991652268907    9.4779283236113621
   Al   La   N 
    22    14    36
Direct
  0.2181054759389980  0.1427844772134250  0.2500716231029401
  0.0891760761038967  0.2437181715409977  0.4879068245374398
  0.8836827830133416  0.1138550752261906  0.7671698940166181
  0.7725794887296331  0.2085730409615820  0.0021347286726865
  0.5552622652390937  0.1054227061095077  0.2527067937348093
  0.1061264577207126  0.2352106158814422  0.9899301855715734
  0.7872162675524876  0.2195624358761989  0.5085034388674501
  0.5653636809030829  0.1077161772831445  0.7642796062501915
  0.2316257196944136  0.4471532041903714  0.2455043137922033
  0.1240914553971280  0.5424240289259714  0.4933492642811359
  0.2130887941647899  0.4139203558255460  0.7427026223107234
  0.1154593204407490  0.5289699894781563  0.9972656167959073
  0.5416601261828689  0.4163291246550571  0.7790363201599178
  0.2691711499953087  0.7198256971372672  0.2420467662592714
  0.8560061085232249  0.7958228240783995  0.7667587325823177
  0.7681377646235603  0.8955223537516588  0.9974602590536321
  0.5622946125947479  0.7805861664782014  0.2504578606055574
  0.2913214423692807  0.7322921075360611  0.7729081769483059
  0.0546243860966413  0.9567602543158600  0.0202534572605941
  0.8716206208933741  0.7887973186676547  0.2258428404649493
  0.6050269241019848  0.8870753452599232  0.7906895743120970
  0.4590011612031262  0.8788446259277194  0.0093253814303935
  0.4536355425389047  0.2253926669619020  0.4919175886136031
  0.1956098251870344  0.1108829515978016  0.7181014762965816
  0.8975044274087622  0.1142968127258044  0.2248352839511227
  0.4221689218172671  0.1727646792204354  0.9990245154088200
  0.9368193175652806  0.4204484303846456  0.7408599888178600
  0.8093732843143968  0.5715740450573819  0.9668833887798201
  0.5595106898138269  0.4589140731599528  0.2273863050730967
  0.4336856575739958  0.5507550755963635  0.5127838995637077
  0.9016886198803817  0.4495950824984121  0.2549000598331332
  0.8085466018130063  0.5868137409692693  0.5367523690225653
  0.4231993195111770  0.5526114369686184  0.9754588484543305
  0.1117927344473415  0.8894068271052831  0.4344186443280122
  0.4471544786070112  0.8908142419854812  0.4907057215036232
  0.8112849303236089  0.9165541301879614  0.5124024763725714
  0.1904083192484620  0.1512541565222776  0.4318820679711379
  0.1707657589584954  0.2696232528174392  0.1634766047463856
  0.8870142916028456  0.1153965960453718  0.9603349508279919
  0.7555531806902565  0.1710787843646813  0.6950548957037981
  0.6021619271929808  0.1365452603895037  0.4256009506752250
  0.4158856133906355  0.1738111882071820  0.2351180940064594
  0.1791509255395383  0.1200591903908261  0.9333805425883810
  0.0616814255282208  0.2333804356786544  0.6750358269114685
  0.8926303370863380  0.1494780536945512  0.4357517101924984
  0.7391397257127252  0.2067321442736016  0.1732628582330022
  0.5748686325573473  0.0768557382774091  0.9364317231655619
  0.4831131420600059  0.2179855718840216  0.7332194440242574
  0.1881733908681440  0.4309182759054764  0.4186483772394496
  0.1436540187259965  0.5412734770998071  0.1684761331160445
  0.9055519873980771  0.4159608435123374  0.9639546836119948
  0.7351986250391818  0.5845760328783030  0.7446242938345975
  0.5726541000428966  0.4573645209812298  0.4456048722158101
  0.4321708401599125  0.5823781139143023  0.2161892534105050
  0.1682796154361483  0.4125491360466071  0.9102391284160021
  0.2006833762152240  0.5735158861477387  0.6652013933690739
  0.9120174407012982  0.4324635195439726  0.5066019172118246
  0.8135578528399350  0.5948762212242187  0.1854034583764985
  0.5456588139787755  0.4203715102008871  0.9665340960284112
  0.3923345729882115  0.4390476380861514  0.7229857955993708
  0.2017119363489499  0.7183586590728339  0.3995979972889430
  0.0696989214093477  0.9510382735507079  0.1876769345427149
  0.8862953056725189  0.8263439802870138  0.9411618138990221
  0.7744700293781221  0.9114772446630326  0.7355576720558901
  0.5696217692772692  0.7931169495661408  0.4265057883841195
  0.4535553177171749  0.8834967330127412  0.1937670616056906
  0.2632872618296318  0.7245078092651553  0.9397119177279833
  0.0096312551374922  0.8647567195419725  0.6477712919739531
  0.8786537346864307  0.7830775047117413  0.3961836764828632
  0.7474081208637386  0.8575517836092601  0.1740191376604301
  0.5731168309053771  0.8093408796029991  0.9451788941634476
  0.4576251705278835  0.8974476242902298  0.7151198957096838
 
  0.00000000E+00  0.00000000E+00  0.00000000E+00
  0.00000000E+00  0.00000000E+00  0.00000000E+00
  0.00000000E+00  0.00000000E+00  0.00000000E+00
  0.00000000E+00  0.00000000E+00  0.00000000E+00
  0.00000000E+00  0.00000000E+00  0.00000000E+00
  0.00000000E+00  0.00000000E+00  0.00000000E+00
  0.00000000E+00  0.00000000E+00  0.00000000E+00
  0.00000000E+00  0.00000000E+00  0.00000000E+00
  0.00000000E+00  0.00000000E+00  0.00000000E+00
  0.00000000E+00  0.00000000E+00  0.00000000E+00
  0.00000000E+00  0.00000000E+00  0.00000000E+00
  0.00000000E+00  0.00000000E+00  0.00000000E+00
  0.00000000E+00  0.00000000E+00  0.00000000E+00
  0.00000000E+00  0.00000000E+00  0.00000000E+00
  0.00000000E+00  0.00000000E+00  0.00000000E+00
  0.00000000E+00  0.00000000E+00  0.00000000E+00
  0.00000000E+00  0.00000000E+00  0.00000000E+00
  0.00000000E+00  0.00000000E+00  0.00000000E+00
  0.00000000E+00  0.00000000E+00  0.00000000E+00
  0.00000000E+00  0.00000000E+00  0.00000000E+00
  0.00000000E+00  0.00000000E+00  0.00000000E+00
  0.00000000E+00  0.00000000E+00  0.00000000E+00
  0.00000000E+00  0.00000000E+00  0.00000000E+00
  0.00000000E+00  0.00000000E+00  0.00000000E+00
  0.00000000E+00  0.00000000E+00  0.00000000E+00
  0.00000000E+00  0.00000000E+00  0.00000000E+00
  0.00000000E+00  0.00000000E+00  0.00000000E+00
  0.00000000E+00  0.00000000E+00  0.00000000E+00
  0.00000000E+00  0.00000000E+00  0.00000000E+00
  0.00000000E+00  0.00000000E+00  0.00000000E+00
  0.00000000E+00  0.00000000E+00  0.00000000E+00
  0.00000000E+00  0.00000000E+00  0.00000000E+00
  0.00000000E+00  0.00000000E+00  0.00000000E+00
  0.00000000E+00  0.00000000E+00  0.00000000E+00
  0.00000000E+00  0.00000000E+00  0.00000000E+00
  0.00000000E+00  0.00000000E+00  0.00000000E+00
  0.00000000E+00  0.00000000E+00  0.00000000E+00
  0.00000000E+00  0.00000000E+00  0.00000000E+00
  0.00000000E+00  0.00000000E+00  0.00000000E+00
  0.00000000E+00  0.00000000E+00  0.00000000E+00
  0.00000000E+00  0.00000000E+00  0.00000000E+00
  0.00000000E+00  0.00000000E+00  0.00000000E+00
  0.00000000E+00  0.00000000E+00  0.00000000E+00
  0.00000000E+00  0.00000000E+00  0.00000000E+00
  0.00000000E+00  0.00000000E+00  0.00000000E+00
  0.00000000E+00  0.00000000E+00  0.00000000E+00
  0.00000000E+00  0.00000000E+00  0.00000000E+00
  0.00000000E+00  0.00000000E+00  0.00000000E+00
  0.00000000E+00  0.00000000E+00  0.00000000E+00
  0.00000000E+00  0.00000000E+00  0.00000000E+00
  0.00000000E+00  0.00000000E+00  0.00000000E+00
  0.00000000E+00  0.00000000E+00  0.00000000E+00
  0.00000000E+00  0.00000000E+00  0.00000000E+00
  0.00000000E+00  0.00000000E+00  0.00000000E+00
  0.00000000E+00  0.00000000E+00  0.00000000E+00
  0.00000000E+00  0.00000000E+00  0.00000000E+00
  0.00000000E+00  0.00000000E+00  0.00000000E+00
  0.00000000E+00  0.00000000E+00  0.00000000E+00
  0.00000000E+00  0.00000000E+00  0.00000000E+00
  0.00000000E+00  0.00000000E+00  0.00000000E+00
  0.00000000E+00  0.00000000E+00  0.00000000E+00
  0.00000000E+00  0.00000000E+00  0.00000000E+00
  0.00000000E+00  0.00000000E+00  0.00000000E+00
  0.00000000E+00  0.00000000E+00  0.00000000E+00
  0.00000000E+00  0.00000000E+00  0.00000000E+00
  0.00000000E+00  0.00000000E+00  0.00000000E+00
  0.00000000E+00  0.00000000E+00  0.00000000E+00
  0.00000000E+00  0.00000000E+00  0.00000000E+00
  0.00000000E+00  0.00000000E+00  0.00000000E+00
  0.00000000E+00  0.00000000E+00  0.00000000E+00
  0.00000000E+00  0.00000000E+00  0.00000000E+00
  0.00000000E+00  0.00000000E+00  0.00000000E+00
