POSCAR                                  
  0.995000000000000     
   -14.8338181582999997    7.4220648272599998    7.3883822818800002
     4.9327064297399996  -12.3764451028000000  -12.3311671573999995
     0.0027105575954300   -4.9742267856400000    4.9571528965200002
   Tb   Al   N 
    45     3    48
Direct
  0.7545249654876613  0.7561901305760657  0.7523894856724880
  0.6675771364852352  0.5019191449649156  0.7521538409306956
  0.7515253568346836  0.7527322263899165  0.2442150976907556
  0.6651180139468664  0.4982390548321050  0.2515833885654999
  0.7492152794494658  0.2473255542588149  0.5010220556053255
  0.6670931740316561  0.9983122193024485  0.5034748033556014
  0.5830506890296547  0.7483532995571807  0.4806530385911074
  0.5002991817298295  0.4994253823334347  0.5054535561114903
  0.5820147331325458  0.2489030898750642  0.7496871720440268
  0.4994815678657147  0.9979363093626503  0.7510672575212141
  0.4166606539756188  0.7469759186588405  0.7507335211456478
  0.3356891484603821  0.5010583763037957  0.7506783438572455
  0.7490762126298662  0.2471226977580443  0.0014956480586221
  0.6651341822776260  0.9943168635169357  0.0047488333867207
  0.5055109189494473  0.5081793148828240  0.0094759250391974
  0.5817013350607638  0.2483743021486902  0.2498478798812727
  0.4997147747472681  0.9981864733498398  0.2505079584666987
  0.4195914258735982  0.7497994000895716  0.2463706954530949
  0.3383278060183557  0.5046356521956952  0.2402170137329804
  0.4118684943880950  0.2467449607258274  0.4965327327894897
  0.3330327168535163  0.9975943663732423  0.4970353956376741
  0.2498543460394416  0.7470481046169084  0.4998353086135268
  0.1662472314971026  0.4963208982827680  0.4995422412775170
  0.1700066433110550  0.0031569776373814  0.7380885189103097
  0.0826924962850271  0.7489510957738830  0.7501672881048123
  0.9991513892039094  0.4973903857395641  0.7506962125696077
  0.4149599002413638  0.2506596526527929  0.9959876917562198
  0.3325454020956684  0.9987578619800175  0.9981096910752996
  0.2490394320029665  0.7470222263664468  0.9994532262660627
  0.1658914918600161  0.4965226010855801  0.0001264281585165
  0.2489202342040144  0.2476945465213944  0.2581092352615215
  0.1626894141206989  0.9937338831905365  0.2483461640439444
  0.0823559629199053  0.7466242107292302  0.2496843824040766
  0.9992479974380117  0.4970115021563473  0.2510419161299211
  0.0865756675173941  0.2471943204581564  0.5115247991381082
  0.0021153385568482  0.9999484359765844  0.4767143027260019
  0.9141692246051676  0.7452940720296226  0.4937247223144610
  0.8319246855804323  0.4971485303333054  0.5001031685409885
  0.9164451166793981  0.2468428974078378  0.7529054091139855
  0.8334114682911817  0.9967165835030656  0.7491216684384767
  0.0837813828486915  0.2441684656141163  0.0049918178425514
  0.9195657811776954  0.7559120381865014  0.0013449934302443
  0.8326662429969858  0.4990602276316380  0.9994351795179881
  0.9171846066284104  0.2467946562697563  0.2532881315890165
  0.8301574345081946  0.9944354018868964  0.2408953777768517
  0.5962035421674727  0.7581225644898097  0.9256242558431040
  0.2864097275533766  0.2897742488147301  0.7838093145622054
  0.0491198435633606  0.0407836531708483  0.9028050837879391
  0.6184037475304791  0.8636701767755923  0.7606640680036563
  0.5454540180586065  0.6365454987544368  0.7607540529933274
  0.6258259465056213  0.8827919220331779  0.2663584812272219
  0.5329140831928640  0.6122138444959191  0.2704260587855671
  0.6229524154112625  0.3751459515731668  0.5013146927359458
  0.5400106760145391  0.1243868903275214  0.5017376689509518
  0.4559703641761814  0.8728067362496930  0.5055716261208687
  0.3741694288277984  0.6222077252100959  0.4955756195668428
  0.4481185676756283  0.3725774205585921  0.7641907269602726
  0.3742818283329186  0.1276268363115349  0.7526276011688182
  0.2905631904222687  0.8754746426264575  0.7521536575698988
  0.2071337778710571  0.6241683969438583  0.7533249128730404
  0.6214343447824575  0.3748794602941601  0.0022412431655567
  0.5402728040575724  0.1243142881882022  0.0024209729439875
  0.4577761109293306  0.8732001352094656  0.0014185977270813
  0.3714818415575323  0.6205040133839290  0.0016946144453911
  0.4583262999917679  0.3766905434557017  0.2573772510221843
  0.3725091023956537  0.1245908447254962  0.2493225196036306
  0.2908701256537327  0.8755053043235037  0.2521803338216699
  0.2075887544452542  0.6252728840278294  0.2525941841045380
  0.2883104838239490  0.3607070877321803  0.5422711908644544
  0.2044181531499447  0.1155522697276083  0.4677214740760576
  0.1243636243727977  0.8760162482500178  0.4960105782949995
  0.0398181954340373  0.6244332990589996  0.5001215552714697
  0.1257002146927562  0.3757949481146809  0.7542625066660733
  0.0316528883116192  0.1149471306617542  0.7616812470606575
  0.9707843825512654  0.8997627352052362  0.7727101768023417
  0.8722165178888801  0.6253389334114061  0.7571974730737949
  0.2953857262813244  0.3749306871047366  0.9931861468972016
  0.2094916653737116  0.1442355490716238  0.9547230551471912
  0.1238316339877628  0.8761887340253125  0.9904001866245551
  0.0405200177557603  0.6251245411743938  0.0007408945454443
  0.1257621674981166  0.3736623891503896  0.2559731999475829
  0.0462118267100990  0.1337523746843630  0.2630698188545679
  0.9517742494406747  0.8649319497366221  0.2668127352055265
  0.8749353727843783  0.6272979637927705  0.2554753287105456
  0.9576222106958028  0.3742508368797459  0.5020145945636543
  0.8725708431826860  0.1225182333175567  0.5095729800291338
  0.7916228787099726  0.8751080528917825  0.4920895430544974
  0.7075006755018478  0.6261039304906575  0.5093670273375892
  0.7908276497721403  0.3759064545520019  0.7544119338386892
  0.7073305855377470  0.1252430096998083  0.7570711289459240
  0.9573048774868127  0.3737825209006260  0.0042052648537734
  0.8746986551703202  0.1234484853820135  0.0028762207736364
  0.7524694669770469  0.8520709088823182  0.9979763701407336
  0.7097386956038747  0.6291482401825661  0.9987486991738024
  0.7900412013785214  0.3752835326049464  0.2544663750891445
  0.7074979409720470  0.1244706578838972  0.2560732376363859
 
  0.00000000E+00  0.00000000E+00  0.00000000E+00
  0.00000000E+00  0.00000000E+00  0.00000000E+00
  0.00000000E+00  0.00000000E+00  0.00000000E+00
  0.00000000E+00  0.00000000E+00  0.00000000E+00
  0.00000000E+00  0.00000000E+00  0.00000000E+00
  0.00000000E+00  0.00000000E+00  0.00000000E+00
  0.00000000E+00  0.00000000E+00  0.00000000E+00
  0.00000000E+00  0.00000000E+00  0.00000000E+00
  0.00000000E+00  0.00000000E+00  0.00000000E+00
  0.00000000E+00  0.00000000E+00  0.00000000E+00
  0.00000000E+00  0.00000000E+00  0.00000000E+00
  0.00000000E+00  0.00000000E+00  0.00000000E+00
  0.00000000E+00  0.00000000E+00  0.00000000E+00
  0.00000000E+00  0.00000000E+00  0.00000000E+00
  0.00000000E+00  0.00000000E+00  0.00000000E+00
  0.00000000E+00  0.00000000E+00  0.00000000E+00
  0.00000000E+00  0.00000000E+00  0.00000000E+00
  0.00000000E+00  0.00000000E+00  0.00000000E+00
  0.00000000E+00  0.00000000E+00  0.00000000E+00
  0.00000000E+00  0.00000000E+00  0.00000000E+00
  0.00000000E+00  0.00000000E+00  0.00000000E+00
  0.00000000E+00  0.00000000E+00  0.00000000E+00
  0.00000000E+00  0.00000000E+00  0.00000000E+00
  0.00000000E+00  0.00000000E+00  0.00000000E+00
  0.00000000E+00  0.00000000E+00  0.00000000E+00
  0.00000000E+00  0.00000000E+00  0.00000000E+00
  0.00000000E+00  0.00000000E+00  0.00000000E+00
  0.00000000E+00  0.00000000E+00  0.00000000E+00
  0.00000000E+00  0.00000000E+00  0.00000000E+00
  0.00000000E+00  0.00000000E+00  0.00000000E+00
  0.00000000E+00  0.00000000E+00  0.00000000E+00
  0.00000000E+00  0.00000000E+00  0.00000000E+00
  0.00000000E+00  0.00000000E+00  0.00000000E+00
  0.00000000E+00  0.00000000E+00  0.00000000E+00
  0.00000000E+00  0.00000000E+00  0.00000000E+00
  0.00000000E+00  0.00000000E+00  0.00000000E+00
  0.00000000E+00  0.00000000E+00  0.00000000E+00
  0.00000000E+00  0.00000000E+00  0.00000000E+00
  0.00000000E+00  0.00000000E+00  0.00000000E+00
  0.00000000E+00  0.00000000E+00  0.00000000E+00
  0.00000000E+00  0.00000000E+00  0.00000000E+00
  0.00000000E+00  0.00000000E+00  0.00000000E+00
  0.00000000E+00  0.00000000E+00  0.00000000E+00
  0.00000000E+00  0.00000000E+00  0.00000000E+00
  0.00000000E+00  0.00000000E+00  0.00000000E+00
  0.00000000E+00  0.00000000E+00  0.00000000E+00
  0.00000000E+00  0.00000000E+00  0.00000000E+00
  0.00000000E+00  0.00000000E+00  0.00000000E+00
  0.00000000E+00  0.00000000E+00  0.00000000E+00
  0.00000000E+00  0.00000000E+00  0.00000000E+00
  0.00000000E+00  0.00000000E+00  0.00000000E+00
  0.00000000E+00  0.00000000E+00  0.00000000E+00
  0.00000000E+00  0.00000000E+00  0.00000000E+00
  0.00000000E+00  0.00000000E+00  0.00000000E+00
  0.00000000E+00  0.00000000E+00  0.00000000E+00
  0.00000000E+00  0.00000000E+00  0.00000000E+00
  0.00000000E+00  0.00000000E+00  0.00000000E+00
  0.00000000E+00  0.00000000E+00  0.00000000E+00
  0.00000000E+00  0.00000000E+00  0.00000000E+00
  0.00000000E+00  0.00000000E+00  0.00000000E+00
  0.00000000E+00  0.00000000E+00  0.00000000E+00
  0.00000000E+00  0.00000000E+00  0.00000000E+00
  0.00000000E+00  0.00000000E+00  0.00000000E+00
  0.00000000E+00  0.00000000E+00  0.00000000E+00
  0.00000000E+00  0.00000000E+00  0.00000000E+00
  0.00000000E+00  0.00000000E+00  0.00000000E+00
  0.00000000E+00  0.00000000E+00  0.00000000E+00
  0.00000000E+00  0.00000000E+00  0.00000000E+00
  0.00000000E+00  0.00000000E+00  0.00000000E+00
  0.00000000E+00  0.00000000E+00  0.00000000E+00
  0.00000000E+00  0.00000000E+00  0.00000000E+00
  0.00000000E+00  0.00000000E+00  0.00000000E+00
  0.00000000E+00  0.00000000E+00  0.00000000E+00
  0.00000000E+00  0.00000000E+00  0.00000000E+00
  0.00000000E+00  0.00000000E+00  0.00000000E+00
  0.00000000E+00  0.00000000E+00  0.00000000E+00
  0.00000000E+00  0.00000000E+00  0.00000000E+00
  0.00000000E+00  0.00000000E+00  0.00000000E+00
  0.00000000E+00  0.00000000E+00  0.00000000E+00
  0.00000000E+00  0.00000000E+00  0.00000000E+00
  0.00000000E+00  0.00000000E+00  0.00000000E+00
  0.00000000E+00  0.00000000E+00  0.00000000E+00
  0.00000000E+00  0.00000000E+00  0.00000000E+00
  0.00000000E+00  0.00000000E+00  0.00000000E+00
  0.00000000E+00  0.00000000E+00  0.00000000E+00
  0.00000000E+00  0.00000000E+00  0.00000000E+00
  0.00000000E+00  0.00000000E+00  0.00000000E+00
  0.00000000E+00  0.00000000E+00  0.00000000E+00
  0.00000000E+00  0.00000000E+00  0.00000000E+00
  0.00000000E+00  0.00000000E+00  0.00000000E+00
  0.00000000E+00  0.00000000E+00  0.00000000E+00
  0.00000000E+00  0.00000000E+00  0.00000000E+00
  0.00000000E+00  0.00000000E+00  0.00000000E+00
  0.00000000E+00  0.00000000E+00  0.00000000E+00
  0.00000000E+00  0.00000000E+00  0.00000000E+00
  0.00000000E+00  0.00000000E+00  0.00000000E+00
