supercell of icsd_608626.cif            
   1.00600000000000     
     9.4216862706200004    0.0021298857997500    0.0055828218425500
    -3.1393328701900001    5.4376415867999999   -0.0006477248495550
     0.0059525623905900    0.0022414031449000   10.0498800689000003
   Al   Gd   N 
    23     1    24
Direct
  0.2234012926991369  0.1675661275827593  0.2482522610841187
  0.1021917831675481  0.3233461925444487  0.9982320934260827
  0.8900653792490729  0.6691478807501099  0.7500934197189650
  0.7800660190862629  0.8342816428866726  0.4998420860211539
  0.5584129760287198  0.1716157420319462  0.2582959552218611
  0.4501647358265046  0.3377748005666703  0.9978996100534019
  0.2136136981665828  0.6598321493369923  0.7431653167309662
  0.1101009960423767  0.8356008278345044  0.4998093606571317
  0.8884999064927186  0.1662300305796123  0.2488750609342105
  0.7838366483057158  0.3440771557484723  0.9978878306444514
  0.5585836163455582  0.6633542229553129  0.7442772946649328
  0.4444975340477413  0.8334324335761849  0.4997582084711070
  0.2223148600513341  0.1664913881340198  0.7494707920602792
  0.1092768444395489  0.3284916670640570  0.4999986122058218
  0.8896891918320478  0.6673715648754097  0.2490953040379509
  0.7790176362543804  0.8291068736456921  0.9992719796214828
  0.5597794337285364  0.1759515084524708  0.7442929541070242
  0.4430710422462951  0.3321595661293060  0.5011916859230325
  0.2190662709333893  0.6636918192146126  0.2588575743933248
  0.1064667469619067  0.8322633931305532  0.9988228950399289
  0.8881558624732477  0.1648046697253562  0.7497728535874373
  0.7814269572260244  0.3368088219298144  0.5001812116016495
  0.5577049841170449  0.6652681516590775  0.2585368826132068
  0.4392829612888676  0.8307601317267697  0.9986304212779373
  0.2228388338044525  0.1671748846045276  0.4382417132091874
  0.1117450141251624  0.3346130746000995  0.1899374623126704
  0.8919144190230455  0.6741126185708168  0.9402152763350671
  0.7802205266171001  0.8347757566982139  0.6881049293530452
  0.5583420536129893  0.1716822686555588  0.4470259756549879
  0.4468470927232175  0.3348762056030665  0.1908457151681802
  0.1860002771702227  0.6378760229263563  0.9284898323831570
  0.1098873050635376  0.8368881517981066  0.6880062408246843
  0.8886811436183493  0.1660153544431608  0.4387506390728220
  0.7777557865958329  0.3336446600074296  0.1900908633637997
  0.5698230130094757  0.6519247346539743  0.9301125545783080
  0.4434258949687617  0.8330189067473128  0.6952355579870400
  0.2247356794616451  0.1686460693402694  0.9416098662857380
  0.1088137642030631  0.3265126223567947  0.6885474236825786
  0.8899287586754170  0.6678853274181193  0.4386038304470219
  0.7768636440850258  0.8323143897354015  0.1909424108264943
  0.5730470728882580  0.2068049579750166  0.9300156136807800
  0.4416781143747670  0.3311530395072779  0.6880808513270011
  0.2187178623024337  0.6635226079546683  0.4474291984242669
  0.1129417615128077  0.8331850626594672  0.1903536232140226
  0.8825560975422349  0.1581233551967927  0.9407489769667166
  0.7825387419172642  0.3374564340354667  0.6888693973310396
  0.5574069568252753  0.6649951339867286  0.4469361014141029
  0.4446028088691136  0.8333695984445271  0.2202942820598963
