supercell of icsd_191774.cif            
   1.00000000000000     
    10.7225291270617404    0.0020352816080275    0.0024621827997623
    -5.3595021492727701    9.2829252983866191   -0.0000088885941130
     0.0026813116110789    0.0015366185888156   11.3922118207104308
   N    In   La
    36    34     2
Direct
  0.2227450243169713  0.1118063308676938  0.4394823845389837
  0.1124431956730447  0.2228876015417214  0.1897607862395674
  0.8881277036229136  0.1107288581803658  0.9410910683554192
  0.7804749513761990  0.2229772027921939  0.6878357269865774
  0.5560088868113056  0.1128252491693686  0.4456192478577634
  0.4358816306909432  0.2031579467703892  0.1844441016385829
  0.2201032758978414  0.1095042900166163  0.9389742246335260
  0.1104008332678177  0.2218658395558535  0.6891912872297823
  0.8895504646268861  0.1114399402082924  0.4382077938685782
  0.7770035407473443  0.2224735309738222  0.1911632644281056
  0.5655877524545758  0.1272275639271285  0.9333645510753286
  0.4425500261168693  0.2222332592267335  0.6932938566241518
  0.2227439005398608  0.4442686272898015  0.4394825228249388
  0.1116486645117121  0.5567845185659195  0.1900967224193977
  0.8897411424487771  0.4433456865397076  0.9382306354109602
  0.7787231801730954  0.5560267825654037  0.6944634094820898
  0.5561220198762982  0.4447283068599361  0.4512433626910024
  0.4358784401519102  0.5660618964015995  0.1844444447207323
  0.2201013905620854  0.4439311712813137  0.9389753044388272
  0.1100733442564490  0.5535681002884019  0.6878610532707086
  0.8883225257109757  0.4449844893176405  0.4397779854340484
  0.7955138881939803  0.5644235679595369  0.1838500267644108
  0.5560207904211723  0.4446806178067604  0.9455061508953051
  0.4425494180265659  0.5536505365151712  0.6932963130817811
  0.2208249761592427  0.7770778095616393  0.4440328599871961
  0.1116496229284891  0.8881979896706298  0.1900956476457836
  0.8897385831195734  0.7797267695685193  0.9382299643660303
  0.7804736224334548  0.8908276259638228  0.6878350016014849
  0.5560077589145180  0.7765154222956099  0.4456202101830087
  0.4442878020303240  0.8888128153425541  0.2055148298852387
  0.2046888669439042  0.7690118731096405  0.9346051476965229
  0.1100734027821701  0.8898358400395381  0.6878618199349518
  0.8883238005832013  0.7766682084857024  0.4397786612942767
  0.7770022409250004  0.8878606423876647  0.1911652433745985
  0.5655840674719386  0.7716995675166558  0.9333671335838929
  0.4437567313910975  0.8885455768878288  0.6941784352779194
  0.2198409572122628  0.1071523359157425  0.2486670955188330
  0.1109593518846950  0.2221445410214429  0.4986250961163279
  0.8890539222508522  0.1111919985046939  0.7498417246027671
  0.7803078181284988  0.2259973411732901  0.9997560217746368
  0.5553385248104021  0.1091256383386963  0.2553489851923274
  0.4429062784938438  0.2221280216108568  0.5043065404192220
  0.2200873258237053  0.1101760070360172  0.7491549877874277
  0.1109861122090621  0.2221591593627323  0.9990950626558970
  0.8894150334543269  0.1113734805088598  0.2482003031869127
  0.7798788389079263  0.2231235174077568  0.4986277693119234
  0.5591183911327420  0.1154227257333602  0.7451468400253631
  0.4427769246161120  0.2202507866053693  0.9949513624696849
  0.2198386250488227  0.4460206191960125  0.2486675633220230
  0.1102761216048123  0.5539684196436454  0.4989245712315551
  0.8897004588917952  0.4434416146352191  0.7491862698130518
  0.7836403177973494  0.5584854810655457  0.9946286040403223
  0.4429040250951743  0.5541102674803184  0.5043095919273028
  0.2200858341624894  0.4432420289455479  0.7491567743643586
  0.1071671921941046  0.5531110724021886  0.9995187068953513
  0.8926496034028091  0.4461554910364285  0.2492877274220930
  0.7788684073909806  0.5560989763009871  0.5043599671130679
  0.5555827739708263  0.4444586144494735  0.7516860057266115
  0.4427745246406047  0.5558648280063991  0.9949522690396932
  0.2206883717504482  0.7770106060427864  0.2541887012715165
  0.1102777209311441  0.8896394205681304  0.4989255887732398
  0.8896995034348691  0.7795894443418590  0.7491851080401091
  0.7803049160745132  0.8876403506218153  0.9997583831992571
  0.5553363103616888  0.7795493707547863  0.2553507071764400
  0.4438992166959324  0.8886164010186732  0.5008083103340937
  0.2166023682874538  0.7749660001383702  0.7455277379023002
  0.1071648756175989  0.8873898078128022  0.9995177893241447
  0.8926516132165219  0.7798278444769622  0.2492886485121062
  0.7798785931854582  0.8900841763296938  0.4986267202794181
  0.5591180424763138  0.7770303118499911  0.7451485623807486
  0.5553942819859969  0.4443686219876355  0.2426310434101140
  0.4440993566993967  0.8887226222247548  0.9965016796983051
 
  0.00000000E+00  0.00000000E+00  0.00000000E+00
  0.00000000E+00  0.00000000E+00  0.00000000E+00
  0.00000000E+00  0.00000000E+00  0.00000000E+00
  0.00000000E+00  0.00000000E+00  0.00000000E+00
  0.00000000E+00  0.00000000E+00  0.00000000E+00
  0.00000000E+00  0.00000000E+00  0.00000000E+00
  0.00000000E+00  0.00000000E+00  0.00000000E+00
  0.00000000E+00  0.00000000E+00  0.00000000E+00
  0.00000000E+00  0.00000000E+00  0.00000000E+00
  0.00000000E+00  0.00000000E+00  0.00000000E+00
  0.00000000E+00  0.00000000E+00  0.00000000E+00
  0.00000000E+00  0.00000000E+00  0.00000000E+00
  0.00000000E+00  0.00000000E+00  0.00000000E+00
  0.00000000E+00  0.00000000E+00  0.00000000E+00
  0.00000000E+00  0.00000000E+00  0.00000000E+00
  0.00000000E+00  0.00000000E+00  0.00000000E+00
  0.00000000E+00  0.00000000E+00  0.00000000E+00
  0.00000000E+00  0.00000000E+00  0.00000000E+00
  0.00000000E+00  0.00000000E+00  0.00000000E+00
  0.00000000E+00  0.00000000E+00  0.00000000E+00
  0.00000000E+00  0.00000000E+00  0.00000000E+00
  0.00000000E+00  0.00000000E+00  0.00000000E+00
  0.00000000E+00  0.00000000E+00  0.00000000E+00
  0.00000000E+00  0.00000000E+00  0.00000000E+00
  0.00000000E+00  0.00000000E+00  0.00000000E+00
  0.00000000E+00  0.00000000E+00  0.00000000E+00
  0.00000000E+00  0.00000000E+00  0.00000000E+00
  0.00000000E+00  0.00000000E+00  0.00000000E+00
  0.00000000E+00  0.00000000E+00  0.00000000E+00
  0.00000000E+00  0.00000000E+00  0.00000000E+00
  0.00000000E+00  0.00000000E+00  0.00000000E+00
  0.00000000E+00  0.00000000E+00  0.00000000E+00
  0.00000000E+00  0.00000000E+00  0.00000000E+00
  0.00000000E+00  0.00000000E+00  0.00000000E+00
  0.00000000E+00  0.00000000E+00  0.00000000E+00
  0.00000000E+00  0.00000000E+00  0.00000000E+00
  0.00000000E+00  0.00000000E+00  0.00000000E+00
  0.00000000E+00  0.00000000E+00  0.00000000E+00
  0.00000000E+00  0.00000000E+00  0.00000000E+00
  0.00000000E+00  0.00000000E+00  0.00000000E+00
  0.00000000E+00  0.00000000E+00  0.00000000E+00
  0.00000000E+00  0.00000000E+00  0.00000000E+00
  0.00000000E+00  0.00000000E+00  0.00000000E+00
  0.00000000E+00  0.00000000E+00  0.00000000E+00
  0.00000000E+00  0.00000000E+00  0.00000000E+00
  0.00000000E+00  0.00000000E+00  0.00000000E+00
  0.00000000E+00  0.00000000E+00  0.00000000E+00
  0.00000000E+00  0.00000000E+00  0.00000000E+00
  0.00000000E+00  0.00000000E+00  0.00000000E+00
  0.00000000E+00  0.00000000E+00  0.00000000E+00
  0.00000000E+00  0.00000000E+00  0.00000000E+00
  0.00000000E+00  0.00000000E+00  0.00000000E+00
  0.00000000E+00  0.00000000E+00  0.00000000E+00
  0.00000000E+00  0.00000000E+00  0.00000000E+00
  0.00000000E+00  0.00000000E+00  0.00000000E+00
  0.00000000E+00  0.00000000E+00  0.00000000E+00
  0.00000000E+00  0.00000000E+00  0.00000000E+00
  0.00000000E+00  0.00000000E+00  0.00000000E+00
  0.00000000E+00  0.00000000E+00  0.00000000E+00
  0.00000000E+00  0.00000000E+00  0.00000000E+00
  0.00000000E+00  0.00000000E+00  0.00000000E+00
  0.00000000E+00  0.00000000E+00  0.00000000E+00
  0.00000000E+00  0.00000000E+00  0.00000000E+00
  0.00000000E+00  0.00000000E+00  0.00000000E+00
  0.00000000E+00  0.00000000E+00  0.00000000E+00
  0.00000000E+00  0.00000000E+00  0.00000000E+00
  0.00000000E+00  0.00000000E+00  0.00000000E+00
  0.00000000E+00  0.00000000E+00  0.00000000E+00
  0.00000000E+00  0.00000000E+00  0.00000000E+00
  0.00000000E+00  0.00000000E+00  0.00000000E+00
  0.00000000E+00  0.00000000E+00  0.00000000E+00
  0.00000000E+00  0.00000000E+00  0.00000000E+00
