generated by phonopy                    
   1.00000000000000     
    11.7777700938999992   -0.0000006592896312    0.0000118211769744
    -0.0000006477562692   11.7777479613999994   -0.0000130806483528
     0.0000177256125076   -0.0000204342245446   17.8544012557999991
   Bi   Cu   F    Se   O 
    36    36     1    35    36
Direct
  0.0002910085870127  0.1664181830416922  0.4309799418482996
  0.3330260740199904  0.1663507257255930  0.4309898213359276
  0.6666403910866450  0.1652394927848704  0.4301635908481458
  0.0072575176446676  0.4942009976333139  0.4288845543242203
  0.3262398734646936  0.4944361639522299  0.4290026290098368
  0.6666819928978995  0.5007997938720123  0.4300496667618816
  0.9988842651369083  0.8316743712482904  0.4302567781514526
  0.3343699987344166  0.8317116942056160  0.4302529836324496
  0.6666331497851559  0.8325890282776456  0.4303656520074099
  0.0001590696730958  0.1667981179020472  0.9285402763841546
  0.3331603352801906  0.1667935446653743  0.9285424343750250
  0.6666621879218866  0.1656414259181318  0.9273745252279966
  0.0002038414321959  0.4997288688707613  0.9285029622944450
  0.3331142936378839  0.4997269036360876  0.9285066600714700
  0.6666602601955915  0.5009106142785100  0.9273457740324531
  0.9990265681521819  0.8331919008092399  0.9273593284347967
  0.3342898648938757  0.8331876388399948  0.9273620243035268
  0.6666585120268564  0.8332478859027077  0.9275827857694239
  0.1666546097214336  0.9981227109463404  0.0683760892922933
  0.5006979129015505  0.9992213037413791  0.0698178036562069
  0.8326192529767269  0.9992265316227460  0.0698168429284109
  0.1666609162630408  0.3332188621511989  0.0705489667767480
  0.5016349800633222  0.3333551153120666  0.0685090081235984
  0.8316942634970133  0.3333609276669094  0.0685139002235147
  0.1666546449985447  0.6679875903866801  0.0686205306868715
  0.5006689049119473  0.6672610154488083  0.0698260303700522
  0.8326456112579592  0.6672658243295331  0.0698246613960976
  0.1666134038797438  0.9994237617902755  0.5716178373659631
  0.4997885490017353  0.9997033086165388  0.5719461564321691
  0.8334935391563647  0.9997205288110464  0.5719230992214435
  0.1666503013185476  0.3318018604108559  0.5732311843722826
  0.5001932101312718  0.3344319002116478  0.5711220130163284
  0.8330502092687766  0.3344674378804129  0.5711149679368859
  0.1665751329231995  0.6674669828016633  0.5718774653144578
  0.4982216869996634  0.6641970369831611  0.5704968635241627
  0.8350934975344799  0.6641343270296218  0.5704503457194079
  0.9948895092227374  0.9932520943549790  0.2511744391744912
  0.3383759885265150  0.9932251965024577  0.2511770137978928
  0.6666490941882088  0.9987839228746438  0.2502437537496576
  0.9638221015581507  0.3332022162268515  0.2376466659372980
  0.3695742960902848  0.3331781531661022  0.2375702317027830
  0.6666022694296458  0.3335208012828730  0.2501548449827453
  0.9956978255594606  0.6725631516870223  0.2511821242256147
  0.3375499485394897  0.6725679855660331  0.2511793723647031
  0.6666335932515750  0.6686350087111066  0.2504573882331798
  0.0004042996416729  0.0000630743390602  0.7501706995851336
  0.3328996997375526  0.0000401845269167  0.7501646015857517
  0.6666343312469820  0.9990702620084093  0.7492835645986773
  0.9997652113179782  0.3329393153045288  0.7502145735101493
  0.3335359562371139  0.3329420426759953  0.7502112780177299
  0.6666326038923174  0.3331941052335168  0.7497170766199233
  0.0000794313493557  0.6667042237917613  0.7498762373702448
  0.3332101500867992  0.6667063513606735  0.7498722511744589
  0.6666406813455410  0.6668601558296174  0.7493803960513645
  0.1666554833067977  0.1290141294879490  0.2368998970917886
  0.5065489066434310  0.1620650856024355  0.2512228800637430
  0.8267620685564481  0.1620888595779846  0.2512240581564456
  0.1666377427760040  0.5332185105070195  0.2398244496384478
  0.5062499664396540  0.5047627940206070  0.2512557373541284
  0.8270553781427452  0.5047535812190560  0.2512605772000569
  0.1666346947166346  0.8347950444624530  0.2498350060249734
  0.5015205176433497  0.8327695699708926  0.2503427485425789
  0.8317391065123871  0.8327906374786735  0.2503455685994282
  0.1666303221119350  0.1662345578635467  0.7500764653746259
  0.5003505834414312  0.1668811787347835  0.7498637846137939
  0.8329006014385527  0.1668841652023190  0.7498551166518794
  0.1666358898922908  0.4998401638648602  0.7502102980755012
  0.4998203532011019  0.4994830971992172  0.7499978427201413
  0.8334163844058153  0.4994988335534458  0.7499876345670842
  0.1666305378131057  0.8336819451269761  0.7497336088402449
  0.5009131748800968  0.8334379170837209  0.7495227117421877
  0.8323501919899385  0.8334346937598625  0.7495239797747288
  0.1659129979092313  0.3657547578798699  0.3768917825520361
  0.4999113795222172  0.3333190655790688  0.3392420044378568
  0.8333136420033611  0.3333262177170369  0.3392446632747195
  0.1666216092953121  0.6686343907710892  0.3392581761046785
  0.5006124278407071  0.6676426266206050  0.3385563964561058
  0.8326080121751431  0.6676667159038701  0.3385515702868034
  0.1666299462018372  0.0004051646710295  0.3392304292822743
  0.5007296984450420  0.9994158001292419  0.3386817586520934
  0.8325306383690005  0.9994290458412749  0.3386832876505750
  0.1666510962365351  0.3331650507079189  0.8373171775633352
  0.5001636908175868  0.3331605146814880  0.8374159924502820
  0.8331263829426163  0.3331693118765884  0.8374008683484675
  0.1666475985243352  0.6668052541345517  0.8371161067293542
  0.5001101486376172  0.6666809148503745  0.8369313163466288
  0.8331787112384959  0.6666836394086957  0.8369288959492280
  0.1666547334470394  0.9999157689942422  0.8376377584350934
  0.5000745092073871  0.0000674413949895  0.8370872135592222
  0.8332136701214594  0.0000693860263468  0.8370769338746982
  0.3343270599359656  0.1656930617968300  0.1648996882118823
  0.6666528358352508  0.1669142862483284  0.1617648504065770
  0.9989759903671285  0.1657314657968385  0.1649200726289521
  0.3335074610358788  0.5008415290983592  0.1653181921362616
  0.6666475179327591  0.5002270177875445  0.1619934280905042
  0.9997736159846013  0.5008328218564202  0.1653213475129007
  0.3333394579052680  0.8331706468940112  0.1618188145451427
  0.6666266635251787  0.8338805367995548  0.1620972434296704
  0.9999317776066334  0.8331716660882122  0.1618258155397356
  0.3334108192650618  0.1664553687746704  0.6631807133558993
  0.6666196365665229  0.1664740877097231  0.6626766959784334
  0.9998571828878084  0.1664570465912689  0.6631825555601836
  0.3333766838143930  0.4997881643984954  0.6633067194707749
  0.6666071010246881  0.4996926548746998  0.6628673016463082
  0.9998814288127633  0.4997929688570295  0.6633084846480628
  0.3336071641497824  0.8337674439784237  0.6630259000328209
  0.6666339442746931  0.8329062990864813  0.6622021000850182
  0.9996599801016828  0.8337805700522551  0.6630333403297044
  0.1666361073297722  0.1669631220269423  0.5008233614425137
  0.4982654850219745  0.1666810521428133  0.4997919417144345
  0.8349877794627716  0.1666961633632837  0.4997816530329828
  0.1666378449720369  0.5005930787205273  0.5036255030444607
  0.4982228936808539  0.4989003070450835  0.4993231629226784
  0.8349648810488333  0.4988749789767937  0.4993376781069117
  0.1666434377109667  0.8339119813977334  0.5004334970594044
  0.4993807620352300  0.8329508891293642  0.5009753568073236
  0.8338634468383574  0.8329536260028547  0.5009626844868933
  0.1666508234020725  0.1668338339469386  0.0001420263363769
  0.5001568139272692  0.1665025588995661  0.9993675887609683
  0.8331598691768889  0.1665033452724174  0.9993696563300603
  0.1666515281753647  0.4997023286718303  0.0000571529268925
  0.5001154516025039  0.5002205010595731  0.9993004975514950
  0.8331964709885114  0.5002213294974425  0.9993022705700838
  0.1666500609554689  0.8330301303609176  0.9985324464762542
  0.5002701633427193  0.8331844811260964  0.9992141549206508
  0.8330363025152110  0.8331896140729356  0.9992153248092208
  0.9997664083090569  0.9996909966333902  0.9992400926079910
  0.3335363394399167  0.9996878379273042  0.9992432541243517
  0.6666580909815352  0.9996571996273573  0.9991944050574730
  0.0002264311633198  0.3333942729800654  0.0001334138898343
  0.3330839067509572  0.3333928601197442  0.0001373132521465
  0.6666615017902373  0.3334089798179960  0.9985878210429391
  0.9997952844761500  0.6666689790880440  0.9993439534477275
  0.3335070655226744  0.6666694290234290  0.9993474416510821
  0.6666550322860232  0.6668970324177224  0.9992718747374312
  0.9999824063466392  0.0015144327295076  0.4999069921478565
  0.3332856192394047  0.0015050413786426  0.4999174438088900
  0.6666245192137268  0.0004824779850381  0.5010582574330442
  0.0009683327748320  0.3327097916814097  0.5013642648817012
  0.3322580463525000  0.3327112970901638  0.5013184988885939
  0.6666070042088421  0.3327769945987384  0.5002854948446824
  0.0011740373412863  0.6652140953958607  0.4997326043929817
  0.3321039152673180  0.6651682200203979  0.4997204647388145
  0.6666202287885241  0.6655798958721135  0.5006788519303811
 
  0.00000000E+00  0.00000000E+00  0.00000000E+00
  0.00000000E+00  0.00000000E+00  0.00000000E+00
  0.00000000E+00  0.00000000E+00  0.00000000E+00
  0.00000000E+00  0.00000000E+00  0.00000000E+00
  0.00000000E+00  0.00000000E+00  0.00000000E+00
  0.00000000E+00  0.00000000E+00  0.00000000E+00
  0.00000000E+00  0.00000000E+00  0.00000000E+00
  0.00000000E+00  0.00000000E+00  0.00000000E+00
  0.00000000E+00  0.00000000E+00  0.00000000E+00
  0.00000000E+00  0.00000000E+00  0.00000000E+00
  0.00000000E+00  0.00000000E+00  0.00000000E+00
  0.00000000E+00  0.00000000E+00  0.00000000E+00
  0.00000000E+00  0.00000000E+00  0.00000000E+00
  0.00000000E+00  0.00000000E+00  0.00000000E+00
  0.00000000E+00  0.00000000E+00  0.00000000E+00
  0.00000000E+00  0.00000000E+00  0.00000000E+00
  0.00000000E+00  0.00000000E+00  0.00000000E+00
  0.00000000E+00  0.00000000E+00  0.00000000E+00
  0.00000000E+00  0.00000000E+00  0.00000000E+00
  0.00000000E+00  0.00000000E+00  0.00000000E+00
  0.00000000E+00  0.00000000E+00  0.00000000E+00
  0.00000000E+00  0.00000000E+00  0.00000000E+00
  0.00000000E+00  0.00000000E+00  0.00000000E+00
  0.00000000E+00  0.00000000E+00  0.00000000E+00
  0.00000000E+00  0.00000000E+00  0.00000000E+00
  0.00000000E+00  0.00000000E+00  0.00000000E+00
  0.00000000E+00  0.00000000E+00  0.00000000E+00
  0.00000000E+00  0.00000000E+00  0.00000000E+00
  0.00000000E+00  0.00000000E+00  0.00000000E+00
  0.00000000E+00  0.00000000E+00  0.00000000E+00
  0.00000000E+00  0.00000000E+00  0.00000000E+00
  0.00000000E+00  0.00000000E+00  0.00000000E+00
  0.00000000E+00  0.00000000E+00  0.00000000E+00
  0.00000000E+00  0.00000000E+00  0.00000000E+00
  0.00000000E+00  0.00000000E+00  0.00000000E+00
  0.00000000E+00  0.00000000E+00  0.00000000E+00
  0.00000000E+00  0.00000000E+00  0.00000000E+00
  0.00000000E+00  0.00000000E+00  0.00000000E+00
  0.00000000E+00  0.00000000E+00  0.00000000E+00
  0.00000000E+00  0.00000000E+00  0.00000000E+00
  0.00000000E+00  0.00000000E+00  0.00000000E+00
  0.00000000E+00  0.00000000E+00  0.00000000E+00
  0.00000000E+00  0.00000000E+00  0.00000000E+00
  0.00000000E+00  0.00000000E+00  0.00000000E+00
  0.00000000E+00  0.00000000E+00  0.00000000E+00
  0.00000000E+00  0.00000000E+00  0.00000000E+00
  0.00000000E+00  0.00000000E+00  0.00000000E+00
  0.00000000E+00  0.00000000E+00  0.00000000E+00
  0.00000000E+00  0.00000000E+00  0.00000000E+00
  0.00000000E+00  0.00000000E+00  0.00000000E+00
  0.00000000E+00  0.00000000E+00  0.00000000E+00
  0.00000000E+00  0.00000000E+00  0.00000000E+00
  0.00000000E+00  0.00000000E+00  0.00000000E+00
  0.00000000E+00  0.00000000E+00  0.00000000E+00
  0.00000000E+00  0.00000000E+00  0.00000000E+00
  0.00000000E+00  0.00000000E+00  0.00000000E+00
  0.00000000E+00  0.00000000E+00  0.00000000E+00
  0.00000000E+00  0.00000000E+00  0.00000000E+00
  0.00000000E+00  0.00000000E+00  0.00000000E+00
  0.00000000E+00  0.00000000E+00  0.00000000E+00
  0.00000000E+00  0.00000000E+00  0.00000000E+00
  0.00000000E+00  0.00000000E+00  0.00000000E+00
  0.00000000E+00  0.00000000E+00  0.00000000E+00
  0.00000000E+00  0.00000000E+00  0.00000000E+00
  0.00000000E+00  0.00000000E+00  0.00000000E+00
  0.00000000E+00  0.00000000E+00  0.00000000E+00
  0.00000000E+00  0.00000000E+00  0.00000000E+00
  0.00000000E+00  0.00000000E+00  0.00000000E+00
  0.00000000E+00  0.00000000E+00  0.00000000E+00
  0.00000000E+00  0.00000000E+00  0.00000000E+00
  0.00000000E+00  0.00000000E+00  0.00000000E+00
  0.00000000E+00  0.00000000E+00  0.00000000E+00
  0.00000000E+00  0.00000000E+00  0.00000000E+00
  0.00000000E+00  0.00000000E+00  0.00000000E+00
  0.00000000E+00  0.00000000E+00  0.00000000E+00
  0.00000000E+00  0.00000000E+00  0.00000000E+00
  0.00000000E+00  0.00000000E+00  0.00000000E+00
  0.00000000E+00  0.00000000E+00  0.00000000E+00
  0.00000000E+00  0.00000000E+00  0.00000000E+00
  0.00000000E+00  0.00000000E+00  0.00000000E+00
  0.00000000E+00  0.00000000E+00  0.00000000E+00
  0.00000000E+00  0.00000000E+00  0.00000000E+00
  0.00000000E+00  0.00000000E+00  0.00000000E+00
  0.00000000E+00  0.00000000E+00  0.00000000E+00
  0.00000000E+00  0.00000000E+00  0.00000000E+00
  0.00000000E+00  0.00000000E+00  0.00000000E+00
  0.00000000E+00  0.00000000E+00  0.00000000E+00
  0.00000000E+00  0.00000000E+00  0.00000000E+00
  0.00000000E+00  0.00000000E+00  0.00000000E+00
  0.00000000E+00  0.00000000E+00  0.00000000E+00
  0.00000000E+00  0.00000000E+00  0.00000000E+00
  0.00000000E+00  0.00000000E+00  0.00000000E+00
  0.00000000E+00  0.00000000E+00  0.00000000E+00
  0.00000000E+00  0.00000000E+00  0.00000000E+00
  0.00000000E+00  0.00000000E+00  0.00000000E+00
  0.00000000E+00  0.00000000E+00  0.00000000E+00
  0.00000000E+00  0.00000000E+00  0.00000000E+00
  0.00000000E+00  0.00000000E+00  0.00000000E+00
  0.00000000E+00  0.00000000E+00  0.00000000E+00
  0.00000000E+00  0.00000000E+00  0.00000000E+00
  0.00000000E+00  0.00000000E+00  0.00000000E+00
  0.00000000E+00  0.00000000E+00  0.00000000E+00
  0.00000000E+00  0.00000000E+00  0.00000000E+00
  0.00000000E+00  0.00000000E+00  0.00000000E+00
  0.00000000E+00  0.00000000E+00  0.00000000E+00
  0.00000000E+00  0.00000000E+00  0.00000000E+00
  0.00000000E+00  0.00000000E+00  0.00000000E+00
  0.00000000E+00  0.00000000E+00  0.00000000E+00
  0.00000000E+00  0.00000000E+00  0.00000000E+00
  0.00000000E+00  0.00000000E+00  0.00000000E+00
  0.00000000E+00  0.00000000E+00  0.00000000E+00
  0.00000000E+00  0.00000000E+00  0.00000000E+00
  0.00000000E+00  0.00000000E+00  0.00000000E+00
  0.00000000E+00  0.00000000E+00  0.00000000E+00
  0.00000000E+00  0.00000000E+00  0.00000000E+00
  0.00000000E+00  0.00000000E+00  0.00000000E+00
  0.00000000E+00  0.00000000E+00  0.00000000E+00
  0.00000000E+00  0.00000000E+00  0.00000000E+00
  0.00000000E+00  0.00000000E+00  0.00000000E+00
  0.00000000E+00  0.00000000E+00  0.00000000E+00
  0.00000000E+00  0.00000000E+00  0.00000000E+00
  0.00000000E+00  0.00000000E+00  0.00000000E+00
  0.00000000E+00  0.00000000E+00  0.00000000E+00
  0.00000000E+00  0.00000000E+00  0.00000000E+00
  0.00000000E+00  0.00000000E+00  0.00000000E+00
  0.00000000E+00  0.00000000E+00  0.00000000E+00
  0.00000000E+00  0.00000000E+00  0.00000000E+00
  0.00000000E+00  0.00000000E+00  0.00000000E+00
  0.00000000E+00  0.00000000E+00  0.00000000E+00
  0.00000000E+00  0.00000000E+00  0.00000000E+00
  0.00000000E+00  0.00000000E+00  0.00000000E+00
  0.00000000E+00  0.00000000E+00  0.00000000E+00
  0.00000000E+00  0.00000000E+00  0.00000000E+00
  0.00000000E+00  0.00000000E+00  0.00000000E+00
  0.00000000E+00  0.00000000E+00  0.00000000E+00
  0.00000000E+00  0.00000000E+00  0.00000000E+00
  0.00000000E+00  0.00000000E+00  0.00000000E+00
  0.00000000E+00  0.00000000E+00  0.00000000E+00
  0.00000000E+00  0.00000000E+00  0.00000000E+00
  0.00000000E+00  0.00000000E+00  0.00000000E+00
  0.00000000E+00  0.00000000E+00  0.00000000E+00
  0.00000000E+00  0.00000000E+00  0.00000000E+00
  0.00000000E+00  0.00000000E+00  0.00000000E+00
  0.00000000E+00  0.00000000E+00  0.00000000E+00
