generated by phonopy                    
   1.00000000000000     
    10.0351470768999995   -0.0000022330999784   -0.0000001056124209
    -5.0175765436399997    8.6906901959899994    0.0000001395531216
    -0.0000001735893656    0.0000001431815548   14.9533752540999991
   Pb   P    O    Cu
    20    12    50     1
Direct
  0.9964334031257138  0.7617323008474060  0.1242049495296627
  0.9992615580404021  0.7719883972600243  0.6264643120512829
  0.0014174491044230  0.2449544766357761  0.3753408767513164
  0.9940792855295513  0.2365358551761432  0.8753589225647289
  0.2322888921892883  0.2328790966700538  0.1238073954145094
  0.2277371713843905  0.2274095927250812  0.6259221503544978
  0.7543183443121464  0.7575048996281026  0.3752137505719375
  0.7548222426682329  0.7531733270758139  0.8744306027646616
  0.7596760784320011  0.0001851215257034  0.1246825881142613
  0.7723893717077104  0.9989989649341595  0.6263103474296798
  0.2418605744836668  0.9971927207847386  0.3755323685246381
  0.2372711257031739  0.9998724460678901  0.8750872667336864
  0.6645403481935759  0.3342094301654654  0.9988460021417396
  0.6659463157038346  0.3344490199040990  0.5001416421541407
  0.3307033394924730  0.6668512191452507  0.9990230475568112
  0.3314733291362089  0.6651796282525169  0.5024886071943158
  0.3319386403056370  0.6654994268647698  0.2465682248154835
  0.3334679293280516  0.6665668210709725  0.7472729609659226
  0.6652339570237871  0.3338491443422384  0.2507910662118675
  0.6647219985967823  0.3286148211742344  0.7491114852316230
  0.6258761861480622  0.5943706513727207  0.1253965966715640
  0.6298532639127643  0.5972750465600640  0.6229585758212295
  0.3667102173070163  0.4021044177472035  0.3739019109944195
  0.3624716416576419  0.3954416463225243  0.8763515974189460
  0.3999486922159861  0.0304649486889019  0.1253846901367694
  0.4022276095058572  0.0326274841070955  0.6223958820176350
  0.5988550151484873  0.9663652587715248  0.3736964863200498
  0.5959734122389264  0.9634177993593696  0.8759164544410396
  0.9660257159051042  0.3705798801624027  0.1253950146104614
  0.9656597132654028  0.3678537474139105  0.6231667041014433
  0.0326155619264483  0.6321361479277314  0.3737260853776121
  0.0324508975977906  0.6328606544990834  0.8754549198633086
  0.5115849494421525  0.6560283740015294  0.1233933978148087
  0.5086717846304225  0.6500987908479061  0.6218535603990105
  0.4722534324159753  0.3298929742396695  0.3740101006390830
  0.4794385508071741  0.3367421660635799  0.8784742740508307
  0.3431596908556003  0.8550122985693704  0.1235516303578024
  0.3459496812751439  0.8576862768596385  0.6221048765778576
  0.6694354352385048  0.1439066110334792  0.3746210524552893
  0.6618651777031843  0.1402345910794267  0.8793117602189611
  0.1416246709271221  0.4875192086716069  0.1240285897150386
  0.1403230302684122  0.4874323449430094  0.6233787298227611
  0.8550856127468194  0.5249833084723790  0.3742614890553924
  0.8557586235429753  0.5209635309761040  0.8782416505686399
  0.7288154616848459  0.6407445198634960  0.0391630997053056
  0.7327873859415917  0.6493486901335572  0.5366786987434295
  0.2580213447943436  0.3509738682085981  0.4576500781867949
  0.2623421022382715  0.3530263627506471  0.9634692895383523
  0.3493945176058872  0.0836258058355099  0.0394976798609505
  0.3476598550573300  0.0828333798182541  0.5368752379825992
  0.6503300860611034  0.9085056084438534  0.4572272243940247
  0.6342402584696600  0.9009577841469678  0.9627981492386795
  0.9119954972400564  0.2670540068533001  0.0394879331654536
  0.9174372407111022  0.2630165612802102  0.5377212819462827
  0.0898872953074061  0.7408602642833131  0.4574785062049855
  0.0937697773386361  0.7327126738416325  0.9627701078505098
  0.2596421746110309  0.3536023315042272  0.2895476308126774
  0.2478615532591704  0.3222916173162602  0.7959718423395259
  0.7378440686643302  0.6604674640028776  0.2075544024667479
  0.7421444752768380  0.6679944698547402  0.7045331671050405
  0.6504064881762162  0.9103236312039940  0.2893535869400168
  0.6647134572356066  0.9184424905097259  0.7946921516755836
  0.3322308168793739  0.0735585170712199  0.2077641429933124
  0.3383655843957598  0.0790212576407754  0.7053233499835301
  0.0891326590636083  0.7394399119539230  0.2894265108433061
  0.0765232225316765  0.7484233776010072  0.7952189121130786
  0.9207645041975496  0.2591414833072534  0.2077516971522471
  0.9186779094738498  0.2569975311846875  0.7059999138902811
  0.5372103139092488  0.4138449765589201  0.1311856425931808
  0.5482338774710271  0.4170625114408395  0.6290590651620818
  0.4666551223878983  0.5834552131714688  0.3744366971580533
  0.4495754218455090  0.5758599140197020  0.8672536227117149
  0.5805383043567218  0.1256979393982576  0.1306392661434543
  0.5830031261241402  0.1289566241414519  0.6258152674393358
  0.4175580142448112  0.8830325262885665  0.3733096901569439
  0.4153306393983982  0.8753608062149354  0.8668259858351774
  0.8721792294140158  0.4575892377990698  0.1304936450676593
  0.8683637438499687  0.4512767982640256  0.6261393322148052
  0.1157533613789141  0.5338401309053467  0.3738086047074631
  0.1214948108324663  0.5417768998028478  0.8653387293228363
  0.9946389488112146  0.9971821846825080  0.1000157228879388
  0.0006664953749294  0.0001225485941205  0.6256246073631573
  0.9935983620875959  0.9961272701955224  0.9696358112735055
 
  0.00000000E+00  0.00000000E+00  0.00000000E+00
  0.00000000E+00  0.00000000E+00  0.00000000E+00
  0.00000000E+00  0.00000000E+00  0.00000000E+00
  0.00000000E+00  0.00000000E+00  0.00000000E+00
  0.00000000E+00  0.00000000E+00  0.00000000E+00
  0.00000000E+00  0.00000000E+00  0.00000000E+00
  0.00000000E+00  0.00000000E+00  0.00000000E+00
  0.00000000E+00  0.00000000E+00  0.00000000E+00
  0.00000000E+00  0.00000000E+00  0.00000000E+00
  0.00000000E+00  0.00000000E+00  0.00000000E+00
  0.00000000E+00  0.00000000E+00  0.00000000E+00
  0.00000000E+00  0.00000000E+00  0.00000000E+00
  0.00000000E+00  0.00000000E+00  0.00000000E+00
  0.00000000E+00  0.00000000E+00  0.00000000E+00
  0.00000000E+00  0.00000000E+00  0.00000000E+00
  0.00000000E+00  0.00000000E+00  0.00000000E+00
  0.00000000E+00  0.00000000E+00  0.00000000E+00
  0.00000000E+00  0.00000000E+00  0.00000000E+00
  0.00000000E+00  0.00000000E+00  0.00000000E+00
  0.00000000E+00  0.00000000E+00  0.00000000E+00
  0.00000000E+00  0.00000000E+00  0.00000000E+00
  0.00000000E+00  0.00000000E+00  0.00000000E+00
  0.00000000E+00  0.00000000E+00  0.00000000E+00
  0.00000000E+00  0.00000000E+00  0.00000000E+00
  0.00000000E+00  0.00000000E+00  0.00000000E+00
  0.00000000E+00  0.00000000E+00  0.00000000E+00
  0.00000000E+00  0.00000000E+00  0.00000000E+00
  0.00000000E+00  0.00000000E+00  0.00000000E+00
  0.00000000E+00  0.00000000E+00  0.00000000E+00
  0.00000000E+00  0.00000000E+00  0.00000000E+00
  0.00000000E+00  0.00000000E+00  0.00000000E+00
  0.00000000E+00  0.00000000E+00  0.00000000E+00
  0.00000000E+00  0.00000000E+00  0.00000000E+00
  0.00000000E+00  0.00000000E+00  0.00000000E+00
  0.00000000E+00  0.00000000E+00  0.00000000E+00
  0.00000000E+00  0.00000000E+00  0.00000000E+00
  0.00000000E+00  0.00000000E+00  0.00000000E+00
  0.00000000E+00  0.00000000E+00  0.00000000E+00
  0.00000000E+00  0.00000000E+00  0.00000000E+00
  0.00000000E+00  0.00000000E+00  0.00000000E+00
  0.00000000E+00  0.00000000E+00  0.00000000E+00
  0.00000000E+00  0.00000000E+00  0.00000000E+00
  0.00000000E+00  0.00000000E+00  0.00000000E+00
  0.00000000E+00  0.00000000E+00  0.00000000E+00
  0.00000000E+00  0.00000000E+00  0.00000000E+00
  0.00000000E+00  0.00000000E+00  0.00000000E+00
  0.00000000E+00  0.00000000E+00  0.00000000E+00
  0.00000000E+00  0.00000000E+00  0.00000000E+00
  0.00000000E+00  0.00000000E+00  0.00000000E+00
  0.00000000E+00  0.00000000E+00  0.00000000E+00
  0.00000000E+00  0.00000000E+00  0.00000000E+00
  0.00000000E+00  0.00000000E+00  0.00000000E+00
  0.00000000E+00  0.00000000E+00  0.00000000E+00
  0.00000000E+00  0.00000000E+00  0.00000000E+00
  0.00000000E+00  0.00000000E+00  0.00000000E+00
  0.00000000E+00  0.00000000E+00  0.00000000E+00
  0.00000000E+00  0.00000000E+00  0.00000000E+00
  0.00000000E+00  0.00000000E+00  0.00000000E+00
  0.00000000E+00  0.00000000E+00  0.00000000E+00
  0.00000000E+00  0.00000000E+00  0.00000000E+00
  0.00000000E+00  0.00000000E+00  0.00000000E+00
  0.00000000E+00  0.00000000E+00  0.00000000E+00
  0.00000000E+00  0.00000000E+00  0.00000000E+00
  0.00000000E+00  0.00000000E+00  0.00000000E+00
  0.00000000E+00  0.00000000E+00  0.00000000E+00
  0.00000000E+00  0.00000000E+00  0.00000000E+00
  0.00000000E+00  0.00000000E+00  0.00000000E+00
  0.00000000E+00  0.00000000E+00  0.00000000E+00
  0.00000000E+00  0.00000000E+00  0.00000000E+00
  0.00000000E+00  0.00000000E+00  0.00000000E+00
  0.00000000E+00  0.00000000E+00  0.00000000E+00
  0.00000000E+00  0.00000000E+00  0.00000000E+00
  0.00000000E+00  0.00000000E+00  0.00000000E+00
  0.00000000E+00  0.00000000E+00  0.00000000E+00
  0.00000000E+00  0.00000000E+00  0.00000000E+00
  0.00000000E+00  0.00000000E+00  0.00000000E+00
  0.00000000E+00  0.00000000E+00  0.00000000E+00
  0.00000000E+00  0.00000000E+00  0.00000000E+00
  0.00000000E+00  0.00000000E+00  0.00000000E+00
  0.00000000E+00  0.00000000E+00  0.00000000E+00
  0.00000000E+00  0.00000000E+00  0.00000000E+00
  0.00000000E+00  0.00000000E+00  0.00000000E+00
  0.00000000E+00  0.00000000E+00  0.00000000E+00
