supercell of icsd_191774.cif            
   1.00000000000000     
    10.7385617949631591    0.0047603315476961    0.0045572487135297
    -5.3651586950208046    9.2926237861123742    0.0001666798884936
     0.0049734241998405    0.0030938074626907   11.3483573529522026
   N    In   Y 
    36    32     4
Direct
  0.2217797482003192  0.1116507795686985  0.4476983003280992
  0.1107656267457742  0.2209825041894575  0.1908471734178079
  0.8891807616409224  0.1117005562468592  0.9408905370710841
  0.7788166333927862  0.2230262527053455  0.6884843966067891
  0.5565031535093539  0.1105736303984486  0.4433387866294538
  0.4433585823844410  0.2207476379326323  0.1970117321192788
  0.2158486202036656  0.1074827635682993  0.9388835838823297
  0.1052514572989125  0.2277033454757387  0.6885046904755896
  0.8877253541246972  0.1106305651552688  0.4383979844421333
  0.7771996558694951  0.2222371582284879  0.1911558866868859
  0.5633999441163908  0.1153018664621825  0.9380116720409148
  0.4512549879470029  0.2265629109765612  0.6919360613327115
  0.2141583720752394  0.4413614337922098  0.4366083895287929
  0.1103179172563458  0.5561082493256464  0.1892342867637922
  0.8885414557225886  0.4436947014738024  0.9397613301133916
  0.7782995950729443  0.5555693090761054  0.6900966156280077
  0.5610534240606029  0.4423132182445144  0.4399242139904018
  0.4453104668302288  0.5562387840061191  0.1943518622624367
  0.2235025890099180  0.4450283178521843  0.9435669863685732
  0.1100445212394945  0.5537903953990551  0.6899692692364923
  0.8888900398972766  0.4444767692664371  0.4398082598610742
  0.7790268049381410  0.5558571312981329  0.1892386046473007
  0.5618911389390888  0.4526396320851518  0.9404493384859975
  0.4427257754654121  0.5541281265278997  0.6922902793427355
  0.2227291875117174  0.7764220942584927  0.4412107087572537
  0.1114225683232348  0.8891634762763303  0.1929894681928843
  0.8902962775617027  0.7786045613045474  0.9402424766378346
  0.7794164498395730  0.8897545332954024  0.6902150302426620
  0.5603139232122416  0.7862056282786298  0.4407836090866795
  0.4440227614582923  0.8893577816327181  0.1929928079161343
  0.2135055227784193  0.7737941984271330  0.9388201861863976
  0.1047459452715316  0.8784492661798922  0.6863970607410650
  0.8870576409404691  0.7768889768804073  0.4389411948635029
  0.7785221664981137  0.8893429392596914  0.1890230569151115
  0.5619147762846879  0.7753678638794526  0.9390330169954098
  0.4433168199749034  0.8878293859934772  0.6942260140035543
  0.2214684143207535  0.1109794826297872  0.2541439276298334
  0.1060929597877376  0.2236197478597930  0.4978734560106091
  0.8867328785102728  0.1122022247989207  0.7497833625294561
  0.7800008157774627  0.2234424627940896  0.9996544176465392
  0.5557759570256806  0.1103896911856879  0.2530495720782540
  0.4488266522950539  0.2232784705199933  0.4990819922542613
  0.1094750183576068  0.2205156081544999  0.9998198830788922
  0.8883906551240344  0.1107872484574131  0.2481533811476382
  0.7789429482572459  0.2227529910610926  0.4984003050529751
  0.5601758542907831  0.1136667691082849  0.7475141790916737
  0.2191495422521896  0.4433644448208085  0.2463286323185585
  0.1084082083708751  0.5536639634418350  0.4990807233417556
  0.8883910967237441  0.4438104219665533  0.7489215712274913
  0.7811085402871427  0.5584122369429636  0.9984987182064984
  0.5584717740593064  0.4440747355009549  0.2499334502539270
  0.2210714277402062  0.4457641650660875  0.7518388689596733
  0.1081327642092731  0.5541999451090263  0.9986867004286566
  0.8890023790930712  0.4445894585458845  0.2491586510759660
  0.7800199581914740  0.5552562196555257  0.4993864575988525
  0.5589603994872760  0.4482019571511913  0.7499596798014281
  0.4475951173578423  0.5571939198316045  0.0004364592602570
  0.2222673904447277  0.7770966588583264  0.2506841133869600
  0.1081371840487790  0.8841644617047777  0.4968175626097349
  0.8874099168227048  0.7753042922456217  0.7492272570502010
  0.7805010786588298  0.8889400390886379  0.9981108272732229
  0.5580200868729790  0.7816723129143952  0.2500990717768730
  0.4447472542750148  0.8901661324861081  0.5011087810893216
  0.2171862432429990  0.7733411530311258  0.7477583827943448
  0.1082135688411157  0.8880665044753187  0.0008749014506080
  0.8880807614829394  0.7774256696778750  0.2486150206417932
  0.7800305136310826  0.8916214662305961  0.4991390621230778
  0.5575006263033870  0.7763153227340922  0.7489308567934003
  0.2176324199771429  0.1088769656930779  0.7399091369632984
  0.4445858837082497  0.2243888329435606  0.9985435428326852
  0.4435315231831538  0.5552769314018136  0.4942269618595461
  0.4438515213919487  0.8861903469912917  0.9947152605611933
 
  0.00000000E+00  0.00000000E+00  0.00000000E+00
  0.00000000E+00  0.00000000E+00  0.00000000E+00
  0.00000000E+00  0.00000000E+00  0.00000000E+00
  0.00000000E+00  0.00000000E+00  0.00000000E+00
  0.00000000E+00  0.00000000E+00  0.00000000E+00
  0.00000000E+00  0.00000000E+00  0.00000000E+00
  0.00000000E+00  0.00000000E+00  0.00000000E+00
  0.00000000E+00  0.00000000E+00  0.00000000E+00
  0.00000000E+00  0.00000000E+00  0.00000000E+00
  0.00000000E+00  0.00000000E+00  0.00000000E+00
  0.00000000E+00  0.00000000E+00  0.00000000E+00
  0.00000000E+00  0.00000000E+00  0.00000000E+00
  0.00000000E+00  0.00000000E+00  0.00000000E+00
  0.00000000E+00  0.00000000E+00  0.00000000E+00
  0.00000000E+00  0.00000000E+00  0.00000000E+00
  0.00000000E+00  0.00000000E+00  0.00000000E+00
  0.00000000E+00  0.00000000E+00  0.00000000E+00
  0.00000000E+00  0.00000000E+00  0.00000000E+00
  0.00000000E+00  0.00000000E+00  0.00000000E+00
  0.00000000E+00  0.00000000E+00  0.00000000E+00
  0.00000000E+00  0.00000000E+00  0.00000000E+00
  0.00000000E+00  0.00000000E+00  0.00000000E+00
  0.00000000E+00  0.00000000E+00  0.00000000E+00
  0.00000000E+00  0.00000000E+00  0.00000000E+00
  0.00000000E+00  0.00000000E+00  0.00000000E+00
  0.00000000E+00  0.00000000E+00  0.00000000E+00
  0.00000000E+00  0.00000000E+00  0.00000000E+00
  0.00000000E+00  0.00000000E+00  0.00000000E+00
  0.00000000E+00  0.00000000E+00  0.00000000E+00
  0.00000000E+00  0.00000000E+00  0.00000000E+00
  0.00000000E+00  0.00000000E+00  0.00000000E+00
  0.00000000E+00  0.00000000E+00  0.00000000E+00
  0.00000000E+00  0.00000000E+00  0.00000000E+00
  0.00000000E+00  0.00000000E+00  0.00000000E+00
  0.00000000E+00  0.00000000E+00  0.00000000E+00
  0.00000000E+00  0.00000000E+00  0.00000000E+00
  0.00000000E+00  0.00000000E+00  0.00000000E+00
  0.00000000E+00  0.00000000E+00  0.00000000E+00
  0.00000000E+00  0.00000000E+00  0.00000000E+00
  0.00000000E+00  0.00000000E+00  0.00000000E+00
  0.00000000E+00  0.00000000E+00  0.00000000E+00
  0.00000000E+00  0.00000000E+00  0.00000000E+00
  0.00000000E+00  0.00000000E+00  0.00000000E+00
  0.00000000E+00  0.00000000E+00  0.00000000E+00
  0.00000000E+00  0.00000000E+00  0.00000000E+00
  0.00000000E+00  0.00000000E+00  0.00000000E+00
  0.00000000E+00  0.00000000E+00  0.00000000E+00
  0.00000000E+00  0.00000000E+00  0.00000000E+00
  0.00000000E+00  0.00000000E+00  0.00000000E+00
  0.00000000E+00  0.00000000E+00  0.00000000E+00
  0.00000000E+00  0.00000000E+00  0.00000000E+00
  0.00000000E+00  0.00000000E+00  0.00000000E+00
  0.00000000E+00  0.00000000E+00  0.00000000E+00
  0.00000000E+00  0.00000000E+00  0.00000000E+00
  0.00000000E+00  0.00000000E+00  0.00000000E+00
  0.00000000E+00  0.00000000E+00  0.00000000E+00
  0.00000000E+00  0.00000000E+00  0.00000000E+00
  0.00000000E+00  0.00000000E+00  0.00000000E+00
  0.00000000E+00  0.00000000E+00  0.00000000E+00
  0.00000000E+00  0.00000000E+00  0.00000000E+00
  0.00000000E+00  0.00000000E+00  0.00000000E+00
  0.00000000E+00  0.00000000E+00  0.00000000E+00
  0.00000000E+00  0.00000000E+00  0.00000000E+00
  0.00000000E+00  0.00000000E+00  0.00000000E+00
  0.00000000E+00  0.00000000E+00  0.00000000E+00
  0.00000000E+00  0.00000000E+00  0.00000000E+00
  0.00000000E+00  0.00000000E+00  0.00000000E+00
  0.00000000E+00  0.00000000E+00  0.00000000E+00
  0.00000000E+00  0.00000000E+00  0.00000000E+00
  0.00000000E+00  0.00000000E+00  0.00000000E+00
  0.00000000E+00  0.00000000E+00  0.00000000E+00
  0.00000000E+00  0.00000000E+00  0.00000000E+00
