Al   B    N                             
   1.00000000000000     
    -9.1983366200435306   -0.0065895617015360    0.0122830151474374
    -4.6092327569254099    7.9393670784108101   -0.0023194095245191
    -0.0245233526056330   -0.0655712205250410   -9.9516054505795992
   Al   B    N 
    31     5    36
Direct
  0.1063170858795885  0.0916269289997516  0.3307031321033307
  0.2240845762938477  0.2011235592079075  0.0783042189864886
  0.7815014477724560  0.0877949737318318  0.8275110611698722
  0.4563051095254451  0.0835582113994349  0.3328408925649029
  0.5608970094020123  0.2007419519113114  0.0803804175061131
  0.1090184819874338  0.0942492807294215  0.8207204539223909
  0.2170451635815809  0.2066343270531590  0.5715084626940836
  0.8876171697665711  0.2083720288015343  0.0799606931675001
  0.4415649252780369  0.0918880021776332  0.8239699471819861
  0.5701601425866016  0.1949481502573676  0.5707104922727595
  0.1186101421756689  0.4263291773702349  0.3291735037150971
  0.2237143100074661  0.5404484918453818  0.0731817000797506
  0.7715021172471310  0.4231484616885268  0.8215983002166070
  0.8874969855622865  0.5445244859895197  0.6376180301192065
  0.4511417631454364  0.4238170015657872  0.3240547541177179
  0.5572387146941082  0.5494174542316799  0.0715913279694789
  0.1144813308143995  0.4252790725401141  0.8270296927313296
  0.2188491336652874  0.5416655102910113  0.5761886662652174
  0.7766693088603347  0.4176992571973415  0.3393658343608550
  0.8761383075207618  0.5535630038633812  0.1522936141588502
  0.4445325010458205  0.4302010804214689  0.8248931889466533
  0.5567987850063716  0.5319439742748031  0.5777493430114546
  0.1097227150907969  0.7674503422340493  0.3220051474841767
  0.2334933233770826  0.8747130755838981  0.0690169699064427
  0.7598232487098500  0.7632159669242427  0.8981200931429285
  0.4493255237381035  0.7630897083333181  0.3332961333596387
  0.1077986388068553  0.7641414404446820  0.8329894960679880
  0.2120000089493885  0.8750353095719134  0.5787093237934826
  0.7840427115482598  0.7742924650972256  0.4041026697871644
  0.8832403536370279  0.8818797196327424  0.1061782265105009
  0.5538994474041132  0.8731947496641013  0.6103369022390623
  0.8939654515391950  0.1920289729428504  0.5679737699667982
  0.7775325616957716  0.0915870303011559  0.3212535132036507
  0.8948261015672259  0.8762091598770994  0.6140032092218846
  0.5529144872258840  0.8740257435075591  0.1163541752799375
  0.4432000957379643  0.7615667351508506  0.8136109464131351
  0.2253430643054770  0.2028467306310304  0.3820885939059124
  0.1101242992765208  0.0942521172136708  0.1390457710767379
  0.8871602154555589  0.2037543416335623  0.8901547247824553
  0.8040003631908803  0.0722251449728617  0.6302677409248929
  0.5820987137916376  0.1912132726814448  0.3777191483562774
  0.4597789401682562  0.0658297609669773  0.1349186600371794
  0.2202044629473434  0.2041367156270653  0.8879639011253033
  0.0846567224563231  0.1070417974631965  0.6260187026692350
  0.8810555088426213  0.1899081909301685  0.4018424407471031
  0.7736324389943121  0.1096495707104523  0.1579563489201448
  0.5571305640676059  0.2025716018711634  0.8880889823700215
  0.4385094268708016  0.1052297385851091  0.6338429583670475
  0.2243782625190960  0.5421159576027463  0.3864868296287796
  0.1137195276118490  0.4290823595389881  0.1351367801320578
  0.8815442949507144  0.5442818543992445  0.8362296436442875
  0.7884052973445961  0.3949605481514737  0.6249306716374008
  0.5532655228528327  0.5403846015767684  0.3890692578781838
  0.4461407800319321  0.4306178743101299  0.1328314268332775
  0.2222262076931614  0.5389789610296987  0.8839612290716872
  0.1168730234928077  0.4245791849672429  0.6336391146036178
  0.8857592295953509  0.5473700800082213  0.3514216737807416
  0.7730135495198240  0.4275196538437314  0.1422858086174941
  0.5431113228503435  0.5632862817041513  0.8778617238107955
  0.4459109072616627  0.4213096337687361  0.6345568620978952
  0.2253834208868710  0.8695266049223207  0.3897596921368276
  0.1216518367763300  0.7622346087464820  0.1311144198106149
  0.8874673163611533  0.8745379772267867  0.9022315378662427
  0.7993486640740244  0.7813135837762601  0.5989606942654220
  0.5529051944370593  0.8711951967657612  0.4067431254086955
  0.4589727869389151  0.7786114898232555  0.1375063132971590
  0.2451017259332104  0.8624796238306800  0.8744277831481426
  0.0835143073500788  0.7750341468763366  0.6363743724489694
  0.8767285248786436  0.8972179702244247  0.3404612300304635
  0.7404181099793590  0.7784605431822342  0.0961342284961191
  0.5416004494141191  0.8587975023653271  0.8360673055303849
  0.4360800593472831  0.7531295049069229  0.6506067293391808
 
  0.00000000E+00  0.00000000E+00  0.00000000E+00
  0.00000000E+00  0.00000000E+00  0.00000000E+00
  0.00000000E+00  0.00000000E+00  0.00000000E+00
  0.00000000E+00  0.00000000E+00  0.00000000E+00
  0.00000000E+00  0.00000000E+00  0.00000000E+00
  0.00000000E+00  0.00000000E+00  0.00000000E+00
  0.00000000E+00  0.00000000E+00  0.00000000E+00
  0.00000000E+00  0.00000000E+00  0.00000000E+00
  0.00000000E+00  0.00000000E+00  0.00000000E+00
  0.00000000E+00  0.00000000E+00  0.00000000E+00
  0.00000000E+00  0.00000000E+00  0.00000000E+00
  0.00000000E+00  0.00000000E+00  0.00000000E+00
  0.00000000E+00  0.00000000E+00  0.00000000E+00
  0.00000000E+00  0.00000000E+00  0.00000000E+00
  0.00000000E+00  0.00000000E+00  0.00000000E+00
  0.00000000E+00  0.00000000E+00  0.00000000E+00
  0.00000000E+00  0.00000000E+00  0.00000000E+00
  0.00000000E+00  0.00000000E+00  0.00000000E+00
  0.00000000E+00  0.00000000E+00  0.00000000E+00
  0.00000000E+00  0.00000000E+00  0.00000000E+00
  0.00000000E+00  0.00000000E+00  0.00000000E+00
  0.00000000E+00  0.00000000E+00  0.00000000E+00
  0.00000000E+00  0.00000000E+00  0.00000000E+00
  0.00000000E+00  0.00000000E+00  0.00000000E+00
  0.00000000E+00  0.00000000E+00  0.00000000E+00
  0.00000000E+00  0.00000000E+00  0.00000000E+00
  0.00000000E+00  0.00000000E+00  0.00000000E+00
  0.00000000E+00  0.00000000E+00  0.00000000E+00
  0.00000000E+00  0.00000000E+00  0.00000000E+00
  0.00000000E+00  0.00000000E+00  0.00000000E+00
  0.00000000E+00  0.00000000E+00  0.00000000E+00
  0.00000000E+00  0.00000000E+00  0.00000000E+00
  0.00000000E+00  0.00000000E+00  0.00000000E+00
  0.00000000E+00  0.00000000E+00  0.00000000E+00
  0.00000000E+00  0.00000000E+00  0.00000000E+00
  0.00000000E+00  0.00000000E+00  0.00000000E+00
  0.00000000E+00  0.00000000E+00  0.00000000E+00
  0.00000000E+00  0.00000000E+00  0.00000000E+00
  0.00000000E+00  0.00000000E+00  0.00000000E+00
  0.00000000E+00  0.00000000E+00  0.00000000E+00
  0.00000000E+00  0.00000000E+00  0.00000000E+00
  0.00000000E+00  0.00000000E+00  0.00000000E+00
  0.00000000E+00  0.00000000E+00  0.00000000E+00
  0.00000000E+00  0.00000000E+00  0.00000000E+00
  0.00000000E+00  0.00000000E+00  0.00000000E+00
  0.00000000E+00  0.00000000E+00  0.00000000E+00
  0.00000000E+00  0.00000000E+00  0.00000000E+00
  0.00000000E+00  0.00000000E+00  0.00000000E+00
  0.00000000E+00  0.00000000E+00  0.00000000E+00
  0.00000000E+00  0.00000000E+00  0.00000000E+00
  0.00000000E+00  0.00000000E+00  0.00000000E+00
  0.00000000E+00  0.00000000E+00  0.00000000E+00
  0.00000000E+00  0.00000000E+00  0.00000000E+00
  0.00000000E+00  0.00000000E+00  0.00000000E+00
  0.00000000E+00  0.00000000E+00  0.00000000E+00
  0.00000000E+00  0.00000000E+00  0.00000000E+00
  0.00000000E+00  0.00000000E+00  0.00000000E+00
  0.00000000E+00  0.00000000E+00  0.00000000E+00
  0.00000000E+00  0.00000000E+00  0.00000000E+00
  0.00000000E+00  0.00000000E+00  0.00000000E+00
  0.00000000E+00  0.00000000E+00  0.00000000E+00
  0.00000000E+00  0.00000000E+00  0.00000000E+00
  0.00000000E+00  0.00000000E+00  0.00000000E+00
  0.00000000E+00  0.00000000E+00  0.00000000E+00
  0.00000000E+00  0.00000000E+00  0.00000000E+00
  0.00000000E+00  0.00000000E+00  0.00000000E+00
  0.00000000E+00  0.00000000E+00  0.00000000E+00
  0.00000000E+00  0.00000000E+00  0.00000000E+00
  0.00000000E+00  0.00000000E+00  0.00000000E+00
  0.00000000E+00  0.00000000E+00  0.00000000E+00
  0.00000000E+00  0.00000000E+00  0.00000000E+00
  0.00000000E+00  0.00000000E+00  0.00000000E+00
