Al   B    N                             
   1.00000000000000     
    -9.1825784808450344    0.0010222686632783    0.0079540553804585
    -4.5800049600653905    7.9571759828448698    0.0169386786618648
    -0.1138507265774988    0.0401013602759276  -10.0548472704503649
   Al   B    N 
    31     5    36
Direct
  0.1017477868923891  0.0956886430115631  0.3976486934441965
  0.2257982043132358  0.1997900937312451  0.1407219115362466
  0.7791735828278448  0.0916011944294297  0.8520950916353485
  0.4480878012629432  0.0895830610759631  0.3816411280275034
  0.5585413344383667  0.2052256992888459  0.0641039101697984
  0.1094446311172064  0.0984637528013295  0.8783474851818980
  0.2191550478185746  0.2071669305344344  0.6382613113111901
  0.8863839869112695  0.2038071016779313  0.1307711302452006
  0.4395132556363066  0.0786360849180880  0.8927806268589222
  0.5796512683602515  0.1934121780556310  0.5722238027895372
  0.1103470248630956  0.4297584101966905  0.3890786388301137
  0.2169807772418793  0.5433338162221091  0.1411354213273839
  0.7786685600666559  0.4287384069924727  0.8774936964152431
  0.8865688629155528  0.5388358561536890  0.6381972240030009
  0.4602360562765213  0.4235571037426809  0.3208380203112924
  0.5479262676191894  0.5535764440349666  0.0608062726661203
  0.1109413017397713  0.4273944716898228  0.8904408261930925
  0.2080366194848935  0.5443898523364368  0.6372694696624848
  0.7867090477973449  0.4144779206747344  0.3934030877318051
  0.8801028392316397  0.5438562388468995  0.1394305559896196
  0.4479987424158764  0.4270481737833975  0.8126373564322193
  0.5527960161913583  0.5359377458857537  0.5732790892646662
  0.1020146504445236  0.7729168301539886  0.3975128289601315
  0.2342766490219361  0.8714316237473057  0.0758278251570061
  0.7674683464619676  0.7616059648481439  0.8895705151040758
  0.4456461583228091  0.7626678785541969  0.3154993344093029
  0.1101830755631497  0.7570459529671751  0.8809549812059316
  0.2106014741816651  0.8774695295987200  0.6229680267030915
  0.7769899733164110  0.7728540236886090  0.3897025829150706
  0.8821365507144279  0.8803806016488522  0.1339624494460949
  0.5607126268761391  0.8741694612602657  0.6423268405679607
  0.8937374243537661  0.1977220342955661  0.6491031139603223
  0.7812336035623559  0.0944511434954478  0.3492017181131644
  0.8934413953723706  0.8794105665786489  0.6511361584023163
  0.5612671898776327  0.8768235369543476  0.1453622454743311
  0.4448764208574758  0.7547168674552367  0.8061300331969150
  0.2190971587681005  0.2057675227868501  0.3293057398221819
  0.1087202892463210  0.1007974084712870  0.0701216620767866
  0.8915099579976129  0.2099664681932083  0.8087924382090250
  0.8030978250541239  0.0796605237977772  0.6256805437517912
  0.5924003354765262  0.1911495144155566  0.3725174431068865
  0.4565250578339857  0.0668983487115824  0.0876498955624285
  0.2238287123767364  0.2066261873535211  0.8261519099876793
  0.0831245196126531  0.1108239100646600  0.5906395615336635
  0.8758738858052553  0.1911672499886308  0.3247458136209573
  0.7897552849194653  0.0895239554245322  0.0587946516536277
  0.5448593496021701  0.2088119119801135  0.8734311670278672
  0.4423854112628831  0.0896302080823048  0.5714778093727730
  0.2174780468510278  0.5470529575516352  0.3330870788158933
  0.1111982830592098  0.4276602196603605  0.0802082391710712
  0.8889013871974853  0.5409019348022852  0.8266182054944267
  0.7929555903955006  0.3958295655790280  0.5864536172263968
  0.5550061376877977  0.5459903019055687  0.3836568936072737
  0.4535963842212922  0.4261428015394912  0.1297027080110453
  0.2165102051174159  0.5392301009526435  0.8259978189131871
  0.1079568856607978  0.4273185770878527  0.5753616850189758
  0.8858203180014428  0.5415476997660065  0.3300885064189316
  0.7814661604909503  0.4253874497361352  0.0707790415995717
  0.5367296490209483  0.5663080354991266  0.8681649785115511
  0.4464938929409925  0.4192204670180359  0.6222937316238841
  0.2294880260804888  0.8715953577075268  0.3741211439835368
  0.1093638666355972  0.7608729974349444  0.0728394176120162
  0.8892173047040828  0.8615388860036646  0.8121529645322383
  0.7847622920011190  0.7739239794299522  0.5806155924538956
  0.5664738082591256  0.8779110912602235  0.3079669623427179
  0.4573076544740289  0.7720354325895258  0.1257964295041134
  0.2426364431355452  0.8620099799636449  0.8465163451867070
  0.0793734568850297  0.7753733612272597  0.5904645841320857
  0.8768297768753186  0.9042225171245377  0.3269733551045491
  0.7544294181664455  0.7752392603420546  0.0838641443672543
  0.5445164155758633  0.8590021828202552  0.8295091886117731
  0.4444965007585751  0.7512318513039631  0.6448813975538243
 
  0.00000000E+00  0.00000000E+00  0.00000000E+00
  0.00000000E+00  0.00000000E+00  0.00000000E+00
  0.00000000E+00  0.00000000E+00  0.00000000E+00
  0.00000000E+00  0.00000000E+00  0.00000000E+00
  0.00000000E+00  0.00000000E+00  0.00000000E+00
  0.00000000E+00  0.00000000E+00  0.00000000E+00
  0.00000000E+00  0.00000000E+00  0.00000000E+00
  0.00000000E+00  0.00000000E+00  0.00000000E+00
  0.00000000E+00  0.00000000E+00  0.00000000E+00
  0.00000000E+00  0.00000000E+00  0.00000000E+00
  0.00000000E+00  0.00000000E+00  0.00000000E+00
  0.00000000E+00  0.00000000E+00  0.00000000E+00
  0.00000000E+00  0.00000000E+00  0.00000000E+00
  0.00000000E+00  0.00000000E+00  0.00000000E+00
  0.00000000E+00  0.00000000E+00  0.00000000E+00
  0.00000000E+00  0.00000000E+00  0.00000000E+00
  0.00000000E+00  0.00000000E+00  0.00000000E+00
  0.00000000E+00  0.00000000E+00  0.00000000E+00
  0.00000000E+00  0.00000000E+00  0.00000000E+00
  0.00000000E+00  0.00000000E+00  0.00000000E+00
  0.00000000E+00  0.00000000E+00  0.00000000E+00
  0.00000000E+00  0.00000000E+00  0.00000000E+00
  0.00000000E+00  0.00000000E+00  0.00000000E+00
  0.00000000E+00  0.00000000E+00  0.00000000E+00
  0.00000000E+00  0.00000000E+00  0.00000000E+00
  0.00000000E+00  0.00000000E+00  0.00000000E+00
  0.00000000E+00  0.00000000E+00  0.00000000E+00
  0.00000000E+00  0.00000000E+00  0.00000000E+00
  0.00000000E+00  0.00000000E+00  0.00000000E+00
  0.00000000E+00  0.00000000E+00  0.00000000E+00
  0.00000000E+00  0.00000000E+00  0.00000000E+00
  0.00000000E+00  0.00000000E+00  0.00000000E+00
  0.00000000E+00  0.00000000E+00  0.00000000E+00
  0.00000000E+00  0.00000000E+00  0.00000000E+00
  0.00000000E+00  0.00000000E+00  0.00000000E+00
  0.00000000E+00  0.00000000E+00  0.00000000E+00
  0.00000000E+00  0.00000000E+00  0.00000000E+00
  0.00000000E+00  0.00000000E+00  0.00000000E+00
  0.00000000E+00  0.00000000E+00  0.00000000E+00
  0.00000000E+00  0.00000000E+00  0.00000000E+00
  0.00000000E+00  0.00000000E+00  0.00000000E+00
  0.00000000E+00  0.00000000E+00  0.00000000E+00
  0.00000000E+00  0.00000000E+00  0.00000000E+00
  0.00000000E+00  0.00000000E+00  0.00000000E+00
  0.00000000E+00  0.00000000E+00  0.00000000E+00
  0.00000000E+00  0.00000000E+00  0.00000000E+00
  0.00000000E+00  0.00000000E+00  0.00000000E+00
  0.00000000E+00  0.00000000E+00  0.00000000E+00
  0.00000000E+00  0.00000000E+00  0.00000000E+00
  0.00000000E+00  0.00000000E+00  0.00000000E+00
  0.00000000E+00  0.00000000E+00  0.00000000E+00
  0.00000000E+00  0.00000000E+00  0.00000000E+00
  0.00000000E+00  0.00000000E+00  0.00000000E+00
  0.00000000E+00  0.00000000E+00  0.00000000E+00
  0.00000000E+00  0.00000000E+00  0.00000000E+00
  0.00000000E+00  0.00000000E+00  0.00000000E+00
  0.00000000E+00  0.00000000E+00  0.00000000E+00
  0.00000000E+00  0.00000000E+00  0.00000000E+00
  0.00000000E+00  0.00000000E+00  0.00000000E+00
  0.00000000E+00  0.00000000E+00  0.00000000E+00
  0.00000000E+00  0.00000000E+00  0.00000000E+00
  0.00000000E+00  0.00000000E+00  0.00000000E+00
  0.00000000E+00  0.00000000E+00  0.00000000E+00
  0.00000000E+00  0.00000000E+00  0.00000000E+00
  0.00000000E+00  0.00000000E+00  0.00000000E+00
  0.00000000E+00  0.00000000E+00  0.00000000E+00
  0.00000000E+00  0.00000000E+00  0.00000000E+00
  0.00000000E+00  0.00000000E+00  0.00000000E+00
  0.00000000E+00  0.00000000E+00  0.00000000E+00
  0.00000000E+00  0.00000000E+00  0.00000000E+00
  0.00000000E+00  0.00000000E+00  0.00000000E+00
  0.00000000E+00  0.00000000E+00  0.00000000E+00
