Al   B    N                             
   1.00000000000000     
    -9.1777250442306340    0.0058840025066913    0.0098076738004329
    -4.6076032134149143    7.9685772626109852    0.0168882898968284
    -0.1366230898053828    0.0276335685972465  -10.1746530376357018
   Al   B    N 
    31     5    36
Direct
  0.0963347020751542  0.1012221544392062  0.3927517841758146
  0.2225561063110675  0.1968148499075681  0.1366192696508648
  0.7812143751283287  0.0857280573961035  0.8100104550770055
  0.4457777907442946  0.0884557417309750  0.3893950677084845
  0.5577332116755898  0.2042375592799814  0.0680236144479878
  0.1116119355014646  0.0973437789644009  0.8773336673034748
  0.2218605846800514  0.2108220052621732  0.6402326466859662
  0.8859894277847005  0.2092626040907959  0.1398413949398645
  0.4466548547550744  0.0813595669979676  0.8786899774893371
  0.5789221481158080  0.1922670933936104  0.5626581631780994
  0.1102666722997867  0.4239226529306066  0.3840130441272009
  0.2261500590886456  0.5426991154133063  0.0698409717232664
  0.7772874967794863  0.4340850356655537  0.8783086786776977
  0.8962657688864581  0.5416566115686052  0.6406728843834912
  0.4545415941142963  0.4212030327401024  0.3174820596756760
  0.5470858439636004  0.5540351324802586  0.0619224023678555
  0.1089831827057282  0.4271058092298006  0.8908648329356907
  0.2233555369166567  0.5431441330663560  0.5668696481913358
  0.7862227203173617  0.4146602918574018  0.3917652814928303
  0.8772632746597040  0.5427260489879231  0.1407015718029712
  0.4461556453336470  0.4312300927182804  0.8154621707328360
  0.5523721792065501  0.5382790138383413  0.5751512615113015
  0.1075755250857711  0.7699960141934028  0.3154432660497051
  0.2348678539526432  0.8682751658884200  0.0596829506623777
  0.7658698942757809  0.7658671900349745  0.8883619369573879
  0.4464997681799190  0.7625540130031538  0.3260661719110587
  0.1111733467721052  0.7627897309955571  0.8244745929983424
  0.2077635504822766  0.8748834417846822  0.5800210410247288
  0.7836686622720421  0.7682843996658377  0.3903898352836919
  0.8830259008267234  0.8770107924465975  0.0957625459981983
  0.5575992304399904  0.8731148063005350  0.6147763784397782
  0.9139915058334438  0.2333417248306731  0.6511531200640164
  0.7707774788564450  0.0876751294114584  0.3013598149120682
  0.8877655343605966  0.8645176593822157  0.6103814988684775
  0.5519101511514890  0.8713263342622710  0.1024953557692001
  0.4421524698928962  0.7606312338058103  0.8041451946318361
  0.2222652891585000  0.1999832148190137  0.3232323955920222
  0.1016128498818745  0.1007491737104687  0.0657979786536131
  0.8931360357482419  0.2165021981231305  0.7998276799968451
  0.7879259025433498  0.0449495351035267  0.6313964660788898
  0.5854272886319549  0.1907703297357841  0.3697444940944692
  0.4540479264406372  0.0605766012230049  0.0768639538068996
  0.2240627945515286  0.2092175972302854  0.8255302271655722
  0.0823812932602337  0.1178336916888725  0.5875810962495933
  0.8803715094983531  0.1970239898468833  0.3249817867376592
  0.7635847612047684  0.1004582474710602  0.1424487276943296
  0.5613635607947884  0.2082763485446364  0.8805629501915035
  0.4361765287829726  0.1023010007281542  0.5780274044950673
  0.2263293299118416  0.5432264089986063  0.3767223437125935
  0.1064988063061705  0.4261102725840757  0.0805940485823982
  0.8909542064839115  0.5452163406137629  0.8258933080893200
  0.7975484240466244  0.4041144512044070  0.5872180637073399
  0.5532085961232980  0.5397779181667630  0.3858628101352579
  0.4471886554389712  0.4293941954703371  0.1292764260953021
  0.2271674882862484  0.5415233036566178  0.8800029224015589
  0.1100506984763996  0.4244510165403383  0.5735282200968541
  0.8864755020926793  0.5394408165809992  0.3273282256765526
  0.7802025711485712  0.4241505335083176  0.0675099253653002
  0.5387019669009092  0.5705166742674379  0.8686281246062748
  0.4495636276402379  0.4183617542685312  0.6294734750304798
  0.2227542047264635  0.8685955668703969  0.3908413677705624
  0.1217728341750828  0.7622118884295688  0.1276136057941244
  0.8926989238758338  0.8788328710152484  0.8977922693704272
  0.8011839301706800  0.7642079491557752  0.5830288774920689
  0.5572346268836696  0.8619310827184705  0.3873539445764962
  0.4553783249464800  0.7777567333404605  0.1317106147167593
  0.2507146765446535  0.8588895535916166  0.8665753685346615
  0.0817034974220050  0.7699220011530912  0.6343218594112301
  0.8743204544492755  0.8949652039437339  0.3278620343832657
  0.7401770849543681  0.7719839488916591  0.0820123116728197
  0.5491367849429380  0.8617612232000837  0.8159468928157807
  0.4326888491348697  0.7559882777294646  0.6461081403924283
 
  0.00000000E+00  0.00000000E+00  0.00000000E+00
  0.00000000E+00  0.00000000E+00  0.00000000E+00
  0.00000000E+00  0.00000000E+00  0.00000000E+00
  0.00000000E+00  0.00000000E+00  0.00000000E+00
  0.00000000E+00  0.00000000E+00  0.00000000E+00
  0.00000000E+00  0.00000000E+00  0.00000000E+00
  0.00000000E+00  0.00000000E+00  0.00000000E+00
  0.00000000E+00  0.00000000E+00  0.00000000E+00
  0.00000000E+00  0.00000000E+00  0.00000000E+00
  0.00000000E+00  0.00000000E+00  0.00000000E+00
  0.00000000E+00  0.00000000E+00  0.00000000E+00
  0.00000000E+00  0.00000000E+00  0.00000000E+00
  0.00000000E+00  0.00000000E+00  0.00000000E+00
  0.00000000E+00  0.00000000E+00  0.00000000E+00
  0.00000000E+00  0.00000000E+00  0.00000000E+00
  0.00000000E+00  0.00000000E+00  0.00000000E+00
  0.00000000E+00  0.00000000E+00  0.00000000E+00
  0.00000000E+00  0.00000000E+00  0.00000000E+00
  0.00000000E+00  0.00000000E+00  0.00000000E+00
  0.00000000E+00  0.00000000E+00  0.00000000E+00
  0.00000000E+00  0.00000000E+00  0.00000000E+00
  0.00000000E+00  0.00000000E+00  0.00000000E+00
  0.00000000E+00  0.00000000E+00  0.00000000E+00
  0.00000000E+00  0.00000000E+00  0.00000000E+00
  0.00000000E+00  0.00000000E+00  0.00000000E+00
  0.00000000E+00  0.00000000E+00  0.00000000E+00
  0.00000000E+00  0.00000000E+00  0.00000000E+00
  0.00000000E+00  0.00000000E+00  0.00000000E+00
  0.00000000E+00  0.00000000E+00  0.00000000E+00
  0.00000000E+00  0.00000000E+00  0.00000000E+00
  0.00000000E+00  0.00000000E+00  0.00000000E+00
  0.00000000E+00  0.00000000E+00  0.00000000E+00
  0.00000000E+00  0.00000000E+00  0.00000000E+00
  0.00000000E+00  0.00000000E+00  0.00000000E+00
  0.00000000E+00  0.00000000E+00  0.00000000E+00
  0.00000000E+00  0.00000000E+00  0.00000000E+00
  0.00000000E+00  0.00000000E+00  0.00000000E+00
  0.00000000E+00  0.00000000E+00  0.00000000E+00
  0.00000000E+00  0.00000000E+00  0.00000000E+00
  0.00000000E+00  0.00000000E+00  0.00000000E+00
  0.00000000E+00  0.00000000E+00  0.00000000E+00
  0.00000000E+00  0.00000000E+00  0.00000000E+00
  0.00000000E+00  0.00000000E+00  0.00000000E+00
  0.00000000E+00  0.00000000E+00  0.00000000E+00
  0.00000000E+00  0.00000000E+00  0.00000000E+00
  0.00000000E+00  0.00000000E+00  0.00000000E+00
  0.00000000E+00  0.00000000E+00  0.00000000E+00
  0.00000000E+00  0.00000000E+00  0.00000000E+00
  0.00000000E+00  0.00000000E+00  0.00000000E+00
  0.00000000E+00  0.00000000E+00  0.00000000E+00
  0.00000000E+00  0.00000000E+00  0.00000000E+00
  0.00000000E+00  0.00000000E+00  0.00000000E+00
  0.00000000E+00  0.00000000E+00  0.00000000E+00
  0.00000000E+00  0.00000000E+00  0.00000000E+00
  0.00000000E+00  0.00000000E+00  0.00000000E+00
  0.00000000E+00  0.00000000E+00  0.00000000E+00
  0.00000000E+00  0.00000000E+00  0.00000000E+00
  0.00000000E+00  0.00000000E+00  0.00000000E+00
  0.00000000E+00  0.00000000E+00  0.00000000E+00
  0.00000000E+00  0.00000000E+00  0.00000000E+00
  0.00000000E+00  0.00000000E+00  0.00000000E+00
  0.00000000E+00  0.00000000E+00  0.00000000E+00
  0.00000000E+00  0.00000000E+00  0.00000000E+00
  0.00000000E+00  0.00000000E+00  0.00000000E+00
  0.00000000E+00  0.00000000E+00  0.00000000E+00
  0.00000000E+00  0.00000000E+00  0.00000000E+00
  0.00000000E+00  0.00000000E+00  0.00000000E+00
  0.00000000E+00  0.00000000E+00  0.00000000E+00
  0.00000000E+00  0.00000000E+00  0.00000000E+00
  0.00000000E+00  0.00000000E+00  0.00000000E+00
  0.00000000E+00  0.00000000E+00  0.00000000E+00
  0.00000000E+00  0.00000000E+00  0.00000000E+00
