Al   B    N                             
   1.00000000000000     
    -9.1714587602747262   -0.0061177995097339    0.0162186060183470
    -4.5882326370346060    7.9340494273526909    0.0018829987076308
    -0.0341235013982880    0.0242186463922961   -9.8517802620089352
   Al   B    N 
    31     5    36
Direct
  0.1059392780563257  0.0930524028558608  0.3202346402951193
  0.2263191532131970  0.1989638689548769  0.0661455466869540
  0.7820028159649581  0.0909770627677844  0.8092813643178829
  0.4520840581027556  0.0889839485909505  0.3211376034243116
  0.5650303900300315  0.1970296826163889  0.0724837989619402
  0.1090586659296875  0.0935973467572779  0.8102048756346463
  0.2157211180817598  0.2084483115791329  0.5631864020258988
  0.8882844130249410  0.2031084756209509  0.0721350027213035
  0.4444809105244403  0.0872854604851199  0.8159842035505562
  0.5670316157269610  0.1994853255204916  0.5615129805473060
  0.1105706206107584  0.4293582706861372  0.3127504991588097
  0.2224558241998338  0.5413648002212454  0.0631311473514344
  0.7758144951220842  0.4261221603779717  0.8106360328687856
  0.8892612450435706  0.5390681732088183  0.5657892936689564
  0.4500256969406706  0.4251972417773970  0.3139744692793798
  0.5577158805475406  0.5489824299459869  0.0592373508852830
  0.1100500124017145  0.4274801508233992  0.8161153507517440
  0.2161208532846075  0.5428290024673927  0.5646301595295355
  0.7771671043293011  0.4218527558084801  0.3221984344308240
  0.8806065815399222  0.5449156561859780  0.0659205420641698
  0.4443389195575804  0.4302016587712032  0.8152950306497075
  0.5562699029250808  0.5349523604163409  0.5685446661778357
  0.1070031781356349  0.7681313062104067  0.3194213209851000
  0.2321836061370632  0.8730698467730917  0.0588834579629278
  0.7732336193960379  0.7645161852987172  0.8119068299580263
  0.4473795313167130  0.7634650881381191  0.3191186074081713
  0.1078295239493201  0.7645000411330329  0.8109634477987910
  0.2138040132385299  0.8755266328431119  0.5679594640056820
  0.7736711082818744  0.7709894216635647  0.3312602126645814
  0.8829018980615757  0.8775332338582231  0.0736906600256333
  0.5556703001461401  0.8733969274679936  0.5832756742885863
  0.8899347102117119  0.1920650333008709  0.5578295565473255
  0.7797833371410903  0.0941037748660776  0.3253296241872476
  0.8906318864535834  0.8826079845101233  0.5589850816023798
  0.5576152221731050  0.8719740401467391  0.1032595757655841
  0.4466294072368910  0.7615568341539571  0.8059212177657500
  0.2229087397901424  0.2058589167675606  0.3711434388573238
  0.1118412285313468  0.0923295574875453  0.1278528402009087
  0.8870399142072927  0.2033579642107952  0.8803274151118288
  0.8014967697004138  0.0824012834128851  0.6146364630238281
  0.5807708579592301  0.1932976814382457  0.3680665482116652
  0.4607754903496897  0.0654930072452231  0.1232086957278753
  0.2211251806109331  0.2035051331956836  0.8749542703577120
  0.0835822791179055  0.1075049090329756  0.6143648141541007
  0.8778764358739366  0.1923284238051437  0.3890848777960727
  0.7826864629397861  0.0926314316003598  0.1562659111959732
  0.5598507590932158  0.2010702929350145  0.8776699887151196
  0.4398075811685800  0.1026442869639297  0.6228590521500479
  0.2230959573035562  0.5391003118471360  0.3729399590987725
  0.1104521080162542  0.4287044908149937  0.1214661511234425
  0.8853230219740595  0.5402074094946272  0.8727725332195391
  0.7886104173548603  0.4001987321401828  0.6159278187901194
  0.5538300584899858  0.5413034802156815  0.3769474294392694
  0.4477164924411738  0.4290850483659128  0.1210025566657507
  0.2203970961192852  0.5413207185868742  0.8718784798096522
  0.1092324658664197  0.4282499165054077  0.6255953821142199
  0.8884397096167476  0.5398192646977833  0.3742758539697846
  0.7770759714049191  0.4269291910291386  0.1286574902371669
  0.5445815755069532  0.5620822444618838  0.8650759241486270
  0.4430015720409415  0.4245239061117871  0.6233459702622568
  0.2259493902152130  0.8706502023625617  0.3773259176547867
  0.1126289118862900  0.7641989432847751  0.1257746024619166
  0.8860453552459120  0.8739103706708065  0.8822582437539808
  0.7929407736310594  0.7771375436119712  0.6153748767876337
  0.5533208549456248  0.8722872630628160  0.3895917918299716
  0.4606832639732730  0.7767618200782209  0.1241324466108225
  0.2440686258668521  0.8610188393855367  0.8630831484358126
  0.0832262340525034  0.7758015312834985  0.6152820732075526
  0.8787903206567833  0.8976289978324701  0.3881947537556272
  0.7501872350035867  0.7768979951493975  0.1287291907393708
  0.5435704867439313  0.8560207613123936  0.8439885820870785
  0.4391856871979627  0.7576122881826279  0.6401532015561244
 
  0.00000000E+00  0.00000000E+00  0.00000000E+00
  0.00000000E+00  0.00000000E+00  0.00000000E+00
  0.00000000E+00  0.00000000E+00  0.00000000E+00
  0.00000000E+00  0.00000000E+00  0.00000000E+00
  0.00000000E+00  0.00000000E+00  0.00000000E+00
  0.00000000E+00  0.00000000E+00  0.00000000E+00
  0.00000000E+00  0.00000000E+00  0.00000000E+00
  0.00000000E+00  0.00000000E+00  0.00000000E+00
  0.00000000E+00  0.00000000E+00  0.00000000E+00
  0.00000000E+00  0.00000000E+00  0.00000000E+00
  0.00000000E+00  0.00000000E+00  0.00000000E+00
  0.00000000E+00  0.00000000E+00  0.00000000E+00
  0.00000000E+00  0.00000000E+00  0.00000000E+00
  0.00000000E+00  0.00000000E+00  0.00000000E+00
  0.00000000E+00  0.00000000E+00  0.00000000E+00
  0.00000000E+00  0.00000000E+00  0.00000000E+00
  0.00000000E+00  0.00000000E+00  0.00000000E+00
  0.00000000E+00  0.00000000E+00  0.00000000E+00
  0.00000000E+00  0.00000000E+00  0.00000000E+00
  0.00000000E+00  0.00000000E+00  0.00000000E+00
  0.00000000E+00  0.00000000E+00  0.00000000E+00
  0.00000000E+00  0.00000000E+00  0.00000000E+00
  0.00000000E+00  0.00000000E+00  0.00000000E+00
  0.00000000E+00  0.00000000E+00  0.00000000E+00
  0.00000000E+00  0.00000000E+00  0.00000000E+00
  0.00000000E+00  0.00000000E+00  0.00000000E+00
  0.00000000E+00  0.00000000E+00  0.00000000E+00
  0.00000000E+00  0.00000000E+00  0.00000000E+00
  0.00000000E+00  0.00000000E+00  0.00000000E+00
  0.00000000E+00  0.00000000E+00  0.00000000E+00
  0.00000000E+00  0.00000000E+00  0.00000000E+00
  0.00000000E+00  0.00000000E+00  0.00000000E+00
  0.00000000E+00  0.00000000E+00  0.00000000E+00
  0.00000000E+00  0.00000000E+00  0.00000000E+00
  0.00000000E+00  0.00000000E+00  0.00000000E+00
  0.00000000E+00  0.00000000E+00  0.00000000E+00
  0.00000000E+00  0.00000000E+00  0.00000000E+00
  0.00000000E+00  0.00000000E+00  0.00000000E+00
  0.00000000E+00  0.00000000E+00  0.00000000E+00
  0.00000000E+00  0.00000000E+00  0.00000000E+00
  0.00000000E+00  0.00000000E+00  0.00000000E+00
  0.00000000E+00  0.00000000E+00  0.00000000E+00
  0.00000000E+00  0.00000000E+00  0.00000000E+00
  0.00000000E+00  0.00000000E+00  0.00000000E+00
  0.00000000E+00  0.00000000E+00  0.00000000E+00
  0.00000000E+00  0.00000000E+00  0.00000000E+00
  0.00000000E+00  0.00000000E+00  0.00000000E+00
  0.00000000E+00  0.00000000E+00  0.00000000E+00
  0.00000000E+00  0.00000000E+00  0.00000000E+00
  0.00000000E+00  0.00000000E+00  0.00000000E+00
  0.00000000E+00  0.00000000E+00  0.00000000E+00
  0.00000000E+00  0.00000000E+00  0.00000000E+00
  0.00000000E+00  0.00000000E+00  0.00000000E+00
  0.00000000E+00  0.00000000E+00  0.00000000E+00
  0.00000000E+00  0.00000000E+00  0.00000000E+00
  0.00000000E+00  0.00000000E+00  0.00000000E+00
  0.00000000E+00  0.00000000E+00  0.00000000E+00
  0.00000000E+00  0.00000000E+00  0.00000000E+00
  0.00000000E+00  0.00000000E+00  0.00000000E+00
  0.00000000E+00  0.00000000E+00  0.00000000E+00
  0.00000000E+00  0.00000000E+00  0.00000000E+00
  0.00000000E+00  0.00000000E+00  0.00000000E+00
  0.00000000E+00  0.00000000E+00  0.00000000E+00
  0.00000000E+00  0.00000000E+00  0.00000000E+00
  0.00000000E+00  0.00000000E+00  0.00000000E+00
  0.00000000E+00  0.00000000E+00  0.00000000E+00
  0.00000000E+00  0.00000000E+00  0.00000000E+00
  0.00000000E+00  0.00000000E+00  0.00000000E+00
  0.00000000E+00  0.00000000E+00  0.00000000E+00
  0.00000000E+00  0.00000000E+00  0.00000000E+00
  0.00000000E+00  0.00000000E+00  0.00000000E+00
  0.00000000E+00  0.00000000E+00  0.00000000E+00
