Al   B    N                             
   1.00000000000000     
    -9.1491934328631199    0.0090589776170247    0.0066142406760230
    -4.4993042589407963    7.9449500828920314    0.0240945386675629
    -0.0791947230357677    0.0691276651548655  -10.2238518738009105
   Al   B    N 
    31     5    36
Direct
  0.0966044795336600  0.1028801562458099  0.3949887682542368
  0.2249500796199655  0.1983736122048043  0.1390690078384083
  0.7791595329177454  0.0905438045164217  0.8641720779330555
  0.4470200163487732  0.0909996345911139  0.3814609360003516
  0.5554032511967293  0.2067305461724374  0.0655628367364542
  0.1094413255521616  0.0972619158452019  0.8789284923044818
  0.2174083396648641  0.2045493098489075  0.6385360871272283
  0.8879465355310643  0.2057691855640869  0.1331872196915427
  0.4380168020712958  0.0785794924584096  0.8934249478496952
  0.5772964293824572  0.1931723723008787  0.5702650332789005
  0.1113035899945913  0.4306292321131622  0.3891618895842797
  0.2225329105445368  0.5360903872301677  0.1404416728707147
  0.7803532907333235  0.4257136936948740  0.8776663290110562
  0.8885639664172729  0.5389327350049200  0.6384601508230361
  0.4629729478056888  0.4223067001245013  0.3201085335510996
  0.5500726472860507  0.5532298109175642  0.0604112963760528
  0.1105631220512464  0.4297276468261444  0.8897655250507626
  0.2126759518090111  0.5375705075267021  0.6345664074719508
  0.7856702158617139  0.4171596955167516  0.3952620083235345
  0.8800486388544755  0.5442743940104364  0.1419677108734163
  0.4495845412178099  0.4256808861468144  0.8132528858138031
  0.5526165783301309  0.5364759709584987  0.5747660295524213
  0.1060462435918907  0.7805304331849072  0.3147720536783680
  0.2388811867298699  0.8655322136555696  0.0587970614368487
  0.7623762683262072  0.7555157466272107  0.8967813163270080
  0.4453925173767104  0.7632635749168557  0.3154946647730341
  0.1066446049295848  0.7675767782567249  0.8206596707198059
  0.2138736543248427  0.8704532341486484  0.5763146354333202
  0.7791286900761136  0.7771286224421772  0.3842112087875407
  0.8879455870323696  0.8743595495977274  0.0777803891603952
  0.5591438479964594  0.8757413393530129  0.6435888588835468
  0.8966695550840669  0.1933306142830062  0.6489134626799782
  0.7816019152632379  0.0934052983987286  0.3460477076725965
  0.8880455718216425  0.8838694496676851  0.6089286361872439
  0.5602271696530678  0.8747516037309637  0.1470744679357594
  0.4402700850162091  0.7561398139321085  0.8084136516845817
  0.2183657615374415  0.2063371167715218  0.3262577479987812
  0.1081042726543231  0.0996370988070012  0.0680116599078673
  0.8916617039450827  0.2055331052454292  0.8055155709891508
  0.8023688438660415  0.0702510989373621  0.6261495556086984
  0.5921441234744478  0.1931653282599655  0.3760362403069593
  0.4546287803601601  0.0661188003010764  0.0863000247822967
  0.2224839942075434  0.2069181694854407  0.8239655059920423
  0.0807395565508102  0.1093649374857506  0.5868016731052776
  0.8753072574267122  0.1956996383727798  0.3233245059981584
  0.7818745959135498  0.1025557658928662  0.0660927696707176
  0.5448509601880573  0.2081132236809324  0.8754262568485274
  0.4391065171017061  0.0888521981096417  0.5693541542013918
  0.2236153941595092  0.5404144956341668  0.3328313140139940
  0.1102275283927412  0.4287907956126489  0.0773282642042190
  0.8885389788149993  0.5407225957578277  0.8234991877564184
  0.7927208003670785  0.3965096085530675  0.5860090690195889
  0.5535522549948269  0.5485215859526917  0.3874565061974309
  0.4563024223804177  0.4256431133698584  0.1309018138714180
  0.2192367136621485  0.5374769994826778  0.8243734299612200
  0.1077926028008278  0.4255154534650814  0.5732089113630465
  0.8864569034788232  0.5431476725750741  0.3305034282826540
  0.7839366383601316  0.4258043127944546  0.0682539470967285
  0.5390654910349468  0.5650877487847552  0.8690243201805998
  0.4496412438105537  0.4162957805077667  0.6250575106182481
  0.2299653570657014  0.8699223411985813  0.3891085065870499
  0.1163783491316650  0.7680979804899124  0.1258486573223010
  0.8936154423600158  0.8589893780596185  0.8853533596453929
  0.7882946234794943  0.7809175560376502  0.5791112665238458
  0.5647135070331686  0.8799892086321606  0.3086690476096834
  0.4546163938970480  0.7712089934747084  0.1302659824073160
  0.2495336133737140  0.8561309393643768  0.8674394751629748
  0.0764878472823938  0.7791635218276483  0.6274979972629495
  0.8747434478205847  0.9105453885596901  0.3387435640217547
  0.7470224712093838  0.7719944930772940  0.0874440208369691
  0.5443001406573700  0.8593653562359620  0.8273585884523413
  0.4358804743098759  0.7540752836882518  0.6474360923004383
 
  0.00000000E+00  0.00000000E+00  0.00000000E+00
  0.00000000E+00  0.00000000E+00  0.00000000E+00
  0.00000000E+00  0.00000000E+00  0.00000000E+00
  0.00000000E+00  0.00000000E+00  0.00000000E+00
  0.00000000E+00  0.00000000E+00  0.00000000E+00
  0.00000000E+00  0.00000000E+00  0.00000000E+00
  0.00000000E+00  0.00000000E+00  0.00000000E+00
  0.00000000E+00  0.00000000E+00  0.00000000E+00
  0.00000000E+00  0.00000000E+00  0.00000000E+00
  0.00000000E+00  0.00000000E+00  0.00000000E+00
  0.00000000E+00  0.00000000E+00  0.00000000E+00
  0.00000000E+00  0.00000000E+00  0.00000000E+00
  0.00000000E+00  0.00000000E+00  0.00000000E+00
  0.00000000E+00  0.00000000E+00  0.00000000E+00
  0.00000000E+00  0.00000000E+00  0.00000000E+00
  0.00000000E+00  0.00000000E+00  0.00000000E+00
  0.00000000E+00  0.00000000E+00  0.00000000E+00
  0.00000000E+00  0.00000000E+00  0.00000000E+00
  0.00000000E+00  0.00000000E+00  0.00000000E+00
  0.00000000E+00  0.00000000E+00  0.00000000E+00
  0.00000000E+00  0.00000000E+00  0.00000000E+00
  0.00000000E+00  0.00000000E+00  0.00000000E+00
  0.00000000E+00  0.00000000E+00  0.00000000E+00
  0.00000000E+00  0.00000000E+00  0.00000000E+00
  0.00000000E+00  0.00000000E+00  0.00000000E+00
  0.00000000E+00  0.00000000E+00  0.00000000E+00
  0.00000000E+00  0.00000000E+00  0.00000000E+00
  0.00000000E+00  0.00000000E+00  0.00000000E+00
  0.00000000E+00  0.00000000E+00  0.00000000E+00
  0.00000000E+00  0.00000000E+00  0.00000000E+00
  0.00000000E+00  0.00000000E+00  0.00000000E+00
  0.00000000E+00  0.00000000E+00  0.00000000E+00
  0.00000000E+00  0.00000000E+00  0.00000000E+00
  0.00000000E+00  0.00000000E+00  0.00000000E+00
  0.00000000E+00  0.00000000E+00  0.00000000E+00
  0.00000000E+00  0.00000000E+00  0.00000000E+00
  0.00000000E+00  0.00000000E+00  0.00000000E+00
  0.00000000E+00  0.00000000E+00  0.00000000E+00
  0.00000000E+00  0.00000000E+00  0.00000000E+00
  0.00000000E+00  0.00000000E+00  0.00000000E+00
  0.00000000E+00  0.00000000E+00  0.00000000E+00
  0.00000000E+00  0.00000000E+00  0.00000000E+00
  0.00000000E+00  0.00000000E+00  0.00000000E+00
  0.00000000E+00  0.00000000E+00  0.00000000E+00
  0.00000000E+00  0.00000000E+00  0.00000000E+00
  0.00000000E+00  0.00000000E+00  0.00000000E+00
  0.00000000E+00  0.00000000E+00  0.00000000E+00
  0.00000000E+00  0.00000000E+00  0.00000000E+00
  0.00000000E+00  0.00000000E+00  0.00000000E+00
  0.00000000E+00  0.00000000E+00  0.00000000E+00
  0.00000000E+00  0.00000000E+00  0.00000000E+00
  0.00000000E+00  0.00000000E+00  0.00000000E+00
  0.00000000E+00  0.00000000E+00  0.00000000E+00
  0.00000000E+00  0.00000000E+00  0.00000000E+00
  0.00000000E+00  0.00000000E+00  0.00000000E+00
  0.00000000E+00  0.00000000E+00  0.00000000E+00
  0.00000000E+00  0.00000000E+00  0.00000000E+00
  0.00000000E+00  0.00000000E+00  0.00000000E+00
  0.00000000E+00  0.00000000E+00  0.00000000E+00
  0.00000000E+00  0.00000000E+00  0.00000000E+00
  0.00000000E+00  0.00000000E+00  0.00000000E+00
  0.00000000E+00  0.00000000E+00  0.00000000E+00
  0.00000000E+00  0.00000000E+00  0.00000000E+00
  0.00000000E+00  0.00000000E+00  0.00000000E+00
  0.00000000E+00  0.00000000E+00  0.00000000E+00
  0.00000000E+00  0.00000000E+00  0.00000000E+00
  0.00000000E+00  0.00000000E+00  0.00000000E+00
  0.00000000E+00  0.00000000E+00  0.00000000E+00
  0.00000000E+00  0.00000000E+00  0.00000000E+00
  0.00000000E+00  0.00000000E+00  0.00000000E+00
  0.00000000E+00  0.00000000E+00  0.00000000E+00
  0.00000000E+00  0.00000000E+00  0.00000000E+00
