Al   Gd   N                             
   1.00000000000000     
    -9.7178897736745125   -0.0057635162535629   -0.0092523488931724
    -4.8651141003880731    8.3949849322543617    0.0020266467555053
     0.0896360372928561   -0.0686558047805548  -10.3835497566199884
   Al   Gd   N 
    31     5    36
Direct
  0.1126354159160741  0.0941454460233899  0.4098861655468511
  0.2190003540956482  0.2090448227961872  0.1446070223088398
  0.8873100072140474  0.2069632810870630  0.6571755661390313
  0.4341871356896831  0.0850097621335593  0.3949993435026826
  0.5392703779972834  0.2154046655801451  0.1515006850693794
  0.1103622483952407  0.1015766734043027  0.8960448712437667
  0.2236436650351692  0.1956072779606899  0.6537233510104699
  0.8904528447730584  0.2204463649012709  0.1532434664380773
  0.4328659397351657  0.1019675400107829  0.8947279702319193
  0.5422532887173404  0.2100955756616329  0.6496764449186898
  0.2255162466386054  0.5461865938502370  0.1461215824748479
  0.7753295420406374  0.4287365859293573  0.8984224131318683
  0.8849936151536539  0.5324631373901099  0.5956657373210774
  0.4458572757701305  0.4400716019831350  0.3946415834032564
  0.5666199236906024  0.5362919642615367  0.1455906824766586
  0.1101653560222715  0.4294756986608093  0.8304723906982900
  0.2274331517470074  0.5433842030317564  0.6538492947278698
  0.7762555267814548  0.4181468551563725  0.4099243867719977
  0.9031031428959153  0.5400279113657191  0.0707016089910724
  0.4372654806999208  0.4332943602181274  0.8999903277392534
  0.5533542612004254  0.5338778683271741  0.6537364992678434
  0.1230574696492326  0.7619380349292939  0.4087624031009298
  0.7802235697600892  0.7510328786455887  0.8334692013391205
  0.8936160267616486  0.8651174955770529  0.6538712132400946
  0.4431786723439828  0.7592574443948124  0.4136892410947226
  0.5583339710374489  0.8740478530546483  0.1159995964067804
  0.1152215304805111  0.7553253187566895  0.8956120839577153
  0.2193886227770108  0.8729406053724986  0.6478068324075537
  0.8997695218881958  0.8693423196986743  0.1458505203312228
  0.4459953551756755  0.7575575758724398  0.8904415537527512
  0.5475289120540054  0.8742078250448628  0.6506423530224978
  0.7713863402685064  0.0961005486320232  0.8990381320926630
  0.7694432715319834  0.0994086684103621  0.3918179568006224
  0.1455614649387940  0.4139923026250401  0.3838481224135961
  0.2303645157169214  0.8765747554023662  0.1612295615609938
  0.7797087006474399  0.7421844855997435  0.3392001916406002
  0.2315789768114342  0.1665023769270064  0.3256444756336379
  0.0962373284850599  0.1224821948892298  0.0770220701178133
  0.8996041076541488  0.2203034180511523  0.8358124939311082
  0.7732547371471341  0.0914969352717634  0.6198756141640231
  0.5040561311985883  0.2285199820279047  0.3341879951860491
  0.4412045838369707  0.0981179283258911  0.0797716558112498
  0.2217751553643623  0.2020158488331134  0.8369510454196316
  0.1053964957495026  0.0980176891171070  0.5958841299276756
  0.9050114791055606  0.2158998470089202  0.3368177150517226
  0.7719217874812898  0.1020097769306503  0.1246827283601206
  0.5179949317429760  0.2249205459875796  0.8307160011530996
  0.4385244218184354  0.0927925296788388  0.5857657182484459
  0.2471536130700756  0.5698507593759743  0.3262235883535354
  0.1133122364977837  0.4335661534287212  0.1358539291924927
  0.8943106442605213  0.5365578770252526  0.8830195927600641
  0.7665028407574681  0.4186106316983640  0.5979464050669634
  0.5660360927329364  0.5376695657112052  0.3390214475491007
  0.4477077350896579  0.4308243926732871  0.0857543206774807
  0.2265784903763404  0.5416801384629153  0.8373770084464596
  0.1119239921574362  0.4265878777108298  0.6353292159823667
  0.8964708758146287  0.5108105993617613  0.4176739446248874
  0.7791369147776450  0.4296807335966761  0.0862311079471070
  0.5555445396414527  0.5343150550442601  0.8380910139150757
  0.4405173869834300  0.4290713199461393  0.5838578318081247
  0.2244445055572228  0.8749068286842387  0.3804477892740223
  0.1048958455301445  0.7539402587312765  0.0753822867945715
  0.9067671312684595  0.8449954588204207  0.8346550647641067
  0.7743176403549725  0.7544675900266640  0.6356850033325685
  0.5236516773533282  0.8781465310787340  0.3363849052390222
  0.4732014778967724  0.7446551992210289  0.0720188888383220
  0.2203524626049074  0.8743231663034052  0.8395449517342044
  0.1097795937448680  0.7578588578600218  0.5937813266989522
  0.9272283642364911  0.8559009887570781  0.3285461175373072
  0.7813706969578931  0.7633364060676158  0.1124767378442471
  0.5494738563774320  0.8780147920408297  0.8401041913033822
  0.4456599720388823  0.7554139569113403  0.6006215946203213
 
  0.00000000E+00  0.00000000E+00  0.00000000E+00
  0.00000000E+00  0.00000000E+00  0.00000000E+00
  0.00000000E+00  0.00000000E+00  0.00000000E+00
  0.00000000E+00  0.00000000E+00  0.00000000E+00
  0.00000000E+00  0.00000000E+00  0.00000000E+00
  0.00000000E+00  0.00000000E+00  0.00000000E+00
  0.00000000E+00  0.00000000E+00  0.00000000E+00
  0.00000000E+00  0.00000000E+00  0.00000000E+00
  0.00000000E+00  0.00000000E+00  0.00000000E+00
  0.00000000E+00  0.00000000E+00  0.00000000E+00
  0.00000000E+00  0.00000000E+00  0.00000000E+00
  0.00000000E+00  0.00000000E+00  0.00000000E+00
  0.00000000E+00  0.00000000E+00  0.00000000E+00
  0.00000000E+00  0.00000000E+00  0.00000000E+00
  0.00000000E+00  0.00000000E+00  0.00000000E+00
  0.00000000E+00  0.00000000E+00  0.00000000E+00
  0.00000000E+00  0.00000000E+00  0.00000000E+00
  0.00000000E+00  0.00000000E+00  0.00000000E+00
  0.00000000E+00  0.00000000E+00  0.00000000E+00
  0.00000000E+00  0.00000000E+00  0.00000000E+00
  0.00000000E+00  0.00000000E+00  0.00000000E+00
  0.00000000E+00  0.00000000E+00  0.00000000E+00
  0.00000000E+00  0.00000000E+00  0.00000000E+00
  0.00000000E+00  0.00000000E+00  0.00000000E+00
  0.00000000E+00  0.00000000E+00  0.00000000E+00
  0.00000000E+00  0.00000000E+00  0.00000000E+00
  0.00000000E+00  0.00000000E+00  0.00000000E+00
  0.00000000E+00  0.00000000E+00  0.00000000E+00
  0.00000000E+00  0.00000000E+00  0.00000000E+00
  0.00000000E+00  0.00000000E+00  0.00000000E+00
  0.00000000E+00  0.00000000E+00  0.00000000E+00
  0.00000000E+00  0.00000000E+00  0.00000000E+00
  0.00000000E+00  0.00000000E+00  0.00000000E+00
  0.00000000E+00  0.00000000E+00  0.00000000E+00
  0.00000000E+00  0.00000000E+00  0.00000000E+00
  0.00000000E+00  0.00000000E+00  0.00000000E+00
  0.00000000E+00  0.00000000E+00  0.00000000E+00
  0.00000000E+00  0.00000000E+00  0.00000000E+00
  0.00000000E+00  0.00000000E+00  0.00000000E+00
  0.00000000E+00  0.00000000E+00  0.00000000E+00
  0.00000000E+00  0.00000000E+00  0.00000000E+00
  0.00000000E+00  0.00000000E+00  0.00000000E+00
  0.00000000E+00  0.00000000E+00  0.00000000E+00
  0.00000000E+00  0.00000000E+00  0.00000000E+00
  0.00000000E+00  0.00000000E+00  0.00000000E+00
  0.00000000E+00  0.00000000E+00  0.00000000E+00
  0.00000000E+00  0.00000000E+00  0.00000000E+00
  0.00000000E+00  0.00000000E+00  0.00000000E+00
  0.00000000E+00  0.00000000E+00  0.00000000E+00
  0.00000000E+00  0.00000000E+00  0.00000000E+00
  0.00000000E+00  0.00000000E+00  0.00000000E+00
  0.00000000E+00  0.00000000E+00  0.00000000E+00
  0.00000000E+00  0.00000000E+00  0.00000000E+00
  0.00000000E+00  0.00000000E+00  0.00000000E+00
  0.00000000E+00  0.00000000E+00  0.00000000E+00
  0.00000000E+00  0.00000000E+00  0.00000000E+00
  0.00000000E+00  0.00000000E+00  0.00000000E+00
  0.00000000E+00  0.00000000E+00  0.00000000E+00
  0.00000000E+00  0.00000000E+00  0.00000000E+00
  0.00000000E+00  0.00000000E+00  0.00000000E+00
  0.00000000E+00  0.00000000E+00  0.00000000E+00
  0.00000000E+00  0.00000000E+00  0.00000000E+00
  0.00000000E+00  0.00000000E+00  0.00000000E+00
  0.00000000E+00  0.00000000E+00  0.00000000E+00
  0.00000000E+00  0.00000000E+00  0.00000000E+00
  0.00000000E+00  0.00000000E+00  0.00000000E+00
  0.00000000E+00  0.00000000E+00  0.00000000E+00
  0.00000000E+00  0.00000000E+00  0.00000000E+00
  0.00000000E+00  0.00000000E+00  0.00000000E+00
  0.00000000E+00  0.00000000E+00  0.00000000E+00
  0.00000000E+00  0.00000000E+00  0.00000000E+00
  0.00000000E+00  0.00000000E+00  0.00000000E+00
