Al   Gd   N                             
   1.00000000000000     
    -9.7016564760744401   -0.0043502939847359    0.0175498809116048
    -4.8468218390775260    8.3707641228477243    0.0008908331435925
     0.0211319465112924    0.0122297026472193  -10.2905706612368704
   Al   Gd   N 
    31     5    36
Direct
  0.1141907742689128  0.0972358521977839  0.3064735561268677
  0.2213641906480959  0.2080700750286226  0.0407284425014254
  0.8912784057486007  0.2104388605267999  0.5467641517860500
  0.4330055355931890  0.0926667489544855  0.3041022734811776
  0.5445061439687180  0.2107097992242686  0.0479643758957380
  0.1152812015242333  0.0964048706370519  0.7932592423206586
  0.2246454269896105  0.2014048271867566  0.5557443141322551
  0.8927105178419055  0.2164558745186014  0.0475856163274599
  0.4367425489365218  0.0974520677479305  0.7992534909670326
  0.5433653419726596  0.2112133402464806  0.5469964122050257
  0.2213046039187034  0.5362534740196452  0.0409827150880204
  0.7787670211185045  0.4314132483109674  0.7989645966250265
  0.8861526151012171  0.5368282214618532  0.5614523700531109
  0.4418767623214777  0.4357592364868523  0.3022989090847759
  0.5637237359160352  0.5355841575391622  0.0530948780904339
  0.1138100731862579  0.4272334271467386  0.7998442141675213
  0.2281810155766664  0.5411856702061755  0.5559944135998123
  0.7768772781983770  0.4278397583461668  0.3024571619175305
  0.8902162063045722  0.5359575094398181  0.0315011802156278
  0.4389828579558639  0.4334436931821486  0.8015631246895936
  0.5576606261190449  0.5350219036462036  0.5512648701482519
  0.1190368650960636  0.7557313494784523  0.3072891486689713
  0.7785895403890422  0.7568287039279369  0.7993900269020529
  0.8939258028769217  0.8661017668685531  0.5521330980691417
  0.4461469756824172  0.7580971847064646  0.3092573893147090
  0.5585348108073376  0.8706032612079184  0.0397344210502908
  0.1173827338899258  0.7562269033504023  0.7914484316768053
  0.2222369677644664  0.8719462404349301  0.5489534603794439
  0.8931692387423666  0.8597442263326514  0.0364390418886273
  0.4449294890394739  0.7590457696400392  0.7927795651163905
  0.5500454556757290  0.8755670602425951  0.5571352093807462
  0.7734601273617301  0.1014486942633823  0.8043800244821284
  0.7749782140942614  0.0974483293145809  0.3033246159309755
  0.1174692391071446  0.4266150924732628  0.3012702741155877
  0.2240873296022059  0.8699872946996763  0.0590417736325861
  0.7674381433778308  0.7589768820376293  0.2937411575001576
  0.2314585945102507  0.1820991111780472  0.3741467344923208
  0.1004499051298282  0.1246508389270673  0.1208108658802232
  0.9083571017962342  0.2218169782450445  0.8646159587463345
  0.7735685099847913  0.0979420655837799  0.5771442361636119
  0.5159333784107289  0.2234766676435953  0.3623027875911262
  0.4432423579338405  0.0910250466189808  0.1106192368807299
  0.2226961483879677  0.2025605326768058  0.8535922002541341
  0.1096965267994108  0.0939776309175571  0.6074511347741165
  0.9032649737486125  0.2183568397246916  0.3642440492857659
  0.7798881098558539  0.0932851293154400  0.0728275701142351
  0.5185151595758342  0.2238593394279391  0.8665757670297296
  0.4440917844406442  0.0955245553707016  0.6147169633820511
  0.2417245251108184  0.5530624318969615  0.3746879477944560
  0.1110821424447508  0.4272880860655022  0.0779301997774198
  0.8895366364036903  0.5373613040030634  0.8460436480436329
  0.7748792841502450  0.4254502928424131  0.6145141974046808
  0.5602109387948886  0.5333884660328110  0.3620146038779879
  0.4426687017869426  0.4320005390232637  0.1110999492407529
  0.2234415277608690  0.5426337106753252  0.8541138373494590
  0.1145493262966326  0.4276896679738016  0.6079047111581275
  0.8763056078790115  0.5260824951105221  0.3805916612380500
  0.7803585502571977  0.4303992015687967  0.1109741930083814
  0.5569004376387241  0.5386626211513672  0.8620081685969154
  0.4480548222560188  0.4269420390387992  0.6148779388940895
  0.2221256369055027  0.8729856102776310  0.3518235060044006
  0.0962941091448215  0.7414333775606821  0.1208821114739536
  0.9080387113969053  0.8432502405638189  0.8532052742201799
  0.7745605124194412  0.7632115385278055  0.6098585627214348
  0.5267445331143108  0.8859865317853490  0.3750496968339618
  0.4795447737734264  0.7462828951064608  0.1226713970284763
  0.2233230111856344  0.8725331355703361  0.8392205120842462
  0.1134736246992034  0.7617715900438498  0.6082930679929675
  0.9158383559753673  0.8506787854082560  0.3727479282825499
  0.7780633210742067  0.7575378230761203  0.0736890552975851
  0.5512413639995515  0.8737461850808259  0.8521317728225810
  0.4450641496598422  0.7569733362225506  0.6062039686913963
 
  0.00000000E+00  0.00000000E+00  0.00000000E+00
  0.00000000E+00  0.00000000E+00  0.00000000E+00
  0.00000000E+00  0.00000000E+00  0.00000000E+00
  0.00000000E+00  0.00000000E+00  0.00000000E+00
  0.00000000E+00  0.00000000E+00  0.00000000E+00
  0.00000000E+00  0.00000000E+00  0.00000000E+00
  0.00000000E+00  0.00000000E+00  0.00000000E+00
  0.00000000E+00  0.00000000E+00  0.00000000E+00
  0.00000000E+00  0.00000000E+00  0.00000000E+00
  0.00000000E+00  0.00000000E+00  0.00000000E+00
  0.00000000E+00  0.00000000E+00  0.00000000E+00
  0.00000000E+00  0.00000000E+00  0.00000000E+00
  0.00000000E+00  0.00000000E+00  0.00000000E+00
  0.00000000E+00  0.00000000E+00  0.00000000E+00
  0.00000000E+00  0.00000000E+00  0.00000000E+00
  0.00000000E+00  0.00000000E+00  0.00000000E+00
  0.00000000E+00  0.00000000E+00  0.00000000E+00
  0.00000000E+00  0.00000000E+00  0.00000000E+00
  0.00000000E+00  0.00000000E+00  0.00000000E+00
  0.00000000E+00  0.00000000E+00  0.00000000E+00
  0.00000000E+00  0.00000000E+00  0.00000000E+00
  0.00000000E+00  0.00000000E+00  0.00000000E+00
  0.00000000E+00  0.00000000E+00  0.00000000E+00
  0.00000000E+00  0.00000000E+00  0.00000000E+00
  0.00000000E+00  0.00000000E+00  0.00000000E+00
  0.00000000E+00  0.00000000E+00  0.00000000E+00
  0.00000000E+00  0.00000000E+00  0.00000000E+00
  0.00000000E+00  0.00000000E+00  0.00000000E+00
  0.00000000E+00  0.00000000E+00  0.00000000E+00
  0.00000000E+00  0.00000000E+00  0.00000000E+00
  0.00000000E+00  0.00000000E+00  0.00000000E+00
  0.00000000E+00  0.00000000E+00  0.00000000E+00
  0.00000000E+00  0.00000000E+00  0.00000000E+00
  0.00000000E+00  0.00000000E+00  0.00000000E+00
  0.00000000E+00  0.00000000E+00  0.00000000E+00
  0.00000000E+00  0.00000000E+00  0.00000000E+00
  0.00000000E+00  0.00000000E+00  0.00000000E+00
  0.00000000E+00  0.00000000E+00  0.00000000E+00
  0.00000000E+00  0.00000000E+00  0.00000000E+00
  0.00000000E+00  0.00000000E+00  0.00000000E+00
  0.00000000E+00  0.00000000E+00  0.00000000E+00
  0.00000000E+00  0.00000000E+00  0.00000000E+00
  0.00000000E+00  0.00000000E+00  0.00000000E+00
  0.00000000E+00  0.00000000E+00  0.00000000E+00
  0.00000000E+00  0.00000000E+00  0.00000000E+00
  0.00000000E+00  0.00000000E+00  0.00000000E+00
  0.00000000E+00  0.00000000E+00  0.00000000E+00
  0.00000000E+00  0.00000000E+00  0.00000000E+00
  0.00000000E+00  0.00000000E+00  0.00000000E+00
  0.00000000E+00  0.00000000E+00  0.00000000E+00
  0.00000000E+00  0.00000000E+00  0.00000000E+00
  0.00000000E+00  0.00000000E+00  0.00000000E+00
  0.00000000E+00  0.00000000E+00  0.00000000E+00
  0.00000000E+00  0.00000000E+00  0.00000000E+00
  0.00000000E+00  0.00000000E+00  0.00000000E+00
  0.00000000E+00  0.00000000E+00  0.00000000E+00
  0.00000000E+00  0.00000000E+00  0.00000000E+00
  0.00000000E+00  0.00000000E+00  0.00000000E+00
  0.00000000E+00  0.00000000E+00  0.00000000E+00
  0.00000000E+00  0.00000000E+00  0.00000000E+00
  0.00000000E+00  0.00000000E+00  0.00000000E+00
  0.00000000E+00  0.00000000E+00  0.00000000E+00
  0.00000000E+00  0.00000000E+00  0.00000000E+00
  0.00000000E+00  0.00000000E+00  0.00000000E+00
  0.00000000E+00  0.00000000E+00  0.00000000E+00
  0.00000000E+00  0.00000000E+00  0.00000000E+00
  0.00000000E+00  0.00000000E+00  0.00000000E+00
  0.00000000E+00  0.00000000E+00  0.00000000E+00
  0.00000000E+00  0.00000000E+00  0.00000000E+00
  0.00000000E+00  0.00000000E+00  0.00000000E+00
  0.00000000E+00  0.00000000E+00  0.00000000E+00
  0.00000000E+00  0.00000000E+00  0.00000000E+00
