Al   Gd   N                             
   1.00000000000000     
    -9.6768406002674201   -0.0047099172618699   -0.0144509757792343
    -4.8308463231385712    8.3669463795326156    0.0018623256440942
     0.2476177169811723   -0.1217779108387213  -10.6359208546825332
   Al   Gd   N 
    31     5    36
Direct
  0.1120522268654938  0.0843683033908604  0.4087770982154595
  0.2275413533720041  0.2175952552877902  0.0522268426346955
  0.8920247653681770  0.2114026251340491  0.6390169688907932
  0.4338810516269049  0.0882726068664468  0.3256095110318498
  0.5495809496097976  0.2071179567093182  0.0723522116974067
  0.1079693912806121  0.0977443134434850  0.8819528790944631
  0.2283615480415762  0.2004876273956739  0.5804032197633262
  0.8960858475541897  0.2232178014066832  0.1312689873399933
  0.4353373149539479  0.0968363292783465  0.8176299364483981
  0.5461123296634298  0.2060310718383320  0.5636088175674558
  0.2289991794149842  0.5465289129182977  0.1371099986925586
  0.7748830018147075  0.4276627167478040  0.8853552371553022
  0.8858163382556086  0.5391630638718823  0.5821508864220064
  0.4370423029527473  0.4410890420604403  0.3900687140694785
  0.5671763277356874  0.5383929113733430  0.1384114966636147
  0.1088278399611369  0.4225546103117992  0.8148234543283621
  0.2278552406838443  0.5380804392445171  0.6449221659937052
  0.7715004699145211  0.4237395647309228  0.4007658430883296
  0.8996872252128867  0.5448649916644612  0.0477419992181893
  0.4327811108111774  0.4379225275944805  0.8978698559033091
  0.5532969570699819  0.5344768767322137  0.6457075382882849
  0.1275951932178430  0.7509028180766606  0.4068040877322332
  0.7782250488513682  0.7546150588166967  0.8155438157720525
  0.8890003185141850  0.8669251461316634  0.5738190956436640
  0.4377787305828775  0.7557411039044766  0.4106016822280480
  0.5649251657842171  0.8765209554450379  0.0513711241043353
  0.1217464696661921  0.7483327222452090  0.8848436645569393
  0.2229727711904417  0.8689208619959814  0.6477605060101013
  0.8896513675468114  0.8693970402006812  0.0524268885968908
  0.4479886449501080  0.7530783431264823  0.8840436087059160
  0.5536842513448548  0.8766483546655266  0.5809107974965713
  0.7624120559593024  0.0979379625087518  0.8258176182606505
  0.7766832012119806  0.0957852107489501  0.3286104327015664
  0.1106805831387092  0.4111278720845846  0.3242560048309073
  0.2291743830421709  0.8798458077792972  0.1453751455803314
  0.7647185974488835  0.7554170120910939  0.3115936047957177
  0.2394185862204381  0.1748279498795497  0.4026995616670135
  0.0983124664621329  0.1219077889480715  0.0617011847623843
  0.9016177646660211  0.2227730308939115  0.8176539535585619
  0.7727199679634893  0.0974929865001570  0.6040607935567124
  0.5196771875666784  0.2169631782303654  0.3830518992526493
  0.4428072495916027  0.0910050506347417  0.1342553047675352
  0.2240293857363085  0.2072197574271684  0.8701753445949976
  0.1075396972453291  0.0883889990913005  0.5904169485936990
  0.9156643137372527  0.2241526759240742  0.3184270367166917
  0.7813210056686657  0.0964244032819721  0.1040005745117014
  0.5167768111464000  0.2166921053256701  0.8960370512241624
  0.4467222482044235  0.0966446773474487  0.6386733313021438
  0.2357590350215162  0.5580524141162826  0.3190850050872598
  0.1152014868691253  0.4320754344622131  0.1072170429389914
  0.8905355351273627  0.5382301086632637  0.8672623175237462
  0.7670036246398766  0.4231975397749252  0.5840177333192855
  0.5597544647300339  0.5387003660028498  0.3294716191756066
  0.4460953867748003  0.4392158627255753  0.0825453116297723
  0.2276860029798371  0.5364182214390070  0.8249894554470387
  0.1091422054546740  0.4222228785708424  0.6305405020146324
  0.8776035985046775  0.5344585428930415  0.4072963165197834
  0.7785630080996313  0.4330516978870662  0.0714364713157138
  0.5550931305272329  0.5308969037944351  0.8280643572258768
  0.4378306967559240  0.4361323333414191  0.5769215572465640
  0.2217121416007544  0.8696728467987711  0.3593988740725180
  0.1132110526440684  0.7486959421195181  0.0660331987002181
  0.8998050047170878  0.8460058434801994  0.8719869962836313
  0.7753508367354414  0.7617989158052154  0.6342123795486216
  0.5311120989211489  0.8853927301378732  0.3999965756171804
  0.4742210263241660  0.7447438673694862  0.0661686845437970
  0.2233187502635303  0.8707940995413210  0.8326373897299533
  0.1196716537092684  0.7527289147663794  0.5912989311647081
  0.9081386038121053  0.8518515713114709  0.3956491219275122
  0.7819491195126744  0.7630342600822217  0.0982926099194188
  0.5559970988788621  0.8770777727101446  0.8689937308124698
  0.4441117018491312  0.7544229174983244  0.5941659344577275
 
  0.00000000E+00  0.00000000E+00  0.00000000E+00
  0.00000000E+00  0.00000000E+00  0.00000000E+00
  0.00000000E+00  0.00000000E+00  0.00000000E+00
  0.00000000E+00  0.00000000E+00  0.00000000E+00
  0.00000000E+00  0.00000000E+00  0.00000000E+00
  0.00000000E+00  0.00000000E+00  0.00000000E+00
  0.00000000E+00  0.00000000E+00  0.00000000E+00
  0.00000000E+00  0.00000000E+00  0.00000000E+00
  0.00000000E+00  0.00000000E+00  0.00000000E+00
  0.00000000E+00  0.00000000E+00  0.00000000E+00
  0.00000000E+00  0.00000000E+00  0.00000000E+00
  0.00000000E+00  0.00000000E+00  0.00000000E+00
  0.00000000E+00  0.00000000E+00  0.00000000E+00
  0.00000000E+00  0.00000000E+00  0.00000000E+00
  0.00000000E+00  0.00000000E+00  0.00000000E+00
  0.00000000E+00  0.00000000E+00  0.00000000E+00
  0.00000000E+00  0.00000000E+00  0.00000000E+00
  0.00000000E+00  0.00000000E+00  0.00000000E+00
  0.00000000E+00  0.00000000E+00  0.00000000E+00
  0.00000000E+00  0.00000000E+00  0.00000000E+00
  0.00000000E+00  0.00000000E+00  0.00000000E+00
  0.00000000E+00  0.00000000E+00  0.00000000E+00
  0.00000000E+00  0.00000000E+00  0.00000000E+00
  0.00000000E+00  0.00000000E+00  0.00000000E+00
  0.00000000E+00  0.00000000E+00  0.00000000E+00
  0.00000000E+00  0.00000000E+00  0.00000000E+00
  0.00000000E+00  0.00000000E+00  0.00000000E+00
  0.00000000E+00  0.00000000E+00  0.00000000E+00
  0.00000000E+00  0.00000000E+00  0.00000000E+00
  0.00000000E+00  0.00000000E+00  0.00000000E+00
  0.00000000E+00  0.00000000E+00  0.00000000E+00
  0.00000000E+00  0.00000000E+00  0.00000000E+00
  0.00000000E+00  0.00000000E+00  0.00000000E+00
  0.00000000E+00  0.00000000E+00  0.00000000E+00
  0.00000000E+00  0.00000000E+00  0.00000000E+00
  0.00000000E+00  0.00000000E+00  0.00000000E+00
  0.00000000E+00  0.00000000E+00  0.00000000E+00
  0.00000000E+00  0.00000000E+00  0.00000000E+00
  0.00000000E+00  0.00000000E+00  0.00000000E+00
  0.00000000E+00  0.00000000E+00  0.00000000E+00
  0.00000000E+00  0.00000000E+00  0.00000000E+00
  0.00000000E+00  0.00000000E+00  0.00000000E+00
  0.00000000E+00  0.00000000E+00  0.00000000E+00
  0.00000000E+00  0.00000000E+00  0.00000000E+00
  0.00000000E+00  0.00000000E+00  0.00000000E+00
  0.00000000E+00  0.00000000E+00  0.00000000E+00
  0.00000000E+00  0.00000000E+00  0.00000000E+00
  0.00000000E+00  0.00000000E+00  0.00000000E+00
  0.00000000E+00  0.00000000E+00  0.00000000E+00
  0.00000000E+00  0.00000000E+00  0.00000000E+00
  0.00000000E+00  0.00000000E+00  0.00000000E+00
  0.00000000E+00  0.00000000E+00  0.00000000E+00
  0.00000000E+00  0.00000000E+00  0.00000000E+00
  0.00000000E+00  0.00000000E+00  0.00000000E+00
  0.00000000E+00  0.00000000E+00  0.00000000E+00
  0.00000000E+00  0.00000000E+00  0.00000000E+00
  0.00000000E+00  0.00000000E+00  0.00000000E+00
  0.00000000E+00  0.00000000E+00  0.00000000E+00
  0.00000000E+00  0.00000000E+00  0.00000000E+00
  0.00000000E+00  0.00000000E+00  0.00000000E+00
  0.00000000E+00  0.00000000E+00  0.00000000E+00
  0.00000000E+00  0.00000000E+00  0.00000000E+00
  0.00000000E+00  0.00000000E+00  0.00000000E+00
  0.00000000E+00  0.00000000E+00  0.00000000E+00
  0.00000000E+00  0.00000000E+00  0.00000000E+00
  0.00000000E+00  0.00000000E+00  0.00000000E+00
  0.00000000E+00  0.00000000E+00  0.00000000E+00
  0.00000000E+00  0.00000000E+00  0.00000000E+00
  0.00000000E+00  0.00000000E+00  0.00000000E+00
  0.00000000E+00  0.00000000E+00  0.00000000E+00
  0.00000000E+00  0.00000000E+00  0.00000000E+00
  0.00000000E+00  0.00000000E+00  0.00000000E+00
