Al   Gd   N                             
   1.00000000000000     
    -9.6982242279011182   -0.0059162823124898   -0.0098599064769772
    -4.8621521521375328    8.3979822653726259    0.0007796926550079
     0.1207392383511347   -0.0519984114187216  -10.4370940793694125
   Al   Gd   N 
    31     5    36
Direct
  0.1151387671055204  0.0920100234228372  0.4097818766892800
  0.2224511186668110  0.2070877766370387  0.1440861227767556
  0.8872951156043030  0.2070961058580849  0.6570702340107673
  0.4331245622922637  0.0908697123153317  0.4026734035858084
  0.5402982896844648  0.2141213739299772  0.1518360270236414
  0.1098140116004629  0.1026068319169369  0.8968449360381214
  0.2218321989986407  0.1978675410548121  0.6548439937106210
  0.8913679926934250  0.2204599097893478  0.1542125091178406
  0.4299545044802784  0.1087597422606592  0.8915917350845675
  0.5420997692902887  0.2127599104529878  0.6516396782266582
  0.2264168908064690  0.5458494988357074  0.1472714579396737
  0.7759721985596002  0.4280411098621073  0.8987826605497773
  0.8832964882526539  0.5359558230168844  0.5945750282304019
  0.4464183197363809  0.4388735890488604  0.3956726696703186
  0.5669859141962590  0.5362753440088781  0.1456689858949289
  0.1085156618609346  0.4312520694412854  0.8285587784639574
  0.2268250001342125  0.5441035690438483  0.6531676815417526
  0.7769592420464875  0.4181081350805869  0.4110027396894438
  0.9058056681714035  0.5387008886717339  0.0674209824258298
  0.4372249437731242  0.4337442040022594  0.9013715327492022
  0.5535478930027793  0.5325139923861997  0.6559156453207180
  0.1202315030546757  0.7609994922992840  0.4078328866709242
  0.7785049796594521  0.7516997211445968  0.8298163025242644
  0.8927807585338670  0.8655519877464286  0.6546097161466236
  0.4386269945675068  0.7538169455970944  0.4218030845589311
  0.5693454954859973  0.8707076461664442  0.0564969040284069
  0.1144683931460122  0.7550603502460262  0.8965688369444820
  0.2175781092067268  0.8729890123327380  0.6513498107070319
  0.9005816903693074  0.8685335577314603  0.1456395285665053
  0.4441385331388616  0.7553007715492370  0.8876524089198554
  0.5512359387039965  0.8723930651152685  0.6034969787165281
  0.7725292670866395  0.0951964597346944  0.9001843179378497
  0.7717194699900674  0.0955057204991405  0.3922158577988739
  0.1416546589990872  0.4147145840821622  0.3805349709315493
  0.2327517271833131  0.8766796641707728  0.1591319382413872
  0.7660056967164408  0.7405696442930676  0.3226305002038075
  0.2373880601721865  0.1610240552296034  0.3243651369313696
  0.0966578064743331  0.1231544991543458  0.0769767352146289
  0.8993537099191684  0.2202266309231575  0.8353371605970992
  0.7728924550720961  0.0919045656979947  0.6193660340306053
  0.5065893321544763  0.2271024865108728  0.3346032121259839
  0.4418903460201165  0.0998698796755519  0.0780597522611259
  0.2192506605686901  0.2042953236329339  0.8368130347233418
  0.1062349190010963  0.0971344970270849  0.5954237212131446
  0.9062246037997639  0.2158900060496975  0.3375629541154268
  0.7736830457283617  0.1013294272137273  0.1255640017242996
  0.5194397578512948  0.2272688286838118  0.8315461819832137
  0.4333719295953884  0.1045201337301620  0.5925107033053649
  0.2471166680216257  0.5680897674124878  0.3275406721778253
  0.1138875040225997  0.4328643218359502  0.1373155867873876
  0.8942472146501714  0.5362696637541120  0.8822916148405611
  0.7667361042321303  0.4191677222480621  0.5976699155182317
  0.5657580172193732  0.5388399032740168  0.3394342795226706
  0.4480003615199379  0.4306932036719218  0.0867807572861423
  0.2265600350330104  0.5422020210676379  0.8368717398401841
  0.1097303219661256  0.4286711384453810  0.6349379080409747
  0.8919896157105569  0.5179149180737710  0.4171742970533217
  0.7801305130177809  0.4296944996435101  0.0866813866080633
  0.5564173067296281  0.5327491250577907  0.8393001254825165
  0.4405419589842410  0.4297486012694449  0.5840222804460566
  0.2237361351056606  0.8732196939580845  0.3772180731677963
  0.1062242046089139  0.7533310086971099  0.0761259324260948
  0.9070410075748327  0.8453783727267492  0.8343588224518683
  0.7724611422870851  0.7548857434697425  0.6420474082225880
  0.5352225107820914  0.8749932078334410  0.4087745781501866
  0.4750382338705919  0.7433496945812692  0.0732498840596492
  0.2185865728467178  0.8753654829494408  0.8412859613059993
  0.1081761013539619  0.7590224845295523  0.5928548469387778
  0.9218847251860325  0.8490281691706230  0.3284936124500106
  0.7830015091042952  0.7638640591817776  0.1039351004325724
  0.5538802476646865  0.8775089073092630  0.8663353908039682
  0.4407090630692636  0.7521626959017667  0.6083587400087112
 
  0.00000000E+00  0.00000000E+00  0.00000000E+00
  0.00000000E+00  0.00000000E+00  0.00000000E+00
  0.00000000E+00  0.00000000E+00  0.00000000E+00
  0.00000000E+00  0.00000000E+00  0.00000000E+00
  0.00000000E+00  0.00000000E+00  0.00000000E+00
  0.00000000E+00  0.00000000E+00  0.00000000E+00
  0.00000000E+00  0.00000000E+00  0.00000000E+00
  0.00000000E+00  0.00000000E+00  0.00000000E+00
  0.00000000E+00  0.00000000E+00  0.00000000E+00
  0.00000000E+00  0.00000000E+00  0.00000000E+00
  0.00000000E+00  0.00000000E+00  0.00000000E+00
  0.00000000E+00  0.00000000E+00  0.00000000E+00
  0.00000000E+00  0.00000000E+00  0.00000000E+00
  0.00000000E+00  0.00000000E+00  0.00000000E+00
  0.00000000E+00  0.00000000E+00  0.00000000E+00
  0.00000000E+00  0.00000000E+00  0.00000000E+00
  0.00000000E+00  0.00000000E+00  0.00000000E+00
  0.00000000E+00  0.00000000E+00  0.00000000E+00
  0.00000000E+00  0.00000000E+00  0.00000000E+00
  0.00000000E+00  0.00000000E+00  0.00000000E+00
  0.00000000E+00  0.00000000E+00  0.00000000E+00
  0.00000000E+00  0.00000000E+00  0.00000000E+00
  0.00000000E+00  0.00000000E+00  0.00000000E+00
  0.00000000E+00  0.00000000E+00  0.00000000E+00
  0.00000000E+00  0.00000000E+00  0.00000000E+00
  0.00000000E+00  0.00000000E+00  0.00000000E+00
  0.00000000E+00  0.00000000E+00  0.00000000E+00
  0.00000000E+00  0.00000000E+00  0.00000000E+00
  0.00000000E+00  0.00000000E+00  0.00000000E+00
  0.00000000E+00  0.00000000E+00  0.00000000E+00
  0.00000000E+00  0.00000000E+00  0.00000000E+00
  0.00000000E+00  0.00000000E+00  0.00000000E+00
  0.00000000E+00  0.00000000E+00  0.00000000E+00
  0.00000000E+00  0.00000000E+00  0.00000000E+00
  0.00000000E+00  0.00000000E+00  0.00000000E+00
  0.00000000E+00  0.00000000E+00  0.00000000E+00
  0.00000000E+00  0.00000000E+00  0.00000000E+00
  0.00000000E+00  0.00000000E+00  0.00000000E+00
  0.00000000E+00  0.00000000E+00  0.00000000E+00
  0.00000000E+00  0.00000000E+00  0.00000000E+00
  0.00000000E+00  0.00000000E+00  0.00000000E+00
  0.00000000E+00  0.00000000E+00  0.00000000E+00
  0.00000000E+00  0.00000000E+00  0.00000000E+00
  0.00000000E+00  0.00000000E+00  0.00000000E+00
  0.00000000E+00  0.00000000E+00  0.00000000E+00
  0.00000000E+00  0.00000000E+00  0.00000000E+00
  0.00000000E+00  0.00000000E+00  0.00000000E+00
  0.00000000E+00  0.00000000E+00  0.00000000E+00
  0.00000000E+00  0.00000000E+00  0.00000000E+00
  0.00000000E+00  0.00000000E+00  0.00000000E+00
  0.00000000E+00  0.00000000E+00  0.00000000E+00
  0.00000000E+00  0.00000000E+00  0.00000000E+00
  0.00000000E+00  0.00000000E+00  0.00000000E+00
  0.00000000E+00  0.00000000E+00  0.00000000E+00
  0.00000000E+00  0.00000000E+00  0.00000000E+00
  0.00000000E+00  0.00000000E+00  0.00000000E+00
  0.00000000E+00  0.00000000E+00  0.00000000E+00
  0.00000000E+00  0.00000000E+00  0.00000000E+00
  0.00000000E+00  0.00000000E+00  0.00000000E+00
  0.00000000E+00  0.00000000E+00  0.00000000E+00
  0.00000000E+00  0.00000000E+00  0.00000000E+00
  0.00000000E+00  0.00000000E+00  0.00000000E+00
  0.00000000E+00  0.00000000E+00  0.00000000E+00
  0.00000000E+00  0.00000000E+00  0.00000000E+00
  0.00000000E+00  0.00000000E+00  0.00000000E+00
  0.00000000E+00  0.00000000E+00  0.00000000E+00
  0.00000000E+00  0.00000000E+00  0.00000000E+00
  0.00000000E+00  0.00000000E+00  0.00000000E+00
  0.00000000E+00  0.00000000E+00  0.00000000E+00
  0.00000000E+00  0.00000000E+00  0.00000000E+00
  0.00000000E+00  0.00000000E+00  0.00000000E+00
  0.00000000E+00  0.00000000E+00  0.00000000E+00
