Al   Gd   N                             
   1.00000000000000     
    -9.6804096096104235   -0.0038670552384965   -0.0145762225257616
    -4.7974062729848006    8.3530954300261673    0.0054961447894895
     0.2744629935309008   -0.0615086293530627  -10.6661234920923746
   Al   Gd   N 
    31     5    36
Direct
  0.1153219061295658  0.0844447327982678  0.4103606626072533
  0.2268768267727239  0.2154269218429121  0.0527473400309759
  0.8936237109627356  0.2103575076975019  0.6372866212021790
  0.4344316984290089  0.0895446641222080  0.3255725753606313
  0.5518570741562741  0.2055853341746143  0.0764537112402905
  0.1056224286105234  0.0959290218727631  0.8825391198532202
  0.2300037945212878  0.2014472749244618  0.5822645183113480
  0.8962570338720752  0.2203476739676020  0.1331462502914889
  0.4327158927695649  0.0990934159236545  0.8186503427508498
  0.5412616808531823  0.2162554880357206  0.5593476348427657
  0.2194822117089004  0.5498313372014820  0.1315426843404737
  0.7758171685891853  0.4248495877993079  0.8860815482887290
  0.8856904588474492  0.5395099363013642  0.5836291191602925
  0.4457997656556145  0.4336188928378704  0.3180106886927305
  0.5730258703253313  0.5408072081483866  0.1352263438933150
  0.1055769582556039  0.4225446882344528  0.8168143117123066
  0.2280738754389304  0.5361352443142522  0.6495770392799756
  0.7722865255538380  0.4242994367332358  0.4020779514772244
  0.8985066113407214  0.5449092898798256  0.0470264489025425
  0.4330335629565525  0.4350916033899495  0.8764646229706301
  0.5539454452645600  0.5321777925485804  0.6483583862369855
  0.1316607119426081  0.7468747717604103  0.4086884431459126
  0.7771829570870850  0.7556759374988573  0.8163632185621807
  0.8914258881035977  0.8635453326681173  0.5721447158370978
  0.4397464512759157  0.7550049972001034  0.4129293272125594
  0.5645199865079888  0.8774531769918852  0.0512998575765238
  0.1173756442664953  0.7532851892519759  0.8850785519648809
  0.2247044130862861  0.8676390207000608  0.6476971844365238
  0.8864869020187669  0.8740792543627052  0.0524529460044718
  0.4467315248540302  0.7554051208405994  0.8846123389194886
  0.5546069272438956  0.8778117629241606  0.5822501842795020
  0.7525067753450756  0.1001236711327138  0.8143164072424227
  0.7827406962380934  0.0928182569004008  0.3371767114834370
  0.1091825480281798  0.4125667530952342  0.3246613926458295
  0.2302991966943111  0.8774443122346227  0.1482271942437379
  0.7633658970401669  0.7552347719031332  0.3106608114823857
  0.2418492114157118  0.1765150811016056  0.4048125319705989
  0.0976156403405994  0.1189929311328370  0.0621729379961948
  0.8984725216047522  0.2193348815869598  0.8169017231294191
  0.7749878290905983  0.0961799173733908  0.5946182521951400
  0.5187870832220085  0.2244009603623240  0.3772909365431474
  0.4419811423267603  0.0895429229848119  0.1350947174985180
  0.2221089440970516  0.2063404227609738  0.8711411457232998
  0.1094169729555929  0.0883630980206931  0.5912291869314998
  0.9184923563932088  0.2247957061649046  0.3197436612360178
  0.7812097625707040  0.0954452613283578  0.1107171111426908
  0.5141477443571461  0.2196906811195447  0.9021799694998904
  0.4492228544372452  0.0974904694541152  0.6397423526771675
  0.2300525902517805  0.5627367367652525  0.3128462273024084
  0.1129602068477098  0.4303513739145970  0.1061492307710310
  0.8885820686595096  0.5383609757626715  0.8673919875327911
  0.7667890349999880  0.4235246640581636  0.5847226440536986
  0.5647429645045392  0.5444729979812735  0.3247480071782292
  0.4503908744400036  0.4314418384914589  0.1134473237111138
  0.2194380797757347  0.5402090384574549  0.8315043439061256
  0.1079028941807394  0.4221240290485682  0.6336999902763409
  0.8783040550655414  0.5353430512163015  0.4093044063987534
  0.7810827302346084  0.4301375600180606  0.0705095095119717
  0.5562717734980893  0.5336848132511136  0.8330527917784707
  0.4424377088748059  0.4254602026515428  0.6127888494046587
  0.2234467117565231  0.8692661401757817  0.3622637548257543
  0.1103997384771205  0.7525002054535648  0.0641325291036026
  0.8950639165576106  0.8523951856103196  0.8720702625511976
  0.7760161116265820  0.7620810984776583  0.6357643263150123
  0.5323510069413757  0.8871013726616184  0.4019931031352613
  0.4728481634048762  0.7460708454327971  0.0652124768692772
  0.2233261684839007  0.8704313465011495  0.8318650401156447
  0.1217904949750164  0.7501743581049070  0.5922923001365703
  0.9121964033001717  0.8449028402302829  0.3952777204114355
  0.7818195933379641  0.7627831298399670  0.0972565465274897
  0.5552530860086193  0.8792078540785795  0.8694478579360734
  0.4460268850898359  0.7530662108984316  0.5954426898214962
 
  0.00000000E+00  0.00000000E+00  0.00000000E+00
  0.00000000E+00  0.00000000E+00  0.00000000E+00
  0.00000000E+00  0.00000000E+00  0.00000000E+00
  0.00000000E+00  0.00000000E+00  0.00000000E+00
  0.00000000E+00  0.00000000E+00  0.00000000E+00
  0.00000000E+00  0.00000000E+00  0.00000000E+00
  0.00000000E+00  0.00000000E+00  0.00000000E+00
  0.00000000E+00  0.00000000E+00  0.00000000E+00
  0.00000000E+00  0.00000000E+00  0.00000000E+00
  0.00000000E+00  0.00000000E+00  0.00000000E+00
  0.00000000E+00  0.00000000E+00  0.00000000E+00
  0.00000000E+00  0.00000000E+00  0.00000000E+00
  0.00000000E+00  0.00000000E+00  0.00000000E+00
  0.00000000E+00  0.00000000E+00  0.00000000E+00
  0.00000000E+00  0.00000000E+00  0.00000000E+00
  0.00000000E+00  0.00000000E+00  0.00000000E+00
  0.00000000E+00  0.00000000E+00  0.00000000E+00
  0.00000000E+00  0.00000000E+00  0.00000000E+00
  0.00000000E+00  0.00000000E+00  0.00000000E+00
  0.00000000E+00  0.00000000E+00  0.00000000E+00
  0.00000000E+00  0.00000000E+00  0.00000000E+00
  0.00000000E+00  0.00000000E+00  0.00000000E+00
  0.00000000E+00  0.00000000E+00  0.00000000E+00
  0.00000000E+00  0.00000000E+00  0.00000000E+00
  0.00000000E+00  0.00000000E+00  0.00000000E+00
  0.00000000E+00  0.00000000E+00  0.00000000E+00
  0.00000000E+00  0.00000000E+00  0.00000000E+00
  0.00000000E+00  0.00000000E+00  0.00000000E+00
  0.00000000E+00  0.00000000E+00  0.00000000E+00
  0.00000000E+00  0.00000000E+00  0.00000000E+00
  0.00000000E+00  0.00000000E+00  0.00000000E+00
  0.00000000E+00  0.00000000E+00  0.00000000E+00
  0.00000000E+00  0.00000000E+00  0.00000000E+00
  0.00000000E+00  0.00000000E+00  0.00000000E+00
  0.00000000E+00  0.00000000E+00  0.00000000E+00
  0.00000000E+00  0.00000000E+00  0.00000000E+00
  0.00000000E+00  0.00000000E+00  0.00000000E+00
  0.00000000E+00  0.00000000E+00  0.00000000E+00
  0.00000000E+00  0.00000000E+00  0.00000000E+00
  0.00000000E+00  0.00000000E+00  0.00000000E+00
  0.00000000E+00  0.00000000E+00  0.00000000E+00
  0.00000000E+00  0.00000000E+00  0.00000000E+00
  0.00000000E+00  0.00000000E+00  0.00000000E+00
  0.00000000E+00  0.00000000E+00  0.00000000E+00
  0.00000000E+00  0.00000000E+00  0.00000000E+00
  0.00000000E+00  0.00000000E+00  0.00000000E+00
  0.00000000E+00  0.00000000E+00  0.00000000E+00
  0.00000000E+00  0.00000000E+00  0.00000000E+00
  0.00000000E+00  0.00000000E+00  0.00000000E+00
  0.00000000E+00  0.00000000E+00  0.00000000E+00
  0.00000000E+00  0.00000000E+00  0.00000000E+00
  0.00000000E+00  0.00000000E+00  0.00000000E+00
  0.00000000E+00  0.00000000E+00  0.00000000E+00
  0.00000000E+00  0.00000000E+00  0.00000000E+00
  0.00000000E+00  0.00000000E+00  0.00000000E+00
  0.00000000E+00  0.00000000E+00  0.00000000E+00
  0.00000000E+00  0.00000000E+00  0.00000000E+00
  0.00000000E+00  0.00000000E+00  0.00000000E+00
  0.00000000E+00  0.00000000E+00  0.00000000E+00
  0.00000000E+00  0.00000000E+00  0.00000000E+00
  0.00000000E+00  0.00000000E+00  0.00000000E+00
  0.00000000E+00  0.00000000E+00  0.00000000E+00
  0.00000000E+00  0.00000000E+00  0.00000000E+00
  0.00000000E+00  0.00000000E+00  0.00000000E+00
  0.00000000E+00  0.00000000E+00  0.00000000E+00
  0.00000000E+00  0.00000000E+00  0.00000000E+00
  0.00000000E+00  0.00000000E+00  0.00000000E+00
  0.00000000E+00  0.00000000E+00  0.00000000E+00
  0.00000000E+00  0.00000000E+00  0.00000000E+00
  0.00000000E+00  0.00000000E+00  0.00000000E+00
  0.00000000E+00  0.00000000E+00  0.00000000E+00
  0.00000000E+00  0.00000000E+00  0.00000000E+00
