Al   Gd   N                             
   1.00000000000000     
    -9.6791629403147290   -0.0067237600525321   -0.0130712822770880
    -4.8371928094853684    8.3706092411993627   -0.0058113504476208
     0.0807116189925595   -0.1363161958339630  -10.6123498851484968
   Al   Gd   N 
    31     5    36
Direct
  0.1126088759985890  0.0857787501254421  0.4179852626700296
  0.2267261110988485  0.2144925338239645  0.0666447021322583
  0.8925561621310081  0.2096059070854608  0.6589586362665969
  0.4312937664285386  0.0865590208111868  0.3306017071011453
  0.5485443427885741  0.2110603825130255  0.1534783546778158
  0.1119542133327869  0.0981860594595929  0.8951295932362342
  0.2282642193658617  0.1979222711680677  0.5896010960426992
  0.8943257254764703  0.2183528921325006  0.1515577060999718
  0.4351091894569521  0.0921328993576580  0.8250152650535014
  0.5443592816784459  0.2143087328881492  0.6563357037189022
  0.2287887199195211  0.5439726189496525  0.1434201391346832
  0.7756059794501837  0.4317192721314171  0.8970363647017479
  0.8862011843108135  0.5363776360407186  0.5921700235238916
  0.4369197500672399  0.4389066758771705  0.3957411842845318
  0.5669562869943761  0.5345708120559252  0.1468951683196664
  0.1101394579225072  0.4227663194458842  0.8269132237923031
  0.2290078909810305  0.5355092586299008  0.6543706996839092
  0.7727463919014781  0.4265896032132162  0.4081370070943180
  0.8998671542832994  0.5413371231111981  0.0623788859817580
  0.4350570453335294  0.4338924631330272  0.9016424118818236
  0.5546542765407239  0.5323698723991726  0.6532395263863648
  0.1232258376956423  0.7578561774256158  0.4196494515710043
  0.7762967379978392  0.7550802576992055  0.8262534910380310
  0.8924630764483652  0.8658667930079602  0.6235759305496131
  0.4387237815174814  0.7547712562275066  0.4174522610191715
  0.5632013663007882  0.8739450227074599  0.0629693449857740
  0.1182791406132679  0.7507072639618428  0.8903105475316195
  0.2248728907601958  0.8682996488697157  0.6574491777979077
  0.8899743816698660  0.8681311849730875  0.0827254707935978
  0.4479171005264533  0.7527585926140432  0.8940879785290790
  0.5537881643373552  0.8734395416271710  0.5876145441493321
  0.7706992248728284  0.1085276566781275  0.8860935132662249
  0.7673602938030513  0.1152696818596084  0.4061482743182410
  0.1150414102553512  0.4153676002363724  0.3385755035757043
  0.2268533887797304  0.8752572008777619  0.1558206627116334
  0.7694683418059327  0.7623395866140470  0.3264026448296207
  0.2396200286443602  0.1769999723404112  0.4123734513672801
  0.0966063994298523  0.1185982234096272  0.0755654460942949
  0.9073253587448775  0.2269952226776368  0.8320377797093599
  0.7725931951321527  0.0977652886050961  0.6303941982235557
  0.5143679859930046  0.2286839573311141  0.3310534898016186
  0.4387699561377332  0.0838929017914793  0.1392606301412584
  0.2275148716478910  0.2086412424275110  0.8857861259025555
  0.1055775799442884  0.0872118741797934  0.6004406788403145
  0.9141054445020274  0.2218888368293506  0.3322474579049839
  0.7784858287744356  0.0944064383038992  0.1151224445932186
  0.5188487839456712  0.2300214096713731  0.8340943455047807
  0.4413636588226453  0.0869681514411980  0.6458419974801473
  0.2349536348910561  0.5667219118610873  0.3269474858822008
  0.1145734333952433  0.4299131398918021  0.1215240036921088
  0.8920979929761614  0.5404897194067146  0.8819244226325793
  0.7687867658849115  0.4176539809383328  0.5925877608991428
  0.5606259120611696  0.5376454825135113  0.3379551631885604
  0.4487390870138412  0.4270761270180330  0.0854993744143613
  0.2271445475274447  0.5379708629481144  0.8352030245829170
  0.1096750249298140  0.4203852108961428  0.6414556819045529
  0.8782778579153359  0.5364912826117987  0.4169527644331552
  0.7793244731539275  0.4276426935233388  0.0835399694952699
  0.5569674297236915  0.5326241944145806  0.8366500874916412
  0.4422674825542074  0.4250482133035334  0.5826790674115045
  0.2234975696439818  0.8714906717574635  0.3698166415788862
  0.1089038834039044  0.7464135225531123  0.0713546860115954
  0.9013621462101753  0.8500532827066820  0.8546935012980299
  0.7720226021849825  0.7562958253530638  0.6450876270031998
  0.5309296077008909  0.8860061988306285  0.4072104549163882
  0.4729147458711793  0.7403268239835512  0.0757471532352341
  0.2246944053530413  0.8722119563983952  0.8429011177689674
  0.1222789544084648  0.7505506204825707  0.6040569357341354
  0.9059976821668343  0.8622332548044795  0.4099763345015290
  0.7806711135072675  0.7609767133733456  0.1099925835916480
  0.5565794190087061  0.8773544720413824  0.8820975278309575
  0.4448860125152976  0.7501070091102733  0.6009054108302010
 
  0.00000000E+00  0.00000000E+00  0.00000000E+00
  0.00000000E+00  0.00000000E+00  0.00000000E+00
  0.00000000E+00  0.00000000E+00  0.00000000E+00
  0.00000000E+00  0.00000000E+00  0.00000000E+00
  0.00000000E+00  0.00000000E+00  0.00000000E+00
  0.00000000E+00  0.00000000E+00  0.00000000E+00
  0.00000000E+00  0.00000000E+00  0.00000000E+00
  0.00000000E+00  0.00000000E+00  0.00000000E+00
  0.00000000E+00  0.00000000E+00  0.00000000E+00
  0.00000000E+00  0.00000000E+00  0.00000000E+00
  0.00000000E+00  0.00000000E+00  0.00000000E+00
  0.00000000E+00  0.00000000E+00  0.00000000E+00
  0.00000000E+00  0.00000000E+00  0.00000000E+00
  0.00000000E+00  0.00000000E+00  0.00000000E+00
  0.00000000E+00  0.00000000E+00  0.00000000E+00
  0.00000000E+00  0.00000000E+00  0.00000000E+00
  0.00000000E+00  0.00000000E+00  0.00000000E+00
  0.00000000E+00  0.00000000E+00  0.00000000E+00
  0.00000000E+00  0.00000000E+00  0.00000000E+00
  0.00000000E+00  0.00000000E+00  0.00000000E+00
  0.00000000E+00  0.00000000E+00  0.00000000E+00
  0.00000000E+00  0.00000000E+00  0.00000000E+00
  0.00000000E+00  0.00000000E+00  0.00000000E+00
  0.00000000E+00  0.00000000E+00  0.00000000E+00
  0.00000000E+00  0.00000000E+00  0.00000000E+00
  0.00000000E+00  0.00000000E+00  0.00000000E+00
  0.00000000E+00  0.00000000E+00  0.00000000E+00
  0.00000000E+00  0.00000000E+00  0.00000000E+00
  0.00000000E+00  0.00000000E+00  0.00000000E+00
  0.00000000E+00  0.00000000E+00  0.00000000E+00
  0.00000000E+00  0.00000000E+00  0.00000000E+00
  0.00000000E+00  0.00000000E+00  0.00000000E+00
  0.00000000E+00  0.00000000E+00  0.00000000E+00
  0.00000000E+00  0.00000000E+00  0.00000000E+00
  0.00000000E+00  0.00000000E+00  0.00000000E+00
  0.00000000E+00  0.00000000E+00  0.00000000E+00
  0.00000000E+00  0.00000000E+00  0.00000000E+00
  0.00000000E+00  0.00000000E+00  0.00000000E+00
  0.00000000E+00  0.00000000E+00  0.00000000E+00
  0.00000000E+00  0.00000000E+00  0.00000000E+00
  0.00000000E+00  0.00000000E+00  0.00000000E+00
  0.00000000E+00  0.00000000E+00  0.00000000E+00
  0.00000000E+00  0.00000000E+00  0.00000000E+00
  0.00000000E+00  0.00000000E+00  0.00000000E+00
  0.00000000E+00  0.00000000E+00  0.00000000E+00
  0.00000000E+00  0.00000000E+00  0.00000000E+00
  0.00000000E+00  0.00000000E+00  0.00000000E+00
  0.00000000E+00  0.00000000E+00  0.00000000E+00
  0.00000000E+00  0.00000000E+00  0.00000000E+00
  0.00000000E+00  0.00000000E+00  0.00000000E+00
  0.00000000E+00  0.00000000E+00  0.00000000E+00
  0.00000000E+00  0.00000000E+00  0.00000000E+00
  0.00000000E+00  0.00000000E+00  0.00000000E+00
  0.00000000E+00  0.00000000E+00  0.00000000E+00
  0.00000000E+00  0.00000000E+00  0.00000000E+00
  0.00000000E+00  0.00000000E+00  0.00000000E+00
  0.00000000E+00  0.00000000E+00  0.00000000E+00
  0.00000000E+00  0.00000000E+00  0.00000000E+00
  0.00000000E+00  0.00000000E+00  0.00000000E+00
  0.00000000E+00  0.00000000E+00  0.00000000E+00
  0.00000000E+00  0.00000000E+00  0.00000000E+00
  0.00000000E+00  0.00000000E+00  0.00000000E+00
  0.00000000E+00  0.00000000E+00  0.00000000E+00
  0.00000000E+00  0.00000000E+00  0.00000000E+00
  0.00000000E+00  0.00000000E+00  0.00000000E+00
  0.00000000E+00  0.00000000E+00  0.00000000E+00
  0.00000000E+00  0.00000000E+00  0.00000000E+00
  0.00000000E+00  0.00000000E+00  0.00000000E+00
  0.00000000E+00  0.00000000E+00  0.00000000E+00
  0.00000000E+00  0.00000000E+00  0.00000000E+00
  0.00000000E+00  0.00000000E+00  0.00000000E+00
  0.00000000E+00  0.00000000E+00  0.00000000E+00
