Al   Gd   N                             
   1.00000000000000     
    -9.6705048429462686   -0.0025082472163623   -0.0028928366628734
    -4.7763513106633164    8.3947828538097085    0.0104192565299121
     0.1734051747151213   -0.0739063950586847  -10.6045856935643581
   Al   Gd   N 
    31     5    36
Direct
  0.1209946258488515  0.0782428270147051  0.4033755763560478
  0.2265918168669998  0.2154034246901517  0.0375174367204991
  0.8886410734963732  0.2041293910411284  0.5727739821207436
  0.4337715749083557  0.0921009996246411  0.3134524571546464
  0.5444734471311321  0.2138206378215557  0.0554711242092552
  0.1151852135395544  0.0956756101093887  0.8612244817483159
  0.2299009484791128  0.2061062160195988  0.5706127948109625
  0.8826809014295307  0.2133534446423155  0.0344845698883418
  0.4371570112163710  0.0991052609928573  0.8037422293440741
  0.5460881986428276  0.2109916299248056  0.5512731183251418
  0.2226223059609111  0.5390211680383530  0.0521040112172031
  0.7707322679210407  0.4355141929217652  0.8547105208082684
  0.8905934238522519  0.5419188041712530  0.5753009305399956
  0.4390330774306008  0.4333804565451231  0.3089069484781959
  0.5711420540107213  0.5374420521740362  0.1267000318611196
  0.1141178587106779  0.4292849839937389  0.8043982052124647
  0.2270913151983436  0.5418634838490064  0.5623426548185932
  0.7650437165887922  0.4331539627145702  0.4006906588975667
  0.8934138469588788  0.5405193799476251  0.0329455704905257
  0.4330904514531468  0.4293448464074245  0.8084245667030174
  0.5531252138535407  0.5412066392221817  0.6351958944263387
  0.1156706617236054  0.7515793496755521  0.3173481594887591
  0.7808720899545918  0.7561354499803770  0.8049503415554682
  0.8964950739666335  0.8655797860291443  0.5574733465592701
  0.4337247810565259  0.7566412686801129  0.3950094181709858
  0.5657588731343424  0.8769166839148781  0.0404098768882122
  0.1155192918674786  0.7504147798944487  0.8073953838907002
  0.2284339197638303  0.8710087476181769  0.6379542248674355
  0.8968853005245734  0.8592909423294799  0.0464701685924709
  0.4504964124582358  0.7538555988693574  0.8744952419074536
  0.5545442435823276  0.8784408363166136  0.5664466554865228
  0.7645219613482723  0.0890665849638168  0.8061401409356250
  0.7808980851514278  0.0978168981222822  0.3053159582616232
  0.1129368171621223  0.4184475960840430  0.3058456373529168
  0.2303455115680748  0.8810050439008137  0.1223331966048278
  0.7640262729057881  0.7555444830193281  0.3008238937057683
  0.2359965195018390  0.1826045655708839  0.3890353991658912
  0.1007660350720059  0.1201687514481975  0.0472211156355868
  0.8941381052554647  0.2159290965995524  0.8450888025892098
  0.7726624292709019  0.0936094580461742  0.5889482686605092
  0.5233967649960078  0.2218252897236255  0.3706273511784843
  0.4419225622091290  0.0916828718922957  0.1197294408797660
  0.2254359031048025  0.2100810612580304  0.8534979815286334
  0.1168593743236030  0.0872127476856619  0.5897964096080628
  0.9026515458255844  0.2156772884201743  0.3858040917735579
  0.7788270133296749  0.0938059972780039  0.0794286957230170
  0.5160437547606449  0.2268943427875314  0.8792358747885771
  0.4489514949837456  0.0959168206533647  0.6243204186677715
  0.2399192695381416  0.5493541102812856  0.3838610297341276
  0.1108992514878722  0.4288322110184097  0.0872129390307919
  0.8920768176117519  0.5386654655010901  0.8493461886383713
  0.7679172824776757  0.4311586810602748  0.5885236458189880
  0.5625018194654317  0.5439112207504948  0.3181303582843640
  0.4407415712864946  0.4294218201683719  0.1235291956340845
  0.2241829987372768  0.5416244721911454  0.8688440253097696
  0.1154554739418856  0.4294942530745658  0.6203121906222719
  0.8823861940681823  0.5329241765376835  0.3974922010413309
  0.7738371538628854  0.4329853553806373  0.0549569904043352
  0.5528252388285679  0.5421700134529388  0.8146680548646117
  0.4418519846601541  0.4216807057705623  0.6241932528604792
  0.2212465504516885  0.8717354934442412  0.3377018385026389
  0.0974692866126077  0.7431574964807055  0.1307080697063441
  0.9112461129589846  0.8384486843634704  0.8697027793741725
  0.7761735324773724  0.7663072406909066  0.6220350625533371
  0.5285564043579996  0.8883465918971680  0.3859823575936829
  0.4772939347986664  0.7417034702873906  0.0539831306922096
  0.2298409740796075  0.8708189540791125  0.8243081819267317
  0.1109557911516177  0.7576211386681138  0.6262211969149689
  0.9128016661562981  0.8523388105707781  0.3819852819737264
  0.7798822858528993  0.7580358678063206  0.0864237164850223
  0.5586183754747012  0.8809849119999740  0.8576945455177167
  0.4421730522578358  0.7550456628638145  0.5774420542336216
 
  0.00000000E+00  0.00000000E+00  0.00000000E+00
  0.00000000E+00  0.00000000E+00  0.00000000E+00
  0.00000000E+00  0.00000000E+00  0.00000000E+00
  0.00000000E+00  0.00000000E+00  0.00000000E+00
  0.00000000E+00  0.00000000E+00  0.00000000E+00
  0.00000000E+00  0.00000000E+00  0.00000000E+00
  0.00000000E+00  0.00000000E+00  0.00000000E+00
  0.00000000E+00  0.00000000E+00  0.00000000E+00
  0.00000000E+00  0.00000000E+00  0.00000000E+00
  0.00000000E+00  0.00000000E+00  0.00000000E+00
  0.00000000E+00  0.00000000E+00  0.00000000E+00
  0.00000000E+00  0.00000000E+00  0.00000000E+00
  0.00000000E+00  0.00000000E+00  0.00000000E+00
  0.00000000E+00  0.00000000E+00  0.00000000E+00
  0.00000000E+00  0.00000000E+00  0.00000000E+00
  0.00000000E+00  0.00000000E+00  0.00000000E+00
  0.00000000E+00  0.00000000E+00  0.00000000E+00
  0.00000000E+00  0.00000000E+00  0.00000000E+00
  0.00000000E+00  0.00000000E+00  0.00000000E+00
  0.00000000E+00  0.00000000E+00  0.00000000E+00
  0.00000000E+00  0.00000000E+00  0.00000000E+00
  0.00000000E+00  0.00000000E+00  0.00000000E+00
  0.00000000E+00  0.00000000E+00  0.00000000E+00
  0.00000000E+00  0.00000000E+00  0.00000000E+00
  0.00000000E+00  0.00000000E+00  0.00000000E+00
  0.00000000E+00  0.00000000E+00  0.00000000E+00
  0.00000000E+00  0.00000000E+00  0.00000000E+00
  0.00000000E+00  0.00000000E+00  0.00000000E+00
  0.00000000E+00  0.00000000E+00  0.00000000E+00
  0.00000000E+00  0.00000000E+00  0.00000000E+00
  0.00000000E+00  0.00000000E+00  0.00000000E+00
  0.00000000E+00  0.00000000E+00  0.00000000E+00
  0.00000000E+00  0.00000000E+00  0.00000000E+00
  0.00000000E+00  0.00000000E+00  0.00000000E+00
  0.00000000E+00  0.00000000E+00  0.00000000E+00
  0.00000000E+00  0.00000000E+00  0.00000000E+00
  0.00000000E+00  0.00000000E+00  0.00000000E+00
  0.00000000E+00  0.00000000E+00  0.00000000E+00
  0.00000000E+00  0.00000000E+00  0.00000000E+00
  0.00000000E+00  0.00000000E+00  0.00000000E+00
  0.00000000E+00  0.00000000E+00  0.00000000E+00
  0.00000000E+00  0.00000000E+00  0.00000000E+00
  0.00000000E+00  0.00000000E+00  0.00000000E+00
  0.00000000E+00  0.00000000E+00  0.00000000E+00
  0.00000000E+00  0.00000000E+00  0.00000000E+00
  0.00000000E+00  0.00000000E+00  0.00000000E+00
  0.00000000E+00  0.00000000E+00  0.00000000E+00
  0.00000000E+00  0.00000000E+00  0.00000000E+00
  0.00000000E+00  0.00000000E+00  0.00000000E+00
  0.00000000E+00  0.00000000E+00  0.00000000E+00
  0.00000000E+00  0.00000000E+00  0.00000000E+00
  0.00000000E+00  0.00000000E+00  0.00000000E+00
  0.00000000E+00  0.00000000E+00  0.00000000E+00
  0.00000000E+00  0.00000000E+00  0.00000000E+00
  0.00000000E+00  0.00000000E+00  0.00000000E+00
  0.00000000E+00  0.00000000E+00  0.00000000E+00
  0.00000000E+00  0.00000000E+00  0.00000000E+00
  0.00000000E+00  0.00000000E+00  0.00000000E+00
  0.00000000E+00  0.00000000E+00  0.00000000E+00
  0.00000000E+00  0.00000000E+00  0.00000000E+00
  0.00000000E+00  0.00000000E+00  0.00000000E+00
  0.00000000E+00  0.00000000E+00  0.00000000E+00
  0.00000000E+00  0.00000000E+00  0.00000000E+00
  0.00000000E+00  0.00000000E+00  0.00000000E+00
  0.00000000E+00  0.00000000E+00  0.00000000E+00
  0.00000000E+00  0.00000000E+00  0.00000000E+00
  0.00000000E+00  0.00000000E+00  0.00000000E+00
  0.00000000E+00  0.00000000E+00  0.00000000E+00
  0.00000000E+00  0.00000000E+00  0.00000000E+00
  0.00000000E+00  0.00000000E+00  0.00000000E+00
  0.00000000E+00  0.00000000E+00  0.00000000E+00
  0.00000000E+00  0.00000000E+00  0.00000000E+00
