Al   Gd   N                             
   1.00000000000000     
    -9.6841181569233559   -0.0066484999156288   -0.0141629082622214
    -4.8485861103138905    8.3814455579294389   -0.0064954583903152
     0.0970701928667756   -0.1723004045896009  -10.6020224285399021
   Al   Gd   N 
    31     5    36
Direct
  0.1145632714187883  0.0847391041242957  0.4063117092247666
  0.2260781405777124  0.2155172852029636  0.0525868426090952
  0.8916289202140533  0.2090045109192005  0.6434044179318334
  0.4319278280001413  0.0856615438363733  0.3177472067072671
  0.5473985175613976  0.2111208473284023  0.1395268913685825
  0.1111906248889838  0.0994382618399072  0.8805748118520142
  0.2290050099700665  0.1979398032743163  0.5777973013592828
  0.8943992346565963  0.2202470901861773  0.1372772173402907
  0.4359650125551369  0.0920652657380288  0.8121362757365560
  0.5463550641571047  0.2130873958935098  0.6415047604827038
  0.2290171971960007  0.5435238749651816  0.1334215105605949
  0.7748267380837675  0.4326184526727133  0.8820955863888216
  0.8860485668079292  0.5378996790506605  0.5814986857790316
  0.4369447070751775  0.4370306418511731  0.3848136486591116
  0.5661213978631565  0.5346007953465559  0.1338690182412563
  0.1094700806892916  0.4230918066295999  0.8139113497358323
  0.2280642789810443  0.5364421788121021  0.6421338480884415
  0.7720911786410483  0.4281999860988819  0.3968404049548511
  0.8987941116974909  0.5412838141507379  0.0488697082272083
  0.4339148048784978  0.4341101227122479  0.8890593220843215
  0.5538373523250328  0.5327697101815971  0.6408817574113144
  0.1272281484728381  0.7544463275607853  0.4066921048093448
  0.7772529683950751  0.7583201556298889  0.8155214555195087
  0.8902486033792059  0.8668056899763457  0.5840495015362066
  0.4394067976992062  0.7542025672798971  0.4051395745609980
  0.5631113722269561  0.8728634869008189  0.0503230192333390
  0.1190990587758520  0.7501956079200554  0.8828012055196197
  0.2239624704553549  0.8684294033493671  0.6457671349985148
  0.8896493685546076  0.8635097711055266  0.0585461690132618
  0.4472954409214438  0.7527278431912947  0.8814710083888286
  0.5545725878732597  0.8735628276118632  0.5759023479907626
  0.7704163972383000  0.1115053895404472  0.8749543810785241
  0.7707533072333206  0.1139105861936045  0.3788488440453790
  0.1127977133052980  0.4128416828507966  0.3255913792083547
  0.2261436368212131  0.8787133143443597  0.1425399853808926
  0.7704218441760560  0.7620646022059177  0.3126198093880248
  0.2411578362404114  0.1756558156149808  0.4003275360146432
  0.0952950594295743  0.1210084354235974  0.0607030788288796
  0.9069440073541131  0.2276298883450423  0.8168622932534362
  0.7733561749762288  0.0968841729217544  0.6108919077486661
  0.5141754108506618  0.2279515409418025  0.3180650960633002
  0.4378854596275090  0.0839139729509526  0.1258176864552496
  0.2275408067704916  0.2090089600614959  0.8715240741268460
  0.1066247400483036  0.0869582167612037  0.5882406008391854
  0.9174114064939758  0.2246658137886612  0.3188483594208265
  0.7788737192684749  0.0938202000483912  0.1066545702773993
  0.5197513328377568  0.2298608003429550  0.8207918178909921
  0.4422007987036167  0.0870055035368935  0.6329482310190286
  0.2345588680280528  0.5623436634731434  0.3172501839364514
  0.1138083851420006  0.4303857753436233  0.1083226493265528
  0.8909574810205356  0.5412576886439595  0.8673617077357818
  0.7684122259693851  0.4194042430564338  0.5808720262968947
  0.5603156637958975  0.5362698185124657  0.3258973460903150
  0.4482893384090261  0.4266173784970846  0.0731696644806306
  0.2251358083988038  0.5393350295144259  0.8232123261085249
  0.1098855148570266  0.4206347429664561  0.6284475394142675
  0.8763593871695434  0.5391651268603468  0.4057909205838968
  0.7781488164873238  0.4280401574134416  0.0691957680677433
  0.5554783397371850  0.5327856134150792  0.8240839093911845
  0.4418173750861385  0.4254277183782875  0.5710751932795759
  0.2237459216213651  0.8704358831581018  0.3569756586291177
  0.1123915764238959  0.7453493417169668  0.0646546973164206
  0.8962315768807372  0.8511519581060583  0.8725034137479781
  0.7751652689522928  0.7600011615035953  0.6338827718462170
  0.5321935850790425  0.8847809883124853  0.3943611026365019
  0.4723102270322173  0.7401166951485436  0.0632331274128006
  0.2231106331075736  0.8723080395580567  0.8313055713658670
  0.1219592474826996  0.7509714469693662  0.5918303368693643
  0.9079529928699586  0.8597466810871737  0.4015184612164902
  0.7793312542127495  0.7589089974557268  0.0988454206835243
  0.5556165355811871  0.8771013537845533  0.8689094110905131
  0.4451309221691417  0.7507114405052917  0.5890231445156857
 
  0.00000000E+00  0.00000000E+00  0.00000000E+00
  0.00000000E+00  0.00000000E+00  0.00000000E+00
  0.00000000E+00  0.00000000E+00  0.00000000E+00
  0.00000000E+00  0.00000000E+00  0.00000000E+00
  0.00000000E+00  0.00000000E+00  0.00000000E+00
  0.00000000E+00  0.00000000E+00  0.00000000E+00
  0.00000000E+00  0.00000000E+00  0.00000000E+00
  0.00000000E+00  0.00000000E+00  0.00000000E+00
  0.00000000E+00  0.00000000E+00  0.00000000E+00
  0.00000000E+00  0.00000000E+00  0.00000000E+00
  0.00000000E+00  0.00000000E+00  0.00000000E+00
  0.00000000E+00  0.00000000E+00  0.00000000E+00
  0.00000000E+00  0.00000000E+00  0.00000000E+00
  0.00000000E+00  0.00000000E+00  0.00000000E+00
  0.00000000E+00  0.00000000E+00  0.00000000E+00
  0.00000000E+00  0.00000000E+00  0.00000000E+00
  0.00000000E+00  0.00000000E+00  0.00000000E+00
  0.00000000E+00  0.00000000E+00  0.00000000E+00
  0.00000000E+00  0.00000000E+00  0.00000000E+00
  0.00000000E+00  0.00000000E+00  0.00000000E+00
  0.00000000E+00  0.00000000E+00  0.00000000E+00
  0.00000000E+00  0.00000000E+00  0.00000000E+00
  0.00000000E+00  0.00000000E+00  0.00000000E+00
  0.00000000E+00  0.00000000E+00  0.00000000E+00
  0.00000000E+00  0.00000000E+00  0.00000000E+00
  0.00000000E+00  0.00000000E+00  0.00000000E+00
  0.00000000E+00  0.00000000E+00  0.00000000E+00
  0.00000000E+00  0.00000000E+00  0.00000000E+00
  0.00000000E+00  0.00000000E+00  0.00000000E+00
  0.00000000E+00  0.00000000E+00  0.00000000E+00
  0.00000000E+00  0.00000000E+00  0.00000000E+00
  0.00000000E+00  0.00000000E+00  0.00000000E+00
  0.00000000E+00  0.00000000E+00  0.00000000E+00
  0.00000000E+00  0.00000000E+00  0.00000000E+00
  0.00000000E+00  0.00000000E+00  0.00000000E+00
  0.00000000E+00  0.00000000E+00  0.00000000E+00
  0.00000000E+00  0.00000000E+00  0.00000000E+00
  0.00000000E+00  0.00000000E+00  0.00000000E+00
  0.00000000E+00  0.00000000E+00  0.00000000E+00
  0.00000000E+00  0.00000000E+00  0.00000000E+00
  0.00000000E+00  0.00000000E+00  0.00000000E+00
  0.00000000E+00  0.00000000E+00  0.00000000E+00
  0.00000000E+00  0.00000000E+00  0.00000000E+00
  0.00000000E+00  0.00000000E+00  0.00000000E+00
  0.00000000E+00  0.00000000E+00  0.00000000E+00
  0.00000000E+00  0.00000000E+00  0.00000000E+00
  0.00000000E+00  0.00000000E+00  0.00000000E+00
  0.00000000E+00  0.00000000E+00  0.00000000E+00
  0.00000000E+00  0.00000000E+00  0.00000000E+00
  0.00000000E+00  0.00000000E+00  0.00000000E+00
  0.00000000E+00  0.00000000E+00  0.00000000E+00
  0.00000000E+00  0.00000000E+00  0.00000000E+00
  0.00000000E+00  0.00000000E+00  0.00000000E+00
  0.00000000E+00  0.00000000E+00  0.00000000E+00
  0.00000000E+00  0.00000000E+00  0.00000000E+00
  0.00000000E+00  0.00000000E+00  0.00000000E+00
  0.00000000E+00  0.00000000E+00  0.00000000E+00
  0.00000000E+00  0.00000000E+00  0.00000000E+00
  0.00000000E+00  0.00000000E+00  0.00000000E+00
  0.00000000E+00  0.00000000E+00  0.00000000E+00
  0.00000000E+00  0.00000000E+00  0.00000000E+00
  0.00000000E+00  0.00000000E+00  0.00000000E+00
  0.00000000E+00  0.00000000E+00  0.00000000E+00
  0.00000000E+00  0.00000000E+00  0.00000000E+00
  0.00000000E+00  0.00000000E+00  0.00000000E+00
  0.00000000E+00  0.00000000E+00  0.00000000E+00
  0.00000000E+00  0.00000000E+00  0.00000000E+00
  0.00000000E+00  0.00000000E+00  0.00000000E+00
  0.00000000E+00  0.00000000E+00  0.00000000E+00
  0.00000000E+00  0.00000000E+00  0.00000000E+00
  0.00000000E+00  0.00000000E+00  0.00000000E+00
  0.00000000E+00  0.00000000E+00  0.00000000E+00
