Sc   Al   N                             
   1.00000000000000     
    -9.6447742703890711    0.0103458893943279   -0.0044157131601747
    -4.8313397884321478    8.3466946644029445   -0.0064572075046944
    -0.0048404510103864    0.0052800410614577   -9.9594142111779309
   Sc   Al   N 
     8    28    36
Direct
  0.1096938674597965  0.0958278278330766  0.3160345535169427
  0.2220119923676904  0.2139750355856336  0.0523379011960969
  0.1095654335010678  0.0946552358753721  0.7903662218980614
  0.7738428471928032  0.4340680440506475  0.2974715181022134
  0.5533724914755851  0.5362665954515364  0.5649321808001986
  0.2208169538080185  0.8661893568642256  0.0569641441552946
  0.8881326524613229  0.8734527581317906  0.5578458464843621
  0.5604279377226788  0.8701396475496423  0.0555568889904947
  0.7700772216520448  0.1003723673729411  0.7998479805319008
  0.8832995886502530  0.2079353534680664  0.5460713430795607
  0.4498149458453895  0.0984854255033412  0.3021532708051780
  0.5575942157147011  0.2076753818119741  0.0469590620393845
  0.2267341456238015  0.2110610362982044  0.5452230928654629
  0.7732386495158465  0.0929212335685463  0.2929467237049224
  0.8811056267158150  0.2085506993457287  0.0439732952611607
  0.4486167900368798  0.0948209136325815  0.7901833166446721
  0.5532022612584839  0.2071324717300911  0.5456370808725524
  0.1127988723144071  0.4368979701180606  0.2989601098119010
  0.2199431461770232  0.5394746502775973  0.0476300996104086
  0.7810070344917008  0.4277050592097567  0.7997027553890277
  0.8937844765533001  0.5373440957966835  0.5491313804594853
  0.4422213838300024  0.4276612557196842  0.2951149755137621
  0.5565626990267063  0.5336283185230428  0.0381931527660413
  0.1123045287250832  0.4321654228897103  0.7929876393832842
  0.2244208174111648  0.5344772244408276  0.5451182528741114
  0.8914241793157700  0.5403822681249508  0.0437404326549995
  0.4395315554252477  0.4230469744901484  0.7992310885847829
  0.1085647605165363  0.7547706128386764  0.2963452540105251
  0.7753721108053853  0.7587270374473860  0.7956331468138629
  0.4469061907319087  0.7525002157393388  0.2996880858400104
  0.1174025354636257  0.7534236952290740  0.7963282131543750
  0.2265527697707341  0.8657958410800717  0.5412678630786374
  0.7836371674522482  0.7612248826214341  0.2968340552556583
  0.8894704532692970  0.8702759343693742  0.0447707117918554
  0.4437267797625779  0.7644996005011180  0.7928788617897098
  0.5535413343393358  0.8734867018859163  0.5445322786106956
  0.2321108365633719  0.2191569609933524  0.3537927756361654
  0.0938574019395659  0.1053499127651847  0.1025634203283019
  0.8735070961611058  0.2117557288454179  0.8547203232124048
  0.7660675482245196  0.1137363516174901  0.6105654401452227
  0.5571467953535745  0.2074091926204744  0.3545107741455027
  0.4546902911367354  0.1034273700591370  0.1144956751469692
  0.2302813094622138  0.2130028184493256  0.8409053593860634
  0.1121666622166728  0.0934695536272443  0.5745511031354624
  0.8710933700738153  0.2028299064863148  0.3587693545195378
  0.7772860443573038  0.0934229577453607  0.0998523691035373
  0.5536176167969984  0.2043184378577649  0.8562717925383510
  0.4486223222003929  0.0928046903924766  0.5981942013606627
  0.2248113659153788  0.5387335685675367  0.3541413777714055
  0.1019877529669131  0.4458730051995801  0.1093822704774325
  0.8918808571649492  0.5389186706872025  0.8524189368323363
  0.7986155041648928  0.4186134542716999  0.6070262258346659
  0.5415714000892677  0.5405895144409030  0.3570575395008220
  0.4442892095103446  0.4279000341374370  0.0997589401442909
  0.2212947972102413  0.5379844025994132  0.8566013908939638
  0.1113579527676833  0.4309119074487313  0.6028664184039272
  0.8982375454572278  0.5478067953855188  0.3595476989847555
  0.7763962585321380  0.4302095380224173  0.0863182748502638
  0.5537158097028438  0.5389003834349353  0.8400970792572551
  0.4329020160761985  0.4156599872270590  0.6107062413099200
  0.2291879234195875  0.8520668307176891  0.3487303629748624
  0.1012058422878610  0.7517285197439278  0.1066411371658091
  0.8891324675459629  0.8716378889510352  0.8454909901225562
  0.7683339273432708  0.7524496189237766  0.6062300454037626
  0.5563616201833455  0.8703947186705534  0.3486638057980471
  0.4566355164773270  0.7395554311749564  0.1107221135486753
  0.2290182313582534  0.8580525074102212  0.8482122919392410
  0.1301331706229689  0.7493681086790502  0.6056884683921311
  0.8874558126868166  0.8747450525508853  0.3475408798598991
  0.7945723390787407  0.7525119552907924  0.1058845335254972
  0.5541208836868989  0.8740110048695655  0.8449041116500169
  0.4356140848804131  0.7796760747593723  0.6035834983586525
 
  0.00000000E+00  0.00000000E+00  0.00000000E+00
  0.00000000E+00  0.00000000E+00  0.00000000E+00
  0.00000000E+00  0.00000000E+00  0.00000000E+00
  0.00000000E+00  0.00000000E+00  0.00000000E+00
  0.00000000E+00  0.00000000E+00  0.00000000E+00
  0.00000000E+00  0.00000000E+00  0.00000000E+00
  0.00000000E+00  0.00000000E+00  0.00000000E+00
  0.00000000E+00  0.00000000E+00  0.00000000E+00
  0.00000000E+00  0.00000000E+00  0.00000000E+00
  0.00000000E+00  0.00000000E+00  0.00000000E+00
  0.00000000E+00  0.00000000E+00  0.00000000E+00
  0.00000000E+00  0.00000000E+00  0.00000000E+00
  0.00000000E+00  0.00000000E+00  0.00000000E+00
  0.00000000E+00  0.00000000E+00  0.00000000E+00
  0.00000000E+00  0.00000000E+00  0.00000000E+00
  0.00000000E+00  0.00000000E+00  0.00000000E+00
  0.00000000E+00  0.00000000E+00  0.00000000E+00
  0.00000000E+00  0.00000000E+00  0.00000000E+00
  0.00000000E+00  0.00000000E+00  0.00000000E+00
  0.00000000E+00  0.00000000E+00  0.00000000E+00
  0.00000000E+00  0.00000000E+00  0.00000000E+00
  0.00000000E+00  0.00000000E+00  0.00000000E+00
  0.00000000E+00  0.00000000E+00  0.00000000E+00
  0.00000000E+00  0.00000000E+00  0.00000000E+00
  0.00000000E+00  0.00000000E+00  0.00000000E+00
  0.00000000E+00  0.00000000E+00  0.00000000E+00
  0.00000000E+00  0.00000000E+00  0.00000000E+00
  0.00000000E+00  0.00000000E+00  0.00000000E+00
  0.00000000E+00  0.00000000E+00  0.00000000E+00
  0.00000000E+00  0.00000000E+00  0.00000000E+00
  0.00000000E+00  0.00000000E+00  0.00000000E+00
  0.00000000E+00  0.00000000E+00  0.00000000E+00
  0.00000000E+00  0.00000000E+00  0.00000000E+00
  0.00000000E+00  0.00000000E+00  0.00000000E+00
  0.00000000E+00  0.00000000E+00  0.00000000E+00
  0.00000000E+00  0.00000000E+00  0.00000000E+00
  0.00000000E+00  0.00000000E+00  0.00000000E+00
  0.00000000E+00  0.00000000E+00  0.00000000E+00
  0.00000000E+00  0.00000000E+00  0.00000000E+00
  0.00000000E+00  0.00000000E+00  0.00000000E+00
  0.00000000E+00  0.00000000E+00  0.00000000E+00
  0.00000000E+00  0.00000000E+00  0.00000000E+00
  0.00000000E+00  0.00000000E+00  0.00000000E+00
  0.00000000E+00  0.00000000E+00  0.00000000E+00
  0.00000000E+00  0.00000000E+00  0.00000000E+00
  0.00000000E+00  0.00000000E+00  0.00000000E+00
  0.00000000E+00  0.00000000E+00  0.00000000E+00
  0.00000000E+00  0.00000000E+00  0.00000000E+00
  0.00000000E+00  0.00000000E+00  0.00000000E+00
  0.00000000E+00  0.00000000E+00  0.00000000E+00
  0.00000000E+00  0.00000000E+00  0.00000000E+00
  0.00000000E+00  0.00000000E+00  0.00000000E+00
  0.00000000E+00  0.00000000E+00  0.00000000E+00
  0.00000000E+00  0.00000000E+00  0.00000000E+00
  0.00000000E+00  0.00000000E+00  0.00000000E+00
  0.00000000E+00  0.00000000E+00  0.00000000E+00
  0.00000000E+00  0.00000000E+00  0.00000000E+00
  0.00000000E+00  0.00000000E+00  0.00000000E+00
  0.00000000E+00  0.00000000E+00  0.00000000E+00
  0.00000000E+00  0.00000000E+00  0.00000000E+00
  0.00000000E+00  0.00000000E+00  0.00000000E+00
  0.00000000E+00  0.00000000E+00  0.00000000E+00
  0.00000000E+00  0.00000000E+00  0.00000000E+00
  0.00000000E+00  0.00000000E+00  0.00000000E+00
  0.00000000E+00  0.00000000E+00  0.00000000E+00
  0.00000000E+00  0.00000000E+00  0.00000000E+00
  0.00000000E+00  0.00000000E+00  0.00000000E+00
  0.00000000E+00  0.00000000E+00  0.00000000E+00
  0.00000000E+00  0.00000000E+00  0.00000000E+00
  0.00000000E+00  0.00000000E+00  0.00000000E+00
  0.00000000E+00  0.00000000E+00  0.00000000E+00
  0.00000000E+00  0.00000000E+00  0.00000000E+00
