generated by phonopy                    
   1.00000000000000     
    10.0351470768999995   -0.0000022330999784   -0.0000001056124209
    -5.0175765436399997    8.6906901959899994    0.0000001395531216
    -0.0000001735893656    0.0000001431815548   14.9533752540999991
   Pb   P    O 
    20    13    49
Direct
  0.0056682796442189  0.7791932261361723  0.1211059265081715
  0.9955888143658314  0.7653188567753091  0.6231886831721027
  0.0086762584808611  0.2606250545161117  0.3784618168128731
  0.0048522213140814  0.2606920288619392  0.8711482172659899
  0.2197477001360753  0.2307273233668639  0.1202604768829616
  0.2255369914424890  0.2195715690875986  0.6240273463888357
  0.7383871677244329  0.7421655915339613  0.3731660033535604
  0.7400915143286042  0.7431926873419030  0.8732979879216387
  0.7754501071331603  0.0084243730155080  0.1205182428909737
  0.7741082489149349  0.0003828682850369  0.6237469829812454
  0.2576520822040322  0.9970282405862392  0.3738806540244042
  0.2563513028983166  0.9965175335277294  0.8724919146115582
  0.6654650132833879  0.3185202317859890  0.9983746675388616
  0.6627990149692948  0.3326886898135797  0.5034120228256427
  0.3281270734391768  0.6739207585550133  0.0014717298420379
  0.3377973942681507  0.6617840897745566  0.5038643884503031
  0.3264574683214292  0.6739235552255636  0.2447084160364241
  0.3375900809857200  0.6637330696249322  0.7439383055055018
  0.6819119012208006  0.3179964932364996  0.2555734643067140
  0.6657871337883563  0.3342153651359396  0.7476059114205498
  0.6410365439905092  0.6431412938905794  0.1240103093621627
  0.6210298661006917  0.5890137371028530  0.6243456479511522
  0.3690003465879670  0.3901389169732568  0.3721378013618022
  0.3689908560199271  0.3925147110778227  0.8758912052202206
  0.3954977053122519  0.0227353506748571  0.1236217627333360
  0.4047010361682197  0.0255423348357269  0.6242049370167706
  0.6027016519879922  0.9687577146610167  0.3808184495101230
  0.6033120476873535  0.9706333138764975  0.8676226899793207
  0.9741242575840872  0.3802875067076741  0.1235632875470714
  0.9760127763604132  0.3732190944402873  0.6246209887896299
  0.0260635641111975  0.6313207837336847  0.3726700029197261
  0.0236425351702252  0.6310079373076576  0.8749837396870177
  0.5307837638739556  0.4025308107087469  0.1330756665644088
  0.5174821043833759  0.6945596228422559  0.1221763749925415
  0.4997226870386058  0.6433373162024267  0.6242240403121357
  0.4675499392930860  0.3098907366673131  0.3750744663608856
  0.4676734240779936  0.3123352625805538  0.8749522513029291
  0.3366277762450167  0.8453154104890501  0.1225293573872221
  0.3544978358722091  0.8510908733085785  0.6239332959040453
  0.6824741707751514  0.1457423725602425  0.3916260536792606
  0.6839098312197436  0.1478901823186050  0.8589659218196886
  0.1504833584753555  0.5006686959972981  0.1231131991997074
  0.1497145048187818  0.4997543265549567  0.6244626539572735
  0.8473726302678841  0.5348934257800551  0.3679232228843219
  0.8451522817494208  0.5345218463438357  0.8794360467461004
  0.7471154322962050  0.6998497512238018  0.0391655329131595
  0.7261892751761039  0.6476887491555559  0.5395235793314939
  0.2670043335863994  0.3553486215828556  0.4585575405777718
  0.2569815183419806  0.3434599132072051  0.9578399469697700
  0.3418901616368117  0.0697909912022112  0.0369867436727560
  0.3430892686708873  0.0701261044437587  0.5394457836205575
  0.6303829546639790  0.8900610458331357  0.4638615214154029
  0.6579817397366341  0.9204210860716273  0.9523024277914018
  0.9292722675873932  0.2743334152673356  0.0387820378613313
  0.9350888196078699  0.2666112987357678  0.5405404083667307
  0.0822932673612726  0.7407661653181421  0.4554227240424069
  0.0951263845606505  0.7355566694402143  0.9597872274776122
  0.2530395304364745  0.3352208259342362  0.2921287935354613
  0.2642630066119267  0.3521045591024716  0.7908250179520380
  0.7534889838828107  0.7150039100024657  0.2054890651029879
  0.7275118293169314  0.6501087134170191  0.7085382284603199
  0.6612699063974503  0.9213538863243116  0.2969261905517300
  0.6344817197972716  0.8939040647466285  0.7849322691984000
  0.3262139462496805  0.0619752717330115  0.2061263869640726
  0.3398741887825523  0.0682670849684968  0.7082844275624609
  0.0978653161460485  0.7354248304701727  0.2879028721181669
  0.0811224060601177  0.7412626156711255  0.7924602005908881
  0.9312199572201578  0.2735508384933851  0.2081723141992100
  0.9350537773646792  0.2659827942344535  0.7084610100727531
  0.5375581755712631  0.4084131260250530  0.6251503317396114
  0.4767145747460759  0.5708089534450167  0.3661979578956291
  0.4773259005265871  0.5732895915976428  0.8785606280372562
  0.5758287808879317  0.1144840715683628  0.1276389200823544
  0.5849847285323548  0.1284389424336965  0.6251613805769054
  0.4221640261466106  0.8982582807665267  0.3712465139704477
  0.4223632401567556  0.8993239189300510  0.8744147570008280
  0.8747943192981467  0.4612378425602515  0.1249224817747461
  0.8721376509210401  0.4491703522862664  0.6249803702891157
  0.0967621904069844  0.5214495400625552  0.3779391574597071
  0.0949867493896690  0.5217908962268112  0.8695902944914451
  0.0079975174945588  0.0101127104520700  0.1093669006725051
  0.9973134852837049  0.9925506157649835  0.6220046776701409
 
  0.00000000E+00  0.00000000E+00  0.00000000E+00
  0.00000000E+00  0.00000000E+00  0.00000000E+00
  0.00000000E+00  0.00000000E+00  0.00000000E+00
  0.00000000E+00  0.00000000E+00  0.00000000E+00
  0.00000000E+00  0.00000000E+00  0.00000000E+00
  0.00000000E+00  0.00000000E+00  0.00000000E+00
  0.00000000E+00  0.00000000E+00  0.00000000E+00
  0.00000000E+00  0.00000000E+00  0.00000000E+00
  0.00000000E+00  0.00000000E+00  0.00000000E+00
  0.00000000E+00  0.00000000E+00  0.00000000E+00
  0.00000000E+00  0.00000000E+00  0.00000000E+00
  0.00000000E+00  0.00000000E+00  0.00000000E+00
  0.00000000E+00  0.00000000E+00  0.00000000E+00
  0.00000000E+00  0.00000000E+00  0.00000000E+00
  0.00000000E+00  0.00000000E+00  0.00000000E+00
  0.00000000E+00  0.00000000E+00  0.00000000E+00
  0.00000000E+00  0.00000000E+00  0.00000000E+00
  0.00000000E+00  0.00000000E+00  0.00000000E+00
  0.00000000E+00  0.00000000E+00  0.00000000E+00
  0.00000000E+00  0.00000000E+00  0.00000000E+00
  0.00000000E+00  0.00000000E+00  0.00000000E+00
  0.00000000E+00  0.00000000E+00  0.00000000E+00
  0.00000000E+00  0.00000000E+00  0.00000000E+00
  0.00000000E+00  0.00000000E+00  0.00000000E+00
  0.00000000E+00  0.00000000E+00  0.00000000E+00
  0.00000000E+00  0.00000000E+00  0.00000000E+00
  0.00000000E+00  0.00000000E+00  0.00000000E+00
  0.00000000E+00  0.00000000E+00  0.00000000E+00
  0.00000000E+00  0.00000000E+00  0.00000000E+00
  0.00000000E+00  0.00000000E+00  0.00000000E+00
  0.00000000E+00  0.00000000E+00  0.00000000E+00
  0.00000000E+00  0.00000000E+00  0.00000000E+00
  0.00000000E+00  0.00000000E+00  0.00000000E+00
  0.00000000E+00  0.00000000E+00  0.00000000E+00
  0.00000000E+00  0.00000000E+00  0.00000000E+00
  0.00000000E+00  0.00000000E+00  0.00000000E+00
  0.00000000E+00  0.00000000E+00  0.00000000E+00
  0.00000000E+00  0.00000000E+00  0.00000000E+00
  0.00000000E+00  0.00000000E+00  0.00000000E+00
  0.00000000E+00  0.00000000E+00  0.00000000E+00
  0.00000000E+00  0.00000000E+00  0.00000000E+00
  0.00000000E+00  0.00000000E+00  0.00000000E+00
  0.00000000E+00  0.00000000E+00  0.00000000E+00
  0.00000000E+00  0.00000000E+00  0.00000000E+00
  0.00000000E+00  0.00000000E+00  0.00000000E+00
  0.00000000E+00  0.00000000E+00  0.00000000E+00
  0.00000000E+00  0.00000000E+00  0.00000000E+00
  0.00000000E+00  0.00000000E+00  0.00000000E+00
  0.00000000E+00  0.00000000E+00  0.00000000E+00
  0.00000000E+00  0.00000000E+00  0.00000000E+00
  0.00000000E+00  0.00000000E+00  0.00000000E+00
  0.00000000E+00  0.00000000E+00  0.00000000E+00
  0.00000000E+00  0.00000000E+00  0.00000000E+00
  0.00000000E+00  0.00000000E+00  0.00000000E+00
  0.00000000E+00  0.00000000E+00  0.00000000E+00
  0.00000000E+00  0.00000000E+00  0.00000000E+00
  0.00000000E+00  0.00000000E+00  0.00000000E+00
  0.00000000E+00  0.00000000E+00  0.00000000E+00
  0.00000000E+00  0.00000000E+00  0.00000000E+00
  0.00000000E+00  0.00000000E+00  0.00000000E+00
  0.00000000E+00  0.00000000E+00  0.00000000E+00
  0.00000000E+00  0.00000000E+00  0.00000000E+00
  0.00000000E+00  0.00000000E+00  0.00000000E+00
  0.00000000E+00  0.00000000E+00  0.00000000E+00
  0.00000000E+00  0.00000000E+00  0.00000000E+00
  0.00000000E+00  0.00000000E+00  0.00000000E+00
  0.00000000E+00  0.00000000E+00  0.00000000E+00
  0.00000000E+00  0.00000000E+00  0.00000000E+00
  0.00000000E+00  0.00000000E+00  0.00000000E+00
  0.00000000E+00  0.00000000E+00  0.00000000E+00
  0.00000000E+00  0.00000000E+00  0.00000000E+00
  0.00000000E+00  0.00000000E+00  0.00000000E+00
  0.00000000E+00  0.00000000E+00  0.00000000E+00
  0.00000000E+00  0.00000000E+00  0.00000000E+00
  0.00000000E+00  0.00000000E+00  0.00000000E+00
  0.00000000E+00  0.00000000E+00  0.00000000E+00
  0.00000000E+00  0.00000000E+00  0.00000000E+00
  0.00000000E+00  0.00000000E+00  0.00000000E+00
  0.00000000E+00  0.00000000E+00  0.00000000E+00
  0.00000000E+00  0.00000000E+00  0.00000000E+00
  0.00000000E+00  0.00000000E+00  0.00000000E+00
  0.00000000E+00  0.00000000E+00  0.00000000E+00
