supercell of icsd_191774.cif            
   1.00000000000000     
    10.2688225956940737    0.0463515096294881   -0.2134733255919397
    -5.0926581167320268    8.7093440786288170    0.1512096818063071
    -0.2315461737148593    0.0587208615413202   10.6808525836143282
   N    In   B 
    36    28     8
Direct
  0.2262405346248713  0.1115205274359852  0.4369223752323705
  0.1026003237379314  0.2167330355003259  0.1932010512533253
  0.8493020620055205  0.0568485997201407  0.9640063081890204
  0.8100408355346573  0.2494803647591866  0.7066038048612029
  0.5336375926587849  0.0720471193414411  0.4685223735643049
  0.4463070403427309  0.2238824912009463  0.1839155613155725
  0.1923260823908421  0.0658041564611125  0.9164900863496825
  0.1182801077296389  0.1872939671090350  0.7259669099262567
  0.8875001255244115  0.1024201963689393  0.4490754543328350
  0.7708324295083671  0.2211956755643101  0.1952651897432247
  0.5516731570576567  0.1140232548276714  0.9380919531811358
  0.4711191613508987  0.2815651909343657  0.7015496036370052
  0.2221479924519301  0.4397574652564984  0.4467997050447323
  0.1106365535942686  0.5611615294734804  0.1928852137882089
  0.9046450715473853  0.4284835986449806  0.9026878577690596
  0.8428146863905184  0.5369740171636792  0.7164139226431203
  0.5695836734790802  0.4595841083664141  0.4384435864849507
  0.4735105223295974  0.6087613885866503  0.1977832906760852
  0.2302001601213988  0.4403011192867368  0.9644300048519838
  0.0881893109039140  0.5296886543800667  0.7091139616387707
  0.8877553643961562  0.4463559768447070  0.4362946139313664
  0.7708543914352006  0.5541394896971781  0.1337378515548266
  0.5427864837178120  0.4418971463894508  0.8979231938934475
  0.4490300480077494  0.5275207239711293  0.7072091509631093
  0.2635924867476547  0.8025260949031576  0.4620390925861599
  0.1119297093248903  0.8914878488573166  0.1329733755153910
  0.9526315619180110  0.8099906330027054  0.9087632054862098
  0.8105505475219204  0.8527899294743833  0.7098195601987740
  0.5389915844787438  0.8068177504085909  0.5278907046980166
  0.4657958541269807  0.8623824502610233  0.1960876605145145
  0.2047672604509501  0.8011437970432809  0.9462601000578346
  0.0908009840702491  0.9232353077267348  0.7085388058536921
  0.8899061097508962  0.7750422604210598  0.4118142776736136
  0.7170406380567442  0.8725675102775625  0.1513004875749218
  0.5871188891727073  0.8103606047166494  0.9370691552175501
  0.4259063875674727  0.9048576681403020  0.6751342726079130
  0.2209414236178375  0.1014061127206887  0.2409112748638975
  0.1138960457335827  0.2117278635783464  0.5161343539006538
  0.8767252151676601  0.0864396803343368  0.7620060348088344
  0.7755941092947083  0.2232495562401482  0.9975905262017477
  0.5522387228512997  0.0954509874108425  0.2642729101897245
  0.4473174048965447  0.2288956806006865  0.5093447980321955
  0.0945082094910390  0.1910657856793634  0.9992131375137632
  0.8760986647689393  0.0966640702037367  0.2500862405066115
  0.7775892949953018  0.2189652020543278  0.5078967035255957
  0.5660062453098007  0.1402017194809702  0.7425085925626931
  0.4294527606442742  0.2177130933209241  0.9806482003816797
  0.2323390127311384  0.4519262777265070  0.2458452581869821
  0.1138814484951212  0.5575844423092349  0.5081318173405833
  0.7917551375949188  0.5652583275717831  0.9110199272961097
  0.5748449227525043  0.4619274608299122  0.2421361107279552
  0.4494260493460942  0.5643988697762339  0.5048837429873458
  0.2209821823280791  0.4296792382729535  0.7638429178918642
  0.1102530759287603  0.5623828603899099  0.9950276149105903
  0.8830057800981592  0.4554811986935405  0.2407684391268958
  0.7885461654746422  0.5565200468073783  0.5302447689743204
  0.4697338530235129  0.5716471890847217  0.9936895695243493
  0.2352307190808602  0.7859950065807269  0.2539934942854885
  0.1088738435757932  0.8885070385325804  0.5055371187228417
  0.1971017595247559  0.7802902948542254  0.7480197332608256
  0.8832159298548632  0.7797511914369224  0.2003917443357182
  0.7732835821185304  0.8711129306335366  0.5042025184447141
  0.5639256802643047  0.7790220891887571  0.7341490538716116
  0.4353060811407943  0.8891017506496084  0.9944793954688436
  0.1532764909306223  0.0707822034971528  0.7792366839803222
  0.9109156016923379  0.4402651600991803  0.7542304075529813
  0.4915642407331546  0.4155599198782411  0.7621255276288679
  0.9393090916031355  0.8466391546745626  0.7783500309706000
  0.7259615013316747  0.9120991145556516  0.0131712862855835
  0.5494131507743205  0.7778171501049513  0.1917597569543830
  0.4441472308494525  0.8972558695402100  0.5304736172462086
  0.1122936479528960  0.8865738101699066  0.9764529687264485
 
  0.00000000E+00  0.00000000E+00  0.00000000E+00
  0.00000000E+00  0.00000000E+00  0.00000000E+00
  0.00000000E+00  0.00000000E+00  0.00000000E+00
  0.00000000E+00  0.00000000E+00  0.00000000E+00
  0.00000000E+00  0.00000000E+00  0.00000000E+00
  0.00000000E+00  0.00000000E+00  0.00000000E+00
  0.00000000E+00  0.00000000E+00  0.00000000E+00
  0.00000000E+00  0.00000000E+00  0.00000000E+00
  0.00000000E+00  0.00000000E+00  0.00000000E+00
  0.00000000E+00  0.00000000E+00  0.00000000E+00
  0.00000000E+00  0.00000000E+00  0.00000000E+00
  0.00000000E+00  0.00000000E+00  0.00000000E+00
  0.00000000E+00  0.00000000E+00  0.00000000E+00
  0.00000000E+00  0.00000000E+00  0.00000000E+00
  0.00000000E+00  0.00000000E+00  0.00000000E+00
  0.00000000E+00  0.00000000E+00  0.00000000E+00
  0.00000000E+00  0.00000000E+00  0.00000000E+00
  0.00000000E+00  0.00000000E+00  0.00000000E+00
  0.00000000E+00  0.00000000E+00  0.00000000E+00
  0.00000000E+00  0.00000000E+00  0.00000000E+00
  0.00000000E+00  0.00000000E+00  0.00000000E+00
  0.00000000E+00  0.00000000E+00  0.00000000E+00
  0.00000000E+00  0.00000000E+00  0.00000000E+00
  0.00000000E+00  0.00000000E+00  0.00000000E+00
  0.00000000E+00  0.00000000E+00  0.00000000E+00
  0.00000000E+00  0.00000000E+00  0.00000000E+00
  0.00000000E+00  0.00000000E+00  0.00000000E+00
  0.00000000E+00  0.00000000E+00  0.00000000E+00
  0.00000000E+00  0.00000000E+00  0.00000000E+00
  0.00000000E+00  0.00000000E+00  0.00000000E+00
  0.00000000E+00  0.00000000E+00  0.00000000E+00
  0.00000000E+00  0.00000000E+00  0.00000000E+00
  0.00000000E+00  0.00000000E+00  0.00000000E+00
  0.00000000E+00  0.00000000E+00  0.00000000E+00
  0.00000000E+00  0.00000000E+00  0.00000000E+00
  0.00000000E+00  0.00000000E+00  0.00000000E+00
  0.00000000E+00  0.00000000E+00  0.00000000E+00
  0.00000000E+00  0.00000000E+00  0.00000000E+00
  0.00000000E+00  0.00000000E+00  0.00000000E+00
  0.00000000E+00  0.00000000E+00  0.00000000E+00
  0.00000000E+00  0.00000000E+00  0.00000000E+00
  0.00000000E+00  0.00000000E+00  0.00000000E+00
  0.00000000E+00  0.00000000E+00  0.00000000E+00
  0.00000000E+00  0.00000000E+00  0.00000000E+00
  0.00000000E+00  0.00000000E+00  0.00000000E+00
  0.00000000E+00  0.00000000E+00  0.00000000E+00
  0.00000000E+00  0.00000000E+00  0.00000000E+00
  0.00000000E+00  0.00000000E+00  0.00000000E+00
  0.00000000E+00  0.00000000E+00  0.00000000E+00
  0.00000000E+00  0.00000000E+00  0.00000000E+00
  0.00000000E+00  0.00000000E+00  0.00000000E+00
  0.00000000E+00  0.00000000E+00  0.00000000E+00
  0.00000000E+00  0.00000000E+00  0.00000000E+00
  0.00000000E+00  0.00000000E+00  0.00000000E+00
  0.00000000E+00  0.00000000E+00  0.00000000E+00
  0.00000000E+00  0.00000000E+00  0.00000000E+00
  0.00000000E+00  0.00000000E+00  0.00000000E+00
  0.00000000E+00  0.00000000E+00  0.00000000E+00
  0.00000000E+00  0.00000000E+00  0.00000000E+00
  0.00000000E+00  0.00000000E+00  0.00000000E+00
  0.00000000E+00  0.00000000E+00  0.00000000E+00
  0.00000000E+00  0.00000000E+00  0.00000000E+00
  0.00000000E+00  0.00000000E+00  0.00000000E+00
  0.00000000E+00  0.00000000E+00  0.00000000E+00
  0.00000000E+00  0.00000000E+00  0.00000000E+00
  0.00000000E+00  0.00000000E+00  0.00000000E+00
  0.00000000E+00  0.00000000E+00  0.00000000E+00
  0.00000000E+00  0.00000000E+00  0.00000000E+00
  0.00000000E+00  0.00000000E+00  0.00000000E+00
  0.00000000E+00  0.00000000E+00  0.00000000E+00
  0.00000000E+00  0.00000000E+00  0.00000000E+00
  0.00000000E+00  0.00000000E+00  0.00000000E+00
