Al   Sc   N                             
   1.00000000000000     
    -9.7122940726668965   -0.0133689356700078    0.0007596149190160
    -4.8471040740609821    8.4236096161048373    0.0015018635518686
     0.0034909069481086   -0.0009660813587843  -10.1685605760064810
   Al   Sc   N 
    28     8    36
Direct
  0.1124574466236439  0.0934401611547742  0.3875150839161492
  0.2276151634336685  0.2020457188288276  0.1580344430753371
  0.4511533875567082  0.0900239568934964  0.3966428229370322
  0.5581027357124455  0.2035255477581401  0.1531841149573197
  0.7734417206325617  0.0900473589950153  0.3980135755070862
  0.8827480084822952  0.2072385854145651  0.1614734206483845
  0.4427191620206443  0.0967021835137771  0.9015673936477597
  0.5580027985471929  0.1998379187174990  0.6448262794068711
  0.1056665358257121  0.4323159141940920  0.4007664163391382
  0.7717092758402941  0.4308940957234029  0.8989043248442528
  0.8800812537118787  0.5479938489119220  0.6511153764449489
  0.4513591547431588  0.4246752246568164  0.3997767274255324
  0.5579806077270604  0.5348659084918737  0.1486027512797321
  0.1124636414916083  0.4254529187820211  0.9017802872344447
  0.7727587927921959  0.4372717701496001  0.4003090287558067
  0.4477425943889344  0.4264060560312828  0.8995479986568427
  0.5607605857047915  0.5408525192675668  0.6483359779370943
  0.1064827946672864  0.7617246436233103  0.3967025827670554
  0.2234109508908801  0.8718510405523929  0.1558867462209506
  0.7749784872792418  0.7642187623804872  0.8955613594957867
  0.8838930634938222  0.8673599886238534  0.6452747791737963
  0.4513799979646649  0.7573582320322174  0.3953669981878321
  0.5537773570083786  0.8767180305586990  0.1476811372769760
  0.1096414304453361  0.7605255167702083  0.9040949440147656
  0.7760266314559701  0.7616959834750858  0.4025511010566092
  0.8830488853077298  0.8801540702796657  0.1531549783811741
  0.4475631631744932  0.7572174345552725  0.9018998962636147
  0.5616628772809946  0.8688126016517970  0.6472633352441122
  0.7732364737166648  0.0927985534581026  0.8981887610994974
  0.8803034344434479  0.2117324072234794  0.6309073719037386
  0.1114553316770852  0.0951514335875743  0.9106492451009842
  0.2276398986115851  0.2054747752541886  0.6387596679728631
  0.2268185821241957  0.5382372508092530  0.1411702966553747
  0.2237803291504292  0.5391765285457879  0.6475050677855592
  0.8821241277287228  0.5438879292266847  0.1396341963136436
  0.2272662826419847  0.8663742495565643  0.6399761355500715
  0.2261578564673314  0.2079032837893138  0.3480865144076120
  0.1099519119732619  0.0954556151997821  0.1217071856805418
  0.8807591018348049  0.2211096524828591  0.8390189354996167
  0.7689140203839671  0.0797100485379403  0.5872814824260146
  0.5542253257684209  0.2059637155931142  0.3407830043327422
  0.4442369035076723  0.0952406664865748  0.0935670150203904
  0.2293781466688358  0.2117474353999000  0.8466508434702931
  0.1128997419351592  0.0926416466394855  0.5731422656183085
  0.8821231105679956  0.2103229305342111  0.3530528320805644
  0.7771532895060247  0.0964504520091083  0.1080922927043133
  0.5361919361896312  0.2145786770125611  0.8334016406100488
  0.4660461778825891  0.0802671840388740  0.5822869617551802
  0.2255945452790868  0.5367156353912037  0.3552404706814656
  0.1190530861871011  0.4073832001487219  0.0879666222542212
  0.8860052404565977  0.5406693517068888  0.8483044379739724
  0.7676660249516516  0.4521670068247303  0.5861263878730085
  0.5560220452845286  0.5385683680049453  0.3370436510448016
  0.4663731819997636  0.4143578554399099  0.0869440038747413
  0.2227452631729250  0.5394156808329456  0.8643039379540838
  0.0887375956105956  0.4414519092882045  0.5869258567565723
  0.8865949872884684  0.5426281614277855  0.3471504661376699
  0.7698233545044744  0.4165685253136218  0.0879272544780605
  0.5543520843627263  0.5406403398365001  0.8395970451762906
  0.4687878012369708  0.4165441559120779  0.5872569559459890
  0.2266565759599004  0.8658433412153741  0.3454230115139154
  0.0973703719232404  0.7843164116851256  0.0921858357489640
  0.8993105056281792  0.8528756567124205  0.8332497192573669
  0.7755528160964076  0.7609955281364549  0.5919550936142173
  0.5576507790143239  0.8710138969153718  0.3369404999860706
  0.4462804327564669  0.7593974272134147  0.0933981957912806
  0.2311166403438705  0.8551057346181139  0.8494832990894139
  0.0910553261092488  0.7688734920466516  0.5805307616186610
  0.8865324382776052  0.8701772886067047  0.3408799270803939
  0.7657213153780944  0.7865905463716913  0.0826712112708563
  0.5524427757581094  0.8743217822044116  0.8400215367387744
  0.4656937297020107  0.7515995010443390  0.5828588334304854
 
  0.00000000E+00  0.00000000E+00  0.00000000E+00
  0.00000000E+00  0.00000000E+00  0.00000000E+00
  0.00000000E+00  0.00000000E+00  0.00000000E+00
  0.00000000E+00  0.00000000E+00  0.00000000E+00
  0.00000000E+00  0.00000000E+00  0.00000000E+00
  0.00000000E+00  0.00000000E+00  0.00000000E+00
  0.00000000E+00  0.00000000E+00  0.00000000E+00
  0.00000000E+00  0.00000000E+00  0.00000000E+00
  0.00000000E+00  0.00000000E+00  0.00000000E+00
  0.00000000E+00  0.00000000E+00  0.00000000E+00
  0.00000000E+00  0.00000000E+00  0.00000000E+00
  0.00000000E+00  0.00000000E+00  0.00000000E+00
  0.00000000E+00  0.00000000E+00  0.00000000E+00
  0.00000000E+00  0.00000000E+00  0.00000000E+00
  0.00000000E+00  0.00000000E+00  0.00000000E+00
  0.00000000E+00  0.00000000E+00  0.00000000E+00
  0.00000000E+00  0.00000000E+00  0.00000000E+00
  0.00000000E+00  0.00000000E+00  0.00000000E+00
  0.00000000E+00  0.00000000E+00  0.00000000E+00
  0.00000000E+00  0.00000000E+00  0.00000000E+00
  0.00000000E+00  0.00000000E+00  0.00000000E+00
  0.00000000E+00  0.00000000E+00  0.00000000E+00
  0.00000000E+00  0.00000000E+00  0.00000000E+00
  0.00000000E+00  0.00000000E+00  0.00000000E+00
  0.00000000E+00  0.00000000E+00  0.00000000E+00
  0.00000000E+00  0.00000000E+00  0.00000000E+00
  0.00000000E+00  0.00000000E+00  0.00000000E+00
  0.00000000E+00  0.00000000E+00  0.00000000E+00
  0.00000000E+00  0.00000000E+00  0.00000000E+00
  0.00000000E+00  0.00000000E+00  0.00000000E+00
  0.00000000E+00  0.00000000E+00  0.00000000E+00
  0.00000000E+00  0.00000000E+00  0.00000000E+00
  0.00000000E+00  0.00000000E+00  0.00000000E+00
  0.00000000E+00  0.00000000E+00  0.00000000E+00
  0.00000000E+00  0.00000000E+00  0.00000000E+00
  0.00000000E+00  0.00000000E+00  0.00000000E+00
  0.00000000E+00  0.00000000E+00  0.00000000E+00
  0.00000000E+00  0.00000000E+00  0.00000000E+00
  0.00000000E+00  0.00000000E+00  0.00000000E+00
  0.00000000E+00  0.00000000E+00  0.00000000E+00
  0.00000000E+00  0.00000000E+00  0.00000000E+00
  0.00000000E+00  0.00000000E+00  0.00000000E+00
  0.00000000E+00  0.00000000E+00  0.00000000E+00
  0.00000000E+00  0.00000000E+00  0.00000000E+00
  0.00000000E+00  0.00000000E+00  0.00000000E+00
  0.00000000E+00  0.00000000E+00  0.00000000E+00
  0.00000000E+00  0.00000000E+00  0.00000000E+00
  0.00000000E+00  0.00000000E+00  0.00000000E+00
  0.00000000E+00  0.00000000E+00  0.00000000E+00
  0.00000000E+00  0.00000000E+00  0.00000000E+00
  0.00000000E+00  0.00000000E+00  0.00000000E+00
  0.00000000E+00  0.00000000E+00  0.00000000E+00
  0.00000000E+00  0.00000000E+00  0.00000000E+00
  0.00000000E+00  0.00000000E+00  0.00000000E+00
  0.00000000E+00  0.00000000E+00  0.00000000E+00
  0.00000000E+00  0.00000000E+00  0.00000000E+00
  0.00000000E+00  0.00000000E+00  0.00000000E+00
  0.00000000E+00  0.00000000E+00  0.00000000E+00
  0.00000000E+00  0.00000000E+00  0.00000000E+00
  0.00000000E+00  0.00000000E+00  0.00000000E+00
  0.00000000E+00  0.00000000E+00  0.00000000E+00
  0.00000000E+00  0.00000000E+00  0.00000000E+00
  0.00000000E+00  0.00000000E+00  0.00000000E+00
  0.00000000E+00  0.00000000E+00  0.00000000E+00
  0.00000000E+00  0.00000000E+00  0.00000000E+00
  0.00000000E+00  0.00000000E+00  0.00000000E+00
  0.00000000E+00  0.00000000E+00  0.00000000E+00
  0.00000000E+00  0.00000000E+00  0.00000000E+00
  0.00000000E+00  0.00000000E+00  0.00000000E+00
  0.00000000E+00  0.00000000E+00  0.00000000E+00
  0.00000000E+00  0.00000000E+00  0.00000000E+00
  0.00000000E+00  0.00000000E+00  0.00000000E+00
