generated by phonopy                    
   1.00000000000000     
    10.0351470768999995   -0.0000022330999784   -0.0000001056124209
    -5.0175765436399997    8.6906901959899994    0.0000001395531216
    -0.0000001735893656    0.0000001431815548   14.9533752540999991
   Pb   P    O 
    19    12    50
Direct
  0.9942881452872072  0.7683212729180937  0.6233415340975199
  0.0013669524589091  0.2560765416614785  0.3758649749662126
  0.0016019331423394  0.2564570846190151  0.8719247769463223
  0.2444261382307715  0.2300705059528241  0.1223420590803883
  0.2284405193741961  0.2214673577255439  0.6231340323948444
  0.7318189792769232  0.7363966168817626  0.3619006345789018
  0.7323513724151169  0.7370595531522213  0.8855955543169927
  0.7770063807636305  0.0149429259191720  0.1230157157088811
  0.7734047195478624  0.0008346459576032  0.6231622302904185
  0.2566896178110341  0.9918231270945839  0.3642199620038937
  0.2560881432306275  0.9912244398257783  0.8832055431902930
  0.6827294428380952  0.3509142724343093  0.0023121986836188
  0.6641721825352818  0.3347421142331726  0.5010489343989235
  0.3202602104819974  0.6663863841110569  0.0048678643573794
  0.3363673054997776  0.6700759066127873  0.5034850256791046
  0.3192083942416133  0.6659072211622998  0.2426820171874908
  0.3368612553904526  0.6699172055731353  0.7441375295473946
  0.6806909761231168  0.3495792803174709  0.2466029636016387
  0.6643485292213143  0.3347218446418339  0.7480118956300572
  0.6050945282913602  0.5849954679104101  0.1242330244169239
  0.6238367396974311  0.5937639632808285  0.6241904116739079
  0.3664988073324977  0.3932381613792160  0.3716922912296141
  0.3672461323182006  0.3934146373793439  0.8762666572877222
  0.4116285601744778  0.0301070567840043  0.1241394977988648
  0.4066039154433625  0.0307936236886661  0.6242236250095985
  0.6090106103980730  0.9771538697032653  0.3740385662605874
  0.6090352441106717  0.9771430447033467  0.8738459274713506
  0.9658410690615753  0.3803818308787399  0.1240700797918493
  0.9735327412467853  0.3745206855657486  0.6241591141592480
  0.0321877074265089  0.6302077229075849  0.3774104338068298
  0.0326843155878009  0.6306938288316744  0.8707647855043064
  0.4812401116007408  0.6351005830208862  0.1241982359706810
  0.5004717325347698  0.6456795482605102  0.6237533803897293
  0.4740980884667607  0.3237442738992655  0.3730653029322113
  0.4743361053300958  0.3233870570170083  0.8757148444951426
  0.3625350269541840  0.8565249203265779  0.1236848757134297
  0.3573198910586868  0.8561921369548529  0.6237823231723567
  0.6863072329677777  0.1553401253295448  0.3761164127297505
  0.6866434209048720  0.1553387690483063  0.8721516450833064
  0.1437978010447765  0.4912695997797911  0.1235742998548091
  0.1479614601029198  0.4991359389297756  0.6238472573004543
  0.8535446719653308  0.5347739162863760  0.3735883440108907
  0.8540540216406924  0.5351858521004900  0.8753580659974034
  0.7010313594700150  0.6355794817526643  0.0368114449689401
  0.7283956270562442  0.6526085151427239  0.5390813741167761
  0.2575410808534357  0.3446640978998374  0.4551265422160213
  0.2613536254636841  0.3452209980590624  0.9612498902029003
  0.3511007259238426  0.0772548391648940  0.0399476374078134
  0.3459163097341786  0.0750907009320017  0.5391656381277130
  0.6473441677249525  0.9102983754958913  0.4581223374650705
  0.6585035984544731  0.9187063729940519  0.9580441014346874
  0.9143993957634393  0.2758116276367772  0.0381044079549540
  0.9293613399830889  0.2680542158633585  0.5394977834077181
  0.0927894673793404  0.7348424832498566  0.4622061693521005
  0.1062059291683326  0.7361216735251119  0.9541790332310356
  0.2590697953156109  0.3420032272458826  0.2874032201585521
  0.2568369784822551  0.3424326758227068  0.7935396478177523
  0.7030994748291448  0.6381343602150054  0.2108410026887810
  0.7294469147986646  0.6555828767752558  0.7087168857448489
  0.6610174016626615  0.9196581753922288  0.2905530837361283
  0.6497791014991421  0.9108785546662759  0.7904717867986406
  0.3490691461166691  0.0756590927791905  0.2080418612700043
  0.3426475723891116  0.0730463537013293  0.7085554519992883
  0.1046191895850797  0.7374409728699902  0.2945536619345361
  0.0918637103913440  0.7373880323868818  0.7867785999234371
  0.9170347725257173  0.2723159085337059  0.2084364806481105
  0.9312161549712386  0.2665238594017794  0.7079801908280103
  0.5243790282243168  0.4010806267641058  0.1251110584012025
  0.5419299909322746  0.4127582583413414  0.6250277640059849
  0.4668892923285171  0.5755549885372915  0.3717351928145973
  0.4678521344731834  0.5756860709666682  0.8743578077184466
  0.5922159694247924  0.1305312451331915  0.1248224307790338
  0.5872743829114739  0.1319963104496154  0.6251788199255159
  0.4276243334056247  0.9020453013962566  0.3698068575475872
  0.4275899876395073  0.9021767298373717  0.8764119787182523
  0.8752038473581507  0.4693281250648553  0.1258495226381129
  0.8715957992554308  0.4525746796604366  0.6251312055100442
  0.0998248378647091  0.5169074417235109  0.3789384597946892
  0.1001421706501802  0.5173383699424150  0.8668854947208473
  0.0125507243683671  0.0422246123543530  0.1170163110354068
  0.9987803610076185  0.9979792355784909  0.6203522147357958
 
  0.00000000E+00  0.00000000E+00  0.00000000E+00
  0.00000000E+00  0.00000000E+00  0.00000000E+00
  0.00000000E+00  0.00000000E+00  0.00000000E+00
  0.00000000E+00  0.00000000E+00  0.00000000E+00
  0.00000000E+00  0.00000000E+00  0.00000000E+00
  0.00000000E+00  0.00000000E+00  0.00000000E+00
  0.00000000E+00  0.00000000E+00  0.00000000E+00
  0.00000000E+00  0.00000000E+00  0.00000000E+00
  0.00000000E+00  0.00000000E+00  0.00000000E+00
  0.00000000E+00  0.00000000E+00  0.00000000E+00
  0.00000000E+00  0.00000000E+00  0.00000000E+00
  0.00000000E+00  0.00000000E+00  0.00000000E+00
  0.00000000E+00  0.00000000E+00  0.00000000E+00
  0.00000000E+00  0.00000000E+00  0.00000000E+00
  0.00000000E+00  0.00000000E+00  0.00000000E+00
  0.00000000E+00  0.00000000E+00  0.00000000E+00
  0.00000000E+00  0.00000000E+00  0.00000000E+00
  0.00000000E+00  0.00000000E+00  0.00000000E+00
  0.00000000E+00  0.00000000E+00  0.00000000E+00
  0.00000000E+00  0.00000000E+00  0.00000000E+00
  0.00000000E+00  0.00000000E+00  0.00000000E+00
  0.00000000E+00  0.00000000E+00  0.00000000E+00
  0.00000000E+00  0.00000000E+00  0.00000000E+00
  0.00000000E+00  0.00000000E+00  0.00000000E+00
  0.00000000E+00  0.00000000E+00  0.00000000E+00
  0.00000000E+00  0.00000000E+00  0.00000000E+00
  0.00000000E+00  0.00000000E+00  0.00000000E+00
  0.00000000E+00  0.00000000E+00  0.00000000E+00
  0.00000000E+00  0.00000000E+00  0.00000000E+00
  0.00000000E+00  0.00000000E+00  0.00000000E+00
  0.00000000E+00  0.00000000E+00  0.00000000E+00
  0.00000000E+00  0.00000000E+00  0.00000000E+00
  0.00000000E+00  0.00000000E+00  0.00000000E+00
  0.00000000E+00  0.00000000E+00  0.00000000E+00
  0.00000000E+00  0.00000000E+00  0.00000000E+00
  0.00000000E+00  0.00000000E+00  0.00000000E+00
  0.00000000E+00  0.00000000E+00  0.00000000E+00
  0.00000000E+00  0.00000000E+00  0.00000000E+00
  0.00000000E+00  0.00000000E+00  0.00000000E+00
  0.00000000E+00  0.00000000E+00  0.00000000E+00
  0.00000000E+00  0.00000000E+00  0.00000000E+00
  0.00000000E+00  0.00000000E+00  0.00000000E+00
  0.00000000E+00  0.00000000E+00  0.00000000E+00
  0.00000000E+00  0.00000000E+00  0.00000000E+00
  0.00000000E+00  0.00000000E+00  0.00000000E+00
  0.00000000E+00  0.00000000E+00  0.00000000E+00
  0.00000000E+00  0.00000000E+00  0.00000000E+00
  0.00000000E+00  0.00000000E+00  0.00000000E+00
  0.00000000E+00  0.00000000E+00  0.00000000E+00
  0.00000000E+00  0.00000000E+00  0.00000000E+00
  0.00000000E+00  0.00000000E+00  0.00000000E+00
  0.00000000E+00  0.00000000E+00  0.00000000E+00
  0.00000000E+00  0.00000000E+00  0.00000000E+00
  0.00000000E+00  0.00000000E+00  0.00000000E+00
  0.00000000E+00  0.00000000E+00  0.00000000E+00
  0.00000000E+00  0.00000000E+00  0.00000000E+00
  0.00000000E+00  0.00000000E+00  0.00000000E+00
  0.00000000E+00  0.00000000E+00  0.00000000E+00
  0.00000000E+00  0.00000000E+00  0.00000000E+00
  0.00000000E+00  0.00000000E+00  0.00000000E+00
  0.00000000E+00  0.00000000E+00  0.00000000E+00
  0.00000000E+00  0.00000000E+00  0.00000000E+00
  0.00000000E+00  0.00000000E+00  0.00000000E+00
  0.00000000E+00  0.00000000E+00  0.00000000E+00
  0.00000000E+00  0.00000000E+00  0.00000000E+00
  0.00000000E+00  0.00000000E+00  0.00000000E+00
  0.00000000E+00  0.00000000E+00  0.00000000E+00
  0.00000000E+00  0.00000000E+00  0.00000000E+00
  0.00000000E+00  0.00000000E+00  0.00000000E+00
  0.00000000E+00  0.00000000E+00  0.00000000E+00
  0.00000000E+00  0.00000000E+00  0.00000000E+00
  0.00000000E+00  0.00000000E+00  0.00000000E+00
  0.00000000E+00  0.00000000E+00  0.00000000E+00
  0.00000000E+00  0.00000000E+00  0.00000000E+00
  0.00000000E+00  0.00000000E+00  0.00000000E+00
  0.00000000E+00  0.00000000E+00  0.00000000E+00
  0.00000000E+00  0.00000000E+00  0.00000000E+00
  0.00000000E+00  0.00000000E+00  0.00000000E+00
  0.00000000E+00  0.00000000E+00  0.00000000E+00
  0.00000000E+00  0.00000000E+00  0.00000000E+00
  0.00000000E+00  0.00000000E+00  0.00000000E+00
