generated by phonopy                    
   1.00000000000000     
    11.7777700938999992   -0.0000006592896312    0.0000118211769744
    -0.0000006477562692   11.7777479613999994   -0.0000130806483528
     0.0000177256125076   -0.0000204342245446   17.8544012557999991
   Bi   Cu   Se   O 
    36    37    35    36
Direct
  0.9989158649603880  0.1655404738650645  0.4284384728543316
  0.3345449440623440  0.1655448239798361  0.4284439192995819
  0.6667288220447318  0.1659877916041381  0.4294239987679518
  0.9989173956021062  0.5011734100904306  0.4284345010198720
  0.3345329545287328  0.5011693873140786  0.4284374860502211
  0.6667275517627615  0.5007405597993042  0.4294229160401741
  0.9993465087766467  0.8333589979266165  0.4294215393169765
  0.3340916327577617  0.8333593877219485  0.4294199684830602
  0.6667189270297840  0.8333635569151241  0.4296212279075391
  0.0000354489333034  0.1666762992472215  0.9289990382930853
  0.3333926716512607  0.1666758971942599  0.9289929180597554
  0.6667261907587374  0.1671645895444058  0.9290149462965118
  0.0000370381459120  0.5000386738679339  0.9290042320700778
  0.3333921201340004  0.5000442446223374  0.9289978460060127
  0.6667211162708711  0.4995561497169945  0.9290193808125196
  0.0005231159573782  0.8333512057717698  0.9290241368796970
  0.3329035569592023  0.8333558977923303  0.9290208153972515
  0.6667162430362055  0.8333547555159981  0.9281185216091146
  0.1667119281615257  0.0002368124803311  0.0710425932937468
  0.5006587723490199  0.9994217401055252  0.0705795431606333
  0.8327744658040999  0.9994131669529125  0.0705867178304516
  0.1667218072845245  0.3333555239469703  0.0706811987449640
  0.4998383973383369  0.3333624639207073  0.0710389986889908
  0.8336070941805716  0.3333588684579354  0.0710515394326521
  0.1667091906860563  0.6664691265453229  0.0710550206049234
  0.5006536735609757  0.6673036974850177  0.0705886924590189
  0.8327715405498992  0.6672981553564128  0.0705935434304479
  0.1667264487120761  0.0005055517848263  0.5707621702280719
  0.4999713219378137  0.0001255219082665  0.5716518052588384
  0.8334737044317464  0.0000981545737631  0.5716479570703257
  0.1667229892050415  0.3333548283098438  0.5701758028530506
  0.4995815097516356  0.3333770018907032  0.5707633667735763
  0.8338762260909718  0.3333488320372666  0.5707576987967400
  0.1667202741064315  0.6662189119369586  0.5707573083302364
  0.4999622545836928  0.6666258777129812  0.5716441780383974
  0.8334758665543234  0.6666013743812798  0.5716490109994368
  0.9984554642598980  0.9973837796893221  0.2499565549158476
  0.3349933007217913  0.9973612526656979  0.2499759159241535
  0.6667377516720947  0.0002706014470633  0.2498723565415801
  0.0036961864667475  0.3333061782276445  0.2524657999723416
  0.3299141613239769  0.3333431198902019  0.2523990057789689
  0.6667598132878894  0.3333551279497300  0.2499451304769948
  0.9984220198842948  0.6693222799336311  0.2499514937403760
  0.3350152533289688  0.6693230972707127  0.2499420143507578
  0.6667215281202203  0.6664570660938409  0.2498768293010656
  0.0001622900128879  0.0000554310802414  0.7499540332563797
  0.3332490246650011  0.0000498634054935  0.7499603192282436
  0.6667200135429283  0.0005590069833730  0.7499103420523312
  0.0001887101814404  0.3333618584453077  0.7500017017066511
  0.3332362022631230  0.3333646671651209  0.7500021493021620
  0.6667126303917073  0.3333614702118979  0.7500324948662467
  0.0001654325430991  0.6666627412969248  0.7499526101384433
  0.3332444243303598  0.6666716816796807  0.7499546028382866
  0.6667099340804938  0.6661638061156552  0.7499088854726423
  0.1667759533298607  0.1701822544210927  0.2524079207575340
  0.5026923382680621  0.1650797502024375  0.2499459314026709
  0.8307695979651513  0.1650699196762773  0.2499533277178188
  0.1667542940081432  0.4964044017736100  0.2524640661234159
  0.5027143686063340  0.5016510825979452  0.2499662573368227
  0.8307629113741655  0.5016465149069660  0.2499458829377730
  0.1667261212153406  0.8333102725235690  0.2499388418652160
  0.4998150777592869  0.8333783258535234  0.2498817499311841
  0.8336179139944520  0.8333611899279063  0.2498823306574636
  0.1667139580754267  0.1668315303074337  0.7500087794517256
  0.5000140218351135  0.1668123320825288  0.7499564542232591
  0.8334092405168363  0.1668025492774490  0.7499563936263485
  0.1667084677986210  0.4998844760661356  0.7500038463528753
  0.5000107221829069  0.4999020303497588  0.7499550983036514
  0.8334088323900772  0.4999090340620000  0.7499519784966822
  0.1667020233341745  0.8333522006730334  0.7500308634812214
  0.4995138679384894  0.8333593270859225  0.7499038562301052
  0.8339049300671917  0.8333445351960407  0.7499070523729543
  0.1668353419954016  0.3332690401437901  0.3370330638927328
  0.4984182359448042  0.3333655680696026  0.3360877131720486
  0.8350824844848788  0.3333615738455080  0.3360822945491790
  0.1667263168228601  0.6650115848562734  0.3360834636203833
  0.5003761399004958  0.6670332046319061  0.3378343024233672
  0.8330654209369897  0.6670074217392070  0.3378374690866011
  0.1667246531231470  0.0016652334919840  0.3360898677222295
  0.5003856204947041  0.9997320040903048  0.3378384682315243
  0.8330786137245809  0.9997042457554599  0.3378397148881405
  0.1667147822472757  0.3333604620548414  0.8373150923859995
  0.5001718631359324  0.3333620541316265  0.8373273844517470
  0.8332613824680379  0.3333589755151749  0.8373237478358391
  0.1667076058308368  0.6668137628179807  0.8373282771035164
  0.5000447868342661  0.6666941265863784  0.8372107452928788
  0.8333812274776449  0.6666795881595320  0.8372167255954537
  0.1667105237152242  0.9998990950493862  0.8373260103584812
  0.5000462943357107  0.0000262663396882  0.8372105037390298
  0.8333861762793475  0.0000155033072673  0.8372148399365500
  0.3317864291590951  0.1683008450845733  0.1662775570716732
  0.6667322255724599  0.1666291589960949  0.1623299276732482
  0.0017049309414432  0.1683189178785227  0.1662981299954964
  0.3317588869270836  0.4983967208205158  0.1662945613308793
  0.6667239534523048  0.5000936720643239  0.1623301024699941
  0.0017306722949826  0.4983552124245278  0.1663222026848388
  0.3334608909840568  0.8333658585335044  0.1623278958719396
  0.6667240900585085  0.8333656190175063  0.1632007083324467
  0.9999842775036782  0.8333588965375753  0.1623338816321009
  0.3333411462697313  0.1667384945778281  0.6625771686656705
  0.6667196058642091  0.1671271278665856  0.6623171637904832
  0.0000955459854097  0.1667343369503556  0.6625755897036001
  0.3333368476567031  0.4999903856174726  0.6625762346699275
  0.6667156317040295  0.4995956037920735  0.6623153561777499
  0.0000917770362250  0.4999822911341880  0.6625727874735219
  0.3329450010336004  0.8333653850408638  0.6623129924550923
  0.6667147789853374  0.8333569792249307  0.6627308562081211
  0.0004800399589584  0.8333571456642588  0.6623171850748832
  0.1667257596326834  0.1675520438538740  0.4984682065803767
  0.4995045255865307  0.1666004960509326  0.4995229058454385
  0.8339565771043027  0.1665817301228216  0.4995166530936999
  0.1667256626312010  0.4991579573673803  0.4984686868240118
  0.4994963702851010  0.5001377739920301  0.4995149395283960
  0.8339559707082387  0.5001268867315360  0.4995156006096195
  0.1667270255238193  0.8333614691938820  0.4998706565020896
  0.4995050506298213  0.8333692712626402  0.5003458234954934
  0.8339370168152342  0.8333539514188004  0.5003430833699056
  0.1667164136492332  0.1667556373083841  0.0003059348520864
  0.4998364520056811  0.1667477170166549  0.0003867237418191
  0.8336032451944746  0.1667461450370453  0.0003969586805042
  0.1667130874805025  0.4999599393157581  0.0003125275700171
  0.4998330476153399  0.4999771581108305  0.0003907175416984
  0.8336073678522240  0.4999733947414811  0.0004013601771646
  0.1667136925068817  0.8333545238771976  0.0005043599216776
  0.5003561203815110  0.8333549543495948  0.0001005334288635
  0.8330768298693556  0.8333517101280137  0.0001065602232728
  0.0001029390317129  0.0002411435614604  0.0003923430324448
  0.3333300317948940  0.0002408885885643  0.0003886427017434
  0.6667228526089275  0.9997163625422374  0.0000987356996873
  0.0001198682588353  0.3333563440094380  0.0003113703310760
  0.3333189412721111  0.3333623285170120  0.0003038538433628
  0.6667264227441123  0.3333611166712558  0.0005018919047188
  0.0001029561529649  0.6664721214931149  0.0004012410378209
  0.3333267111998310  0.6664741882002474  0.0004001863351419
  0.6667223543059109  0.6669999165092548  0.0001082689281731
  0.9999559917306371  0.0005762215769991  0.4995209331812589
  0.3334932775412440  0.0005889628237483  0.4995176936274888
  0.6667225006642354  0.0005723285984800  0.5003506326831868
  0.0009240810274349  0.3333521839719111  0.4984627516320899
  0.3325285025996152  0.3333618315957025  0.4984714894915996
  0.6667281755076289  0.3333637648234031  0.4998697955818869
  0.9999585437135821  0.6661346633511229  0.4995145804485119
  0.3334866461711528  0.6661376499740044  0.4995105876281301
  0.6667188963671933  0.6661546668978673  0.5003476391388233
 
  0.00000000E+00  0.00000000E+00  0.00000000E+00
  0.00000000E+00  0.00000000E+00  0.00000000E+00
  0.00000000E+00  0.00000000E+00  0.00000000E+00
  0.00000000E+00  0.00000000E+00  0.00000000E+00
  0.00000000E+00  0.00000000E+00  0.00000000E+00
  0.00000000E+00  0.00000000E+00  0.00000000E+00
  0.00000000E+00  0.00000000E+00  0.00000000E+00
  0.00000000E+00  0.00000000E+00  0.00000000E+00
  0.00000000E+00  0.00000000E+00  0.00000000E+00
  0.00000000E+00  0.00000000E+00  0.00000000E+00
  0.00000000E+00  0.00000000E+00  0.00000000E+00
  0.00000000E+00  0.00000000E+00  0.00000000E+00
  0.00000000E+00  0.00000000E+00  0.00000000E+00
  0.00000000E+00  0.00000000E+00  0.00000000E+00
  0.00000000E+00  0.00000000E+00  0.00000000E+00
  0.00000000E+00  0.00000000E+00  0.00000000E+00
  0.00000000E+00  0.00000000E+00  0.00000000E+00
  0.00000000E+00  0.00000000E+00  0.00000000E+00
  0.00000000E+00  0.00000000E+00  0.00000000E+00
  0.00000000E+00  0.00000000E+00  0.00000000E+00
  0.00000000E+00  0.00000000E+00  0.00000000E+00
  0.00000000E+00  0.00000000E+00  0.00000000E+00
  0.00000000E+00  0.00000000E+00  0.00000000E+00
  0.00000000E+00  0.00000000E+00  0.00000000E+00
  0.00000000E+00  0.00000000E+00  0.00000000E+00
  0.00000000E+00  0.00000000E+00  0.00000000E+00
  0.00000000E+00  0.00000000E+00  0.00000000E+00
  0.00000000E+00  0.00000000E+00  0.00000000E+00
  0.00000000E+00  0.00000000E+00  0.00000000E+00
  0.00000000E+00  0.00000000E+00  0.00000000E+00
  0.00000000E+00  0.00000000E+00  0.00000000E+00
  0.00000000E+00  0.00000000E+00  0.00000000E+00
  0.00000000E+00  0.00000000E+00  0.00000000E+00
  0.00000000E+00  0.00000000E+00  0.00000000E+00
  0.00000000E+00  0.00000000E+00  0.00000000E+00
  0.00000000E+00  0.00000000E+00  0.00000000E+00
  0.00000000E+00  0.00000000E+00  0.00000000E+00
  0.00000000E+00  0.00000000E+00  0.00000000E+00
  0.00000000E+00  0.00000000E+00  0.00000000E+00
  0.00000000E+00  0.00000000E+00  0.00000000E+00
  0.00000000E+00  0.00000000E+00  0.00000000E+00
  0.00000000E+00  0.00000000E+00  0.00000000E+00
  0.00000000E+00  0.00000000E+00  0.00000000E+00
  0.00000000E+00  0.00000000E+00  0.00000000E+00
  0.00000000E+00  0.00000000E+00  0.00000000E+00
  0.00000000E+00  0.00000000E+00  0.00000000E+00
  0.00000000E+00  0.00000000E+00  0.00000000E+00
  0.00000000E+00  0.00000000E+00  0.00000000E+00
  0.00000000E+00  0.00000000E+00  0.00000000E+00
  0.00000000E+00  0.00000000E+00  0.00000000E+00
  0.00000000E+00  0.00000000E+00  0.00000000E+00
  0.00000000E+00  0.00000000E+00  0.00000000E+00
  0.00000000E+00  0.00000000E+00  0.00000000E+00
  0.00000000E+00  0.00000000E+00  0.00000000E+00
  0.00000000E+00  0.00000000E+00  0.00000000E+00
  0.00000000E+00  0.00000000E+00  0.00000000E+00
  0.00000000E+00  0.00000000E+00  0.00000000E+00
  0.00000000E+00  0.00000000E+00  0.00000000E+00
  0.00000000E+00  0.00000000E+00  0.00000000E+00
  0.00000000E+00  0.00000000E+00  0.00000000E+00
  0.00000000E+00  0.00000000E+00  0.00000000E+00
  0.00000000E+00  0.00000000E+00  0.00000000E+00
  0.00000000E+00  0.00000000E+00  0.00000000E+00
  0.00000000E+00  0.00000000E+00  0.00000000E+00
  0.00000000E+00  0.00000000E+00  0.00000000E+00
  0.00000000E+00  0.00000000E+00  0.00000000E+00
  0.00000000E+00  0.00000000E+00  0.00000000E+00
  0.00000000E+00  0.00000000E+00  0.00000000E+00
  0.00000000E+00  0.00000000E+00  0.00000000E+00
  0.00000000E+00  0.00000000E+00  0.00000000E+00
  0.00000000E+00  0.00000000E+00  0.00000000E+00
  0.00000000E+00  0.00000000E+00  0.00000000E+00
  0.00000000E+00  0.00000000E+00  0.00000000E+00
  0.00000000E+00  0.00000000E+00  0.00000000E+00
  0.00000000E+00  0.00000000E+00  0.00000000E+00
  0.00000000E+00  0.00000000E+00  0.00000000E+00
  0.00000000E+00  0.00000000E+00  0.00000000E+00
  0.00000000E+00  0.00000000E+00  0.00000000E+00
  0.00000000E+00  0.00000000E+00  0.00000000E+00
  0.00000000E+00  0.00000000E+00  0.00000000E+00
  0.00000000E+00  0.00000000E+00  0.00000000E+00
  0.00000000E+00  0.00000000E+00  0.00000000E+00
  0.00000000E+00  0.00000000E+00  0.00000000E+00
  0.00000000E+00  0.00000000E+00  0.00000000E+00
  0.00000000E+00  0.00000000E+00  0.00000000E+00
  0.00000000E+00  0.00000000E+00  0.00000000E+00
  0.00000000E+00  0.00000000E+00  0.00000000E+00
  0.00000000E+00  0.00000000E+00  0.00000000E+00
  0.00000000E+00  0.00000000E+00  0.00000000E+00
  0.00000000E+00  0.00000000E+00  0.00000000E+00
  0.00000000E+00  0.00000000E+00  0.00000000E+00
  0.00000000E+00  0.00000000E+00  0.00000000E+00
  0.00000000E+00  0.00000000E+00  0.00000000E+00
  0.00000000E+00  0.00000000E+00  0.00000000E+00
  0.00000000E+00  0.00000000E+00  0.00000000E+00
  0.00000000E+00  0.00000000E+00  0.00000000E+00
  0.00000000E+00  0.00000000E+00  0.00000000E+00
  0.00000000E+00  0.00000000E+00  0.00000000E+00
  0.00000000E+00  0.00000000E+00  0.00000000E+00
  0.00000000E+00  0.00000000E+00  0.00000000E+00
  0.00000000E+00  0.00000000E+00  0.00000000E+00
  0.00000000E+00  0.00000000E+00  0.00000000E+00
  0.00000000E+00  0.00000000E+00  0.00000000E+00
  0.00000000E+00  0.00000000E+00  0.00000000E+00
  0.00000000E+00  0.00000000E+00  0.00000000E+00
  0.00000000E+00  0.00000000E+00  0.00000000E+00
  0.00000000E+00  0.00000000E+00  0.00000000E+00
  0.00000000E+00  0.00000000E+00  0.00000000E+00
  0.00000000E+00  0.00000000E+00  0.00000000E+00
  0.00000000E+00  0.00000000E+00  0.00000000E+00
  0.00000000E+00  0.00000000E+00  0.00000000E+00
  0.00000000E+00  0.00000000E+00  0.00000000E+00
  0.00000000E+00  0.00000000E+00  0.00000000E+00
  0.00000000E+00  0.00000000E+00  0.00000000E+00
  0.00000000E+00  0.00000000E+00  0.00000000E+00
  0.00000000E+00  0.00000000E+00  0.00000000E+00
  0.00000000E+00  0.00000000E+00  0.00000000E+00
  0.00000000E+00  0.00000000E+00  0.00000000E+00
  0.00000000E+00  0.00000000E+00  0.00000000E+00
  0.00000000E+00  0.00000000E+00  0.00000000E+00
  0.00000000E+00  0.00000000E+00  0.00000000E+00
  0.00000000E+00  0.00000000E+00  0.00000000E+00
  0.00000000E+00  0.00000000E+00  0.00000000E+00
  0.00000000E+00  0.00000000E+00  0.00000000E+00
  0.00000000E+00  0.00000000E+00  0.00000000E+00
  0.00000000E+00  0.00000000E+00  0.00000000E+00
  0.00000000E+00  0.00000000E+00  0.00000000E+00
  0.00000000E+00  0.00000000E+00  0.00000000E+00
  0.00000000E+00  0.00000000E+00  0.00000000E+00
  0.00000000E+00  0.00000000E+00  0.00000000E+00
  0.00000000E+00  0.00000000E+00  0.00000000E+00
  0.00000000E+00  0.00000000E+00  0.00000000E+00
  0.00000000E+00  0.00000000E+00  0.00000000E+00
  0.00000000E+00  0.00000000E+00  0.00000000E+00
  0.00000000E+00  0.00000000E+00  0.00000000E+00
  0.00000000E+00  0.00000000E+00  0.00000000E+00
  0.00000000E+00  0.00000000E+00  0.00000000E+00
  0.00000000E+00  0.00000000E+00  0.00000000E+00
  0.00000000E+00  0.00000000E+00  0.00000000E+00
  0.00000000E+00  0.00000000E+00  0.00000000E+00
  0.00000000E+00  0.00000000E+00  0.00000000E+00
  0.00000000E+00  0.00000000E+00  0.00000000E+00
  0.00000000E+00  0.00000000E+00  0.00000000E+00
  0.00000000E+00  0.00000000E+00  0.00000000E+00
