generated by phonopy                    
   1.00000000000000     
    10.0351470768999995   -0.0000022330999784   -0.0000001056124209
    -5.0175765436399997    8.6906901959899994    0.0000001395531216
    -0.0000001735893656    0.0000001431815548   14.9533752540999991
   Pb   P    O    Cu
    20    12    50     1
Direct
  0.9953872784067741  0.7603270951182637  0.1091545908593474
  0.0013460945999668  0.7683042833430491  0.6256386226350514
  0.0038458665990291  0.2606939483876900  0.3824658668882606
  0.9989761336987257  0.2639474222853195  0.8652155086252264
  0.2373973738832120  0.2275360244259943  0.1047485168966489
  0.2264538236778932  0.2222024123052648  0.6246386811288644
  0.7367217592722142  0.7408696946899767  0.3827358483950434
  0.7379946930155157  0.7218423588216893  0.8584170737095818
  0.7442222744627003  0.0089364963616561  0.1485842841974900
  0.7781501860840763  0.0009353862768364  0.6226689195360819
  0.2565387809271158  0.9946336845354438  0.3734659013980561
  0.2363060263557344  0.9964399440161102  0.8985319130807525
  0.6671220680844243  0.3240121082450003  0.9994318890370479
  0.6659616382557871  0.3324935580923878  0.5022503336612232
  0.3281665025817873  0.6602286801666679  0.0037440217942049
  0.3288424701287838  0.6694220248426390  0.5062052841628883
  0.3190871756464659  0.6458357450036587  0.2473396996993813
  0.3455921487185449  0.6817794140399442  0.7464586336168821
  0.6704764059393966  0.3589154903981111  0.2528468396392256
  0.6448852859535847  0.3132554608440472  0.7459024308800792
  0.6172591743381446  0.5919744399297642  0.1267855563286346
  0.6215991818920159  0.5944248929585498  0.6222583571215807
  0.3682371276037557  0.3996550172984712  0.3741656583630046
  0.3684108209888350  0.3925296174706787  0.8765932501682414
  0.4032533059766976  0.0207890772312140  0.1293656822459610
  0.4061619214782795  0.0325999127419365  0.6213433814533929
  0.6056721681401385  0.9789935968056866  0.3783058546940978
  0.6083461166485407  0.9716576473942737  0.8767566496712789
  0.9691967567663582  0.3774937245611909  0.1239298434511369
  0.9729777059145235  0.3756740429362750  0.6250426640210662
  0.0268789024769092  0.6320894506663350  0.3750961720057191
  0.0195326936332449  0.6254427188215317  0.8777777050188575
  0.5069682228465879  0.6598050427816204  0.1262181688352371
  0.5031698694118063  0.6515867791655623  0.6236504076989746
  0.4704810531630770  0.3236854645259868  0.3710989467023182
  0.4746394781988954  0.3216041587223941  0.8824384153142759
  0.3385616649848799  0.8448534898633611  0.1212149325853815
  0.3463789633890002  0.8559482870301522  0.6239946057415011
  0.6826880782798881  0.1566993151932010  0.3785662352037136
  0.6781578245643800  0.1491029807246065  0.8692234595311135
  0.1472676492860217  0.4887008455163908  0.1251342067762877
  0.1460769803736142  0.5021028821755849  0.6260016830221389
  0.8478659974752460  0.5323135593652211  0.3753887458462231
  0.8423306126367933  0.5157603245487365  0.8834427104318792
  0.7345298399487206  0.6581894610071615  0.0469966928586771
  0.7281817748543062  0.6529417747761954  0.5378833340258851
  0.2542355174871602  0.3394701230070396  0.4553997837122452
  0.2752743891779872  0.3691754671550243  0.9651805035335528
  0.3800338911071890  0.0913076058493232  0.0405135321920937
  0.3482625589622046  0.0783034334803148  0.5357439056634661
  0.6524849436562690  0.9141386245532104  0.4601266049900019
  0.6735403520188115  0.9327859117589270  0.9632013022705976
  0.9156617676346599  0.2798103118096691  0.0366266196087466
  0.9300883097711150  0.2716675591935171  0.5389298661879280
  0.0879900749907492  0.7393062471738929  0.4591425316831135
  0.0899996971856680  0.7112507614676105  0.9692627831200014
  0.2690606597095240  0.3701076971571453  0.2879637435589828
  0.2484319566765762  0.3201450409957047  0.7994523939887088
  0.7110562138417649  0.6322784009884614  0.2163772747214878
  0.7331146386597212  0.6595176478504925  0.7049446794068999
  0.6553262959117419  0.9197354910474616  0.2940008847945563
  0.6524775272204479  0.9043406461655934  0.7945825426513622
  0.3254494275958280  0.0621103156765628  0.2056798657059602
  0.3516498572214175  0.0851941463564856  0.7053993740415834
  0.0912037549248694  0.7366265602196407  0.2909761081332860
  0.0593118719549395  0.7516183207679745  0.8058737053022611
  0.9201810869687179  0.2638284438278191  0.2059363726415597
  0.9331834333673683  0.2621113828372401  0.7062499884361273
  0.5251957515716725  0.4110540374893858  0.1181589238350114
  0.5392410404427253  0.4148927185241078  0.6247152410329306
  0.4737366713467708  0.5807515343519754  0.3843547794569631
  0.4687915212512124  0.5721177101117902  0.8606644421933680
  0.5833084284471965  0.1076618325749195  0.1445834258053580
  0.5875611078215570  0.1255301230721741  0.6211222880508203
  0.4249413258262180  0.9009393729638191  0.3769023705536299
  0.4288799598321162  0.8876474892173079  0.8844726752449574
  0.8828684929951436  0.4718602115211681  0.1307769888859553
  0.8669473360065894  0.4485737837795796  0.6285387606827797
  0.0988023996948115  0.5223853866674659  0.3770939418239223
  0.1037987867066121  0.5317285194958359  0.8569903022958414
  0.0627225562528082  0.9981982677871244  0.0134677498232350
  0.0011834339028809  0.9935090691875885  0.6162279285166932
  0.8788925191406918  0.9772841265331706  0.9823585181928607
 
  0.00000000E+00  0.00000000E+00  0.00000000E+00
  0.00000000E+00  0.00000000E+00  0.00000000E+00
  0.00000000E+00  0.00000000E+00  0.00000000E+00
  0.00000000E+00  0.00000000E+00  0.00000000E+00
  0.00000000E+00  0.00000000E+00  0.00000000E+00
  0.00000000E+00  0.00000000E+00  0.00000000E+00
  0.00000000E+00  0.00000000E+00  0.00000000E+00
  0.00000000E+00  0.00000000E+00  0.00000000E+00
  0.00000000E+00  0.00000000E+00  0.00000000E+00
  0.00000000E+00  0.00000000E+00  0.00000000E+00
  0.00000000E+00  0.00000000E+00  0.00000000E+00
  0.00000000E+00  0.00000000E+00  0.00000000E+00
  0.00000000E+00  0.00000000E+00  0.00000000E+00
  0.00000000E+00  0.00000000E+00  0.00000000E+00
  0.00000000E+00  0.00000000E+00  0.00000000E+00
  0.00000000E+00  0.00000000E+00  0.00000000E+00
  0.00000000E+00  0.00000000E+00  0.00000000E+00
  0.00000000E+00  0.00000000E+00  0.00000000E+00
  0.00000000E+00  0.00000000E+00  0.00000000E+00
  0.00000000E+00  0.00000000E+00  0.00000000E+00
  0.00000000E+00  0.00000000E+00  0.00000000E+00
  0.00000000E+00  0.00000000E+00  0.00000000E+00
  0.00000000E+00  0.00000000E+00  0.00000000E+00
  0.00000000E+00  0.00000000E+00  0.00000000E+00
  0.00000000E+00  0.00000000E+00  0.00000000E+00
  0.00000000E+00  0.00000000E+00  0.00000000E+00
  0.00000000E+00  0.00000000E+00  0.00000000E+00
  0.00000000E+00  0.00000000E+00  0.00000000E+00
  0.00000000E+00  0.00000000E+00  0.00000000E+00
  0.00000000E+00  0.00000000E+00  0.00000000E+00
  0.00000000E+00  0.00000000E+00  0.00000000E+00
  0.00000000E+00  0.00000000E+00  0.00000000E+00
  0.00000000E+00  0.00000000E+00  0.00000000E+00
  0.00000000E+00  0.00000000E+00  0.00000000E+00
  0.00000000E+00  0.00000000E+00  0.00000000E+00
  0.00000000E+00  0.00000000E+00  0.00000000E+00
  0.00000000E+00  0.00000000E+00  0.00000000E+00
  0.00000000E+00  0.00000000E+00  0.00000000E+00
  0.00000000E+00  0.00000000E+00  0.00000000E+00
  0.00000000E+00  0.00000000E+00  0.00000000E+00
  0.00000000E+00  0.00000000E+00  0.00000000E+00
  0.00000000E+00  0.00000000E+00  0.00000000E+00
  0.00000000E+00  0.00000000E+00  0.00000000E+00
  0.00000000E+00  0.00000000E+00  0.00000000E+00
  0.00000000E+00  0.00000000E+00  0.00000000E+00
  0.00000000E+00  0.00000000E+00  0.00000000E+00
  0.00000000E+00  0.00000000E+00  0.00000000E+00
  0.00000000E+00  0.00000000E+00  0.00000000E+00
  0.00000000E+00  0.00000000E+00  0.00000000E+00
  0.00000000E+00  0.00000000E+00  0.00000000E+00
  0.00000000E+00  0.00000000E+00  0.00000000E+00
  0.00000000E+00  0.00000000E+00  0.00000000E+00
  0.00000000E+00  0.00000000E+00  0.00000000E+00
  0.00000000E+00  0.00000000E+00  0.00000000E+00
  0.00000000E+00  0.00000000E+00  0.00000000E+00
  0.00000000E+00  0.00000000E+00  0.00000000E+00
  0.00000000E+00  0.00000000E+00  0.00000000E+00
  0.00000000E+00  0.00000000E+00  0.00000000E+00
  0.00000000E+00  0.00000000E+00  0.00000000E+00
  0.00000000E+00  0.00000000E+00  0.00000000E+00
  0.00000000E+00  0.00000000E+00  0.00000000E+00
  0.00000000E+00  0.00000000E+00  0.00000000E+00
  0.00000000E+00  0.00000000E+00  0.00000000E+00
  0.00000000E+00  0.00000000E+00  0.00000000E+00
  0.00000000E+00  0.00000000E+00  0.00000000E+00
  0.00000000E+00  0.00000000E+00  0.00000000E+00
  0.00000000E+00  0.00000000E+00  0.00000000E+00
  0.00000000E+00  0.00000000E+00  0.00000000E+00
  0.00000000E+00  0.00000000E+00  0.00000000E+00
  0.00000000E+00  0.00000000E+00  0.00000000E+00
  0.00000000E+00  0.00000000E+00  0.00000000E+00
  0.00000000E+00  0.00000000E+00  0.00000000E+00
  0.00000000E+00  0.00000000E+00  0.00000000E+00
  0.00000000E+00  0.00000000E+00  0.00000000E+00
  0.00000000E+00  0.00000000E+00  0.00000000E+00
  0.00000000E+00  0.00000000E+00  0.00000000E+00
  0.00000000E+00  0.00000000E+00  0.00000000E+00
  0.00000000E+00  0.00000000E+00  0.00000000E+00
  0.00000000E+00  0.00000000E+00  0.00000000E+00
  0.00000000E+00  0.00000000E+00  0.00000000E+00
  0.00000000E+00  0.00000000E+00  0.00000000E+00
  0.00000000E+00  0.00000000E+00  0.00000000E+00
  0.00000000E+00  0.00000000E+00  0.00000000E+00
