supercell of icsd_181358.cif            
   1.00000000000000     
     9.7792582555670577    0.0066493097071926    0.0042832892996575
    -4.8838701186293614    8.4597299029909010   -0.0010085769917652
     0.0046203767071496    0.0014136985558500   10.5383587836837034
   N    Ga   Sc
    36    32     4
Direct
  0.2067109634455804  0.1029026946628306  0.4376737505531096
  0.1098613865879585  0.2235814525015840  0.1909164880489627
  0.8893951193213212  0.1113760057393662  0.9381740902011302
  0.7770116111860972  0.2221360395962506  0.6895172052128586
  0.5707993175603363  0.1164274146776521  0.4305600257527686
  0.4447686308428445  0.2234949827616290  0.1952689480376790
  0.2227989623183291  0.1120588507434164  0.9516033470453635
  0.1028081491698316  0.2276710182917512  0.6837291046744625
  0.8874409029899510  0.1105459623504359  0.4377941303050363
  0.7807265615346353  0.2238288482237394  0.1865037138061041
  0.5567931985076058  0.1121045821345632  0.9440081348674099
  0.4558920145568521  0.2264649955529237  0.6922101281385409
  0.2235088972258765  0.4461153054719915  0.4408947502813376
  0.1100739337289696  0.5536083893955208  0.1879094606054537
  0.8890342565359504  0.4444837887211435  0.9375047413809483
  0.7788540147842014  0.5557433909446416  0.6878322722050214
  0.5659635407148684  0.4610846522537670  0.4361941867104235
  0.4430692246360053  0.5551028508057456  0.1950934740715482
  0.2066221929772922  0.4365104255001526  0.9341467564862143
  0.1100401962085726  0.5563276341914403  0.6875644694389891
  0.8885896301211673  0.4439579489727521  0.4387857030997466
  0.7794755991083520  0.5561253295642032  0.1880054213346796
  0.5640301256230416  0.4378943501912360  0.9377000921926424
  0.4446239764246513  0.5555103781302293  0.6934288418780099
  0.2076795418778161  0.7697103923370037  0.4333421892128726
  0.1090835250450581  0.8873065238000422  0.1892690093025209
  0.8891194905804980  0.7779153942350021  0.9387559076212355
  0.7793264211243525  0.8896300552636802  0.6882102215480330
  0.5645134897204329  0.7730391761491120  0.4369447936205617
  0.4437036998897952  0.8873067515042763  0.1909075322650722
  0.2215293952782957  0.7770509417089428  0.9415335072791891
  0.1036385479543966  0.8742367238691813  0.6854517570069447
  0.8875818192887266  0.7771672360748312  0.4371443717828285
  0.7790257750068221  0.8896516183670968  0.1880162153653586
  0.5641766390354235  0.7925158832275585  0.9372890285992526
  0.4434194013442720  0.8899939559165801  0.6987841556766341
  0.2173954214382263  0.1087546488775217  0.2490625907740522
  0.1070817640053292  0.2213002646067537  0.0030556138706572
  0.8867707372174038  0.1120708121079872  0.7496390161809359
  0.7818436861309337  0.2239472672106473  0.5001671641797500
  0.5603954197025161  0.1123340146340439  0.2462279917485759
  0.4465460017760776  0.2215243828509088  0.0051898065344673
  0.1058991477588052  0.2223170151227336  0.4977142102171896
  0.8880130150109125  0.1110530291502130  0.2503153130149727
  0.7798315847091430  0.2233876215031714  0.9994165104978023
  0.5585344339820750  0.1125422442126194  0.7556727060431569
  0.2219527819868929  0.4450898795469058  0.2528892516332633
  0.1071949995356789  0.5532834447797867  0.9997699878177357
  0.8888981606010873  0.4445801376029337  0.7493785519271015
  0.7814776909993100  0.5593853266166207  0.4996091971790904
  0.5590802463683175  0.4497648938228380  0.2505765736745573
  0.2164544272139963  0.4440330142443756  0.7472464917728701
  0.1076551840536553  0.5539231689936059  0.4995047744965220
  0.8890588217965671  0.4441599606288378  0.2502717265612802
  0.7811123002072975  0.5551331776247537  0.9998862999199147
  0.5609684330000704  0.4443877146780792  0.7507519488463075
  0.4475166673858411  0.5574208985458071  0.5014112275273845
  0.2181261369961334  0.7748919077359062  0.2476238553384249
  0.1099905910128243  0.8877114136621103  0.0028592081650842
  0.8867195776879981  0.7744986239821969  0.7499675644586077
  0.7811734973277566  0.8888779871855164  0.4994247676487547
  0.5580921174492133  0.7768400273812333  0.2505190711889824
  0.4453162017666514  0.8911015019935178  0.0008706577977193
  0.2199309316400146  0.7742299149399727  0.7528635782012074
  0.1034891357029295  0.8821688641438499  0.4978430826809017
  0.8882253575662205  0.7774192162631479  0.2499191760403718
  0.7809230228643500  0.8924391396607092  0.9997701295614050
  0.5585964589731844  0.7821002542953224  0.7512311615259222
  0.2197932521177961  0.1098294612057913  0.7505111061324925
  0.4475360632110039  0.2261459043556897  0.4920087378437401
  0.4432256943598745  0.5549458269930625  0.9947746970172631
  0.4434908841877316  0.8858250950085562  0.4973883263726151
 
  0.00000000E+00  0.00000000E+00  0.00000000E+00
  0.00000000E+00  0.00000000E+00  0.00000000E+00
  0.00000000E+00  0.00000000E+00  0.00000000E+00
  0.00000000E+00  0.00000000E+00  0.00000000E+00
  0.00000000E+00  0.00000000E+00  0.00000000E+00
  0.00000000E+00  0.00000000E+00  0.00000000E+00
  0.00000000E+00  0.00000000E+00  0.00000000E+00
  0.00000000E+00  0.00000000E+00  0.00000000E+00
  0.00000000E+00  0.00000000E+00  0.00000000E+00
  0.00000000E+00  0.00000000E+00  0.00000000E+00
  0.00000000E+00  0.00000000E+00  0.00000000E+00
  0.00000000E+00  0.00000000E+00  0.00000000E+00
  0.00000000E+00  0.00000000E+00  0.00000000E+00
  0.00000000E+00  0.00000000E+00  0.00000000E+00
  0.00000000E+00  0.00000000E+00  0.00000000E+00
  0.00000000E+00  0.00000000E+00  0.00000000E+00
  0.00000000E+00  0.00000000E+00  0.00000000E+00
  0.00000000E+00  0.00000000E+00  0.00000000E+00
  0.00000000E+00  0.00000000E+00  0.00000000E+00
  0.00000000E+00  0.00000000E+00  0.00000000E+00
  0.00000000E+00  0.00000000E+00  0.00000000E+00
  0.00000000E+00  0.00000000E+00  0.00000000E+00
  0.00000000E+00  0.00000000E+00  0.00000000E+00
  0.00000000E+00  0.00000000E+00  0.00000000E+00
  0.00000000E+00  0.00000000E+00  0.00000000E+00
  0.00000000E+00  0.00000000E+00  0.00000000E+00
  0.00000000E+00  0.00000000E+00  0.00000000E+00
  0.00000000E+00  0.00000000E+00  0.00000000E+00
  0.00000000E+00  0.00000000E+00  0.00000000E+00
  0.00000000E+00  0.00000000E+00  0.00000000E+00
  0.00000000E+00  0.00000000E+00  0.00000000E+00
  0.00000000E+00  0.00000000E+00  0.00000000E+00
  0.00000000E+00  0.00000000E+00  0.00000000E+00
  0.00000000E+00  0.00000000E+00  0.00000000E+00
  0.00000000E+00  0.00000000E+00  0.00000000E+00
  0.00000000E+00  0.00000000E+00  0.00000000E+00
  0.00000000E+00  0.00000000E+00  0.00000000E+00
  0.00000000E+00  0.00000000E+00  0.00000000E+00
  0.00000000E+00  0.00000000E+00  0.00000000E+00
  0.00000000E+00  0.00000000E+00  0.00000000E+00
  0.00000000E+00  0.00000000E+00  0.00000000E+00
  0.00000000E+00  0.00000000E+00  0.00000000E+00
  0.00000000E+00  0.00000000E+00  0.00000000E+00
  0.00000000E+00  0.00000000E+00  0.00000000E+00
  0.00000000E+00  0.00000000E+00  0.00000000E+00
  0.00000000E+00  0.00000000E+00  0.00000000E+00
  0.00000000E+00  0.00000000E+00  0.00000000E+00
  0.00000000E+00  0.00000000E+00  0.00000000E+00
  0.00000000E+00  0.00000000E+00  0.00000000E+00
  0.00000000E+00  0.00000000E+00  0.00000000E+00
  0.00000000E+00  0.00000000E+00  0.00000000E+00
  0.00000000E+00  0.00000000E+00  0.00000000E+00
  0.00000000E+00  0.00000000E+00  0.00000000E+00
  0.00000000E+00  0.00000000E+00  0.00000000E+00
  0.00000000E+00  0.00000000E+00  0.00000000E+00
  0.00000000E+00  0.00000000E+00  0.00000000E+00
  0.00000000E+00  0.00000000E+00  0.00000000E+00
  0.00000000E+00  0.00000000E+00  0.00000000E+00
  0.00000000E+00  0.00000000E+00  0.00000000E+00
  0.00000000E+00  0.00000000E+00  0.00000000E+00
  0.00000000E+00  0.00000000E+00  0.00000000E+00
  0.00000000E+00  0.00000000E+00  0.00000000E+00
  0.00000000E+00  0.00000000E+00  0.00000000E+00
  0.00000000E+00  0.00000000E+00  0.00000000E+00
  0.00000000E+00  0.00000000E+00  0.00000000E+00
  0.00000000E+00  0.00000000E+00  0.00000000E+00
  0.00000000E+00  0.00000000E+00  0.00000000E+00
  0.00000000E+00  0.00000000E+00  0.00000000E+00
  0.00000000E+00  0.00000000E+00  0.00000000E+00
  0.00000000E+00  0.00000000E+00  0.00000000E+00
  0.00000000E+00  0.00000000E+00  0.00000000E+00
  0.00000000E+00  0.00000000E+00  0.00000000E+00
