supercell of icsd_181358.cif            
   1.00000000000000     
     9.3889146798628289   -0.0542408006731878   -0.0367166247926082
    -4.7412913150508604    8.1638541478498929    0.0304522395286746
    -0.0402322731445223    0.0153444835634642   10.0675489515719949
   N    B    Ga
    36     4    32
Direct
  0.2211951224659074  0.1108980063901157  0.4135361547211076
  0.1265803313797562  0.2077084216537912  0.1963273993336045
  0.8835171564757403  0.0674244166253786  0.9491846102213586
  0.7838087629818702  0.2190206683447116  0.6849271860138515
  0.5554051197063501  0.1112226046741114  0.4376080109319958
  0.4133591364272107  0.2090883569500548  0.2000191405828673
  0.2300114866123195  0.1100671255027592  0.9343623174004136
  0.1093847805524817  0.2179002660338725  0.6839032819357485
  0.8843959769361618  0.1092504442468112  0.4221523418213593
  0.7823793687254579  0.2573053288607952  0.1720211178960227
  0.5908056720442545  0.1397371778019476  0.9575190970017005
  0.4476291394616752  0.2209511989087432  0.6871877775335449
  0.2202074840652841  0.4438363429108492  0.4399046773179904
  0.0798399583227152  0.5418469865502047  0.1994977663204835
  0.8683511436315499  0.4176763665721523  0.9489522721564398
  0.7813269491043044  0.5538727287108074  0.6883827995807081
  0.5539638093038803  0.4452466899884158  0.4416716964613272
  0.4425627935420948  0.5552500673869858  0.1895678391286282
  0.2152031820770333  0.4386850291983677  0.9433866769528834
  0.1062319169086479  0.5525745272359259  0.6884614474675530
  0.8850349116434657  0.4414573683124345  0.4085516760017995
  0.7921427045521483  0.5446432266485033  0.1989900875502926
  0.5545596987803592  0.4448091174411175  0.9426319001967300
  0.4443485280566506  0.5570621938449563  0.6937475701634526
  0.2223295270264813  0.7777355693757855  0.4410733575569381
  0.1279019111674131  0.9211408735485165  0.1982181972554073
  0.8778252548466341  0.7829774744233049  0.9506154200826558
  0.7798052430686582  0.8868972659268906  0.6840355505117444
  0.5548861550109478  0.7785638805951294  0.4363470740530389
  0.4450103761974731  0.8902868305609744  0.1898698451836367
  0.2235245132774750  0.7760355797031764  0.9459908264944374
  0.1109091046212356  0.8878405425313503  0.6862759949585850
  0.8870541278758637  0.7780148213252644  0.4336405006124195
  0.7774574121891789  0.8860577345170597  0.1617004744503205
  0.5876116928448525  0.7936720923831970  0.9476237425096414
  0.4487423994477524  0.8923055070873289  0.6983517287138810
  0.2213920474599291  0.1115860031846836  0.2521258641471604
  0.7556773495222870  0.2606920399423061  0.0218317273072586
  0.8883122921238211  0.4507452728245482  0.2472174746080569
  0.7830394834467569  0.8898620253440015  0.0004178030660213
  0.1067971597132171  0.2067640604627385  0.0030415755007382
  0.8878519359524688  0.1020730430576862  0.7614307808569833
  0.7813720070318197  0.2234729577052832  0.4912766291687660
  0.5514147410410999  0.1158744280682598  0.2480213507731861
  0.4421591174906894  0.2243027174060614  0.0085862344222676
  0.2234334719766267  0.1101351791560887  0.7467505060285831
  0.1078895476538193  0.2168945810961347  0.4899673076267774
  0.8891793926074172  0.1118644060495981  0.2282902108677547
  0.5661649497494068  0.1185689566867651  0.7560943194285912
  0.4411885828434947  0.2196941881061747  0.4942895667945990
  0.2156569263615111  0.4365098852346563  0.2501650326801936
  0.1002482799856139  0.5452507885506392  0.0079758805881482
  0.8842974893427638  0.4356442583063895  0.7542582546262437
  0.7809404646060543  0.5542734229455917  0.4929702717230171
  0.5522372424673421  0.4397869275776713  0.2523731600586601
  0.4480177263341716  0.5612637437578343  0.9993848900218012
  0.2174469640803238  0.4398350627192116  0.7494677220788049
  0.1044707484813401  0.5517327760434014  0.4933494190459555
  0.7768419428320925  0.5572441276341493  0.0074149604244695
  0.5563449907171361  0.4438110139375695  0.7496077552386424
  0.4442028081236060  0.5572144382159578  0.5014760475644806
  0.2182055246918182  0.7809686071628263  0.2505245290352747
  0.1118401740325581  0.8944068093135371  0.0053062547664382
  0.8882248523001479  0.7780604916821403  0.7543608064981058
  0.7789365988544787  0.8904791212409222  0.4957088152956217
  0.5594105562927254  0.7797637683132663  0.2447230568813694
  0.4644468182783896  0.8992561805966020  0.0018092291502541
  0.2206834492517871  0.7760685175430240  0.7521114395112036
  0.1115656855880118  0.8916989823537875  0.4933136546136652
  0.8945126350291872  0.7840719633963289  0.2435463081251115
  0.5635730222672208  0.7810661065930944  0.7555295636035666
  0.4467201701375387  0.8900003150192290  0.5030440407977679
 
  0.00000000E+00  0.00000000E+00  0.00000000E+00
  0.00000000E+00  0.00000000E+00  0.00000000E+00
  0.00000000E+00  0.00000000E+00  0.00000000E+00
  0.00000000E+00  0.00000000E+00  0.00000000E+00
  0.00000000E+00  0.00000000E+00  0.00000000E+00
  0.00000000E+00  0.00000000E+00  0.00000000E+00
  0.00000000E+00  0.00000000E+00  0.00000000E+00
  0.00000000E+00  0.00000000E+00  0.00000000E+00
  0.00000000E+00  0.00000000E+00  0.00000000E+00
  0.00000000E+00  0.00000000E+00  0.00000000E+00
  0.00000000E+00  0.00000000E+00  0.00000000E+00
  0.00000000E+00  0.00000000E+00  0.00000000E+00
  0.00000000E+00  0.00000000E+00  0.00000000E+00
  0.00000000E+00  0.00000000E+00  0.00000000E+00
  0.00000000E+00  0.00000000E+00  0.00000000E+00
  0.00000000E+00  0.00000000E+00  0.00000000E+00
  0.00000000E+00  0.00000000E+00  0.00000000E+00
  0.00000000E+00  0.00000000E+00  0.00000000E+00
  0.00000000E+00  0.00000000E+00  0.00000000E+00
  0.00000000E+00  0.00000000E+00  0.00000000E+00
  0.00000000E+00  0.00000000E+00  0.00000000E+00
  0.00000000E+00  0.00000000E+00  0.00000000E+00
  0.00000000E+00  0.00000000E+00  0.00000000E+00
  0.00000000E+00  0.00000000E+00  0.00000000E+00
  0.00000000E+00  0.00000000E+00  0.00000000E+00
  0.00000000E+00  0.00000000E+00  0.00000000E+00
  0.00000000E+00  0.00000000E+00  0.00000000E+00
  0.00000000E+00  0.00000000E+00  0.00000000E+00
  0.00000000E+00  0.00000000E+00  0.00000000E+00
  0.00000000E+00  0.00000000E+00  0.00000000E+00
  0.00000000E+00  0.00000000E+00  0.00000000E+00
  0.00000000E+00  0.00000000E+00  0.00000000E+00
  0.00000000E+00  0.00000000E+00  0.00000000E+00
  0.00000000E+00  0.00000000E+00  0.00000000E+00
  0.00000000E+00  0.00000000E+00  0.00000000E+00
  0.00000000E+00  0.00000000E+00  0.00000000E+00
  0.00000000E+00  0.00000000E+00  0.00000000E+00
  0.00000000E+00  0.00000000E+00  0.00000000E+00
  0.00000000E+00  0.00000000E+00  0.00000000E+00
  0.00000000E+00  0.00000000E+00  0.00000000E+00
  0.00000000E+00  0.00000000E+00  0.00000000E+00
  0.00000000E+00  0.00000000E+00  0.00000000E+00
  0.00000000E+00  0.00000000E+00  0.00000000E+00
  0.00000000E+00  0.00000000E+00  0.00000000E+00
  0.00000000E+00  0.00000000E+00  0.00000000E+00
  0.00000000E+00  0.00000000E+00  0.00000000E+00
  0.00000000E+00  0.00000000E+00  0.00000000E+00
  0.00000000E+00  0.00000000E+00  0.00000000E+00
  0.00000000E+00  0.00000000E+00  0.00000000E+00
  0.00000000E+00  0.00000000E+00  0.00000000E+00
  0.00000000E+00  0.00000000E+00  0.00000000E+00
  0.00000000E+00  0.00000000E+00  0.00000000E+00
  0.00000000E+00  0.00000000E+00  0.00000000E+00
  0.00000000E+00  0.00000000E+00  0.00000000E+00
  0.00000000E+00  0.00000000E+00  0.00000000E+00
  0.00000000E+00  0.00000000E+00  0.00000000E+00
  0.00000000E+00  0.00000000E+00  0.00000000E+00
  0.00000000E+00  0.00000000E+00  0.00000000E+00
  0.00000000E+00  0.00000000E+00  0.00000000E+00
  0.00000000E+00  0.00000000E+00  0.00000000E+00
  0.00000000E+00  0.00000000E+00  0.00000000E+00
  0.00000000E+00  0.00000000E+00  0.00000000E+00
  0.00000000E+00  0.00000000E+00  0.00000000E+00
  0.00000000E+00  0.00000000E+00  0.00000000E+00
  0.00000000E+00  0.00000000E+00  0.00000000E+00
  0.00000000E+00  0.00000000E+00  0.00000000E+00
  0.00000000E+00  0.00000000E+00  0.00000000E+00
  0.00000000E+00  0.00000000E+00  0.00000000E+00
  0.00000000E+00  0.00000000E+00  0.00000000E+00
  0.00000000E+00  0.00000000E+00  0.00000000E+00
  0.00000000E+00  0.00000000E+00  0.00000000E+00
  0.00000000E+00  0.00000000E+00  0.00000000E+00
