supercell of icsd_181358.cif            
   1.00000000000000     
    10.4076098216608202   -0.0031594045457001   -0.0240700158674707
    -5.2064313746751019    8.9464820838773971    0.0091981865701965
    -0.0268942516405939   -0.0035358155128591   10.5695071370982170
   N    Ga   Y 
    36    22    14
Direct
  0.2303319128463883  0.1480656605370356  0.4380848311240086
  0.1071029387308968  0.2250938514972134  0.2117760213528825
  0.8776117701889774  0.1186577181030728  0.9396963352082537
  0.7506804348096026  0.2309866007311783  0.6766619527214885
  0.5647270166283391  0.0928592830240476  0.4313492409665542
  0.4305393145551832  0.2330463192077019  0.1838896725019339
  0.2430975421340875  0.1237874071674128  0.9323984053255714
  0.1250948345037983  0.2132047868926676  0.6872609040275819
  0.8981426341175762  0.1403363794581196  0.4512154033511706
  0.8056169524434296  0.2369322913438978  0.1863114945544027
  0.5567981609234067  0.1095941895504424  0.9557061369730562
  0.4499367463259745  0.2236924018108084  0.7129528997885188
  0.1954157461473329  0.4391638833649267  0.4513095019708615
  0.1048017782675075  0.5543842841943984  0.2111465437300950
  0.8799185168500117  0.4162931324754737  0.9201332111500449
  0.7574405997470492  0.5317622846196883  0.6950896897865988
  0.5844547861466509  0.4501786441852857  0.4249245785347640
  0.4444079151618610  0.5529018323224264  0.1991717243638362
  0.2367647904713479  0.4551802714835915  0.9412350615792775
  0.0889921236693709  0.5702765184593090  0.6845277025938046
  0.8850415725863670  0.4429688342905820  0.4433094215583608
  0.7678381282022499  0.5232402485562346  0.1916143406309772
  0.5267050462778187  0.4368124236538691  0.9369991306657397
  0.4672400047245375  0.5636354489926063  0.6854511345742864
  0.2389989114657212  0.7638103001770702  0.4423041641877745
  0.1381611598470442  0.9018849485247387  0.2298889827292143
  0.9001752234624902  0.7819549339236005  0.9617928365085007
  0.7573999448100182  0.8793864156257811  0.6988052036137944
  0.5354496115383327  0.7803684724258346  0.4273946521190481
  0.4259963432350062  0.8556962120772269  0.1750323056868197
  0.2451303438877943  0.7852566116257478  0.9216748748561798
  0.1454529180465727  0.9098613240875650  0.6946226604437271
  0.8860625434100058  0.7595891089303706  0.4660538592652586
  0.7697825491841215  0.9005988036523718  0.2234998315728163
  0.5303561351978630  0.7592686067740928  0.9337344489665043
  0.4487989965487600  0.8883010641292373  0.6895466797607313
  0.2298343365252151  0.1331271498407887  0.2577805347289228
  0.7721758609523661  0.2262705791188750  0.4941115167454129
  0.4408083725412979  0.2302372438664833  0.9935331697959242
  0.2376342030344603  0.1175312869371226  0.7490270613412235
  0.1104906496541957  0.2289767006749912  0.4990015568987189
  0.8945441489576567  0.1268786105722839  0.2608039899841330
  0.7816421559739197  0.2229831951933079  0.9975486510529663
  0.5525037653976099  0.1128537315867177  0.7584753981121892
  0.2042118150612282  0.4396261359109701  0.2622959580851187
  0.8727371543027687  0.4366792005097793  0.7381874005270177
  0.7789408676032110  0.5456303429121405  0.5025162078830547
  0.5570302002994012  0.4389606235620960  0.2433921896466273
  0.4362958890979058  0.5516360407384155  0.0032216446254765
  0.0998088460201174  0.5552543470637943  0.4983221004366953
  0.8881743418427348  0.4382103458211120  0.2574609254090063
  0.5475690901032024  0.4411271477513807  0.7518864143486610
  0.2326853988389388  0.7675981806709231  0.2606772437768043
  0.5402276476719976  0.7724800771833173  0.2477071133665092
  0.4399203005078220  0.8737230927840258  0.9889100991932196
  0.2331733642884544  0.7895243259858233  0.7403409907580922
  0.5505531068904901  0.7715256497998979  0.7483188787816388
  0.4486155200649051  0.8856518927868606  0.5013036398923347
  0.1137391694661076  0.2239738431234954  0.9992396808146538
  0.8813734603461398  0.1213325413237314  0.7312556069809233
  0.5554732400592854  0.1049827730176816  0.2187624850637064
  0.4629477852584714  0.2242383277026505  0.5023016672878029
  0.1096786896455981  0.5566711916233231  0.9963796325856080
  0.2287788856706641  0.4581193047157939  0.7313339602518383
  0.7641965316057338  0.5340788012735658  0.9828678173150536
  0.4437959809315046  0.5473074753566181  0.4749488902903920
  0.1422186445435543  0.9017850842869706  0.0092349908628933
  0.8986866577535864  0.7785322187283228  0.7341629645645895
  0.7684331018065365  0.8921900479177509  0.4812323290333893
  0.1318672853103067  0.8996098058198925  0.4802486743020964
  0.8857196072890758  0.7635603896696779  0.2476906391117524
  0.7630479775900483  0.8881007962938128  0.0029521374011878
 
  0.00000000E+00  0.00000000E+00  0.00000000E+00
  0.00000000E+00  0.00000000E+00  0.00000000E+00
  0.00000000E+00  0.00000000E+00  0.00000000E+00
  0.00000000E+00  0.00000000E+00  0.00000000E+00
  0.00000000E+00  0.00000000E+00  0.00000000E+00
  0.00000000E+00  0.00000000E+00  0.00000000E+00
  0.00000000E+00  0.00000000E+00  0.00000000E+00
  0.00000000E+00  0.00000000E+00  0.00000000E+00
  0.00000000E+00  0.00000000E+00  0.00000000E+00
  0.00000000E+00  0.00000000E+00  0.00000000E+00
  0.00000000E+00  0.00000000E+00  0.00000000E+00
  0.00000000E+00  0.00000000E+00  0.00000000E+00
  0.00000000E+00  0.00000000E+00  0.00000000E+00
  0.00000000E+00  0.00000000E+00  0.00000000E+00
  0.00000000E+00  0.00000000E+00  0.00000000E+00
  0.00000000E+00  0.00000000E+00  0.00000000E+00
  0.00000000E+00  0.00000000E+00  0.00000000E+00
  0.00000000E+00  0.00000000E+00  0.00000000E+00
  0.00000000E+00  0.00000000E+00  0.00000000E+00
  0.00000000E+00  0.00000000E+00  0.00000000E+00
  0.00000000E+00  0.00000000E+00  0.00000000E+00
  0.00000000E+00  0.00000000E+00  0.00000000E+00
  0.00000000E+00  0.00000000E+00  0.00000000E+00
  0.00000000E+00  0.00000000E+00  0.00000000E+00
  0.00000000E+00  0.00000000E+00  0.00000000E+00
  0.00000000E+00  0.00000000E+00  0.00000000E+00
  0.00000000E+00  0.00000000E+00  0.00000000E+00
  0.00000000E+00  0.00000000E+00  0.00000000E+00
  0.00000000E+00  0.00000000E+00  0.00000000E+00
  0.00000000E+00  0.00000000E+00  0.00000000E+00
  0.00000000E+00  0.00000000E+00  0.00000000E+00
  0.00000000E+00  0.00000000E+00  0.00000000E+00
  0.00000000E+00  0.00000000E+00  0.00000000E+00
  0.00000000E+00  0.00000000E+00  0.00000000E+00
  0.00000000E+00  0.00000000E+00  0.00000000E+00
  0.00000000E+00  0.00000000E+00  0.00000000E+00
  0.00000000E+00  0.00000000E+00  0.00000000E+00
  0.00000000E+00  0.00000000E+00  0.00000000E+00
  0.00000000E+00  0.00000000E+00  0.00000000E+00
  0.00000000E+00  0.00000000E+00  0.00000000E+00
  0.00000000E+00  0.00000000E+00  0.00000000E+00
  0.00000000E+00  0.00000000E+00  0.00000000E+00
  0.00000000E+00  0.00000000E+00  0.00000000E+00
  0.00000000E+00  0.00000000E+00  0.00000000E+00
  0.00000000E+00  0.00000000E+00  0.00000000E+00
  0.00000000E+00  0.00000000E+00  0.00000000E+00
  0.00000000E+00  0.00000000E+00  0.00000000E+00
  0.00000000E+00  0.00000000E+00  0.00000000E+00
  0.00000000E+00  0.00000000E+00  0.00000000E+00
  0.00000000E+00  0.00000000E+00  0.00000000E+00
  0.00000000E+00  0.00000000E+00  0.00000000E+00
  0.00000000E+00  0.00000000E+00  0.00000000E+00
  0.00000000E+00  0.00000000E+00  0.00000000E+00
  0.00000000E+00  0.00000000E+00  0.00000000E+00
  0.00000000E+00  0.00000000E+00  0.00000000E+00
  0.00000000E+00  0.00000000E+00  0.00000000E+00
  0.00000000E+00  0.00000000E+00  0.00000000E+00
  0.00000000E+00  0.00000000E+00  0.00000000E+00
  0.00000000E+00  0.00000000E+00  0.00000000E+00
  0.00000000E+00  0.00000000E+00  0.00000000E+00
  0.00000000E+00  0.00000000E+00  0.00000000E+00
  0.00000000E+00  0.00000000E+00  0.00000000E+00
  0.00000000E+00  0.00000000E+00  0.00000000E+00
  0.00000000E+00  0.00000000E+00  0.00000000E+00
  0.00000000E+00  0.00000000E+00  0.00000000E+00
  0.00000000E+00  0.00000000E+00  0.00000000E+00
  0.00000000E+00  0.00000000E+00  0.00000000E+00
  0.00000000E+00  0.00000000E+00  0.00000000E+00
  0.00000000E+00  0.00000000E+00  0.00000000E+00
  0.00000000E+00  0.00000000E+00  0.00000000E+00
  0.00000000E+00  0.00000000E+00  0.00000000E+00
  0.00000000E+00  0.00000000E+00  0.00000000E+00
