supercell of 100% icsd_608626.cif, 0% i 
   1.00000000000000     
    -9.9527787403162602   -0.0580604941320062    0.0948356259197421
    -4.9258727075082920    8.2167845835949169    0.0990537339798786
     0.1011941948715480   -0.0622427161365222  -10.1956779726968954
   Al   Si   Sr   N 
    26     5     5    36
Direct
  0.1241487671817794  0.0987792041140381  0.2975448932766014
  0.8837166562671896  0.2048836840006842  0.5268225531795210
  0.4373439309771570  0.0997233036117038  0.2932822344223851
  0.5394028418254138  0.2129576847616974  0.0495605245089052
  0.2330915935986013  0.2120574498206764  0.5498794824159319
  0.7586989934383155  0.0971767562827708  0.3161483522814024
  0.4400557437717936  0.0981467580476476  0.8001544542571253
  0.5447811034873027  0.2105357638905190  0.5287076535027353
  0.2279809986355517  0.5447909435418126  0.0487091710601817
  0.7989416940829130  0.4074364276666600  0.7965147108376414
  0.4417633958707512  0.4346714503391667  0.2930597611952805
  0.1168418735891379  0.4279176570115624  0.8039238523590626
  0.2438148781730760  0.5276304835883892  0.5487630511911163
  0.7754363383023275  0.4303977715289946  0.2836554998331948
  0.8747836339479562  0.5396008351696366  0.0459680084573506
  0.4274558004472198  0.4296092452589448  0.8004723086076027
  0.5542416142062905  0.5283251897792098  0.5558485290137583
  0.1189845696834482  0.7655371857016178  0.2795767143293588
  0.2438939737125594  0.8732907934720728  0.0478071244682639
  0.7638042063861548  0.7646771925387341  0.8199523096771202
  0.4507245057237270  0.7596121282470563  0.3003918150562654
  0.5457145439150253  0.8743789453545006  0.0467313199512205
  0.2423152444403271  0.8663897207163274  0.5439567308376496
  0.7738958912785776  0.7565580642323937  0.2792045160053434
  0.8515052145257584  0.8806778122511716  0.0813659915592950
  0.5561258385683274  0.8776896080355883  0.5586561448386149
  0.2295971051675849  0.2006067553940980  0.0462728830340353
  0.1290709250384126  0.0974354241485003  0.7895724729988771
  0.1134428986349576  0.4282731487311011  0.2870669382159647
  0.5474585279658797  0.5488688873741125  0.0460135162043116
  0.4467415174502563  0.7684569610730705  0.7974014560594966
  0.7572483153607052  0.0939303172574100  0.7591594261813128
  0.8969816510370165  0.1683082548295047  0.0559163833343774
  0.8836891559590896  0.5300569205738839  0.5538023008276269
  0.9158123927197224  0.8269937515137400  0.5191197824538776
  0.0910712043914046  0.7848903010652535  0.8147111500630757
  0.2171740973753487  0.2248605528821770  0.3567092917088885
  0.1624619873127955  0.0846926195592772  0.1148193834972773
  0.9384466444421307  0.1877908157108408  0.8295348982449937
  0.7636924584897216  0.1091919540087289  0.5127863852462227
  0.5230827559897477  0.2228415967566164  0.3469291542449611
  0.4262074885011060  0.1044490375375133  0.1017590085205882
  0.2213410932047211  0.2030455563085880  0.8652822533322322
  0.1313085088389201  0.0944829076223570  0.6084221753368979
  0.9048928952078157  0.2110732648473999  0.3373324667742921
  0.7237398037072182  0.0972110151418306  0.1340355655459717
  0.5189095521991689  0.2225613689748869  0.8690421288008139
  0.4438789060498110  0.0998091077238712  0.6078700331718210
  0.2147050780807405  0.5346330394913181  0.3399323656455238
  0.1224337294074616  0.4122654433108366  0.1073456878430363
  0.8928347696785295  0.5279810197676653  0.8569689408874908
  0.7556810098685744  0.3972505534742439  0.6216129194293316
  0.5595078136756939  0.5376914042804017  0.3621927644065650
  0.4471227246498728  0.4475178198177403  0.1049279229366675
  0.2307324890373437  0.5136967345947951  0.8725187726427492
  0.1480667537383624  0.4197917062741254  0.6204823117705871
  0.9077222356510930  0.5292605655170561  0.3138586545931545
  0.7417167478581064  0.4578727766325414  0.0987977990289437
  0.5353948011148404  0.5592443573479855  0.8659086126863329
  0.4524228564008297  0.4179058973232586  0.6105915478334794
  0.2341910073056965  0.8754655414712147  0.3527334094669712
  0.1305690655401079  0.7705984484271653  0.0938944243756765
  0.8463079957355504  0.8739914056256239  0.9020150212426401
  0.7418677748785285  0.7924915364081571  0.6428939906394220
  0.5593382116684822  0.8720592978478692  0.3593133986228949
  0.4518477646332570  0.7520086485323247  0.1086326546478844
  0.2552876855275770  0.8987122535512384  0.8568076860782909
  0.1691526947407809  0.7386665261661136  0.5877556609201520
  0.8991266688074973  0.8550951207445650  0.2880434743460967
  0.7517728645810848  0.7551054019955359  0.1011491791172929
  0.5407668020223397  0.8695882012134390  0.8611766998695458
  0.4557167243174334  0.7578237221865294  0.6202293400483825
 
  0.00000000E+00  0.00000000E+00  0.00000000E+00
  0.00000000E+00  0.00000000E+00  0.00000000E+00
  0.00000000E+00  0.00000000E+00  0.00000000E+00
  0.00000000E+00  0.00000000E+00  0.00000000E+00
  0.00000000E+00  0.00000000E+00  0.00000000E+00
  0.00000000E+00  0.00000000E+00  0.00000000E+00
  0.00000000E+00  0.00000000E+00  0.00000000E+00
  0.00000000E+00  0.00000000E+00  0.00000000E+00
  0.00000000E+00  0.00000000E+00  0.00000000E+00
  0.00000000E+00  0.00000000E+00  0.00000000E+00
  0.00000000E+00  0.00000000E+00  0.00000000E+00
  0.00000000E+00  0.00000000E+00  0.00000000E+00
  0.00000000E+00  0.00000000E+00  0.00000000E+00
  0.00000000E+00  0.00000000E+00  0.00000000E+00
  0.00000000E+00  0.00000000E+00  0.00000000E+00
  0.00000000E+00  0.00000000E+00  0.00000000E+00
  0.00000000E+00  0.00000000E+00  0.00000000E+00
  0.00000000E+00  0.00000000E+00  0.00000000E+00
  0.00000000E+00  0.00000000E+00  0.00000000E+00
  0.00000000E+00  0.00000000E+00  0.00000000E+00
  0.00000000E+00  0.00000000E+00  0.00000000E+00
  0.00000000E+00  0.00000000E+00  0.00000000E+00
  0.00000000E+00  0.00000000E+00  0.00000000E+00
  0.00000000E+00  0.00000000E+00  0.00000000E+00
  0.00000000E+00  0.00000000E+00  0.00000000E+00
  0.00000000E+00  0.00000000E+00  0.00000000E+00
  0.00000000E+00  0.00000000E+00  0.00000000E+00
  0.00000000E+00  0.00000000E+00  0.00000000E+00
  0.00000000E+00  0.00000000E+00  0.00000000E+00
  0.00000000E+00  0.00000000E+00  0.00000000E+00
  0.00000000E+00  0.00000000E+00  0.00000000E+00
  0.00000000E+00  0.00000000E+00  0.00000000E+00
  0.00000000E+00  0.00000000E+00  0.00000000E+00
  0.00000000E+00  0.00000000E+00  0.00000000E+00
  0.00000000E+00  0.00000000E+00  0.00000000E+00
  0.00000000E+00  0.00000000E+00  0.00000000E+00
  0.00000000E+00  0.00000000E+00  0.00000000E+00
  0.00000000E+00  0.00000000E+00  0.00000000E+00
  0.00000000E+00  0.00000000E+00  0.00000000E+00
  0.00000000E+00  0.00000000E+00  0.00000000E+00
  0.00000000E+00  0.00000000E+00  0.00000000E+00
  0.00000000E+00  0.00000000E+00  0.00000000E+00
  0.00000000E+00  0.00000000E+00  0.00000000E+00
  0.00000000E+00  0.00000000E+00  0.00000000E+00
  0.00000000E+00  0.00000000E+00  0.00000000E+00
  0.00000000E+00  0.00000000E+00  0.00000000E+00
  0.00000000E+00  0.00000000E+00  0.00000000E+00
  0.00000000E+00  0.00000000E+00  0.00000000E+00
  0.00000000E+00  0.00000000E+00  0.00000000E+00
  0.00000000E+00  0.00000000E+00  0.00000000E+00
  0.00000000E+00  0.00000000E+00  0.00000000E+00
  0.00000000E+00  0.00000000E+00  0.00000000E+00
  0.00000000E+00  0.00000000E+00  0.00000000E+00
  0.00000000E+00  0.00000000E+00  0.00000000E+00
  0.00000000E+00  0.00000000E+00  0.00000000E+00
  0.00000000E+00  0.00000000E+00  0.00000000E+00
  0.00000000E+00  0.00000000E+00  0.00000000E+00
  0.00000000E+00  0.00000000E+00  0.00000000E+00
  0.00000000E+00  0.00000000E+00  0.00000000E+00
  0.00000000E+00  0.00000000E+00  0.00000000E+00
  0.00000000E+00  0.00000000E+00  0.00000000E+00
  0.00000000E+00  0.00000000E+00  0.00000000E+00
  0.00000000E+00  0.00000000E+00  0.00000000E+00
  0.00000000E+00  0.00000000E+00  0.00000000E+00
  0.00000000E+00  0.00000000E+00  0.00000000E+00
  0.00000000E+00  0.00000000E+00  0.00000000E+00
  0.00000000E+00  0.00000000E+00  0.00000000E+00
  0.00000000E+00  0.00000000E+00  0.00000000E+00
  0.00000000E+00  0.00000000E+00  0.00000000E+00
  0.00000000E+00  0.00000000E+00  0.00000000E+00
  0.00000000E+00  0.00000000E+00  0.00000000E+00
  0.00000000E+00  0.00000000E+00  0.00000000E+00
