supercell of 100% icsd_608626.cif, 0% i 
   1.00000000000000     
    -9.7370568489236007   -0.1221885651314171    0.0307437423886103
    -4.7621359858746972    8.4096188580943902    0.0453992972071461
     0.0342340350162869   -0.0354856172027627  -10.1308566056380922
   Al   Si   Sr   N 
    26     5     5    36
Direct
  0.1055365455416890  0.1025642180965249  0.2827446368790163
  0.2245061527851604  0.2018615669012220  0.0414423065141705
  0.7776453440743154  0.0969514547819159  0.7978677135115504
  0.8858377198219571  0.1997207872917599  0.5545361537356897
  0.4427871865646651  0.0954393084582819  0.3033934769094273
  0.1087742691535425  0.0961125493405746  0.8006867045293262
  0.2197818791793722  0.2063183340828658  0.5586017996711945
  0.8868903492308462  0.2175129665433957  0.0397826352255137
  0.4409282943275414  0.0901264756772875  0.7940777564533121
  0.5612499960434647  0.1986044578268249  0.5590692979421092
  0.1116338161665027  0.4193732334736922  0.2634394144786327
  0.7723306850032685  0.4215460557964832  0.7886102640093711
  0.4621732901858309  0.4164358675063653  0.2747893323925155
  0.5737712819866587  0.5335503684018903  0.0362535054181166
  0.1335122249028231  0.4101749143436848  0.8158148472631979
  0.5510271123773265  0.5348687123126794  0.5661346492487453
  0.2229077619923530  0.8727798923210983  0.0691619586925327
  0.7601395819801837  0.7832073686581538  0.8001264494067826
  0.8645569862648017  0.8914894959036630  0.5590456345979717
  0.4397575654222337  0.7618646185686018  0.2851183586138077
  0.5562940884781895  0.8711880079169205  0.0466379631861997
  0.0962647792332589  0.7770789798753981  0.8023994872358955
  0.7705016787903389  0.7715904478856075  0.2931147488627417
  0.8859478706337853  0.8701322749843214  0.0414447281691324
  0.4420928451757007  0.7625314622308750  0.8049246610317695
  0.5546093011475293  0.8715165054992156  0.5507079813081859
  0.5713579521570438  0.1972293952430419  0.0503114200524877
  0.7683751735372297  0.0960508518016567  0.3049911589490435
  0.1993352626058780  0.5458420037663245  0.0609923041396243
  0.8791276989566867  0.5474577540288266  0.0249667981522776
  0.4530172105683050  0.4188808005397959  0.8119083514831260
  0.9054699566777700  0.5491861608802893  0.5714154932316973
  0.2435347198357292  0.5166050713367056  0.5135948261707100
  0.7672326085073564  0.4456017754869990  0.3189466697932062
  0.0963517934707951  0.7516563092297446  0.3100737121548320
  0.2275756083739751  0.8720950902921132  0.5334627194295436
  0.2161442747746918  0.2150284724386680  0.3512701721534981
  0.0983425573784018  0.1136448333849387  0.0941377749802115
  0.8849525666310498  0.2066600256486382  0.8553629422657423
  0.7708014383124464  0.1017268262512161  0.6140636746303372
  0.5614460950855644  0.2104611968936467  0.3604551345439546
  0.4547944867863976  0.1032674909763216  0.1080017460923912
  0.2339658039088661  0.1903733570961492  0.8619673316266088
  0.0887284646440136  0.1288777766004614  0.6172652318132563
  0.8998662233891963  0.1623471022841514  0.3591328470698230
  0.7739900886526101  0.0863791857176608  0.1165074048715340
  0.5571868133292455  0.2067951441239302  0.8705041035171774
  0.4406688515584065  0.0913475935926726  0.6010164213395655
  0.2591612299649597  0.4819641936804544  0.2272624784933654
  0.0837850007832799  0.4395208517809905  0.0658678199904372
  0.8797648136797633  0.5518858235662663  0.8483909826833766
  0.7621468859086704  0.4100082886025547  0.6009896571469966
  0.4848327400471604  0.5683207871958942  0.3784999191692080
  0.5296088835560013  0.3822612330537254  0.1017527329374772
  0.2566717884863294  0.5109752585685072  0.8856220437368663
  0.1586043262022443  0.3901239889730164  0.6426225941674986
  0.9324923663379181  0.5733815505988034  0.3347370854039298
  0.7903248561064942  0.4397992945771847  0.0748321137445984
  0.5515969515356716  0.5301094490781750  0.8533114054642468
  0.4726192507666909  0.4024936584157999  0.6427103169837451
  0.2321051592980439  0.8930965036818108  0.2803676056516551
  0.1027724714508622  0.7534718312778139  0.0689954373598738
  0.8758427816824508  0.8865300732565018  0.8601918689507215
  0.7426321909274805  0.8147372238469188  0.6234647780175209
  0.5523511171966646  0.8666047287876495  0.3516790659530358
  0.4603494949420437  0.7469404401315884  0.0947837658457686
  0.2212744975119918  0.8745632969132231  0.8570506050213922
  0.0701365160701712  0.7652220326935577  0.6186359654429410
  0.8275181846880102  0.9128274415732207  0.3655459507595751
  0.7794363670314652  0.7520921351438616  0.0935155853102358
  0.5481561363302703  0.8802564200967282  0.8634977878173231
  0.4820917338903854  0.7407589522125164  0.6253977302005964
 
  0.00000000E+00  0.00000000E+00  0.00000000E+00
  0.00000000E+00  0.00000000E+00  0.00000000E+00
  0.00000000E+00  0.00000000E+00  0.00000000E+00
  0.00000000E+00  0.00000000E+00  0.00000000E+00
  0.00000000E+00  0.00000000E+00  0.00000000E+00
  0.00000000E+00  0.00000000E+00  0.00000000E+00
  0.00000000E+00  0.00000000E+00  0.00000000E+00
  0.00000000E+00  0.00000000E+00  0.00000000E+00
  0.00000000E+00  0.00000000E+00  0.00000000E+00
  0.00000000E+00  0.00000000E+00  0.00000000E+00
  0.00000000E+00  0.00000000E+00  0.00000000E+00
  0.00000000E+00  0.00000000E+00  0.00000000E+00
  0.00000000E+00  0.00000000E+00  0.00000000E+00
  0.00000000E+00  0.00000000E+00  0.00000000E+00
  0.00000000E+00  0.00000000E+00  0.00000000E+00
  0.00000000E+00  0.00000000E+00  0.00000000E+00
  0.00000000E+00  0.00000000E+00  0.00000000E+00
  0.00000000E+00  0.00000000E+00  0.00000000E+00
  0.00000000E+00  0.00000000E+00  0.00000000E+00
  0.00000000E+00  0.00000000E+00  0.00000000E+00
  0.00000000E+00  0.00000000E+00  0.00000000E+00
  0.00000000E+00  0.00000000E+00  0.00000000E+00
  0.00000000E+00  0.00000000E+00  0.00000000E+00
  0.00000000E+00  0.00000000E+00  0.00000000E+00
  0.00000000E+00  0.00000000E+00  0.00000000E+00
  0.00000000E+00  0.00000000E+00  0.00000000E+00
  0.00000000E+00  0.00000000E+00  0.00000000E+00
  0.00000000E+00  0.00000000E+00  0.00000000E+00
  0.00000000E+00  0.00000000E+00  0.00000000E+00
  0.00000000E+00  0.00000000E+00  0.00000000E+00
  0.00000000E+00  0.00000000E+00  0.00000000E+00
  0.00000000E+00  0.00000000E+00  0.00000000E+00
  0.00000000E+00  0.00000000E+00  0.00000000E+00
  0.00000000E+00  0.00000000E+00  0.00000000E+00
  0.00000000E+00  0.00000000E+00  0.00000000E+00
  0.00000000E+00  0.00000000E+00  0.00000000E+00
  0.00000000E+00  0.00000000E+00  0.00000000E+00
  0.00000000E+00  0.00000000E+00  0.00000000E+00
  0.00000000E+00  0.00000000E+00  0.00000000E+00
  0.00000000E+00  0.00000000E+00  0.00000000E+00
  0.00000000E+00  0.00000000E+00  0.00000000E+00
  0.00000000E+00  0.00000000E+00  0.00000000E+00
  0.00000000E+00  0.00000000E+00  0.00000000E+00
  0.00000000E+00  0.00000000E+00  0.00000000E+00
  0.00000000E+00  0.00000000E+00  0.00000000E+00
  0.00000000E+00  0.00000000E+00  0.00000000E+00
  0.00000000E+00  0.00000000E+00  0.00000000E+00
  0.00000000E+00  0.00000000E+00  0.00000000E+00
  0.00000000E+00  0.00000000E+00  0.00000000E+00
  0.00000000E+00  0.00000000E+00  0.00000000E+00
  0.00000000E+00  0.00000000E+00  0.00000000E+00
  0.00000000E+00  0.00000000E+00  0.00000000E+00
  0.00000000E+00  0.00000000E+00  0.00000000E+00
  0.00000000E+00  0.00000000E+00  0.00000000E+00
  0.00000000E+00  0.00000000E+00  0.00000000E+00
  0.00000000E+00  0.00000000E+00  0.00000000E+00
  0.00000000E+00  0.00000000E+00  0.00000000E+00
  0.00000000E+00  0.00000000E+00  0.00000000E+00
  0.00000000E+00  0.00000000E+00  0.00000000E+00
  0.00000000E+00  0.00000000E+00  0.00000000E+00
  0.00000000E+00  0.00000000E+00  0.00000000E+00
  0.00000000E+00  0.00000000E+00  0.00000000E+00
  0.00000000E+00  0.00000000E+00  0.00000000E+00
  0.00000000E+00  0.00000000E+00  0.00000000E+00
  0.00000000E+00  0.00000000E+00  0.00000000E+00
  0.00000000E+00  0.00000000E+00  0.00000000E+00
  0.00000000E+00  0.00000000E+00  0.00000000E+00
  0.00000000E+00  0.00000000E+00  0.00000000E+00
  0.00000000E+00  0.00000000E+00  0.00000000E+00
  0.00000000E+00  0.00000000E+00  0.00000000E+00
  0.00000000E+00  0.00000000E+00  0.00000000E+00
  0.00000000E+00  0.00000000E+00  0.00000000E+00
