generated by phonopy                    
   1.00000000000000     
    11.7777700938999992   -0.0000006592896312    0.0000118211769744
    -0.0000006477562692   11.7777479613999994   -0.0000130806483528
     0.0000177256125076   -0.0000204342245446   17.8544012557999991
   Bi   Cu   Se   F    O 
    36    36    36     1    35
Direct
  0.9891898889625423  0.1667989482579557  0.4249426983644398
  0.3441951289653460  0.1668117550141730  0.4249650603806927
  0.6666993299029755  0.1667839403227802  0.4290393886631989
  0.9999263781416587  0.4994629646042199  0.4288339235203296
  0.3334748552885500  0.4994543749281775  0.4288547731628967
  0.6666929164323534  0.4998789908166898  0.4295759598820368
  0.9999264573280797  0.8341278558734828  0.4288370667080699
  0.3334715693914774  0.8341516141866663  0.4288434038208635
  0.6666916771555123  0.8337001570193507  0.4295732090063069
  0.9999089194869484  0.1666684152120510  0.9292362964516059
  0.3334241120197063  0.1666738864995736  0.9292288184144368
  0.6666729655943371  0.1666672948693702  0.9292132579354870
  0.9998769192495800  0.4997942547125760  0.9291999942934694
  0.3334527945178110  0.4997975517203770  0.9291912323973079
  0.6666664049756790  0.4997550335167205  0.9292844683448607
  0.9998823604447509  0.8335479131130796  0.9292023305600097
  0.3334538657992496  0.8335526903199266  0.9291930054885427
  0.6666662036213253  0.8335853321574902  0.9292845992897227
  0.1666709164372548  0.9999221499237620  0.0709166704799529
  0.4997883999951043  0.9998892797594436  0.0709543745378340
  0.8335467760124260  0.9998789815398368  0.0709620588988997
  0.1666676522222375  0.3334281970970210  0.0709123856063059
  0.4997869878430805  0.3334591773151914  0.0709522331698906
  0.8335443366687016  0.3334582047413051  0.0709591752571512
  0.1666681497339866  0.6666738801798431  0.0709420554303648
  0.4997459086494942  0.6666744732725505  0.0708751859976644
  0.8335834607365911  0.6666725986420659  0.0708837419409676
  0.1666965857494347  0.9892856730665756  0.5752004660036718
  0.4993823549087324  0.0000205927629153  0.5713089711952577
  0.8340414746132936  0.0000134224893031  0.5713024466698187
  0.1666884681831604  0.3442943554465216  0.5752085096909312
  0.4993820620428124  0.3335656060571424  0.5713176686856940
  0.8340339880158467  0.3335675778730547  0.5712973361842231
  0.1667025481105000  0.6667904444094432  0.5711011374533896
  0.4997775885545863  0.6667976544312637  0.5705677282056811
  0.8336102865447472  0.6667934430915565  0.5705565365329406
  0.0016075184428104  0.9998399497248940  0.2498181654946805
  0.3317916902598625  0.9998514655307957  0.2498124453897503
  0.6666799942207291  0.0016043215952948  0.2495751978839564
  0.0016200256782213  0.3335721352930747  0.2498158434350941
  0.3317903682460965  0.3335822252681453  0.2498104885758892
  0.6666789885681297  0.3317834689929953  0.2495717481036976
  0.0010958358792195  0.6666995803781077  0.2502729142172555
  0.3322857558325154  0.6667139491636718  0.2502648799194205
  0.6666818080633874  0.6666987940125608  0.2505890092246048
  0.9997953137219611  0.0016551093879045  0.7503301958784618
  0.3335475317991055  0.0016532511443330  0.7503362550653918
  0.6666904965484548  0.0011533546403442  0.7498756076517807
  0.9997835107007234  0.3318544680882454  0.7503289345972703
  0.3335466661185649  0.3318589645538879  0.7503349601089013
  0.6666813329550578  0.3323531893620100  0.7498746325283179
  0.0015603453586195  0.6667664234082480  0.7505764867826912
  0.3317636330239679  0.6667768936247640  0.7505818240753896
  0.6666783042871671  0.6667599722511426  0.7495638419809367
  0.1666844940875905  0.1667601956440024  0.2500424433556105
  0.4999026704644436  0.1667606435877573  0.2485321433297827
  0.8334507607181081  0.1667514776272156  0.2485236548125087
  0.1666852728993788  0.4990828028549572  0.2509468524113743
  0.4984786392332836  0.5019852885460949  0.2496216239047300
  0.8348604297825091  0.5019755428299888  0.2496090854962745
  0.1666994776330242  0.8344358924168915  0.2509487372922550
  0.4984788657538388  0.8315500961369793  0.2496247514446637
  0.8348583247528794  0.8315310062255818  0.2496132231972723
  0.1666841134935950  0.1667050798840890  0.7501069138558165
  0.4990191125758727  0.1667090944158076  0.7492071120865660
  0.8343647834221244  0.1666897405711936  0.7492152137083252
  0.1666704234325067  0.4999355083914452  0.7516186983367348
  0.5019183968197680  0.4985220901324823  0.7505317980262163
  0.8314598362916357  0.4985283085393419  0.7505350686303274
  0.1666706286538684  0.8334772907447814  0.7516120474577974
  0.5019220261645714  0.8348830078984477  0.7505242370853509
  0.8314692463333202  0.8348703881093513  0.7505298195186469
  0.1666977434810519  0.3324727150321181  0.3382762032801665
  0.4994484268020116  0.3327639517778280  0.3373013929686977
  0.8339230534471369  0.3327587713696261  0.3372885943199577
  0.1666937089742220  0.6667599385663863  0.3381590508457251
  0.4994598146706082  0.6667601919717114  0.3379969778093397
  0.8339165718513115  0.6667534945690221  0.3379961974777856
  0.1667012755913291  0.0010503693618986  0.3382739683032199
  0.4994503679816304  0.0007594988393222  0.3373051064849264
  0.8339255701293524  0.0007490250318938  0.3372921909715387
  0.1666667294434419  0.3330993029051896  0.8373982113942375
  0.5001217459911658  0.3328153303728598  0.8372469398329940
  0.8332280872572895  0.3328087009274583  0.8372478292010399
  0.1666628019618983  0.6667056324403760  0.8377861884061488
  0.4992000030258552  0.6667022687040287  0.8357037010805186
  0.8341449977052591  0.6667016724809187  0.8357122308126890
  0.1666705057326467  0.0003061729493226  0.8373979850366382
  0.5001254254572984  0.0005895088930572  0.8372415621605782
  0.8332332436531615  0.0005793334433122  0.8372491239338018
  0.3330746360184378  0.1667052596500938  0.1627417188137699
  0.6666695723671481  0.1666911539845799  0.1623576026071873
  0.0002908985238506  0.1666990376212070  0.1627452601081600
  0.3327852710953678  0.5001456715016701  0.1628969072573128
  0.6666684924274406  0.4992153311527900  0.1644449719080683
  0.0005678426408693  0.5001388738171926  0.1628995173677481
  0.3327904035976204  0.8332667427217970  0.1628970731568842
  0.6666681870330677  0.8341736746899855  0.1644439601607104
  0.0005737892683442  0.8332588279824549  0.1629059136606088
  0.3324037359428971  0.1667650020587530  0.6618804589227167
  0.6666946898866257  0.1667567150453166  0.6619841849021171
  0.0009687592368692  0.1667591402454818  0.6618744024513248
  0.3326909381389029  0.4995340975653235  0.6628555016479538
  0.6666918501004488  0.4995326946432925  0.6621483682714313
  0.0006686789954671  0.4995348807506375  0.6628502074447695
  0.3326989876941155  0.8339964838644960  0.6628506242725152
  0.6666974640573500  0.8339869488854106  0.6621451942226173
  0.0006800141125467  0.8339950309174711  0.6628437261841214
  0.1666879286576801  0.1667911655250833  0.5000764220808094
  0.5010362336857810  0.1667872361215004  0.4992923152762998
  0.8323638524825085  0.1667680724762377  0.4992844972337451
  0.1666841941690009  0.5011163293765222  0.5008660801166158
  0.4997369329348018  0.4998148097978046  0.5000810383903271
  0.8336582193261890  0.4998227921407548  0.5000665261272275
  0.1666997112896809  0.8324489209471650  0.5008623987222549
  0.4997313362334950  0.8337492476940085  0.5000740196880145
  0.8336597991359511  0.8337470216975120  0.5000651003182242
  0.1666716911051935  0.1666822269399475  0.0000704787017938
  0.5000655220074606  0.1666815227248648  0.0002792122183166
  0.8332750294914391  0.1666767814381132  0.0002873237891592
  0.1666692074648068  0.5000796353175971  0.9998623678164549
  0.5001871654413890  0.5002035021037088  0.0000720037193602
  0.8331491396647053  0.5002027180746751  0.0000813092565579
  0.1666725576152217  0.8332864459269942  0.9998654839944336
  0.5001860559906603  0.8331606392251345  0.0000734808031524
  0.8331496519170614  0.8331587540481209  0.0000806287908546
  0.9998492811425592  0.9998581622448199  0.0000774582676968
  0.3334922326253746  0.9998619249216105  0.0000694029390047
  0.6666716910244048  0.9996375645505893  0.0000348223053237
  0.9998463147981198  0.3335025233446416  0.0000743146361515
  0.3334916193938113  0.3335055491295549  0.0000679287562946
  0.6666718874058262  0.3337214785871225  0.0000329762069953
  0.9996279820001774  0.6666821530337472  0.0001227473265857
  0.3337091764764040  0.6666833196595903  0.0001127864534354
  0.6666696249215960  0.6666814653344986  0.0000815658644058
  0.0020514362475623  0.0021223995261295  0.5000735535702958
  0.3313513106875448  0.0021233776787639  0.5000809853058215
  0.6666921870528029  0.0004094716011451  0.5000999109348498
  0.0020297778940659  0.3314340302954335  0.5000656309985345
  0.3313492692409810  0.3314484494353493  0.5000870009388834
  0.6667011459143950  0.3331447457384940  0.5001001656215180
  0.0003290035004184  0.6667863086023900  0.5000406047484063
  0.3330623859867643  0.6667815085889117  0.5000474938906976
  0.6666881036644412  0.6667841428450885  0.5000711196548764
 
  0.00000000E+00  0.00000000E+00  0.00000000E+00
  0.00000000E+00  0.00000000E+00  0.00000000E+00
  0.00000000E+00  0.00000000E+00  0.00000000E+00
  0.00000000E+00  0.00000000E+00  0.00000000E+00
  0.00000000E+00  0.00000000E+00  0.00000000E+00
  0.00000000E+00  0.00000000E+00  0.00000000E+00
  0.00000000E+00  0.00000000E+00  0.00000000E+00
  0.00000000E+00  0.00000000E+00  0.00000000E+00
  0.00000000E+00  0.00000000E+00  0.00000000E+00
  0.00000000E+00  0.00000000E+00  0.00000000E+00
  0.00000000E+00  0.00000000E+00  0.00000000E+00
  0.00000000E+00  0.00000000E+00  0.00000000E+00
  0.00000000E+00  0.00000000E+00  0.00000000E+00
  0.00000000E+00  0.00000000E+00  0.00000000E+00
  0.00000000E+00  0.00000000E+00  0.00000000E+00
  0.00000000E+00  0.00000000E+00  0.00000000E+00
  0.00000000E+00  0.00000000E+00  0.00000000E+00
  0.00000000E+00  0.00000000E+00  0.00000000E+00
  0.00000000E+00  0.00000000E+00  0.00000000E+00
  0.00000000E+00  0.00000000E+00  0.00000000E+00
  0.00000000E+00  0.00000000E+00  0.00000000E+00
  0.00000000E+00  0.00000000E+00  0.00000000E+00
  0.00000000E+00  0.00000000E+00  0.00000000E+00
  0.00000000E+00  0.00000000E+00  0.00000000E+00
  0.00000000E+00  0.00000000E+00  0.00000000E+00
  0.00000000E+00  0.00000000E+00  0.00000000E+00
  0.00000000E+00  0.00000000E+00  0.00000000E+00
  0.00000000E+00  0.00000000E+00  0.00000000E+00
  0.00000000E+00  0.00000000E+00  0.00000000E+00
  0.00000000E+00  0.00000000E+00  0.00000000E+00
  0.00000000E+00  0.00000000E+00  0.00000000E+00
  0.00000000E+00  0.00000000E+00  0.00000000E+00
  0.00000000E+00  0.00000000E+00  0.00000000E+00
  0.00000000E+00  0.00000000E+00  0.00000000E+00
  0.00000000E+00  0.00000000E+00  0.00000000E+00
  0.00000000E+00  0.00000000E+00  0.00000000E+00
  0.00000000E+00  0.00000000E+00  0.00000000E+00
  0.00000000E+00  0.00000000E+00  0.00000000E+00
  0.00000000E+00  0.00000000E+00  0.00000000E+00
  0.00000000E+00  0.00000000E+00  0.00000000E+00
  0.00000000E+00  0.00000000E+00  0.00000000E+00
  0.00000000E+00  0.00000000E+00  0.00000000E+00
  0.00000000E+00  0.00000000E+00  0.00000000E+00
  0.00000000E+00  0.00000000E+00  0.00000000E+00
  0.00000000E+00  0.00000000E+00  0.00000000E+00
  0.00000000E+00  0.00000000E+00  0.00000000E+00
  0.00000000E+00  0.00000000E+00  0.00000000E+00
  0.00000000E+00  0.00000000E+00  0.00000000E+00
  0.00000000E+00  0.00000000E+00  0.00000000E+00
  0.00000000E+00  0.00000000E+00  0.00000000E+00
  0.00000000E+00  0.00000000E+00  0.00000000E+00
  0.00000000E+00  0.00000000E+00  0.00000000E+00
  0.00000000E+00  0.00000000E+00  0.00000000E+00
  0.00000000E+00  0.00000000E+00  0.00000000E+00
  0.00000000E+00  0.00000000E+00  0.00000000E+00
  0.00000000E+00  0.00000000E+00  0.00000000E+00
  0.00000000E+00  0.00000000E+00  0.00000000E+00
  0.00000000E+00  0.00000000E+00  0.00000000E+00
  0.00000000E+00  0.00000000E+00  0.00000000E+00
  0.00000000E+00  0.00000000E+00  0.00000000E+00
  0.00000000E+00  0.00000000E+00  0.00000000E+00
  0.00000000E+00  0.00000000E+00  0.00000000E+00
  0.00000000E+00  0.00000000E+00  0.00000000E+00
  0.00000000E+00  0.00000000E+00  0.00000000E+00
  0.00000000E+00  0.00000000E+00  0.00000000E+00
  0.00000000E+00  0.00000000E+00  0.00000000E+00
  0.00000000E+00  0.00000000E+00  0.00000000E+00
  0.00000000E+00  0.00000000E+00  0.00000000E+00
  0.00000000E+00  0.00000000E+00  0.00000000E+00
  0.00000000E+00  0.00000000E+00  0.00000000E+00
  0.00000000E+00  0.00000000E+00  0.00000000E+00
  0.00000000E+00  0.00000000E+00  0.00000000E+00
  0.00000000E+00  0.00000000E+00  0.00000000E+00
  0.00000000E+00  0.00000000E+00  0.00000000E+00
  0.00000000E+00  0.00000000E+00  0.00000000E+00
  0.00000000E+00  0.00000000E+00  0.00000000E+00
  0.00000000E+00  0.00000000E+00  0.00000000E+00
  0.00000000E+00  0.00000000E+00  0.00000000E+00
  0.00000000E+00  0.00000000E+00  0.00000000E+00
  0.00000000E+00  0.00000000E+00  0.00000000E+00
  0.00000000E+00  0.00000000E+00  0.00000000E+00
  0.00000000E+00  0.00000000E+00  0.00000000E+00
  0.00000000E+00  0.00000000E+00  0.00000000E+00
  0.00000000E+00  0.00000000E+00  0.00000000E+00
  0.00000000E+00  0.00000000E+00  0.00000000E+00
  0.00000000E+00  0.00000000E+00  0.00000000E+00
  0.00000000E+00  0.00000000E+00  0.00000000E+00
  0.00000000E+00  0.00000000E+00  0.00000000E+00
  0.00000000E+00  0.00000000E+00  0.00000000E+00
  0.00000000E+00  0.00000000E+00  0.00000000E+00
  0.00000000E+00  0.00000000E+00  0.00000000E+00
  0.00000000E+00  0.00000000E+00  0.00000000E+00
  0.00000000E+00  0.00000000E+00  0.00000000E+00
  0.00000000E+00  0.00000000E+00  0.00000000E+00
  0.00000000E+00  0.00000000E+00  0.00000000E+00
  0.00000000E+00  0.00000000E+00  0.00000000E+00
  0.00000000E+00  0.00000000E+00  0.00000000E+00
  0.00000000E+00  0.00000000E+00  0.00000000E+00
  0.00000000E+00  0.00000000E+00  0.00000000E+00
  0.00000000E+00  0.00000000E+00  0.00000000E+00
  0.00000000E+00  0.00000000E+00  0.00000000E+00
  0.00000000E+00  0.00000000E+00  0.00000000E+00
  0.00000000E+00  0.00000000E+00  0.00000000E+00
  0.00000000E+00  0.00000000E+00  0.00000000E+00
  0.00000000E+00  0.00000000E+00  0.00000000E+00
  0.00000000E+00  0.00000000E+00  0.00000000E+00
  0.00000000E+00  0.00000000E+00  0.00000000E+00
  0.00000000E+00  0.00000000E+00  0.00000000E+00
  0.00000000E+00  0.00000000E+00  0.00000000E+00
  0.00000000E+00  0.00000000E+00  0.00000000E+00
  0.00000000E+00  0.00000000E+00  0.00000000E+00
  0.00000000E+00  0.00000000E+00  0.00000000E+00
  0.00000000E+00  0.00000000E+00  0.00000000E+00
  0.00000000E+00  0.00000000E+00  0.00000000E+00
  0.00000000E+00  0.00000000E+00  0.00000000E+00
  0.00000000E+00  0.00000000E+00  0.00000000E+00
  0.00000000E+00  0.00000000E+00  0.00000000E+00
  0.00000000E+00  0.00000000E+00  0.00000000E+00
  0.00000000E+00  0.00000000E+00  0.00000000E+00
  0.00000000E+00  0.00000000E+00  0.00000000E+00
  0.00000000E+00  0.00000000E+00  0.00000000E+00
  0.00000000E+00  0.00000000E+00  0.00000000E+00
  0.00000000E+00  0.00000000E+00  0.00000000E+00
  0.00000000E+00  0.00000000E+00  0.00000000E+00
  0.00000000E+00  0.00000000E+00  0.00000000E+00
  0.00000000E+00  0.00000000E+00  0.00000000E+00
  0.00000000E+00  0.00000000E+00  0.00000000E+00
  0.00000000E+00  0.00000000E+00  0.00000000E+00
  0.00000000E+00  0.00000000E+00  0.00000000E+00
  0.00000000E+00  0.00000000E+00  0.00000000E+00
  0.00000000E+00  0.00000000E+00  0.00000000E+00
  0.00000000E+00  0.00000000E+00  0.00000000E+00
  0.00000000E+00  0.00000000E+00  0.00000000E+00
  0.00000000E+00  0.00000000E+00  0.00000000E+00
  0.00000000E+00  0.00000000E+00  0.00000000E+00
  0.00000000E+00  0.00000000E+00  0.00000000E+00
  0.00000000E+00  0.00000000E+00  0.00000000E+00
  0.00000000E+00  0.00000000E+00  0.00000000E+00
  0.00000000E+00  0.00000000E+00  0.00000000E+00
  0.00000000E+00  0.00000000E+00  0.00000000E+00
  0.00000000E+00  0.00000000E+00  0.00000000E+00
  0.00000000E+00  0.00000000E+00  0.00000000E+00
  0.00000000E+00  0.00000000E+00  0.00000000E+00
  0.00000000E+00  0.00000000E+00  0.00000000E+00
