POSCAR                                  
   1.06786100000000     
    -5.0953458393200002   -2.9259103687199999    4.3162245767799998
    -3.3749800397700001    5.8139792500900001    4.3177621402300002
    -8.4527014574599999    2.8846928034500001   -4.3038803142899997
   Sc   Al   N 
    16     8    24
Direct
  0.6713248329548804  0.2533230670713920  0.4839107676234988
  0.1802962876337020  0.2605021993186867  0.9956618855973929
  0.9250160386893498  0.2586344710831554  0.7378751547044757
  0.4980253779418433  0.5988861577181979  0.6625346505840000
  0.2594762205421404  0.5800036566870261  0.4030439949601643
  0.7548433153701382  0.5997829652171021  0.9108586362059583
  0.3484759530702348  0.9207879723409533  0.8241414456654894
  0.5416933242584392  0.1986321344607944  0.7985049630275043
  0.2873849795220593  0.1838524243078155  0.5412338896556221
  0.0349401480133835  0.2147256331132610  0.2946385687584296
  0.3723745637051081  0.5310229737098027  0.9760263562997693
  0.1099500552371211  0.5426475172873069  0.7098692856000213
  0.8570420014497699  0.5500245519948805  0.4581153221327128
  0.9516581906334380  0.8733735136631040  0.8757436275722412
  0.4580336436609045  0.8681421595725354  0.3762430048047634
  0.2140193569264497  0.8693149485403424  0.1335248205267590
  0.4569631926828350  0.2704815256812267  0.2280442768520174
  0.0126250756688577  0.6161337116279881  0.1518387860348085
  0.0911716032204382  0.9235589653597174  0.5602107272216088
  0.8506737484371314  0.9452221700696271  0.3039182000252794
  0.6168793105275014  0.9458027188243747  0.0701461852212759
  0.8012002498351691  0.2185262256815363  0.0402898305352224
  0.6416684945916984  0.5533395577386102  0.2011157514917983
  0.7195507686305831  0.8808339977043786  0.6105404562675432
  0.8180870606346886  0.4328632726778281  0.3212403213996637
  0.6123508299497118  0.4129576192090880  0.0927483316227011
  0.3324842159492292  0.4206313609726138  0.8322622032451861
  0.0852625637661575  0.4169606196605571  0.5726943827858477
  0.6595533942937664  0.7630535126935953  0.5107869247008452
  0.4364879093378775  0.7249012742961725  0.2488362229057586
  0.1656147975557332  0.7570800111540734  0.9996946777911333
  0.2341861442916766  0.0640509721961706  0.4181790481470742
  0.8949298965245163  0.7666442762515686  0.7366221639202166
  0.9922897498454688  0.0991311053667516  0.1545369440681625
  0.7593194116214761  0.0998352974831604  0.9269501055186780
  0.5221742942972796  0.0682568901852392  0.6591020724738428
  0.6930174532138125  0.3657987486119083  0.6317397459247047
  0.4410905390866233  0.3380566374694212  0.3808246709795569
  0.2091612229817628  0.3787522961308554  0.1467866954393529
  0.9490389698565096  0.3655862845668736  0.8877504025153229
  0.5217925344673233  0.6850372122395285  0.8186710696051023
  0.2643843314381584  0.7043889544346982  0.5503903576456608
  0.0146574473393244  0.7188460073401117  0.2898639566865953
  0.1136225034333052  0.0183900201323439  0.7061807234434383
  0.7859639077484104  0.7133538648111184  0.0637383413564407
  0.8722439257904497  0.0127328557317554  0.4592816919779281
  0.6195607858165673  0.0393107677560565  0.2162321082061425
  0.3954393775569116  0.0238249198547607  0.9788562502723011
 
  0.00000000E+00  0.00000000E+00  0.00000000E+00
  0.00000000E+00  0.00000000E+00  0.00000000E+00
  0.00000000E+00  0.00000000E+00  0.00000000E+00
  0.00000000E+00  0.00000000E+00  0.00000000E+00
  0.00000000E+00  0.00000000E+00  0.00000000E+00
  0.00000000E+00  0.00000000E+00  0.00000000E+00
  0.00000000E+00  0.00000000E+00  0.00000000E+00
  0.00000000E+00  0.00000000E+00  0.00000000E+00
  0.00000000E+00  0.00000000E+00  0.00000000E+00
  0.00000000E+00  0.00000000E+00  0.00000000E+00
  0.00000000E+00  0.00000000E+00  0.00000000E+00
  0.00000000E+00  0.00000000E+00  0.00000000E+00
  0.00000000E+00  0.00000000E+00  0.00000000E+00
  0.00000000E+00  0.00000000E+00  0.00000000E+00
  0.00000000E+00  0.00000000E+00  0.00000000E+00
  0.00000000E+00  0.00000000E+00  0.00000000E+00
  0.00000000E+00  0.00000000E+00  0.00000000E+00
  0.00000000E+00  0.00000000E+00  0.00000000E+00
  0.00000000E+00  0.00000000E+00  0.00000000E+00
  0.00000000E+00  0.00000000E+00  0.00000000E+00
  0.00000000E+00  0.00000000E+00  0.00000000E+00
  0.00000000E+00  0.00000000E+00  0.00000000E+00
  0.00000000E+00  0.00000000E+00  0.00000000E+00
  0.00000000E+00  0.00000000E+00  0.00000000E+00
  0.00000000E+00  0.00000000E+00  0.00000000E+00
  0.00000000E+00  0.00000000E+00  0.00000000E+00
  0.00000000E+00  0.00000000E+00  0.00000000E+00
  0.00000000E+00  0.00000000E+00  0.00000000E+00
  0.00000000E+00  0.00000000E+00  0.00000000E+00
  0.00000000E+00  0.00000000E+00  0.00000000E+00
  0.00000000E+00  0.00000000E+00  0.00000000E+00
  0.00000000E+00  0.00000000E+00  0.00000000E+00
  0.00000000E+00  0.00000000E+00  0.00000000E+00
  0.00000000E+00  0.00000000E+00  0.00000000E+00
  0.00000000E+00  0.00000000E+00  0.00000000E+00
  0.00000000E+00  0.00000000E+00  0.00000000E+00
  0.00000000E+00  0.00000000E+00  0.00000000E+00
  0.00000000E+00  0.00000000E+00  0.00000000E+00
  0.00000000E+00  0.00000000E+00  0.00000000E+00
  0.00000000E+00  0.00000000E+00  0.00000000E+00
  0.00000000E+00  0.00000000E+00  0.00000000E+00
  0.00000000E+00  0.00000000E+00  0.00000000E+00
  0.00000000E+00  0.00000000E+00  0.00000000E+00
  0.00000000E+00  0.00000000E+00  0.00000000E+00
  0.00000000E+00  0.00000000E+00  0.00000000E+00
  0.00000000E+00  0.00000000E+00  0.00000000E+00
  0.00000000E+00  0.00000000E+00  0.00000000E+00
  0.00000000E+00  0.00000000E+00  0.00000000E+00
