POSCAR                                  
  0.891000000000000     
    -0.0018058802215500   -7.0041446996100003    2.3411028593499998
     9.4135280418599994    2.3440165638499995    2.3624872349000001
    -9.4096161215100000    4.6998845234399997   14.1469856109999998
   Al   Pr   N 
    45     3    48
Direct
  0.5755035629616643  0.4053416408992021  0.1615541003135235
  0.1627998490470546  0.3248076592351197  0.0785168352873526
  0.9953781804526116  0.4837448965447848  0.2454418921796275
  0.4987859059795952  0.4979960392917917  0.9989421808970960
  0.3265333968086708  0.6470591674555308  0.1570227104309083
  0.5002656079121692  0.0186758348528642  0.2397064062265102
  0.0792361252729989  0.4197182273871789  0.9195824785451734
  0.9119712737454009  0.5740020131018397  0.0767542110799440
  0.5925617137587338  0.4266825518032604  0.6670783712454806
  0.4242014454837246  0.5943913890176802  0.8351944861936857
  0.2490801601280808  0.7479505370709560  0.9976797590579309
  0.0873403987759431  0.9198484311703012  0.1547855623750749
  0.5820678441089839  0.9157967364905204  0.9163142573223055
  0.4142986453036741  0.0802491439774755  0.0778343413176543
  0.2439820113859739  0.2495930657979670  0.2428730979567391
  0.6695094061886522  0.3394483357571829  0.8383598825449212
  0.1698680605574339  0.3436163774352252  0.5822046366239846
  0.9960381400190812  0.5092016423645376  0.7515168777890437
  0.8326108611381500  0.6692131099974077  0.9167661280137551
  0.6608726217523611  0.8340039637083478  0.0766269023327339
  0.5024250313830265  0.5052726390238647  0.5036787818608275
  0.3379488466159799  0.6727449658323437  0.6692623216060554
  0.1661624621572741  0.8295204006679313  0.8352106069803682
  0.9963220609026777  0.9971174503233868  0.9966769507342335
  0.8303017597269786  0.1673852507994766  0.1596801928015381
  0.5066317910519587  0.9936126758040658  0.7524947753391444
  0.3339793229372603  0.1587109866941248  0.9199101149966964
  0.0856845616831023  0.4170293752412988  0.4186759410691678
  0.9209818103400380  0.5852299691632439  0.5867484611865592
  0.7524613457483014  0.7513695982169892  0.7523264036294464
  0.4122131387908183  0.5678769253372735  0.3321629567430122
  0.2543305854315960  0.7460618999063726  0.5065296518795677
  0.0807775120063283  0.9066185354289544  0.6686273236496518
  0.9084920063270232  0.0774930294531373  0.8362769413120503
  0.7465615759057727  0.2453590599478730  0.9979720871384572
  0.5923417381598810  0.9318309453532194  0.4368632465018649
  0.4257776272862657  0.0881973450543967  0.5874122008671208
  0.6645210647014892  0.3317541954261429  0.3342705029598179
  0.8308446916464334  0.6564341454031108  0.4254946412657148
  0.6708347835226931  0.8314440048348075  0.5889421218442834
  0.9953931662753774  0.0059769282794591  0.5061416186930927
  0.8328375471215637  0.1675199837537136  0.6663021655098049
  0.3444380321743381  0.1845535894877983  0.4212854725089201
  0.9156913874895665  0.1060799358710653  0.3356908926257205
  0.7541987398042025  0.2609676728310646  0.5049077701361071
  0.7571429452558576  0.7583291014378304  0.2535794205977595
  0.2497050694780469  0.2515459045522022  0.7523916627825784
  0.1731009512056474  0.8423955142006179  0.3360783184644021
  0.7964344162895287  0.4582229059032343  0.9581980001198005
  0.3953010476151917  0.3887289027185119  0.8863103937765615
  0.2062365445051739  0.5338444169629852  0.0348654619396100
  0.7097564085979542  0.5474214563348951  0.7924624706065728
  0.5417551091460453  0.7126534859628038  0.9566176112768474
  0.7053237403275361  0.0395338099717577  0.0364673619811384
  0.3000534252057676  0.4825400500926520  0.7059312246702021
  0.1262163063021902  0.6271175203763164  0.8744853397343419
  0.9552630124652879  0.7916831971913822  0.0376395742578524
  0.7897157152877128  0.4578979997765131  0.4636667537519799
  0.6318995162259426  0.6289603055361539  0.6272582995970239
  0.4645767022338489  0.7937022891417413  0.7934384109282107
  0.2897141832752155  0.9545971052426907  0.9577599854671490
  0.7950251759500517  0.9564573380342338  0.7105905912619122
  0.6221314284213975  0.1218620265818728  0.8751981286342598
  0.4552263176342848  0.2822010546398417  0.0388361724026609
  0.8808628400167819  0.3813735909623830  0.6263248721802910
  0.3778356444852520  0.3781168368433825  0.3782808404732307
  0.2122002076227147  0.5452277779280692  0.5446029612823651
  0.0396256455035910  0.7079904712079212  0.7098950834615252
  0.8722623711376798  0.8737762776590614  0.8754188364602129
  0.7057419575793062  0.5187761609226484  0.2961428056247684
  0.5445655210855236  0.7111403208134064  0.4645302053459588
  0.3777716762528769  0.8740755768907533  0.6294955951666381
  0.2043924531918648  0.0187157818020367  0.7965097831530485
  0.0405617215779230  0.2046493198156654  0.9557076812064977
  0.7107125533709322  0.0521433139123602  0.5492293683897813
  0.5697163220694819  0.2060823284772866  0.7045103807252673
  0.2824316682695738  0.4403044610822207  0.2025038118106153
  0.1177942166483916  0.6066900431349325  0.3825203547514775
  0.9616328716110800  0.7892207276699637  0.5459574095777242
  0.6103532115562160  0.6077766185333857  0.1112934873439571
  0.4330766156592532  0.7403809075470846  0.2761413127830892
  0.3156705885370599  0.9743640774508933  0.4730528698307168
  0.1128228951371497  0.1178045906021694  0.6152755611489198
  0.9309787555098623  0.3004033833014077  0.7985311339640191
  0.7886123621343657  0.9802876683704227  0.1997438769177151
  0.6221770626477579  0.1289470247368172  0.3739600460128898
  0.4619459853297414  0.3002788897180295  0.5442208559122435
  0.8691660869214601  0.3650916149274295  0.1207144151988189
  0.0525231269140747  0.6806401475552164  0.1858324359426007
  0.8556970502690717  0.8984091415448887  0.3975576893028716
  0.3748974774313751  0.8771433722525828  0.1206576095295731
  0.2124642534968615  0.0635331661913057  0.2824692409942600
  0.0454430839496851  0.2177166757321771  0.4583453841444651
  0.5382871071689337  0.2095999539079827  0.2027864964222417
  0.1211069544840200  0.1203880357118337  0.1173735957725768
  0.9570338970365810  0.2917550866417429  0.2903395553461365
 
  0.00000000E+00  0.00000000E+00  0.00000000E+00
  0.00000000E+00  0.00000000E+00  0.00000000E+00
  0.00000000E+00  0.00000000E+00  0.00000000E+00
  0.00000000E+00  0.00000000E+00  0.00000000E+00
  0.00000000E+00  0.00000000E+00  0.00000000E+00
  0.00000000E+00  0.00000000E+00  0.00000000E+00
  0.00000000E+00  0.00000000E+00  0.00000000E+00
  0.00000000E+00  0.00000000E+00  0.00000000E+00
  0.00000000E+00  0.00000000E+00  0.00000000E+00
  0.00000000E+00  0.00000000E+00  0.00000000E+00
  0.00000000E+00  0.00000000E+00  0.00000000E+00
  0.00000000E+00  0.00000000E+00  0.00000000E+00
  0.00000000E+00  0.00000000E+00  0.00000000E+00
  0.00000000E+00  0.00000000E+00  0.00000000E+00
  0.00000000E+00  0.00000000E+00  0.00000000E+00
  0.00000000E+00  0.00000000E+00  0.00000000E+00
  0.00000000E+00  0.00000000E+00  0.00000000E+00
  0.00000000E+00  0.00000000E+00  0.00000000E+00
  0.00000000E+00  0.00000000E+00  0.00000000E+00
  0.00000000E+00  0.00000000E+00  0.00000000E+00
  0.00000000E+00  0.00000000E+00  0.00000000E+00
  0.00000000E+00  0.00000000E+00  0.00000000E+00
  0.00000000E+00  0.00000000E+00  0.00000000E+00
  0.00000000E+00  0.00000000E+00  0.00000000E+00
  0.00000000E+00  0.00000000E+00  0.00000000E+00
  0.00000000E+00  0.00000000E+00  0.00000000E+00
  0.00000000E+00  0.00000000E+00  0.00000000E+00
  0.00000000E+00  0.00000000E+00  0.00000000E+00
  0.00000000E+00  0.00000000E+00  0.00000000E+00
  0.00000000E+00  0.00000000E+00  0.00000000E+00
  0.00000000E+00  0.00000000E+00  0.00000000E+00
  0.00000000E+00  0.00000000E+00  0.00000000E+00
  0.00000000E+00  0.00000000E+00  0.00000000E+00
  0.00000000E+00  0.00000000E+00  0.00000000E+00
  0.00000000E+00  0.00000000E+00  0.00000000E+00
  0.00000000E+00  0.00000000E+00  0.00000000E+00
  0.00000000E+00  0.00000000E+00  0.00000000E+00
  0.00000000E+00  0.00000000E+00  0.00000000E+00
  0.00000000E+00  0.00000000E+00  0.00000000E+00
  0.00000000E+00  0.00000000E+00  0.00000000E+00
  0.00000000E+00  0.00000000E+00  0.00000000E+00
  0.00000000E+00  0.00000000E+00  0.00000000E+00
  0.00000000E+00  0.00000000E+00  0.00000000E+00
  0.00000000E+00  0.00000000E+00  0.00000000E+00
  0.00000000E+00  0.00000000E+00  0.00000000E+00
  0.00000000E+00  0.00000000E+00  0.00000000E+00
  0.00000000E+00  0.00000000E+00  0.00000000E+00
  0.00000000E+00  0.00000000E+00  0.00000000E+00
  0.00000000E+00  0.00000000E+00  0.00000000E+00
  0.00000000E+00  0.00000000E+00  0.00000000E+00
  0.00000000E+00  0.00000000E+00  0.00000000E+00
  0.00000000E+00  0.00000000E+00  0.00000000E+00
  0.00000000E+00  0.00000000E+00  0.00000000E+00
  0.00000000E+00  0.00000000E+00  0.00000000E+00
  0.00000000E+00  0.00000000E+00  0.00000000E+00
  0.00000000E+00  0.00000000E+00  0.00000000E+00
  0.00000000E+00  0.00000000E+00  0.00000000E+00
  0.00000000E+00  0.00000000E+00  0.00000000E+00
  0.00000000E+00  0.00000000E+00  0.00000000E+00
  0.00000000E+00  0.00000000E+00  0.00000000E+00
  0.00000000E+00  0.00000000E+00  0.00000000E+00
  0.00000000E+00  0.00000000E+00  0.00000000E+00
  0.00000000E+00  0.00000000E+00  0.00000000E+00
  0.00000000E+00  0.00000000E+00  0.00000000E+00
  0.00000000E+00  0.00000000E+00  0.00000000E+00
  0.00000000E+00  0.00000000E+00  0.00000000E+00
  0.00000000E+00  0.00000000E+00  0.00000000E+00
  0.00000000E+00  0.00000000E+00  0.00000000E+00
  0.00000000E+00  0.00000000E+00  0.00000000E+00
  0.00000000E+00  0.00000000E+00  0.00000000E+00
  0.00000000E+00  0.00000000E+00  0.00000000E+00
  0.00000000E+00  0.00000000E+00  0.00000000E+00
  0.00000000E+00  0.00000000E+00  0.00000000E+00
  0.00000000E+00  0.00000000E+00  0.00000000E+00
  0.00000000E+00  0.00000000E+00  0.00000000E+00
  0.00000000E+00  0.00000000E+00  0.00000000E+00
  0.00000000E+00  0.00000000E+00  0.00000000E+00
  0.00000000E+00  0.00000000E+00  0.00000000E+00
  0.00000000E+00  0.00000000E+00  0.00000000E+00
  0.00000000E+00  0.00000000E+00  0.00000000E+00
  0.00000000E+00  0.00000000E+00  0.00000000E+00
  0.00000000E+00  0.00000000E+00  0.00000000E+00
  0.00000000E+00  0.00000000E+00  0.00000000E+00
  0.00000000E+00  0.00000000E+00  0.00000000E+00
  0.00000000E+00  0.00000000E+00  0.00000000E+00
  0.00000000E+00  0.00000000E+00  0.00000000E+00
  0.00000000E+00  0.00000000E+00  0.00000000E+00
  0.00000000E+00  0.00000000E+00  0.00000000E+00
  0.00000000E+00  0.00000000E+00  0.00000000E+00
  0.00000000E+00  0.00000000E+00  0.00000000E+00
  0.00000000E+00  0.00000000E+00  0.00000000E+00
  0.00000000E+00  0.00000000E+00  0.00000000E+00
  0.00000000E+00  0.00000000E+00  0.00000000E+00
  0.00000000E+00  0.00000000E+00  0.00000000E+00
  0.00000000E+00  0.00000000E+00  0.00000000E+00
  0.00000000E+00  0.00000000E+00  0.00000000E+00
