supercell of icsd_608626.cif            
  0.975047790010989     
     9.3193781612933879   -0.0073024229100764   -0.0020978437336376
    -4.6660171478063877    8.0749959289178701    0.0080232523897585
    -0.0023169909791883    0.0088066139881466    9.8331622805224761
   Al   B    N 
    30     6    36
Direct
  0.2151400556293126  0.1046095972829164  0.2479557995123827
  0.1206059937635189  0.2239756894606586  0.5050627233869491
  0.8925869256060111  0.1055238688153111  0.7492070461835780
  0.7776293021963170  0.2238358599495385  0.0001862237357315
  0.5534978539474835  0.1114430102792667  0.2498615976632621
  0.4418153961288951  0.2262395200767742  0.5033870917800058
  0.1174313362979404  0.2262903977139530  0.9931943869845057
  0.8911378562281911  0.1069413899608662  0.2500148080939724
  0.7757652702216120  0.2265320288968198  0.4999730206620256
  0.5497187996206989  0.1091706360114486  0.7504392603808441
  0.4413260908975971  0.2280559282103880  0.9919394892451692
  0.2305510990056590  0.4456418417570376  0.2474126869609492
  0.1138837298218434  0.5561523204474526  0.4987394780940377
  0.8892989276324101  0.4534674136713477  0.7425894335017418
  0.7750931273047499  0.5633423930190276  0.9951577728546042
  0.5605616941812315  0.4543963922827601  0.2521242584185543
  0.2335843892938527  0.4461152746885304  0.7484149463482836
  0.1151218084938250  0.5551716109264149  0.9999721545688800
  0.8859237607843511  0.4536514311073319  0.2539007064342442
  0.5567178222712101  0.4518886491777323  0.7392942104495077
  0.2147924454257577  0.7769186317046248  0.2498858254564524
  0.1013207783820391  0.8843410310388791  0.5024924296125377
  0.7769127526965818  0.8784848189252514  0.9994087395096045
  0.5560478255579824  0.7678939508624651  0.2477660321571733
  0.4437227063179563  0.8817749832387065  0.4998181123991046
  0.2180485111574839  0.7817691616173903  0.7494687378657616
  0.1019512406329426  0.8857818996710520  0.9914262291267022
  0.7758998859701407  0.8739549296118909  0.4970260890246720
  0.5586956417412949  0.7700790684870142  0.7492851422006837
  0.4436008521721035  0.8823964125118877  0.0000159584300761
  0.2147023649608855  0.1089059140540058  0.7563299181170606
  0.4530259154381540  0.5602111487676282  0.5040623216592479
  0.7812250451735849  0.5692857795374948  0.5012020507007975
  0.4463376040439968  0.5557099948917212  0.0008541697170159
  0.8927075378482030  0.7880084464214434  0.7474663572516889
  0.8843021351040150  0.7695740145548271  0.2529629359876893
  0.2202135313508009  0.1068245591139885  0.4395042472771706
  0.1124797240498339  0.2227105421244246  0.1880686342580447
  0.8863086412252770  0.1075373596282461  0.9449802287637397
  0.7777536338154363  0.2229951985124288  0.6941940309146517
  0.5521725029112687  0.1097728170355410  0.4451114153103077
  0.4432209732682821  0.2253176762079292  0.1902642937663543
  0.2192639983055997  0.1083343649386919  0.9228662818437172
  0.1249703175010737  0.2123560662507629  0.7030158039223195
  0.8908429224494085  0.1112240618489722  0.4472854440585792
  0.7794021460448377  0.2250532052720473  0.1966513825419582
  0.5536076455982482  0.1101095577251385  0.9447223979556583
  0.4190913717147637  0.2101358123412282  0.7007384738716453
  0.2503939223278309  0.4544360190050583  0.4463648830816709
  0.1098850279055128  0.5519812511890620  0.1969419651666584
  0.8870465415414870  0.4476300666587960  0.9400436154428178
  0.7936730623898285  0.5858676993934750  0.6738391387725216
  0.5677579818863734  0.4666056360620274  0.4549143060947927
  0.4460385485589029  0.5536433793753019  0.1683530694198581
  0.2497325695812975  0.4590720764018883  0.9454949932507333
  0.1144819167792690  0.5540619163745362  0.6931943624113401
  0.8743976234218280  0.4587892549448682  0.4514022487032179
  0.7884504203481484  0.5815562586499965  0.1918235371915529
  0.5452354221331177  0.4595328733785564  0.9399663465818193
  0.4467271640770250  0.5578141693220644  0.6671779586129816
  0.2200270140072149  0.7792098120164397  0.4451805667992588
  0.0822356830058055  0.8743053530586238  0.1930319408110250
  0.8862461845760450  0.7759294537920951  0.9126137181352263
  0.7900451222520459  0.8769558220552867  0.6947304350010626
  0.5443597259593105  0.7515248753740451  0.4458389280546200
  0.4445231066794548  0.8860399613143670  0.1958232088392435
  0.2204527147847912  0.7782523500940499  0.9442684783637745
  0.0985868180393723  0.9007273192113772  0.7013024944310260
  0.8786122871113662  0.7543108509515122  0.4265757264719028
  0.7896812128401507  0.8736430836066447  0.2003930086479997
  0.5450060296776300  0.7525044472939442  0.9478884080203684
  0.4463920099315573  0.8856994098448041  0.6951358827348599
 
  0.00000000E+00  0.00000000E+00  0.00000000E+00
  0.00000000E+00  0.00000000E+00  0.00000000E+00
  0.00000000E+00  0.00000000E+00  0.00000000E+00
  0.00000000E+00  0.00000000E+00  0.00000000E+00
  0.00000000E+00  0.00000000E+00  0.00000000E+00
  0.00000000E+00  0.00000000E+00  0.00000000E+00
  0.00000000E+00  0.00000000E+00  0.00000000E+00
  0.00000000E+00  0.00000000E+00  0.00000000E+00
  0.00000000E+00  0.00000000E+00  0.00000000E+00
  0.00000000E+00  0.00000000E+00  0.00000000E+00
  0.00000000E+00  0.00000000E+00  0.00000000E+00
  0.00000000E+00  0.00000000E+00  0.00000000E+00
  0.00000000E+00  0.00000000E+00  0.00000000E+00
  0.00000000E+00  0.00000000E+00  0.00000000E+00
  0.00000000E+00  0.00000000E+00  0.00000000E+00
  0.00000000E+00  0.00000000E+00  0.00000000E+00
  0.00000000E+00  0.00000000E+00  0.00000000E+00
  0.00000000E+00  0.00000000E+00  0.00000000E+00
  0.00000000E+00  0.00000000E+00  0.00000000E+00
  0.00000000E+00  0.00000000E+00  0.00000000E+00
  0.00000000E+00  0.00000000E+00  0.00000000E+00
  0.00000000E+00  0.00000000E+00  0.00000000E+00
  0.00000000E+00  0.00000000E+00  0.00000000E+00
  0.00000000E+00  0.00000000E+00  0.00000000E+00
  0.00000000E+00  0.00000000E+00  0.00000000E+00
  0.00000000E+00  0.00000000E+00  0.00000000E+00
  0.00000000E+00  0.00000000E+00  0.00000000E+00
  0.00000000E+00  0.00000000E+00  0.00000000E+00
  0.00000000E+00  0.00000000E+00  0.00000000E+00
  0.00000000E+00  0.00000000E+00  0.00000000E+00
  0.00000000E+00  0.00000000E+00  0.00000000E+00
  0.00000000E+00  0.00000000E+00  0.00000000E+00
  0.00000000E+00  0.00000000E+00  0.00000000E+00
  0.00000000E+00  0.00000000E+00  0.00000000E+00
  0.00000000E+00  0.00000000E+00  0.00000000E+00
  0.00000000E+00  0.00000000E+00  0.00000000E+00
  0.00000000E+00  0.00000000E+00  0.00000000E+00
  0.00000000E+00  0.00000000E+00  0.00000000E+00
  0.00000000E+00  0.00000000E+00  0.00000000E+00
  0.00000000E+00  0.00000000E+00  0.00000000E+00
  0.00000000E+00  0.00000000E+00  0.00000000E+00
  0.00000000E+00  0.00000000E+00  0.00000000E+00
  0.00000000E+00  0.00000000E+00  0.00000000E+00
  0.00000000E+00  0.00000000E+00  0.00000000E+00
  0.00000000E+00  0.00000000E+00  0.00000000E+00
  0.00000000E+00  0.00000000E+00  0.00000000E+00
  0.00000000E+00  0.00000000E+00  0.00000000E+00
  0.00000000E+00  0.00000000E+00  0.00000000E+00
  0.00000000E+00  0.00000000E+00  0.00000000E+00
  0.00000000E+00  0.00000000E+00  0.00000000E+00
  0.00000000E+00  0.00000000E+00  0.00000000E+00
  0.00000000E+00  0.00000000E+00  0.00000000E+00
  0.00000000E+00  0.00000000E+00  0.00000000E+00
  0.00000000E+00  0.00000000E+00  0.00000000E+00
  0.00000000E+00  0.00000000E+00  0.00000000E+00
  0.00000000E+00  0.00000000E+00  0.00000000E+00
  0.00000000E+00  0.00000000E+00  0.00000000E+00
  0.00000000E+00  0.00000000E+00  0.00000000E+00
  0.00000000E+00  0.00000000E+00  0.00000000E+00
  0.00000000E+00  0.00000000E+00  0.00000000E+00
  0.00000000E+00  0.00000000E+00  0.00000000E+00
  0.00000000E+00  0.00000000E+00  0.00000000E+00
  0.00000000E+00  0.00000000E+00  0.00000000E+00
  0.00000000E+00  0.00000000E+00  0.00000000E+00
  0.00000000E+00  0.00000000E+00  0.00000000E+00
  0.00000000E+00  0.00000000E+00  0.00000000E+00
  0.00000000E+00  0.00000000E+00  0.00000000E+00
  0.00000000E+00  0.00000000E+00  0.00000000E+00
  0.00000000E+00  0.00000000E+00  0.00000000E+00
  0.00000000E+00  0.00000000E+00  0.00000000E+00
  0.00000000E+00  0.00000000E+00  0.00000000E+00
  0.00000000E+00  0.00000000E+00  0.00000000E+00
