supercell of icsd_191774.cif            
   1.00000000000000     
    10.6045288265890871   -0.0148151732500556    0.0044989250269164
    -5.3150921598596836    9.2055677188701370    0.0023474495536911
     0.0049033182259865    0.0058162235880230   11.0686707307381056
   N    In   Sc
    36    22    14
Direct
  0.2255524902954136  0.1130038268257110  0.4418070181049032
  0.1064045257072195  0.2206187791945311  0.1861237448040214
  0.8920865024634068  0.1082291282762782  0.9413329114774172
  0.7770364769852875  0.2178300264465776  0.6961764847293495
  0.5501679676259030  0.1095711026700386  0.4480682702534438
  0.4455608737692103  0.2227701173203229  0.1850933592588717
  0.2237544861643173  0.1117830173111471  0.9486807724095030
  0.1074182755774018  0.2197750164120578  0.6959217414151837
  0.8889712007483013  0.1110127498065339  0.4351931793830985
  0.7789620413414298  0.2194581945509526  0.1933197452213022
  0.5526013423870495  0.1118723937659283  0.9353947649543954
  0.4507208880426035  0.2253033325785623  0.6903867854714036
  0.2230292223392780  0.4478577846209362  0.4452238626793488
  0.1108121532699755  0.5554770214747009  0.1859497164145765
  0.8919529938862496  0.4453040154869186  0.9445670947849791
  0.7764577013042171  0.5579003587261226  0.6971467933158948
  0.5500719150528539  0.4405768377975861  0.4477871441880552
  0.4446153716847050  0.5559657969225853  0.1936071507206307
  0.2180066848162880  0.4431472375888674  0.9443263348221294
  0.1104682449919423  0.5551613862305089  0.6866402975463544
  0.8913837208841642  0.4456870829013369  0.4437189602390603
  0.7771252112961875  0.5558403298050436  0.1904679935321596
  0.5516647649244319  0.4400173065964665  0.9354054238596987
  0.4461501751460020  0.5536116448830342  0.6865167902558795
  0.2231400888553665  0.7752329364763710  0.4452733518123537
  0.1112520386548468  0.8887209121497222  0.1839192824870111
  0.8914139036473685  0.7824554082858697  0.9384098404095909
  0.7833663200427665  0.8925733238300424  0.6981554505172127
  0.5526842727851147  0.7764621054265390  0.4466462241941471
  0.4449306593234041  0.8895548464075134  0.1933327573947778
  0.2180595526856379  0.7746371538330763  0.9443436361002995
  0.1084513542124412  0.8881606701802838  0.6963966408333633
  0.8886404468949678  0.7777706975071794  0.4422772934000818
  0.7803864134881735  0.8941445403020154  0.1854220989021371
  0.5587765740365427  0.7793542129716684  0.9425685612919708
  0.4462226129884854  0.8926197525355875  0.6866909627804674
  0.2213277766656958  0.1114517282816934  0.2447921245386624
  0.1110824873350680  0.2225319783352973  0.4990871728706807
  0.7767048794156324  0.2195142450133218  0.9968536531193166
  0.5554715895030924  0.1125321357938844  0.2509572692750837
  0.2261337374634849  0.1132399008286313  0.7519410692421644
  0.7771163558838410  0.2211670157761532  0.4997272743382695
  0.2197475271352118  0.4426913483148454  0.2485512140226263
  0.8875559952673555  0.4432324262064071  0.7490598333537477
  0.7766635386959422  0.5566054840964156  0.9947316839349654
  0.5549476047108044  0.4430981291473373  0.2507687529182192
  0.2233683794695338  0.4454416776753192  0.7482669347146356
  0.8879253912830904  0.4437733539391786  0.2478414612629791
  0.7761518604444930  0.5541332870954108  0.5009797387887929
  0.4437379053693391  0.5544813287650143  0.9977022161278484
  0.2203254372507786  0.7770283293031284  0.2486629064791188
  0.1127968389903558  0.8895009592876164  0.5000264274117612
  0.5587324313819977  0.7796915883122892  0.2496896537333058
  0.2235214752367582  0.7777090860990512  0.7484543356551896
  0.8885576980043481  0.7794618788553578  0.2462741588824215
  0.7778429899069650  0.8902641748746163  0.5007987937057621
  0.5552540781359099  0.7776371996678222  0.7470834596965688
  0.4437933479012273  0.8892892257637612  0.9976042496602417
  0.8895007217740343  0.1112911063545710  0.7509548828373553
  0.4430833046484395  0.2215805774098243  0.4999627164907565
  0.1130944128366025  0.2230391077789804  0.9957569679341276
  0.8888994523447167  0.1105475798004960  0.2442714018512362
  0.5560216507767990  0.1104080573035304  0.7448506183425394
  0.4463562340077445  0.2229309817525547  0.9952322893922201
  0.1107081342077265  0.5553684653782227  0.4978954186827096
  0.4440069275914524  0.5558973774533769  0.4964634299632493
  0.1111124998402957  0.5554607871227333  0.9969676457907681
  0.5555190103599514  0.4452163615731948  0.7451152134345094
  0.8893472130607307  0.7782584639005421  0.7483670825051050
  0.7793082597188175  0.8886885623457133  0.9944803945937934
  0.4439980651747746  0.8881716220141342  0.4966441017642893
  0.1119853198880492  0.8892034202809356  0.9946910127198905
 
  0.00000000E+00  0.00000000E+00  0.00000000E+00
  0.00000000E+00  0.00000000E+00  0.00000000E+00
  0.00000000E+00  0.00000000E+00  0.00000000E+00
  0.00000000E+00  0.00000000E+00  0.00000000E+00
  0.00000000E+00  0.00000000E+00  0.00000000E+00
  0.00000000E+00  0.00000000E+00  0.00000000E+00
  0.00000000E+00  0.00000000E+00  0.00000000E+00
  0.00000000E+00  0.00000000E+00  0.00000000E+00
  0.00000000E+00  0.00000000E+00  0.00000000E+00
  0.00000000E+00  0.00000000E+00  0.00000000E+00
  0.00000000E+00  0.00000000E+00  0.00000000E+00
  0.00000000E+00  0.00000000E+00  0.00000000E+00
  0.00000000E+00  0.00000000E+00  0.00000000E+00
  0.00000000E+00  0.00000000E+00  0.00000000E+00
  0.00000000E+00  0.00000000E+00  0.00000000E+00
  0.00000000E+00  0.00000000E+00  0.00000000E+00
  0.00000000E+00  0.00000000E+00  0.00000000E+00
  0.00000000E+00  0.00000000E+00  0.00000000E+00
  0.00000000E+00  0.00000000E+00  0.00000000E+00
  0.00000000E+00  0.00000000E+00  0.00000000E+00
  0.00000000E+00  0.00000000E+00  0.00000000E+00
  0.00000000E+00  0.00000000E+00  0.00000000E+00
  0.00000000E+00  0.00000000E+00  0.00000000E+00
  0.00000000E+00  0.00000000E+00  0.00000000E+00
  0.00000000E+00  0.00000000E+00  0.00000000E+00
  0.00000000E+00  0.00000000E+00  0.00000000E+00
  0.00000000E+00  0.00000000E+00  0.00000000E+00
  0.00000000E+00  0.00000000E+00  0.00000000E+00
  0.00000000E+00  0.00000000E+00  0.00000000E+00
  0.00000000E+00  0.00000000E+00  0.00000000E+00
  0.00000000E+00  0.00000000E+00  0.00000000E+00
  0.00000000E+00  0.00000000E+00  0.00000000E+00
  0.00000000E+00  0.00000000E+00  0.00000000E+00
  0.00000000E+00  0.00000000E+00  0.00000000E+00
  0.00000000E+00  0.00000000E+00  0.00000000E+00
  0.00000000E+00  0.00000000E+00  0.00000000E+00
  0.00000000E+00  0.00000000E+00  0.00000000E+00
  0.00000000E+00  0.00000000E+00  0.00000000E+00
  0.00000000E+00  0.00000000E+00  0.00000000E+00
  0.00000000E+00  0.00000000E+00  0.00000000E+00
  0.00000000E+00  0.00000000E+00  0.00000000E+00
  0.00000000E+00  0.00000000E+00  0.00000000E+00
  0.00000000E+00  0.00000000E+00  0.00000000E+00
  0.00000000E+00  0.00000000E+00  0.00000000E+00
  0.00000000E+00  0.00000000E+00  0.00000000E+00
  0.00000000E+00  0.00000000E+00  0.00000000E+00
  0.00000000E+00  0.00000000E+00  0.00000000E+00
  0.00000000E+00  0.00000000E+00  0.00000000E+00
  0.00000000E+00  0.00000000E+00  0.00000000E+00
  0.00000000E+00  0.00000000E+00  0.00000000E+00
  0.00000000E+00  0.00000000E+00  0.00000000E+00
  0.00000000E+00  0.00000000E+00  0.00000000E+00
  0.00000000E+00  0.00000000E+00  0.00000000E+00
  0.00000000E+00  0.00000000E+00  0.00000000E+00
  0.00000000E+00  0.00000000E+00  0.00000000E+00
  0.00000000E+00  0.00000000E+00  0.00000000E+00
  0.00000000E+00  0.00000000E+00  0.00000000E+00
  0.00000000E+00  0.00000000E+00  0.00000000E+00
  0.00000000E+00  0.00000000E+00  0.00000000E+00
  0.00000000E+00  0.00000000E+00  0.00000000E+00
  0.00000000E+00  0.00000000E+00  0.00000000E+00
  0.00000000E+00  0.00000000E+00  0.00000000E+00
  0.00000000E+00  0.00000000E+00  0.00000000E+00
  0.00000000E+00  0.00000000E+00  0.00000000E+00
  0.00000000E+00  0.00000000E+00  0.00000000E+00
  0.00000000E+00  0.00000000E+00  0.00000000E+00
  0.00000000E+00  0.00000000E+00  0.00000000E+00
  0.00000000E+00  0.00000000E+00  0.00000000E+00
  0.00000000E+00  0.00000000E+00  0.00000000E+00
  0.00000000E+00  0.00000000E+00  0.00000000E+00
  0.00000000E+00  0.00000000E+00  0.00000000E+00
  0.00000000E+00  0.00000000E+00  0.00000000E+00
