supercell of icsd_608626.cif            
   1.01523452869031     
     9.3261694549153376   -0.0000000650425411   -0.0000000180069348
    -4.6630847832686619    8.0635841756212425   -0.0055726009586047
    -0.0000000204818119   -0.0069761514375340    9.7951545694057600
   Al   Y    N 
    34     2    36
Direct
  0.2289519494163414  0.1157966227626446  0.2478493850220289
  0.1106753892848147  0.2213508310038463  0.4982300832225803
  0.8893763235695573  0.1134259928319139  0.7496840642344438
  0.7804783901263335  0.2183220309414580  0.9996045913913321
  0.5558937145655776  0.1117874222390398  0.2470521678731714
  0.4429430722793839  0.2189899269043281  0.4981970825515418
  0.2240497118673588  0.1134260216748189  0.7496840720018199
  0.1109000164387197  0.2218000716934014  0.9972266117153481
  0.8868446545503943  0.1157965580732068  0.2478494159350078
  0.7760468545205583  0.2189899206284025  0.4981970797134707
  0.5553554780616352  0.1107109758718394  0.7485440133246684
  0.4378436081618347  0.2183220313402146  0.9996045337513380
  0.2217077872412148  0.4434155500834009  0.2485012956945738
  0.1131638288093342  0.5557841917309219  0.4980690296556176
  0.8947921057185511  0.4379511455259006  0.7441507392461162
  0.5515854939729508  0.4399336713241482  0.2553471567898953
  0.4426204075199536  0.5557842562759774  0.4980690177183860
  0.2221991337701965  0.4443981813165792  0.7494671109622644
  0.1154780406563063  0.5533238774159059  0.9992105612865387
  0.8883481452988420  0.4399336100718116  0.2553471473702658
  0.7756445742517641  0.5512891261357140  0.5102127514817667
  0.5431590116610892  0.4379510982406885  0.7441506920976053
  0.4378457683535686  0.5533238865245522  0.9992105640101627
  0.2284759280386126  0.7801436432824218  0.2478320739845827
  0.1161444104531455  0.8905300761944588  0.5076269177300077
  0.8934709036554196  0.7869418997503956  0.7430714325022763
  0.7755384793040392  0.8976053936434170  0.9930887202318956
  0.5516677702759551  0.7801436113758839  0.2478320712280748
  0.4445750065853247  0.8891500463932118  0.4984567754412055
  0.2242493874434430  0.7766175591333138  0.7490858441081656
  0.1220668992099192  0.8976053916772315  0.9930886175262472
  0.7743856328130860  0.8905300991998004  0.5076268590304096
  0.5523681780843503  0.7766175725610651  0.7490858803108367
  0.4443431129488005  0.8886862252384731  0.9990446638600901
  0.7747151366865026  0.5494302993279163  0.9807313296431559
  0.8933860183685383  0.7867717378574071  0.2517069814396180
  0.2205285115124340  0.1090664896773745  0.4406328418332421
  0.1101844273075727  0.2203688967492781  0.1911654060579409
  0.8908237203620786  0.1140942962714817  0.9389741686438455
  0.7752526284150960  0.2181735414964265  0.6879880436347676
  0.5550838625673080  0.1101677723174319  0.4393631210177915
  0.4462007072048877  0.2243440701780557  0.1920153124822335
  0.2232705284359326  0.1140942652337316  0.9389741643559404
  0.1111036051823575  0.2222071963857530  0.6904758505562469
  0.8885379678323844  0.1090664831135513  0.4406328605434808
  0.7781434036816322  0.2243440543242841  0.1920153261658371
  0.5564349717799359  0.1128699942254343  0.9422908947997684
  0.4429208579105079  0.2181734613928299  0.6879880157587834
  0.2214827822329184  0.4429655547645908  0.4396815241905188
  0.1104837470759819  0.5557495443144518  0.1931717052107871
  0.9073520803536255  0.4266751426940800  0.9307907625520286
  0.7757745630139823  0.5515490611419835  0.7074482145821364
  0.5537670959726171  0.4431536965981309  0.4480589509173996
  0.4452657364175607  0.5557495458683945  0.1931716544906621
  0.2218957850608589  0.4437916799678234  0.9416373705184071
  0.1147342268404756  0.5566635314958006  0.6880531818925775
  0.8893866414246432  0.4431537295261236  0.4480588908674932
  0.7660094469458230  0.5320188343899517  0.2037504747774506
  0.5193229681809299  0.4266749918662569  0.9307905810873365
  0.4419293429208579  0.5566635653082486  0.6880531402269341
  0.2221266356724101  0.7780387037948344  0.4408551792626696
  0.1431548831877336  0.9047972629267775  0.1813665700367793
  0.9048626877228187  0.8097253742161143  0.9380326334254789
  0.7738571664686660  0.8918432600651229  0.6961028036370536
  0.5559120547211691  0.7780387254410215  0.4408551203679565
  0.4448818481618630  0.8897636322734641  0.1903844917604829
  0.2228350132453940  0.7750974215849169  0.9398565498037073
  0.1179861264783781  0.8918433449466505  0.6961029588525278
  0.8887081500275826  0.7774162324770444  0.4757944807443479
  0.7616424703605560  0.9047972821448766  0.1813666921567219
  0.5522623971104608  0.7750974628473415  0.9398566043846230
  0.4445906342471986  0.8891813417347052  0.6905061243175012
 
  0.00000000E+00  0.00000000E+00  0.00000000E+00
  0.00000000E+00  0.00000000E+00  0.00000000E+00
  0.00000000E+00  0.00000000E+00  0.00000000E+00
  0.00000000E+00  0.00000000E+00  0.00000000E+00
  0.00000000E+00  0.00000000E+00  0.00000000E+00
  0.00000000E+00  0.00000000E+00  0.00000000E+00
  0.00000000E+00  0.00000000E+00  0.00000000E+00
  0.00000000E+00  0.00000000E+00  0.00000000E+00
  0.00000000E+00  0.00000000E+00  0.00000000E+00
  0.00000000E+00  0.00000000E+00  0.00000000E+00
  0.00000000E+00  0.00000000E+00  0.00000000E+00
  0.00000000E+00  0.00000000E+00  0.00000000E+00
  0.00000000E+00  0.00000000E+00  0.00000000E+00
  0.00000000E+00  0.00000000E+00  0.00000000E+00
  0.00000000E+00  0.00000000E+00  0.00000000E+00
  0.00000000E+00  0.00000000E+00  0.00000000E+00
  0.00000000E+00  0.00000000E+00  0.00000000E+00
  0.00000000E+00  0.00000000E+00  0.00000000E+00
  0.00000000E+00  0.00000000E+00  0.00000000E+00
  0.00000000E+00  0.00000000E+00  0.00000000E+00
  0.00000000E+00  0.00000000E+00  0.00000000E+00
  0.00000000E+00  0.00000000E+00  0.00000000E+00
  0.00000000E+00  0.00000000E+00  0.00000000E+00
  0.00000000E+00  0.00000000E+00  0.00000000E+00
  0.00000000E+00  0.00000000E+00  0.00000000E+00
  0.00000000E+00  0.00000000E+00  0.00000000E+00
  0.00000000E+00  0.00000000E+00  0.00000000E+00
  0.00000000E+00  0.00000000E+00  0.00000000E+00
  0.00000000E+00  0.00000000E+00  0.00000000E+00
  0.00000000E+00  0.00000000E+00  0.00000000E+00
  0.00000000E+00  0.00000000E+00  0.00000000E+00
  0.00000000E+00  0.00000000E+00  0.00000000E+00
  0.00000000E+00  0.00000000E+00  0.00000000E+00
  0.00000000E+00  0.00000000E+00  0.00000000E+00
  0.00000000E+00  0.00000000E+00  0.00000000E+00
  0.00000000E+00  0.00000000E+00  0.00000000E+00
  0.00000000E+00  0.00000000E+00  0.00000000E+00
  0.00000000E+00  0.00000000E+00  0.00000000E+00
  0.00000000E+00  0.00000000E+00  0.00000000E+00
  0.00000000E+00  0.00000000E+00  0.00000000E+00
  0.00000000E+00  0.00000000E+00  0.00000000E+00
  0.00000000E+00  0.00000000E+00  0.00000000E+00
  0.00000000E+00  0.00000000E+00  0.00000000E+00
  0.00000000E+00  0.00000000E+00  0.00000000E+00
  0.00000000E+00  0.00000000E+00  0.00000000E+00
  0.00000000E+00  0.00000000E+00  0.00000000E+00
  0.00000000E+00  0.00000000E+00  0.00000000E+00
  0.00000000E+00  0.00000000E+00  0.00000000E+00
  0.00000000E+00  0.00000000E+00  0.00000000E+00
  0.00000000E+00  0.00000000E+00  0.00000000E+00
  0.00000000E+00  0.00000000E+00  0.00000000E+00
  0.00000000E+00  0.00000000E+00  0.00000000E+00
  0.00000000E+00  0.00000000E+00  0.00000000E+00
  0.00000000E+00  0.00000000E+00  0.00000000E+00
  0.00000000E+00  0.00000000E+00  0.00000000E+00
  0.00000000E+00  0.00000000E+00  0.00000000E+00
  0.00000000E+00  0.00000000E+00  0.00000000E+00
  0.00000000E+00  0.00000000E+00  0.00000000E+00
  0.00000000E+00  0.00000000E+00  0.00000000E+00
  0.00000000E+00  0.00000000E+00  0.00000000E+00
  0.00000000E+00  0.00000000E+00  0.00000000E+00
  0.00000000E+00  0.00000000E+00  0.00000000E+00
  0.00000000E+00  0.00000000E+00  0.00000000E+00
  0.00000000E+00  0.00000000E+00  0.00000000E+00
  0.00000000E+00  0.00000000E+00  0.00000000E+00
  0.00000000E+00  0.00000000E+00  0.00000000E+00
  0.00000000E+00  0.00000000E+00  0.00000000E+00
  0.00000000E+00  0.00000000E+00  0.00000000E+00
  0.00000000E+00  0.00000000E+00  0.00000000E+00
  0.00000000E+00  0.00000000E+00  0.00000000E+00
  0.00000000E+00  0.00000000E+00  0.00000000E+00
  0.00000000E+00  0.00000000E+00  0.00000000E+00
