Al   Mg   Hf   N                        
   1.00000000000000     
    -9.6634705828040737    0.0031167741422592   -0.0079350389048536
    -4.8348590196397794    8.3972773455634933   -0.0037195004862848
    -0.0086944350507351   -0.0005246003808967  -10.1040962791633220
   Al   Mg   Hf   N 
    28     4     4    36
Direct
  0.1054467983505205  0.0983457291368168  0.2976662108629924
  0.2212055413480130  0.2048632894599436  0.0478345032071132
  0.7730628052911115  0.1077243964531007  0.8030975119577164
  0.8904964162035043  0.2137211981167511  0.5529140567674062
  0.4437938982643246  0.0998266904971103  0.3003127066783193
  0.5508530041887170  0.2117265202578977  0.0471981413812230
  0.1107873705474489  0.0993659509991289  0.8016914336429437
  0.2209372130094849  0.2006946895965598  0.5497293749920118
  0.7730675882350084  0.1069947591276730  0.2985547171003731
  0.8888773127699920  0.2122142862595737  0.0465382569366142
  0.5547846622056838  0.2067057559280556  0.5498266832045147
  0.1096911092769020  0.4237904206926046  0.2949083863086770
  0.2283677808748550  0.5288334951811962  0.0426016515544418
  0.7803639178777928  0.4270886188309291  0.8021483952936990
  0.8851653741226286  0.5333448081849426  0.5494881735934882
  0.4485938378200842  0.4210291596049487  0.2942787882031297
  0.5571146804289384  0.5372627883326899  0.0450516869080175
  0.1088035076669343  0.4183664972341248  0.8070905830697299
  0.7823995992792518  0.4211352300405196  0.2986818710285419
  0.8889290968207817  0.5312336107341835  0.0474642403882726
  0.4524653006482779  0.4228519503813004  0.8068241095188000
  0.5664044186034687  0.5324943948164673  0.5569239810934192
  0.1147286226016533  0.7584874352770115  0.2910503615283773
  0.2265824130839960  0.8761938049561309  0.0416692589772083
  0.5494038680042337  0.8723449635106277  0.0423927901527108
  0.7778006535251052  0.7549913564956299  0.2992374774964048
  0.4466042867770170  0.7628893153936787  0.7980941290839638
  0.5538951046917830  0.8761685198387283  0.5541090685680032
  0.4434576934416725  0.0957004757524942  0.8038925940323125
  0.7743803512997331  0.7547872046646447  0.8019170153549808
  0.1164225856708541  0.7603875489725027  0.8102009159853836
  0.2210198581331255  0.8820049600842168  0.5605131313167817
  0.2274785994917252  0.5295017492704801  0.5589239515889162
  0.8824931784862571  0.8796201003531223  0.5498694060126681
  0.4439840692576453  0.7598910752322894  0.3119684653416073
  0.8831589834218150  0.8764961023262998  0.0530173518396779
  0.2204224647525521  0.2053899148401186  0.3554237532603040
  0.1084257096897332  0.0952327977279666  0.1081058818131027
  0.8882902912216579  0.2083765539358780  0.8590575176761632
  0.7690597767925240  0.1160533366301522  0.6097229191357414
  0.5554677430651438  0.2075161677840853  0.3575617865473077
  0.4455395378133815  0.0947735045609193  0.1087286075303169
  0.2099034440865779  0.2097659501229785  0.8645146382998448
  0.1010416669022121  0.1118887882433626  0.6126554360003240
  0.8889939149971440  0.2065450902033419  0.3602732280648624
  0.7684472415620576  0.1157283271535974  0.1121423371769552
  0.5634916225395088  0.2132798607215634  0.8637236475757177
  0.4436442681820196  0.0980465292711088  0.5941524408974885
  0.2235185021567716  0.5365734561561624  0.3486143901523420
  0.1106131347389976  0.4279597996895248  0.1077037653443611
  0.8952919521490585  0.5238332680705113  0.8630792041887503
  0.7795299410505976  0.4275270779088771  0.6105149646055921
  0.5654232575370699  0.5179927643624396  0.3629930553287508
  0.4444847567939973  0.4293410798508930  0.1067874319139435
  0.2317108509913837  0.5185562844364142  0.8530494657033785
  0.1008451173777090  0.4184560208818979  0.6112884481209733
  0.8893966922930261  0.5350043765575023  0.3566088460245851
  0.7757604433343843  0.4276232470925194  0.1097878290956729
  0.5560846717570911  0.5398511724874950  0.8564752269452640
  0.4644229629576344  0.4187210058889690  0.6145467147268135
  0.2037471793335186  0.8811193157714428  0.3501276307048471
  0.1283909284593250  0.7506381220469507  0.1003095014974846
  0.8769912702502722  0.8914702086385091  0.8525120374625672
  0.7740169642662877  0.7516034838639953  0.5941928211174314
  0.5628516187574633  0.8822091261171678  0.3596377183352004
  0.4442086617012535  0.7581421555514325  0.1056743014897421
  0.2301078437158139  0.8815805021782808  0.8560047653733989
  0.1106379867436686  0.7599203354133621  0.6065933753688242
  0.8883487558108527  0.8733434522625245  0.3350001968304142
  0.7682412665931935  0.7498351690392155  0.1104450048850154
  0.5486255925111436  0.8655809306678179  0.8618634820890350
  0.4601185075112255  0.7517135847820668  0.5995371181584801
 
             NaN             NaN             NaN
             NaN             NaN             NaN
             NaN             NaN             NaN
             NaN             NaN             NaN
             NaN             NaN             NaN
             NaN             NaN             NaN
             NaN             NaN             NaN
             NaN             NaN             NaN
             NaN             NaN             NaN
             NaN             NaN             NaN
             NaN             NaN             NaN
             NaN             NaN             NaN
             NaN             NaN             NaN
             NaN             NaN             NaN
             NaN             NaN             NaN
             NaN             NaN             NaN
             NaN             NaN             NaN
             NaN             NaN             NaN
             NaN             NaN             NaN
             NaN             NaN             NaN
             NaN             NaN             NaN
             NaN             NaN             NaN
             NaN             NaN             NaN
             NaN             NaN             NaN
             NaN             NaN             NaN
             NaN             NaN             NaN
             NaN             NaN             NaN
             NaN             NaN             NaN
             NaN             NaN             NaN
             NaN             NaN             NaN
             NaN             NaN             NaN
             NaN             NaN             NaN
             NaN             NaN             NaN
             NaN             NaN             NaN
             NaN             NaN             NaN
             NaN             NaN             NaN
             NaN             NaN             NaN
             NaN             NaN             NaN
             NaN             NaN             NaN
             NaN             NaN             NaN
             NaN             NaN             NaN
             NaN             NaN             NaN
             NaN             NaN             NaN
             NaN             NaN             NaN
             NaN             NaN             NaN
             NaN             NaN             NaN
             NaN             NaN             NaN
             NaN             NaN             NaN
             NaN             NaN             NaN
             NaN             NaN             NaN
             NaN             NaN             NaN
             NaN             NaN             NaN
             NaN             NaN             NaN
             NaN             NaN             NaN
             NaN             NaN             NaN
             NaN             NaN             NaN
             NaN             NaN             NaN
             NaN             NaN             NaN
             NaN             NaN             NaN
             NaN             NaN             NaN
             NaN             NaN             NaN
             NaN             NaN             NaN
             NaN             NaN             NaN
             NaN             NaN             NaN
             NaN             NaN             NaN
             NaN             NaN             NaN
             NaN             NaN             NaN
             NaN             NaN             NaN
             NaN             NaN             NaN
             NaN             NaN             NaN
             NaN             NaN             NaN
             NaN             NaN             NaN
