supercell of icsd_608626.cif            
   1.01523452869031     
     9.3169941137950012   -0.0000004241123974    0.0000000008240312
    -4.6584974245438815    8.0653504479278979   -0.0044106525269736
    -0.0000000020845587   -0.0054961631250023    9.8071888418591264
   Al   Y    N 
    34     2    36
Direct
  0.2190333142728491  0.1102593262125353  0.2489503487839144
  0.1107886129843010  0.2215772808806022  0.4996905134853051
  0.8942329339846680  0.1127575333035296  0.7493421304985048
  0.7823660544397200  0.2197480376853633  0.0075835603534671
  0.5555184124942514  0.1110368935248189  0.2493560452363468
  0.4386969026020822  0.2240118069610659  0.4928393487079887
  0.2185245422713464  0.1127575596333017  0.7493421319526732
  0.1113729157215602  0.2227458509055467  0.9973502887692902
  0.8912260084901433  0.1102593027099061  0.2489503868591285
  0.7853148679956590  0.2240117531027437  0.4928394466244086
  0.4373820363255660  0.2197481389088551  0.0075836061299555
  0.2217913953156057  0.4435827057765565  0.2488669228013620
  0.1133374257184698  0.5565676867140255  0.4991238745245852
  0.8994473760457780  0.4436906660819204  0.7439075215383326
  0.5546897537348059  0.4462077809771046  0.2560070887891399
  0.4432302822720828  0.5565676978164902  0.4991238430798575
  0.2222145053095375  0.4444290075370319  0.7480723609776021
  0.1150459214528183  0.5529278075696311  0.9988226388864732
  0.8915180131523144  0.4462077866314758  0.2560071510147921
  0.7778178117359573  0.5556356257611128  0.5001297322149796
  0.5442433523068360  0.4436906949326769  0.7439075974276577
  0.4378819855920781  0.5529278320069508  0.9988227158315937
  0.2198282634047999  0.7762074776170707  0.2485834717151789
  0.1132583555352511  0.8900692600818871  0.4987460804712356
  0.8933752377113251  0.7867505411062297  0.7428994207538153
  0.7799283451247803  0.8949164977195778  0.9983016025879863
  0.5563792040801019  0.7762074579539373  0.2485834740013786
  0.4406114452353975  0.8812228726850435  0.4935880280705831
  0.2191419222492286  0.7724335323076161  0.7484754226609027
  0.1149881986308046  0.8949165883749046  0.9983015892814251
  0.8898181760599471  0.7796363203496242  0.2562076383910750
  0.7768108894887220  0.8900692702613711  0.4987460645309056
  0.5532916283660185  0.7724335620114715  0.7484754530246676
  0.4433551897766961  0.8867103392963855  0.0067582409788898
  0.5562848891462693  0.1125697039553160  0.7427260207553559
  0.7782817057800244  0.5565633406509178  0.9886117247255939
  0.2179290506446776  0.1092075107889912  0.4381167664529357
  0.1113405916617225  0.2226812681876567  0.1891925897897124
  0.8884982790023699  0.1118328701983486  0.9419427745467459
  0.8075088596615387  0.2339856324532832  0.6787976042611987
  0.5553581284519282  0.1107163062247238  0.4474220546529182
  0.4430088326580943  0.2241595612335985  0.1990294502309737
  0.2233346344029670  0.1118329346252764  0.9419427316648665
  0.1110528982135577  0.2221057723923465  0.6918038794071393
  0.8912784392126909  0.1092075165944095  0.4381167348288812
  0.7811507048289528  0.2241595733651991  0.1990294805760158
  0.5563058089535389  0.1126116777619472  0.9684339173700707
  0.4264766550293899  0.2339856939497267  0.6787976053785556
  0.2217591687792293  0.4435183879830689  0.4406557408038196
  0.1107220333619168  0.5547283349169092  0.1910382649096150
  0.9038219758164914  0.4273892443530443  0.9329307469287897
  0.7770052577271969  0.5540104687695191  0.7004840564279462
  0.5551242809201895  0.4470054269918009  0.4449021724919788
  0.4440062374914433  0.5547283495545869  0.1910382875693628
  0.2220180513665326  0.4440360463925614  0.9401036073833637
  0.1148460028138345  0.5569794889309847  0.6888643173937297
  0.8918811929943615  0.4470054540974076  0.4449021603346779
  0.7781109984779064  0.5562218637477727  0.2128090929074133
  0.5235675082784397  0.4273893614115138  0.9329308604855058
  0.4421334317934154  0.5569794076663186  0.6888643121418880
  0.2194912524448895  0.7763949281293350  0.4383097844345869
  0.1096007577827578  0.8879937125114310  0.1909121958586084
  0.9053478758382241  0.8106957635140617  0.9302539558373155
  0.7750841374167123  0.8909154871103055  0.6896352326988122
  0.5569036703215602  0.7763949752895414  0.4383098014325881
  0.4429417374946283  0.8858834935157347  0.1970669824220721
  0.2217903305483446  0.7773990859248272  0.9426138748866535
  0.1158313753314104  0.8909155166439575  0.6896352318213772
  0.8899620763584437  0.7799240614826601  0.4478919864772450
  0.7783929599467854  0.8879937744504218  0.1909122670339372
  0.5556087617077665  0.7773990806604587  0.9426139091484913
  0.4297781674583021  0.8595564281717074  0.6820720825738604
 
  0.00000000E+00  0.00000000E+00  0.00000000E+00
  0.00000000E+00  0.00000000E+00  0.00000000E+00
  0.00000000E+00  0.00000000E+00  0.00000000E+00
  0.00000000E+00  0.00000000E+00  0.00000000E+00
  0.00000000E+00  0.00000000E+00  0.00000000E+00
  0.00000000E+00  0.00000000E+00  0.00000000E+00
  0.00000000E+00  0.00000000E+00  0.00000000E+00
  0.00000000E+00  0.00000000E+00  0.00000000E+00
  0.00000000E+00  0.00000000E+00  0.00000000E+00
  0.00000000E+00  0.00000000E+00  0.00000000E+00
  0.00000000E+00  0.00000000E+00  0.00000000E+00
  0.00000000E+00  0.00000000E+00  0.00000000E+00
  0.00000000E+00  0.00000000E+00  0.00000000E+00
  0.00000000E+00  0.00000000E+00  0.00000000E+00
  0.00000000E+00  0.00000000E+00  0.00000000E+00
  0.00000000E+00  0.00000000E+00  0.00000000E+00
  0.00000000E+00  0.00000000E+00  0.00000000E+00
  0.00000000E+00  0.00000000E+00  0.00000000E+00
  0.00000000E+00  0.00000000E+00  0.00000000E+00
  0.00000000E+00  0.00000000E+00  0.00000000E+00
  0.00000000E+00  0.00000000E+00  0.00000000E+00
  0.00000000E+00  0.00000000E+00  0.00000000E+00
  0.00000000E+00  0.00000000E+00  0.00000000E+00
  0.00000000E+00  0.00000000E+00  0.00000000E+00
  0.00000000E+00  0.00000000E+00  0.00000000E+00
  0.00000000E+00  0.00000000E+00  0.00000000E+00
  0.00000000E+00  0.00000000E+00  0.00000000E+00
  0.00000000E+00  0.00000000E+00  0.00000000E+00
  0.00000000E+00  0.00000000E+00  0.00000000E+00
  0.00000000E+00  0.00000000E+00  0.00000000E+00
  0.00000000E+00  0.00000000E+00  0.00000000E+00
  0.00000000E+00  0.00000000E+00  0.00000000E+00
  0.00000000E+00  0.00000000E+00  0.00000000E+00
  0.00000000E+00  0.00000000E+00  0.00000000E+00
  0.00000000E+00  0.00000000E+00  0.00000000E+00
  0.00000000E+00  0.00000000E+00  0.00000000E+00
  0.00000000E+00  0.00000000E+00  0.00000000E+00
  0.00000000E+00  0.00000000E+00  0.00000000E+00
  0.00000000E+00  0.00000000E+00  0.00000000E+00
  0.00000000E+00  0.00000000E+00  0.00000000E+00
  0.00000000E+00  0.00000000E+00  0.00000000E+00
  0.00000000E+00  0.00000000E+00  0.00000000E+00
  0.00000000E+00  0.00000000E+00  0.00000000E+00
  0.00000000E+00  0.00000000E+00  0.00000000E+00
  0.00000000E+00  0.00000000E+00  0.00000000E+00
  0.00000000E+00  0.00000000E+00  0.00000000E+00
  0.00000000E+00  0.00000000E+00  0.00000000E+00
  0.00000000E+00  0.00000000E+00  0.00000000E+00
  0.00000000E+00  0.00000000E+00  0.00000000E+00
  0.00000000E+00  0.00000000E+00  0.00000000E+00
  0.00000000E+00  0.00000000E+00  0.00000000E+00
  0.00000000E+00  0.00000000E+00  0.00000000E+00
  0.00000000E+00  0.00000000E+00  0.00000000E+00
  0.00000000E+00  0.00000000E+00  0.00000000E+00
  0.00000000E+00  0.00000000E+00  0.00000000E+00
  0.00000000E+00  0.00000000E+00  0.00000000E+00
  0.00000000E+00  0.00000000E+00  0.00000000E+00
  0.00000000E+00  0.00000000E+00  0.00000000E+00
  0.00000000E+00  0.00000000E+00  0.00000000E+00
  0.00000000E+00  0.00000000E+00  0.00000000E+00
  0.00000000E+00  0.00000000E+00  0.00000000E+00
  0.00000000E+00  0.00000000E+00  0.00000000E+00
  0.00000000E+00  0.00000000E+00  0.00000000E+00
  0.00000000E+00  0.00000000E+00  0.00000000E+00
  0.00000000E+00  0.00000000E+00  0.00000000E+00
  0.00000000E+00  0.00000000E+00  0.00000000E+00
  0.00000000E+00  0.00000000E+00  0.00000000E+00
  0.00000000E+00  0.00000000E+00  0.00000000E+00
  0.00000000E+00  0.00000000E+00  0.00000000E+00
  0.00000000E+00  0.00000000E+00  0.00000000E+00
  0.00000000E+00  0.00000000E+00  0.00000000E+00
  0.00000000E+00  0.00000000E+00  0.00000000E+00
