supercell of icsd_608626.cif            
   1.11267248002495     
     9.0749737915467446   -0.0349824074922285   -0.1001945510822957
    -4.5666920842200565    7.8556417685105284    0.1019972010540122
    -0.1033929526886883    0.0618458465051759    9.8251297037220215
   Al   La   N 
    24    12    36
Direct
  0.2211331965299834  0.1177149957476900  0.2668044920533745
  0.1287134941394470  0.2287566152987992  0.5066693952610279
  0.7562295745363485  0.2154932757440733  0.0127448287467473
  0.5346539475284402  0.1169460015681310  0.2525733159116896
  0.4358567275466356  0.2024837404801971  0.4860526612291167
  0.2415119832615176  0.1011901870651357  0.7233350741596780
  0.5478766852142911  0.0929487596047522  0.7473569206162409
  0.2103318748506311  0.4242211461722292  0.2494920184542195
  0.1192226562037746  0.5512773400062798  0.4846641120212212
  0.7677874491003891  0.5554548828045824  0.0270952785211165
  0.5531500368446487  0.4312704472858186  0.2503847121410274
  0.2517463075739528  0.4733921599953845  0.7516666815495796
  0.1035356256077407  0.5507344795874403  0.0105722889207911
  0.8809957885745803  0.4438595556250817  0.2330131188501454
  0.8102394001756963  0.5694468631401648  0.4617238089787179
  0.4404765292191684  0.5562072217673659  0.9964540265306354
  0.1236900822753526  0.8941067294673459  0.4868647129485169
  0.7637121161990024  0.8818921065232033  0.0156937926913017
  0.4519372587112969  0.8944468460670407  0.5006134332830428
  0.2408214130754303  0.7815288552975943  0.6562225060454310
  0.0991054450797293  0.8790590031036913  0.0086289368309025
  0.8926120246631513  0.7814143709733372  0.2294108583154753
  0.5497864101946632  0.7894868896670246  0.7762258988632524
  0.4299003588856607  0.8853889332218827  0.9946500916063172
  0.9187213346031129  0.1408117617266456  0.7561989959011299
  0.1198264849743325  0.2208714414334736  0.0079369790400676
  0.8736192246972365  0.1131877962030217  0.2603155191983930
  0.7624418033541644  0.2410611655566797  0.4984168194270069
  0.4270810725382290  0.1921451579185671  0.0089522390500463
  0.9193546752239712  0.4799292515961255  0.7590494888888841
  0.4382033209434297  0.5404163192913671  0.5074606235709993
  0.5642159674224700  0.4365092968708240  0.7445200113872730
  0.1985484907399879  0.7713270641311567  0.2437176260215850
  0.9205714682041588  0.7992730993212120  0.7783352530611083
  0.5240358190110044  0.7650875141810687  0.2291918801820216
  0.7833340328463265  0.8587709050355059  0.5201473666406642
  0.2223326833940789  0.1123633634237606  0.4420659066873540
  0.1222294042702146  0.2194717957792278  0.2165313936595012
  0.8567327921399368  0.1010305341210014  0.9963917287568904
  0.7561648870112023  0.2321160875779924  0.7106674047170358
  0.5125552521173447  0.0810364019658536  0.4230186517509864
  0.4286393202429650  0.2209410738439672  0.2201688535356539
  0.1754623587617914  0.0496081864310156  0.8926292470541810
  0.1966842579968784  0.2690593963187169  0.6781282592495756
  0.9160725529285614  0.1219270240394223  0.5050256344371320
  0.7363231765213243  0.2384259043155410  0.1899746318495659
  0.5557248525922702  0.0866181230800791  0.9206413464808847
  0.4434593026315881  0.1852684670962148  0.6664633340765533
  0.1977632058608307  0.4304220538926771  0.4217857291551610
  0.0888633239164491  0.5022911547065405  0.1787146217346844
  0.8729225580146789  0.4437430664683291  0.9747156990791410
  0.7999057371649698  0.5882250701968914  0.6345025443034444
  0.5835113162641719  0.4243890473956142  0.4275241495863966
  0.4138219643531471  0.5062536960002859  0.1768029403152482
  0.2214666884909064  0.4751026549813702  0.9235098070522483
  0.1517189222339752  0.5610081138393852  0.6585338262803688
  0.9266287316516255  0.4819274231609398  0.4084565327059977
  0.7763254461623390  0.5574175745599348  0.1995136968667524
  0.5628309202334236  0.4641966683497785  0.9627508213741507
  0.4583027798550319  0.5900137248236916  0.7224487400334496
  0.2333309289654366  0.7775761093037517  0.4748344554440820
  0.1082052046834718  0.9302227196685919  0.1757157875669080
  0.8785519348499093  0.7705351508592031  0.9888958052885854
  0.7574187174333105  0.8885138676780002  0.7367467963646845
  0.5469155846496463  0.7956517417752522  0.4427283949671263
  0.4469856757223596  0.9388346066712998  0.1613602643652925
  0.2026430526798961  0.7666206620853231  0.9878676558685555
  0.1410934563334223  0.8986938920866763  0.6569178355674978
  0.9334408634972249  0.7789084056216993  0.4016855587154780
  0.7732005856907591  0.8663453526975928  0.1898093256976736
  0.5415899858681286  0.7762802747423052  0.9627638186152510
  0.4552014942667313  0.8908484309622224  0.6845530338977639
 
  0.00000000E+00  0.00000000E+00  0.00000000E+00
  0.00000000E+00  0.00000000E+00  0.00000000E+00
  0.00000000E+00  0.00000000E+00  0.00000000E+00
  0.00000000E+00  0.00000000E+00  0.00000000E+00
  0.00000000E+00  0.00000000E+00  0.00000000E+00
  0.00000000E+00  0.00000000E+00  0.00000000E+00
  0.00000000E+00  0.00000000E+00  0.00000000E+00
  0.00000000E+00  0.00000000E+00  0.00000000E+00
  0.00000000E+00  0.00000000E+00  0.00000000E+00
  0.00000000E+00  0.00000000E+00  0.00000000E+00
  0.00000000E+00  0.00000000E+00  0.00000000E+00
  0.00000000E+00  0.00000000E+00  0.00000000E+00
  0.00000000E+00  0.00000000E+00  0.00000000E+00
  0.00000000E+00  0.00000000E+00  0.00000000E+00
  0.00000000E+00  0.00000000E+00  0.00000000E+00
  0.00000000E+00  0.00000000E+00  0.00000000E+00
  0.00000000E+00  0.00000000E+00  0.00000000E+00
  0.00000000E+00  0.00000000E+00  0.00000000E+00
  0.00000000E+00  0.00000000E+00  0.00000000E+00
  0.00000000E+00  0.00000000E+00  0.00000000E+00
  0.00000000E+00  0.00000000E+00  0.00000000E+00
  0.00000000E+00  0.00000000E+00  0.00000000E+00
  0.00000000E+00  0.00000000E+00  0.00000000E+00
  0.00000000E+00  0.00000000E+00  0.00000000E+00
  0.00000000E+00  0.00000000E+00  0.00000000E+00
  0.00000000E+00  0.00000000E+00  0.00000000E+00
  0.00000000E+00  0.00000000E+00  0.00000000E+00
  0.00000000E+00  0.00000000E+00  0.00000000E+00
  0.00000000E+00  0.00000000E+00  0.00000000E+00
  0.00000000E+00  0.00000000E+00  0.00000000E+00
  0.00000000E+00  0.00000000E+00  0.00000000E+00
  0.00000000E+00  0.00000000E+00  0.00000000E+00
  0.00000000E+00  0.00000000E+00  0.00000000E+00
  0.00000000E+00  0.00000000E+00  0.00000000E+00
  0.00000000E+00  0.00000000E+00  0.00000000E+00
  0.00000000E+00  0.00000000E+00  0.00000000E+00
  0.00000000E+00  0.00000000E+00  0.00000000E+00
  0.00000000E+00  0.00000000E+00  0.00000000E+00
  0.00000000E+00  0.00000000E+00  0.00000000E+00
  0.00000000E+00  0.00000000E+00  0.00000000E+00
  0.00000000E+00  0.00000000E+00  0.00000000E+00
  0.00000000E+00  0.00000000E+00  0.00000000E+00
  0.00000000E+00  0.00000000E+00  0.00000000E+00
  0.00000000E+00  0.00000000E+00  0.00000000E+00
  0.00000000E+00  0.00000000E+00  0.00000000E+00
  0.00000000E+00  0.00000000E+00  0.00000000E+00
  0.00000000E+00  0.00000000E+00  0.00000000E+00
  0.00000000E+00  0.00000000E+00  0.00000000E+00
  0.00000000E+00  0.00000000E+00  0.00000000E+00
  0.00000000E+00  0.00000000E+00  0.00000000E+00
  0.00000000E+00  0.00000000E+00  0.00000000E+00
  0.00000000E+00  0.00000000E+00  0.00000000E+00
  0.00000000E+00  0.00000000E+00  0.00000000E+00
  0.00000000E+00  0.00000000E+00  0.00000000E+00
  0.00000000E+00  0.00000000E+00  0.00000000E+00
  0.00000000E+00  0.00000000E+00  0.00000000E+00
  0.00000000E+00  0.00000000E+00  0.00000000E+00
  0.00000000E+00  0.00000000E+00  0.00000000E+00
  0.00000000E+00  0.00000000E+00  0.00000000E+00
  0.00000000E+00  0.00000000E+00  0.00000000E+00
  0.00000000E+00  0.00000000E+00  0.00000000E+00
  0.00000000E+00  0.00000000E+00  0.00000000E+00
  0.00000000E+00  0.00000000E+00  0.00000000E+00
  0.00000000E+00  0.00000000E+00  0.00000000E+00
  0.00000000E+00  0.00000000E+00  0.00000000E+00
  0.00000000E+00  0.00000000E+00  0.00000000E+00
  0.00000000E+00  0.00000000E+00  0.00000000E+00
  0.00000000E+00  0.00000000E+00  0.00000000E+00
  0.00000000E+00  0.00000000E+00  0.00000000E+00
  0.00000000E+00  0.00000000E+00  0.00000000E+00
  0.00000000E+00  0.00000000E+00  0.00000000E+00
  0.00000000E+00  0.00000000E+00  0.00000000E+00
