generated by phonopy                    
   1.00000000000000     
    11.7777700938999992   -0.0000006592896312    0.0000118211769744
    -0.0000006477562692   11.7777479613999994   -0.0000130806483528
     0.0000177256125076   -0.0000204342245446   17.8544012557999991
   Se   Bi   Cu   O 
    37    35    36    36
Direct
  0.0001958283014645  0.1666917931589111  0.4616256279003395
  0.1660735172447829  0.3326836826782795  0.3377116103909259
  0.5001450248728645  0.3312731970671550  0.3377128210023770
  0.8342208802385755  0.3326792792332967  0.3377060288097695
  0.1646241787044644  0.6667752253574051  0.3377169958652146
  0.5001374628739512  0.6668028597559186  0.3374792210364532
  0.8356578872809379  0.6667651105814087  0.3377146309915275
  0.1660567055431983  0.0008523990427989  0.3377370518956937
  0.5001403048188493  0.0022954788650793  0.3377209769393374
  0.8342173993677449  0.0008315741110607  0.3377228361726523
  0.1671632746572485  0.3338801405744789  0.8369492735553052
  0.5000966792937191  0.3326399132755071  0.8362159673377931
  0.8330190159530062  0.3338824402011156  0.8369503994596741
  0.1658954078326715  0.6667960991460902  0.8361941478141262
  0.5000893275560472  0.6668065608541909  0.8348569728152739
  0.8342692691928946  0.6667966320853935  0.8362015253925819
  0.1671517189233001  0.9997447682305634  0.8369468419301853
  0.5000931912007829  0.0010210970105504  0.8361814414722062
  0.8330238230172711  0.9997395033318810  0.8369478544423004
  0.3327516836232220  0.1668417710570580  0.1632753124240764
  0.6674226024974246  0.1668369795982727  0.1632768632761952
  0.0000920397091022  0.1668181182256561  0.1618741935473125
  0.3341628127672394  0.5009259012718843  0.1630524552279766
  0.6660094892819330  0.5009173563533409  0.1630515462934810
  0.0000899790373836  0.4994960060587630  0.1632768810837177
  0.3341420142462894  0.8327869880894454  0.1630567522607151
  0.6660141763836620  0.8327733178797061  0.1630551374967553
  0.0000861385643773  0.8341707579519877  0.1632722231479775
  0.3328764705808283  0.1667430787726545  0.6613371052605714
  0.6674314032717064  0.1667427937312098  0.6613289262719917
  0.0001427465390407  0.1667400445297460  0.6641259908107955
  0.3336368126976623  0.5002202250970100  0.6614811037956230
  0.6666649314761699  0.5002162095928142  0.6614768001522862
  0.0001454221907835  0.4994375224982690  0.6613202607759092
  0.3336366206001813  0.8332434580947279  0.6614785489239239
  0.6666597667131384  0.8332449452271078  0.6614763232728080
  0.0001450892379893  0.8339937601728735  0.6613425268472923
  0.3322223798072841  0.1666899816242946  0.4253177644415160
  0.6681504378692296  0.1666843418081214  0.4253136288878778
  0.0001910293842400  0.4987293792916674  0.4253046317312794
  0.3316700430532364  0.4981867542318170  0.4277448871027616
  0.6687050079830783  0.4981790128224901  0.4277396542566976
  0.0001838802237444  0.8346680475964234  0.4253268346671177
  0.3316667144934797  0.8352117841842528  0.4277648428228176
  0.6686944407611719  0.8352086786719966  0.4277601822965309
  0.0000618385164728  0.1668530301833187  0.9292904646355922
  0.3332108403954166  0.1668598899229679  0.9292696737741650
  0.6669183340689244  0.1668577445446928  0.9292742278279249
  0.0000605676041872  0.4999902273678032  0.9292796736947793
  0.3332624882227648  0.5000621716485441  0.9292526793897409
  0.6668576573237388  0.5000599588945249  0.9292553197700499
  0.0000589179459212  0.8336944249743112  0.9292632246338215
  0.3332652356325596  0.8336594980754839  0.9292418872262331
  0.6668516871836445  0.8336595304769006  0.9292442410808874
  0.1666411757717441  0.0002664846815748  0.0712528139827100
  0.5000584935020314  0.0003477900321656  0.0709543262685344
  0.8334816539055296  0.0002615790054250  0.0712566322105772
  0.1666499474825756  0.3334339346235282  0.0712647924300285
  0.5000626692424532  0.3333828482967078  0.0709585913855122
  0.8334790115595894  0.3334320848029080  0.0712683868587121
  0.1665783170772599  0.6668575677626407  0.0709551413952738
  0.5000559705589893  0.6668719829045244  0.0709436161692594
  0.8335381144506258  0.6668545540637467  0.0709562605352616
  0.1710983147764864  0.9957798904894091  0.5750887676613488
  0.5001791255264578  0.0018196084618438  0.5687487372339248
  0.8292526350938445  0.9957878715626549  0.5750763365015743
  0.1710909585230453  0.3376233897867635  0.5750615363528269
  0.5001835399003411  0.3315778923630219  0.5687305057860215
  0.8292713582976887  0.3376126731637399  0.5750510090551870
  0.1650598552170379  0.6666986900271823  0.5687425309918623
  0.5001876408930244  0.6666792414144069  0.5677113452808769
  0.8353039039873806  0.6666968305488510  0.5687361028927072
  0.0001437257667263  0.0024811289169051  0.2507878128985510
  0.3305543271009554  0.9994746001294388  0.2501583331279633
  0.6697048491172239  0.9994561150030492  0.2501499135749796
  0.0001556621348797  0.3311589503492769  0.2507659399352065
  0.3305946700210569  0.3342320585159158  0.2501457358704684
  0.6697097811894466  0.3342258065727179  0.2501417645173873
  0.0001452821108856  0.6668325449050840  0.2481168474738737
  0.3325497475060004  0.6668630812758494  0.2503084051749909
  0.6677154093814721  0.6668460622616550  0.2503113147584699
  0.0000896235201964  0.9998549373461429  0.7503926428959460
  0.3332744166338415  0.9996568472856353  0.7497845591936994
  0.6669172981236997  0.9996591205634502  0.7497790316616246
  0.0000919088746443  0.3335992496388656  0.7504048547048896
  0.3333073359559222  0.3338030192525423  0.7497929928002307
  0.6668906635353125  0.3338004184297816  0.7497875626651407
  0.0000744580140051  0.6666650092218660  0.7494819397247170
  0.3319939672849017  0.6667340685221319  0.7499112139868132
  0.6681830340601209  0.6667301119559639  0.7499063359516356
  0.1644273375833905  0.1667530889043505  0.2507781722724971
  0.5000922194656852  0.1667905215521799  0.2481258434550071
  0.8357698317695892  0.1667446730814319  0.2507715328284661
  0.1674908911941486  0.4972027610224004  0.2501472573960228
  0.5000933372147003  0.4992391808605632  0.2503137879299757
  0.8326987805805572  0.4972044394768602  0.2501432290943768
  0.1674532651760998  0.8363649486035527  0.2501607597296029
  0.5000746833933576  0.8343891150254663  0.2502994993610841
  0.8327084837174041  0.8363294518074724  0.2501512570032887
  0.1670291184331418  0.1668031142986379  0.7503968318722372
  0.5001658398236870  0.1668592549925734  0.7494810525488447
  0.8332651345122812  0.1668018003236540  0.7504015759737399
  0.1672074811246489  0.4999845723026439  0.7497791010283095
  0.5001509083065443  0.4986974871884797  0.7499054805439869
  0.8330823229899522  0.4999898603339759  0.7497789384180749
  0.1672103400379967  0.8335922698010521  0.7497915655747320
  0.5001459540417130  0.8349007815453717  0.7499133961709958
  0.8330747214816796  0.8335833365644163  0.7497907209533921
  0.1545042250943283  0.1667116405557181  0.4999458045323095
  0.5001728933271750  0.1667148116771813  0.4962698956181910
  0.8458135389141006  0.1667072584384144  0.4999323785965899
  0.1642331245927977  0.4972581827100626  0.5000276943250910
  0.5001718573178948  0.4981404320991061  0.4984357698346642
  0.8361037265896627  0.4972534675716176  0.5000215467383669
  0.1642332934287438  0.8361834695582573  0.5000460138931757
  0.5001686244844663  0.8352870889765001  0.4984533486209699
  0.8361000794636837  0.8361867221687831  0.5000407400471758
  0.1667423491362499  0.1668492401962780  0.0000132574096128
  0.5000706626444327  0.1668525404742383  0.9999986410040407
  0.8334006570425174  0.1668464686518760  0.0000184282751121
  0.1668305997419708  0.5002394786435076  0.9999393820260067
  0.5000681091268930  0.4999718726947577  0.9996837071306075
  0.8333091929252063  0.5002394547622799  0.9999423597446153
  0.1668294424230936  0.8334484466663596  0.9999247397768301
  0.5000657042095185  0.8337370463573635  0.9996729258593717
  0.8333084425225081  0.8334467513058783  0.9999272641764847
  0.0000685401044578  0.0001682160377854  0.0000075940589994
  0.3334674154666502  0.0000912489700440  0.9999279891899064
  0.6666716459852609  0.0000893793239811  0.9999324236298150
  0.0000699492839473  0.3335100432300919  0.0000230006843793
  0.3334687474929652  0.3336033447438709  0.9999363193502901
  0.6666742189223456  0.3336024800911872  0.9999407806489486
  0.0000676646312243  0.6668402223382301  0.0000004927509565
  0.3331891113732794  0.6668527540339113  0.9996756071838035
  0.6669455906142474  0.6668516560236029  0.9996782344229018
  0.0001674614848710  0.0123642918501545  0.4999533147719717
  0.3306993207285984  0.0026575680632703  0.5000466529948113
  0.6696325845964566  0.0026589512355315  0.5000394569819164
  0.0001628244636436  0.3210666811826712  0.4999201655320817
  0.3307038580587260  0.3307883466465213  0.5000271182277274
  0.6696371333244429  0.3307850607726976  0.5000230402030681
  0.0001725141297442  0.6667188165913061  0.4962696663067021
  0.3316032349803777  0.6667195237895740  0.4984464665223882
  0.6687393892658378  0.6667130626701265  0.4984423680018679
 
  0.00000000E+00  0.00000000E+00  0.00000000E+00
  0.00000000E+00  0.00000000E+00  0.00000000E+00
  0.00000000E+00  0.00000000E+00  0.00000000E+00
  0.00000000E+00  0.00000000E+00  0.00000000E+00
  0.00000000E+00  0.00000000E+00  0.00000000E+00
  0.00000000E+00  0.00000000E+00  0.00000000E+00
  0.00000000E+00  0.00000000E+00  0.00000000E+00
  0.00000000E+00  0.00000000E+00  0.00000000E+00
  0.00000000E+00  0.00000000E+00  0.00000000E+00
  0.00000000E+00  0.00000000E+00  0.00000000E+00
  0.00000000E+00  0.00000000E+00  0.00000000E+00
  0.00000000E+00  0.00000000E+00  0.00000000E+00
  0.00000000E+00  0.00000000E+00  0.00000000E+00
  0.00000000E+00  0.00000000E+00  0.00000000E+00
  0.00000000E+00  0.00000000E+00  0.00000000E+00
  0.00000000E+00  0.00000000E+00  0.00000000E+00
  0.00000000E+00  0.00000000E+00  0.00000000E+00
  0.00000000E+00  0.00000000E+00  0.00000000E+00
  0.00000000E+00  0.00000000E+00  0.00000000E+00
  0.00000000E+00  0.00000000E+00  0.00000000E+00
  0.00000000E+00  0.00000000E+00  0.00000000E+00
  0.00000000E+00  0.00000000E+00  0.00000000E+00
  0.00000000E+00  0.00000000E+00  0.00000000E+00
  0.00000000E+00  0.00000000E+00  0.00000000E+00
  0.00000000E+00  0.00000000E+00  0.00000000E+00
  0.00000000E+00  0.00000000E+00  0.00000000E+00
  0.00000000E+00  0.00000000E+00  0.00000000E+00
  0.00000000E+00  0.00000000E+00  0.00000000E+00
  0.00000000E+00  0.00000000E+00  0.00000000E+00
  0.00000000E+00  0.00000000E+00  0.00000000E+00
  0.00000000E+00  0.00000000E+00  0.00000000E+00
  0.00000000E+00  0.00000000E+00  0.00000000E+00
  0.00000000E+00  0.00000000E+00  0.00000000E+00
  0.00000000E+00  0.00000000E+00  0.00000000E+00
  0.00000000E+00  0.00000000E+00  0.00000000E+00
  0.00000000E+00  0.00000000E+00  0.00000000E+00
  0.00000000E+00  0.00000000E+00  0.00000000E+00
  0.00000000E+00  0.00000000E+00  0.00000000E+00
  0.00000000E+00  0.00000000E+00  0.00000000E+00
  0.00000000E+00  0.00000000E+00  0.00000000E+00
  0.00000000E+00  0.00000000E+00  0.00000000E+00
  0.00000000E+00  0.00000000E+00  0.00000000E+00
  0.00000000E+00  0.00000000E+00  0.00000000E+00
  0.00000000E+00  0.00000000E+00  0.00000000E+00
  0.00000000E+00  0.00000000E+00  0.00000000E+00
  0.00000000E+00  0.00000000E+00  0.00000000E+00
  0.00000000E+00  0.00000000E+00  0.00000000E+00
  0.00000000E+00  0.00000000E+00  0.00000000E+00
  0.00000000E+00  0.00000000E+00  0.00000000E+00
  0.00000000E+00  0.00000000E+00  0.00000000E+00
  0.00000000E+00  0.00000000E+00  0.00000000E+00
  0.00000000E+00  0.00000000E+00  0.00000000E+00
  0.00000000E+00  0.00000000E+00  0.00000000E+00
  0.00000000E+00  0.00000000E+00  0.00000000E+00
  0.00000000E+00  0.00000000E+00  0.00000000E+00
  0.00000000E+00  0.00000000E+00  0.00000000E+00
  0.00000000E+00  0.00000000E+00  0.00000000E+00
  0.00000000E+00  0.00000000E+00  0.00000000E+00
  0.00000000E+00  0.00000000E+00  0.00000000E+00
  0.00000000E+00  0.00000000E+00  0.00000000E+00
  0.00000000E+00  0.00000000E+00  0.00000000E+00
  0.00000000E+00  0.00000000E+00  0.00000000E+00
  0.00000000E+00  0.00000000E+00  0.00000000E+00
  0.00000000E+00  0.00000000E+00  0.00000000E+00
  0.00000000E+00  0.00000000E+00  0.00000000E+00
  0.00000000E+00  0.00000000E+00  0.00000000E+00
  0.00000000E+00  0.00000000E+00  0.00000000E+00
  0.00000000E+00  0.00000000E+00  0.00000000E+00
  0.00000000E+00  0.00000000E+00  0.00000000E+00
  0.00000000E+00  0.00000000E+00  0.00000000E+00
  0.00000000E+00  0.00000000E+00  0.00000000E+00
  0.00000000E+00  0.00000000E+00  0.00000000E+00
  0.00000000E+00  0.00000000E+00  0.00000000E+00
  0.00000000E+00  0.00000000E+00  0.00000000E+00
  0.00000000E+00  0.00000000E+00  0.00000000E+00
  0.00000000E+00  0.00000000E+00  0.00000000E+00
  0.00000000E+00  0.00000000E+00  0.00000000E+00
  0.00000000E+00  0.00000000E+00  0.00000000E+00
  0.00000000E+00  0.00000000E+00  0.00000000E+00
  0.00000000E+00  0.00000000E+00  0.00000000E+00
  0.00000000E+00  0.00000000E+00  0.00000000E+00
  0.00000000E+00  0.00000000E+00  0.00000000E+00
  0.00000000E+00  0.00000000E+00  0.00000000E+00
  0.00000000E+00  0.00000000E+00  0.00000000E+00
  0.00000000E+00  0.00000000E+00  0.00000000E+00
  0.00000000E+00  0.00000000E+00  0.00000000E+00
  0.00000000E+00  0.00000000E+00  0.00000000E+00
  0.00000000E+00  0.00000000E+00  0.00000000E+00
  0.00000000E+00  0.00000000E+00  0.00000000E+00
  0.00000000E+00  0.00000000E+00  0.00000000E+00
  0.00000000E+00  0.00000000E+00  0.00000000E+00
  0.00000000E+00  0.00000000E+00  0.00000000E+00
  0.00000000E+00  0.00000000E+00  0.00000000E+00
  0.00000000E+00  0.00000000E+00  0.00000000E+00
  0.00000000E+00  0.00000000E+00  0.00000000E+00
  0.00000000E+00  0.00000000E+00  0.00000000E+00
  0.00000000E+00  0.00000000E+00  0.00000000E+00
  0.00000000E+00  0.00000000E+00  0.00000000E+00
  0.00000000E+00  0.00000000E+00  0.00000000E+00
  0.00000000E+00  0.00000000E+00  0.00000000E+00
  0.00000000E+00  0.00000000E+00  0.00000000E+00
  0.00000000E+00  0.00000000E+00  0.00000000E+00
  0.00000000E+00  0.00000000E+00  0.00000000E+00
  0.00000000E+00  0.00000000E+00  0.00000000E+00
  0.00000000E+00  0.00000000E+00  0.00000000E+00
  0.00000000E+00  0.00000000E+00  0.00000000E+00
  0.00000000E+00  0.00000000E+00  0.00000000E+00
  0.00000000E+00  0.00000000E+00  0.00000000E+00
  0.00000000E+00  0.00000000E+00  0.00000000E+00
  0.00000000E+00  0.00000000E+00  0.00000000E+00
  0.00000000E+00  0.00000000E+00  0.00000000E+00
  0.00000000E+00  0.00000000E+00  0.00000000E+00
  0.00000000E+00  0.00000000E+00  0.00000000E+00
  0.00000000E+00  0.00000000E+00  0.00000000E+00
  0.00000000E+00  0.00000000E+00  0.00000000E+00
  0.00000000E+00  0.00000000E+00  0.00000000E+00
  0.00000000E+00  0.00000000E+00  0.00000000E+00
  0.00000000E+00  0.00000000E+00  0.00000000E+00
  0.00000000E+00  0.00000000E+00  0.00000000E+00
  0.00000000E+00  0.00000000E+00  0.00000000E+00
  0.00000000E+00  0.00000000E+00  0.00000000E+00
  0.00000000E+00  0.00000000E+00  0.00000000E+00
  0.00000000E+00  0.00000000E+00  0.00000000E+00
  0.00000000E+00  0.00000000E+00  0.00000000E+00
  0.00000000E+00  0.00000000E+00  0.00000000E+00
  0.00000000E+00  0.00000000E+00  0.00000000E+00
  0.00000000E+00  0.00000000E+00  0.00000000E+00
  0.00000000E+00  0.00000000E+00  0.00000000E+00
  0.00000000E+00  0.00000000E+00  0.00000000E+00
  0.00000000E+00  0.00000000E+00  0.00000000E+00
  0.00000000E+00  0.00000000E+00  0.00000000E+00
  0.00000000E+00  0.00000000E+00  0.00000000E+00
  0.00000000E+00  0.00000000E+00  0.00000000E+00
  0.00000000E+00  0.00000000E+00  0.00000000E+00
  0.00000000E+00  0.00000000E+00  0.00000000E+00
  0.00000000E+00  0.00000000E+00  0.00000000E+00
  0.00000000E+00  0.00000000E+00  0.00000000E+00
  0.00000000E+00  0.00000000E+00  0.00000000E+00
  0.00000000E+00  0.00000000E+00  0.00000000E+00
  0.00000000E+00  0.00000000E+00  0.00000000E+00
  0.00000000E+00  0.00000000E+00  0.00000000E+00
  0.00000000E+00  0.00000000E+00  0.00000000E+00
  0.00000000E+00  0.00000000E+00  0.00000000E+00
  0.00000000E+00  0.00000000E+00  0.00000000E+00
