supercell of 100% icsd_608626.cif, 0% i 
   1.00000000000000     
    -9.6221642676420789   -0.0241401373891545   -0.0012850719306153
    -4.7901760244925704    8.3040272635667467   -0.0013595584060914
    -0.0013875132940736    0.0008792610822856  -10.2200676988619694
   Al   Hf   Sr   N 
    32     2     2    36
Direct
  0.1114550041331128  0.0933280871573601  0.2996141913785664
  0.2102465265351015  0.2110236207827683  0.0490140678648956
  0.7814918270021352  0.0963165197957636  0.7945958354874492
  0.8930281765095245  0.2049564328661688  0.5484021801521450
  0.4376075855904986  0.1042194174805289  0.2796306944709812
  0.5600797897217333  0.2091645493678485  0.0465131455105094
  0.1036152616781791  0.0940524989783640  0.7935552772982604
  0.2162775286776153  0.2110118686943352  0.5470480182175095
  0.7778926291047057  0.1001104783514677  0.2983456700920897
  0.8917032776613567  0.2017531045478123  0.0450551024579866
  0.5473264263754700  0.2126913547650062  0.5478385574181033
  0.1168615729717359  0.4225803208194137  0.2986029144623004
  0.2193649820996271  0.5400540650442665  0.0453449882676651
  0.7848044556865048  0.4229593951986956  0.8022160440618364
  0.9039859136576496  0.5269861088422942  0.5556082089138954
  0.4417164826966626  0.4287882486823733  0.2857068518040933
  0.5568622056037711  0.5348683857448222  0.0499016881699887
  0.1068016693928442  0.4326837238129642  0.7927372438664975
  0.2206802463890440  0.5378610758261573  0.5503190532443298
  0.7816187474670429  0.4204781403886528  0.2840682339797240
  0.8963374454744510  0.5317455477660218  0.0391699682923488
  0.4420966797085484  0.4325597954759601  0.7985526176214393
  0.1175988118424840  0.7614152645862262  0.2988745690221819
  0.2135544513787195  0.8765479628378330  0.0454317262907225
  0.7889549979968891  0.7527306176335173  0.7972922392257900
  0.8948508046288239  0.8719184271829761  0.5536419750299828
  0.4357642279280398  0.7613634588388933  0.2710451827604388
  0.5566683794532423  0.8684417763669572  0.0506159446893761
  0.1120306306754486  0.7618563809626409  0.7945269544294717
  0.2147329165402212  0.8750283363962623  0.5523634509733171
  0.8937914186802303  0.8750743515361350  0.0395000308982318
  0.4364015194224251  0.7585836265607142  0.8121980397550388
  0.4394972987753860  0.0986672360341174  0.8113534900386270
  0.7871140183592757  0.7567560017700856  0.2907471053552371
  0.5590920026438653  0.5402215311447804  0.5411701005340248
  0.5490831147280772  0.8718086964998761  0.5376527372178330
  0.2257404430684744  0.2027248034810825  0.3538456172783100
  0.1090527960854502  0.0945550449970938  0.1110187852047133
  0.8900846171660319  0.2010535507865185  0.8589403763952177
  0.7737690281059102  0.0975183336901964  0.6044211193658029
  0.5535136728767398  0.2063034634395535  0.3516201944729431
  0.4392176853426477  0.1018111018679946  0.0866364007004634
  0.1967507662910180  0.2170789974123863  0.8619578729370190
  0.1094037018483220  0.0948535768878713  0.6026899319613221
  0.8883092946685878  0.2073015671885869  0.3561845800803241
  0.7786206553211770  0.0932815893616166  0.1084866563929694
  0.5680947204259468  0.2128053442917377  0.8615965776612313
  0.4235799776893927  0.1282020313459284  0.6145825961522178
  0.2229712568434152  0.5392313561132553  0.3558657723332459
  0.1103632599615665  0.4290387761160375  0.1095835781646457
  0.8938565220185879  0.5366236729197880  0.8568837811354300
  0.8203254884898428  0.4054778243255299  0.6225007811552885
  0.5566948079468332  0.5399411970006298  0.3053284537239378
  0.4389330989495548  0.4261827366060302  0.0992116462065766
  0.2185701034822500  0.5409671517832066  0.8576195940920144
  0.1164592869407528  0.4253321000079779  0.6051324934575888
  0.8965970329775175  0.5203794670886666  0.3596437630719507
  0.7860057352716936  0.4232312893742645  0.0970045759988025
  0.5599704517767776  0.5334661647772450  0.8584882805517893
  0.4254543579244512  0.4159973300473609  0.6181520993416711
  0.2280809651759625  0.8701529460409603  0.3559983627954395
  0.1092885582061243  0.7611931746293479  0.1090695846749412
  0.8898847616260213  0.8751331158009918  0.8532920693446400
  0.8158116891346978  0.7401990385765771  0.6125412390296177
  0.5435294810215936  0.8791481236278003  0.2995494790965338
  0.4358138162275935  0.7634811676190623  0.0863193060158878
  0.2091443874026382  0.8792757544105783  0.8630070934724969
  0.1101207343590502  0.7612553014390357  0.6054411579297749
  0.8975986718892912  0.8819959794737784  0.3611765043281991
  0.7874532372347645  0.7565666101722783  0.0889333069801523
  0.5689472008645140  0.8543317052356940  0.8598359580792803
  0.4009987081943791  0.7833022033233163  0.6391863111645719
 
  0.00000000E+00  0.00000000E+00  0.00000000E+00
  0.00000000E+00  0.00000000E+00  0.00000000E+00
  0.00000000E+00  0.00000000E+00  0.00000000E+00
  0.00000000E+00  0.00000000E+00  0.00000000E+00
  0.00000000E+00  0.00000000E+00  0.00000000E+00
  0.00000000E+00  0.00000000E+00  0.00000000E+00
  0.00000000E+00  0.00000000E+00  0.00000000E+00
  0.00000000E+00  0.00000000E+00  0.00000000E+00
  0.00000000E+00  0.00000000E+00  0.00000000E+00
  0.00000000E+00  0.00000000E+00  0.00000000E+00
  0.00000000E+00  0.00000000E+00  0.00000000E+00
  0.00000000E+00  0.00000000E+00  0.00000000E+00
  0.00000000E+00  0.00000000E+00  0.00000000E+00
  0.00000000E+00  0.00000000E+00  0.00000000E+00
  0.00000000E+00  0.00000000E+00  0.00000000E+00
  0.00000000E+00  0.00000000E+00  0.00000000E+00
  0.00000000E+00  0.00000000E+00  0.00000000E+00
  0.00000000E+00  0.00000000E+00  0.00000000E+00
  0.00000000E+00  0.00000000E+00  0.00000000E+00
  0.00000000E+00  0.00000000E+00  0.00000000E+00
  0.00000000E+00  0.00000000E+00  0.00000000E+00
  0.00000000E+00  0.00000000E+00  0.00000000E+00
  0.00000000E+00  0.00000000E+00  0.00000000E+00
  0.00000000E+00  0.00000000E+00  0.00000000E+00
  0.00000000E+00  0.00000000E+00  0.00000000E+00
  0.00000000E+00  0.00000000E+00  0.00000000E+00
  0.00000000E+00  0.00000000E+00  0.00000000E+00
  0.00000000E+00  0.00000000E+00  0.00000000E+00
  0.00000000E+00  0.00000000E+00  0.00000000E+00
  0.00000000E+00  0.00000000E+00  0.00000000E+00
  0.00000000E+00  0.00000000E+00  0.00000000E+00
  0.00000000E+00  0.00000000E+00  0.00000000E+00
  0.00000000E+00  0.00000000E+00  0.00000000E+00
  0.00000000E+00  0.00000000E+00  0.00000000E+00
  0.00000000E+00  0.00000000E+00  0.00000000E+00
  0.00000000E+00  0.00000000E+00  0.00000000E+00
  0.00000000E+00  0.00000000E+00  0.00000000E+00
  0.00000000E+00  0.00000000E+00  0.00000000E+00
  0.00000000E+00  0.00000000E+00  0.00000000E+00
  0.00000000E+00  0.00000000E+00  0.00000000E+00
  0.00000000E+00  0.00000000E+00  0.00000000E+00
  0.00000000E+00  0.00000000E+00  0.00000000E+00
  0.00000000E+00  0.00000000E+00  0.00000000E+00
  0.00000000E+00  0.00000000E+00  0.00000000E+00
  0.00000000E+00  0.00000000E+00  0.00000000E+00
  0.00000000E+00  0.00000000E+00  0.00000000E+00
  0.00000000E+00  0.00000000E+00  0.00000000E+00
  0.00000000E+00  0.00000000E+00  0.00000000E+00
  0.00000000E+00  0.00000000E+00  0.00000000E+00
  0.00000000E+00  0.00000000E+00  0.00000000E+00
  0.00000000E+00  0.00000000E+00  0.00000000E+00
  0.00000000E+00  0.00000000E+00  0.00000000E+00
  0.00000000E+00  0.00000000E+00  0.00000000E+00
  0.00000000E+00  0.00000000E+00  0.00000000E+00
  0.00000000E+00  0.00000000E+00  0.00000000E+00
  0.00000000E+00  0.00000000E+00  0.00000000E+00
  0.00000000E+00  0.00000000E+00  0.00000000E+00
  0.00000000E+00  0.00000000E+00  0.00000000E+00
  0.00000000E+00  0.00000000E+00  0.00000000E+00
  0.00000000E+00  0.00000000E+00  0.00000000E+00
  0.00000000E+00  0.00000000E+00  0.00000000E+00
  0.00000000E+00  0.00000000E+00  0.00000000E+00
  0.00000000E+00  0.00000000E+00  0.00000000E+00
  0.00000000E+00  0.00000000E+00  0.00000000E+00
  0.00000000E+00  0.00000000E+00  0.00000000E+00
  0.00000000E+00  0.00000000E+00  0.00000000E+00
  0.00000000E+00  0.00000000E+00  0.00000000E+00
  0.00000000E+00  0.00000000E+00  0.00000000E+00
  0.00000000E+00  0.00000000E+00  0.00000000E+00
  0.00000000E+00  0.00000000E+00  0.00000000E+00
  0.00000000E+00  0.00000000E+00  0.00000000E+00
  0.00000000E+00  0.00000000E+00  0.00000000E+00
