supercell of 100% icsd_608626.cif, 0% i 
   1.00000000000000     
    -9.5876549512915030   -0.0000015976328406    0.0000008725512560
    -4.7938260861600179    8.3539785639245192   -0.0025280753027910
     0.0000009284479549    0.0029695812677480  -10.1875158691691716
   Sr   Al   Hf   N 
     2    32     2    36
Direct
  0.1087624625593193  0.0927365400440650  0.2837990815063662
  0.7818331249941224  0.0927369633094628  0.2837993637068053
  0.2226214020645685  0.2114962847007575  0.0348819749628078
  0.7714362195278923  0.0883879600278377  0.8129883793427481
  0.4374120955789351  0.1085087487959413  0.2953563103731867
  0.5492161906189210  0.2114961122057579  0.0348819571267072
  0.1235092930682171  0.0883876371223167  0.8129885607360876
  0.2223036658495801  0.2126165240010778  0.5480562300168046
  0.8856108828495337  0.2121119326000951  0.0161404185441469
  0.4411120556476931  0.1011088843065764  0.7968382466196928
  0.5484124651244926  0.2126166998312371  0.5480563797283224
  0.1138298386107408  0.4292355848890637  0.2989517290691168
  0.2220978119791823  0.5391376995443196  0.0479635249247679
  0.7688885112301733  0.4455561400512380  0.7994625030364091
  0.8921487538569650  0.5391641768967617  0.5422785593631474
  0.4402673750976973  0.4292359107173596  0.2989517254039669
  0.5545968666463708  0.5380466116035123  0.0494944039536378
  0.1102453678986492  0.4315912958563644  0.7953495173281340
  0.2229214365864465  0.5374901606040510  0.5435914874551031
  0.7734902701116226  0.4363527530533986  0.2987852742695125
  0.8906898241131174  0.5380468719260278  0.0494943656072522
  0.4414961558818931  0.4315913010100800  0.7953496225884820
  0.5520201622980707  0.5391640646262701  0.5422785221354331
  0.1183116799965021  0.7467099763097380  0.3018156805174499
  0.2225967013874666  0.8671573346599715  0.0348255621096385
  0.7828180444062269  0.7555540287973486  0.8002984891922011
  0.8976400132077487  0.8595749802097004  0.5506210339669551
  0.4434288350629529  0.7548088412553682  0.2929943704338740
  0.5542705639874725  0.8747927603858372  0.0466247897194521
  0.1146558850321142  0.7540221664566999  0.7941049362131380
  0.2261186593512932  0.8595748761915729  0.5506209178314094
  0.7850960020258952  0.7548088405383950  0.2929943969517765
  0.8935800286111828  0.8671574216956657  0.0348255075635535
  0.4449619522052970  0.7555537079439105  0.8002985108915013
  0.8872375323863366  0.2088580254011774  0.5825352035936362
  0.5547796415625683  0.8737742053791280  0.5504732588337191
  0.2331919894045882  0.2233246458404778  0.3663120304320344
  0.1092847006104449  0.0958166237966509  0.0447343446102906
  0.8842134946345297  0.2149063460861242  0.8244870118087135
  0.7663508919308697  0.0778798639199323  0.6132005534642886
  0.5268156413527478  0.2233251794146440  0.3663122942603323
  0.4428100007497235  0.0977137087282287  0.1021616606706814
  0.2247650104663350  0.2136714007378586  0.8490675164228847
  0.1391022467407197  0.0778797030009741  0.6132006180190928
  0.8668267965907077  0.2496793491799849  0.3910376616880171
  0.7782324347569087  0.0958166291194615  0.0447345712723504
  0.5448967577416610  0.2136713472094840  0.8490675630396254
  0.4370320904110159  0.1092685670226103  0.6116833946292246
  0.2245117025256604  0.5343094394301175  0.3552277300766349
  0.1117458030972571  0.4269799943097254  0.1063158774164847
  0.8906648906900330  0.5390314900046747  0.8612523442892908
  0.7613043673692061  0.4607243115686259  0.6154573832229531
  0.5552082510545304  0.5402233912153420  0.3519380284480604
  0.4446075944116643  0.4269798530054274  0.1063158743071781
  0.2225901166541320  0.5381527029949780  0.8577846394170123
  0.1078698665803302  0.4312691773997628  0.6067626712733443
  0.8879016243749405  0.5402234457218995  0.3519380634438320
  0.7800577174832881  0.4232181223516491  0.1029862155390049
  0.5536369344354739  0.5390312194616484  0.8612523751792622
  0.4441938067206195  0.4312692754927312  0.6067627980788188
  0.2420714322100395  0.8316444805905476  0.3688088803382925
  0.1102600663123070  0.7628137432565083  0.1063061428991219
  0.8957785679885006  0.8609322819750034  0.8494568777724396
  0.7915899068825851  0.7500598025401928  0.6126464347197853
  0.5544811617421317  0.8743714155988513  0.3438199483763569
  0.4421152155492081  0.7631123796776507  0.1024866887430136
  0.2266233739862713  0.8609319660689607  0.8494569686086990
  0.1146297210007532  0.7540741568012592  0.6094009467567929
  0.9096175437525744  0.8316447862939356  0.3688089604792850
  0.7781062199247941  0.7631125519109574  0.1024866908439819
  0.5548104035467532  0.8737129270121997  0.8509110040070809
  0.4416838848994473  0.7500596983129100  0.6126464398287794
 
  0.00000000E+00  0.00000000E+00  0.00000000E+00
  0.00000000E+00  0.00000000E+00  0.00000000E+00
  0.00000000E+00  0.00000000E+00  0.00000000E+00
  0.00000000E+00  0.00000000E+00  0.00000000E+00
  0.00000000E+00  0.00000000E+00  0.00000000E+00
  0.00000000E+00  0.00000000E+00  0.00000000E+00
  0.00000000E+00  0.00000000E+00  0.00000000E+00
  0.00000000E+00  0.00000000E+00  0.00000000E+00
  0.00000000E+00  0.00000000E+00  0.00000000E+00
  0.00000000E+00  0.00000000E+00  0.00000000E+00
  0.00000000E+00  0.00000000E+00  0.00000000E+00
  0.00000000E+00  0.00000000E+00  0.00000000E+00
  0.00000000E+00  0.00000000E+00  0.00000000E+00
  0.00000000E+00  0.00000000E+00  0.00000000E+00
  0.00000000E+00  0.00000000E+00  0.00000000E+00
  0.00000000E+00  0.00000000E+00  0.00000000E+00
  0.00000000E+00  0.00000000E+00  0.00000000E+00
  0.00000000E+00  0.00000000E+00  0.00000000E+00
  0.00000000E+00  0.00000000E+00  0.00000000E+00
  0.00000000E+00  0.00000000E+00  0.00000000E+00
  0.00000000E+00  0.00000000E+00  0.00000000E+00
  0.00000000E+00  0.00000000E+00  0.00000000E+00
  0.00000000E+00  0.00000000E+00  0.00000000E+00
  0.00000000E+00  0.00000000E+00  0.00000000E+00
  0.00000000E+00  0.00000000E+00  0.00000000E+00
  0.00000000E+00  0.00000000E+00  0.00000000E+00
  0.00000000E+00  0.00000000E+00  0.00000000E+00
  0.00000000E+00  0.00000000E+00  0.00000000E+00
  0.00000000E+00  0.00000000E+00  0.00000000E+00
  0.00000000E+00  0.00000000E+00  0.00000000E+00
  0.00000000E+00  0.00000000E+00  0.00000000E+00
  0.00000000E+00  0.00000000E+00  0.00000000E+00
  0.00000000E+00  0.00000000E+00  0.00000000E+00
  0.00000000E+00  0.00000000E+00  0.00000000E+00
  0.00000000E+00  0.00000000E+00  0.00000000E+00
  0.00000000E+00  0.00000000E+00  0.00000000E+00
  0.00000000E+00  0.00000000E+00  0.00000000E+00
  0.00000000E+00  0.00000000E+00  0.00000000E+00
  0.00000000E+00  0.00000000E+00  0.00000000E+00
  0.00000000E+00  0.00000000E+00  0.00000000E+00
  0.00000000E+00  0.00000000E+00  0.00000000E+00
  0.00000000E+00  0.00000000E+00  0.00000000E+00
  0.00000000E+00  0.00000000E+00  0.00000000E+00
  0.00000000E+00  0.00000000E+00  0.00000000E+00
  0.00000000E+00  0.00000000E+00  0.00000000E+00
  0.00000000E+00  0.00000000E+00  0.00000000E+00
  0.00000000E+00  0.00000000E+00  0.00000000E+00
  0.00000000E+00  0.00000000E+00  0.00000000E+00
  0.00000000E+00  0.00000000E+00  0.00000000E+00
  0.00000000E+00  0.00000000E+00  0.00000000E+00
  0.00000000E+00  0.00000000E+00  0.00000000E+00
  0.00000000E+00  0.00000000E+00  0.00000000E+00
  0.00000000E+00  0.00000000E+00  0.00000000E+00
  0.00000000E+00  0.00000000E+00  0.00000000E+00
  0.00000000E+00  0.00000000E+00  0.00000000E+00
  0.00000000E+00  0.00000000E+00  0.00000000E+00
  0.00000000E+00  0.00000000E+00  0.00000000E+00
  0.00000000E+00  0.00000000E+00  0.00000000E+00
  0.00000000E+00  0.00000000E+00  0.00000000E+00
  0.00000000E+00  0.00000000E+00  0.00000000E+00
  0.00000000E+00  0.00000000E+00  0.00000000E+00
  0.00000000E+00  0.00000000E+00  0.00000000E+00
  0.00000000E+00  0.00000000E+00  0.00000000E+00
  0.00000000E+00  0.00000000E+00  0.00000000E+00
  0.00000000E+00  0.00000000E+00  0.00000000E+00
  0.00000000E+00  0.00000000E+00  0.00000000E+00
  0.00000000E+00  0.00000000E+00  0.00000000E+00
  0.00000000E+00  0.00000000E+00  0.00000000E+00
  0.00000000E+00  0.00000000E+00  0.00000000E+00
  0.00000000E+00  0.00000000E+00  0.00000000E+00
  0.00000000E+00  0.00000000E+00  0.00000000E+00
  0.00000000E+00  0.00000000E+00  0.00000000E+00
