Zn   Mo   N                             
   1.00000000000000     
     5.4270078625082716    0.0000026189160291    0.0000003980566762
    -0.0814571642019021   -5.7402807387539934   -0.0000000333498550
     0.0000035384181948   -0.0000005955161635   -6.6652062572141633
   Zn   Mo   N 
     6     2     8
Direct
  0.0700493166300559  0.8258131217812349  0.2345947604591524
  0.0700485008116844  0.8258128142473155  0.7554051860674557
  0.5456152669782202  0.6522302605550002  0.9950009569394682
  0.5511102261791084  0.1568159849012211  0.7469179734931424
  0.5511098523015879  0.1568162876730870  0.2430824318350526
  0.1446509180854425  0.3247072601434096  0.4950001975303230
  0.0413191021539086  0.3191204284268227  0.9949996668632966
  0.6971303763208515  0.6593873363401461  0.4949999297011363
  0.1566131408509096  0.1639045760861080  0.7628122306584605
  0.1566130018668741  0.1639050591970978  0.2271872798385234
  0.1574895597139201  0.6307723656486575  0.9949997378787748
  0.6327974220882067  0.8181911310289106  0.2540461270017342
  0.6327975633557757  0.8181905230644583  0.7359540535389015
  0.6943479865823066  0.3195953554230445  0.9949998724892443
  0.0587671306372846  0.6555229887601902  0.4949997076730974
  0.5913964277439969  0.3492144518382858  0.4949999557956822
 
             NaN             NaN             NaN
             NaN             NaN             NaN
             NaN             NaN             NaN
             NaN             NaN             NaN
             NaN             NaN             NaN
             NaN             NaN             NaN
             NaN             NaN             NaN
             NaN             NaN             NaN
             NaN             NaN             NaN
             NaN             NaN             NaN
             NaN             NaN             NaN
             NaN             NaN             NaN
             NaN             NaN             NaN
             NaN             NaN             NaN
             NaN             NaN             NaN
             NaN             NaN             NaN
