Zn   Mo   N                             
   1.00000000000000     
     5.3836505243796973   -0.0000015087032914    0.0000005657043049
     0.0075438065634979   -5.6820766713688204   -0.0000000120462274
    -0.0000022483216606    0.0000004923142605   -6.5633251594540427
   Zn   Mo   N 
     6     2     8
Direct
  0.1821328410171436  0.8218792635981749  0.2437966950637994
  0.1821322541220014  0.8218788812557025  0.7462035255440052
  0.6813255969877546  0.6557796711994806  0.9950011629488701
  0.6824874372541991  0.1579778250564757  0.7437489505444524
  0.6824870524251955  0.1579778548294446  0.2462502200788242
  0.1810122542251786  0.3240409597605174  0.4950010527193600
  0.1804091721480238  0.3196364322377686  0.9949999645582788
  0.6800448654284322  0.6603244436021520  0.4949999824050146
  0.0637323840902408  0.1631584401282877  0.7579549936787652
  0.0637326392884064  0.1631589506253598  0.2320449255880488
  0.0631756591910890  0.6328875150045097  0.9949998767677196
  0.5635882300517789  0.8170088234679620  0.2578580026320652
  0.5635884199535776  0.8170082691798444  0.7321419840403032
  0.5289261136402349  0.3186782475556046  0.9949994720554186
  0.0286560210841139  0.6613894181550061  0.4949997046774016
  0.5631385241414987  0.3472149689411902  0.4949995431398415
 
             NaN             NaN             NaN
             NaN             NaN             NaN
             NaN             NaN             NaN
             NaN             NaN             NaN
             NaN             NaN             NaN
             NaN             NaN             NaN
             NaN             NaN             NaN
             NaN             NaN             NaN
             NaN             NaN             NaN
             NaN             NaN             NaN
             NaN             NaN             NaN
             NaN             NaN             NaN
             NaN             NaN             NaN
             NaN             NaN             NaN
             NaN             NaN             NaN
             NaN             NaN             NaN
