Zn   Mo   N                             
   1.00000000000000     
     5.3672780927043551   -0.0000019673276604    0.0000005843318192
    -0.0001584515671558   -5.6896224681353971   -0.0000000096791577
    -0.0000034038132862   -0.0000123929232169   -6.5753386410303643
   Zn   Mo   N 
     6     2     8
Direct
  0.2041009269619479  0.8220816195006981  0.2435673314814830
  0.2041001511451795  0.8220816313527152  0.7464316805382124
  0.7028944874916387  0.6560859508400548  0.9950014487599198
  0.7040989798365068  0.1579163410483636  0.7435683511807524
  0.7040985567898862  0.1579163568198001  0.2464313389502684
  0.2028915977978333  0.3239221797693194  0.4950009520722465
  0.2026745411004410  0.3197332480830292  0.9950000582445011
  0.7026750181088195  0.6602681777395522  0.4950000996588131
  0.0867001080594663  0.1632427651104651  0.7580322696688887
  0.0867004342783492  0.1632430259263664  0.2319682095331019
  0.0861927610353144  0.6328604725307339  0.9949997986482078
  0.5867009809202343  0.8167548468346117  0.2580323901968409
  0.5867011028703865  0.8167541773131055  0.7319674567694391
  0.5522379477444317  0.3185885689216126  0.9949995370334058
  0.0522381319706602  0.6614132233551202  0.4949995934253892
  0.5861911312101473  0.3471374021629579  0.4949995129222589
 
             NaN             NaN             NaN
             NaN             NaN             NaN
             NaN             NaN             NaN
             NaN             NaN             NaN
             NaN             NaN             NaN
             NaN             NaN             NaN
             NaN             NaN             NaN
             NaN             NaN             NaN
             NaN             NaN             NaN
             NaN             NaN             NaN
             NaN             NaN             NaN
             NaN             NaN             NaN
             NaN             NaN             NaN
             NaN             NaN             NaN
             NaN             NaN             NaN
             NaN             NaN             NaN
