Zn   Mo   N                             
   1.00000000000000     
     5.3675768545050362    0.0000049120378738    0.0000003049191047
    -0.0000508153175836   -5.6894805625823164   -0.0000000451852036
     0.0000056972458924    0.0000016643501445   -6.5751163884811756
   Zn   Mo   N 
     6     2     8
Direct
  0.0151559716980749  0.8220771805183282  0.2435710551136241
  0.0151548314108135  0.8220768850612532  0.7464293504229643
  0.5163498210916887  0.6560794242646384  0.9950013859709075
  0.5151543987805716  0.1579161807375725  0.7435707840503619
  0.5151543668401759  0.1579166270196174  0.2464281529477025
  0.0163484239261813  0.3239223852289279  0.4950012598354706
  0.0166058798374958  0.3197310556230922  0.9949998243343858
  0.5166075013284215  0.6602697502268134  0.4949999868937650
  0.1325894200766123  0.1632417362145536  0.7580285061258765
  0.1325888472123262  0.1632425048814637  0.2319712571263965
  0.1330974021769071  0.6328647070261986  0.9949997597756437
  0.6325919648461947  0.8167602726127109  0.2580285207153553
  0.6325919534638236  0.8167593825026925  0.7319716724084820
  0.6670629084905819  0.3185910934509443  0.9949993360228062
  0.1670649774871313  0.6614128082434207  0.4949998464551563
  0.6330949690858564  0.3471379275099555  0.4949994074156230
 
             NaN             NaN             NaN
             NaN             NaN             NaN
             NaN             NaN             NaN
             NaN             NaN             NaN
             NaN             NaN             NaN
             NaN             NaN             NaN
             NaN             NaN             NaN
             NaN             NaN             NaN
             NaN             NaN             NaN
             NaN             NaN             NaN
             NaN             NaN             NaN
             NaN             NaN             NaN
             NaN             NaN             NaN
             NaN             NaN             NaN
             NaN             NaN             NaN
             NaN             NaN             NaN
