Zn   Mo   N                             
   1.00000000000000     
     5.2038237421465512    0.0000039947891359    0.0000003421741333
    -0.0320098573378974   -5.7689797145226134   -0.0000000404510641
     0.0000021659645322   -0.0000030874035836   -6.6938262766813539
   Zn   Mo   N 
     6     2     8
Direct
  0.0638357213958407  0.8228470135870134  0.2427524216049252
  0.0638354399015424  0.8228468588364514  0.7472473882873305
  0.5508075572179577  0.6546156960323382  0.9949998774221976
  0.5506868508851689  0.1574446016427811  0.7432710092932577
  0.5506866286795682  0.1574443580822328  0.2467298763433896
  0.0683571810665318  0.3234436084789250  0.4950003926171568
  0.0453176832824516  0.3204509824011505  0.9950000038361265
  0.5641912093742824  0.6595989309883566  0.4949997642935612
  0.1559745957592625  0.1651219869343368  0.7601571334175581
  0.1559744744715862  0.1651222134803878  0.2298430388282510
  0.1555244776571925  0.6329336503603806  0.9949998283603989
  0.6524630770072617  0.8168031870820287  0.2563858655269637
  0.6524630200474906  0.8168033168687163  0.7336134447532199
  0.6859559787219064  0.3184661847721642  0.9950001614079966
  0.1816657298841025  0.6621270563839541  0.4949998078652755
  0.6541160749152881  0.3439302991837380  0.4950000539058473
 
             NaN             NaN             NaN
             NaN             NaN             NaN
             NaN             NaN             NaN
             NaN             NaN             NaN
             NaN             NaN             NaN
             NaN             NaN             NaN
             NaN             NaN             NaN
             NaN             NaN             NaN
             NaN             NaN             NaN
             NaN             NaN             NaN
             NaN             NaN             NaN
             NaN             NaN             NaN
             NaN             NaN             NaN
             NaN             NaN             NaN
             NaN             NaN             NaN
             NaN             NaN             NaN
