Zn   Mo   N                             
   1.00000000000000     
     5.1938865167167005    0.0000035361647669    0.0000003608016476
    -0.0363294338643501   -5.7861096998560289   -0.0000000380839944
     0.0000021311575353   -0.0000035031800947   -6.7188308862858994
   Zn   Mo   N 
     6     2     8
Direct
  0.0748590611938310  0.8233528888432886  0.2421417583154465
  0.0748583232048100  0.8233528545782564  0.7478577812101440
  0.5496772021238961  0.6528981151348463  0.9949997859800019
  0.5497095175606171  0.1580847017796666  0.7443358200544166
  0.5497091965110595  0.1580843316036968  0.2456650271661375
  0.0804006059231823  0.3235731583166647  0.4950001639509609
  0.0442444899071753  0.3207181787405333  0.9950000614507454
  0.6355179158287417  0.6595779933507856  0.4949998457515452
  0.1535683230273472  0.1653102316883139  0.7608537879668924
  0.1535682448087774  0.1653103685998236  0.2291464819386625
  0.1527150523150638  0.6330969983891408  0.9949998476722620
  0.6388182015355459  0.8184046243308557  0.2533392021951972
  0.6388181845215734  0.8184048420130837  0.7366602824122842
  0.6843499229210973  0.3187390543800881  0.9950002526101839
  0.1295770300696164  0.6623508172807503  0.4949998419479265
  0.6414644288151079  0.3387407860851537  0.4950001271406628
 
             NaN             NaN             NaN
             NaN             NaN             NaN
             NaN             NaN             NaN
             NaN             NaN             NaN
             NaN             NaN             NaN
             NaN             NaN             NaN
             NaN             NaN             NaN
             NaN             NaN             NaN
             NaN             NaN             NaN
             NaN             NaN             NaN
             NaN             NaN             NaN
             NaN             NaN             NaN
             NaN             NaN             NaN
             NaN             NaN             NaN
             NaN             NaN             NaN
             NaN             NaN             NaN
