Zn   Mo   N                             
   1.00000000000000     
     5.4279401275726755    0.0000003257941843    0.0000004911942477
    -0.0818200322934052   -5.7400275670614764   -0.0000000215145063
     0.0000031010738438   -0.0000005817229308   -6.6648857192937001
   Zn   Mo   N 
     6     2     8
Direct
  0.1679229818444241  0.8231724509141314  0.2469498928543889
  0.1679220969726685  0.8231726866097895  0.7430497843330586
  0.5741542957055891  0.6552117060960356  0.9950001332485148
  0.6488851490744164  0.1541983579552548  0.7346216010570403
  0.6488871884427014  0.1541984627728761  0.2553804610579951
  0.1733434435675786  0.3278263031685538  0.4949999794134919
  0.0219226690158525  0.3206068164575070  0.9949996909405322
  0.6776663306999768  0.6608860727791643  0.4949997589955194
  0.0862497451392688  0.1618068084694579  0.7540490458228931
  0.0862499057202707  0.1618067597824028  0.2359503186316199
  0.1277267303731082  0.6307804836775099  0.9949996309439468
  0.5623613258518353  0.8160967569584270  0.2628174198365878
  0.5623610715849907  0.8160964818022839  0.7271820890978444
  0.6603234211853525  0.3244875854855536  0.9950003888736954
  0.0245938951760616  0.6604191741785965  0.4949996169869550
  0.5614629569825628  0.3492330380136062  0.4950002556549317
 
             NaN             NaN             NaN
             NaN             NaN             NaN
             NaN             NaN             NaN
             NaN             NaN             NaN
             NaN             NaN             NaN
             NaN             NaN             NaN
             NaN             NaN             NaN
             NaN             NaN             NaN
             NaN             NaN             NaN
             NaN             NaN             NaN
             NaN             NaN             NaN
             NaN             NaN             NaN
             NaN             NaN             NaN
             NaN             NaN             NaN
             NaN             NaN             NaN
             NaN             NaN             NaN
