supercell of 100% icsd_608626.cif, 0% i 
   1.00000000000000     
    -9.8773912518223259    0.0171913621001576   -0.0275030165286333
    -4.9536676777406674    8.4668639247496706    0.0064344432216521
    -0.0292282100593537   -0.0248772000163446  -10.4441421339481728
   Al   Hf   Sr   N 
    28     4     4    36
Direct
  0.1158666697607416  0.0892456791851544  0.3045079701649769
  0.7632491917000337  0.0913871709308438  0.7964552634219757
  0.4574092726077481  0.0866732547213189  0.2938995730487406
  0.2327658262414403  0.2085939180528342  0.5281742814307648
  0.7730564996294547  0.0893391935133181  0.2991521096861334
  0.8897347349129276  0.1944244766236665  0.0590867784808751
  0.4408026283597408  0.1011977745234276  0.7909465499309292
  0.5451801126828784  0.2100492791208026  0.5494660277337005
  0.1165844214473140  0.4325478023787852  0.2914302260579049
  0.2269748225668522  0.5417616775838212  0.0473086465315049
  0.4464460119077245  0.4271448902307498  0.2983954372109281
  0.5450602227082939  0.5466478009449318  0.0485368948289633
  0.1287784180792713  0.4291216846390711  0.8062067506174841
  0.2297639232522286  0.5390525446276015  0.5357357389844992
  0.7710658865215336  0.4361000330938296  0.2848659101866033
  0.8968777111910242  0.5468615369909742  0.0485731763116988
  0.4378639165071192  0.4323039896966137  0.7917771075535924
  0.5361147295893360  0.5445663611187470  0.5413017985399406
  0.1120027153346825  0.7575354794656235  0.2995997574632128
  0.2252196239697142  0.8663613931306600  0.0589471602763254
  0.7795742353028530  0.7677197970442080  0.8116166564038778
  0.8935332096868507  0.8683098922736079  0.5349349203336047
  0.4492451841858127  0.7604057491213041  0.2865165722607088
  0.5633401672275937  0.8595983027662584  0.0415726795168254
  0.2262275490061540  0.8592945153161153  0.5236604509201044
  0.7728636964853024  0.7652887447907517  0.2845361540683342
  0.8876041500613709  0.8709598662408808  0.0550460312172234
  0.4303162522619104  0.7570722460609716  0.8078420959711607
  0.2265908903605975  0.2019112897601332  0.0602319177782817
  0.8813195317317977  0.2063261925227877  0.5308515276854138
  0.5750086048839407  0.2022202650432163  0.0320116387465887
  0.9017986425737092  0.5402998964178423  0.5445855046626633
  0.1050545707338202  0.1000851707835437  0.7854139012019132
  0.7729714856611238  0.4370912021729509  0.8157072869562469
  0.0966400345523795  0.7687256315298683  0.7951883540492162
  0.5561522003577579  0.8602433669591676  0.5609424430043859
  0.2303556448516986  0.2077369691569402  0.3369822637112563
  0.1039926037871766  0.0884549550558233  0.1183715375246308
  0.8570804618017505  0.1814084950150843  0.8864658900060149
  0.7714825009809161  0.0848219223262561  0.6036166218932877
  0.5560183558059322  0.2044986897520644  0.3581547564924534
  0.4669089838519795  0.0794338353804420  0.1056020409243033
  0.2398250866544345  0.2198517628310057  0.8675643879328945
  0.1234304570598752  0.0919339456358585  0.5447201249936597
  0.8802107836357607  0.2103669410984352  0.3349273671099198
  0.7906879889906193  0.0829049527551859  0.1242286147454550
  0.5474942410585086  0.2107390803538181  0.8318204457675336
  0.4234937317061025  0.1277698730074306  0.6099599811071386
  0.2277462507270940  0.5323793046666623  0.3508097297244319
  0.1099739560356312  0.4421150705937151  0.1120292480152898
  0.9221142378979934  0.5593325661342590  0.8689995331759093
  0.7594469434590536  0.4435080102308646  0.5793245511506839
  0.5529076066712548  0.5415754684195804  0.3518076512516117
  0.4447471448711440  0.4325074244380787  0.1151840889432734
  0.2463901725631317  0.5080830901507198  0.8704996403394105
  0.1318633798469904  0.4195101835441335  0.6057254655839870
  0.8921367051799152  0.5408141090169991  0.3413163656409779
  0.7785155570730424  0.4320267571167946  0.0986717462078701
  0.5144515083253367  0.5508631646719735  0.8718831307784001
  0.4433445407932979  0.4275723304924099  0.5997299590715741
  0.2308106952490334  0.8643663119005893  0.3394230307347215
  0.1097610073524606  0.7581128550029774  0.1091668832196149
  0.8293531787202326  0.9063175960366578  0.8842178351110803
  0.8230218422939259  0.7533782215499016  0.6288694619978230
  0.5576682574413070  0.8693534654885227  0.3297497577261836
  0.4500164131181137  0.7594528678321240  0.1069716159960947
  0.2436836760278922  0.8723147661158421  0.8881882541338015
  0.1092307696956567  0.7625249998307808  0.5562585660241268
  0.8822961655433801  0.8707839754429685  0.3503724738199665
  0.7784981081623599  0.7595384870091451  0.1045240981218285
  0.5540132507781763  0.8652400320844862  0.8467321137273345
  0.4079700479458026  0.7419394504851553  0.6221054740581167
 
  0.00000000E+00  0.00000000E+00  0.00000000E+00
  0.00000000E+00  0.00000000E+00  0.00000000E+00
  0.00000000E+00  0.00000000E+00  0.00000000E+00
  0.00000000E+00  0.00000000E+00  0.00000000E+00
  0.00000000E+00  0.00000000E+00  0.00000000E+00
  0.00000000E+00  0.00000000E+00  0.00000000E+00
  0.00000000E+00  0.00000000E+00  0.00000000E+00
  0.00000000E+00  0.00000000E+00  0.00000000E+00
  0.00000000E+00  0.00000000E+00  0.00000000E+00
  0.00000000E+00  0.00000000E+00  0.00000000E+00
  0.00000000E+00  0.00000000E+00  0.00000000E+00
  0.00000000E+00  0.00000000E+00  0.00000000E+00
  0.00000000E+00  0.00000000E+00  0.00000000E+00
  0.00000000E+00  0.00000000E+00  0.00000000E+00
  0.00000000E+00  0.00000000E+00  0.00000000E+00
  0.00000000E+00  0.00000000E+00  0.00000000E+00
  0.00000000E+00  0.00000000E+00  0.00000000E+00
  0.00000000E+00  0.00000000E+00  0.00000000E+00
  0.00000000E+00  0.00000000E+00  0.00000000E+00
  0.00000000E+00  0.00000000E+00  0.00000000E+00
  0.00000000E+00  0.00000000E+00  0.00000000E+00
  0.00000000E+00  0.00000000E+00  0.00000000E+00
  0.00000000E+00  0.00000000E+00  0.00000000E+00
  0.00000000E+00  0.00000000E+00  0.00000000E+00
  0.00000000E+00  0.00000000E+00  0.00000000E+00
  0.00000000E+00  0.00000000E+00  0.00000000E+00
  0.00000000E+00  0.00000000E+00  0.00000000E+00
  0.00000000E+00  0.00000000E+00  0.00000000E+00
  0.00000000E+00  0.00000000E+00  0.00000000E+00
  0.00000000E+00  0.00000000E+00  0.00000000E+00
  0.00000000E+00  0.00000000E+00  0.00000000E+00
  0.00000000E+00  0.00000000E+00  0.00000000E+00
  0.00000000E+00  0.00000000E+00  0.00000000E+00
  0.00000000E+00  0.00000000E+00  0.00000000E+00
  0.00000000E+00  0.00000000E+00  0.00000000E+00
  0.00000000E+00  0.00000000E+00  0.00000000E+00
  0.00000000E+00  0.00000000E+00  0.00000000E+00
  0.00000000E+00  0.00000000E+00  0.00000000E+00
  0.00000000E+00  0.00000000E+00  0.00000000E+00
  0.00000000E+00  0.00000000E+00  0.00000000E+00
  0.00000000E+00  0.00000000E+00  0.00000000E+00
  0.00000000E+00  0.00000000E+00  0.00000000E+00
  0.00000000E+00  0.00000000E+00  0.00000000E+00
  0.00000000E+00  0.00000000E+00  0.00000000E+00
  0.00000000E+00  0.00000000E+00  0.00000000E+00
  0.00000000E+00  0.00000000E+00  0.00000000E+00
  0.00000000E+00  0.00000000E+00  0.00000000E+00
  0.00000000E+00  0.00000000E+00  0.00000000E+00
  0.00000000E+00  0.00000000E+00  0.00000000E+00
  0.00000000E+00  0.00000000E+00  0.00000000E+00
  0.00000000E+00  0.00000000E+00  0.00000000E+00
  0.00000000E+00  0.00000000E+00  0.00000000E+00
  0.00000000E+00  0.00000000E+00  0.00000000E+00
  0.00000000E+00  0.00000000E+00  0.00000000E+00
  0.00000000E+00  0.00000000E+00  0.00000000E+00
  0.00000000E+00  0.00000000E+00  0.00000000E+00
  0.00000000E+00  0.00000000E+00  0.00000000E+00
  0.00000000E+00  0.00000000E+00  0.00000000E+00
  0.00000000E+00  0.00000000E+00  0.00000000E+00
  0.00000000E+00  0.00000000E+00  0.00000000E+00
  0.00000000E+00  0.00000000E+00  0.00000000E+00
  0.00000000E+00  0.00000000E+00  0.00000000E+00
  0.00000000E+00  0.00000000E+00  0.00000000E+00
  0.00000000E+00  0.00000000E+00  0.00000000E+00
  0.00000000E+00  0.00000000E+00  0.00000000E+00
  0.00000000E+00  0.00000000E+00  0.00000000E+00
  0.00000000E+00  0.00000000E+00  0.00000000E+00
  0.00000000E+00  0.00000000E+00  0.00000000E+00
  0.00000000E+00  0.00000000E+00  0.00000000E+00
  0.00000000E+00  0.00000000E+00  0.00000000E+00
  0.00000000E+00  0.00000000E+00  0.00000000E+00
  0.00000000E+00  0.00000000E+00  0.00000000E+00
