supercell of POSCAR                     
   1.00398800000000     
    -6.2729611433599999    0.0082005604289200   10.0015927484000002
     3.1280384584799998    5.4363994576400003   10.0007801159999996
    -7.8567367181199996   13.6110857897000006  -10.0002683574999995
   Al   Sc   N 
    91     4    96
Direct
  0.4782968073188485  0.3144815242517822  0.5418069726720418
  0.0624469917079438  0.3958743994431728  0.7073910838205890
  0.1440909803378148  0.4781320102489559  0.8733465466268768
  0.4346962465089987  0.2690661039785596  0.9568242365012836
  0.0165809609602690  0.3479008030987742  0.1194522191195304
  0.1898305098940654  0.0225762407320360  0.4598856949607750
  0.2715017927012227  0.1051363571460655  0.6248356942921163
  0.3532535205283338  0.1867978154999861  0.7906753985895705
  0.2258688907429516  0.0599388535997960  0.0406724916474133
  0.3205355531882859  0.1332522098358098  0.2078787205899175
  0.3957382311976687  0.2330458889198113  0.3765546748822644
  0.0005142242984775  0.1668042922214283  0.6662824829800513
  0.0818476101321366  0.2486147808206454  0.8308293527052442
  0.1621597908702412  0.3310647362993251  0.9953364325837271
  0.4544964461840877  0.1197388884899411  0.0802949979683376
  0.0531084308388898  0.2181612695923789  0.2514382796540389
  0.1304556821217417  0.2964017758166264  0.4171159963217477
  0.2092732983646357  0.3763984931630162  0.5827584102960941
  0.2912190486904720  0.4576624054067366  0.7490195249887748
  0.3722790762804493  0.0397512946075196  0.9151502514575043
  0.3361728561108777  0.0050295687155355  0.3390437516078606
  0.4190304774561326  0.0861336050637007  0.5010733984889555
  0.9804382923855854  0.3140352717227373  0.5418982333544875
  0.5618986321679884  0.3960638965402481  0.7077340388769642
  0.6436907055242571  0.4784115202096757  0.8733656402658383
  0.9346441714746945  0.2685144680130094  0.9550797538468956
  0.5131307906223128  0.3510650324263551  0.1225777731603515
  0.6080502229621629  0.4405162176670601  0.2970198834609903
  0.6904437169626192  0.0221763210833217  0.4608886589385932
  0.7712895808257016  0.1047121902987129  0.6250829399098308
  0.8529434499606907  0.1868098301931695  0.7902394342045298
  0.7254404106551462  0.0624305259955236  0.0395322204157296
  0.8198002544597074  0.1415147092303854  0.2096638068856151
  0.9001146525227881  0.2333384119612489  0.3759827385413530
  0.5002711786063259  0.1670662421175066  0.6660835242271688
  0.5816461604039489  0.2486602852393958  0.8310680358194276
  0.6621179027806363  0.3306561480814594  0.9950079776837626
  0.9557001655927024  0.1198092742515158  0.0796725632950270
  0.5467489594785988  0.2102042192824598  0.2535323045405704
  0.6277734497900838  0.2925070143164206  0.4191376821617396
  0.7091687767309622  0.3753733897689102  0.5838547548482396
  0.7912978518842237  0.4576085566165986  0.7490269097293307
  0.8729185875023049  0.0395855240730896  0.9144917214820367
  0.8353675628826807  0.0050979469354999  0.3395260102383162
  0.9196036253739308  0.0851386663583469  0.5018303115785372
  0.4807763002345169  0.8143825504103148  0.5427663779454477
  0.0620773409272886  0.8962020595817606  0.7078501834695956
  0.1441446847384782  0.9781422754579552  0.8734334878439967
  0.4354088220545194  0.7679561688174488  0.9570372043514581
  0.0146045889435129  0.8537105830439771  0.1210954766277226
  0.1031315568173241  0.9466307588673359  0.2963301707369155
  0.1900213566669890  0.5198608183564417  0.4590050954592257
  0.2717146217832678  0.6054830878181079  0.6260214479288422
  0.3533373380507143  0.6869681866539068  0.7911494136566191
  0.2265493293383187  0.5584862982555734  0.0415772921157895
  0.3045246067395766  0.6262652385807996  0.2159865690388116
  0.4003050799689376  0.7320616593561482  0.3773004448369690
  0.0007177433603047  0.6665340292256658  0.6661792656999523
  0.0818886572318576  0.7483547206314469  0.8308966206456532
  0.1630369102936768  0.8295283362843904  0.9946730959538570
  0.4537107233677702  0.6174960680112207  0.0821558043915189
  0.0427164868384722  0.7182077715464885  0.2530477395552140
  0.1278944844772525  0.7921428977528393  0.4183283101485316
  0.2096339566558996  0.8756090687550326  0.5839631170592199
  0.2913324279127636  0.9577396447930369  0.7491405466223497
  0.3723763268098779  0.5396166115221632  0.9153175375428404
  0.3391100091958705  0.5054547299434091  0.3407278395675633
  0.4185861253581677  0.5858540452018559  0.5024482566911601
  0.9811432187636768  0.8129725063602606  0.5421735556072917
  0.5624302739185012  0.8961533812008611  0.7078668645760331
  0.6439522288173549  0.9785658511165067  0.8734582887088109
  0.9356365902682882  0.7687998331012125  0.9565094689973748
  0.5167863686590053  0.8478263442667142  0.1211195081063323
  0.6055790797132232  0.9385908496297048  0.2966140576273730
  0.6898856548561056  0.5222486245557150  0.4600036472848998
  0.7717961732374192  0.6044130855033600  0.6249277155052084
  0.8533275093262986  0.6867877697718683  0.7905657895448286
  0.7262774111802059  0.5611348950218513  0.0395530204758856
  0.8212428560203762  0.6393870715091765  0.2108957024543017
  0.8985860498784959  0.7289996045996645  0.3751015666292972
  0.5007694747757654  0.6669709174840790  0.6667421836097489
  0.5817313177537784  0.7486702888005041  0.8311926755133427
  0.6623048270259773  0.8307197493176304  0.9943887602278068
  0.9550379978629948  0.6200148790182354  0.0799185275971865
  0.5462080752769012  0.7074924491516015  0.2528367437705228
  0.6297907387809261  0.7920606947242561  0.4188159550624491
  0.7098729055006459  0.8753289434827423  0.5837563521069171
  0.7912415667432668  0.9576522339728086  0.7489889670413419
  0.8728941440215934  0.5396522971332729  0.9145895506823578
  0.8405847061227831  0.5065872084165051  0.3372345201647207
  0.9195252473078526  0.5847888505549150  0.5012447393934636
  0.2288152707832722  0.4059086293196543  0.1780842187224323
  0.7429042128405712  0.4125346618371850  0.1687899473895484
  0.2419655570658392  0.9047353658641981  0.1706826080757082
  0.7392439612439503  0.9137302630845454  0.1687174453408531
  0.0586184131762266  0.3943108150171852  0.5119835182394539
  0.1418211948053170  0.4757459067271554  0.6764328633227237
  0.2232338082543706  0.0579714819683943  0.8411388345968476
  0.0129810162957540  0.3479658500692935  0.9214807998891175
  0.0845928640039233  0.4304704009252589  0.0813064262326080
  0.1829548253552389  0.0304167402666522  0.2722168563827410
  0.2697114290211360  0.1021321612672850  0.4313915059836049
  0.3510421083486222  0.1852621716281604  0.5942334316154216
  0.4324580726695757  0.2663952137437917  0.7584663176576427
  0.3029928290259534  0.1412726837382081  0.0066536806927360
  0.4153515857031920  0.2001983597489883  0.1780267360508603
  0.4786470288791236  0.3120509984990676  0.3456374698117202
  0.0804546070987087  0.2460205680706693  0.6351227035706160
  0.1621601176786669  0.3283565792880836  0.7998405270233206
  0.2435491812417752  0.4106816460509322  0.9649261175924408
  0.0325345125413108  0.1990009034661568  0.0455703971488433
  0.1337444749432564  0.2782593896185830  0.2050617428062225
  0.2207520396402316  0.3658639918211364  0.3974426188519402
  0.2899614507208952  0.4575650637569737  0.5553849107261541
  0.3712822386754624  0.0372775230310367  0.7177322517719205
  0.4526046134872175  0.1190910214187753  0.8830097721147112
  0.3310142758486023  0.9904454799332925  0.1310509740067758
  0.4152604109624107  0.0797803868226623  0.3043466531820300
  0.5025619433988737  0.1621324178602066  0.4708443057088232
  0.5594413972869035  0.3943867684016311  0.5118502098681219
  0.6416462700010186  0.4758769887833125  0.6765954902314490
  0.7231177240086311  0.0578938631007873  0.8410231119335165
  0.5129825185846215  0.3476829666716341  0.9220734903564249
  0.5878176535251143  0.4260863402808113  0.0828340717904297
  0.6838653682606548  0.0259182383359899  0.2725591399808991
  0.7699134963607079  0.1036323524011422  0.4319225296221987
  0.8512068014367316  0.1847986490906663  0.5945003579991734
  0.9322889543909341  0.2665257313079579  0.7583107780858640
  0.8034748501609101  0.1414473133695893  0.0057697709804785
  0.9125859048735947  0.2058365420380284  0.1774256894310824
  0.9788007625371122  0.3132816253574262  0.3447977481512723
  0.5805692119978971  0.2465171717277528  0.6352885180825822
  0.6620856351759485  0.3284582634175592  0.8001332888670518
  0.7438474971795657  0.4109350010641393  0.9651422350902337
  0.5341897762628207  0.1995678110029147  0.0485691410854585
  0.6260471937626377  0.2919636508707697  0.2179216621111237
  0.7094965304000809  0.3703227772055087  0.3888796884864831
  0.7892640549208352  0.4545131667110169  0.5533405375021019
  0.8710850511111730  0.0373206282134291  0.7177725746643873
  0.9525276829371805  0.1186646626354673  0.8819158361125190
  0.8269817169963005  0.0013968522732668  0.1322064927915818
  0.9117944415631243  0.0839346610632035  0.3050595345493434
  0.9987779462525594  0.1640520666398544  0.4697807477279170
  0.0603374642061851  0.8941059693304041  0.5117564742385881
  0.1416746259932964  0.9760526494439077  0.6766347951561542
  0.2232828658661461  0.5578083642878937  0.8411545829308338
  0.0131616962857066  0.8478205318080470  0.9217262886766093
  0.0867877140392395  0.9292366114702446  0.0813270532687014
  0.2075680069148049  0.5557636655568956  0.2618320668371226
  0.2694162828198969  0.6046481098715404  0.4323465447855597
  0.3513660444833846  0.6857374897050050  0.5952614082580254
  0.4324185040972921  0.7667246709114508  0.7587854788497950
  0.3031186988716996  0.6404423543442945  0.0067413780323591
  0.4099014676716308  0.6987793726203861  0.1793885401895992
  0.4786259949735694  0.8132160005942808  0.3458663208579793
  0.0805756585390256  0.7468309516498692  0.6356898716804764
  0.1621841617435891  0.8284705685360976  0.8001532441742754
  0.2443859801890511  0.9102332557994899  0.9651112436366702
  0.0334434514032864  0.7018570801243413  0.0487964623236152
  0.1193112589141947  0.8061748429125828  0.2160150622609791
  0.2074142990180050  0.8722597608265872  0.3874867155311961
  0.2895215649467318  0.9549799107398940  0.5532383964111887
  0.3716277857265595  0.5376774253123102  0.7186999665852056
  0.4526794752827712  0.6189719928571265  0.8831557320577446
  0.3268995680917328  0.4910014195558574  0.1312356720716892
  0.4241581812329258  0.5804549423971039  0.3094753604129110
  0.4989146217921672  0.6651003491267815  0.4712287775514454
  0.5600455967521611  0.8940530540100013  0.5119568960502150
  0.6416725514214718  0.9760234309996676  0.6764898530695120
  0.7231140231448947  0.5579103832629002  0.8410216364792902
  0.5127719718444226  0.8477376791038864  0.9220537982581334
  0.5867536739978192  0.9275814574358563  0.0815877259523745
  0.6858879138071785  0.5239418605554036  0.2717112231435053
  0.7694673273491617  0.6025805917023703  0.4316211719382608
  0.8512102707795535  0.6848364023319959  0.5945308733282388
  0.9323434621698610  0.7665202018545827  0.7583916468212948
  0.8029982908137825  0.6421339246819073  0.0056262761865682
  0.9099399547996541  0.7084945908215801  0.1766885757179750
  0.9762738807661293  0.8152394427462752  0.3462863657696360
  0.5809460878568444  0.7463411277531620  0.6357157635255675
  0.6622135694613291  0.8285415509496161  0.8003084763002590
  0.7442595158922742  0.9113944864273904  0.9654485274653979
  0.5342472813182368  0.6974879263370255  0.0486185995866535
  0.6226094873935040  0.7937757380625854  0.2156659842135511
  0.7067122215974848  0.8748630912563939  0.3895715823194266
  0.7909935409670084  0.9543574445375995  0.5538504841569321
  0.8713392290280595  0.5371066251966781  0.7178134042577824
  0.9527776950644338  0.6193757899057672  0.8827792633635596
  0.8290178852248289  0.4994807406962209  0.1314298613805249
  0.8946125113852474  0.5990159673936333  0.3043403506393503
  0.9984203093936088  0.6651927638695554  0.4702911326344079
 
  0.00000000E+00  0.00000000E+00  0.00000000E+00
  0.00000000E+00  0.00000000E+00  0.00000000E+00
  0.00000000E+00  0.00000000E+00  0.00000000E+00
  0.00000000E+00  0.00000000E+00  0.00000000E+00
  0.00000000E+00  0.00000000E+00  0.00000000E+00
  0.00000000E+00  0.00000000E+00  0.00000000E+00
  0.00000000E+00  0.00000000E+00  0.00000000E+00
  0.00000000E+00  0.00000000E+00  0.00000000E+00
  0.00000000E+00  0.00000000E+00  0.00000000E+00
  0.00000000E+00  0.00000000E+00  0.00000000E+00
  0.00000000E+00  0.00000000E+00  0.00000000E+00
  0.00000000E+00  0.00000000E+00  0.00000000E+00
  0.00000000E+00  0.00000000E+00  0.00000000E+00
  0.00000000E+00  0.00000000E+00  0.00000000E+00
  0.00000000E+00  0.00000000E+00  0.00000000E+00
  0.00000000E+00  0.00000000E+00  0.00000000E+00
  0.00000000E+00  0.00000000E+00  0.00000000E+00
  0.00000000E+00  0.00000000E+00  0.00000000E+00
  0.00000000E+00  0.00000000E+00  0.00000000E+00
  0.00000000E+00  0.00000000E+00  0.00000000E+00
  0.00000000E+00  0.00000000E+00  0.00000000E+00
  0.00000000E+00  0.00000000E+00  0.00000000E+00
  0.00000000E+00  0.00000000E+00  0.00000000E+00
  0.00000000E+00  0.00000000E+00  0.00000000E+00
  0.00000000E+00  0.00000000E+00  0.00000000E+00
  0.00000000E+00  0.00000000E+00  0.00000000E+00
  0.00000000E+00  0.00000000E+00  0.00000000E+00
  0.00000000E+00  0.00000000E+00  0.00000000E+00
  0.00000000E+00  0.00000000E+00  0.00000000E+00
  0.00000000E+00  0.00000000E+00  0.00000000E+00
  0.00000000E+00  0.00000000E+00  0.00000000E+00
  0.00000000E+00  0.00000000E+00  0.00000000E+00
  0.00000000E+00  0.00000000E+00  0.00000000E+00
  0.00000000E+00  0.00000000E+00  0.00000000E+00
  0.00000000E+00  0.00000000E+00  0.00000000E+00
  0.00000000E+00  0.00000000E+00  0.00000000E+00
  0.00000000E+00  0.00000000E+00  0.00000000E+00
  0.00000000E+00  0.00000000E+00  0.00000000E+00
  0.00000000E+00  0.00000000E+00  0.00000000E+00
  0.00000000E+00  0.00000000E+00  0.00000000E+00
  0.00000000E+00  0.00000000E+00  0.00000000E+00
  0.00000000E+00  0.00000000E+00  0.00000000E+00
  0.00000000E+00  0.00000000E+00  0.00000000E+00
  0.00000000E+00  0.00000000E+00  0.00000000E+00
  0.00000000E+00  0.00000000E+00  0.00000000E+00
  0.00000000E+00  0.00000000E+00  0.00000000E+00
  0.00000000E+00  0.00000000E+00  0.00000000E+00
  0.00000000E+00  0.00000000E+00  0.00000000E+00
  0.00000000E+00  0.00000000E+00  0.00000000E+00
  0.00000000E+00  0.00000000E+00  0.00000000E+00
  0.00000000E+00  0.00000000E+00  0.00000000E+00
  0.00000000E+00  0.00000000E+00  0.00000000E+00
  0.00000000E+00  0.00000000E+00  0.00000000E+00
  0.00000000E+00  0.00000000E+00  0.00000000E+00
  0.00000000E+00  0.00000000E+00  0.00000000E+00
  0.00000000E+00  0.00000000E+00  0.00000000E+00
  0.00000000E+00  0.00000000E+00  0.00000000E+00
  0.00000000E+00  0.00000000E+00  0.00000000E+00
  0.00000000E+00  0.00000000E+00  0.00000000E+00
  0.00000000E+00  0.00000000E+00  0.00000000E+00
  0.00000000E+00  0.00000000E+00  0.00000000E+00
  0.00000000E+00  0.00000000E+00  0.00000000E+00
  0.00000000E+00  0.00000000E+00  0.00000000E+00
  0.00000000E+00  0.00000000E+00  0.00000000E+00
  0.00000000E+00  0.00000000E+00  0.00000000E+00
  0.00000000E+00  0.00000000E+00  0.00000000E+00
  0.00000000E+00  0.00000000E+00  0.00000000E+00
  0.00000000E+00  0.00000000E+00  0.00000000E+00
  0.00000000E+00  0.00000000E+00  0.00000000E+00
  0.00000000E+00  0.00000000E+00  0.00000000E+00
  0.00000000E+00  0.00000000E+00  0.00000000E+00
  0.00000000E+00  0.00000000E+00  0.00000000E+00
  0.00000000E+00  0.00000000E+00  0.00000000E+00
  0.00000000E+00  0.00000000E+00  0.00000000E+00
  0.00000000E+00  0.00000000E+00  0.00000000E+00
  0.00000000E+00  0.00000000E+00  0.00000000E+00
  0.00000000E+00  0.00000000E+00  0.00000000E+00
  0.00000000E+00  0.00000000E+00  0.00000000E+00
  0.00000000E+00  0.00000000E+00  0.00000000E+00
  0.00000000E+00  0.00000000E+00  0.00000000E+00
  0.00000000E+00  0.00000000E+00  0.00000000E+00
  0.00000000E+00  0.00000000E+00  0.00000000E+00
  0.00000000E+00  0.00000000E+00  0.00000000E+00
  0.00000000E+00  0.00000000E+00  0.00000000E+00
  0.00000000E+00  0.00000000E+00  0.00000000E+00
  0.00000000E+00  0.00000000E+00  0.00000000E+00
  0.00000000E+00  0.00000000E+00  0.00000000E+00
  0.00000000E+00  0.00000000E+00  0.00000000E+00
  0.00000000E+00  0.00000000E+00  0.00000000E+00
  0.00000000E+00  0.00000000E+00  0.00000000E+00
  0.00000000E+00  0.00000000E+00  0.00000000E+00
  0.00000000E+00  0.00000000E+00  0.00000000E+00
  0.00000000E+00  0.00000000E+00  0.00000000E+00
  0.00000000E+00  0.00000000E+00  0.00000000E+00
  0.00000000E+00  0.00000000E+00  0.00000000E+00
  0.00000000E+00  0.00000000E+00  0.00000000E+00
  0.00000000E+00  0.00000000E+00  0.00000000E+00
  0.00000000E+00  0.00000000E+00  0.00000000E+00
  0.00000000E+00  0.00000000E+00  0.00000000E+00
  0.00000000E+00  0.00000000E+00  0.00000000E+00
  0.00000000E+00  0.00000000E+00  0.00000000E+00
  0.00000000E+00  0.00000000E+00  0.00000000E+00
  0.00000000E+00  0.00000000E+00  0.00000000E+00
  0.00000000E+00  0.00000000E+00  0.00000000E+00
  0.00000000E+00  0.00000000E+00  0.00000000E+00
  0.00000000E+00  0.00000000E+00  0.00000000E+00
  0.00000000E+00  0.00000000E+00  0.00000000E+00
  0.00000000E+00  0.00000000E+00  0.00000000E+00
  0.00000000E+00  0.00000000E+00  0.00000000E+00
  0.00000000E+00  0.00000000E+00  0.00000000E+00
  0.00000000E+00  0.00000000E+00  0.00000000E+00
  0.00000000E+00  0.00000000E+00  0.00000000E+00
  0.00000000E+00  0.00000000E+00  0.00000000E+00
  0.00000000E+00  0.00000000E+00  0.00000000E+00
  0.00000000E+00  0.00000000E+00  0.00000000E+00
  0.00000000E+00  0.00000000E+00  0.00000000E+00
  0.00000000E+00  0.00000000E+00  0.00000000E+00
  0.00000000E+00  0.00000000E+00  0.00000000E+00
  0.00000000E+00  0.00000000E+00  0.00000000E+00
  0.00000000E+00  0.00000000E+00  0.00000000E+00
  0.00000000E+00  0.00000000E+00  0.00000000E+00
  0.00000000E+00  0.00000000E+00  0.00000000E+00
  0.00000000E+00  0.00000000E+00  0.00000000E+00
  0.00000000E+00  0.00000000E+00  0.00000000E+00
  0.00000000E+00  0.00000000E+00  0.00000000E+00
  0.00000000E+00  0.00000000E+00  0.00000000E+00
  0.00000000E+00  0.00000000E+00  0.00000000E+00
  0.00000000E+00  0.00000000E+00  0.00000000E+00
  0.00000000E+00  0.00000000E+00  0.00000000E+00
  0.00000000E+00  0.00000000E+00  0.00000000E+00
  0.00000000E+00  0.00000000E+00  0.00000000E+00
  0.00000000E+00  0.00000000E+00  0.00000000E+00
  0.00000000E+00  0.00000000E+00  0.00000000E+00
  0.00000000E+00  0.00000000E+00  0.00000000E+00
  0.00000000E+00  0.00000000E+00  0.00000000E+00
  0.00000000E+00  0.00000000E+00  0.00000000E+00
  0.00000000E+00  0.00000000E+00  0.00000000E+00
  0.00000000E+00  0.00000000E+00  0.00000000E+00
  0.00000000E+00  0.00000000E+00  0.00000000E+00
  0.00000000E+00  0.00000000E+00  0.00000000E+00
  0.00000000E+00  0.00000000E+00  0.00000000E+00
  0.00000000E+00  0.00000000E+00  0.00000000E+00
  0.00000000E+00  0.00000000E+00  0.00000000E+00
  0.00000000E+00  0.00000000E+00  0.00000000E+00
  0.00000000E+00  0.00000000E+00  0.00000000E+00
  0.00000000E+00  0.00000000E+00  0.00000000E+00
  0.00000000E+00  0.00000000E+00  0.00000000E+00
  0.00000000E+00  0.00000000E+00  0.00000000E+00
  0.00000000E+00  0.00000000E+00  0.00000000E+00
  0.00000000E+00  0.00000000E+00  0.00000000E+00
  0.00000000E+00  0.00000000E+00  0.00000000E+00
  0.00000000E+00  0.00000000E+00  0.00000000E+00
  0.00000000E+00  0.00000000E+00  0.00000000E+00
  0.00000000E+00  0.00000000E+00  0.00000000E+00
  0.00000000E+00  0.00000000E+00  0.00000000E+00
  0.00000000E+00  0.00000000E+00  0.00000000E+00
  0.00000000E+00  0.00000000E+00  0.00000000E+00
  0.00000000E+00  0.00000000E+00  0.00000000E+00
  0.00000000E+00  0.00000000E+00  0.00000000E+00
  0.00000000E+00  0.00000000E+00  0.00000000E+00
  0.00000000E+00  0.00000000E+00  0.00000000E+00
  0.00000000E+00  0.00000000E+00  0.00000000E+00
  0.00000000E+00  0.00000000E+00  0.00000000E+00
  0.00000000E+00  0.00000000E+00  0.00000000E+00
  0.00000000E+00  0.00000000E+00  0.00000000E+00
  0.00000000E+00  0.00000000E+00  0.00000000E+00
  0.00000000E+00  0.00000000E+00  0.00000000E+00
  0.00000000E+00  0.00000000E+00  0.00000000E+00
  0.00000000E+00  0.00000000E+00  0.00000000E+00
  0.00000000E+00  0.00000000E+00  0.00000000E+00
  0.00000000E+00  0.00000000E+00  0.00000000E+00
  0.00000000E+00  0.00000000E+00  0.00000000E+00
  0.00000000E+00  0.00000000E+00  0.00000000E+00
  0.00000000E+00  0.00000000E+00  0.00000000E+00
  0.00000000E+00  0.00000000E+00  0.00000000E+00
  0.00000000E+00  0.00000000E+00  0.00000000E+00
  0.00000000E+00  0.00000000E+00  0.00000000E+00
  0.00000000E+00  0.00000000E+00  0.00000000E+00
  0.00000000E+00  0.00000000E+00  0.00000000E+00
  0.00000000E+00  0.00000000E+00  0.00000000E+00
  0.00000000E+00  0.00000000E+00  0.00000000E+00
  0.00000000E+00  0.00000000E+00  0.00000000E+00
  0.00000000E+00  0.00000000E+00  0.00000000E+00
  0.00000000E+00  0.00000000E+00  0.00000000E+00
  0.00000000E+00  0.00000000E+00  0.00000000E+00
  0.00000000E+00  0.00000000E+00  0.00000000E+00
  0.00000000E+00  0.00000000E+00  0.00000000E+00
  0.00000000E+00  0.00000000E+00  0.00000000E+00
  0.00000000E+00  0.00000000E+00  0.00000000E+00
  0.00000000E+00  0.00000000E+00  0.00000000E+00
  0.00000000E+00  0.00000000E+00  0.00000000E+00
