supercell of POSCAR                     
   1.00398800000000     
    -6.2729611433599999    0.0082005604289200   10.0015927484000002
     3.1280384584799998    5.4363994576400003   10.0007801159999996
    -7.8567367181199996   13.6110857897000006  -10.0002683574999995
   Al   Sc   N 
    92     4    95
Direct
  0.4799206421242417  0.3136645909750300  0.5413689868547493
  0.0381111051837308  0.4113615769773560  0.6856851285818095
  0.1406677412786053  0.5136017552915035  0.8910462587675525
  0.4380869663983091  0.2699289934353359  0.9575757675184988
  0.0183386174420903  0.3519577109709573  0.1232597850605259
  0.1038123705810108  0.4420465351516825  0.2967218373239717
  0.1887190238942296  0.0210334329861510  0.4592960131473234
  0.2717756176680695  0.1037028523148678  0.6235163203193395
  0.3963164945218765  0.1544993812130144  0.7882025642349006
  0.2284097623558949  0.0618443008752294  0.0406209030378832
  0.3199510237861318  0.1408787737711705  0.2099337805813875
  0.3970177509164259  0.2312573330847201  0.3762889978274302
  0.9994472622628763  0.1647832216181300  0.6658259481417161
  0.0531152019061665  0.2195273816505434  0.8423374148494389
  0.1636586788064633  0.3298707157500402  0.9958371651069768
  0.4569273544412980  0.1197418327024309  0.0804321363608480
  0.0472061316766244  0.2114349460482927  0.2536468366573104
  0.1267965666682755  0.2920545449377911  0.4186308617370926
  0.2117962687509092  0.3735282245315901  0.5815440764620305
  0.2912937378078055  0.4579342246548848  0.7486764910287036
  0.3739918191555205  0.0389162348851073  0.9155758084496313
  0.3350785945520798  0.0040529686992770  0.3388544151276207
  0.4185687552549311  0.0841683248069955  0.5009731124845587
  0.9773836705815100  0.3114512819185151  0.5382999172803551
  0.5609214141344836  0.3969574531175155  0.7064951111402422
  0.6448467290251472  0.4799385801075431  0.8734831569443742
  0.9320383600709832  0.2737396959566425  0.9620068444718370
  0.5186489732153419  0.3510636123200186  0.1229601672875873
  0.6040210941578152  0.4415718970405536  0.2963334229693473
  0.6882155690852017  0.0216740364851162  0.4594683554705412
  0.7709335982470336  0.1036891192933993  0.6234561110945904
  0.8446758159375634  0.1864686741104222  0.7866852201932772
  0.7277821699163383  0.0644286621764820  0.0403656583114156
  0.8195459609222411  0.1413570985897721  0.2098674351203229
  0.8965981968950700  0.2308115638423516  0.3754647051294100
  0.5015371644389788  0.1660298216800555  0.6636953068068436
  0.5833850328805283  0.2512668551537871  0.8321473882996244
  0.6629552848236173  0.3325434671030862  0.9955990904302965
  0.9572903048913304  0.1192555771433561  0.0811347114007646
  0.5470790825830960  0.2111297523697857  0.2536241253004405
  0.6265353317724518  0.2922148813909544  0.4187731580286496
  0.7085824444786866  0.3746094823375259  0.5833914638960849
  0.7892447778308451  0.4577548138744234  0.7490698775120777
  0.8755161064642394  0.0425629049780767  0.9141887199663046
  0.8348528067356185  0.0039174658624432  0.3388146408511616
  0.9178641605913356  0.0837654170932183  0.5011665361406941
  0.4779642550689047  0.8140163304073482  0.5410004553073264
  0.0623476593800447  0.8954910945312875  0.7067042045985445
  0.1518439341161013  0.9675365799720268  0.8744567756896373
  0.4382447045788282  0.7688520370741259  0.9572971046904399
  0.0181631850919288  0.8518431474635975  0.1228519155295515
  0.1040081912463506  0.9415701379788715  0.2962860437289692
  0.1884179304643325  0.5223939345535058  0.4596126569542491
  0.2711239235674938  0.6047629352512658  0.6243043882493780
  0.3553837835091755  0.6854978172033839  0.7898462024767383
  0.2294377104178977  0.5638137858738403  0.0438467287264785
  0.3198472958258733  0.6413663312612954  0.2105384879770114
  0.3971116086533115  0.7310703862943626  0.3762089826292438
  0.9985893101610230  0.6708939938987157  0.6655693344790450
  0.0805674539950374  0.7516090055093656  0.8296173465109504
  0.1648425391577177  0.8306225593888570  0.9958983899510798
  0.4571784420145022  0.6198269371974732  0.0806493551648941
  0.0468812031432364  0.7113628727430097  0.2536859810512340
  0.1265806469241468  0.7922558255400958  0.4187972056329841
  0.2086967482659787  0.8747815846070068  0.5832081530945885
  0.2906490107531781  0.9557668560953374  0.7486017984231594
  0.3777338331116056  0.5405382252572011  0.9155684308831624
  0.3350931526555385  0.5041443202755360  0.3391023088846623
  0.4181147369146458  0.5848454645312273  0.5015381489510702
  0.9794405493040301  0.8134385131079185  0.5413975844098218
  0.5654216488428290  0.8905985113635353  0.7058360699331061
  0.6510005713190523  0.9757544081611442  0.8749041679986362
  0.9333802654617358  0.7763939092066607  0.9590507627200751
  0.5180513933646367  0.8516725939602026  0.1224945207160530
  0.6040196608211801  0.9415305149360691  0.2962172252318354
  0.6878595645812169  0.5219354614732410  0.4593027116106683
  0.7651898775047670  0.6075657632198670  0.6224023244808166
  0.8531505791351179  0.6884332652600165  0.7902167881164459
  0.7268247893071091  0.5640188683506082  0.0407177349117163
  0.8194599337731603  0.6415815588116303  0.2098281504365787
  0.8968613097014497  0.7313143606551407  0.3762909201978104
  0.4992526832982236  0.6661540182556251  0.6657633242467327
  0.5819892629365739  0.7491983795251400  0.8311170218516111
  0.6632999867107117  0.8316173284367778  0.9955251609945748
  0.9563378964455111  0.6197151971053785  0.0803860306719173
  0.5470870618629746  0.7113156045743381  0.2535281910493126
  0.6265124224497001  0.7922474686555034  0.4187175797479767
  0.7085266150689122  0.8752241825005243  0.5828974931988000
  0.7904960062609376  0.9572421678692180  0.7480486389315786
  0.8717861585908651  0.5411292151590317  0.9152427708100817
  0.8348700570258458  0.5043133475157262  0.3388997581394264
  0.9180929707271019  0.5848469414289212  0.5013451264855462
  0.2432751490977267  0.4125397584533914  0.1700107264329986
  0.7435693430878345  0.4134997568548542  0.1693427169174626
  0.2439137429696032  0.9130616164311789  0.1694548437087846
  0.7435595421782253  0.9136018689969063  0.1690163103546709
  0.0590146331054058  0.3932122495778358  0.5121030102544282
  0.1416645030896859  0.4754824198100920  0.6765209210159213
  0.2259766517744310  0.0546500241844967  0.8415758084450289
  0.0128895954083674  0.3500764811989185  0.9238039650502330
  0.0892993869890191  0.4289842077756489  0.0830661114748423
  0.1821352491098054  0.0274119373426061  0.2718900509232682
  0.2682930277538347  0.1029765544691941  0.4310153825491128
  0.3507666102058451  0.1845182171679198  0.5941149712006890
  0.4320724757905552  0.2665756924037908  0.7584705931360816
  0.3053361896203839  0.1420891556235233  0.0062054866832710
  0.4123337290571385  0.2060514910561793  0.1775608808890823
  0.4760932286760422  0.3127183530759652  0.3453150163063938
  0.0797786362577853  0.2442054466239298  0.6342830504026367
  0.2461275410691925  0.4108637826529247  0.9673461606179359
  0.0364781918222050  0.2009344208021346  0.0506043600453339
  0.1266611456230891  0.2931966317617878  0.2179243801553596
  0.2062706736503657  0.3715721979291118  0.3879312920691547
  0.2891195105173097  0.4548997556794276  0.5526235361126481
  0.3709040632373828  0.0352622705220895  0.7169112418657733
  0.4552614752583892  0.1189047678091413  0.8841125862269479
  0.3307138549990825  0.0001369951906582  0.1328597165022245
  0.4129222155451728  0.0813504666586198  0.3043424170857492
  0.4974076167648391  0.1640970159186210  0.4694294990200447
  0.5592240476087724  0.3938845572980583  0.5113000091869395
  0.6414437538290443  0.4758700298811007  0.6761548115666329
  0.7253948085256638  0.0597758126307966  0.8410646506818011
  0.5140082181582031  0.3489154048068457  0.9224417274239300
  0.5888283887373049  0.4289233880184327  0.0832592652656743
  0.6822735113128431  0.0270758779094606  0.2716534954522558
  0.7681012086045271  0.1028860917925556  0.4308111406985233
  0.8508866043617829  0.1843205499475076  0.5939149176372780
  0.9293761751985770  0.2661763440139069  0.7574071383022272
  0.8069739669880178  0.1432527530465748  0.0053982860750779
  0.9120530347004276  0.2065760545491884  0.1778478600778399
  0.9761358784293108  0.3128389200322559  0.3454660991297658
  0.5803830105037164  0.2463904063216731  0.6347270826999249
  0.6597468881626014  0.3310691457742934  0.7998014336741122
  0.7429348510690232  0.4143107547768281  0.9662539201375964
  0.5356207303662046  0.2018442208586109  0.0492414681745785
  0.6264636813193363  0.2926210779826590  0.2177580366514320
  0.7065344018300195  0.3711869700180586  0.3875651364753310
  0.7893935135623167  0.4540005639047138  0.5527488413736776
  0.8706246310403287  0.0353897780097583  0.7164338991468355
  0.9600156202347421  0.1260607844636539  0.8802677166412280
  0.8307547947526857  0.0008561317686713  0.1322557722082820
  0.9128435463608469  0.0808838394028299  0.3039789988486987
  0.9974223641550850  0.1622182799834206  0.4683229430478661
  0.0590480553442134  0.8935210637602964  0.5113405512903100
  0.1416763247320958  0.9759311778100752  0.6763866618298096
  0.2239983423527647  0.5576715007981647  0.8412603916574781
  0.0149360200660240  0.8502173323918356  0.9216650232745991
  0.0894307929307203  0.9284426221642690  0.0830953471606790
  0.1820548394061845  0.5275556387262270  0.2722310078668428
  0.2685093601021364  0.6031196580589366  0.4310591098680732
  0.3504576896487706  0.6847190047389162  0.5941564911911783
  0.4333818729573409  0.7663026818258345  0.7583339969034384
  0.3050224475169898  0.6408972070695143  0.0062568120797266
  0.4120014394051310  0.7060166024339338  0.1776748097916325
  0.4761185058017716  0.8126875813063990  0.3452870987537011
  0.0803919587230268  0.7460958896351357  0.6346033051300353
  0.1637417887339865  0.8265063762264546  0.7992074150472419
  0.2469570048807554  0.9104097935595874  0.9669950093123276
  0.0361836055727949  0.7011309672711548  0.0489519531799374
  0.1262932733283932  0.7927009075690989  0.2176078358896376
  0.2065110378528345  0.8710563738429613  0.3874236321505862
  0.2879795473457278  0.9551409377242237  0.5526170464110507
  0.3701501664078677  0.5366097643253482  0.7175788148775837
  0.4538201915811939  0.6205737915633236  0.8828115499310982
  0.3315014207399116  0.4992513133843488  0.1340783070095952
  0.4131370287427174  0.5811365559601285  0.3045101056301576
  0.4974447424159152  0.6639387839819477  0.4692994239461612
  0.5588315458986415  0.8934892719914558  0.5113852925798383
  0.6402534120096988  0.9759130459725185  0.6763184910625455
  0.7248611010956125  0.5585122529659543  0.8411226985800653
  0.5148955831602677  0.8485176344020147  0.9223512214826357
  0.5889893936124295  0.9291988307962669  0.0830690998186938
  0.6821795923729397  0.5272914607455093  0.2719077414545836
  0.7685032696413785  0.6028355800801819  0.4311506712441187
  0.8506875431949013  0.6839457067099701  0.5945986623224968
  0.9325813519582837  0.7665008737803589  0.7582499735946655
  0.8051068894563684  0.6428061650459327  0.0065234919312758
  0.9122171415328921  0.7065840289664038  0.1774598692174081
  0.9761010580630511  0.8127343685625235  0.3453946700400294
  0.5780424703779659  0.7460440841300837  0.6340550786735903
  0.6625462719858959  0.8301149697157229  0.8002114306179635
  0.7447270521460752  0.9139191002384024  0.9670177648481371
  0.5352809455727154  0.7016100927795819  0.0495871294806634
  0.6261487827330328  0.7928540186388133  0.2175384164358647
  0.7061905699794053  0.8713055563517784  0.3874895042229838
  0.7886257202108027  0.9540228787858709  0.5523297644319882
  0.8681596194257040  0.5389796138088130  0.7176855128562636
  0.9510920957049578  0.6229979721876404  0.8837250385562854
  0.8307890982256012  0.5002980294410122  0.1326881981744918
  0.9126741503305382  0.5815168820776364  0.3042460770259225
  0.9974952006087179  0.6636800224547201  0.4694280553008525
 
  0.00000000E+00  0.00000000E+00  0.00000000E+00
  0.00000000E+00  0.00000000E+00  0.00000000E+00
  0.00000000E+00  0.00000000E+00  0.00000000E+00
  0.00000000E+00  0.00000000E+00  0.00000000E+00
  0.00000000E+00  0.00000000E+00  0.00000000E+00
  0.00000000E+00  0.00000000E+00  0.00000000E+00
  0.00000000E+00  0.00000000E+00  0.00000000E+00
  0.00000000E+00  0.00000000E+00  0.00000000E+00
  0.00000000E+00  0.00000000E+00  0.00000000E+00
  0.00000000E+00  0.00000000E+00  0.00000000E+00
  0.00000000E+00  0.00000000E+00  0.00000000E+00
  0.00000000E+00  0.00000000E+00  0.00000000E+00
  0.00000000E+00  0.00000000E+00  0.00000000E+00
  0.00000000E+00  0.00000000E+00  0.00000000E+00
  0.00000000E+00  0.00000000E+00  0.00000000E+00
  0.00000000E+00  0.00000000E+00  0.00000000E+00
  0.00000000E+00  0.00000000E+00  0.00000000E+00
  0.00000000E+00  0.00000000E+00  0.00000000E+00
  0.00000000E+00  0.00000000E+00  0.00000000E+00
  0.00000000E+00  0.00000000E+00  0.00000000E+00
  0.00000000E+00  0.00000000E+00  0.00000000E+00
  0.00000000E+00  0.00000000E+00  0.00000000E+00
  0.00000000E+00  0.00000000E+00  0.00000000E+00
  0.00000000E+00  0.00000000E+00  0.00000000E+00
  0.00000000E+00  0.00000000E+00  0.00000000E+00
  0.00000000E+00  0.00000000E+00  0.00000000E+00
  0.00000000E+00  0.00000000E+00  0.00000000E+00
  0.00000000E+00  0.00000000E+00  0.00000000E+00
  0.00000000E+00  0.00000000E+00  0.00000000E+00
  0.00000000E+00  0.00000000E+00  0.00000000E+00
  0.00000000E+00  0.00000000E+00  0.00000000E+00
  0.00000000E+00  0.00000000E+00  0.00000000E+00
  0.00000000E+00  0.00000000E+00  0.00000000E+00
  0.00000000E+00  0.00000000E+00  0.00000000E+00
  0.00000000E+00  0.00000000E+00  0.00000000E+00
  0.00000000E+00  0.00000000E+00  0.00000000E+00
  0.00000000E+00  0.00000000E+00  0.00000000E+00
  0.00000000E+00  0.00000000E+00  0.00000000E+00
  0.00000000E+00  0.00000000E+00  0.00000000E+00
  0.00000000E+00  0.00000000E+00  0.00000000E+00
  0.00000000E+00  0.00000000E+00  0.00000000E+00
  0.00000000E+00  0.00000000E+00  0.00000000E+00
  0.00000000E+00  0.00000000E+00  0.00000000E+00
  0.00000000E+00  0.00000000E+00  0.00000000E+00
  0.00000000E+00  0.00000000E+00  0.00000000E+00
  0.00000000E+00  0.00000000E+00  0.00000000E+00
  0.00000000E+00  0.00000000E+00  0.00000000E+00
  0.00000000E+00  0.00000000E+00  0.00000000E+00
  0.00000000E+00  0.00000000E+00  0.00000000E+00
  0.00000000E+00  0.00000000E+00  0.00000000E+00
  0.00000000E+00  0.00000000E+00  0.00000000E+00
  0.00000000E+00  0.00000000E+00  0.00000000E+00
  0.00000000E+00  0.00000000E+00  0.00000000E+00
  0.00000000E+00  0.00000000E+00  0.00000000E+00
  0.00000000E+00  0.00000000E+00  0.00000000E+00
  0.00000000E+00  0.00000000E+00  0.00000000E+00
  0.00000000E+00  0.00000000E+00  0.00000000E+00
  0.00000000E+00  0.00000000E+00  0.00000000E+00
  0.00000000E+00  0.00000000E+00  0.00000000E+00
  0.00000000E+00  0.00000000E+00  0.00000000E+00
  0.00000000E+00  0.00000000E+00  0.00000000E+00
  0.00000000E+00  0.00000000E+00  0.00000000E+00
  0.00000000E+00  0.00000000E+00  0.00000000E+00
  0.00000000E+00  0.00000000E+00  0.00000000E+00
  0.00000000E+00  0.00000000E+00  0.00000000E+00
  0.00000000E+00  0.00000000E+00  0.00000000E+00
  0.00000000E+00  0.00000000E+00  0.00000000E+00
  0.00000000E+00  0.00000000E+00  0.00000000E+00
  0.00000000E+00  0.00000000E+00  0.00000000E+00
  0.00000000E+00  0.00000000E+00  0.00000000E+00
  0.00000000E+00  0.00000000E+00  0.00000000E+00
  0.00000000E+00  0.00000000E+00  0.00000000E+00
  0.00000000E+00  0.00000000E+00  0.00000000E+00
  0.00000000E+00  0.00000000E+00  0.00000000E+00
  0.00000000E+00  0.00000000E+00  0.00000000E+00
  0.00000000E+00  0.00000000E+00  0.00000000E+00
  0.00000000E+00  0.00000000E+00  0.00000000E+00
  0.00000000E+00  0.00000000E+00  0.00000000E+00
  0.00000000E+00  0.00000000E+00  0.00000000E+00
  0.00000000E+00  0.00000000E+00  0.00000000E+00
  0.00000000E+00  0.00000000E+00  0.00000000E+00
  0.00000000E+00  0.00000000E+00  0.00000000E+00
  0.00000000E+00  0.00000000E+00  0.00000000E+00
  0.00000000E+00  0.00000000E+00  0.00000000E+00
  0.00000000E+00  0.00000000E+00  0.00000000E+00
  0.00000000E+00  0.00000000E+00  0.00000000E+00
  0.00000000E+00  0.00000000E+00  0.00000000E+00
  0.00000000E+00  0.00000000E+00  0.00000000E+00
  0.00000000E+00  0.00000000E+00  0.00000000E+00
  0.00000000E+00  0.00000000E+00  0.00000000E+00
  0.00000000E+00  0.00000000E+00  0.00000000E+00
  0.00000000E+00  0.00000000E+00  0.00000000E+00
  0.00000000E+00  0.00000000E+00  0.00000000E+00
  0.00000000E+00  0.00000000E+00  0.00000000E+00
  0.00000000E+00  0.00000000E+00  0.00000000E+00
  0.00000000E+00  0.00000000E+00  0.00000000E+00
  0.00000000E+00  0.00000000E+00  0.00000000E+00
  0.00000000E+00  0.00000000E+00  0.00000000E+00
  0.00000000E+00  0.00000000E+00  0.00000000E+00
  0.00000000E+00  0.00000000E+00  0.00000000E+00
  0.00000000E+00  0.00000000E+00  0.00000000E+00
  0.00000000E+00  0.00000000E+00  0.00000000E+00
  0.00000000E+00  0.00000000E+00  0.00000000E+00
  0.00000000E+00  0.00000000E+00  0.00000000E+00
  0.00000000E+00  0.00000000E+00  0.00000000E+00
  0.00000000E+00  0.00000000E+00  0.00000000E+00
  0.00000000E+00  0.00000000E+00  0.00000000E+00
  0.00000000E+00  0.00000000E+00  0.00000000E+00
  0.00000000E+00  0.00000000E+00  0.00000000E+00
  0.00000000E+00  0.00000000E+00  0.00000000E+00
  0.00000000E+00  0.00000000E+00  0.00000000E+00
  0.00000000E+00  0.00000000E+00  0.00000000E+00
  0.00000000E+00  0.00000000E+00  0.00000000E+00
  0.00000000E+00  0.00000000E+00  0.00000000E+00
  0.00000000E+00  0.00000000E+00  0.00000000E+00
  0.00000000E+00  0.00000000E+00  0.00000000E+00
  0.00000000E+00  0.00000000E+00  0.00000000E+00
  0.00000000E+00  0.00000000E+00  0.00000000E+00
  0.00000000E+00  0.00000000E+00  0.00000000E+00
  0.00000000E+00  0.00000000E+00  0.00000000E+00
  0.00000000E+00  0.00000000E+00  0.00000000E+00
  0.00000000E+00  0.00000000E+00  0.00000000E+00
  0.00000000E+00  0.00000000E+00  0.00000000E+00
  0.00000000E+00  0.00000000E+00  0.00000000E+00
  0.00000000E+00  0.00000000E+00  0.00000000E+00
  0.00000000E+00  0.00000000E+00  0.00000000E+00
  0.00000000E+00  0.00000000E+00  0.00000000E+00
  0.00000000E+00  0.00000000E+00  0.00000000E+00
  0.00000000E+00  0.00000000E+00  0.00000000E+00
  0.00000000E+00  0.00000000E+00  0.00000000E+00
  0.00000000E+00  0.00000000E+00  0.00000000E+00
  0.00000000E+00  0.00000000E+00  0.00000000E+00
  0.00000000E+00  0.00000000E+00  0.00000000E+00
  0.00000000E+00  0.00000000E+00  0.00000000E+00
  0.00000000E+00  0.00000000E+00  0.00000000E+00
  0.00000000E+00  0.00000000E+00  0.00000000E+00
  0.00000000E+00  0.00000000E+00  0.00000000E+00
  0.00000000E+00  0.00000000E+00  0.00000000E+00
  0.00000000E+00  0.00000000E+00  0.00000000E+00
  0.00000000E+00  0.00000000E+00  0.00000000E+00
  0.00000000E+00  0.00000000E+00  0.00000000E+00
  0.00000000E+00  0.00000000E+00  0.00000000E+00
  0.00000000E+00  0.00000000E+00  0.00000000E+00
  0.00000000E+00  0.00000000E+00  0.00000000E+00
  0.00000000E+00  0.00000000E+00  0.00000000E+00
  0.00000000E+00  0.00000000E+00  0.00000000E+00
  0.00000000E+00  0.00000000E+00  0.00000000E+00
  0.00000000E+00  0.00000000E+00  0.00000000E+00
  0.00000000E+00  0.00000000E+00  0.00000000E+00
  0.00000000E+00  0.00000000E+00  0.00000000E+00
  0.00000000E+00  0.00000000E+00  0.00000000E+00
  0.00000000E+00  0.00000000E+00  0.00000000E+00
  0.00000000E+00  0.00000000E+00  0.00000000E+00
  0.00000000E+00  0.00000000E+00  0.00000000E+00
  0.00000000E+00  0.00000000E+00  0.00000000E+00
  0.00000000E+00  0.00000000E+00  0.00000000E+00
  0.00000000E+00  0.00000000E+00  0.00000000E+00
  0.00000000E+00  0.00000000E+00  0.00000000E+00
  0.00000000E+00  0.00000000E+00  0.00000000E+00
  0.00000000E+00  0.00000000E+00  0.00000000E+00
  0.00000000E+00  0.00000000E+00  0.00000000E+00
  0.00000000E+00  0.00000000E+00  0.00000000E+00
  0.00000000E+00  0.00000000E+00  0.00000000E+00
  0.00000000E+00  0.00000000E+00  0.00000000E+00
  0.00000000E+00  0.00000000E+00  0.00000000E+00
  0.00000000E+00  0.00000000E+00  0.00000000E+00
  0.00000000E+00  0.00000000E+00  0.00000000E+00
  0.00000000E+00  0.00000000E+00  0.00000000E+00
  0.00000000E+00  0.00000000E+00  0.00000000E+00
  0.00000000E+00  0.00000000E+00  0.00000000E+00
  0.00000000E+00  0.00000000E+00  0.00000000E+00
  0.00000000E+00  0.00000000E+00  0.00000000E+00
  0.00000000E+00  0.00000000E+00  0.00000000E+00
  0.00000000E+00  0.00000000E+00  0.00000000E+00
  0.00000000E+00  0.00000000E+00  0.00000000E+00
  0.00000000E+00  0.00000000E+00  0.00000000E+00
  0.00000000E+00  0.00000000E+00  0.00000000E+00
  0.00000000E+00  0.00000000E+00  0.00000000E+00
  0.00000000E+00  0.00000000E+00  0.00000000E+00
  0.00000000E+00  0.00000000E+00  0.00000000E+00
  0.00000000E+00  0.00000000E+00  0.00000000E+00
  0.00000000E+00  0.00000000E+00  0.00000000E+00
  0.00000000E+00  0.00000000E+00  0.00000000E+00
  0.00000000E+00  0.00000000E+00  0.00000000E+00
  0.00000000E+00  0.00000000E+00  0.00000000E+00
  0.00000000E+00  0.00000000E+00  0.00000000E+00
  0.00000000E+00  0.00000000E+00  0.00000000E+00
  0.00000000E+00  0.00000000E+00  0.00000000E+00
  0.00000000E+00  0.00000000E+00  0.00000000E+00
  0.00000000E+00  0.00000000E+00  0.00000000E+00
  0.00000000E+00  0.00000000E+00  0.00000000E+00
