supercell of POSCAR                     
   1.00398800000000     
    -6.2729611433599999    0.0082005604289200   10.0015927484000002
     3.1280384584799998    5.4363994576400003   10.0007801159999996
    -7.8567367181199996   13.6110857897000006  -10.0002683574999995
   Al   Sc   N 
    91     4    96
Direct
  0.4792209637641847  0.3136243105702547  0.5423644435372523
  0.0622523809556341  0.3953686337752274  0.7087008089398239
  0.1456955698425517  0.4775776982669981  0.8753832203507699
  0.0169304381671083  0.3515193679067252  0.1216007692523746
  0.1037190110089981  0.4414826457469871  0.2951755382988921
  0.1879325429696905  0.0223863677387968  0.4600743432643810
  0.2704738845482098  0.1049532552956904  0.6247656693792578
  0.3554838514311740  0.1862592109647707  0.7925191164272789
  0.2279946162106441  0.0634427031149727  0.0392229728531674
  0.3178648974183815  0.1413781430240633  0.2093124968677387
  0.3968697768786527  0.2313095851750617  0.3758421468584956
  0.0006845873812935  0.1667931213654583  0.6669716813341395
  0.0837553059547531  0.2484745964225681  0.8317768969303856
  0.1673367213179944  0.3334368302294735  0.9936693789601279
  0.4584839922272153  0.1207377596414148  0.0785743489783144
  0.0457068987790166  0.2115310879777041  0.2531095705748498
  0.1260356815800350  0.2932009920239764  0.4190600216987406
  0.2088073067216385  0.3756636907065669  0.5844740140480837
  0.2918850421795298  0.4573830244254182  0.7501982755817878
  0.3768038765680899  0.0436304639129830  0.9139094178495526
  0.3342945859404907  0.0044442955012798  0.3387832727818463
  0.4178462554235551  0.0854184058595138  0.5019300562984412
  0.9791111982055369  0.3142260622626765  0.5426975365906657
  0.5625074406102399  0.3955092181101634  0.7076092551207651
  0.6353968336712086  0.4696789504970909  0.8769563288876157
  0.9375847433602260  0.2691991251856720  0.9569649990338789
  0.5188640923994967  0.3486511271056898  0.1201492520611112
  0.6043196767345336  0.4421081806193783  0.2969188983789692
  0.6882806857168049  0.0221629584734515  0.4601120327076984
  0.7707349493254583  0.1047570204256090  0.6257311337393929
  0.8547427349888821  0.1860071977199738  0.7905930434407296
  0.7262798100600705  0.0635347684887009  0.0395507888670963
  0.8183629752798893  0.1421296912366330  0.2090224826708678
  0.8964787474633198  0.2316609044040803  0.3765450560277444
  0.4996761513181553  0.1668709231637564  0.6670012460084109
  0.5823142545489830  0.2477090964642059  0.8314986812752636
  0.6633955357830104  0.3305701228849856  0.9944357215781778
  0.9564343535595299  0.1190896522719598  0.0795980170248143
  0.5457784673210142  0.2124798061788553  0.2516136635128561
  0.6258929532953559  0.2930275219102683  0.4189714772401700
  0.7087542348130427  0.3757942370078382  0.5844079190188438
  0.7895117617137046  0.4570347293594281  0.7512803352354567
  0.8728060292781521  0.0396425249558519  0.9146234407655882
  0.8340480973153461  0.0046556403056712  0.3380363715538408
  0.9177161469743851  0.0853207350650322  0.5021546329453770
  0.4792629617913917  0.8142226542549906  0.5429432495831179
  0.0623925202564166  0.8960131627221699  0.7081628202531647
  0.1445971439229226  0.9791976152932165  0.8737765685738736
  0.4351645179043544  0.7712064984023002  0.9563509453941137
  0.0206621530710436  0.8506113019988533  0.1219721260368374
  0.1037464010473741  0.9413883195249682  0.2958885068349062
  0.1882201678180664  0.5222776227099359  0.4601295626165509
  0.2713463985281663  0.6045820876065449  0.6257715866833138
  0.3525007346455666  0.6891153745230625  0.7910527773457687
  0.2276353203219301  0.5601224935237852  0.0376776107936720
  0.3206433575365111  0.6399063577939117  0.2092036241547603
  0.3965573582405710  0.7315334481726907  0.3766556205157841
  0.0006376631527942  0.6662942853018663  0.6670629478754648
  0.0820916954997557  0.7480424431435537  0.8313693867411587
  0.1639913525874519  0.8307842341264120  0.9945554591030970
  0.4564764041309246  0.6181965981894280  0.0789000512860483
  0.0457778499371670  0.7117880360302280  0.2521892274292412
  0.1259194894701352  0.7930145505670012  0.4190533808524393
  0.2089138617396387  0.8757948437013994  0.5844647243769145
  0.2921594956459046  0.9597539529511110  0.7501134895106105
  0.3732770737976523  0.5390020668059492  0.9145917593071786
  0.3341172556245411  0.5042318919773123  0.3381606459537352
  0.4178489323753567  0.5852299528136058  0.5021421846017020
  0.9793692504354965  0.8138901301762616  0.5428252035615557
  0.5608567818358736  0.8969186767169219  0.7095670200144752
  0.6419988949109978  0.9794333852385435  0.8734928374587838
  0.9364912343599983  0.7668391214067185  0.9564661594806694
  0.5174643616707968  0.8503340787101408  0.1213432604804936
  0.6036815210436757  0.9420219291472947  0.2950213118012144
  0.6883690910358808  0.5227638696562238  0.4606915239596887
  0.7707329037477564  0.6044647469076452  0.6262920214740930
  0.8531824479700774  0.6855760018789709  0.7905342888210427
  0.7283650328967255  0.5626028792434070  0.0395357805311605
  0.8182473169144799  0.6433002261944551  0.2090127926531835
  0.8968379646519367  0.7316887559170553  0.3762020473247674
  0.5000879517462948  0.6675714443545218  0.6670749391093693
  0.5827383792232297  0.7467039448804798  0.8324143458229827
  0.6632437523385732  0.8317223494864621  0.9943052613437615
  0.9578375410214406  0.6196906027390057  0.0791030149860958
  0.5464673964351832  0.7115121484639815  0.2533329758138265
  0.6260458652656880  0.7933040271001204  0.4190782690685779
  0.7085594117743597  0.8754913366663217  0.5847705263665617
  0.7915295489910292  0.9571107507205383  0.7497165473809630
  0.8725150469016043  0.5379202952744819  0.9141367039370181
  0.8346607417653829  0.5050090494125001  0.3388575203177666
  0.9178150648050476  0.5855664872336632  0.5024361212809794
  0.2448114868871798  0.4123573724155136  0.1666806996424199
  0.7421545103490885  0.4139480099582258  0.1686651290118633
  0.2443575119444361  0.9123195905406263  0.1685437689519276
  0.7415371161874589  0.9186209965991736  0.1654593611816466
  0.0586982121117714  0.3942419406903994  0.5111015500575959
  0.1414842737972535  0.4755567997865953  0.6759581955904892
  0.2226039070452970  0.0577661922698027  0.8414333941641203
  0.0149175964251285  0.3464992695088966  0.9225558404672327
  0.0880449276748294  0.4285343864258806  0.0842051999430637
  0.1815617152115863  0.0275911226823666  0.2721268850184941
  0.2678190755162433  0.1036000735376916  0.4307803643465391
  0.3502919733440848  0.1850507840043818  0.5932253332154218
  0.4322921184853428  0.2669471616335528  0.7574318151025494
  0.3051433514995807  0.1424563856169598  0.0071427339184851
  0.4086756584657465  0.2065429900614291  0.1792697389498628
  0.4758896656538880  0.3129405248130439  0.3452624836120251
  0.0794909544346609  0.2463697163301859  0.6340237164141982
  0.1620853397451825  0.3287270435738705  0.7995967508105082
  0.2246822077822088  0.4292122831413963  0.9672890543123742
  0.0361478723266018  0.2004467948032769  0.0505091934329940
  0.1243666227689459  0.2923753748839104  0.2186038939676820
  0.2057934843636389  0.3720923138809979  0.3872746960226507
  0.2882671090639874  0.4551449871826492  0.5522293511506007
  0.3690236296192424  0.0378906555001635  0.7148345598531307
  0.4571601337499018  0.1028006567979816  0.8740111696110162
  0.3302221421891076  0.9994981789154167  0.1334612582778050
  0.4124855467450388  0.0810771688080720  0.3046305443779360
  0.4969941273928811  0.1643374462888545  0.4687379783378205
  0.5586481055187420  0.3939250128662266  0.5110877429039604
  0.6408111961349476  0.4764866003855630  0.6754770331884572
  0.7256704880484364  0.0559785163636732  0.8409313908713401
  0.5325683146512148  0.3671264932799829  0.9151322049418553
  0.5901321803007065  0.4288990754821995  0.0838722631080842
  0.6816848139696106  0.0277947326765400  0.2709725354264449
  0.7681822298185352  0.1031523480890257  0.4305842729998659
  0.8504202174183391  0.1847977611710547  0.5939060984872668
  0.9341003585338399  0.2654969783447498  0.7582133469676364
  0.8068406321569910  0.1411526897706636  0.0069320607353518
  0.9113924778120719  0.2073529686812634  0.1780586211397548
  0.9755086548177516  0.3133654053291863  0.3457064942421297
  0.5793736634934064  0.2457943521578372  0.6336665571917521
  0.6659627375606689  0.3241017658657839  0.7959399827148630
  0.7511867555101830  0.4113837861459118  0.9694025983303831
  0.5532324498964414  0.1889853031336273  0.0649910580575792
  0.6272242434746857  0.2954155483566154  0.2206889549776534
  0.7063329599968071  0.3723995973323397  0.3885945450684503
  0.7883725623622695  0.4551992677411789  0.5524483715434485
  0.8718126809273130  0.0358801243534401  0.7168909022770507
  0.9531296031736716  0.1194092584515616  0.8834132439986746
  0.8384946936169371  0.9979435275240789  0.1341998439721905
  0.9130039070810128  0.0818521141665585  0.3046935259650922
  0.9969481654461561  0.1645479374679226  0.4692794497997426
  0.0586417555801333  0.8939583051226165  0.5112057761786204
  0.1416679446036468  0.9756390875346526  0.6760057136871680
  0.2225082114857244  0.5588457478781805  0.8406938264115453
  0.0145254744399779  0.8475783955835894  0.9227595637888015
  0.0914280529545266  0.9287433258392426  0.0836509061017807
  0.1815100057931005  0.5273572391719767  0.2709995250685822
  0.2680463812196408  0.6032797133001893  0.4305973787678425
  0.3503823362222391  0.6849164436821198  0.5937840841283304
  0.4318970427374182  0.7678491470487572  0.7579333784506304
  0.3047830635766715  0.6436721025053771  0.0071928764606000
  0.4128024418452441  0.7057508067009337  0.1781301360063523
  0.4754584289736172  0.8131688162170718  0.3457749127390315
  0.0800991674692000  0.7458956493101851  0.6344913969154575
  0.1606912229684099  0.8296424051616782  0.7999148140496573
  0.2438134067503057  0.9134301170087298  0.9667348617482006
  0.0346375978701658  0.7045316734139604  0.0512381971192895
  0.1281493125795095  0.7919598288765144  0.2188054026435182
  0.2057404841124253  0.8720167986390521  0.3876632237657986
  0.2879477589834778  0.9547963827942709  0.5516319772289222
  0.3710538878433880  0.5378273613606979  0.7174425787109371
  0.4471572242271762  0.6280987240859375  0.8828047205449323
  0.3315945820503856  0.5009819869598147  0.1333158553052272
  0.4128318726860627  0.5818871146046902  0.3050160088804716
  0.4970825904792449  0.6646111419730474  0.4694269415799610
  0.5587754627051424  0.8941642722425271  0.5111542566571430
  0.6412812601654707  0.9757263495589115  0.6762125681915236
  0.7206229669438002  0.5547131609826152  0.8426224299627094
  0.5143224391913108  0.8480642143898791  0.9234526710708053
  0.5879828129474021  0.9260439539524654  0.0831201080594539
  0.6818013761269341  0.5284245710178297  0.2728432565513046
  0.7682380734971090  0.6038624504003351  0.4310719687072222
  0.8505324885889465  0.6846002377566407  0.5941762763446619
  0.9327231921300267  0.7658405939522694  0.7579751993518897
  0.8059420636599057  0.6427244966755481  0.0070896801046416
  0.9091690775205592  0.7096377318437490  0.1777397722679837
  0.9759525263607998  0.8130923419803651  0.3452132220171293
  0.5796915948665813  0.7466863725808466  0.6344892911719739
  0.6648113152741573  0.8237925837548659  0.7991361535076535
  0.7467747773599100  0.9108010193436229  0.9664557244565088
  0.5352281498514273  0.7004432330625932  0.0497084102116787
  0.6247517670361162  0.7927471072877097  0.2185164374548947
  0.7058071712562821  0.8721567092214926  0.3871548256493398
  0.7882579966885999  0.9547468839158597  0.5522998926495362
  0.8708001049809155  0.5352517384335229  0.7172564869372096
  0.9498568724793088  0.6205219220376819  0.8817711534997343
  0.8298208319188234  0.5014042726568206  0.1340797848070352
  0.9126613887769395  0.5821278024685625  0.3043595210540531
  0.9969912310346061  0.6646105925994732  0.4691797044113457
 
  0.00000000E+00  0.00000000E+00  0.00000000E+00
  0.00000000E+00  0.00000000E+00  0.00000000E+00
  0.00000000E+00  0.00000000E+00  0.00000000E+00
  0.00000000E+00  0.00000000E+00  0.00000000E+00
  0.00000000E+00  0.00000000E+00  0.00000000E+00
  0.00000000E+00  0.00000000E+00  0.00000000E+00
  0.00000000E+00  0.00000000E+00  0.00000000E+00
  0.00000000E+00  0.00000000E+00  0.00000000E+00
  0.00000000E+00  0.00000000E+00  0.00000000E+00
  0.00000000E+00  0.00000000E+00  0.00000000E+00
  0.00000000E+00  0.00000000E+00  0.00000000E+00
  0.00000000E+00  0.00000000E+00  0.00000000E+00
  0.00000000E+00  0.00000000E+00  0.00000000E+00
  0.00000000E+00  0.00000000E+00  0.00000000E+00
  0.00000000E+00  0.00000000E+00  0.00000000E+00
  0.00000000E+00  0.00000000E+00  0.00000000E+00
  0.00000000E+00  0.00000000E+00  0.00000000E+00
  0.00000000E+00  0.00000000E+00  0.00000000E+00
  0.00000000E+00  0.00000000E+00  0.00000000E+00
  0.00000000E+00  0.00000000E+00  0.00000000E+00
  0.00000000E+00  0.00000000E+00  0.00000000E+00
  0.00000000E+00  0.00000000E+00  0.00000000E+00
  0.00000000E+00  0.00000000E+00  0.00000000E+00
  0.00000000E+00  0.00000000E+00  0.00000000E+00
  0.00000000E+00  0.00000000E+00  0.00000000E+00
  0.00000000E+00  0.00000000E+00  0.00000000E+00
  0.00000000E+00  0.00000000E+00  0.00000000E+00
  0.00000000E+00  0.00000000E+00  0.00000000E+00
  0.00000000E+00  0.00000000E+00  0.00000000E+00
  0.00000000E+00  0.00000000E+00  0.00000000E+00
  0.00000000E+00  0.00000000E+00  0.00000000E+00
  0.00000000E+00  0.00000000E+00  0.00000000E+00
  0.00000000E+00  0.00000000E+00  0.00000000E+00
  0.00000000E+00  0.00000000E+00  0.00000000E+00
  0.00000000E+00  0.00000000E+00  0.00000000E+00
  0.00000000E+00  0.00000000E+00  0.00000000E+00
  0.00000000E+00  0.00000000E+00  0.00000000E+00
  0.00000000E+00  0.00000000E+00  0.00000000E+00
  0.00000000E+00  0.00000000E+00  0.00000000E+00
  0.00000000E+00  0.00000000E+00  0.00000000E+00
  0.00000000E+00  0.00000000E+00  0.00000000E+00
  0.00000000E+00  0.00000000E+00  0.00000000E+00
  0.00000000E+00  0.00000000E+00  0.00000000E+00
  0.00000000E+00  0.00000000E+00  0.00000000E+00
  0.00000000E+00  0.00000000E+00  0.00000000E+00
  0.00000000E+00  0.00000000E+00  0.00000000E+00
  0.00000000E+00  0.00000000E+00  0.00000000E+00
  0.00000000E+00  0.00000000E+00  0.00000000E+00
  0.00000000E+00  0.00000000E+00  0.00000000E+00
  0.00000000E+00  0.00000000E+00  0.00000000E+00
  0.00000000E+00  0.00000000E+00  0.00000000E+00
  0.00000000E+00  0.00000000E+00  0.00000000E+00
  0.00000000E+00  0.00000000E+00  0.00000000E+00
  0.00000000E+00  0.00000000E+00  0.00000000E+00
  0.00000000E+00  0.00000000E+00  0.00000000E+00
  0.00000000E+00  0.00000000E+00  0.00000000E+00
  0.00000000E+00  0.00000000E+00  0.00000000E+00
  0.00000000E+00  0.00000000E+00  0.00000000E+00
  0.00000000E+00  0.00000000E+00  0.00000000E+00
  0.00000000E+00  0.00000000E+00  0.00000000E+00
  0.00000000E+00  0.00000000E+00  0.00000000E+00
  0.00000000E+00  0.00000000E+00  0.00000000E+00
  0.00000000E+00  0.00000000E+00  0.00000000E+00
  0.00000000E+00  0.00000000E+00  0.00000000E+00
  0.00000000E+00  0.00000000E+00  0.00000000E+00
  0.00000000E+00  0.00000000E+00  0.00000000E+00
  0.00000000E+00  0.00000000E+00  0.00000000E+00
  0.00000000E+00  0.00000000E+00  0.00000000E+00
  0.00000000E+00  0.00000000E+00  0.00000000E+00
  0.00000000E+00  0.00000000E+00  0.00000000E+00
  0.00000000E+00  0.00000000E+00  0.00000000E+00
  0.00000000E+00  0.00000000E+00  0.00000000E+00
  0.00000000E+00  0.00000000E+00  0.00000000E+00
  0.00000000E+00  0.00000000E+00  0.00000000E+00
  0.00000000E+00  0.00000000E+00  0.00000000E+00
  0.00000000E+00  0.00000000E+00  0.00000000E+00
  0.00000000E+00  0.00000000E+00  0.00000000E+00
  0.00000000E+00  0.00000000E+00  0.00000000E+00
  0.00000000E+00  0.00000000E+00  0.00000000E+00
  0.00000000E+00  0.00000000E+00  0.00000000E+00
  0.00000000E+00  0.00000000E+00  0.00000000E+00
  0.00000000E+00  0.00000000E+00  0.00000000E+00
  0.00000000E+00  0.00000000E+00  0.00000000E+00
  0.00000000E+00  0.00000000E+00  0.00000000E+00
  0.00000000E+00  0.00000000E+00  0.00000000E+00
  0.00000000E+00  0.00000000E+00  0.00000000E+00
  0.00000000E+00  0.00000000E+00  0.00000000E+00
  0.00000000E+00  0.00000000E+00  0.00000000E+00
  0.00000000E+00  0.00000000E+00  0.00000000E+00
  0.00000000E+00  0.00000000E+00  0.00000000E+00
  0.00000000E+00  0.00000000E+00  0.00000000E+00
  0.00000000E+00  0.00000000E+00  0.00000000E+00
  0.00000000E+00  0.00000000E+00  0.00000000E+00
  0.00000000E+00  0.00000000E+00  0.00000000E+00
  0.00000000E+00  0.00000000E+00  0.00000000E+00
  0.00000000E+00  0.00000000E+00  0.00000000E+00
  0.00000000E+00  0.00000000E+00  0.00000000E+00
  0.00000000E+00  0.00000000E+00  0.00000000E+00
  0.00000000E+00  0.00000000E+00  0.00000000E+00
  0.00000000E+00  0.00000000E+00  0.00000000E+00
  0.00000000E+00  0.00000000E+00  0.00000000E+00
  0.00000000E+00  0.00000000E+00  0.00000000E+00
  0.00000000E+00  0.00000000E+00  0.00000000E+00
  0.00000000E+00  0.00000000E+00  0.00000000E+00
  0.00000000E+00  0.00000000E+00  0.00000000E+00
  0.00000000E+00  0.00000000E+00  0.00000000E+00
  0.00000000E+00  0.00000000E+00  0.00000000E+00
  0.00000000E+00  0.00000000E+00  0.00000000E+00
  0.00000000E+00  0.00000000E+00  0.00000000E+00
  0.00000000E+00  0.00000000E+00  0.00000000E+00
  0.00000000E+00  0.00000000E+00  0.00000000E+00
  0.00000000E+00  0.00000000E+00  0.00000000E+00
  0.00000000E+00  0.00000000E+00  0.00000000E+00
  0.00000000E+00  0.00000000E+00  0.00000000E+00
  0.00000000E+00  0.00000000E+00  0.00000000E+00
  0.00000000E+00  0.00000000E+00  0.00000000E+00
  0.00000000E+00  0.00000000E+00  0.00000000E+00
  0.00000000E+00  0.00000000E+00  0.00000000E+00
  0.00000000E+00  0.00000000E+00  0.00000000E+00
  0.00000000E+00  0.00000000E+00  0.00000000E+00
  0.00000000E+00  0.00000000E+00  0.00000000E+00
  0.00000000E+00  0.00000000E+00  0.00000000E+00
  0.00000000E+00  0.00000000E+00  0.00000000E+00
  0.00000000E+00  0.00000000E+00  0.00000000E+00
  0.00000000E+00  0.00000000E+00  0.00000000E+00
  0.00000000E+00  0.00000000E+00  0.00000000E+00
  0.00000000E+00  0.00000000E+00  0.00000000E+00
  0.00000000E+00  0.00000000E+00  0.00000000E+00
  0.00000000E+00  0.00000000E+00  0.00000000E+00
  0.00000000E+00  0.00000000E+00  0.00000000E+00
  0.00000000E+00  0.00000000E+00  0.00000000E+00
  0.00000000E+00  0.00000000E+00  0.00000000E+00
  0.00000000E+00  0.00000000E+00  0.00000000E+00
  0.00000000E+00  0.00000000E+00  0.00000000E+00
  0.00000000E+00  0.00000000E+00  0.00000000E+00
  0.00000000E+00  0.00000000E+00  0.00000000E+00
  0.00000000E+00  0.00000000E+00  0.00000000E+00
  0.00000000E+00  0.00000000E+00  0.00000000E+00
  0.00000000E+00  0.00000000E+00  0.00000000E+00
  0.00000000E+00  0.00000000E+00  0.00000000E+00
  0.00000000E+00  0.00000000E+00  0.00000000E+00
  0.00000000E+00  0.00000000E+00  0.00000000E+00
  0.00000000E+00  0.00000000E+00  0.00000000E+00
  0.00000000E+00  0.00000000E+00  0.00000000E+00
  0.00000000E+00  0.00000000E+00  0.00000000E+00
  0.00000000E+00  0.00000000E+00  0.00000000E+00
  0.00000000E+00  0.00000000E+00  0.00000000E+00
  0.00000000E+00  0.00000000E+00  0.00000000E+00
  0.00000000E+00  0.00000000E+00  0.00000000E+00
  0.00000000E+00  0.00000000E+00  0.00000000E+00
  0.00000000E+00  0.00000000E+00  0.00000000E+00
  0.00000000E+00  0.00000000E+00  0.00000000E+00
  0.00000000E+00  0.00000000E+00  0.00000000E+00
  0.00000000E+00  0.00000000E+00  0.00000000E+00
  0.00000000E+00  0.00000000E+00  0.00000000E+00
  0.00000000E+00  0.00000000E+00  0.00000000E+00
  0.00000000E+00  0.00000000E+00  0.00000000E+00
  0.00000000E+00  0.00000000E+00  0.00000000E+00
  0.00000000E+00  0.00000000E+00  0.00000000E+00
  0.00000000E+00  0.00000000E+00  0.00000000E+00
  0.00000000E+00  0.00000000E+00  0.00000000E+00
  0.00000000E+00  0.00000000E+00  0.00000000E+00
  0.00000000E+00  0.00000000E+00  0.00000000E+00
  0.00000000E+00  0.00000000E+00  0.00000000E+00
  0.00000000E+00  0.00000000E+00  0.00000000E+00
  0.00000000E+00  0.00000000E+00  0.00000000E+00
  0.00000000E+00  0.00000000E+00  0.00000000E+00
  0.00000000E+00  0.00000000E+00  0.00000000E+00
  0.00000000E+00  0.00000000E+00  0.00000000E+00
  0.00000000E+00  0.00000000E+00  0.00000000E+00
  0.00000000E+00  0.00000000E+00  0.00000000E+00
  0.00000000E+00  0.00000000E+00  0.00000000E+00
  0.00000000E+00  0.00000000E+00  0.00000000E+00
  0.00000000E+00  0.00000000E+00  0.00000000E+00
  0.00000000E+00  0.00000000E+00  0.00000000E+00
  0.00000000E+00  0.00000000E+00  0.00000000E+00
  0.00000000E+00  0.00000000E+00  0.00000000E+00
  0.00000000E+00  0.00000000E+00  0.00000000E+00
  0.00000000E+00  0.00000000E+00  0.00000000E+00
  0.00000000E+00  0.00000000E+00  0.00000000E+00
  0.00000000E+00  0.00000000E+00  0.00000000E+00
  0.00000000E+00  0.00000000E+00  0.00000000E+00
  0.00000000E+00  0.00000000E+00  0.00000000E+00
  0.00000000E+00  0.00000000E+00  0.00000000E+00
  0.00000000E+00  0.00000000E+00  0.00000000E+00
  0.00000000E+00  0.00000000E+00  0.00000000E+00
  0.00000000E+00  0.00000000E+00  0.00000000E+00
  0.00000000E+00  0.00000000E+00  0.00000000E+00
  0.00000000E+00  0.00000000E+00  0.00000000E+00
  0.00000000E+00  0.00000000E+00  0.00000000E+00
  0.00000000E+00  0.00000000E+00  0.00000000E+00
