supercell of POSCAR                     
   1.00398800000000     
    -6.2729611433599999    0.0082005604289200   10.0015927484000002
     3.1280384584799998    5.4363994576400003   10.0007801159999996
    -7.8567367181199996   13.6110857897000006  -10.0002683574999995
   Al   Sc   N 
    91     4    96
Direct
  0.4803463060233923  0.3129282851359179  0.5429488476819913
  0.0617915609997723  0.3958110793750222  0.7084352444637574
  0.1436792413750680  0.4782036548976265  0.8734983867222539
  0.4345003497677169  0.2686989824586306  0.9560877121280740
  0.0172080992125458  0.3525778938354449  0.1197840222522828
  0.1054619355553328  0.4401421572909356  0.2944785928003739
  0.1891571043127982  0.0213729108208938  0.4600150089800508
  0.2714720031839235  0.1036544424616821  0.6258075296481778
  0.3524038002890180  0.1859739466696197  0.7921704988456710
  0.2289071129923244  0.0660773755214592  0.0388699935436350
  0.3223601413064259  0.1382247949241275  0.2083657207307112
  0.3979026862424533  0.2302806337674213  0.3763541752878581
  0.0014257639456687  0.1650693455740679  0.6682012014300156
  0.0822358313169715  0.2467707457557964  0.8311598673049332
  0.1620362627032605  0.3325805047491315  0.9952505732039398
  0.4560012961140387  0.1195825786052112  0.0789262748226918
  0.0479371798569161  0.2105066333328622  0.2521768087297716
  0.1268858598237941  0.2922604163199267  0.4188600489913341
  0.2093852133153220  0.3746681016021540  0.5844838748985666
  0.2905587768238078  0.4582641624628536  0.7492984181293778
  0.3350905466821885  0.0034619930448159  0.3383692851664932
  0.4184126170219642  0.0842987074304133  0.5019799936370646
  0.9800592478150634  0.3128601079459727  0.5430950688599907
  0.5616150603460284  0.3942409639733384  0.7098967859328980
  0.6418528403060435  0.4789947126604872  0.8730720865941706
  0.9356925544282646  0.2703363572045276  0.9561393270077687
  0.5184092014575867  0.3505365258789723  0.1214402980685279
  0.6046797835264570  0.4411525733297239  0.2959858771106454
  0.6894330617040083  0.0212385900650673  0.4604534388416539
  0.7720778208505976  0.1041840789777808  0.6259852473350449
  0.8516446438319747  0.1877944092305555  0.7920614868152569
  0.7259502132786224  0.0630054712597712  0.0383788306372992
  0.8197136350789904  0.1412794960287798  0.2092698914717772
  0.8980365464638354  0.2304618100168128  0.3762817265430414
  0.4997940521411692  0.1667664308492860  0.6667572170694314
  0.5741761986902674  0.2416296854496522  0.8345534176142806
  0.6629389433528985  0.3331284265225136  0.9946198995068656
  0.9554134613912026  0.1205830408112192  0.0789075555731742
  0.5493112252800643  0.2103270461882047  0.2547554416429136
  0.6276740754916261  0.2917961468555532  0.4196200808365091
  0.7091858454118878  0.3745653961304285  0.5849580161997423
  0.7899818299257788  0.4574247438440437  0.7488029111409205
  0.8744218580935907  0.0397644392924477  0.9142727672704183
  0.8369373793274875  0.0023798458425190  0.3391852558286317
  0.9192449196517885  0.0841726836845424  0.5025414068263316
  0.4800138195696846  0.8129817793788305  0.5427303381506619
  0.0641796265432149  0.8966724221892477  0.7089661195446979
  0.1477000695857669  0.9827308973647177  0.8729784804606382
  0.4367900245235674  0.7743509875136283  0.9548458506568309
  0.0167091353111175  0.8526052871733611  0.1210293032488607
  0.1046142971905866  0.9404787414845117  0.2955449145554283
  0.1892321430586037  0.5211340710692696  0.4601077884576128
  0.2713195134379021  0.6045383080540461  0.6256777651219352
  0.3527306734818936  0.6885942025543841  0.7912678728063653
  0.2259929323260010  0.5629876516188190  0.0390304838492241
  0.3190718285790695  0.6390351456571253  0.2087695314996907
  0.3976176890574834  0.7301697075515889  0.3761842040043533
  0.0004747399413603  0.6666671795594752  0.6668921751542598
  0.0822795109920946  0.7488973563419421  0.8314961702926098
  0.1639371241814160  0.8332764279266840  0.9941991329744440
  0.4561465502485333  0.6199091894585749  0.0792364103140244
  0.0471825888569057  0.7095119527527345  0.2519068803214353
  0.1274475078868420  0.7912433723017998  0.4187180331332243
  0.2096030639472772  0.8742236544731625  0.5834829389656093
  0.2905642844939962  0.9596048112184619  0.7510349826712570
  0.3723640451260195  0.5419561283744443  0.9148321611472170
  0.3348971345963960  0.5025310793976914  0.3375662121702092
  0.4188413726858968  0.5836615149872912  0.5017537991288421
  0.9803764594836650  0.8131605373139337  0.5428884378979717
  0.5617908919183705  0.8962018783430210  0.7087780728210689
  0.6418085778855982  0.9792536105747445  0.8736511050063029
  0.9347217112911466  0.7702482121741809  0.9562801808436490
  0.5174239961267446  0.8511393142564003  0.1207810052544431
  0.6046496239167993  0.9408203415032759  0.2961097075571502
  0.6893830657716862  0.5211694602193475  0.4604291422506677
  0.7708891461798544  0.6046216421899189  0.6256628131600408
  0.8524575129355938  0.6870946025600304  0.7908530806954630
  0.7256527445705387  0.5656380345711227  0.0385024594513297
  0.8185992521272993  0.6422566556427896  0.2088675778974505
  0.8981923297938792  0.7300616060785430  0.3762565775986531
  0.4996166293622082  0.6664252243447777  0.6670240060746551
  0.5808470051026475  0.7496506223683852  0.8324638100463133
  0.6594169800062488  0.8327100560906899  0.9926574209508630
  0.9530849474868788  0.6247066463098960  0.0798903685618697
  0.5463097331667370  0.7110695464978107  0.2526689932549075
  0.6270184865602531  0.7918408406451434  0.4191402387329148
  0.7091952899504079  0.8753053235454402  0.5845933174345177
  0.7928985570928333  0.9570129644121010  0.7496640928399358
  0.8702965583108977  0.5414387437316321  0.9144016755220790
  0.8356490942211039  0.5036932430567589  0.3384393335708182
  0.9187166397888262  0.5844451353650726  0.5022847683048113
  0.2463732170926747  0.4039659362797750  0.1642415359604286
  0.7441661914692546  0.4135333212139258  0.1681710911895067
  0.2435834509755495  0.9115686367020928  0.1677016741488018
  0.7406804896322612  0.9167068249127155  0.1682348932503359
  0.0593124831557432  0.3929992243179896  0.5109031551846570
  0.1404834280164380  0.4760040851540310  0.6755122744017044
  0.2061880978411210  0.0622230845715066  0.8321032893923146
  0.0121051994952879  0.3508046968195728  0.9226709915730353
  0.0816479253126232  0.4379488845497832  0.0838283115789977
  0.1823312591366175  0.0265102594790605  0.2715786881710471
  0.2687049916439790  0.1025629011468965  0.4303236849528460
  0.3505744768867203  0.1837889825759760  0.5930800085581893
  0.4285387816213699  0.2691873156020961  0.7552990301820941
  0.2937898112715658  0.1638146783777614  0.0239693012631506
  0.4194183541283607  0.2016489324712936  0.1810891799643883
  0.4773990684381388  0.3123217561432980  0.3463733245635368
  0.0801516294221827  0.2455880165336097  0.6347092358456763
  0.1599609847983743  0.3306793492531241  0.7998896041637309
  0.2428596253104374  0.4148321495093299  0.9664790732378989
  0.0321966381671288  0.2027714227517663  0.0498033797262636
  0.1275021829372420  0.2914447931926603  0.2168812949692835
  0.2065807953673797  0.3712433256434053  0.3868394389772334
  0.2889961895076425  0.4541099432612299  0.5521909858314444
  0.3715145156063784  0.0367050945177709  0.7165651314622750
  0.4684623644594339  0.1359375977791757  0.8773600642228203
  0.3315919853961304  0.9965489300632697  0.1343486336156658
  0.4135005486606573  0.0804559644953144  0.3047492201627691
  0.4980256987792302  0.1633466440726181  0.4691296165179040
  0.5597777475523316  0.3927979992078434  0.5111253592217508
  0.6396230618827659  0.4751743848688932  0.6756753500271344
  0.7301966201866321  0.0531985014766931  0.8410149838101617
  0.5126235614832808  0.3548234209761034  0.9254847205885426
  0.5896765103519783  0.4293056114115075  0.0843424007170270
  0.6842048549686268  0.0261458706760678  0.2734254729142620
  0.7697804545227243  0.1020107641561552  0.4310064280026396
  0.8514109276811155  0.1839317547348642  0.5937554925597013
  0.9275804889960355  0.2691193938762311  0.7572823304777501
  0.8039312672425822  0.1432692081814295  0.0067284038535718
  0.9119323002734205  0.2063013931639546  0.1780701997204091
  0.9769345598004620  0.3120105002328302  0.3448260985906799
  0.5807341621688877  0.2451876337563448  0.6343276687583810
  0.6591444752927913  0.3262208944069442  0.8015836815260542
  0.7444526504517555  0.4141380979627414  0.9666393320080573
  0.5364428765380964  0.2017530866431869  0.0504833386965799
  0.6271058207374836  0.2926204144610551  0.2186677399379633
  0.7071890886877483  0.3708813959259487  0.3875357526638297
  0.7888378087470969  0.4541950545481441  0.5524670659275657
  0.8722515530226431  0.0366616527064139  0.7173232323561720
  0.9524189612868312  0.1207792348423737  0.8843723060135886
  0.8301661229865545  0.0015112502627588  0.1329670479050620
  0.9137148590031217  0.0805459636257737  0.3044044925786977
  0.9980125891174154  0.1635722541041886  0.4690297500826688
  0.0594842666310100  0.8923582344186229  0.5101394516777660
  0.1422095383496611  0.9732682001358626  0.6733767035084668
  0.2228211706405006  0.5580392851482827  0.8414526025655391
  0.0147592673768528  0.8477682181648376  0.9231405798034942
  0.0878399709939259  0.9300461531121869  0.0832060439416011
  0.1839976152220046  0.5242672283486485  0.2689402881512279
  0.2691394841725341  0.6015478219650205  0.4299075199906355
  0.3509524150656489  0.6834567510359193  0.5928899960868890
  0.4322494203106189  0.7660063536014619  0.7574712359264453
  0.3034344214153890  0.6440681359904872  0.0076203461731836
  0.4116421636217069  0.7045716018245116  0.1782699720116483
  0.4765158911765042  0.8119668065359349  0.3453548492358678
  0.0801181526378087  0.7459970031360612  0.6346483253008799
  0.1617735412723178  0.8276845409460734  0.8005703848809915
  0.2443274514603360  0.9142379534511136  0.9669046118682019
  0.0345483033202072  0.7034408870421700  0.0499644458246564
  0.1259648021055213  0.7922727013914894  0.2175615051889537
  0.2068193431163223  0.8707873020411796  0.3871271218261398
  0.2891850359718902  0.9539817031682034  0.5515815368874613
  0.3700251959814480  0.5382518216925121  0.7173454159505965
  0.4505076683502764  0.6208208947750435  0.8830111566673864
  0.3305711954547448  0.4985678314517372  0.1326259705275348
  0.4132034452716624  0.5804574143480323  0.3041803948357966
  0.4980210578138156  0.6632114974187857  0.4688604656561211
  0.5595568008493288  0.8929734258008821  0.5109830519730636
  0.6421158412498329  0.9753769247980060  0.6760288477578484
  0.7243920541296802  0.5547486066301275  0.8396214157337596
  0.5293266739440696  0.8287866168245230  0.9229872018423606
  0.5899630012076429  0.9282121899825100  0.0837233305654337
  0.6824358421288892  0.5272658091623796  0.2720165858048844
  0.7692932144619888  0.6021218111792805  0.4306263704676212
  0.8506787437901338  0.6844016308456204  0.5936728357938179
  0.9332019726319771  0.7652100338105470  0.7581617132339034
  0.8062220695354512  0.6436331781347135  0.0077268693584074
  0.9084658613287218  0.7107599494488639  0.1785401912110771
  0.9781216156696502  0.8104978162265439  0.3449894300751879
  0.5799623547118102  0.7456727503037257  0.6343535787390451
  0.6629632337306930  0.8275214984357362  0.7994774736206693
  0.7457302579457519  0.9124092988705357  0.9667010319010387
  0.5342169970556228  0.7013548399692340  0.0504311163921187
  0.6256906049547624  0.7926214939976504  0.2184232066889038
  0.7072996962461104  0.8704621428137784  0.3876723167780014
  0.7892741443893527  0.9541513904435419  0.5524063906095478
  0.8704611651562431  0.5373373642414734  0.7169661817306832
  0.9521050954598991  0.6206687748508486  0.8832256242661387
  0.8294650455551746  0.5015315422591442  0.1331281352494074
  0.9140553358157675  0.5805111305284498  0.3038823650608435
  0.9980512279920504  0.6633256492322488  0.4691269970063701
 
  0.00000000E+00  0.00000000E+00  0.00000000E+00
  0.00000000E+00  0.00000000E+00  0.00000000E+00
  0.00000000E+00  0.00000000E+00  0.00000000E+00
  0.00000000E+00  0.00000000E+00  0.00000000E+00
  0.00000000E+00  0.00000000E+00  0.00000000E+00
  0.00000000E+00  0.00000000E+00  0.00000000E+00
  0.00000000E+00  0.00000000E+00  0.00000000E+00
  0.00000000E+00  0.00000000E+00  0.00000000E+00
  0.00000000E+00  0.00000000E+00  0.00000000E+00
  0.00000000E+00  0.00000000E+00  0.00000000E+00
  0.00000000E+00  0.00000000E+00  0.00000000E+00
  0.00000000E+00  0.00000000E+00  0.00000000E+00
  0.00000000E+00  0.00000000E+00  0.00000000E+00
  0.00000000E+00  0.00000000E+00  0.00000000E+00
  0.00000000E+00  0.00000000E+00  0.00000000E+00
  0.00000000E+00  0.00000000E+00  0.00000000E+00
  0.00000000E+00  0.00000000E+00  0.00000000E+00
  0.00000000E+00  0.00000000E+00  0.00000000E+00
  0.00000000E+00  0.00000000E+00  0.00000000E+00
  0.00000000E+00  0.00000000E+00  0.00000000E+00
  0.00000000E+00  0.00000000E+00  0.00000000E+00
  0.00000000E+00  0.00000000E+00  0.00000000E+00
  0.00000000E+00  0.00000000E+00  0.00000000E+00
  0.00000000E+00  0.00000000E+00  0.00000000E+00
  0.00000000E+00  0.00000000E+00  0.00000000E+00
  0.00000000E+00  0.00000000E+00  0.00000000E+00
  0.00000000E+00  0.00000000E+00  0.00000000E+00
  0.00000000E+00  0.00000000E+00  0.00000000E+00
  0.00000000E+00  0.00000000E+00  0.00000000E+00
  0.00000000E+00  0.00000000E+00  0.00000000E+00
  0.00000000E+00  0.00000000E+00  0.00000000E+00
  0.00000000E+00  0.00000000E+00  0.00000000E+00
  0.00000000E+00  0.00000000E+00  0.00000000E+00
  0.00000000E+00  0.00000000E+00  0.00000000E+00
  0.00000000E+00  0.00000000E+00  0.00000000E+00
  0.00000000E+00  0.00000000E+00  0.00000000E+00
  0.00000000E+00  0.00000000E+00  0.00000000E+00
  0.00000000E+00  0.00000000E+00  0.00000000E+00
  0.00000000E+00  0.00000000E+00  0.00000000E+00
  0.00000000E+00  0.00000000E+00  0.00000000E+00
  0.00000000E+00  0.00000000E+00  0.00000000E+00
  0.00000000E+00  0.00000000E+00  0.00000000E+00
  0.00000000E+00  0.00000000E+00  0.00000000E+00
  0.00000000E+00  0.00000000E+00  0.00000000E+00
  0.00000000E+00  0.00000000E+00  0.00000000E+00
  0.00000000E+00  0.00000000E+00  0.00000000E+00
  0.00000000E+00  0.00000000E+00  0.00000000E+00
  0.00000000E+00  0.00000000E+00  0.00000000E+00
  0.00000000E+00  0.00000000E+00  0.00000000E+00
  0.00000000E+00  0.00000000E+00  0.00000000E+00
  0.00000000E+00  0.00000000E+00  0.00000000E+00
  0.00000000E+00  0.00000000E+00  0.00000000E+00
  0.00000000E+00  0.00000000E+00  0.00000000E+00
  0.00000000E+00  0.00000000E+00  0.00000000E+00
  0.00000000E+00  0.00000000E+00  0.00000000E+00
  0.00000000E+00  0.00000000E+00  0.00000000E+00
  0.00000000E+00  0.00000000E+00  0.00000000E+00
  0.00000000E+00  0.00000000E+00  0.00000000E+00
  0.00000000E+00  0.00000000E+00  0.00000000E+00
  0.00000000E+00  0.00000000E+00  0.00000000E+00
  0.00000000E+00  0.00000000E+00  0.00000000E+00
  0.00000000E+00  0.00000000E+00  0.00000000E+00
  0.00000000E+00  0.00000000E+00  0.00000000E+00
  0.00000000E+00  0.00000000E+00  0.00000000E+00
  0.00000000E+00  0.00000000E+00  0.00000000E+00
  0.00000000E+00  0.00000000E+00  0.00000000E+00
  0.00000000E+00  0.00000000E+00  0.00000000E+00
  0.00000000E+00  0.00000000E+00  0.00000000E+00
  0.00000000E+00  0.00000000E+00  0.00000000E+00
  0.00000000E+00  0.00000000E+00  0.00000000E+00
  0.00000000E+00  0.00000000E+00  0.00000000E+00
  0.00000000E+00  0.00000000E+00  0.00000000E+00
  0.00000000E+00  0.00000000E+00  0.00000000E+00
  0.00000000E+00  0.00000000E+00  0.00000000E+00
  0.00000000E+00  0.00000000E+00  0.00000000E+00
  0.00000000E+00  0.00000000E+00  0.00000000E+00
  0.00000000E+00  0.00000000E+00  0.00000000E+00
  0.00000000E+00  0.00000000E+00  0.00000000E+00
  0.00000000E+00  0.00000000E+00  0.00000000E+00
  0.00000000E+00  0.00000000E+00  0.00000000E+00
  0.00000000E+00  0.00000000E+00  0.00000000E+00
  0.00000000E+00  0.00000000E+00  0.00000000E+00
  0.00000000E+00  0.00000000E+00  0.00000000E+00
  0.00000000E+00  0.00000000E+00  0.00000000E+00
  0.00000000E+00  0.00000000E+00  0.00000000E+00
  0.00000000E+00  0.00000000E+00  0.00000000E+00
  0.00000000E+00  0.00000000E+00  0.00000000E+00
  0.00000000E+00  0.00000000E+00  0.00000000E+00
  0.00000000E+00  0.00000000E+00  0.00000000E+00
  0.00000000E+00  0.00000000E+00  0.00000000E+00
  0.00000000E+00  0.00000000E+00  0.00000000E+00
  0.00000000E+00  0.00000000E+00  0.00000000E+00
  0.00000000E+00  0.00000000E+00  0.00000000E+00
  0.00000000E+00  0.00000000E+00  0.00000000E+00
  0.00000000E+00  0.00000000E+00  0.00000000E+00
  0.00000000E+00  0.00000000E+00  0.00000000E+00
  0.00000000E+00  0.00000000E+00  0.00000000E+00
  0.00000000E+00  0.00000000E+00  0.00000000E+00
  0.00000000E+00  0.00000000E+00  0.00000000E+00
  0.00000000E+00  0.00000000E+00  0.00000000E+00
  0.00000000E+00  0.00000000E+00  0.00000000E+00
  0.00000000E+00  0.00000000E+00  0.00000000E+00
  0.00000000E+00  0.00000000E+00  0.00000000E+00
  0.00000000E+00  0.00000000E+00  0.00000000E+00
  0.00000000E+00  0.00000000E+00  0.00000000E+00
  0.00000000E+00  0.00000000E+00  0.00000000E+00
  0.00000000E+00  0.00000000E+00  0.00000000E+00
  0.00000000E+00  0.00000000E+00  0.00000000E+00
  0.00000000E+00  0.00000000E+00  0.00000000E+00
  0.00000000E+00  0.00000000E+00  0.00000000E+00
  0.00000000E+00  0.00000000E+00  0.00000000E+00
  0.00000000E+00  0.00000000E+00  0.00000000E+00
  0.00000000E+00  0.00000000E+00  0.00000000E+00
  0.00000000E+00  0.00000000E+00  0.00000000E+00
  0.00000000E+00  0.00000000E+00  0.00000000E+00
  0.00000000E+00  0.00000000E+00  0.00000000E+00
  0.00000000E+00  0.00000000E+00  0.00000000E+00
  0.00000000E+00  0.00000000E+00  0.00000000E+00
  0.00000000E+00  0.00000000E+00  0.00000000E+00
  0.00000000E+00  0.00000000E+00  0.00000000E+00
  0.00000000E+00  0.00000000E+00  0.00000000E+00
  0.00000000E+00  0.00000000E+00  0.00000000E+00
  0.00000000E+00  0.00000000E+00  0.00000000E+00
  0.00000000E+00  0.00000000E+00  0.00000000E+00
  0.00000000E+00  0.00000000E+00  0.00000000E+00
  0.00000000E+00  0.00000000E+00  0.00000000E+00
  0.00000000E+00  0.00000000E+00  0.00000000E+00
  0.00000000E+00  0.00000000E+00  0.00000000E+00
  0.00000000E+00  0.00000000E+00  0.00000000E+00
  0.00000000E+00  0.00000000E+00  0.00000000E+00
  0.00000000E+00  0.00000000E+00  0.00000000E+00
  0.00000000E+00  0.00000000E+00  0.00000000E+00
  0.00000000E+00  0.00000000E+00  0.00000000E+00
  0.00000000E+00  0.00000000E+00  0.00000000E+00
  0.00000000E+00  0.00000000E+00  0.00000000E+00
  0.00000000E+00  0.00000000E+00  0.00000000E+00
  0.00000000E+00  0.00000000E+00  0.00000000E+00
  0.00000000E+00  0.00000000E+00  0.00000000E+00
  0.00000000E+00  0.00000000E+00  0.00000000E+00
  0.00000000E+00  0.00000000E+00  0.00000000E+00
  0.00000000E+00  0.00000000E+00  0.00000000E+00
  0.00000000E+00  0.00000000E+00  0.00000000E+00
  0.00000000E+00  0.00000000E+00  0.00000000E+00
  0.00000000E+00  0.00000000E+00  0.00000000E+00
  0.00000000E+00  0.00000000E+00  0.00000000E+00
  0.00000000E+00  0.00000000E+00  0.00000000E+00
  0.00000000E+00  0.00000000E+00  0.00000000E+00
  0.00000000E+00  0.00000000E+00  0.00000000E+00
  0.00000000E+00  0.00000000E+00  0.00000000E+00
  0.00000000E+00  0.00000000E+00  0.00000000E+00
  0.00000000E+00  0.00000000E+00  0.00000000E+00
  0.00000000E+00  0.00000000E+00  0.00000000E+00
  0.00000000E+00  0.00000000E+00  0.00000000E+00
  0.00000000E+00  0.00000000E+00  0.00000000E+00
  0.00000000E+00  0.00000000E+00  0.00000000E+00
  0.00000000E+00  0.00000000E+00  0.00000000E+00
  0.00000000E+00  0.00000000E+00  0.00000000E+00
  0.00000000E+00  0.00000000E+00  0.00000000E+00
  0.00000000E+00  0.00000000E+00  0.00000000E+00
  0.00000000E+00  0.00000000E+00  0.00000000E+00
  0.00000000E+00  0.00000000E+00  0.00000000E+00
  0.00000000E+00  0.00000000E+00  0.00000000E+00
  0.00000000E+00  0.00000000E+00  0.00000000E+00
  0.00000000E+00  0.00000000E+00  0.00000000E+00
  0.00000000E+00  0.00000000E+00  0.00000000E+00
  0.00000000E+00  0.00000000E+00  0.00000000E+00
  0.00000000E+00  0.00000000E+00  0.00000000E+00
  0.00000000E+00  0.00000000E+00  0.00000000E+00
  0.00000000E+00  0.00000000E+00  0.00000000E+00
  0.00000000E+00  0.00000000E+00  0.00000000E+00
  0.00000000E+00  0.00000000E+00  0.00000000E+00
  0.00000000E+00  0.00000000E+00  0.00000000E+00
  0.00000000E+00  0.00000000E+00  0.00000000E+00
  0.00000000E+00  0.00000000E+00  0.00000000E+00
  0.00000000E+00  0.00000000E+00  0.00000000E+00
  0.00000000E+00  0.00000000E+00  0.00000000E+00
  0.00000000E+00  0.00000000E+00  0.00000000E+00
  0.00000000E+00  0.00000000E+00  0.00000000E+00
  0.00000000E+00  0.00000000E+00  0.00000000E+00
  0.00000000E+00  0.00000000E+00  0.00000000E+00
  0.00000000E+00  0.00000000E+00  0.00000000E+00
  0.00000000E+00  0.00000000E+00  0.00000000E+00
  0.00000000E+00  0.00000000E+00  0.00000000E+00
  0.00000000E+00  0.00000000E+00  0.00000000E+00
  0.00000000E+00  0.00000000E+00  0.00000000E+00
  0.00000000E+00  0.00000000E+00  0.00000000E+00
  0.00000000E+00  0.00000000E+00  0.00000000E+00
  0.00000000E+00  0.00000000E+00  0.00000000E+00
  0.00000000E+00  0.00000000E+00  0.00000000E+00
  0.00000000E+00  0.00000000E+00  0.00000000E+00
  0.00000000E+00  0.00000000E+00  0.00000000E+00
