supercell of POSCAR                     
   1.00398800000000     
    -6.2729611433599999    0.0082005604289200   10.0015927484000002
     3.1280384584799998    5.4363994576400003   10.0007801159999996
    -7.8567367181199996   13.6110857897000006  -10.0002683574999995
   Al   Sc   N 
    91     4    96
Direct
  0.4794336157311463  0.3127313261935214  0.5423509913477744
  0.0628180234765807  0.3951312167232430  0.7071396962202527
  0.1451825036820722  0.4782385633938731  0.8731363931821576
  0.4366606941363571  0.2688827498502135  0.9563344883884355
  0.0169040254203807  0.3517709537512417  0.1217698629387769
  0.1032563498514776  0.4410061361692925  0.2968378386828689
  0.1908542419005173  0.0241107476413873  0.4581912699824358
  0.2721179664411935  0.1037603271134699  0.6233855041572696
  0.3539429596772692  0.1863799707291207  0.7900996687952571
  0.2275867115759951  0.0620229297530344  0.0398480252918674
  0.3183454437864839  0.1419894393990759  0.2102136382445607
  0.3948857686478036  0.2284474104764271  0.3761538336550956
  0.0008392648403159  0.1662455509568943  0.6658245538917740
  0.0824244711208237  0.2484297682680392  0.8306725780953457
  0.1635893478343462  0.3309135372169791  0.9943101272614214
  0.4554325380318360  0.1197814126818670  0.0790695054057764
  0.0457002204672747  0.2103829409488895  0.2531101303940986
  0.1283254091342414  0.2896767573009242  0.4192573968820312
  0.2094472190228345  0.3729645979244083  0.5832094832835040
  0.2917863879950744  0.4569911195101923  0.7489372762758180
  0.3734770521388810  0.0398120655390883  0.9139270174946006
  0.4149988705445153  0.0849602547512802  0.5000993920837260
  0.9806318557752647  0.3130016517130798  0.5410779135031234
  0.5626249070131450  0.3958219687631441  0.7077734080241527
  0.6450046455761793  0.4783795463481937  0.8734256614904012
  0.9362777859208649  0.2689746777437350  0.9567159288141482
  0.5165899519724562  0.3490591506005600  0.1230759511476691
  0.6027850318829522  0.4400468538974920  0.2960332391848439
  0.6868343045424723  0.0222513034891136  0.4598272402826140
  0.7711488793436629  0.1044310891138949  0.6251057678651861
  0.8540344964203044  0.1866337661736566  0.7904731367093305
  0.7283467807615978  0.0616966380937924  0.0398889808487795
  0.8167600381574474  0.1430815826420826  0.2103717262736069
  0.8976252234810573  0.2312452782540646  0.3763752513103853
  0.5012311428967919  0.1665248169607381  0.6669567131551730
  0.5828786866563718  0.2484652642148006  0.8310923363948746
  0.6634652602008302  0.3302045927213584  0.9948392528370391
  0.9567456418740434  0.1195558113919546  0.0815075011165689
  0.5393065566814030  0.2050648092466645  0.2561499445917761
  0.6261976208710607  0.2931992301575903  0.4194948811750621
  0.7092834343614314  0.3753112119824067  0.5837982966369211
  0.7917732615255346  0.4574477129515842  0.7488640280536600
  0.8742699812122581  0.0397272436354257  0.9147360810972742
  0.8353823649571339  0.0037171784791212  0.3389259548994019
  0.9178437537512636  0.0849026107452744  0.5015764630839215
  0.4788859455590853  0.8139006144127663  0.5416655890281490
  0.0624208287510299  0.8955112720703013  0.7076899260939129
  0.1450774937333748  0.9783349209491305  0.8732659589910696
  0.4360287942108272  0.7693344944629814  0.9565813772303571
  0.0204985855515005  0.8519704923941660  0.1234161187417087
  0.1062522713685752  0.9443785029945886  0.2957796564073405
  0.1876975714026656  0.5218963446733937  0.4602774789893473
  0.2709958688058620  0.6037223187755814  0.6251013612585083
  0.3537607174564101  0.6866612643459646  0.7905291216239974
  0.2273012358770856  0.5622253529986949  0.0398237961921666
  0.3199044232225603  0.6402876277781289  0.2100937930070330
  0.3982164614532451  0.7362279686030888  0.3749186583310689
  0.0004670338407919  0.6661066947368326  0.6664930910860178
  0.0827911086866990  0.7484933217067749  0.8313271650508156
  0.1637409727425307  0.8320594977554805  0.9958365085429648
  0.4556641665288907  0.6189488609661709  0.0800649663898980
  0.0476297136467352  0.7109083342876445  0.2543002080718395
  0.1272049965584188  0.7934286508572939  0.4191398533403472
  0.2090787176671611  0.8748740243959787  0.5835711449424679
  0.2914649226202641  0.9575000509539038  0.7484253595569825
  0.3737312458794477  0.5398484007983413  0.9145768648706465
  0.3349554214208723  0.5047262306060034  0.3399125315401506
  0.4179628449370085  0.5851446113625300  0.5019355148229181
  0.9789686591000901  0.8139589306360406  0.5424181178553766
  0.5622104601675346  0.8957734143356362  0.7074379088933185
  0.6451435623004045  0.9784312170962792  0.8732186400734108
  0.9367672766284585  0.7693515401458271  0.9567864922355511
  0.5183077770911240  0.8514583239275026  0.1222433976644197
  0.5990218623215284  0.9421582373327126  0.2965480651063217
  0.6873815487449306  0.5239806995178498  0.4597129905272155
  0.7711043331092640  0.6043848798624367  0.6248169950008062
  0.8539598087617009  0.6865980622376355  0.7905366300450822
  0.7269204605617716  0.5628581165464297  0.0393380353302177
  0.8188751130540695  0.6409948166909487  0.2096832730244387
  0.8956125307715155  0.7320016799502937  0.3768479733585295
  0.5001682507771505  0.6666089345829107  0.6660837759879428
  0.5823484921665880  0.7485889693840093  0.8307963020067390
  0.6634654379828149  0.8316060032928050  0.9944955065716172
  0.9563004833378272  0.6200189591982976  0.0798787387955997
  0.5480241682669345  0.7086688905627838  0.2553030734934296
  0.6223971954567489  0.7940071499679249  0.4174933447158367
  0.7077948189976624  0.8759127004879943  0.5837403733660054
  0.7920138040812859  0.9571186860796317  0.7491320286354366
  0.8738527241798693  0.5399414263089000  0.9143702881462019
  0.8336480079693231  0.5041181762420877  0.3394642616168113
  0.9174474296587078  0.5861154259239996  0.5024802417841130
  0.2404186306875857  0.4149016386906723  0.1692056162321265
  0.7393076827299581  0.4162774927521298  0.1673065239313232
  0.2495431723767609  0.9130813273586895  0.1724793577104933
  0.7447617611291051  0.9119328157419631  0.1689869519915419
  0.0563298393159215  0.3982658227833369  0.5127743371361788
  0.1421930621846528  0.4755374484045092  0.6767249295621269
  0.2239707662362846  0.0577792343329975  0.8407763665762999
  0.0138962018252613  0.3481871475663922  0.9218624800830781
  0.0878069729631790  0.4290939120980468  0.0815969270784933
  0.1678589712965532  0.0295873023036108  0.2631869676884975
  0.2595949517888343  0.1160450866191169  0.4413915582754626
  0.3535597960805461  0.1848995168445029  0.5966774938018560
  0.4335678789195754  0.2666081835320568  0.7593241104155553
  0.3043466662483283  0.1419289866505693  0.0049858381505103
  0.4078696217878175  0.2107339624885896  0.1736936363210333
  0.4756791164940850  0.3160313980296081  0.3479969148112048
  0.0806380708422907  0.2456813515760743  0.6347906097853340
  0.1628375676678857  0.3284120986028682  0.8001169511874409
  0.2453037547898518  0.4118001075115814  0.9655024824673433
  0.0352044270173693  0.2011248305201221  0.0490052840169568
  0.1229818491745647  0.2960712464349768  0.2164742958446269
  0.2042836413688676  0.3737502490511346  0.3882067564428553
  0.2887094976958338  0.4544758137753320  0.5532591793402730
  0.3713073904448549  0.0370342948960385  0.7175996842123169
  0.4538580212467949  0.1193238817461264  0.8826650993053065
  0.3320377799021870  0.0013982976579783  0.1312162504193424
  0.4234945600362465  0.0956814043437006  0.2982387722875828
  0.4976941080008217  0.1644307234588069  0.4704344059946663
  0.5591039366972907  0.3938293487145117  0.5125681557208068
  0.6419623457004491  0.4758527756841104  0.6767953639618867
  0.7247001360422090  0.0578479932870621  0.8413985335994241
  0.5143427647299248  0.3481104866989426  0.9219404652323462
  0.5857668179673254  0.4274234432529411  0.0814656710363408
  0.6874201083002447  0.0220861236995731  0.2707794519994380
  0.7677677734988819  0.1028404201675386  0.4312932439178638
  0.8506899195480955  0.1845522049628983  0.5946888478865446
  0.9330251814899171  0.2663342699443518  0.7583471225304308
  0.8059383741020554  0.1413728113082513  0.0061015158082895
  0.9034728944859225  0.2128192959072024  0.1760484366891006
  0.9752278257560221  0.3141743543995688  0.3456525998758337
  0.5809295223795914  0.2463276617007892  0.6358240909759587
  0.6631764840223653  0.3285577082527027  0.8004220653244261
  0.7450059199832708  0.4117768005613627  0.9658219766486411
  0.5361274289667008  0.1996856763736901  0.0480841806784937
  0.6224364093955117  0.2908104218024903  0.2181120046814584
  0.7061954143656948  0.3721234617681120  0.3882114912125587
  0.7887682383456607  0.4547560487899744  0.5530368820032479
  0.8716472296318258  0.0369969802219430  0.7180490306958021
  0.9539217975377099  0.1195859778829771  0.8829489592989006
  0.8316099891398494  0.9996290085940629  0.1323849905111985
  0.9112618331068276  0.0820484837220690  0.3047449547298982
  0.9950412134867435  0.1641018219051347  0.4695772798905011
  0.0583683329863760  0.8937428907506160  0.5120988396282868
  0.1414576461668133  0.9754031642270320  0.6766024940578461
  0.2243355968249716  0.5578789837246134  0.8412431840623924
  0.0148597738476539  0.8482830248698008  0.9225840982157223
  0.0912817761504670  0.9290711039366712  0.0838879751841546
  0.1818410824378134  0.5268516430851733  0.2729149141297498
  0.2673820981968191  0.6037244383494595  0.4320732336748065
  0.3503789504098194  0.6840301907842701  0.5949740272244313
  0.4328145340632474  0.7664094230358458  0.7585980343977710
  0.3044122571705685  0.6422488143101504  0.0058729722212050
  0.4159250206983245  0.7001695277614459  0.1773653570380489
  0.4912821734782185  0.7941371680070048  0.3452555887314261
  0.0800876160639064  0.7459569931929337  0.6354641169941502
  0.1628245278004101  0.8284066143109925  0.8003511591442631
  0.2451301026031061  0.9119360002762562  0.9655010043488019
  0.0352190391291245  0.7020024913135288  0.0492909442538547
  0.1261976060150900  0.7894105800415474  0.2178683657920857
  0.2054093256822682  0.8716766405493175  0.3876529578125201
  0.2889028399593982  0.9527261147948636  0.5533662206640884
  0.3716268204228825  0.5369570207916041  0.7181012160238822
  0.4537991419251028  0.6195750746765327  0.8830060122997878
  0.3288824309269671  0.4999516456459716  0.1320567436412148
  0.4115028597367711  0.5810107964473517  0.3043652767702909
  0.4964590814050069  0.6639832832179948  0.4702973857666777
  0.5594909623157349  0.8936681995504898  0.5122976558991539
  0.6425058113511852  0.9756092375001302  0.6772193084448972
  0.7242085469101696  0.5579677353670718  0.8412185726898116
  0.5141858051269921  0.8481941999179625  0.9220255241883279
  0.5895236643648687  0.9287887449149252  0.0823120404422966
  0.6861906609497836  0.5202283183733698  0.2705680473196210
  0.7701828747234387  0.6029922162360961  0.4322253009796313
  0.8501750600132141  0.6861217021827102  0.5954171085817705
  0.9334285100431714  0.7663029030451440  0.7590550704748580
  0.8047860585815485  0.6425700257186122  0.0058294628126774
  0.9134030327856237  0.7042827669220486  0.1775636435681420
  0.9764220770266760  0.8119449858468428  0.3461488269430220
  0.5803396486947321  0.7459377974021422  0.6353839556654037
  0.6629060254825063  0.8284261438262988  0.8002776076165219
  0.7455770188097688  0.9116784111688645  0.9655067942655577
  0.5349994720477937  0.7009606515709024  0.0487856879079374
  0.6270475508079585  0.7908655535186071  0.2164002972771470
  0.7065361584204979  0.8719782150695963  0.3880911030449923
  0.7884819657714957  0.9551487597605473  0.5532770924507275
  0.8718141922765099  0.5369822308541146  0.7179078976975717
  0.9540540249417973  0.6196017467075379  0.8831063609142973
  0.8299207245555991  0.5011965582425191  0.1314217096908123
  0.9115223074094843  0.5821400779009380  0.3044159878794801
  0.9968355052533440  0.6651789127230927  0.4701358025374347
 
  0.00000000E+00  0.00000000E+00  0.00000000E+00
  0.00000000E+00  0.00000000E+00  0.00000000E+00
  0.00000000E+00  0.00000000E+00  0.00000000E+00
  0.00000000E+00  0.00000000E+00  0.00000000E+00
  0.00000000E+00  0.00000000E+00  0.00000000E+00
  0.00000000E+00  0.00000000E+00  0.00000000E+00
  0.00000000E+00  0.00000000E+00  0.00000000E+00
  0.00000000E+00  0.00000000E+00  0.00000000E+00
  0.00000000E+00  0.00000000E+00  0.00000000E+00
  0.00000000E+00  0.00000000E+00  0.00000000E+00
  0.00000000E+00  0.00000000E+00  0.00000000E+00
  0.00000000E+00  0.00000000E+00  0.00000000E+00
  0.00000000E+00  0.00000000E+00  0.00000000E+00
  0.00000000E+00  0.00000000E+00  0.00000000E+00
  0.00000000E+00  0.00000000E+00  0.00000000E+00
  0.00000000E+00  0.00000000E+00  0.00000000E+00
  0.00000000E+00  0.00000000E+00  0.00000000E+00
  0.00000000E+00  0.00000000E+00  0.00000000E+00
  0.00000000E+00  0.00000000E+00  0.00000000E+00
  0.00000000E+00  0.00000000E+00  0.00000000E+00
  0.00000000E+00  0.00000000E+00  0.00000000E+00
  0.00000000E+00  0.00000000E+00  0.00000000E+00
  0.00000000E+00  0.00000000E+00  0.00000000E+00
  0.00000000E+00  0.00000000E+00  0.00000000E+00
  0.00000000E+00  0.00000000E+00  0.00000000E+00
  0.00000000E+00  0.00000000E+00  0.00000000E+00
  0.00000000E+00  0.00000000E+00  0.00000000E+00
  0.00000000E+00  0.00000000E+00  0.00000000E+00
  0.00000000E+00  0.00000000E+00  0.00000000E+00
  0.00000000E+00  0.00000000E+00  0.00000000E+00
  0.00000000E+00  0.00000000E+00  0.00000000E+00
  0.00000000E+00  0.00000000E+00  0.00000000E+00
  0.00000000E+00  0.00000000E+00  0.00000000E+00
  0.00000000E+00  0.00000000E+00  0.00000000E+00
  0.00000000E+00  0.00000000E+00  0.00000000E+00
  0.00000000E+00  0.00000000E+00  0.00000000E+00
  0.00000000E+00  0.00000000E+00  0.00000000E+00
  0.00000000E+00  0.00000000E+00  0.00000000E+00
  0.00000000E+00  0.00000000E+00  0.00000000E+00
  0.00000000E+00  0.00000000E+00  0.00000000E+00
  0.00000000E+00  0.00000000E+00  0.00000000E+00
  0.00000000E+00  0.00000000E+00  0.00000000E+00
  0.00000000E+00  0.00000000E+00  0.00000000E+00
  0.00000000E+00  0.00000000E+00  0.00000000E+00
  0.00000000E+00  0.00000000E+00  0.00000000E+00
  0.00000000E+00  0.00000000E+00  0.00000000E+00
  0.00000000E+00  0.00000000E+00  0.00000000E+00
  0.00000000E+00  0.00000000E+00  0.00000000E+00
  0.00000000E+00  0.00000000E+00  0.00000000E+00
  0.00000000E+00  0.00000000E+00  0.00000000E+00
  0.00000000E+00  0.00000000E+00  0.00000000E+00
  0.00000000E+00  0.00000000E+00  0.00000000E+00
  0.00000000E+00  0.00000000E+00  0.00000000E+00
  0.00000000E+00  0.00000000E+00  0.00000000E+00
  0.00000000E+00  0.00000000E+00  0.00000000E+00
  0.00000000E+00  0.00000000E+00  0.00000000E+00
  0.00000000E+00  0.00000000E+00  0.00000000E+00
  0.00000000E+00  0.00000000E+00  0.00000000E+00
  0.00000000E+00  0.00000000E+00  0.00000000E+00
  0.00000000E+00  0.00000000E+00  0.00000000E+00
  0.00000000E+00  0.00000000E+00  0.00000000E+00
  0.00000000E+00  0.00000000E+00  0.00000000E+00
  0.00000000E+00  0.00000000E+00  0.00000000E+00
  0.00000000E+00  0.00000000E+00  0.00000000E+00
  0.00000000E+00  0.00000000E+00  0.00000000E+00
  0.00000000E+00  0.00000000E+00  0.00000000E+00
  0.00000000E+00  0.00000000E+00  0.00000000E+00
  0.00000000E+00  0.00000000E+00  0.00000000E+00
  0.00000000E+00  0.00000000E+00  0.00000000E+00
  0.00000000E+00  0.00000000E+00  0.00000000E+00
  0.00000000E+00  0.00000000E+00  0.00000000E+00
  0.00000000E+00  0.00000000E+00  0.00000000E+00
  0.00000000E+00  0.00000000E+00  0.00000000E+00
  0.00000000E+00  0.00000000E+00  0.00000000E+00
  0.00000000E+00  0.00000000E+00  0.00000000E+00
  0.00000000E+00  0.00000000E+00  0.00000000E+00
  0.00000000E+00  0.00000000E+00  0.00000000E+00
  0.00000000E+00  0.00000000E+00  0.00000000E+00
  0.00000000E+00  0.00000000E+00  0.00000000E+00
  0.00000000E+00  0.00000000E+00  0.00000000E+00
  0.00000000E+00  0.00000000E+00  0.00000000E+00
  0.00000000E+00  0.00000000E+00  0.00000000E+00
  0.00000000E+00  0.00000000E+00  0.00000000E+00
  0.00000000E+00  0.00000000E+00  0.00000000E+00
  0.00000000E+00  0.00000000E+00  0.00000000E+00
  0.00000000E+00  0.00000000E+00  0.00000000E+00
  0.00000000E+00  0.00000000E+00  0.00000000E+00
  0.00000000E+00  0.00000000E+00  0.00000000E+00
  0.00000000E+00  0.00000000E+00  0.00000000E+00
  0.00000000E+00  0.00000000E+00  0.00000000E+00
  0.00000000E+00  0.00000000E+00  0.00000000E+00
  0.00000000E+00  0.00000000E+00  0.00000000E+00
  0.00000000E+00  0.00000000E+00  0.00000000E+00
  0.00000000E+00  0.00000000E+00  0.00000000E+00
  0.00000000E+00  0.00000000E+00  0.00000000E+00
  0.00000000E+00  0.00000000E+00  0.00000000E+00
  0.00000000E+00  0.00000000E+00  0.00000000E+00
  0.00000000E+00  0.00000000E+00  0.00000000E+00
  0.00000000E+00  0.00000000E+00  0.00000000E+00
  0.00000000E+00  0.00000000E+00  0.00000000E+00
  0.00000000E+00  0.00000000E+00  0.00000000E+00
  0.00000000E+00  0.00000000E+00  0.00000000E+00
  0.00000000E+00  0.00000000E+00  0.00000000E+00
  0.00000000E+00  0.00000000E+00  0.00000000E+00
  0.00000000E+00  0.00000000E+00  0.00000000E+00
  0.00000000E+00  0.00000000E+00  0.00000000E+00
  0.00000000E+00  0.00000000E+00  0.00000000E+00
  0.00000000E+00  0.00000000E+00  0.00000000E+00
  0.00000000E+00  0.00000000E+00  0.00000000E+00
  0.00000000E+00  0.00000000E+00  0.00000000E+00
  0.00000000E+00  0.00000000E+00  0.00000000E+00
  0.00000000E+00  0.00000000E+00  0.00000000E+00
  0.00000000E+00  0.00000000E+00  0.00000000E+00
  0.00000000E+00  0.00000000E+00  0.00000000E+00
  0.00000000E+00  0.00000000E+00  0.00000000E+00
  0.00000000E+00  0.00000000E+00  0.00000000E+00
  0.00000000E+00  0.00000000E+00  0.00000000E+00
  0.00000000E+00  0.00000000E+00  0.00000000E+00
  0.00000000E+00  0.00000000E+00  0.00000000E+00
  0.00000000E+00  0.00000000E+00  0.00000000E+00
  0.00000000E+00  0.00000000E+00  0.00000000E+00
  0.00000000E+00  0.00000000E+00  0.00000000E+00
  0.00000000E+00  0.00000000E+00  0.00000000E+00
  0.00000000E+00  0.00000000E+00  0.00000000E+00
  0.00000000E+00  0.00000000E+00  0.00000000E+00
  0.00000000E+00  0.00000000E+00  0.00000000E+00
  0.00000000E+00  0.00000000E+00  0.00000000E+00
  0.00000000E+00  0.00000000E+00  0.00000000E+00
  0.00000000E+00  0.00000000E+00  0.00000000E+00
  0.00000000E+00  0.00000000E+00  0.00000000E+00
  0.00000000E+00  0.00000000E+00  0.00000000E+00
  0.00000000E+00  0.00000000E+00  0.00000000E+00
  0.00000000E+00  0.00000000E+00  0.00000000E+00
  0.00000000E+00  0.00000000E+00  0.00000000E+00
  0.00000000E+00  0.00000000E+00  0.00000000E+00
  0.00000000E+00  0.00000000E+00  0.00000000E+00
  0.00000000E+00  0.00000000E+00  0.00000000E+00
  0.00000000E+00  0.00000000E+00  0.00000000E+00
  0.00000000E+00  0.00000000E+00  0.00000000E+00
  0.00000000E+00  0.00000000E+00  0.00000000E+00
  0.00000000E+00  0.00000000E+00  0.00000000E+00
  0.00000000E+00  0.00000000E+00  0.00000000E+00
  0.00000000E+00  0.00000000E+00  0.00000000E+00
  0.00000000E+00  0.00000000E+00  0.00000000E+00
  0.00000000E+00  0.00000000E+00  0.00000000E+00
  0.00000000E+00  0.00000000E+00  0.00000000E+00
  0.00000000E+00  0.00000000E+00  0.00000000E+00
  0.00000000E+00  0.00000000E+00  0.00000000E+00
  0.00000000E+00  0.00000000E+00  0.00000000E+00
  0.00000000E+00  0.00000000E+00  0.00000000E+00
  0.00000000E+00  0.00000000E+00  0.00000000E+00
  0.00000000E+00  0.00000000E+00  0.00000000E+00
  0.00000000E+00  0.00000000E+00  0.00000000E+00
  0.00000000E+00  0.00000000E+00  0.00000000E+00
  0.00000000E+00  0.00000000E+00  0.00000000E+00
  0.00000000E+00  0.00000000E+00  0.00000000E+00
  0.00000000E+00  0.00000000E+00  0.00000000E+00
  0.00000000E+00  0.00000000E+00  0.00000000E+00
  0.00000000E+00  0.00000000E+00  0.00000000E+00
  0.00000000E+00  0.00000000E+00  0.00000000E+00
  0.00000000E+00  0.00000000E+00  0.00000000E+00
  0.00000000E+00  0.00000000E+00  0.00000000E+00
  0.00000000E+00  0.00000000E+00  0.00000000E+00
  0.00000000E+00  0.00000000E+00  0.00000000E+00
  0.00000000E+00  0.00000000E+00  0.00000000E+00
  0.00000000E+00  0.00000000E+00  0.00000000E+00
  0.00000000E+00  0.00000000E+00  0.00000000E+00
  0.00000000E+00  0.00000000E+00  0.00000000E+00
  0.00000000E+00  0.00000000E+00  0.00000000E+00
  0.00000000E+00  0.00000000E+00  0.00000000E+00
  0.00000000E+00  0.00000000E+00  0.00000000E+00
  0.00000000E+00  0.00000000E+00  0.00000000E+00
  0.00000000E+00  0.00000000E+00  0.00000000E+00
  0.00000000E+00  0.00000000E+00  0.00000000E+00
  0.00000000E+00  0.00000000E+00  0.00000000E+00
  0.00000000E+00  0.00000000E+00  0.00000000E+00
  0.00000000E+00  0.00000000E+00  0.00000000E+00
  0.00000000E+00  0.00000000E+00  0.00000000E+00
  0.00000000E+00  0.00000000E+00  0.00000000E+00
  0.00000000E+00  0.00000000E+00  0.00000000E+00
  0.00000000E+00  0.00000000E+00  0.00000000E+00
  0.00000000E+00  0.00000000E+00  0.00000000E+00
  0.00000000E+00  0.00000000E+00  0.00000000E+00
  0.00000000E+00  0.00000000E+00  0.00000000E+00
  0.00000000E+00  0.00000000E+00  0.00000000E+00
  0.00000000E+00  0.00000000E+00  0.00000000E+00
  0.00000000E+00  0.00000000E+00  0.00000000E+00
  0.00000000E+00  0.00000000E+00  0.00000000E+00
  0.00000000E+00  0.00000000E+00  0.00000000E+00
  0.00000000E+00  0.00000000E+00  0.00000000E+00
  0.00000000E+00  0.00000000E+00  0.00000000E+00
