supercell of POSCAR                     
   1.00398800000000     
    -6.2729611433599999    0.0082005604289200   10.0015927484000002
     3.1280384584799998    5.4363994576400003   10.0007801159999996
    -7.8567367181199996   13.6110857897000006  -10.0002683574999995
   Al   Sc   N 
    92     4    95
Direct
  0.4802873781040091  0.3141908196457095  0.5443139378706618
  0.0618568974089868  0.3959428809095300  0.7077840362291568
  0.1440871342447494  0.4787346550911167  0.8720797228708506
  0.4354443970620068  0.2696085656445746  0.9553983170109888
  0.0176709617008228  0.3530240057310010  0.1211727015159667
  0.1025717445402208  0.4475027352574443  0.2985264942125667
  0.1887936996283130  0.0231432197385573  0.4624594699606419
  0.2709923981049300  0.1048347441019644  0.6260849672319679
  0.3530211985200538  0.1874128729958926  0.7900389536628012
  0.2013479540307301  0.0769155240629615  0.0155772746835368
  0.3147841743182553  0.1737866992478558  0.2287557720710112
  0.3993584164613608  0.2338046454564164  0.3818758659055703
  0.0002114696872439  0.1664877638361801  0.6666087086968275
  0.0816449444720746  0.2488950962880025  0.8300856774099401
  0.1610122699373591  0.3359396892198063  0.9934117989700013
  0.4543018878517628  0.1199528166198292  0.0792547811570472
  0.0440617658636953  0.2128295503215085  0.2545899004120287
  0.1264237696223560  0.2930610341354338  0.4203899094008889
  0.2091747982736436  0.3751394912822335  0.5847560112111481
  0.2913197284516471  0.4571217518579402  0.7486628114558727
  0.3754485663620670  0.0384179806505145  0.9115197518834250
  0.3357209845601687  0.0031825049626732  0.3417833500187371
  0.4186899088397809  0.0846747772407141  0.5039331449347557
  0.9795845621572568  0.3141378671000510  0.5433937777433471
  0.5622116559597572  0.3955738319186821  0.7077648668068122
  0.6428122934262035  0.4789452843537205  0.8714098078029906
  0.9295545664144029  0.2726714274116517  0.9527369419028844
  0.5199549832545642  0.3498696513735595  0.1208621783272505
  0.6057309402062998  0.4408485019747772  0.2971276471965894
  0.6897148372229651  0.0219666231508526  0.4618814065395043
  0.7711881943294472  0.1043835782606735  0.6257107697412820
  0.8525093084679298  0.1868691009019443  0.7894923522540651
  0.7256899830848482  0.0636058732264146  0.0379341980280330
  0.8193541490982383  0.1423453203187677  0.2096639135632117
  0.8964884616832691  0.2330485831078875  0.3781916195527870
  0.5005254845744957  0.1663463451750005  0.6669969636694688
  0.5818216011045934  0.2483991810074073  0.8304551307956132
  0.6620486522354128  0.3308188726383534  0.9933697620447646
  0.9533353470087036  0.1205045189428446  0.0791576006044750
  0.5492695525670328  0.2115021039546505  0.2544441393954173
  0.6273479735318190  0.2928880895923527  0.4205194625449948
  0.7093379562482980  0.3751917842206609  0.5846569917829001
  0.7912593464113797  0.4573270846803794  0.7486520267039154
  0.8726877281318721  0.0394595859959068  0.9133655804937462
  0.8350131357537975  0.0052679046115145  0.3399384514283028
  0.9184251160921875  0.0851037762493831  0.5029878807965957
  0.4798654389600188  0.8136300677826185  0.5435001879268597
  0.0614277036577633  0.8951930209646974  0.7067678512899747
  0.1420283725157461  0.9762960511897489  0.8681859136718941
  0.4363350577035376  0.7678459324098839  0.9540049701659044
  0.0125286129291879  0.8518299217581955  0.1180540710629643
  0.1018932658896219  0.9460126849004311  0.3006560779991005
  0.1889134738152407  0.5229903674929162  0.4616459794438654
  0.2711605391005421  0.6042958487693681  0.6255311709442850
  0.3533338896228599  0.6858281418069438  0.7893985567551738
  0.2270298657456706  0.5626541990311722  0.0377767699725666
  0.3257028911181692  0.6345678860744499  0.2100682324897036
  0.3981354849012533  0.7310451177795514  0.3780229101208832
  0.0001903835384667  0.6660841037689096  0.6664907851356716
  0.0812349526075735  0.7474484884482422  0.8298735471277965
  0.1618926166489061  0.8294301376246125  0.9928345352574652
  0.4553717582790924  0.6170093222346722  0.0784634602609273
  0.0476018102418863  0.7134961071658950  0.2533743496288068
  0.1274705899517485  0.7927914733817829  0.4205776645924146
  0.2093206100880280  0.8750575808460823  0.5847198915246210
  0.2915211805863294  0.9570068158909066  0.7483849928921131
  0.3729314244049675  0.5393268744389275  0.9129805991557660
  0.3356316802144761  0.5044021875296849  0.3396557290315414
  0.4186551866859318  0.5848710819140237  0.5029162752172098
  0.9798307711375784  0.8136393297859854  0.5431819914885381
  0.5620188454888719  0.8958678014483752  0.7078883381383392
  0.6444076973782202  0.9786073126065418  0.8724339894622872
  0.9346311792911521  0.7691457800593682  0.9546571027483495
  0.5582539957658170  0.8153814058280773  0.1202581279348109
  0.6068339157079450  0.9415084357617971  0.2978437303750994
  0.6887187274884994  0.5225547954834013  0.4613921305032349
  0.7710555049673005  0.6045177723143738  0.6256117586417744
  0.8527799256284965  0.6867584668333251  0.7898654092108046
  0.7312195484405564  0.5561507752850048  0.0367460150192258
  0.8251849133457441  0.6391809008517271  0.2106241459778104
  0.8978356143308162  0.7327760387698277  0.3777883554651282
  0.5004160688047250  0.6662260093215124  0.6665600058008749
  0.5821064718604063  0.7480893026849955  0.8299136554186433
  0.6621194297269142  0.8312427635940480  0.9927397655301178
  0.9549731302180149  0.6209197159116187  0.0786795872959232
  0.5473294136386571  0.7100989371685671  0.2550805468729465
  0.6275285469593399  0.7925804500495843  0.4206236908559973
  0.7093812178626777  0.8749694025681052  0.5848310975561901
  0.7911689895957963  0.9571200185036020  0.7488064886662613
  0.8724210429188943  0.5407050140698573  0.9130200687647800
  0.8347474556411285  0.5047279038081740  0.3399641160486837
  0.9184198239913854  0.5851277265917574  0.5027912336971880
  0.2432122320764307  0.4168169385545966  0.1664799416673262
  0.7437017556257501  0.4138131672557392  0.1684805152702680
  0.2253000090907022  0.8971796027249255  0.1756555152716430
  0.7439602661411229  0.9167981945631212  0.1686881065460994
  0.0591663374709555  0.3940630623209742  0.5116025676209617
  0.1414442806454730  0.4756090313274726  0.6766349342480638
  0.2232728659356340  0.0579541194085138  0.8417791838649578
  0.0134701394625623  0.3483353802702283  0.9227306284413501
  0.0887913749088938  0.4299720515195915  0.0828975758686425
  0.1835958850500106  0.0297479320407703  0.2723097291954133
  0.2685701229683701  0.1037243800241683  0.4319133797914887
  0.3506083727517790  0.1848412012478988  0.5950114675064384
  0.4324673068101959  0.2666390417439644  0.7589110579075395
  0.3035548929135956  0.1425999773310309  0.0064796949716808
  0.4087654230226718  0.2034176264534793  0.1778723628074843
  0.4759269032687001  0.3120664205752632  0.3450846555463158
  0.0800449358068960  0.2460541323951801  0.6353300705151597
  0.1623617818738410  0.3284294285141911  0.8006125765402743
  0.2449888870823855  0.4123505212867826  0.9658517221973852
  0.0320179491166783  0.2035107941089294  0.0490605598719966
  0.1233191850963564  0.2945956942695247  0.2179836891859637
  0.2069107584787773  0.3717618240663825  0.3872491374192322
  0.2890316309435477  0.4543312451047754  0.5528442035032555
  0.3712227892080193  0.0371952875609622  0.7183966167902511
  0.4534068856703328  0.1200694837094147  0.8833812483094050
  0.4157043635985644  0.0802957594989522  0.3081340629297458
  0.4989439189653453  0.1636043888435950  0.4713617753337687
  0.5589939218588569  0.3936526094113262  0.5116515625233902
  0.6414761635521060  0.4755897483903482  0.6766289052720467
  0.7235970954632407  0.0581357658891193  0.8414644734157903
  0.5133486428733676  0.3484052745697923  0.9224857096010339
  0.5904175409854986  0.4277734992769595  0.0827901871094170
  0.6828131713373011  0.0268250567468726  0.2711285482286172
  0.7684988730078928  0.1030215765466309  0.4309819341849632
  0.8505897390333743  0.1845779882549365  0.5944909222474308
  0.9323764817098521  0.2664624687387445  0.7588542128882807
  0.8040370691052132  0.1427488208581948  0.0060097747688843
  0.9126401988568631  0.2063394746502496  0.1772661893315828
  0.9759565772633820  0.3135048453335045  0.3456627617734966
  0.5806426011617489  0.2456539780064659  0.6356856890339770
  0.6624734446270040  0.3281676952743737  0.8004472548053698
  0.7429872850582981  0.4116316320086497  0.9648166564303509
  0.5334191002987723  0.2003599621065959  0.0498000761140318
  0.6250047130513252  0.2927060849491738  0.2171731030810733
  0.7058818532697444  0.3720501265028204  0.3878100663403785
  0.7887744735295499  0.4546891005729066  0.5529238391714699
  0.8714270355329887  0.0366274053302007  0.7180045241732671
  0.9541473204788034  0.1188826108735128  0.8831535182156145
  0.8293925785998368  0.0023540411901521  0.1318052814233468
  0.9116500565142971  0.0834483663301313  0.3042394833580815
  0.9974201788139183  0.1643763012847970  0.4696522877387181
  0.0591392179418264  0.8938171523143552  0.5115910473159815
  0.1412971987815226  0.9756506536438891  0.6767065378988590
  0.2234809310507373  0.5579952782072439  0.8412047711414630
  0.0130376513383084  0.8482601731964792  0.9218930525978664
  0.0885286718246832  0.9303329919685481  0.0813266815264555
  0.1832003989074948  0.5279808036151081  0.2699743145392333
  0.2688575875993919  0.6028778329842979  0.4306340424984541
  0.3506182388711281  0.6845023704016953  0.5943823524545166
  0.4321900580964808  0.7665525431833728  0.7587177808769923
  0.3046888904564540  0.6426925800787089  0.0059508342589680
  0.4141500069270521  0.7074719385849946  0.1766213227386544
  0.4768062939962121  0.8125017249964088  0.3454864255697103
  0.0802341896105574  0.7452761271310848  0.6348293581675435
  0.1621978660997883  0.8263318259769932  0.7991244902179702
  0.2442917864429006  0.9093598119284465  0.9640332189927747
  0.0349275552933648  0.7008805751825875  0.0482749432027632
  0.1309948513643988  0.7983336559046279  0.2153059956719119
  0.2072997367677161  0.8722015599609492  0.3884735429672972
  0.2891484167672402  0.9546862923129495  0.5535097668254920
  0.3714904278285474  0.5363906140086883  0.7176816431636368
  0.4527215895778198  0.6196218984064217  0.8827346490117591
  0.3323886195472383  0.5003209783511977  0.1315077717252393
  0.4141478298736558  0.5809598748988876  0.3043650327264444
  0.4975959997224635  0.6641686072445623  0.4697157131806833
  0.5592546475088795  0.8936091894491156  0.5117367781850319
  0.6414192486628210  0.9756391487793792  0.6766993214284369
  0.7233541408640747  0.5581263545681168  0.8413846764915647
  0.5132335632502603  0.8485215146721217  0.9223805044265845
  0.5833305021097814  0.9284652364753825  0.0840065440426869
  0.6831925172758275  0.5262225577785316  0.2713193496260260
  0.7686278550118786  0.6031796726845258  0.4309911612504109
  0.8506687856999022  0.6844664958154283  0.5943005237088741
  0.9319178973354028  0.7663579821970146  0.7584373152531114
  0.8033571998834717  0.6431274754841638  0.0065788691099584
  0.9121677924583835  0.7092989573356334  0.1772001806500185
  0.9777775288798907  0.8134948281234955  0.3444857636198648
  0.5802323893286925  0.7459573156175665  0.6354274039384720
  0.6622569036119828  0.8287215413698945  0.8007474952887819
  0.7437427473184641  0.9124822648150968  0.9666838256562755
  0.5359479008778223  0.6963981220225222  0.0474082436674337
  0.6274872126253825  0.7913975410429117  0.2188569374944080
  0.7070549676839804  0.8718008494082241  0.3878359178356590
  0.7893279383684444  0.9542299374941905  0.5531791561563466
  0.8711384602411627  0.5369392865078737  0.7179445438105247
  0.9531348616998656  0.6194673195592131  0.8830467256900505
  0.8305162592596531  0.5021967944810228  0.1323292949906900
  0.9127807073127698  0.5828330808013007  0.3046981156205746
  0.9978064119326433  0.6643092618164985  0.4692147066603738
 
  0.00000000E+00  0.00000000E+00  0.00000000E+00
  0.00000000E+00  0.00000000E+00  0.00000000E+00
  0.00000000E+00  0.00000000E+00  0.00000000E+00
  0.00000000E+00  0.00000000E+00  0.00000000E+00
  0.00000000E+00  0.00000000E+00  0.00000000E+00
  0.00000000E+00  0.00000000E+00  0.00000000E+00
  0.00000000E+00  0.00000000E+00  0.00000000E+00
  0.00000000E+00  0.00000000E+00  0.00000000E+00
  0.00000000E+00  0.00000000E+00  0.00000000E+00
  0.00000000E+00  0.00000000E+00  0.00000000E+00
  0.00000000E+00  0.00000000E+00  0.00000000E+00
  0.00000000E+00  0.00000000E+00  0.00000000E+00
  0.00000000E+00  0.00000000E+00  0.00000000E+00
  0.00000000E+00  0.00000000E+00  0.00000000E+00
  0.00000000E+00  0.00000000E+00  0.00000000E+00
  0.00000000E+00  0.00000000E+00  0.00000000E+00
  0.00000000E+00  0.00000000E+00  0.00000000E+00
  0.00000000E+00  0.00000000E+00  0.00000000E+00
  0.00000000E+00  0.00000000E+00  0.00000000E+00
  0.00000000E+00  0.00000000E+00  0.00000000E+00
  0.00000000E+00  0.00000000E+00  0.00000000E+00
  0.00000000E+00  0.00000000E+00  0.00000000E+00
  0.00000000E+00  0.00000000E+00  0.00000000E+00
  0.00000000E+00  0.00000000E+00  0.00000000E+00
  0.00000000E+00  0.00000000E+00  0.00000000E+00
  0.00000000E+00  0.00000000E+00  0.00000000E+00
  0.00000000E+00  0.00000000E+00  0.00000000E+00
  0.00000000E+00  0.00000000E+00  0.00000000E+00
  0.00000000E+00  0.00000000E+00  0.00000000E+00
  0.00000000E+00  0.00000000E+00  0.00000000E+00
  0.00000000E+00  0.00000000E+00  0.00000000E+00
  0.00000000E+00  0.00000000E+00  0.00000000E+00
  0.00000000E+00  0.00000000E+00  0.00000000E+00
  0.00000000E+00  0.00000000E+00  0.00000000E+00
  0.00000000E+00  0.00000000E+00  0.00000000E+00
  0.00000000E+00  0.00000000E+00  0.00000000E+00
  0.00000000E+00  0.00000000E+00  0.00000000E+00
  0.00000000E+00  0.00000000E+00  0.00000000E+00
  0.00000000E+00  0.00000000E+00  0.00000000E+00
  0.00000000E+00  0.00000000E+00  0.00000000E+00
  0.00000000E+00  0.00000000E+00  0.00000000E+00
  0.00000000E+00  0.00000000E+00  0.00000000E+00
  0.00000000E+00  0.00000000E+00  0.00000000E+00
  0.00000000E+00  0.00000000E+00  0.00000000E+00
  0.00000000E+00  0.00000000E+00  0.00000000E+00
  0.00000000E+00  0.00000000E+00  0.00000000E+00
  0.00000000E+00  0.00000000E+00  0.00000000E+00
  0.00000000E+00  0.00000000E+00  0.00000000E+00
  0.00000000E+00  0.00000000E+00  0.00000000E+00
  0.00000000E+00  0.00000000E+00  0.00000000E+00
  0.00000000E+00  0.00000000E+00  0.00000000E+00
  0.00000000E+00  0.00000000E+00  0.00000000E+00
  0.00000000E+00  0.00000000E+00  0.00000000E+00
  0.00000000E+00  0.00000000E+00  0.00000000E+00
  0.00000000E+00  0.00000000E+00  0.00000000E+00
  0.00000000E+00  0.00000000E+00  0.00000000E+00
  0.00000000E+00  0.00000000E+00  0.00000000E+00
  0.00000000E+00  0.00000000E+00  0.00000000E+00
  0.00000000E+00  0.00000000E+00  0.00000000E+00
  0.00000000E+00  0.00000000E+00  0.00000000E+00
  0.00000000E+00  0.00000000E+00  0.00000000E+00
  0.00000000E+00  0.00000000E+00  0.00000000E+00
  0.00000000E+00  0.00000000E+00  0.00000000E+00
  0.00000000E+00  0.00000000E+00  0.00000000E+00
  0.00000000E+00  0.00000000E+00  0.00000000E+00
  0.00000000E+00  0.00000000E+00  0.00000000E+00
  0.00000000E+00  0.00000000E+00  0.00000000E+00
  0.00000000E+00  0.00000000E+00  0.00000000E+00
  0.00000000E+00  0.00000000E+00  0.00000000E+00
  0.00000000E+00  0.00000000E+00  0.00000000E+00
  0.00000000E+00  0.00000000E+00  0.00000000E+00
  0.00000000E+00  0.00000000E+00  0.00000000E+00
  0.00000000E+00  0.00000000E+00  0.00000000E+00
  0.00000000E+00  0.00000000E+00  0.00000000E+00
  0.00000000E+00  0.00000000E+00  0.00000000E+00
  0.00000000E+00  0.00000000E+00  0.00000000E+00
  0.00000000E+00  0.00000000E+00  0.00000000E+00
  0.00000000E+00  0.00000000E+00  0.00000000E+00
  0.00000000E+00  0.00000000E+00  0.00000000E+00
  0.00000000E+00  0.00000000E+00  0.00000000E+00
  0.00000000E+00  0.00000000E+00  0.00000000E+00
  0.00000000E+00  0.00000000E+00  0.00000000E+00
  0.00000000E+00  0.00000000E+00  0.00000000E+00
  0.00000000E+00  0.00000000E+00  0.00000000E+00
  0.00000000E+00  0.00000000E+00  0.00000000E+00
  0.00000000E+00  0.00000000E+00  0.00000000E+00
  0.00000000E+00  0.00000000E+00  0.00000000E+00
  0.00000000E+00  0.00000000E+00  0.00000000E+00
  0.00000000E+00  0.00000000E+00  0.00000000E+00
  0.00000000E+00  0.00000000E+00  0.00000000E+00
  0.00000000E+00  0.00000000E+00  0.00000000E+00
  0.00000000E+00  0.00000000E+00  0.00000000E+00
  0.00000000E+00  0.00000000E+00  0.00000000E+00
  0.00000000E+00  0.00000000E+00  0.00000000E+00
  0.00000000E+00  0.00000000E+00  0.00000000E+00
  0.00000000E+00  0.00000000E+00  0.00000000E+00
  0.00000000E+00  0.00000000E+00  0.00000000E+00
  0.00000000E+00  0.00000000E+00  0.00000000E+00
  0.00000000E+00  0.00000000E+00  0.00000000E+00
  0.00000000E+00  0.00000000E+00  0.00000000E+00
  0.00000000E+00  0.00000000E+00  0.00000000E+00
  0.00000000E+00  0.00000000E+00  0.00000000E+00
  0.00000000E+00  0.00000000E+00  0.00000000E+00
  0.00000000E+00  0.00000000E+00  0.00000000E+00
  0.00000000E+00  0.00000000E+00  0.00000000E+00
  0.00000000E+00  0.00000000E+00  0.00000000E+00
  0.00000000E+00  0.00000000E+00  0.00000000E+00
  0.00000000E+00  0.00000000E+00  0.00000000E+00
  0.00000000E+00  0.00000000E+00  0.00000000E+00
  0.00000000E+00  0.00000000E+00  0.00000000E+00
  0.00000000E+00  0.00000000E+00  0.00000000E+00
  0.00000000E+00  0.00000000E+00  0.00000000E+00
  0.00000000E+00  0.00000000E+00  0.00000000E+00
  0.00000000E+00  0.00000000E+00  0.00000000E+00
  0.00000000E+00  0.00000000E+00  0.00000000E+00
  0.00000000E+00  0.00000000E+00  0.00000000E+00
  0.00000000E+00  0.00000000E+00  0.00000000E+00
  0.00000000E+00  0.00000000E+00  0.00000000E+00
  0.00000000E+00  0.00000000E+00  0.00000000E+00
  0.00000000E+00  0.00000000E+00  0.00000000E+00
  0.00000000E+00  0.00000000E+00  0.00000000E+00
  0.00000000E+00  0.00000000E+00  0.00000000E+00
  0.00000000E+00  0.00000000E+00  0.00000000E+00
  0.00000000E+00  0.00000000E+00  0.00000000E+00
  0.00000000E+00  0.00000000E+00  0.00000000E+00
  0.00000000E+00  0.00000000E+00  0.00000000E+00
  0.00000000E+00  0.00000000E+00  0.00000000E+00
  0.00000000E+00  0.00000000E+00  0.00000000E+00
  0.00000000E+00  0.00000000E+00  0.00000000E+00
  0.00000000E+00  0.00000000E+00  0.00000000E+00
  0.00000000E+00  0.00000000E+00  0.00000000E+00
  0.00000000E+00  0.00000000E+00  0.00000000E+00
  0.00000000E+00  0.00000000E+00  0.00000000E+00
  0.00000000E+00  0.00000000E+00  0.00000000E+00
  0.00000000E+00  0.00000000E+00  0.00000000E+00
  0.00000000E+00  0.00000000E+00  0.00000000E+00
  0.00000000E+00  0.00000000E+00  0.00000000E+00
  0.00000000E+00  0.00000000E+00  0.00000000E+00
  0.00000000E+00  0.00000000E+00  0.00000000E+00
  0.00000000E+00  0.00000000E+00  0.00000000E+00
  0.00000000E+00  0.00000000E+00  0.00000000E+00
  0.00000000E+00  0.00000000E+00  0.00000000E+00
  0.00000000E+00  0.00000000E+00  0.00000000E+00
  0.00000000E+00  0.00000000E+00  0.00000000E+00
  0.00000000E+00  0.00000000E+00  0.00000000E+00
  0.00000000E+00  0.00000000E+00  0.00000000E+00
  0.00000000E+00  0.00000000E+00  0.00000000E+00
  0.00000000E+00  0.00000000E+00  0.00000000E+00
  0.00000000E+00  0.00000000E+00  0.00000000E+00
  0.00000000E+00  0.00000000E+00  0.00000000E+00
  0.00000000E+00  0.00000000E+00  0.00000000E+00
  0.00000000E+00  0.00000000E+00  0.00000000E+00
  0.00000000E+00  0.00000000E+00  0.00000000E+00
  0.00000000E+00  0.00000000E+00  0.00000000E+00
  0.00000000E+00  0.00000000E+00  0.00000000E+00
  0.00000000E+00  0.00000000E+00  0.00000000E+00
  0.00000000E+00  0.00000000E+00  0.00000000E+00
  0.00000000E+00  0.00000000E+00  0.00000000E+00
  0.00000000E+00  0.00000000E+00  0.00000000E+00
  0.00000000E+00  0.00000000E+00  0.00000000E+00
  0.00000000E+00  0.00000000E+00  0.00000000E+00
  0.00000000E+00  0.00000000E+00  0.00000000E+00
  0.00000000E+00  0.00000000E+00  0.00000000E+00
  0.00000000E+00  0.00000000E+00  0.00000000E+00
  0.00000000E+00  0.00000000E+00  0.00000000E+00
  0.00000000E+00  0.00000000E+00  0.00000000E+00
  0.00000000E+00  0.00000000E+00  0.00000000E+00
  0.00000000E+00  0.00000000E+00  0.00000000E+00
  0.00000000E+00  0.00000000E+00  0.00000000E+00
  0.00000000E+00  0.00000000E+00  0.00000000E+00
  0.00000000E+00  0.00000000E+00  0.00000000E+00
  0.00000000E+00  0.00000000E+00  0.00000000E+00
  0.00000000E+00  0.00000000E+00  0.00000000E+00
  0.00000000E+00  0.00000000E+00  0.00000000E+00
  0.00000000E+00  0.00000000E+00  0.00000000E+00
  0.00000000E+00  0.00000000E+00  0.00000000E+00
  0.00000000E+00  0.00000000E+00  0.00000000E+00
  0.00000000E+00  0.00000000E+00  0.00000000E+00
  0.00000000E+00  0.00000000E+00  0.00000000E+00
  0.00000000E+00  0.00000000E+00  0.00000000E+00
  0.00000000E+00  0.00000000E+00  0.00000000E+00
  0.00000000E+00  0.00000000E+00  0.00000000E+00
  0.00000000E+00  0.00000000E+00  0.00000000E+00
  0.00000000E+00  0.00000000E+00  0.00000000E+00
  0.00000000E+00  0.00000000E+00  0.00000000E+00
  0.00000000E+00  0.00000000E+00  0.00000000E+00
  0.00000000E+00  0.00000000E+00  0.00000000E+00
  0.00000000E+00  0.00000000E+00  0.00000000E+00
  0.00000000E+00  0.00000000E+00  0.00000000E+00
  0.00000000E+00  0.00000000E+00  0.00000000E+00
  0.00000000E+00  0.00000000E+00  0.00000000E+00
