supercell of POSCAR                     
   1.00398800000000     
    -6.2729611433599999    0.0082005604289200   10.0015927484000002
     3.1280384584799998    5.4363994576400003   10.0007801159999996
    -7.8567367181199996   13.6110857897000006  -10.0002683574999995
   Al   Sc   N 
    92     4    95
Direct
  0.4782298205036710  0.3147865945449624  0.5412251476867809
  0.0581125980125634  0.4304687291461988  0.7254658774703131
  0.1468764009994104  0.4803106720487946  0.8776947713594581
  0.4369829086584858  0.2694060659350015  0.9576436077653838
  0.0176961937333076  0.3515836012207458  0.1220366567090281
  0.1035619816865676  0.4419839951656357  0.2953227332742117
  0.1890260852303101  0.0213057833113126  0.4584163880601935
  0.3139341926286292  0.0722544217399985  0.6229133134185929
  0.3554479634860286  0.1875496084290518  0.7919346291584048
  0.2275362537118966  0.0623493398704085  0.0399490940095433
  0.3191876261989108  0.1411053020788273  0.2090890498981608
  0.3972582168273959  0.2314073169441357  0.3751683683739415
  0.9712745041217801  0.1377164506982140  0.6782358011117537
  0.0823067272605869  0.2474614221598301  0.8326368032459257
  0.1638172307978039  0.3307216574234104  0.9956180492293996
  0.4564638543551567  0.1195101992813576  0.0799217846926439
  0.0468382847134805  0.2109853761037357  0.2524435412969197
  0.1290959243270393  0.2909391651769297  0.4165475341294282
  0.2087948439832985  0.3756882330164402  0.5836914633191412
  0.2954647381460305  0.4582745424482937  0.7503908326895399
  0.3743151883471683  0.0400900462473999  0.9153297148854875
  0.3348528238341899  0.0036333603869636  0.3376974214002573
  0.4193450154766580  0.0846100373534213  0.4992131983884391
  0.9551184848940579  0.3294161232762249  0.5203026697405733
  0.5622425040236649  0.3973453849520325  0.7081883247051906
  0.6441598677256906  0.4805605446676964  0.8747346047372417
  0.9365393759809493  0.2702952013471602  0.9581516286305387
  0.5178913983493558  0.3512211082710763  0.1217125943644604
  0.6029608765750467  0.4415239131120430  0.2950568861249891
  0.6882727552601580  0.0212995686019255  0.4584290444766523
  0.7625823609707965  0.1043043236600241  0.6215490615837354
  0.8490337697627339  0.1915076839935352  0.7966576562210435
  0.7273456455521767  0.0625212056297926  0.0399081477735592
  0.8186731299519607  0.1407677694571703  0.2083301299493527
  0.8947196707841059  0.2293633925819236  0.3720597828903038
  0.5015031371280827  0.1692346966531417  0.6678419578168189
  0.5815529150264922  0.2501975611831284  0.8322946421454915
  0.6638324312383119  0.3314241264973674  0.9951333527476578
  0.9565104968883062  0.1197425279710558  0.0800175125576246
  0.5466026119951977  0.2110176729574533  0.2526591684568587
  0.6258594947687683  0.2920876530133896  0.4184315557422806
  0.7066959015838066  0.3756293463843789  0.5841220192325594
  0.7896396374249619  0.4586309798607076  0.7500888430289905
  0.8746721269358844  0.0396433528341475  0.9160881001152745
  0.8342387156196267  0.0032692614861674  0.3379741123455062
  0.9173030774987012  0.0833534254312838  0.5014233758222844
  0.4826083371511487  0.8085051521760320  0.5405544526585899
  0.0691939614233590  0.8850206118966142  0.7091776041649567
  0.1458118967694872  0.9783689558600344  0.8746661068936561
  0.4362169809385605  0.7699938220936247  0.9572370949886277
  0.0178676139076899  0.8511669749772679  0.1216803189191822
  0.1037834735531717  0.9406719308816278  0.2950282627633385
  0.1884100519755165  0.5223346548411172  0.4592162867743355
  0.2728574168612710  0.6032426806410101  0.6245800025861499
  0.3555921136103137  0.6865697583750148  0.7917110295323440
  0.2277363519224096  0.5628093697456862  0.0405332984893008
  0.3192783254282219  0.6409815076020848  0.2090314932425414
  0.3952221861164773  0.7318153028089256  0.3748084779842955
  0.9985679504548770  0.6696016206672866  0.6652924005758720
  0.0835143970949872  0.7483218632724729  0.8325541422491796
  0.1640643940563677  0.8312006270794967  0.9952094187911769
  0.4565915855797513  0.6196905359666331  0.0798022276256418
  0.0466565041984808  0.7110726544461912  0.2526844676304094
  0.1259563393787744  0.7922705766586091  0.4182540906065100
  0.2081098790245974  0.8736059511565060  0.5836895937655200
  0.2918562694551525  0.9566193789913200  0.7504436918879946
  0.3744494664654141  0.5402771118226752  0.9155160945058967
  0.3344446392157323  0.5042784466854329  0.3382515867633629
  0.4169786467747372  0.5846833156606266  0.5013183637463001
  0.9796034562318212  0.8133873386001724  0.5414368105416045
  0.5684272955082577  0.8931025823613012  0.7095965887271092
  0.6452474909826122  0.9808269570799482  0.8744026225820392
  0.9363783894740436  0.7700792147952740  0.9575576550101488
  0.5178621236032157  0.8512513788484242  0.1216158504972427
  0.6033903833465573  0.9412632053044732  0.2952504505550451
  0.6823232095353831  0.5252231258716691  0.4572598721670360
  0.7705621830820348  0.6061593614921392  0.6248835871132954
  0.8507987914714974  0.6938779506311974  0.7933098237038720
  0.7272683446858963  0.5628764797248849  0.0397886270696475
  0.8190811487119305  0.6411523210756798  0.2090887830839634
  0.8967674064624092  0.7311736554695258  0.3752506857806921
  0.4999843099874184  0.6672012083426395  0.6667959987473182
  0.5820615992928921  0.7492178418071376  0.8321753677731181
  0.6636502886205378  0.8315732829476943  0.9948286334022427
  0.9563624470260663  0.6196253142649724  0.0799346103121295
  0.5467085056158680  0.7110473449465360  0.2526284571810464
  0.6257628935466428  0.7927059170221469  0.4179619842770279
  0.7080038858551845  0.8751219137453816  0.5831538857441529
  0.7933303965837908  0.9602387094072853  0.7491052455879412
  0.8735962110973006  0.5401823861204420  0.9152155040273016
  0.8344789821201033  0.5042811549420705  0.3381078011374186
  0.9163609737156548  0.5893984125374629  0.5011466478287616
  0.2435443301510816  0.4131020475365474  0.1685514648658781
  0.7431777104378199  0.4134572513495272  0.1684073585351626
  0.2435762443725409  0.9129565559065185  0.1683882359632918
  0.7433101555430426  0.9128821505290787  0.1684069102975343
  0.0589086330441972  0.3935494011754912  0.5115037553579285
  0.1416576912784393  0.4753198378438057  0.6763055154947466
  0.2242892103878660  0.0581558009612593  0.8411867590270035
  0.0143720662377120  0.3487452590844242  0.9227186734183164
  0.0889184221755741  0.4289952408665840  0.0832916527678336
  0.1815194757016201  0.0274253655065664  0.2717910914934123
  0.2683517009323779  0.1030517386870997  0.4307597196933912
  0.3501759947194429  0.1847500516827196  0.5941037636656930
  0.4325067606897193  0.2671411780417401  0.7585905465400344
  0.3051292044600586  0.1421722824235587  0.0065303190889310
  0.4116237613862381  0.2062768733090508  0.1775794357289513
  0.4761924879768387  0.3130289244008893  0.3451006338735567
  0.1633854483218471  0.3275083138647616  0.8015718341264630
  0.2462484585558471  0.4113738624216836  0.9674102179392676
  0.0357633958836630  0.2013446654594162  0.0499630615803852
  0.1258055047726145  0.2928404649353880  0.2178987413962972
  0.2064377530649963  0.3719162617873337  0.3873642420375916
  0.2874635883727450  0.4542380197190994  0.5524484288300684
  0.3729089257297176  0.0364431266955307  0.7187088403434458
  0.4539152284635080  0.1204674041151534  0.8831850836783417
  0.3306923621265057  0.0000039579386808  0.1327557122404386
  0.4124956313688486  0.0815113103828367  0.3042116534865187
  0.4975482209925488  0.1645892121020935  0.4689941367061650
  0.5587202603412678  0.3940319071984604  0.5111487343610577
  0.6424901584009248  0.4761306357479711  0.6762069685650118
  0.7259111364241164  0.0593147828748855  0.8403977532944253
  0.5139866692393156  0.3486856048107612  0.9228327112030215
  0.5890035983987545  0.4289466198742460  0.0830515260620572
  0.6814686204702483  0.0272277218926007  0.2716416031114690
  0.7684680317250283  0.1028886155284354  0.4306277383530102
  0.8477711109178898  0.1845176061098428  0.5931607545508299
  0.9312033386255223  0.2681008885065879  0.7602241526298741
  0.8048760363668137  0.1425777911965938  0.0068012446779804
  0.9114520453214325  0.2065082471554334  0.1777384062986371
  0.9759716851382407  0.3123973601852228  0.3458646831590357
  0.5773565687507443  0.2485774865110315  0.6344770854032546
  0.6600179086758544  0.3311810332717258  0.8006548196833734
  0.7453937443090624  0.4122370569966023  0.9661478468584264
  0.5357119784275497  0.2009518189645974  0.0496512726534775
  0.6260383265586924  0.2925223963694776  0.2175972587530453
  0.7066937464660228  0.3710320131752169  0.3875086483076018
  0.7853250085279626  0.4566898041098142  0.5524977738737817
  0.8775923982548051  0.0437872645074293  0.7150547783249905
  0.9547971083562672  0.1194967194097387  0.8846940649146262
  0.8306418334074408  0.9995507883131580  0.1324392548376849
  0.9124659726597741  0.0796774403027314  0.3031475110531616
  0.9968915567106436  0.1623959793907517  0.4685052526221583
  0.0589717376258179  0.8940922943532570  0.5113864325592417
  0.1436485115523425  0.9722831710044630  0.6767034810828676
  0.2240272268133623  0.5569907058199064  0.8411716362827519
  0.0144778559661702  0.8481414398457758  0.9226803377086767
  0.0889775920768017  0.9289809394524937  0.0830725514310089
  0.1818805298475112  0.5274138289734154  0.2717266501952338
  0.2679825162049525  0.6032654679017710  0.4307806433083883
  0.3513345626374047  0.6845071362621553  0.5939770678458274
  0.4334489663825920  0.7667345036719766  0.7585342506796522
  0.3048887633529631  0.6422793489292005  0.0065980330634687
  0.4118402568788326  0.7061374206443247  0.1775602273956949
  0.4757650021009923  0.8126370899291047  0.3451855482443875
  0.0811362208249378  0.7441402250851183  0.6338931120826388
  0.1643127228970869  0.8272228778587305  0.8013966320163277
  0.2453831614362940  0.9121440562246548  0.9663614726633725
  0.0356107332634394  0.7009479302389394  0.0494661162350809
  0.1261078748213720  0.7924005807789527  0.2174694704409674
  0.2052687814675309  0.8721746588335577  0.3873920088586900
  0.2880892318847685  0.9530495339982465  0.5518247671828576
  0.3713388365204082  0.5382168470578534  0.7173815135920663
  0.4535153710817639  0.6202533139294601  0.8835225563532418
  0.3309086819103868  0.4998505883695614  0.1328944551911206
  0.4124737493081128  0.5813939331981643  0.3040844150792879
  0.4950581377288543  0.6643242574283548  0.4683449587415680
  0.5575167398433010  0.8941080609881595  0.5113437838697337
  0.6430715463326848  0.9774038088139037  0.6761954369491789
  0.7240789782296631  0.5587520534750183  0.8414284200042559
  0.5140686766578639  0.8488922413411544  0.9225806995414345
  0.5891597861725373  0.9288458624294478  0.0828963358842572
  0.6818558447009195  0.5271655607073882  0.2719825194354257
  0.7682650349945703  0.6024559348615099  0.4312649795796588
  0.8505351334521976  0.6846939059939032  0.5939072916880761
  0.9334511227988926  0.7684111124709858  0.7578173647596032
  0.8051468048508568  0.6427043107704478  0.0063947300962752
  0.9117362638587494  0.7062064099418848  0.1776231338939951
  0.9759964027245047  0.8126390019881882  0.3451559079164710
  0.5799399873164717  0.7477024878994527  0.6348620548003439
  0.6621975497006432  0.8305707333020607  0.8013623539889281
  0.7454224362125572  0.9125827476876722  0.9657822267906084
  0.5354791754980965  0.7012730835820662  0.0494218472784169
  0.6258526129781004  0.7926068603380614  0.2175311711053496
  0.7059573161469501  0.8710326612764590  0.3871606837642716
  0.7879817874297430  0.9531735058121527  0.5514135063367078
  0.8686205572945056  0.5403847400311221  0.7181975289893927
  0.9544986399345774  0.6196258378110215  0.8827670815833528
  0.8304215051840060  0.5002347067278947  0.1326415015573019
  0.9126300689929678  0.5811017815406672  0.3042149490802970
  0.9975192489970084  0.6642604742959364  0.4689329119180528
 
  0.00000000E+00  0.00000000E+00  0.00000000E+00
  0.00000000E+00  0.00000000E+00  0.00000000E+00
  0.00000000E+00  0.00000000E+00  0.00000000E+00
  0.00000000E+00  0.00000000E+00  0.00000000E+00
  0.00000000E+00  0.00000000E+00  0.00000000E+00
  0.00000000E+00  0.00000000E+00  0.00000000E+00
  0.00000000E+00  0.00000000E+00  0.00000000E+00
  0.00000000E+00  0.00000000E+00  0.00000000E+00
  0.00000000E+00  0.00000000E+00  0.00000000E+00
  0.00000000E+00  0.00000000E+00  0.00000000E+00
  0.00000000E+00  0.00000000E+00  0.00000000E+00
  0.00000000E+00  0.00000000E+00  0.00000000E+00
  0.00000000E+00  0.00000000E+00  0.00000000E+00
  0.00000000E+00  0.00000000E+00  0.00000000E+00
  0.00000000E+00  0.00000000E+00  0.00000000E+00
  0.00000000E+00  0.00000000E+00  0.00000000E+00
  0.00000000E+00  0.00000000E+00  0.00000000E+00
  0.00000000E+00  0.00000000E+00  0.00000000E+00
  0.00000000E+00  0.00000000E+00  0.00000000E+00
  0.00000000E+00  0.00000000E+00  0.00000000E+00
  0.00000000E+00  0.00000000E+00  0.00000000E+00
  0.00000000E+00  0.00000000E+00  0.00000000E+00
  0.00000000E+00  0.00000000E+00  0.00000000E+00
  0.00000000E+00  0.00000000E+00  0.00000000E+00
  0.00000000E+00  0.00000000E+00  0.00000000E+00
  0.00000000E+00  0.00000000E+00  0.00000000E+00
  0.00000000E+00  0.00000000E+00  0.00000000E+00
  0.00000000E+00  0.00000000E+00  0.00000000E+00
  0.00000000E+00  0.00000000E+00  0.00000000E+00
  0.00000000E+00  0.00000000E+00  0.00000000E+00
  0.00000000E+00  0.00000000E+00  0.00000000E+00
  0.00000000E+00  0.00000000E+00  0.00000000E+00
  0.00000000E+00  0.00000000E+00  0.00000000E+00
  0.00000000E+00  0.00000000E+00  0.00000000E+00
  0.00000000E+00  0.00000000E+00  0.00000000E+00
  0.00000000E+00  0.00000000E+00  0.00000000E+00
  0.00000000E+00  0.00000000E+00  0.00000000E+00
  0.00000000E+00  0.00000000E+00  0.00000000E+00
  0.00000000E+00  0.00000000E+00  0.00000000E+00
  0.00000000E+00  0.00000000E+00  0.00000000E+00
  0.00000000E+00  0.00000000E+00  0.00000000E+00
  0.00000000E+00  0.00000000E+00  0.00000000E+00
  0.00000000E+00  0.00000000E+00  0.00000000E+00
  0.00000000E+00  0.00000000E+00  0.00000000E+00
  0.00000000E+00  0.00000000E+00  0.00000000E+00
  0.00000000E+00  0.00000000E+00  0.00000000E+00
  0.00000000E+00  0.00000000E+00  0.00000000E+00
  0.00000000E+00  0.00000000E+00  0.00000000E+00
  0.00000000E+00  0.00000000E+00  0.00000000E+00
  0.00000000E+00  0.00000000E+00  0.00000000E+00
  0.00000000E+00  0.00000000E+00  0.00000000E+00
  0.00000000E+00  0.00000000E+00  0.00000000E+00
  0.00000000E+00  0.00000000E+00  0.00000000E+00
  0.00000000E+00  0.00000000E+00  0.00000000E+00
  0.00000000E+00  0.00000000E+00  0.00000000E+00
  0.00000000E+00  0.00000000E+00  0.00000000E+00
  0.00000000E+00  0.00000000E+00  0.00000000E+00
  0.00000000E+00  0.00000000E+00  0.00000000E+00
  0.00000000E+00  0.00000000E+00  0.00000000E+00
  0.00000000E+00  0.00000000E+00  0.00000000E+00
  0.00000000E+00  0.00000000E+00  0.00000000E+00
  0.00000000E+00  0.00000000E+00  0.00000000E+00
  0.00000000E+00  0.00000000E+00  0.00000000E+00
  0.00000000E+00  0.00000000E+00  0.00000000E+00
  0.00000000E+00  0.00000000E+00  0.00000000E+00
  0.00000000E+00  0.00000000E+00  0.00000000E+00
  0.00000000E+00  0.00000000E+00  0.00000000E+00
  0.00000000E+00  0.00000000E+00  0.00000000E+00
  0.00000000E+00  0.00000000E+00  0.00000000E+00
  0.00000000E+00  0.00000000E+00  0.00000000E+00
  0.00000000E+00  0.00000000E+00  0.00000000E+00
  0.00000000E+00  0.00000000E+00  0.00000000E+00
  0.00000000E+00  0.00000000E+00  0.00000000E+00
  0.00000000E+00  0.00000000E+00  0.00000000E+00
  0.00000000E+00  0.00000000E+00  0.00000000E+00
  0.00000000E+00  0.00000000E+00  0.00000000E+00
  0.00000000E+00  0.00000000E+00  0.00000000E+00
  0.00000000E+00  0.00000000E+00  0.00000000E+00
  0.00000000E+00  0.00000000E+00  0.00000000E+00
  0.00000000E+00  0.00000000E+00  0.00000000E+00
  0.00000000E+00  0.00000000E+00  0.00000000E+00
  0.00000000E+00  0.00000000E+00  0.00000000E+00
  0.00000000E+00  0.00000000E+00  0.00000000E+00
  0.00000000E+00  0.00000000E+00  0.00000000E+00
  0.00000000E+00  0.00000000E+00  0.00000000E+00
  0.00000000E+00  0.00000000E+00  0.00000000E+00
  0.00000000E+00  0.00000000E+00  0.00000000E+00
  0.00000000E+00  0.00000000E+00  0.00000000E+00
  0.00000000E+00  0.00000000E+00  0.00000000E+00
  0.00000000E+00  0.00000000E+00  0.00000000E+00
  0.00000000E+00  0.00000000E+00  0.00000000E+00
  0.00000000E+00  0.00000000E+00  0.00000000E+00
  0.00000000E+00  0.00000000E+00  0.00000000E+00
  0.00000000E+00  0.00000000E+00  0.00000000E+00
  0.00000000E+00  0.00000000E+00  0.00000000E+00
  0.00000000E+00  0.00000000E+00  0.00000000E+00
  0.00000000E+00  0.00000000E+00  0.00000000E+00
  0.00000000E+00  0.00000000E+00  0.00000000E+00
  0.00000000E+00  0.00000000E+00  0.00000000E+00
  0.00000000E+00  0.00000000E+00  0.00000000E+00
  0.00000000E+00  0.00000000E+00  0.00000000E+00
  0.00000000E+00  0.00000000E+00  0.00000000E+00
  0.00000000E+00  0.00000000E+00  0.00000000E+00
  0.00000000E+00  0.00000000E+00  0.00000000E+00
  0.00000000E+00  0.00000000E+00  0.00000000E+00
  0.00000000E+00  0.00000000E+00  0.00000000E+00
  0.00000000E+00  0.00000000E+00  0.00000000E+00
  0.00000000E+00  0.00000000E+00  0.00000000E+00
  0.00000000E+00  0.00000000E+00  0.00000000E+00
  0.00000000E+00  0.00000000E+00  0.00000000E+00
  0.00000000E+00  0.00000000E+00  0.00000000E+00
  0.00000000E+00  0.00000000E+00  0.00000000E+00
  0.00000000E+00  0.00000000E+00  0.00000000E+00
  0.00000000E+00  0.00000000E+00  0.00000000E+00
  0.00000000E+00  0.00000000E+00  0.00000000E+00
  0.00000000E+00  0.00000000E+00  0.00000000E+00
  0.00000000E+00  0.00000000E+00  0.00000000E+00
  0.00000000E+00  0.00000000E+00  0.00000000E+00
  0.00000000E+00  0.00000000E+00  0.00000000E+00
  0.00000000E+00  0.00000000E+00  0.00000000E+00
  0.00000000E+00  0.00000000E+00  0.00000000E+00
  0.00000000E+00  0.00000000E+00  0.00000000E+00
  0.00000000E+00  0.00000000E+00  0.00000000E+00
  0.00000000E+00  0.00000000E+00  0.00000000E+00
  0.00000000E+00  0.00000000E+00  0.00000000E+00
  0.00000000E+00  0.00000000E+00  0.00000000E+00
  0.00000000E+00  0.00000000E+00  0.00000000E+00
  0.00000000E+00  0.00000000E+00  0.00000000E+00
  0.00000000E+00  0.00000000E+00  0.00000000E+00
  0.00000000E+00  0.00000000E+00  0.00000000E+00
  0.00000000E+00  0.00000000E+00  0.00000000E+00
  0.00000000E+00  0.00000000E+00  0.00000000E+00
  0.00000000E+00  0.00000000E+00  0.00000000E+00
  0.00000000E+00  0.00000000E+00  0.00000000E+00
  0.00000000E+00  0.00000000E+00  0.00000000E+00
  0.00000000E+00  0.00000000E+00  0.00000000E+00
  0.00000000E+00  0.00000000E+00  0.00000000E+00
  0.00000000E+00  0.00000000E+00  0.00000000E+00
  0.00000000E+00  0.00000000E+00  0.00000000E+00
  0.00000000E+00  0.00000000E+00  0.00000000E+00
  0.00000000E+00  0.00000000E+00  0.00000000E+00
  0.00000000E+00  0.00000000E+00  0.00000000E+00
  0.00000000E+00  0.00000000E+00  0.00000000E+00
  0.00000000E+00  0.00000000E+00  0.00000000E+00
  0.00000000E+00  0.00000000E+00  0.00000000E+00
  0.00000000E+00  0.00000000E+00  0.00000000E+00
  0.00000000E+00  0.00000000E+00  0.00000000E+00
  0.00000000E+00  0.00000000E+00  0.00000000E+00
  0.00000000E+00  0.00000000E+00  0.00000000E+00
  0.00000000E+00  0.00000000E+00  0.00000000E+00
  0.00000000E+00  0.00000000E+00  0.00000000E+00
  0.00000000E+00  0.00000000E+00  0.00000000E+00
  0.00000000E+00  0.00000000E+00  0.00000000E+00
  0.00000000E+00  0.00000000E+00  0.00000000E+00
  0.00000000E+00  0.00000000E+00  0.00000000E+00
  0.00000000E+00  0.00000000E+00  0.00000000E+00
  0.00000000E+00  0.00000000E+00  0.00000000E+00
  0.00000000E+00  0.00000000E+00  0.00000000E+00
  0.00000000E+00  0.00000000E+00  0.00000000E+00
  0.00000000E+00  0.00000000E+00  0.00000000E+00
  0.00000000E+00  0.00000000E+00  0.00000000E+00
  0.00000000E+00  0.00000000E+00  0.00000000E+00
  0.00000000E+00  0.00000000E+00  0.00000000E+00
  0.00000000E+00  0.00000000E+00  0.00000000E+00
  0.00000000E+00  0.00000000E+00  0.00000000E+00
  0.00000000E+00  0.00000000E+00  0.00000000E+00
  0.00000000E+00  0.00000000E+00  0.00000000E+00
  0.00000000E+00  0.00000000E+00  0.00000000E+00
  0.00000000E+00  0.00000000E+00  0.00000000E+00
  0.00000000E+00  0.00000000E+00  0.00000000E+00
  0.00000000E+00  0.00000000E+00  0.00000000E+00
  0.00000000E+00  0.00000000E+00  0.00000000E+00
  0.00000000E+00  0.00000000E+00  0.00000000E+00
  0.00000000E+00  0.00000000E+00  0.00000000E+00
  0.00000000E+00  0.00000000E+00  0.00000000E+00
  0.00000000E+00  0.00000000E+00  0.00000000E+00
  0.00000000E+00  0.00000000E+00  0.00000000E+00
  0.00000000E+00  0.00000000E+00  0.00000000E+00
  0.00000000E+00  0.00000000E+00  0.00000000E+00
  0.00000000E+00  0.00000000E+00  0.00000000E+00
  0.00000000E+00  0.00000000E+00  0.00000000E+00
  0.00000000E+00  0.00000000E+00  0.00000000E+00
  0.00000000E+00  0.00000000E+00  0.00000000E+00
  0.00000000E+00  0.00000000E+00  0.00000000E+00
  0.00000000E+00  0.00000000E+00  0.00000000E+00
  0.00000000E+00  0.00000000E+00  0.00000000E+00
  0.00000000E+00  0.00000000E+00  0.00000000E+00
  0.00000000E+00  0.00000000E+00  0.00000000E+00
  0.00000000E+00  0.00000000E+00  0.00000000E+00
  0.00000000E+00  0.00000000E+00  0.00000000E+00
  0.00000000E+00  0.00000000E+00  0.00000000E+00
