supercell of POSCAR                     
   1.00398800000000     
    -6.2729611433599999    0.0082005604289200   10.0015927484000002
     3.1280384584799998    5.4363994576400003   10.0007801159999996
    -7.8567367181199996   13.6110857897000006  -10.0002683574999995
   Al   Sc   N 
    91     4    96
Direct
  0.4781492929203282  0.3141766346428838  0.5423339374137086
  0.0634002631661374  0.3953218917731149  0.7062207225009729
  0.1453131342753409  0.4779708015793176  0.8729979623045026
  0.4367049865349557  0.2690191135940623  0.9565376830391088
  0.0181555996230713  0.3501056734088195  0.1218942239991279
  0.1032900634364324  0.4407414779932637  0.2975819786215581
  0.1894985407136787  0.0266348154259575  0.4594202583640552
  0.2705180085955945  0.1051400610542998  0.6245959711033962
  0.3537832270196120  0.1868660975023246  0.7903810134597578
  0.2278771837732592  0.0617340948135094  0.0393271872501231
  0.3198374915296753  0.1408255929940836  0.2101803595848111
  0.3936952762600043  0.2322954905091592  0.3773752054815915
  0.0004506168668641  0.1665025688094204  0.6659888844618962
  0.0824744580505836  0.2486220489867534  0.8303566280913444
  0.1632599533402228  0.3311207068971811  0.9943664892419051
  0.4566802127215439  0.1198089252570753  0.0797996127775207
  0.0466138424899967  0.2111134504839001  0.2535676496184252
  0.2063262124864593  0.3759056313953408  0.5827675512302122
  0.2927563749446591  0.4575517555840989  0.7498629518289945
  0.3739306749004925  0.0397469348864945  0.9142224272274575
  0.3325468372569134  0.0071086386622028  0.3412998635875155
  0.4158091633037841  0.0857915193511900  0.5013483665550140
  0.9819379916484863  0.3165220629757783  0.5405659299326047
  0.5625294687723397  0.3959008941876192  0.7078776248968097
  0.6455130562121099  0.4781107704745367  0.8733587444903961
  0.9365542522610326  0.2688828639226841  0.9559027205097479
  0.5198562677972092  0.3510891811200736  0.1226768763975414
  0.6013546996621244  0.4438375433755937  0.2979732024994988
  0.6876875510838829  0.0225767440141453  0.4608175495538589
  0.7708371740781175  0.1051504766233933  0.6251621942556653
  0.8539173930875137  0.1865157762641303  0.7903485810267057
  0.7278485237965668  0.0615298480258843  0.0393967659778269
  0.8227766862742243  0.1390868166154107  0.2098252099300311
  0.8984992085303674  0.2351671705702358  0.3749631173207391
  0.4996045663321595  0.1674729338780239  0.6666079949882615
  0.5832536102096313  0.2481965979708676  0.8314730379506727
  0.6647007644983205  0.3310152233462063  0.9958216942183569
  0.9573178211576305  0.1172307220977729  0.0776310829741789
  0.5490515646002763  0.2105458503229229  0.2541459651889326
  0.6268455406660038  0.2926496592441055  0.4194516660909358
  0.7085947670678863  0.3757923777484464  0.5836686394603063
  0.7920707064082251  0.4573771761799463  0.7484880017591209
  0.8742229973243880  0.0389325093429136  0.9138876795447217
  0.8350599358480721  0.0039502908812779  0.3396315928421245
  0.9187291772611772  0.0867760854265285  0.5017057442138082
  0.4781360543538540  0.8164729026486199  0.5421515799282943
  0.0622252081233370  0.8951780887155820  0.7077043256027835
  0.1453291821914249  0.9780475710965177  0.8730593087981333
  0.4370379252488803  0.7685169630078832  0.9565782400174427
  0.0173474925488435  0.8509980567022311  0.1214332321722296
  0.1034043383926004  0.9429204539458595  0.2970248795236969
  0.1869958845427178  0.5199203012820277  0.4602095592704885
  0.2713127659642254  0.6038076065898181  0.6252900345731192
  0.3542348104691158  0.6867617867163389  0.7906706071558744
  0.2282589149730896  0.5612344761715988  0.0397821814369195
  0.3175341766492465  0.6404848209978553  0.2109573196620573
  0.3942227978472417  0.7323769754302205  0.3765156451328551
  0.0011207623967309  0.6643689289784334  0.6657904974562214
  0.0829975550881628  0.7476208287596222  0.8306609573399868
  0.1650821909441333  0.8290270510081967  0.9940312701991232
  0.4573512916166393  0.6187447432656228  0.0811754173349470
  0.0445861552806903  0.7130733719983624  0.2529706541470205
  0.1255929232708937  0.7937403303234163  0.4198446593420400
  0.2085198875244245  0.8755612009016929  0.5840563194876154
  0.2913641503740720  0.9576979837178996  0.7486300807311537
  0.3748896785279996  0.5392770221855372  0.9148588345208708
  0.3277202499530603  0.4986289258294718  0.3415643137671012
  0.4173234038512348  0.5863910224431237  0.5021920832144460
  0.9789211924268173  0.8138841610357304  0.5425571292302678
  0.5622640077266325  0.8959055601387789  0.7074193710724188
  0.6452940805205643  0.9779513494596017  0.8730681807781764
  0.9368109144380412  0.7685118713243426  0.9561738163162943
  0.5169252635411397  0.8516732405502196  0.1217168834886166
  0.6026561033133859  0.9421502382877023  0.2967940286992814
  0.6883444857979129  0.5229385111327502  0.4604454679889969
  0.7720512280339946  0.6044567328235502  0.6240799873218705
  0.8542747430464814  0.6861592127641956  0.7899918640749917
  0.7277080095956876  0.5608325714931652  0.0405312619345466
  0.8181562150148665  0.6414282722076337  0.2097681624249219
  0.8961591608689758  0.7308122728279827  0.3770753983150357
  0.5005631636371604  0.6668575162235868  0.6662581068564677
  0.5826659086120856  0.7484169513662238  0.8306949964013981
  0.6638097077329661  0.8304019419187654  0.9944304799218031
  0.9558439307115520  0.6196270133358937  0.0798141241861998
  0.5417913859240642  0.7145864805658562  0.2528822908335826
  0.6233125468634100  0.7941086175685896  0.4196017913766568
  0.7089561938294011  0.8765671548669545  0.5848396878933357
  0.7917685314334122  0.9570308349141996  0.7489131329028069
  0.8736808164824410  0.5397059586738635  0.9142905819834581
  0.8320500364195738  0.5047019396003805  0.3382934912851709
  0.9190788988042371  0.5834039742359565  0.5024698457624481
  0.2436018029894598  0.4114047798813871  0.1687109977371932
  0.7493776173747833  0.4081092652794922  0.1740263297798208
  0.2399768219743592  0.9150060247628318  0.1687389089952234
  0.7413638583574169  0.9139245125455702  0.1688900860731124
  0.0507069030628244  0.4083165888641602  0.5229787992120478
  0.1447953726587770  0.4762783553483203  0.6793755138062210
  0.2242612974255991  0.0580044730037415  0.8414351549400578
  0.0143010786210027  0.3481056253171175  0.9219516345119914
  0.0881180904498038  0.4288296156426270  0.0821672724984452
  0.1826566833715759  0.0260269800347217  0.2711285901089582
  0.2844672140027811  0.0832406308270706  0.4326317002349640
  0.3515405062019070  0.1850526325880750  0.5956311986600014
  0.4339296329657216  0.2666309558908466  0.7598262369164104
  0.3053070104258282  0.1421714799027143  0.0061672087002833
  0.4144548420051919  0.2043332848857560  0.1773880929091973
  0.4814412656801821  0.3090944929676382  0.3448211685804594
  0.0803166149984591  0.2445596104359495  0.6357430566014770
  0.1628760001618943  0.3284546772630819  0.8003661141822889
  0.2455209020547571  0.4113900633482572  0.9658362728981729
  0.0360154796281122  0.2003557913025915  0.0479531588395758
  0.1272181022671433  0.2921482885764703  0.2158240262930633
  0.2192078795356025  0.3858667843592656  0.3822708230549665
  0.2893924056376278  0.4553017988484456  0.5539855319435461
  0.3716108050378892  0.0372534748603286  0.7183214844858483
  0.4542586314302071  0.1194204419034932  0.8833398379319277
  0.3298956082076998  0.0001463580654644  0.1320126874037371
  0.4128269269608964  0.0807957959036258  0.3036371423771627
  0.4985977315039847  0.1642765968855855  0.4702902631191179
  0.5580935194668371  0.3943434387899174  0.5119599906180454
  0.6417100741790591  0.4758616726375848  0.6770269250220338
  0.7246467596175137  0.0574737670747041  0.8414985341926950
  0.5154781874132439  0.3480184826855179  0.9232343905325564
  0.5931858179306531  0.4282651848767287  0.0848522801899634
  0.6830684203835844  0.0255579240371446  0.2717119503962735
  0.7686752478297763  0.1024974565257182  0.4315601751831437
  0.8501268731986684  0.1851522605545881  0.5947608217398184
  0.9326340938643582  0.2663925009727564  0.7588131163042959
  0.8049412601319972  0.1409926184809223  0.0052181417859600
  0.9165253849979251  0.1979509958118015  0.1735370947947530
  0.9496994971335440  0.3180914885935309  0.3300424207092121
  0.5802688266324054  0.2467086167875223  0.6357981234539523
  0.6632377988813047  0.3283330491763579  0.8008379283768221
  0.7457436807665374  0.4114875714073278  0.9660390223465001
  0.5360168885797023  0.2013405615712998  0.0492111164826028
  0.6285288070787516  0.2921606154249048  0.2173626400608697
  0.7045115015767891  0.3729595983723826  0.3887200308775220
  0.7863260677306485  0.4554861639004599  0.5530502808570361
  0.8714108574596935  0.0371091905916572  0.7181893469382032
  0.9541862879445944  0.1190248542163275  0.8829744632987655
  0.8297448270033243  0.9988670971108817  0.1318838524260997
  0.9121330790165985  0.0793250871249072  0.3040580174993934
  0.9960199235884062  0.1656048356039932  0.4688910641509167
  0.0575877282494517  0.8952173612384513  0.5123879318806601
  0.1411720329595383  0.9753885596018108  0.6772570877102311
  0.2253190585668605  0.5579610789611351  0.8424910478573793
  0.0149486589369587  0.8473390292391088  0.9220726150484069
  0.0889393146413369  0.9265185446190856  0.0809744489175586
  0.1786941795569348  0.5301320983822606  0.2675499035129008
  0.2667227845314244  0.6077100707888761  0.4332976003159530
  0.3507637661829577  0.6849406217939915  0.5953788644646565
  0.4329808748443540  0.7667858405713943  0.7590028745026203
  0.3067957127102900  0.6404995708954786  0.0066190664492112
  0.4070072562435456  0.7083827649481620  0.1768740627536616
  0.4752085522058564  0.8119349644912077  0.3440790046488758
  0.0803568208603735  0.7459853063755801  0.6355579230533621
  0.1631884640339294  0.8281395178612811  0.8006335025735183
  0.2459761685230077  0.9111218391541200  0.9656544862856933
  0.0357196244924722  0.7001074880085909  0.0488309374605009
  0.1237725009316932  0.7944950143191960  0.2166915676753831
  0.2032835415426959  0.8723332889566890  0.3874836116435603
  0.2874968988886977  0.9547310659105648  0.5541675942929629
  0.3723496493906922  0.5374337556203841  0.7187684612782874
  0.4545276634657256  0.6192751018097482  0.8834321624524364
  0.3315391884035392  0.4988076654106024  0.1322183289403753
  0.4085890179649994  0.5801303608709176  0.3052026443870872
  0.4965237752037623  0.6659911907993532  0.4698576315689138
  0.5623096700793369  0.8932059084728010  0.5134826873112530
  0.6412674971618486  0.9773241785346443  0.6777452699648379
  0.7243841305557268  0.5578211455141115  0.8412806908194170
  0.5144608242676370  0.8479687614646281  0.9222477918716621
  0.5881101962469870  0.9287246470436585  0.0819616041542233
  0.6729808512925715  0.5342849288016467  0.2712120397236220
  0.7665054768378496  0.6051636116076295  0.4309238532603530
  0.8481951825841918  0.6894748547071572  0.5958923851823954
  0.9334180297012793  0.7663411222072938  0.7589173201160690
  0.8046570923753293  0.6414043438129653  0.0063107008796521
  0.9090049211792319  0.7077330309949090  0.1764679761349939
  0.9751403804834027  0.8122617586632543  0.3454368680181545
  0.5800573246667042  0.7464175645249753  0.6354463286448890
  0.6631927901845174  0.8282192071344525  0.8004286708424573
  0.7456079941081342  0.9110806571478136  0.9657400920478523
  0.5354688178002434  0.7007096012386995  0.0493907242317064
  0.6243290930066649  0.7941176889049899  0.2165621478076005
  0.7047906429253032  0.8724911925045049  0.3878153878891197
  0.7885985761343051  0.9559423162496046  0.5536310341374886
  0.8719315224058022  0.5368886692732602  0.7176897108279618
  0.9539584413088491  0.6192053503808879  0.8830777379203099
  0.8306023798448550  0.4985907751313690  0.1330998856081749
  0.9101538221423198  0.5837507411846943  0.3036031576779976
  0.9954420994346833  0.6666893982991908  0.4699082449993526
 
  0.00000000E+00  0.00000000E+00  0.00000000E+00
  0.00000000E+00  0.00000000E+00  0.00000000E+00
  0.00000000E+00  0.00000000E+00  0.00000000E+00
  0.00000000E+00  0.00000000E+00  0.00000000E+00
  0.00000000E+00  0.00000000E+00  0.00000000E+00
  0.00000000E+00  0.00000000E+00  0.00000000E+00
  0.00000000E+00  0.00000000E+00  0.00000000E+00
  0.00000000E+00  0.00000000E+00  0.00000000E+00
  0.00000000E+00  0.00000000E+00  0.00000000E+00
  0.00000000E+00  0.00000000E+00  0.00000000E+00
  0.00000000E+00  0.00000000E+00  0.00000000E+00
  0.00000000E+00  0.00000000E+00  0.00000000E+00
  0.00000000E+00  0.00000000E+00  0.00000000E+00
  0.00000000E+00  0.00000000E+00  0.00000000E+00
  0.00000000E+00  0.00000000E+00  0.00000000E+00
  0.00000000E+00  0.00000000E+00  0.00000000E+00
  0.00000000E+00  0.00000000E+00  0.00000000E+00
  0.00000000E+00  0.00000000E+00  0.00000000E+00
  0.00000000E+00  0.00000000E+00  0.00000000E+00
  0.00000000E+00  0.00000000E+00  0.00000000E+00
  0.00000000E+00  0.00000000E+00  0.00000000E+00
  0.00000000E+00  0.00000000E+00  0.00000000E+00
  0.00000000E+00  0.00000000E+00  0.00000000E+00
  0.00000000E+00  0.00000000E+00  0.00000000E+00
  0.00000000E+00  0.00000000E+00  0.00000000E+00
  0.00000000E+00  0.00000000E+00  0.00000000E+00
  0.00000000E+00  0.00000000E+00  0.00000000E+00
  0.00000000E+00  0.00000000E+00  0.00000000E+00
  0.00000000E+00  0.00000000E+00  0.00000000E+00
  0.00000000E+00  0.00000000E+00  0.00000000E+00
  0.00000000E+00  0.00000000E+00  0.00000000E+00
  0.00000000E+00  0.00000000E+00  0.00000000E+00
  0.00000000E+00  0.00000000E+00  0.00000000E+00
  0.00000000E+00  0.00000000E+00  0.00000000E+00
  0.00000000E+00  0.00000000E+00  0.00000000E+00
  0.00000000E+00  0.00000000E+00  0.00000000E+00
  0.00000000E+00  0.00000000E+00  0.00000000E+00
  0.00000000E+00  0.00000000E+00  0.00000000E+00
  0.00000000E+00  0.00000000E+00  0.00000000E+00
  0.00000000E+00  0.00000000E+00  0.00000000E+00
  0.00000000E+00  0.00000000E+00  0.00000000E+00
  0.00000000E+00  0.00000000E+00  0.00000000E+00
  0.00000000E+00  0.00000000E+00  0.00000000E+00
  0.00000000E+00  0.00000000E+00  0.00000000E+00
  0.00000000E+00  0.00000000E+00  0.00000000E+00
  0.00000000E+00  0.00000000E+00  0.00000000E+00
  0.00000000E+00  0.00000000E+00  0.00000000E+00
  0.00000000E+00  0.00000000E+00  0.00000000E+00
  0.00000000E+00  0.00000000E+00  0.00000000E+00
  0.00000000E+00  0.00000000E+00  0.00000000E+00
  0.00000000E+00  0.00000000E+00  0.00000000E+00
  0.00000000E+00  0.00000000E+00  0.00000000E+00
  0.00000000E+00  0.00000000E+00  0.00000000E+00
  0.00000000E+00  0.00000000E+00  0.00000000E+00
  0.00000000E+00  0.00000000E+00  0.00000000E+00
  0.00000000E+00  0.00000000E+00  0.00000000E+00
  0.00000000E+00  0.00000000E+00  0.00000000E+00
  0.00000000E+00  0.00000000E+00  0.00000000E+00
  0.00000000E+00  0.00000000E+00  0.00000000E+00
  0.00000000E+00  0.00000000E+00  0.00000000E+00
  0.00000000E+00  0.00000000E+00  0.00000000E+00
  0.00000000E+00  0.00000000E+00  0.00000000E+00
  0.00000000E+00  0.00000000E+00  0.00000000E+00
  0.00000000E+00  0.00000000E+00  0.00000000E+00
  0.00000000E+00  0.00000000E+00  0.00000000E+00
  0.00000000E+00  0.00000000E+00  0.00000000E+00
  0.00000000E+00  0.00000000E+00  0.00000000E+00
  0.00000000E+00  0.00000000E+00  0.00000000E+00
  0.00000000E+00  0.00000000E+00  0.00000000E+00
  0.00000000E+00  0.00000000E+00  0.00000000E+00
  0.00000000E+00  0.00000000E+00  0.00000000E+00
  0.00000000E+00  0.00000000E+00  0.00000000E+00
  0.00000000E+00  0.00000000E+00  0.00000000E+00
  0.00000000E+00  0.00000000E+00  0.00000000E+00
  0.00000000E+00  0.00000000E+00  0.00000000E+00
  0.00000000E+00  0.00000000E+00  0.00000000E+00
  0.00000000E+00  0.00000000E+00  0.00000000E+00
  0.00000000E+00  0.00000000E+00  0.00000000E+00
  0.00000000E+00  0.00000000E+00  0.00000000E+00
  0.00000000E+00  0.00000000E+00  0.00000000E+00
  0.00000000E+00  0.00000000E+00  0.00000000E+00
  0.00000000E+00  0.00000000E+00  0.00000000E+00
  0.00000000E+00  0.00000000E+00  0.00000000E+00
  0.00000000E+00  0.00000000E+00  0.00000000E+00
  0.00000000E+00  0.00000000E+00  0.00000000E+00
  0.00000000E+00  0.00000000E+00  0.00000000E+00
  0.00000000E+00  0.00000000E+00  0.00000000E+00
  0.00000000E+00  0.00000000E+00  0.00000000E+00
  0.00000000E+00  0.00000000E+00  0.00000000E+00
  0.00000000E+00  0.00000000E+00  0.00000000E+00
  0.00000000E+00  0.00000000E+00  0.00000000E+00
  0.00000000E+00  0.00000000E+00  0.00000000E+00
  0.00000000E+00  0.00000000E+00  0.00000000E+00
  0.00000000E+00  0.00000000E+00  0.00000000E+00
  0.00000000E+00  0.00000000E+00  0.00000000E+00
  0.00000000E+00  0.00000000E+00  0.00000000E+00
  0.00000000E+00  0.00000000E+00  0.00000000E+00
  0.00000000E+00  0.00000000E+00  0.00000000E+00
  0.00000000E+00  0.00000000E+00  0.00000000E+00
  0.00000000E+00  0.00000000E+00  0.00000000E+00
  0.00000000E+00  0.00000000E+00  0.00000000E+00
  0.00000000E+00  0.00000000E+00  0.00000000E+00
  0.00000000E+00  0.00000000E+00  0.00000000E+00
  0.00000000E+00  0.00000000E+00  0.00000000E+00
  0.00000000E+00  0.00000000E+00  0.00000000E+00
  0.00000000E+00  0.00000000E+00  0.00000000E+00
  0.00000000E+00  0.00000000E+00  0.00000000E+00
  0.00000000E+00  0.00000000E+00  0.00000000E+00
  0.00000000E+00  0.00000000E+00  0.00000000E+00
  0.00000000E+00  0.00000000E+00  0.00000000E+00
  0.00000000E+00  0.00000000E+00  0.00000000E+00
  0.00000000E+00  0.00000000E+00  0.00000000E+00
  0.00000000E+00  0.00000000E+00  0.00000000E+00
  0.00000000E+00  0.00000000E+00  0.00000000E+00
  0.00000000E+00  0.00000000E+00  0.00000000E+00
  0.00000000E+00  0.00000000E+00  0.00000000E+00
  0.00000000E+00  0.00000000E+00  0.00000000E+00
  0.00000000E+00  0.00000000E+00  0.00000000E+00
  0.00000000E+00  0.00000000E+00  0.00000000E+00
  0.00000000E+00  0.00000000E+00  0.00000000E+00
  0.00000000E+00  0.00000000E+00  0.00000000E+00
  0.00000000E+00  0.00000000E+00  0.00000000E+00
  0.00000000E+00  0.00000000E+00  0.00000000E+00
  0.00000000E+00  0.00000000E+00  0.00000000E+00
  0.00000000E+00  0.00000000E+00  0.00000000E+00
  0.00000000E+00  0.00000000E+00  0.00000000E+00
  0.00000000E+00  0.00000000E+00  0.00000000E+00
  0.00000000E+00  0.00000000E+00  0.00000000E+00
  0.00000000E+00  0.00000000E+00  0.00000000E+00
  0.00000000E+00  0.00000000E+00  0.00000000E+00
  0.00000000E+00  0.00000000E+00  0.00000000E+00
  0.00000000E+00  0.00000000E+00  0.00000000E+00
  0.00000000E+00  0.00000000E+00  0.00000000E+00
  0.00000000E+00  0.00000000E+00  0.00000000E+00
  0.00000000E+00  0.00000000E+00  0.00000000E+00
  0.00000000E+00  0.00000000E+00  0.00000000E+00
  0.00000000E+00  0.00000000E+00  0.00000000E+00
  0.00000000E+00  0.00000000E+00  0.00000000E+00
  0.00000000E+00  0.00000000E+00  0.00000000E+00
  0.00000000E+00  0.00000000E+00  0.00000000E+00
  0.00000000E+00  0.00000000E+00  0.00000000E+00
  0.00000000E+00  0.00000000E+00  0.00000000E+00
  0.00000000E+00  0.00000000E+00  0.00000000E+00
  0.00000000E+00  0.00000000E+00  0.00000000E+00
  0.00000000E+00  0.00000000E+00  0.00000000E+00
  0.00000000E+00  0.00000000E+00  0.00000000E+00
  0.00000000E+00  0.00000000E+00  0.00000000E+00
  0.00000000E+00  0.00000000E+00  0.00000000E+00
  0.00000000E+00  0.00000000E+00  0.00000000E+00
  0.00000000E+00  0.00000000E+00  0.00000000E+00
  0.00000000E+00  0.00000000E+00  0.00000000E+00
  0.00000000E+00  0.00000000E+00  0.00000000E+00
  0.00000000E+00  0.00000000E+00  0.00000000E+00
  0.00000000E+00  0.00000000E+00  0.00000000E+00
  0.00000000E+00  0.00000000E+00  0.00000000E+00
  0.00000000E+00  0.00000000E+00  0.00000000E+00
  0.00000000E+00  0.00000000E+00  0.00000000E+00
  0.00000000E+00  0.00000000E+00  0.00000000E+00
  0.00000000E+00  0.00000000E+00  0.00000000E+00
  0.00000000E+00  0.00000000E+00  0.00000000E+00
  0.00000000E+00  0.00000000E+00  0.00000000E+00
  0.00000000E+00  0.00000000E+00  0.00000000E+00
  0.00000000E+00  0.00000000E+00  0.00000000E+00
  0.00000000E+00  0.00000000E+00  0.00000000E+00
  0.00000000E+00  0.00000000E+00  0.00000000E+00
  0.00000000E+00  0.00000000E+00  0.00000000E+00
  0.00000000E+00  0.00000000E+00  0.00000000E+00
  0.00000000E+00  0.00000000E+00  0.00000000E+00
  0.00000000E+00  0.00000000E+00  0.00000000E+00
  0.00000000E+00  0.00000000E+00  0.00000000E+00
  0.00000000E+00  0.00000000E+00  0.00000000E+00
  0.00000000E+00  0.00000000E+00  0.00000000E+00
  0.00000000E+00  0.00000000E+00  0.00000000E+00
  0.00000000E+00  0.00000000E+00  0.00000000E+00
  0.00000000E+00  0.00000000E+00  0.00000000E+00
  0.00000000E+00  0.00000000E+00  0.00000000E+00
  0.00000000E+00  0.00000000E+00  0.00000000E+00
  0.00000000E+00  0.00000000E+00  0.00000000E+00
  0.00000000E+00  0.00000000E+00  0.00000000E+00
  0.00000000E+00  0.00000000E+00  0.00000000E+00
  0.00000000E+00  0.00000000E+00  0.00000000E+00
  0.00000000E+00  0.00000000E+00  0.00000000E+00
  0.00000000E+00  0.00000000E+00  0.00000000E+00
  0.00000000E+00  0.00000000E+00  0.00000000E+00
  0.00000000E+00  0.00000000E+00  0.00000000E+00
  0.00000000E+00  0.00000000E+00  0.00000000E+00
  0.00000000E+00  0.00000000E+00  0.00000000E+00
  0.00000000E+00  0.00000000E+00  0.00000000E+00
  0.00000000E+00  0.00000000E+00  0.00000000E+00
  0.00000000E+00  0.00000000E+00  0.00000000E+00
  0.00000000E+00  0.00000000E+00  0.00000000E+00
