supercell of POSCAR                     
   1.00398800000000     
    -6.2729611433599999    0.0082005604289200   10.0015927484000002
     3.1280384584799998    5.4363994576400003   10.0007801159999996
    -7.8567367181199996   13.6110857897000006  -10.0002683574999995
   Al   Sc   N 
    92     4    95
Direct
  0.4825799599931599  0.3115688280368403  0.5412825874408682
  0.0608652549694639  0.3959345731004120  0.7096525543877732
  0.1439423055846660  0.4791877966946956  0.8745697936089201
  0.4355346601661125  0.2697350439410044  0.9566595079087108
  0.0167595044789834  0.3520219582502335  0.1206676119163888
  0.1018913943315027  0.4440160907881889  0.2933919206729527
  0.1888324580950851  0.0194811444951881  0.4604103008444298
  0.2721922787603717  0.1025206250238568  0.6263803261827334
  0.3534921015659691  0.1870117641836870  0.7915906580704544
  0.2266770384667822  0.0625515055084946  0.0392425729645680
  0.3186743612329224  0.1409981156660365  0.2084894637041828
  0.4011286555945617  0.2292512998416782  0.3754232542848044
  0.0046931188160713  0.1620088750240996  0.6723356558072240
  0.0828804576620357  0.2492692968975305  0.8327826577427686
  0.1634051462936696  0.3313336911860816  0.9948391380343935
  0.4557841013246460  0.1197674198098042  0.0792478443941818
  0.0438140808580059  0.2101115367746687  0.2485681857190372
  0.1416357017424446  0.2668878174337550  0.3965276242500195
  0.2435012433503800  0.3708673797038173  0.6016584685683526
  0.2929667922438739  0.4597183612008280  0.7535912373849740
  0.3736916338603535  0.0402724998368598  0.9149143759838765
  0.3381753150126201  0.9980762395340719  0.3363131670313635
  0.4198646256093994  0.0842493199335692  0.5017830271578347
  0.9513406210295017  0.2848669912648276  0.5539493210874511
  0.5617861547319762  0.3970742378438388  0.7095057609383844
  0.6444045231112341  0.4794499025729451  0.8740888288548518
  0.9355941372491614  0.2699796753082495  0.9566894376845099
  0.5170793528667446  0.3514734483937190  0.1209172964761578
  0.6033509305061528  0.4410108111829913  0.2950600513376500
  0.6883042360047966  0.0207217934338644  0.4592463276478540
  0.7736321981210921  0.1061244745521392  0.6253594289887658
  0.8529863508522268  0.1880905685355074  0.7923521755721552
  0.7263812837338151  0.0626453004430445  0.0390572194059118
  0.8176334080649283  0.1409889915719091  0.2083222899373496
  0.8948561257473884  0.2303735663730677  0.3756389190057590
  0.5071632388497562  0.1636834421216378  0.6692328017640108
  0.5826931011574388  0.2491175774932231  0.8321792887262234
  0.6629998379307835  0.3314707137208330  0.9943419069154658
  0.9554330008664778  0.1196058745538053  0.0784985902927176
  0.5461622922635598  0.2111011252031645  0.2518849448548579
  0.6259302710600991  0.2924917824841131  0.4180681105975737
  0.6985152165370607  0.3817530685874786  0.5854215524337221
  0.7910376092350546  0.4586733775873455  0.7505506709129719
  0.8733832200793756  0.0404001141064541  0.9149343102971343
  0.8337361556449494  0.0039739042770606  0.3370350906397590
  0.9179348052501979  0.0763081774248775  0.4985015503885535
  0.4801929038378532  0.8130724709923598  0.5428509605246532
  0.0636307800012474  0.8951773346953757  0.7093350297198597
  0.1446339420130300  0.9792228203743534  0.8740856237587096
  0.4355778058698689  0.7699809641788917  0.9565824256908897
  0.0170488068918502  0.8516680784146118  0.1209515370422096
  0.1030014501850260  0.9415419202215460  0.2954487867060394
  0.1888813972376084  0.5213778279867043  0.4597078849669032
  0.2717842297039041  0.6082887663337715  0.6266214033816979
  0.3535924131243675  0.6878747634492370  0.7918687136488458
  0.2265846024502238  0.5629018362882334  0.0392509371447574
  0.3191871783191544  0.6410063516677269  0.2087039314157266
  0.3965745540283621  0.7298310416090885  0.3756503048155793
  0.0009541510634534  0.6683963376679287  0.6678998070308282
  0.0820369786217441  0.7497523162559858  0.8323694309067236
  0.1630536913850520  0.8316434888445556  0.9945338358281575
  0.4556213231032871  0.6200175799083354  0.0791164597998772
  0.0467539664682732  0.7116994426333036  0.2518656515653106
  0.1274372005379121  0.7911548982836720  0.4178481567969357
  0.2105511831448581  0.8750556987365314  0.5845486442649843
  0.2931561648974466  0.9570570110789589  0.7506772887197215
  0.3737037271592030  0.5407315280555238  0.9155875621796170
  0.3348592285948158  0.5040001175519819  0.3378223286582340
  0.4168762475305599  0.5864399812883079  0.5013924851998581
  0.9823440521613591  0.8148467717765087  0.5439659629242897
  0.5626463157431587  0.8956402402010255  0.7092260821557446
  0.6447399976968882  0.9790060388390387  0.8737721317973097
  0.9353673343870810  0.7699465780486392  0.9566878028033017
  0.5168490122056326  0.8514928373850665  0.1209931371023671
  0.6037928901968499  0.9407327279646722  0.2947401801623499
  0.6867784851541145  0.5209052429609926  0.4598071688858809
  0.7701288568105014  0.6047959753224603  0.6266863571114243
  0.8534074353983030  0.6877536443224912  0.7917041763561627
  0.7264780031093068  0.5628857971692369  0.0390606186413791
  0.8182844569105399  0.6414421024275754  0.2081031320526208
  0.8964294918288260  0.7323324068402144  0.3733628836331064
  0.4999700025285421  0.6684449439495168  0.6676545097765185
  0.5826047732989039  0.7489516872307860  0.8319598225142855
  0.6629969963701612  0.8315423221092857  0.9944750688044834
  0.9559610181134985  0.6199543414620265  0.0792772252732448
  0.5470780001591038  0.7096832623632139  0.2515414010865058
  0.6214089010492003  0.7951589540410140  0.4172298906933776
  0.7061658313117647  0.8812493551365748  0.5859537983703405
  0.7934849648323734  0.9580879668361035  0.7503518476736275
  0.8732704159940567  0.5405962094397125  0.9150244013534845
  0.8338449166615405  0.5048335031365880  0.3371367035652284
  0.8863165205222785  0.6280751364795805  0.4997602317535979
  0.2437795862129590  0.4133875086774950  0.1675155860875321
  0.7417831264455614  0.4136853958045137  0.1672059251311921
  0.2427468027426798  0.9126012430737021  0.1678686978701336
  0.7429420580233312  0.9129050275292769  0.1674313680687192
  0.1403892320728701  0.4763934672258117  0.6775846959302712
  0.2237818079411227  0.0585967044547004  0.8414960669908069
  0.0137498589797431  0.3492400431159055  0.9230511289145298
  0.0888422368675421  0.4292993109717429  0.0832501814525841
  0.1806487137971970  0.0297320359760889  0.2723357277087786
  0.2703475912690507  0.0996139044721644  0.4310365381968211
  0.3541619607588018  0.1815748936007324  0.5947681249825152
  0.4323576933040059  0.2674814595520161  0.7581313078835237
  0.3044551122720804  0.1425882752971859  0.0066415386835814
  0.4107915072205444  0.2064038262065182  0.1775566841584748
  0.4759315551977963  0.3127605497901627  0.3448760618471169
  0.0815097786689165  0.2447257767934303  0.6364667422180403
  0.1626083077206602  0.3290910658841781  0.8006111042814723
  0.2448594458445470  0.4122393192761464  0.9664377471842087
  0.0348798662787644  0.2015834448619955  0.0495133902532032
  0.1247207551943319  0.2929379055415993  0.2179442317057294
  0.2053359214527219  0.3711682623999479  0.3874719682403267
  0.2882009025754257  0.4544918621580578  0.5525000592662863
  0.3717024310537340  0.0373548529668000  0.7179379035906024
  0.4536348570368602  0.1201057967939718  0.8832025824840954
  0.3296096826999957  0.0001133533966637  0.1328487607213944
  0.4119777151221911  0.0812475382971058  0.3044799922216725
  0.4973003230397808  0.1637680474253784  0.4689430495919851
  0.5570574658894714  0.3945271375928030  0.5103433158035173
  0.6402069527506882  0.4772537824444143  0.6774200509789523
  0.7241130849888222  0.0586191721075267  0.8411168038192898
  0.5132668001733833  0.3489853062581574  0.9225039398180854
  0.5879893065790611  0.4293393039171463  0.0825832484023223
  0.6809775869257848  0.0270952841344538  0.2712077597394895
  0.7667143551873039  0.1022137106075718  0.4296548991903038
  0.8572950095298211  0.1906159575864592  0.5914662691230674
  0.9322826385484362  0.2677327223870662  0.7599436545677989
  0.8039264613491639  0.1428067822843175  0.0063379178705603
  0.9091836543112279  0.2063802764963256  0.1763731354918860
  0.9734779237970628  0.3125167188769140  0.3442732903798316
  0.5818527729268794  0.2467017694950115  0.6342138246931910
  0.6620530897360766  0.3291866025814372  0.8005584287076175
  0.7447767200217754  0.4123125363158522  0.9661555986609329
  0.5347718556958938  0.2014571052625413  0.0494425281374760
  0.6251786227355538  0.2928378981677469  0.2174344693042798
  0.7060866087862721  0.3715357817305573  0.3874531689521135
  0.7852061368240513  0.4566830022133814  0.5529539403421708
  0.8722555758418906  0.0391148579626233  0.7168560640788755
  0.9535233341125746  0.1199287195504937  0.8835337158704277
  0.8299769342533168  0.0000135605051383  0.1323661325955925
  0.9120102284813427  0.0816210072389083  0.3038077742346630
  0.9970122760060960  0.1613403142442564  0.4682953266200940
  0.0615392458647435  0.8909214506285537  0.5109190810976045
  0.1440056942989187  0.9731306922373406  0.6767326243309100
  0.2229185994902636  0.5594653390775193  0.8427301384327563
  0.0132980810169911  0.8492052261142717  0.9228143070073287
  0.0885873976339440  0.9294458903568739  0.0829876260697660
  0.1818766477590827  0.5276095585540901  0.2715156257063143
  0.2678400422055418  0.6016391850005292  0.4306492163988977
  0.3517035986410306  0.6844813691609559  0.5938563346299830
  0.4330042804257417  0.7664783508021813  0.7589024680225833
  0.3041229770062017  0.6431501929966288  0.0067858311400215
  0.4114999267922812  0.7062588333830391  0.1774140088155320
  0.4761275948226640  0.8102865522276019  0.3443397134496067
  0.0806726368844792  0.7458681063505850  0.6350324296725489
  0.1625827513519127  0.8287172213943492  0.8007774347392598
  0.2447903579926916  0.9123475107734222  0.9662190089179177
  0.0349429722606516  0.7015696771332642  0.0494563192155013
  0.1259907241059537  0.7935173128817326  0.2175053982471198
  0.2062474253447704  0.8713567137370219  0.3872330285119219
  0.2891092234523143  0.9553451045689840  0.5525800909160239
  0.3699993042671821  0.5372932285075009  0.7176355236054448
  0.4532768742072761  0.6198979474754296  0.8833773007745549
  0.3302639899125026  0.5005863407584101  0.1325264930948009
  0.4125922410335363  0.5810172044810216  0.3039893801267084
  0.4971124045549047  0.6646098632425748  0.4690656598669420
  0.5605896828950705  0.8933339585254529  0.5112909515137005
  0.6434529797962867  0.9751983733820211  0.6775033349055590
  0.7237723976286148  0.5585543392518773  0.8416877868168058
  0.5136344333800835  0.8488761144820316  0.9225757257199803
  0.5882274210134568  0.9291733591846878  0.0829234411907223
  0.6821539359090139  0.5265135285955367  0.2715351991329484
  0.7668434692834438  0.6020891591497346  0.4300948688044670
  0.8500158569982474  0.6861096434696989  0.5952377460650666
  0.9332759530495309  0.7668785817322643  0.7586032592754535
  0.8044635206899642  0.6428890733745405  0.0067359727394773
  0.9116474001916828  0.7062715931141597  0.1776441686370447
  0.9763527206674709  0.8129328587839240  0.3449132374963000
  0.5802275187568355  0.7467969260261711  0.6349766992788020
  0.6627652528025507  0.8287749427572564  0.8005333878250696
  0.7446077807894085  0.9124267422092416  0.9660496782008110
  0.5348238624905832  0.7014997400032428  0.0493659583275274
  0.6253985634814612  0.7925300612385655  0.2175199777130814
  0.7063902015403158  0.8699141906102668  0.3873503002379266
  0.7903319474207322  0.9558280459180750  0.5524542570441326
  0.8711387541591122  0.5375991381867848  0.7176556181248444
  0.9532018347776372  0.6201698516544383  0.8833413105653918
  0.8299601613357339  0.5002322270726012  0.1325120647566251
  0.9122994858092355  0.5814798775394223  0.3039452813304777
  0.9976106873852473  0.6637335893125780  0.4691525535314369
 
  0.00000000E+00  0.00000000E+00  0.00000000E+00
  0.00000000E+00  0.00000000E+00  0.00000000E+00
  0.00000000E+00  0.00000000E+00  0.00000000E+00
  0.00000000E+00  0.00000000E+00  0.00000000E+00
  0.00000000E+00  0.00000000E+00  0.00000000E+00
  0.00000000E+00  0.00000000E+00  0.00000000E+00
  0.00000000E+00  0.00000000E+00  0.00000000E+00
  0.00000000E+00  0.00000000E+00  0.00000000E+00
  0.00000000E+00  0.00000000E+00  0.00000000E+00
  0.00000000E+00  0.00000000E+00  0.00000000E+00
  0.00000000E+00  0.00000000E+00  0.00000000E+00
  0.00000000E+00  0.00000000E+00  0.00000000E+00
  0.00000000E+00  0.00000000E+00  0.00000000E+00
  0.00000000E+00  0.00000000E+00  0.00000000E+00
  0.00000000E+00  0.00000000E+00  0.00000000E+00
  0.00000000E+00  0.00000000E+00  0.00000000E+00
  0.00000000E+00  0.00000000E+00  0.00000000E+00
  0.00000000E+00  0.00000000E+00  0.00000000E+00
  0.00000000E+00  0.00000000E+00  0.00000000E+00
  0.00000000E+00  0.00000000E+00  0.00000000E+00
  0.00000000E+00  0.00000000E+00  0.00000000E+00
  0.00000000E+00  0.00000000E+00  0.00000000E+00
  0.00000000E+00  0.00000000E+00  0.00000000E+00
  0.00000000E+00  0.00000000E+00  0.00000000E+00
  0.00000000E+00  0.00000000E+00  0.00000000E+00
  0.00000000E+00  0.00000000E+00  0.00000000E+00
  0.00000000E+00  0.00000000E+00  0.00000000E+00
  0.00000000E+00  0.00000000E+00  0.00000000E+00
  0.00000000E+00  0.00000000E+00  0.00000000E+00
  0.00000000E+00  0.00000000E+00  0.00000000E+00
  0.00000000E+00  0.00000000E+00  0.00000000E+00
  0.00000000E+00  0.00000000E+00  0.00000000E+00
  0.00000000E+00  0.00000000E+00  0.00000000E+00
  0.00000000E+00  0.00000000E+00  0.00000000E+00
  0.00000000E+00  0.00000000E+00  0.00000000E+00
  0.00000000E+00  0.00000000E+00  0.00000000E+00
  0.00000000E+00  0.00000000E+00  0.00000000E+00
  0.00000000E+00  0.00000000E+00  0.00000000E+00
  0.00000000E+00  0.00000000E+00  0.00000000E+00
  0.00000000E+00  0.00000000E+00  0.00000000E+00
  0.00000000E+00  0.00000000E+00  0.00000000E+00
  0.00000000E+00  0.00000000E+00  0.00000000E+00
  0.00000000E+00  0.00000000E+00  0.00000000E+00
  0.00000000E+00  0.00000000E+00  0.00000000E+00
  0.00000000E+00  0.00000000E+00  0.00000000E+00
  0.00000000E+00  0.00000000E+00  0.00000000E+00
  0.00000000E+00  0.00000000E+00  0.00000000E+00
  0.00000000E+00  0.00000000E+00  0.00000000E+00
  0.00000000E+00  0.00000000E+00  0.00000000E+00
  0.00000000E+00  0.00000000E+00  0.00000000E+00
  0.00000000E+00  0.00000000E+00  0.00000000E+00
  0.00000000E+00  0.00000000E+00  0.00000000E+00
  0.00000000E+00  0.00000000E+00  0.00000000E+00
  0.00000000E+00  0.00000000E+00  0.00000000E+00
  0.00000000E+00  0.00000000E+00  0.00000000E+00
  0.00000000E+00  0.00000000E+00  0.00000000E+00
  0.00000000E+00  0.00000000E+00  0.00000000E+00
  0.00000000E+00  0.00000000E+00  0.00000000E+00
  0.00000000E+00  0.00000000E+00  0.00000000E+00
  0.00000000E+00  0.00000000E+00  0.00000000E+00
  0.00000000E+00  0.00000000E+00  0.00000000E+00
  0.00000000E+00  0.00000000E+00  0.00000000E+00
  0.00000000E+00  0.00000000E+00  0.00000000E+00
  0.00000000E+00  0.00000000E+00  0.00000000E+00
  0.00000000E+00  0.00000000E+00  0.00000000E+00
  0.00000000E+00  0.00000000E+00  0.00000000E+00
  0.00000000E+00  0.00000000E+00  0.00000000E+00
  0.00000000E+00  0.00000000E+00  0.00000000E+00
  0.00000000E+00  0.00000000E+00  0.00000000E+00
  0.00000000E+00  0.00000000E+00  0.00000000E+00
  0.00000000E+00  0.00000000E+00  0.00000000E+00
  0.00000000E+00  0.00000000E+00  0.00000000E+00
  0.00000000E+00  0.00000000E+00  0.00000000E+00
  0.00000000E+00  0.00000000E+00  0.00000000E+00
  0.00000000E+00  0.00000000E+00  0.00000000E+00
  0.00000000E+00  0.00000000E+00  0.00000000E+00
  0.00000000E+00  0.00000000E+00  0.00000000E+00
  0.00000000E+00  0.00000000E+00  0.00000000E+00
  0.00000000E+00  0.00000000E+00  0.00000000E+00
  0.00000000E+00  0.00000000E+00  0.00000000E+00
  0.00000000E+00  0.00000000E+00  0.00000000E+00
  0.00000000E+00  0.00000000E+00  0.00000000E+00
  0.00000000E+00  0.00000000E+00  0.00000000E+00
  0.00000000E+00  0.00000000E+00  0.00000000E+00
  0.00000000E+00  0.00000000E+00  0.00000000E+00
  0.00000000E+00  0.00000000E+00  0.00000000E+00
  0.00000000E+00  0.00000000E+00  0.00000000E+00
  0.00000000E+00  0.00000000E+00  0.00000000E+00
  0.00000000E+00  0.00000000E+00  0.00000000E+00
  0.00000000E+00  0.00000000E+00  0.00000000E+00
  0.00000000E+00  0.00000000E+00  0.00000000E+00
  0.00000000E+00  0.00000000E+00  0.00000000E+00
  0.00000000E+00  0.00000000E+00  0.00000000E+00
  0.00000000E+00  0.00000000E+00  0.00000000E+00
  0.00000000E+00  0.00000000E+00  0.00000000E+00
  0.00000000E+00  0.00000000E+00  0.00000000E+00
  0.00000000E+00  0.00000000E+00  0.00000000E+00
  0.00000000E+00  0.00000000E+00  0.00000000E+00
  0.00000000E+00  0.00000000E+00  0.00000000E+00
  0.00000000E+00  0.00000000E+00  0.00000000E+00
  0.00000000E+00  0.00000000E+00  0.00000000E+00
  0.00000000E+00  0.00000000E+00  0.00000000E+00
  0.00000000E+00  0.00000000E+00  0.00000000E+00
  0.00000000E+00  0.00000000E+00  0.00000000E+00
  0.00000000E+00  0.00000000E+00  0.00000000E+00
  0.00000000E+00  0.00000000E+00  0.00000000E+00
  0.00000000E+00  0.00000000E+00  0.00000000E+00
  0.00000000E+00  0.00000000E+00  0.00000000E+00
  0.00000000E+00  0.00000000E+00  0.00000000E+00
  0.00000000E+00  0.00000000E+00  0.00000000E+00
  0.00000000E+00  0.00000000E+00  0.00000000E+00
  0.00000000E+00  0.00000000E+00  0.00000000E+00
  0.00000000E+00  0.00000000E+00  0.00000000E+00
  0.00000000E+00  0.00000000E+00  0.00000000E+00
  0.00000000E+00  0.00000000E+00  0.00000000E+00
  0.00000000E+00  0.00000000E+00  0.00000000E+00
  0.00000000E+00  0.00000000E+00  0.00000000E+00
  0.00000000E+00  0.00000000E+00  0.00000000E+00
  0.00000000E+00  0.00000000E+00  0.00000000E+00
  0.00000000E+00  0.00000000E+00  0.00000000E+00
  0.00000000E+00  0.00000000E+00  0.00000000E+00
  0.00000000E+00  0.00000000E+00  0.00000000E+00
  0.00000000E+00  0.00000000E+00  0.00000000E+00
  0.00000000E+00  0.00000000E+00  0.00000000E+00
  0.00000000E+00  0.00000000E+00  0.00000000E+00
  0.00000000E+00  0.00000000E+00  0.00000000E+00
  0.00000000E+00  0.00000000E+00  0.00000000E+00
  0.00000000E+00  0.00000000E+00  0.00000000E+00
  0.00000000E+00  0.00000000E+00  0.00000000E+00
  0.00000000E+00  0.00000000E+00  0.00000000E+00
  0.00000000E+00  0.00000000E+00  0.00000000E+00
  0.00000000E+00  0.00000000E+00  0.00000000E+00
  0.00000000E+00  0.00000000E+00  0.00000000E+00
  0.00000000E+00  0.00000000E+00  0.00000000E+00
  0.00000000E+00  0.00000000E+00  0.00000000E+00
  0.00000000E+00  0.00000000E+00  0.00000000E+00
  0.00000000E+00  0.00000000E+00  0.00000000E+00
  0.00000000E+00  0.00000000E+00  0.00000000E+00
  0.00000000E+00  0.00000000E+00  0.00000000E+00
  0.00000000E+00  0.00000000E+00  0.00000000E+00
  0.00000000E+00  0.00000000E+00  0.00000000E+00
  0.00000000E+00  0.00000000E+00  0.00000000E+00
  0.00000000E+00  0.00000000E+00  0.00000000E+00
  0.00000000E+00  0.00000000E+00  0.00000000E+00
  0.00000000E+00  0.00000000E+00  0.00000000E+00
  0.00000000E+00  0.00000000E+00  0.00000000E+00
  0.00000000E+00  0.00000000E+00  0.00000000E+00
  0.00000000E+00  0.00000000E+00  0.00000000E+00
  0.00000000E+00  0.00000000E+00  0.00000000E+00
  0.00000000E+00  0.00000000E+00  0.00000000E+00
  0.00000000E+00  0.00000000E+00  0.00000000E+00
  0.00000000E+00  0.00000000E+00  0.00000000E+00
  0.00000000E+00  0.00000000E+00  0.00000000E+00
  0.00000000E+00  0.00000000E+00  0.00000000E+00
  0.00000000E+00  0.00000000E+00  0.00000000E+00
  0.00000000E+00  0.00000000E+00  0.00000000E+00
  0.00000000E+00  0.00000000E+00  0.00000000E+00
  0.00000000E+00  0.00000000E+00  0.00000000E+00
  0.00000000E+00  0.00000000E+00  0.00000000E+00
  0.00000000E+00  0.00000000E+00  0.00000000E+00
  0.00000000E+00  0.00000000E+00  0.00000000E+00
  0.00000000E+00  0.00000000E+00  0.00000000E+00
  0.00000000E+00  0.00000000E+00  0.00000000E+00
  0.00000000E+00  0.00000000E+00  0.00000000E+00
  0.00000000E+00  0.00000000E+00  0.00000000E+00
  0.00000000E+00  0.00000000E+00  0.00000000E+00
  0.00000000E+00  0.00000000E+00  0.00000000E+00
  0.00000000E+00  0.00000000E+00  0.00000000E+00
  0.00000000E+00  0.00000000E+00  0.00000000E+00
  0.00000000E+00  0.00000000E+00  0.00000000E+00
  0.00000000E+00  0.00000000E+00  0.00000000E+00
  0.00000000E+00  0.00000000E+00  0.00000000E+00
  0.00000000E+00  0.00000000E+00  0.00000000E+00
  0.00000000E+00  0.00000000E+00  0.00000000E+00
  0.00000000E+00  0.00000000E+00  0.00000000E+00
  0.00000000E+00  0.00000000E+00  0.00000000E+00
  0.00000000E+00  0.00000000E+00  0.00000000E+00
  0.00000000E+00  0.00000000E+00  0.00000000E+00
  0.00000000E+00  0.00000000E+00  0.00000000E+00
  0.00000000E+00  0.00000000E+00  0.00000000E+00
  0.00000000E+00  0.00000000E+00  0.00000000E+00
  0.00000000E+00  0.00000000E+00  0.00000000E+00
  0.00000000E+00  0.00000000E+00  0.00000000E+00
  0.00000000E+00  0.00000000E+00  0.00000000E+00
  0.00000000E+00  0.00000000E+00  0.00000000E+00
  0.00000000E+00  0.00000000E+00  0.00000000E+00
  0.00000000E+00  0.00000000E+00  0.00000000E+00
  0.00000000E+00  0.00000000E+00  0.00000000E+00
  0.00000000E+00  0.00000000E+00  0.00000000E+00
  0.00000000E+00  0.00000000E+00  0.00000000E+00
  0.00000000E+00  0.00000000E+00  0.00000000E+00
