supercell of POSCAR                     
   1.00398800000000     
    -6.2729611433599999    0.0082005604289200   10.0015927484000002
     3.1280384584799998    5.4363994576400003   10.0007801159999996
    -7.8567367181199996   13.6110857897000006  -10.0002683574999995
   Al   Sc   N 
    92     4    95
Direct
  0.4795817726523879  0.3141118133288714  0.5431990745254680
  0.0615245692042734  0.3966644861441324  0.7076227873299885
  0.1425726912529228  0.4824033495632492  0.8707544502018791
  0.4409857937077035  0.2673281097132900  0.9558343344334048
  0.9908883504650774  0.3190151489059261  0.1361660940684075
  0.1045516414708203  0.4417960361099489  0.2985582391559802
  0.1888312314009823  0.0225440272020734  0.4612727280476037
  0.2710022490416719  0.1049739509168077  0.6255686085392966
  0.3532503623715044  0.1872159672841605  0.7901744447522958
  0.2280290379550465  0.0600293218884644  0.0400215526588852
  0.3217782019161461  0.1398328505075384  0.2101962700479874
  0.3983625711754684  0.2314843554399317  0.3775552706494452
  0.9997988052337305  0.1665430750134931  0.6659603960184768
  0.0800301020848408  0.2471881927277693  0.8275811653346778
  0.1799672538165780  0.3083833697610601  0.9730849959072501
  0.4581052108429517  0.1202170146224191  0.0809606368678430
  0.0501597899902109  0.2079754192363907  0.2593956128379418
  0.1280128960602767  0.2932185714952595  0.4215547331126075
  0.2093852572070602  0.3756926848024023  0.5849379480281343
  0.2918345954830173  0.4578267736311332  0.7485711882980155
  0.3770090630424576  0.0344879654654804  0.9122631179333922
  0.3362724358917504  0.0043333082856947  0.3402228379778265
  0.4187872979395166  0.0852508513431900  0.5028702819839452
  0.9794725029243025  0.3144288936914634  0.5434287457751168
  0.5618310345359347  0.3963235705384278  0.7076253896637397
  0.6442932290777890  0.4781935803050743  0.8726270118733055
  0.9343017849552879  0.2687163585471950  0.9563069318822670
  0.5122513687742227  0.3517766816697758  0.1207780520214854
  0.6034083057091095  0.4442178169830342  0.2988845388256465
  0.6891651151293985  0.0224895022770824  0.4609801315066520
  0.7706964239054344  0.1049294812478792  0.6254743180373836
  0.8522483713002416  0.1869919449181126  0.7900099122726658
  0.7271301319418555  0.0613637441280162  0.0391861148062915
  0.8207085472996241  0.1438037972934012  0.2092605872287976
  0.8969707860204466  0.2324814946883791  0.3784877045984842
  0.5001875473362531  0.1667640141615081  0.6665580522358070
  0.5818126133255461  0.2488205393469514  0.8298550005259386
  0.6619327177942296  0.3311460901431289  0.9937100281423881
  0.9558523750326771  0.1124968940979016  0.0759808468667984
  0.5451876465058234  0.2157498056055047  0.2536709269163566
  0.6271045826738160  0.2929978062268077  0.4204205677712451
  0.7087116214242144  0.3758272019643769  0.5844239141079797
  0.7902397017951017  0.4582867284705259  0.7483329074813696
  0.8724679355269132  0.0406899228725734  0.9127352897270384
  0.8350064697113595  0.0063146269118803  0.3389339035471224
  0.9184707646116763  0.0851337251305182  0.5027213639147163
  0.4794984100003461  0.8142557016054397  0.5430666753452655
  0.0618664114074008  0.8963523918302414  0.7076374788178441
  0.1442260230829504  0.9785689032396476  0.8729426780304763
  0.4362920879928751  0.7680931846202625  0.9559225254024213
  0.0211841298074447  0.8521057157360445  0.1231065653420629
  0.1055261546047106  0.9404818777061692  0.2971139529040840
  0.1887895404429969  0.5227885418278291  0.4614712698077170
  0.2710301375775686  0.6051539392279395  0.6255618834325674
  0.3535100662251054  0.6871904208377160  0.7902148878518815
  0.2287210769378092  0.5626684516197642  0.0392326030927848
  0.3200078138853897  0.6382491056385433  0.2096845025932694
  0.3969491912844987  0.7321190076796427  0.3774523695420839
  0.0003869330371273  0.6670075572860199  0.6666651696623731
  0.0822785398310586  0.7498062238874326  0.8299070361497982
  0.1642188955165693  0.8309240691381419  0.9933709371888924
  0.4550034846994819  0.6211185502463437  0.0782304271265843
  0.0511803527257584  0.7097055382765731  0.2542228426327355
  0.1266072151130615  0.7931569873335960  0.4199873038143735
  0.2090048157076154  0.8755771877534713  0.5843595942054236
  0.2913563852078340  0.9574416782973074  0.7485121178033936
  0.3738698123708915  0.5402006067868044  0.9133093432177688
  0.3366505595318969  0.5035699236994660  0.3399335795688643
  0.4180446946640899  0.5854448583641272  0.5025330812303110
  0.9795206993010837  0.8141623447703594  0.5431150606149160
  0.5617012132378818  0.8964043186264163  0.7076801089738964
  0.6446521119557573  0.9784791734011762  0.8724959913543415
  0.9353021031388877  0.7716133117392090  0.9529991516616931
  0.5205599678762454  0.8501685636439618  0.1221620819989013
  0.6044670614254670  0.9424207211218345  0.2971764083273243
  0.6886499729696709  0.5232507598978628  0.4615672449850479
  0.7708018612708898  0.6052731125550821  0.6255208310241329
  0.8524458388184897  0.6878916879882198  0.7895305929859191
  0.7269542484570408  0.5587755234508265  0.0395278135035753
  0.8203894482181795  0.6360331087138817  0.2100467983592367
  0.8969552111689580  0.7322171680432419  0.3773135340123090
  0.4999336914129202  0.6670661980033827  0.6663848216615520
  0.5826360703338267  0.7477030159066871  0.8300440120415686
  0.6603162537866822  0.8337587032622693  0.9938482399624249
  0.9291538931766752  0.6576866187341324  0.0762544073069407
  0.5467068131309603  0.7127137738730909  0.2547812610327043
  0.6269949859634778  0.7932996506925676  0.4202435977625782
  0.7090452691664737  0.8757105561454139  0.5845025635142491
  0.7910328008446541  0.9577314469768297  0.7485474558186453
  0.8725108458088613  0.5411021997083623  0.9124860896946814
  0.8355073275033078  0.5053172384593410  0.3407484006249604
  0.9185246469862562  0.5858198122808034  0.5031317569044731
  0.2294495618809549  0.4141779613725305  0.1677409990145264
  0.7253495530557714  0.4197785097643916  0.1703497413163078
  0.2478307520190484  0.9102642871134279  0.1690595459545818
  0.7461358871203174  0.9133326176360370  0.1718368330688520
  0.0591349047013310  0.3946343337993383  0.5123156048893023
  0.1415497386262814  0.4761712280094272  0.6771611165408231
  0.2234812949127445  0.0595541977807486  0.8422652163594080
  0.0124426339678223  0.3494447947857040  0.9235105673254935
  0.1845953782661311  0.0245804126825604  0.2713076614812024
  0.2687592540846566  0.1033686050757581  0.4310944612541334
  0.3505968329576561  0.1850554320212012  0.5945325079739661
  0.4319087764890881  0.2670264894512187  0.7588620918912454
  0.3058379630404531  0.1415625002000311  0.0082223412953155
  0.4060590013292895  0.2144767410351704  0.1774374309617386
  0.4772544768321652  0.3130493638890854  0.3453059790159045
  0.0800674923749938  0.2465398674626584  0.6356930575447706
  0.1618139897702591  0.3292222058665146  0.8017105533794222
  0.2448296514090060  0.4126848687897819  0.9665806532485348
  0.0362931731600611  0.1992602335312412  0.0488524248383229
  0.1276451429895360  0.2936364928775959  0.2174709139285156
  0.2072361501310311  0.3715499037195826  0.3880131854920137
  0.2887537884262272  0.4551648356380014  0.5531464199992797
  0.3708687616663084  0.0378674322871717  0.7183898412107723
  0.4526835806954423  0.1200351499278725  0.8840693283892165
  0.3329632165628240  0.9999371678444788  0.1328926172492118
  0.4131563519457941  0.0819434187153831  0.3040720611667851
  0.4980033231895291  0.1643967991486264  0.4695078234083994
  0.5587336577180935  0.3942523966491649  0.5116154961200010
  0.6409925711589821  0.4764356222181121  0.6765833127244676
  0.7231145684139051  0.0584963767325917  0.8413577211141288
  0.5135001828745445  0.3486672657157968  0.9218427873061898
  0.5819171726710550  0.4297763272771888  0.0808004198035874
  0.6805126449531258  0.0305876548809536  0.2709782394455189
  0.7693952388657266  0.1029799276701056  0.4303578607633867
  0.8501760654658739  0.1850939546717427  0.5942697060432494
  0.9308317538803834  0.2672238589516667  0.7582961623168032
  0.8035587022264536  0.1416546196300814  0.0057724395274761
  0.9171283685496476  0.2172056098922255  0.1742753130026671
  0.9768383448232356  0.3137418870377076  0.3469661416178980
  0.5799578135316708  0.2464549211385219  0.6353747901261357
  0.6622360236681857  0.3289398794945768  0.8004789508022867
  0.7449877413862538  0.4112801975099032  0.9662610445979141
  0.5354627894067221  0.2001963378379941  0.0492774310857484
  0.6276431036010379  0.2968391816539366  0.2161000983534578
  0.7065792879138897  0.3721671536670073  0.3882639699700690
  0.7887316531083073  0.4552271896915059  0.5532114013806648
  0.8711386100364393  0.0373872465066398  0.7180283843018458
  0.9535150278142268  0.1205560972824173  0.8833998068301057
  0.8332205355735312  0.0009918719484361  0.1332995055744846
  0.9137574224208578  0.0839136345059401  0.3027728732550443
  0.9977325740503176  0.1644657748519336  0.4698814861994904
  0.0588930321800163  0.8939786102414473  0.5113950901628357
  0.1413166932208227  0.9763933519612422  0.6767368443564905
  0.2239322899623204  0.5592288889511323  0.8414683760658974
  0.0143719642854450  0.8497723159031736  0.9222067378394954
  0.0922750446800649  0.9265378078742259  0.0832102017006591
  0.1856833664189352  0.5227938143696562  0.2698636860147374
  0.2678998448758492  0.6032815973021215  0.4304334303695541
  0.3504014574446828  0.6851801824492441  0.5943117087902223
  0.4325552159985122  0.7671921387900298  0.7589985473812817
  0.3039557513171829  0.6423789567538591  0.0061242398729675
  0.4147444521296748  0.7016708892886570  0.1772753071475321
  0.4762220963538795  0.8135329031805227  0.3455048593890169
  0.0801603138342628  0.7464802090509721  0.6353117992919550
  0.1629011863043743  0.8294774658770336  0.8005484175760103
  0.2458980909612620  0.9122440269322567  0.9663083530117831
  0.0359990059915631  0.7016248628001165  0.0483503991746090
  0.1269829479948257  0.7917087326350867  0.2174151774985091
  0.2059316545147851  0.8721604741478828  0.3877239973874040
  0.2886880208893743  0.9551910287484446  0.5530822418503334
  0.3712658187916134  0.5377867945824164  0.7181059914313579
  0.4538484948629531  0.6198220811814323  0.8834157219047896
  0.3221532422163733  0.4974949487157545  0.1327960159490971
  0.4119932464081586  0.5819384186502035  0.3042453214585095
  0.4972160194301409  0.6646686592001601  0.4694316776507179
  0.5591115570965215  0.8941960637122790  0.5116557620794850
  0.6412808246814734  0.9761253289921044  0.6766980246356056
  0.7241950074152044  0.5577355607170205  0.8416401202507870
  0.5149823765578887  0.8468080232883892  0.9228493079168345
  0.5932607693687117  0.9292013044095100  0.0848777988342775
  0.6819353258521517  0.5296401159275703  0.2738722498960371
  0.7689001348280939  0.6039070059471285  0.4316247272475096
  0.8507576558623242  0.6853039846693179  0.5947762969116042
  0.9325951811621707  0.7671263453639838  0.7589814852996000
  0.8043140624942566  0.6398193655339526  0.0060779578851111
  0.9197744541952204  0.6951279163141777  0.1756345449846748
  0.9758976386869094  0.8129713560930512  0.3435249870721364
  0.5799393261003729  0.7466367912701841  0.6353441600693444
  0.6621536624139850  0.8290210616219937  0.8007750599913237
  0.7456832416336141  0.9107839163904785  0.9664836046302057
  0.5364971225006414  0.7013898640862735  0.0495454236136581
  0.6291257767833400  0.7920769764201978  0.2174211244812057
  0.7065350711301619  0.8722760992533125  0.3873751842925515
  0.7887685391563579  0.9551298678960833  0.5528514119278967
  0.8710462384381046  0.5375795622649520  0.7181970916703193
  0.9531647168718322  0.6204248674826829  0.8832442864224390
  0.8292984501043605  0.4956319501701856  0.1330018861219173
  0.9141808052996723  0.5809762119144182  0.3042290582027150
  0.9975030381798931  0.6647541452655048  0.4692626746502029
 
  0.00000000E+00  0.00000000E+00  0.00000000E+00
  0.00000000E+00  0.00000000E+00  0.00000000E+00
  0.00000000E+00  0.00000000E+00  0.00000000E+00
  0.00000000E+00  0.00000000E+00  0.00000000E+00
  0.00000000E+00  0.00000000E+00  0.00000000E+00
  0.00000000E+00  0.00000000E+00  0.00000000E+00
  0.00000000E+00  0.00000000E+00  0.00000000E+00
  0.00000000E+00  0.00000000E+00  0.00000000E+00
  0.00000000E+00  0.00000000E+00  0.00000000E+00
  0.00000000E+00  0.00000000E+00  0.00000000E+00
  0.00000000E+00  0.00000000E+00  0.00000000E+00
  0.00000000E+00  0.00000000E+00  0.00000000E+00
  0.00000000E+00  0.00000000E+00  0.00000000E+00
  0.00000000E+00  0.00000000E+00  0.00000000E+00
  0.00000000E+00  0.00000000E+00  0.00000000E+00
  0.00000000E+00  0.00000000E+00  0.00000000E+00
  0.00000000E+00  0.00000000E+00  0.00000000E+00
  0.00000000E+00  0.00000000E+00  0.00000000E+00
  0.00000000E+00  0.00000000E+00  0.00000000E+00
  0.00000000E+00  0.00000000E+00  0.00000000E+00
  0.00000000E+00  0.00000000E+00  0.00000000E+00
  0.00000000E+00  0.00000000E+00  0.00000000E+00
  0.00000000E+00  0.00000000E+00  0.00000000E+00
  0.00000000E+00  0.00000000E+00  0.00000000E+00
  0.00000000E+00  0.00000000E+00  0.00000000E+00
  0.00000000E+00  0.00000000E+00  0.00000000E+00
  0.00000000E+00  0.00000000E+00  0.00000000E+00
  0.00000000E+00  0.00000000E+00  0.00000000E+00
  0.00000000E+00  0.00000000E+00  0.00000000E+00
  0.00000000E+00  0.00000000E+00  0.00000000E+00
  0.00000000E+00  0.00000000E+00  0.00000000E+00
  0.00000000E+00  0.00000000E+00  0.00000000E+00
  0.00000000E+00  0.00000000E+00  0.00000000E+00
  0.00000000E+00  0.00000000E+00  0.00000000E+00
  0.00000000E+00  0.00000000E+00  0.00000000E+00
  0.00000000E+00  0.00000000E+00  0.00000000E+00
  0.00000000E+00  0.00000000E+00  0.00000000E+00
  0.00000000E+00  0.00000000E+00  0.00000000E+00
  0.00000000E+00  0.00000000E+00  0.00000000E+00
  0.00000000E+00  0.00000000E+00  0.00000000E+00
  0.00000000E+00  0.00000000E+00  0.00000000E+00
  0.00000000E+00  0.00000000E+00  0.00000000E+00
  0.00000000E+00  0.00000000E+00  0.00000000E+00
  0.00000000E+00  0.00000000E+00  0.00000000E+00
  0.00000000E+00  0.00000000E+00  0.00000000E+00
  0.00000000E+00  0.00000000E+00  0.00000000E+00
  0.00000000E+00  0.00000000E+00  0.00000000E+00
  0.00000000E+00  0.00000000E+00  0.00000000E+00
  0.00000000E+00  0.00000000E+00  0.00000000E+00
  0.00000000E+00  0.00000000E+00  0.00000000E+00
  0.00000000E+00  0.00000000E+00  0.00000000E+00
  0.00000000E+00  0.00000000E+00  0.00000000E+00
  0.00000000E+00  0.00000000E+00  0.00000000E+00
  0.00000000E+00  0.00000000E+00  0.00000000E+00
  0.00000000E+00  0.00000000E+00  0.00000000E+00
  0.00000000E+00  0.00000000E+00  0.00000000E+00
  0.00000000E+00  0.00000000E+00  0.00000000E+00
  0.00000000E+00  0.00000000E+00  0.00000000E+00
  0.00000000E+00  0.00000000E+00  0.00000000E+00
  0.00000000E+00  0.00000000E+00  0.00000000E+00
  0.00000000E+00  0.00000000E+00  0.00000000E+00
  0.00000000E+00  0.00000000E+00  0.00000000E+00
  0.00000000E+00  0.00000000E+00  0.00000000E+00
  0.00000000E+00  0.00000000E+00  0.00000000E+00
  0.00000000E+00  0.00000000E+00  0.00000000E+00
  0.00000000E+00  0.00000000E+00  0.00000000E+00
  0.00000000E+00  0.00000000E+00  0.00000000E+00
  0.00000000E+00  0.00000000E+00  0.00000000E+00
  0.00000000E+00  0.00000000E+00  0.00000000E+00
  0.00000000E+00  0.00000000E+00  0.00000000E+00
  0.00000000E+00  0.00000000E+00  0.00000000E+00
  0.00000000E+00  0.00000000E+00  0.00000000E+00
  0.00000000E+00  0.00000000E+00  0.00000000E+00
  0.00000000E+00  0.00000000E+00  0.00000000E+00
  0.00000000E+00  0.00000000E+00  0.00000000E+00
  0.00000000E+00  0.00000000E+00  0.00000000E+00
  0.00000000E+00  0.00000000E+00  0.00000000E+00
  0.00000000E+00  0.00000000E+00  0.00000000E+00
  0.00000000E+00  0.00000000E+00  0.00000000E+00
  0.00000000E+00  0.00000000E+00  0.00000000E+00
  0.00000000E+00  0.00000000E+00  0.00000000E+00
  0.00000000E+00  0.00000000E+00  0.00000000E+00
  0.00000000E+00  0.00000000E+00  0.00000000E+00
  0.00000000E+00  0.00000000E+00  0.00000000E+00
  0.00000000E+00  0.00000000E+00  0.00000000E+00
  0.00000000E+00  0.00000000E+00  0.00000000E+00
  0.00000000E+00  0.00000000E+00  0.00000000E+00
  0.00000000E+00  0.00000000E+00  0.00000000E+00
  0.00000000E+00  0.00000000E+00  0.00000000E+00
  0.00000000E+00  0.00000000E+00  0.00000000E+00
  0.00000000E+00  0.00000000E+00  0.00000000E+00
  0.00000000E+00  0.00000000E+00  0.00000000E+00
  0.00000000E+00  0.00000000E+00  0.00000000E+00
  0.00000000E+00  0.00000000E+00  0.00000000E+00
  0.00000000E+00  0.00000000E+00  0.00000000E+00
  0.00000000E+00  0.00000000E+00  0.00000000E+00
  0.00000000E+00  0.00000000E+00  0.00000000E+00
  0.00000000E+00  0.00000000E+00  0.00000000E+00
  0.00000000E+00  0.00000000E+00  0.00000000E+00
  0.00000000E+00  0.00000000E+00  0.00000000E+00
  0.00000000E+00  0.00000000E+00  0.00000000E+00
  0.00000000E+00  0.00000000E+00  0.00000000E+00
  0.00000000E+00  0.00000000E+00  0.00000000E+00
  0.00000000E+00  0.00000000E+00  0.00000000E+00
  0.00000000E+00  0.00000000E+00  0.00000000E+00
  0.00000000E+00  0.00000000E+00  0.00000000E+00
  0.00000000E+00  0.00000000E+00  0.00000000E+00
  0.00000000E+00  0.00000000E+00  0.00000000E+00
  0.00000000E+00  0.00000000E+00  0.00000000E+00
  0.00000000E+00  0.00000000E+00  0.00000000E+00
  0.00000000E+00  0.00000000E+00  0.00000000E+00
  0.00000000E+00  0.00000000E+00  0.00000000E+00
  0.00000000E+00  0.00000000E+00  0.00000000E+00
  0.00000000E+00  0.00000000E+00  0.00000000E+00
  0.00000000E+00  0.00000000E+00  0.00000000E+00
  0.00000000E+00  0.00000000E+00  0.00000000E+00
  0.00000000E+00  0.00000000E+00  0.00000000E+00
  0.00000000E+00  0.00000000E+00  0.00000000E+00
  0.00000000E+00  0.00000000E+00  0.00000000E+00
  0.00000000E+00  0.00000000E+00  0.00000000E+00
  0.00000000E+00  0.00000000E+00  0.00000000E+00
  0.00000000E+00  0.00000000E+00  0.00000000E+00
  0.00000000E+00  0.00000000E+00  0.00000000E+00
  0.00000000E+00  0.00000000E+00  0.00000000E+00
  0.00000000E+00  0.00000000E+00  0.00000000E+00
  0.00000000E+00  0.00000000E+00  0.00000000E+00
  0.00000000E+00  0.00000000E+00  0.00000000E+00
  0.00000000E+00  0.00000000E+00  0.00000000E+00
  0.00000000E+00  0.00000000E+00  0.00000000E+00
  0.00000000E+00  0.00000000E+00  0.00000000E+00
  0.00000000E+00  0.00000000E+00  0.00000000E+00
  0.00000000E+00  0.00000000E+00  0.00000000E+00
  0.00000000E+00  0.00000000E+00  0.00000000E+00
  0.00000000E+00  0.00000000E+00  0.00000000E+00
  0.00000000E+00  0.00000000E+00  0.00000000E+00
  0.00000000E+00  0.00000000E+00  0.00000000E+00
  0.00000000E+00  0.00000000E+00  0.00000000E+00
  0.00000000E+00  0.00000000E+00  0.00000000E+00
  0.00000000E+00  0.00000000E+00  0.00000000E+00
  0.00000000E+00  0.00000000E+00  0.00000000E+00
  0.00000000E+00  0.00000000E+00  0.00000000E+00
  0.00000000E+00  0.00000000E+00  0.00000000E+00
  0.00000000E+00  0.00000000E+00  0.00000000E+00
  0.00000000E+00  0.00000000E+00  0.00000000E+00
  0.00000000E+00  0.00000000E+00  0.00000000E+00
  0.00000000E+00  0.00000000E+00  0.00000000E+00
  0.00000000E+00  0.00000000E+00  0.00000000E+00
  0.00000000E+00  0.00000000E+00  0.00000000E+00
  0.00000000E+00  0.00000000E+00  0.00000000E+00
  0.00000000E+00  0.00000000E+00  0.00000000E+00
  0.00000000E+00  0.00000000E+00  0.00000000E+00
  0.00000000E+00  0.00000000E+00  0.00000000E+00
  0.00000000E+00  0.00000000E+00  0.00000000E+00
  0.00000000E+00  0.00000000E+00  0.00000000E+00
  0.00000000E+00  0.00000000E+00  0.00000000E+00
  0.00000000E+00  0.00000000E+00  0.00000000E+00
  0.00000000E+00  0.00000000E+00  0.00000000E+00
  0.00000000E+00  0.00000000E+00  0.00000000E+00
  0.00000000E+00  0.00000000E+00  0.00000000E+00
  0.00000000E+00  0.00000000E+00  0.00000000E+00
  0.00000000E+00  0.00000000E+00  0.00000000E+00
  0.00000000E+00  0.00000000E+00  0.00000000E+00
  0.00000000E+00  0.00000000E+00  0.00000000E+00
  0.00000000E+00  0.00000000E+00  0.00000000E+00
  0.00000000E+00  0.00000000E+00  0.00000000E+00
  0.00000000E+00  0.00000000E+00  0.00000000E+00
  0.00000000E+00  0.00000000E+00  0.00000000E+00
  0.00000000E+00  0.00000000E+00  0.00000000E+00
  0.00000000E+00  0.00000000E+00  0.00000000E+00
  0.00000000E+00  0.00000000E+00  0.00000000E+00
  0.00000000E+00  0.00000000E+00  0.00000000E+00
  0.00000000E+00  0.00000000E+00  0.00000000E+00
  0.00000000E+00  0.00000000E+00  0.00000000E+00
  0.00000000E+00  0.00000000E+00  0.00000000E+00
  0.00000000E+00  0.00000000E+00  0.00000000E+00
  0.00000000E+00  0.00000000E+00  0.00000000E+00
  0.00000000E+00  0.00000000E+00  0.00000000E+00
  0.00000000E+00  0.00000000E+00  0.00000000E+00
  0.00000000E+00  0.00000000E+00  0.00000000E+00
  0.00000000E+00  0.00000000E+00  0.00000000E+00
  0.00000000E+00  0.00000000E+00  0.00000000E+00
  0.00000000E+00  0.00000000E+00  0.00000000E+00
  0.00000000E+00  0.00000000E+00  0.00000000E+00
  0.00000000E+00  0.00000000E+00  0.00000000E+00
  0.00000000E+00  0.00000000E+00  0.00000000E+00
  0.00000000E+00  0.00000000E+00  0.00000000E+00
  0.00000000E+00  0.00000000E+00  0.00000000E+00
  0.00000000E+00  0.00000000E+00  0.00000000E+00
  0.00000000E+00  0.00000000E+00  0.00000000E+00
  0.00000000E+00  0.00000000E+00  0.00000000E+00
  0.00000000E+00  0.00000000E+00  0.00000000E+00
