supercell of POSCAR                     
   1.00398800000000     
    -6.2729611433599999    0.0082005604289200   10.0015927484000002
     3.1280384584799998    5.4363994576400003   10.0007801159999996
    -7.8567367181199996   13.6110857897000006  -10.0002683574999995
   Al   Sc   N 
    92     4    95
Direct
  0.4801118346267756  0.3174214159905304  0.5438749770411633
  0.0620267166949873  0.3966908001600160  0.7088977129733038
  0.1440144957721614  0.4792850432325793  0.8736650341047252
  0.4353068725600124  0.2700867425293225  0.9562589640245136
  0.0172605244098207  0.3515937861664682  0.1203586270711483
  0.1033042869019383  0.4428332387941651  0.2929478845691804
  0.1599009831093881  0.9922038791632346  0.4712292266382221
  0.2696034747186928  0.1043663042581642  0.6268603368545769
  0.3526674458269881  0.1874680954852437  0.7918935549859683
  0.2263216842612294  0.0626697232846070  0.0388243433249187
  0.3179095288452416  0.1434270944828384  0.2067993099049872
  0.3979438031204197  0.2312948360980442  0.3758363864923382
  0.9998261632615666  0.1676831389260229  0.6679956501979305
  0.0818711161030237  0.2493928130166623  0.8316829793878355
  0.1630775077079534  0.3313863590206125  0.9941533388113371
  0.4561481371568448  0.1201970736497344  0.0786536536414530
  0.0462997652014607  0.2129384358225792  0.2523145357025385
  0.0939614941236044  0.3340377881476257  0.4161543789189750
  0.2094575210685932  0.3768708810163659  0.5852855834020474
  0.2911327769305530  0.4586294759079621  0.7504323961272661
  0.3733533043233948  0.0403169137499830  0.9148628532175067
  0.3509146670636412  0.9832283200166856  0.3206179658636401
  0.4516830243990881  0.0805827860671897  0.5184345684683578
  0.9787289248657629  0.3135729669706109  0.5438245016494889
  0.5621740209388832  0.3968217733238930  0.7091007779850287
  0.6442554631932822  0.4793933596825468  0.8735645822009275
  0.9352694545364528  0.2700772078839293  0.9561120018365585
  0.5176528889349541  0.3517916981140203  0.1207803461777601
  0.6034465941648861  0.4406051545679119  0.2948085271922167
  0.6915432088070617  0.0200386591526112  0.4588820052146190
  0.7705449501126296  0.1056925186009607  0.6269402990091280
  0.8531631010705851  0.1877975172773745  0.7915193171788886
  0.7263103487989397  0.0630756363375085  0.0386095350599547
  0.8195991796787183  0.1399854292128850  0.2085742111637856
  0.8947794248998520  0.2308892610040658  0.3759763292598635
  0.5014978467414792  0.1684730125677163  0.6706377385935269
  0.5822653834982248  0.2494828636960236  0.8321723245234267
  0.6626106795018956  0.3322329762088287  0.9941658307685088
  0.9555354538829093  0.1196671647456071  0.0782179806173176
  0.5470560552779347  0.2112284292038638  0.2518407081790599
  0.6250981135579821  0.2945181981104383  0.4183754744773367
  0.7085490847153579  0.3771843503415440  0.5852104413976491
  0.7917569718252011  0.4579233730076382  0.7501063586320811
  0.8729918163452552  0.0405781658397544  0.9144099411704900
  0.8344267083152630  0.0042448612439046  0.3377066254151728
  0.9075355478408085  0.0916190679876507  0.5033677821960936
  0.4804158960746818  0.8115818947795645  0.5434413735387125
  0.0616050875800056  0.8970846068569571  0.7096230983701020
  0.1442618235113002  0.9794052926986581  0.8737464228002523
  0.4356015040104779  0.7697799521271023  0.9561727372056410
  0.0161542635883904  0.8512896920591828  0.1200839737245474
  0.1025311266481950  0.9408096525661378  0.2964163989610356
  0.1911431106912076  0.5224751805696073  0.4615301887264422
  0.2723646097292587  0.6037882293527872  0.6267231531682640
  0.3534268036490431  0.6875741788011709  0.7914440600660342
  0.2266245736414803  0.5629194034310956  0.0385002833070516
  0.3185658437329622  0.6419613065609369  0.2085597464387661
  0.3976648381300549  0.7283025608169993  0.3765844592714984
  0.0021713176920528  0.6670673161069018  0.6676522114846790
  0.0820178022611486  0.7491572655111653  0.8315522494212857
  0.1629867098332127  0.8309695986309933  0.9933295074886814
  0.4551908420177995  0.6206131516860509  0.0787994011505120
  0.0457610981930614  0.7117116329667610  0.2512404263155616
  0.1260051990668458  0.7830776541413655  0.4155196589498757
  0.2132960812128744  0.8707332437583375  0.5899684482494649
  0.2920762361772304  0.9582233758668863  0.7509648997672116
  0.3731594952589958  0.5405523382022608  0.9143866566935088
  0.3358522848371877  0.5029753372077010  0.3373734429293904
  0.4194722091443737  0.5845782358312306  0.5024091768918737
  0.9819956173189794  0.8152909712225025  0.5425773086934669
  0.5621448198080401  0.8959445265264776  0.7087587297335460
  0.6441015700256614  0.9791272243759508  0.8736865799404185
  0.9351341168038658  0.7698676202904409  0.9560310044166656
  0.5161686102740788  0.8518882698661230  0.1207742624809569
  0.6090022766864749  0.9393892337204406  0.2946881090285842
  0.6890584860762203  0.5215437108760739  0.4604554075683041
  0.7715205691783140  0.6041916611460181  0.6265022492426340
  0.8535196688629370  0.6873404847660467  0.7911242867525203
  0.7263442715635620  0.5628205646296678  0.0387981042125389
  0.8191667001254643  0.6407446679969837  0.2079128575064146
  0.8969286701471830  0.7301073389248529  0.3752932015321662
  0.5019550778257056  0.6660420903677391  0.6680294346632394
  0.5823705988320995  0.7490628916942086  0.8315185923313209
  0.6627725144540122  0.8314760602854463  0.9942069065623613
  0.9558503613958962  0.6195100069365296  0.0785405521462081
  0.5480522803453169  0.7077897636565282  0.2497857748846570
  0.6287384048160192  0.7916593662975870  0.4189375998594542
  0.7155591510385619  0.8725428321745028  0.5866892368420693
  0.7917986490908859  0.9580666001737228  0.7503826342535902
  0.8730578043711290  0.5405330855202664  0.9144230237508424
  0.8283442522287814  0.5085371725198726  0.3365265992115170
  0.9156569371185697  0.5904486442220289  0.5035205604663489
  0.2439066645663743  0.4143511450797135  0.1668205418988293
  0.7452882311790603  0.4099927822188931  0.1667874665397093
  0.2369793660573762  0.9150386143874485  0.1665839024945015
  0.7432610779152995  0.9131011830702604  0.1666040780486782
  0.0584741755378673  0.3945690734947291  0.5119945062413578
  0.1421276717010826  0.4758793549563194  0.6762196411520094
  0.2235844481788547  0.0590458555408659  0.8419187388220450
  0.0134912296363083  0.3491730119468528  0.9227061121980356
  0.0891452578262815  0.4290902093740243  0.0830684571772551
  0.1816278863929739  0.0299172641935712  0.2758621001096202
  0.3491248783245027  0.1848760895146100  0.5946666637959552
  0.4315722164317251  0.2677506613366560  0.7597426531414513
  0.3043917516271719  0.1427450286216327  0.0069848594972584
  0.4114815231667492  0.2070237125350758  0.1773316130195894
  0.4757621035634472  0.3117552367313436  0.3448526472785929
  0.0799169299001363  0.2464177540027208  0.6348026357404279
  0.1620703530432124  0.3291793360492719  0.8004286937791960
  0.2446656716734736  0.4123670319454149  0.9661622966137244
  0.0348310395961917  0.2015701631791202  0.0493538920035448
  0.1259376073448095  0.2925448906969734  0.2177362885065222
  0.2063042535057775  0.3701426843083055  0.3870706680845331
  0.2891075952722559  0.4543277857735575  0.5526848154274120
  0.3712096830407532  0.0376697636073544  0.7178766796648901
  0.4532149586104168  0.1200635588740937  0.8836079793234148
  0.3285421275948650  0.0002055958410452  0.1336213712953267
  0.4147725862516864  0.0815066280540577  0.3040905105066756
  0.4967395943954074  0.1639000150861918  0.4690055002177616
  0.5599402483247857  0.3934604036433953  0.5109978376869719
  0.6419097865519277  0.4755972956077557  0.6766747096802277
  0.7231073164771615  0.0587922525626325  0.8414614207511022
  0.5132933556000765  0.3493768164696434  0.9228175570138148
  0.5887482369112149  0.4301552631747754  0.0831956740407591
  0.6825997032618929  0.0273249848650678  0.2707040826713367
  0.7661836453313100  0.1041519782022959  0.4296772935525652
  0.8491742684986150  0.1862345612960539  0.5952151789953319
  0.9324377028173458  0.2670363255453765  0.7589262859907535
  0.8038002607122294  0.1435185197682074  0.0064783380739684
  0.9150657769581443  0.2029426822767348  0.1778623391395868
  0.9714802814833021  0.3145630812005109  0.3441331632747051
  0.5786700571649845  0.2461139196462483  0.6347780950576620
  0.6621463928635691  0.3289239302748044  0.8005031603963531
  0.7445981643539952  0.4126139945412319  0.9661097552298443
  0.5348620854885198  0.2021160731548193  0.0494070314261421
  0.6265079666430609  0.2922557235957015  0.2172946229521955
  0.7054975730339237  0.3725499858085115  0.3870337240743424
  0.7888800789201156  0.4551632674944628  0.5525010547179363
  0.8706523557242178  0.0378089880970620  0.7179879644974676
  0.9532280727989288  0.1201334769511178  0.8833865463595743
  0.8300903423504948  0.0004740084591432  0.1321744486170147
  0.9130809827989026  0.0814214270630416  0.3044094002304405
  0.9946354022367530  0.1655435582857692  0.4693282866053679
  0.0653076665507015  0.8997232305143825  0.5086315525312344
  0.1412316639079734  0.9768838081746480  0.6777516160759660
  0.2231663958602326  0.5588833922579184  0.8416032190691141
  0.0129743566221663  0.8491436595085133  0.9222878340282747
  0.0872775751678745  0.9288227591785798  0.0816083120784796
  0.1820833883093655  0.5279347635535530  0.2711561680512062
  0.2710199258118067  0.5994227987213350  0.4303592504611800
  0.3529709065729989  0.6820282515211105  0.5944828680135217
  0.4325319078820016  0.7670602534563287  0.7586684822340786
  0.3043309663426115  0.6429916302016707  0.0063537092498436
  0.4082330025382888  0.7103437119087701  0.1773171984201340
  0.4789692927233915  0.8087296782394233  0.3457806278925375
  0.0809719044604265  0.7480573193176738  0.6340234155902138
  0.1624570895463791  0.8289756336721581  0.8006826929894970
  0.2448307878884677  0.9124182444849751  0.9662339106371363
  0.0349412611978579  0.7011600447648973  0.0491252958392607
  0.1252947389194006  0.7948612688588241  0.2173459843400352
  0.2061291710435569  0.8664570436112982  0.3865627710571715
  0.2898311165735166  0.9532724424211168  0.5538119786432603
  0.3711729105311647  0.5373211000381275  0.7181537000174174
  0.4533186819804271  0.6201358078821073  0.8833441937139739
  0.3307122006140162  0.5014841062108317  0.1323649301782197
  0.4127912823486213  0.5812439221145311  0.3036489673466676
  0.4977807063077151  0.6645039565849302  0.4692189702302585
  0.5616221062638971  0.8911475114736760  0.5115906507114403
  0.6412772375168743  0.9765089715589781  0.6758522683290451
  0.7235171981374720  0.5586843252411455  0.8414313501466211
  0.5136199661757459  0.8488935392565580  0.9225213768900744
  0.5875679087144761  0.9295921296272596  0.0829339722722793
  0.6803829921452689  0.5264739260430247  0.2698114493869355
  0.7698547943991514  0.6027892779425912  0.4306595947901997
  0.8524262434262297  0.6840347268525946  0.5949722270040212
  0.9328188527039671  0.7670404271059184  0.7582696964016051
  0.8042172295007575  0.6428553160914845  0.0065823558133289
  0.9113224648100342  0.7062400837621468  0.1770505491230381
  0.9743957983576266  0.8120474523151060  0.3439275773592669
  0.5804679958174859  0.7462501495811011  0.6349790884809821
  0.6625533076463910  0.8291727790186272  0.8002849616599548
  0.7445010859518817  0.9125220439172068  0.9662418265020136
  0.5346783560226172  0.7019094678866296  0.0495304040826099
  0.6253463509215891  0.7927680692115260  0.2177097491017506
  0.7063739418285877  0.8712916159939823  0.3870153317165759
  0.7902362732730879  0.9553525035770178  0.5518112226149228
  0.8713668043238698  0.5374011414685640  0.7178551578816652
  0.9530747849059793  0.6202411902627460  0.8831962275451204
  0.8303693693022254  0.4997612837357934  0.1325136009678900
  0.9127990087653970  0.5802511765102665  0.3038357480574803
  0.9991196176769606  0.6653038342681086  0.4689592990597120
 
  0.00000000E+00  0.00000000E+00  0.00000000E+00
  0.00000000E+00  0.00000000E+00  0.00000000E+00
  0.00000000E+00  0.00000000E+00  0.00000000E+00
  0.00000000E+00  0.00000000E+00  0.00000000E+00
  0.00000000E+00  0.00000000E+00  0.00000000E+00
  0.00000000E+00  0.00000000E+00  0.00000000E+00
  0.00000000E+00  0.00000000E+00  0.00000000E+00
  0.00000000E+00  0.00000000E+00  0.00000000E+00
  0.00000000E+00  0.00000000E+00  0.00000000E+00
  0.00000000E+00  0.00000000E+00  0.00000000E+00
  0.00000000E+00  0.00000000E+00  0.00000000E+00
  0.00000000E+00  0.00000000E+00  0.00000000E+00
  0.00000000E+00  0.00000000E+00  0.00000000E+00
  0.00000000E+00  0.00000000E+00  0.00000000E+00
  0.00000000E+00  0.00000000E+00  0.00000000E+00
  0.00000000E+00  0.00000000E+00  0.00000000E+00
  0.00000000E+00  0.00000000E+00  0.00000000E+00
  0.00000000E+00  0.00000000E+00  0.00000000E+00
  0.00000000E+00  0.00000000E+00  0.00000000E+00
  0.00000000E+00  0.00000000E+00  0.00000000E+00
  0.00000000E+00  0.00000000E+00  0.00000000E+00
  0.00000000E+00  0.00000000E+00  0.00000000E+00
  0.00000000E+00  0.00000000E+00  0.00000000E+00
  0.00000000E+00  0.00000000E+00  0.00000000E+00
  0.00000000E+00  0.00000000E+00  0.00000000E+00
  0.00000000E+00  0.00000000E+00  0.00000000E+00
  0.00000000E+00  0.00000000E+00  0.00000000E+00
  0.00000000E+00  0.00000000E+00  0.00000000E+00
  0.00000000E+00  0.00000000E+00  0.00000000E+00
  0.00000000E+00  0.00000000E+00  0.00000000E+00
  0.00000000E+00  0.00000000E+00  0.00000000E+00
  0.00000000E+00  0.00000000E+00  0.00000000E+00
  0.00000000E+00  0.00000000E+00  0.00000000E+00
  0.00000000E+00  0.00000000E+00  0.00000000E+00
  0.00000000E+00  0.00000000E+00  0.00000000E+00
  0.00000000E+00  0.00000000E+00  0.00000000E+00
  0.00000000E+00  0.00000000E+00  0.00000000E+00
  0.00000000E+00  0.00000000E+00  0.00000000E+00
  0.00000000E+00  0.00000000E+00  0.00000000E+00
  0.00000000E+00  0.00000000E+00  0.00000000E+00
  0.00000000E+00  0.00000000E+00  0.00000000E+00
  0.00000000E+00  0.00000000E+00  0.00000000E+00
  0.00000000E+00  0.00000000E+00  0.00000000E+00
  0.00000000E+00  0.00000000E+00  0.00000000E+00
  0.00000000E+00  0.00000000E+00  0.00000000E+00
  0.00000000E+00  0.00000000E+00  0.00000000E+00
  0.00000000E+00  0.00000000E+00  0.00000000E+00
  0.00000000E+00  0.00000000E+00  0.00000000E+00
  0.00000000E+00  0.00000000E+00  0.00000000E+00
  0.00000000E+00  0.00000000E+00  0.00000000E+00
  0.00000000E+00  0.00000000E+00  0.00000000E+00
  0.00000000E+00  0.00000000E+00  0.00000000E+00
  0.00000000E+00  0.00000000E+00  0.00000000E+00
  0.00000000E+00  0.00000000E+00  0.00000000E+00
  0.00000000E+00  0.00000000E+00  0.00000000E+00
  0.00000000E+00  0.00000000E+00  0.00000000E+00
  0.00000000E+00  0.00000000E+00  0.00000000E+00
  0.00000000E+00  0.00000000E+00  0.00000000E+00
  0.00000000E+00  0.00000000E+00  0.00000000E+00
  0.00000000E+00  0.00000000E+00  0.00000000E+00
  0.00000000E+00  0.00000000E+00  0.00000000E+00
  0.00000000E+00  0.00000000E+00  0.00000000E+00
  0.00000000E+00  0.00000000E+00  0.00000000E+00
  0.00000000E+00  0.00000000E+00  0.00000000E+00
  0.00000000E+00  0.00000000E+00  0.00000000E+00
  0.00000000E+00  0.00000000E+00  0.00000000E+00
  0.00000000E+00  0.00000000E+00  0.00000000E+00
  0.00000000E+00  0.00000000E+00  0.00000000E+00
  0.00000000E+00  0.00000000E+00  0.00000000E+00
  0.00000000E+00  0.00000000E+00  0.00000000E+00
  0.00000000E+00  0.00000000E+00  0.00000000E+00
  0.00000000E+00  0.00000000E+00  0.00000000E+00
  0.00000000E+00  0.00000000E+00  0.00000000E+00
  0.00000000E+00  0.00000000E+00  0.00000000E+00
  0.00000000E+00  0.00000000E+00  0.00000000E+00
  0.00000000E+00  0.00000000E+00  0.00000000E+00
  0.00000000E+00  0.00000000E+00  0.00000000E+00
  0.00000000E+00  0.00000000E+00  0.00000000E+00
  0.00000000E+00  0.00000000E+00  0.00000000E+00
  0.00000000E+00  0.00000000E+00  0.00000000E+00
  0.00000000E+00  0.00000000E+00  0.00000000E+00
  0.00000000E+00  0.00000000E+00  0.00000000E+00
  0.00000000E+00  0.00000000E+00  0.00000000E+00
  0.00000000E+00  0.00000000E+00  0.00000000E+00
  0.00000000E+00  0.00000000E+00  0.00000000E+00
  0.00000000E+00  0.00000000E+00  0.00000000E+00
  0.00000000E+00  0.00000000E+00  0.00000000E+00
  0.00000000E+00  0.00000000E+00  0.00000000E+00
  0.00000000E+00  0.00000000E+00  0.00000000E+00
  0.00000000E+00  0.00000000E+00  0.00000000E+00
  0.00000000E+00  0.00000000E+00  0.00000000E+00
  0.00000000E+00  0.00000000E+00  0.00000000E+00
  0.00000000E+00  0.00000000E+00  0.00000000E+00
  0.00000000E+00  0.00000000E+00  0.00000000E+00
  0.00000000E+00  0.00000000E+00  0.00000000E+00
  0.00000000E+00  0.00000000E+00  0.00000000E+00
  0.00000000E+00  0.00000000E+00  0.00000000E+00
  0.00000000E+00  0.00000000E+00  0.00000000E+00
  0.00000000E+00  0.00000000E+00  0.00000000E+00
  0.00000000E+00  0.00000000E+00  0.00000000E+00
  0.00000000E+00  0.00000000E+00  0.00000000E+00
  0.00000000E+00  0.00000000E+00  0.00000000E+00
  0.00000000E+00  0.00000000E+00  0.00000000E+00
  0.00000000E+00  0.00000000E+00  0.00000000E+00
  0.00000000E+00  0.00000000E+00  0.00000000E+00
  0.00000000E+00  0.00000000E+00  0.00000000E+00
  0.00000000E+00  0.00000000E+00  0.00000000E+00
  0.00000000E+00  0.00000000E+00  0.00000000E+00
  0.00000000E+00  0.00000000E+00  0.00000000E+00
  0.00000000E+00  0.00000000E+00  0.00000000E+00
  0.00000000E+00  0.00000000E+00  0.00000000E+00
  0.00000000E+00  0.00000000E+00  0.00000000E+00
  0.00000000E+00  0.00000000E+00  0.00000000E+00
  0.00000000E+00  0.00000000E+00  0.00000000E+00
  0.00000000E+00  0.00000000E+00  0.00000000E+00
  0.00000000E+00  0.00000000E+00  0.00000000E+00
  0.00000000E+00  0.00000000E+00  0.00000000E+00
  0.00000000E+00  0.00000000E+00  0.00000000E+00
  0.00000000E+00  0.00000000E+00  0.00000000E+00
  0.00000000E+00  0.00000000E+00  0.00000000E+00
  0.00000000E+00  0.00000000E+00  0.00000000E+00
  0.00000000E+00  0.00000000E+00  0.00000000E+00
  0.00000000E+00  0.00000000E+00  0.00000000E+00
  0.00000000E+00  0.00000000E+00  0.00000000E+00
  0.00000000E+00  0.00000000E+00  0.00000000E+00
  0.00000000E+00  0.00000000E+00  0.00000000E+00
  0.00000000E+00  0.00000000E+00  0.00000000E+00
  0.00000000E+00  0.00000000E+00  0.00000000E+00
  0.00000000E+00  0.00000000E+00  0.00000000E+00
  0.00000000E+00  0.00000000E+00  0.00000000E+00
  0.00000000E+00  0.00000000E+00  0.00000000E+00
  0.00000000E+00  0.00000000E+00  0.00000000E+00
  0.00000000E+00  0.00000000E+00  0.00000000E+00
  0.00000000E+00  0.00000000E+00  0.00000000E+00
  0.00000000E+00  0.00000000E+00  0.00000000E+00
  0.00000000E+00  0.00000000E+00  0.00000000E+00
  0.00000000E+00  0.00000000E+00  0.00000000E+00
  0.00000000E+00  0.00000000E+00  0.00000000E+00
  0.00000000E+00  0.00000000E+00  0.00000000E+00
  0.00000000E+00  0.00000000E+00  0.00000000E+00
  0.00000000E+00  0.00000000E+00  0.00000000E+00
  0.00000000E+00  0.00000000E+00  0.00000000E+00
  0.00000000E+00  0.00000000E+00  0.00000000E+00
  0.00000000E+00  0.00000000E+00  0.00000000E+00
  0.00000000E+00  0.00000000E+00  0.00000000E+00
  0.00000000E+00  0.00000000E+00  0.00000000E+00
  0.00000000E+00  0.00000000E+00  0.00000000E+00
  0.00000000E+00  0.00000000E+00  0.00000000E+00
  0.00000000E+00  0.00000000E+00  0.00000000E+00
  0.00000000E+00  0.00000000E+00  0.00000000E+00
  0.00000000E+00  0.00000000E+00  0.00000000E+00
  0.00000000E+00  0.00000000E+00  0.00000000E+00
  0.00000000E+00  0.00000000E+00  0.00000000E+00
  0.00000000E+00  0.00000000E+00  0.00000000E+00
  0.00000000E+00  0.00000000E+00  0.00000000E+00
  0.00000000E+00  0.00000000E+00  0.00000000E+00
  0.00000000E+00  0.00000000E+00  0.00000000E+00
  0.00000000E+00  0.00000000E+00  0.00000000E+00
  0.00000000E+00  0.00000000E+00  0.00000000E+00
  0.00000000E+00  0.00000000E+00  0.00000000E+00
  0.00000000E+00  0.00000000E+00  0.00000000E+00
  0.00000000E+00  0.00000000E+00  0.00000000E+00
  0.00000000E+00  0.00000000E+00  0.00000000E+00
  0.00000000E+00  0.00000000E+00  0.00000000E+00
  0.00000000E+00  0.00000000E+00  0.00000000E+00
  0.00000000E+00  0.00000000E+00  0.00000000E+00
  0.00000000E+00  0.00000000E+00  0.00000000E+00
  0.00000000E+00  0.00000000E+00  0.00000000E+00
  0.00000000E+00  0.00000000E+00  0.00000000E+00
  0.00000000E+00  0.00000000E+00  0.00000000E+00
  0.00000000E+00  0.00000000E+00  0.00000000E+00
  0.00000000E+00  0.00000000E+00  0.00000000E+00
  0.00000000E+00  0.00000000E+00  0.00000000E+00
  0.00000000E+00  0.00000000E+00  0.00000000E+00
  0.00000000E+00  0.00000000E+00  0.00000000E+00
  0.00000000E+00  0.00000000E+00  0.00000000E+00
  0.00000000E+00  0.00000000E+00  0.00000000E+00
  0.00000000E+00  0.00000000E+00  0.00000000E+00
  0.00000000E+00  0.00000000E+00  0.00000000E+00
  0.00000000E+00  0.00000000E+00  0.00000000E+00
  0.00000000E+00  0.00000000E+00  0.00000000E+00
  0.00000000E+00  0.00000000E+00  0.00000000E+00
  0.00000000E+00  0.00000000E+00  0.00000000E+00
  0.00000000E+00  0.00000000E+00  0.00000000E+00
  0.00000000E+00  0.00000000E+00  0.00000000E+00
  0.00000000E+00  0.00000000E+00  0.00000000E+00
  0.00000000E+00  0.00000000E+00  0.00000000E+00
  0.00000000E+00  0.00000000E+00  0.00000000E+00
  0.00000000E+00  0.00000000E+00  0.00000000E+00
  0.00000000E+00  0.00000000E+00  0.00000000E+00
  0.00000000E+00  0.00000000E+00  0.00000000E+00
