supercell of POSCAR                     
   1.00398800000000     
    -6.2729611433599999    0.0082005604289200   10.0015927484000002
     3.1280384584799998    5.4363994576400003   10.0007801159999996
    -7.8567367181199996   13.6110857897000006  -10.0002683574999995
   Al   Sc   N 
    91     4    96
Direct
  0.4800435412534796  0.3126886911972377  0.5427856978060817
  0.1450287600724280  0.4764068224687392  0.8720448094047555
  0.4335857716076248  0.2702519997567094  0.9554068259614823
  0.0175842459013680  0.3514474246321129  0.1208159530775603
  0.1035412188995863  0.4415160035122696  0.2957513925645685
  0.1868099943337000  0.0230429623034922  0.4620645867705591
  0.2683112850776652  0.1048117911706115  0.6256082831714593
  0.3512556120789796  0.1883764136098947  0.7910089708190853
  0.2268526685399124  0.0630458330382808  0.0384788764183241
  0.3190391351875874  0.1412987894016737  0.2091692357512827
  0.3963980691013234  0.2313922910936199  0.3769081558438643
  0.0033529317676653  0.1697149116649115  0.6661180529287947
  0.0844482457250990  0.2516836654313011  0.8292646540436124
  0.1626127198572789  0.3325091334153356  0.9925843293108869
  0.4556042229874961  0.1203884755939555  0.0787593553574055
  0.0461831312521923  0.2116507652369464  0.2528478510335646
  0.1254401721560114  0.2929174488598747  0.4196446700731258
  0.2079443301519888  0.3742305314276919  0.5853742810453397
  0.2903665745264661  0.4566310208727771  0.7493836905351401
  0.3730814424167335  0.0412129737108486  0.9128902696528485
  0.3340008266172489  0.0043896850809020  0.3393475877257259
  0.4177612345213078  0.0844608532588325  0.5027568130671369
  0.9810361008676551  0.3128195781142153  0.5443796414127178
  0.5634242105072360  0.3953025203917875  0.7086568087039637
  0.6445582696064349  0.4785553750252163  0.8730548414931931
  0.9354711510003852  0.2696476770610943  0.9555568571160222
  0.5171134199074032  0.3518335411253091  0.1213553498748539
  0.6032024026015961  0.4421874685454767  0.2960697255882891
  0.6884078342778182  0.0221296468550776  0.4606935269784032
  0.7706263006088250  0.1048043578631237  0.6260509564831196
  0.8545468656332105  0.1879962273691476  0.7904423536879364
  0.7266240042860375  0.0625368953628254  0.0389660110336933
  0.8186026329790508  0.1414504757325901  0.2089789463611424
  0.8960191595326350  0.2315548364972670  0.3758127658447776
  0.4991627919764809  0.1659819277035268  0.6670845838538710
  0.5820726637568185  0.2482943648803655  0.8309560742076769
  0.6624794887415533  0.3313570822306104  0.9941812795599247
  0.9557738647214649  0.1200837045370875  0.0790714245443382
  0.5460680727294118  0.2117067932029144  0.2531941180348625
  0.6264537677373028  0.2927815257538597  0.4196633560388960
  0.7101104694024656  0.3747029647155316  0.5849859472369232
  0.7953106508650123  0.4592851442231947  0.7479917299045340
  0.8737696502414352  0.0397746462074551  0.9139898585581676
  0.8344398075064916  0.0046814778538149  0.3390880788455704
  0.9185951470843321  0.0869533761688785  0.5031694571274699
  0.4790435343167232  0.8120707658212893  0.5425006454536216
  0.0611815150529083  0.8973329701420951  0.7081397273769738
  0.1447323443152726  0.9785425545994428  0.8726847444434327
  0.4360466475215929  0.7699263126348299  0.9559437597579503
  0.0172131471351662  0.8519736611372082  0.1215198675392983
  0.1034291660808506  0.9421799900447283  0.2963435301152515
  0.1885028640479405  0.5215064904225670  0.4603298274351744
  0.2619671664729708  0.5954775432316382  0.6294588929848288
  0.3546884424308772  0.6869286407280626  0.7909808835315530
  0.2272589246309735  0.5635680830778682  0.0399354604913995
  0.3189326091277422  0.6419595264797451  0.2096951191084528
  0.3963365666833170  0.7311546237677220  0.3774313527851376
  0.9997395251238714  0.6649046907002898  0.6672359411668367
  0.0822926317120576  0.7476106478519142  0.8305730528351631
  0.1632091382494707  0.8316166330790367  0.9941949090448148
  0.4561645524097884  0.6204122081899897  0.0794714051700680
  0.0462691928179026  0.7116001240598067  0.2531813363386135
  0.1260211681951589  0.7935452773159426  0.4198277380000306
  0.2093891335413431  0.8731055716854783  0.5857710101929570
  0.2915388106334120  0.9579932634640045  0.7491693085177431
  0.3726024276737334  0.5404962079294577  0.9142237379915770
  0.3341869113407085  0.5046414652949949  0.3389985011348955
  0.4158965086574753  0.5843007135279592  0.5043035163020235
  0.9784121899441658  0.8154763891563590  0.5432169164875305
  0.5625126454192184  0.8933094856627832  0.7082017766784503
  0.6456331165059979  0.9786046515349440  0.8737682749773228
  0.9365385002685613  0.7685647096507964  0.9559349284197651
  0.5175537292955497  0.8517837183571402  0.1212772506717172
  0.6036159692534326  0.9418428626688211  0.2962651906327380
  0.6882418412069669  0.5213909119892506  0.4610775775031186
  0.7717367722568440  0.6033339790526213  0.6274226226758799
  0.8537462737981940  0.6844616084746988  0.7894223687824393
  0.7271797200154850  0.5622490557705007  0.0387065698196025
  0.8190190787066953  0.6413305271430048  0.2092019272601178
  0.8970856957212305  0.7312463190289051  0.3769683663309777
  0.4993591066460823  0.6641992947718265  0.6665293281925528
  0.5843990778230577  0.7478609637583560  0.8304953240192745
  0.6632210063021233  0.8314167399688088  0.9938949553434853
  0.9561028794559263  0.6198166390230924  0.0790146043775977
  0.5460672350116411  0.7118893080050341  0.2533953996244236
  0.6264395813376993  0.7923713143860169  0.4196598622860179
  0.7086190715487604  0.8744086196346998  0.5846007814123126
  0.7913162401577623  0.9570197745634275  0.7495075052688023
  0.8736436096418316  0.5395814502664891  0.9133695911829349
  0.8342964526693137  0.5045527261795826  0.3390164505265432
  0.9181369209896602  0.5846503703263153  0.5031518793754231
  0.2431499447424414  0.4132673304447678  0.1677614128701990
  0.7432894237534526  0.4133239764820758  0.1682284399428795
  0.2431222776939563  0.9136262583525436  0.1681365363778653
  0.7430870045053481  0.9133783753802049  0.1682062532743700
  0.0580745695023808  0.3940158845728305  0.5101265195343885
  0.1589890314299822  0.4930072139799364  0.6697774361492890
  0.2240181417169609  0.0563058432466264  0.8417967833231330
  0.0119496518272513  0.3489264846420070  0.9232686858272601
  0.0888061585118365  0.4290873525130294  0.0828018542419002
  0.1817187974228673  0.0274398626183370  0.2710623484730661
  0.2676842175225502  0.1029523816192608  0.4305753915622148
  0.3520598997783821  0.1822536099337739  0.5938586891719169
  0.4345595741037300  0.2650424047045661  0.7592112586552986
  0.3044200481307726  0.1432438855369753  0.0064205176159859
  0.4115361955293935  0.2063529997337028  0.1773217430523673
  0.4755008433442214  0.3127773997801526  0.3448161246144679
  0.0833176199994270  0.2280106877172940  0.6252924192762279
  0.1770144768199060  0.3206228065034082  0.8127557097640477
  0.2456500519673881  0.4153008493123878  0.9692381835359356
  0.0350300928657887  0.2013197410782652  0.0495021402493023
  0.1254628374131102  0.2928559709557348  0.2168913876565810
  0.2051613612076295  0.3712568784247523  0.3861464690118197
  0.2911253636172759  0.4501206189367082  0.5488304572323841
  0.3727509186425024  0.0358505899586632  0.7180633653468860
  0.4582793160861840  0.1173646876204160  0.8849810506803522
  0.3301974160703693  0.0006146906520783  0.1323944451441648
  0.4121205684359524  0.0812974853775899  0.3037456991809862
  0.4974953434516749  0.1627543994785725  0.4684498614110240
  0.5597608566322805  0.3924599889137710  0.5109786227477144
  0.6419510454581996  0.4732366487503867  0.6763343412727210
  0.7246063211791238  0.0582769771702019  0.8422819661446539
  0.5135746889637716  0.3489777911834437  0.9230533140877668
  0.5886605778753378  0.4295788890103793  0.0833088983970782
  0.6816317859868590  0.0273606561355209  0.2712346249812327
  0.7682347416049424  0.1028309322192626  0.4304531737419239
  0.8489732722616097  0.1838812670597960  0.5943611961685349
  0.9329779602195671  0.2663570413106129  0.7589505826024308
  0.8045280821666765  0.1426502597688639  0.0068904147894884
  0.9112850889640924  0.2064530196598824  0.1771936446862625
  0.9752796107321231  0.3130106613246753  0.3439883798935597
  0.5792562711855922  0.2454369375160326  0.6352587013525053
  0.6635643106430820  0.3275403117786695  0.8015630915971101
  0.7444226073620399  0.4118119704776220  0.9668998610210977
  0.5352251090448732  0.2020135085886707  0.0497571685580809
  0.6253221701475979  0.2932221821148389  0.2173220488104377
  0.7051374402558181  0.3717541456563325  0.3863934287349622
  0.7877240275776813  0.4545395334944544  0.5518568840298670
  0.8696958192172772  0.0382956312316267  0.7186842328945886
  0.9537365825860391  0.1192478185095567  0.8838935296430961
  0.8299631838457628  0.0006460308787055  0.1326711206247140
  0.9116941297486534  0.0813396331217504  0.3029411702324225
  0.9946840917394582  0.1645774821136783  0.4661515850753375
  0.0580106185571196  0.8947550088177181  0.5108153938100060
  0.1419173487949550  0.9748665199313891  0.6776534870983184
  0.2240695906201324  0.5591984013282740  0.8427270879506779
  0.0143361082402720  0.8486681500765059  0.9231381728690948
  0.0886212818333618  0.9295584695898000  0.0832025076974716
  0.1817627335216514  0.5271218197785927  0.2708618195048729
  0.2673135644647289  0.6035682460396359  0.4299579325297671
  0.3473286288902031  0.6809801024881992  0.5955884531464051
  0.4338111192046128  0.7665986884755185  0.7593083491680304
  0.3049741419310550  0.6436740742551450  0.0075635992363061
  0.4114144078826598  0.7070643371417802  0.1776445173921886
  0.4755762451438912  0.8126200396674221  0.3450316717987363
  0.0737014673995162  0.7536832908060518  0.6347827854918577
  0.1625798010992483  0.8281982846752811  0.8009231963557397
  0.2450113439171773  0.9123098124397586  0.9666572841574492
  0.0352572326699772  0.7022718868785205  0.0502551513797087
  0.1253875899572918  0.7934214154970363  0.2174826564041936
  0.2054245939284840  0.8720864560566000  0.3868991386910920
  0.2907904839147406  0.9494209082835567  0.5514071293225058
  0.3771526098767453  0.5361423894262245  0.7213138453760592
  0.4536658498696866  0.6202541521973970  0.8846571191898178
  0.3306685247311307  0.5012311906602989  0.1336071520871016
  0.4120789946208063  0.5818266550133799  0.3038422680831587
  0.4966216262956067  0.6619852379616660  0.4687030029870272
  0.5587301550963701  0.8928673008824575  0.5106752083972879
  0.6418472302972660  0.9745519058888377  0.6766210711701106
  0.7233065371692859  0.5575892664558921  0.8427088395330671
  0.5140375679483782  0.8487570938752356  0.9229194004892705
  0.5887271096072624  0.9295969005478639  0.0830460223692384
  0.6816020752196792  0.5275655142971303  0.2710532884704122
  0.7679142248555308  0.6027899679680218  0.4302895306146226
  0.8490508799987069  0.6851595951054179  0.5935639142911313
  0.9321648704097001  0.7679581689501944  0.7595442106236518
  0.8046091873496621  0.6428530757856521  0.0069871451692123
  0.9113963974562438  0.7065329180054292  0.1774099207571638
  0.9756082406292705  0.8128861676640895  0.3447342215427724
  0.5761345827411688  0.7467687302004009  0.6335429664549039
  0.6616573192818933  0.8320396841910949  0.8022809149726839
  0.7465431135959477  0.9117169040052389  0.9673452759640284
  0.5355075845366173  0.7017811131733680  0.0498367314849588
  0.6254698628957698  0.7932166433368124  0.2173852553958611
  0.7059050198444723  0.8713789741508151  0.3869327236300322
  0.7866158913876049  0.9554620580792488  0.5522968796048104
  0.8500229797820680  0.5545003042013121  0.7189703412013557
  0.9534858406325171  0.6206511250499034  0.8844175385224062
  0.8302916107915124  0.5003634857285348  0.1326218641511119
  0.9122079018676530  0.5817161550894383  0.3036993247860735
  0.9967932559507844  0.6646482736087833  0.4689901590779328
 
  0.00000000E+00  0.00000000E+00  0.00000000E+00
  0.00000000E+00  0.00000000E+00  0.00000000E+00
  0.00000000E+00  0.00000000E+00  0.00000000E+00
  0.00000000E+00  0.00000000E+00  0.00000000E+00
  0.00000000E+00  0.00000000E+00  0.00000000E+00
  0.00000000E+00  0.00000000E+00  0.00000000E+00
  0.00000000E+00  0.00000000E+00  0.00000000E+00
  0.00000000E+00  0.00000000E+00  0.00000000E+00
  0.00000000E+00  0.00000000E+00  0.00000000E+00
  0.00000000E+00  0.00000000E+00  0.00000000E+00
  0.00000000E+00  0.00000000E+00  0.00000000E+00
  0.00000000E+00  0.00000000E+00  0.00000000E+00
  0.00000000E+00  0.00000000E+00  0.00000000E+00
  0.00000000E+00  0.00000000E+00  0.00000000E+00
  0.00000000E+00  0.00000000E+00  0.00000000E+00
  0.00000000E+00  0.00000000E+00  0.00000000E+00
  0.00000000E+00  0.00000000E+00  0.00000000E+00
  0.00000000E+00  0.00000000E+00  0.00000000E+00
  0.00000000E+00  0.00000000E+00  0.00000000E+00
  0.00000000E+00  0.00000000E+00  0.00000000E+00
  0.00000000E+00  0.00000000E+00  0.00000000E+00
  0.00000000E+00  0.00000000E+00  0.00000000E+00
  0.00000000E+00  0.00000000E+00  0.00000000E+00
  0.00000000E+00  0.00000000E+00  0.00000000E+00
  0.00000000E+00  0.00000000E+00  0.00000000E+00
  0.00000000E+00  0.00000000E+00  0.00000000E+00
  0.00000000E+00  0.00000000E+00  0.00000000E+00
  0.00000000E+00  0.00000000E+00  0.00000000E+00
  0.00000000E+00  0.00000000E+00  0.00000000E+00
  0.00000000E+00  0.00000000E+00  0.00000000E+00
  0.00000000E+00  0.00000000E+00  0.00000000E+00
  0.00000000E+00  0.00000000E+00  0.00000000E+00
  0.00000000E+00  0.00000000E+00  0.00000000E+00
  0.00000000E+00  0.00000000E+00  0.00000000E+00
  0.00000000E+00  0.00000000E+00  0.00000000E+00
  0.00000000E+00  0.00000000E+00  0.00000000E+00
  0.00000000E+00  0.00000000E+00  0.00000000E+00
  0.00000000E+00  0.00000000E+00  0.00000000E+00
  0.00000000E+00  0.00000000E+00  0.00000000E+00
  0.00000000E+00  0.00000000E+00  0.00000000E+00
  0.00000000E+00  0.00000000E+00  0.00000000E+00
  0.00000000E+00  0.00000000E+00  0.00000000E+00
  0.00000000E+00  0.00000000E+00  0.00000000E+00
  0.00000000E+00  0.00000000E+00  0.00000000E+00
  0.00000000E+00  0.00000000E+00  0.00000000E+00
  0.00000000E+00  0.00000000E+00  0.00000000E+00
  0.00000000E+00  0.00000000E+00  0.00000000E+00
  0.00000000E+00  0.00000000E+00  0.00000000E+00
  0.00000000E+00  0.00000000E+00  0.00000000E+00
  0.00000000E+00  0.00000000E+00  0.00000000E+00
  0.00000000E+00  0.00000000E+00  0.00000000E+00
  0.00000000E+00  0.00000000E+00  0.00000000E+00
  0.00000000E+00  0.00000000E+00  0.00000000E+00
  0.00000000E+00  0.00000000E+00  0.00000000E+00
  0.00000000E+00  0.00000000E+00  0.00000000E+00
  0.00000000E+00  0.00000000E+00  0.00000000E+00
  0.00000000E+00  0.00000000E+00  0.00000000E+00
  0.00000000E+00  0.00000000E+00  0.00000000E+00
  0.00000000E+00  0.00000000E+00  0.00000000E+00
  0.00000000E+00  0.00000000E+00  0.00000000E+00
  0.00000000E+00  0.00000000E+00  0.00000000E+00
  0.00000000E+00  0.00000000E+00  0.00000000E+00
  0.00000000E+00  0.00000000E+00  0.00000000E+00
  0.00000000E+00  0.00000000E+00  0.00000000E+00
  0.00000000E+00  0.00000000E+00  0.00000000E+00
  0.00000000E+00  0.00000000E+00  0.00000000E+00
  0.00000000E+00  0.00000000E+00  0.00000000E+00
  0.00000000E+00  0.00000000E+00  0.00000000E+00
  0.00000000E+00  0.00000000E+00  0.00000000E+00
  0.00000000E+00  0.00000000E+00  0.00000000E+00
  0.00000000E+00  0.00000000E+00  0.00000000E+00
  0.00000000E+00  0.00000000E+00  0.00000000E+00
  0.00000000E+00  0.00000000E+00  0.00000000E+00
  0.00000000E+00  0.00000000E+00  0.00000000E+00
  0.00000000E+00  0.00000000E+00  0.00000000E+00
  0.00000000E+00  0.00000000E+00  0.00000000E+00
  0.00000000E+00  0.00000000E+00  0.00000000E+00
  0.00000000E+00  0.00000000E+00  0.00000000E+00
  0.00000000E+00  0.00000000E+00  0.00000000E+00
  0.00000000E+00  0.00000000E+00  0.00000000E+00
  0.00000000E+00  0.00000000E+00  0.00000000E+00
  0.00000000E+00  0.00000000E+00  0.00000000E+00
  0.00000000E+00  0.00000000E+00  0.00000000E+00
  0.00000000E+00  0.00000000E+00  0.00000000E+00
  0.00000000E+00  0.00000000E+00  0.00000000E+00
  0.00000000E+00  0.00000000E+00  0.00000000E+00
  0.00000000E+00  0.00000000E+00  0.00000000E+00
  0.00000000E+00  0.00000000E+00  0.00000000E+00
  0.00000000E+00  0.00000000E+00  0.00000000E+00
  0.00000000E+00  0.00000000E+00  0.00000000E+00
  0.00000000E+00  0.00000000E+00  0.00000000E+00
  0.00000000E+00  0.00000000E+00  0.00000000E+00
  0.00000000E+00  0.00000000E+00  0.00000000E+00
  0.00000000E+00  0.00000000E+00  0.00000000E+00
  0.00000000E+00  0.00000000E+00  0.00000000E+00
  0.00000000E+00  0.00000000E+00  0.00000000E+00
  0.00000000E+00  0.00000000E+00  0.00000000E+00
  0.00000000E+00  0.00000000E+00  0.00000000E+00
  0.00000000E+00  0.00000000E+00  0.00000000E+00
  0.00000000E+00  0.00000000E+00  0.00000000E+00
  0.00000000E+00  0.00000000E+00  0.00000000E+00
  0.00000000E+00  0.00000000E+00  0.00000000E+00
  0.00000000E+00  0.00000000E+00  0.00000000E+00
  0.00000000E+00  0.00000000E+00  0.00000000E+00
  0.00000000E+00  0.00000000E+00  0.00000000E+00
  0.00000000E+00  0.00000000E+00  0.00000000E+00
  0.00000000E+00  0.00000000E+00  0.00000000E+00
  0.00000000E+00  0.00000000E+00  0.00000000E+00
  0.00000000E+00  0.00000000E+00  0.00000000E+00
  0.00000000E+00  0.00000000E+00  0.00000000E+00
  0.00000000E+00  0.00000000E+00  0.00000000E+00
  0.00000000E+00  0.00000000E+00  0.00000000E+00
  0.00000000E+00  0.00000000E+00  0.00000000E+00
  0.00000000E+00  0.00000000E+00  0.00000000E+00
  0.00000000E+00  0.00000000E+00  0.00000000E+00
  0.00000000E+00  0.00000000E+00  0.00000000E+00
  0.00000000E+00  0.00000000E+00  0.00000000E+00
  0.00000000E+00  0.00000000E+00  0.00000000E+00
  0.00000000E+00  0.00000000E+00  0.00000000E+00
  0.00000000E+00  0.00000000E+00  0.00000000E+00
  0.00000000E+00  0.00000000E+00  0.00000000E+00
  0.00000000E+00  0.00000000E+00  0.00000000E+00
  0.00000000E+00  0.00000000E+00  0.00000000E+00
  0.00000000E+00  0.00000000E+00  0.00000000E+00
  0.00000000E+00  0.00000000E+00  0.00000000E+00
  0.00000000E+00  0.00000000E+00  0.00000000E+00
  0.00000000E+00  0.00000000E+00  0.00000000E+00
  0.00000000E+00  0.00000000E+00  0.00000000E+00
  0.00000000E+00  0.00000000E+00  0.00000000E+00
  0.00000000E+00  0.00000000E+00  0.00000000E+00
  0.00000000E+00  0.00000000E+00  0.00000000E+00
  0.00000000E+00  0.00000000E+00  0.00000000E+00
  0.00000000E+00  0.00000000E+00  0.00000000E+00
  0.00000000E+00  0.00000000E+00  0.00000000E+00
  0.00000000E+00  0.00000000E+00  0.00000000E+00
  0.00000000E+00  0.00000000E+00  0.00000000E+00
  0.00000000E+00  0.00000000E+00  0.00000000E+00
  0.00000000E+00  0.00000000E+00  0.00000000E+00
  0.00000000E+00  0.00000000E+00  0.00000000E+00
  0.00000000E+00  0.00000000E+00  0.00000000E+00
  0.00000000E+00  0.00000000E+00  0.00000000E+00
  0.00000000E+00  0.00000000E+00  0.00000000E+00
  0.00000000E+00  0.00000000E+00  0.00000000E+00
  0.00000000E+00  0.00000000E+00  0.00000000E+00
  0.00000000E+00  0.00000000E+00  0.00000000E+00
  0.00000000E+00  0.00000000E+00  0.00000000E+00
  0.00000000E+00  0.00000000E+00  0.00000000E+00
  0.00000000E+00  0.00000000E+00  0.00000000E+00
  0.00000000E+00  0.00000000E+00  0.00000000E+00
  0.00000000E+00  0.00000000E+00  0.00000000E+00
  0.00000000E+00  0.00000000E+00  0.00000000E+00
  0.00000000E+00  0.00000000E+00  0.00000000E+00
  0.00000000E+00  0.00000000E+00  0.00000000E+00
  0.00000000E+00  0.00000000E+00  0.00000000E+00
  0.00000000E+00  0.00000000E+00  0.00000000E+00
  0.00000000E+00  0.00000000E+00  0.00000000E+00
  0.00000000E+00  0.00000000E+00  0.00000000E+00
  0.00000000E+00  0.00000000E+00  0.00000000E+00
  0.00000000E+00  0.00000000E+00  0.00000000E+00
  0.00000000E+00  0.00000000E+00  0.00000000E+00
  0.00000000E+00  0.00000000E+00  0.00000000E+00
  0.00000000E+00  0.00000000E+00  0.00000000E+00
  0.00000000E+00  0.00000000E+00  0.00000000E+00
  0.00000000E+00  0.00000000E+00  0.00000000E+00
  0.00000000E+00  0.00000000E+00  0.00000000E+00
  0.00000000E+00  0.00000000E+00  0.00000000E+00
  0.00000000E+00  0.00000000E+00  0.00000000E+00
  0.00000000E+00  0.00000000E+00  0.00000000E+00
  0.00000000E+00  0.00000000E+00  0.00000000E+00
  0.00000000E+00  0.00000000E+00  0.00000000E+00
  0.00000000E+00  0.00000000E+00  0.00000000E+00
  0.00000000E+00  0.00000000E+00  0.00000000E+00
  0.00000000E+00  0.00000000E+00  0.00000000E+00
  0.00000000E+00  0.00000000E+00  0.00000000E+00
  0.00000000E+00  0.00000000E+00  0.00000000E+00
  0.00000000E+00  0.00000000E+00  0.00000000E+00
  0.00000000E+00  0.00000000E+00  0.00000000E+00
  0.00000000E+00  0.00000000E+00  0.00000000E+00
  0.00000000E+00  0.00000000E+00  0.00000000E+00
  0.00000000E+00  0.00000000E+00  0.00000000E+00
  0.00000000E+00  0.00000000E+00  0.00000000E+00
  0.00000000E+00  0.00000000E+00  0.00000000E+00
  0.00000000E+00  0.00000000E+00  0.00000000E+00
  0.00000000E+00  0.00000000E+00  0.00000000E+00
  0.00000000E+00  0.00000000E+00  0.00000000E+00
  0.00000000E+00  0.00000000E+00  0.00000000E+00
  0.00000000E+00  0.00000000E+00  0.00000000E+00
  0.00000000E+00  0.00000000E+00  0.00000000E+00
  0.00000000E+00  0.00000000E+00  0.00000000E+00
  0.00000000E+00  0.00000000E+00  0.00000000E+00
  0.00000000E+00  0.00000000E+00  0.00000000E+00
