supercell of POSCAR                     
   1.00398800000000     
    -6.2729611433599999    0.0082005604289200   10.0015927484000002
     3.1280384584799998    5.4363994576400003   10.0007801159999996
    -7.8567367181199996   13.6110857897000006  -10.0002683574999995
   Al   Sc   N 
    91     4    96
Direct
  0.4797807746850111  0.3135370629784049  0.5425184064972370
  0.0628806364199193  0.3952954384493310  0.7075850639222381
  0.1453488287901337  0.4784159893430342  0.8733904150387772
  0.4370323158919547  0.2693281663557627  0.9567904609154709
  0.0205311766763074  0.3503288009953849  0.1224245606019991
  0.1033796415483010  0.4389740904873349  0.2947642696501589
  0.1878293474305508  0.0222684042546959  0.4593835699989341
  0.2712910296376521  0.1043143734177079  0.6250091862940224
  0.3541521995538588  0.1866181544902119  0.7907219506569234
  0.2274174109413281  0.0629248809006882  0.0398355876384215
  0.3171969380954849  0.1443461013548273  0.2095128295022448
  0.3955227714006426  0.2319784971956906  0.3761025799917022
  0.0006487089115836  0.1663787287440783  0.6660383837664412
  0.0825873042029173  0.2482459121060074  0.8306246162360438
  0.1635711894762295  0.3316162079299687  0.9938870771361863
  0.4577627845276311  0.1193797045143228  0.0799879628552489
  0.1234435919477050  0.2932656449529176  0.4178618421045144
  0.2101697719114952  0.3752072378810993  0.5848621846229918
  0.2924626364123597  0.4572933415729565  0.7495730315698879
  0.3739894060013214  0.0399662852250628  0.9145930780966935
  0.3320378639618085  0.0054992638529896  0.3380658155537972
  0.4172903985172454  0.0857610430040339  0.5020738395975854
  0.9807772993740613  0.3128287444192281  0.5410276965917973
  0.5629816523822413  0.3954560706995096  0.7078652633932663
  0.6451643406533236  0.4781047662421827  0.8738566424600407
  0.9365689118206220  0.2690885599617303  0.9564305527849655
  0.5173592531832938  0.3523021092907470  0.1233668472067819
  0.6035967024604929  0.4427720929786929  0.2963287943220436
  0.6882293967342790  0.0222919465938176  0.4602325507747480
  0.7714873488780256  0.1040614004446567  0.6251485023195613
  0.8541609159655934  0.1864626247737604  0.7904434685938639
  0.7280656780069563  0.0621687559734099  0.0398758963294483
  0.8219227467225920  0.1414212240139605  0.2082974474923418
  0.8990534364355582  0.2335536064190293  0.3749003353486202
  0.5010806364577789  0.1660415517582550  0.6667836402348115
  0.5830623505962222  0.2484011923095721  0.8314423678581093
  0.6637127897310364  0.3309509942554030  0.9961426502640904
  0.9535236293394789  0.1202699208456792  0.0778697644581854
  0.5483592145595964  0.2112586955256219  0.2536344364957372
  0.6258835462664862  0.2929730465806273  0.4189228277327928
  0.7097234922171936  0.3748936116299788  0.5836059310429746
  0.7918985827489209  0.4572290112622568  0.7490376026695458
  0.8737247584705301  0.0390124716107110  0.9133576010828719
  0.8351077174044832  0.0053554438149988  0.3392495294858762
  0.9184185734605137  0.0845249574823939  0.5018854986802381
  0.4795926584482828  0.8135705034459448  0.5421937368589269
  0.0628280605914071  0.8954217993015163  0.7077531452342924
  0.1453097455745507  0.9781980979319087  0.8735754294287332
  0.4363083072647242  0.7690697512887112  0.9570095697205261
  0.0155598224802134  0.8524213370882165  0.1217228476466090
  0.1041107768513569  0.9438222938279495  0.2958287642917199
  0.1886508200545904  0.5207682301540615  0.4598887451883087
  0.2717310618550215  0.6042413642696900  0.6252783875296117
  0.3542663820803256  0.6864661703131532  0.7909385478680449
  0.2271835394225974  0.5609949494646713  0.0411263918632656
  0.3156121022998661  0.6437285477052015  0.2091779710447241
  0.3956593876007162  0.7340970662206985  0.3760871147830827
  0.0010015988577408  0.6657348595659514  0.6665363006991001
  0.0829900899922507  0.7480481444767335  0.8308736217157815
  0.1634600602138221  0.8304647390404298  0.9950742693383035
  0.4555307993888391  0.6204077272659347  0.0814668394353646
  0.0452519008688697  0.7127228181943579  0.2535132906350626
  0.1258895471850963  0.7919821987671654  0.4193653760272298
  0.2089897481777783  0.8751789993747963  0.5836887446198702
  0.2918750238073642  0.9572302645783139  0.7490310988951663
  0.3738025479316534  0.5398244965893895  0.9154045631786971
  0.3340870489338386  0.5061932380187386  0.3390803826386204
  0.4185568765820378  0.5850996604864065  0.5019566627371574
  0.9795168838238553  0.8126275059267414  0.5424901213232545
  0.5627191965022433  0.8953230874238756  0.7077518420355204
  0.6452929900965358  0.9782447352063741  0.8732992559834969
  0.9364194752187842  0.7693520553362490  0.9565420223175209
  0.5155842683420175  0.8522303380300897  0.1220322392050051
  0.6024944300605100  0.9423157064661396  0.2967804551619935
  0.6894333910557364  0.5216806213213729  0.4591149484899120
  0.7718679805955375  0.6037238309833342  0.6247787931585194
  0.8540779787772053  0.6863790282385978  0.7906391093750287
  0.7274949887363675  0.5616602197282674  0.0403560603928668
  0.8190188973020085  0.6400007627346085  0.2095439215323296
  0.8965738223543411  0.7306549239164610  0.3762599976227889
  0.5008421122970788  0.6662756317089205  0.6664203941044633
  0.5826310235732706  0.7482551210316402  0.8311164498737256
  0.6635202949184560  0.8308447009891182  0.9944833287877231
  0.9552734256623623  0.6203698937118318  0.0795503285185077
  0.5429996699710102  0.7128774995403333  0.2536675891479447
  0.6261570504783904  0.7939765476381524  0.4200346489035383
  0.7092462071809322  0.8746942938910536  0.5840848341286105
  0.7920074467049574  0.9568022972322652  0.7487743161678679
  0.8738941587300459  0.5396498357788246  0.9146713990639270
  0.8354769069353480  0.5028419668989486  0.3399701457508897
  0.9189806702904662  0.5828838636760239  0.5016836346181321
  0.2378378184926504  0.4079418523545328  0.1715052709752385
  0.7508783492319111  0.4073892394949183  0.1708430451151486
  0.2344836360564599  0.9240498833932662  0.1705884874962464
  0.7401799245136900  0.9136692553012509  0.1696962479682753
  0.0619991754726357  0.3942367692005320  0.5143275571523063
  0.1428818831584238  0.4756639581960727  0.6774508797408743
  0.2244461464073098  0.0576976490100520  0.8409648402473735
  0.0140432398925512  0.3478668215701930  0.9210525997790029
  0.0868154171396327  0.4315873580166212  0.0792657829831356
  0.1948783904547255  0.0084639707524303  0.2730921599994502
  0.2689030468090792  0.1035564591420979  0.4321783838093012
  0.3517035745287274  0.1846194365073615  0.5952573797032130
  0.4335484744391707  0.2662601351580705  0.7587828148830340
  0.3056097246619416  0.1423984233561413  0.0057858408396356
  0.4196967571964194  0.2018086624486628  0.1771490808849805
  0.4750759626468621  0.3135631572189439  0.3457966763165032
  0.0804293046476019  0.2458703241872513  0.6350557060019923
  0.1631038737959187  0.3282544531857567  0.7999955519402988
  0.2460561851067808  0.4116058777083680  0.9650335756700770
  0.0360074607061662  0.2008477856918347  0.0477068705768318
  0.1432375761454097  0.3108439807261973  0.2097037112843836
  0.2063721239131056  0.3718673882122516  0.3880032287911561
  0.2895807913508079  0.4547069289896797  0.5534668191836687
  0.3717915764933153  0.0368894681574332  0.7177861852993956
  0.4541897031696180  0.1194128576908611  0.8828146316005316
  0.3303722821342561  0.0022992985132433  0.1320853062495218
  0.4125318856963816  0.0824388056443297  0.3046298853343075
  0.4973388494464146  0.1646149363668030  0.4699689954037680
  0.5590741332414098  0.3938064677921531  0.5121672882908399
  0.6422478161125582  0.4753545911659529  0.6763606824301789
  0.7239598651215076  0.0572589855640686  0.8401053831571090
  0.5146020278404393  0.3484504989384050  0.9221869197656147
  0.5886543815287979  0.4300886103248516  0.0837163632730906
  0.6821616458164854  0.0270991318056772  0.2735282917241406
  0.7677297508676162  0.1035463438714075  0.4319755658371633
  0.8507107837172896  0.1843723615198769  0.5946427022084961
  0.9330425706298442  0.2661112613026759  0.7580786333416327
  0.8032205205888943  0.1404224227341970  0.0027608670171801
  0.8974068299742157  0.2051405838857789  0.1675826540636010
  0.9680092826152276  0.3256834203379242  0.3572664858289585
  0.5806759853300747  0.2457476892991650  0.6353802130685011
  0.6632023161419411  0.3283127144276321  0.8001788611791056
  0.7452577481432243  0.4116072585071393  0.9658272649939832
  0.5359605445290399  0.2015333697550190  0.0488243288190517
  0.6250391568106011  0.2936021141395955  0.2189908636931293
  0.7036588945435156  0.3720565414814203  0.3880389946588920
  0.7894145803105559  0.4542594480754829  0.5526594092402632
  0.8718435310140933  0.0366320982390036  0.7176242773990396
  0.9540796833793763  0.1191419091214740  0.8822721070864858
  0.8272789277000001  0.9967966472682903  0.1321620062118996
  0.9115141604927643  0.0816892636448188  0.3044925176899298
  0.9976662712043165  0.1621172692890482  0.4704086933482188
  0.0585202176607851  0.8930379792507992  0.5124134138301599
  0.1420651480101327  0.9754324122686526  0.6764646552443523
  0.2246962363590796  0.5578826171303604  0.8412180080331026
  0.0144764217145976  0.8475107635785690  0.9212912140264677
  0.0852842346408096  0.9285975495402710  0.0808185366918153
  0.1806976462649814  0.5327750484281992  0.2743609024873805
  0.2687914547073547  0.6028074440893150  0.4323106505128038
  0.3511386291231133  0.6847269204780559  0.5947386089242386
  0.4331938499516923  0.7661430776931724  0.7584727948571413
  0.3047321334491997  0.6413894191558143  0.0064892879378249
  0.4075170108046891  0.7103345790975339  0.1773585770344184
  0.4788036454570772  0.8133336409514769  0.3475876709421613
  0.0806987399393790  0.7455510414104936  0.6353804330893240
  0.1632136168436276  0.8282501742901616  0.8000351439172348
  0.2453882960697413  0.9115249994487868  0.9656294206179084
  0.0343186896655538  0.7015023604904229  0.0485725213422086
  0.1214315992389601  0.7931082387962576  0.2169663385533624
  0.2050768739422466  0.8705126975040756  0.3892970868598624
  0.2889731844588965  0.9545837945102775  0.5531179442692959
  0.3721375210442375  0.5369255442875343  0.7179379846818748
  0.4538582112854712  0.6194113960545806  0.8831411811543646
  0.3288855824042116  0.4993012904609841  0.1335200336866365
  0.4117002095273179  0.5837490049871406  0.3045737052059323
  0.4974368598716836  0.6643184891239855  0.4698273097677870
  0.5585475829079556  0.8953906992149427  0.5128546705625041
  0.6422408990493622  0.9751779275206687  0.6766046144018674
  0.7241271846432582  0.5576174973491135  0.8409884618549057
  0.5138429911197875  0.8481264723737638  0.9218476959173856
  0.5885383196461831  0.9275150974129147  0.0818964577059376
  0.6800237155877440  0.5300901008943626  0.2729821466810947
  0.7659317682849931  0.6079157445779231  0.4329025120826273
  0.8514568351748579  0.6844946533459648  0.5947741278958176
  0.9332578641378717  0.7659885882288151  0.7584240317193576
  0.8035978517823352  0.6423496879958961  0.0055351717651106
  0.9101961471903621  0.7065362133003035  0.1774581899194629
  0.9745477561294678  0.8137241672838513  0.3464578060215686
  0.5807576908451182  0.7456634045026860  0.6351285940493554
  0.6629340979850937  0.8280534464385880  0.8000610438882774
  0.7449441602141889  0.9114391580184034  0.9652261582432189
  0.5348940473783443  0.7011766923812317  0.0492355935331759
  0.6248119618733980  0.7939431010104201  0.2176196425429069
  0.7060624833613218  0.8724218852258687  0.3884810898582671
  0.7887807393042721  0.9544399063847422  0.5531986737422443
  0.8717675958972038  0.5368096206402768  0.7176569035721130
  0.9539109419453951  0.6192677053110671  0.8827620634743738
  0.8317802106372412  0.5002016054666640  0.1320081203621015
  0.9116106214227955  0.5824780052711276  0.3043773832452672
  0.9976486719906887  0.6636673725235340  0.4698737343022685
 
  0.00000000E+00  0.00000000E+00  0.00000000E+00
  0.00000000E+00  0.00000000E+00  0.00000000E+00
  0.00000000E+00  0.00000000E+00  0.00000000E+00
  0.00000000E+00  0.00000000E+00  0.00000000E+00
  0.00000000E+00  0.00000000E+00  0.00000000E+00
  0.00000000E+00  0.00000000E+00  0.00000000E+00
  0.00000000E+00  0.00000000E+00  0.00000000E+00
  0.00000000E+00  0.00000000E+00  0.00000000E+00
  0.00000000E+00  0.00000000E+00  0.00000000E+00
  0.00000000E+00  0.00000000E+00  0.00000000E+00
  0.00000000E+00  0.00000000E+00  0.00000000E+00
  0.00000000E+00  0.00000000E+00  0.00000000E+00
  0.00000000E+00  0.00000000E+00  0.00000000E+00
  0.00000000E+00  0.00000000E+00  0.00000000E+00
  0.00000000E+00  0.00000000E+00  0.00000000E+00
  0.00000000E+00  0.00000000E+00  0.00000000E+00
  0.00000000E+00  0.00000000E+00  0.00000000E+00
  0.00000000E+00  0.00000000E+00  0.00000000E+00
  0.00000000E+00  0.00000000E+00  0.00000000E+00
  0.00000000E+00  0.00000000E+00  0.00000000E+00
  0.00000000E+00  0.00000000E+00  0.00000000E+00
  0.00000000E+00  0.00000000E+00  0.00000000E+00
  0.00000000E+00  0.00000000E+00  0.00000000E+00
  0.00000000E+00  0.00000000E+00  0.00000000E+00
  0.00000000E+00  0.00000000E+00  0.00000000E+00
  0.00000000E+00  0.00000000E+00  0.00000000E+00
  0.00000000E+00  0.00000000E+00  0.00000000E+00
  0.00000000E+00  0.00000000E+00  0.00000000E+00
  0.00000000E+00  0.00000000E+00  0.00000000E+00
  0.00000000E+00  0.00000000E+00  0.00000000E+00
  0.00000000E+00  0.00000000E+00  0.00000000E+00
  0.00000000E+00  0.00000000E+00  0.00000000E+00
  0.00000000E+00  0.00000000E+00  0.00000000E+00
  0.00000000E+00  0.00000000E+00  0.00000000E+00
  0.00000000E+00  0.00000000E+00  0.00000000E+00
  0.00000000E+00  0.00000000E+00  0.00000000E+00
  0.00000000E+00  0.00000000E+00  0.00000000E+00
  0.00000000E+00  0.00000000E+00  0.00000000E+00
  0.00000000E+00  0.00000000E+00  0.00000000E+00
  0.00000000E+00  0.00000000E+00  0.00000000E+00
  0.00000000E+00  0.00000000E+00  0.00000000E+00
  0.00000000E+00  0.00000000E+00  0.00000000E+00
  0.00000000E+00  0.00000000E+00  0.00000000E+00
  0.00000000E+00  0.00000000E+00  0.00000000E+00
  0.00000000E+00  0.00000000E+00  0.00000000E+00
  0.00000000E+00  0.00000000E+00  0.00000000E+00
  0.00000000E+00  0.00000000E+00  0.00000000E+00
  0.00000000E+00  0.00000000E+00  0.00000000E+00
  0.00000000E+00  0.00000000E+00  0.00000000E+00
  0.00000000E+00  0.00000000E+00  0.00000000E+00
  0.00000000E+00  0.00000000E+00  0.00000000E+00
  0.00000000E+00  0.00000000E+00  0.00000000E+00
  0.00000000E+00  0.00000000E+00  0.00000000E+00
  0.00000000E+00  0.00000000E+00  0.00000000E+00
  0.00000000E+00  0.00000000E+00  0.00000000E+00
  0.00000000E+00  0.00000000E+00  0.00000000E+00
  0.00000000E+00  0.00000000E+00  0.00000000E+00
  0.00000000E+00  0.00000000E+00  0.00000000E+00
  0.00000000E+00  0.00000000E+00  0.00000000E+00
  0.00000000E+00  0.00000000E+00  0.00000000E+00
  0.00000000E+00  0.00000000E+00  0.00000000E+00
  0.00000000E+00  0.00000000E+00  0.00000000E+00
  0.00000000E+00  0.00000000E+00  0.00000000E+00
  0.00000000E+00  0.00000000E+00  0.00000000E+00
  0.00000000E+00  0.00000000E+00  0.00000000E+00
  0.00000000E+00  0.00000000E+00  0.00000000E+00
  0.00000000E+00  0.00000000E+00  0.00000000E+00
  0.00000000E+00  0.00000000E+00  0.00000000E+00
  0.00000000E+00  0.00000000E+00  0.00000000E+00
  0.00000000E+00  0.00000000E+00  0.00000000E+00
  0.00000000E+00  0.00000000E+00  0.00000000E+00
  0.00000000E+00  0.00000000E+00  0.00000000E+00
  0.00000000E+00  0.00000000E+00  0.00000000E+00
  0.00000000E+00  0.00000000E+00  0.00000000E+00
  0.00000000E+00  0.00000000E+00  0.00000000E+00
  0.00000000E+00  0.00000000E+00  0.00000000E+00
  0.00000000E+00  0.00000000E+00  0.00000000E+00
  0.00000000E+00  0.00000000E+00  0.00000000E+00
  0.00000000E+00  0.00000000E+00  0.00000000E+00
  0.00000000E+00  0.00000000E+00  0.00000000E+00
  0.00000000E+00  0.00000000E+00  0.00000000E+00
  0.00000000E+00  0.00000000E+00  0.00000000E+00
  0.00000000E+00  0.00000000E+00  0.00000000E+00
  0.00000000E+00  0.00000000E+00  0.00000000E+00
  0.00000000E+00  0.00000000E+00  0.00000000E+00
  0.00000000E+00  0.00000000E+00  0.00000000E+00
  0.00000000E+00  0.00000000E+00  0.00000000E+00
  0.00000000E+00  0.00000000E+00  0.00000000E+00
  0.00000000E+00  0.00000000E+00  0.00000000E+00
  0.00000000E+00  0.00000000E+00  0.00000000E+00
  0.00000000E+00  0.00000000E+00  0.00000000E+00
  0.00000000E+00  0.00000000E+00  0.00000000E+00
  0.00000000E+00  0.00000000E+00  0.00000000E+00
  0.00000000E+00  0.00000000E+00  0.00000000E+00
  0.00000000E+00  0.00000000E+00  0.00000000E+00
  0.00000000E+00  0.00000000E+00  0.00000000E+00
  0.00000000E+00  0.00000000E+00  0.00000000E+00
  0.00000000E+00  0.00000000E+00  0.00000000E+00
  0.00000000E+00  0.00000000E+00  0.00000000E+00
  0.00000000E+00  0.00000000E+00  0.00000000E+00
  0.00000000E+00  0.00000000E+00  0.00000000E+00
  0.00000000E+00  0.00000000E+00  0.00000000E+00
  0.00000000E+00  0.00000000E+00  0.00000000E+00
  0.00000000E+00  0.00000000E+00  0.00000000E+00
  0.00000000E+00  0.00000000E+00  0.00000000E+00
  0.00000000E+00  0.00000000E+00  0.00000000E+00
  0.00000000E+00  0.00000000E+00  0.00000000E+00
  0.00000000E+00  0.00000000E+00  0.00000000E+00
  0.00000000E+00  0.00000000E+00  0.00000000E+00
  0.00000000E+00  0.00000000E+00  0.00000000E+00
  0.00000000E+00  0.00000000E+00  0.00000000E+00
  0.00000000E+00  0.00000000E+00  0.00000000E+00
  0.00000000E+00  0.00000000E+00  0.00000000E+00
  0.00000000E+00  0.00000000E+00  0.00000000E+00
  0.00000000E+00  0.00000000E+00  0.00000000E+00
  0.00000000E+00  0.00000000E+00  0.00000000E+00
  0.00000000E+00  0.00000000E+00  0.00000000E+00
  0.00000000E+00  0.00000000E+00  0.00000000E+00
  0.00000000E+00  0.00000000E+00  0.00000000E+00
  0.00000000E+00  0.00000000E+00  0.00000000E+00
  0.00000000E+00  0.00000000E+00  0.00000000E+00
  0.00000000E+00  0.00000000E+00  0.00000000E+00
  0.00000000E+00  0.00000000E+00  0.00000000E+00
  0.00000000E+00  0.00000000E+00  0.00000000E+00
  0.00000000E+00  0.00000000E+00  0.00000000E+00
  0.00000000E+00  0.00000000E+00  0.00000000E+00
  0.00000000E+00  0.00000000E+00  0.00000000E+00
  0.00000000E+00  0.00000000E+00  0.00000000E+00
  0.00000000E+00  0.00000000E+00  0.00000000E+00
  0.00000000E+00  0.00000000E+00  0.00000000E+00
  0.00000000E+00  0.00000000E+00  0.00000000E+00
  0.00000000E+00  0.00000000E+00  0.00000000E+00
  0.00000000E+00  0.00000000E+00  0.00000000E+00
  0.00000000E+00  0.00000000E+00  0.00000000E+00
  0.00000000E+00  0.00000000E+00  0.00000000E+00
  0.00000000E+00  0.00000000E+00  0.00000000E+00
  0.00000000E+00  0.00000000E+00  0.00000000E+00
  0.00000000E+00  0.00000000E+00  0.00000000E+00
  0.00000000E+00  0.00000000E+00  0.00000000E+00
  0.00000000E+00  0.00000000E+00  0.00000000E+00
  0.00000000E+00  0.00000000E+00  0.00000000E+00
  0.00000000E+00  0.00000000E+00  0.00000000E+00
  0.00000000E+00  0.00000000E+00  0.00000000E+00
  0.00000000E+00  0.00000000E+00  0.00000000E+00
  0.00000000E+00  0.00000000E+00  0.00000000E+00
  0.00000000E+00  0.00000000E+00  0.00000000E+00
  0.00000000E+00  0.00000000E+00  0.00000000E+00
  0.00000000E+00  0.00000000E+00  0.00000000E+00
  0.00000000E+00  0.00000000E+00  0.00000000E+00
  0.00000000E+00  0.00000000E+00  0.00000000E+00
  0.00000000E+00  0.00000000E+00  0.00000000E+00
  0.00000000E+00  0.00000000E+00  0.00000000E+00
  0.00000000E+00  0.00000000E+00  0.00000000E+00
  0.00000000E+00  0.00000000E+00  0.00000000E+00
  0.00000000E+00  0.00000000E+00  0.00000000E+00
  0.00000000E+00  0.00000000E+00  0.00000000E+00
  0.00000000E+00  0.00000000E+00  0.00000000E+00
  0.00000000E+00  0.00000000E+00  0.00000000E+00
  0.00000000E+00  0.00000000E+00  0.00000000E+00
  0.00000000E+00  0.00000000E+00  0.00000000E+00
  0.00000000E+00  0.00000000E+00  0.00000000E+00
  0.00000000E+00  0.00000000E+00  0.00000000E+00
  0.00000000E+00  0.00000000E+00  0.00000000E+00
  0.00000000E+00  0.00000000E+00  0.00000000E+00
  0.00000000E+00  0.00000000E+00  0.00000000E+00
  0.00000000E+00  0.00000000E+00  0.00000000E+00
  0.00000000E+00  0.00000000E+00  0.00000000E+00
  0.00000000E+00  0.00000000E+00  0.00000000E+00
  0.00000000E+00  0.00000000E+00  0.00000000E+00
  0.00000000E+00  0.00000000E+00  0.00000000E+00
  0.00000000E+00  0.00000000E+00  0.00000000E+00
  0.00000000E+00  0.00000000E+00  0.00000000E+00
  0.00000000E+00  0.00000000E+00  0.00000000E+00
  0.00000000E+00  0.00000000E+00  0.00000000E+00
  0.00000000E+00  0.00000000E+00  0.00000000E+00
  0.00000000E+00  0.00000000E+00  0.00000000E+00
  0.00000000E+00  0.00000000E+00  0.00000000E+00
  0.00000000E+00  0.00000000E+00  0.00000000E+00
  0.00000000E+00  0.00000000E+00  0.00000000E+00
  0.00000000E+00  0.00000000E+00  0.00000000E+00
  0.00000000E+00  0.00000000E+00  0.00000000E+00
  0.00000000E+00  0.00000000E+00  0.00000000E+00
  0.00000000E+00  0.00000000E+00  0.00000000E+00
  0.00000000E+00  0.00000000E+00  0.00000000E+00
  0.00000000E+00  0.00000000E+00  0.00000000E+00
  0.00000000E+00  0.00000000E+00  0.00000000E+00
  0.00000000E+00  0.00000000E+00  0.00000000E+00
  0.00000000E+00  0.00000000E+00  0.00000000E+00
  0.00000000E+00  0.00000000E+00  0.00000000E+00
  0.00000000E+00  0.00000000E+00  0.00000000E+00
  0.00000000E+00  0.00000000E+00  0.00000000E+00
