supercell of POSCAR                     
   1.00398800000000     
    -6.2729611433599999    0.0082005604289200   10.0015927484000002
     3.1280384584799998    5.4363994576400003   10.0007801159999996
    -7.8567367181199996   13.6110857897000006  -10.0002683574999995
   Al   Sc   N 
    92     4    95
Direct
  0.4792315523534256  0.3141613922917657  0.5428890014438466
  0.0612189045489799  0.3963999499166135  0.7066670108542539
  0.1438477493499946  0.4803204933728722  0.8698740287474749
  0.4362199922269312  0.2696218193477762  0.9553559992790213
  0.0168638913072314  0.3508620115014622  0.1225949952007070
  0.1039346160815668  0.4430528507078293  0.2974755687835184
  0.1883967455024731  0.0228973168251088  0.4612560384686191
  0.2704163462541302  0.1050955061503629  0.6249149770345639
  0.3516180213684024  0.1898296563063724  0.7879994406004371
  0.1981556698937510  0.0318035110526296  0.0510497933373131
  0.3163057225520305  0.1406640278174720  0.2113357795330728
  0.3968195877791558  0.2318144478179747  0.3778594506197592
  0.9991688568903072  0.1668413794387646  0.6655513518711871
  0.0811793006883690  0.2494228782810737  0.8289299769765321
  0.1325556813428790  0.3720589806839669  0.9905676104967753
  0.4851346670999988  0.1180211518346539  0.0954694151188562
  0.0451508722318010  0.2136650425883104  0.2547408284814949
  0.1264875087605688  0.2933408385416740  0.4201857421669359
  0.2088689923855824  0.3755008351308149  0.5841679881838928
  0.2914439446015464  0.4581382804300773  0.7479169871096758
  0.3890176226094937  0.0156748784748615  0.8920150880630331
  0.3354552741244703  0.0054845361575886  0.3411249947584807
  0.4184016418653513  0.0853935291600507  0.5029990685311034
  0.9790938667659574  0.3142275221402357  0.5426482961517749
  0.5619847892348702  0.3959227979801838  0.7072934145543073
  0.6440806423158705  0.4774914291560108  0.8723797342265485
  0.9340606977997510  0.2684557637775669  0.9558103770418782
  0.5178702099299954  0.3552531067474547  0.1228921092243596
  0.6045954460472700  0.4424617224624896  0.2975962260482277
  0.6882178072627880  0.0225067237605998  0.4609476299271194
  0.7705649493600930  0.1048188485270387  0.6250060202334282
  0.8529188309900420  0.1866338821445055  0.7897012882946726
  0.7288984840588597  0.0607218981573894  0.0381183765236912
  0.8182310123958274  0.1426393155126959  0.2107190880711087
  0.8966726098187223  0.2326300532167025  0.3776318827283092
  0.5006211344995677  0.1666467018644937  0.6660515321457865
  0.5824743428571892  0.2487611296345023  0.8299289071704337
  0.6622750389318028  0.3325243804903764  0.9936264258948313
  0.9452035012970583  0.1263165493423202  0.0811487571631275
  0.5483263559936233  0.2128093409862046  0.2567395587217902
  0.6268579494043678  0.2932465181207391  0.4205940818176330
  0.7086571828840533  0.3755436406995116  0.5839901121183644
  0.7917436176285193  0.4559840632620862  0.7475261018513635
  0.8729791895553021  0.0401724089628246  0.9133316251486434
  0.8349784607971884  0.0049369133134647  0.3399499273088580
  0.9178197497606035  0.0852814578274135  0.5023120784269324
  0.4793681689765421  0.8140354138162351  0.5427639850628978
  0.0608252722483229  0.8956986914923846  0.7070064640584022
  0.1426741766438440  0.9779841376813749  0.8724788398777292
  0.4361339909089281  0.7671044280215327  0.9560557458349166
  0.0205837608002355  0.8538856684480933  0.1209926551444980
  0.1027171325433045  0.9447824825653868  0.2988095543190568
  0.1882886035307720  0.5226223178196037  0.4610019959428371
  0.2705961502003547  0.6047970180771216  0.6250109326885607
  0.3527030804563083  0.6866141746868735  0.7899035524583269
  0.2297684650411043  0.5632056177492828  0.0406480730208969
  0.3228195620859822  0.6381025184176110  0.2106420827595343
  0.3971965719507935  0.7318895090138398  0.3774640668774012
  0.9999237541703394  0.6665097934483057  0.6659686501088729
  0.0812175672514002  0.7490029252696715  0.8293835902112008
  0.1631489522943852  0.8235744309337321  0.9909285492151483
  0.4578263443976951  0.6195198754819273  0.0794862906964582
  0.0497246952872885  0.7121584980252891  0.2544384479139836
  0.1267096692017233  0.7929209786162943  0.4200369914324256
  0.2083441735573004  0.8749483992369278  0.5833100815594960
  0.2891563270071700  0.9554343257224645  0.7448106506696277
  0.3743635609642695  0.5389753105236963  0.9130068690924276
  0.3357580730291474  0.5045836676796895  0.3405255875159128
  0.4181222617982385  0.5853415121143328  0.5025275815023278
  0.9789688770937559  0.8139770452143154  0.5426618254050268
  0.5619781553349554  0.8958889245586619  0.7071756765584638
  0.6488222855164523  0.9768415030868880  0.8722852205796769
  0.9352937971031281  0.7685848766780907  0.9552770571898890
  0.5163219633967984  0.8506647203194007  0.1226270468286899
  0.6040248070602772  0.9421427430456433  0.2969058258501178
  0.6883466954604316  0.5228830504795781  0.4609523990414957
  0.7706287169062946  0.6048457853670968  0.6249994005295392
  0.8533196492039394  0.6865855588064775  0.7894243357315176
  0.7275919392299812  0.5621385665436165  0.0394195845966294
  0.8207131180334812  0.6401853131688142  0.2104441175138021
  0.8972243839330076  0.7320277730774976  0.3770981628648897
  0.5001351435715691  0.6660735129692199  0.6656945850868468
  0.5852520475700729  0.7427290642322220  0.8280574043966169
  0.6636288637526491  0.8316921756815603  0.9941827804012178
  0.9548531171330907  0.6241525272939725  0.0808240042856312
  0.5494387674850501  0.7105369355766911  0.2547434110275688
  0.6267199610955814  0.7932500731300394  0.4199266526334426
  0.7088510948646203  0.8753388911713529  0.5841338877989557
  0.7911211460426912  0.9575786308893299  0.7480487908234892
  0.8675974099319888  0.5435411781742800  0.9122794927669844
  0.8355694310081887  0.5049216396728156  0.3402606846464593
  0.9180243355390587  0.5855142172248478  0.5024821033193945
  0.2425080338016343  0.4142154877513065  0.1703323305561426
  0.7420362673409571  0.4162257154560152  0.1694952276883726
  0.2458550701640476  0.9056407319222615  0.1763555746252834
  0.7499667573497746  0.9081549853669344  0.1706250859963063
  0.0586920984965715  0.3944257223922207  0.5118285778944767
  0.1414241334318405  0.4759999532382579  0.6766803844460227
  0.2217925169289217  0.0580347632064502  0.8405724452560435
  0.0114893413890229  0.3480097558259487  0.9211481561406742
  0.0888805320602941  0.4286322459441507  0.0831539721042205
  0.1810026615240758  0.0306985517764886  0.2740590247010957
  0.2684061461211869  0.1040209661189095  0.4320012336573953
  0.3504942285554264  0.1850558009028873  0.5949363357823643
  0.4326851187591032  0.2672011061613233  0.7586502093618037
  0.4100185565103089  0.2073146908054682  0.1808998529245827
  0.4762466460414743  0.3131356675426673  0.3464403791792137
  0.0798405613872504  0.2461474763923235  0.6351588599955491
  0.1622559216746993  0.3288900659305369  0.8001872459013128
  0.2452758242671464  0.4116653306362537  0.9654310416609277
  0.0307234703401491  0.2034652121739455  0.0495314491358840
  0.1252113398127150  0.2944106546549179  0.2172670944178634
  0.2061014896331059  0.3721499856461321  0.3877000287967576
  0.2885211747952567  0.4549044932458841  0.5529700678676051
  0.3706467120087638  0.0373267510087700  0.7185871039735048
  0.4531385848292615  0.1197150374487350  0.8834058972078509
  0.3278688149852869  0.9981607289592134  0.1341651248105222
  0.4128177569412017  0.0816870174856845  0.3046043533717224
  0.4972914196732106  0.1644212084526089  0.4698649569727067
  0.5585200660859968  0.3944385561820312  0.5118726848291786
  0.6412622384139368  0.4759560099178657  0.6764588408528596
  0.7237457830570264  0.0584827045893803  0.8410867006934168
  0.5134755838157901  0.3474926221690708  0.9221285564545525
  0.5896689946119551  0.4284769258697807  0.0823779516022825
  0.6831462760028373  0.0267712531865385  0.2706486488314681
  0.7679556594174599  0.1033506404347762  0.4309885478016824
  0.8498750449203172  0.1851464144354509  0.5941727117480582
  0.9328651412286675  0.2658637278958480  0.7584197832845518
  0.8023645181923840  0.1429563718783271  0.0055414035742558
  0.9096150826612401  0.2085711412733033  0.1785119864031017
  0.9759022304662324  0.3138224502553086  0.3459337113970378
  0.5799938630067842  0.2463564998217365  0.6352202151535877
  0.6625667935626467  0.3284235708674643  0.8002634874219012
  0.7446754960557058  0.4128107212347913  0.9657982781739207
  0.5328844802281836  0.2027524750665108  0.0491580599423429
  0.6244071904205768  0.2933420914095421  0.2174178104819333
  0.7059933927880735  0.3720718425559753  0.3879940265561714
  0.7884677206473540  0.4550423034067563  0.5529588095328251
  0.8708721605930805  0.0373397950904177  0.7177816453419226
  0.9535548463768606  0.1197645496826993  0.8832326554652568
  0.8323182926900614  0.0003011476423822  0.1315452871195717
  0.9115567522037580  0.0827561532835048  0.3044136047111365
  0.9971964674497968  0.1644364070262725  0.4696029632880396
  0.0581844292412725  0.8941730759878794  0.5113593146555004
  0.1394498726398368  0.9759168043563164  0.6755107304870336
  0.2240375089859583  0.5588993435047342  0.8410369889671827
  0.0121871082439924  0.8479903738739765  0.9215904111288253
  0.0972449528343589  0.9365161748255844  0.0808298908052976
  0.1834694210743066  0.5279634945642186  0.2719656188772888
  0.2681740854522516  0.6036111785729190  0.4313580848895668
  0.3501241974976637  0.6852028030708226  0.5944298815245403
  0.4317916597061995  0.7673760356052242  0.7586810065897396
  0.3068762352224681  0.6398775418173912  0.0061186510736775
  0.4170126927222313  0.7012343072127933  0.1778421280322391
  0.4759210380467920  0.8133384042771752  0.3450928977916092
  0.0797964772610555  0.7460135351698725  0.6350319720089743
  0.1620670151868993  0.8290635337757024  0.8001680485906988
  0.2448693826051880  0.9092490008754766  0.9647831656516814
  0.0370957755544978  0.7030934337349493  0.0491441705450697
  0.1292637672246713  0.7964339480517566  0.2161394857564503
  0.2063367029895957  0.8720374648574705  0.3881392197781324
  0.2885984455966550  0.9548955361800964  0.5532410676410890
  0.3713521292981170  0.5375728899532817  0.7177353552590162
  0.4535966673402640  0.6195077704682532  0.8829673093694694
  0.3300192896887566  0.4994046056621215  0.1328685370610216
  0.4132522745644778  0.5813293304661613  0.3048178449907368
  0.4972203984306276  0.6646293377601538  0.4696560715227420
  0.5587602290679001  0.8941618203913748  0.5116554838554563
  0.6410097282735023  0.9760235665636685  0.6766714121961215
  0.7236709278362738  0.5560098652877272  0.8403479329185686
  0.5164076820335382  0.8442433474789581  0.9219776003607905
  0.5869337002967825  0.9305979900917123  0.0830595419928599
  0.6836108533897658  0.5268497441910895  0.2723610869933069
  0.7681112513967605  0.6039262448941614  0.4312837019261266
  0.8502769214858432  0.6850055024653514  0.5944597940796399
  0.9319039525378301  0.7667164757848184  0.7584864529079880
  0.8057968242510185  0.6431065447333708  0.0066403744778185
  0.9161445681030145  0.7038480300505512  0.1782659665693274
  0.9767508067181652  0.8134350752977113  0.3447555312082429
  0.5797645515121275  0.7464008802003832  0.6353641027308043
  0.6618288283847988  0.8286625518860760  0.8007871090642382
  0.7443869196239135  0.9120922085943306  0.9658903482027767
  0.5354553260315384  0.7024736131643365  0.0490489392369753
  0.6270642554374035  0.7934498228486859  0.2170231039602299
  0.7062609786554148  0.8722592393709121  0.3874106181793522
  0.7884024567405277  0.9549249223990870  0.5529414650781206
  0.8709355945603576  0.5371843236792841  0.7178857235316443
  0.9536753917938512  0.6183696802844949  0.8832868831058107
  0.8308670267064571  0.5009733596574577  0.1323815101899086
  0.9129831697085180  0.5820200917155631  0.3044058688206874
  0.9971438379768642  0.6646731684729019  0.4693388748700471
 
  0.00000000E+00  0.00000000E+00  0.00000000E+00
  0.00000000E+00  0.00000000E+00  0.00000000E+00
  0.00000000E+00  0.00000000E+00  0.00000000E+00
  0.00000000E+00  0.00000000E+00  0.00000000E+00
  0.00000000E+00  0.00000000E+00  0.00000000E+00
  0.00000000E+00  0.00000000E+00  0.00000000E+00
  0.00000000E+00  0.00000000E+00  0.00000000E+00
  0.00000000E+00  0.00000000E+00  0.00000000E+00
  0.00000000E+00  0.00000000E+00  0.00000000E+00
  0.00000000E+00  0.00000000E+00  0.00000000E+00
  0.00000000E+00  0.00000000E+00  0.00000000E+00
  0.00000000E+00  0.00000000E+00  0.00000000E+00
  0.00000000E+00  0.00000000E+00  0.00000000E+00
  0.00000000E+00  0.00000000E+00  0.00000000E+00
  0.00000000E+00  0.00000000E+00  0.00000000E+00
  0.00000000E+00  0.00000000E+00  0.00000000E+00
  0.00000000E+00  0.00000000E+00  0.00000000E+00
  0.00000000E+00  0.00000000E+00  0.00000000E+00
  0.00000000E+00  0.00000000E+00  0.00000000E+00
  0.00000000E+00  0.00000000E+00  0.00000000E+00
  0.00000000E+00  0.00000000E+00  0.00000000E+00
  0.00000000E+00  0.00000000E+00  0.00000000E+00
  0.00000000E+00  0.00000000E+00  0.00000000E+00
  0.00000000E+00  0.00000000E+00  0.00000000E+00
  0.00000000E+00  0.00000000E+00  0.00000000E+00
  0.00000000E+00  0.00000000E+00  0.00000000E+00
  0.00000000E+00  0.00000000E+00  0.00000000E+00
  0.00000000E+00  0.00000000E+00  0.00000000E+00
  0.00000000E+00  0.00000000E+00  0.00000000E+00
  0.00000000E+00  0.00000000E+00  0.00000000E+00
  0.00000000E+00  0.00000000E+00  0.00000000E+00
  0.00000000E+00  0.00000000E+00  0.00000000E+00
  0.00000000E+00  0.00000000E+00  0.00000000E+00
  0.00000000E+00  0.00000000E+00  0.00000000E+00
  0.00000000E+00  0.00000000E+00  0.00000000E+00
  0.00000000E+00  0.00000000E+00  0.00000000E+00
  0.00000000E+00  0.00000000E+00  0.00000000E+00
  0.00000000E+00  0.00000000E+00  0.00000000E+00
  0.00000000E+00  0.00000000E+00  0.00000000E+00
  0.00000000E+00  0.00000000E+00  0.00000000E+00
  0.00000000E+00  0.00000000E+00  0.00000000E+00
  0.00000000E+00  0.00000000E+00  0.00000000E+00
  0.00000000E+00  0.00000000E+00  0.00000000E+00
  0.00000000E+00  0.00000000E+00  0.00000000E+00
  0.00000000E+00  0.00000000E+00  0.00000000E+00
  0.00000000E+00  0.00000000E+00  0.00000000E+00
  0.00000000E+00  0.00000000E+00  0.00000000E+00
  0.00000000E+00  0.00000000E+00  0.00000000E+00
  0.00000000E+00  0.00000000E+00  0.00000000E+00
  0.00000000E+00  0.00000000E+00  0.00000000E+00
  0.00000000E+00  0.00000000E+00  0.00000000E+00
  0.00000000E+00  0.00000000E+00  0.00000000E+00
  0.00000000E+00  0.00000000E+00  0.00000000E+00
  0.00000000E+00  0.00000000E+00  0.00000000E+00
  0.00000000E+00  0.00000000E+00  0.00000000E+00
  0.00000000E+00  0.00000000E+00  0.00000000E+00
  0.00000000E+00  0.00000000E+00  0.00000000E+00
  0.00000000E+00  0.00000000E+00  0.00000000E+00
  0.00000000E+00  0.00000000E+00  0.00000000E+00
  0.00000000E+00  0.00000000E+00  0.00000000E+00
  0.00000000E+00  0.00000000E+00  0.00000000E+00
  0.00000000E+00  0.00000000E+00  0.00000000E+00
  0.00000000E+00  0.00000000E+00  0.00000000E+00
  0.00000000E+00  0.00000000E+00  0.00000000E+00
  0.00000000E+00  0.00000000E+00  0.00000000E+00
  0.00000000E+00  0.00000000E+00  0.00000000E+00
  0.00000000E+00  0.00000000E+00  0.00000000E+00
  0.00000000E+00  0.00000000E+00  0.00000000E+00
  0.00000000E+00  0.00000000E+00  0.00000000E+00
  0.00000000E+00  0.00000000E+00  0.00000000E+00
  0.00000000E+00  0.00000000E+00  0.00000000E+00
  0.00000000E+00  0.00000000E+00  0.00000000E+00
  0.00000000E+00  0.00000000E+00  0.00000000E+00
  0.00000000E+00  0.00000000E+00  0.00000000E+00
  0.00000000E+00  0.00000000E+00  0.00000000E+00
  0.00000000E+00  0.00000000E+00  0.00000000E+00
  0.00000000E+00  0.00000000E+00  0.00000000E+00
  0.00000000E+00  0.00000000E+00  0.00000000E+00
  0.00000000E+00  0.00000000E+00  0.00000000E+00
  0.00000000E+00  0.00000000E+00  0.00000000E+00
  0.00000000E+00  0.00000000E+00  0.00000000E+00
  0.00000000E+00  0.00000000E+00  0.00000000E+00
  0.00000000E+00  0.00000000E+00  0.00000000E+00
  0.00000000E+00  0.00000000E+00  0.00000000E+00
  0.00000000E+00  0.00000000E+00  0.00000000E+00
  0.00000000E+00  0.00000000E+00  0.00000000E+00
  0.00000000E+00  0.00000000E+00  0.00000000E+00
  0.00000000E+00  0.00000000E+00  0.00000000E+00
  0.00000000E+00  0.00000000E+00  0.00000000E+00
  0.00000000E+00  0.00000000E+00  0.00000000E+00
  0.00000000E+00  0.00000000E+00  0.00000000E+00
  0.00000000E+00  0.00000000E+00  0.00000000E+00
  0.00000000E+00  0.00000000E+00  0.00000000E+00
  0.00000000E+00  0.00000000E+00  0.00000000E+00
  0.00000000E+00  0.00000000E+00  0.00000000E+00
  0.00000000E+00  0.00000000E+00  0.00000000E+00
  0.00000000E+00  0.00000000E+00  0.00000000E+00
  0.00000000E+00  0.00000000E+00  0.00000000E+00
  0.00000000E+00  0.00000000E+00  0.00000000E+00
  0.00000000E+00  0.00000000E+00  0.00000000E+00
  0.00000000E+00  0.00000000E+00  0.00000000E+00
  0.00000000E+00  0.00000000E+00  0.00000000E+00
  0.00000000E+00  0.00000000E+00  0.00000000E+00
  0.00000000E+00  0.00000000E+00  0.00000000E+00
  0.00000000E+00  0.00000000E+00  0.00000000E+00
  0.00000000E+00  0.00000000E+00  0.00000000E+00
  0.00000000E+00  0.00000000E+00  0.00000000E+00
  0.00000000E+00  0.00000000E+00  0.00000000E+00
  0.00000000E+00  0.00000000E+00  0.00000000E+00
  0.00000000E+00  0.00000000E+00  0.00000000E+00
  0.00000000E+00  0.00000000E+00  0.00000000E+00
  0.00000000E+00  0.00000000E+00  0.00000000E+00
  0.00000000E+00  0.00000000E+00  0.00000000E+00
  0.00000000E+00  0.00000000E+00  0.00000000E+00
  0.00000000E+00  0.00000000E+00  0.00000000E+00
  0.00000000E+00  0.00000000E+00  0.00000000E+00
  0.00000000E+00  0.00000000E+00  0.00000000E+00
  0.00000000E+00  0.00000000E+00  0.00000000E+00
  0.00000000E+00  0.00000000E+00  0.00000000E+00
  0.00000000E+00  0.00000000E+00  0.00000000E+00
  0.00000000E+00  0.00000000E+00  0.00000000E+00
  0.00000000E+00  0.00000000E+00  0.00000000E+00
  0.00000000E+00  0.00000000E+00  0.00000000E+00
  0.00000000E+00  0.00000000E+00  0.00000000E+00
  0.00000000E+00  0.00000000E+00  0.00000000E+00
  0.00000000E+00  0.00000000E+00  0.00000000E+00
  0.00000000E+00  0.00000000E+00  0.00000000E+00
  0.00000000E+00  0.00000000E+00  0.00000000E+00
  0.00000000E+00  0.00000000E+00  0.00000000E+00
  0.00000000E+00  0.00000000E+00  0.00000000E+00
  0.00000000E+00  0.00000000E+00  0.00000000E+00
  0.00000000E+00  0.00000000E+00  0.00000000E+00
  0.00000000E+00  0.00000000E+00  0.00000000E+00
  0.00000000E+00  0.00000000E+00  0.00000000E+00
  0.00000000E+00  0.00000000E+00  0.00000000E+00
  0.00000000E+00  0.00000000E+00  0.00000000E+00
  0.00000000E+00  0.00000000E+00  0.00000000E+00
  0.00000000E+00  0.00000000E+00  0.00000000E+00
  0.00000000E+00  0.00000000E+00  0.00000000E+00
  0.00000000E+00  0.00000000E+00  0.00000000E+00
  0.00000000E+00  0.00000000E+00  0.00000000E+00
  0.00000000E+00  0.00000000E+00  0.00000000E+00
  0.00000000E+00  0.00000000E+00  0.00000000E+00
  0.00000000E+00  0.00000000E+00  0.00000000E+00
  0.00000000E+00  0.00000000E+00  0.00000000E+00
  0.00000000E+00  0.00000000E+00  0.00000000E+00
  0.00000000E+00  0.00000000E+00  0.00000000E+00
  0.00000000E+00  0.00000000E+00  0.00000000E+00
  0.00000000E+00  0.00000000E+00  0.00000000E+00
  0.00000000E+00  0.00000000E+00  0.00000000E+00
  0.00000000E+00  0.00000000E+00  0.00000000E+00
  0.00000000E+00  0.00000000E+00  0.00000000E+00
  0.00000000E+00  0.00000000E+00  0.00000000E+00
  0.00000000E+00  0.00000000E+00  0.00000000E+00
  0.00000000E+00  0.00000000E+00  0.00000000E+00
  0.00000000E+00  0.00000000E+00  0.00000000E+00
  0.00000000E+00  0.00000000E+00  0.00000000E+00
  0.00000000E+00  0.00000000E+00  0.00000000E+00
  0.00000000E+00  0.00000000E+00  0.00000000E+00
  0.00000000E+00  0.00000000E+00  0.00000000E+00
  0.00000000E+00  0.00000000E+00  0.00000000E+00
  0.00000000E+00  0.00000000E+00  0.00000000E+00
  0.00000000E+00  0.00000000E+00  0.00000000E+00
  0.00000000E+00  0.00000000E+00  0.00000000E+00
  0.00000000E+00  0.00000000E+00  0.00000000E+00
  0.00000000E+00  0.00000000E+00  0.00000000E+00
  0.00000000E+00  0.00000000E+00  0.00000000E+00
  0.00000000E+00  0.00000000E+00  0.00000000E+00
  0.00000000E+00  0.00000000E+00  0.00000000E+00
  0.00000000E+00  0.00000000E+00  0.00000000E+00
  0.00000000E+00  0.00000000E+00  0.00000000E+00
  0.00000000E+00  0.00000000E+00  0.00000000E+00
  0.00000000E+00  0.00000000E+00  0.00000000E+00
  0.00000000E+00  0.00000000E+00  0.00000000E+00
  0.00000000E+00  0.00000000E+00  0.00000000E+00
  0.00000000E+00  0.00000000E+00  0.00000000E+00
  0.00000000E+00  0.00000000E+00  0.00000000E+00
  0.00000000E+00  0.00000000E+00  0.00000000E+00
  0.00000000E+00  0.00000000E+00  0.00000000E+00
  0.00000000E+00  0.00000000E+00  0.00000000E+00
  0.00000000E+00  0.00000000E+00  0.00000000E+00
  0.00000000E+00  0.00000000E+00  0.00000000E+00
  0.00000000E+00  0.00000000E+00  0.00000000E+00
  0.00000000E+00  0.00000000E+00  0.00000000E+00
  0.00000000E+00  0.00000000E+00  0.00000000E+00
  0.00000000E+00  0.00000000E+00  0.00000000E+00
  0.00000000E+00  0.00000000E+00  0.00000000E+00
  0.00000000E+00  0.00000000E+00  0.00000000E+00
  0.00000000E+00  0.00000000E+00  0.00000000E+00
  0.00000000E+00  0.00000000E+00  0.00000000E+00
  0.00000000E+00  0.00000000E+00  0.00000000E+00
