supercell of POSCAR                     
   1.00398800000000     
    -6.2729611433599999    0.0082005604289200   10.0015927484000002
     3.1280384584799998    5.4363994576400003   10.0007801159999996
    -7.8567367181199996   13.6110857897000006  -10.0002683574999995
   Al   Sc   N 
    92     4    95
Direct
  0.4797552060857129  0.3146136340871664  0.5436663895129072
  0.0618055328773650  0.3964187213093453  0.7084828447991356
  0.1440246048679796  0.4787591784035001  0.8729572910052994
  0.4355314965598041  0.2692413198536983  0.9553968097802041
  0.0165536831303896  0.3526554813150042  0.1178134375168725
  0.1071868365153463  0.4447712465808706  0.2973345879929923
  0.1869432371220014  0.0221773689849485  0.4617795506699451
  0.2704364336230611  0.1050214229444109  0.6267016248628892
  0.3529847431505644  0.1871883903811167  0.7910138024916407
  0.2267095594254442  0.0611435040352575  0.0390701053256919
  0.3203756557926170  0.1409239974932746  0.2078366492469712
  0.3978870380398121  0.2355732403517621  0.3772126034661056
  0.0001589060179299  0.1671133518965817  0.6673865342685659
  0.0818055605687320  0.2488609212844608  0.8308717647716506
  0.1634690467520272  0.3302176939398649  0.9931609689387386
  0.4562241887936125  0.1196435809107683  0.0780125541762118
  0.0223554733464155  0.2519130177026909  0.2502731947338361
  0.1275162430565544  0.2952239430324184  0.4203492521815093
  0.2089274476780503  0.3765525255001592  0.5855679674403191
  0.2911547261940939  0.4580025794866245  0.7496058506826060
  0.3729347231372060  0.0396991857039808  0.9141577168966890
  0.3692580241380341  0.9995625664656771  0.3551495171768906
  0.4193470262654415  0.0869901784041502  0.5059805620782640
  0.9796639470978832  0.3144928561734091  0.5436233951689218
  0.5619216581422251  0.3964554866338688  0.7083672989870067
  0.6440424339660993  0.4788793965634710  0.8728112806578565
  0.9349978552007343  0.2696571684356073  0.9550364760944916
  0.5171678228462682  0.3512637811613075  0.1200379695792506
  0.6057895236534563  0.4409019836557633  0.2956151414331316
  0.6878590432574967  0.0232631645581662  0.4617998344672642
  0.7709000112048585  0.1052880738757977  0.6263684827148737
  0.8530107050694227  0.1873297357231252  0.7907091772487931
  0.7265331908787047  0.0622527475057240  0.0384584611486432
  0.8218048989274962  0.1363589856738017  0.2095846404795481
  0.8972502865986343  0.2308151077962961  0.3775506163470581
  0.5005186643640798  0.1672261919534961  0.6679082501406626
  0.5820353826327747  0.2487908184184491  0.8310062599134937
  0.6625474169297618  0.3318413954532033  0.9935327751711327
  0.9596306521846785  0.1165566370588706  0.0771625124730164
  0.5468714766510487  0.2123500132344631  0.2516761908553136
  0.6266019532041369  0.2946979752734293  0.4199537306637140
  0.7096080784412919  0.3755307844297704  0.5851537916541290
  0.7912097571400878  0.4579062772763862  0.7493586355071784
  0.8730469604566267  0.0401684526371611  0.9138705065377977
  0.8242683921861413  0.0108038921550460  0.3400913480411916
  0.9176771971972499  0.0861845703088164  0.5034679106233213
  0.4797142790870339  0.8136404769524432  0.5433566802407341
  0.0619582388339595  0.8964619309367592  0.7087150431510878
  0.1441608264111025  0.9789629654301208  0.8731704915817247
  0.4354996429020161  0.7691952097028150  0.9555931239772306
  0.0163018726602076  0.8498490949740045  0.1194156717942150
  0.0753453613160886  0.9098363438172044  0.3063082547922491
  0.1903262735028335  0.5218656619759301  0.4616834481320140
  0.2712601751833787  0.6051853454935809  0.6263422955962383
  0.3531879607434263  0.6872400291059293  0.7908089861161258
  0.2269529885837827  0.5616636262624652  0.0378274228969815
  0.3203633555611134  0.6398749746507946  0.2087536522548135
  0.3983131129653827  0.7290686690189574  0.3769776819090538
  0.0003363083667267  0.6670980769205173  0.6674961769851890
  0.0818287234277122  0.7489496537532716  0.8311247189381490
  0.1648417963316007  0.8291842071927604  0.9930952537726228
  0.4528319563833918  0.6224197995289558  0.0785236343262596
  0.0451908328667585  0.7026105628049422  0.2485912639162393
  0.1315255586873647  0.7883329162462971  0.4248456213721354
  0.2098856518958101  0.8758764087761790  0.5860502109771346
  0.2914026074581528  0.9578171216035258  0.7498675701469537
  0.3734002687574218  0.5395560202245093  0.9136093673830885
  0.3370525958517163  0.5042750706881591  0.3385421556711776
  0.4203015981861355  0.5844333537386603  0.5034631567032193
  0.9791215345718456  0.8149450509291682  0.5443102915146341
  0.5618851047513616  0.8962343145585763  0.7085162934084579
  0.6438385131230362  0.9786661519965421  0.8732644427500915
  0.9348354962850891  0.7694939113958768  0.9553335400341183
  0.5139903022187653  0.8515284558679497  0.1210839768472027
  0.6067715545761061  0.9387034406157113  0.2939623789796357
  0.6894521358202184  0.5216140513781724  0.4612393341258283
  0.7713630729656700  0.6049001694343374  0.6259237361674437
  0.8529434371927280  0.6872127600578679  0.7907898750556939
  0.7253155035661294  0.5620765303674986  0.0385246163849331
  0.8178004566284898  0.6389960660943643  0.2077935682378396
  0.8991943717192825  0.7323965663096388  0.3763139993368512
  0.5006527614823071  0.6668866074883724  0.6672441211827618
  0.5818605822332970  0.7487445384396807  0.8309270734691765
  0.6618282169749179  0.8309823293463836  0.9939256839182633
  0.9554245633107215  0.6192023969318470  0.0772279233993487
  0.5465358625620382  0.7106307692258085  0.2506066803086640
  0.6333196307868008  0.7893940578705667  0.4211132868112912
  0.7095516154355437  0.8756983591624774  0.5853749258963745
  0.7911765115706899  0.9578492060035657  0.7496913663228923
  0.8726386942329327  0.5399954110806249  0.9137839738228877
  0.8330123950827542  0.5081336660630384  0.3388779075775332
  0.9200820537017549  0.5854498492879614  0.5029116888155798
  0.2451503277893394  0.4118291390974420  0.1662036701204670
  0.7424996375808348  0.4069168336584283  0.1658536003538700
  0.2321822974959318  0.9180165370200939  0.1723357561590504
  0.7418007339013926  0.9121991490266979  0.1661578147009379
  0.0597778330928307  0.3940846918680734  0.5110971042807719
  0.1411394060684685  0.4763179122788159  0.6767101066649559
  0.2233060885406815  0.0586185243970974  0.8418109254446335
  0.0134710991376110  0.3486935213179123  0.9225694606727259
  0.0892677524238010  0.4293158220606657  0.0823666585834033
  0.2662553518430073  0.1036762221664347  0.4307430162439942
  0.3497229675799218  0.1857114041740786  0.5951502834056228
  0.4321728068925310  0.2670133376535375  0.7590838079066629
  0.3042372607585477  0.1417878485287218  0.0073735228256098
  0.4121812154176467  0.2052629487274160  0.1771034768513999
  0.4778679222458777  0.3125767394638714  0.3441173901964518
  0.0797552296475388  0.2465767867454787  0.6350268882471539
  0.1621598217423923  0.3288198092393415  0.8005233865271464
  0.2450672342135718  0.4114222996619858  0.9660528275758935
  0.0351858456839409  0.2010557070334968  0.0491284508048864
  0.1274298902782434  0.2951866628418642  0.2174688948397971
  0.2071355247340065  0.3722633822024477  0.3872642280659591
  0.2888319060095839  0.4550110201845996  0.5529434800285600
  0.3710579577445614  0.0373604728056023  0.7181371602536260
  0.4530070452346138  0.1196219539620742  0.8836143349812176
  0.3242451455184110  0.9991994969162121  0.1357265795450289
  0.4112789731647553  0.0814692829633827  0.3034191766784176
  0.4956705024138941  0.1642796953626942  0.4686224724124202
  0.5596606578892747  0.3935339005141003  0.5113296833321002
  0.6413972578526810  0.4760365696564790  0.6764335249503404
  0.7233434753238583  0.0584275806115286  0.8419313177223842
  0.5139792584618021  0.3483330796971060  0.9227122632372229
  0.5869166239089409  0.4313286298857903  0.0827848337743902
  0.6801385223760903  0.0274654537484551  0.2698725712275802
  0.7668342201873415  0.1045850342217491  0.4317654416718497
  0.8506502298184841  0.1849263835413808  0.5944923261624879
  0.9321827744750379  0.2670176679814844  0.7588065584514396
  0.8054661008435389  0.1428590897261941  0.0078943928183577
  0.9261775321899037  0.1935374292921281  0.1801153872518668
  0.9784106268297066  0.3114218176244421  0.3452687527152918
  0.5796725082419698  0.2462914254898720  0.6349850294743291
  0.6622314607207826  0.3287219736808709  0.8004585069065016
  0.7446490934082917  0.4119993089949077  0.9661104360898634
  0.5352924648252184  0.2013983831280370  0.0492710793942877
  0.6295931429697887  0.2920672999003671  0.2163147419540650
  0.7072526535153543  0.3721431602853968  0.3868514152073601
  0.7889671347509193  0.4549688303947974  0.5525898387068224
  0.8709074591215327  0.0374033956725484  0.7180365884067541
  0.9530742957595564  0.1197977425443781  0.8834140189149124
  0.8315022265310148  0.9990457781210651  0.1324324630462428
  0.9102245739247934  0.0823551373227218  0.3051236014446275
  0.9972615014226989  0.1646178560006746  0.4691236375398233
  0.0589155187258683  0.8948673927980266  0.5124151328346684
  0.1414660819420988  0.9763334097539200  0.6769550125671131
  0.2232693523741176  0.5585398866255105  0.8416115986288162
  0.0134429340219384  0.8492121251134535  0.9231739983405447
  0.0938035612659860  0.9257279828638403  0.0839437481451100
  0.1852912779729152  0.5256811320068167  0.2703578633228645
  0.2714721203158490  0.6005627189207559  0.4306707800875245
  0.3508552012728643  0.6849807920961979  0.5941454943614843
  0.4323570012367952  0.7668426965446926  0.7586840804466419
  0.3043562645515152  0.6417725780573207  0.0060628406618619
  0.4042917094875733  0.7143387319993550  0.1773587376167569
  0.4777444653040419  0.8102292440888377  0.3442513785832944
  0.0800792921441484  0.7464361760800813  0.6352721795196317
  0.1623159120685003  0.8288963341818132  0.8008072699385238
  0.2448349413703426  0.9120265195701052  0.9664947582485510
  0.0352756595962873  0.7007574172756108  0.0489655133005016
  0.1255317684674182  0.7934324887475057  0.2167863511400299
  0.2076938326900901  0.8709880637530887  0.3879735488931715
  0.2888023134251156  0.9551745067981443  0.5525859082309168
  0.3710557469048297  0.5374554960683326  0.7180035508200220
  0.4533201271770153  0.6197155002957686  0.8833672640309800
  0.3307859107162869  0.5008805970375008  0.1323674902127507
  0.4142728805249618  0.5816476789245897  0.3033607535209768
  0.4981375271189563  0.6642904246449319  0.4689603374482374
  0.5586987786787390  0.8944018841411179  0.5102269957019061
  0.6411402459597042  0.9760841674748306  0.6765114733975039
  0.7233653565288662  0.5583881819768592  0.8413989983557997
  0.5133005672671942  0.8484803091170789  0.9225233100144195
  0.5855909103418142  0.9292189813364331  0.0830073265136377
  0.6839782084700943  0.5261036620045800  0.2690473879357995
  0.7707101362634461  0.6015685180561761  0.4305901053933994
  0.8510896900173464  0.6849851881231288  0.5937283396137900
  0.9321545104028743  0.7670604452148240  0.7589444633388496
  0.8035228879947809  0.6421394943843310  0.0067098198882221
  0.9094178442224887  0.7044391109538566  0.1756648117502806
  0.9835819899968570  0.8188237965569272  0.3417976435777987
  0.5802419634448341  0.7465935966770090  0.6348020169998634
  0.6622256186462323  0.8288653794431298  0.8006159333932317
  0.7444114167131062  0.9120148546140570  0.9666940444200307
  0.5339689855424794  0.7017227754984745  0.0496845319682464
  0.6253517706965539  0.7920984140754470  0.2168856244718853
  0.7076541121908519  0.8722972810227034  0.3862782830621825
  0.7881138345644487  0.9553191683900195  0.5527271238734102
  0.8709370780536290  0.5376685352650981  0.7177911099345309
  0.9530620134871413  0.6197959427174595  0.8834322480705055
  0.8302785711160539  0.4958690845729734  0.1329753866699122
  0.9146251956457689  0.5825136353883451  0.3036315397867568
  0.9984994609601543  0.6662714675818577  0.4681196200721516
 
  0.00000000E+00  0.00000000E+00  0.00000000E+00
  0.00000000E+00  0.00000000E+00  0.00000000E+00
  0.00000000E+00  0.00000000E+00  0.00000000E+00
  0.00000000E+00  0.00000000E+00  0.00000000E+00
  0.00000000E+00  0.00000000E+00  0.00000000E+00
  0.00000000E+00  0.00000000E+00  0.00000000E+00
  0.00000000E+00  0.00000000E+00  0.00000000E+00
  0.00000000E+00  0.00000000E+00  0.00000000E+00
  0.00000000E+00  0.00000000E+00  0.00000000E+00
  0.00000000E+00  0.00000000E+00  0.00000000E+00
  0.00000000E+00  0.00000000E+00  0.00000000E+00
  0.00000000E+00  0.00000000E+00  0.00000000E+00
  0.00000000E+00  0.00000000E+00  0.00000000E+00
  0.00000000E+00  0.00000000E+00  0.00000000E+00
  0.00000000E+00  0.00000000E+00  0.00000000E+00
  0.00000000E+00  0.00000000E+00  0.00000000E+00
  0.00000000E+00  0.00000000E+00  0.00000000E+00
  0.00000000E+00  0.00000000E+00  0.00000000E+00
  0.00000000E+00  0.00000000E+00  0.00000000E+00
  0.00000000E+00  0.00000000E+00  0.00000000E+00
  0.00000000E+00  0.00000000E+00  0.00000000E+00
  0.00000000E+00  0.00000000E+00  0.00000000E+00
  0.00000000E+00  0.00000000E+00  0.00000000E+00
  0.00000000E+00  0.00000000E+00  0.00000000E+00
  0.00000000E+00  0.00000000E+00  0.00000000E+00
  0.00000000E+00  0.00000000E+00  0.00000000E+00
  0.00000000E+00  0.00000000E+00  0.00000000E+00
  0.00000000E+00  0.00000000E+00  0.00000000E+00
  0.00000000E+00  0.00000000E+00  0.00000000E+00
  0.00000000E+00  0.00000000E+00  0.00000000E+00
  0.00000000E+00  0.00000000E+00  0.00000000E+00
  0.00000000E+00  0.00000000E+00  0.00000000E+00
  0.00000000E+00  0.00000000E+00  0.00000000E+00
  0.00000000E+00  0.00000000E+00  0.00000000E+00
  0.00000000E+00  0.00000000E+00  0.00000000E+00
  0.00000000E+00  0.00000000E+00  0.00000000E+00
  0.00000000E+00  0.00000000E+00  0.00000000E+00
  0.00000000E+00  0.00000000E+00  0.00000000E+00
  0.00000000E+00  0.00000000E+00  0.00000000E+00
  0.00000000E+00  0.00000000E+00  0.00000000E+00
  0.00000000E+00  0.00000000E+00  0.00000000E+00
  0.00000000E+00  0.00000000E+00  0.00000000E+00
  0.00000000E+00  0.00000000E+00  0.00000000E+00
  0.00000000E+00  0.00000000E+00  0.00000000E+00
  0.00000000E+00  0.00000000E+00  0.00000000E+00
  0.00000000E+00  0.00000000E+00  0.00000000E+00
  0.00000000E+00  0.00000000E+00  0.00000000E+00
  0.00000000E+00  0.00000000E+00  0.00000000E+00
  0.00000000E+00  0.00000000E+00  0.00000000E+00
  0.00000000E+00  0.00000000E+00  0.00000000E+00
  0.00000000E+00  0.00000000E+00  0.00000000E+00
  0.00000000E+00  0.00000000E+00  0.00000000E+00
  0.00000000E+00  0.00000000E+00  0.00000000E+00
  0.00000000E+00  0.00000000E+00  0.00000000E+00
  0.00000000E+00  0.00000000E+00  0.00000000E+00
  0.00000000E+00  0.00000000E+00  0.00000000E+00
  0.00000000E+00  0.00000000E+00  0.00000000E+00
  0.00000000E+00  0.00000000E+00  0.00000000E+00
  0.00000000E+00  0.00000000E+00  0.00000000E+00
  0.00000000E+00  0.00000000E+00  0.00000000E+00
  0.00000000E+00  0.00000000E+00  0.00000000E+00
  0.00000000E+00  0.00000000E+00  0.00000000E+00
  0.00000000E+00  0.00000000E+00  0.00000000E+00
  0.00000000E+00  0.00000000E+00  0.00000000E+00
  0.00000000E+00  0.00000000E+00  0.00000000E+00
  0.00000000E+00  0.00000000E+00  0.00000000E+00
  0.00000000E+00  0.00000000E+00  0.00000000E+00
  0.00000000E+00  0.00000000E+00  0.00000000E+00
  0.00000000E+00  0.00000000E+00  0.00000000E+00
  0.00000000E+00  0.00000000E+00  0.00000000E+00
  0.00000000E+00  0.00000000E+00  0.00000000E+00
  0.00000000E+00  0.00000000E+00  0.00000000E+00
  0.00000000E+00  0.00000000E+00  0.00000000E+00
  0.00000000E+00  0.00000000E+00  0.00000000E+00
  0.00000000E+00  0.00000000E+00  0.00000000E+00
  0.00000000E+00  0.00000000E+00  0.00000000E+00
  0.00000000E+00  0.00000000E+00  0.00000000E+00
  0.00000000E+00  0.00000000E+00  0.00000000E+00
  0.00000000E+00  0.00000000E+00  0.00000000E+00
  0.00000000E+00  0.00000000E+00  0.00000000E+00
  0.00000000E+00  0.00000000E+00  0.00000000E+00
  0.00000000E+00  0.00000000E+00  0.00000000E+00
  0.00000000E+00  0.00000000E+00  0.00000000E+00
  0.00000000E+00  0.00000000E+00  0.00000000E+00
  0.00000000E+00  0.00000000E+00  0.00000000E+00
  0.00000000E+00  0.00000000E+00  0.00000000E+00
  0.00000000E+00  0.00000000E+00  0.00000000E+00
  0.00000000E+00  0.00000000E+00  0.00000000E+00
  0.00000000E+00  0.00000000E+00  0.00000000E+00
  0.00000000E+00  0.00000000E+00  0.00000000E+00
  0.00000000E+00  0.00000000E+00  0.00000000E+00
  0.00000000E+00  0.00000000E+00  0.00000000E+00
  0.00000000E+00  0.00000000E+00  0.00000000E+00
  0.00000000E+00  0.00000000E+00  0.00000000E+00
  0.00000000E+00  0.00000000E+00  0.00000000E+00
  0.00000000E+00  0.00000000E+00  0.00000000E+00
  0.00000000E+00  0.00000000E+00  0.00000000E+00
  0.00000000E+00  0.00000000E+00  0.00000000E+00
  0.00000000E+00  0.00000000E+00  0.00000000E+00
  0.00000000E+00  0.00000000E+00  0.00000000E+00
  0.00000000E+00  0.00000000E+00  0.00000000E+00
  0.00000000E+00  0.00000000E+00  0.00000000E+00
  0.00000000E+00  0.00000000E+00  0.00000000E+00
  0.00000000E+00  0.00000000E+00  0.00000000E+00
  0.00000000E+00  0.00000000E+00  0.00000000E+00
  0.00000000E+00  0.00000000E+00  0.00000000E+00
  0.00000000E+00  0.00000000E+00  0.00000000E+00
  0.00000000E+00  0.00000000E+00  0.00000000E+00
  0.00000000E+00  0.00000000E+00  0.00000000E+00
  0.00000000E+00  0.00000000E+00  0.00000000E+00
  0.00000000E+00  0.00000000E+00  0.00000000E+00
  0.00000000E+00  0.00000000E+00  0.00000000E+00
  0.00000000E+00  0.00000000E+00  0.00000000E+00
  0.00000000E+00  0.00000000E+00  0.00000000E+00
  0.00000000E+00  0.00000000E+00  0.00000000E+00
  0.00000000E+00  0.00000000E+00  0.00000000E+00
  0.00000000E+00  0.00000000E+00  0.00000000E+00
  0.00000000E+00  0.00000000E+00  0.00000000E+00
  0.00000000E+00  0.00000000E+00  0.00000000E+00
  0.00000000E+00  0.00000000E+00  0.00000000E+00
  0.00000000E+00  0.00000000E+00  0.00000000E+00
  0.00000000E+00  0.00000000E+00  0.00000000E+00
  0.00000000E+00  0.00000000E+00  0.00000000E+00
  0.00000000E+00  0.00000000E+00  0.00000000E+00
  0.00000000E+00  0.00000000E+00  0.00000000E+00
  0.00000000E+00  0.00000000E+00  0.00000000E+00
  0.00000000E+00  0.00000000E+00  0.00000000E+00
  0.00000000E+00  0.00000000E+00  0.00000000E+00
  0.00000000E+00  0.00000000E+00  0.00000000E+00
  0.00000000E+00  0.00000000E+00  0.00000000E+00
  0.00000000E+00  0.00000000E+00  0.00000000E+00
  0.00000000E+00  0.00000000E+00  0.00000000E+00
  0.00000000E+00  0.00000000E+00  0.00000000E+00
  0.00000000E+00  0.00000000E+00  0.00000000E+00
  0.00000000E+00  0.00000000E+00  0.00000000E+00
  0.00000000E+00  0.00000000E+00  0.00000000E+00
  0.00000000E+00  0.00000000E+00  0.00000000E+00
  0.00000000E+00  0.00000000E+00  0.00000000E+00
  0.00000000E+00  0.00000000E+00  0.00000000E+00
  0.00000000E+00  0.00000000E+00  0.00000000E+00
  0.00000000E+00  0.00000000E+00  0.00000000E+00
  0.00000000E+00  0.00000000E+00  0.00000000E+00
  0.00000000E+00  0.00000000E+00  0.00000000E+00
  0.00000000E+00  0.00000000E+00  0.00000000E+00
  0.00000000E+00  0.00000000E+00  0.00000000E+00
  0.00000000E+00  0.00000000E+00  0.00000000E+00
  0.00000000E+00  0.00000000E+00  0.00000000E+00
  0.00000000E+00  0.00000000E+00  0.00000000E+00
  0.00000000E+00  0.00000000E+00  0.00000000E+00
  0.00000000E+00  0.00000000E+00  0.00000000E+00
  0.00000000E+00  0.00000000E+00  0.00000000E+00
  0.00000000E+00  0.00000000E+00  0.00000000E+00
  0.00000000E+00  0.00000000E+00  0.00000000E+00
  0.00000000E+00  0.00000000E+00  0.00000000E+00
  0.00000000E+00  0.00000000E+00  0.00000000E+00
  0.00000000E+00  0.00000000E+00  0.00000000E+00
  0.00000000E+00  0.00000000E+00  0.00000000E+00
  0.00000000E+00  0.00000000E+00  0.00000000E+00
  0.00000000E+00  0.00000000E+00  0.00000000E+00
  0.00000000E+00  0.00000000E+00  0.00000000E+00
  0.00000000E+00  0.00000000E+00  0.00000000E+00
  0.00000000E+00  0.00000000E+00  0.00000000E+00
  0.00000000E+00  0.00000000E+00  0.00000000E+00
  0.00000000E+00  0.00000000E+00  0.00000000E+00
  0.00000000E+00  0.00000000E+00  0.00000000E+00
  0.00000000E+00  0.00000000E+00  0.00000000E+00
  0.00000000E+00  0.00000000E+00  0.00000000E+00
  0.00000000E+00  0.00000000E+00  0.00000000E+00
  0.00000000E+00  0.00000000E+00  0.00000000E+00
  0.00000000E+00  0.00000000E+00  0.00000000E+00
  0.00000000E+00  0.00000000E+00  0.00000000E+00
  0.00000000E+00  0.00000000E+00  0.00000000E+00
  0.00000000E+00  0.00000000E+00  0.00000000E+00
  0.00000000E+00  0.00000000E+00  0.00000000E+00
  0.00000000E+00  0.00000000E+00  0.00000000E+00
  0.00000000E+00  0.00000000E+00  0.00000000E+00
  0.00000000E+00  0.00000000E+00  0.00000000E+00
  0.00000000E+00  0.00000000E+00  0.00000000E+00
  0.00000000E+00  0.00000000E+00  0.00000000E+00
  0.00000000E+00  0.00000000E+00  0.00000000E+00
  0.00000000E+00  0.00000000E+00  0.00000000E+00
  0.00000000E+00  0.00000000E+00  0.00000000E+00
  0.00000000E+00  0.00000000E+00  0.00000000E+00
  0.00000000E+00  0.00000000E+00  0.00000000E+00
  0.00000000E+00  0.00000000E+00  0.00000000E+00
  0.00000000E+00  0.00000000E+00  0.00000000E+00
  0.00000000E+00  0.00000000E+00  0.00000000E+00
  0.00000000E+00  0.00000000E+00  0.00000000E+00
  0.00000000E+00  0.00000000E+00  0.00000000E+00
  0.00000000E+00  0.00000000E+00  0.00000000E+00
  0.00000000E+00  0.00000000E+00  0.00000000E+00
