supercell of POSCAR                     
   1.00398800000000     
    -6.2729611433599999    0.0082005604289200   10.0015927484000002
     3.1280384584799998    5.4363994576400003   10.0007801159999996
    -7.8567367181199996   13.6110857897000006  -10.0002683574999995
   Al   Sc   N 
    91     4    96
Direct
  0.4800455752454411  0.3132130571055924  0.5426011016894634
  0.0626104036522648  0.3954213190215086  0.7083702498771629
  0.1446318552454713  0.4783461569469765  0.8737700301908049
  0.4356610078925414  0.2672791116801747  0.9586640145005489
  0.0172502331796451  0.3523172142991911  0.1212641212485153
  0.1046796445485825  0.4410826313093281  0.2939251467186210
  0.1884682176578565  0.0216503927922389  0.4600560363556809
  0.2715392958234233  0.1042070537819413  0.6251448006770985
  0.3539195386660836  0.1862741672369523  0.7911557662602107
  0.2306307046022980  0.0660181041353596  0.0389213671286299
  0.3221175040945710  0.1427295759254577  0.2087080426926491
  0.3976061754061391  0.2310035739542045  0.3755407967148940
  0.0010458282511507  0.1661560250908138  0.6668740153769264
  0.0832446171261623  0.2472457343815506  0.8321197370998092
  0.1621483704309838  0.3294324087928402  0.9938723909573710
  0.0469786488759283  0.2110743008429878  0.2526846989517253
  0.1265175996392998  0.2927448893225133  0.4184988283822264
  0.2092333973031799  0.3751332361715711  0.5840618136371631
  0.2917809481593920  0.4572829769652245  0.7495307969830520
  0.3725627097087525  0.0419903314243868  0.9158055094632402
  0.3342393130502685  0.0037734902521436  0.3390031866478225
  0.4182005666544626  0.0849214716828754  0.5018130845420927
  0.9801317329431924  0.3133618185138332  0.5424952788505948
  0.5627714574610891  0.3955704620875906  0.7083425309351838
  0.6443223107560101  0.4776896915929214  0.8747336683938798
  0.9352481199251699  0.2698555748351126  0.9574739093204698
  0.5194989132708017  0.3487992424214852  0.1211212644092399
  0.6041739572648908  0.4413730457293923  0.2962044966363919
  0.6886359140952152  0.0219509309849144  0.4600774457375252
  0.7715654437590516  0.1043361908732976  0.6255606856257927
  0.8543750311607425  0.1868643316643457  0.7912061071252623
  0.7245885710815401  0.0639841471354430  0.0390066382048460
  0.8188140424609358  0.1413966175298782  0.2089505267444167
  0.8971825006973262  0.2310313984199439  0.3762364742812636
  0.5004615545194326  0.1664056820272748  0.6666977617958096
  0.5818267814368312  0.2490279634236785  0.8315824607502122
  0.6589122263911946  0.3266558004900446  0.9968594173196408
  0.9574530207529577  0.1184866893210383  0.0795258700742920
  0.5459112213885433  0.2140682314005957  0.2561772164930076
  0.6278354995693078  0.2930537988780557  0.4207347019783256
  0.7099133282756682  0.3751139489610296  0.5847520595279434
  0.7915873024746389  0.4572232336975546  0.7497140926363031
  0.8751954992519586  0.0394871632185172  0.9146597586906466
  0.8345751908728900  0.0040802960486062  0.3389366895691452
  0.9189138558008381  0.0845118028817282  0.5023930071177318
  0.4798166275476774  0.8131802390623335  0.5425017630530817
  0.0628383287953085  0.8957676387341778  0.7082390334815827
  0.1468472659636646  0.9794087948964290  0.8742432497748496
  0.4355144501639074  0.7709562385306370  0.9570269937037423
  0.0165463766744836  0.8514938608661851  0.1215355692840276
  0.1034478677274890  0.9408870934880156  0.2956590471693659
  0.1887638669170357  0.5215092145137987  0.4595773581090086
  0.2715122818515852  0.6041471987088585  0.6253906090470522
  0.3537047967806615  0.6871848171761954  0.7910969147777820
  0.2268288372633407  0.5612773698285309  0.0393689360614857
  0.3183422201569215  0.6410634116745371  0.2089886616647618
  0.3967034189180438  0.7303470887405439  0.3763998572954890
  0.0006915911884491  0.6664695385187400  0.6667933779720485
  0.0825942541972253  0.7487510323576529  0.8313507906755504
  0.1641244243673228  0.8306900870977003  0.9947917389162626
  0.4552482085367231  0.6207499751209440  0.0803909674085546
  0.0446722727706756  0.7113987953985230  0.2518113140202871
  0.1262039713695486  0.7920060430596791  0.4187429939686282
  0.2093353625754304  0.8745198501717866  0.5837780990709547
  0.2918397401652300  0.9568407907295153  0.7483204973164135
  0.3733466467216147  0.5401061409311012  0.9146580904302226
  0.3340515574626650  0.5030901596513857  0.3378222912777815
  0.4183993958121022  0.5841252438246514  0.5018934331503289
  0.9798457715999191  0.8132749841225149  0.5424744684449720
  0.5625760300771461  0.8956931853157073  0.7080615641423620
  0.6444322854722344  0.9790278297258226  0.8740286234948229
  0.9354073942315253  0.7691755739642474  0.9565132568929471
  0.5177206658033811  0.8544854727097047  0.1206758812963287
  0.6025690160325752  0.9427432936892330  0.2960846058141158
  0.6891242726302025  0.5219286506833285  0.4603268195077135
  0.7716502772560290  0.6042717039513192  0.6255727133650879
  0.8534118062141047  0.6872355194736457  0.7908865360850115
  0.7244048237054486  0.5636599010061119  0.0390788360431102
  0.8159221433207335  0.6463666318251313  0.2083440796089846
  0.8968710233426407  0.7311397655406893  0.3758492340513584
  0.5008488477558970  0.6659204210506502  0.6665566533378353
  0.5814993263700003  0.7490056843223414  0.8313014332465443
  0.6625185613945206  0.8319838808116131  0.9953959970978516
  0.9520378100553799  0.6215642983667422  0.0796464454079882
  0.5453984148515403  0.7123994923589336  0.2533993007728697
  0.6261511950565364  0.7926564447910138  0.4189972074535078
  0.7092240188290972  0.8752018838371995  0.5841531990298634
  0.7916317678088021  0.9578763970778184  0.7495458017098287
  0.8720313177294940  0.5400969756794183  0.9135681795556536
  0.8348781410126449  0.5049483459659001  0.3383815296265311
  0.9184800528135213  0.5849485214425343  0.5019698997247062
  0.2490496901463786  0.4067958494947348  0.1656706110217527
  0.7450509886179262  0.4140072520269200  0.1692733154210373
  0.2434058652588789  0.9151853038761359  0.1683129949454027
  0.7333333715642354  0.9235674071869440  0.1664306338609762
  0.0593463956312377  0.3936728761268071  0.5113073199977975
  0.1417930487600145  0.4754101737255993  0.6760971948143180
  0.2242749668956208  0.0559210288394780  0.8380833506750420
  0.0086106434976543  0.3511939804838917  0.9205053510132188
  0.0856729479065166  0.4309095222263437  0.0821381020476650
  0.1812082892022673  0.0271746245253794  0.2727047494659729
  0.2677784242598804  0.1033416264246441  0.4315333535396135
  0.3509307670162443  0.1845231268699479  0.5939638760381030
  0.4326170069595392  0.2661898673502421  0.7578288485625393
  0.2869783322410413  0.1455423711691495  0.9964951987098871
  0.4066346596110293  0.2195339953809068  0.1912521338633084
  0.4780649042492868  0.3153572193813758  0.3500131856385522
  0.0805301898672326  0.2458797792465575  0.6347206207128053
  0.1626529531968046  0.3282214747838808  0.7999236488160619
  0.2427722763051960  0.4134844204254406  0.9654328517810953
  0.0341387991191979  0.2018443588518153  0.0504098524747789
  0.1229892757698252  0.2927912607726739  0.2177635821457784
  0.2059560873393167  0.3718928749235388  0.3870952805163839
  0.2888404553549577  0.4545950046235063  0.5524778071557748
  0.3717133764073566  0.0367876364698461  0.7167191145677876
  0.4540926862491830  0.1191879026512126  0.8819016475688173
  0.3294031194066847  0.0010413126228954  0.1333032465014625
  0.4119874185408179  0.0800491361598574  0.3060926651659841
  0.4975314825031845  0.1640297475790788  0.4697489054776938
  0.5600353687805537  0.3939977628828331  0.5128943889933240
  0.6420980256768871  0.4753182040398585  0.6762851613536895
  0.7245237203878006  0.0579712901203067  0.8409578171541412
  0.5113672685852961  0.3503800426097996  0.9204901867889390
  0.5911923847623157  0.4336387747459938  0.0858074892497456
  0.6810821241433160  0.0292884902396153  0.2748792551171135
  0.7695799021944509  0.1030093163439645  0.4320867581392207
  0.8513861732757562  0.1843660924533879  0.5943937360574623
  0.9330015685612594  0.2662319232521497  0.7579366619069106
  0.8103807408051935  0.1389296455301405  0.0056599331756573
  0.9123922825573629  0.2054729657241836  0.1780003065162958
  0.9757262110963225  0.3130590779310367  0.3456589199161542
  0.5804206885051855  0.2458211909370078  0.6349408879506129
  0.6630539330130034  0.3280018433064456  0.7998222574876550
  0.7427020319382009  0.4104754868422873  0.9666794140589303
  0.5476410377091057  0.2130858513163503  0.0448576666567746
  0.6278404210666437  0.2934015483356944  0.2194998446980847
  0.7071448208325677  0.3718235903801528  0.3885816016991654
  0.7893945953195782  0.4545935223219999  0.5528954231668592
  0.8716833155225601  0.0370097507721709  0.7174910914213513
  0.9547671677789893  0.1191954897484493  0.8826012054658392
  0.8319297778304104  0.0016882375675422  0.1321863538116475
  0.9128920142152310  0.0813494191017980  0.3048499572481731
  0.9976724172759006  0.1639906274207306  0.4696709602874023
  0.0594170630747044  0.8931818744662010  0.5113937469126029
  0.1417115195132297  0.9748573649809202  0.6752296187862967
  0.2232494754542174  0.5583331112389516  0.8406328238745004
  0.0146639315804649  0.8472603128044582  0.9221137278621612
  0.0903084163710872  0.9270601179206466  0.0833116542164447
  0.1813108509855823  0.5283837647048983  0.2706768967947966
  0.2684384781992222  0.6030964792750169  0.4309990779713999
  0.3510944900231721  0.6840977336583691  0.5939811139920863
  0.4327010973578638  0.7659212370775919  0.7574963832417154
  0.3043486580637449  0.6415263075521125  0.0064364439243505
  0.4097664910591305  0.7081937869752792  0.1787739645669078
  0.4752779848951008  0.8122979722233765  0.3466102159007676
  0.0804053816391175  0.7458255408385384  0.6348098056983815
  0.1625644622114208  0.8286170483058086  0.7999864569537181
  0.2445747197450956  0.9106358752472161  0.9660432273628956
  0.0342701244570662  0.7014464616381346  0.0492917689725090
  0.1251213219977814  0.7929731283086028  0.2180926723727978
  0.2059850253852673  0.8713482347311441  0.3879107014565975
  0.2889350628687311  0.9542577193263568  0.5524894411490706
  0.3714566815129388  0.5369618768952265  0.7174510606852635
  0.4527628637288359  0.6204967580232790  0.8828162072788359
  0.3319555505305090  0.5015761457864301  0.1322664052240796
  0.4125737596611003  0.5812536949202709  0.3045867275119463
  0.4977665638604094  0.6635420595852324  0.4697064514456315
  0.5591008757647487  0.8935853749307725  0.5116656579300951
  0.6420726730800226  0.9754334572362069  0.6761190024091448
  0.7218002601080329  0.5581660688123833  0.8402351242355550
  0.5136212774984372  0.8481512876432546  0.9213270471191208
  0.6047563300969330  0.9083431480640272  0.0842899664651782
  0.6812573769423409  0.5284997918357632  0.2729043948931817
  0.7688203123027861  0.6031597609759558  0.4312750929081517
  0.8511096699364558  0.6844615203874724  0.5941746099820904
  0.9327175715693983  0.7666397303930452  0.7581195585112752
  0.8049384615437205  0.6392751030751569  0.0039372132418904
  0.9080768080357799  0.7116086070380661  0.1777072076223334
  0.9763513394415355  0.8126517976548868  0.3457999615772849
  0.5805193314289383  0.7456910152873704  0.6346957480715147
  0.6625364268235927  0.8284464988681535  0.7996431749574455
  0.7458921734368147  0.9108960062887306  0.9650192841337031
  0.5320221652383310  0.7015849947883837  0.0491914864541130
  0.6231835819943612  0.7935749282145181  0.2199746175551951
  0.7064669881593630  0.8712920796279491  0.3883760811335861
  0.7890363829210898  0.9545801031442451  0.5528188957009945
  0.8714156475525456  0.5370017843257955  0.7175191989230996
  0.9531467651205290  0.6198152620403476  0.8821985751504258
  0.8292755781591623  0.5030133005374893  0.1329200199445282
  0.9126206328002908  0.5820301213881933  0.3038981071718538
  0.9976727859402956  0.6639636228745758  0.4694177817819138
 
  0.00000000E+00  0.00000000E+00  0.00000000E+00
  0.00000000E+00  0.00000000E+00  0.00000000E+00
  0.00000000E+00  0.00000000E+00  0.00000000E+00
  0.00000000E+00  0.00000000E+00  0.00000000E+00
  0.00000000E+00  0.00000000E+00  0.00000000E+00
  0.00000000E+00  0.00000000E+00  0.00000000E+00
  0.00000000E+00  0.00000000E+00  0.00000000E+00
  0.00000000E+00  0.00000000E+00  0.00000000E+00
  0.00000000E+00  0.00000000E+00  0.00000000E+00
  0.00000000E+00  0.00000000E+00  0.00000000E+00
  0.00000000E+00  0.00000000E+00  0.00000000E+00
  0.00000000E+00  0.00000000E+00  0.00000000E+00
  0.00000000E+00  0.00000000E+00  0.00000000E+00
  0.00000000E+00  0.00000000E+00  0.00000000E+00
  0.00000000E+00  0.00000000E+00  0.00000000E+00
  0.00000000E+00  0.00000000E+00  0.00000000E+00
  0.00000000E+00  0.00000000E+00  0.00000000E+00
  0.00000000E+00  0.00000000E+00  0.00000000E+00
  0.00000000E+00  0.00000000E+00  0.00000000E+00
  0.00000000E+00  0.00000000E+00  0.00000000E+00
  0.00000000E+00  0.00000000E+00  0.00000000E+00
  0.00000000E+00  0.00000000E+00  0.00000000E+00
  0.00000000E+00  0.00000000E+00  0.00000000E+00
  0.00000000E+00  0.00000000E+00  0.00000000E+00
  0.00000000E+00  0.00000000E+00  0.00000000E+00
  0.00000000E+00  0.00000000E+00  0.00000000E+00
  0.00000000E+00  0.00000000E+00  0.00000000E+00
  0.00000000E+00  0.00000000E+00  0.00000000E+00
  0.00000000E+00  0.00000000E+00  0.00000000E+00
  0.00000000E+00  0.00000000E+00  0.00000000E+00
  0.00000000E+00  0.00000000E+00  0.00000000E+00
  0.00000000E+00  0.00000000E+00  0.00000000E+00
  0.00000000E+00  0.00000000E+00  0.00000000E+00
  0.00000000E+00  0.00000000E+00  0.00000000E+00
  0.00000000E+00  0.00000000E+00  0.00000000E+00
  0.00000000E+00  0.00000000E+00  0.00000000E+00
  0.00000000E+00  0.00000000E+00  0.00000000E+00
  0.00000000E+00  0.00000000E+00  0.00000000E+00
  0.00000000E+00  0.00000000E+00  0.00000000E+00
  0.00000000E+00  0.00000000E+00  0.00000000E+00
  0.00000000E+00  0.00000000E+00  0.00000000E+00
  0.00000000E+00  0.00000000E+00  0.00000000E+00
  0.00000000E+00  0.00000000E+00  0.00000000E+00
  0.00000000E+00  0.00000000E+00  0.00000000E+00
  0.00000000E+00  0.00000000E+00  0.00000000E+00
  0.00000000E+00  0.00000000E+00  0.00000000E+00
  0.00000000E+00  0.00000000E+00  0.00000000E+00
  0.00000000E+00  0.00000000E+00  0.00000000E+00
  0.00000000E+00  0.00000000E+00  0.00000000E+00
  0.00000000E+00  0.00000000E+00  0.00000000E+00
  0.00000000E+00  0.00000000E+00  0.00000000E+00
  0.00000000E+00  0.00000000E+00  0.00000000E+00
  0.00000000E+00  0.00000000E+00  0.00000000E+00
  0.00000000E+00  0.00000000E+00  0.00000000E+00
  0.00000000E+00  0.00000000E+00  0.00000000E+00
  0.00000000E+00  0.00000000E+00  0.00000000E+00
  0.00000000E+00  0.00000000E+00  0.00000000E+00
  0.00000000E+00  0.00000000E+00  0.00000000E+00
  0.00000000E+00  0.00000000E+00  0.00000000E+00
  0.00000000E+00  0.00000000E+00  0.00000000E+00
  0.00000000E+00  0.00000000E+00  0.00000000E+00
  0.00000000E+00  0.00000000E+00  0.00000000E+00
  0.00000000E+00  0.00000000E+00  0.00000000E+00
  0.00000000E+00  0.00000000E+00  0.00000000E+00
  0.00000000E+00  0.00000000E+00  0.00000000E+00
  0.00000000E+00  0.00000000E+00  0.00000000E+00
  0.00000000E+00  0.00000000E+00  0.00000000E+00
  0.00000000E+00  0.00000000E+00  0.00000000E+00
  0.00000000E+00  0.00000000E+00  0.00000000E+00
  0.00000000E+00  0.00000000E+00  0.00000000E+00
  0.00000000E+00  0.00000000E+00  0.00000000E+00
  0.00000000E+00  0.00000000E+00  0.00000000E+00
  0.00000000E+00  0.00000000E+00  0.00000000E+00
  0.00000000E+00  0.00000000E+00  0.00000000E+00
  0.00000000E+00  0.00000000E+00  0.00000000E+00
  0.00000000E+00  0.00000000E+00  0.00000000E+00
  0.00000000E+00  0.00000000E+00  0.00000000E+00
  0.00000000E+00  0.00000000E+00  0.00000000E+00
  0.00000000E+00  0.00000000E+00  0.00000000E+00
  0.00000000E+00  0.00000000E+00  0.00000000E+00
  0.00000000E+00  0.00000000E+00  0.00000000E+00
  0.00000000E+00  0.00000000E+00  0.00000000E+00
  0.00000000E+00  0.00000000E+00  0.00000000E+00
  0.00000000E+00  0.00000000E+00  0.00000000E+00
  0.00000000E+00  0.00000000E+00  0.00000000E+00
  0.00000000E+00  0.00000000E+00  0.00000000E+00
  0.00000000E+00  0.00000000E+00  0.00000000E+00
  0.00000000E+00  0.00000000E+00  0.00000000E+00
  0.00000000E+00  0.00000000E+00  0.00000000E+00
  0.00000000E+00  0.00000000E+00  0.00000000E+00
  0.00000000E+00  0.00000000E+00  0.00000000E+00
  0.00000000E+00  0.00000000E+00  0.00000000E+00
  0.00000000E+00  0.00000000E+00  0.00000000E+00
  0.00000000E+00  0.00000000E+00  0.00000000E+00
  0.00000000E+00  0.00000000E+00  0.00000000E+00
  0.00000000E+00  0.00000000E+00  0.00000000E+00
  0.00000000E+00  0.00000000E+00  0.00000000E+00
  0.00000000E+00  0.00000000E+00  0.00000000E+00
  0.00000000E+00  0.00000000E+00  0.00000000E+00
  0.00000000E+00  0.00000000E+00  0.00000000E+00
  0.00000000E+00  0.00000000E+00  0.00000000E+00
  0.00000000E+00  0.00000000E+00  0.00000000E+00
  0.00000000E+00  0.00000000E+00  0.00000000E+00
  0.00000000E+00  0.00000000E+00  0.00000000E+00
  0.00000000E+00  0.00000000E+00  0.00000000E+00
  0.00000000E+00  0.00000000E+00  0.00000000E+00
  0.00000000E+00  0.00000000E+00  0.00000000E+00
  0.00000000E+00  0.00000000E+00  0.00000000E+00
  0.00000000E+00  0.00000000E+00  0.00000000E+00
  0.00000000E+00  0.00000000E+00  0.00000000E+00
  0.00000000E+00  0.00000000E+00  0.00000000E+00
  0.00000000E+00  0.00000000E+00  0.00000000E+00
  0.00000000E+00  0.00000000E+00  0.00000000E+00
  0.00000000E+00  0.00000000E+00  0.00000000E+00
  0.00000000E+00  0.00000000E+00  0.00000000E+00
  0.00000000E+00  0.00000000E+00  0.00000000E+00
  0.00000000E+00  0.00000000E+00  0.00000000E+00
  0.00000000E+00  0.00000000E+00  0.00000000E+00
  0.00000000E+00  0.00000000E+00  0.00000000E+00
  0.00000000E+00  0.00000000E+00  0.00000000E+00
  0.00000000E+00  0.00000000E+00  0.00000000E+00
  0.00000000E+00  0.00000000E+00  0.00000000E+00
  0.00000000E+00  0.00000000E+00  0.00000000E+00
  0.00000000E+00  0.00000000E+00  0.00000000E+00
  0.00000000E+00  0.00000000E+00  0.00000000E+00
  0.00000000E+00  0.00000000E+00  0.00000000E+00
  0.00000000E+00  0.00000000E+00  0.00000000E+00
  0.00000000E+00  0.00000000E+00  0.00000000E+00
  0.00000000E+00  0.00000000E+00  0.00000000E+00
  0.00000000E+00  0.00000000E+00  0.00000000E+00
  0.00000000E+00  0.00000000E+00  0.00000000E+00
  0.00000000E+00  0.00000000E+00  0.00000000E+00
  0.00000000E+00  0.00000000E+00  0.00000000E+00
  0.00000000E+00  0.00000000E+00  0.00000000E+00
  0.00000000E+00  0.00000000E+00  0.00000000E+00
  0.00000000E+00  0.00000000E+00  0.00000000E+00
  0.00000000E+00  0.00000000E+00  0.00000000E+00
  0.00000000E+00  0.00000000E+00  0.00000000E+00
  0.00000000E+00  0.00000000E+00  0.00000000E+00
  0.00000000E+00  0.00000000E+00  0.00000000E+00
  0.00000000E+00  0.00000000E+00  0.00000000E+00
  0.00000000E+00  0.00000000E+00  0.00000000E+00
  0.00000000E+00  0.00000000E+00  0.00000000E+00
  0.00000000E+00  0.00000000E+00  0.00000000E+00
  0.00000000E+00  0.00000000E+00  0.00000000E+00
  0.00000000E+00  0.00000000E+00  0.00000000E+00
  0.00000000E+00  0.00000000E+00  0.00000000E+00
  0.00000000E+00  0.00000000E+00  0.00000000E+00
  0.00000000E+00  0.00000000E+00  0.00000000E+00
  0.00000000E+00  0.00000000E+00  0.00000000E+00
  0.00000000E+00  0.00000000E+00  0.00000000E+00
  0.00000000E+00  0.00000000E+00  0.00000000E+00
  0.00000000E+00  0.00000000E+00  0.00000000E+00
  0.00000000E+00  0.00000000E+00  0.00000000E+00
  0.00000000E+00  0.00000000E+00  0.00000000E+00
  0.00000000E+00  0.00000000E+00  0.00000000E+00
  0.00000000E+00  0.00000000E+00  0.00000000E+00
  0.00000000E+00  0.00000000E+00  0.00000000E+00
  0.00000000E+00  0.00000000E+00  0.00000000E+00
  0.00000000E+00  0.00000000E+00  0.00000000E+00
  0.00000000E+00  0.00000000E+00  0.00000000E+00
  0.00000000E+00  0.00000000E+00  0.00000000E+00
  0.00000000E+00  0.00000000E+00  0.00000000E+00
  0.00000000E+00  0.00000000E+00  0.00000000E+00
  0.00000000E+00  0.00000000E+00  0.00000000E+00
  0.00000000E+00  0.00000000E+00  0.00000000E+00
  0.00000000E+00  0.00000000E+00  0.00000000E+00
  0.00000000E+00  0.00000000E+00  0.00000000E+00
  0.00000000E+00  0.00000000E+00  0.00000000E+00
  0.00000000E+00  0.00000000E+00  0.00000000E+00
  0.00000000E+00  0.00000000E+00  0.00000000E+00
  0.00000000E+00  0.00000000E+00  0.00000000E+00
  0.00000000E+00  0.00000000E+00  0.00000000E+00
  0.00000000E+00  0.00000000E+00  0.00000000E+00
  0.00000000E+00  0.00000000E+00  0.00000000E+00
  0.00000000E+00  0.00000000E+00  0.00000000E+00
  0.00000000E+00  0.00000000E+00  0.00000000E+00
  0.00000000E+00  0.00000000E+00  0.00000000E+00
  0.00000000E+00  0.00000000E+00  0.00000000E+00
  0.00000000E+00  0.00000000E+00  0.00000000E+00
  0.00000000E+00  0.00000000E+00  0.00000000E+00
  0.00000000E+00  0.00000000E+00  0.00000000E+00
  0.00000000E+00  0.00000000E+00  0.00000000E+00
  0.00000000E+00  0.00000000E+00  0.00000000E+00
  0.00000000E+00  0.00000000E+00  0.00000000E+00
  0.00000000E+00  0.00000000E+00  0.00000000E+00
  0.00000000E+00  0.00000000E+00  0.00000000E+00
  0.00000000E+00  0.00000000E+00  0.00000000E+00
  0.00000000E+00  0.00000000E+00  0.00000000E+00
  0.00000000E+00  0.00000000E+00  0.00000000E+00
  0.00000000E+00  0.00000000E+00  0.00000000E+00
