supercell of POSCAR                     
   1.00398800000000     
    -6.2729611433599999    0.0082005604289200   10.0015927484000002
     3.1280384584799998    5.4363994576400003   10.0007801159999996
    -7.8567367181199996   13.6110857897000006  -10.0002683574999995
   Al   Sc   N 
    91     4    96
Direct
  0.4796644518861299  0.3140805364047168  0.5426661010568310
  0.0619534059966682  0.3957938379876680  0.7075956074955698
  0.1448514388489741  0.4781441658054675  0.8727213202218920
  0.4373124368720269  0.2679471511306559  0.9562718665524272
  0.1058343851055668  0.4412092524100686  0.2988276779385757
  0.1888944218304900  0.0221760253024712  0.4599129298957720
  0.2712377275654703  0.1045405376783748  0.6253938543270507
  0.3530692235043418  0.1870499613086309  0.7910273670429433
  0.2236963839469581  0.0632880317072164  0.0395746388417493
  0.3221289104706031  0.1375256626619432  0.2113098571749816
  0.3959420368693642  0.2317972561628352  0.3765615439447387
  0.0002186031725060  0.1667565823690964  0.6663355040104619
  0.0812125022555676  0.2485792793417119  0.8309020132954430
  0.1636081167408179  0.3290475310904810  0.9928199480225501
  0.4555644384401063  0.1186741894780852  0.0796312256264358
  0.0532456787371487  0.2146509265486714  0.2505761971431468
  0.1268198891555130  0.2931155981998188  0.4188976743538859
  0.2091515854884136  0.3756308073457149  0.5842189174337875
  0.2913283267147975  0.4580504736089424  0.7495302184218673
  0.3731243888536397  0.0393221870464515  0.9146690056467435
  0.3362490667087101  0.0033475987762728  0.3387988099307222
  0.4185261879792179  0.0852189693599286  0.5020726098484332
  0.9796918124893068  0.3136794740707458  0.5421804237752994
  0.5618395586716289  0.3964482873068036  0.7080528498519385
  0.6440012074385493  0.4781336439843926  0.8740206002778521
  0.9370221734106607  0.2685730412969107  0.9578360178135128
  0.5162454691045966  0.3518527997264158  0.1233150630090378
  0.6052248894876584  0.4406368009093242  0.2942893513075404
  0.6887244108243280  0.0224125108736715  0.4603365397198544
  0.7709125954889089  0.1048927216565474  0.6251305795943480
  0.8526297407931622  0.1872454531063781  0.7900342054577294
  0.7266296743424689  0.0630877629519091  0.0399913266970557
  0.8207123299847225  0.1431741361032763  0.2090317397114632
  0.8981035775717672  0.2318361330721217  0.3753439774239027
  0.5003231556543142  0.1669731703464237  0.6668774643261202
  0.5824891398545589  0.2488992729747466  0.8315238943684378
  0.6639048999791441  0.3310567418004950  0.9956668820465353
  0.9609321679653746  0.1217647960232995  0.0785710067851042
  0.5458262798457412  0.2112313513913193  0.2528649733499932
  0.6260095344660570  0.2931259769791907  0.4184839151337272
  0.7089685886415111  0.3755646408895643  0.5839450651357865
  0.7911325045495303  0.4577823411989357  0.7493258213768428
  0.8739168662506316  0.0417557171115064  0.9152892802003549
  0.8353611302248041  0.0051531653980561  0.3390056303852731
  0.9182227533307667  0.0855919941652914  0.5017708353846828
  0.4798313845588993  0.8136788335344534  0.5424629220516621
  0.0619723402845338  0.8964575486655733  0.7083269160310905
  0.1428029673047604  0.9794673662591933  0.8749047886787622
  0.4343239845344655  0.7682456574177650  0.9559788949145371
  0.0154922596670772  0.8540112045338688  0.1218270331319431
  0.1045116022852284  0.9426924171896189  0.2955955445634686
  0.1895828251456422  0.5235339028229049  0.4617134903874174
  0.2712965704728134  0.6053307372877796  0.6259993765102578
  0.3529337967431374  0.6866925239557560  0.7917118478259297
  0.2144047440808734  0.5491009867351693  0.0449161002982024
  0.3187435516308881  0.6379349939432686  0.2089895620469306
  0.3979302263240001  0.7305710761422262  0.3759609348329462
  0.0003338118716556  0.6669095145654680  0.6667513279469475
  0.0818830829946080  0.7494956866817546  0.8315649767383917
  0.1641988337689853  0.8272357539721540  0.9960189295559232
  0.4541347997720635  0.6172259954680968  0.0795580850679372
  0.0463600239226523  0.7124949090680204  0.2532403571000614
  0.1268739000174293  0.7930367637909796  0.4190301363619682
  0.2090861495980860  0.8756705140501282  0.5842013655159093
  0.2910531375108221  0.9575165565379891  0.7497468354675689
  0.3708072138818110  0.5391295905176818  0.9171124068333256
  0.3341369119373496  0.5047541994094900  0.3383294629280300
  0.4186252216783544  0.5854484977462491  0.5021630772167285
  0.9796064713085357  0.8143661951855066  0.5428041135846513
  0.5621658220733963  0.8959881832432401  0.7081195013102857
  0.6445718011961930  0.9787232261549121  0.8733093698607064
  0.9345708211760666  0.7714693721949502  0.9567458152984258
  0.5180840137539064  0.8484774556754786  0.1213247693978943
  0.6056582449812637  0.9413051145962967  0.2974083583340601
  0.6889508482881439  0.5216068888704726  0.4596044158895509
  0.7710906944234566  0.6046442650897035  0.6252445722008986
  0.8537431537687610  0.6868546929016546  0.7910018413482760
  0.7251726895252446  0.5638953471457526  0.0398791705130108
  0.8188418372597894  0.6424132594025593  0.2089632357478379
  0.8981385292035924  0.7312279405330884  0.3767171303097996
  0.5001740688482315  0.6669383757412177  0.6669018540249638
  0.5822918760743008  0.7481147084902418  0.8312446310735950
  0.6622535267299838  0.8310240968180551  0.9939116366374137
  0.9510993387454363  0.6229526187404630  0.0797473448992108
  0.5483891711653328  0.7095591168072275  0.2517861875124154
  0.6271279215942940  0.7920544211809073  0.4189105278262204
  0.7090898551296476  0.8755107657374595  0.5841510338884319
  0.7914164355888929  0.9580348619171204  0.7494330822429092
  0.8740275757744556  0.5395211110928173  0.9149914549825553
  0.8352738324548952  0.5039203005589385  0.3378717014706396
  0.9185594234443215  0.5848948580216700  0.5018908094632053
  0.2286562915581527  0.4036969919644804  0.1697700794685773
  0.7545023711034418  0.4136503774208364  0.1653510423698208
  0.2427825310269753  0.9129829889729919  0.1684266056963253
  0.7399952215547572  0.9157878301783811  0.1691528812711880
  0.0591634990464414  0.3939411522886402  0.5119447771932997
  0.1414783988849848  0.4759326852116033  0.6762252316332109
  0.2230216043555941  0.0580105177818808  0.8410248611999833
  0.0126246329592732  0.3482509925756361  0.9207205562072360
  0.1074718278546172  0.4516379889992663  0.0738048859056590
  0.1836056015135057  0.0273076021860632  0.2724816033055433
  0.2690538602246804  0.1031124748611347  0.4314997940911098
  0.3509023744845834  0.1848058575369294  0.5944173794543488
  0.4324165946513290  0.2666962688354104  0.7584420182517064
  0.3059697920735545  0.1399314872678232  0.0058892521990401
  0.4157136968319151  0.2001050903237100  0.1777012308167798
  0.4752909889701442  0.3131923064323345  0.3458763238128668
  0.0800477938261395  0.2459725773699830  0.6344534093529788
  0.1616684551781091  0.3280384568299510  0.7988532650884608
  0.2485982216844249  0.4062049563181631  0.9608336254204701
  0.0381664470183836  0.1864403302438902  0.0400924726686398
  0.1453457993584237  0.2886449802437099  0.2296793592512074
  0.2079153645365608  0.3739678052460675  0.3920257640508709
  0.2895250870635309  0.4556098113110707  0.5540671070034477
  0.3710472059015189  0.0369423303961725  0.7175301366691329
  0.4539195985373325  0.1180453922899645  0.8822384774415681
  0.3317594399226991  0.9978053376699449  0.1330126297395822
  0.4180367038413593  0.0782309835065007  0.3074249798106976
  0.4980813083887625  0.1645048230678654  0.4702831139643990
  0.5591490026916972  0.3941240696053114  0.5114795838744826
  0.6413798550403129  0.4759548371180458  0.6759914202315969
  0.7236977310217299  0.0580309915083816  0.8408530813409385
  0.5153742967359847  0.3470911744314478  0.9222983656136705
  0.5902248917663044  0.4269433320862603  0.0842740758706029
  0.6827470354162060  0.0279897224587629  0.2736558823570761
  0.7683229017029731  0.1039996035490347  0.4315528996088602
  0.8506252713698146  0.1849597158074445  0.5939646359204147
  0.9318870021454231  0.2667473016953892  0.7573647706746485
  0.8036689560638735  0.1417318960229110  0.0066243847344509
  0.9169621634690799  0.2030153826553800  0.1781973790938594
  0.9772149255642759  0.3131243460180926  0.3455660530399740
  0.5800731749491064  0.2464913460945652  0.6350056205436019
  0.6617763060239383  0.3288093863881016  0.7994299665900044
  0.7436021376290824  0.4123157494128691  0.9654570773382147
  0.5345319954167422  0.2009212650780867  0.0495292018726019
  0.6266240285717757  0.2904417004940854  0.2188973332596831
  0.7065750351925431  0.3715852973858773  0.3874231468414706
  0.7887354819012629  0.4548898092883604  0.5525977205675048
  0.8705962141780290  0.0372056419685833  0.7167318671986109
  0.9508292651199639  0.1201707904751075  0.8802473425861521
  0.8279684302619543  0.0021440544952824  0.1336366039191077
  0.9134657266448585  0.0816266672273542  0.3048155476913692
  0.9976624791887332  0.1644066090061642  0.4692879312123779
  0.0591518479320641  0.8944656920974410  0.5117530883798409
  0.1415264648003074  0.9759378915966224  0.6762096989394522
  0.2229326246303600  0.5588194869759064  0.8404359151289640
  0.0130076592951980  0.8493931712148708  0.9219148978813365
  0.0889823346487901  0.9283600237056433  0.0836803762187586
  0.1795939476450172  0.5312790433213337  0.2741277238653055
  0.2691246849588822  0.6041462005066620  0.4318482242332351
  0.3508451140143833  0.6851822948325363  0.5944275126871972
  0.4322852860324105  0.7662267890583720  0.7584458599180834
  0.3008727023368749  0.6371570890137122  0.0084573368029268
  0.4109014303106591  0.7054554592841882  0.1781268806905629
  0.4777094796447017  0.8111206049675417  0.3456984187689258
  0.0800873350911075  0.7466586415140810  0.6351174715749082
  0.1619289643603210  0.8290598924378827  0.7998684199768178
  0.2461509112189972  0.9071831469801381  0.9648701254572813
  0.0262543022852384  0.7112407542505039  0.0492885488146584
  0.1254999273032453  0.7939104050051924  0.2183657760486497
  0.2069574734828663  0.8717729876299813  0.3878964900708226
  0.2889159052642114  0.9548665981670510  0.5527366255706667
  0.3711019568100014  0.5375456237221883  0.7176881377156832
  0.4524101634763014  0.6175533703850249  0.8828358107119314
  0.3308881170423916  0.4943832976547924  0.1372179286624231
  0.4140109351261074  0.5809657652212437  0.3050906897988455
  0.4980814715294599  0.6642536973053268  0.4697754289966625
  0.5593272026054947  0.8937780540424143  0.5116490307332384
  0.6414414662940402  0.9758501592177353  0.6762630238170431
  0.7233611782316061  0.5577075843008146  0.8407147265627302
  0.5129825153653371  0.8476569579735340  0.9214224550548664
  0.5891094727043082  0.9268727218743678  0.0822041190259668
  0.6838397613403657  0.5254252622909519  0.2708246380103532
  0.7690465163009534  0.6026872685611764  0.4311346596244690
  0.8507454033596815  0.6848499166111779  0.5942202349962784
  0.9322999809128234  0.7668526982474475  0.7582013590556471
  0.8017123647596662  0.6434952599621298  0.0045523420096245
  0.9099592429225822  0.7111083482560616  0.1788841778195120
  0.9760966318215836  0.8143612943736258  0.3465924857094294
  0.5800355126744776  0.7462950825625398  0.6349502281683073
  0.6625266513749821  0.8281313658780505  0.7997903987655306
  0.7426745464771614  0.9133581156721036  0.9653206693148206
  0.5295961031147343  0.7023488338976307  0.0476360910670692
  0.6235641839451631  0.7978865730085758  0.2196569856636046
  0.7081723973863205  0.8710797068571381  0.3892508583129981
  0.7887649298581039  0.9551220152550215  0.5529502824618859
  0.8709666931106952  0.5373852697321766  0.7173463317921929
  0.9533814072442937  0.6200853593379705  0.8827533355666475
  0.8084951076042302  0.5235048094753338  0.1327402456862785
  0.9127255139104307  0.5830167639983728  0.3055260862214837
  0.9980400196841686  0.6648710658694128  0.4704497436670181
 
  0.00000000E+00  0.00000000E+00  0.00000000E+00
  0.00000000E+00  0.00000000E+00  0.00000000E+00
  0.00000000E+00  0.00000000E+00  0.00000000E+00
  0.00000000E+00  0.00000000E+00  0.00000000E+00
  0.00000000E+00  0.00000000E+00  0.00000000E+00
  0.00000000E+00  0.00000000E+00  0.00000000E+00
  0.00000000E+00  0.00000000E+00  0.00000000E+00
  0.00000000E+00  0.00000000E+00  0.00000000E+00
  0.00000000E+00  0.00000000E+00  0.00000000E+00
  0.00000000E+00  0.00000000E+00  0.00000000E+00
  0.00000000E+00  0.00000000E+00  0.00000000E+00
  0.00000000E+00  0.00000000E+00  0.00000000E+00
  0.00000000E+00  0.00000000E+00  0.00000000E+00
  0.00000000E+00  0.00000000E+00  0.00000000E+00
  0.00000000E+00  0.00000000E+00  0.00000000E+00
  0.00000000E+00  0.00000000E+00  0.00000000E+00
  0.00000000E+00  0.00000000E+00  0.00000000E+00
  0.00000000E+00  0.00000000E+00  0.00000000E+00
  0.00000000E+00  0.00000000E+00  0.00000000E+00
  0.00000000E+00  0.00000000E+00  0.00000000E+00
  0.00000000E+00  0.00000000E+00  0.00000000E+00
  0.00000000E+00  0.00000000E+00  0.00000000E+00
  0.00000000E+00  0.00000000E+00  0.00000000E+00
  0.00000000E+00  0.00000000E+00  0.00000000E+00
  0.00000000E+00  0.00000000E+00  0.00000000E+00
  0.00000000E+00  0.00000000E+00  0.00000000E+00
  0.00000000E+00  0.00000000E+00  0.00000000E+00
  0.00000000E+00  0.00000000E+00  0.00000000E+00
  0.00000000E+00  0.00000000E+00  0.00000000E+00
  0.00000000E+00  0.00000000E+00  0.00000000E+00
  0.00000000E+00  0.00000000E+00  0.00000000E+00
  0.00000000E+00  0.00000000E+00  0.00000000E+00
  0.00000000E+00  0.00000000E+00  0.00000000E+00
  0.00000000E+00  0.00000000E+00  0.00000000E+00
  0.00000000E+00  0.00000000E+00  0.00000000E+00
  0.00000000E+00  0.00000000E+00  0.00000000E+00
  0.00000000E+00  0.00000000E+00  0.00000000E+00
  0.00000000E+00  0.00000000E+00  0.00000000E+00
  0.00000000E+00  0.00000000E+00  0.00000000E+00
  0.00000000E+00  0.00000000E+00  0.00000000E+00
  0.00000000E+00  0.00000000E+00  0.00000000E+00
  0.00000000E+00  0.00000000E+00  0.00000000E+00
  0.00000000E+00  0.00000000E+00  0.00000000E+00
  0.00000000E+00  0.00000000E+00  0.00000000E+00
  0.00000000E+00  0.00000000E+00  0.00000000E+00
  0.00000000E+00  0.00000000E+00  0.00000000E+00
  0.00000000E+00  0.00000000E+00  0.00000000E+00
  0.00000000E+00  0.00000000E+00  0.00000000E+00
  0.00000000E+00  0.00000000E+00  0.00000000E+00
  0.00000000E+00  0.00000000E+00  0.00000000E+00
  0.00000000E+00  0.00000000E+00  0.00000000E+00
  0.00000000E+00  0.00000000E+00  0.00000000E+00
  0.00000000E+00  0.00000000E+00  0.00000000E+00
  0.00000000E+00  0.00000000E+00  0.00000000E+00
  0.00000000E+00  0.00000000E+00  0.00000000E+00
  0.00000000E+00  0.00000000E+00  0.00000000E+00
  0.00000000E+00  0.00000000E+00  0.00000000E+00
  0.00000000E+00  0.00000000E+00  0.00000000E+00
  0.00000000E+00  0.00000000E+00  0.00000000E+00
  0.00000000E+00  0.00000000E+00  0.00000000E+00
  0.00000000E+00  0.00000000E+00  0.00000000E+00
  0.00000000E+00  0.00000000E+00  0.00000000E+00
  0.00000000E+00  0.00000000E+00  0.00000000E+00
  0.00000000E+00  0.00000000E+00  0.00000000E+00
  0.00000000E+00  0.00000000E+00  0.00000000E+00
  0.00000000E+00  0.00000000E+00  0.00000000E+00
  0.00000000E+00  0.00000000E+00  0.00000000E+00
  0.00000000E+00  0.00000000E+00  0.00000000E+00
  0.00000000E+00  0.00000000E+00  0.00000000E+00
  0.00000000E+00  0.00000000E+00  0.00000000E+00
  0.00000000E+00  0.00000000E+00  0.00000000E+00
  0.00000000E+00  0.00000000E+00  0.00000000E+00
  0.00000000E+00  0.00000000E+00  0.00000000E+00
  0.00000000E+00  0.00000000E+00  0.00000000E+00
  0.00000000E+00  0.00000000E+00  0.00000000E+00
  0.00000000E+00  0.00000000E+00  0.00000000E+00
  0.00000000E+00  0.00000000E+00  0.00000000E+00
  0.00000000E+00  0.00000000E+00  0.00000000E+00
  0.00000000E+00  0.00000000E+00  0.00000000E+00
  0.00000000E+00  0.00000000E+00  0.00000000E+00
  0.00000000E+00  0.00000000E+00  0.00000000E+00
  0.00000000E+00  0.00000000E+00  0.00000000E+00
  0.00000000E+00  0.00000000E+00  0.00000000E+00
  0.00000000E+00  0.00000000E+00  0.00000000E+00
  0.00000000E+00  0.00000000E+00  0.00000000E+00
  0.00000000E+00  0.00000000E+00  0.00000000E+00
  0.00000000E+00  0.00000000E+00  0.00000000E+00
  0.00000000E+00  0.00000000E+00  0.00000000E+00
  0.00000000E+00  0.00000000E+00  0.00000000E+00
  0.00000000E+00  0.00000000E+00  0.00000000E+00
  0.00000000E+00  0.00000000E+00  0.00000000E+00
  0.00000000E+00  0.00000000E+00  0.00000000E+00
  0.00000000E+00  0.00000000E+00  0.00000000E+00
  0.00000000E+00  0.00000000E+00  0.00000000E+00
  0.00000000E+00  0.00000000E+00  0.00000000E+00
  0.00000000E+00  0.00000000E+00  0.00000000E+00
  0.00000000E+00  0.00000000E+00  0.00000000E+00
  0.00000000E+00  0.00000000E+00  0.00000000E+00
  0.00000000E+00  0.00000000E+00  0.00000000E+00
  0.00000000E+00  0.00000000E+00  0.00000000E+00
  0.00000000E+00  0.00000000E+00  0.00000000E+00
  0.00000000E+00  0.00000000E+00  0.00000000E+00
  0.00000000E+00  0.00000000E+00  0.00000000E+00
  0.00000000E+00  0.00000000E+00  0.00000000E+00
  0.00000000E+00  0.00000000E+00  0.00000000E+00
  0.00000000E+00  0.00000000E+00  0.00000000E+00
  0.00000000E+00  0.00000000E+00  0.00000000E+00
  0.00000000E+00  0.00000000E+00  0.00000000E+00
  0.00000000E+00  0.00000000E+00  0.00000000E+00
  0.00000000E+00  0.00000000E+00  0.00000000E+00
  0.00000000E+00  0.00000000E+00  0.00000000E+00
  0.00000000E+00  0.00000000E+00  0.00000000E+00
  0.00000000E+00  0.00000000E+00  0.00000000E+00
  0.00000000E+00  0.00000000E+00  0.00000000E+00
  0.00000000E+00  0.00000000E+00  0.00000000E+00
  0.00000000E+00  0.00000000E+00  0.00000000E+00
  0.00000000E+00  0.00000000E+00  0.00000000E+00
  0.00000000E+00  0.00000000E+00  0.00000000E+00
  0.00000000E+00  0.00000000E+00  0.00000000E+00
  0.00000000E+00  0.00000000E+00  0.00000000E+00
  0.00000000E+00  0.00000000E+00  0.00000000E+00
  0.00000000E+00  0.00000000E+00  0.00000000E+00
  0.00000000E+00  0.00000000E+00  0.00000000E+00
  0.00000000E+00  0.00000000E+00  0.00000000E+00
  0.00000000E+00  0.00000000E+00  0.00000000E+00
  0.00000000E+00  0.00000000E+00  0.00000000E+00
  0.00000000E+00  0.00000000E+00  0.00000000E+00
  0.00000000E+00  0.00000000E+00  0.00000000E+00
  0.00000000E+00  0.00000000E+00  0.00000000E+00
  0.00000000E+00  0.00000000E+00  0.00000000E+00
  0.00000000E+00  0.00000000E+00  0.00000000E+00
  0.00000000E+00  0.00000000E+00  0.00000000E+00
  0.00000000E+00  0.00000000E+00  0.00000000E+00
  0.00000000E+00  0.00000000E+00  0.00000000E+00
  0.00000000E+00  0.00000000E+00  0.00000000E+00
  0.00000000E+00  0.00000000E+00  0.00000000E+00
  0.00000000E+00  0.00000000E+00  0.00000000E+00
  0.00000000E+00  0.00000000E+00  0.00000000E+00
  0.00000000E+00  0.00000000E+00  0.00000000E+00
  0.00000000E+00  0.00000000E+00  0.00000000E+00
  0.00000000E+00  0.00000000E+00  0.00000000E+00
  0.00000000E+00  0.00000000E+00  0.00000000E+00
  0.00000000E+00  0.00000000E+00  0.00000000E+00
  0.00000000E+00  0.00000000E+00  0.00000000E+00
  0.00000000E+00  0.00000000E+00  0.00000000E+00
  0.00000000E+00  0.00000000E+00  0.00000000E+00
  0.00000000E+00  0.00000000E+00  0.00000000E+00
  0.00000000E+00  0.00000000E+00  0.00000000E+00
  0.00000000E+00  0.00000000E+00  0.00000000E+00
  0.00000000E+00  0.00000000E+00  0.00000000E+00
  0.00000000E+00  0.00000000E+00  0.00000000E+00
  0.00000000E+00  0.00000000E+00  0.00000000E+00
  0.00000000E+00  0.00000000E+00  0.00000000E+00
  0.00000000E+00  0.00000000E+00  0.00000000E+00
  0.00000000E+00  0.00000000E+00  0.00000000E+00
  0.00000000E+00  0.00000000E+00  0.00000000E+00
  0.00000000E+00  0.00000000E+00  0.00000000E+00
  0.00000000E+00  0.00000000E+00  0.00000000E+00
  0.00000000E+00  0.00000000E+00  0.00000000E+00
  0.00000000E+00  0.00000000E+00  0.00000000E+00
  0.00000000E+00  0.00000000E+00  0.00000000E+00
  0.00000000E+00  0.00000000E+00  0.00000000E+00
  0.00000000E+00  0.00000000E+00  0.00000000E+00
  0.00000000E+00  0.00000000E+00  0.00000000E+00
  0.00000000E+00  0.00000000E+00  0.00000000E+00
  0.00000000E+00  0.00000000E+00  0.00000000E+00
  0.00000000E+00  0.00000000E+00  0.00000000E+00
  0.00000000E+00  0.00000000E+00  0.00000000E+00
  0.00000000E+00  0.00000000E+00  0.00000000E+00
  0.00000000E+00  0.00000000E+00  0.00000000E+00
  0.00000000E+00  0.00000000E+00  0.00000000E+00
  0.00000000E+00  0.00000000E+00  0.00000000E+00
  0.00000000E+00  0.00000000E+00  0.00000000E+00
  0.00000000E+00  0.00000000E+00  0.00000000E+00
  0.00000000E+00  0.00000000E+00  0.00000000E+00
  0.00000000E+00  0.00000000E+00  0.00000000E+00
  0.00000000E+00  0.00000000E+00  0.00000000E+00
  0.00000000E+00  0.00000000E+00  0.00000000E+00
  0.00000000E+00  0.00000000E+00  0.00000000E+00
  0.00000000E+00  0.00000000E+00  0.00000000E+00
  0.00000000E+00  0.00000000E+00  0.00000000E+00
  0.00000000E+00  0.00000000E+00  0.00000000E+00
  0.00000000E+00  0.00000000E+00  0.00000000E+00
  0.00000000E+00  0.00000000E+00  0.00000000E+00
  0.00000000E+00  0.00000000E+00  0.00000000E+00
  0.00000000E+00  0.00000000E+00  0.00000000E+00
  0.00000000E+00  0.00000000E+00  0.00000000E+00
  0.00000000E+00  0.00000000E+00  0.00000000E+00
  0.00000000E+00  0.00000000E+00  0.00000000E+00
  0.00000000E+00  0.00000000E+00  0.00000000E+00
  0.00000000E+00  0.00000000E+00  0.00000000E+00
