supercell of POSCAR                     
   1.00398800000000     
    -6.2729611433599999    0.0082005604289200   10.0015927484000002
     3.1280384584799998    5.4363994576400003   10.0007801159999996
    -7.8567367181199996   13.6110857897000006  -10.0002683574999995
   Al   Sc   N 
    91     4    96
Direct
  0.4797154643013855  0.3131138596625291  0.5426032033644574
  0.0629725251230653  0.3948063755564135  0.7100055770123745
  0.1450446981044777  0.4762592263111500  0.8720482717971194
  0.4363296866134689  0.2670863320272545  0.9550178505207896
  0.0178883349600056  0.3513315411889906  0.1210685367400046
  0.1037814352211370  0.4417109314412855  0.2958755048317059
  0.1876854610153345  0.0224170102915124  0.4597301520881416
  0.2727973010134122  0.1037226830937712  0.6272880638947598
  0.2268904212825120  0.0626043354649397  0.0387154186711456
  0.3192785125463473  0.1410822376716112  0.2088048508998810
  0.3966495408900670  0.2311726601829847  0.3763450512364770
  0.0016579506692054  0.1660684200762788  0.6674607252593461
  0.0863674356083024  0.2506282215021258  0.8299639505890113
  0.1635974853470472  0.3309498203090797  0.9936723696534528
  0.4558047796974023  0.1209138836162253  0.0777647110645887
  0.0463732376840440  0.2115330094910988  0.2530337739660879
  0.1260750302564588  0.2930213726342217  0.4195191573367509
  0.2092475400208684  0.3749677147084256  0.5852959420626362
  0.2909373305784655  0.4561549254696118  0.7497541385356925
  0.3759822580171672  0.0426537016168140  0.9125522425352983
  0.3343955243021597  0.0045341469089522  0.3386057438889836
  0.4172988962023254  0.0851807026598905  0.5025971482336899
  0.9794067605101873  0.3129909753740492  0.5434359357170493
  0.5529185125724538  0.3866662531860570  0.7120674078693057
  0.6459944082579412  0.4787483632558036  0.8736128761641027
  0.9359608735553095  0.2693456507603500  0.9560325478728089
  0.5182027128227489  0.3526070957088336  0.1222912201812179
  0.6036673209210761  0.4422160450129979  0.2963704422361815
  0.6880554697542323  0.0222052056152720  0.4608068546339368
  0.7718784327809303  0.1035700385492149  0.6255582656154886
  0.8549232370519562  0.1864989796064762  0.7914249011597576
  0.7250421345017841  0.0632096399770035  0.0384339526596591
  0.8187253025174144  0.1415530108111938  0.2092829034009611
  0.8963689669291099  0.2317519937184471  0.3766172244526942
  0.4996568688916057  0.1654589890926275  0.6675921354279737
  0.5814284813232007  0.2478794069569474  0.8313654442551552
  0.6627123282504712  0.3318068539236236  0.9944302056610610
  0.9554921641952347  0.1197700131357351  0.0792465268003184
  0.5461552698700416  0.2116063425275385  0.2529181523115085
  0.6260257643953580  0.2931306453899580  0.4195677751959010
  0.7069355314561179  0.3746154846524945  0.5864858184194475
  0.7905356257482410  0.4552468652296753  0.7490886321239856
  0.8734873054373438  0.0395603421009270  0.9142301530305161
  0.8343360101207367  0.0045113163722590  0.3389173054513321
  0.9182906216472730  0.0850657834774253  0.5026122942736251
  0.4779898322264984  0.8145819612409610  0.5443754241491590
  0.0619266612379690  0.8962210589113937  0.7086257769444089
  0.1457856629787386  0.9797838402819963  0.8731119910593605
  0.4361663847105959  0.7692720594622102  0.9557076301452341
  0.0173984455659451  0.8515443624875516  0.1213070368736524
  0.1033403415900409  0.9418390915150852  0.2957514938797772
  0.1886832224744097  0.5220305366465752  0.4608267378252080
  0.2700546513274134  0.6064370808728370  0.6259943719695968
  0.3525752778108853  0.6885498995730472  0.7908837690582686
  0.2279972763826805  0.5615436931338635  0.0389639327564808
  0.3188716260214051  0.6418207064520516  0.2094751327040427
  0.3965868956245941  0.7317680534340667  0.3769204808394164
  0.0000501280601597  0.6657762724088698  0.6670513721277302
  0.0822589577451680  0.7482225698714089  0.8313891109090576
  0.1638627455165889  0.8310146820962174  0.9941825771465318
  0.4563444591557513  0.6201395006762027  0.0793974867486185
  0.0461150177641798  0.7116976855480104  0.2529902802087562
  0.1262375209245405  0.7931507189024458  0.4195952776889058
  0.2096209581922110  0.8772322564594859  0.5852891771108872
  0.2947481529833880  0.9607996994529771  0.7487667515305461
  0.3737408165132337  0.5389434877403971  0.9138409585368592
  0.3343330857297957  0.5045521572360698  0.3388469737777484
  0.4177938537103572  0.5857925657739287  0.5027386379090544
  0.9795885711309822  0.8136777195099469  0.5430101354310821
  0.5595156010343842  0.8963553697263791  0.7082231181775072
  0.6424636334437537  0.9801652067388460  0.8735954083298481
  0.9370829098616227  0.7693504811022223  0.9567907018610597
  0.5174418637256082  0.8520555582535820  0.1208641504590844
  0.6038325190964997  0.9416674531034701  0.2959626782126747
  0.6879792833616989  0.5218882942789591  0.4612863218418539
  0.7706356060262394  0.6030310908230661  0.6253261992502530
  0.8539378771097432  0.6843857324968852  0.7909488932529030
  0.7274170216181517  0.5629641887979133  0.0390305412383825
  0.8190784220466938  0.6418025974803925  0.2092089616050785
  0.8968151389903696  0.7314159520185441  0.3767958111187397
  0.5007968547581427  0.6643994798870452  0.6682153942347924
  0.5824788188067274  0.7491623857866898  0.8310476538295433
  0.6629589882113081  0.8326821789665360  0.9931406597156212
  0.9561787917846658  0.6200451100314339  0.0790532584335821
  0.5461989247336589  0.7119413360286373  0.2531032789149421
  0.6258372141018427  0.7928296993928257  0.4198837230271266
  0.7088676569538066  0.8747340975414275  0.5848810800615851
  0.7904331273126743  0.9570840709809048  0.7496515850878112
  0.8757379774380780  0.5392520896601951  0.9138049386372202
  0.8342797688710490  0.5047293184306767  0.3390817810751159
  0.9182659686669012  0.5845824645349396  0.5026202612226811
  0.2440381695393086  0.4128452915843823  0.1677475205380432
  0.7441586266161266  0.4134841481862992  0.1684930032003393
  0.2431383329059855  0.9133252184869818  0.1680019583195147
  0.7426984307841025  0.9141174401787353  0.1675616079650268
  0.0586296499819312  0.3934802440609886  0.5109178802830385
  0.1401012069981036  0.4762860112167431  0.6757891969680685
  0.2242931730212376  0.0580581532510962  0.8418106982090237
  0.0136364602021004  0.3478311611313814  0.9237719272909644
  0.0889916663917560  0.4294704642874692  0.0834682037095078
  0.1816763542604107  0.0273569732222683  0.2712227271936172
  0.2678237909554610  0.1033728960861140  0.4298031867763115
  0.3500323091184114  0.1848838306722840  0.5930672832137702
  0.4506742304924671  0.2845382335558355  0.7516875583390430
  0.3029391402266697  0.1431419218827159  0.0076162860424489
  0.4117114488751952  0.2060492056229037  0.1775437758312677
  0.4756489194454829  0.3128879882599946  0.3448697889385173
  0.0793464403247555  0.2460015133400972  0.6342515313825956
  0.1418172067038554  0.3459573524888881  0.8015653164045062
  0.2451085432137958  0.4130257467897849  0.9673370226318809
  0.0348192565837451  0.2011849359824751  0.0501985458695913
  0.1256629762344517  0.2928437684196865  0.2176200450917491
  0.2056715493363583  0.3720002277491474  0.3870464421924353
  0.2882837339665301  0.4552368273823362  0.5524170403083062
  0.3747077259943126  0.0196458613323642  0.7084407567730722
  0.4682580544190245  0.1114172650841212  0.8956579327339753
  0.3303023460353742  0.9999525206091064  0.1328843067409977
  0.4124130055605235  0.0814003462029476  0.3036138471158552
  0.4965370847730313  0.1637645714864107  0.4680839861889794
  0.5580170367914405  0.3943261919436054  0.5105860992929436
  0.6383158998567851  0.4720611232139689  0.6778638871066249
  0.7258264020785603  0.0567349874426100  0.8420044504058524
  0.5143409846761102  0.3494653105643266  0.9238790394733698
  0.5898396478506669  0.4301333094566715  0.0841242975232106
  0.6819360259856637  0.0272898733093996  0.2713276502634159
  0.7680254171462764  0.1030963200839352  0.4305637472690975
  0.8517963654397676  0.1833528138721263  0.5939175567960859
  0.9333123605093618  0.2642531627408786  0.7586508535402956
  0.8045298846105169  0.1429732543594184  0.0071149655789782
  0.9115704289839286  0.2063765941315552  0.1778057685749488
  0.9755964844083920  0.3130693111801079  0.3448561973164956
  0.5829103759113465  0.2415049328256913  0.6310288558080543
  0.6686665258187148  0.3276991964190117  0.8039993723392485
  0.7452879168843012  0.4127045064541690  0.9675540603430974
  0.5360557319170667  0.2044536619112094  0.0525646645502746
  0.6260287407269232  0.2936510393021337  0.2185505094402203
  0.7056060392277530  0.3720248619941842  0.3871985905773556
  0.7880172650158102  0.4525884533427202  0.5521659293864474
  0.8706082659394596  0.0366646398541377  0.7181139905490994
  0.9547009724547664  0.1186398839011034  0.8844545976599747
  0.8306371817035654  0.0008046557913914  0.1329906911084677
  0.9122151489262649  0.0817445875606566  0.3040152125365978
  0.9965123504455846  0.1642792734693259  0.4683453688524253
  0.0588480164372882  0.8935482549754425  0.5110392459109647
  0.1401592892879862  0.9749943132251957  0.6765989686289373
  0.2235644256749865  0.5596090462637662  0.8423570188527449
  0.0149551919837450  0.8485486795455088  0.9233930353724062
  0.0889155961442682  0.9291205432403302  0.0832568437872609
  0.1818163950555913  0.5273374069882735  0.2711468401224550
  0.2680114908989992  0.6032415978907153  0.4304360365098248
  0.3498705970451610  0.6856634890727520  0.5937030967379258
  0.4330881076711819  0.7658424300670603  0.7598781027708483
  0.3054460381614419  0.6426141333631747  0.0072761945648097
  0.4114017117716102  0.7068990754359916  0.1778763106688857
  0.4757283410040785  0.8130319463104954  0.3450146104023446
  0.0781590925607745  0.7469120312996935  0.6346635788088761
  0.1611137138151122  0.8298573734837760  0.8013209476548369
  0.2453674317712924  0.9116658753955704  0.9668251863837440
  0.0370208492770985  0.7009088138690913  0.0506693707969319
  0.1254164683563062  0.7932671161251577  0.2176750911532963
  0.2052295752664435  0.8716354708042360  0.3863733070824154
  0.2861355178792877  0.9552306009372842  0.5496945311893882
  0.3647913886987624  0.5451324143606655  0.7176201267556621
  0.4537319607617007  0.6193155743634975  0.8837928683660792
  0.3308549349007492  0.5011402190873540  0.1334751128685170
  0.4123073138904374  0.5819364183211988  0.3041684649059349
  0.4967811397068687  0.6645600101900158  0.4688453838169693
  0.5584288622405609  0.8936582037772069  0.5112226530880122
  0.6431971398539602  0.9733638821370079  0.6760894233556272
  0.7251507296811894  0.5582865050412735  0.8421104260570260
  0.5143150438399502  0.8464920383646799  0.9229433280903336
  0.5886168608518574  0.9297303585742611  0.0828293622561844
  0.6816904276839182  0.5279059234953536  0.2715911318540947
  0.7680787021548383  0.6028552825738416  0.4307464945687727
  0.8506010685127450  0.6837519393669069  0.5936054933871873
  0.9330154892185192  0.7655276063580061  0.7588725547081268
  0.8049305898217867  0.6429402157514232  0.0070810637192409
  0.9111001678560058  0.7072508661007291  0.1776438965777061
  0.9757195137575110  0.8128196065204847  0.3450385993927583
  0.5822408087163424  0.7409816717330386  0.6337984378054173
  0.6642333598491845  0.8273107019472050  0.8006901277694354
  0.7499668043205432  0.9097814788236533  0.9679365612604798
  0.5354180780121638  0.7016224497966945  0.0499814710862623
  0.6255532126432044  0.7931827411160057  0.2174979932366767
  0.7057028105382273  0.8715405254576822  0.3871664136115669
  0.7890096862694023  0.9533193459989135  0.5518962637218365
  0.8673859305901388  0.5379293849482565  0.7164023778397279
  0.9527875971325841  0.6231114479714179  0.8851616706454735
  0.8308544601374095  0.5006907014726139  0.1331121806491566
  0.9123924128246799  0.5817298214105406  0.3040245422000396
  0.9972402022216826  0.6638296312749006  0.4688696763436653
 
  0.00000000E+00  0.00000000E+00  0.00000000E+00
  0.00000000E+00  0.00000000E+00  0.00000000E+00
  0.00000000E+00  0.00000000E+00  0.00000000E+00
  0.00000000E+00  0.00000000E+00  0.00000000E+00
  0.00000000E+00  0.00000000E+00  0.00000000E+00
  0.00000000E+00  0.00000000E+00  0.00000000E+00
  0.00000000E+00  0.00000000E+00  0.00000000E+00
  0.00000000E+00  0.00000000E+00  0.00000000E+00
  0.00000000E+00  0.00000000E+00  0.00000000E+00
  0.00000000E+00  0.00000000E+00  0.00000000E+00
  0.00000000E+00  0.00000000E+00  0.00000000E+00
  0.00000000E+00  0.00000000E+00  0.00000000E+00
  0.00000000E+00  0.00000000E+00  0.00000000E+00
  0.00000000E+00  0.00000000E+00  0.00000000E+00
  0.00000000E+00  0.00000000E+00  0.00000000E+00
  0.00000000E+00  0.00000000E+00  0.00000000E+00
  0.00000000E+00  0.00000000E+00  0.00000000E+00
  0.00000000E+00  0.00000000E+00  0.00000000E+00
  0.00000000E+00  0.00000000E+00  0.00000000E+00
  0.00000000E+00  0.00000000E+00  0.00000000E+00
  0.00000000E+00  0.00000000E+00  0.00000000E+00
  0.00000000E+00  0.00000000E+00  0.00000000E+00
  0.00000000E+00  0.00000000E+00  0.00000000E+00
  0.00000000E+00  0.00000000E+00  0.00000000E+00
  0.00000000E+00  0.00000000E+00  0.00000000E+00
  0.00000000E+00  0.00000000E+00  0.00000000E+00
  0.00000000E+00  0.00000000E+00  0.00000000E+00
  0.00000000E+00  0.00000000E+00  0.00000000E+00
  0.00000000E+00  0.00000000E+00  0.00000000E+00
  0.00000000E+00  0.00000000E+00  0.00000000E+00
  0.00000000E+00  0.00000000E+00  0.00000000E+00
  0.00000000E+00  0.00000000E+00  0.00000000E+00
  0.00000000E+00  0.00000000E+00  0.00000000E+00
  0.00000000E+00  0.00000000E+00  0.00000000E+00
  0.00000000E+00  0.00000000E+00  0.00000000E+00
  0.00000000E+00  0.00000000E+00  0.00000000E+00
  0.00000000E+00  0.00000000E+00  0.00000000E+00
  0.00000000E+00  0.00000000E+00  0.00000000E+00
  0.00000000E+00  0.00000000E+00  0.00000000E+00
  0.00000000E+00  0.00000000E+00  0.00000000E+00
  0.00000000E+00  0.00000000E+00  0.00000000E+00
  0.00000000E+00  0.00000000E+00  0.00000000E+00
  0.00000000E+00  0.00000000E+00  0.00000000E+00
  0.00000000E+00  0.00000000E+00  0.00000000E+00
  0.00000000E+00  0.00000000E+00  0.00000000E+00
  0.00000000E+00  0.00000000E+00  0.00000000E+00
  0.00000000E+00  0.00000000E+00  0.00000000E+00
  0.00000000E+00  0.00000000E+00  0.00000000E+00
  0.00000000E+00  0.00000000E+00  0.00000000E+00
  0.00000000E+00  0.00000000E+00  0.00000000E+00
  0.00000000E+00  0.00000000E+00  0.00000000E+00
  0.00000000E+00  0.00000000E+00  0.00000000E+00
  0.00000000E+00  0.00000000E+00  0.00000000E+00
  0.00000000E+00  0.00000000E+00  0.00000000E+00
  0.00000000E+00  0.00000000E+00  0.00000000E+00
  0.00000000E+00  0.00000000E+00  0.00000000E+00
  0.00000000E+00  0.00000000E+00  0.00000000E+00
  0.00000000E+00  0.00000000E+00  0.00000000E+00
  0.00000000E+00  0.00000000E+00  0.00000000E+00
  0.00000000E+00  0.00000000E+00  0.00000000E+00
  0.00000000E+00  0.00000000E+00  0.00000000E+00
  0.00000000E+00  0.00000000E+00  0.00000000E+00
  0.00000000E+00  0.00000000E+00  0.00000000E+00
  0.00000000E+00  0.00000000E+00  0.00000000E+00
  0.00000000E+00  0.00000000E+00  0.00000000E+00
  0.00000000E+00  0.00000000E+00  0.00000000E+00
  0.00000000E+00  0.00000000E+00  0.00000000E+00
  0.00000000E+00  0.00000000E+00  0.00000000E+00
  0.00000000E+00  0.00000000E+00  0.00000000E+00
  0.00000000E+00  0.00000000E+00  0.00000000E+00
  0.00000000E+00  0.00000000E+00  0.00000000E+00
  0.00000000E+00  0.00000000E+00  0.00000000E+00
  0.00000000E+00  0.00000000E+00  0.00000000E+00
  0.00000000E+00  0.00000000E+00  0.00000000E+00
  0.00000000E+00  0.00000000E+00  0.00000000E+00
  0.00000000E+00  0.00000000E+00  0.00000000E+00
  0.00000000E+00  0.00000000E+00  0.00000000E+00
  0.00000000E+00  0.00000000E+00  0.00000000E+00
  0.00000000E+00  0.00000000E+00  0.00000000E+00
  0.00000000E+00  0.00000000E+00  0.00000000E+00
  0.00000000E+00  0.00000000E+00  0.00000000E+00
  0.00000000E+00  0.00000000E+00  0.00000000E+00
  0.00000000E+00  0.00000000E+00  0.00000000E+00
  0.00000000E+00  0.00000000E+00  0.00000000E+00
  0.00000000E+00  0.00000000E+00  0.00000000E+00
  0.00000000E+00  0.00000000E+00  0.00000000E+00
  0.00000000E+00  0.00000000E+00  0.00000000E+00
  0.00000000E+00  0.00000000E+00  0.00000000E+00
  0.00000000E+00  0.00000000E+00  0.00000000E+00
  0.00000000E+00  0.00000000E+00  0.00000000E+00
  0.00000000E+00  0.00000000E+00  0.00000000E+00
  0.00000000E+00  0.00000000E+00  0.00000000E+00
  0.00000000E+00  0.00000000E+00  0.00000000E+00
  0.00000000E+00  0.00000000E+00  0.00000000E+00
  0.00000000E+00  0.00000000E+00  0.00000000E+00
  0.00000000E+00  0.00000000E+00  0.00000000E+00
  0.00000000E+00  0.00000000E+00  0.00000000E+00
  0.00000000E+00  0.00000000E+00  0.00000000E+00
  0.00000000E+00  0.00000000E+00  0.00000000E+00
  0.00000000E+00  0.00000000E+00  0.00000000E+00
  0.00000000E+00  0.00000000E+00  0.00000000E+00
  0.00000000E+00  0.00000000E+00  0.00000000E+00
  0.00000000E+00  0.00000000E+00  0.00000000E+00
  0.00000000E+00  0.00000000E+00  0.00000000E+00
  0.00000000E+00  0.00000000E+00  0.00000000E+00
  0.00000000E+00  0.00000000E+00  0.00000000E+00
  0.00000000E+00  0.00000000E+00  0.00000000E+00
  0.00000000E+00  0.00000000E+00  0.00000000E+00
  0.00000000E+00  0.00000000E+00  0.00000000E+00
  0.00000000E+00  0.00000000E+00  0.00000000E+00
  0.00000000E+00  0.00000000E+00  0.00000000E+00
  0.00000000E+00  0.00000000E+00  0.00000000E+00
  0.00000000E+00  0.00000000E+00  0.00000000E+00
  0.00000000E+00  0.00000000E+00  0.00000000E+00
  0.00000000E+00  0.00000000E+00  0.00000000E+00
  0.00000000E+00  0.00000000E+00  0.00000000E+00
  0.00000000E+00  0.00000000E+00  0.00000000E+00
  0.00000000E+00  0.00000000E+00  0.00000000E+00
  0.00000000E+00  0.00000000E+00  0.00000000E+00
  0.00000000E+00  0.00000000E+00  0.00000000E+00
  0.00000000E+00  0.00000000E+00  0.00000000E+00
  0.00000000E+00  0.00000000E+00  0.00000000E+00
  0.00000000E+00  0.00000000E+00  0.00000000E+00
  0.00000000E+00  0.00000000E+00  0.00000000E+00
  0.00000000E+00  0.00000000E+00  0.00000000E+00
  0.00000000E+00  0.00000000E+00  0.00000000E+00
  0.00000000E+00  0.00000000E+00  0.00000000E+00
  0.00000000E+00  0.00000000E+00  0.00000000E+00
  0.00000000E+00  0.00000000E+00  0.00000000E+00
  0.00000000E+00  0.00000000E+00  0.00000000E+00
  0.00000000E+00  0.00000000E+00  0.00000000E+00
  0.00000000E+00  0.00000000E+00  0.00000000E+00
  0.00000000E+00  0.00000000E+00  0.00000000E+00
  0.00000000E+00  0.00000000E+00  0.00000000E+00
  0.00000000E+00  0.00000000E+00  0.00000000E+00
  0.00000000E+00  0.00000000E+00  0.00000000E+00
  0.00000000E+00  0.00000000E+00  0.00000000E+00
  0.00000000E+00  0.00000000E+00  0.00000000E+00
  0.00000000E+00  0.00000000E+00  0.00000000E+00
  0.00000000E+00  0.00000000E+00  0.00000000E+00
  0.00000000E+00  0.00000000E+00  0.00000000E+00
  0.00000000E+00  0.00000000E+00  0.00000000E+00
  0.00000000E+00  0.00000000E+00  0.00000000E+00
  0.00000000E+00  0.00000000E+00  0.00000000E+00
  0.00000000E+00  0.00000000E+00  0.00000000E+00
  0.00000000E+00  0.00000000E+00  0.00000000E+00
  0.00000000E+00  0.00000000E+00  0.00000000E+00
  0.00000000E+00  0.00000000E+00  0.00000000E+00
  0.00000000E+00  0.00000000E+00  0.00000000E+00
  0.00000000E+00  0.00000000E+00  0.00000000E+00
  0.00000000E+00  0.00000000E+00  0.00000000E+00
  0.00000000E+00  0.00000000E+00  0.00000000E+00
  0.00000000E+00  0.00000000E+00  0.00000000E+00
  0.00000000E+00  0.00000000E+00  0.00000000E+00
  0.00000000E+00  0.00000000E+00  0.00000000E+00
  0.00000000E+00  0.00000000E+00  0.00000000E+00
  0.00000000E+00  0.00000000E+00  0.00000000E+00
  0.00000000E+00  0.00000000E+00  0.00000000E+00
  0.00000000E+00  0.00000000E+00  0.00000000E+00
  0.00000000E+00  0.00000000E+00  0.00000000E+00
  0.00000000E+00  0.00000000E+00  0.00000000E+00
  0.00000000E+00  0.00000000E+00  0.00000000E+00
  0.00000000E+00  0.00000000E+00  0.00000000E+00
  0.00000000E+00  0.00000000E+00  0.00000000E+00
  0.00000000E+00  0.00000000E+00  0.00000000E+00
  0.00000000E+00  0.00000000E+00  0.00000000E+00
  0.00000000E+00  0.00000000E+00  0.00000000E+00
  0.00000000E+00  0.00000000E+00  0.00000000E+00
  0.00000000E+00  0.00000000E+00  0.00000000E+00
  0.00000000E+00  0.00000000E+00  0.00000000E+00
  0.00000000E+00  0.00000000E+00  0.00000000E+00
  0.00000000E+00  0.00000000E+00  0.00000000E+00
  0.00000000E+00  0.00000000E+00  0.00000000E+00
  0.00000000E+00  0.00000000E+00  0.00000000E+00
  0.00000000E+00  0.00000000E+00  0.00000000E+00
  0.00000000E+00  0.00000000E+00  0.00000000E+00
  0.00000000E+00  0.00000000E+00  0.00000000E+00
  0.00000000E+00  0.00000000E+00  0.00000000E+00
  0.00000000E+00  0.00000000E+00  0.00000000E+00
  0.00000000E+00  0.00000000E+00  0.00000000E+00
  0.00000000E+00  0.00000000E+00  0.00000000E+00
  0.00000000E+00  0.00000000E+00  0.00000000E+00
  0.00000000E+00  0.00000000E+00  0.00000000E+00
  0.00000000E+00  0.00000000E+00  0.00000000E+00
  0.00000000E+00  0.00000000E+00  0.00000000E+00
  0.00000000E+00  0.00000000E+00  0.00000000E+00
  0.00000000E+00  0.00000000E+00  0.00000000E+00
  0.00000000E+00  0.00000000E+00  0.00000000E+00
  0.00000000E+00  0.00000000E+00  0.00000000E+00
  0.00000000E+00  0.00000000E+00  0.00000000E+00
  0.00000000E+00  0.00000000E+00  0.00000000E+00
