supercell of POSCAR                     
   1.00398800000000     
    -6.2729611433599999    0.0082005604289200   10.0015927484000002
     3.1280384584799998    5.4363994576400003   10.0007801159999996
    -7.8567367181199996   13.6110857897000006  -10.0002683574999995
   Al   Sc   N 
    92     4    95
Direct
  0.4781051620156020  0.3161736268156901  0.5400054744867191
  0.0608896887185963  0.3947081546302016  0.7074540912917158
  0.1438392864702891  0.4788039485086841  0.8745273313586921
  0.4347699474890021  0.2689831605722262  0.9579272246607857
  0.0174937597490583  0.3518761553420831  0.1224236068098250
  0.1033485316426379  0.4419868961199001  0.2960719765150870
  0.1874527650575217  0.0216256485722894  0.4594196292549242
  0.2697600952460348  0.1034134457346738  0.6247569784197253
  0.3253071072308629  0.1575358162702472  0.8023800768804534
  0.2266298695139994  0.0632505828350318  0.0411047284837025
  0.3190217187780746  0.1414441644564661  0.2098334340793997
  0.3963875730889086  0.2316702798523806  0.3758749302326549
  0.0004337571714359  0.1664178144976844  0.6654574667509223
  0.0718556085022044  0.2552228525583971  0.8321652678569862
  0.1630478828780042  0.3321131972003215  0.9957330717337385
  0.4568310167112344  0.1201756000056662  0.0813429032464370
  0.0462921867063883  0.2117410664159678  0.2532820571189518
  0.1254172423816868  0.2928407406535385  0.4182488570981207
  0.2085117348098962  0.3757422611811307  0.5824257953158352
  0.2599617604318141  0.4995516963032571  0.7467777439673000
  0.3781547489416184  0.0349879883627437  0.9205324591498965
  0.3341367978595571  0.0040573821824594  0.3380843657820805
  0.4163680597521875  0.0828981415704177  0.4981768191943843
  0.9793451502924881  0.3131566326662067  0.5416787512886359
  0.5631020672573399  0.3955675146136173  0.7073760699275695
  0.6455742241455553  0.4821668206636218  0.8744926731343838
  0.9357680674838491  0.2703962651075429  0.9578155516624278
  0.5171395486267372  0.3514584922612585  0.1227730816610517
  0.6033698488250465  0.4420148987843646  0.2962973160850382
  0.6885028879509676  0.0217983279807044  0.4595052125601740
  0.7759670707394477  0.1024211351890685  0.6243296467182660
  0.8569666483858356  0.1847613819967791  0.7892950076964667
  0.7272114130271063  0.0621651807947785  0.0400518225983788
  0.8189894907827195  0.1413316611758049  0.2096819258627391
  0.8965708833719930  0.2314510916002632  0.3760270504393830
  0.5164197313370806  0.1428112198401266  0.6451861451986787
  0.6156006244625800  0.2441007710500074  0.8471565976999358
  0.6648780076749148  0.3330566936781381  0.9982044163448478
  0.9564349795011964  0.1201901652642476  0.0806789436180537
  0.5467775107143567  0.2114891537489711  0.2536874991084517
  0.6268274244147918  0.2924587638772778  0.4185365241245975
  0.7095913849239679  0.3750660557810548  0.5831144516124525
  0.7904825954507473  0.4590469996257056  0.7483708192979464
  0.8800412065882952  0.0373800162346143  0.9168056146332901
  0.8346154953457585  0.0042632058416388  0.3387390140329032
  0.9182089867510754  0.0847552169620442  0.5009840080184631
  0.4791811218868958  0.8130497579582823  0.5418917310684535
  0.0624482922518865  0.8946030178516651  0.7068705161325326
  0.1474132805275445  0.9802489505461054  0.8732275181919249
  0.4376300863455995  0.7682725091405871  0.9576661714092793
  0.0179470743389132  0.8515389112261431  0.1219378615961162
  0.1032359320747744  0.9418268069034923  0.2960817605967705
  0.1878146909251868  0.5222570046546267  0.4591098651639172
  0.2709027129630286  0.6054476431306739  0.6223894298297807
  0.3563856111684913  0.6878441420739136  0.7919750617079870
  0.2271774658881469  0.5628871252623426  0.0402576760602571
  0.3188986480734997  0.6413547712624563  0.2097275039238582
  0.3965334181566647  0.7314102076130240  0.3760479026382626
  0.9955874652096384  0.6694017013038831  0.6646275277733338
  0.0795125307026083  0.7546928470798875  0.8325382860477504
  0.1653782978719391  0.8317034050045393  0.9953802067523441
  0.4559316546805832  0.6206577586160407  0.0807896892005928
  0.0464781534335188  0.7116161536511072  0.2532748696781226
  0.1261357792877789  0.7922906829789156  0.4184331046554064
  0.2085451516341195  0.8749001051531238  0.5823895665939673
  0.2914843032859267  0.9488857937307955  0.7454774748223372
  0.3739964632251542  0.5417307629781831  0.9154933453248546
  0.3346060165287312  0.5043798551423819  0.3387849766567399
  0.4184481481560596  0.5852283820637609  0.5009791517958035
  0.9797927852071453  0.8129679498605356  0.5413667823533928
  0.5628131262853771  0.8933459708154814  0.7079419334641059
  0.6457651646943674  0.9763770716901732  0.8741701004803986
  0.9365938833433773  0.7689954017178096  0.9574528299868774
  0.5177825597273866  0.8515870718143645  0.1223945275530696
  0.6036533159433688  0.9417837693343074  0.2961033666235764
  0.6884805470351125  0.5218510372154483  0.4596719651191847
  0.7710426764397411  0.6031756190198507  0.6245504456426616
  0.8543377982123630  0.6862450202700145  0.7908506134331361
  0.7273981891121082  0.5629913616152820  0.0405198901012440
  0.8190270700120976  0.6414762835526133  0.2096330428509319
  0.8965818094838909  0.7314255480194163  0.3759666321446318
  0.5017129806502822  0.6651483598033039  0.6652959036454078
  0.5838695770077749  0.7483046408852019  0.8312593584179950
  0.6652675840703637  0.8303865897920346  0.9958000381855427
  0.9566421663743512  0.6199037818271762  0.0804334719609159
  0.5463898365145852  0.7117463768015071  0.2533802119929121
  0.6263159853992306  0.7920065075401226  0.4182661442647628
  0.7122402225202364  0.8692761564798559  0.5812925318452997
  0.7935430411552744  0.9565190718665590  0.7486068155626526
  0.8732469300945951  0.5417952470859362  0.9153653312612278
  0.8343470720891730  0.5045477249480967  0.3386539211309980
  0.9187441837727235  0.5833308840557265  0.5006162547406277
  0.2429715524046401  0.4135823714993307  0.1692966858574749
  0.7430204133424851  0.4137742574790408  0.1697443636821561
  0.2429714107665006  0.9132671496940148  0.1692895564874419
  0.7435427470909417  0.9133844110952012  0.1690848161232097
  0.0596387103878939  0.3929776312303446  0.5114289205596663
  0.1401434172819194  0.4749929143567826  0.6756192460411015
  0.2306755052213063  0.0641639562216838  0.8387374839796280
  0.0126541491222980  0.3500049191694217  0.9234864092199686
  0.0887898987923919  0.4292271701639621  0.0832948258944270
  0.1811665713702553  0.0278087906307007  0.2717181917910239
  0.2665151323384407  0.1032820445738949  0.4301803609287731
  0.3494341098370555  0.1843422655718072  0.5940172628127840
  0.3044019940834062  0.1433846804587660  0.0079803587500535
  0.4117167840820812  0.2067584946387200  0.1781364532771477
  0.4759662430482479  0.3129416828818492  0.3456694949613066
  0.0807283843505076  0.2459070662828466  0.6349887731029256
  0.1597215602901656  0.3302316900013480  0.8006221693965898
  0.2451013345006814  0.4121739016011929  0.9658255911506899
  0.0347074560245275  0.2017442055501917  0.0495169780843554
  0.1257362176681980  0.2931062296164555  0.2176465061710360
  0.2059787886051083  0.3715400147291703  0.3875776675517173
  0.2888265156819187  0.4545593991120498  0.5525536465769960
  0.3713996613559658  0.0340741259278943  0.7168705062646268
  0.4551779528058049  0.1175734112609845  0.8850124880260708
  0.3303742490735573  0.0000481738602431  0.1330177099803933
  0.4125096598763491  0.0815714038301181  0.3044547527784331
  0.4969640511517142  0.1641364029903443  0.4699999504342358
  0.5593830822326638  0.3940451399659963  0.5113964634649335
  0.6414532043563383  0.4744379600587507  0.6761822978179879
  0.7269644255926693  0.0550211835872503  0.8415114706534084
  0.5124781018712312  0.3486735358916775  0.9228744490971081
  0.5877173921305285  0.4298718379385775  0.0838607491060088
  0.6818841233527948  0.0274391237508382  0.2718480736398092
  0.7679969146455576  0.1031804375757233  0.4310707406000134
  0.8511037990122077  0.1847290970515374  0.5938850379774294
  0.9310221134789600  0.2673189700441867  0.7574722385103954
  0.8045124473206471  0.1429782520437684  0.0058314125184538
  0.9112294650787547  0.2067392199060691  0.1776191529013715
  0.9753755547302347  0.3132663394883295  0.3451700483448263
  0.5804934906457788  0.2458948355842310  0.6351416583598564
  0.6627592065729573  0.3283214288876692  0.8000403287700877
  0.7440285981153067  0.4120401925260637  0.9658098685213901
  0.5353323334913185  0.2014640460454658  0.0495126316038039
  0.6257264517987551  0.2931117020460263  0.2177871449066657
  0.7060980144808156  0.3717475730819970  0.3875865130507421
  0.7889982738619210  0.4543366221412342  0.5525718038032892
  0.8716703976482592  0.0366846943593941  0.7174269371822746
  0.9555178034837866  0.1202009035981391  0.8823835277277894
  0.8305683271776232  0.0004691554809995  0.1323843659080168
  0.9122841812834821  0.0816383909427358  0.3042384616183256
  0.9972114185826442  0.1641715903739112  0.4692365667277372
  0.0585557309867681  0.8936082388263742  0.5111531240875280
  0.1403924498346854  0.9748578532644032  0.6752340590325545
  0.2229365619967965  0.5598585990118607  0.8422685937035155
  0.0156378993994721  0.8481469016408951  0.9233696686100785
  0.0891837117896230  0.9294311391650112  0.0825869464291031
  0.1817121430231339  0.5277163371426425  0.2720074213773103
  0.2684041150106182  0.6031181285880578  0.4311105465463214
  0.3513145779315678  0.6847339739886991  0.5940183347831578
  0.4352945223076574  0.7635715726970105  0.7581406337334329
  0.3054122620532596  0.6424836332423212  0.0063198262300403
  0.4114248944231633  0.7066117266302925  0.1778493406717132
  0.4755378851082099  0.8132479804337507  0.3453541341142383
  0.0807151175033738  0.7444570037601608  0.6349314611158903
  0.1644830561158699  0.8298446642370649  0.8001200617051865
  0.2462883303175261  0.9137773081433664  0.9650465256795613
  0.0355628644485435  0.7013189646208176  0.0494135117277992
  0.1256496450126789  0.7933285986810361  0.2174005828698853
  0.2058944522432498  0.8714472047804591  0.3874456197241614
  0.2886455792738829  0.9548261931863422  0.5524891906843123
  0.3718322630172821  0.5362187784305164  0.7176719676885384
  0.4543183643015638  0.6191477818752986  0.8832146034702930
  0.3300292159984508  0.5003814259432673  0.1326415008295143
  0.4123513048153953  0.5815732998695253  0.3042732328516848
  0.4975862402497100  0.6643510878136567  0.4692280681489862
  0.5584701441096342  0.8943951030753823  0.5115679692901764
  0.6438193144404352  0.9722665397618968  0.6764150175340546
  0.7250469737924590  0.5578664435854748  0.8409348160878096
  0.5166008896229144  0.8454281441474265  0.9227742448056517
  0.5888095602869257  0.9292038585274724  0.0829964048650567
  0.6813500361784506  0.5279909227150057  0.2720837198612500
  0.7681867443594754  0.6032054342311639  0.4309400345896037
  0.8509230460753372  0.6824429356653070  0.5933609197679530
  0.9344078733727557  0.7661043328841544  0.7584457683148429
  0.8053514810597946  0.6419872095087129  0.0067690635194353
  0.9116016258360702  0.7065054958338663  0.1776233138146779
  0.9757153615264897  0.8129326394649681  0.3452466679373671
  0.5805801642315416  0.7457373787056412  0.6347971869874556
  0.6631687692689496  0.8290653399489969  0.8001576382117790
  0.7456526303285926  0.9119211078792802  0.9660561798080707
  0.5353838548947323  0.7011514823376785  0.0497397017725802
  0.6257262951912494  0.7931398074466713  0.2176770773188537
  0.7058525468865824  0.8717876633562298  0.3877297144951655
  0.7882506860099028  0.9545354201087264  0.5530542722294172
  0.8714433726742996  0.5375225351800026  0.7175362045114042
  0.9538560938991765  0.6202231816158417  0.8831572063529620
  0.8300540965087748  0.5000969875287211  0.1327894724537373
  0.9123192390749040  0.5816502820068123  0.3042181885805135
  0.9972195899135343  0.6639436267418972  0.4692894698934538
 
  0.00000000E+00  0.00000000E+00  0.00000000E+00
  0.00000000E+00  0.00000000E+00  0.00000000E+00
  0.00000000E+00  0.00000000E+00  0.00000000E+00
  0.00000000E+00  0.00000000E+00  0.00000000E+00
  0.00000000E+00  0.00000000E+00  0.00000000E+00
  0.00000000E+00  0.00000000E+00  0.00000000E+00
  0.00000000E+00  0.00000000E+00  0.00000000E+00
  0.00000000E+00  0.00000000E+00  0.00000000E+00
  0.00000000E+00  0.00000000E+00  0.00000000E+00
  0.00000000E+00  0.00000000E+00  0.00000000E+00
  0.00000000E+00  0.00000000E+00  0.00000000E+00
  0.00000000E+00  0.00000000E+00  0.00000000E+00
  0.00000000E+00  0.00000000E+00  0.00000000E+00
  0.00000000E+00  0.00000000E+00  0.00000000E+00
  0.00000000E+00  0.00000000E+00  0.00000000E+00
  0.00000000E+00  0.00000000E+00  0.00000000E+00
  0.00000000E+00  0.00000000E+00  0.00000000E+00
  0.00000000E+00  0.00000000E+00  0.00000000E+00
  0.00000000E+00  0.00000000E+00  0.00000000E+00
  0.00000000E+00  0.00000000E+00  0.00000000E+00
  0.00000000E+00  0.00000000E+00  0.00000000E+00
  0.00000000E+00  0.00000000E+00  0.00000000E+00
  0.00000000E+00  0.00000000E+00  0.00000000E+00
  0.00000000E+00  0.00000000E+00  0.00000000E+00
  0.00000000E+00  0.00000000E+00  0.00000000E+00
  0.00000000E+00  0.00000000E+00  0.00000000E+00
  0.00000000E+00  0.00000000E+00  0.00000000E+00
  0.00000000E+00  0.00000000E+00  0.00000000E+00
  0.00000000E+00  0.00000000E+00  0.00000000E+00
  0.00000000E+00  0.00000000E+00  0.00000000E+00
  0.00000000E+00  0.00000000E+00  0.00000000E+00
  0.00000000E+00  0.00000000E+00  0.00000000E+00
  0.00000000E+00  0.00000000E+00  0.00000000E+00
  0.00000000E+00  0.00000000E+00  0.00000000E+00
  0.00000000E+00  0.00000000E+00  0.00000000E+00
  0.00000000E+00  0.00000000E+00  0.00000000E+00
  0.00000000E+00  0.00000000E+00  0.00000000E+00
  0.00000000E+00  0.00000000E+00  0.00000000E+00
  0.00000000E+00  0.00000000E+00  0.00000000E+00
  0.00000000E+00  0.00000000E+00  0.00000000E+00
  0.00000000E+00  0.00000000E+00  0.00000000E+00
  0.00000000E+00  0.00000000E+00  0.00000000E+00
  0.00000000E+00  0.00000000E+00  0.00000000E+00
  0.00000000E+00  0.00000000E+00  0.00000000E+00
  0.00000000E+00  0.00000000E+00  0.00000000E+00
  0.00000000E+00  0.00000000E+00  0.00000000E+00
  0.00000000E+00  0.00000000E+00  0.00000000E+00
  0.00000000E+00  0.00000000E+00  0.00000000E+00
  0.00000000E+00  0.00000000E+00  0.00000000E+00
  0.00000000E+00  0.00000000E+00  0.00000000E+00
  0.00000000E+00  0.00000000E+00  0.00000000E+00
  0.00000000E+00  0.00000000E+00  0.00000000E+00
  0.00000000E+00  0.00000000E+00  0.00000000E+00
  0.00000000E+00  0.00000000E+00  0.00000000E+00
  0.00000000E+00  0.00000000E+00  0.00000000E+00
  0.00000000E+00  0.00000000E+00  0.00000000E+00
  0.00000000E+00  0.00000000E+00  0.00000000E+00
  0.00000000E+00  0.00000000E+00  0.00000000E+00
  0.00000000E+00  0.00000000E+00  0.00000000E+00
  0.00000000E+00  0.00000000E+00  0.00000000E+00
  0.00000000E+00  0.00000000E+00  0.00000000E+00
  0.00000000E+00  0.00000000E+00  0.00000000E+00
  0.00000000E+00  0.00000000E+00  0.00000000E+00
  0.00000000E+00  0.00000000E+00  0.00000000E+00
  0.00000000E+00  0.00000000E+00  0.00000000E+00
  0.00000000E+00  0.00000000E+00  0.00000000E+00
  0.00000000E+00  0.00000000E+00  0.00000000E+00
  0.00000000E+00  0.00000000E+00  0.00000000E+00
  0.00000000E+00  0.00000000E+00  0.00000000E+00
  0.00000000E+00  0.00000000E+00  0.00000000E+00
  0.00000000E+00  0.00000000E+00  0.00000000E+00
  0.00000000E+00  0.00000000E+00  0.00000000E+00
  0.00000000E+00  0.00000000E+00  0.00000000E+00
  0.00000000E+00  0.00000000E+00  0.00000000E+00
  0.00000000E+00  0.00000000E+00  0.00000000E+00
  0.00000000E+00  0.00000000E+00  0.00000000E+00
  0.00000000E+00  0.00000000E+00  0.00000000E+00
  0.00000000E+00  0.00000000E+00  0.00000000E+00
  0.00000000E+00  0.00000000E+00  0.00000000E+00
  0.00000000E+00  0.00000000E+00  0.00000000E+00
  0.00000000E+00  0.00000000E+00  0.00000000E+00
  0.00000000E+00  0.00000000E+00  0.00000000E+00
  0.00000000E+00  0.00000000E+00  0.00000000E+00
  0.00000000E+00  0.00000000E+00  0.00000000E+00
  0.00000000E+00  0.00000000E+00  0.00000000E+00
  0.00000000E+00  0.00000000E+00  0.00000000E+00
  0.00000000E+00  0.00000000E+00  0.00000000E+00
  0.00000000E+00  0.00000000E+00  0.00000000E+00
  0.00000000E+00  0.00000000E+00  0.00000000E+00
  0.00000000E+00  0.00000000E+00  0.00000000E+00
  0.00000000E+00  0.00000000E+00  0.00000000E+00
  0.00000000E+00  0.00000000E+00  0.00000000E+00
  0.00000000E+00  0.00000000E+00  0.00000000E+00
  0.00000000E+00  0.00000000E+00  0.00000000E+00
  0.00000000E+00  0.00000000E+00  0.00000000E+00
  0.00000000E+00  0.00000000E+00  0.00000000E+00
  0.00000000E+00  0.00000000E+00  0.00000000E+00
  0.00000000E+00  0.00000000E+00  0.00000000E+00
  0.00000000E+00  0.00000000E+00  0.00000000E+00
  0.00000000E+00  0.00000000E+00  0.00000000E+00
  0.00000000E+00  0.00000000E+00  0.00000000E+00
  0.00000000E+00  0.00000000E+00  0.00000000E+00
  0.00000000E+00  0.00000000E+00  0.00000000E+00
  0.00000000E+00  0.00000000E+00  0.00000000E+00
  0.00000000E+00  0.00000000E+00  0.00000000E+00
  0.00000000E+00  0.00000000E+00  0.00000000E+00
  0.00000000E+00  0.00000000E+00  0.00000000E+00
  0.00000000E+00  0.00000000E+00  0.00000000E+00
  0.00000000E+00  0.00000000E+00  0.00000000E+00
  0.00000000E+00  0.00000000E+00  0.00000000E+00
  0.00000000E+00  0.00000000E+00  0.00000000E+00
  0.00000000E+00  0.00000000E+00  0.00000000E+00
  0.00000000E+00  0.00000000E+00  0.00000000E+00
  0.00000000E+00  0.00000000E+00  0.00000000E+00
  0.00000000E+00  0.00000000E+00  0.00000000E+00
  0.00000000E+00  0.00000000E+00  0.00000000E+00
  0.00000000E+00  0.00000000E+00  0.00000000E+00
  0.00000000E+00  0.00000000E+00  0.00000000E+00
  0.00000000E+00  0.00000000E+00  0.00000000E+00
  0.00000000E+00  0.00000000E+00  0.00000000E+00
  0.00000000E+00  0.00000000E+00  0.00000000E+00
  0.00000000E+00  0.00000000E+00  0.00000000E+00
  0.00000000E+00  0.00000000E+00  0.00000000E+00
  0.00000000E+00  0.00000000E+00  0.00000000E+00
  0.00000000E+00  0.00000000E+00  0.00000000E+00
  0.00000000E+00  0.00000000E+00  0.00000000E+00
  0.00000000E+00  0.00000000E+00  0.00000000E+00
  0.00000000E+00  0.00000000E+00  0.00000000E+00
  0.00000000E+00  0.00000000E+00  0.00000000E+00
  0.00000000E+00  0.00000000E+00  0.00000000E+00
  0.00000000E+00  0.00000000E+00  0.00000000E+00
  0.00000000E+00  0.00000000E+00  0.00000000E+00
  0.00000000E+00  0.00000000E+00  0.00000000E+00
  0.00000000E+00  0.00000000E+00  0.00000000E+00
  0.00000000E+00  0.00000000E+00  0.00000000E+00
  0.00000000E+00  0.00000000E+00  0.00000000E+00
  0.00000000E+00  0.00000000E+00  0.00000000E+00
  0.00000000E+00  0.00000000E+00  0.00000000E+00
  0.00000000E+00  0.00000000E+00  0.00000000E+00
  0.00000000E+00  0.00000000E+00  0.00000000E+00
  0.00000000E+00  0.00000000E+00  0.00000000E+00
  0.00000000E+00  0.00000000E+00  0.00000000E+00
  0.00000000E+00  0.00000000E+00  0.00000000E+00
  0.00000000E+00  0.00000000E+00  0.00000000E+00
  0.00000000E+00  0.00000000E+00  0.00000000E+00
  0.00000000E+00  0.00000000E+00  0.00000000E+00
  0.00000000E+00  0.00000000E+00  0.00000000E+00
  0.00000000E+00  0.00000000E+00  0.00000000E+00
  0.00000000E+00  0.00000000E+00  0.00000000E+00
  0.00000000E+00  0.00000000E+00  0.00000000E+00
  0.00000000E+00  0.00000000E+00  0.00000000E+00
  0.00000000E+00  0.00000000E+00  0.00000000E+00
  0.00000000E+00  0.00000000E+00  0.00000000E+00
  0.00000000E+00  0.00000000E+00  0.00000000E+00
  0.00000000E+00  0.00000000E+00  0.00000000E+00
  0.00000000E+00  0.00000000E+00  0.00000000E+00
  0.00000000E+00  0.00000000E+00  0.00000000E+00
  0.00000000E+00  0.00000000E+00  0.00000000E+00
  0.00000000E+00  0.00000000E+00  0.00000000E+00
  0.00000000E+00  0.00000000E+00  0.00000000E+00
  0.00000000E+00  0.00000000E+00  0.00000000E+00
  0.00000000E+00  0.00000000E+00  0.00000000E+00
  0.00000000E+00  0.00000000E+00  0.00000000E+00
  0.00000000E+00  0.00000000E+00  0.00000000E+00
  0.00000000E+00  0.00000000E+00  0.00000000E+00
  0.00000000E+00  0.00000000E+00  0.00000000E+00
  0.00000000E+00  0.00000000E+00  0.00000000E+00
  0.00000000E+00  0.00000000E+00  0.00000000E+00
  0.00000000E+00  0.00000000E+00  0.00000000E+00
  0.00000000E+00  0.00000000E+00  0.00000000E+00
  0.00000000E+00  0.00000000E+00  0.00000000E+00
  0.00000000E+00  0.00000000E+00  0.00000000E+00
  0.00000000E+00  0.00000000E+00  0.00000000E+00
  0.00000000E+00  0.00000000E+00  0.00000000E+00
  0.00000000E+00  0.00000000E+00  0.00000000E+00
  0.00000000E+00  0.00000000E+00  0.00000000E+00
  0.00000000E+00  0.00000000E+00  0.00000000E+00
  0.00000000E+00  0.00000000E+00  0.00000000E+00
  0.00000000E+00  0.00000000E+00  0.00000000E+00
  0.00000000E+00  0.00000000E+00  0.00000000E+00
  0.00000000E+00  0.00000000E+00  0.00000000E+00
  0.00000000E+00  0.00000000E+00  0.00000000E+00
  0.00000000E+00  0.00000000E+00  0.00000000E+00
  0.00000000E+00  0.00000000E+00  0.00000000E+00
  0.00000000E+00  0.00000000E+00  0.00000000E+00
  0.00000000E+00  0.00000000E+00  0.00000000E+00
  0.00000000E+00  0.00000000E+00  0.00000000E+00
  0.00000000E+00  0.00000000E+00  0.00000000E+00
  0.00000000E+00  0.00000000E+00  0.00000000E+00
  0.00000000E+00  0.00000000E+00  0.00000000E+00
  0.00000000E+00  0.00000000E+00  0.00000000E+00
