supercell of POSCAR                     
   1.00398800000000     
    -6.2729611433599999    0.0082005604289200   10.0015927484000002
     3.1280384584799998    5.4363994576400003   10.0007801159999996
    -7.8567367181199996   13.6110857897000006  -10.0002683574999995
   Al   Sc   N 
    91     4    96
Direct
  0.4798385001131749  0.3132531706742654  0.5427523130955052
  0.0624354453619489  0.3952957701224875  0.7086136463676453
  0.1438251979284715  0.4779882035755847  0.8748284555865240
  0.4340524201858571  0.2695573751747986  0.9570292414343484
  0.0190887157778619  0.3538618194899712  0.1203106106686391
  0.1047988570212581  0.4400742320880582  0.2937739265209487
  0.1886862073488587  0.0215655313244625  0.4601514866283551
  0.2713426319079986  0.1042638736331156  0.6256897515747895
  0.3530915430194241  0.1874807030795012  0.7917416148192657
  0.2281664731375983  0.0681576813109430  0.0380596759001151
  0.3196415883456254  0.1398929628055257  0.2088099008972435
  0.3967908635027015  0.2309207866270881  0.3761414596230637
  0.0007008959926083  0.1660711321828003  0.6662883571031273
  0.0815602881121720  0.2511750121809655  0.8335929889079310
  0.4561444444689329  0.1175506396447901  0.0781486482676925
  0.0472240572177967  0.2102253308976358  0.2526648720569113
  0.1263341469053643  0.2924915006429458  0.4185396450015446
  0.2089144095960194  0.3749071968147462  0.5840147548693508
  0.2908434103355901  0.4579582062720888  0.7492084060920945
  0.3711588061893778  0.0427168115156320  0.9167076642972489
  0.3344879422500711  0.0037080860515815  0.3384895088413273
  0.4182769399644144  0.0845711188575606  0.5020791173214647
  0.9798976733175735  0.3132280690660920  0.5424834832543723
  0.5629674604855310  0.3958186822465564  0.7085437061555382
  0.6425038908767391  0.4796900125344621  0.8748685770989653
  0.9392514275151171  0.2734986333261986  0.9560707012664125
  0.5171472604905745  0.3518737807318004  0.1207135221231610
  0.6036668841478985  0.4412701157828565  0.2958208433876237
  0.6888890943247219  0.0214187644425863  0.4602961537919228
  0.7715855043448272  0.1044412290755190  0.6258173483715694
  0.8554573882330700  0.1880644855835669  0.7918234545523291
  0.7268268838825591  0.0626949636159253  0.0392728228351373
  0.8188276968306454  0.1418089926060091  0.2091950867575676
  0.8970728036081184  0.2306763640927301  0.3762254062562675
  0.5002669579392744  0.1668288884277516  0.6670858205247256
  0.5840396987376479  0.2480394188470285  0.8314469218539955
  0.6650159938057456  0.3307923935466732  0.9944537722394244
  0.9566482184581986  0.1214775114225617  0.0793121910564594
  0.5457756123330171  0.2111997645253538  0.2530450863129943
  0.6263200661506190  0.2921057014456920  0.4190786661070263
  0.7093937606889540  0.3748952313017213  0.5845204483949118
  0.7922020521361830  0.4565035983012464  0.7509513787136939
  0.8736397331340768  0.0403188476778951  0.9147765767107714
  0.8353017892205230  0.0033484880241446  0.3389923821268894
  0.9184601278607047  0.0843434222640198  0.5020501605634564
  0.4798414757912823  0.8130056783032842  0.5428559195483800
  0.0623118504186380  0.8962040149631250  0.7084101557514302
  0.1439618849863820  0.9805909657548355  0.8739295756096013
  0.4332268696515840  0.7689932355841478  0.9562137670311159
  0.0166144169068261  0.8522595332893417  0.1212444636144028
  0.1039750184266026  0.9402989541262414  0.2955943431877017
  0.1886543748558509  0.5213426505402552  0.4597980511946673
  0.2714339657431637  0.6041326387653072  0.6256404503561512
  0.3528091653600143  0.6851400707383846  0.7929182172937956
  0.2266439951690273  0.5640347174910829  0.0392397415131143
  0.3193709078043980  0.6405324748238570  0.2089019070135265
  0.3971709153369787  0.7306216948629967  0.3763649234873867
  0.0004233737603201  0.6661704051946771  0.6670886259371756
  0.0813195538911415  0.7495638575369981  0.8311214495237635
  0.1623302158719042  0.8342180683881963  0.9949299439235801
  0.4567101535542619  0.6211361941813465  0.0799180904066858
  0.0460829722996721  0.7096467546118532  0.2517683626063061
  0.1266824349337483  0.7917505865880301  0.4189336339117844
  0.2094228211923195  0.8746327428192302  0.5842331801972733
  0.2906813192859588  0.9578286299921928  0.7499843088373268
  0.3641574837475332  0.5311040555172397  0.9186762723640314
  0.3335834570590919  0.5037917873570450  0.3376079767085969
  0.4183143696880194  0.5842193342073116  0.5019366778372358
  0.9798720746961109  0.8131022236828898  0.5427404450885192
  0.5617749701699637  0.8961452265734025  0.7083833411752352
  0.6435022378640980  0.9790489108596887  0.8735635755781530
  0.9353472291987401  0.7689422034613500  0.9564996357143158
  0.5174562402624616  0.8526323848460180  0.1211251317898956
  0.6037943517094817  0.9414290930256044  0.2961099760532164
  0.6888773533868928  0.5214008476424610  0.4601875449563977
  0.7711702031756573  0.6039678636840762  0.6260363230638717
  0.8529024446217690  0.6870509531136335  0.7913806970326860
  0.7277048021558414  0.5629782662133493  0.0392442988912975
  0.8188101458255588  0.6426156025623158  0.2083639216975683
  0.8976571796820494  0.7302009029966854  0.3759226959563833
  0.4999504115295252  0.6661341949429698  0.6674163033991647
  0.5802503626617579  0.7490305702797571  0.8310813752956179
  0.6616041556980576  0.8308389434471835  0.9941441268207925
  0.9569559408644679  0.6190703624987677  0.0794468353175404
  0.5468532307634817  0.7115212852416306  0.2531862841131769
  0.6266799456101708  0.7921162053562654  0.4192054829354674
  0.7091564415949776  0.8749999317463804  0.5844816337095793
  0.7914987756102789  0.9578159471725556  0.7494661018871156
  0.8745527718786761  0.5373558758263570  0.9146668221095382
  0.8352482662951246  0.5037228908219475  0.3382883174507327
  0.9182648837440297  0.5846169736614613  0.5021378817795181
  0.2452439939739079  0.4089382681963940  0.1638989799892627
  0.7433447103153625  0.4135648299012544  0.1682343129903217
  0.2433447646286453  0.9127067579731971  0.1675537200011021
  0.7413142287776040  0.9175744521912037  0.1691284397381381
  0.0591230190978962  0.3932605682505539  0.5108356356330432
  0.1412676762527241  0.4749776607956946  0.6752591847089775
  0.2235628209883487  0.0580823669911865  0.8406312294087783
  0.9975699855752538  0.3525828642718949  0.9146424673524152
  0.0836977948491011  0.4400065791707490  0.0924088093664537
  0.1820056201112052  0.0259046718717570  0.2720093560707539
  0.2683963073054940  0.1028336365382643  0.4309107185810319
  0.3510106454581816  0.1842283114131789  0.5938892052245137
  0.4331002033176503  0.2664548532273230  0.7583355574959256
  0.3196894095743872  0.1261810600924065  0.0078751919161633
  0.4160254119282882  0.2006515933876969  0.1783300569677451
  0.4758607889654201  0.3129428723986152  0.3457951111692950
  0.0803787043571873  0.2457430772442919  0.6341189646189349
  0.1628218879143404  0.3284460566760146  0.7995045639381431
  0.2633704964596078  0.4316951436287226  0.9596974869507378
  0.0344750192777923  0.2025112322511902  0.0500001510712593
  0.1267251646739709  0.2892104694450524  0.2188581533856251
  0.2058795215936371  0.3716471433079249  0.3870949998453739
  0.2887023817768366  0.4543776587208228  0.5522247901575952
  0.3709680955924171  0.0371322013714845  0.7173621259858010
  0.4538112597891555  0.1190074745584226  0.8826573316825019
  0.3303191581888214  0.9988581494896565  0.1337063053612582
  0.4128715827295437  0.0808078892991944  0.3050110912292539
  0.4975707215392333  0.1637766839970496  0.4693323972249601
  0.5593662592218749  0.3931941122013001  0.5113359325181861
  0.6420138645786935  0.4753143656027703  0.6759591146470214
  0.7245409844641273  0.0566615424796026  0.8408873239503478
  0.5217549492511182  0.3424713951557905  0.9222619176099798
  0.5893733923540339  0.4293394723291470  0.0832397502500655
  0.6815833464212417  0.0285197584063752  0.2738876378387474
  0.7688238789955264  0.1025860785882671  0.4311814345325473
  0.8507989874694388  0.1839092586638316  0.5933916819580816
  0.9333918821433755  0.2647414859817232  0.7561068397585871
  0.8056838691385764  0.1415695370091825  0.0071058519804978
  0.9111345150009313  0.2065747397475519  0.1783266007815243
  0.9759214914358267  0.3121040109942967  0.3454617662968431
  0.5802872187619670  0.2458611894554394  0.6346981773151157
  0.6635418081194899  0.3283013040695053  0.7998308347747169
  0.7443338569459002  0.4129890392571411  0.9673277459299570
  0.5370522682342127  0.2007561239819395  0.0503465457335608
  0.6256317547848553  0.2929569485944157  0.2182722155013224
  0.7062164450606687  0.3711325883175718  0.3876957578751288
  0.7889019911672577  0.4544073367318333  0.5524593607289248
  0.8711290795520199  0.0374418084651538  0.7175538987343728
  0.9528493880986915  0.1189486362578123  0.8834606183760059
  0.8303201698273597  0.0017500340046652  0.1331116227610067
  0.9128325716565442  0.0808956623381150  0.3045171735388408
  0.9975227897428383  0.1636275162918537  0.4691884229315235
  0.0593847114025792  0.8929941847632250  0.5111810792387601
  0.1417538339046729  0.9750292279399702  0.6754876750868064
  0.2193815625642017  0.5610021826095419  0.8376309479982282
  0.0133559342765039  0.8484343890355817  0.9226638959202660
  0.0870064486124136  0.9310061444020761  0.0836403662261915
  0.1825512375359324  0.5261712096601769  0.2704569694032415
  0.2687367994114354  0.6023337141638621  0.4306016963829222
  0.3509223649119591  0.6839485949068376  0.5936670255707952
  0.4304064558704113  0.7662821107368245  0.7580780472744095
  0.3038850114333869  0.6505795072937204  0.0100877847672436
  0.4125125696834715  0.7064063684935107  0.1788498317457794
  0.4762440283791918  0.8124401702263384  0.3459805042172448
  0.0801019384810431  0.7458088794315287  0.6347720294471699
  0.1612386390485980  0.8299992603063799  0.8000524342869682
  0.2424009646603054  0.9140013403295981  0.9659133074864599
  0.0335713592599092  0.7040805618374151  0.0498016402861836
  0.1257673469187850  0.7925052600227858  0.2178452224936436
  0.2063252298623510  0.8711355274066506  0.3877059285134479
  0.2888913858441740  0.9543359926323802  0.5523783992558506
  0.3717189318050984  0.5365144142498579  0.7169962558608916
  0.4499796824938329  0.6169616128848929  0.8846253006067286
  0.3320860126080873  0.5016903465824214  0.1327323195580803
  0.4127182278727730  0.5813603959568354  0.3046071691193930
  0.4976990462383668  0.6636145481959375  0.4693786638007822
  0.5592322046608587  0.8932268334147651  0.5114207716799086
  0.6413394877369569  0.9756803521656892  0.6759913765196259
  0.7188155081464629  0.5609454422575766  0.8403274765022033
  0.5136058733863962  0.8463622458542304  0.9214648562390835
  0.5942539527542010  0.9253273847003598  0.0842644573908160
  0.6817956283571007  0.5272658544016693  0.2723884080440655
  0.7688349696248480  0.6024391775091331  0.4308258366149147
  0.8506109846176528  0.6841638183192060  0.5939976865009982
  0.9312449536587195  0.7671526258035612  0.7578674756456536
  0.8038363666612298  0.6437552569625495  0.0063406795557270
  0.9061369138514834  0.7139360897070830  0.1788110821347502
  0.9769615366678011  0.8118833935931491  0.3455074888674332
  0.5798008735506741  0.7458438914770937  0.6349063432338014
  0.6614604953474341  0.8289657587347392  0.7997783392042663
  0.7439406066839211  0.9126766676498193  0.9659935989432711
  0.5355903831902111  0.7024202134012185  0.0499647459807449
  0.6250099726728209  0.7933917334977636  0.2187453760716807
  0.7067961387611561  0.8708224637837532  0.3879194355794198
  0.7888565722962753  0.9543593373337629  0.5526542512129140
  0.8711025377967090  0.5369625687366124  0.7176777503137970
  0.9514142591596340  0.6215664261650460  0.8828871315991123
  0.8273693822321491  0.5017759460130407  0.1335494862976532
  0.9132189805049222  0.5808323021442163  0.3039238659109529
  0.9975109249634642  0.6637560632201911  0.4692867224659452
 
  0.00000000E+00  0.00000000E+00  0.00000000E+00
  0.00000000E+00  0.00000000E+00  0.00000000E+00
  0.00000000E+00  0.00000000E+00  0.00000000E+00
  0.00000000E+00  0.00000000E+00  0.00000000E+00
  0.00000000E+00  0.00000000E+00  0.00000000E+00
  0.00000000E+00  0.00000000E+00  0.00000000E+00
  0.00000000E+00  0.00000000E+00  0.00000000E+00
  0.00000000E+00  0.00000000E+00  0.00000000E+00
  0.00000000E+00  0.00000000E+00  0.00000000E+00
  0.00000000E+00  0.00000000E+00  0.00000000E+00
  0.00000000E+00  0.00000000E+00  0.00000000E+00
  0.00000000E+00  0.00000000E+00  0.00000000E+00
  0.00000000E+00  0.00000000E+00  0.00000000E+00
  0.00000000E+00  0.00000000E+00  0.00000000E+00
  0.00000000E+00  0.00000000E+00  0.00000000E+00
  0.00000000E+00  0.00000000E+00  0.00000000E+00
  0.00000000E+00  0.00000000E+00  0.00000000E+00
  0.00000000E+00  0.00000000E+00  0.00000000E+00
  0.00000000E+00  0.00000000E+00  0.00000000E+00
  0.00000000E+00  0.00000000E+00  0.00000000E+00
  0.00000000E+00  0.00000000E+00  0.00000000E+00
  0.00000000E+00  0.00000000E+00  0.00000000E+00
  0.00000000E+00  0.00000000E+00  0.00000000E+00
  0.00000000E+00  0.00000000E+00  0.00000000E+00
  0.00000000E+00  0.00000000E+00  0.00000000E+00
  0.00000000E+00  0.00000000E+00  0.00000000E+00
  0.00000000E+00  0.00000000E+00  0.00000000E+00
  0.00000000E+00  0.00000000E+00  0.00000000E+00
  0.00000000E+00  0.00000000E+00  0.00000000E+00
  0.00000000E+00  0.00000000E+00  0.00000000E+00
  0.00000000E+00  0.00000000E+00  0.00000000E+00
  0.00000000E+00  0.00000000E+00  0.00000000E+00
  0.00000000E+00  0.00000000E+00  0.00000000E+00
  0.00000000E+00  0.00000000E+00  0.00000000E+00
  0.00000000E+00  0.00000000E+00  0.00000000E+00
  0.00000000E+00  0.00000000E+00  0.00000000E+00
  0.00000000E+00  0.00000000E+00  0.00000000E+00
  0.00000000E+00  0.00000000E+00  0.00000000E+00
  0.00000000E+00  0.00000000E+00  0.00000000E+00
  0.00000000E+00  0.00000000E+00  0.00000000E+00
  0.00000000E+00  0.00000000E+00  0.00000000E+00
  0.00000000E+00  0.00000000E+00  0.00000000E+00
  0.00000000E+00  0.00000000E+00  0.00000000E+00
  0.00000000E+00  0.00000000E+00  0.00000000E+00
  0.00000000E+00  0.00000000E+00  0.00000000E+00
  0.00000000E+00  0.00000000E+00  0.00000000E+00
  0.00000000E+00  0.00000000E+00  0.00000000E+00
  0.00000000E+00  0.00000000E+00  0.00000000E+00
  0.00000000E+00  0.00000000E+00  0.00000000E+00
  0.00000000E+00  0.00000000E+00  0.00000000E+00
  0.00000000E+00  0.00000000E+00  0.00000000E+00
  0.00000000E+00  0.00000000E+00  0.00000000E+00
  0.00000000E+00  0.00000000E+00  0.00000000E+00
  0.00000000E+00  0.00000000E+00  0.00000000E+00
  0.00000000E+00  0.00000000E+00  0.00000000E+00
  0.00000000E+00  0.00000000E+00  0.00000000E+00
  0.00000000E+00  0.00000000E+00  0.00000000E+00
  0.00000000E+00  0.00000000E+00  0.00000000E+00
  0.00000000E+00  0.00000000E+00  0.00000000E+00
  0.00000000E+00  0.00000000E+00  0.00000000E+00
  0.00000000E+00  0.00000000E+00  0.00000000E+00
  0.00000000E+00  0.00000000E+00  0.00000000E+00
  0.00000000E+00  0.00000000E+00  0.00000000E+00
  0.00000000E+00  0.00000000E+00  0.00000000E+00
  0.00000000E+00  0.00000000E+00  0.00000000E+00
  0.00000000E+00  0.00000000E+00  0.00000000E+00
  0.00000000E+00  0.00000000E+00  0.00000000E+00
  0.00000000E+00  0.00000000E+00  0.00000000E+00
  0.00000000E+00  0.00000000E+00  0.00000000E+00
  0.00000000E+00  0.00000000E+00  0.00000000E+00
  0.00000000E+00  0.00000000E+00  0.00000000E+00
  0.00000000E+00  0.00000000E+00  0.00000000E+00
  0.00000000E+00  0.00000000E+00  0.00000000E+00
  0.00000000E+00  0.00000000E+00  0.00000000E+00
  0.00000000E+00  0.00000000E+00  0.00000000E+00
  0.00000000E+00  0.00000000E+00  0.00000000E+00
  0.00000000E+00  0.00000000E+00  0.00000000E+00
  0.00000000E+00  0.00000000E+00  0.00000000E+00
  0.00000000E+00  0.00000000E+00  0.00000000E+00
  0.00000000E+00  0.00000000E+00  0.00000000E+00
  0.00000000E+00  0.00000000E+00  0.00000000E+00
  0.00000000E+00  0.00000000E+00  0.00000000E+00
  0.00000000E+00  0.00000000E+00  0.00000000E+00
  0.00000000E+00  0.00000000E+00  0.00000000E+00
  0.00000000E+00  0.00000000E+00  0.00000000E+00
  0.00000000E+00  0.00000000E+00  0.00000000E+00
  0.00000000E+00  0.00000000E+00  0.00000000E+00
  0.00000000E+00  0.00000000E+00  0.00000000E+00
  0.00000000E+00  0.00000000E+00  0.00000000E+00
  0.00000000E+00  0.00000000E+00  0.00000000E+00
  0.00000000E+00  0.00000000E+00  0.00000000E+00
  0.00000000E+00  0.00000000E+00  0.00000000E+00
  0.00000000E+00  0.00000000E+00  0.00000000E+00
  0.00000000E+00  0.00000000E+00  0.00000000E+00
  0.00000000E+00  0.00000000E+00  0.00000000E+00
  0.00000000E+00  0.00000000E+00  0.00000000E+00
  0.00000000E+00  0.00000000E+00  0.00000000E+00
  0.00000000E+00  0.00000000E+00  0.00000000E+00
  0.00000000E+00  0.00000000E+00  0.00000000E+00
  0.00000000E+00  0.00000000E+00  0.00000000E+00
  0.00000000E+00  0.00000000E+00  0.00000000E+00
  0.00000000E+00  0.00000000E+00  0.00000000E+00
  0.00000000E+00  0.00000000E+00  0.00000000E+00
  0.00000000E+00  0.00000000E+00  0.00000000E+00
  0.00000000E+00  0.00000000E+00  0.00000000E+00
  0.00000000E+00  0.00000000E+00  0.00000000E+00
  0.00000000E+00  0.00000000E+00  0.00000000E+00
  0.00000000E+00  0.00000000E+00  0.00000000E+00
  0.00000000E+00  0.00000000E+00  0.00000000E+00
  0.00000000E+00  0.00000000E+00  0.00000000E+00
  0.00000000E+00  0.00000000E+00  0.00000000E+00
  0.00000000E+00  0.00000000E+00  0.00000000E+00
  0.00000000E+00  0.00000000E+00  0.00000000E+00
  0.00000000E+00  0.00000000E+00  0.00000000E+00
  0.00000000E+00  0.00000000E+00  0.00000000E+00
  0.00000000E+00  0.00000000E+00  0.00000000E+00
  0.00000000E+00  0.00000000E+00  0.00000000E+00
  0.00000000E+00  0.00000000E+00  0.00000000E+00
  0.00000000E+00  0.00000000E+00  0.00000000E+00
  0.00000000E+00  0.00000000E+00  0.00000000E+00
  0.00000000E+00  0.00000000E+00  0.00000000E+00
  0.00000000E+00  0.00000000E+00  0.00000000E+00
  0.00000000E+00  0.00000000E+00  0.00000000E+00
  0.00000000E+00  0.00000000E+00  0.00000000E+00
  0.00000000E+00  0.00000000E+00  0.00000000E+00
  0.00000000E+00  0.00000000E+00  0.00000000E+00
  0.00000000E+00  0.00000000E+00  0.00000000E+00
  0.00000000E+00  0.00000000E+00  0.00000000E+00
  0.00000000E+00  0.00000000E+00  0.00000000E+00
  0.00000000E+00  0.00000000E+00  0.00000000E+00
  0.00000000E+00  0.00000000E+00  0.00000000E+00
  0.00000000E+00  0.00000000E+00  0.00000000E+00
  0.00000000E+00  0.00000000E+00  0.00000000E+00
  0.00000000E+00  0.00000000E+00  0.00000000E+00
  0.00000000E+00  0.00000000E+00  0.00000000E+00
  0.00000000E+00  0.00000000E+00  0.00000000E+00
  0.00000000E+00  0.00000000E+00  0.00000000E+00
  0.00000000E+00  0.00000000E+00  0.00000000E+00
  0.00000000E+00  0.00000000E+00  0.00000000E+00
  0.00000000E+00  0.00000000E+00  0.00000000E+00
  0.00000000E+00  0.00000000E+00  0.00000000E+00
  0.00000000E+00  0.00000000E+00  0.00000000E+00
  0.00000000E+00  0.00000000E+00  0.00000000E+00
  0.00000000E+00  0.00000000E+00  0.00000000E+00
  0.00000000E+00  0.00000000E+00  0.00000000E+00
  0.00000000E+00  0.00000000E+00  0.00000000E+00
  0.00000000E+00  0.00000000E+00  0.00000000E+00
  0.00000000E+00  0.00000000E+00  0.00000000E+00
  0.00000000E+00  0.00000000E+00  0.00000000E+00
  0.00000000E+00  0.00000000E+00  0.00000000E+00
  0.00000000E+00  0.00000000E+00  0.00000000E+00
  0.00000000E+00  0.00000000E+00  0.00000000E+00
  0.00000000E+00  0.00000000E+00  0.00000000E+00
  0.00000000E+00  0.00000000E+00  0.00000000E+00
  0.00000000E+00  0.00000000E+00  0.00000000E+00
  0.00000000E+00  0.00000000E+00  0.00000000E+00
  0.00000000E+00  0.00000000E+00  0.00000000E+00
  0.00000000E+00  0.00000000E+00  0.00000000E+00
  0.00000000E+00  0.00000000E+00  0.00000000E+00
  0.00000000E+00  0.00000000E+00  0.00000000E+00
  0.00000000E+00  0.00000000E+00  0.00000000E+00
  0.00000000E+00  0.00000000E+00  0.00000000E+00
  0.00000000E+00  0.00000000E+00  0.00000000E+00
  0.00000000E+00  0.00000000E+00  0.00000000E+00
  0.00000000E+00  0.00000000E+00  0.00000000E+00
  0.00000000E+00  0.00000000E+00  0.00000000E+00
  0.00000000E+00  0.00000000E+00  0.00000000E+00
  0.00000000E+00  0.00000000E+00  0.00000000E+00
  0.00000000E+00  0.00000000E+00  0.00000000E+00
  0.00000000E+00  0.00000000E+00  0.00000000E+00
  0.00000000E+00  0.00000000E+00  0.00000000E+00
  0.00000000E+00  0.00000000E+00  0.00000000E+00
  0.00000000E+00  0.00000000E+00  0.00000000E+00
  0.00000000E+00  0.00000000E+00  0.00000000E+00
  0.00000000E+00  0.00000000E+00  0.00000000E+00
  0.00000000E+00  0.00000000E+00  0.00000000E+00
  0.00000000E+00  0.00000000E+00  0.00000000E+00
  0.00000000E+00  0.00000000E+00  0.00000000E+00
  0.00000000E+00  0.00000000E+00  0.00000000E+00
  0.00000000E+00  0.00000000E+00  0.00000000E+00
  0.00000000E+00  0.00000000E+00  0.00000000E+00
  0.00000000E+00  0.00000000E+00  0.00000000E+00
  0.00000000E+00  0.00000000E+00  0.00000000E+00
  0.00000000E+00  0.00000000E+00  0.00000000E+00
  0.00000000E+00  0.00000000E+00  0.00000000E+00
  0.00000000E+00  0.00000000E+00  0.00000000E+00
  0.00000000E+00  0.00000000E+00  0.00000000E+00
  0.00000000E+00  0.00000000E+00  0.00000000E+00
  0.00000000E+00  0.00000000E+00  0.00000000E+00
  0.00000000E+00  0.00000000E+00  0.00000000E+00
  0.00000000E+00  0.00000000E+00  0.00000000E+00
