supercell of POSCAR                     
   1.00398800000000     
    -6.2729611433599999    0.0082005604289200   10.0015927484000002
     3.1280384584799998    5.4363994576400003   10.0007801159999996
    -7.8567367181199996   13.6110857897000006  -10.0002683574999995
   Al   Sc   N 
    91     4    96
Direct
  0.4770524324462428  0.3136845344640307  0.5434183361830449
  0.0646626170171629  0.3984855534935221  0.7061253517286588
  0.1457868424027495  0.4780942981880898  0.8715738348431188
  0.4360632241852898  0.2693227495647221  0.9558598322715284
  0.0181818155946942  0.3509183091844434  0.1212427083813452
  0.1041233035290858  0.4409530527609746  0.2964702773085506
  0.1877454896867405  0.0235769048975314  0.4611699790210295
  0.2724677854364401  0.1089052815724258  0.6242861629034735
  0.3528483723480491  0.1874228870291645  0.7898100778948418
  0.2276424540995663  0.0619120967975064  0.0390500012656787
  0.3197623830470988  0.1406090297265479  0.2094935537244780
  0.3966021082944593  0.2316310010490952  0.3776019150344538
  0.0010517003223853  0.1678521733282352  0.6664364610299529
  0.0822444620310208  0.2485964869583484  0.8304007308118244
  0.1634249548199449  0.3312644523957431  0.9937602051796759
  0.4566392790573630  0.1194428908461376  0.0793510732850606
  0.0470341718127543  0.2102957666821084  0.2523612177746628
  0.1256580053902070  0.2945623835167765  0.4209585135135896
  0.2887777405607537  0.4581197261802501  0.7477776621207965
  0.3733111565575058  0.0401980261335666  0.9137507967036242
  0.3340208842360255  0.0041972255046616  0.3393803035227378
  0.4164868025962178  0.0861398887651177  0.5040788167940775
  0.9823687871775704  0.3170166375872085  0.5421868433349601
  0.5607583591633514  0.3962596825006131  0.7075368586751978
  0.6448029421069492  0.4786709537019220  0.8730805795346228
  0.9362197026404573  0.2690456707413915  0.9558790894758786
  0.5184619946793205  0.3509015517730418  0.1216888608276037
  0.6046968232152565  0.4415887318726703  0.2967898217484759
  0.6874688106133036  0.0220709326790356  0.4608126030649515
  0.7703023044815041  0.1047220417733712  0.6257974874508818
  0.8530276298855881  0.1874587061162742  0.7904098854724779
  0.7277080028839720  0.0617123920648126  0.0391092312872559
  0.8199615487541010  0.1406089007736568  0.2095375106120372
  0.8988641283322565  0.2320189353179956  0.3775468575229723
  0.4976874202184618  0.1671517611130824  0.6655122800069648
  0.5812633740731883  0.2495287878483481  0.8308017009150248
  0.6641207970954071  0.3306959156865545  0.9945538510500427
  0.9567357996546306  0.1189876676398427  0.0790981048325463
  0.5467324107766203  0.2115706822702350  0.2536739508345462
  0.6280050828036607  0.2919402764580070  0.4199211018181046
  0.7099824678428348  0.3746212748097690  0.5844655148268245
  0.7909997053564624  0.4579404927266850  0.7486413752508128
  0.8736866513427728  0.0395235372410312  0.9140434547766247
  0.8349282112855576  0.0043014489674249  0.3391791699042983
  0.9182084180208889  0.0848170730768416  0.5027869901719413
  0.4770159102543019  0.8134203807908520  0.5426111719627116
  0.0615455873194222  0.8959450875751287  0.7078662861457374
  0.1445531771859550  0.9779378309621762  0.8729853609443268
  0.4365111606351633  0.7693511334690299  0.9562161751880183
  0.0182206892198309  0.8507710022370603  0.1214985514637874
  0.1041271764816258  0.9417740558560865  0.2964061376031921
  0.1876428124792042  0.5211578036497500  0.4619574095241958
  0.2698022666466571  0.6031977012449872  0.6255090815526714
  0.3536679849221827  0.6862599254099493  0.7905836491262406
  0.2277945199122939  0.5616547241871999  0.0389946050854277
  0.3198435615932098  0.6404314631187376  0.2095652720797716
  0.3962567417297009  0.7296368723884399  0.3786654076365039
  0.0014877392644266  0.6645246174860659  0.6669125056266907
  0.0829064919485845  0.7464804989448695  0.8301737217901390
  0.1638927529487333  0.8304313912425911  0.9942159638892818
  0.4572804270556219  0.6192690282949229  0.0799123031310671
  0.0467182806243045  0.7108588115579337  0.2534013762767415
  0.1254637004707249  0.7935136852285467  0.4194733652904716
  0.2082228343052606  0.8765986924473879  0.5848817874383982
  0.2910704722171715  0.9577935490372838  0.7489637636773381
  0.3746695940439579  0.5400986333323630  0.9150007039898824
  0.3340461357500999  0.5044683594947159  0.3388099245544183
  0.4099649761833817  0.5771494067272727  0.5057815119954938
  0.9787805077823890  0.8127891363256552  0.5431348735125496
  0.5610204768216960  0.8984041961375411  0.7074395599384715
  0.6446557387195213  0.9786708366127925  0.8727263517188604
  0.9366558998551540  0.7686848193686586  0.9555303261916492
  0.5184313377951568  0.8508889389747551  0.1217332138224663
  0.6035978109791387  0.9420015609865686  0.2965298599876149
  0.6866257028799438  0.5228265621141333  0.4619995075006358
  0.7711987946049277  0.6050102477996475  0.6254683821562281
  0.8544354086479515  0.6867517727241363  0.7892963283430916
  0.7278401692927332  0.5618492597276159  0.0391721819579658
  0.8194928560385080  0.6405876673489956  0.2098424638721141
  0.8965217510444674  0.7311552778935209  0.3772153085880205
  0.4999027903190481  0.6679606930104143  0.6669140411610783
  0.5824707922961352  0.7490648981629064  0.8307466331350071
  0.6637887383208252  0.8311085092244639  0.9941762512140571
  0.9563465127771593  0.6196130337059316  0.0792958944471636
  0.5463815450018643  0.7109145763749183  0.2540436143170055
  0.6247682976833673  0.7927103984727708  0.4191131020466017
  0.7061751328633434  0.8759898878483341  0.5844861704794937
  0.7912540512505757  0.9587241762809100  0.7496860428494614
  0.8740169435520144  0.5398543449225173  0.9135752432573270
  0.8356340076755515  0.5028954214549799  0.3405277479851918
  0.9181652642218694  0.5825563551911372  0.5023469612216260
  0.2437185349309345  0.4120341825589975  0.1681166359110833
  0.7446122520013319  0.4122860358626070  0.1690937677400797
  0.2442917505761741  0.9119612087499718  0.1682432019336559
  0.7436376392880106  0.9128077991203085  0.1687776416136444
  0.0402550714853049  0.3973569794777561  0.5014654759142516
  0.1333361462844209  0.4900945606040921  0.6882505092077693
  0.2233847560254389  0.0578256432689699  0.8421831135821094
  0.0138507276496895  0.3483404330636048  0.9226712195530453
  0.0889300500221353  0.4288430355334185  0.0824268293401786
  0.1825679005182863  0.0260161411615201  0.2701552576594040
  0.2679878190539284  0.1024254976536128  0.4298804989863214
  0.3675758406014893  0.1638056885391208  0.5954256958943915
  0.4333856791993611  0.2667523534583154  0.7598213281431470
  0.3051062549428210  0.1423250890045082  0.0065869166736903
  0.4126327187438648  0.2053815579347216  0.1771899676735913
  0.4764289192580264  0.3125308103304150  0.3448470558444683
  0.0794725872419590  0.2466773172708940  0.6353660589627950
  0.1628764473025015  0.3269883221717862  0.8013458310909769
  0.2452929548350937  0.4119067061504680  0.9661278050974786
  0.0357399937001119  0.2008638161126584  0.0490882455187389
  0.1264005756793409  0.2922575619837531  0.2162857911681968
  0.2063091295692203  0.3712124961578667  0.3862008138766484
  0.3041510360718789  0.4706648558376401  0.5468364686577445
  0.3703397061877638  0.0370447756133387  0.7191874993292018
  0.4538804443762317  0.1197124345920599  0.8837256354492951
  0.3309980736949498  0.9996765282199362  0.1322273079238059
  0.4124050192284372  0.0811345106727188  0.3035808419117956
  0.4976803242551284  0.1628523318328803  0.4686096671492876
  0.5655826119556977  0.3882578173581024  0.5112170671681824
  0.6408365895560166  0.4760332020005720  0.6770023853083913
  0.7234268228667275  0.0597927997804746  0.8426344511756270
  0.5150052067413711  0.3485178990613491  0.9234640341823379
  0.5901420837459241  0.4285057362396714  0.0832792415280679
  0.6820728419636879  0.0271713907528834  0.2711056094736719
  0.7689677984520671  0.1013596521335813  0.4304664837230874
  0.8513857851618312  0.1834501734943217  0.5950487611637598
  0.9319447224274313  0.2669843492969264  0.7592823513952425
  0.8054528718453824  0.1418563072424988  0.0066663118133548
  0.9121423528807711  0.2048571175928515  0.1762985251418527
  0.9761517751571063  0.3104711369820521  0.3417722102568490
  0.5813340389431545  0.2459006443834468  0.6360228427543362
  0.6625493186362093  0.3292099647573465  0.8011216352513628
  0.7455682927653058  0.4117680791175857  0.9664160221206970
  0.5358167961778122  0.2010632118269484  0.0493467555458906
  0.6264126727615604  0.2924703009954612  0.2171519798294312
  0.7070283689987278  0.3710497582978221  0.3870009565966726
  0.7875126288097931  0.4553559825601141  0.5539727626147410
  0.8711478498119547  0.0382305513565271  0.7187403782350685
  0.9536220896566476  0.1196261167191750  0.8836386055561860
  0.8307465574856607  0.9994885897065515  0.1324097001314612
  0.9126483126999574  0.0812808266955614  0.3036964929809471
  0.9964131846766193  0.1626015592123267  0.4693512111084814
  0.0580475593740033  0.8932845268760445  0.5116255737696846
  0.1403323410960624  0.9768568213947120  0.6775492981840117
  0.2269600971435963  0.5588208727294699  0.8443909524428079
  0.0146963773667323  0.8483471683755255  0.9228042607017102
  0.0893999427347296  0.9284209905496326  0.0827702070316079
  0.1819702058751460  0.5261859317810931  0.2699799712421438
  0.2641565252118880  0.6058041785826092  0.4273375777454191
  0.3493826422862440  0.6901956487886522  0.5973297145758565
  0.4328412921039089  0.7669174412393147  0.7599658273261198
  0.3060348551228671  0.6424307015786823  0.0076479901854256
  0.4124239971418504  0.7054644499406777  0.1773298874843405
  0.4739316411988668  0.8122990604906164  0.3445070701335169
  0.0782620921526984  0.7483829251208007  0.6356092649661349
  0.1627687213442712  0.8284579198549338  0.8009671154658307
  0.2455072294779086  0.9116866096077842  0.9663837994213509
  0.0356801801804210  0.7009904627344312  0.0491810009659872
  0.1260668834521965  0.7923318377962119  0.2170198263968075
  0.2047676274859356  0.8728143279980358  0.3870369082954994
  0.2859677169173906  0.9553818792289945  0.5525964656459337
  0.3719598628388638  0.5377256283789151  0.7191676706280106
  0.4545742974537532  0.6200075668748255  0.8842424965161655
  0.3309401532045015  0.4994626538175808  0.1323581976786983
  0.4130842036739750  0.5806005115350175  0.3033873066645114
  0.4939041746632853  0.6614232657041157  0.4705830533703406
  0.5593147613101408  0.8903944194981364  0.5098918554003617
  0.6447882640764959  0.9750255572967177  0.6783424330713359
  0.7238408702314629  0.5583711227615211  0.8419786383885821
  0.5142872940967678  0.8488194515511580  0.9229633575430398
  0.5895498926628804  0.9286330767411499  0.0828900760976694
  0.6825858588193299  0.5268245624975521  0.2710576495775143
  0.7630298228469741  0.6057616087070770  0.4296740066575708
  0.8489403600613628  0.6864774186950982  0.5944338510439806
  0.9301274302768476  0.7713280897956025  0.7602453111354848
  0.8052083794648937  0.6421665957940448  0.0063764067059395
  0.9116444200305622  0.7058457351847593  0.1770906254567279
  0.9749326542881107  0.8128553176400928  0.3442604208051421
  0.5796772765261053  0.7476086487360476  0.6357052719426690
  0.6625994593562012  0.8289089527523714  0.8008880462948227
  0.7456703747846802  0.9117184763944479  0.9661692405305615
  0.5360783714965294  0.7010852487514967  0.0495308853398839
  0.6258488611748305  0.7927174349912818  0.2172806401672247
  0.7052283356862716  0.8717583718136126  0.3867379124044703
  0.7873127818581409  0.9552886451929155  0.5528920765522756
  0.8689775779860298  0.5377021640732522  0.7182620584161938
  0.9542020120704819  0.6194272571380850  0.8831475290047734
  0.8308877834598789  0.4997913320391589  0.1324043649855184
  0.9125698593057692  0.5810006834054562  0.3038788258951683
  0.9948900544691810  0.6658519553744995  0.4689386331664238
 
  0.00000000E+00  0.00000000E+00  0.00000000E+00
  0.00000000E+00  0.00000000E+00  0.00000000E+00
  0.00000000E+00  0.00000000E+00  0.00000000E+00
  0.00000000E+00  0.00000000E+00  0.00000000E+00
  0.00000000E+00  0.00000000E+00  0.00000000E+00
  0.00000000E+00  0.00000000E+00  0.00000000E+00
  0.00000000E+00  0.00000000E+00  0.00000000E+00
  0.00000000E+00  0.00000000E+00  0.00000000E+00
  0.00000000E+00  0.00000000E+00  0.00000000E+00
  0.00000000E+00  0.00000000E+00  0.00000000E+00
  0.00000000E+00  0.00000000E+00  0.00000000E+00
  0.00000000E+00  0.00000000E+00  0.00000000E+00
  0.00000000E+00  0.00000000E+00  0.00000000E+00
  0.00000000E+00  0.00000000E+00  0.00000000E+00
  0.00000000E+00  0.00000000E+00  0.00000000E+00
  0.00000000E+00  0.00000000E+00  0.00000000E+00
  0.00000000E+00  0.00000000E+00  0.00000000E+00
  0.00000000E+00  0.00000000E+00  0.00000000E+00
  0.00000000E+00  0.00000000E+00  0.00000000E+00
  0.00000000E+00  0.00000000E+00  0.00000000E+00
  0.00000000E+00  0.00000000E+00  0.00000000E+00
  0.00000000E+00  0.00000000E+00  0.00000000E+00
  0.00000000E+00  0.00000000E+00  0.00000000E+00
  0.00000000E+00  0.00000000E+00  0.00000000E+00
  0.00000000E+00  0.00000000E+00  0.00000000E+00
  0.00000000E+00  0.00000000E+00  0.00000000E+00
  0.00000000E+00  0.00000000E+00  0.00000000E+00
  0.00000000E+00  0.00000000E+00  0.00000000E+00
  0.00000000E+00  0.00000000E+00  0.00000000E+00
  0.00000000E+00  0.00000000E+00  0.00000000E+00
  0.00000000E+00  0.00000000E+00  0.00000000E+00
  0.00000000E+00  0.00000000E+00  0.00000000E+00
  0.00000000E+00  0.00000000E+00  0.00000000E+00
  0.00000000E+00  0.00000000E+00  0.00000000E+00
  0.00000000E+00  0.00000000E+00  0.00000000E+00
  0.00000000E+00  0.00000000E+00  0.00000000E+00
  0.00000000E+00  0.00000000E+00  0.00000000E+00
  0.00000000E+00  0.00000000E+00  0.00000000E+00
  0.00000000E+00  0.00000000E+00  0.00000000E+00
  0.00000000E+00  0.00000000E+00  0.00000000E+00
  0.00000000E+00  0.00000000E+00  0.00000000E+00
  0.00000000E+00  0.00000000E+00  0.00000000E+00
  0.00000000E+00  0.00000000E+00  0.00000000E+00
  0.00000000E+00  0.00000000E+00  0.00000000E+00
  0.00000000E+00  0.00000000E+00  0.00000000E+00
  0.00000000E+00  0.00000000E+00  0.00000000E+00
  0.00000000E+00  0.00000000E+00  0.00000000E+00
  0.00000000E+00  0.00000000E+00  0.00000000E+00
  0.00000000E+00  0.00000000E+00  0.00000000E+00
  0.00000000E+00  0.00000000E+00  0.00000000E+00
  0.00000000E+00  0.00000000E+00  0.00000000E+00
  0.00000000E+00  0.00000000E+00  0.00000000E+00
  0.00000000E+00  0.00000000E+00  0.00000000E+00
  0.00000000E+00  0.00000000E+00  0.00000000E+00
  0.00000000E+00  0.00000000E+00  0.00000000E+00
  0.00000000E+00  0.00000000E+00  0.00000000E+00
  0.00000000E+00  0.00000000E+00  0.00000000E+00
  0.00000000E+00  0.00000000E+00  0.00000000E+00
  0.00000000E+00  0.00000000E+00  0.00000000E+00
  0.00000000E+00  0.00000000E+00  0.00000000E+00
  0.00000000E+00  0.00000000E+00  0.00000000E+00
  0.00000000E+00  0.00000000E+00  0.00000000E+00
  0.00000000E+00  0.00000000E+00  0.00000000E+00
  0.00000000E+00  0.00000000E+00  0.00000000E+00
  0.00000000E+00  0.00000000E+00  0.00000000E+00
  0.00000000E+00  0.00000000E+00  0.00000000E+00
  0.00000000E+00  0.00000000E+00  0.00000000E+00
  0.00000000E+00  0.00000000E+00  0.00000000E+00
  0.00000000E+00  0.00000000E+00  0.00000000E+00
  0.00000000E+00  0.00000000E+00  0.00000000E+00
  0.00000000E+00  0.00000000E+00  0.00000000E+00
  0.00000000E+00  0.00000000E+00  0.00000000E+00
  0.00000000E+00  0.00000000E+00  0.00000000E+00
  0.00000000E+00  0.00000000E+00  0.00000000E+00
  0.00000000E+00  0.00000000E+00  0.00000000E+00
  0.00000000E+00  0.00000000E+00  0.00000000E+00
  0.00000000E+00  0.00000000E+00  0.00000000E+00
  0.00000000E+00  0.00000000E+00  0.00000000E+00
  0.00000000E+00  0.00000000E+00  0.00000000E+00
  0.00000000E+00  0.00000000E+00  0.00000000E+00
  0.00000000E+00  0.00000000E+00  0.00000000E+00
  0.00000000E+00  0.00000000E+00  0.00000000E+00
  0.00000000E+00  0.00000000E+00  0.00000000E+00
  0.00000000E+00  0.00000000E+00  0.00000000E+00
  0.00000000E+00  0.00000000E+00  0.00000000E+00
  0.00000000E+00  0.00000000E+00  0.00000000E+00
  0.00000000E+00  0.00000000E+00  0.00000000E+00
  0.00000000E+00  0.00000000E+00  0.00000000E+00
  0.00000000E+00  0.00000000E+00  0.00000000E+00
  0.00000000E+00  0.00000000E+00  0.00000000E+00
  0.00000000E+00  0.00000000E+00  0.00000000E+00
  0.00000000E+00  0.00000000E+00  0.00000000E+00
  0.00000000E+00  0.00000000E+00  0.00000000E+00
  0.00000000E+00  0.00000000E+00  0.00000000E+00
  0.00000000E+00  0.00000000E+00  0.00000000E+00
  0.00000000E+00  0.00000000E+00  0.00000000E+00
  0.00000000E+00  0.00000000E+00  0.00000000E+00
  0.00000000E+00  0.00000000E+00  0.00000000E+00
  0.00000000E+00  0.00000000E+00  0.00000000E+00
  0.00000000E+00  0.00000000E+00  0.00000000E+00
  0.00000000E+00  0.00000000E+00  0.00000000E+00
  0.00000000E+00  0.00000000E+00  0.00000000E+00
  0.00000000E+00  0.00000000E+00  0.00000000E+00
  0.00000000E+00  0.00000000E+00  0.00000000E+00
  0.00000000E+00  0.00000000E+00  0.00000000E+00
  0.00000000E+00  0.00000000E+00  0.00000000E+00
  0.00000000E+00  0.00000000E+00  0.00000000E+00
  0.00000000E+00  0.00000000E+00  0.00000000E+00
  0.00000000E+00  0.00000000E+00  0.00000000E+00
  0.00000000E+00  0.00000000E+00  0.00000000E+00
  0.00000000E+00  0.00000000E+00  0.00000000E+00
  0.00000000E+00  0.00000000E+00  0.00000000E+00
  0.00000000E+00  0.00000000E+00  0.00000000E+00
  0.00000000E+00  0.00000000E+00  0.00000000E+00
  0.00000000E+00  0.00000000E+00  0.00000000E+00
  0.00000000E+00  0.00000000E+00  0.00000000E+00
  0.00000000E+00  0.00000000E+00  0.00000000E+00
  0.00000000E+00  0.00000000E+00  0.00000000E+00
  0.00000000E+00  0.00000000E+00  0.00000000E+00
  0.00000000E+00  0.00000000E+00  0.00000000E+00
  0.00000000E+00  0.00000000E+00  0.00000000E+00
  0.00000000E+00  0.00000000E+00  0.00000000E+00
  0.00000000E+00  0.00000000E+00  0.00000000E+00
  0.00000000E+00  0.00000000E+00  0.00000000E+00
  0.00000000E+00  0.00000000E+00  0.00000000E+00
  0.00000000E+00  0.00000000E+00  0.00000000E+00
  0.00000000E+00  0.00000000E+00  0.00000000E+00
  0.00000000E+00  0.00000000E+00  0.00000000E+00
  0.00000000E+00  0.00000000E+00  0.00000000E+00
  0.00000000E+00  0.00000000E+00  0.00000000E+00
  0.00000000E+00  0.00000000E+00  0.00000000E+00
  0.00000000E+00  0.00000000E+00  0.00000000E+00
  0.00000000E+00  0.00000000E+00  0.00000000E+00
  0.00000000E+00  0.00000000E+00  0.00000000E+00
  0.00000000E+00  0.00000000E+00  0.00000000E+00
  0.00000000E+00  0.00000000E+00  0.00000000E+00
  0.00000000E+00  0.00000000E+00  0.00000000E+00
  0.00000000E+00  0.00000000E+00  0.00000000E+00
  0.00000000E+00  0.00000000E+00  0.00000000E+00
  0.00000000E+00  0.00000000E+00  0.00000000E+00
  0.00000000E+00  0.00000000E+00  0.00000000E+00
  0.00000000E+00  0.00000000E+00  0.00000000E+00
  0.00000000E+00  0.00000000E+00  0.00000000E+00
  0.00000000E+00  0.00000000E+00  0.00000000E+00
  0.00000000E+00  0.00000000E+00  0.00000000E+00
  0.00000000E+00  0.00000000E+00  0.00000000E+00
  0.00000000E+00  0.00000000E+00  0.00000000E+00
  0.00000000E+00  0.00000000E+00  0.00000000E+00
  0.00000000E+00  0.00000000E+00  0.00000000E+00
  0.00000000E+00  0.00000000E+00  0.00000000E+00
  0.00000000E+00  0.00000000E+00  0.00000000E+00
  0.00000000E+00  0.00000000E+00  0.00000000E+00
  0.00000000E+00  0.00000000E+00  0.00000000E+00
  0.00000000E+00  0.00000000E+00  0.00000000E+00
  0.00000000E+00  0.00000000E+00  0.00000000E+00
  0.00000000E+00  0.00000000E+00  0.00000000E+00
  0.00000000E+00  0.00000000E+00  0.00000000E+00
  0.00000000E+00  0.00000000E+00  0.00000000E+00
  0.00000000E+00  0.00000000E+00  0.00000000E+00
  0.00000000E+00  0.00000000E+00  0.00000000E+00
  0.00000000E+00  0.00000000E+00  0.00000000E+00
  0.00000000E+00  0.00000000E+00  0.00000000E+00
  0.00000000E+00  0.00000000E+00  0.00000000E+00
  0.00000000E+00  0.00000000E+00  0.00000000E+00
  0.00000000E+00  0.00000000E+00  0.00000000E+00
  0.00000000E+00  0.00000000E+00  0.00000000E+00
  0.00000000E+00  0.00000000E+00  0.00000000E+00
  0.00000000E+00  0.00000000E+00  0.00000000E+00
  0.00000000E+00  0.00000000E+00  0.00000000E+00
  0.00000000E+00  0.00000000E+00  0.00000000E+00
  0.00000000E+00  0.00000000E+00  0.00000000E+00
  0.00000000E+00  0.00000000E+00  0.00000000E+00
  0.00000000E+00  0.00000000E+00  0.00000000E+00
  0.00000000E+00  0.00000000E+00  0.00000000E+00
  0.00000000E+00  0.00000000E+00  0.00000000E+00
  0.00000000E+00  0.00000000E+00  0.00000000E+00
  0.00000000E+00  0.00000000E+00  0.00000000E+00
  0.00000000E+00  0.00000000E+00  0.00000000E+00
  0.00000000E+00  0.00000000E+00  0.00000000E+00
  0.00000000E+00  0.00000000E+00  0.00000000E+00
  0.00000000E+00  0.00000000E+00  0.00000000E+00
  0.00000000E+00  0.00000000E+00  0.00000000E+00
  0.00000000E+00  0.00000000E+00  0.00000000E+00
  0.00000000E+00  0.00000000E+00  0.00000000E+00
  0.00000000E+00  0.00000000E+00  0.00000000E+00
  0.00000000E+00  0.00000000E+00  0.00000000E+00
  0.00000000E+00  0.00000000E+00  0.00000000E+00
  0.00000000E+00  0.00000000E+00  0.00000000E+00
  0.00000000E+00  0.00000000E+00  0.00000000E+00
  0.00000000E+00  0.00000000E+00  0.00000000E+00
  0.00000000E+00  0.00000000E+00  0.00000000E+00
