supercell of POSCAR                     
   1.00398800000000     
    -6.2729611433599999    0.0082005604289200   10.0015927484000002
     3.1280384584799998    5.4363994576400003   10.0007801159999996
    -7.8567367181199996   13.6110857897000006  -10.0002683574999995
   Al   Sc   N 
    92     4    95
Direct
  0.4782182934478385  0.3137125272617283  0.5446339133311895
  0.0620800683710812  0.3965834039680303  0.7089362672881165
  0.1442009529142965  0.4791393084715594  0.8731604601901921
  0.4353035385837671  0.2697669655675909  0.9553602465411828
  0.0174953780041989  0.3507703987945803  0.1203530881708730
  0.1024363802680739  0.4399000162532545  0.2957861976826521
  0.1911927431753782  0.0233752322794913  0.4603129251439739
  0.2706259437272891  0.1055493181449592  0.6272404536937941
  0.3532953013082292  0.1874414141434855  0.7911885109627264
  0.2264582761804661  0.0623928123117210  0.0380926855268910
  0.3170157813094221  0.1410302000899364  0.2086167837667929
  0.3684036958800618  0.2026385327311289  0.3887465540836175
  0.0009433821981659  0.1669162700452276  0.6680894801645536
  0.0820766418418728  0.2489263342498163  0.8312035234148141
  0.1631561542122881  0.3309394958396297  0.9932307861437764
  0.4551290756378492  0.1182122464425106  0.0760566171705079
  0.0462649816786538  0.2110756156668856  0.2519528442915160
  0.1156954667652883  0.2988720040455846  0.4206413152902186
  0.2085944405240596  0.3762670226581406  0.5857768089167337
  0.2913067534657259  0.4581078679758690  0.7500107893907284
  0.3731933997152481  0.0397206826011072  0.9134342446283128
  0.3339811583337280  0.9952565540833760  0.3352003479071612
  0.4223216846493756  0.0802569546600651  0.5079108935221726
  0.9792007061239758  0.3147226847256377  0.5443693692172999
  0.5616246914212510  0.3963996453932523  0.7094450396609702
  0.6443156465531601  0.4791430344006073  0.8734336263076088
  0.9356605717403923  0.2696801337458936  0.9556939873173818
  0.5153210590007333  0.3551775400468813  0.1175086972517079
  0.6054087734705504  0.4410035214244346  0.2952031938175423
  0.6897801911205832  0.0201670370140405  0.4615888742479228
  0.7712048566440828  0.1045986323114789  0.6265336424933565
  0.8532218953297530  0.1872565492142186  0.7912785425043012
  0.7268423772810522  0.0619713189722830  0.0387669509478243
  0.8245019642687268  0.1384274039705602  0.2078851067579492
  0.9001746886598880  0.2289481825557473  0.3750977651315566
  0.5010279229327352  0.1670477356967766  0.6685303858002385
  0.5822785002316948  0.2489038081160331  0.8315280868942523
  0.6638021991766436  0.3311125433432949  0.9934266435316843
  0.9561973902732603  0.1197411521776743  0.0780461028756463
  0.5615953175508182  0.1923113790546935  0.2307096250125653
  0.6611681868674140  0.2880184989157470  0.4370430797228977
  0.7107282870057645  0.3773236092836783  0.5888839497256342
  0.7918464204801765  0.4582085396638007  0.7506479862982900
  0.8731933907065681  0.0400919122618575  0.9142261137417904
  0.8349982440953596  0.0051306810084384  0.3383911263694515
  0.9252850987119601  0.0819620416132594  0.5050212466595738
  0.4810791339913152  0.8128396411284982  0.5441615784581941
  0.0624612755851714  0.8961993878842165  0.7086579395138415
  0.1440583412289129  0.9789642992031560  0.8733021616439487
  0.4353430408745780  0.7698636617516854  0.9557898679459313
  0.0170390885023721  0.8505602023507706  0.1204492253102245
  0.1038261143892143  0.9396848639894699  0.2949729386606066
  0.1870959992831871  0.5225794071946126  0.4619913103582718
  0.2710735709921863  0.6053436889941466  0.6267027150400537
  0.3531187112438090  0.6874592146653669  0.7913079065961384
  0.2259810151846793  0.5631059302982280  0.0378413817967029
  0.3191266197171245  0.6416364539946287  0.2066183644379649
  0.4002689039745491  0.7318398912054249  0.3779356124127133
  0.0007591840150454  0.6667709723407143  0.6677511883761440
  0.0820024894153661  0.7490570569269153  0.8312219261331890
  0.1626348535499105  0.8313617470344568  0.9937197512003024
  0.4560698181313825  0.6209365218611111  0.0781829999695631
  0.0433080559436902  0.7131154273082885  0.2515370795192808
  0.1229263598781785  0.7991214916303448  0.4211169612254437
  0.2112419432222836  0.8756901791959777  0.5856153475522419
  0.2915247958376952  0.9578520334530154  0.7500109982906906
  0.3733019495089636  0.5403210725438186  0.9141587939461076
  0.3051449609564258  0.5449566743948466  0.3378616186859986
  0.4187823616541735  0.5868494311596777  0.5038371804128587
  0.9799622149887810  0.8134916293891052  0.5441558879618071
  0.5623308716617572  0.8963574537807872  0.7089437918140362
  0.6445248440834490  0.9789394714954014  0.8732922757006065
  0.9353188184841272  0.7697113405636600  0.9556991648403752
  0.5172725789242492  0.8516590170377043  0.1205739840238707
  0.6026413478134245  0.9420241416745654  0.2962084952472210
  0.6891035860528092  0.5257950508738176  0.4616371251039126
  0.7712793775414397  0.6053683936405463  0.6267323990547382
  0.8532779093156719  0.6874713779076416  0.7911184085544321
  0.7268188090777485  0.5624601403345153  0.0384373121991430
  0.8200959114134321  0.6389202869114357  0.2088447155705353
  0.8971854473560938  0.7311763602612444  0.3767618291272257
  0.5003462096543458  0.6675777223025037  0.6682802276649156
  0.5821215594421005  0.7490741990396685  0.8314139635017170
  0.6634114324094753  0.8309524995464272  0.9936268001286379
  0.9567802319424743  0.6178406954626752  0.0777174487484373
  0.5481045956095372  0.7105309665406594  0.2518087400422147
  0.6278517666820775  0.7928196641826091  0.4195551223490170
  0.7107286095902126  0.8747049977930601  0.5858670532739367
  0.7917837322942489  0.9578132751914836  0.7498828250493830
  0.8733008551458923  0.5402207465547022  0.9140999620933954
  0.8336516988521865  0.5056809177031525  0.3382069307916709
  0.9176271610051216  0.5868876348851444  0.5032749068084286
  0.2416203307782823  0.4144728792828190  0.1665651195586548
  0.7440127253074067  0.4132140431402007  0.1668604800396523
  0.2429203150413954  0.9131803965424723  0.1662533962666686
  0.7464244803976925  0.9051517649195873  0.1672683402744255
  0.0574477272163065  0.3953407728788179  0.5125544715427921
  0.1415762807405727  0.4760231443151994  0.6769154654067933
  0.2231768796015743  0.0585845808339087  0.8414476278637508
  0.0135604896443979  0.3489466351658521  0.9224306942259943
  0.0897340526498596  0.4277817807526176  0.0824802327936709
  0.1798932748017776  0.0261081708502928  0.2701403631431560
  0.2747952328618339  0.1086699094868138  0.4280614760003871
  0.3503039389723952  0.1856375768972498  0.5956686177216568
  0.4324820144688530  0.2672743372510453  0.7592646836423143
  0.3040407276351047  0.1422437910250238  0.0056505459889280
  0.4081068782282813  0.2065978470423033  0.1758864944689833
  0.0796498261705807  0.2465472146057976  0.6353546465791027
  0.1624789761626744  0.3288021483370756  0.8006183103548707
  0.2449734509122763  0.4121965032576469  0.9660642786392302
  0.0353778130324898  0.2012418423444089  0.0491247856658106
  0.1258535819327733  0.2928666207893187  0.2176442974733135
  0.2020398569941975  0.3738405087093710  0.3881895412431788
  0.2884854813964850  0.4551252409661117  0.5527981264583914
  0.3713346711357346  0.0372820300341985  0.7182396630679406
  0.4535549518260495  0.1197975841256849  0.8833993573738823
  0.3304362893086008  0.0007665244104942  0.1322650784829662
  0.4108292823357189  0.0786267640600471  0.3032167164153137
  0.4988688035385636  0.1625931826247609  0.4712033291793816
  0.5578729709587122  0.3944464671436734  0.5128552144770708
  0.6408731878076992  0.4769269231458111  0.6780185405402790
  0.7236654489734491  0.0585394718919972  0.8415941835008027
  0.5137548245624259  0.3489219791996803  0.9228108405985438
  0.5893135602484350  0.4305075655473374  0.0822647282206788
  0.6781557852455862  0.0322254647660003  0.2722695648958080
  0.7730475150250129  0.0993453508909710  0.4319583570325491
  0.8506342232625812  0.1854661672155373  0.5940299977949266
  0.9321669285331708  0.2670223884740750  0.7589168774286605
  0.8042337669165818  0.1425795681039830  0.0068715836966007
  0.9120555005882878  0.2064315812756874  0.1767732087894203
  0.9741781885295993  0.3133726228191591  0.3441723529039677
  0.5802381132370655  0.2465141357331930  0.6354672654066391
  0.6625172589220583  0.3288271751799101  0.8009055179320441
  0.7452342275604025  0.4122411645666730  0.9661231460229942
  0.5347428950450208  0.2018224087125375  0.0496571956594352
  0.6263746598856130  0.2939905716747688  0.2162056588410124
  0.7055543403229194  0.3709698126385987  0.3870964399987571
  0.7874183617053063  0.4546977624991086  0.5525535092734373
  0.8715055225701889  0.0375650753870573  0.7179551066515231
  0.9532854285283534  0.1199156570632312  0.8835165411617680
  0.8286233931186686  0.9991988468533606  0.1335930063472901
  0.9126148686032565  0.0811554422797798  0.3035685881362014
  0.9992851242882352  0.1646606337275287  0.4685571208849169
  0.0609768443507832  0.8932181421950744  0.5127666596850204
  0.1420659016305308  0.9760643863673764  0.6764006062945285
  0.2235545992879295  0.5587457758778172  0.8417038230404188
  0.0134613877652257  0.8488359748090346  0.9225757714954526
  0.0876210524473464  0.9290031526419611  0.0828452500667254
  0.1808085887227691  0.5257379747876243  0.2714130850766452
  0.2671916832997709  0.6051751979642717  0.4325848464808573
  0.3514914815115517  0.6849192647797864  0.5945892911828778
  0.4322271850251767  0.7672232446910741  0.7591987212644895
  0.3045359695504857  0.6430268021249006  0.0066833481347146
  0.4122636066351575  0.7064953274465964  0.1774396269116636
  0.4787009754805993  0.8095587144528906  0.3447760630488688
  0.0803640114758366  0.7461961842512110  0.6353605805369185
  0.1623333676646084  0.8290253587439906  0.8005618577111875
  0.2446711347770503  0.9121170419858089  0.9661936302547147
  0.0347961635879415  0.7011517983308124  0.0492467219494230
  0.1264167929641644  0.7905096605056983  0.2176619747925130
  0.2080518228408081  0.8721073702696813  0.3872609160178015
  0.2897319018091835  0.9565294034100802  0.5518212967073666
  0.3710282406406193  0.5376240614260439  0.7181247567773923
  0.4534809108398790  0.6199763456192215  0.8835258041807563
  0.3299892504154585  0.5003604120846674  0.1321188032521476
  0.4140698608411952  0.5792365731014826  0.3041826433253831
  0.4979317630155791  0.6637191978871115  0.4695069500261297
  0.5614087482701962  0.8910753730183387  0.5117567208528442
  0.6416187420881343  0.9760485737950617  0.6767103949102378
  0.7234487370293934  0.5588849088234227  0.8418876086055676
  0.5136510545710351  0.8490373053202305  0.9227560964105948
  0.5897682463545166  0.9294140615745974  0.0832312289632071
  0.6819385258476274  0.5262925922436850  0.2711084032145052
  0.7692274973780684  0.6030619570942761  0.4304714619718553
  0.8510802890505644  0.6844682242397013  0.5946498106239915
  0.9324157128169119  0.7669580956341235  0.7588547408067043
  0.8045825029620701  0.6426896119213126  0.0065874279486522
  0.9142682235919395  0.7017891126186484  0.1770023630083486
  0.9765006865650889  0.8133497385782889  0.3448899732977964
  0.5802275699711714  0.7460938039671987  0.6355487719142587
  0.6624977609225340  0.8288738924455146  0.8007175236599267
  0.7447665180709038  0.9123879931041898  0.9663212386623812
  0.5353281674128283  0.7022374611447475  0.0493391091196429
  0.6271703284712444  0.7938402306073016  0.2174928663648927
  0.7059650217893960  0.8732226515062820  0.3871311407998803
  0.7890991037491091  0.9548487550916462  0.5530511319373730
  0.8710815514150099  0.5372914831694828  0.7180737762148581
  0.9533720486871360  0.6199310437986654  0.8833755268704166
  0.8308164158529010  0.4998870088230518  0.1322863808675550
  0.9127384803618241  0.5817233675552558  0.3041867680137926
  0.9970171505737611  0.6652494021229884  0.4693697409769868
 
  0.00000000E+00  0.00000000E+00  0.00000000E+00
  0.00000000E+00  0.00000000E+00  0.00000000E+00
  0.00000000E+00  0.00000000E+00  0.00000000E+00
  0.00000000E+00  0.00000000E+00  0.00000000E+00
  0.00000000E+00  0.00000000E+00  0.00000000E+00
  0.00000000E+00  0.00000000E+00  0.00000000E+00
  0.00000000E+00  0.00000000E+00  0.00000000E+00
  0.00000000E+00  0.00000000E+00  0.00000000E+00
  0.00000000E+00  0.00000000E+00  0.00000000E+00
  0.00000000E+00  0.00000000E+00  0.00000000E+00
  0.00000000E+00  0.00000000E+00  0.00000000E+00
  0.00000000E+00  0.00000000E+00  0.00000000E+00
  0.00000000E+00  0.00000000E+00  0.00000000E+00
  0.00000000E+00  0.00000000E+00  0.00000000E+00
  0.00000000E+00  0.00000000E+00  0.00000000E+00
  0.00000000E+00  0.00000000E+00  0.00000000E+00
  0.00000000E+00  0.00000000E+00  0.00000000E+00
  0.00000000E+00  0.00000000E+00  0.00000000E+00
  0.00000000E+00  0.00000000E+00  0.00000000E+00
  0.00000000E+00  0.00000000E+00  0.00000000E+00
  0.00000000E+00  0.00000000E+00  0.00000000E+00
  0.00000000E+00  0.00000000E+00  0.00000000E+00
  0.00000000E+00  0.00000000E+00  0.00000000E+00
  0.00000000E+00  0.00000000E+00  0.00000000E+00
  0.00000000E+00  0.00000000E+00  0.00000000E+00
  0.00000000E+00  0.00000000E+00  0.00000000E+00
  0.00000000E+00  0.00000000E+00  0.00000000E+00
  0.00000000E+00  0.00000000E+00  0.00000000E+00
  0.00000000E+00  0.00000000E+00  0.00000000E+00
  0.00000000E+00  0.00000000E+00  0.00000000E+00
  0.00000000E+00  0.00000000E+00  0.00000000E+00
  0.00000000E+00  0.00000000E+00  0.00000000E+00
  0.00000000E+00  0.00000000E+00  0.00000000E+00
  0.00000000E+00  0.00000000E+00  0.00000000E+00
  0.00000000E+00  0.00000000E+00  0.00000000E+00
  0.00000000E+00  0.00000000E+00  0.00000000E+00
  0.00000000E+00  0.00000000E+00  0.00000000E+00
  0.00000000E+00  0.00000000E+00  0.00000000E+00
  0.00000000E+00  0.00000000E+00  0.00000000E+00
  0.00000000E+00  0.00000000E+00  0.00000000E+00
  0.00000000E+00  0.00000000E+00  0.00000000E+00
  0.00000000E+00  0.00000000E+00  0.00000000E+00
  0.00000000E+00  0.00000000E+00  0.00000000E+00
  0.00000000E+00  0.00000000E+00  0.00000000E+00
  0.00000000E+00  0.00000000E+00  0.00000000E+00
  0.00000000E+00  0.00000000E+00  0.00000000E+00
  0.00000000E+00  0.00000000E+00  0.00000000E+00
  0.00000000E+00  0.00000000E+00  0.00000000E+00
  0.00000000E+00  0.00000000E+00  0.00000000E+00
  0.00000000E+00  0.00000000E+00  0.00000000E+00
  0.00000000E+00  0.00000000E+00  0.00000000E+00
  0.00000000E+00  0.00000000E+00  0.00000000E+00
  0.00000000E+00  0.00000000E+00  0.00000000E+00
  0.00000000E+00  0.00000000E+00  0.00000000E+00
  0.00000000E+00  0.00000000E+00  0.00000000E+00
  0.00000000E+00  0.00000000E+00  0.00000000E+00
  0.00000000E+00  0.00000000E+00  0.00000000E+00
  0.00000000E+00  0.00000000E+00  0.00000000E+00
  0.00000000E+00  0.00000000E+00  0.00000000E+00
  0.00000000E+00  0.00000000E+00  0.00000000E+00
  0.00000000E+00  0.00000000E+00  0.00000000E+00
  0.00000000E+00  0.00000000E+00  0.00000000E+00
  0.00000000E+00  0.00000000E+00  0.00000000E+00
  0.00000000E+00  0.00000000E+00  0.00000000E+00
  0.00000000E+00  0.00000000E+00  0.00000000E+00
  0.00000000E+00  0.00000000E+00  0.00000000E+00
  0.00000000E+00  0.00000000E+00  0.00000000E+00
  0.00000000E+00  0.00000000E+00  0.00000000E+00
  0.00000000E+00  0.00000000E+00  0.00000000E+00
  0.00000000E+00  0.00000000E+00  0.00000000E+00
  0.00000000E+00  0.00000000E+00  0.00000000E+00
  0.00000000E+00  0.00000000E+00  0.00000000E+00
  0.00000000E+00  0.00000000E+00  0.00000000E+00
  0.00000000E+00  0.00000000E+00  0.00000000E+00
  0.00000000E+00  0.00000000E+00  0.00000000E+00
  0.00000000E+00  0.00000000E+00  0.00000000E+00
  0.00000000E+00  0.00000000E+00  0.00000000E+00
  0.00000000E+00  0.00000000E+00  0.00000000E+00
  0.00000000E+00  0.00000000E+00  0.00000000E+00
  0.00000000E+00  0.00000000E+00  0.00000000E+00
  0.00000000E+00  0.00000000E+00  0.00000000E+00
  0.00000000E+00  0.00000000E+00  0.00000000E+00
  0.00000000E+00  0.00000000E+00  0.00000000E+00
  0.00000000E+00  0.00000000E+00  0.00000000E+00
  0.00000000E+00  0.00000000E+00  0.00000000E+00
  0.00000000E+00  0.00000000E+00  0.00000000E+00
  0.00000000E+00  0.00000000E+00  0.00000000E+00
  0.00000000E+00  0.00000000E+00  0.00000000E+00
  0.00000000E+00  0.00000000E+00  0.00000000E+00
  0.00000000E+00  0.00000000E+00  0.00000000E+00
  0.00000000E+00  0.00000000E+00  0.00000000E+00
  0.00000000E+00  0.00000000E+00  0.00000000E+00
  0.00000000E+00  0.00000000E+00  0.00000000E+00
  0.00000000E+00  0.00000000E+00  0.00000000E+00
  0.00000000E+00  0.00000000E+00  0.00000000E+00
  0.00000000E+00  0.00000000E+00  0.00000000E+00
  0.00000000E+00  0.00000000E+00  0.00000000E+00
  0.00000000E+00  0.00000000E+00  0.00000000E+00
  0.00000000E+00  0.00000000E+00  0.00000000E+00
  0.00000000E+00  0.00000000E+00  0.00000000E+00
  0.00000000E+00  0.00000000E+00  0.00000000E+00
  0.00000000E+00  0.00000000E+00  0.00000000E+00
  0.00000000E+00  0.00000000E+00  0.00000000E+00
  0.00000000E+00  0.00000000E+00  0.00000000E+00
  0.00000000E+00  0.00000000E+00  0.00000000E+00
  0.00000000E+00  0.00000000E+00  0.00000000E+00
  0.00000000E+00  0.00000000E+00  0.00000000E+00
  0.00000000E+00  0.00000000E+00  0.00000000E+00
  0.00000000E+00  0.00000000E+00  0.00000000E+00
  0.00000000E+00  0.00000000E+00  0.00000000E+00
  0.00000000E+00  0.00000000E+00  0.00000000E+00
  0.00000000E+00  0.00000000E+00  0.00000000E+00
  0.00000000E+00  0.00000000E+00  0.00000000E+00
  0.00000000E+00  0.00000000E+00  0.00000000E+00
  0.00000000E+00  0.00000000E+00  0.00000000E+00
  0.00000000E+00  0.00000000E+00  0.00000000E+00
  0.00000000E+00  0.00000000E+00  0.00000000E+00
  0.00000000E+00  0.00000000E+00  0.00000000E+00
  0.00000000E+00  0.00000000E+00  0.00000000E+00
  0.00000000E+00  0.00000000E+00  0.00000000E+00
  0.00000000E+00  0.00000000E+00  0.00000000E+00
  0.00000000E+00  0.00000000E+00  0.00000000E+00
  0.00000000E+00  0.00000000E+00  0.00000000E+00
  0.00000000E+00  0.00000000E+00  0.00000000E+00
  0.00000000E+00  0.00000000E+00  0.00000000E+00
  0.00000000E+00  0.00000000E+00  0.00000000E+00
  0.00000000E+00  0.00000000E+00  0.00000000E+00
  0.00000000E+00  0.00000000E+00  0.00000000E+00
  0.00000000E+00  0.00000000E+00  0.00000000E+00
  0.00000000E+00  0.00000000E+00  0.00000000E+00
  0.00000000E+00  0.00000000E+00  0.00000000E+00
  0.00000000E+00  0.00000000E+00  0.00000000E+00
  0.00000000E+00  0.00000000E+00  0.00000000E+00
  0.00000000E+00  0.00000000E+00  0.00000000E+00
  0.00000000E+00  0.00000000E+00  0.00000000E+00
  0.00000000E+00  0.00000000E+00  0.00000000E+00
  0.00000000E+00  0.00000000E+00  0.00000000E+00
  0.00000000E+00  0.00000000E+00  0.00000000E+00
  0.00000000E+00  0.00000000E+00  0.00000000E+00
  0.00000000E+00  0.00000000E+00  0.00000000E+00
  0.00000000E+00  0.00000000E+00  0.00000000E+00
  0.00000000E+00  0.00000000E+00  0.00000000E+00
  0.00000000E+00  0.00000000E+00  0.00000000E+00
  0.00000000E+00  0.00000000E+00  0.00000000E+00
  0.00000000E+00  0.00000000E+00  0.00000000E+00
  0.00000000E+00  0.00000000E+00  0.00000000E+00
  0.00000000E+00  0.00000000E+00  0.00000000E+00
  0.00000000E+00  0.00000000E+00  0.00000000E+00
  0.00000000E+00  0.00000000E+00  0.00000000E+00
  0.00000000E+00  0.00000000E+00  0.00000000E+00
  0.00000000E+00  0.00000000E+00  0.00000000E+00
  0.00000000E+00  0.00000000E+00  0.00000000E+00
  0.00000000E+00  0.00000000E+00  0.00000000E+00
  0.00000000E+00  0.00000000E+00  0.00000000E+00
  0.00000000E+00  0.00000000E+00  0.00000000E+00
  0.00000000E+00  0.00000000E+00  0.00000000E+00
  0.00000000E+00  0.00000000E+00  0.00000000E+00
  0.00000000E+00  0.00000000E+00  0.00000000E+00
  0.00000000E+00  0.00000000E+00  0.00000000E+00
  0.00000000E+00  0.00000000E+00  0.00000000E+00
  0.00000000E+00  0.00000000E+00  0.00000000E+00
  0.00000000E+00  0.00000000E+00  0.00000000E+00
  0.00000000E+00  0.00000000E+00  0.00000000E+00
  0.00000000E+00  0.00000000E+00  0.00000000E+00
  0.00000000E+00  0.00000000E+00  0.00000000E+00
  0.00000000E+00  0.00000000E+00  0.00000000E+00
  0.00000000E+00  0.00000000E+00  0.00000000E+00
  0.00000000E+00  0.00000000E+00  0.00000000E+00
  0.00000000E+00  0.00000000E+00  0.00000000E+00
  0.00000000E+00  0.00000000E+00  0.00000000E+00
  0.00000000E+00  0.00000000E+00  0.00000000E+00
  0.00000000E+00  0.00000000E+00  0.00000000E+00
  0.00000000E+00  0.00000000E+00  0.00000000E+00
  0.00000000E+00  0.00000000E+00  0.00000000E+00
  0.00000000E+00  0.00000000E+00  0.00000000E+00
  0.00000000E+00  0.00000000E+00  0.00000000E+00
  0.00000000E+00  0.00000000E+00  0.00000000E+00
  0.00000000E+00  0.00000000E+00  0.00000000E+00
  0.00000000E+00  0.00000000E+00  0.00000000E+00
  0.00000000E+00  0.00000000E+00  0.00000000E+00
  0.00000000E+00  0.00000000E+00  0.00000000E+00
  0.00000000E+00  0.00000000E+00  0.00000000E+00
  0.00000000E+00  0.00000000E+00  0.00000000E+00
  0.00000000E+00  0.00000000E+00  0.00000000E+00
  0.00000000E+00  0.00000000E+00  0.00000000E+00
  0.00000000E+00  0.00000000E+00  0.00000000E+00
  0.00000000E+00  0.00000000E+00  0.00000000E+00
  0.00000000E+00  0.00000000E+00  0.00000000E+00
  0.00000000E+00  0.00000000E+00  0.00000000E+00
  0.00000000E+00  0.00000000E+00  0.00000000E+00
  0.00000000E+00  0.00000000E+00  0.00000000E+00
