supercell of POSCAR                     
   1.00398800000000     
    -6.2729611433599999    0.0082005604289200   10.0015927484000002
     3.1280384584799998    5.4363994576400003   10.0007801159999996
    -7.8567367181199996   13.6110857897000006  -10.0002683574999995
   Al   Sc   N 
    92     4    95
Direct
  0.4785348064359809  0.3148104052698955  0.5441589476208151
  0.0613284456876571  0.3968334708555687  0.7080787577498953
  0.1432836729681242  0.4794983582128154  0.8725438127366445
  0.4329833983126221  0.2731620931849577  0.9534629326279500
  0.0165488406592402  0.3517776023547512  0.1207341744828767
  0.1035495931622279  0.4438124729762052  0.2971510481951540
  0.1877117931942465  0.0241475072130797  0.4620199279678516
  0.2704175975125480  0.1056541249995604  0.6259681467000178
  0.3521935495804414  0.1878234324427837  0.7901419256869033
  0.2243953816827471  0.0608003747232857  0.0391556110681890
  0.2859186811980052  0.1145971095858656  0.2220464697397802
  0.3956922996602330  0.2321622043897733  0.3783829661386804
  0.9994798311134687  0.1674508211803172  0.6668228177905320
  0.0805610112502464  0.2496083396309672  0.8303781751255102
  0.1617669104097672  0.3327422994984701  0.9935171271041270
  0.4689339971913640  0.0958245946303862  0.0535430204215857
  0.0348765262990796  0.2190389358478342  0.2542231315195096
  0.1260336341183788  0.2946903867569262  0.4205639371810008
  0.2084590188278028  0.3764558104538693  0.5849954488647029
  0.2907896661898164  0.4581861738953918  0.7492199759748885
  0.3703438759660074  0.0371817183785765  0.9090363690830543
  0.3390870795629084  0.0012825222157815  0.3440461316317069
  0.4186028651345310  0.0860954656602857  0.5038635581252535
  0.9790431946271241  0.3151539313586156  0.5435871457858994
  0.5613866788943440  0.3968580643231974  0.7082939032506417
  0.6437083364109242  0.4792056060187377  0.8728816684602236
  0.9348101584501691  0.2696299579364378  0.9552913316223908
  0.5180286687284834  0.3516265070261397  0.1211025697536598
  0.6045323532831404  0.4483163378554238  0.2979119207108383
  0.6885847316028659  0.0225717380724149  0.4610108662686656
  0.7703698316489991  0.1054203153052669  0.6258983247813319
  0.8525012822210201  0.1876208216236392  0.7903472292584865
  0.7314765847905278  0.0604950765132628  0.0384266115636223
  0.8227265973427222  0.1397514817408023  0.2076988343841677
  0.8965340885945849  0.2328716714812273  0.3781484103330541
  0.4999657753623552  0.1672179631892163  0.6672346729746721
  0.5819771299677754  0.2489898395682104  0.8303508796724799
  0.6633434093224650  0.3312106778749495  0.9931442880733101
  0.9551439907500665  0.1211636748336318  0.0782046525674502
  0.5833114160302273  0.2131937415187011  0.2729088339622621
  0.6283378197462497  0.2953390367776905  0.4243506244019386
  0.7089782011828589  0.3767101070660459  0.5857807991814781
  0.7906135625721262  0.4584791708669300  0.7492424194315959
  0.8729657021675266  0.0398764823191229  0.9131767170155456
  0.8417808365362802  0.0003293977850731  0.3399624088796287
  0.9183955691083767  0.0857822246272804  0.5031133491038844
  0.4793543093146226  0.8147815739421844  0.5433901994660104
  0.0610927289321452  0.8965295717449848  0.7078508682470499
  0.1427703060027667  0.9782965535443324  0.8725173484590698
  0.4350959849769538  0.7690838671736202  0.9557893368920674
  0.0165110647782001  0.8505654880787574  0.1197003556385354
  0.1071187998446845  0.9434832163848128  0.2951557396297559
  0.1879967097906530  0.5239279825342180  0.4613772103297435
  0.2702868937646628  0.6056223002087009  0.6259641238824400
  0.3524276793302761  0.6874187381268868  0.7905096360249431
  0.2270736320280022  0.5600262856167575  0.0396873547579730
  0.3222819204955911  0.6350326960424582  0.2093126740468279
  0.3978739989690894  0.7317058509755370  0.3775511532520639
  0.9997020205892682  0.6673599084158468  0.6667418496979494
  0.0811709494069319  0.7486915887378771  0.8302290063311446
  0.1621391444692293  0.8299113088550456  0.9927918014997772
  0.4579731522793367  0.6173457353469161  0.0778125828673240
  0.0489944345445679  0.7110039921119764  0.2517141797319269
  0.1276220259182352  0.7942561712505025  0.4193326822651358
  0.2084702326915888  0.8760508279311239  0.5845130507265210
  0.2900414073238764  0.9574168023408163  0.7479112403459922
  0.3722392204288951  0.5408910013084309  0.9138762475609639
  0.3339411876203044  0.5069872479194473  0.3392661501359129
  0.4172428689435463  0.5867978192060761  0.5031347329812803
  0.9794635813809336  0.8145885030785962  0.5429510899044843
  0.5615757149321539  0.8966023585677050  0.7080098614884349
  0.6442611683254000  0.9786341643891703  0.8727243477666917
  0.9362183061965581  0.7683842959155669  0.9554697356236943
  0.5167106552359471  0.8499448511897327  0.1223178035334627
  0.6041246562018756  0.9409664278742440  0.2965060335585719
  0.6882796007556991  0.5239879662108535  0.4616986252834820
  0.7705027485110350  0.6057478120023703  0.6259008026977142
  0.8526291591008572  0.6875622351964452  0.7902980795312260
  0.7275384171761630  0.5619877981458217  0.0384992538978892
  0.8201807509419297  0.6421439712020955  0.2095590870838180
  0.8980953735897188  0.7317297440180539  0.3770727124781459
  0.4995849376203125  0.6674317670083738  0.6668891269895099
  0.5818041585686160  0.7484602853934277  0.8302526623123185
  0.6677460829322541  0.8244500925444527  0.9925092230173860
  0.9582933622611804  0.6187070007792954  0.0800590000439527
  0.5474388782911745  0.7112779775668869  0.2532578519794129
  0.6281135841836658  0.7929548387445777  0.4203353012568272
  0.7090111149041789  0.8761304526666649  0.5847394799281673
  0.7907619336747445  0.9580032042704758  0.7490190130487662
  0.8735764224121780  0.5393437287210716  0.9133447567597841
  0.8352850519894801  0.5065713645919985  0.3399283298190952
  0.9182229464117171  0.5861125590801421  0.5030330427711647
  0.2497813678128580  0.3974928686682233  0.1700374796078066
  0.7414591141442415  0.4175142729710615  0.1671092402417926
  0.2426293957493542  0.8988852846969166  0.1648549331224984
  0.7443377967723208  0.9127102236330629  0.1676818284793598
  0.0585735064086634  0.3948557609435142  0.5116679270422964
  0.1409326463069505  0.4766075270476904  0.6768034105258778
  0.2207091564551504  0.0582965732596037  0.8400315012043720
  0.0137687098378976  0.3487227762681258  0.9230277618109000
  0.0949298654408679  0.4271945487131603  0.0856829357278812
  0.1906353810495958  0.0348148944446223  0.2663908756053104
  0.2676689740945832  0.1049841833978391  0.4318873757292039
  0.3501602111515822  0.1858244937155646  0.5947862527519874
  0.4319133362858594  0.2671513680816773  0.7591611191775982
  0.3003321261572722  0.1413769389789152  0.0044732520692108
  0.4742944999674776  0.3149640168008574  0.3469494248908092
  0.0794625262972559  0.2469010620060601  0.6352678967711611
  0.1618377786111083  0.3290553075679270  0.8007384504542188
  0.2443689497230892  0.4118815451269384  0.9661775477737962
  0.0347406791798690  0.2025564751120470  0.0493409605162327
  0.1253092044987838  0.2951114444854639  0.2173992496198025
  0.2057620841835970  0.3731800135220809  0.3872231405381470
  0.2879067571129994  0.4558810431119227  0.5527703037689449
  0.3705831327517757  0.0377248130144210  0.7181805381203219
  0.4525363519358123  0.1198109290462739  0.8842239632159732
  0.3285166639902499  0.9988845299521998  0.1336411112882558
  0.4141883140880864  0.0815378106468145  0.3056271634099375
  0.4974467027123453  0.1651902848404063  0.4696282811197534
  0.5577123689227292  0.3958261942550791  0.5130316588300943
  0.6406896477765400  0.4769474703357375  0.6770707285532183
  0.7227735103529653  0.0586999898814042  0.8416070862093790
  0.5135500738133558  0.3491557082057639  0.9224135011348693
  0.5889057309801444  0.4265814341219709  0.0823889059319001
  0.6826221980941938  0.0271879742260381  0.2708939456130040
  0.7686263703604794  0.1035543923424953  0.4295543661026286
  0.8496718448404437  0.1855960282342934  0.5941915996976306
  0.9314191143220896  0.2676327367819695  0.7587581827830761
  0.8041227474009602  0.1430695435871314  0.0060583044285991
  0.9087851196787682  0.2095981722257605  0.1764195718145345
  0.9748981674973081  0.3144119443761042  0.3461732872999335
  0.5795502058541331  0.2468401371320041  0.6355825188455100
  0.6619350674481908  0.3293547197250675  0.8007217172346586
  0.7445588595608328  0.4125532670798862  0.9662635346905688
  0.5343384577008550  0.2010602756177278  0.0500216800916959
  0.6258317111428937  0.2934988071511953  0.2181100069289243
  0.7047680416082613  0.3720473151853056  0.3873016417408266
  0.7879912898700852  0.4555948207912195  0.5529200895817183
  0.8704602504987236  0.0379279820857477  0.7180173306440878
  0.9527567449026293  0.1202049939621759  0.8833222127335887
  0.8302101728987878  0.0005002636844864  0.1323714481567109
  0.9150173242225819  0.0823748443466670  0.3029538135410021
  0.9965572065770019  0.1654490694182300  0.4695504615546895
  0.0590071455970431  0.8945198830820971  0.5104991330501463
  0.1401345024186824  0.9764506037487592  0.6760266447164014
  0.2232050998554911  0.5586413969206916  0.8417692570757040
  0.0127441713509739  0.8484704446076918  0.9220552811233773
  0.0854671544567722  0.9301256263992173  0.0810307663869239
  0.1851336244544513  0.5238934619444890  0.2679352397932178
  0.2679496519618851  0.6043971713434644  0.4301506056995379
  0.3497159407229944  0.6857432815439068  0.5944080733894950
  0.4316332603015027  0.7673927589545499  0.7589296917435320
  0.3043796511529706  0.6414471511050408  0.0077292212100559
  0.4166589429562961  0.6981540010266158  0.1768881024853002
  0.4778397984618579  0.8114398148740065  0.3451610355783146
  0.0793162277639752  0.7469841290720396  0.6348862003243383
  0.1616246509720014  0.8287572008150619  0.8003281956448376
  0.2444260934422573  0.9115945629797650  0.9661675340253808
  0.0358496294893840  0.7000250441598084  0.0492927303729758
  0.1300642655724360  0.7949594154986883  0.2158898184739186
  0.2066395213405059  0.8753364697837895  0.3859348769958686
  0.2883481834322126  0.9555318300153743  0.5529166720241108
  0.3705741934894107  0.5378104013096348  0.7180717728801511
  0.4527431277673699  0.6203020283229037  0.8836109595975827
  0.3301225556850653  0.4910482921017731  0.1344145117608235
  0.4132144954388082  0.5817981039841698  0.3044857981650111
  0.4968337123579190  0.6650402392927148  0.4694717174346152
  0.5588173835721406  0.8946555580832083  0.5112659277414906
  0.6409513769862727  0.9764055992221259  0.6765562181685070
  0.7231681156020073  0.5588863168606650  0.8418523570635799
  0.5137400099253711  0.8490535695170038  0.9230704996889969
  0.5890666428845677  0.9263456153410985  0.0830729735049829
  0.6845326010671613  0.5275481604190162  0.2712771468375834
  0.7685710545006827  0.6035891808185738  0.4310103553294056
  0.8500736674572380  0.6855715144589567  0.5943079172064927
  0.9316246505131005  0.7672124366917785  0.7585830162385818
  0.8080315046425000  0.6395869201344055  0.0070516057352066
  0.9123293428269506  0.7079422548973326  0.1774331022252369
  0.9796047823563114  0.8105348428642927  0.3438269480083846
  0.5794338349183548  0.7469328696604123  0.6352248145475485
  0.6616959952604375  0.8293036159768405  0.8007402675580479
  0.7440337612319681  0.9122218867818788  0.9668392615909056
  0.5355619009252024  0.7013277466436918  0.0494788622735101
  0.6258486571751050  0.7942054642907195  0.2173863682827530
  0.7068464526517033  0.8725206982315044  0.3869914758717243
  0.7885205802552164  0.9557700951800996  0.5525402057496223
  0.8704979881316746  0.5379110402397345  0.7180201975570668
  0.9527354993801964  0.6200146913837230  0.8832399766895023
  0.8314492343718456  0.5017038371717746  0.1324348956475276
  0.9134590434157275  0.5823981416127211  0.3038975202124519
  0.9970245005632066  0.6652275390049454  0.4691332135030635
 
  0.00000000E+00  0.00000000E+00  0.00000000E+00
  0.00000000E+00  0.00000000E+00  0.00000000E+00
  0.00000000E+00  0.00000000E+00  0.00000000E+00
  0.00000000E+00  0.00000000E+00  0.00000000E+00
  0.00000000E+00  0.00000000E+00  0.00000000E+00
  0.00000000E+00  0.00000000E+00  0.00000000E+00
  0.00000000E+00  0.00000000E+00  0.00000000E+00
  0.00000000E+00  0.00000000E+00  0.00000000E+00
  0.00000000E+00  0.00000000E+00  0.00000000E+00
  0.00000000E+00  0.00000000E+00  0.00000000E+00
  0.00000000E+00  0.00000000E+00  0.00000000E+00
  0.00000000E+00  0.00000000E+00  0.00000000E+00
  0.00000000E+00  0.00000000E+00  0.00000000E+00
  0.00000000E+00  0.00000000E+00  0.00000000E+00
  0.00000000E+00  0.00000000E+00  0.00000000E+00
  0.00000000E+00  0.00000000E+00  0.00000000E+00
  0.00000000E+00  0.00000000E+00  0.00000000E+00
  0.00000000E+00  0.00000000E+00  0.00000000E+00
  0.00000000E+00  0.00000000E+00  0.00000000E+00
  0.00000000E+00  0.00000000E+00  0.00000000E+00
  0.00000000E+00  0.00000000E+00  0.00000000E+00
  0.00000000E+00  0.00000000E+00  0.00000000E+00
  0.00000000E+00  0.00000000E+00  0.00000000E+00
  0.00000000E+00  0.00000000E+00  0.00000000E+00
  0.00000000E+00  0.00000000E+00  0.00000000E+00
  0.00000000E+00  0.00000000E+00  0.00000000E+00
  0.00000000E+00  0.00000000E+00  0.00000000E+00
  0.00000000E+00  0.00000000E+00  0.00000000E+00
  0.00000000E+00  0.00000000E+00  0.00000000E+00
  0.00000000E+00  0.00000000E+00  0.00000000E+00
  0.00000000E+00  0.00000000E+00  0.00000000E+00
  0.00000000E+00  0.00000000E+00  0.00000000E+00
  0.00000000E+00  0.00000000E+00  0.00000000E+00
  0.00000000E+00  0.00000000E+00  0.00000000E+00
  0.00000000E+00  0.00000000E+00  0.00000000E+00
  0.00000000E+00  0.00000000E+00  0.00000000E+00
  0.00000000E+00  0.00000000E+00  0.00000000E+00
  0.00000000E+00  0.00000000E+00  0.00000000E+00
  0.00000000E+00  0.00000000E+00  0.00000000E+00
  0.00000000E+00  0.00000000E+00  0.00000000E+00
  0.00000000E+00  0.00000000E+00  0.00000000E+00
  0.00000000E+00  0.00000000E+00  0.00000000E+00
  0.00000000E+00  0.00000000E+00  0.00000000E+00
  0.00000000E+00  0.00000000E+00  0.00000000E+00
  0.00000000E+00  0.00000000E+00  0.00000000E+00
  0.00000000E+00  0.00000000E+00  0.00000000E+00
  0.00000000E+00  0.00000000E+00  0.00000000E+00
  0.00000000E+00  0.00000000E+00  0.00000000E+00
  0.00000000E+00  0.00000000E+00  0.00000000E+00
  0.00000000E+00  0.00000000E+00  0.00000000E+00
  0.00000000E+00  0.00000000E+00  0.00000000E+00
  0.00000000E+00  0.00000000E+00  0.00000000E+00
  0.00000000E+00  0.00000000E+00  0.00000000E+00
  0.00000000E+00  0.00000000E+00  0.00000000E+00
  0.00000000E+00  0.00000000E+00  0.00000000E+00
  0.00000000E+00  0.00000000E+00  0.00000000E+00
  0.00000000E+00  0.00000000E+00  0.00000000E+00
  0.00000000E+00  0.00000000E+00  0.00000000E+00
  0.00000000E+00  0.00000000E+00  0.00000000E+00
  0.00000000E+00  0.00000000E+00  0.00000000E+00
  0.00000000E+00  0.00000000E+00  0.00000000E+00
  0.00000000E+00  0.00000000E+00  0.00000000E+00
  0.00000000E+00  0.00000000E+00  0.00000000E+00
  0.00000000E+00  0.00000000E+00  0.00000000E+00
  0.00000000E+00  0.00000000E+00  0.00000000E+00
  0.00000000E+00  0.00000000E+00  0.00000000E+00
  0.00000000E+00  0.00000000E+00  0.00000000E+00
  0.00000000E+00  0.00000000E+00  0.00000000E+00
  0.00000000E+00  0.00000000E+00  0.00000000E+00
  0.00000000E+00  0.00000000E+00  0.00000000E+00
  0.00000000E+00  0.00000000E+00  0.00000000E+00
  0.00000000E+00  0.00000000E+00  0.00000000E+00
  0.00000000E+00  0.00000000E+00  0.00000000E+00
  0.00000000E+00  0.00000000E+00  0.00000000E+00
  0.00000000E+00  0.00000000E+00  0.00000000E+00
  0.00000000E+00  0.00000000E+00  0.00000000E+00
  0.00000000E+00  0.00000000E+00  0.00000000E+00
  0.00000000E+00  0.00000000E+00  0.00000000E+00
  0.00000000E+00  0.00000000E+00  0.00000000E+00
  0.00000000E+00  0.00000000E+00  0.00000000E+00
  0.00000000E+00  0.00000000E+00  0.00000000E+00
  0.00000000E+00  0.00000000E+00  0.00000000E+00
  0.00000000E+00  0.00000000E+00  0.00000000E+00
  0.00000000E+00  0.00000000E+00  0.00000000E+00
  0.00000000E+00  0.00000000E+00  0.00000000E+00
  0.00000000E+00  0.00000000E+00  0.00000000E+00
  0.00000000E+00  0.00000000E+00  0.00000000E+00
  0.00000000E+00  0.00000000E+00  0.00000000E+00
  0.00000000E+00  0.00000000E+00  0.00000000E+00
  0.00000000E+00  0.00000000E+00  0.00000000E+00
  0.00000000E+00  0.00000000E+00  0.00000000E+00
  0.00000000E+00  0.00000000E+00  0.00000000E+00
  0.00000000E+00  0.00000000E+00  0.00000000E+00
  0.00000000E+00  0.00000000E+00  0.00000000E+00
  0.00000000E+00  0.00000000E+00  0.00000000E+00
  0.00000000E+00  0.00000000E+00  0.00000000E+00
  0.00000000E+00  0.00000000E+00  0.00000000E+00
  0.00000000E+00  0.00000000E+00  0.00000000E+00
  0.00000000E+00  0.00000000E+00  0.00000000E+00
  0.00000000E+00  0.00000000E+00  0.00000000E+00
  0.00000000E+00  0.00000000E+00  0.00000000E+00
  0.00000000E+00  0.00000000E+00  0.00000000E+00
  0.00000000E+00  0.00000000E+00  0.00000000E+00
  0.00000000E+00  0.00000000E+00  0.00000000E+00
  0.00000000E+00  0.00000000E+00  0.00000000E+00
  0.00000000E+00  0.00000000E+00  0.00000000E+00
  0.00000000E+00  0.00000000E+00  0.00000000E+00
  0.00000000E+00  0.00000000E+00  0.00000000E+00
  0.00000000E+00  0.00000000E+00  0.00000000E+00
  0.00000000E+00  0.00000000E+00  0.00000000E+00
  0.00000000E+00  0.00000000E+00  0.00000000E+00
  0.00000000E+00  0.00000000E+00  0.00000000E+00
  0.00000000E+00  0.00000000E+00  0.00000000E+00
  0.00000000E+00  0.00000000E+00  0.00000000E+00
  0.00000000E+00  0.00000000E+00  0.00000000E+00
  0.00000000E+00  0.00000000E+00  0.00000000E+00
  0.00000000E+00  0.00000000E+00  0.00000000E+00
  0.00000000E+00  0.00000000E+00  0.00000000E+00
  0.00000000E+00  0.00000000E+00  0.00000000E+00
  0.00000000E+00  0.00000000E+00  0.00000000E+00
  0.00000000E+00  0.00000000E+00  0.00000000E+00
  0.00000000E+00  0.00000000E+00  0.00000000E+00
  0.00000000E+00  0.00000000E+00  0.00000000E+00
  0.00000000E+00  0.00000000E+00  0.00000000E+00
  0.00000000E+00  0.00000000E+00  0.00000000E+00
  0.00000000E+00  0.00000000E+00  0.00000000E+00
  0.00000000E+00  0.00000000E+00  0.00000000E+00
  0.00000000E+00  0.00000000E+00  0.00000000E+00
  0.00000000E+00  0.00000000E+00  0.00000000E+00
  0.00000000E+00  0.00000000E+00  0.00000000E+00
  0.00000000E+00  0.00000000E+00  0.00000000E+00
  0.00000000E+00  0.00000000E+00  0.00000000E+00
  0.00000000E+00  0.00000000E+00  0.00000000E+00
  0.00000000E+00  0.00000000E+00  0.00000000E+00
  0.00000000E+00  0.00000000E+00  0.00000000E+00
  0.00000000E+00  0.00000000E+00  0.00000000E+00
  0.00000000E+00  0.00000000E+00  0.00000000E+00
  0.00000000E+00  0.00000000E+00  0.00000000E+00
  0.00000000E+00  0.00000000E+00  0.00000000E+00
  0.00000000E+00  0.00000000E+00  0.00000000E+00
  0.00000000E+00  0.00000000E+00  0.00000000E+00
  0.00000000E+00  0.00000000E+00  0.00000000E+00
  0.00000000E+00  0.00000000E+00  0.00000000E+00
  0.00000000E+00  0.00000000E+00  0.00000000E+00
  0.00000000E+00  0.00000000E+00  0.00000000E+00
  0.00000000E+00  0.00000000E+00  0.00000000E+00
  0.00000000E+00  0.00000000E+00  0.00000000E+00
  0.00000000E+00  0.00000000E+00  0.00000000E+00
  0.00000000E+00  0.00000000E+00  0.00000000E+00
  0.00000000E+00  0.00000000E+00  0.00000000E+00
  0.00000000E+00  0.00000000E+00  0.00000000E+00
  0.00000000E+00  0.00000000E+00  0.00000000E+00
  0.00000000E+00  0.00000000E+00  0.00000000E+00
  0.00000000E+00  0.00000000E+00  0.00000000E+00
  0.00000000E+00  0.00000000E+00  0.00000000E+00
  0.00000000E+00  0.00000000E+00  0.00000000E+00
  0.00000000E+00  0.00000000E+00  0.00000000E+00
  0.00000000E+00  0.00000000E+00  0.00000000E+00
  0.00000000E+00  0.00000000E+00  0.00000000E+00
  0.00000000E+00  0.00000000E+00  0.00000000E+00
  0.00000000E+00  0.00000000E+00  0.00000000E+00
  0.00000000E+00  0.00000000E+00  0.00000000E+00
  0.00000000E+00  0.00000000E+00  0.00000000E+00
  0.00000000E+00  0.00000000E+00  0.00000000E+00
  0.00000000E+00  0.00000000E+00  0.00000000E+00
  0.00000000E+00  0.00000000E+00  0.00000000E+00
  0.00000000E+00  0.00000000E+00  0.00000000E+00
  0.00000000E+00  0.00000000E+00  0.00000000E+00
  0.00000000E+00  0.00000000E+00  0.00000000E+00
  0.00000000E+00  0.00000000E+00  0.00000000E+00
  0.00000000E+00  0.00000000E+00  0.00000000E+00
  0.00000000E+00  0.00000000E+00  0.00000000E+00
  0.00000000E+00  0.00000000E+00  0.00000000E+00
  0.00000000E+00  0.00000000E+00  0.00000000E+00
  0.00000000E+00  0.00000000E+00  0.00000000E+00
  0.00000000E+00  0.00000000E+00  0.00000000E+00
  0.00000000E+00  0.00000000E+00  0.00000000E+00
  0.00000000E+00  0.00000000E+00  0.00000000E+00
  0.00000000E+00  0.00000000E+00  0.00000000E+00
  0.00000000E+00  0.00000000E+00  0.00000000E+00
  0.00000000E+00  0.00000000E+00  0.00000000E+00
  0.00000000E+00  0.00000000E+00  0.00000000E+00
  0.00000000E+00  0.00000000E+00  0.00000000E+00
  0.00000000E+00  0.00000000E+00  0.00000000E+00
  0.00000000E+00  0.00000000E+00  0.00000000E+00
  0.00000000E+00  0.00000000E+00  0.00000000E+00
  0.00000000E+00  0.00000000E+00  0.00000000E+00
  0.00000000E+00  0.00000000E+00  0.00000000E+00
  0.00000000E+00  0.00000000E+00  0.00000000E+00
  0.00000000E+00  0.00000000E+00  0.00000000E+00
  0.00000000E+00  0.00000000E+00  0.00000000E+00
