supercell of POSCAR                     
   1.00398800000000     
    -6.2729611433599999    0.0082005604289200   10.0015927484000002
     3.1280384584799998    5.4363994576400003   10.0007801159999996
    -7.8567367181199996   13.6110857897000006  -10.0002683574999995
   Al   Sc   N 
    92     4    95
Direct
  0.4792894305183069  0.3141944220670254  0.5419443852068611
  0.0562445812580705  0.3990914384073392  0.7050413795469908
  0.1444532971335306  0.4801073912030844  0.8729785164723936
  0.4330841254079445  0.3057948901563350  0.9751202137491433
  0.0167500360274815  0.3533400381364871  0.1229763065918590
  0.1036717480631850  0.4424973031402359  0.2969294460632597
  0.1879576154134455  0.0216671736073835  0.4594531411494955
  0.2688671557909714  0.1024839736942269  0.6211099653198460
  0.3294265556516223  0.2027091956927691  0.7683021342817753
  0.2223935737386711  0.0667506089075474  0.0454288825204685
  0.3194206221152527  0.1416838939715532  0.2111096862881254
  0.3967888877270767  0.2317044222403339  0.3771545660780120
  0.9998363075045233  0.1661193155204330  0.6659219518829502
  0.0801010661366206  0.2489474358095549  0.8309936022878119
  0.1619665426629595  0.3320776898318414  0.9953230222808003
  0.4556576732358550  0.1183437607479902  0.0811651678550334
  0.0465226349940409  0.2122229815290453  0.2540096439393977
  0.1263902222627138  0.2927195996527345  0.4193217782015140
  0.2087329743907063  0.3752713117504385  0.5833975725840475
  0.2894922208774133  0.4621986688762760  0.7480252305386230
  0.3440009581283334  0.0112586542725808  0.9262390067754325
  0.3349807496824937  0.0044876074961095  0.3395236298401798
  0.4184168055017210  0.0845619761342036  0.5016459542923570
  0.9787702416136099  0.3137265384985710  0.5416868921109455
  0.5620829289499341  0.3963236233845606  0.7068566520987645
  0.6463238504705586  0.4774054143041724  0.8724100933084458
  0.9361128595016694  0.2708792044982502  0.9565791206473122
  0.5191069048030812  0.3519322431128771  0.1264690288291987
  0.6042206846112492  0.4421729738735891  0.2974265627602151
  0.6883588109509731  0.0221475933027051  0.4602291951454731
  0.7713859390236024  0.1047522451638585  0.6241423806276742
  0.8521068462791064  0.1881920051218557  0.7892714180880063
  0.7286919163669694  0.0631014355088340  0.0405337970869226
  0.8197831882477402  0.1415281353825009  0.2106229689505668
  0.8969559110704566  0.2315251806602063  0.3767773688741087
  0.5029734216606911  0.1651327622426493  0.6639458191761207
  0.5818932645312032  0.2490729188831509  0.8303155311317596
  0.6672998482790646  0.3316529657964367  0.9951803710854605
  0.9551757539345829  0.1214067160501600  0.0809472890751977
  0.5466396139642242  0.2109266457433705  0.2546739458213452
  0.6265701137709385  0.2925811117169346  0.4194778594239281
  0.7088049178883651  0.3752651847278017  0.5835900220702754
  0.7902760233257311  0.4573055231946341  0.7483237459486531
  0.8746410411572754  0.0427673130236457  0.9155506980174266
  0.8348820787854834  0.0042995442863543  0.3394314533658900
  0.9181440198758608  0.0847362604416801  0.5017669704954244
  0.4796218368436840  0.8128000302664091  0.5416711192627659
  0.0619515464117057  0.8952673128589836  0.7060690241960614
  0.1357695069422178  0.9785185444197779  0.8692590739798476
  0.4428021482638016  0.7583476827041267  0.9575914412726263
  0.0179802938350875  0.8538577576416770  0.1226288663745194
  0.1036931230958800  0.9423816923039539  0.2969319517192801
  0.1882390312635707  0.5221813043704628  0.4602664002966463
  0.2708719716198900  0.6045467899623134  0.6242072603450879
  0.3534694397812004  0.6867845698739714  0.7894874773847036
  0.2239482633600858  0.5694305318945680  0.0421343678580257
  0.3196395723165324  0.6412335746300926  0.2105611938538274
  0.3969546575725644  0.7312996730862125  0.3767093361263250
  0.9997014871638825  0.6667509343699010  0.6653823637435323
  0.0810232808819578  0.7486285364637055  0.8299649778101070
  0.1648663555698491  0.8340058597176068  0.9942276999903257
  0.4568534126625181  0.6188471673273455  0.0808105376689383
  0.0466059946893651  0.7120708614068221  0.2537932742439537
  0.1263717457348577  0.7923829428801810  0.4192446856501704
  0.2085619380806136  0.8742205839716561  0.5832877852636287
  0.2905092077785056  0.9560472834171847  0.7485131444824731
  0.3715120444212801  0.5429682100754576  0.9128370697879831
  0.3348236689164779  0.5043163426196813  0.3395203878452477
  0.4182013300586576  0.5847857291067626  0.5018177858723973
  0.9790934724036688  0.8134885729244488  0.5418445582069751
  0.5628189166591397  0.8952377011930324  0.7061417643027070
  0.6878615220307509  0.9461777206517326  0.8707471531843254
  0.9418675473233975  0.7666779026384702  0.9579893872658545
  0.5184764274106470  0.8505468599413106  0.1230003066735179
  0.6040429875808542  0.9417099601468593  0.2968965018585124
  0.6884958972116593  0.5219188938895059  0.4601393776856213
  0.7694217862695467  0.6050594082184304  0.6238226395625048
  0.8566475451464655  0.6817107735488790  0.7886427958932813
  0.7291337959229622  0.5620454541565039  0.0402286833294596
  0.8192593652496782  0.6417532061092004  0.2102921853186430
  0.8968872746556897  0.7315179680978972  0.3767016890682839
  0.4999178888055908  0.6663057757435311  0.6657389794760675
  0.5812621980120269  0.7470914802599538  0.8305667494327764
  0.6631833480202403  0.8304770110454456  0.9955289477931188
  0.9556597219541985  0.6204918705684008  0.0807541365126738
  0.5474047543965668  0.7111489103261590  0.2540867769509561
  0.6265258810767733  0.7924648906330134  0.4192092510786196
  0.7092095000443663  0.8745809111227985  0.5829896180089804
  0.7925924245675589  0.9571493653008076  0.7461065488491556
  0.8731648148634221  0.5406576553544866  0.9145203447203087
  0.8350591983973814  0.5043258283312966  0.3393064523626919
  0.9181018451068894  0.5847741669354747  0.5016959052255885
  0.2424901011850977  0.4132408660908808  0.1697869654642261
  0.7423878516442457  0.4141315863400763  0.1691537340468301
  0.2440030236759441  0.9118411625433822  0.1706776359795725
  0.7434512963134594  0.9134955029075087  0.1694928490024168
  0.0589307645710377  0.3936992354365714  0.5117134353278630
  0.1414250930951724  0.4752520437630281  0.6767894916177966
  0.2209634786817674  0.0578856761825861  0.8404854605007799
  0.0149582657964871  0.3489895924556450  0.9223336569564538
  0.0886257667063504  0.4297306969969696  0.0830654961228490
  0.1818291181576086  0.0281326903841972  0.2721658076901221
  0.2682616952074071  0.1032264107306418  0.4313143945031683
  0.3505701013009102  0.1842674370883444  0.5949492895107795
  0.4325111685259060  0.2668103929918431  0.7584142532243021
  0.3029988998632405  0.1435237316539073  0.0081631775330067
  0.4119588747782217  0.2063328040686301  0.1778084095560786
  0.4758765526402229  0.3129164177199755  0.3457145392583385
  0.0807444557033037  0.2455564383412536  0.6351514329471257
  0.1594885344996158  0.3305309282317523  0.8003166732102756
  0.2429483712077172  0.4152011668549136  0.9667712487194464
  0.0323954587624868  0.2039309621390402  0.0497148824154934
  0.1260343529262684  0.2936056122112163  0.2175506724373193
  0.2060353031629774  0.3718076626557050  0.3877465173057431
  0.2886859725221669  0.4544283624436005  0.5528937846819275
  0.3708934989353097  0.0355095218474162  0.7171236596004888
  0.3309717007184787  0.9994881567913865  0.1341836502596720
  0.4129753140834254  0.0816782025990008  0.3048103949168421
  0.4973264353039397  0.1642471019432037  0.4698324209411666
  0.5589479655647480  0.3939548852695296  0.5115806276457775
  0.6412993848421920  0.4759580485147694  0.6763783215982286
  0.7233663239439565  0.0583505782013063  0.8411215917218016
  0.5139852973091266  0.3477127411807217  0.9220636387471899
  0.5869850295904229  0.4264891432731517  0.0819448665808125
  0.6824089616491520  0.0269495009615852  0.2718071571952621
  0.7682053286874932  0.1031894699482478  0.4311051974339932
  0.8508687747632919  0.1849557874023517  0.5941901643120886
  0.9324399391683471  0.2669050690882813  0.7584333599045010
  0.8045519218635917  0.1427654017735804  0.0063833232158359
  0.9109969725675171  0.2074250442604537  0.1779061046191401
  0.9760433728442806  0.3130142508236915  0.3455122821655365
  0.5804813091049681  0.2464725302064750  0.6349358017045503
  0.6613381932177660  0.3282229440626665  0.8001396092156412
  0.7451284140310719  0.4130619978785361  0.9656333928855503
  0.5357275787431135  0.1998718690485433  0.0508476073089454
  0.6265274104858705  0.2925181877538989  0.2188765459473530
  0.7064227313087983  0.3714488167538619  0.3879045373913286
  0.7886398043004377  0.4546521771976870  0.5527394329375923
  0.8714874866926365  0.0377043472073098  0.7175175586245430
  0.9507212935796474  0.1223733854504800  0.8827479045997819
  0.8305332148220259  0.0011908150482682  0.1325064303893768
  0.9126982082880843  0.0814987049574398  0.3044465667820191
  0.9975640627147229  0.1638953611874570  0.4694410501500812
  0.0585997257497581  0.8937309947713672  0.5114137025729590
  0.1417909979833212  0.9755881403175692  0.6762412189066325
  0.2235526565611181  0.5582828791390142  0.8409475537862150
  0.0149545017068391  0.8502799508507195  0.9221788628271312
  0.0908003039711147  0.9304362945230906  0.0820630522395263
  0.1820558882513623  0.5279861456806074  0.2718478387520804
  0.2682710756358944  0.6031429656204210  0.4311841134501577
  0.3506596849101768  0.6846028907283497  0.5942487199260498
  0.4325847132477350  0.7670090292390128  0.7586233308950128
  0.3050660222211192  0.6442066859791638  0.0055872460475470
  0.4130239580054393  0.7047347385975584  0.1776938357583404
  0.4759115408812917  0.8128321195034758  0.3452978372326356
  0.0799277118137098  0.7456360295898534  0.6347250230829644
  0.1617419708182553  0.8271097245519670  0.7991058424664672
  0.2511634497929549  0.9184970467302591  0.9632432525265813
  0.0344386189166315  0.7036469441992139  0.0504074329717881
  0.1264113474365942  0.7940307899358245  0.2171206279887485
  0.2061829748400683  0.8712060762694236  0.3874244619377620
  0.2886308122818804  0.9528952096244439  0.5517938795902069
  0.3714372642425516  0.5375072612374936  0.7174184781824238
  0.4545294598382839  0.6176764793302993  0.8821262227739481
  0.3303767165556764  0.5000784588450387  0.1323773824582304
  0.4128123636124315  0.5811928684486034  0.3043873561522190
  0.4975677339015832  0.6637371706863817  0.4693025829138122
  0.5587183496250674  0.8937658187257753  0.5115336099333518
  0.6415334923151690  0.9758066251605229  0.6762997556380910
  0.7244807758404690  0.5580604140318499  0.8411312820637562
  0.5156537390650655  0.8449989938878417  0.9227476552087310
  0.5886218368353440  0.9286335061358884  0.0828525692346744
  0.6825056232780398  0.5267996876172276  0.2717372149686170
  0.7682394422720122  0.6031176215931779  0.4310264460950179
  0.8503913944200576  0.6845702547455801  0.5942526321653290
  0.9311063701879547  0.7669558291151901  0.7585165288586353
  0.8053884917453189  0.6426863152328082  0.0063924542474254
  0.9116893959399022  0.7068982324183679  0.1777306904781000
  0.9760643612363609  0.8129533983755124  0.3452686714689648
  0.5793150961812117  0.7467060270700117  0.6350157165048245
  0.6621445330731746  0.8268294422162370  0.7995872899960048
  0.7461838634611624  0.9114550326670994  0.9668982619741797
  0.5368210758468379  0.6992895124334666  0.0503427498688183
  0.6259523470472672  0.7931018813302799  0.2177544684252126
  0.7061820603528943  0.8716734301961750  0.3877984495181082
  0.7885928765432695  0.9548247652556228  0.5528716801043885
  0.8691402903526111  0.5372740378510841  0.7168907799875157
  0.9535836208822772  0.6212063303980457  0.8831662480112854
  0.8297824040630033  0.5008779184775705  0.1328810353082801
  0.9125508001185807  0.5817160762588998  0.3043082115028213
  0.9972535332005918  0.6640278804175637  0.4693769021825034
 
  0.00000000E+00  0.00000000E+00  0.00000000E+00
  0.00000000E+00  0.00000000E+00  0.00000000E+00
  0.00000000E+00  0.00000000E+00  0.00000000E+00
  0.00000000E+00  0.00000000E+00  0.00000000E+00
  0.00000000E+00  0.00000000E+00  0.00000000E+00
  0.00000000E+00  0.00000000E+00  0.00000000E+00
  0.00000000E+00  0.00000000E+00  0.00000000E+00
  0.00000000E+00  0.00000000E+00  0.00000000E+00
  0.00000000E+00  0.00000000E+00  0.00000000E+00
  0.00000000E+00  0.00000000E+00  0.00000000E+00
  0.00000000E+00  0.00000000E+00  0.00000000E+00
  0.00000000E+00  0.00000000E+00  0.00000000E+00
  0.00000000E+00  0.00000000E+00  0.00000000E+00
  0.00000000E+00  0.00000000E+00  0.00000000E+00
  0.00000000E+00  0.00000000E+00  0.00000000E+00
  0.00000000E+00  0.00000000E+00  0.00000000E+00
  0.00000000E+00  0.00000000E+00  0.00000000E+00
  0.00000000E+00  0.00000000E+00  0.00000000E+00
  0.00000000E+00  0.00000000E+00  0.00000000E+00
  0.00000000E+00  0.00000000E+00  0.00000000E+00
  0.00000000E+00  0.00000000E+00  0.00000000E+00
  0.00000000E+00  0.00000000E+00  0.00000000E+00
  0.00000000E+00  0.00000000E+00  0.00000000E+00
  0.00000000E+00  0.00000000E+00  0.00000000E+00
  0.00000000E+00  0.00000000E+00  0.00000000E+00
  0.00000000E+00  0.00000000E+00  0.00000000E+00
  0.00000000E+00  0.00000000E+00  0.00000000E+00
  0.00000000E+00  0.00000000E+00  0.00000000E+00
  0.00000000E+00  0.00000000E+00  0.00000000E+00
  0.00000000E+00  0.00000000E+00  0.00000000E+00
  0.00000000E+00  0.00000000E+00  0.00000000E+00
  0.00000000E+00  0.00000000E+00  0.00000000E+00
  0.00000000E+00  0.00000000E+00  0.00000000E+00
  0.00000000E+00  0.00000000E+00  0.00000000E+00
  0.00000000E+00  0.00000000E+00  0.00000000E+00
  0.00000000E+00  0.00000000E+00  0.00000000E+00
  0.00000000E+00  0.00000000E+00  0.00000000E+00
  0.00000000E+00  0.00000000E+00  0.00000000E+00
  0.00000000E+00  0.00000000E+00  0.00000000E+00
  0.00000000E+00  0.00000000E+00  0.00000000E+00
  0.00000000E+00  0.00000000E+00  0.00000000E+00
  0.00000000E+00  0.00000000E+00  0.00000000E+00
  0.00000000E+00  0.00000000E+00  0.00000000E+00
  0.00000000E+00  0.00000000E+00  0.00000000E+00
  0.00000000E+00  0.00000000E+00  0.00000000E+00
  0.00000000E+00  0.00000000E+00  0.00000000E+00
  0.00000000E+00  0.00000000E+00  0.00000000E+00
  0.00000000E+00  0.00000000E+00  0.00000000E+00
  0.00000000E+00  0.00000000E+00  0.00000000E+00
  0.00000000E+00  0.00000000E+00  0.00000000E+00
  0.00000000E+00  0.00000000E+00  0.00000000E+00
  0.00000000E+00  0.00000000E+00  0.00000000E+00
  0.00000000E+00  0.00000000E+00  0.00000000E+00
  0.00000000E+00  0.00000000E+00  0.00000000E+00
  0.00000000E+00  0.00000000E+00  0.00000000E+00
  0.00000000E+00  0.00000000E+00  0.00000000E+00
  0.00000000E+00  0.00000000E+00  0.00000000E+00
  0.00000000E+00  0.00000000E+00  0.00000000E+00
  0.00000000E+00  0.00000000E+00  0.00000000E+00
  0.00000000E+00  0.00000000E+00  0.00000000E+00
  0.00000000E+00  0.00000000E+00  0.00000000E+00
  0.00000000E+00  0.00000000E+00  0.00000000E+00
  0.00000000E+00  0.00000000E+00  0.00000000E+00
  0.00000000E+00  0.00000000E+00  0.00000000E+00
  0.00000000E+00  0.00000000E+00  0.00000000E+00
  0.00000000E+00  0.00000000E+00  0.00000000E+00
  0.00000000E+00  0.00000000E+00  0.00000000E+00
  0.00000000E+00  0.00000000E+00  0.00000000E+00
  0.00000000E+00  0.00000000E+00  0.00000000E+00
  0.00000000E+00  0.00000000E+00  0.00000000E+00
  0.00000000E+00  0.00000000E+00  0.00000000E+00
  0.00000000E+00  0.00000000E+00  0.00000000E+00
  0.00000000E+00  0.00000000E+00  0.00000000E+00
  0.00000000E+00  0.00000000E+00  0.00000000E+00
  0.00000000E+00  0.00000000E+00  0.00000000E+00
  0.00000000E+00  0.00000000E+00  0.00000000E+00
  0.00000000E+00  0.00000000E+00  0.00000000E+00
  0.00000000E+00  0.00000000E+00  0.00000000E+00
  0.00000000E+00  0.00000000E+00  0.00000000E+00
  0.00000000E+00  0.00000000E+00  0.00000000E+00
  0.00000000E+00  0.00000000E+00  0.00000000E+00
  0.00000000E+00  0.00000000E+00  0.00000000E+00
  0.00000000E+00  0.00000000E+00  0.00000000E+00
  0.00000000E+00  0.00000000E+00  0.00000000E+00
  0.00000000E+00  0.00000000E+00  0.00000000E+00
  0.00000000E+00  0.00000000E+00  0.00000000E+00
  0.00000000E+00  0.00000000E+00  0.00000000E+00
  0.00000000E+00  0.00000000E+00  0.00000000E+00
  0.00000000E+00  0.00000000E+00  0.00000000E+00
  0.00000000E+00  0.00000000E+00  0.00000000E+00
  0.00000000E+00  0.00000000E+00  0.00000000E+00
  0.00000000E+00  0.00000000E+00  0.00000000E+00
  0.00000000E+00  0.00000000E+00  0.00000000E+00
  0.00000000E+00  0.00000000E+00  0.00000000E+00
  0.00000000E+00  0.00000000E+00  0.00000000E+00
  0.00000000E+00  0.00000000E+00  0.00000000E+00
  0.00000000E+00  0.00000000E+00  0.00000000E+00
  0.00000000E+00  0.00000000E+00  0.00000000E+00
  0.00000000E+00  0.00000000E+00  0.00000000E+00
  0.00000000E+00  0.00000000E+00  0.00000000E+00
  0.00000000E+00  0.00000000E+00  0.00000000E+00
  0.00000000E+00  0.00000000E+00  0.00000000E+00
  0.00000000E+00  0.00000000E+00  0.00000000E+00
  0.00000000E+00  0.00000000E+00  0.00000000E+00
  0.00000000E+00  0.00000000E+00  0.00000000E+00
  0.00000000E+00  0.00000000E+00  0.00000000E+00
  0.00000000E+00  0.00000000E+00  0.00000000E+00
  0.00000000E+00  0.00000000E+00  0.00000000E+00
  0.00000000E+00  0.00000000E+00  0.00000000E+00
  0.00000000E+00  0.00000000E+00  0.00000000E+00
  0.00000000E+00  0.00000000E+00  0.00000000E+00
  0.00000000E+00  0.00000000E+00  0.00000000E+00
  0.00000000E+00  0.00000000E+00  0.00000000E+00
  0.00000000E+00  0.00000000E+00  0.00000000E+00
  0.00000000E+00  0.00000000E+00  0.00000000E+00
  0.00000000E+00  0.00000000E+00  0.00000000E+00
  0.00000000E+00  0.00000000E+00  0.00000000E+00
  0.00000000E+00  0.00000000E+00  0.00000000E+00
  0.00000000E+00  0.00000000E+00  0.00000000E+00
  0.00000000E+00  0.00000000E+00  0.00000000E+00
  0.00000000E+00  0.00000000E+00  0.00000000E+00
  0.00000000E+00  0.00000000E+00  0.00000000E+00
  0.00000000E+00  0.00000000E+00  0.00000000E+00
  0.00000000E+00  0.00000000E+00  0.00000000E+00
  0.00000000E+00  0.00000000E+00  0.00000000E+00
  0.00000000E+00  0.00000000E+00  0.00000000E+00
  0.00000000E+00  0.00000000E+00  0.00000000E+00
  0.00000000E+00  0.00000000E+00  0.00000000E+00
  0.00000000E+00  0.00000000E+00  0.00000000E+00
  0.00000000E+00  0.00000000E+00  0.00000000E+00
  0.00000000E+00  0.00000000E+00  0.00000000E+00
  0.00000000E+00  0.00000000E+00  0.00000000E+00
  0.00000000E+00  0.00000000E+00  0.00000000E+00
  0.00000000E+00  0.00000000E+00  0.00000000E+00
  0.00000000E+00  0.00000000E+00  0.00000000E+00
  0.00000000E+00  0.00000000E+00  0.00000000E+00
  0.00000000E+00  0.00000000E+00  0.00000000E+00
  0.00000000E+00  0.00000000E+00  0.00000000E+00
  0.00000000E+00  0.00000000E+00  0.00000000E+00
  0.00000000E+00  0.00000000E+00  0.00000000E+00
  0.00000000E+00  0.00000000E+00  0.00000000E+00
  0.00000000E+00  0.00000000E+00  0.00000000E+00
  0.00000000E+00  0.00000000E+00  0.00000000E+00
  0.00000000E+00  0.00000000E+00  0.00000000E+00
  0.00000000E+00  0.00000000E+00  0.00000000E+00
  0.00000000E+00  0.00000000E+00  0.00000000E+00
  0.00000000E+00  0.00000000E+00  0.00000000E+00
  0.00000000E+00  0.00000000E+00  0.00000000E+00
  0.00000000E+00  0.00000000E+00  0.00000000E+00
  0.00000000E+00  0.00000000E+00  0.00000000E+00
  0.00000000E+00  0.00000000E+00  0.00000000E+00
  0.00000000E+00  0.00000000E+00  0.00000000E+00
  0.00000000E+00  0.00000000E+00  0.00000000E+00
  0.00000000E+00  0.00000000E+00  0.00000000E+00
  0.00000000E+00  0.00000000E+00  0.00000000E+00
  0.00000000E+00  0.00000000E+00  0.00000000E+00
  0.00000000E+00  0.00000000E+00  0.00000000E+00
  0.00000000E+00  0.00000000E+00  0.00000000E+00
  0.00000000E+00  0.00000000E+00  0.00000000E+00
  0.00000000E+00  0.00000000E+00  0.00000000E+00
  0.00000000E+00  0.00000000E+00  0.00000000E+00
  0.00000000E+00  0.00000000E+00  0.00000000E+00
  0.00000000E+00  0.00000000E+00  0.00000000E+00
  0.00000000E+00  0.00000000E+00  0.00000000E+00
  0.00000000E+00  0.00000000E+00  0.00000000E+00
  0.00000000E+00  0.00000000E+00  0.00000000E+00
  0.00000000E+00  0.00000000E+00  0.00000000E+00
  0.00000000E+00  0.00000000E+00  0.00000000E+00
  0.00000000E+00  0.00000000E+00  0.00000000E+00
  0.00000000E+00  0.00000000E+00  0.00000000E+00
  0.00000000E+00  0.00000000E+00  0.00000000E+00
  0.00000000E+00  0.00000000E+00  0.00000000E+00
  0.00000000E+00  0.00000000E+00  0.00000000E+00
  0.00000000E+00  0.00000000E+00  0.00000000E+00
  0.00000000E+00  0.00000000E+00  0.00000000E+00
  0.00000000E+00  0.00000000E+00  0.00000000E+00
  0.00000000E+00  0.00000000E+00  0.00000000E+00
  0.00000000E+00  0.00000000E+00  0.00000000E+00
  0.00000000E+00  0.00000000E+00  0.00000000E+00
  0.00000000E+00  0.00000000E+00  0.00000000E+00
  0.00000000E+00  0.00000000E+00  0.00000000E+00
  0.00000000E+00  0.00000000E+00  0.00000000E+00
  0.00000000E+00  0.00000000E+00  0.00000000E+00
  0.00000000E+00  0.00000000E+00  0.00000000E+00
  0.00000000E+00  0.00000000E+00  0.00000000E+00
  0.00000000E+00  0.00000000E+00  0.00000000E+00
  0.00000000E+00  0.00000000E+00  0.00000000E+00
  0.00000000E+00  0.00000000E+00  0.00000000E+00
  0.00000000E+00  0.00000000E+00  0.00000000E+00
  0.00000000E+00  0.00000000E+00  0.00000000E+00
  0.00000000E+00  0.00000000E+00  0.00000000E+00
