supercell of POSCAR                     
   1.00398800000000     
    -6.2729611433599999    0.0082005604289200   10.0015927484000002
     3.1280384584799998    5.4363994576400003   10.0007801159999996
    -7.8567367181199996   13.6110857897000006  -10.0002683574999995
   Al   Sc   N 
    92     4    95
Direct
  0.4804712148525851  0.3132171120134188  0.5421307233660997
  0.0614169776426365  0.3960091154719692  0.7093040711068994
  0.1446945826795343  0.4793882546877555  0.8743506089182986
  0.4353960139472122  0.2698120378788929  0.9576263867282009
  0.0172945036760979  0.3516982906441157  0.1214956050544842
  0.1030789806009125  0.4417173559301801  0.2949351649882104
  0.1871008818901814  0.0208712131975730  0.4597589160338416
  0.2426851853225713  0.0751898360625987  0.6369086564377184
  0.3522749844739437  0.1867284358230847  0.7923911644158679
  0.2269260935978394  0.0628762489607055  0.0398765653452529
  0.3186295251235762  0.1414300068765115  0.2088034492199711
  0.3956345553561036  0.2337512866878271  0.3738216596720463
  0.9898693813247874  0.1731471371342366  0.6679709860557352
  0.0819391248575698  0.2497071393522674  0.8324599110883852
  0.1633070110758368  0.3316890657332578  0.9951430071606424
  0.4563213772594636  0.1198923720184908  0.0801367123395238
  0.0455711687882498  0.2117636055597671  0.2522176878209024
  0.1256628530244726  0.2932947130853663  0.4175614515503909
  0.1774014723204971  0.4169367525813570  0.5817767954062276
  0.2921175231110098  0.4592425508827347  0.7504522062815155
  0.3743466355128717  0.0405357773097066  0.9162971910510151
  0.3328631843119041  0.0023831237061387  0.3351783575211655
  0.4342446309070880  0.0617922874612589  0.4812123259195573
  0.9780133231355066  0.3126103521911645  0.5422014080169930
  0.5630462822100313  0.3995456425989161  0.7092597345390246
  0.6448632356266017  0.4795060659310550  0.8745304419676145
  0.9358718020280890  0.2701039105478671  0.9572076233000715
  0.5173764228330811  0.3516670990561437  0.1217230664342992
  0.6036565163189067  0.4415083454150164  0.2954963062314206
  0.6935040618977979  0.0198394977216765  0.4592409988112607
  0.7744293764177357  0.1023827173583314  0.6240853271578857
  0.8531982344062214  0.1880392759475100  0.7923284713540966
  0.7268182215997996  0.0626747778103578  0.0397463505218170
  0.8187806834858620  0.1413819882577840  0.2089359285793648
  0.8966762314977359  0.2308554721083880  0.3755987695567811
  0.5343475063161947  0.1620434010891998  0.6834584176257437
  0.5836919228849737  0.2506420793036099  0.8351901577014402
  0.6636210310074020  0.3318888667963336  0.9956135088309708
  0.9557292644505608  0.1201725418069159  0.0796656839677610
  0.5469951313654988  0.2113135288827479  0.2525060524022962
  0.6268879356793136  0.2925034081129780  0.4182227276921608
  0.7080158829671532  0.3767689834010923  0.5835162450244553
  0.7911891663323800  0.4594432966800142  0.7502877654219802
  0.8740522104224908  0.0404259569127348  0.9156304807959401
  0.8346512075565897  0.0041541268867604  0.3377773112176641
  0.9182437880525995  0.0848527184628409  0.5011113615743028
  0.4800817334710814  0.8111043272256495  0.5427318758109791
  0.0649742712826793  0.8974839472460445  0.7079778049454006
  0.1442472859657045  0.9797554979222056  0.8750865187765697
  0.4361264142463597  0.7698538566836675  0.9571881896645280
  0.0170376635930225  0.8515153584060471  0.1214679212593452
  0.1027334753006741  0.9411044301797773  0.2952270122120311
  0.1881945266845193  0.5228691279342428  0.4573392176664370
  0.2739804701599411  0.6052674923619179  0.6267394968468949
  0.3550678872492909  0.6860413393600879  0.7921322022949795
  0.2267400573976701  0.5628011058826345  0.0397680228839903
  0.3188019475780735  0.6413432499526905  0.2089688863229426
  0.3965286553725846  0.7307327680123237  0.3758430093390572
  0.9978128361268759  0.6723588037671462  0.6682983266960534
  0.0843249586143813  0.7491795988983085  0.8321588625478284
  0.1633922694464545  0.8315540565046931  0.9950711798749765
  0.4559241241130891  0.6201517006165602  0.0797939481836138
  0.0463422277768544  0.7110707299973242  0.2523796984358100
  0.1258007506368202  0.7923045210856117  0.4175083891771152
  0.2089802720744061  0.8663614805770621  0.5805556773300680
  0.2960658545157671  0.9528055699859266  0.7552027997413902
  0.3734003141157558  0.5410274638351567  0.9157674829735143
  0.3348181283460434  0.5046372173383631  0.3378007765181295
  0.4195179642158919  0.5835179166714539  0.5009382202085604
  0.9797279075874314  0.8123252871613431  0.5416584801771762
  0.5633399188705752  0.8937658453986330  0.7089242150665811
  0.6447839763554128  0.9786462957473105  0.8742023589313632
  0.9362422754732052  0.7696752949877350  0.9568471344144172
  0.5174910748909127  0.8515257900699780  0.1215775554113208
  0.6037680989235881  0.9413342787041330  0.2953301332001104
  0.6883227254812567  0.5207657544143771  0.4595497772072363
  0.7719112219471427  0.6038951694500483  0.6256591687506443
  0.8541036439120546  0.6866064909900729  0.7919684866948344
  0.7269308427005328  0.5628693093964188  0.0396726849498350
  0.8188215945667139  0.6412663125824736  0.2088766952481294
  0.8971549638871039  0.7306527971432288  0.3752274796692774
  0.5019387235519304  0.6662424499977320  0.6670040763429270
  0.5841157675459527  0.7480448037836354  0.8325420267165100
  0.6637784107574731  0.8314083917872566  0.9950119236394173
  0.9560042641919750  0.6200025935442923  0.0796675342162700
  0.5463887819946152  0.7110445938194090  0.2522131474960787
  0.6292922748795036  0.7869546565622230  0.4164437506828591
  0.7111084419516445  0.8743165462306095  0.5838335802001353
  0.7982645004388758  0.9547707687026161  0.7517772757715662
  0.8740494769860803  0.5402289943560064  0.9153869465109707
  0.8350355222874981  0.5028290871267274  0.3374561040129009
  0.9131834941987975  0.5881249056438591  0.5002323517564236
  0.2432301715037326  0.4133610539647350  0.1682980145626445
  0.7428566750383112  0.4135490358659837  0.1682663743288160
  0.2423741640301529  0.9131033248055047  0.1676869413935691
  0.7431735364491061  0.9133080659300958  0.1683760652256794
  0.0569409459416121  0.3934479192719351  0.5105944487082397
  0.1410314669910591  0.4769845428274309  0.6773861028575681
  0.2236442664934515  0.0592923860442838  0.8428841853293250
  0.0140119413189979  0.3488220463787215  0.9229016177341691
  0.0887288431051729  0.4293557497230509  0.0832284314392524
  0.1799471316071006  0.0277314338666059  0.2711776847242646
  0.2671369711953417  0.1030859029004247  0.4310860330100326
  0.4313949594354938  0.2669206427752613  0.7594441102318683
  0.3047836117296328  0.1430105374019348  0.0072062552630925
  0.4115621297795897  0.2064181404749021  0.1780477528333222
  0.4763372227371008  0.3132186267292383  0.3452679170664226
  0.0770782288453375  0.2477712699362442  0.6353200243018762
  0.1625929805871777  0.3289132287536845  0.8002891811509016
  0.2448166479145897  0.4124224146417674  0.9662028791508774
  0.0350867519006925  0.2014989439294439  0.0495728963226867
  0.1256420744106066  0.2927462200418347  0.2176983701254045
  0.2062968230355509  0.3713685873096040  0.3873835377127719
  0.2892032036311463  0.4535016136459049  0.5525692090833942
  0.3727745626362022  0.0354794317259746  0.7193978844243603
  0.4537567296836968  0.1200722759877735  0.8835217985236739
  0.3302698766110765  0.0001698082854560  0.1329323804029698
  0.4122158402932072  0.0815024113400540  0.3048423637048501
  0.4982191462232919  0.1639064555886165  0.4693549645079500
  0.5587875217451170  0.3924726524646260  0.5112757464744604
  0.6427840954335764  0.4754299375450870  0.6761217494212275
  0.7236988206733344  0.0589493153059948  0.8408921480484324
  0.5130568335231587  0.3496564880231787  0.9237620895296175
  0.5883990184531740  0.4295811508495788  0.0833150581115021
  0.6813615382764837  0.0275674400070045  0.2719731978467550
  0.7688348907482379  0.1032473576885167  0.4305715163487918
  0.8489699101289787  0.1854263348246263  0.5932277502272498
  0.9313106335859871  0.2681562128499024  0.7597432454260797
  0.8042022459696767  0.1428579767024161  0.0066060415371894
  0.9110034422516051  0.2067829181979093  0.1774856162757672
  0.9765575630023307  0.3121445563449967  0.3453312705064064
  0.5799410461064696  0.2457512871157022  0.6348471377089879
  0.6614124345850101  0.3286491330818748  0.8002564682537852
  0.7448749380163235  0.4121963243457145  0.9662593302098443
  0.5351125650327617  0.2014733773135688  0.0498075743605781
  0.6257001331352541  0.2930447176365405  0.2177109209181509
  0.7063344431866554  0.3713551065009284  0.3874198573204097
  0.7886674810243122  0.4551453738671469  0.5525085765361055
  0.8731807106268761  0.0377507995231454  0.7170568979153487
  0.9531756935828213  0.1202152133446219  0.8835195209479210
  0.8300720955887044  0.0003843255493905  0.1327349866467600
  0.9124027716549605  0.0815437707199109  0.3040830018917049
  0.9979266508176678  0.1640087906631109  0.4693796817383173
  0.0576128178700088  0.8928956672017136  0.5102898038514212
  0.1483446438781968  0.9816915266097723  0.6738188298785772
  0.2245805890120849  0.5583868627021928  0.8413493401672909
  0.0143749363200811  0.8489141487212990  0.9222761704082316
  0.0879332067361673  0.9294662318062521  0.0828563531861732
  0.1818119012566299  0.5273778987954216  0.2719151484856539
  0.2688851343871903  0.6032083863736020  0.4307753595623609
  0.3533673350194775  0.6815152894810623  0.5938877503346376
  0.4352357952823951  0.7637843408532348  0.7590154000073071
  0.3043163427005453  0.6429813617486744  0.0068820403342826
  0.4110690946685907  0.7069154994134266  0.1776682487400763
  0.4754562155595821  0.8134509878242042  0.3455031093225642
  0.0820439571612681  0.7472083116053696  0.6348582864523564
  0.1637329433509578  0.8305118498730621  0.7994959101006671
  0.2451692202080622  0.9122105109042380  0.9664869277621762
  0.0349809616744210  0.7015923170170169  0.0494004404531339
  0.1255377714728354  0.7927732871601521  0.2175261745932602
  0.2059731776895433  0.8717833917981395  0.3873417663946768
  0.2886442037874275  0.9511817244558429  0.5517184367693488
  0.3719673568190558  0.5367652059310259  0.7178921746145477
  0.4537301806912524  0.6197201179085212  0.8837229975709846
  0.3302386643450319  0.5003303295182064  0.1327507198555722
  0.4126970362970255  0.5817483475627441  0.3041106212283253
  0.4977259851752649  0.6638200618673693  0.4691982350796025
  0.5611363649404666  0.8904422751960297  0.5116071339479760
  0.6447980262090383  0.9727376189755290  0.6767935138842205
  0.7243975751973437  0.5579861917540612  0.8417392666352654
  0.5140533967162000  0.8488478157605712  0.9226730631903663
  0.5888660046638634  0.9291418138390029  0.0831290583832924
  0.6814604696452164  0.5277353505127351  0.2717530388603890
  0.7682953683087277  0.6011250760379028  0.4300783738297227
  0.8524815445152640  0.6842332111825513  0.5942158053753772
  0.9345303145083719  0.7660783017605226  0.7596385913350119
  0.8046641103839320  0.6426730645028655  0.0066533287817947
  0.9113397484920469  0.7064459521866837  0.1775800604566768
  0.9755657392068713  0.8126826796748645  0.3449959108891107
  0.5806879386427113  0.7466018134235028  0.6349228795690749
  0.6631424473209790  0.8287103125748132  0.8005084846234851
  0.7452786978891268  0.9124177172570782  0.9660473327152133
  0.5351345228640838  0.7015264316592678  0.0496237890283027
  0.6255011576133214  0.7930658617770732  0.2178465992167062
  0.7056836156792627  0.8714211036542494  0.3878753197014575
  0.7890276099777012  0.9542236196789631  0.5523724872131979
  0.8715602759016932  0.5377740909056499  0.7178167983596850
  0.9539234928343703  0.6198088558982349  0.8834380854093595
  0.8301808982623129  0.5003038037373244  0.1326903499571657
  0.9124172840976783  0.5812594902953094  0.3041487196742310
  0.9978393199596738  0.6626016545900839  0.4692661672730836
 
  0.00000000E+00  0.00000000E+00  0.00000000E+00
  0.00000000E+00  0.00000000E+00  0.00000000E+00
  0.00000000E+00  0.00000000E+00  0.00000000E+00
  0.00000000E+00  0.00000000E+00  0.00000000E+00
  0.00000000E+00  0.00000000E+00  0.00000000E+00
  0.00000000E+00  0.00000000E+00  0.00000000E+00
  0.00000000E+00  0.00000000E+00  0.00000000E+00
  0.00000000E+00  0.00000000E+00  0.00000000E+00
  0.00000000E+00  0.00000000E+00  0.00000000E+00
  0.00000000E+00  0.00000000E+00  0.00000000E+00
  0.00000000E+00  0.00000000E+00  0.00000000E+00
  0.00000000E+00  0.00000000E+00  0.00000000E+00
  0.00000000E+00  0.00000000E+00  0.00000000E+00
  0.00000000E+00  0.00000000E+00  0.00000000E+00
  0.00000000E+00  0.00000000E+00  0.00000000E+00
  0.00000000E+00  0.00000000E+00  0.00000000E+00
  0.00000000E+00  0.00000000E+00  0.00000000E+00
  0.00000000E+00  0.00000000E+00  0.00000000E+00
  0.00000000E+00  0.00000000E+00  0.00000000E+00
  0.00000000E+00  0.00000000E+00  0.00000000E+00
  0.00000000E+00  0.00000000E+00  0.00000000E+00
  0.00000000E+00  0.00000000E+00  0.00000000E+00
  0.00000000E+00  0.00000000E+00  0.00000000E+00
  0.00000000E+00  0.00000000E+00  0.00000000E+00
  0.00000000E+00  0.00000000E+00  0.00000000E+00
  0.00000000E+00  0.00000000E+00  0.00000000E+00
  0.00000000E+00  0.00000000E+00  0.00000000E+00
  0.00000000E+00  0.00000000E+00  0.00000000E+00
  0.00000000E+00  0.00000000E+00  0.00000000E+00
  0.00000000E+00  0.00000000E+00  0.00000000E+00
  0.00000000E+00  0.00000000E+00  0.00000000E+00
  0.00000000E+00  0.00000000E+00  0.00000000E+00
  0.00000000E+00  0.00000000E+00  0.00000000E+00
  0.00000000E+00  0.00000000E+00  0.00000000E+00
  0.00000000E+00  0.00000000E+00  0.00000000E+00
  0.00000000E+00  0.00000000E+00  0.00000000E+00
  0.00000000E+00  0.00000000E+00  0.00000000E+00
  0.00000000E+00  0.00000000E+00  0.00000000E+00
  0.00000000E+00  0.00000000E+00  0.00000000E+00
  0.00000000E+00  0.00000000E+00  0.00000000E+00
  0.00000000E+00  0.00000000E+00  0.00000000E+00
  0.00000000E+00  0.00000000E+00  0.00000000E+00
  0.00000000E+00  0.00000000E+00  0.00000000E+00
  0.00000000E+00  0.00000000E+00  0.00000000E+00
  0.00000000E+00  0.00000000E+00  0.00000000E+00
  0.00000000E+00  0.00000000E+00  0.00000000E+00
  0.00000000E+00  0.00000000E+00  0.00000000E+00
  0.00000000E+00  0.00000000E+00  0.00000000E+00
  0.00000000E+00  0.00000000E+00  0.00000000E+00
  0.00000000E+00  0.00000000E+00  0.00000000E+00
  0.00000000E+00  0.00000000E+00  0.00000000E+00
  0.00000000E+00  0.00000000E+00  0.00000000E+00
  0.00000000E+00  0.00000000E+00  0.00000000E+00
  0.00000000E+00  0.00000000E+00  0.00000000E+00
  0.00000000E+00  0.00000000E+00  0.00000000E+00
  0.00000000E+00  0.00000000E+00  0.00000000E+00
  0.00000000E+00  0.00000000E+00  0.00000000E+00
  0.00000000E+00  0.00000000E+00  0.00000000E+00
  0.00000000E+00  0.00000000E+00  0.00000000E+00
  0.00000000E+00  0.00000000E+00  0.00000000E+00
  0.00000000E+00  0.00000000E+00  0.00000000E+00
  0.00000000E+00  0.00000000E+00  0.00000000E+00
  0.00000000E+00  0.00000000E+00  0.00000000E+00
  0.00000000E+00  0.00000000E+00  0.00000000E+00
  0.00000000E+00  0.00000000E+00  0.00000000E+00
  0.00000000E+00  0.00000000E+00  0.00000000E+00
  0.00000000E+00  0.00000000E+00  0.00000000E+00
  0.00000000E+00  0.00000000E+00  0.00000000E+00
  0.00000000E+00  0.00000000E+00  0.00000000E+00
  0.00000000E+00  0.00000000E+00  0.00000000E+00
  0.00000000E+00  0.00000000E+00  0.00000000E+00
  0.00000000E+00  0.00000000E+00  0.00000000E+00
  0.00000000E+00  0.00000000E+00  0.00000000E+00
  0.00000000E+00  0.00000000E+00  0.00000000E+00
  0.00000000E+00  0.00000000E+00  0.00000000E+00
  0.00000000E+00  0.00000000E+00  0.00000000E+00
  0.00000000E+00  0.00000000E+00  0.00000000E+00
  0.00000000E+00  0.00000000E+00  0.00000000E+00
  0.00000000E+00  0.00000000E+00  0.00000000E+00
  0.00000000E+00  0.00000000E+00  0.00000000E+00
  0.00000000E+00  0.00000000E+00  0.00000000E+00
  0.00000000E+00  0.00000000E+00  0.00000000E+00
  0.00000000E+00  0.00000000E+00  0.00000000E+00
  0.00000000E+00  0.00000000E+00  0.00000000E+00
  0.00000000E+00  0.00000000E+00  0.00000000E+00
  0.00000000E+00  0.00000000E+00  0.00000000E+00
  0.00000000E+00  0.00000000E+00  0.00000000E+00
  0.00000000E+00  0.00000000E+00  0.00000000E+00
  0.00000000E+00  0.00000000E+00  0.00000000E+00
  0.00000000E+00  0.00000000E+00  0.00000000E+00
  0.00000000E+00  0.00000000E+00  0.00000000E+00
  0.00000000E+00  0.00000000E+00  0.00000000E+00
  0.00000000E+00  0.00000000E+00  0.00000000E+00
  0.00000000E+00  0.00000000E+00  0.00000000E+00
  0.00000000E+00  0.00000000E+00  0.00000000E+00
  0.00000000E+00  0.00000000E+00  0.00000000E+00
  0.00000000E+00  0.00000000E+00  0.00000000E+00
  0.00000000E+00  0.00000000E+00  0.00000000E+00
  0.00000000E+00  0.00000000E+00  0.00000000E+00
  0.00000000E+00  0.00000000E+00  0.00000000E+00
  0.00000000E+00  0.00000000E+00  0.00000000E+00
  0.00000000E+00  0.00000000E+00  0.00000000E+00
  0.00000000E+00  0.00000000E+00  0.00000000E+00
  0.00000000E+00  0.00000000E+00  0.00000000E+00
  0.00000000E+00  0.00000000E+00  0.00000000E+00
  0.00000000E+00  0.00000000E+00  0.00000000E+00
  0.00000000E+00  0.00000000E+00  0.00000000E+00
  0.00000000E+00  0.00000000E+00  0.00000000E+00
  0.00000000E+00  0.00000000E+00  0.00000000E+00
  0.00000000E+00  0.00000000E+00  0.00000000E+00
  0.00000000E+00  0.00000000E+00  0.00000000E+00
  0.00000000E+00  0.00000000E+00  0.00000000E+00
  0.00000000E+00  0.00000000E+00  0.00000000E+00
  0.00000000E+00  0.00000000E+00  0.00000000E+00
  0.00000000E+00  0.00000000E+00  0.00000000E+00
  0.00000000E+00  0.00000000E+00  0.00000000E+00
  0.00000000E+00  0.00000000E+00  0.00000000E+00
  0.00000000E+00  0.00000000E+00  0.00000000E+00
  0.00000000E+00  0.00000000E+00  0.00000000E+00
  0.00000000E+00  0.00000000E+00  0.00000000E+00
  0.00000000E+00  0.00000000E+00  0.00000000E+00
  0.00000000E+00  0.00000000E+00  0.00000000E+00
  0.00000000E+00  0.00000000E+00  0.00000000E+00
  0.00000000E+00  0.00000000E+00  0.00000000E+00
  0.00000000E+00  0.00000000E+00  0.00000000E+00
  0.00000000E+00  0.00000000E+00  0.00000000E+00
  0.00000000E+00  0.00000000E+00  0.00000000E+00
  0.00000000E+00  0.00000000E+00  0.00000000E+00
  0.00000000E+00  0.00000000E+00  0.00000000E+00
  0.00000000E+00  0.00000000E+00  0.00000000E+00
  0.00000000E+00  0.00000000E+00  0.00000000E+00
  0.00000000E+00  0.00000000E+00  0.00000000E+00
  0.00000000E+00  0.00000000E+00  0.00000000E+00
  0.00000000E+00  0.00000000E+00  0.00000000E+00
  0.00000000E+00  0.00000000E+00  0.00000000E+00
  0.00000000E+00  0.00000000E+00  0.00000000E+00
  0.00000000E+00  0.00000000E+00  0.00000000E+00
  0.00000000E+00  0.00000000E+00  0.00000000E+00
  0.00000000E+00  0.00000000E+00  0.00000000E+00
  0.00000000E+00  0.00000000E+00  0.00000000E+00
  0.00000000E+00  0.00000000E+00  0.00000000E+00
  0.00000000E+00  0.00000000E+00  0.00000000E+00
  0.00000000E+00  0.00000000E+00  0.00000000E+00
  0.00000000E+00  0.00000000E+00  0.00000000E+00
  0.00000000E+00  0.00000000E+00  0.00000000E+00
  0.00000000E+00  0.00000000E+00  0.00000000E+00
  0.00000000E+00  0.00000000E+00  0.00000000E+00
  0.00000000E+00  0.00000000E+00  0.00000000E+00
  0.00000000E+00  0.00000000E+00  0.00000000E+00
  0.00000000E+00  0.00000000E+00  0.00000000E+00
  0.00000000E+00  0.00000000E+00  0.00000000E+00
  0.00000000E+00  0.00000000E+00  0.00000000E+00
  0.00000000E+00  0.00000000E+00  0.00000000E+00
  0.00000000E+00  0.00000000E+00  0.00000000E+00
  0.00000000E+00  0.00000000E+00  0.00000000E+00
  0.00000000E+00  0.00000000E+00  0.00000000E+00
  0.00000000E+00  0.00000000E+00  0.00000000E+00
  0.00000000E+00  0.00000000E+00  0.00000000E+00
  0.00000000E+00  0.00000000E+00  0.00000000E+00
  0.00000000E+00  0.00000000E+00  0.00000000E+00
  0.00000000E+00  0.00000000E+00  0.00000000E+00
  0.00000000E+00  0.00000000E+00  0.00000000E+00
  0.00000000E+00  0.00000000E+00  0.00000000E+00
  0.00000000E+00  0.00000000E+00  0.00000000E+00
  0.00000000E+00  0.00000000E+00  0.00000000E+00
  0.00000000E+00  0.00000000E+00  0.00000000E+00
  0.00000000E+00  0.00000000E+00  0.00000000E+00
  0.00000000E+00  0.00000000E+00  0.00000000E+00
  0.00000000E+00  0.00000000E+00  0.00000000E+00
  0.00000000E+00  0.00000000E+00  0.00000000E+00
  0.00000000E+00  0.00000000E+00  0.00000000E+00
  0.00000000E+00  0.00000000E+00  0.00000000E+00
  0.00000000E+00  0.00000000E+00  0.00000000E+00
  0.00000000E+00  0.00000000E+00  0.00000000E+00
  0.00000000E+00  0.00000000E+00  0.00000000E+00
  0.00000000E+00  0.00000000E+00  0.00000000E+00
  0.00000000E+00  0.00000000E+00  0.00000000E+00
  0.00000000E+00  0.00000000E+00  0.00000000E+00
  0.00000000E+00  0.00000000E+00  0.00000000E+00
  0.00000000E+00  0.00000000E+00  0.00000000E+00
  0.00000000E+00  0.00000000E+00  0.00000000E+00
  0.00000000E+00  0.00000000E+00  0.00000000E+00
  0.00000000E+00  0.00000000E+00  0.00000000E+00
  0.00000000E+00  0.00000000E+00  0.00000000E+00
  0.00000000E+00  0.00000000E+00  0.00000000E+00
  0.00000000E+00  0.00000000E+00  0.00000000E+00
  0.00000000E+00  0.00000000E+00  0.00000000E+00
  0.00000000E+00  0.00000000E+00  0.00000000E+00
  0.00000000E+00  0.00000000E+00  0.00000000E+00
  0.00000000E+00  0.00000000E+00  0.00000000E+00
  0.00000000E+00  0.00000000E+00  0.00000000E+00
