Al   Sc   N                             
   1.00000000000000     
    -9.9518301919188978    0.0056760132710451   -0.0004895637917434
    -4.9774639948743395    8.6577720789546149    0.0013350867188456
     0.0028348185744292    0.0009561009176262   -9.4597381577220236
   Al   Sc   N 
    28     8    36
Direct
  0.1076953782909982  0.0966575067184721  0.3272952153635416
  0.2297378650614732  0.1958351560830209  0.0831432413853292
  0.7780912350180316  0.0984629862507020  0.8304637474417831
  0.8865189871971992  0.2064973208344298  0.5785976727780380
  0.4416644649015140  0.0943032529578218  0.3303898597819312
  0.5543977576207766  0.2041536159259891  0.0761955575333033
  0.1053977837331885  0.0996684368033272  0.8303634152372723
  0.2178177155821146  0.2076863468724142  0.5740616672396541
  0.7805298918210823  0.0956203507752562  0.3256259535596584
  0.8859762300190610  0.2027312271136452  0.0768799253331736
  0.4410855188089187  0.0975226226015877  0.8257627326764450
  0.5630348296605732  0.1954760708595487  0.5814859676862909
  0.1165321204884648  0.4228906203242957  0.3258733202347415
  0.2299356704945907  0.5404114886520048  0.0780495980206197
  0.7786740391331790  0.4169916794719128  0.8241720263848222
  0.8898736544551227  0.5296575174463669  0.5745489064463243
  0.5598737789937687  0.5237319259851674  0.0803000834373080
  0.7791809619362482  0.4180331220871878  0.3331245648780055
  0.4556628842909305  0.4197275655573875  0.8264163583643338
  0.5657718892357835  0.5387267980930091  0.5775295120685229
  0.1101995390014636  0.7656636433809894  0.3216360407659451
  0.2156007230584223  0.8788024591387540  0.0821642170166612
  0.8860296139404085  0.8840882954836644  0.5754228535589689
  0.4428993706363329  0.7628516989352860  0.3206291377177024
  0.5517819788406442  0.8845498386258939  0.0813861876439290
  0.1048966965785425  0.7739668712980077  0.8372566262045140
  0.8870509719192796  0.8821060386919228  0.0810801719546106
  0.5491204968249974  0.8749303970310791  0.5767287827305978
  0.4474387575468128  0.4236057058290257  0.3460652086706517
  0.1132165708120709  0.4201594740135377  0.8498466633140964
  0.2158665183276653  0.5440328501645411  0.5977061985410614
  0.8824730250146686  0.5351574211370504  0.1006196670216397
  0.7789026013069247  0.7659335639966827  0.8374424371491216
  0.2227297877413150  0.8772179084299836  0.5889289798134385
  0.7749851075004131  0.7687468069742778  0.3478861906162649
  0.4489321058933200  0.7545605746740520  0.8533385878613018
  0.2216014956958077  0.2058318357030160  0.3705375396691934
  0.1065509803930453  0.0979451756160614  0.1261211530359034
  0.8886161764985800  0.2049299631972374  0.8751814541836822
  0.7775492327692675  0.0964687395540551  0.6291256895159734
  0.5688407582954440  0.1800885691846830  0.3802600348585941
  0.4444419304045084  0.0974967535343438  0.1297083620802439
  0.2322460240376358  0.1831178709797001  0.8824273896608119
  0.0996296204226255  0.1151685057427514  0.6269025794032714
  0.8889215307835272  0.2023491945347260  0.3776928937395709
  0.7743267595998873  0.0982623456963267  0.1240882778751597
  0.5537481601413887  0.2039623107745072  0.8719633718569284
  0.4397426334684482  0.0962578333321247  0.6234465356893608
  0.2019805688498622  0.5515210384771407  0.3682667835377131
  0.1318414460233441  0.4175072919071212  0.1140611893719381
  0.8742642951368325  0.5296966438088404  0.8752632092242507
  0.7798304923521542  0.4237925571067720  0.6202582002416435
  0.5643687658100589  0.5507396256109161  0.3748088334909525
  0.4449855601417312  0.4230496655023757  0.1198713857281604
  0.2347004134945934  0.5503086134512856  0.8662113985653832
  0.1018197671181298  0.4187762275008424  0.6212617152080995
  0.8985317949937297  0.5184247700405322  0.3621456119600239
  0.7681904085672215  0.4099286452039479  0.1343126644748196
  0.5709066532588025  0.5109363367188706  0.8791348379359221
  0.4661273484514155  0.4164098936955369  0.6151978089456378
  0.2232990417558369  0.8722176654317764  0.3591110128922494
  0.1109625680649415  0.7618168800298832  0.1186084706238404
  0.8935734715599324  0.8883783656404276  0.8819593337717890
  0.7773868217700937  0.7630501817309749  0.5997627972251180
  0.5307837610008690  0.8836527155156162  0.3740810580378380
  0.4467455809980692  0.7577578138923897  0.1122033894623726
  0.2051337046006196  0.8867579318450822  0.8743472647001767
  0.0887935671937328  0.7780009231342078  0.6361378597144878
  0.9008610127374723  0.8862843924078092  0.3738326643334631
  0.7698086387669392  0.7807173973376536  0.1160448076649843
  0.5470959840804923  0.8937292626385585  0.8808327248970187
  0.4643972311968980  0.7494531394518802  0.6276659105240796
 
  0.00000000E+00  0.00000000E+00  0.00000000E+00
  0.00000000E+00  0.00000000E+00  0.00000000E+00
  0.00000000E+00  0.00000000E+00  0.00000000E+00
  0.00000000E+00  0.00000000E+00  0.00000000E+00
  0.00000000E+00  0.00000000E+00  0.00000000E+00
  0.00000000E+00  0.00000000E+00  0.00000000E+00
  0.00000000E+00  0.00000000E+00  0.00000000E+00
  0.00000000E+00  0.00000000E+00  0.00000000E+00
  0.00000000E+00  0.00000000E+00  0.00000000E+00
  0.00000000E+00  0.00000000E+00  0.00000000E+00
  0.00000000E+00  0.00000000E+00  0.00000000E+00
  0.00000000E+00  0.00000000E+00  0.00000000E+00
  0.00000000E+00  0.00000000E+00  0.00000000E+00
  0.00000000E+00  0.00000000E+00  0.00000000E+00
  0.00000000E+00  0.00000000E+00  0.00000000E+00
  0.00000000E+00  0.00000000E+00  0.00000000E+00
  0.00000000E+00  0.00000000E+00  0.00000000E+00
  0.00000000E+00  0.00000000E+00  0.00000000E+00
  0.00000000E+00  0.00000000E+00  0.00000000E+00
  0.00000000E+00  0.00000000E+00  0.00000000E+00
  0.00000000E+00  0.00000000E+00  0.00000000E+00
  0.00000000E+00  0.00000000E+00  0.00000000E+00
  0.00000000E+00  0.00000000E+00  0.00000000E+00
  0.00000000E+00  0.00000000E+00  0.00000000E+00
  0.00000000E+00  0.00000000E+00  0.00000000E+00
  0.00000000E+00  0.00000000E+00  0.00000000E+00
  0.00000000E+00  0.00000000E+00  0.00000000E+00
  0.00000000E+00  0.00000000E+00  0.00000000E+00
  0.00000000E+00  0.00000000E+00  0.00000000E+00
  0.00000000E+00  0.00000000E+00  0.00000000E+00
  0.00000000E+00  0.00000000E+00  0.00000000E+00
  0.00000000E+00  0.00000000E+00  0.00000000E+00
  0.00000000E+00  0.00000000E+00  0.00000000E+00
  0.00000000E+00  0.00000000E+00  0.00000000E+00
  0.00000000E+00  0.00000000E+00  0.00000000E+00
  0.00000000E+00  0.00000000E+00  0.00000000E+00
  0.00000000E+00  0.00000000E+00  0.00000000E+00
  0.00000000E+00  0.00000000E+00  0.00000000E+00
  0.00000000E+00  0.00000000E+00  0.00000000E+00
  0.00000000E+00  0.00000000E+00  0.00000000E+00
  0.00000000E+00  0.00000000E+00  0.00000000E+00
  0.00000000E+00  0.00000000E+00  0.00000000E+00
  0.00000000E+00  0.00000000E+00  0.00000000E+00
  0.00000000E+00  0.00000000E+00  0.00000000E+00
  0.00000000E+00  0.00000000E+00  0.00000000E+00
  0.00000000E+00  0.00000000E+00  0.00000000E+00
  0.00000000E+00  0.00000000E+00  0.00000000E+00
  0.00000000E+00  0.00000000E+00  0.00000000E+00
  0.00000000E+00  0.00000000E+00  0.00000000E+00
  0.00000000E+00  0.00000000E+00  0.00000000E+00
  0.00000000E+00  0.00000000E+00  0.00000000E+00
  0.00000000E+00  0.00000000E+00  0.00000000E+00
  0.00000000E+00  0.00000000E+00  0.00000000E+00
  0.00000000E+00  0.00000000E+00  0.00000000E+00
  0.00000000E+00  0.00000000E+00  0.00000000E+00
  0.00000000E+00  0.00000000E+00  0.00000000E+00
  0.00000000E+00  0.00000000E+00  0.00000000E+00
  0.00000000E+00  0.00000000E+00  0.00000000E+00
  0.00000000E+00  0.00000000E+00  0.00000000E+00
  0.00000000E+00  0.00000000E+00  0.00000000E+00
  0.00000000E+00  0.00000000E+00  0.00000000E+00
  0.00000000E+00  0.00000000E+00  0.00000000E+00
  0.00000000E+00  0.00000000E+00  0.00000000E+00
  0.00000000E+00  0.00000000E+00  0.00000000E+00
  0.00000000E+00  0.00000000E+00  0.00000000E+00
  0.00000000E+00  0.00000000E+00  0.00000000E+00
  0.00000000E+00  0.00000000E+00  0.00000000E+00
  0.00000000E+00  0.00000000E+00  0.00000000E+00
  0.00000000E+00  0.00000000E+00  0.00000000E+00
  0.00000000E+00  0.00000000E+00  0.00000000E+00
  0.00000000E+00  0.00000000E+00  0.00000000E+00
  0.00000000E+00  0.00000000E+00  0.00000000E+00
