Al   Sc   N                             
   1.00000000000000     
    -9.7332678509404484    0.0052762755020212    0.0058258016758390
    -4.8696602751981111    8.4559602176332351    0.0036120568237909
     0.0077789413102283   -0.0006079577495167  -10.0983079619420728
   Al   Sc   N 
    28     8    36
Direct
  0.1060603858889806  0.1019322624802541  0.3933562172100906
  0.2267842708938304  0.2026061257402958  0.1512115458601144
  0.7790416489502121  0.0983856394155751  0.8967593096618032
  0.8863477459407605  0.2083230514730587  0.6476983500833029
  0.4413825620079805  0.0947190234822344  0.3986308636930715
  0.5597155553222635  0.1958250110806361  0.1448099927010205
  0.1069753483390414  0.0948564289931468  0.9020595484403913
  0.2214872539470818  0.2014574861073584  0.6457772173374821
  0.7804126833644034  0.0948285824498001  0.3990390176657428
  0.8846818853287459  0.2028572245162721  0.1486123288145649
  0.4413825687279953  0.0961689374578114  0.8977042364288579
  0.5585076311535602  0.2029276930824793  0.6501528834135968
  0.1099646793755156  0.4220356796126055  0.4030168406222074
  0.2197396425187961  0.5412430609263339  0.1501754733170202
  0.7761671117292224  0.4146227237095772  0.8961651334128788
  0.8833109399853143  0.5345184114432016  0.6493919426170223
  0.5575852065831981  0.5389220145212690  0.1491227310650771
  0.7816316116166959  0.4229379426005764  0.4022225827598476
  0.4497148118219485  0.4237912210324666  0.9045988592568577
  0.5662947469814199  0.5279335830975072  0.6474967230435738
  0.1047899087407700  0.7697315255236461  0.3921739337776131
  0.2217161606558165  0.8742678297981996  0.1536866639365755
  0.8857233277648362  0.8806449877293119  0.6502864590057129
  0.4477457459976222  0.7610103996612239  0.3974978799634385
  0.5466331446923220  0.8800840064219955  0.1535834399234375
  0.1107360965046453  0.7692537136688600  0.9048955211594958
  0.8878263363414263  0.8816550225922200  0.1489020754225763
  0.5550562950190354  0.8763321116965486  0.6461155552676772
  0.4514082181647936  0.4222402208787912  0.3802253590739966
  0.1188870114413092  0.4214505163747191  0.8874476757253831
  0.2254969394423583  0.5423531185358428  0.6386044887346713
  0.8889150115964171  0.5319943379417822  0.1441332609211514
  0.7756843988931692  0.7691649957008551  0.8901131814486618
  0.2171772563701495  0.8811298336049447  0.6372660721526628
  0.7786055348691647  0.7647516465666442  0.3941491516633988
  0.4436338651094616  0.7570347587559070  0.8927260432741662
  0.2233279913820567  0.2063216039005695  0.3416349668565246
  0.1091054436188088  0.0967024924713300  0.0960735218865310
  0.8910900313388126  0.2021033871925582  0.8385230529275987
  0.7758757978977258  0.0965338823869430  0.5911570598238782
  0.5683279105622461  0.1792509466852010  0.3334014152303482
  0.4420856586756372  0.0940206903694474  0.0884735982823202
  0.2296596281120813  0.1834298270452805  0.8346840192370735
  0.0968296786846139  0.1172454384477675  0.5805277238907038
  0.8847893597235412  0.2074511951014557  0.3390837986228661
  0.7775567745803258  0.0951491603681376  0.0861801170130718
  0.5532459834857946  0.2054540503118787  0.8441703276364123
  0.4431116492731348  0.0970745544074916  0.5888399089748191
  0.2014117481644178  0.5492041160229491  0.3444894927106930
  0.1309189600608249  0.4166129585556035  0.0955390014513000
  0.8769125836385712  0.5278695468609413  0.8416921635383972
  0.7790955007854024  0.4238709069877231  0.5910989154562643
  0.5701633613612742  0.5480938839872209  0.3365647507817471
  0.4452950207925355  0.4262627512440034  0.1039161683878618
  0.2340244533521769  0.5534321933163966  0.8496260581220341
  0.1036934421659126  0.4197092135750538  0.5983436169951375
  0.8976505347515342  0.5201863627972401  0.3521294817638321
  0.7675412972784841  0.4139028061446197  0.0842030876354229
  0.5656810310909961  0.5150983700222440  0.8367819658312428
  0.4668418359675144  0.4141719033064319  0.5884420917798749
  0.2231473484256199  0.8742609823891883  0.3478124542715690
  0.1104788815723978  0.7633613256384777  0.0964588315197830
  0.8993850113257125  0.8849408633346059  0.8385358202292039
  0.7792781889105029  0.7621576619945358  0.6105738383701222
  0.5352087119011131  0.8841320256832574  0.3416376696666035
  0.4433440870070058  0.7614527699390550  0.1030699305592364
  0.2043968045972093  0.8842356877641535  0.8470543265570853
  0.0888049053275566  0.7752211788984908  0.5778055081761408
  0.8958587561107407  0.8875977815828477  0.3346468932944333
  0.7675300589288767  0.7797535466787053  0.1074508332614670
  0.5431000017241701  0.8916764161133202  0.8317678780844204
  0.4653664583775097  0.7476794701822556  0.5911412105469154
 
  0.00000000E+00  0.00000000E+00  0.00000000E+00
  0.00000000E+00  0.00000000E+00  0.00000000E+00
  0.00000000E+00  0.00000000E+00  0.00000000E+00
  0.00000000E+00  0.00000000E+00  0.00000000E+00
  0.00000000E+00  0.00000000E+00  0.00000000E+00
  0.00000000E+00  0.00000000E+00  0.00000000E+00
  0.00000000E+00  0.00000000E+00  0.00000000E+00
  0.00000000E+00  0.00000000E+00  0.00000000E+00
  0.00000000E+00  0.00000000E+00  0.00000000E+00
  0.00000000E+00  0.00000000E+00  0.00000000E+00
  0.00000000E+00  0.00000000E+00  0.00000000E+00
  0.00000000E+00  0.00000000E+00  0.00000000E+00
  0.00000000E+00  0.00000000E+00  0.00000000E+00
  0.00000000E+00  0.00000000E+00  0.00000000E+00
  0.00000000E+00  0.00000000E+00  0.00000000E+00
  0.00000000E+00  0.00000000E+00  0.00000000E+00
  0.00000000E+00  0.00000000E+00  0.00000000E+00
  0.00000000E+00  0.00000000E+00  0.00000000E+00
  0.00000000E+00  0.00000000E+00  0.00000000E+00
  0.00000000E+00  0.00000000E+00  0.00000000E+00
  0.00000000E+00  0.00000000E+00  0.00000000E+00
  0.00000000E+00  0.00000000E+00  0.00000000E+00
  0.00000000E+00  0.00000000E+00  0.00000000E+00
  0.00000000E+00  0.00000000E+00  0.00000000E+00
  0.00000000E+00  0.00000000E+00  0.00000000E+00
  0.00000000E+00  0.00000000E+00  0.00000000E+00
  0.00000000E+00  0.00000000E+00  0.00000000E+00
  0.00000000E+00  0.00000000E+00  0.00000000E+00
  0.00000000E+00  0.00000000E+00  0.00000000E+00
  0.00000000E+00  0.00000000E+00  0.00000000E+00
  0.00000000E+00  0.00000000E+00  0.00000000E+00
  0.00000000E+00  0.00000000E+00  0.00000000E+00
  0.00000000E+00  0.00000000E+00  0.00000000E+00
  0.00000000E+00  0.00000000E+00  0.00000000E+00
  0.00000000E+00  0.00000000E+00  0.00000000E+00
  0.00000000E+00  0.00000000E+00  0.00000000E+00
  0.00000000E+00  0.00000000E+00  0.00000000E+00
  0.00000000E+00  0.00000000E+00  0.00000000E+00
  0.00000000E+00  0.00000000E+00  0.00000000E+00
  0.00000000E+00  0.00000000E+00  0.00000000E+00
  0.00000000E+00  0.00000000E+00  0.00000000E+00
  0.00000000E+00  0.00000000E+00  0.00000000E+00
  0.00000000E+00  0.00000000E+00  0.00000000E+00
  0.00000000E+00  0.00000000E+00  0.00000000E+00
  0.00000000E+00  0.00000000E+00  0.00000000E+00
  0.00000000E+00  0.00000000E+00  0.00000000E+00
  0.00000000E+00  0.00000000E+00  0.00000000E+00
  0.00000000E+00  0.00000000E+00  0.00000000E+00
  0.00000000E+00  0.00000000E+00  0.00000000E+00
  0.00000000E+00  0.00000000E+00  0.00000000E+00
  0.00000000E+00  0.00000000E+00  0.00000000E+00
  0.00000000E+00  0.00000000E+00  0.00000000E+00
  0.00000000E+00  0.00000000E+00  0.00000000E+00
  0.00000000E+00  0.00000000E+00  0.00000000E+00
  0.00000000E+00  0.00000000E+00  0.00000000E+00
  0.00000000E+00  0.00000000E+00  0.00000000E+00
  0.00000000E+00  0.00000000E+00  0.00000000E+00
  0.00000000E+00  0.00000000E+00  0.00000000E+00
  0.00000000E+00  0.00000000E+00  0.00000000E+00
  0.00000000E+00  0.00000000E+00  0.00000000E+00
  0.00000000E+00  0.00000000E+00  0.00000000E+00
  0.00000000E+00  0.00000000E+00  0.00000000E+00
  0.00000000E+00  0.00000000E+00  0.00000000E+00
  0.00000000E+00  0.00000000E+00  0.00000000E+00
  0.00000000E+00  0.00000000E+00  0.00000000E+00
  0.00000000E+00  0.00000000E+00  0.00000000E+00
  0.00000000E+00  0.00000000E+00  0.00000000E+00
  0.00000000E+00  0.00000000E+00  0.00000000E+00
  0.00000000E+00  0.00000000E+00  0.00000000E+00
  0.00000000E+00  0.00000000E+00  0.00000000E+00
  0.00000000E+00  0.00000000E+00  0.00000000E+00
  0.00000000E+00  0.00000000E+00  0.00000000E+00
