Al   Sc   N                             
   1.00000000000000     
    -9.9183072830175192    0.0056881265367731   -0.0006809385028823
    -4.9614312449957305    8.6262450204025587    0.0012660876247564
     0.0019788312719784    0.0011400493935436   -9.5614457277251539
   Al   Sc   N 
    28     8    36
Direct
  0.1079678846471097  0.0964722242793101  0.3262105452026844
  0.2298135848774265  0.1956279000939034  0.0814306657719257
  0.7780128463476785  0.0984455293948301  0.8293832780779766
  0.8864704297033867  0.2067186831216716  0.5776988498127125
  0.4413732211310801  0.0943475648945196  0.3291140499990988
  0.5543193649308549  0.2044624895454490  0.0754154632090120
  0.1053440185640540  0.0995288421195326  0.8291431370873781
  0.2176512149235350  0.2079072855120003  0.5735193364472622
  0.7807885376719952  0.0954961884069903  0.3247527271351416
  0.8859489123424069  0.2026669248298916  0.0758345408937160
  0.4413626046969910  0.0974542340833437  0.8250361723388622
  0.5630939551062966  0.1952347049501384  0.5800206975361704
  0.1170326161888369  0.4226472460487116  0.3235199972722853
  0.2303001151054787  0.5404973536121886  0.0756887547181506
  0.7787626830839613  0.4171686850681553  0.8235265840891941
  0.8901426203452800  0.5292379743541886  0.5718542697050069
  0.5596929139189584  0.5234454221690115  0.0787040501834539
  0.7789912482623365  0.4179996945117779  0.3315155614833429
  0.4559408653195831  0.4195183206821866  0.8242817219654839
  0.5660482240048736  0.5389941599140187  0.5767474113461475
  0.1104010474519654  0.7654507700234916  0.3207655786673058
  0.2152910174609843  0.8787796803393704  0.0802423763697178
  0.8862355183452735  0.8840701340122195  0.5741202644027723
  0.4427381107634787  0.7629955157713653  0.3188942469538745
  0.5522182014788157  0.8845397018029786  0.0802013453150323
  0.1047304522727828  0.7741541694524159  0.8356019315240815
  0.8870390722794639  0.8818993579819221  0.0799081669473978
  0.5489166601498354  0.8749464662424700  0.5752848894268467
  0.4471868774230572  0.4239970091979686  0.3450746375966318
  0.1126163130680240  0.4204350200722828  0.8489343600561767
  0.2154968515994540  0.5437346573365218  0.5965343084777288
  0.8821068841569399  0.5358005354792610  0.0999837900753064
  0.7790282830048127  0.7656573132592754  0.8345209450596016
  0.2231375630420658  0.8769214365660858  0.5871114980581211
  0.7748497657282982  0.7690624050147434  0.3472569013547329
  0.4489626127484883  0.7546612715152179  0.8526350191960432
  0.2215074579988254  0.2060640422633426  0.3721726700683163
  0.1066915663054360  0.0978630035190733  0.1272299877713792
  0.8886094297730978  0.2048964395487687  0.8763369727362260
  0.7774973521361304  0.0964082162164672  0.6301723529923038
  0.5688854839890922  0.1798602712415516  0.3812714510632560
  0.4442957740477951  0.0975434863236657  0.1307000681692188
  0.2323621076380036  0.1828247676493007  0.8833525631866195
  0.0996824495478918  0.1149796007561434  0.6283548455470012
  0.8889726934224882  0.2025152618633044  0.3788989992868537
  0.7744914995998684  0.0980912740173849  0.1254230847657070
  0.5537238217692675  0.2041550098463318  0.8733828079550676
  0.4398991354327393  0.0961946546492172  0.6249015526236903
  0.2014866838971656  0.5514790213107332  0.3704896119121628
  0.1322368024549618  0.4174752143217404  0.1146932373512541
  0.8735223588114636  0.5301873653565181  0.8780411495993192
  0.7800541484784915  0.4240258837971354  0.6219142082272384
  0.5645284926267067  0.5511864474322721  0.3765499682223989
  0.4446977912278243  0.4233632808407322  0.1215798767124454
  0.2348897937748049  0.5503799001716487  0.8669576830117620
  0.1010426897331698  0.4187869518257088  0.6236289666222987
  0.8989514207576619  0.5179068110583032  0.3624152542805845
  0.7677298811504087  0.4098799943144869  0.1353139418487146
  0.5709169777625291  0.5104691710337832  0.8801912335234334
  0.4663071430031778  0.4163486728421759  0.6160791384790514
  0.2234861758306650  0.8719845311525276  0.3605300623535328
  0.1110638448453258  0.7615687944458145  0.1201148599566437
  0.8934915129601961  0.8881704443563265  0.8831859627110532
  0.7775457849687584  0.7627001470921186  0.5992279038935280
  0.5300557693194463  0.8838729402591952  0.3754306518434944
  0.4467178849644640  0.7577398706737313  0.1125453721389604
  0.2047508315578597  0.8868311903939556  0.8758383162678172
  0.0886380181139756  0.7782097529037770  0.6375610134027951
  0.9013432320446100  0.8863918206752146  0.3754225228260708
  0.7696065532350360  0.7813189220727210  0.1184040382863714
  0.5477291285105110  0.8937822212822653  0.8824900014656549
  0.4647565908265534  0.7495134722190571  0.6298113826847498
 
  0.00000000E+00  0.00000000E+00  0.00000000E+00
  0.00000000E+00  0.00000000E+00  0.00000000E+00
  0.00000000E+00  0.00000000E+00  0.00000000E+00
  0.00000000E+00  0.00000000E+00  0.00000000E+00
  0.00000000E+00  0.00000000E+00  0.00000000E+00
  0.00000000E+00  0.00000000E+00  0.00000000E+00
  0.00000000E+00  0.00000000E+00  0.00000000E+00
  0.00000000E+00  0.00000000E+00  0.00000000E+00
  0.00000000E+00  0.00000000E+00  0.00000000E+00
  0.00000000E+00  0.00000000E+00  0.00000000E+00
  0.00000000E+00  0.00000000E+00  0.00000000E+00
  0.00000000E+00  0.00000000E+00  0.00000000E+00
  0.00000000E+00  0.00000000E+00  0.00000000E+00
  0.00000000E+00  0.00000000E+00  0.00000000E+00
  0.00000000E+00  0.00000000E+00  0.00000000E+00
  0.00000000E+00  0.00000000E+00  0.00000000E+00
  0.00000000E+00  0.00000000E+00  0.00000000E+00
  0.00000000E+00  0.00000000E+00  0.00000000E+00
  0.00000000E+00  0.00000000E+00  0.00000000E+00
  0.00000000E+00  0.00000000E+00  0.00000000E+00
  0.00000000E+00  0.00000000E+00  0.00000000E+00
  0.00000000E+00  0.00000000E+00  0.00000000E+00
  0.00000000E+00  0.00000000E+00  0.00000000E+00
  0.00000000E+00  0.00000000E+00  0.00000000E+00
  0.00000000E+00  0.00000000E+00  0.00000000E+00
  0.00000000E+00  0.00000000E+00  0.00000000E+00
  0.00000000E+00  0.00000000E+00  0.00000000E+00
  0.00000000E+00  0.00000000E+00  0.00000000E+00
  0.00000000E+00  0.00000000E+00  0.00000000E+00
  0.00000000E+00  0.00000000E+00  0.00000000E+00
  0.00000000E+00  0.00000000E+00  0.00000000E+00
  0.00000000E+00  0.00000000E+00  0.00000000E+00
  0.00000000E+00  0.00000000E+00  0.00000000E+00
  0.00000000E+00  0.00000000E+00  0.00000000E+00
  0.00000000E+00  0.00000000E+00  0.00000000E+00
  0.00000000E+00  0.00000000E+00  0.00000000E+00
  0.00000000E+00  0.00000000E+00  0.00000000E+00
  0.00000000E+00  0.00000000E+00  0.00000000E+00
  0.00000000E+00  0.00000000E+00  0.00000000E+00
  0.00000000E+00  0.00000000E+00  0.00000000E+00
  0.00000000E+00  0.00000000E+00  0.00000000E+00
  0.00000000E+00  0.00000000E+00  0.00000000E+00
  0.00000000E+00  0.00000000E+00  0.00000000E+00
  0.00000000E+00  0.00000000E+00  0.00000000E+00
  0.00000000E+00  0.00000000E+00  0.00000000E+00
  0.00000000E+00  0.00000000E+00  0.00000000E+00
  0.00000000E+00  0.00000000E+00  0.00000000E+00
  0.00000000E+00  0.00000000E+00  0.00000000E+00
  0.00000000E+00  0.00000000E+00  0.00000000E+00
  0.00000000E+00  0.00000000E+00  0.00000000E+00
  0.00000000E+00  0.00000000E+00  0.00000000E+00
  0.00000000E+00  0.00000000E+00  0.00000000E+00
  0.00000000E+00  0.00000000E+00  0.00000000E+00
  0.00000000E+00  0.00000000E+00  0.00000000E+00
  0.00000000E+00  0.00000000E+00  0.00000000E+00
  0.00000000E+00  0.00000000E+00  0.00000000E+00
  0.00000000E+00  0.00000000E+00  0.00000000E+00
  0.00000000E+00  0.00000000E+00  0.00000000E+00
  0.00000000E+00  0.00000000E+00  0.00000000E+00
  0.00000000E+00  0.00000000E+00  0.00000000E+00
  0.00000000E+00  0.00000000E+00  0.00000000E+00
  0.00000000E+00  0.00000000E+00  0.00000000E+00
  0.00000000E+00  0.00000000E+00  0.00000000E+00
  0.00000000E+00  0.00000000E+00  0.00000000E+00
  0.00000000E+00  0.00000000E+00  0.00000000E+00
  0.00000000E+00  0.00000000E+00  0.00000000E+00
  0.00000000E+00  0.00000000E+00  0.00000000E+00
  0.00000000E+00  0.00000000E+00  0.00000000E+00
  0.00000000E+00  0.00000000E+00  0.00000000E+00
  0.00000000E+00  0.00000000E+00  0.00000000E+00
  0.00000000E+00  0.00000000E+00  0.00000000E+00
  0.00000000E+00  0.00000000E+00  0.00000000E+00
