supercell of POSCAR                     
   1.03600000000000     
     9.6051007291200001   -5.6678653607799996   -9.9907275475200006
     9.5551777488200003    5.5783510108199996    9.9928581731800001
    -1.5573508785200001   -8.3719044994900003    4.9655686364999996
   Al   Gd   N 
    72    24    95
Direct
  0.3015364412419004  0.2900389887552066  0.5363968456200254
  0.1433932772400581  0.2436287809144133  0.3101744435584521
  0.3086479396694557  0.4089950368225104  0.3086944262995885
  0.4650008467352009  0.3270194360447505  0.7893774257235080
  0.1413893259664221  0.4987887674603897  0.7831521000946040
  0.2993565197253432  0.1766864979573626  0.7809623936826284
  0.4699319097243801  0.4461055057373429  0.5329374348190399
  0.1417132791720377  0.1194712792139541  0.5334597995756525
  0.4786305543768279  0.0720589912143978  0.2977355437435847
  0.2782212377649387  0.1082219556434936  0.3354444960995551
  0.1169918340748239  0.0697233911831177  0.1030451890064441
  0.1145758261879877  0.1953459012375802  0.8154272628712178
  0.2743890287407211  0.3589791686529793  0.8109871168023588
  0.1116080279625820  0.3248313102851341  0.5885345086356324
  0.2709688181849259  0.4853719173760496  0.5753654109340332
  0.4488202990250585  0.2791282302556723  0.3357082610391160
  0.1114485343414984  0.4450911354227429  0.3407068267936708
  0.4482845360591554  0.4033025998158877  0.1036739158105107
  0.8014049966811143  0.2880812611385579  0.5398766993256316
  0.6438159890220092  0.2442710080393340  0.3125310489883404
  0.8083148755392031  0.4091430992849325  0.3129277095702108
  0.9625639461722315  0.3244388026912048  0.7887589640988324
  0.6435751519416613  0.4990566893927095  0.7858273035406071
  0.7954239720715606  0.1649788843720685  0.7791481229750090
  0.9689574538212682  0.4465812748612237  0.5363526531762446
  0.6435465865782035  0.1194163952891429  0.5379217467621444
  0.9781128231709104  0.0717489125242565  0.2961173890911724
  0.7758034647906555  0.1088805096781371  0.3348633001557886
  0.6125776624744788  0.0705487211643359  0.1025951974796016
  0.6153064178953187  0.1960542467779689  0.8161106950060244
  0.7749600168539814  0.3556690292986744  0.8129346617133208
  0.6122846564415312  0.3247747199386311  0.5891104779262477
  0.7711896935178615  0.4853756068783071  0.5784233889043335
  0.9481884076287201  0.2805047245957439  0.3365593696910310
  0.6117372816739106  0.4455996644502775  0.3404584044079613
  0.9487944112813338  0.4074455158582708  0.1051179466821921
  0.3017317775164443  0.7862273902981229  0.5381235548578474
  0.1436525992272735  0.7434449313305862  0.3123692953528447
  0.3089673297002449  0.9077543332874569  0.3092233810927851
  0.4624816414134543  0.8241500632005412  0.7881773771709817
  0.1385997226121063  0.9942936534790476  0.7859537201792506
  0.2953184357988334  0.6643930251653813  0.7786826175338035
  0.4699508655593618  0.9462948621890561  0.5347578082523015
  0.1430594642446295  0.6187880567101018  0.5377154343936752
  0.4785621435691638  0.5714229232578063  0.2958010317751487
  0.2756650672430467  0.6083446703899611  0.3339928067414206
  0.1119581983473594  0.5698622965015119  0.1027648669167363
  0.1147362807044274  0.6954343009801960  0.8154894326363902
  0.2755705905054384  0.8544964425573269  0.8119565701297873
  0.1112465112113767  0.8234354904887198  0.5881259788063034
  0.2747512576917757  0.9785888777176908  0.5710748913120653
  0.4484423349620528  0.7801169805442214  0.3355005744759794
  0.1110581373190982  0.9441249524200259  0.3394534249584638
  0.4487683877533115  0.9075956360012114  0.1042597613478264
  0.8009016801482147  0.7887498057827713  0.5373416720456774
  0.6439960788206776  0.7433374007234406  0.3100137001023668
  0.8085028560350835  0.9083254227578905  0.3084809934135677
  0.9616895423110137  0.8240555049098433  0.7904831568087545
  0.6425440674722864  0.9989027495888507  0.7833484111897420
  0.7928438728203417  0.6671450488224409  0.7770756853516403
  0.9690973584072680  0.9455051232442386  0.5329874110310797
  0.6428313920139814  0.6192470419508425  0.5373226604406725
  0.9782427829169364  0.5716391211855978  0.2989396911737714
  0.7769101859983536  0.6084670287568628  0.3363524927239041
  0.6163456988345359  0.5704901902961836  0.1019654769727225
  0.6137315468772258  0.6962580937128422  0.8158301750279335
  0.7739922135164718  0.8565936951163593  0.8107254081197439
  0.6115124808926993  0.8242614855991519  0.5881568588639183
  0.7708337629460971  0.9850990097024095  0.5752070451102824
  0.9480717123342046  0.7785431899649069  0.3360257144952215
  0.6117898342882953  0.9450907548619512  0.3400219699098486
  0.9483447646346974  0.9031204680652181  0.1037675202038102
  0.4814150134231525  0.1905772064738329  0.0373701737556118
  0.1357967125261794  0.3651892000656431  0.0314058307685698
  0.3126654531155424  0.0223891895487114  0.0368632308037462
  0.2841013617093253  0.2326981149178735  0.0806096283735087
  0.4506235143697026  0.0195037051204636  0.8276661195010746
  0.4438332798410229  0.1548718932294690  0.5755161788793544
  0.9819978966160647  0.1961765612232114  0.0410762537891216
  0.6362142343773840  0.3654501045219902  0.0331220965691941
  0.8071650378370165  0.0222490694009494  0.0409140576123121
  0.7839822430211072  0.2346455189345704  0.0828462208444947
  0.9477020846644848  0.0205770016849414  0.8202982883787016
  0.9431960643571742  0.1547079050008051  0.5707850662377112
  0.4821769694522757  0.6963510905808903  0.0409286567826470
  0.1365496611724311  0.8648396380213867  0.0317839132419877
  0.3073949549767434  0.5222873105505741  0.0402807381792840
  0.2838541372822334  0.7335937275409776  0.0819028913968012
  0.4492368757344778  0.5209816067447974  0.8202292663906050
  0.4431446094260920  0.6539388066648186  0.5692871271538493
  0.9823817355146076  0.6914779621011604  0.0395566797559326
  0.6363449261397065  0.8652269557040313  0.0312733795410054
  0.8123227987665800  0.5226096573711274  0.0412521161400790
  0.7845366771293456  0.7318914492614894  0.0777164141162316
  0.9482750368197586  0.5208589088308457  0.8295755754619947
  0.9429480633198892  0.6544406419086073  0.5757624299212551
  0.2370517985179461  0.3681965301768884  0.6247066742667755
  0.0753926359449508  0.3238525014358373  0.3997891514280454
  0.2391975586802957  0.4896466921841949  0.3896213598038258
  0.4269636563417194  0.2907180493264079  0.1554865490448236
  0.0711274032471110  0.4555951613558662  0.1543609451197838
  0.2368925314612369  0.1021997398684746  0.1557091882567434
  0.4001227354921753  0.3940517738932385  0.9075815530759996
  0.0948823179074196  0.0821402353556095  0.8992822732294457
  0.2320845001783596  0.2479352172656988  0.8651958947422358
  0.3953091940782016  0.0158581139876404  0.6128643020632438
  0.0904667985402341  0.2019851361606229  0.6305303007166785
  0.4047903001733246  0.1555478071942815  0.3581810858870114
  0.2199948962413245  0.1901570996380286  0.4348126858118633
  0.0627190110611906  0.1449388971478598  0.2081179573267420
  0.2161770215764491  0.3190537697643165  0.2091698416678796
  0.3595996757973055  0.1212024220881887  0.9000223894512231
  0.0415647299535351  0.2670919330188326  0.8849326332877610
  0.2098204868197229  0.4366808549400290  0.8886374544537787
  0.3683673125600322  0.2505036329116876  0.6788985900424080
  0.0401617708206956  0.4050875170546888  0.6830560577034319
  0.3820521903991434  0.3529345311478949  0.4315001531575220
  0.0487536880064212  0.0254833404612924  0.4393842250771769
  0.3904679346931630  0.4743656140998525  0.2082507470912702
  0.7376033298410434  0.3676071326710328  0.6267948209739203
  0.5749898295408968  0.3258056810548098  0.4008103488152415
  0.7385453943620490  0.4900984727016322  0.3926124545362200
  0.9277379295234525  0.2938912702152479  0.1570958861233720
  0.5695396829751544  0.4567976295987748  0.1521153627640004
  0.7336104679752680  0.1038793711678565  0.1554062510618834
  0.8997122152383312  0.3899511043110664  0.9072375821025460
  0.5957474558888052  0.0836712753243134  0.8994693966798550
  0.7337325959760719  0.2443481829935621  0.8666955302763668
  0.8954850627268200  0.0158164220364654  0.6097883826368360
  0.5901681928959874  0.2034970620689904  0.6310534004529345
  0.9043153803311696  0.1552058657825981  0.3531018448416035
  0.7199358706810628  0.1909099543395243  0.4355577213944031
  0.5627139528982497  0.1477024987142528  0.2130105109732199
  0.7160325577615509  0.3205256163341801  0.2114731212356489
  0.8654783221763793  0.1177352205213751  0.9098111038736789
  0.5416641646491556  0.2680160521156267  0.8851502093641130
  0.7115503857491419  0.4358625764018598  0.8900917961525323
  0.8673269150687659  0.2446781066265018  0.6811170935095632
  0.5404873158158665  0.4073816834356663  0.6836728243403698
  0.7127113405018903  0.0680797679462088  0.6696538814313087
  0.8821097188080387  0.3519875319638928  0.4356208746694250
  0.5487882535674871  0.0256270476936749  0.4408194003477064
  0.8902285624348636  0.4739637236868290  0.2159490951644187
  0.2371917610405845  0.8659952926418484  0.6255584320001049
  0.0750788511173184  0.8254586166508986  0.4004270780557206
  0.2379859930691595  0.9898635853880648  0.3915872682725166
  0.4269208836269272  0.7943905356527239  0.1566283617195623
  0.0701681866912693  0.9561448556979570  0.1516387475729886
  0.2331145752765806  0.6032055479004370  0.1546501030472598
  0.3989243173076034  0.8900717694060134  0.9062619715196618
  0.0947064470415881  0.5832594246190368  0.8987479500432300
  0.2333224466822656  0.7439268576131042  0.8661414077283283
  0.3953006252524318  0.5154778526305606  0.6098981842454378
  0.0899336803873751  0.7031415875855274  0.6305287198019371
  0.4037021420940192  0.6552085532942655  0.3517089305480923
  0.2197877067108323  0.6902304880489538  0.4350856938189693
  0.0628693202974304  0.6467378665017662  0.2144531383326438
  0.2157659707230053  0.8199558832481628  0.2106524014164108
  0.3655108316706759  0.6179250260590621  0.9094952065139879
  0.0418017917680515  0.7680157445586389  0.8848804471157408
  0.2113330713946056  0.9353518112989434  0.8863460744017573
  0.3671183568283283  0.7445933131075648  0.6806273125058198
  0.0391565812434393  0.9057698737501880  0.6827216788796591
  0.2123538824128417  0.5677982034259870  0.6696974370280557
  0.3817592238764220  0.8522088910359216  0.4347905248658535
  0.0487695711394664  0.5250175941766813  0.4415182766104024
  0.3896524251387774  0.9748151174044040  0.2141505753272028
  0.7369969901005575  0.8682823237924211  0.6247963416571309
  0.5750542031215673  0.8245956009857878  0.3994002087026232
  0.7394203049250976  0.9898829804564429  0.3895660906554639
  0.9273384333895294  0.7912661069781493  0.1565498210265162
  0.5709413711590088  0.9562156804548394  0.1537828795452683
  0.7359783768447770  0.6028538821182323  0.1565760824147304
  0.9000550390408151  0.8937132205637965  0.9082000225113234
  0.5941532826164959  0.5835771873908655  0.9021579820201282
  0.7311887314183423  0.7467087754136941  0.8647234530536352
  0.8952669814260474  0.5158908499578274  0.6145499242322856
  0.5888306866723099  0.7031402588191327  0.6306908816641652
  0.9043991609348581  0.6552827150966394  0.3581692591600998
  0.7190132368375330  0.6909074566674107  0.4345785792897132
  0.5620715998655683  0.6455588434267412  0.2080468970695080
  0.7163603686938913  0.8193730620948898  0.2084787785536975
  0.8599489674358907  0.6235056413370827  0.9081194015605192
  0.5410664370516756  0.7683357896852243  0.8857800603027073
  0.7105947403363544  0.9364962047600471  0.8883420455413358
  0.8659362356478724  0.7475484919191615  0.6806180120889209
  0.5397259562832417  0.9062076059261557  0.6834085642246492
  0.7109402728861625  0.5684768210201838  0.6697818887125919
  0.8819002922950929  0.8526359885825769  0.4323351279901360
  0.5479291088439595  0.5262426139194076  0.4389782427559723
  0.8911702799086711  0.9746016679730474  0.2088812075253657
 
  0.00000000E+00  0.00000000E+00  0.00000000E+00
  0.00000000E+00  0.00000000E+00  0.00000000E+00
  0.00000000E+00  0.00000000E+00  0.00000000E+00
  0.00000000E+00  0.00000000E+00  0.00000000E+00
  0.00000000E+00  0.00000000E+00  0.00000000E+00
  0.00000000E+00  0.00000000E+00  0.00000000E+00
  0.00000000E+00  0.00000000E+00  0.00000000E+00
  0.00000000E+00  0.00000000E+00  0.00000000E+00
  0.00000000E+00  0.00000000E+00  0.00000000E+00
  0.00000000E+00  0.00000000E+00  0.00000000E+00
  0.00000000E+00  0.00000000E+00  0.00000000E+00
  0.00000000E+00  0.00000000E+00  0.00000000E+00
  0.00000000E+00  0.00000000E+00  0.00000000E+00
  0.00000000E+00  0.00000000E+00  0.00000000E+00
  0.00000000E+00  0.00000000E+00  0.00000000E+00
  0.00000000E+00  0.00000000E+00  0.00000000E+00
  0.00000000E+00  0.00000000E+00  0.00000000E+00
  0.00000000E+00  0.00000000E+00  0.00000000E+00
  0.00000000E+00  0.00000000E+00  0.00000000E+00
  0.00000000E+00  0.00000000E+00  0.00000000E+00
  0.00000000E+00  0.00000000E+00  0.00000000E+00
  0.00000000E+00  0.00000000E+00  0.00000000E+00
  0.00000000E+00  0.00000000E+00  0.00000000E+00
  0.00000000E+00  0.00000000E+00  0.00000000E+00
  0.00000000E+00  0.00000000E+00  0.00000000E+00
  0.00000000E+00  0.00000000E+00  0.00000000E+00
  0.00000000E+00  0.00000000E+00  0.00000000E+00
  0.00000000E+00  0.00000000E+00  0.00000000E+00
  0.00000000E+00  0.00000000E+00  0.00000000E+00
  0.00000000E+00  0.00000000E+00  0.00000000E+00
  0.00000000E+00  0.00000000E+00  0.00000000E+00
  0.00000000E+00  0.00000000E+00  0.00000000E+00
  0.00000000E+00  0.00000000E+00  0.00000000E+00
  0.00000000E+00  0.00000000E+00  0.00000000E+00
  0.00000000E+00  0.00000000E+00  0.00000000E+00
  0.00000000E+00  0.00000000E+00  0.00000000E+00
  0.00000000E+00  0.00000000E+00  0.00000000E+00
  0.00000000E+00  0.00000000E+00  0.00000000E+00
  0.00000000E+00  0.00000000E+00  0.00000000E+00
  0.00000000E+00  0.00000000E+00  0.00000000E+00
  0.00000000E+00  0.00000000E+00  0.00000000E+00
  0.00000000E+00  0.00000000E+00  0.00000000E+00
  0.00000000E+00  0.00000000E+00  0.00000000E+00
  0.00000000E+00  0.00000000E+00  0.00000000E+00
  0.00000000E+00  0.00000000E+00  0.00000000E+00
  0.00000000E+00  0.00000000E+00  0.00000000E+00
  0.00000000E+00  0.00000000E+00  0.00000000E+00
  0.00000000E+00  0.00000000E+00  0.00000000E+00
  0.00000000E+00  0.00000000E+00  0.00000000E+00
  0.00000000E+00  0.00000000E+00  0.00000000E+00
  0.00000000E+00  0.00000000E+00  0.00000000E+00
  0.00000000E+00  0.00000000E+00  0.00000000E+00
  0.00000000E+00  0.00000000E+00  0.00000000E+00
  0.00000000E+00  0.00000000E+00  0.00000000E+00
  0.00000000E+00  0.00000000E+00  0.00000000E+00
  0.00000000E+00  0.00000000E+00  0.00000000E+00
  0.00000000E+00  0.00000000E+00  0.00000000E+00
  0.00000000E+00  0.00000000E+00  0.00000000E+00
  0.00000000E+00  0.00000000E+00  0.00000000E+00
  0.00000000E+00  0.00000000E+00  0.00000000E+00
  0.00000000E+00  0.00000000E+00  0.00000000E+00
  0.00000000E+00  0.00000000E+00  0.00000000E+00
  0.00000000E+00  0.00000000E+00  0.00000000E+00
  0.00000000E+00  0.00000000E+00  0.00000000E+00
  0.00000000E+00  0.00000000E+00  0.00000000E+00
  0.00000000E+00  0.00000000E+00  0.00000000E+00
  0.00000000E+00  0.00000000E+00  0.00000000E+00
  0.00000000E+00  0.00000000E+00  0.00000000E+00
  0.00000000E+00  0.00000000E+00  0.00000000E+00
  0.00000000E+00  0.00000000E+00  0.00000000E+00
  0.00000000E+00  0.00000000E+00  0.00000000E+00
  0.00000000E+00  0.00000000E+00  0.00000000E+00
  0.00000000E+00  0.00000000E+00  0.00000000E+00
  0.00000000E+00  0.00000000E+00  0.00000000E+00
  0.00000000E+00  0.00000000E+00  0.00000000E+00
  0.00000000E+00  0.00000000E+00  0.00000000E+00
  0.00000000E+00  0.00000000E+00  0.00000000E+00
  0.00000000E+00  0.00000000E+00  0.00000000E+00
  0.00000000E+00  0.00000000E+00  0.00000000E+00
  0.00000000E+00  0.00000000E+00  0.00000000E+00
  0.00000000E+00  0.00000000E+00  0.00000000E+00
  0.00000000E+00  0.00000000E+00  0.00000000E+00
  0.00000000E+00  0.00000000E+00  0.00000000E+00
  0.00000000E+00  0.00000000E+00  0.00000000E+00
  0.00000000E+00  0.00000000E+00  0.00000000E+00
  0.00000000E+00  0.00000000E+00  0.00000000E+00
  0.00000000E+00  0.00000000E+00  0.00000000E+00
  0.00000000E+00  0.00000000E+00  0.00000000E+00
  0.00000000E+00  0.00000000E+00  0.00000000E+00
  0.00000000E+00  0.00000000E+00  0.00000000E+00
  0.00000000E+00  0.00000000E+00  0.00000000E+00
  0.00000000E+00  0.00000000E+00  0.00000000E+00
  0.00000000E+00  0.00000000E+00  0.00000000E+00
  0.00000000E+00  0.00000000E+00  0.00000000E+00
  0.00000000E+00  0.00000000E+00  0.00000000E+00
  0.00000000E+00  0.00000000E+00  0.00000000E+00
  0.00000000E+00  0.00000000E+00  0.00000000E+00
  0.00000000E+00  0.00000000E+00  0.00000000E+00
  0.00000000E+00  0.00000000E+00  0.00000000E+00
  0.00000000E+00  0.00000000E+00  0.00000000E+00
  0.00000000E+00  0.00000000E+00  0.00000000E+00
  0.00000000E+00  0.00000000E+00  0.00000000E+00
  0.00000000E+00  0.00000000E+00  0.00000000E+00
  0.00000000E+00  0.00000000E+00  0.00000000E+00
  0.00000000E+00  0.00000000E+00  0.00000000E+00
  0.00000000E+00  0.00000000E+00  0.00000000E+00
  0.00000000E+00  0.00000000E+00  0.00000000E+00
  0.00000000E+00  0.00000000E+00  0.00000000E+00
  0.00000000E+00  0.00000000E+00  0.00000000E+00
  0.00000000E+00  0.00000000E+00  0.00000000E+00
  0.00000000E+00  0.00000000E+00  0.00000000E+00
  0.00000000E+00  0.00000000E+00  0.00000000E+00
  0.00000000E+00  0.00000000E+00  0.00000000E+00
  0.00000000E+00  0.00000000E+00  0.00000000E+00
  0.00000000E+00  0.00000000E+00  0.00000000E+00
  0.00000000E+00  0.00000000E+00  0.00000000E+00
  0.00000000E+00  0.00000000E+00  0.00000000E+00
  0.00000000E+00  0.00000000E+00  0.00000000E+00
  0.00000000E+00  0.00000000E+00  0.00000000E+00
  0.00000000E+00  0.00000000E+00  0.00000000E+00
  0.00000000E+00  0.00000000E+00  0.00000000E+00
  0.00000000E+00  0.00000000E+00  0.00000000E+00
  0.00000000E+00  0.00000000E+00  0.00000000E+00
  0.00000000E+00  0.00000000E+00  0.00000000E+00
  0.00000000E+00  0.00000000E+00  0.00000000E+00
  0.00000000E+00  0.00000000E+00  0.00000000E+00
  0.00000000E+00  0.00000000E+00  0.00000000E+00
  0.00000000E+00  0.00000000E+00  0.00000000E+00
  0.00000000E+00  0.00000000E+00  0.00000000E+00
  0.00000000E+00  0.00000000E+00  0.00000000E+00
  0.00000000E+00  0.00000000E+00  0.00000000E+00
  0.00000000E+00  0.00000000E+00  0.00000000E+00
  0.00000000E+00  0.00000000E+00  0.00000000E+00
  0.00000000E+00  0.00000000E+00  0.00000000E+00
  0.00000000E+00  0.00000000E+00  0.00000000E+00
  0.00000000E+00  0.00000000E+00  0.00000000E+00
  0.00000000E+00  0.00000000E+00  0.00000000E+00
  0.00000000E+00  0.00000000E+00  0.00000000E+00
  0.00000000E+00  0.00000000E+00  0.00000000E+00
  0.00000000E+00  0.00000000E+00  0.00000000E+00
  0.00000000E+00  0.00000000E+00  0.00000000E+00
  0.00000000E+00  0.00000000E+00  0.00000000E+00
  0.00000000E+00  0.00000000E+00  0.00000000E+00
  0.00000000E+00  0.00000000E+00  0.00000000E+00
  0.00000000E+00  0.00000000E+00  0.00000000E+00
  0.00000000E+00  0.00000000E+00  0.00000000E+00
  0.00000000E+00  0.00000000E+00  0.00000000E+00
  0.00000000E+00  0.00000000E+00  0.00000000E+00
  0.00000000E+00  0.00000000E+00  0.00000000E+00
  0.00000000E+00  0.00000000E+00  0.00000000E+00
  0.00000000E+00  0.00000000E+00  0.00000000E+00
  0.00000000E+00  0.00000000E+00  0.00000000E+00
  0.00000000E+00  0.00000000E+00  0.00000000E+00
  0.00000000E+00  0.00000000E+00  0.00000000E+00
  0.00000000E+00  0.00000000E+00  0.00000000E+00
  0.00000000E+00  0.00000000E+00  0.00000000E+00
  0.00000000E+00  0.00000000E+00  0.00000000E+00
  0.00000000E+00  0.00000000E+00  0.00000000E+00
  0.00000000E+00  0.00000000E+00  0.00000000E+00
  0.00000000E+00  0.00000000E+00  0.00000000E+00
  0.00000000E+00  0.00000000E+00  0.00000000E+00
  0.00000000E+00  0.00000000E+00  0.00000000E+00
  0.00000000E+00  0.00000000E+00  0.00000000E+00
  0.00000000E+00  0.00000000E+00  0.00000000E+00
  0.00000000E+00  0.00000000E+00  0.00000000E+00
  0.00000000E+00  0.00000000E+00  0.00000000E+00
  0.00000000E+00  0.00000000E+00  0.00000000E+00
  0.00000000E+00  0.00000000E+00  0.00000000E+00
  0.00000000E+00  0.00000000E+00  0.00000000E+00
  0.00000000E+00  0.00000000E+00  0.00000000E+00
  0.00000000E+00  0.00000000E+00  0.00000000E+00
  0.00000000E+00  0.00000000E+00  0.00000000E+00
  0.00000000E+00  0.00000000E+00  0.00000000E+00
  0.00000000E+00  0.00000000E+00  0.00000000E+00
  0.00000000E+00  0.00000000E+00  0.00000000E+00
  0.00000000E+00  0.00000000E+00  0.00000000E+00
  0.00000000E+00  0.00000000E+00  0.00000000E+00
  0.00000000E+00  0.00000000E+00  0.00000000E+00
  0.00000000E+00  0.00000000E+00  0.00000000E+00
  0.00000000E+00  0.00000000E+00  0.00000000E+00
  0.00000000E+00  0.00000000E+00  0.00000000E+00
  0.00000000E+00  0.00000000E+00  0.00000000E+00
  0.00000000E+00  0.00000000E+00  0.00000000E+00
  0.00000000E+00  0.00000000E+00  0.00000000E+00
  0.00000000E+00  0.00000000E+00  0.00000000E+00
  0.00000000E+00  0.00000000E+00  0.00000000E+00
  0.00000000E+00  0.00000000E+00  0.00000000E+00
  0.00000000E+00  0.00000000E+00  0.00000000E+00
  0.00000000E+00  0.00000000E+00  0.00000000E+00
  0.00000000E+00  0.00000000E+00  0.00000000E+00
  0.00000000E+00  0.00000000E+00  0.00000000E+00
