generated by phonopy                    
   1.00000000000000     
    11.7777700938999992   -0.0000006592896312    0.0000118211769744
    -0.0000006477562692   11.7777479613999994   -0.0000130806483528
     0.0000177256125076   -0.0000204342245446   17.8544012557999991
   Bi   Mg   Cu   Se   O 
    36     1    35    36    36
Direct
  0.9999407274405385  0.1687221766126825  0.4316060304472344
  0.3344920642038929  0.1678449925141194  0.4305037699089240
  0.6653876122561257  0.1678496174041371  0.4305037967538965
  0.9999385585077150  0.5000064078595372  0.4305042808515864
  0.3335478205927487  0.5000040944282489  0.4300398562880900
  0.6663302849696251  0.5000093072453424  0.4300433901312104
  0.9999350680302896  0.8312940187155036  0.4316043571896415
  0.3344898018841533  0.8321663932981096  0.4305027802169761
  0.6653850260110801  0.8321702453848658  0.4305033798552316
  0.9999442149095898  0.1668203271231903  0.9283877157741642
  0.3335361038873970  0.1672554983523185  0.9275927047520653
  0.6663479887599664  0.1672578296577498  0.9275893294736335
  0.9999419292108840  0.4999840763953358  0.9280423102367976
  0.3339486400462945  0.4999830138032166  0.9274367453755303
  0.6659364085490154  0.4999836970323841  0.9274382219095543
  0.9999399768987942  0.8331392222062561  0.9283883521399758
  0.3335352706065180  0.8327068671623792  0.9275936316820577
  0.6663447812799816  0.8327055406498260  0.9275911048005270
  0.1686540690470864  0.9999802458218809  0.0684065123946809
  0.4999422520202685  0.9999837280932624  0.0695041762916162
  0.8312234230400151  0.9999843903184171  0.0684033824411046
  0.1677823764128092  0.3345357676213325  0.0695089512949139
  0.4999443512393711  0.3335857584717203  0.0699686731344897
  0.8321017758589946  0.3345350063481405  0.0695098095672932
  0.1677782771716352  0.6654278183944129  0.0695112680893573
  0.4999379207696677  0.6663769916300311  0.0699703160649534
  0.8320969748744886  0.6654293264701394  0.0695112660124693
  0.1667782684646966  0.0000049288894672  0.5716247496627815
  0.4999377699370839  0.0000068812983187  0.5719731017433887
  0.8330983077961918  0.0000102249833134  0.5716248031457312
  0.1672163684389076  0.3336035757476168  0.5724173648231741
  0.4999382038654687  0.3340124169794265  0.5725766379902097
  0.8326656424225760  0.3336054842662008  0.5724182701382503
  0.1672132611650952  0.6664098136799694  0.5724148200086958
  0.4999365175451729  0.6660024257648516  0.5725764849030455
  0.8326648142290409  0.6664116546802177  0.5724172358627371
  0.9999421794040160  0.9999903701170894  0.2500057169544831
  0.3384141261095479  0.9999811896143740  0.2472566376073857
  0.6614466441594615  0.9999823341223575  0.2472550848541459
  0.9999352986199384  0.3384643655809043  0.2527532144519142
  0.3348600316751202  0.3349109234296108  0.2500085355547839
  0.6650141320146332  0.3349162947514870  0.2500125308877301
  0.9999381444237727  0.6614987313532978  0.2527585783703827
  0.3348547924814511  0.6650571766073767  0.2500062930057538
  0.6650032518070859  0.6650775055218858  0.2500019469033319
  0.9999429662767128  0.0000059116634077  0.7500024942198991
  0.3328665873710790  0.0000031223822177  0.7502376306718830
  0.6670178896130352  0.0000066068251598  0.7502372219548477
  0.9999469473400353  0.3329326248278193  0.7497742751813306
  0.3327347361923714  0.3328037438995892  0.7500059244329123
  0.6671581242833895  0.3328007457212010  0.7500072950671992
  0.9999433154980792  0.6670702678416660  0.7497734837324899
  0.3327323523187857  0.6672101910841306  0.7500068495612737
  0.6671500816675362  0.6672110813737575  0.7500059666816838
  0.1751726958942612  0.1752158785985429  0.2500090453799544
  0.4999398293202475  0.1671565760265352  0.2502131744417397
  0.8247277989472650  0.1752276984690369  0.2500023382582768
  0.1670946700104068  0.4999877298738156  0.2497962944677710
  0.4999314362894580  0.5000007278390655  0.2500119385656774
  0.8327603075502594  0.4999998042892670  0.2497959866017752
  0.1751391416040775  0.8247711806886429  0.2499992684863486
  0.4999364827701882  0.8328423661494782  0.2502162814994620
  0.8246965656928253  0.8247730990490467  0.2500084571943972
  0.1662383878412754  0.1662911524638631  0.7500071149987875
  0.4999445251240715  0.1662026889452690  0.7497302644272352
  0.8336552504734911  0.1662910150340622  0.7500065490647287
  0.1661491716709165  0.4999946053126010  0.7502786658364329
  0.4999431912011758  0.4999917954556139  0.7500020853355167
  0.8337419724794373  0.4999958105160900  0.7502796205859781
  0.1662301087973077  0.8336972819830777  0.7500068483943210
  0.4999426831154921  0.8337882312815950  0.7497310981102245
  0.8336499588499109  0.8336971454362470  0.7500072124911910
  0.1677393147211106  0.3350565148669915  0.3387254545337655
  0.4999403495178427  0.3334921704038010  0.3377879941297266
  0.8321414589347498  0.3350684312917664  0.3387261030769864
  0.1677372879414634  0.6649390062534621  0.3387225949108696
  0.4999376027906024  0.6664838196664391  0.3377861974286773
  0.8321332857008983  0.6649456130734279  0.3387257345368226
  0.1721282633702117  0.0000003796774948  0.3352170963879999
  0.4999368463608391  0.9999972685741128  0.3375837196007367
  0.8277486923350637  0.0000203393979064  0.3352134658744745
  0.1663089837483369  0.3331486486745803  0.8371159250269002
  0.4999436580587968  0.3330774065481990  0.8367372092411145
  0.8335803179539809  0.3331475197595921  0.8371161617689467
  0.1663059969537599  0.6668318405213682  0.8371163455096564
  0.4999415880183733  0.6669038504043243  0.8367351550781734
  0.8335769363452172  0.6668304190097842  0.8371159839369042
  0.1663984303296573  0.9999885435491649  0.8373579292029518
  0.4999412671585191  0.9999902914389622  0.8371328612389419
  0.8334863611220769  0.9999872241149390  0.8373570912715280
  0.3349998152964488  0.1677841023508719  0.1612866748361839
  0.6648863812984231  0.1677914417785189  0.1612870131480975
  0.9999453489236814  0.1721787742497440  0.1647991330904190
  0.3334503507051494  0.4999793337998213  0.1622219940496805
  0.6664295250954950  0.4999881987221215  0.1622227202178479
  0.9999376539295781  0.4999840495679848  0.1624274956889735
  0.3349861915754744  0.8321854224643417  0.1612902469076829
  0.6648722920634214  0.8321955421218377  0.1612840825096669
  0.9999165398100303  0.8277927351024630  0.1648056751323992
  0.3330989414028238  0.1663674334277374  0.6628986207427090
  0.6667884278028779  0.1663684616441614  0.6628985647276053
  0.9999446060140329  0.1664620169982101  0.6626538134158366
  0.3330259172741634  0.5000027905500843  0.6632713967204182
  0.6668592432390241  0.5000029828121129  0.6632729755810161
  0.9999436720158741  0.5000036367475929  0.6628773811359494
  0.3330965933008230  0.8336363409580514  0.6628977742698510
  0.6667870553376716  0.8336376351755348  0.6628971628756091
  0.9999414181635657  0.8335451381617744  0.6626538881303716
  0.1665416991772162  0.1668575986740208  0.5005174808645450
  0.4999389166926065  0.1670628300924406  0.5009376284274865
  0.8333395241521444  0.1668599770081727  0.5005186020015913
  0.1667517603787587  0.5000059579952136  0.5011178244301249
  0.4999381576173505  0.5000036323765258  0.5014857222193143
  0.8331280794711802  0.5000097067102303  0.5011200874172701
  0.1665397733826666  0.8331543695443031  0.5005136365737854
  0.4999390078631194  0.8329451253358613  0.5009365749583168
  0.8333367767714890  0.8331566236817594  0.5005156308123020
  0.1667940666660925  0.1665800090743303  0.9994961178181470
  0.4999418097053407  0.1667935416929538  0.9988887160945410
  0.8330895076344973  0.1665838866406588  0.9994929438569358
  0.1670017945451931  0.4999855334147441  0.9990762406008500
  0.4999422819624044  0.4999875535873954  0.9985278541149469
  0.8328812849515117  0.4999836109204878  0.9990785523751740
  0.1667882429656373  0.8333809069652744  0.9994967605595590
  0.4999395775261775  0.8331707071166221  0.9988901586417711
  0.8330869833841490  0.8333816298920382  0.9994947102979737
  0.9999386802777366  0.9999828545651539  0.9999113958355323
  0.3332819542614871  0.9999811806635819  0.9988787001575616
  0.6665960619891109  0.9999827332783866  0.9988745487937933
  0.9999427598729298  0.3334081203584489  0.9995678100291912
  0.3330727310210904  0.3336762028956670  0.9988463893139539
  0.6668116173301186  0.3336761717854202  0.9988467976246653
  0.9999377988631934  0.6665563256970586  0.9995699302549212
  0.3330688217873359  0.6662924337166629  0.9988512012300887
  0.6668087322379534  0.6662931543511448  0.9988508491646044
  0.9999378523689373  0.0000069228474686  0.5001030039951644
  0.3333685231750678  0.0000029458037218  0.5004448736899150
  0.6665120640440279  0.0000064622042046  0.5004452293894559
  0.9999406932238060  0.3333511199595591  0.5011341539339256
  0.3336313533900110  0.3331358601389525  0.5011629894261631
  0.6662496934134339  0.3331394382879083  0.5011643123009577
  0.9999402490580493  0.6666674515456776  0.5011330562487188
  0.3336313437761262  0.6668717910739659  0.5011600466814343
  0.6662453171532121  0.6668734129292844  0.5011637289211066
 
  0.00000000E+00  0.00000000E+00  0.00000000E+00
  0.00000000E+00  0.00000000E+00  0.00000000E+00
  0.00000000E+00  0.00000000E+00  0.00000000E+00
  0.00000000E+00  0.00000000E+00  0.00000000E+00
  0.00000000E+00  0.00000000E+00  0.00000000E+00
  0.00000000E+00  0.00000000E+00  0.00000000E+00
  0.00000000E+00  0.00000000E+00  0.00000000E+00
  0.00000000E+00  0.00000000E+00  0.00000000E+00
  0.00000000E+00  0.00000000E+00  0.00000000E+00
  0.00000000E+00  0.00000000E+00  0.00000000E+00
  0.00000000E+00  0.00000000E+00  0.00000000E+00
  0.00000000E+00  0.00000000E+00  0.00000000E+00
  0.00000000E+00  0.00000000E+00  0.00000000E+00
  0.00000000E+00  0.00000000E+00  0.00000000E+00
  0.00000000E+00  0.00000000E+00  0.00000000E+00
  0.00000000E+00  0.00000000E+00  0.00000000E+00
  0.00000000E+00  0.00000000E+00  0.00000000E+00
  0.00000000E+00  0.00000000E+00  0.00000000E+00
  0.00000000E+00  0.00000000E+00  0.00000000E+00
  0.00000000E+00  0.00000000E+00  0.00000000E+00
  0.00000000E+00  0.00000000E+00  0.00000000E+00
  0.00000000E+00  0.00000000E+00  0.00000000E+00
  0.00000000E+00  0.00000000E+00  0.00000000E+00
  0.00000000E+00  0.00000000E+00  0.00000000E+00
  0.00000000E+00  0.00000000E+00  0.00000000E+00
  0.00000000E+00  0.00000000E+00  0.00000000E+00
  0.00000000E+00  0.00000000E+00  0.00000000E+00
  0.00000000E+00  0.00000000E+00  0.00000000E+00
  0.00000000E+00  0.00000000E+00  0.00000000E+00
  0.00000000E+00  0.00000000E+00  0.00000000E+00
  0.00000000E+00  0.00000000E+00  0.00000000E+00
  0.00000000E+00  0.00000000E+00  0.00000000E+00
  0.00000000E+00  0.00000000E+00  0.00000000E+00
  0.00000000E+00  0.00000000E+00  0.00000000E+00
  0.00000000E+00  0.00000000E+00  0.00000000E+00
  0.00000000E+00  0.00000000E+00  0.00000000E+00
  0.00000000E+00  0.00000000E+00  0.00000000E+00
  0.00000000E+00  0.00000000E+00  0.00000000E+00
  0.00000000E+00  0.00000000E+00  0.00000000E+00
  0.00000000E+00  0.00000000E+00  0.00000000E+00
  0.00000000E+00  0.00000000E+00  0.00000000E+00
  0.00000000E+00  0.00000000E+00  0.00000000E+00
  0.00000000E+00  0.00000000E+00  0.00000000E+00
  0.00000000E+00  0.00000000E+00  0.00000000E+00
  0.00000000E+00  0.00000000E+00  0.00000000E+00
  0.00000000E+00  0.00000000E+00  0.00000000E+00
  0.00000000E+00  0.00000000E+00  0.00000000E+00
  0.00000000E+00  0.00000000E+00  0.00000000E+00
  0.00000000E+00  0.00000000E+00  0.00000000E+00
  0.00000000E+00  0.00000000E+00  0.00000000E+00
  0.00000000E+00  0.00000000E+00  0.00000000E+00
  0.00000000E+00  0.00000000E+00  0.00000000E+00
  0.00000000E+00  0.00000000E+00  0.00000000E+00
  0.00000000E+00  0.00000000E+00  0.00000000E+00
  0.00000000E+00  0.00000000E+00  0.00000000E+00
  0.00000000E+00  0.00000000E+00  0.00000000E+00
  0.00000000E+00  0.00000000E+00  0.00000000E+00
  0.00000000E+00  0.00000000E+00  0.00000000E+00
  0.00000000E+00  0.00000000E+00  0.00000000E+00
  0.00000000E+00  0.00000000E+00  0.00000000E+00
  0.00000000E+00  0.00000000E+00  0.00000000E+00
  0.00000000E+00  0.00000000E+00  0.00000000E+00
  0.00000000E+00  0.00000000E+00  0.00000000E+00
  0.00000000E+00  0.00000000E+00  0.00000000E+00
  0.00000000E+00  0.00000000E+00  0.00000000E+00
  0.00000000E+00  0.00000000E+00  0.00000000E+00
  0.00000000E+00  0.00000000E+00  0.00000000E+00
  0.00000000E+00  0.00000000E+00  0.00000000E+00
  0.00000000E+00  0.00000000E+00  0.00000000E+00
  0.00000000E+00  0.00000000E+00  0.00000000E+00
  0.00000000E+00  0.00000000E+00  0.00000000E+00
  0.00000000E+00  0.00000000E+00  0.00000000E+00
  0.00000000E+00  0.00000000E+00  0.00000000E+00
  0.00000000E+00  0.00000000E+00  0.00000000E+00
  0.00000000E+00  0.00000000E+00  0.00000000E+00
  0.00000000E+00  0.00000000E+00  0.00000000E+00
  0.00000000E+00  0.00000000E+00  0.00000000E+00
  0.00000000E+00  0.00000000E+00  0.00000000E+00
  0.00000000E+00  0.00000000E+00  0.00000000E+00
  0.00000000E+00  0.00000000E+00  0.00000000E+00
  0.00000000E+00  0.00000000E+00  0.00000000E+00
  0.00000000E+00  0.00000000E+00  0.00000000E+00
  0.00000000E+00  0.00000000E+00  0.00000000E+00
  0.00000000E+00  0.00000000E+00  0.00000000E+00
  0.00000000E+00  0.00000000E+00  0.00000000E+00
  0.00000000E+00  0.00000000E+00  0.00000000E+00
  0.00000000E+00  0.00000000E+00  0.00000000E+00
  0.00000000E+00  0.00000000E+00  0.00000000E+00
  0.00000000E+00  0.00000000E+00  0.00000000E+00
  0.00000000E+00  0.00000000E+00  0.00000000E+00
  0.00000000E+00  0.00000000E+00  0.00000000E+00
  0.00000000E+00  0.00000000E+00  0.00000000E+00
  0.00000000E+00  0.00000000E+00  0.00000000E+00
  0.00000000E+00  0.00000000E+00  0.00000000E+00
  0.00000000E+00  0.00000000E+00  0.00000000E+00
  0.00000000E+00  0.00000000E+00  0.00000000E+00
  0.00000000E+00  0.00000000E+00  0.00000000E+00
  0.00000000E+00  0.00000000E+00  0.00000000E+00
  0.00000000E+00  0.00000000E+00  0.00000000E+00
  0.00000000E+00  0.00000000E+00  0.00000000E+00
  0.00000000E+00  0.00000000E+00  0.00000000E+00
  0.00000000E+00  0.00000000E+00  0.00000000E+00
  0.00000000E+00  0.00000000E+00  0.00000000E+00
  0.00000000E+00  0.00000000E+00  0.00000000E+00
  0.00000000E+00  0.00000000E+00  0.00000000E+00
  0.00000000E+00  0.00000000E+00  0.00000000E+00
  0.00000000E+00  0.00000000E+00  0.00000000E+00
  0.00000000E+00  0.00000000E+00  0.00000000E+00
  0.00000000E+00  0.00000000E+00  0.00000000E+00
  0.00000000E+00  0.00000000E+00  0.00000000E+00
  0.00000000E+00  0.00000000E+00  0.00000000E+00
  0.00000000E+00  0.00000000E+00  0.00000000E+00
  0.00000000E+00  0.00000000E+00  0.00000000E+00
  0.00000000E+00  0.00000000E+00  0.00000000E+00
  0.00000000E+00  0.00000000E+00  0.00000000E+00
  0.00000000E+00  0.00000000E+00  0.00000000E+00
  0.00000000E+00  0.00000000E+00  0.00000000E+00
  0.00000000E+00  0.00000000E+00  0.00000000E+00
  0.00000000E+00  0.00000000E+00  0.00000000E+00
  0.00000000E+00  0.00000000E+00  0.00000000E+00
  0.00000000E+00  0.00000000E+00  0.00000000E+00
  0.00000000E+00  0.00000000E+00  0.00000000E+00
  0.00000000E+00  0.00000000E+00  0.00000000E+00
  0.00000000E+00  0.00000000E+00  0.00000000E+00
  0.00000000E+00  0.00000000E+00  0.00000000E+00
  0.00000000E+00  0.00000000E+00  0.00000000E+00
  0.00000000E+00  0.00000000E+00  0.00000000E+00
  0.00000000E+00  0.00000000E+00  0.00000000E+00
  0.00000000E+00  0.00000000E+00  0.00000000E+00
  0.00000000E+00  0.00000000E+00  0.00000000E+00
  0.00000000E+00  0.00000000E+00  0.00000000E+00
  0.00000000E+00  0.00000000E+00  0.00000000E+00
  0.00000000E+00  0.00000000E+00  0.00000000E+00
  0.00000000E+00  0.00000000E+00  0.00000000E+00
  0.00000000E+00  0.00000000E+00  0.00000000E+00
  0.00000000E+00  0.00000000E+00  0.00000000E+00
  0.00000000E+00  0.00000000E+00  0.00000000E+00
  0.00000000E+00  0.00000000E+00  0.00000000E+00
  0.00000000E+00  0.00000000E+00  0.00000000E+00
  0.00000000E+00  0.00000000E+00  0.00000000E+00
  0.00000000E+00  0.00000000E+00  0.00000000E+00
  0.00000000E+00  0.00000000E+00  0.00000000E+00
  0.00000000E+00  0.00000000E+00  0.00000000E+00
  0.00000000E+00  0.00000000E+00  0.00000000E+00
