Mg   P    N
1.0
  9.81083344724985 5.08924709e-08 1.658493346e-07
  9.09659418e-07 5.702669472976907 2.77190062e-08
  3.29283644e-08 -0.0974576799133098 -4.76788595091
 Mg  P  N 
8 4 12 
direct
   -0.1632158457516157   0.3494183486367635   0.0495593130724044
   -0.8367836088844367   0.3494183635625839   0.0495593029773114
   -0.1617193327853507   0.6804500115491227   0.5414391956758240
   -0.8382801122454324   0.6804500140995500   0.5414391724117280
   -0.6643099162232269   0.8476955442294590   0.0557590516097352
   -0.3356895571253092   0.8476955516327883   0.0557590530979573
   -0.6642292617766681   0.1830823197507611   0.5958016623536271
   -0.3357702052143541   0.1830823462262102   0.5958016827561394
    0.0000002560192609   0.8535984953931043   0.0207439173595855
    0.0000002619576315   0.1776889255168487   0.5237816925560256
   -0.4999996983329367   0.3493158419955815   0.1371191343993024
   -0.4999998174612543   0.6860013856984116   0.5097552048585601
   -0.9999997776714051   0.1255363972976277   0.1698404478191952
   -0.9999997825181834   0.9066979191511629   0.6680435349560412
   -0.8601071906618584   0.7119386515243148   0.0907299400659435
   -0.1398923387420167   0.7119386334897897   0.0907299413046776
   -0.8598430851307505   0.3199681281811604   0.5959034201577577
   -0.1401564483447204   0.3199681634395677   0.5959034387402112
   -0.3589534605016545   0.2100359616233146   0.0579340210981114
   -0.6410459345288270   0.2100360290307891   0.0579340611267978
   -0.3572163484458478   0.8191969878290120   0.5655129189468125
   -0.6427829619168340   0.8191969176112340   0.5655126435695821
   -0.4999996380419016   0.6350911989097078   0.0803870388956962
   -0.4999996571005775   0.3917314145317808   0.5028086776689170
