Mg   P    N
1.0
  9.807684355687782 -1.7053371301e-06 9.48000256e-07
  1.9103605103e-06 5.697510072768186 2.77190041e-08
  3.29283653e-08 -0.0806740056537976 -4.76788595091
 Mg  P  N 
8 4 12 
direct
   -0.1640541260574544   0.3480483298643854   0.0492377317074668
   -0.8359452267582870   0.3480483451833045   0.0492377243861427
   -0.1640166260515023   0.6826260797597949   0.5760680757778062
   -0.8359827199569333   0.6826260639961976   0.5760681164306405
   -0.6618335828291089   0.8500934790793638   0.1010339088757831
   -0.3381659942029455   0.8500934465222734   0.1010339200916315
   -0.6631934776988317   0.1813922388418304   0.5939059140951874
   -0.3368060853188879   0.1813922657296184   0.5939059197595432
   -0.9999979208037610   0.8512101675978060   0.0378929189942458
   -0.9999988545690499   0.1775019200944737   0.5150683671383925
   -0.5000006453866941   0.3530510973711797   0.1195618200662376
   -0.5000007238181656   0.6771582275897778   0.6222921001594335
   -0.9999999282986773   0.1307644513985811   0.1556742376058410
   -0.9999999399533208   0.9026910285538560   0.6381776395669059
   -0.8578365806123959   0.7114186852991856   0.0839700993893161
   -0.1421646182188280   0.7114172884269367   0.0839705042429202
   -0.8591266800037217   0.3204985458613818   0.5865075506444866
   -0.1408736162897577   0.3204992396103205   0.5865078879203781
   -0.3597954735727548   0.2107921555317770   0.0475846976216863
   -0.6402030682503194   0.2107928445084079   0.0475850657027387
   -0.3600533042861975   0.8188804933330990   0.5520262792135806
   -0.6399451467599979   0.8188797648795512   0.5520266502509141
   -0.4999995536458032   0.6241516824777920   0.9750084684136244
   -0.4999995680850037   0.4052057093996975   0.4734128695350394
