Mg   P    N
1.0
  9.75820563265 2.488038064e-07 -6.8377779e-08
  1.443667186e-07 5.67601848472 2.77189982e-08
  3.29283679e-08 -2.38175975e-08 -4.76788595091
 Mg  P  N 
8 4 12 
direct
   -0.1633302058057495   0.3493664735347437   0.0715796779631503
   -0.8366686422515812   0.3493665012466495   0.0715796745277331
   -0.1633302116844106   0.6814031688240830   0.5715796662215168
   -0.8366686148992954   0.6814031473495064   0.5715796790428485
   -0.6633302466400650   0.8493665219454415   0.0715796877021049
   -0.3366687474601164   0.8493664986086600   0.0715796799053336
   -0.6633302253075612   0.1814032004596697   0.5715796789548903
   -0.3366687542204758   0.1814032202911235   0.5715796939836436
   -0.9999987454308936   0.8533231312106508   0.0887860017727178
   -0.9999987319249254   0.1774464111945662   0.5887859908678337
   -0.5000001435608823   0.3533235610559871   0.0887861348258099
   -0.5000001261721750   0.6774463618540167   0.5887861418394563
   -0.9999996608846047   0.1258516842834538   0.9421566734082348
   -0.9999996539841617   0.9049179488578004   0.4421566643552380
   -0.8590676291536495   0.7118703054272615   0.0162310823600933
   -0.1409320666085705   0.7118697628498722   0.0162308294959246
   -0.8590676282380514   0.3188993190337612   0.5162311113256308
   -0.1409320970251571   0.3188998633872159   0.5162308343660413
   -0.3590667635279985   0.2118696753780327   0.0162307857131410
   -0.6409313725323783   0.2118701963402430   0.0162310754807322
   -0.3590667808570487   0.8189000452654227   0.5162308067369280
   -0.6409313760949543   0.8188995302505404   0.5162310501851052
   -0.4999992539279887   0.6258516756280984   0.9421567065154618
   -0.4999992446575591   0.4049179744571987   0.4421566028191534
