Mg   P    N
1.0
  9.809923000770649 -3.2722919076e-06 -5.09629586e-07
  1.0008128817e-06 5.700125289198079 2.77190038e-08
  3.29283655e-08 -0.0882916701669212 -4.76788595091
 Mg  P  N 
8 4 12 
direct
   -0.1642584287321333   0.3474439957105119   0.0483765947605515
   -0.8357411681378708   0.3474439790097156   0.0483766098034095
   -0.1637377304070118   0.6833771596905852   0.5808722550477796
   -0.8362618715419773   0.6833771731504873   0.5808722395062229
   -0.6615498022422045   0.8503303995193563   0.1015182860736052
   -0.3384494932264021   0.8503304463507725   0.1015182768958122
   -0.6633452282470729   0.1814613239082012   0.5937246754740644
   -0.3366540654243276   0.1814612805335441   0.5937246647420992
   -0.0000026906808213   0.8481387668077144   0.0675101385623692
   -0.0000009051367698   0.1777985748573405   0.5128582586469197
   -0.4999984849600771   0.3530175331791797   0.1195480269256309
   -0.4999983739753314   0.6771172478027893   0.6223265447079341
   -0.9999994232741493   0.1339964156941792   0.1498696938604045
   -0.9999994310656471   0.9013755393458237   0.6121229390232539
   -0.8570447484984864   0.7107638670117591   0.0826934129709525
   -0.1429518302473075   0.7107662019528012   0.0826931762227966
   -0.8590181139255825   0.3213084737301691   0.5856047129285756
   -0.1409802207387169   0.3213075426992950   0.5856042505877356
   -0.3598491780739410   0.2107353668304807   0.0474185660747916
   -0.6401515131938135   0.2107344412140384   0.0474180809161240
   -0.3600689131255616   0.8188336011128244   0.5523192973407943
   -0.6399319253099679   0.8188345826488717   0.5523187940003869
   -0.4999999749596465   0.6240800576923851   0.9750991987808927
   -0.4999999463035709   0.4051995804577615   0.4733697737368414
