Mg   P    N
1.0
  9.762954791634707 -5.5651133553e-06 1.994002969e-07
  -3.0673700025e-06 5.6777790273629725 2.77190094e-08
  -3.29283631e-08 0.0275304848063519 4.76788595091
 Mg  P  N 
8 4 12 
direct
   -0.1631608885094873   0.3493541122684726  -0.0356242911988302
   -0.8368383443261579   0.3493542586108457  -0.0356242891579733
   -0.1633693409694536   0.6813366368945332  -0.5347149567114522
   -0.8366301976381612   0.6813367724546270  -0.5347150231096759
   -0.6634442905874582   0.8491499010928982  -0.0338981724347395
   -0.3365550930112075   0.8491500492187583  -0.0338981223030557
   -0.6634717496106055   0.1812790975380001  -0.5362505998286523
   -0.3365279140004121   0.1812792621482191  -0.5362506109731733
   -0.9999990663992738   0.8532840818252421  -0.0173722898869277
   -0.9999989705875632   0.1774750883769751  -0.5182603484456964
   -0.5000005272818757   0.3531977071213729  -0.0164205205056074
   -0.5000003971974495   0.6772903070072162  -0.5161284278870507
   -0.9999998574538662   0.1259457270044416  -0.1646312485390251
   -0.9999998255312295   0.9050614213717416  -0.6641351318998862
   -0.8591369367205050   0.7119333236279809  -0.0896815607320156
   -0.1408633603486540   0.7119326305787378  -0.0896818038861486
   -0.8590980561362701   0.3191203304149056  -0.5908643156899828
   -0.1409019335255352   0.3191207350155145  -0.5908646062050111
   -0.3590158370334303   0.2119782861056532  -0.0888477832650089
   -0.6409830410577532   0.2119787010166163  -0.0888474689621679
   -0.3590336986187807   0.8188544536600934  -0.5888897945640444
   -0.6409649190557803   0.8188537370592194  -0.5888895354982528
   -0.4999996209281434   0.6263483743327229  -0.1622125657211185
   -0.4999996017608165   0.4046409937451984  -0.6619951997349555
