Mg   P    N                             
   1.00000000000000     
    -0.1085649359050563    0.0000000329283662   -4.7678859509100002
     5.6969961714278572   -0.0000041445976534    0.0000000277190020
     0.0000085340982197   -9.7979870285717983    0.0000045324151651
   Mg   P    N 
     8     4    12
Direct
  0.0668086293083566  0.3510833146938178  0.1660786073404180
  0.0668085710142447  0.3510833450412043  0.8339209851828210
  0.6138365380600234  0.6824168185402197  0.1644837815120388
  0.6138365608637177  0.6824169373990714  0.8355159208563100
  0.1087654671707416  0.8500266679759508  0.6633341722175632
  0.1087654656930863  0.8500267582943360  0.3366650108708286
  0.6005493673931728  0.1803935203762375  0.6623513960985411
  0.6005493160224632  0.1803935461644318  0.3376479735118371
  0.1512846391692624  0.8446017724356457  1.0000018782797702
  0.4867969486226422  0.1857684319834454  0.0000012350246918
  0.1219879135230281  0.3535969325845784  0.4999977013505361
  0.6259256284209938  0.6772661421484936  0.4999976971095187
  0.1188725758954835  0.1410434124280903  0.9999993873993158
  0.5129395502567263  0.8873665406656045  0.9999993736835074
  0.0603468473597591  0.7136111417234604  0.8586849913313499
  0.0603479163270355  0.7136125157412194  0.1413124414601763
  0.5689895924330493  0.3182394146252486  0.8578885771436326
  0.5689888868818371  0.3182382838248597  0.1421093573193858
  0.0482893886171139  0.2109760483672512  0.3600083352882281
  0.0482885481075772  0.2109743726037874  0.6399931998347097
  0.5548888424882523  0.8181253897132813  0.3597261121629510
  0.5548880975457914  0.8181269133597127  0.6402752336256869
  0.9787127402719447  0.6250851178494561  0.5000000601330239
  0.4762904361436939  0.4047602123712848  0.5000000326913854
 
             NaN             NaN             NaN
             NaN             NaN             NaN
             NaN             NaN             NaN
             NaN             NaN             NaN
             NaN             NaN             NaN
             NaN             NaN             NaN
             NaN             NaN             NaN
             NaN             NaN             NaN
             NaN             NaN             NaN
             NaN             NaN             NaN
             NaN             NaN             NaN
             NaN             NaN             NaN
             NaN             NaN             NaN
             NaN             NaN             NaN
             NaN             NaN             NaN
             NaN             NaN             NaN
             NaN             NaN             NaN
             NaN             NaN             NaN
             NaN             NaN             NaN
             NaN             NaN             NaN
             NaN             NaN             NaN
             NaN             NaN             NaN
             NaN             NaN             NaN
             NaN             NaN             NaN
