Mg   P    N
1.0
  9.788326505642372 -8.080787793e-07 1.1836380632e-06
  -3.103845377e-07 5.69381225899945 2.77190083e-08
  -3.29283635e-08 0.0859567303963911 4.76788595091
 Mg  P  N 
8 4 12 
direct
   -0.1614663227648881   0.3504010601017919  -0.0393578955170346
   -0.8385331043259562   0.3504010693650733  -0.0393579362675820
   -0.1641054465710351   0.6815092408255543  -0.5344567797191322
   -0.8358940254139018   0.6815092626957644  -0.5344568103376164
   -0.6645276617539377   0.8465622044585517  -0.0293394063227495
   -0.3354717788553578   0.8465622450783944  -0.0293393526715227
   -0.6639481643170781   0.1823572852125868  -0.5565072720560518
   -0.3360512795188656   0.1823572975279213  -0.5565072011304508
   -0.9999996111001880   0.8531211400209723  -0.0168117754597136
   -0.9999995684787677   0.1771090943044142  -0.5205869724538128
   -0.5000000409785857   0.3466648978183968  -0.0810878445933677
   -0.4999998523934104   0.6779482340446173  -0.5071908230655923
    0.0000002689454468   0.1255919191430090  -0.1662286502392805
    0.0000002740794769   0.9054457426009094  -0.6642499874916447
   -0.8596718665268365   0.7119873760532289  -0.0884059413492954
   -0.1403277248069996   0.7119872655766373  -0.0884059881148203
   -0.8596897555626540   0.3195688140483645  -0.5936307343762539
   -0.1403097952452943   0.3195689244131386  -0.5936308188241103
   -0.3565291455537160   0.2101625172663626  -0.0854607451257938
   -0.6434700317215212   0.2101627251784650  -0.0854612216333395
   -0.3589271173396176   0.8210171718919949  -0.5832162896005640
   -0.6410722313168753   0.8210170591071625  -0.5832162191707519
   -0.4999997384201943   0.6361801735320229  -0.1432366106508659
   -0.4999997414875210   0.4000408306453249  -0.5976151913066249
