Mg   P    N
1.0
  9.781554387304235 4.3924434389e-06 5.5585028877e-06
  3.3731632072e-06 5.687770283320825 2.77190003e-08
  -3.2928367e-08 0.0720999100032444 4.76788595091
 Mg  P  N 
8 4 12 
direct
   -0.1639121773390673   0.3490477929567997  -0.0945799906114750
   -0.8360870881540040   0.3490479583027133  -0.0945799338245636
   -0.1642157566060135   0.6830670092610091  -0.6119156604105842
   -0.8357836569894027   0.6830671222244418  -0.6119156288968276
   -0.6638159238980620   0.8493509408341564  -0.1085419803478948
   -0.3361835197354021   0.8493510116273147  -0.1085420285033953
   -0.6620219674089419   0.1808677846295516  -0.6043148106901602
   -0.3379776991092828   0.1808678979712567  -0.6043148162096295
    0.0000013948097935   0.8536858246286710  -0.1317693692275972
    0.0000014108064009   0.1792915166837775  -0.6162111322553456
   -0.5000010569335808   0.3534682632423081  -0.1229240280956783
   -0.5000010362403977   0.6775437029402664  -0.6260832671856155
   -0.9999999054536105   0.1288324234659986  -0.9996162443657894
   -0.9999998766609507   0.9005011835355049  -0.4896838448471292
   -0.8590931438947566   0.7110954877009035  -0.0582626229468935
   -0.1409074740183934   0.7110944826141429  -0.0582621548430802
   -0.8580205804689346   0.3192407523428397  -0.5558165786082097
   -0.1419798922787127   0.3192414462758149  -0.5558161360879778
   -0.3595377924524196   0.2112434876506067  -0.0499954960568478
   -0.6404605294060868   0.2112444329989294  -0.0499960852554826
   -0.3595324456848318   0.8187746238294229  -0.5543830312044380
   -0.6404656080734088   0.8187734852241415  -0.5543835396138518
   -0.4999995645836761   0.6254169107582398  -0.9788125178034041
   -0.4999995716544986   0.4051180092118623  -0.4770375696981193
