Mg   P    N
1.0
  9.811002103943508 2.987115252e-07 1.7017726989e-06
  3.0760525801e-06 5.7022334008674225 2.77190027e-08
  -3.29283659e-08 0.104262232358447 4.76788595091
 Mg  P  N 
8 4 12 
direct
   -0.1642082960755840   0.3486487308721559  -0.0471356416846495
   -0.8357908208669109   0.3486488426095014  -0.0471356812211999
   -0.1651672495783580   0.6821666993467824  -0.5947070111021550
   -0.8348318639135783   0.6821666355818210  -0.5947069106181687
   -0.6622730790716843   0.8501223757479943  -0.1024559263620592
   -0.3377267708061457   0.8501222965682508  -0.1024559396649373
   -0.6628477624146150   0.1810464157097356  -0.5937425036560765
   -0.3371520518209060   0.1810464865973015  -0.5937425368192188
   -0.9999942814327311   0.8447213276623727  -0.1556578776684727
   -0.9999963978810554   0.1848591330262765  -0.5003441142879929
   -0.5000026717956783   0.3532180719535227  -0.1192852968798235
   -0.5000030991169068   0.6772541148582832  -0.6228390201378760
   -0.0000005026174317   0.1414195220517728  -0.1370357078864355
   -0.0000005129099599   0.8909141306288824  -0.5372878510819916
   -0.8580415473458824   0.7128704095014657  -0.0746895722526285
   -0.1419631539298840   0.7128664503167764  -0.0746871852526156
   -0.8588410196792022   0.3190946475674150  -0.5856139630294245
   -0.1411616241076270   0.3190971412033174  -0.5856155552399902
   -0.3598034352388641   0.2109592931646790  -0.0471726769184272
   -0.6401930128677193   0.2109615515739768  -0.0471738724346716
   -0.3601390390706223   0.8187876234920726  -0.5527484510549185
   -0.6398569694348567   0.8187850839741052  -0.5527496839407440
   -0.4999991247303460   0.6242097578663143  -0.9753621896686179
   -0.4999991747218415   0.4052468090357963  -0.4734132987268304
