Mg   P    N
1.0
  9.800214947241727 -5.015789892e-07 -5.959790496e-07
  5.865779807e-07 5.691588658575151 2.77190048e-08
  3.2928365e-08 -0.0573339466346869 -4.76788595091
 Mg  P  N 
8 4 12 
direct
   -0.1628532454925406   0.3495869209686611   0.0487485370264206
   -0.8371462450771685   0.3495869170250689   0.0487485259301296
   -0.1625597020129914   0.6810697130262037   0.5447699535437721
   -0.8374397854567782   0.6810697202428442   0.5447699459136303
   -0.6638782638058049   0.8492981022003798   0.0800549939963963
   -0.3361211676947369   0.8492981082675050   0.0800549842616162
   -0.6633765534144568   0.1815510779693409   0.5928279068842118
   -0.3366228710793335   0.1815510836454273   0.5928279106114476
   -0.9999999766003295   0.8535653261890442   0.0215371230870396
   -1.0000000384597358   0.1776311159682034   0.5235392509465265
   -0.4999994324035490   0.3533656560411585   0.1242876859641440
   -0.4999991489403670   0.6772365577753288   0.6221919231910865
   -0.9999996732380273   0.1254916688663912   0.1697694387164571
   -0.9999996722552408   0.9062644217383883   0.6687313886875829
   -0.8598745690800135   0.7118423242823549   0.0923564685863768
   -0.1401246250762646   0.7118425179289460   0.0923563697344804
   -0.8595936991343319   0.3196540282527265   0.5950066589886247
   -0.1404054440348198   0.3196537901953136   0.5950065392784990
   -0.3592126023065513   0.2115492329430597   0.0535032153557794
   -0.6407871411519134   0.2115489921868988   0.0535030947595063
   -0.3589729229756096   0.8185974478994648   0.5561812720273642
   -0.6410270952378309   0.8185979085799473   0.5561811798167791
   -0.4999997896546630   0.6253851114164869   0.9815426595909317
   -0.4999997968452153   0.4039958073014944   0.4792614405791374
