Mg   P    N
1.0
  9.763867951628388 -1.11202346705e-05 -3.90562537e-08
  -5.6517597085e-06 5.678094766305037 2.77189999e-08
  3.29283671e-08 -0.0305150169004854 -4.76788595091
 Mg  P  N 
8 4 12 
direct
   -0.1634937336219059   0.3495006159648060   0.1065761664672960
   -0.8365053556474172   0.3495008653563144   0.1065761981765897
   -0.1634653800008586   0.6816525901815887   0.6093557008016430
   -0.8365342778896292   0.6816528261349282   0.6093556434282820
   -0.6633772902151981   0.8494376499562039   0.1084324034924709
   -0.3366219427000589   0.8494378604075303   0.1084324769143381
   -0.6631298710584917   0.1814090914007842   0.6073771334441516
   -0.3368699627032786   0.1814093181789648   0.6073771033970760
    0.0000010943209880   0.8535076971854448   0.1272256324778504
    0.0000012146528659   0.1775884003896674   0.6268116093414265
   -0.5000006701091801   0.3532979965672906   0.1247881567567252
   -0.5000005222147862   0.6774850992774311   0.6257895654445629
   -0.9999999162691812   0.1261851170532017   0.9814903234011384
   -0.9999998409172386   0.9043416600550138   0.4812217491209461
   -0.8590374233627815   0.7119312657603253   0.0544360682067023
   -0.1409632165734383   0.7119302463469842   0.0544356802180207
   -0.8590068929796261   0.3187695034352788   0.5544443698153337
   -0.1409930809515055   0.3187698671910820   0.5544440032253884
   -0.3591119515591971   0.2116289416467458   0.0521766143567313
   -0.6408869910732604   0.2116293262993957   0.0521769488171564
   -0.3591517587096145   0.8188227436838923   0.5535158626196438
   -0.6408465168336158   0.8188217838679246   0.5535162184587400
   -0.4999996272586885   0.6256868137258789   0.9790003416270406
   -0.4999995451008287   0.4048262804348002   0.4784382192017788
