Mg   P    N                             
   1.00000000000000     
    -0.0898358981466920    0.0000000329283665   -4.7678859509100002
     5.6953723554583116   -0.0000005371847846    0.0000000277190013
     0.0000023344262313   -9.7896638940133869   -0.0000003531636951
   Mg   P    N 
     8     4    12
Direct
  0.0842555489445476  0.3486861327990122  0.1643187067231146
  0.0842557155163225  0.3486862173614426  0.8356804545444403
  0.6142780591578662  0.6841715854777450  0.1644980959601543
  0.6142780668061829  0.6841715732974382  0.8355010617097338
  0.1087612996616068  0.8493037379309665  0.6640746993675505
  0.1087612843540338  0.8493036392153204  0.3359250881029842
  0.6037369652382300  0.1803300668083065  0.6614904253925586
  0.6037369849260088  0.1803302185583550  0.3385094511280347
  0.1390590584313132  0.8511794817831752  0.9999971345642921
  0.5291601993438385  0.1856239187982672  0.9999923751723195
  0.1225960084047316  0.3536681958417022  0.5000025617476309
  0.6263495616549051  0.6776390519198716  0.5000019072177888
  0.0681568364168533  0.1328658926315652  0.0000003651376078
  0.5047385331785389  0.8922065176994737  0.0000004225780785
  0.0602689371445547  0.7099612276222289  0.8589192964680041
  0.0602679387445877  0.7099590839966438  0.1410825770194480
  0.5602792763650963  0.3204280974983328  0.8564796623743107
  0.5602808386657067  0.3204337549681755  0.1435269231933974
  0.0495097537785881  0.2111718110385063  0.3597334110073725
  0.0495108796390735  0.2111737550500834  0.6402631495915837
  0.5548213066554323  0.8187396503964155  0.3596840204332935
  0.5548220429093722  0.8187380669804122  0.6403131748702718
  0.9789394117872006  0.6252859324727844  0.4999992732989539
  0.4769339598654022  0.4051759407644631  0.4999992238253106
 
             NaN             NaN             NaN
             NaN             NaN             NaN
             NaN             NaN             NaN
             NaN             NaN             NaN
             NaN             NaN             NaN
             NaN             NaN             NaN
             NaN             NaN             NaN
             NaN             NaN             NaN
             NaN             NaN             NaN
             NaN             NaN             NaN
             NaN             NaN             NaN
             NaN             NaN             NaN
             NaN             NaN             NaN
             NaN             NaN             NaN
             NaN             NaN             NaN
             NaN             NaN             NaN
             NaN             NaN             NaN
             NaN             NaN             NaN
             NaN             NaN             NaN
             NaN             NaN             NaN
             NaN             NaN             NaN
             NaN             NaN             NaN
             NaN             NaN             NaN
             NaN             NaN             NaN
