Mg   P    N
1.0
  9.810899156021113 1.9451896196e-06 -3.058719569e-07
  2.0106153402e-06 5.702045275803679 2.77190066e-08
  -3.29283643e-08 0.1052566088448125 4.76788595091
 Mg  P  N 
8 4 12 
direct
   -0.1627960748736394   0.3497584459585406  -0.0494068320012632
   -0.8372032359539201   0.3497585196833370  -0.0494068238467689
   -0.1623503068815871   0.6806734278266627  -0.5405659542056934
   -0.8376490236933701   0.6806734143950557  -0.5405659295814450
   -0.6652357189133565   0.8486694112536314  -0.0473725252693823
   -0.3347638276016532   0.8486694329440084  -0.0473724704916545
   -0.6642104844785612   0.1820136584948749  -0.5960491379851935
   -0.3357891139973452   0.1820137487105425  -0.5960491472793081
   -0.9999987857088050   0.8535024613570431  -0.0202557210048990
   -0.9999989519674541   0.1775346206037342  -0.5238882547266681
   -0.5000004456470577   0.3456005782891625  -0.1434321045738634
   -0.5000022704994711   0.6860654095680104  -0.4861403998828391
   -0.9999998771229948   0.1255156081446560  -0.1697404209744414
   -0.9999999089071341   0.9065353710064143  -0.6677564731424466
   -0.8601384270452652   0.7119910830060728  -0.0903493459207302
   -0.1398620516837236   0.7119904301702249  -0.0903496825627060
   -0.8597996122638922   0.3197914740159443  -0.5960030102642890
   -0.1402006017930851   0.3197920014446968  -0.5960033068346936
   -0.3588196985376452   0.2118678671107312  -0.0574981314800343
   -0.6411791263046080   0.2118684134237543  -0.0574984597531490
   -0.3581227798590647   0.8177769023148620  -0.5688384570298797
   -0.6418742558393392   0.8177750576658103  -0.5688370138742049
   -0.4999994380465401   0.6402715644233797  -0.1079267240789628
   -0.4999994438087590   0.3891246490995037  -0.5064521407134250
