Mg   P    N
1.0
  9.756927210078398 -9.7398172e-09 7.38688523e-08
  2.9027393e-09 5.675948543774576 2.77190108e-08
  3.29283625e-08 5.38439689e-08 -4.76788595091
 Mg  P  N 
8 4 12 
direct
   -0.1633362465290697   0.3493806303645305   0.0640493118811446
   -0.8366636385780221   0.3493806288365071   0.0640493271016203
   -0.1633362441100966   0.6813886964159854   0.5640493132128100
   -0.8366636412609667   0.6813886978661404   0.5640493290985935
   -0.6633362509392230   0.8493806293153154   0.0640493234031669
   -0.3366636430417905   0.8493806295182084   0.0640493154624950
   -0.6633362485487214   0.1813886969052611   0.5640493248573881
   -0.3366636455758631   0.1813886970068357   0.5640493173951637
    0.0000001295019843   0.8532873884618922   0.0468682827146915
    0.0000001296197556   0.1774819650778392   0.5468682835115749
   -0.5000000196545467   0.3532873881382234   0.0468682826647841
   -0.5000000195251659   0.6774819647833679   0.5468682833692772
   -0.9999999594633656   0.1259152056822069   0.1934072820243100
   -0.9999999596265366   0.9048541547866528   0.6934072777365711
   -0.8590301505194449   0.7118097568754667   0.1194532311326338
   -0.1409698144650246   0.7118096931198400   0.1194532615965914
   -0.8590301458475001   0.3189595679681629   0.6194532286514436
   -0.1409698189276701   0.3189596319984852   0.6194532589473151
   -0.3590300755689975   0.2118096933732396   0.1194532642735361
   -0.6409697395603831   0.2118097561842699   0.1194532285459495
   -0.3590300708476938   0.8189596313408500   0.6194532613067462
   -0.6409697438940483   0.8189595680746699   0.6194532259395595
   -0.4999999306898912   0.6259152053157693   0.1934072818918209
   -0.4999999306459066   0.4048541544344875   0.6934072776550161
