Mg   P    N
1.0
  9.756928018239545 4.8672518e-09 6.31211291e-08
  -4.6492133e-09 5.675947808325307 2.77189989e-08
  -3.29283676e-08 -2.52744526e-08 4.76788595091
 Mg  P  N 
8 4 12 
direct
   -0.1633358665941845   0.3493803997082900  -0.0866893606032837
   -0.8366632477340122   0.3493804032910219  -0.0866893712321591
   -0.1633358676359839   0.6813884315968392  -0.5866893614784482
   -0.8366632471449114   0.6813884281216598  -0.5866893713248025
   -0.6633358842598472   0.8493804024592185  -0.0866893705003527
   -0.3366632653060804   0.8493804010735991  -0.0866893608704816
   -0.6633358850045418   0.1813884294317805  -0.5866893714876942
   -0.3366632646795080   0.1813884309213575  -0.5866893612297049
   -0.9999994408032310   0.8532871409709282  -0.1038698846423101
   -0.9999994406780820   0.1774816893201639  -0.6038698909396895
   -0.4999996905695396   0.3532871419546382  -0.1038698845811954
   -0.4999996905083325   0.6774816899426324  -0.6038698906933262
   -0.9999996225296583   0.1259150650981455  -0.9573310724373131
   -0.9999996229150682   0.9048537615372019  -0.4573310697509160
   -0.8590298568842385   0.7118096362971628  -0.0312849198482158
   -0.1409694710239353   0.7118095079289508  -0.0312848755694941
   -0.8590298631653441   0.3189591962936490  -0.5312849219340884
   -0.1409694646269952   0.3189593248916482  -0.5312848781433466
   -0.3590296608558042   0.2118095080004081  -0.0312848736488643
   -0.6409692752325684   0.2118096371595913  -0.0312849220483420
   -0.3590296672254987   0.8189593258286806  -0.5312848753014126
   -0.6409692688041757   0.8189591965359613  -0.5312849236284792
   -0.4999995082083045   0.6259150656333609  -0.9573310721222608
   -0.4999995082641087   0.4048537620495549  -0.4573310695866192
