Mg   P    N
1.0
  9.791495788926799 -6.303876987e-07 7.292428956e-07
  -2.082596466e-07 5.696830149407844 2.77190076e-08
  3.29283638e-08 -0.0944949904836648 -4.76788595091
 Mg  P  N 
8 4 12 
direct
   -0.1617692434687508   0.3503413103548125   0.0398486145912026
   -0.8382301932079907   0.3503413258595153   0.0398486530937205
   -0.1638748924590932   0.6812726955112800   0.5342723576348319
   -0.8361245990937325   0.6812727378452968   0.5342724021963418
   -0.6644272823628113   0.8471590334468401   0.0286878385555801
   -0.3355721463780543   0.8471590959594498   0.0286877886118868
   -0.6652513908432490   0.1810694050718095   0.5626101780197513
   -0.3347480562636335   0.1810694315085421   0.5626100294294735
   -0.9999996187952650   0.8531992824948375   0.0168693682299736
   -0.9999995694126074   0.1771425110907933   0.5205599357395109
   -0.4999999169338160   0.3449797398519682   0.1403649228618106
   -0.4999998770034496   0.6826773994211989   0.4997831361307281
   -0.9999996889585739   0.1256359605785604   0.1662816818117319
   -0.9999996906336092   0.9055445602211962   0.6641771761686844
   -0.8596823403274994   0.7121458735053030   0.0882346333187031
   -0.1403172143434736   0.7121457717708366   0.0882346825279197
   -0.8598443546793344   0.3196835757795012   0.5938618122756835
   -0.1401551407213749   0.3196836992985547   0.5938619177520057
   -0.3569678924522131   0.2110596384042059   0.0810075937627118
   -0.6430313960149124   0.2110598243597387   0.0810072370663985
   -0.3588718957653677   0.8197999312895373   0.5831109776723123
   -0.6411274509492756   0.8197998065304674   0.5831109135060957
   -0.4999998022857036   0.6406473741864489   0.1352221743265187
   -0.4999998080744967   0.3943435665699729   0.5512324421943987
