Mg   P    N                             
   1.00000000000000     
    -0.0933182189689158    0.0000000329283646   -4.7678859509100002
     5.7017300957297330    0.0000008439482363    0.0000000277190059
     0.0000000619364039   -9.8105300595612075   -0.0000003070110579
   Mg   P    N 
     8     4    12
Direct
  0.0495537037114354  0.3492902725837127  0.1633757447092094
  0.0495537003362428  0.3492902710850841  0.8366237343844661
  0.5415612975154054  0.6803523567887354  0.1614840939009136
  0.5415612861031839  0.6803523623869143  0.8385153683692298
  0.0592682547572616  0.8471209470927046  0.6637078920566100
  0.0592682799565634  0.8471209591273220  0.3362915604912124
  0.5954273270603665  0.1835269552756586  0.6642820602187679
  0.5954273504142876  0.1835269542974707  0.3357173754127000
  0.0208539425433155  0.8536618535797016  0.9999998287138046
  0.5236814708106503  0.1777568616648718  0.9999998247934252
  0.1330965539801624  0.3519769652592261  0.4999996365390269
  0.5405973119170930  0.6851562552529985  0.4999995525680028
  0.1698436921686641  0.1255551890559236  0.9999997380341966
  0.6680735144898960  0.9067149679258678  0.9999997405549673
  0.0907903851852829  0.7119448661989444  0.8600706922277865
  0.0907903488160028  0.7119449164098917  0.1399286992536538
  0.5958451120680285  0.3200396979220984  0.8598623605374707
  0.5958450980641070  0.3200396703500301  0.1401370564156591
  0.0580608317094549  0.2092824463179053  0.3589754172093148
  0.0580608341929152  0.2092824409727943  0.6410240656885129
  0.5629434823108693  0.8200093718976594  0.3567832824544362
  0.5629435326277047  0.8200094757242165  0.6432163108401362
  0.0557439809099528  0.6312701944439545  0.4999997051446697
  0.4989671758290943  0.3940072992969593  0.4999997209100994
 
             NaN             NaN             NaN
             NaN             NaN             NaN
             NaN             NaN             NaN
             NaN             NaN             NaN
             NaN             NaN             NaN
             NaN             NaN             NaN
             NaN             NaN             NaN
             NaN             NaN             NaN
             NaN             NaN             NaN
             NaN             NaN             NaN
             NaN             NaN             NaN
             NaN             NaN             NaN
             NaN             NaN             NaN
             NaN             NaN             NaN
             NaN             NaN             NaN
             NaN             NaN             NaN
             NaN             NaN             NaN
             NaN             NaN             NaN
             NaN             NaN             NaN
             NaN             NaN             NaN
             NaN             NaN             NaN
             NaN             NaN             NaN
             NaN             NaN             NaN
             NaN             NaN             NaN
