Mg   P    N                             
   1.00000000000000     
    -0.1075805439940386    0.0000000329283640   -4.7678859509100002
     5.6971510554560325    0.0000024197065790    0.0000000277190073
    -0.0000038912035613   -9.7975053549718663    0.0000072863277824
   Mg   P    N 
     8     4    12
Direct
  0.0423697108453671  0.3503612371728995  0.1623396741905260
  0.0423696479943823  0.3503611571164296  0.8376601649066874
  0.5343394241960213  0.6807597206425202  0.1633584939251531
  0.5343394374512326  0.6807598133221044  0.8366413997428490
  0.0292161886641347  0.8483242608427538  0.6644674244971800
  0.0292162166221277  0.8483244002472252  0.3355316123045316
  0.5753028225112691  0.1796848856302871  0.6661139652564891
  0.5753026375334362  0.1796848235494740  0.3338851395202683
  0.0171900857857767  0.8534806658508551  0.0000032918530121
  0.5210983763976031  0.1771689199566774  0.0000037826129157
  0.1563981054515411  0.3450275706754063  0.4999946124372340
  0.4922191052727808  0.6861222738965179  0.4999955510954582
  0.1668047165820472  0.1259813647721781  0.9999990365292590
  0.6643976399533934  0.9056772374401532  0.9999990381178878
  0.0882376467729401  0.7126090181352622  0.8597165936619516
  0.0882363576523598  0.7126117845400086  0.1402792800854550
  0.5948054937423366  0.3197988824917212  0.8600077372173672
  0.5948037375173328  0.3197957423400470  0.1399875254477408
  0.0748472582870310  0.2124544852630590  0.3578538135206154
  0.0748447424445235  0.2124507907180092  0.6421506331494420
  0.5828947730939178  0.8172828679816437  0.3586930794241812
  0.5828968889178444  0.8172858546605758  0.6413103984771890
  0.1304895142147013  0.6433219790154875  0.5000006156085600
  0.5251379395738689  0.3899038146493601  0.5000005978463391
 
             NaN             NaN             NaN
             NaN             NaN             NaN
             NaN             NaN             NaN
             NaN             NaN             NaN
             NaN             NaN             NaN
             NaN             NaN             NaN
             NaN             NaN             NaN
             NaN             NaN             NaN
             NaN             NaN             NaN
             NaN             NaN             NaN
             NaN             NaN             NaN
             NaN             NaN             NaN
             NaN             NaN             NaN
             NaN             NaN             NaN
             NaN             NaN             NaN
             NaN             NaN             NaN
             NaN             NaN             NaN
             NaN             NaN             NaN
             NaN             NaN             NaN
             NaN             NaN             NaN
             NaN             NaN             NaN
             NaN             NaN             NaN
             NaN             NaN             NaN
             NaN             NaN             NaN
