Mg   P    N
1.0
  9.797987028571798 -8.5340982197e-06 -4.5324151651e-06
  -4.1445976534e-06 5.696996171427857 2.7719002e-08
  -3.29283662e-08 0.1085649359050563 4.76788595091
 Mg  P  N 
8 4 12 
direct
   -0.1660786073404180   0.3510833146938177  -0.0668086293083566
   -0.8339209851828208   0.3510833450412043  -0.0668085710142447
   -0.1644837815120388   0.6824168185402197  -0.6138365380600234
   -0.8355159208563100   0.6824169373990714  -0.6138365608637177
   -0.6633341722175632   0.8500266679759506  -0.1087654671707416
   -0.3366650108708286   0.8500267582943354  -0.1087654656930863
   -0.6623513960985409   0.1803935203762375  -0.6005493673931727
   -0.3376479735118371   0.1803935461644318  -0.6005493160224634
   -1.0000018782797699   0.8446017724356452  -0.1512846391692624
   -0.0000012350246918   0.1857684319834454  -0.4867969486226422
   -0.4999977013505361   0.3535969325845784  -0.1219879135230281
   -0.4999976971095185   0.6772661421484933  -0.6259256284209939
   -0.9999993873993156   0.1410434124280903  -0.1188725758954835
   -0.9999993736835073   0.8873665406656043  -0.5129395502567266
   -0.8586849913313496   0.7136111417234604  -0.0603468473597591
   -0.1413124414601763   0.7136125157412194  -0.0603479163270355
   -0.8578885771436323   0.3182394146252485  -0.5689895924330495
   -0.1421093573193858   0.3182382838248597  -0.5689888868818371
   -0.3600083352882281   0.2109760483672512  -0.0482893886171139
   -0.6399931998347095   0.2109743726037874  -0.0482885481075772
   -0.3597261121629509   0.8181253897132810  -0.5548888424882525
   -0.6402752336256867   0.8181269133597123  -0.5548880975457914
   -0.5000000601330239   0.6250851178494559  -0.9787127402719447
   -0.5000000326913854   0.4047602123712848  -0.4762904361436938
