Mg   P    N                             
   1.00000000000000     
     0.0000000538439689    0.0000000329283625   -4.7678859509100002
     5.6759485437745756    0.0000000029027393    0.0000000277190108
     0.0000000097398172   -9.7569272100783984   -0.0000000738688523
   Mg   P    N 
     8     4    12
Direct
  0.0640493118811446  0.3493806303645306  0.1633362465290697
  0.0640493271016203  0.3493806288365071  0.8366636385780220
  0.5640493132128099  0.6813886964159854  0.1633362441100966
  0.5640493290985935  0.6813886978661404  0.8366636412609666
  0.0640493234031669  0.8493806293153154  0.6633362509392229
  0.0640493154624950  0.8493806295182085  0.3366636430417905
  0.5640493248573883  0.1813886969052611  0.6633362485487213
  0.5640493173951638  0.1813886970068357  0.3366636455758631
  0.0468682827146915  0.8532873884618922 -0.0000001295019843
  0.5468682835115750  0.1774819650778392 -0.0000001296197556
  0.0468682826647841  0.3532873881382234  0.5000000196545467
  0.5468682833692772  0.6774819647833679  0.5000000195251658
  0.1934072820243100  0.1259152056822069  0.9999999594633654
  0.6934072777365711  0.9048541547866527  0.9999999596265365
  0.1194532311326338  0.7118097568754665  0.8590301505194449
  0.1194532615965914  0.7118096931198400  0.1409698144650246
  0.6194532286514436  0.3189595679681629  0.8590301458475001
  0.6194532589473152  0.3189596319984852  0.1409698189276701
  0.1194532642735361  0.2118096933732396  0.3590300755689975
  0.1194532285459495  0.2118097561842699  0.6409697395603829
  0.6194532613067463  0.8189596313408500  0.3590300708476937
  0.6194532259395596  0.8189595680746699  0.6409697438940483
  0.1934072818918209  0.6259152053157693  0.4999999306898912
  0.6934072776550161  0.4048541544344875  0.4999999306459066
 
             NaN             NaN             NaN
             NaN             NaN             NaN
             NaN             NaN             NaN
             NaN             NaN             NaN
             NaN             NaN             NaN
             NaN             NaN             NaN
             NaN             NaN             NaN
             NaN             NaN             NaN
             NaN             NaN             NaN
             NaN             NaN             NaN
             NaN             NaN             NaN
             NaN             NaN             NaN
             NaN             NaN             NaN
             NaN             NaN             NaN
             NaN             NaN             NaN
             NaN             NaN             NaN
             NaN             NaN             NaN
             NaN             NaN             NaN
             NaN             NaN             NaN
             NaN             NaN             NaN
             NaN             NaN             NaN
             NaN             NaN             NaN
             NaN             NaN             NaN
             NaN             NaN             NaN
