Mg   P    N
1.0
  9.75820563265 2.488038007e-07 -6.83777763e-08
  1.443667088e-07 5.67601848472 2.77190111e-08
  -3.29283623e-08 2.38176128e-08 4.76788595091
 Mg  P  N 
8 4 12 
direct
   -0.1633307506869883   0.3493662545490324  -0.0715668960586271
   -0.8366691871328200   0.3493662822609380  -0.0715668926232098
   -0.1633307565656494   0.6814029498383718  -0.5715668843169865
   -0.8366691597805341   0.6814029283637952  -0.5715668971383181
   -0.6633307915213038   0.8493663029597299  -0.0715669057975745
   -0.3366692923413552   0.8493662796229484  -0.0715668980008033
   -0.6633307701887997   0.1814029814739584  -0.5715668970503671
   -0.3366692991017146   0.1814030013054122  -0.5715669120791204
   -0.9999992903121324   0.8533229122249395  -0.0543605722490526
   -0.9999992768061641   0.1774461922088548  -0.5543605613441612
   -0.5000006884421211   0.3533233420702757  -0.0543607053021447
   -0.5000006710534136   0.6774461428683054  -0.5543607123157911
   -0.0000002057658435   0.1258514652977425  -0.2009899006135356
   -0.0000001988654006   0.9049177298720891  -0.7009898915605389
   -0.8590681740348881   0.7118700864415501  -0.1269154916616770
   -0.1409326114898092   0.7118695438641610  -0.1269152387975083
   -0.8590681731192971   0.3188991000480499  -0.6269155206272143
   -0.1409326419064030   0.3188996444015044  -0.6269152436676247
   -0.3590673084092444   0.2118694563923214  -0.1269151950147176
   -0.6409319174136171   0.2118699773545316  -0.1269154847823160
   -0.3590673257382874   0.8188998262797111  -0.6269152160385116
   -0.6409319209761932   0.8188993112648291  -0.6269154594866888
   -0.4999997988092275   0.6258514566423869  -0.2009899337207698
   -0.4999997895387976   0.4049177554714873  -0.7009898300244541
