Mg   P    N
1.0
  9.791673340254954 -6.8852925466e-06 -1.985950277e-07
  -3.1845375918e-06 5.696856744736079 2.77190017e-08
  -3.29283664e-08 0.0945145672430208 4.76788595091
 Mg  P  N 
8 4 12 
direct
   -0.1653233773108095   0.3497942782202472  -0.0802920683847252
   -0.8346760711608867   0.3497943541740341  -0.0802920082314089
   -0.1644223797846560   0.6835457371815434  -0.6144564431329287
   -0.8355772119770347   0.6835458221872333  -0.6144564253963583
   -0.6638569360633066   0.8495200384975574  -0.1088788646455927
   -0.3361423541231960   0.8495200887177815  -0.1088788829743109
   -0.6617962784371481   0.1804272506370828  -0.6032679053172019
   -0.3382032075869957   0.1804272987822637  -0.6032678790632688
   -0.0000005679189387   0.8479052423926695  -0.1436365559505146
    0.0000001002621213   0.1857617230991008  -0.5014428769265373
   -0.4999988918173223   0.3536277278270989  -0.1225919725386537
   -0.4999988078281546   0.6775591493968027  -0.6262671161924976
   -0.9999995928268345   0.1366759746945836  -0.0933255844087689
   -0.9999995462828601   0.8899747342709989  -0.5080764053650595
   -0.8588660137211397   0.7110724401433866  -0.0599879246750188
   -0.1411325072541779   0.7110729360216413  -0.0599883250438790
   -0.8570075333280912   0.3196393817688556  -0.5622306614725409
   -0.1429915752529993   0.3196390735833691  -0.5622306906926344
   -0.3598543039699477   0.2110857445158799  -0.0492680488802323
   -0.6401461718721427   0.2110848526346876  -0.0492676638318870
   -0.3596814450723125   0.8186056976493807  -0.5549085331363035
   -0.6403189115511756   0.8186064121580835  -0.5549081839217092
   -0.4999999561298354   0.6252259918293607  -0.9789720138232098
   -0.4999999204203934   0.4051216005270362  -0.4768654335847533
