Mg   P    N
1.0
  9.807532150605734 8.333444209e-06 7.3078955159e-06
  -2.8579617578e-06 5.6929230264715915 2.77190024e-08
  -3.29283661e-08 0.1352604173220227 4.76788595091
 Mg  P  N 
8 4 12 
direct
   -0.1646646827191857   0.3498753641933632  -0.0488031888041001
   -0.8353346202038431   0.3498753741208956  -0.0488031521410463
   -0.1649170465847299   0.6826510694582089  -0.6112049554962899
   -0.8350819812084479   0.6826508883405539  -0.6112049489390526
   -0.6630952732075492   0.8499050483001479  -0.1069752517354890
   -0.3369045598000595   0.8499049017309040  -0.1069751889747861
   -0.6622834177475626   0.1804738074848813  -0.5956812991723123
   -0.3377161915822898   0.1804737697958830  -0.5956813271323003
    0.0000030955848686   0.8446484831972385  -0.1571208848686212
    0.0000035409089717   0.1865465611586629  -0.4925411929794369
   -0.5000024991130547   0.3534168130001529  -0.1201345894646807
   -0.5000020667850058   0.6771199154147817  -0.6249117559164163
   -1.0000002403352997   0.1433293913939458  -0.1306963354941564
   -1.0000002567167476   0.8871951961569251  -0.5186993134403269
   -0.8586923926630023   0.7147179639356750  -0.0639349001361045
   -0.1413096457962250   0.7147161402440283  -0.0639334572243478
   -0.8584899178570600   0.3172447263299544  -0.5828706049364077
   -0.1415126623532693   0.3172470493741376  -0.5828723073575937
   -0.3597618760034534   0.2110498512354800  -0.0472114601193936
   -0.6402347865771482   0.2110519957129794  -0.0472126268229136
   -0.3599071235772082   0.8178868260230219  -0.5541532100167543
   -0.6400901753209992   0.8178852211807200  -0.5541539222094132
   -0.4999993435445572   0.6248492947791925  -0.9773402843784883
   -0.4999993382252138   0.4045178983490236  -0.4746423098296101
