Mg   P    N                             
   1.00000000000000     
    -0.1042622323584470    0.0000000329283659   -4.7678859509100002
     5.7022334008674225    0.0000030760525801    0.0000000277190027
    -0.0000002987115252   -9.8110021039435082   -0.0000017017726989
   Mg   P    N 
     8     4    12
Direct
  0.0471356416846495  0.3486487308721560  0.1642082960755840
  0.0471356812211999  0.3486488426095014  0.8357908208669113
  0.5947070111021550  0.6821666993467826  0.1651672495783580
  0.5947069106181687  0.6821666355818210  0.8348318639135787
  0.1024559263620592  0.8501223757479943  0.6622730790716846
  0.1024559396649373  0.8501222965682508  0.3377267708061457
  0.5937425036560763  0.1810464157097356  0.6628477624146151
  0.5937425368192188  0.1810464865973015  0.3371520518209062
  0.1556578776684727  0.8447213276623727  0.9999942814327317
  0.5003441142879929  0.1848591330262765  0.9999963978810554
  0.1192852968798235  0.3532180719535229  0.5000026717956783
  0.6228390201378760  0.6772541148582835  0.5000030991169068
  0.1370357078864355  0.1414195220517728  0.0000005026174317
  0.5372878510819916  0.8909141306288826  0.0000005129099599
  0.0746895722526285  0.7128704095014657  0.8580415473458826
  0.0746871852526156  0.7128664503167764  0.1419631539298840
  0.5856139630294246  0.3190946475674150  0.8588410196792022
  0.5856155552399901  0.3190971412033174  0.1411616241076270
  0.0471726769184272  0.2109592931646791  0.3598034352388643
  0.0471738724346716  0.2109615515739768  0.6401930128677196
  0.5527484510549184  0.8187876234920729  0.3601390390706224
  0.5527496839407440  0.8187850839741052  0.6398569694348567
  0.9753621896686179  0.6242097578663145  0.4999991247303462
  0.4734132987268304  0.4052468090357963  0.4999991747218416
 
             NaN             NaN             NaN
             NaN             NaN             NaN
             NaN             NaN             NaN
             NaN             NaN             NaN
             NaN             NaN             NaN
             NaN             NaN             NaN
             NaN             NaN             NaN
             NaN             NaN             NaN
             NaN             NaN             NaN
             NaN             NaN             NaN
             NaN             NaN             NaN
             NaN             NaN             NaN
             NaN             NaN             NaN
             NaN             NaN             NaN
             NaN             NaN             NaN
             NaN             NaN             NaN
             NaN             NaN             NaN
             NaN             NaN             NaN
             NaN             NaN             NaN
             NaN             NaN             NaN
             NaN             NaN             NaN
             NaN             NaN             NaN
             NaN             NaN             NaN
             NaN             NaN             NaN
