Mg   P    N
1.0
  9.797505354971866 3.8912035613e-06 -7.2863277824e-06
  2.419706579e-06 5.6971510554560325 2.77190073e-08
  -3.2928364e-08 0.1075805439940386 4.76788595091
 Mg  P  N 
8 4 12 
direct
   -0.1623396741905260   0.3503612371728996  -0.0423697108453671
   -0.8376601649066873   0.3503611571164296  -0.0423696479943823
   -0.1633584939251531   0.6807597206425200  -0.5343394241960213
   -0.8366413997428490   0.6807598133221043  -0.5343394374512328
   -0.6644674244971801   0.8483242608427535  -0.0292161886641347
   -0.3355316123045316   0.8483244002472254  -0.0292162166221277
   -0.6661139652564891   0.1796848856302870  -0.5753028225112691
   -0.3338851395202683   0.1796848235494740  -0.5753026375334362
   -0.0000032918530121   0.8534806658508548  -0.0171900857857767
   -0.0000037826129157   0.1771689199566774  -0.5210983763976030
   -0.4999946124372340   0.3450275706754061  -0.1563981054515411
   -0.4999955510954582   0.6861222738965177  -0.4922191052727807
   -0.9999990365292589   0.1259813647721781  -0.1668047165820472
   -0.9999990381178879   0.9056772374401532  -0.6643976399533934
   -0.8597165936619521   0.7126090181352622  -0.0882376467729401
   -0.1402792800854550   0.7126117845400087  -0.0882363576523598
   -0.8600077372173671   0.3197988824917211  -0.5948054937423367
   -0.1399875254477408   0.3197957423400468  -0.5948037375173328
   -0.3578538135206154   0.2124544852630590  -0.0748472582870310
   -0.6421506331494420   0.2124507907180092  -0.0748447424445235
   -0.3586930794241812   0.8172828679816435  -0.5828947730939179
   -0.6413103984771890   0.8172858546605752  -0.5828968889178444
   -0.5000006156085599   0.6433219790154876  -0.1304895142147013
   -0.5000005978463391   0.3899038146493600  -0.5251379395738690
