Mg   P    N
1.0
  9.809895436174301 1.279995147e-07 6.142430258e-07
  9.541000809e-07 5.700341927238773 2.77190055e-08
  3.29283647e-08 -0.0884659364625005 -4.76788595091
 Mg  P  N 
8 4 12 
direct
   -0.1633548842171308   0.3492930739089007   0.0494774054257423
   -0.8366445874492848   0.3492930795595732   0.0494773944631884
   -0.1615349985866658   0.6804351535829851   0.5416877981369382
   -0.8384644629026536   0.6804351573400372   0.5416877876606556
   -0.6637157299508857   0.8473416967878726   0.0622423594359305
   -0.3362837332909566   0.8473416998378557   0.0622424046320576
   -0.6642558796177869   0.1833749603568338   0.5948768123982117
   -0.3357435707908917   0.1833749726691271   0.5948768206746263
    0.0000001472239616   0.8536486911526909   0.0208592273407213
    0.0000001748482417   0.1777597886072627   0.5236328207363823
   -0.4999996345138532   0.3529158188328139   0.1303777583009549
   -0.4999995005108895   0.6828668277377169   0.5731514303007307
   -0.9999997466204019   0.1255573145044689   0.1698172389298031
   -0.9999997457379581   0.9067043127080820   0.6680868565974925
   -0.8600675960812216   0.7119233929304105   0.0908393322496988
   -0.1399317863565673   0.7119234628790354   0.0908392753487271
   -0.8598491339464422   0.3200441607466943   0.5957558398408630
   -0.1401502862277840   0.3200441220722074   0.5957558227485392
   -0.3590150753505786   0.2093949165155654   0.0575490367594034
   -0.6409843949801785   0.2093949178887302   0.0575490422646204
   -0.3570114483470990   0.8200606418513774   0.5604056509581655
   -0.6429881957365107   0.8200607968092249   0.5604059436625393
   -0.4999996820663973   0.6294454864477137   0.0325871176248922
   -0.4999997102183348   0.3965991051834634   0.4935772909870523
