Mg   P    N                             
   1.00000000000000     
    -0.0275304848063519    0.0000000329283631   -4.7678859509100002
     5.6777790273629725   -0.0000030673700025    0.0000000277190094
     0.0000055651133553   -9.7629547916347068   -0.0000001994002969
   Mg   P    N 
     8     4    12
Direct
  0.0356242911988302  0.3493541122684728  0.1631608885094873
  0.0356242891579733  0.3493542586108456  0.8368383443261579
  0.5347149567114522  0.6813366368945332  0.1633693409694536
  0.5347150231096759  0.6813367724546273  0.8366301976381612
  0.0338981724347395  0.8491499010928981  0.6634442905874582
  0.0338981223030557  0.8491500492187586  0.3365550930112074
  0.5362505998286523  0.1812790975380001  0.6634717496106054
  0.5362506109731732  0.1812792621482191  0.3365279140004120
  0.0173722898869277  0.8532840818252421  0.9999990663992734
  0.5182603484456964  0.1774750883769751  0.9999989705875633
  0.0164205205056074  0.3531977071213729  0.5000005272818755
  0.5161284278870507  0.6772903070072162  0.5000003971974495
  0.1646312485390251  0.1259457270044416  0.9999998574538662
  0.6641351318998862  0.9050614213717418  0.9999998255312296
  0.0896815607320156  0.7119333236279812  0.8591369367205048
  0.0896818038861486  0.7119326305787380  0.1408633603486540
  0.5908643156899829  0.3191203304149056  0.8590980561362700
  0.5908646062050111  0.3191207350155145  0.1409019335255352
  0.0888477832650089  0.2119782861056532  0.3590158370334302
  0.0888474689621679  0.2119787010166163  0.6409830410577529
  0.5888897945640444  0.8188544536600934  0.3590336986187806
  0.5888895354982530  0.8188537370592197  0.6409649190557803
  0.1622125657211185  0.6263483743327229  0.4999996209281432
  0.6619951997349555  0.4046409937451985  0.4999996017608166
 
             NaN             NaN             NaN
             NaN             NaN             NaN
             NaN             NaN             NaN
             NaN             NaN             NaN
             NaN             NaN             NaN
             NaN             NaN             NaN
             NaN             NaN             NaN
             NaN             NaN             NaN
             NaN             NaN             NaN
             NaN             NaN             NaN
             NaN             NaN             NaN
             NaN             NaN             NaN
             NaN             NaN             NaN
             NaN             NaN             NaN
             NaN             NaN             NaN
             NaN             NaN             NaN
             NaN             NaN             NaN
             NaN             NaN             NaN
             NaN             NaN             NaN
             NaN             NaN             NaN
             NaN             NaN             NaN
             NaN             NaN             NaN
             NaN             NaN             NaN
             NaN             NaN             NaN
