Mg   P    N 
   1.00000000000000     
  -0.0000000238175975   0.0000000329283679  -4.7678859509100002
   5.6760184847200001   0.0000001443667186   0.0000000277189982
  -0.0000002488038064  -9.7582056326500002   0.0000000683777790
Mg   P    N 
8  4  12  
Direct
  0.0715796779631503  0.3493664735347437  0.1633302058057495  
  0.0715796745277331  0.3493665012466494  0.8366686422515812  
  0.5715796662215169  0.6814031688240831  0.1633302116844106  
  0.5715796790428485  0.6814031473495064  0.8366686148992954  
  0.0715796877021049  0.8493665219454414  0.6633302466400650  
  0.0715796799053336  0.8493664986086600  0.3366687474601164  
  0.5715796789548904  0.1814032004596697  0.6633302253075612  
  0.5715796939836437  0.1814032202911235  0.3366687542204758  
  0.0887860017727178  0.8533231312106508  0.9999987454308936  
  0.5887859908678337  0.1774464111945662  0.9999987319249256  
  0.0887861348258099  0.3533235610559871  0.5000001435608823  
  0.5887861418394564  0.6774463618540167  0.5000001261721749  
  0.9421566734082348  0.1258516842834538  0.9999996608846048  
  0.4421566643552381  0.9049179488578004  0.9999996539841618  
  0.0162310823600933  0.7118703054272615  0.8590676291536496  
  0.0162308294959246  0.7118697628498722  0.1409320666085705  
  0.5162311113256308  0.3188993190337612  0.8590676282380514  
  0.5162308343660413  0.3188998633872160  0.1409320970251571  
  0.0162307857131410  0.2118696753780327  0.3590667635279985  
  0.0162310754807322  0.2118701963402430  0.6409313725323784  
  0.5162308067369281  0.8189000452654227  0.3590667808570487  
  0.5162310501851053  0.8188995302505404  0.6409313760949544  
  0.9421567065154620  0.6258516756280983  0.4999992539279887  
  0.4421566028191535  0.4049179744571987  0.4999992446575590  
