Mg   P    N
1.0
  9.810638069612196 -1.2395479881e-06 5.754525214e-07
  2.1824096819e-06 5.701539619053449 2.77190034e-08
  3.29283656e-08 -0.0932430626202182 -4.76788595091
 Mg  P  N 
8 4 12 
direct
   -0.1642927348229206   0.3472730200986990   0.0478153100421106
   -0.8357065412705602   0.3472730433687782   0.0478153075425084
   -0.1637052779265536   0.6836318715599560   0.5839343522277863
   -0.8362939853189050   0.6836318494018384   0.5839343446552778
   -0.6614897388891341   0.8504221686916594   0.1016625459911271
   -0.3385099398549979   0.8504220995192381   0.1016625507945754
   -0.6633721083398186   0.1814653338510387   0.5936466729034089
   -0.3366275509575501   0.1814653837328971   0.5936466875829408
   -0.9999956719063923   0.8457989778758360   0.0998276257637574
   -0.9999981907135175   0.1786455883666057   0.5102043507020511
   -0.5000013306962519   0.3530179670849486   0.1195035585844756
   -0.5000014736257252   0.6771004058991154   0.6223338607405529
   -0.0000001401404671   0.1366358165783102   0.1444558163478389
   -0.0000001030794503   0.8996208028261788   0.5888099118695945
   -0.8567822290180936   0.7107776004611253   0.0802291000420614
   -0.1432212065170100   0.7107744321083616   0.0802286199985579
   -0.8589731763524354   0.3214539311914696   0.5850853408672188
   -0.1410277470424572   0.3214551480677654   0.5850859462187878
   -0.3598624339468410   0.2107375923250589   0.0473274635651169
   -0.6401353968194149   0.2107388020950903   0.0473281043542764
   -0.3600704115526316   0.8188109652647626   0.5523793391442052
   -0.6399272385919738   0.8188097026193495   0.5523799853802862
   -0.4999993992237334   0.6240694471385175   0.9751179084031283
   -0.4999994348215552   0.4052016007839760   0.4733437638682803
