Mg   P    N                             
   1.00000000000000     
    -0.1377140511688106    0.0000000329283641   -4.7678859509100002
     5.6924521697237651   -0.0000019559201886    0.0000000277190069
    -0.0000043172349792   -9.8066801077840218    0.0000017009065641
   Mg   P    N 
     8     4    12
Direct
  0.0469832571862480  0.3503565515833263  0.1622719093680238
  0.0469832806231357  0.3503565456604070  0.8377275468720593
  0.5356780186733338  0.6808708383837406  0.1631250555362624
  0.5356780304006387  0.6808708314565545  0.8368744130287398
  0.0312232666880183  0.8480394866207105  0.6648369621802329
  0.0312232111751913  0.8480394781543277  0.3351625566923156
  0.5935906415068504  0.1807587787585158  0.6647731379197427
  0.5935904168921821  0.1807587756935931  0.3352262919131707
  0.0179144964905273  0.8537014937502628  0.9999997639478740
  0.5227513595399184  0.1773642246278443  0.9999997612672736
  0.1513520928249717  0.3441968682962950  0.4999996880546300
  0.4866973539982211  0.6861255185549350  0.4999996999597746
  0.1682143987026419  0.1263665716583242 -0.0000003185579286
  0.6654641910828453  0.9058979043289930 -0.0000003314033162
  0.0887568899305889  0.7129863620193037  0.8598872831894067
  0.0887567887685907  0.7129864796962502  0.1401120762615218
  0.5958186722356572  0.3197546142602589  0.8597724658776498
  0.5958186089825095  0.3197544921389659  0.1402268063435671
  0.0611978048726763  0.2134821494247038  0.3584369117179782
  0.0611976782778751  0.2134820102190637  0.6415627097925863
  0.5800741371646649  0.8159882458886777  0.3586967104161514
  0.5800741300801258  0.8159883025583347  0.6413028123538669
  0.1253883157228488  0.6436228044025026  0.4999997875887624
  0.5133314256577426  0.3874842227748325  0.4999997611079997
 
             NaN             NaN             NaN
             NaN             NaN             NaN
             NaN             NaN             NaN
             NaN             NaN             NaN
             NaN             NaN             NaN
             NaN             NaN             NaN
             NaN             NaN             NaN
             NaN             NaN             NaN
             NaN             NaN             NaN
             NaN             NaN             NaN
             NaN             NaN             NaN
             NaN             NaN             NaN
             NaN             NaN             NaN
             NaN             NaN             NaN
             NaN             NaN             NaN
             NaN             NaN             NaN
             NaN             NaN             NaN
             NaN             NaN             NaN
             NaN             NaN             NaN
             NaN             NaN             NaN
             NaN             NaN             NaN
             NaN             NaN             NaN
             NaN             NaN             NaN
             NaN             NaN             NaN
