Mg   P    N
1.0
  9.810905110820757 -2.770319145e-06 -3.0566958e-08
  1.2930275572e-06 5.702508239192535 2.77190031e-08
  3.29283658e-08 -0.0972699993139348 -4.76788595091
 Mg  P  N 
8 4 12 
direct
   -0.1642418114695407   0.3476683256324998   0.0474317543409727
   -0.8357576836104882   0.3476683242265101   0.0474317513612339
   -0.1642538639878259   0.6831191074863971   0.5872393976272050
   -0.8357456277232610   0.6831190992149150   0.5872394143404503
   -0.6616991195622537   0.8503375303708554   0.1017590093840910
   -0.3383002960575154   0.8503375374200577   0.1017590134058899
   -0.6632288729371383   0.1813504886581577   0.5936349742082747
   -0.3367705394654241   0.1813504775910028   0.5936349702460645
   -0.0000005429643926   0.8448376136885664   0.1309692385359272
   -0.0000000686306931   0.1811665771642234   0.5063272713829423
   -0.4999993758013618   0.3530805268102680   0.1194067276482958
   -0.4999993530383757   0.6771582129229283   0.6224242544827704
   -0.9999996155626437   0.1389064315027630   0.1405157666403353
   -0.9999996195985501   0.8959698504150394   0.5645947846197578
   -0.8571657710772684   0.7115361910018657   0.0776079011036905
   -0.1428328543581855   0.7115368470398803   0.0776081015445489
   -0.8589540258621291   0.3207762590850929   0.5851556161930414
   -0.1410450697631456   0.3207759528895023   0.5851554466059029
   -0.3598460365218595   0.2108038685999446   0.0472689837423455
   -0.6401538045473124   0.2108035812237760   0.0472688436155562
   -0.3601039842501124   0.8188144783831648   0.5524222758151595
   -0.6398958933869083   0.8188147798342684   0.5524221297325800
   -0.4999998204099927   0.6240832854758431   0.9751382352039206
   -0.4999998108420181   0.4052182042730371   0.4733426058089622
