supercell of 100% icsd_608626.cif, 0% i 
   1.00000000000000     
    -9.3153049283621012   -0.0057744398375151   -0.0011244636527662
    -4.6526503883645773    8.0717772744545790    0.0003701831657821
    -0.0012031700732300   -0.0011583457791942   -9.9836573746320667
   Al   Ge   Be   N 
    28     4     4    36
Direct
  0.1094845304765784  0.0899839321253637  0.2936483322507044
  0.2235897044749535  0.2031383712669594  0.0459493855937438
  0.7809862468781006  0.0932391760470921  0.7967017577953683
  0.8863308471067910  0.2080509663010375  0.5373313905293813
  0.4505745884906958  0.0822775702334226  0.2969289738202576
  0.5548571929207498  0.2046799563505601  0.0490992945797615
  0.1139375740995803  0.0899777554555214  0.8001459459085254
  0.7784512195036157  0.0968355695561911  0.2943912636391062
  0.8873840794834251  0.2090089818754208  0.0496803898245801
  0.4449625111958824  0.0847263590330485  0.7951602977770236
  0.5588582825670301  0.1991255731911465  0.5413141991659955
  0.1070755862103425  0.4273517395447826  0.2923422972040299
  0.2229604494320299  0.5394920607465110  0.0489621311296418
  0.7757237949054883  0.4302389651100498  0.8001562473306620
  0.4547201241873537  0.4296442256227166  0.2942234661700169
  0.5556443093981542  0.5446369550623373  0.0545090631789051
  0.1088046622661167  0.4268049997663965  0.8025473128241103
  0.8845100634241021  0.5392114325171065  0.0498847795263373
  0.5552768311080243  0.5554690103520201  0.5357697207709435
  0.1123670396861840  0.7670638860637595  0.2936650236885328
  0.2303591224372852  0.8686210633927942  0.0450153238059627
  0.7696996641721441  0.7624802122957206  0.7955575321457644
  0.8844586080049623  0.8737941291820732  0.5417278517628077
  0.5523128936666168  0.8680341489918177  0.0462383558196180
  0.1132762794549578  0.7659099076087728  0.7990079760762825
  0.2374411849347453  0.8679842703852287  0.5418524807724125
  0.7661141827564819  0.7633414357541639  0.2969487748488149
  0.8876728894636301  0.8711042862237051  0.0462311540207949
  0.2292972545810770  0.1959128647985722  0.5427857399508937
  0.8769978485360923  0.5461165832802095  0.5383327783859642
  0.2229812007144574  0.5433959645731150  0.5417091573003177
  0.4474934311635081  0.4320167536631345  0.7994835929779782
  0.7696150899887186  0.4289269192797391  0.2907617671066873
  0.4507536480571730  0.7587059757045296  0.2947433167293241
  0.4434791609611608  0.7683562295570638  0.7881846695925603
  0.5491626812651305  0.8640441004997257  0.5366238662556952
  0.2219971853449465  0.2057336816241673  0.3554366288238029
  0.1118833265027277  0.0937042483046397  0.1035376973525715
  0.8889801066594032  0.2063296125029126  0.8555229402241764
  0.7783606855213918  0.0951963488077894  0.6053212954176459
  0.5540813829213889  0.2057613558292459  0.3538222936673208
  0.4441569559470153  0.0935409625637931  0.1056604264908145
  0.2226759365760600  0.2059151174646203  0.8541668556488773
  0.1102761168147950  0.0965977672707226  0.6049542562616850
  0.8859672386906183  0.2121418747446455  0.3505931908791879
  0.7773222553583992  0.0937997347954536  0.1033815417628929
  0.5535047440306968  0.2068829267585670  0.8533540303928220
  0.4453369006645573  0.0914976749071315  0.6035991467218409
  0.2232781889917845  0.5375453740509784  0.3548997993115819
  0.1113678319856461  0.4275225415794139  0.1041628891616568
  0.8886497014582133  0.5398333186798823  0.8563904649217022
  0.7786250435519833  0.4286130514011006  0.6069582136231944
  0.5614846602058421  0.5414029132146396  0.3501636395914645
  0.4439614603490796  0.4275303126202914  0.1041578781582970
  0.2237780026664709  0.5380594112486818  0.8541038290498122
  0.1109513220099245  0.4279967055047464  0.6049297442115247
  0.8867420835954647  0.5355083929579720  0.3530970248004408
  0.7776033467339616  0.4278692374283395  0.1099570045168434
  0.5521673572997230  0.5446035873903909  0.8563382552001286
  0.4447020679066398  0.4290714866021830  0.6048495438110706
  0.2274169759118863  0.8699241456128348  0.3544080721137348
  0.1112610523513240  0.7608593498199596  0.1033262308951208
  0.8884482233224062  0.8706410349303226  0.8533166828398464
  0.7741425603160224  0.7615932368486540  0.6029066531994900
  0.5502705454406538  0.8674547580269945  0.3615006909510328
  0.4439124451510992  0.7618848040817596  0.1140995627319441
  0.2302200792755400  0.8687106376995928  0.8527652126613958
  0.1120385357029363  0.7604912288966190  0.6048199840992936
  0.8883299408165612  0.8711523574384188  0.3532538080541059
  0.7766425047138910  0.7611752513160823  0.1060143840025276
  0.5517396255698088  0.8680733397877560  0.8558147646180174
  0.4501088316678192  0.7656798858769420  0.6107997535725715
 
  0.00000000E+00  0.00000000E+00  0.00000000E+00
  0.00000000E+00  0.00000000E+00  0.00000000E+00
  0.00000000E+00  0.00000000E+00  0.00000000E+00
  0.00000000E+00  0.00000000E+00  0.00000000E+00
  0.00000000E+00  0.00000000E+00  0.00000000E+00
  0.00000000E+00  0.00000000E+00  0.00000000E+00
  0.00000000E+00  0.00000000E+00  0.00000000E+00
  0.00000000E+00  0.00000000E+00  0.00000000E+00
  0.00000000E+00  0.00000000E+00  0.00000000E+00
  0.00000000E+00  0.00000000E+00  0.00000000E+00
  0.00000000E+00  0.00000000E+00  0.00000000E+00
  0.00000000E+00  0.00000000E+00  0.00000000E+00
  0.00000000E+00  0.00000000E+00  0.00000000E+00
  0.00000000E+00  0.00000000E+00  0.00000000E+00
  0.00000000E+00  0.00000000E+00  0.00000000E+00
  0.00000000E+00  0.00000000E+00  0.00000000E+00
  0.00000000E+00  0.00000000E+00  0.00000000E+00
  0.00000000E+00  0.00000000E+00  0.00000000E+00
  0.00000000E+00  0.00000000E+00  0.00000000E+00
  0.00000000E+00  0.00000000E+00  0.00000000E+00
  0.00000000E+00  0.00000000E+00  0.00000000E+00
  0.00000000E+00  0.00000000E+00  0.00000000E+00
  0.00000000E+00  0.00000000E+00  0.00000000E+00
  0.00000000E+00  0.00000000E+00  0.00000000E+00
  0.00000000E+00  0.00000000E+00  0.00000000E+00
  0.00000000E+00  0.00000000E+00  0.00000000E+00
  0.00000000E+00  0.00000000E+00  0.00000000E+00
  0.00000000E+00  0.00000000E+00  0.00000000E+00
  0.00000000E+00  0.00000000E+00  0.00000000E+00
  0.00000000E+00  0.00000000E+00  0.00000000E+00
  0.00000000E+00  0.00000000E+00  0.00000000E+00
  0.00000000E+00  0.00000000E+00  0.00000000E+00
  0.00000000E+00  0.00000000E+00  0.00000000E+00
  0.00000000E+00  0.00000000E+00  0.00000000E+00
  0.00000000E+00  0.00000000E+00  0.00000000E+00
  0.00000000E+00  0.00000000E+00  0.00000000E+00
  0.00000000E+00  0.00000000E+00  0.00000000E+00
  0.00000000E+00  0.00000000E+00  0.00000000E+00
  0.00000000E+00  0.00000000E+00  0.00000000E+00
  0.00000000E+00  0.00000000E+00  0.00000000E+00
  0.00000000E+00  0.00000000E+00  0.00000000E+00
  0.00000000E+00  0.00000000E+00  0.00000000E+00
  0.00000000E+00  0.00000000E+00  0.00000000E+00
  0.00000000E+00  0.00000000E+00  0.00000000E+00
  0.00000000E+00  0.00000000E+00  0.00000000E+00
  0.00000000E+00  0.00000000E+00  0.00000000E+00
  0.00000000E+00  0.00000000E+00  0.00000000E+00
  0.00000000E+00  0.00000000E+00  0.00000000E+00
  0.00000000E+00  0.00000000E+00  0.00000000E+00
  0.00000000E+00  0.00000000E+00  0.00000000E+00
  0.00000000E+00  0.00000000E+00  0.00000000E+00
  0.00000000E+00  0.00000000E+00  0.00000000E+00
  0.00000000E+00  0.00000000E+00  0.00000000E+00
  0.00000000E+00  0.00000000E+00  0.00000000E+00
  0.00000000E+00  0.00000000E+00  0.00000000E+00
  0.00000000E+00  0.00000000E+00  0.00000000E+00
  0.00000000E+00  0.00000000E+00  0.00000000E+00
  0.00000000E+00  0.00000000E+00  0.00000000E+00
  0.00000000E+00  0.00000000E+00  0.00000000E+00
  0.00000000E+00  0.00000000E+00  0.00000000E+00
  0.00000000E+00  0.00000000E+00  0.00000000E+00
  0.00000000E+00  0.00000000E+00  0.00000000E+00
  0.00000000E+00  0.00000000E+00  0.00000000E+00
  0.00000000E+00  0.00000000E+00  0.00000000E+00
  0.00000000E+00  0.00000000E+00  0.00000000E+00
  0.00000000E+00  0.00000000E+00  0.00000000E+00
  0.00000000E+00  0.00000000E+00  0.00000000E+00
  0.00000000E+00  0.00000000E+00  0.00000000E+00
  0.00000000E+00  0.00000000E+00  0.00000000E+00
  0.00000000E+00  0.00000000E+00  0.00000000E+00
  0.00000000E+00  0.00000000E+00  0.00000000E+00
  0.00000000E+00  0.00000000E+00  0.00000000E+00
