supercell of icsd_608626.cif            
  0.991772326733240     
     9.3263513753892830   -0.0001033596892721    0.0005865939600796
    -4.6632652185402845    8.0770169486806438   -0.0000004975025605
     0.0006332115591816    0.0003649905649012    9.8707630842959055
   Al   B    N 
    34     2    36
Direct
  0.2258409716943675  0.1162840230792668  0.2498232049800393
  0.1111376264368218  0.2222353724527721  0.4999083947823948
  0.8885491716639606  0.1109411296169682  0.7492193930838695
  0.7741481774146877  0.2171331871946336  0.9992725614042612
  0.5561152149827180  0.1141367825079911  0.2428647666784798
  0.4464555860017185  0.2236489349789608  0.4922863279541829
  0.2242118904566084  0.1120296503880311  0.7489348488336347
  0.1113188749642546  0.2223256898832986  0.9994657486228391
  0.8889197169029899  0.1111259247032450  0.2502748794304281
  0.7757752901127262  0.2211854793609760  0.4997078578930925
  0.5518311754832084  0.1064584092512604  0.7535400085887147
  0.4456259528998245  0.2232231000754368  0.0036103861419789
  0.2258404784444679  0.4428899114951932  0.2498234658794658
  0.1119702605819910  0.5570448182848082  0.4991294028173883
  0.8876664917072929  0.4453545772499083  0.7493162962519406
  0.7720264368175620  0.5526796502071605  0.0043950607940815
  0.4464555359653204  0.5561408407110875  0.4922864796203044
  0.2242122502068042  0.4455156015937902  0.7489347711251426
  0.1164300779720620  0.5591876867758714  0.9995284795670543
  0.8839911515257697  0.4425339423562633  0.2493235202748210
  0.7753176947769802  0.5543254234572856  0.4925676562412278
  0.5556850422737227  0.4445095544519759  0.7473454494482326
  0.4456262545103939  0.5557371049120476  0.0036105038486838
  0.2245408605588892  0.7789368130298087  0.2436329686374918
  0.1119702671437963  0.8882591563241320  0.4991293199968183
  0.8876663502287627  0.7756454826089652  0.7493164282584814
  0.7741477990659931  0.8903482673929375  0.9992724380481093
  0.5561155547965342  0.7753114945955772  0.2428649117739496
  0.4447387245206826  0.8890361243462479  0.4974067707211915
  0.2280810307919765  0.7807069733333662  0.7538566236381996
  0.1164299709546768  0.8905749435460848  0.9995284648643405
  0.8839915515247654  0.7747900170638076  0.2493232861039374
  0.7757757688232800  0.8879231873070381  0.4997078126733072
  0.5518313192612752  0.7787072263356478  0.7535398803640092
  0.5554763817891128  0.4444050236939887  0.2535824153362043
  0.4433097668277668  0.8883216155215976  0.0049377501445989
  0.2219343150414375  0.1109022042320476  0.4420103229795203
  0.1105665841922772  0.2219498651779759  0.1917523160867702
  0.8895674648138652  0.1114503185538140  0.9409470392277726
  0.7750515128751019  0.2213061072497240  0.6941940089096335
  0.5551092129853004  0.1092961245683810  0.4360195348412503
  0.4566036370657045  0.2470124825544957  0.1982513179247860
  0.2244644451297333  0.1126987072283896  0.9425513997571073
  0.1114859400515726  0.2224096625748189  0.6924674300657969
  0.8883870739220896  0.1108602135323409  0.4434326906829682
  0.7787796720096978  0.2219693923318999  0.1906090532015909
  0.5419146679779701  0.0876264447698603  0.9508915470346508
  0.4465631186623114  0.2227536587981831  0.6880162512361281
  0.2219342022271888  0.4443654765933260  0.4420105235608887
  0.1108963708394413  0.5545220370135482  0.1917018280937413
  0.8879897406658657  0.4455471042902843  0.9438067517259583
  0.7759891075985337  0.5546612712768493  0.6865147002292531
  0.5551364074459144  0.4442350936674018  0.4204014731977495
  0.4566036540008653  0.5429246963515766  0.1982515914253113
  0.2244647114155711  0.4450985886244467  0.9425513354916433
  0.1120437537368844  0.5576622123174957  0.6940510861425935
  0.8891350193418290  0.4437081508341052  0.4417842652180610
  0.7530578181224215  0.5431953663002460  0.1996482423894292
  0.5549827847098925  0.4441583198068102  0.9379318810921973
  0.4465633943601404  0.5571438232650721  0.6880163630567822
  0.2238797546396967  0.7786065622728131  0.4373946208900321
  0.1108967766728952  0.8897074734268173  0.1917017671364363
  0.8879893862899024  0.7757758608057586  0.9438069833128395
  0.7750515291802742  0.8870789213223631  0.6941938218803188
  0.5551094362815903  0.7791466927518016  0.4360197500912761
  0.4446740934232736  0.8890034968225109  0.1709500461255615
  0.2470863331212385  0.7902096679226176  0.9494081457471140
  0.1120435864958935  0.8877146680328138  0.6940510501720496
  0.8891351833944796  0.7787599528475795  0.4417841208303770
  0.7787795985274144  0.8901428696926459  0.1906090453265179
  0.5419146261345844  0.7876220957681213  0.9508914247306137
  0.4449884165633833  0.8891612963337252  0.6881077353624292
 
  0.00000000E+00  0.00000000E+00  0.00000000E+00
  0.00000000E+00  0.00000000E+00  0.00000000E+00
  0.00000000E+00  0.00000000E+00  0.00000000E+00
  0.00000000E+00  0.00000000E+00  0.00000000E+00
  0.00000000E+00  0.00000000E+00  0.00000000E+00
  0.00000000E+00  0.00000000E+00  0.00000000E+00
  0.00000000E+00  0.00000000E+00  0.00000000E+00
  0.00000000E+00  0.00000000E+00  0.00000000E+00
  0.00000000E+00  0.00000000E+00  0.00000000E+00
  0.00000000E+00  0.00000000E+00  0.00000000E+00
  0.00000000E+00  0.00000000E+00  0.00000000E+00
  0.00000000E+00  0.00000000E+00  0.00000000E+00
  0.00000000E+00  0.00000000E+00  0.00000000E+00
  0.00000000E+00  0.00000000E+00  0.00000000E+00
  0.00000000E+00  0.00000000E+00  0.00000000E+00
  0.00000000E+00  0.00000000E+00  0.00000000E+00
  0.00000000E+00  0.00000000E+00  0.00000000E+00
  0.00000000E+00  0.00000000E+00  0.00000000E+00
  0.00000000E+00  0.00000000E+00  0.00000000E+00
  0.00000000E+00  0.00000000E+00  0.00000000E+00
  0.00000000E+00  0.00000000E+00  0.00000000E+00
  0.00000000E+00  0.00000000E+00  0.00000000E+00
  0.00000000E+00  0.00000000E+00  0.00000000E+00
  0.00000000E+00  0.00000000E+00  0.00000000E+00
  0.00000000E+00  0.00000000E+00  0.00000000E+00
  0.00000000E+00  0.00000000E+00  0.00000000E+00
  0.00000000E+00  0.00000000E+00  0.00000000E+00
  0.00000000E+00  0.00000000E+00  0.00000000E+00
  0.00000000E+00  0.00000000E+00  0.00000000E+00
  0.00000000E+00  0.00000000E+00  0.00000000E+00
  0.00000000E+00  0.00000000E+00  0.00000000E+00
  0.00000000E+00  0.00000000E+00  0.00000000E+00
  0.00000000E+00  0.00000000E+00  0.00000000E+00
  0.00000000E+00  0.00000000E+00  0.00000000E+00
  0.00000000E+00  0.00000000E+00  0.00000000E+00
  0.00000000E+00  0.00000000E+00  0.00000000E+00
  0.00000000E+00  0.00000000E+00  0.00000000E+00
  0.00000000E+00  0.00000000E+00  0.00000000E+00
  0.00000000E+00  0.00000000E+00  0.00000000E+00
  0.00000000E+00  0.00000000E+00  0.00000000E+00
  0.00000000E+00  0.00000000E+00  0.00000000E+00
  0.00000000E+00  0.00000000E+00  0.00000000E+00
  0.00000000E+00  0.00000000E+00  0.00000000E+00
  0.00000000E+00  0.00000000E+00  0.00000000E+00
  0.00000000E+00  0.00000000E+00  0.00000000E+00
  0.00000000E+00  0.00000000E+00  0.00000000E+00
  0.00000000E+00  0.00000000E+00  0.00000000E+00
  0.00000000E+00  0.00000000E+00  0.00000000E+00
  0.00000000E+00  0.00000000E+00  0.00000000E+00
  0.00000000E+00  0.00000000E+00  0.00000000E+00
  0.00000000E+00  0.00000000E+00  0.00000000E+00
  0.00000000E+00  0.00000000E+00  0.00000000E+00
  0.00000000E+00  0.00000000E+00  0.00000000E+00
  0.00000000E+00  0.00000000E+00  0.00000000E+00
  0.00000000E+00  0.00000000E+00  0.00000000E+00
  0.00000000E+00  0.00000000E+00  0.00000000E+00
  0.00000000E+00  0.00000000E+00  0.00000000E+00
  0.00000000E+00  0.00000000E+00  0.00000000E+00
  0.00000000E+00  0.00000000E+00  0.00000000E+00
  0.00000000E+00  0.00000000E+00  0.00000000E+00
  0.00000000E+00  0.00000000E+00  0.00000000E+00
  0.00000000E+00  0.00000000E+00  0.00000000E+00
  0.00000000E+00  0.00000000E+00  0.00000000E+00
  0.00000000E+00  0.00000000E+00  0.00000000E+00
  0.00000000E+00  0.00000000E+00  0.00000000E+00
  0.00000000E+00  0.00000000E+00  0.00000000E+00
  0.00000000E+00  0.00000000E+00  0.00000000E+00
  0.00000000E+00  0.00000000E+00  0.00000000E+00
  0.00000000E+00  0.00000000E+00  0.00000000E+00
  0.00000000E+00  0.00000000E+00  0.00000000E+00
  0.00000000E+00  0.00000000E+00  0.00000000E+00
  0.00000000E+00  0.00000000E+00  0.00000000E+00
