supercell of supercell of icsd_608626.c 
   1.00600000000000     
    18.8433725412000008    0.0042597715995000    0.0111656436851000
    -6.2786657403800001   10.8752831735999997   -0.0012954496991100
     0.0059525623905900    0.0022414031449000   10.0498800689000003
   Al   Gd   N 
    92     4    95
Direct
  0.1112014324584223  0.0821508193853475  0.2459333492294675
  0.0507653166921713  0.1601115006703822  0.9943030993689916
  0.4449972553107742  0.3348257985181959  0.7508458703371730
  0.3895873834098253  0.4179762758525882  0.5014900897483585
  0.2789219637867859  0.0860986299858482  0.2584509212042647
  0.2246464533490666  0.1689641629647340  0.9973229657394285
  0.1086016825568734  0.3318941833345548  0.7414408005011595
  0.0608337637327097  0.4202910194371583  0.4995682513187489
  0.4441102284133649  0.0833353382797029  0.2493426426517971
  0.3917585151259857  0.1722645511221685  0.9984176387020156
  0.2795632858619541  0.3326674121245929  0.7463727050293159
  0.2234282027563808  0.4253801631414902  0.5033352145308285
  0.1111833116444032  0.0840659552500114  0.7459384729674881
  0.0522800369111138  0.1629511307340437  0.4899214478144245
  0.4441217504440687  0.3337458971345910  0.2497627770007966
  0.3889662129004989  0.4147268357495051  0.0006321755992360
  0.2798315008019898  0.0884329999284148  0.7443889986076115
  0.2212246434374094  0.1674522473950049  0.5017810459272454
  0.1036887911978113  0.3223153311092943  0.2639129594694509
  0.0534821764127855  0.4150968176223060  0.9980506514790335
  0.4441083956714706  0.0828214954727926  0.7501714837791269
  0.3904799927488867  0.1688859662094160  0.5005813869984834
  0.2772943263993355  0.3320382810894600  0.2620566125035637
  0.6117374067839734  0.0838402272396266  0.2483287380728072
  0.5509857543957750  0.1617268403910330  0.9985239628473650
  0.9452600838117817  0.3341903514276865  0.7489201719604495
  0.8913965439118243  0.4169871702132681  0.4996364010574510
  0.7791959067136247  0.0854209311452649  0.2577293142642674
  0.7252171774585108  0.1686734905414227  0.9977046566491055
  0.6068103915500771  0.3299775056787482  0.7433089849824057
  0.5546646398213824  0.4175715999894720  0.5000915755888826
  0.9432969030825333  0.0810629937257090  0.2469344399018567
  0.8920854021295810  0.1714796558113747  0.9963606022402729
  0.7796122671358958  0.3316176872206213  0.7440574538785825
  0.7224852413929597  0.4162509346803773  0.4992322954301756
  0.6114014197549338  0.0836586847194951  0.7496871242140628
  0.5546766667853760  0.1644831580360702  0.5002488447215541
  0.9454224349983633  0.3326736676042827  0.2494991384030740
  0.8898686689846471  0.4139571754554723  0.9991610538831139
  0.7799413287518675  0.0876825737019260  0.7436762520816060
  0.7219664278847944  0.1663377925022829  0.5010292842095581
  0.6092694971529724  0.3316352524689066  0.2590522442511229
  0.5529633756775496  0.4160718005163417  0.9992535114062733
  0.9443055616166376  0.0827530178631051  0.7459199622122554
  0.8909982664305218  0.1681348811545504  0.4989696280524853
  0.7791484685454648  0.3322286976405593  0.2584174088355269
  0.1119200321844573  0.5832594289414743  0.2476252105739860
  0.0511085597828895  0.6612107179360720  0.9978060840775740
  0.4455007116654386  0.8355301221702121  0.7511091556817107
  0.3903175763491475  0.9179204667184422  0.5003073581397430
  0.2787232766541763  0.5863333734547211  0.2609653416923265
  0.2250859770242357  0.6690517661661914  0.9986071623380681
  0.1068681584476252  0.8300937200018481  0.7425352971949408
  0.0545371983233380  0.9171951795726443  0.4987209242448785
  0.4438787018968497  0.5831450537034897  0.2501257670837091
  0.3918693466547509  0.6720348352600780  0.9991267049735626
  0.2794823896204548  0.8323693960990113  0.7445367472787794
  0.2223106428266846  0.9175439093049178  0.4993697852172758
  0.1115436534781438  0.5835106008668234  0.7494980984713280
  0.0546715030623730  0.6643328104792943  0.4996785082689215
  0.4447539546186903  0.8337629894907082  0.2497597031243544
  0.3894625542335390  0.9147912330228962  0.9999737071241483
  0.2806454676866466  0.5891208951871150  0.7475120806780780
  0.2222316347312088  0.6669473073262253  0.5022286260950395
  0.1094056132733456  0.8310732667892964  0.2583424076325826
  0.0530761378661069  0.9156255868820580  0.9971469161661446
  0.4443135384891406  0.5828609408176249  0.7510886821620417
  0.3929318433349920  0.6715751906221072  0.5019711344620745
  0.2788322131735015  0.8329029086374931  0.2592215576055281
  0.6113648055533645  0.5833555147614859  0.2484761428908229
  0.5510546208965152  0.6617052854128573  0.9988077297789815
  0.9449479980686135  0.8340245776832518  0.7492071159845608
  0.8886691866633001  0.9140560848462087  0.4990850157133409
  0.7790610121411277  0.5851387536613473  0.2580376935633808
  0.7249203580570267  0.6682843250698340  0.9976525552566926
  0.6069658085177849  0.8300661590637688  0.7433636621284947
  0.5558471704549532  0.9189992611285547  0.5001995175828284
  0.9443740269647947  0.5823739002434465  0.2484137653287632
  0.8918137909326802  0.6712126538018381  0.9973450963174670
  0.7791976894945947  0.8312625558295110  0.7437549860035020
  0.7224146289499842  0.9165484818926330  0.4988786520049899
  0.6111281130466963  0.5831425391816580  0.7497585502811930
  0.5549214408631045  0.6644221519530547  0.5005056170020978
  0.9445306531659412  0.8326618172346940  0.2476139766548613
  0.8894944090174519  0.9140694892032002  0.9974304867689128
  0.7798805247937608  0.5874633110560836  0.7440602915359023
  0.7210866455756673  0.6648569525745032  0.5010658008398394
  0.6093615269667580  0.8316477050021476  0.2590660986817070
  0.5533113505482490  0.9162724916080904  0.9992294144525218
  0.9442556557192461  0.5820327264469185  0.7494827388859093
  0.8906472391347222  0.6674125567401035  0.4995654658660129
  0.7784153328897432  0.8314753043870340  0.2579268248899140
  0.2185849273497809  0.4147836363340289  0.0053715547882831
  0.7195904161293072  0.4146896860111795  0.9986396384857699
  0.2195529620314787  0.9156880588754248  0.9985177695348142
  0.7197898086310133  0.9151202396238531  0.9984537336206145
  0.1113924614122297  0.0833541250540293  0.4362075203616911
  0.0540599562551591  0.1616472524090469  0.1838871617398183
  0.4455254608852854  0.3373194522702150  0.9411843836820353
  0.3902566336694520  0.4178616662481929  0.6896380677983629
  0.2789189801937155  0.0871655013748338  0.4471032690784753
  0.2230436452594731  0.1676695344302246  0.1906558467922181
  0.0937771899867954  0.3185132612397439  0.9268570920635852
  0.0553051925062746  0.4184624858041346  0.6878205348121611
  0.4443043404227893  0.0837394953202235  0.4392107933390079
  0.3886291648585214  0.1669785787755771  0.1905842262339448
  0.2841124780740572  0.3268566576923249  0.9324206266555137
  0.2235579608487939  0.4187021523486649  0.6990130826468999
  0.1121384612889642  0.0835954773029783  0.9382172976826553
  0.0552693633644594  0.1662973490123960  0.6808090833028899
  0.4442764095785634  0.3343864051939534  0.4393133105601237
  0.3869708833550902  0.4159640472604451  0.1926775327801664
  0.2864523191508397  0.1039457556398133  0.9301193244820638
  0.2212004925736721  0.1666678077585999  0.6883651173203873
  0.0567138743345197  0.4154614331915241  0.1907343940925585
  0.4410990550264628  0.0792582070627503  0.9412439876191243
  0.3912522822681481  0.1690782143703018  0.6893303409263822
  0.2773271468272682  0.3342893266127476  0.4499467935019865
  0.2178788511641017  0.4139686591763194  0.2309753860223296
  0.6118729253776252  0.0844641271868412  0.4383319995127195
  0.5557459698256721  0.1672126329514896  0.1902363434475660
  0.9463380949730436  0.3365572049270114  0.9394602952638635
  0.8904483975072637  0.4171669804617224  0.6877769766257984
  0.7793609488781073  0.0861357686459030  0.4462864554180328
  0.7234711721008864  0.1671240949013182  0.1905461521292438
  0.5927491249393668  0.3189799303631204  0.9287498668627450
  0.5548485745837297  0.4183619114396961  0.6883574793119465
  0.9408640992402155  0.0779024359128400  0.4369096614801080
  0.8888077099719780  0.1660187572155323  0.1888055297323774
  0.7852373944374520  0.3257967370013759  0.9299929275508561
  0.7217838830256582  0.4160867424284547  0.6950065571389388
  0.6123984133950700  0.0845395592633835  0.9418431022437375
  0.5544669257047943  0.1634125961801303  0.6888633993648554
  0.9479220047602723  0.3345343724452334  0.4392628692678713
  0.8888470744289378  0.4152761642201455  0.1911234758831668
  0.7865262952736032  0.1030594884501852  0.9294056062286202
  0.7210685080973178  0.1656132546416913  0.6879461134314155
  0.6091808959482918  0.3317681760753430  0.4475700548663823
  0.5558896693164357  0.4162219663329410  0.1908911124198198
  0.9411845806196268  0.0784656871239733  0.9369854534724595
  0.8911673267251174  0.1686061634283362  0.6875132771655075
  0.7797097784065201  0.3325194718944076  0.4467056193283199
  0.7221850991884438  0.4159333810863615  0.2206640326044393
  0.1124059633099321  0.5857769862165512  0.4369745766089963
  0.0559561894813783  0.6666351606463294  0.1893326305867191
  0.4458792832542642  0.8371880876030815  0.9412209667429394
  0.3903581546702171  0.9179142036745702  0.6887091627214375
  0.2831869651384125  0.5928363574391255  0.4477781831591656
  0.2235278708024353  0.6676972863026194  0.1911369049750959
  0.0929395383627423  0.8183634355138238  0.9276856271920195
  0.0548584455445109  0.9186281811687707  0.6866966435094000
  0.4446310077294555  0.5836779547387394  0.4400388041947636
  0.3882687812592849  0.6662044894476224  0.1910454178727932
  0.2848560502746338  0.8260652051322239  0.9305107319035599
  0.2217997574596993  0.9170902746224669  0.6951250391785351
  0.1123144462290071  0.5835664284357449  0.9417536246997216
  0.0546732118239390  0.6632927861292686  0.6881633351944316
  0.4461755484215146  0.8361331318105840  0.4392196751972790
  0.3884108810097970  0.9163309980450123  0.1916262553144961
  0.2860861906340588  0.6022408661787964  0.9330677172796982
  0.2213932593168622  0.6661791415727549  0.6892533549124735
  0.1092220244069608  0.8318373268402297  0.4469103290275953
  0.0563049356501608  0.9151770407361539  0.1889103254431390
  0.4412405073514094  0.5791720684010500  0.9419634557085530
  0.3919520992485630  0.6698511348991261  0.6908229734459681
  0.2789718082909829  0.8335898941643052  0.4475498823683211
  0.2222993038151841  0.9169199488342983  0.2205480967406075
  0.6110917932404902  0.5830623162482880  0.4383975137468070
  0.5555424870231107  0.6669733109711444  0.1905740977676373
  0.9457405977607891  0.8361114335859483  0.9391483717185238
  0.8901033010116350  0.9167367239610371  0.6870851509494997
  0.7791464320431345  0.5853684941807984  0.4466863704259296
  0.7230377951430640  0.6663895198627969  0.1905341085281407
  0.5929802652349068  0.8189695781838111  0.9288225117024709
  0.5553537078450717  0.9189688402765910  0.6885138255806353
  0.9445816924214228  0.5825482050910793  0.4383133631001144
  0.8887080356759185  0.6656800027466829  0.1895162454759358
  0.7846713623921957  0.8252373344974231  0.9293902052807042
  0.7218494082022247  0.9163362902069281  0.6946382461673437
  0.6121696457647943  0.5841612955621116  0.9418746445615014
  0.5545866818509495  0.6634276685571336  0.6890849473304996
  0.9446110067625426  0.8327506124182165  0.4373429577065835
  0.8876689111697473  0.9144006663069177  0.1891308379578831
  0.7863470389257827  0.6026691986437882  0.9298140531465648
  0.7208208623235777  0.6650303673983800  0.6879804137557457
  0.6093238125097500  0.8318489165031551  0.4475876867183715
  0.5564192862205886  0.9165062317306862  0.1906874389129953
  0.9412940431942118  0.5784170509598709  0.9404405511619416
  0.8913273255653777  0.6681895345179782  0.6883617471440431
  0.7777390211684434  0.8305204540665727  0.4462164464913840
  0.7221630047125061  0.9161504186453939  0.2204271383704111
 
  0.00000000E+00  0.00000000E+00  0.00000000E+00
  0.00000000E+00  0.00000000E+00  0.00000000E+00
  0.00000000E+00  0.00000000E+00  0.00000000E+00
  0.00000000E+00  0.00000000E+00  0.00000000E+00
  0.00000000E+00  0.00000000E+00  0.00000000E+00
  0.00000000E+00  0.00000000E+00  0.00000000E+00
  0.00000000E+00  0.00000000E+00  0.00000000E+00
  0.00000000E+00  0.00000000E+00  0.00000000E+00
  0.00000000E+00  0.00000000E+00  0.00000000E+00
  0.00000000E+00  0.00000000E+00  0.00000000E+00
  0.00000000E+00  0.00000000E+00  0.00000000E+00
  0.00000000E+00  0.00000000E+00  0.00000000E+00
  0.00000000E+00  0.00000000E+00  0.00000000E+00
  0.00000000E+00  0.00000000E+00  0.00000000E+00
  0.00000000E+00  0.00000000E+00  0.00000000E+00
  0.00000000E+00  0.00000000E+00  0.00000000E+00
  0.00000000E+00  0.00000000E+00  0.00000000E+00
  0.00000000E+00  0.00000000E+00  0.00000000E+00
  0.00000000E+00  0.00000000E+00  0.00000000E+00
  0.00000000E+00  0.00000000E+00  0.00000000E+00
  0.00000000E+00  0.00000000E+00  0.00000000E+00
  0.00000000E+00  0.00000000E+00  0.00000000E+00
  0.00000000E+00  0.00000000E+00  0.00000000E+00
  0.00000000E+00  0.00000000E+00  0.00000000E+00
  0.00000000E+00  0.00000000E+00  0.00000000E+00
  0.00000000E+00  0.00000000E+00  0.00000000E+00
  0.00000000E+00  0.00000000E+00  0.00000000E+00
  0.00000000E+00  0.00000000E+00  0.00000000E+00
  0.00000000E+00  0.00000000E+00  0.00000000E+00
  0.00000000E+00  0.00000000E+00  0.00000000E+00
  0.00000000E+00  0.00000000E+00  0.00000000E+00
  0.00000000E+00  0.00000000E+00  0.00000000E+00
  0.00000000E+00  0.00000000E+00  0.00000000E+00
  0.00000000E+00  0.00000000E+00  0.00000000E+00
  0.00000000E+00  0.00000000E+00  0.00000000E+00
  0.00000000E+00  0.00000000E+00  0.00000000E+00
  0.00000000E+00  0.00000000E+00  0.00000000E+00
  0.00000000E+00  0.00000000E+00  0.00000000E+00
  0.00000000E+00  0.00000000E+00  0.00000000E+00
  0.00000000E+00  0.00000000E+00  0.00000000E+00
  0.00000000E+00  0.00000000E+00  0.00000000E+00
  0.00000000E+00  0.00000000E+00  0.00000000E+00
  0.00000000E+00  0.00000000E+00  0.00000000E+00
  0.00000000E+00  0.00000000E+00  0.00000000E+00
  0.00000000E+00  0.00000000E+00  0.00000000E+00
  0.00000000E+00  0.00000000E+00  0.00000000E+00
  0.00000000E+00  0.00000000E+00  0.00000000E+00
  0.00000000E+00  0.00000000E+00  0.00000000E+00
  0.00000000E+00  0.00000000E+00  0.00000000E+00
  0.00000000E+00  0.00000000E+00  0.00000000E+00
  0.00000000E+00  0.00000000E+00  0.00000000E+00
  0.00000000E+00  0.00000000E+00  0.00000000E+00
  0.00000000E+00  0.00000000E+00  0.00000000E+00
  0.00000000E+00  0.00000000E+00  0.00000000E+00
  0.00000000E+00  0.00000000E+00  0.00000000E+00
  0.00000000E+00  0.00000000E+00  0.00000000E+00
  0.00000000E+00  0.00000000E+00  0.00000000E+00
  0.00000000E+00  0.00000000E+00  0.00000000E+00
  0.00000000E+00  0.00000000E+00  0.00000000E+00
  0.00000000E+00  0.00000000E+00  0.00000000E+00
  0.00000000E+00  0.00000000E+00  0.00000000E+00
  0.00000000E+00  0.00000000E+00  0.00000000E+00
  0.00000000E+00  0.00000000E+00  0.00000000E+00
  0.00000000E+00  0.00000000E+00  0.00000000E+00
  0.00000000E+00  0.00000000E+00  0.00000000E+00
  0.00000000E+00  0.00000000E+00  0.00000000E+00
  0.00000000E+00  0.00000000E+00  0.00000000E+00
  0.00000000E+00  0.00000000E+00  0.00000000E+00
  0.00000000E+00  0.00000000E+00  0.00000000E+00
  0.00000000E+00  0.00000000E+00  0.00000000E+00
  0.00000000E+00  0.00000000E+00  0.00000000E+00
  0.00000000E+00  0.00000000E+00  0.00000000E+00
  0.00000000E+00  0.00000000E+00  0.00000000E+00
  0.00000000E+00  0.00000000E+00  0.00000000E+00
  0.00000000E+00  0.00000000E+00  0.00000000E+00
  0.00000000E+00  0.00000000E+00  0.00000000E+00
  0.00000000E+00  0.00000000E+00  0.00000000E+00
  0.00000000E+00  0.00000000E+00  0.00000000E+00
  0.00000000E+00  0.00000000E+00  0.00000000E+00
  0.00000000E+00  0.00000000E+00  0.00000000E+00
  0.00000000E+00  0.00000000E+00  0.00000000E+00
  0.00000000E+00  0.00000000E+00  0.00000000E+00
  0.00000000E+00  0.00000000E+00  0.00000000E+00
  0.00000000E+00  0.00000000E+00  0.00000000E+00
  0.00000000E+00  0.00000000E+00  0.00000000E+00
  0.00000000E+00  0.00000000E+00  0.00000000E+00
  0.00000000E+00  0.00000000E+00  0.00000000E+00
  0.00000000E+00  0.00000000E+00  0.00000000E+00
  0.00000000E+00  0.00000000E+00  0.00000000E+00
  0.00000000E+00  0.00000000E+00  0.00000000E+00
  0.00000000E+00  0.00000000E+00  0.00000000E+00
  0.00000000E+00  0.00000000E+00  0.00000000E+00
  0.00000000E+00  0.00000000E+00  0.00000000E+00
  0.00000000E+00  0.00000000E+00  0.00000000E+00
  0.00000000E+00  0.00000000E+00  0.00000000E+00
  0.00000000E+00  0.00000000E+00  0.00000000E+00
  0.00000000E+00  0.00000000E+00  0.00000000E+00
  0.00000000E+00  0.00000000E+00  0.00000000E+00
  0.00000000E+00  0.00000000E+00  0.00000000E+00
  0.00000000E+00  0.00000000E+00  0.00000000E+00
  0.00000000E+00  0.00000000E+00  0.00000000E+00
  0.00000000E+00  0.00000000E+00  0.00000000E+00
  0.00000000E+00  0.00000000E+00  0.00000000E+00
  0.00000000E+00  0.00000000E+00  0.00000000E+00
  0.00000000E+00  0.00000000E+00  0.00000000E+00
  0.00000000E+00  0.00000000E+00  0.00000000E+00
  0.00000000E+00  0.00000000E+00  0.00000000E+00
  0.00000000E+00  0.00000000E+00  0.00000000E+00
  0.00000000E+00  0.00000000E+00  0.00000000E+00
  0.00000000E+00  0.00000000E+00  0.00000000E+00
  0.00000000E+00  0.00000000E+00  0.00000000E+00
  0.00000000E+00  0.00000000E+00  0.00000000E+00
  0.00000000E+00  0.00000000E+00  0.00000000E+00
  0.00000000E+00  0.00000000E+00  0.00000000E+00
  0.00000000E+00  0.00000000E+00  0.00000000E+00
  0.00000000E+00  0.00000000E+00  0.00000000E+00
  0.00000000E+00  0.00000000E+00  0.00000000E+00
  0.00000000E+00  0.00000000E+00  0.00000000E+00
  0.00000000E+00  0.00000000E+00  0.00000000E+00
  0.00000000E+00  0.00000000E+00  0.00000000E+00
  0.00000000E+00  0.00000000E+00  0.00000000E+00
  0.00000000E+00  0.00000000E+00  0.00000000E+00
  0.00000000E+00  0.00000000E+00  0.00000000E+00
  0.00000000E+00  0.00000000E+00  0.00000000E+00
  0.00000000E+00  0.00000000E+00  0.00000000E+00
  0.00000000E+00  0.00000000E+00  0.00000000E+00
  0.00000000E+00  0.00000000E+00  0.00000000E+00
  0.00000000E+00  0.00000000E+00  0.00000000E+00
  0.00000000E+00  0.00000000E+00  0.00000000E+00
  0.00000000E+00  0.00000000E+00  0.00000000E+00
  0.00000000E+00  0.00000000E+00  0.00000000E+00
  0.00000000E+00  0.00000000E+00  0.00000000E+00
  0.00000000E+00  0.00000000E+00  0.00000000E+00
  0.00000000E+00  0.00000000E+00  0.00000000E+00
  0.00000000E+00  0.00000000E+00  0.00000000E+00
  0.00000000E+00  0.00000000E+00  0.00000000E+00
  0.00000000E+00  0.00000000E+00  0.00000000E+00
  0.00000000E+00  0.00000000E+00  0.00000000E+00
  0.00000000E+00  0.00000000E+00  0.00000000E+00
  0.00000000E+00  0.00000000E+00  0.00000000E+00
  0.00000000E+00  0.00000000E+00  0.00000000E+00
  0.00000000E+00  0.00000000E+00  0.00000000E+00
  0.00000000E+00  0.00000000E+00  0.00000000E+00
  0.00000000E+00  0.00000000E+00  0.00000000E+00
  0.00000000E+00  0.00000000E+00  0.00000000E+00
  0.00000000E+00  0.00000000E+00  0.00000000E+00
  0.00000000E+00  0.00000000E+00  0.00000000E+00
  0.00000000E+00  0.00000000E+00  0.00000000E+00
  0.00000000E+00  0.00000000E+00  0.00000000E+00
  0.00000000E+00  0.00000000E+00  0.00000000E+00
  0.00000000E+00  0.00000000E+00  0.00000000E+00
  0.00000000E+00  0.00000000E+00  0.00000000E+00
  0.00000000E+00  0.00000000E+00  0.00000000E+00
  0.00000000E+00  0.00000000E+00  0.00000000E+00
  0.00000000E+00  0.00000000E+00  0.00000000E+00
  0.00000000E+00  0.00000000E+00  0.00000000E+00
  0.00000000E+00  0.00000000E+00  0.00000000E+00
  0.00000000E+00  0.00000000E+00  0.00000000E+00
  0.00000000E+00  0.00000000E+00  0.00000000E+00
  0.00000000E+00  0.00000000E+00  0.00000000E+00
  0.00000000E+00  0.00000000E+00  0.00000000E+00
  0.00000000E+00  0.00000000E+00  0.00000000E+00
  0.00000000E+00  0.00000000E+00  0.00000000E+00
  0.00000000E+00  0.00000000E+00  0.00000000E+00
  0.00000000E+00  0.00000000E+00  0.00000000E+00
  0.00000000E+00  0.00000000E+00  0.00000000E+00
  0.00000000E+00  0.00000000E+00  0.00000000E+00
  0.00000000E+00  0.00000000E+00  0.00000000E+00
  0.00000000E+00  0.00000000E+00  0.00000000E+00
  0.00000000E+00  0.00000000E+00  0.00000000E+00
  0.00000000E+00  0.00000000E+00  0.00000000E+00
  0.00000000E+00  0.00000000E+00  0.00000000E+00
  0.00000000E+00  0.00000000E+00  0.00000000E+00
  0.00000000E+00  0.00000000E+00  0.00000000E+00
  0.00000000E+00  0.00000000E+00  0.00000000E+00
  0.00000000E+00  0.00000000E+00  0.00000000E+00
  0.00000000E+00  0.00000000E+00  0.00000000E+00
  0.00000000E+00  0.00000000E+00  0.00000000E+00
  0.00000000E+00  0.00000000E+00  0.00000000E+00
  0.00000000E+00  0.00000000E+00  0.00000000E+00
  0.00000000E+00  0.00000000E+00  0.00000000E+00
  0.00000000E+00  0.00000000E+00  0.00000000E+00
  0.00000000E+00  0.00000000E+00  0.00000000E+00
  0.00000000E+00  0.00000000E+00  0.00000000E+00
  0.00000000E+00  0.00000000E+00  0.00000000E+00
  0.00000000E+00  0.00000000E+00  0.00000000E+00
  0.00000000E+00  0.00000000E+00  0.00000000E+00
  0.00000000E+00  0.00000000E+00  0.00000000E+00
  0.00000000E+00  0.00000000E+00  0.00000000E+00
  0.00000000E+00  0.00000000E+00  0.00000000E+00
  0.00000000E+00  0.00000000E+00  0.00000000E+00
