supercell of icsd_191774.cif            
   1.00000000000000     
    10.6148699078238682   -0.0015087504455844   -0.0013314049413717
    -5.3087410396218315    9.1944149646739515    0.0019664253532932
    -0.0014305449015246    0.0016123974893598   11.2611429913025383
   N    In   Sc
    36    30     6
Direct
  0.2219068956482673  0.1099802411713497  0.4415221162013125
  0.1113449598691645  0.2221985841905152  0.1897849424147182
  0.8886499790870275  0.1102929648003226  0.9413898782550660
  0.7782347552748234  0.2222448346532531  0.6913458090856963
  0.5548241479939691  0.1110038998796412  0.4409307163236704
  0.4447301833357642  0.2237220804440057  0.1900688523429324
  0.2222155834517920  0.1113542728106935  0.9336534485532226
  0.1136237295378635  0.2204437692393029  0.6932063286959149
  0.8885809912297589  0.1095020538237890  0.4414072118345231
  0.7784898553645405  0.2230040732871288  0.1911554341205743
  0.5550989597191389  0.1110887013280859  0.9411961624407681
  0.4405780755078794  0.2204675827944342  0.6930706000902731
  0.2268200969328404  0.4457074143261437  0.4419209356789793
  0.1108677716327620  0.5551756101816565  0.1909340347524164
  0.8885164880471237  0.4452780534182281  0.9399893291936863
  0.7811237768468189  0.5613962603449778  0.6847904106208844
  0.5572243535702128  0.4480809402454184  0.4445667648050033
  0.4451208912557973  0.5555774836709446  0.1845472381275002
  0.2274610459958666  0.4472592862782250  0.9421436012704376
  0.1118320711020431  0.5558159249032855  0.6907366593375244
  0.8858861998877643  0.4455619595489182  0.4430843769872368
  0.7805156844563754  0.5616507853929917  0.1933842213700245
  0.5538104314684773  0.4476255673407081  0.9406207008176679
  0.4447859669865295  0.5558230783308176  0.6842819234537529
  0.2213329005967211  0.7774136407527763  0.4406302118214711
  0.1060506080094754  0.8868976885396265  0.1906874811853783
  0.8879887261414581  0.7770706802749814  0.9334822977297250
  0.7800966362840924  0.8864826138646436  0.6923693304025775
  0.5529982925611847  0.7725520558374583  0.4422905800540775
  0.4445148882626810  0.8884904666348490  0.1911321222597380
  0.2219621740194953  0.7779865114182414  0.9407652847396903
  0.1087082227304990  0.8911007203956487  0.6940502823751658
  0.8862022121616064  0.7720259894776831  0.4370640783841893
  0.7801108736189803  0.8861516565317942  0.1925990061998348
  0.5532473044609247  0.7728852373136164  0.9423441561259551
  0.4444478352802648  0.8884292384553163  0.6909586281294224
  0.2219578233101984  0.1102933287495844  0.2495283863709261
  0.1114379139859238  0.2228082680851955  0.5004127261458606
  0.8892257803385775  0.1105478630873549  0.7496176603224640
  0.7779360732091547  0.2226910287550936  0.9994843633264807
  0.5553829503603822  0.1115408144825949  0.2493559206077052
  0.4452271958106735  0.2237711136141698  0.5005430528817456
  0.1122801691216679  0.2228019662013097  0.9980875151670219
  0.8887957773159201  0.1103230527808421  0.2492588635089774
  0.7778050643177110  0.2219822736693899  0.4996543315064486
  0.5552379920839172  0.1114187638908035  0.7495666518295891
  0.4440092488384266  0.2234475168002348  0.9978134009981829
  0.2233523059505060  0.4445886268322639  0.2492249232958841
  0.1108149272011971  0.5541721285961216  0.4989330677513450
  0.8881062560097419  0.4461953482548964  0.7478956770799741
  0.7771434325284758  0.5562280476485739  0.9997140690434989
  0.5559320322286467  0.4455966188759604  0.2509186526722331
  0.2231122294046841  0.4446321829004987  0.7494473558822676
  0.1112379305740561  0.5550223233599354  0.9990636913985540
  0.8885604674652541  0.4451019539812862  0.2506945777176739
  0.5578104642813813  0.4460105030187691  0.7472687559486033
  0.2213393501182708  0.7784801160881329  0.2488188892532790
  0.1088225499799123  0.8870678762872259  0.5008195402078570
  0.7771544082157646  0.8874340414164266  0.9994530985659154
  0.5559328785518431  0.7771258048716874  0.2493667354384783
  0.4444671783563265  0.8882136636849509  0.4992112707905960
  0.2212047117688343  0.7788798463227522  0.7490149933109365
  0.1102409287921873  0.8896237655904429  0.9975866930420381
  0.7772067069351110  0.8863521514639814  0.4994406808316185
  0.5559680564378269  0.7773794971972663  0.7494543055780127
  0.4447914392338177  0.8883791785539330  0.9993003400900946
  0.2220181900165556  0.1111390422982410  0.7475156521046458
  0.4446761077680890  0.5554655148336778  0.4984261440874462
  0.7777688495867849  0.5558297893510158  0.4969107129282264
  0.4447765726053348  0.5555037971630341  0.9979863609622512
  0.8887117422620676  0.7774271455333732  0.7469151892519292
  0.8896507267048293  0.7787831238575720  0.2489905939202970
 
  0.00000000E+00  0.00000000E+00  0.00000000E+00
  0.00000000E+00  0.00000000E+00  0.00000000E+00
  0.00000000E+00  0.00000000E+00  0.00000000E+00
  0.00000000E+00  0.00000000E+00  0.00000000E+00
  0.00000000E+00  0.00000000E+00  0.00000000E+00
  0.00000000E+00  0.00000000E+00  0.00000000E+00
  0.00000000E+00  0.00000000E+00  0.00000000E+00
  0.00000000E+00  0.00000000E+00  0.00000000E+00
  0.00000000E+00  0.00000000E+00  0.00000000E+00
  0.00000000E+00  0.00000000E+00  0.00000000E+00
  0.00000000E+00  0.00000000E+00  0.00000000E+00
  0.00000000E+00  0.00000000E+00  0.00000000E+00
  0.00000000E+00  0.00000000E+00  0.00000000E+00
  0.00000000E+00  0.00000000E+00  0.00000000E+00
  0.00000000E+00  0.00000000E+00  0.00000000E+00
  0.00000000E+00  0.00000000E+00  0.00000000E+00
  0.00000000E+00  0.00000000E+00  0.00000000E+00
  0.00000000E+00  0.00000000E+00  0.00000000E+00
  0.00000000E+00  0.00000000E+00  0.00000000E+00
  0.00000000E+00  0.00000000E+00  0.00000000E+00
  0.00000000E+00  0.00000000E+00  0.00000000E+00
  0.00000000E+00  0.00000000E+00  0.00000000E+00
  0.00000000E+00  0.00000000E+00  0.00000000E+00
  0.00000000E+00  0.00000000E+00  0.00000000E+00
  0.00000000E+00  0.00000000E+00  0.00000000E+00
  0.00000000E+00  0.00000000E+00  0.00000000E+00
  0.00000000E+00  0.00000000E+00  0.00000000E+00
  0.00000000E+00  0.00000000E+00  0.00000000E+00
  0.00000000E+00  0.00000000E+00  0.00000000E+00
  0.00000000E+00  0.00000000E+00  0.00000000E+00
  0.00000000E+00  0.00000000E+00  0.00000000E+00
  0.00000000E+00  0.00000000E+00  0.00000000E+00
  0.00000000E+00  0.00000000E+00  0.00000000E+00
  0.00000000E+00  0.00000000E+00  0.00000000E+00
  0.00000000E+00  0.00000000E+00  0.00000000E+00
  0.00000000E+00  0.00000000E+00  0.00000000E+00
  0.00000000E+00  0.00000000E+00  0.00000000E+00
  0.00000000E+00  0.00000000E+00  0.00000000E+00
  0.00000000E+00  0.00000000E+00  0.00000000E+00
  0.00000000E+00  0.00000000E+00  0.00000000E+00
  0.00000000E+00  0.00000000E+00  0.00000000E+00
  0.00000000E+00  0.00000000E+00  0.00000000E+00
  0.00000000E+00  0.00000000E+00  0.00000000E+00
  0.00000000E+00  0.00000000E+00  0.00000000E+00
  0.00000000E+00  0.00000000E+00  0.00000000E+00
  0.00000000E+00  0.00000000E+00  0.00000000E+00
  0.00000000E+00  0.00000000E+00  0.00000000E+00
  0.00000000E+00  0.00000000E+00  0.00000000E+00
  0.00000000E+00  0.00000000E+00  0.00000000E+00
  0.00000000E+00  0.00000000E+00  0.00000000E+00
  0.00000000E+00  0.00000000E+00  0.00000000E+00
  0.00000000E+00  0.00000000E+00  0.00000000E+00
  0.00000000E+00  0.00000000E+00  0.00000000E+00
  0.00000000E+00  0.00000000E+00  0.00000000E+00
  0.00000000E+00  0.00000000E+00  0.00000000E+00
  0.00000000E+00  0.00000000E+00  0.00000000E+00
  0.00000000E+00  0.00000000E+00  0.00000000E+00
  0.00000000E+00  0.00000000E+00  0.00000000E+00
  0.00000000E+00  0.00000000E+00  0.00000000E+00
  0.00000000E+00  0.00000000E+00  0.00000000E+00
  0.00000000E+00  0.00000000E+00  0.00000000E+00
  0.00000000E+00  0.00000000E+00  0.00000000E+00
  0.00000000E+00  0.00000000E+00  0.00000000E+00
  0.00000000E+00  0.00000000E+00  0.00000000E+00
  0.00000000E+00  0.00000000E+00  0.00000000E+00
  0.00000000E+00  0.00000000E+00  0.00000000E+00
  0.00000000E+00  0.00000000E+00  0.00000000E+00
  0.00000000E+00  0.00000000E+00  0.00000000E+00
  0.00000000E+00  0.00000000E+00  0.00000000E+00
  0.00000000E+00  0.00000000E+00  0.00000000E+00
  0.00000000E+00  0.00000000E+00  0.00000000E+00
  0.00000000E+00  0.00000000E+00  0.00000000E+00
