supercell of 100% icsd_608626.cif, 0% i 
   1.00000000000000     
    -9.7063542562304068    0.0064022953674041   -0.0259176951223628
    -4.8588436394587236    8.3933700120981101   -0.0341980324455325
    -0.0274002987022050    0.0260564398219797  -10.2862322674131850
   Al   Ge   Sr   N 
    28     4     4    36
Direct
  0.0997666919802143  0.0877986722342854  0.2980431902914091
  0.2151165682161391  0.2092501334909826  0.0476750762145528
  0.7777529379896251  0.0927997423024109  0.7978261557555655
  0.8861745875462717  0.2035401688174119  0.5472139924227193
  0.4429132322900742  0.0941847544347283  0.2779270259305306
  0.5544212182829398  0.2090483781951562  0.0480669640336160
  0.1028522824970608  0.0993513055717656  0.7989280845044178
  0.7749722348518091  0.0907896972842437  0.3012224464142292
  0.8886237912604074  0.2019827616995045  0.0356246907406259
  0.4428888878862480  0.1056185612834355  0.8098484734252764
  0.5511918874577120  0.2129958607805094  0.5443844282089998
  0.1127612240153937  0.4307641058848048  0.2994882060958162
  0.2218325268433432  0.5403103973206811  0.0542384011125066
  0.7849552871992600  0.4210630739520411  0.8106366832241392
  0.4478837167303169  0.4055809191289228  0.2985023388195529
  0.5554238307033117  0.5358930072688750  0.0276486972080434
  0.1121305035095901  0.4263138344527135  0.8030172460154787
  0.8932345249248854  0.5382498956631352  0.0346455471721470
  0.5543944662863893  0.5306942485932638  0.5500359644417756
  0.0957695978044839  0.7694130800524519  0.2967488518960266
  0.2170493566257008  0.8763814877989518  0.0392985007116238
  0.7884000443452024  0.7681484191984893  0.8083120324454285
  0.8941409662286617  0.8724164550156672  0.5463439408438475
  0.5628510644259777  0.8761924861934176  0.0621657264757829
  0.1055685687360182  0.7680561332411315  0.8005186885754796
  0.2175526283539995  0.8701397190515152  0.5384133329235965
  0.7895207398708308  0.7649445480161461  0.2808311951379778
  0.8934185483738233  0.8732131291940277  0.0442882437005139
  0.2225737625893487  0.2055256654178024  0.5487620971318634
  0.8927525197170567  0.5467841543946932  0.5544489244356399
  0.2233951612595959  0.5446088338226787  0.5445130968578411
  0.4411656392742742  0.4236600945923854  0.8003161591242858
  0.7875816668999036  0.4269055238665302  0.2867884006729540
  0.4385703003236046  0.7306833031931177  0.2919030840451953
  0.4482969773427641  0.7774075234255022  0.7972132056547778
  0.5662705336886020  0.8828422795703474  0.5209192185701710
  0.2183735343590598  0.2042231385178113  0.3591775585763415
  0.1061208782059495  0.0984682430939898  0.1086030996430409
  0.8878583011664887  0.2009241157903929  0.8478760082459260
  0.7712302367050583  0.0950045422865387  0.6090695394944703
  0.5491883550610908  0.1891323306422663  0.3587210863458026
  0.4308885785080321  0.1145690738059599  0.0964145777927641
  0.2151367718254278  0.2087802250083755  0.8593918466094834
  0.1133545607493787  0.0974932027112914  0.6086898695288312
  0.8975412217238272  0.1727739231620120  0.3696308781649478
  0.7757674943697026  0.0955746463243088  0.1068263655599964
  0.5533856635335610  0.2127876365378469  0.8594779655379412
  0.4194921950531025  0.1380940827120014  0.6235482415345501
  0.2240354743528599  0.5370315312207978  0.3584599669782591
  0.1090331986264630  0.4289355677899707  0.1110051350156667
  0.8954228888359168  0.5401948659709319  0.8501751806797486
  0.7865142281985342  0.4296340272395867  0.6100872947256235
  0.5599061184513019  0.4721129713692633  0.3855585328115012
  0.4435616479944002  0.4297005753058869  0.1088655158857037
  0.2219573482623218  0.5389833488039599  0.8604944132252257
  0.1148890694422278  0.4277998999136372  0.6096891016635695
  0.9108263233152059  0.5644508681993230  0.3751107372206448
  0.7792485917765006  0.4275766460385881  0.0543023640031635
  0.5669725598738538  0.5020199761094943  0.8471840902090335
  0.4341257972100294  0.4281247234858583  0.6153397141455983
  0.1792999758902809  0.8862957431713099  0.3624719195403827
  0.1128115547140141  0.7598186524676152  0.1095616765833043
  0.8947771885367288  0.8761329111730660  0.8587376702814069
  0.8185620802438578  0.7454086875378465  0.6254956002170076
  0.5714059508391713  0.8783126107861747  0.2843038531754587
  0.4446596495835564  0.7597732682056701  0.0551169997347642
  0.1793064449928750  0.8958348462772250  0.8610589577539329
  0.1124356959128576  0.7576131091445646  0.6091228239037889
  0.8819778837416976  0.8736216261313814  0.3593179233846371
  0.8001733371053490  0.7489859610584659  0.0964197493184002
  0.5855154774283946  0.9045262306843540  0.8727630536429274
  0.4300752470801115  0.7457338369185678  0.5651723776317183
 
  0.00000000E+00  0.00000000E+00  0.00000000E+00
  0.00000000E+00  0.00000000E+00  0.00000000E+00
  0.00000000E+00  0.00000000E+00  0.00000000E+00
  0.00000000E+00  0.00000000E+00  0.00000000E+00
  0.00000000E+00  0.00000000E+00  0.00000000E+00
  0.00000000E+00  0.00000000E+00  0.00000000E+00
  0.00000000E+00  0.00000000E+00  0.00000000E+00
  0.00000000E+00  0.00000000E+00  0.00000000E+00
  0.00000000E+00  0.00000000E+00  0.00000000E+00
  0.00000000E+00  0.00000000E+00  0.00000000E+00
  0.00000000E+00  0.00000000E+00  0.00000000E+00
  0.00000000E+00  0.00000000E+00  0.00000000E+00
  0.00000000E+00  0.00000000E+00  0.00000000E+00
  0.00000000E+00  0.00000000E+00  0.00000000E+00
  0.00000000E+00  0.00000000E+00  0.00000000E+00
  0.00000000E+00  0.00000000E+00  0.00000000E+00
  0.00000000E+00  0.00000000E+00  0.00000000E+00
  0.00000000E+00  0.00000000E+00  0.00000000E+00
  0.00000000E+00  0.00000000E+00  0.00000000E+00
  0.00000000E+00  0.00000000E+00  0.00000000E+00
  0.00000000E+00  0.00000000E+00  0.00000000E+00
  0.00000000E+00  0.00000000E+00  0.00000000E+00
  0.00000000E+00  0.00000000E+00  0.00000000E+00
  0.00000000E+00  0.00000000E+00  0.00000000E+00
  0.00000000E+00  0.00000000E+00  0.00000000E+00
  0.00000000E+00  0.00000000E+00  0.00000000E+00
  0.00000000E+00  0.00000000E+00  0.00000000E+00
  0.00000000E+00  0.00000000E+00  0.00000000E+00
  0.00000000E+00  0.00000000E+00  0.00000000E+00
  0.00000000E+00  0.00000000E+00  0.00000000E+00
  0.00000000E+00  0.00000000E+00  0.00000000E+00
  0.00000000E+00  0.00000000E+00  0.00000000E+00
  0.00000000E+00  0.00000000E+00  0.00000000E+00
  0.00000000E+00  0.00000000E+00  0.00000000E+00
  0.00000000E+00  0.00000000E+00  0.00000000E+00
  0.00000000E+00  0.00000000E+00  0.00000000E+00
  0.00000000E+00  0.00000000E+00  0.00000000E+00
  0.00000000E+00  0.00000000E+00  0.00000000E+00
  0.00000000E+00  0.00000000E+00  0.00000000E+00
  0.00000000E+00  0.00000000E+00  0.00000000E+00
  0.00000000E+00  0.00000000E+00  0.00000000E+00
  0.00000000E+00  0.00000000E+00  0.00000000E+00
  0.00000000E+00  0.00000000E+00  0.00000000E+00
  0.00000000E+00  0.00000000E+00  0.00000000E+00
  0.00000000E+00  0.00000000E+00  0.00000000E+00
  0.00000000E+00  0.00000000E+00  0.00000000E+00
  0.00000000E+00  0.00000000E+00  0.00000000E+00
  0.00000000E+00  0.00000000E+00  0.00000000E+00
  0.00000000E+00  0.00000000E+00  0.00000000E+00
  0.00000000E+00  0.00000000E+00  0.00000000E+00
  0.00000000E+00  0.00000000E+00  0.00000000E+00
  0.00000000E+00  0.00000000E+00  0.00000000E+00
  0.00000000E+00  0.00000000E+00  0.00000000E+00
  0.00000000E+00  0.00000000E+00  0.00000000E+00
  0.00000000E+00  0.00000000E+00  0.00000000E+00
  0.00000000E+00  0.00000000E+00  0.00000000E+00
  0.00000000E+00  0.00000000E+00  0.00000000E+00
  0.00000000E+00  0.00000000E+00  0.00000000E+00
  0.00000000E+00  0.00000000E+00  0.00000000E+00
  0.00000000E+00  0.00000000E+00  0.00000000E+00
  0.00000000E+00  0.00000000E+00  0.00000000E+00
  0.00000000E+00  0.00000000E+00  0.00000000E+00
  0.00000000E+00  0.00000000E+00  0.00000000E+00
  0.00000000E+00  0.00000000E+00  0.00000000E+00
  0.00000000E+00  0.00000000E+00  0.00000000E+00
  0.00000000E+00  0.00000000E+00  0.00000000E+00
  0.00000000E+00  0.00000000E+00  0.00000000E+00
  0.00000000E+00  0.00000000E+00  0.00000000E+00
  0.00000000E+00  0.00000000E+00  0.00000000E+00
  0.00000000E+00  0.00000000E+00  0.00000000E+00
  0.00000000E+00  0.00000000E+00  0.00000000E+00
  0.00000000E+00  0.00000000E+00  0.00000000E+00
