supercell of 100% icsd_608626.cif, 0% i 
   1.00000000000000     
    -9.6859372726042743   -0.0059191937690100   -0.0162302309731361
    -4.8378527242881493    8.3419073677539508   -0.0162283243853753
    -0.0173671171804967    0.0100812715289001  -10.4048597060921360
   Al   Ge   Sr   N 
    28     4     4    36
Direct
  0.1176040940130960  0.0928595289784724  0.3069742773243931
  0.7694828249167216  0.0957609235455976  0.8103244430912540
  0.4487161861298787  0.0920774915419145  0.2919572788944507
  0.2252837325416905  0.2117119938006695  0.5328972343345626
  0.7677844109784218  0.0930397794308249  0.2961837477609492
  0.8855287750017737  0.2055573816686476  0.0561333459129827
  0.4440568192159589  0.0992146211675404  0.8042828978551100
  0.5467092722634206  0.2129106219971391  0.5493527835065706
  0.1185141597915091  0.4253900972781892  0.2936252936043786
  0.2243506524619647  0.5388786441708078  0.0465464991149673
  0.4457606546307602  0.4239750112876379  0.2970733472450746
  0.5532264835785412  0.5398931879376292  0.0476843546649945
  0.1228850791804490  0.4298868685544264  0.8094687473919251
  0.2267557215276881  0.5358456574564201  0.5353345803175884
  0.7711272875710478  0.4335908128689709  0.2956926237529416
  0.8935232826899551  0.5411923543719368  0.0503869800076515
  0.4414308123552644  0.4297162304623328  0.8002771384275817
  0.5395328937523587  0.5427127690522227  0.5379065812552994
  0.1105180401273103  0.7580869539470996  0.3001665709101715
  0.2272507868873532  0.8700787766115567  0.0577683837298366
  0.7856086239210569  0.7599271952266164  0.8085590123657127
  0.8949737978335293  0.8663192264318766  0.5325473882806477
  0.4485822881633013  0.7598384996383345  0.2849870726024477
  0.5593434872188112  0.8627933658216520  0.0417399582856106
  0.2249290924962040  0.8601240807394603  0.5203224830003848
  0.7725980061612390  0.7664003716109491  0.2854397821159580
  0.8835689695427078  0.8731652151220430  0.0486184447331510
  0.4361168188722431  0.7568754364765908  0.8086199950776205
  0.2205247363937772  0.2086873318910847  0.0502645729851636
  0.8856184773177631  0.2036342705292213  0.5225446670864571
  0.5565283436923636  0.2087012892035389  0.0430488509610427
  0.9015923764243965  0.5377787830333460  0.5373876763424477
  0.1113112201657742  0.0995014325405705  0.7778675105850112
  0.7780583802237899  0.4339088088066561  0.7923807501289772
  0.1074194429723150  0.7677560665684027  0.7876980687358142
  0.5560094602350816  0.8684553758282547  0.5579397039700211
  0.2306874043925120  0.2074443144755875  0.3488188431816184
  0.1122906728403308  0.1009025181003409  0.1175470629117967
  0.8721539815838071  0.1858879902249342  0.8850347117725690
  0.7792590108640809  0.0949553284020439  0.6032530812299441
  0.5531476348864643  0.2042739378334772  0.3606674002910211
  0.4469540303842052  0.0957673747942067  0.1028693099539169
  0.2391818876061436  0.2200068890322626  0.8764218656082576
  0.1094201845681013  0.0939467720597236  0.5409404236906852
  0.8808671813780649  0.2042175114561147  0.3403345467813352
  0.7666537258112669  0.0964201762128667  0.1150715043175623
  0.5522049652090715  0.2091060424404958  0.8597193699190981
  0.4177281376257653  0.1378155402564403  0.6233833558026234
  0.2278089333644218  0.5303201162365028  0.3497454957446351
  0.1145669681094930  0.4257234434035269  0.1126640246171249
  0.9182671407490588  0.5545068276314566  0.8745586497391997
  0.7777108471051974  0.4295506163118361  0.5584679598050073
  0.5493053431993999  0.5411943895431364  0.3512042442780796
  0.4479798379823663  0.4213976692265007  0.1118896171626673
  0.2439373059658649  0.5093476172315974  0.8702272589428617
  0.1122049450131897  0.4229876486387312  0.6039569423582662
  0.8940488951323502  0.5415676856667844  0.3509336063385575
  0.7779851802090931  0.4315891584188165  0.1086685758171768
  0.5240546597408766  0.5482396209062159  0.8714989594009239
  0.4443252866369463  0.4273080144449466  0.6058142062077323
  0.2304707828082257  0.8658216039949309  0.3369164113791072
  0.1070086525217135  0.7604257215119574  0.1095672470525386
  0.8446187664508429  0.8960901316257335  0.8741088556551304
  0.8277541182010637  0.7350854469113557  0.6207113086344265
  0.5550453060814320  0.8725759277716918  0.3271116774948197
  0.4515593318233897  0.7555196999718632  0.1064781853636134
  0.2483046584353588  0.8726299269597106  0.8879846269124414
  0.1112335587415387  0.7582739985644125  0.5514539909537319
  0.8799273614025509  0.8746463984016515  0.3485415235406322
  0.7777583413379503  0.7593405017875980  0.1050541698882768
  0.5583008685645297  0.8662015349977779  0.8480305072709342
  0.4124486020238152  0.7426654489541846  0.6203474336224772
 
  0.00000000E+00  0.00000000E+00  0.00000000E+00
  0.00000000E+00  0.00000000E+00  0.00000000E+00
  0.00000000E+00  0.00000000E+00  0.00000000E+00
  0.00000000E+00  0.00000000E+00  0.00000000E+00
  0.00000000E+00  0.00000000E+00  0.00000000E+00
  0.00000000E+00  0.00000000E+00  0.00000000E+00
  0.00000000E+00  0.00000000E+00  0.00000000E+00
  0.00000000E+00  0.00000000E+00  0.00000000E+00
  0.00000000E+00  0.00000000E+00  0.00000000E+00
  0.00000000E+00  0.00000000E+00  0.00000000E+00
  0.00000000E+00  0.00000000E+00  0.00000000E+00
  0.00000000E+00  0.00000000E+00  0.00000000E+00
  0.00000000E+00  0.00000000E+00  0.00000000E+00
  0.00000000E+00  0.00000000E+00  0.00000000E+00
  0.00000000E+00  0.00000000E+00  0.00000000E+00
  0.00000000E+00  0.00000000E+00  0.00000000E+00
  0.00000000E+00  0.00000000E+00  0.00000000E+00
  0.00000000E+00  0.00000000E+00  0.00000000E+00
  0.00000000E+00  0.00000000E+00  0.00000000E+00
  0.00000000E+00  0.00000000E+00  0.00000000E+00
  0.00000000E+00  0.00000000E+00  0.00000000E+00
  0.00000000E+00  0.00000000E+00  0.00000000E+00
  0.00000000E+00  0.00000000E+00  0.00000000E+00
  0.00000000E+00  0.00000000E+00  0.00000000E+00
  0.00000000E+00  0.00000000E+00  0.00000000E+00
  0.00000000E+00  0.00000000E+00  0.00000000E+00
  0.00000000E+00  0.00000000E+00  0.00000000E+00
  0.00000000E+00  0.00000000E+00  0.00000000E+00
  0.00000000E+00  0.00000000E+00  0.00000000E+00
  0.00000000E+00  0.00000000E+00  0.00000000E+00
  0.00000000E+00  0.00000000E+00  0.00000000E+00
  0.00000000E+00  0.00000000E+00  0.00000000E+00
  0.00000000E+00  0.00000000E+00  0.00000000E+00
  0.00000000E+00  0.00000000E+00  0.00000000E+00
  0.00000000E+00  0.00000000E+00  0.00000000E+00
  0.00000000E+00  0.00000000E+00  0.00000000E+00
  0.00000000E+00  0.00000000E+00  0.00000000E+00
  0.00000000E+00  0.00000000E+00  0.00000000E+00
  0.00000000E+00  0.00000000E+00  0.00000000E+00
  0.00000000E+00  0.00000000E+00  0.00000000E+00
  0.00000000E+00  0.00000000E+00  0.00000000E+00
  0.00000000E+00  0.00000000E+00  0.00000000E+00
  0.00000000E+00  0.00000000E+00  0.00000000E+00
  0.00000000E+00  0.00000000E+00  0.00000000E+00
  0.00000000E+00  0.00000000E+00  0.00000000E+00
  0.00000000E+00  0.00000000E+00  0.00000000E+00
  0.00000000E+00  0.00000000E+00  0.00000000E+00
  0.00000000E+00  0.00000000E+00  0.00000000E+00
  0.00000000E+00  0.00000000E+00  0.00000000E+00
  0.00000000E+00  0.00000000E+00  0.00000000E+00
  0.00000000E+00  0.00000000E+00  0.00000000E+00
  0.00000000E+00  0.00000000E+00  0.00000000E+00
  0.00000000E+00  0.00000000E+00  0.00000000E+00
  0.00000000E+00  0.00000000E+00  0.00000000E+00
  0.00000000E+00  0.00000000E+00  0.00000000E+00
  0.00000000E+00  0.00000000E+00  0.00000000E+00
  0.00000000E+00  0.00000000E+00  0.00000000E+00
  0.00000000E+00  0.00000000E+00  0.00000000E+00
  0.00000000E+00  0.00000000E+00  0.00000000E+00
  0.00000000E+00  0.00000000E+00  0.00000000E+00
  0.00000000E+00  0.00000000E+00  0.00000000E+00
  0.00000000E+00  0.00000000E+00  0.00000000E+00
  0.00000000E+00  0.00000000E+00  0.00000000E+00
  0.00000000E+00  0.00000000E+00  0.00000000E+00
  0.00000000E+00  0.00000000E+00  0.00000000E+00
  0.00000000E+00  0.00000000E+00  0.00000000E+00
  0.00000000E+00  0.00000000E+00  0.00000000E+00
  0.00000000E+00  0.00000000E+00  0.00000000E+00
  0.00000000E+00  0.00000000E+00  0.00000000E+00
  0.00000000E+00  0.00000000E+00  0.00000000E+00
  0.00000000E+00  0.00000000E+00  0.00000000E+00
  0.00000000E+00  0.00000000E+00  0.00000000E+00
