supercell of 100% icsd_608626.cif, 0% i 
   1.00000000000000     
    -9.6519947472792804    0.0258353758848938   -0.0206195856655195
    -4.8483388050234337    8.4102130659699146   -0.0216906285206181
    -0.0218958260470664    0.0139332411803657  -10.3835147477501071
   Al   Sr   Ge   N 
    28     4     4    36
Direct
  0.1061885816959389  0.0978860351870026  0.2881815160897361
  0.2182430584222033  0.2086833298220228  0.0498057377673078
  0.7757577991982743  0.1082697135410413  0.8100894324948982
  0.8897445137306477  0.2128597577283031  0.5491259846482208
  0.4385089223824039  0.1007146355407542  0.2967052593586885
  0.5558234141104492  0.2129151365933240  0.0490907477362583
  0.1059869094393946  0.1096296445059721  0.8035693540653952
  0.2179553349091208  0.2102021247762522  0.5372066422576225
  0.7764881043444447  0.1047288059929272  0.2946313062386210
  0.8890664276250320  0.2097346191950678  0.0430857620345435
  0.5536812681882139  0.2063040700809893  0.5349030747251291
  0.1085516370564790  0.4219098004755892  0.2898662253428057
  0.2278378863580741  0.5232445442002884  0.0471061195216294
  0.7797851225733154  0.4240377518277612  0.8021518409125150
  0.8917285227937199  0.5271482221411716  0.5297968367916539
  0.4456562262645249  0.4280808240089513  0.2941418156672739
  0.5564493770583354  0.5360326998804368  0.0421210902160993
  0.1122600994880543  0.4137285126935950  0.8102899742670928
  0.7780337746733608  0.4238517226115377  0.2925000909538582
  0.8891526576129465  0.5357730689327056  0.0479809896837367
  0.4476879901840576  0.4256111001809728  0.8045541531061602
  0.5633330396892262  0.5430977918741533  0.5544841614097251
  0.1121323877582441  0.7603898910655644  0.2807847487450346
  0.2252822014883265  0.8833289905745616  0.0418892668783570
  0.5601993468199282  0.8692784375942963  0.0609496186489977
  0.7795306487439433  0.7542149472455435  0.3124377128207882
  0.4583215534393545  0.7568154760318322  0.8106339789897774
  0.5535370777661655  0.8737206456487385  0.5233674728178102
  0.4529797889068803  0.0848188103743652  0.7982431404290153
  0.7798009206446892  0.7523881441019142  0.7659031166991923
  0.1094150820301394  0.7577402260287869  0.8111298032991670
  0.2306411657944381  0.8740650131846124  0.5570658004241764
  0.2156794197141352  0.5329768286928172  0.5369448684555707
  0.8856440788823932  0.8744398143859797  0.5209133544510323
  0.4384082250958130  0.7577571560713849  0.2864667473800964
  0.8759872703706293  0.8821948688361090  0.0544176174104294
  0.2152609798979768  0.2062003167746411  0.3495505101287719
  0.1057688727610326  0.0990522662026692  0.1064220764484389
  0.8887678988620920  0.2077122262983266  0.8582130359587978
  0.7798440336310080  0.0886486382688929  0.6030689500311794
  0.5573285619232351  0.2107141168724169  0.3507174528666894
  0.4451013348798654  0.0992528750094124  0.1089574121571957
  0.1953245211454586  0.2158993274144336  0.8751560733175410
  0.0917622287299693  0.1396239448097703  0.6189827201006892
  0.8880041628950366  0.2069799966786832  0.3594735888861038
  0.7780104743171279  0.1018070424639888  0.1142041534134322
  0.5749129413468026  0.2296316429490091  0.8719209721377297
  0.4446857661456036  0.0936676456412542  0.5595512947658676
  0.2208577299801604  0.5355297702810660  0.3493711475527022
  0.1095515634094113  0.4280652046772531  0.1109524064181286
  0.9016850472770486  0.5083458386163642  0.8691260914910686
  0.7785242144722559  0.4277131698830416  0.6070694942557253
  0.5517572096679970  0.5431186634841652  0.3604538789911089
  0.4439487829864532  0.4324673893421718  0.1124159796540951
  0.2444206449931556  0.4895797316454917  0.8692633999372887
  0.1106746768349325  0.4269690222760190  0.6016191078066271
  0.8922058692331447  0.5249174959661289  0.3472068324115938
  0.7734470718447994  0.4277333583371501  0.1081843223651759
  0.5532579935555191  0.5370507491856600  0.8565022723939251
  0.4381913009722993  0.4336866142485576  0.6032098848267751
  0.2189686931417327  0.8714881565288053  0.3244682819626590
  0.1103849081942556  0.7588955295474165  0.0937559639228311
  0.8502300422831368  0.9135746708779280  0.8843376728104033
  0.7781658137388945  0.7607452462350892  0.5251550303038499
  0.5417385309964757  0.8707869235566719  0.3383310888523070
  0.4452734383167041  0.7535220425056863  0.1081447192174920
  0.2411315871955537  0.8953976920330859  0.8590133046544111
  0.0850069063495624  0.7414056099102240  0.5833612400384069
  0.8909036224987830  0.8819101682467618  0.3385665725997669
  0.7843739630238815  0.7585008547284531  0.1225129551192339
  0.5645421855820629  0.8354590367321464  0.8939492044619612
  0.5005065916633100  0.7453738601438573  0.6242755450015736
 
  0.00000000E+00  0.00000000E+00  0.00000000E+00
  0.00000000E+00  0.00000000E+00  0.00000000E+00
  0.00000000E+00  0.00000000E+00  0.00000000E+00
  0.00000000E+00  0.00000000E+00  0.00000000E+00
  0.00000000E+00  0.00000000E+00  0.00000000E+00
  0.00000000E+00  0.00000000E+00  0.00000000E+00
  0.00000000E+00  0.00000000E+00  0.00000000E+00
  0.00000000E+00  0.00000000E+00  0.00000000E+00
  0.00000000E+00  0.00000000E+00  0.00000000E+00
  0.00000000E+00  0.00000000E+00  0.00000000E+00
  0.00000000E+00  0.00000000E+00  0.00000000E+00
  0.00000000E+00  0.00000000E+00  0.00000000E+00
  0.00000000E+00  0.00000000E+00  0.00000000E+00
  0.00000000E+00  0.00000000E+00  0.00000000E+00
  0.00000000E+00  0.00000000E+00  0.00000000E+00
  0.00000000E+00  0.00000000E+00  0.00000000E+00
  0.00000000E+00  0.00000000E+00  0.00000000E+00
  0.00000000E+00  0.00000000E+00  0.00000000E+00
  0.00000000E+00  0.00000000E+00  0.00000000E+00
  0.00000000E+00  0.00000000E+00  0.00000000E+00
  0.00000000E+00  0.00000000E+00  0.00000000E+00
  0.00000000E+00  0.00000000E+00  0.00000000E+00
  0.00000000E+00  0.00000000E+00  0.00000000E+00
  0.00000000E+00  0.00000000E+00  0.00000000E+00
  0.00000000E+00  0.00000000E+00  0.00000000E+00
  0.00000000E+00  0.00000000E+00  0.00000000E+00
  0.00000000E+00  0.00000000E+00  0.00000000E+00
  0.00000000E+00  0.00000000E+00  0.00000000E+00
  0.00000000E+00  0.00000000E+00  0.00000000E+00
  0.00000000E+00  0.00000000E+00  0.00000000E+00
  0.00000000E+00  0.00000000E+00  0.00000000E+00
  0.00000000E+00  0.00000000E+00  0.00000000E+00
  0.00000000E+00  0.00000000E+00  0.00000000E+00
  0.00000000E+00  0.00000000E+00  0.00000000E+00
  0.00000000E+00  0.00000000E+00  0.00000000E+00
  0.00000000E+00  0.00000000E+00  0.00000000E+00
  0.00000000E+00  0.00000000E+00  0.00000000E+00
  0.00000000E+00  0.00000000E+00  0.00000000E+00
  0.00000000E+00  0.00000000E+00  0.00000000E+00
  0.00000000E+00  0.00000000E+00  0.00000000E+00
  0.00000000E+00  0.00000000E+00  0.00000000E+00
  0.00000000E+00  0.00000000E+00  0.00000000E+00
  0.00000000E+00  0.00000000E+00  0.00000000E+00
  0.00000000E+00  0.00000000E+00  0.00000000E+00
  0.00000000E+00  0.00000000E+00  0.00000000E+00
  0.00000000E+00  0.00000000E+00  0.00000000E+00
  0.00000000E+00  0.00000000E+00  0.00000000E+00
  0.00000000E+00  0.00000000E+00  0.00000000E+00
  0.00000000E+00  0.00000000E+00  0.00000000E+00
  0.00000000E+00  0.00000000E+00  0.00000000E+00
  0.00000000E+00  0.00000000E+00  0.00000000E+00
  0.00000000E+00  0.00000000E+00  0.00000000E+00
  0.00000000E+00  0.00000000E+00  0.00000000E+00
  0.00000000E+00  0.00000000E+00  0.00000000E+00
  0.00000000E+00  0.00000000E+00  0.00000000E+00
  0.00000000E+00  0.00000000E+00  0.00000000E+00
  0.00000000E+00  0.00000000E+00  0.00000000E+00
  0.00000000E+00  0.00000000E+00  0.00000000E+00
  0.00000000E+00  0.00000000E+00  0.00000000E+00
  0.00000000E+00  0.00000000E+00  0.00000000E+00
  0.00000000E+00  0.00000000E+00  0.00000000E+00
  0.00000000E+00  0.00000000E+00  0.00000000E+00
  0.00000000E+00  0.00000000E+00  0.00000000E+00
  0.00000000E+00  0.00000000E+00  0.00000000E+00
  0.00000000E+00  0.00000000E+00  0.00000000E+00
  0.00000000E+00  0.00000000E+00  0.00000000E+00
  0.00000000E+00  0.00000000E+00  0.00000000E+00
  0.00000000E+00  0.00000000E+00  0.00000000E+00
  0.00000000E+00  0.00000000E+00  0.00000000E+00
  0.00000000E+00  0.00000000E+00  0.00000000E+00
  0.00000000E+00  0.00000000E+00  0.00000000E+00
  0.00000000E+00  0.00000000E+00  0.00000000E+00
