supercell of 100% icsd_608626.cif, 0% i 
   1.00000000000000     
    -9.6883058580708159   -0.0487083513665228    0.0083292647791948
    -4.8017293682261428    8.3695667050121809    0.0184323643472840
     0.0090286775851148   -0.0175828241006689  -10.2924465928453230
   Al   Ge   Sr   N 
    28     4     4    36
Direct
  0.1156860835318554  0.1041098113463406  0.3008169970996803
  0.2241994857517824  0.1947395675909078  0.0455486666861376
  0.8916285786557907  0.2050971121081275  0.5485725327821811
  0.4382962494395031  0.0984504189753466  0.3017577949873456
  0.5573163654543762  0.2013054016319842  0.0459249201342828
  0.1179819680461520  0.0918418785664414  0.7943745231886297
  0.2217403195308734  0.2051062413814648  0.5534173814675540
  0.7650706906653042  0.1051179642326616  0.3013842699908622
  0.8921682147900754  0.2030644934776973  0.0512533722824173
  0.4411448787018912  0.0937637959376545  0.7975079772764673
  0.1068227369616608  0.4218125114834947  0.2680894453220191
  0.2334580042747021  0.5183460860505988  0.0677140226770163
  0.7793219165944194  0.4265633023788808  0.7980931231541391
  0.4548805507795137  0.4251637241277635  0.2785070857071830
  0.5601095453604543  0.5384731001697105  0.0453008026703898
  0.1282911040235248  0.4054562991809263  0.8160519042176091
  0.7766029040068645  0.4304205965356687  0.2881119595764758
  0.8868697065900122  0.5362214433225887  0.0469564266009641
  0.4507602329887348  0.4168169096550045  0.8081018350800946
  0.5654402404598500  0.5282213306154233  0.5512766023593159
  0.2255664425475459  0.8730581373020669  0.0397776613877667
  0.7631842005431793  0.7679666436660355  0.7996944509293158
  0.8706546266074540  0.8885639065452793  0.5404694449088652
  0.4479113446734146  0.7659066409910338  0.2993358102488983
  0.5488210889340053  0.8755159418727843  0.0495511965887943
  0.2181268732690356  0.8867481040127387  0.5409163056642967
  0.7658605247868095  0.7696309807415815  0.2893828623750494
  0.5571573814407031  0.8767810759728505  0.5441623663223822
  0.7722639363005754  0.0986786687380743  0.7974967995297391
  0.5553059051687868  0.2082080189143483  0.5528164224884762
  0.8822175375294350  0.8773980355851734  0.0429541093792452
  0.4473421326371465  0.7620918021234360  0.7960201995257208
  0.8964835442341013  0.5416234913459235  0.5470688226202967
  0.2344954241410377  0.5241021387764206  0.5113742497126452
  0.0969092081088334  0.7878817112018268  0.2965576311994127
  0.1121785941355640  0.7365449331826710  0.7934712588458694
  0.2168744092940429  0.2208036207092690  0.3603390133050581
  0.1104359848740444  0.0892705504273792  0.1102898902685467
  0.8917401846092616  0.1977328924808646  0.8600291371100326
  0.7733577159038916  0.1007866301630642  0.6105527648655453
  0.5466167389252519  0.2180090554803300  0.3641438546085283
  0.4445516533878191  0.0948230996986865  0.1106415881616485
  0.2310607116187171  0.1859070411994139  0.8633560149099466
  0.1095286189637577  0.0983284346461915  0.6093776617895728
  0.8876634521914681  0.2080142429356755  0.3566868034216029
  0.7775299903748945  0.0941005588806121  0.1101938718223465
  0.5620392437171091  0.1970844683340189  0.8574408868660370
  0.4458699878983268  0.0944956108020776  0.6054564607052981
  0.2390347943074147  0.5084340882020939  0.2708700792523402
  0.1034975731272496  0.4110876009932980  0.0862215200182632
  0.8851206208590128  0.5435661651008346  0.8555319129898535
  0.7679123372894097  0.4070242112759104  0.6191573961453543
  0.5552128964426615  0.5401221327566788  0.3582199999850246
  0.4735592955970347  0.4128099480620193  0.0972564562012579
  0.2585442049003390  0.4800219433467987  0.8843633025182243
  0.1427328706526865  0.3917945244733687  0.6400726531887742
  0.8869314088315932  0.5447845896799066  0.3113824540776733
  0.7766101156052372  0.4236526903479287  0.0992392150803454
  0.5556730863334138  0.5438093446577383  0.8578675991548508
  0.4761046685831190  0.4096488139661290  0.6247564120229043
  0.2502167198548619  0.9029130595474584  0.3654650076412906
  0.1039634369940572  0.7649745895565516  0.0583183324682537
  0.8423855155132571  0.8981210433733864  0.8656436851471625
  0.7531613334638934  0.8066762073882643  0.6232018358992661
  0.5551207431252863  0.8739982048913575  0.3559529004473774
  0.4452805884920394  0.7582257044372511  0.1082627839280619
  0.2435789452065080  0.8826587500145635  0.8579634648852021
  0.0860773539176947  0.8018407208363953  0.5610085836871548
  0.8290874863628730  0.9047562630502739  0.3622228730168544
  0.7723302349933761  0.7678684008117287  0.0991244113897238
  0.5500299030223559  0.8730125173696024  0.8607280139398483
  0.4482966331010516  0.7580500603619740  0.6088499240931924
 
  0.00000000E+00  0.00000000E+00  0.00000000E+00
  0.00000000E+00  0.00000000E+00  0.00000000E+00
  0.00000000E+00  0.00000000E+00  0.00000000E+00
  0.00000000E+00  0.00000000E+00  0.00000000E+00
  0.00000000E+00  0.00000000E+00  0.00000000E+00
  0.00000000E+00  0.00000000E+00  0.00000000E+00
  0.00000000E+00  0.00000000E+00  0.00000000E+00
  0.00000000E+00  0.00000000E+00  0.00000000E+00
  0.00000000E+00  0.00000000E+00  0.00000000E+00
  0.00000000E+00  0.00000000E+00  0.00000000E+00
  0.00000000E+00  0.00000000E+00  0.00000000E+00
  0.00000000E+00  0.00000000E+00  0.00000000E+00
  0.00000000E+00  0.00000000E+00  0.00000000E+00
  0.00000000E+00  0.00000000E+00  0.00000000E+00
  0.00000000E+00  0.00000000E+00  0.00000000E+00
  0.00000000E+00  0.00000000E+00  0.00000000E+00
  0.00000000E+00  0.00000000E+00  0.00000000E+00
  0.00000000E+00  0.00000000E+00  0.00000000E+00
  0.00000000E+00  0.00000000E+00  0.00000000E+00
  0.00000000E+00  0.00000000E+00  0.00000000E+00
  0.00000000E+00  0.00000000E+00  0.00000000E+00
  0.00000000E+00  0.00000000E+00  0.00000000E+00
  0.00000000E+00  0.00000000E+00  0.00000000E+00
  0.00000000E+00  0.00000000E+00  0.00000000E+00
  0.00000000E+00  0.00000000E+00  0.00000000E+00
  0.00000000E+00  0.00000000E+00  0.00000000E+00
  0.00000000E+00  0.00000000E+00  0.00000000E+00
  0.00000000E+00  0.00000000E+00  0.00000000E+00
  0.00000000E+00  0.00000000E+00  0.00000000E+00
  0.00000000E+00  0.00000000E+00  0.00000000E+00
  0.00000000E+00  0.00000000E+00  0.00000000E+00
  0.00000000E+00  0.00000000E+00  0.00000000E+00
  0.00000000E+00  0.00000000E+00  0.00000000E+00
  0.00000000E+00  0.00000000E+00  0.00000000E+00
  0.00000000E+00  0.00000000E+00  0.00000000E+00
  0.00000000E+00  0.00000000E+00  0.00000000E+00
  0.00000000E+00  0.00000000E+00  0.00000000E+00
  0.00000000E+00  0.00000000E+00  0.00000000E+00
  0.00000000E+00  0.00000000E+00  0.00000000E+00
  0.00000000E+00  0.00000000E+00  0.00000000E+00
  0.00000000E+00  0.00000000E+00  0.00000000E+00
  0.00000000E+00  0.00000000E+00  0.00000000E+00
  0.00000000E+00  0.00000000E+00  0.00000000E+00
  0.00000000E+00  0.00000000E+00  0.00000000E+00
  0.00000000E+00  0.00000000E+00  0.00000000E+00
  0.00000000E+00  0.00000000E+00  0.00000000E+00
  0.00000000E+00  0.00000000E+00  0.00000000E+00
  0.00000000E+00  0.00000000E+00  0.00000000E+00
  0.00000000E+00  0.00000000E+00  0.00000000E+00
  0.00000000E+00  0.00000000E+00  0.00000000E+00
  0.00000000E+00  0.00000000E+00  0.00000000E+00
  0.00000000E+00  0.00000000E+00  0.00000000E+00
  0.00000000E+00  0.00000000E+00  0.00000000E+00
  0.00000000E+00  0.00000000E+00  0.00000000E+00
  0.00000000E+00  0.00000000E+00  0.00000000E+00
  0.00000000E+00  0.00000000E+00  0.00000000E+00
  0.00000000E+00  0.00000000E+00  0.00000000E+00
  0.00000000E+00  0.00000000E+00  0.00000000E+00
  0.00000000E+00  0.00000000E+00  0.00000000E+00
  0.00000000E+00  0.00000000E+00  0.00000000E+00
  0.00000000E+00  0.00000000E+00  0.00000000E+00
  0.00000000E+00  0.00000000E+00  0.00000000E+00
  0.00000000E+00  0.00000000E+00  0.00000000E+00
  0.00000000E+00  0.00000000E+00  0.00000000E+00
  0.00000000E+00  0.00000000E+00  0.00000000E+00
  0.00000000E+00  0.00000000E+00  0.00000000E+00
  0.00000000E+00  0.00000000E+00  0.00000000E+00
  0.00000000E+00  0.00000000E+00  0.00000000E+00
  0.00000000E+00  0.00000000E+00  0.00000000E+00
  0.00000000E+00  0.00000000E+00  0.00000000E+00
  0.00000000E+00  0.00000000E+00  0.00000000E+00
  0.00000000E+00  0.00000000E+00  0.00000000E+00
