supercell of POSCAR                     
   1.03600000000000     
     9.6051007291200001   -5.6678653607799996   -9.9907275475200006
     9.5551777488200003    5.5783510108199996    9.9928581731800001
    -1.5573508785200001   -8.3719044994900003    4.9655686364999996
   Al   Gd   N    O 
    72    24    95     1
Direct
  0.3015993330084612  0.2889903221500560  0.5374090256303177
  0.1434615722874426  0.2440658787835659  0.3110367901158924
  0.3085493506792147  0.4094433008084621  0.3098415991686778
  0.4635708533671021  0.3253610772334667  0.7880985074428679
  0.1416366702837593  0.4981748167924280  0.7838373818498994
  0.2989796206216511  0.1698207453820544  0.7797901217880465
  0.4697313161027949  0.4462374660213726  0.5332273542229302
  0.1410997607356066  0.1197641490877075  0.5317060155163773
  0.4787377242328148  0.0718581045082374  0.2965473060033474
  0.2776976395954520  0.1087114512950862  0.3351720800185092
  0.1153644630616952  0.0698723482596577  0.1031519022068892
  0.1144126083164210  0.1956212867793568  0.8157897986831912
  0.2741671210438952  0.3564473715972341  0.8114685849524719
  0.1118155930818787  0.3244246422390518  0.5885991446462171
  0.2709029197256996  0.4850273650375883  0.5763534284171072
  0.4485218456219684  0.2797098493895191  0.3360747083166586
  0.1115603801814302  0.4455284744444583  0.3405169789129658
  0.4483388822942089  0.4043783495303686  0.1040894408294761
  0.8011805747751026  0.2887383137449007  0.5385424157334313
  0.6438016285618744  0.2440669960419797  0.3113340848955346
  0.8084279723524972  0.4093135500018406  0.3102180383842992
  0.9626051040714714  0.3249597409784712  0.7890974577502021
  0.6420512628266692  0.4984125930511567  0.7841521942631005
  0.7946543931502532  0.1656745567985851  0.7784354132894222
  0.9695189297773652  0.4460954944063644  0.5336521077062955
  0.6437271914921467  0.1193823945966770  0.5378657937849525
  0.9781031922670564  0.0718683201485106  0.2976366278462947
  0.7766482565272099  0.1088598828213634  0.3363701284839493
  0.6150102316099435  0.0705801028904531  0.1024888677735447
  0.6147294261486209  0.1956876010911941  0.8162032834377797
  0.7742980095657330  0.3558730253788056  0.8120139234028301
  0.6119697402409798  0.3246545814096464  0.5885301675156072
  0.7708960568580210  0.4851425715694546  0.5766862165955828
  0.9482575925724603  0.2797333102356774  0.3372571739759564
  0.6117021214213452  0.4455117593409099  0.3402265408392182
  0.9482342827465331  0.4046184187479298  0.1047652637294263
  0.3014703130169920  0.7872900039070956  0.5376004034123270
  0.1432662287520827  0.7429004647803055  0.3109141448107380
  0.3087132491676101  0.9082694155466342  0.3087783991079291
  0.4632638554922863  0.8247289842199024  0.7884627933158086
  0.1390633810665562  0.9948871699272672  0.7853248794201164
  0.2953429154210028  0.6646561178199590  0.7784447790804450
  0.4700207488611099  0.9462200641057308  0.5337573028859524
  0.1431916488279725  0.6189270253680093  0.5382685988697773
  0.4785022244610388  0.5720111815619049  0.2976133484784214
  0.2765807362261725  0.6085427601001356  0.3359154979148968
  0.1149078079999413  0.5703704973030952  0.1021905758457393
  0.1148601376883889  0.6959340823617666  0.8166562226880743
  0.2757594601986568  0.8549361791251400  0.8110888507341159
  0.1116369827689709  0.8234671936392388  0.5877645743208646
  0.2736734593071972  0.9809463849917464  0.5719577126564914
  0.4485597000376771  0.7797372039409609  0.3366168532178335
  0.1115159275062112  0.9438984444176057  0.3394785566903096
  0.4487319693706979  0.9052164155777120  0.1042492567389459
  0.8013333992279570  0.7882972401006896  0.5386879156688877
  0.6434851313382310  0.7435968934530166  0.3114987005424013
  0.8084564164328114  0.9090425131774609  0.3104841695744085
  0.9628880810384359  0.8250962297597582  0.7889413724844019
  0.6429659638887060  0.9984173247377939  0.7840571267802261
  0.7955762689852364  0.6650321374260955  0.7788135383617387
  0.9692850676650764  0.9461547185879127  0.5340122088138060
  0.6434479091369809  0.6193632852809614  0.5384450191948105
  0.9782077634566591  0.5718983813154779  0.2978363837929976
  0.7764513728254911  0.6087995287044450  0.3361624555286866
  0.6149610272572943  0.5703323576455332  0.1022286204962626
  0.6150653412881937  0.6959192155104788  0.8168387706550675
  0.7749592698039081  0.8555050555283046  0.8118614349482556
  0.6120083838948247  0.8243746757552159  0.5889842109321179
  0.7710908701571739  0.9850167497007476  0.5767525706909424
  0.9481213935852253  0.7795648759588758  0.3365604318517015
  0.6118456818924400  0.9452849181167124  0.3406478714478425
  0.9488694422325779  0.9050059729801561  0.1040075886932001
  0.4816049006576790  0.1936504958768310  0.0402996297015648
  0.1348647667242844  0.3653587170753170  0.0324288240808599
  0.3094640091537642  0.0221212989455637  0.0394773786302451
  0.2831705488804133  0.2341844266241608  0.0813661132795431
  0.4502950543206623  0.0196677188018128  0.8223736293377613
  0.4450816121647136  0.1546985214727172  0.5722533027966890
  0.9822771854644969  0.1949166235634436  0.0416249960625450
  0.6352419194390038  0.3646467419792074  0.0321756433684328
  0.8087367721607635  0.0221720858281174  0.0412001160661433
  0.7836619055327603  0.2337823600855558  0.0816577278421775
  0.9479852335630738  0.0213848332686837  0.8228336412517478
  0.9433191733433048  0.1553230294869223  0.5741222094258589
  0.4827317225657524  0.6953758398557213  0.0405409120023492
  0.1378077585909026  0.8659142450305097  0.0321131884638319
  0.3079611595802447  0.5213175449322236  0.0403216544781984
  0.2840863694756095  0.7331713331222431  0.0817268677992971
  0.4487010307309092  0.5200789257680114  0.8205499833006655
  0.4440964212080587  0.6546558752161857  0.5727183222800747
  0.9830448429918235  0.6959563578324364  0.0405716809652716
  0.6364031968695585  0.8658707102826284  0.0326416598729864
  0.8079983411095739  0.5217117900059307  0.0405894698245248
  0.7838143996636546  0.7336181147683547  0.0822508553487324
  0.9484318957586453  0.5201147574056222  0.8208342035838143
  0.9437548580734330  0.6547224035965513  0.5728929908864089
  0.2373606261522880  0.3675557407241783  0.6253901810553515
  0.0751895462842427  0.3247977706879368  0.4001637646981067
  0.2389672449139439  0.4899292571515019  0.3906542596954452
  0.4264235078512044  0.2919883030344650  0.1561381402154112
  0.0697713194835003  0.4567096531722683  0.1530503630915376
  0.2355727858804215  0.1035078583543694  0.1555393094896544
  0.3995282237627507  0.3927962729375594  0.9074597935817934
  0.0954780304517868  0.0819477785751133  0.8975637433158425
  0.2332629698338167  0.2439405233251364  0.8633835942176802
  0.3951926602830298  0.0161645643627608  0.6114555296995547
  0.0910826167251386  0.2017540339036188  0.6305404526239258
  0.4046682900637109  0.1554514872440649  0.3552226990542380
  0.2199724891400479  0.1901489061503128  0.4350001754294297
  0.0626015451028792  0.1454834318947320  0.2103445115071452
  0.2156272098637046  0.3202764927169639  0.2099300211324078
  0.3634104679279844  0.1174850977921480  0.9030390247716440
  0.0411348786297410  0.2670551412590996  0.8844383736499069
  0.2095567036864523  0.4351209030206320  0.8885477343860373
  0.3675425401060153  0.2464029821155691  0.6787999908738982
  0.0396622455506730  0.4058526515063861  0.6830372700814706
  0.3818697786896408  0.3526869074517620  0.4324212576576514
  0.0493799680981724  0.0252030506148202  0.4401762940376770
  0.3906866479769135  0.4749544579550005  0.2097858625174993
  0.7373906102970480  0.3680378382402338  0.6259953610109363
  0.5749926445197460  0.3252241366515634  0.3998617414393237
  0.7390027651399294  0.4901617132056373  0.3909655001346906
  0.9271911083931812  0.2924702453051609  0.1575223240801762
  0.5697753541619477  0.4565212226752067  0.1525640916313478
  0.7351471591479992  0.1035527903369911  0.1565473377163116
  0.9001057620076764  0.3931724252548321  0.9088791246038497
  0.5948211794071412  0.0830840392904406  0.9016979313089664
  0.7329915963466860  0.2449717703967949  0.8665041763916577
  0.8956472574669760  0.0160501507010622  0.6114175954821519
  0.5906427065441164  0.2035793462100912  0.6311971160468417
  0.9047117982715562  0.1553773766089677  0.3564769753310202
  0.7196447800917909  0.1910953225198213  0.4348668837634619
  0.5624470490267086  0.1465057461953165  0.2097385487100425
  0.7159777954201942  0.3205832051609718  0.2100519088251076
  0.8641748427742684  0.1193180984693214  0.9087925662639194
  0.5405738097716082  0.2671590103520813  0.8847762490736599
  0.7099301958985862  0.4355002532232675  0.8889380557930266
  0.8666148806229828  0.2466281931886201  0.6815140957335046
  0.5397108422470396  0.4065542731274832  0.6830678756534923
  0.7122198009409715  0.0681145466438053  0.6700391270460955
  0.8818536469214209  0.3526546346376378  0.4332960341426286
  0.5484073716482243  0.0261505907945789  0.4400236615437692
  0.8905210195343543  0.4750080880897656  0.2102004427552160
  0.2372851064127275  0.8673913716766819  0.6249086176049019
  0.0750840310946685  0.8243885521590144  0.3996014833181079
  0.2387475745483840  0.9901567014049988  0.3912291397643202
  0.4271175026344523  0.7929596094677223  0.1570767481582251
  0.0707959726346630  0.9560763255849594  0.1528480970682367
  0.2348485906211550  0.6030866097521539  0.1560768194101598
  0.4001662538783606  0.8925799971056207  0.9077629252010482
  0.0935593958675156  0.5831128416872389  0.9018277419749410
  0.2335831493754910  0.7443491687013974  0.8662499951697029
  0.3951644150293063  0.5156263755154384  0.6100833887803390
  0.0900901119379256  0.7031635781942143  0.6315921521396106
  0.4041683761371644  0.6555808322777139  0.3554126868985534
  0.2191336360413487  0.6904031235494443  0.4347061181081031
  0.0615885938394953  0.6454472605729222  0.2092991221574465
  0.2157309917759065  0.8196865970198814  0.2101619924094464
  0.3651272405058990  0.6177900257468707  0.9087355381321558
  0.0424306768781832  0.7694299719373490  0.8856005553353725
  0.2117024484047789  0.9360476627319656  0.8851241539364878
  0.3668385262892286  0.7460075638844970  0.6812050248338863
  0.0406050111150194  0.9064389802230721  0.6819060662068566
  0.2118597320039939  0.5676924031716482  0.6704269636869853
  0.3817832580271769  0.8527903927033762  0.4336056130186563
  0.0484994985613270  0.5258310818483594  0.4400011364421275
  0.3901394946817689  0.9748161292550037  0.2102680455053374
  0.7375845488534196  0.8677597769346406  0.6259380193577968
  0.5750269662719631  0.8249965841702718  0.4003819991867559
  0.7392119031469520  0.9901023419989556  0.3911156991580995
  0.9270020160090056  0.7929047136184550  0.1570424668679848
  0.5702221323718035  0.9569052880991080  0.1535650744944448
  0.7348347443712981  0.6033352679924917  0.1562985343752743
  0.9005554500280013  0.8932876944847123  0.9076377169991261
  0.5936107273643572  0.5831236316584025  0.9019481830071641
  0.7337558038922865  0.7444058584995688  0.8666000266634484
  0.8952608341521326  0.5157145945729056  0.6103570576274251
  0.5901271092639107  0.7034059154545673  0.6318758002536384
  0.9041613532995711  0.6555007304377938  0.3555305795145003
  0.7193566256875741  0.6908901676168497  0.4350637709598075
  0.5619027529204743  0.6457934889327532  0.2095343543768067
  0.7157897675254787  0.8201996639861520  0.2103925606119716
  0.8656299669408298  0.6180759411377537  0.9089438833680319
  0.5419437960611475  0.7685507103480163  0.8856853992867570
  0.7112129214835221  0.9356547512014259  0.8886579892838782
  0.8671995759137019  0.7461802154904618  0.6814585086022333
  0.5397967467567071  0.9067142902270220  0.6834850530284626
  0.7120758583689621  0.5680853242720190  0.6706967545375022
  0.8820604174082902  0.8526466015797425  0.4337338853632673
  0.5485771478392607  0.5261306620404227  0.4399000689037749
  0.8909842609790317  0.9747100713249992  0.2109610402914939
  0.2112826336868494  0.0661529012837292  0.6660319063886320
 
  0.00000000E+00  0.00000000E+00  0.00000000E+00
  0.00000000E+00  0.00000000E+00  0.00000000E+00
  0.00000000E+00  0.00000000E+00  0.00000000E+00
  0.00000000E+00  0.00000000E+00  0.00000000E+00
  0.00000000E+00  0.00000000E+00  0.00000000E+00
  0.00000000E+00  0.00000000E+00  0.00000000E+00
  0.00000000E+00  0.00000000E+00  0.00000000E+00
  0.00000000E+00  0.00000000E+00  0.00000000E+00
  0.00000000E+00  0.00000000E+00  0.00000000E+00
  0.00000000E+00  0.00000000E+00  0.00000000E+00
  0.00000000E+00  0.00000000E+00  0.00000000E+00
  0.00000000E+00  0.00000000E+00  0.00000000E+00
  0.00000000E+00  0.00000000E+00  0.00000000E+00
  0.00000000E+00  0.00000000E+00  0.00000000E+00
  0.00000000E+00  0.00000000E+00  0.00000000E+00
  0.00000000E+00  0.00000000E+00  0.00000000E+00
  0.00000000E+00  0.00000000E+00  0.00000000E+00
  0.00000000E+00  0.00000000E+00  0.00000000E+00
  0.00000000E+00  0.00000000E+00  0.00000000E+00
  0.00000000E+00  0.00000000E+00  0.00000000E+00
  0.00000000E+00  0.00000000E+00  0.00000000E+00
  0.00000000E+00  0.00000000E+00  0.00000000E+00
  0.00000000E+00  0.00000000E+00  0.00000000E+00
  0.00000000E+00  0.00000000E+00  0.00000000E+00
  0.00000000E+00  0.00000000E+00  0.00000000E+00
  0.00000000E+00  0.00000000E+00  0.00000000E+00
  0.00000000E+00  0.00000000E+00  0.00000000E+00
  0.00000000E+00  0.00000000E+00  0.00000000E+00
  0.00000000E+00  0.00000000E+00  0.00000000E+00
  0.00000000E+00  0.00000000E+00  0.00000000E+00
  0.00000000E+00  0.00000000E+00  0.00000000E+00
  0.00000000E+00  0.00000000E+00  0.00000000E+00
  0.00000000E+00  0.00000000E+00  0.00000000E+00
  0.00000000E+00  0.00000000E+00  0.00000000E+00
  0.00000000E+00  0.00000000E+00  0.00000000E+00
  0.00000000E+00  0.00000000E+00  0.00000000E+00
  0.00000000E+00  0.00000000E+00  0.00000000E+00
  0.00000000E+00  0.00000000E+00  0.00000000E+00
  0.00000000E+00  0.00000000E+00  0.00000000E+00
  0.00000000E+00  0.00000000E+00  0.00000000E+00
  0.00000000E+00  0.00000000E+00  0.00000000E+00
  0.00000000E+00  0.00000000E+00  0.00000000E+00
  0.00000000E+00  0.00000000E+00  0.00000000E+00
  0.00000000E+00  0.00000000E+00  0.00000000E+00
  0.00000000E+00  0.00000000E+00  0.00000000E+00
  0.00000000E+00  0.00000000E+00  0.00000000E+00
  0.00000000E+00  0.00000000E+00  0.00000000E+00
  0.00000000E+00  0.00000000E+00  0.00000000E+00
  0.00000000E+00  0.00000000E+00  0.00000000E+00
  0.00000000E+00  0.00000000E+00  0.00000000E+00
  0.00000000E+00  0.00000000E+00  0.00000000E+00
  0.00000000E+00  0.00000000E+00  0.00000000E+00
  0.00000000E+00  0.00000000E+00  0.00000000E+00
  0.00000000E+00  0.00000000E+00  0.00000000E+00
  0.00000000E+00  0.00000000E+00  0.00000000E+00
  0.00000000E+00  0.00000000E+00  0.00000000E+00
  0.00000000E+00  0.00000000E+00  0.00000000E+00
  0.00000000E+00  0.00000000E+00  0.00000000E+00
  0.00000000E+00  0.00000000E+00  0.00000000E+00
  0.00000000E+00  0.00000000E+00  0.00000000E+00
  0.00000000E+00  0.00000000E+00  0.00000000E+00
  0.00000000E+00  0.00000000E+00  0.00000000E+00
  0.00000000E+00  0.00000000E+00  0.00000000E+00
  0.00000000E+00  0.00000000E+00  0.00000000E+00
  0.00000000E+00  0.00000000E+00  0.00000000E+00
  0.00000000E+00  0.00000000E+00  0.00000000E+00
  0.00000000E+00  0.00000000E+00  0.00000000E+00
  0.00000000E+00  0.00000000E+00  0.00000000E+00
  0.00000000E+00  0.00000000E+00  0.00000000E+00
  0.00000000E+00  0.00000000E+00  0.00000000E+00
  0.00000000E+00  0.00000000E+00  0.00000000E+00
  0.00000000E+00  0.00000000E+00  0.00000000E+00
  0.00000000E+00  0.00000000E+00  0.00000000E+00
  0.00000000E+00  0.00000000E+00  0.00000000E+00
  0.00000000E+00  0.00000000E+00  0.00000000E+00
  0.00000000E+00  0.00000000E+00  0.00000000E+00
  0.00000000E+00  0.00000000E+00  0.00000000E+00
  0.00000000E+00  0.00000000E+00  0.00000000E+00
  0.00000000E+00  0.00000000E+00  0.00000000E+00
  0.00000000E+00  0.00000000E+00  0.00000000E+00
  0.00000000E+00  0.00000000E+00  0.00000000E+00
  0.00000000E+00  0.00000000E+00  0.00000000E+00
  0.00000000E+00  0.00000000E+00  0.00000000E+00
  0.00000000E+00  0.00000000E+00  0.00000000E+00
  0.00000000E+00  0.00000000E+00  0.00000000E+00
  0.00000000E+00  0.00000000E+00  0.00000000E+00
  0.00000000E+00  0.00000000E+00  0.00000000E+00
  0.00000000E+00  0.00000000E+00  0.00000000E+00
  0.00000000E+00  0.00000000E+00  0.00000000E+00
  0.00000000E+00  0.00000000E+00  0.00000000E+00
  0.00000000E+00  0.00000000E+00  0.00000000E+00
  0.00000000E+00  0.00000000E+00  0.00000000E+00
  0.00000000E+00  0.00000000E+00  0.00000000E+00
  0.00000000E+00  0.00000000E+00  0.00000000E+00
  0.00000000E+00  0.00000000E+00  0.00000000E+00
  0.00000000E+00  0.00000000E+00  0.00000000E+00
  0.00000000E+00  0.00000000E+00  0.00000000E+00
  0.00000000E+00  0.00000000E+00  0.00000000E+00
  0.00000000E+00  0.00000000E+00  0.00000000E+00
  0.00000000E+00  0.00000000E+00  0.00000000E+00
  0.00000000E+00  0.00000000E+00  0.00000000E+00
  0.00000000E+00  0.00000000E+00  0.00000000E+00
  0.00000000E+00  0.00000000E+00  0.00000000E+00
  0.00000000E+00  0.00000000E+00  0.00000000E+00
  0.00000000E+00  0.00000000E+00  0.00000000E+00
  0.00000000E+00  0.00000000E+00  0.00000000E+00
  0.00000000E+00  0.00000000E+00  0.00000000E+00
  0.00000000E+00  0.00000000E+00  0.00000000E+00
  0.00000000E+00  0.00000000E+00  0.00000000E+00
  0.00000000E+00  0.00000000E+00  0.00000000E+00
  0.00000000E+00  0.00000000E+00  0.00000000E+00
  0.00000000E+00  0.00000000E+00  0.00000000E+00
  0.00000000E+00  0.00000000E+00  0.00000000E+00
  0.00000000E+00  0.00000000E+00  0.00000000E+00
  0.00000000E+00  0.00000000E+00  0.00000000E+00
  0.00000000E+00  0.00000000E+00  0.00000000E+00
  0.00000000E+00  0.00000000E+00  0.00000000E+00
  0.00000000E+00  0.00000000E+00  0.00000000E+00
  0.00000000E+00  0.00000000E+00  0.00000000E+00
  0.00000000E+00  0.00000000E+00  0.00000000E+00
  0.00000000E+00  0.00000000E+00  0.00000000E+00
  0.00000000E+00  0.00000000E+00  0.00000000E+00
  0.00000000E+00  0.00000000E+00  0.00000000E+00
  0.00000000E+00  0.00000000E+00  0.00000000E+00
  0.00000000E+00  0.00000000E+00  0.00000000E+00
  0.00000000E+00  0.00000000E+00  0.00000000E+00
  0.00000000E+00  0.00000000E+00  0.00000000E+00
  0.00000000E+00  0.00000000E+00  0.00000000E+00
  0.00000000E+00  0.00000000E+00  0.00000000E+00
  0.00000000E+00  0.00000000E+00  0.00000000E+00
  0.00000000E+00  0.00000000E+00  0.00000000E+00
  0.00000000E+00  0.00000000E+00  0.00000000E+00
  0.00000000E+00  0.00000000E+00  0.00000000E+00
  0.00000000E+00  0.00000000E+00  0.00000000E+00
  0.00000000E+00  0.00000000E+00  0.00000000E+00
  0.00000000E+00  0.00000000E+00  0.00000000E+00
  0.00000000E+00  0.00000000E+00  0.00000000E+00
  0.00000000E+00  0.00000000E+00  0.00000000E+00
  0.00000000E+00  0.00000000E+00  0.00000000E+00
  0.00000000E+00  0.00000000E+00  0.00000000E+00
  0.00000000E+00  0.00000000E+00  0.00000000E+00
  0.00000000E+00  0.00000000E+00  0.00000000E+00
  0.00000000E+00  0.00000000E+00  0.00000000E+00
  0.00000000E+00  0.00000000E+00  0.00000000E+00
  0.00000000E+00  0.00000000E+00  0.00000000E+00
  0.00000000E+00  0.00000000E+00  0.00000000E+00
  0.00000000E+00  0.00000000E+00  0.00000000E+00
  0.00000000E+00  0.00000000E+00  0.00000000E+00
  0.00000000E+00  0.00000000E+00  0.00000000E+00
  0.00000000E+00  0.00000000E+00  0.00000000E+00
  0.00000000E+00  0.00000000E+00  0.00000000E+00
  0.00000000E+00  0.00000000E+00  0.00000000E+00
  0.00000000E+00  0.00000000E+00  0.00000000E+00
  0.00000000E+00  0.00000000E+00  0.00000000E+00
  0.00000000E+00  0.00000000E+00  0.00000000E+00
  0.00000000E+00  0.00000000E+00  0.00000000E+00
  0.00000000E+00  0.00000000E+00  0.00000000E+00
  0.00000000E+00  0.00000000E+00  0.00000000E+00
  0.00000000E+00  0.00000000E+00  0.00000000E+00
  0.00000000E+00  0.00000000E+00  0.00000000E+00
  0.00000000E+00  0.00000000E+00  0.00000000E+00
  0.00000000E+00  0.00000000E+00  0.00000000E+00
  0.00000000E+00  0.00000000E+00  0.00000000E+00
  0.00000000E+00  0.00000000E+00  0.00000000E+00
  0.00000000E+00  0.00000000E+00  0.00000000E+00
  0.00000000E+00  0.00000000E+00  0.00000000E+00
  0.00000000E+00  0.00000000E+00  0.00000000E+00
  0.00000000E+00  0.00000000E+00  0.00000000E+00
  0.00000000E+00  0.00000000E+00  0.00000000E+00
  0.00000000E+00  0.00000000E+00  0.00000000E+00
  0.00000000E+00  0.00000000E+00  0.00000000E+00
  0.00000000E+00  0.00000000E+00  0.00000000E+00
  0.00000000E+00  0.00000000E+00  0.00000000E+00
  0.00000000E+00  0.00000000E+00  0.00000000E+00
  0.00000000E+00  0.00000000E+00  0.00000000E+00
  0.00000000E+00  0.00000000E+00  0.00000000E+00
  0.00000000E+00  0.00000000E+00  0.00000000E+00
  0.00000000E+00  0.00000000E+00  0.00000000E+00
  0.00000000E+00  0.00000000E+00  0.00000000E+00
  0.00000000E+00  0.00000000E+00  0.00000000E+00
  0.00000000E+00  0.00000000E+00  0.00000000E+00
  0.00000000E+00  0.00000000E+00  0.00000000E+00
  0.00000000E+00  0.00000000E+00  0.00000000E+00
  0.00000000E+00  0.00000000E+00  0.00000000E+00
  0.00000000E+00  0.00000000E+00  0.00000000E+00
  0.00000000E+00  0.00000000E+00  0.00000000E+00
  0.00000000E+00  0.00000000E+00  0.00000000E+00
  0.00000000E+00  0.00000000E+00  0.00000000E+00
  0.00000000E+00  0.00000000E+00  0.00000000E+00
  0.00000000E+00  0.00000000E+00  0.00000000E+00
  0.00000000E+00  0.00000000E+00  0.00000000E+00
  0.00000000E+00  0.00000000E+00  0.00000000E+00
