supercell of icsd_181358.cif            
   1.00000000000000     
     9.1124056153659510    0.0701291081133515    0.0815451101842391
    -4.4956172942302981    7.9681727450058597   -0.0435315694551934
     0.0893137444694191   -0.0051135176031697    9.7416316279290633
   N    Ga   B 
    36    26    10
Direct
  0.2060543851381951  0.1243955230630220  0.4377646572406775
  0.1123957820815775  0.2230372768206266  0.1787007234292730
  0.8514057493841776  0.1126595395866943  0.9393855996502367
  0.7785469856357778  0.2337652884312007  0.6639585099772987
  0.5856964217211313  0.1212078871346662  0.4376961348870267
  0.4604120705180677  0.2269241882398276  0.1635853841083943
  0.1723057933837779  0.0918160934981813  0.8977073845212900
  0.1172637668828145  0.2085988577484841  0.6706436600141430
  0.9029224418141197  0.1353795012808803  0.4567271409710685
  0.7772013388399870  0.2082046083800719  0.1618615515056305
  0.6066041773302118  0.1807893673087548  0.9494365497758537
  0.4055919025377079  0.2013169565301567  0.6965561909982583
  0.2068640209977062  0.4105380503875153  0.4507041558610041
  0.1295552163110898  0.5835520357207429  0.1790016811180664
  0.9361969067539491  0.5163705848519058  0.9653523273243252
  0.7708822688194275  0.5520328464621542  0.6908226574336069
  0.5569530715315452  0.4375252497148239  0.4326666599384126
  0.4437098262356542  0.5517579572762727  0.1939075629044567
  0.1918421455011341  0.4592955774885041  0.9474471480777567
  0.1088921186148681  0.5647997957316093  0.6846565818755153
  0.8752379983664298  0.4092081994244552  0.4302487185500681
  0.8111172339059678  0.5956652049692082  0.1766978126698291
  0.5253913983132250  0.4099244710797834  0.9518033621670270
  0.4400342426286343  0.5540941509287833  0.7012566459224487
  0.2240473170073614  0.7731832115310411  0.4065230736506891
  0.1062500123478429  0.8694565545063568  0.2008414067814073
  0.8767800084808997  0.7579631817825216  0.9506891476016506
  0.7737274007862212  0.8840339223492322  0.6943264017370723
  0.5541437411075236  0.7715591142426419  0.4428854632640338
  0.4101811357730227  0.8647129346635296  0.1756800487405172
  0.2416055279075664  0.7698944363206763  0.9572233320234247
  0.1212803158070130  0.9097243580514203  0.6875221107924787
  0.8896591996119909  0.7688564975587013  0.4131762714323841
  0.8004224809623466  0.8783948258631185  0.2052337473811363
  0.5314255754834960  0.7838681174322488  0.9625848367050054
  0.4477554763877265  0.8986158457674023  0.6926982027525739
  0.2257357947055780  0.1116593591232657  0.2409720873799515
  0.0916665584040999  0.2223610040514075  0.9867982316937471
  0.8850763168339100  0.1140558167750214  0.7377345133904285
  0.5551127645789293  0.1015180717942101  0.2400660556553973
  0.8967238450220520  0.1113811125216344  0.2585592682729327
  0.5561684271524072  0.1234330472050758  0.7571600325994083
  0.4383987320794347  0.2168800750404358  0.5023318683816029
  0.2187716958751196  0.4426713332032648  0.2527134468454477
  0.8897213138516946  0.4518699310662839  0.7691533385890565
  0.7789247341054306  0.5447039973881616  0.4955270667510732
  0.5734822378965632  0.4532253776062021  0.2373406800943201
  0.4213640611782736  0.5364479653907850  0.0019515625834856
  0.2094521077012601  0.4374822386085668  0.7476351970394077
  0.1024708096059683  0.5452959954000178  0.4918256728003172
  0.8948205348647988  0.4432372204256296  0.2290916931202602
  0.5427116840195580  0.4283545154343216  0.7603835994578318
  0.4389607549168844  0.5445601310019228  0.5040273137461710
  0.1243360700839702  0.8991489910021428  0.0002491130012316
  0.8927023185399179  0.7772527975698154  0.7546309193525786
  0.7833218453109154  0.8914403894314376  0.4965968772856399
  0.5564636496468296  0.7731865822507444  0.2502212479576968
  0.2259051187000836  0.7846773421264004  0.7578226741492173
  0.1114638256827902  0.8917856991491888  0.4879987170511839
  0.7705776861299682  0.8846273083303728  0.0102614936558396
  0.5493621354492788  0.7792547837107193  0.7603147795451264
  0.4467071312248976  0.8931552590315093  0.4970310817506629
  0.7899394146164909  0.2289482986354656  0.4995054565537131
  0.5210646107029433  0.2683639620906746  0.0154079646037459
  0.2058948437946668  0.1027870659588856  0.7430130090186822
  0.1125528561756042  0.2225307325753576  0.5042185960400616
  0.7473994960677786  0.1760534802559803  0.0106698806355539
  0.1173056125834151  0.5717443967524218  0.0102363545509476
  0.8576642933855823  0.6105870504147006  0.0240901672520195
  0.2132297257132265  0.7711786943781718  0.2433409569672591
  0.4040210362255223  0.8228712226292814  0.0259682025626162
  0.9001705022639328  0.7781465395432789  0.2511780358813667
 
  0.00000000E+00  0.00000000E+00  0.00000000E+00
  0.00000000E+00  0.00000000E+00  0.00000000E+00
  0.00000000E+00  0.00000000E+00  0.00000000E+00
  0.00000000E+00  0.00000000E+00  0.00000000E+00
  0.00000000E+00  0.00000000E+00  0.00000000E+00
  0.00000000E+00  0.00000000E+00  0.00000000E+00
  0.00000000E+00  0.00000000E+00  0.00000000E+00
  0.00000000E+00  0.00000000E+00  0.00000000E+00
  0.00000000E+00  0.00000000E+00  0.00000000E+00
  0.00000000E+00  0.00000000E+00  0.00000000E+00
  0.00000000E+00  0.00000000E+00  0.00000000E+00
  0.00000000E+00  0.00000000E+00  0.00000000E+00
  0.00000000E+00  0.00000000E+00  0.00000000E+00
  0.00000000E+00  0.00000000E+00  0.00000000E+00
  0.00000000E+00  0.00000000E+00  0.00000000E+00
  0.00000000E+00  0.00000000E+00  0.00000000E+00
  0.00000000E+00  0.00000000E+00  0.00000000E+00
  0.00000000E+00  0.00000000E+00  0.00000000E+00
  0.00000000E+00  0.00000000E+00  0.00000000E+00
  0.00000000E+00  0.00000000E+00  0.00000000E+00
  0.00000000E+00  0.00000000E+00  0.00000000E+00
  0.00000000E+00  0.00000000E+00  0.00000000E+00
  0.00000000E+00  0.00000000E+00  0.00000000E+00
  0.00000000E+00  0.00000000E+00  0.00000000E+00
  0.00000000E+00  0.00000000E+00  0.00000000E+00
  0.00000000E+00  0.00000000E+00  0.00000000E+00
  0.00000000E+00  0.00000000E+00  0.00000000E+00
  0.00000000E+00  0.00000000E+00  0.00000000E+00
  0.00000000E+00  0.00000000E+00  0.00000000E+00
  0.00000000E+00  0.00000000E+00  0.00000000E+00
  0.00000000E+00  0.00000000E+00  0.00000000E+00
  0.00000000E+00  0.00000000E+00  0.00000000E+00
  0.00000000E+00  0.00000000E+00  0.00000000E+00
  0.00000000E+00  0.00000000E+00  0.00000000E+00
  0.00000000E+00  0.00000000E+00  0.00000000E+00
  0.00000000E+00  0.00000000E+00  0.00000000E+00
  0.00000000E+00  0.00000000E+00  0.00000000E+00
  0.00000000E+00  0.00000000E+00  0.00000000E+00
  0.00000000E+00  0.00000000E+00  0.00000000E+00
  0.00000000E+00  0.00000000E+00  0.00000000E+00
  0.00000000E+00  0.00000000E+00  0.00000000E+00
  0.00000000E+00  0.00000000E+00  0.00000000E+00
  0.00000000E+00  0.00000000E+00  0.00000000E+00
  0.00000000E+00  0.00000000E+00  0.00000000E+00
  0.00000000E+00  0.00000000E+00  0.00000000E+00
  0.00000000E+00  0.00000000E+00  0.00000000E+00
  0.00000000E+00  0.00000000E+00  0.00000000E+00
  0.00000000E+00  0.00000000E+00  0.00000000E+00
  0.00000000E+00  0.00000000E+00  0.00000000E+00
  0.00000000E+00  0.00000000E+00  0.00000000E+00
  0.00000000E+00  0.00000000E+00  0.00000000E+00
  0.00000000E+00  0.00000000E+00  0.00000000E+00
  0.00000000E+00  0.00000000E+00  0.00000000E+00
  0.00000000E+00  0.00000000E+00  0.00000000E+00
  0.00000000E+00  0.00000000E+00  0.00000000E+00
  0.00000000E+00  0.00000000E+00  0.00000000E+00
  0.00000000E+00  0.00000000E+00  0.00000000E+00
  0.00000000E+00  0.00000000E+00  0.00000000E+00
  0.00000000E+00  0.00000000E+00  0.00000000E+00
  0.00000000E+00  0.00000000E+00  0.00000000E+00
  0.00000000E+00  0.00000000E+00  0.00000000E+00
  0.00000000E+00  0.00000000E+00  0.00000000E+00
  0.00000000E+00  0.00000000E+00  0.00000000E+00
  0.00000000E+00  0.00000000E+00  0.00000000E+00
  0.00000000E+00  0.00000000E+00  0.00000000E+00
  0.00000000E+00  0.00000000E+00  0.00000000E+00
  0.00000000E+00  0.00000000E+00  0.00000000E+00
  0.00000000E+00  0.00000000E+00  0.00000000E+00
  0.00000000E+00  0.00000000E+00  0.00000000E+00
  0.00000000E+00  0.00000000E+00  0.00000000E+00
  0.00000000E+00  0.00000000E+00  0.00000000E+00
  0.00000000E+00  0.00000000E+00  0.00000000E+00
