supercell of 100% icsd_608626.cif, 0% i 
   1.00000000000000     
    -9.4420595940084553    0.0015763420769124    0.0012200541304408
    -4.7223949453383867    8.1794272897210032    0.0000025773635283
     0.0013028787386738    0.0007490401013200  -10.0790110566368263
   Ge   Al   Ca   N 
     1    34     1    36
Direct
  0.1119969706973620  0.0939976896961880  0.2934002893796119
  0.2212055689954155  0.2060222170664048  0.0452043378541731
  0.7777176337201723  0.0941616302831605  0.7964327524447512
  0.8886500792446128  0.2056749007683294  0.5489143501550018
  0.4476882600026997  0.0926574222716212  0.2942581890936040
  0.5588557923357413  0.2051373132913383  0.0460186754856835
  0.1109200528959207  0.0945397510580293  0.7961795214230918
  0.2229521978816180  0.2035339812488388  0.5483669042668780
  0.7761031844364581  0.0923067570994434  0.2930339901901675
  0.8850506238380476  0.2074756865308629  0.0456300446431825
  0.4448300915188739  0.0944763327378766  0.7965032466517883
  0.5568622884434333  0.2038480907512366  0.5456924964380860
  0.1066582670307028  0.4284540290837882  0.2979420437558957
  0.7777176846202494  0.4281214994911053  0.7964325364250016
  0.8866594942878763  0.5397884279118443  0.5454745189767181
  0.4494602372544065  0.4252699819317840  0.2977973130850273
  0.5588556505968256  0.5360077252281030  0.0460184781056299
  0.1102953708411576  0.4276944692993823  0.7887008999132519
  0.2226101383245762  0.5386948885672922  0.5486158785763564
  0.7761037178828047  0.4315912645823872  0.2930340529840265
  0.8879593332317626  0.5361825269034028  0.0461164426260652
  0.4455546516346018  0.4272226430298716  0.7887642170812370
  0.5568621021891005  0.5392898006390610  0.5456925330641056
  0.1066584546560279  0.7648846073329949  0.2979419196908637
  0.2212061432178629  0.8727710752206477  0.0452038513391599
  0.7783950857925248  0.7608033277347843  0.7965071553455587
  0.8866597725970635  0.8735523375422218  0.5454745228928246
  0.4476896330307980  0.7596540836877423  0.2942581129462667
  0.5562953189966464  0.8718527388509187  0.0451703606478233
  0.1102953994831566  0.7620092509452050  0.7887012786390173
  0.2229525957045269  0.8735120093374960  0.5483677165108318
  0.7777090485417375  0.7611464420180951  0.2950665128644090
  0.8879595787428229  0.8758594577073779  0.0461166686319530
  0.4448301808242974  0.7606944344955338  0.7965033275472777
  0.5559034215963905  0.8720483199452147  0.5460938128707511
  0.2214614634481435  0.5392688953637332  0.0463078852448646
  0.2232951036015436  0.2011375945261378  0.3569145716611786
  0.1114735567755147  0.0942625040136207  0.1052453681505625
  0.8893770660662881  0.2053119936749539  0.8555560258696460
  0.7781443401812353  0.0947856898157298  0.6056475360192835
  0.5568899958161566  0.2024336528780992  0.3569460435341085
  0.4442500814730224  0.0945400424137190  0.1042111872975866
  0.2216855071461978  0.2059079455726192  0.8542201649404149
  0.1105783069009263  0.0947102300745257  0.6057732579176545
  0.8909589366444806  0.2045204626965145  0.3542856035684778
  0.7775230898822940  0.0943689968836807  0.1042610699419981
  0.5552726644809951  0.2061606961590314  0.8540536640363356
  0.4445642296117143  0.0940568408207056  0.6055235297152990
  0.2223575453496238  0.5388201518154858  0.3527665377380060
  0.0951868087012286  0.4109471410695704  0.1159104871886143
  0.8897853073879176  0.5383764318118693  0.8541114631969791
  0.7781444312375285  0.4270701346455610  0.6056473429418787
  0.5568904152575556  0.5406764615280153  0.3569461093109254
  0.4757720453915368  0.4121144539176953  0.1150371194752324
  0.2221607363485560  0.5389192772532141  0.8229879861564910
  0.1091375133882906  0.4253599702759416  0.5982800241828201
  0.8852184068685816  0.5409592140046229  0.3569144920205787
  0.7775228441346940  0.4281097004737191  0.1042611283215891
  0.5552725779250451  0.5385673120338978  0.8540534640373849
  0.4488613600603415  0.4255694176426630  0.5986909523988828
  0.2232965558381323  0.8755624930669015  0.3569153507048668
  0.0951873224797950  0.7938654025891694  0.1159106366782154
  0.8897854930209448  0.8718393525262087  0.8541117667759508
  0.7774030190004027  0.7612988702144321  0.6058346463935820
  0.5553727398893287  0.8723140399787752  0.3547568478433618
  0.4442503459629350  0.7612105918246144  0.1042112251544509
  0.2216857005034569  0.8724060503175579  0.8542199488090318
  0.1091373362368202  0.7655019118285864  0.5982805743341402
  0.8852186959902184  0.8738236158669892  0.3569144417827985
  0.7785039582112603  0.7607487934467869  0.1041795192230452
  0.5556859806538625  0.8721575028437059  0.8549593563624143
  0.4445644930451351  0.7613790498414232  0.6055237185252267
 
  0.00000000E+00  0.00000000E+00  0.00000000E+00
  0.00000000E+00  0.00000000E+00  0.00000000E+00
  0.00000000E+00  0.00000000E+00  0.00000000E+00
  0.00000000E+00  0.00000000E+00  0.00000000E+00
  0.00000000E+00  0.00000000E+00  0.00000000E+00
  0.00000000E+00  0.00000000E+00  0.00000000E+00
  0.00000000E+00  0.00000000E+00  0.00000000E+00
  0.00000000E+00  0.00000000E+00  0.00000000E+00
  0.00000000E+00  0.00000000E+00  0.00000000E+00
  0.00000000E+00  0.00000000E+00  0.00000000E+00
  0.00000000E+00  0.00000000E+00  0.00000000E+00
  0.00000000E+00  0.00000000E+00  0.00000000E+00
  0.00000000E+00  0.00000000E+00  0.00000000E+00
  0.00000000E+00  0.00000000E+00  0.00000000E+00
  0.00000000E+00  0.00000000E+00  0.00000000E+00
  0.00000000E+00  0.00000000E+00  0.00000000E+00
  0.00000000E+00  0.00000000E+00  0.00000000E+00
  0.00000000E+00  0.00000000E+00  0.00000000E+00
  0.00000000E+00  0.00000000E+00  0.00000000E+00
  0.00000000E+00  0.00000000E+00  0.00000000E+00
  0.00000000E+00  0.00000000E+00  0.00000000E+00
  0.00000000E+00  0.00000000E+00  0.00000000E+00
  0.00000000E+00  0.00000000E+00  0.00000000E+00
  0.00000000E+00  0.00000000E+00  0.00000000E+00
  0.00000000E+00  0.00000000E+00  0.00000000E+00
  0.00000000E+00  0.00000000E+00  0.00000000E+00
  0.00000000E+00  0.00000000E+00  0.00000000E+00
  0.00000000E+00  0.00000000E+00  0.00000000E+00
  0.00000000E+00  0.00000000E+00  0.00000000E+00
  0.00000000E+00  0.00000000E+00  0.00000000E+00
  0.00000000E+00  0.00000000E+00  0.00000000E+00
  0.00000000E+00  0.00000000E+00  0.00000000E+00
  0.00000000E+00  0.00000000E+00  0.00000000E+00
  0.00000000E+00  0.00000000E+00  0.00000000E+00
  0.00000000E+00  0.00000000E+00  0.00000000E+00
  0.00000000E+00  0.00000000E+00  0.00000000E+00
  0.00000000E+00  0.00000000E+00  0.00000000E+00
  0.00000000E+00  0.00000000E+00  0.00000000E+00
  0.00000000E+00  0.00000000E+00  0.00000000E+00
  0.00000000E+00  0.00000000E+00  0.00000000E+00
  0.00000000E+00  0.00000000E+00  0.00000000E+00
  0.00000000E+00  0.00000000E+00  0.00000000E+00
  0.00000000E+00  0.00000000E+00  0.00000000E+00
  0.00000000E+00  0.00000000E+00  0.00000000E+00
  0.00000000E+00  0.00000000E+00  0.00000000E+00
  0.00000000E+00  0.00000000E+00  0.00000000E+00
  0.00000000E+00  0.00000000E+00  0.00000000E+00
  0.00000000E+00  0.00000000E+00  0.00000000E+00
  0.00000000E+00  0.00000000E+00  0.00000000E+00
  0.00000000E+00  0.00000000E+00  0.00000000E+00
  0.00000000E+00  0.00000000E+00  0.00000000E+00
  0.00000000E+00  0.00000000E+00  0.00000000E+00
  0.00000000E+00  0.00000000E+00  0.00000000E+00
  0.00000000E+00  0.00000000E+00  0.00000000E+00
  0.00000000E+00  0.00000000E+00  0.00000000E+00
  0.00000000E+00  0.00000000E+00  0.00000000E+00
  0.00000000E+00  0.00000000E+00  0.00000000E+00
  0.00000000E+00  0.00000000E+00  0.00000000E+00
  0.00000000E+00  0.00000000E+00  0.00000000E+00
  0.00000000E+00  0.00000000E+00  0.00000000E+00
  0.00000000E+00  0.00000000E+00  0.00000000E+00
  0.00000000E+00  0.00000000E+00  0.00000000E+00
  0.00000000E+00  0.00000000E+00  0.00000000E+00
  0.00000000E+00  0.00000000E+00  0.00000000E+00
  0.00000000E+00  0.00000000E+00  0.00000000E+00
  0.00000000E+00  0.00000000E+00  0.00000000E+00
  0.00000000E+00  0.00000000E+00  0.00000000E+00
  0.00000000E+00  0.00000000E+00  0.00000000E+00
  0.00000000E+00  0.00000000E+00  0.00000000E+00
  0.00000000E+00  0.00000000E+00  0.00000000E+00
  0.00000000E+00  0.00000000E+00  0.00000000E+00
  0.00000000E+00  0.00000000E+00  0.00000000E+00
