Al   Sc   N    O                        
   1.00000000000000     
    -9.4431750429135768   -0.0000454478945517   -0.0000376427535115
    -4.7216270279787951    8.1742103989566743   -0.0025064267230016
     0.0000394415816389    0.0033034432339648  -10.0075321550993106
   Al   Sc   N    O 
    34     2    35     1
Direct
  0.1106858344859916  0.0956658197869160  0.4133136141131999
  0.2225243213706349  0.2082467989559333  0.1581780313409169
  0.7734563877687890  0.0958840839595467  0.9056298441054054
  0.8817753497640410  0.2090576784671185  0.6529964962010553
  0.4460144419047367  0.0942951517350608  0.4050039702098758
  0.5554176156626127  0.2062022636276595  0.1549817388603714
  0.2262044321249093  0.2090576029480502  0.6529964840775477
  0.7767278799825377  0.0942952102159751  0.4050039803950796
  0.8862664021904081  0.2082468056819451  0.1581780385556399
  0.4476971014663036  0.0958840535867935  0.9056298312505078
  0.5557989584573804  0.2054394911072137  0.6560436560219784
  0.1181736489836069  0.4256968073588894  0.4067078693580726
  0.2220853046199593  0.5365827846676012  0.1547167668576677
  0.7731415085522499  0.4302647876959256  0.9063951429894459
  0.8889720381630610  0.5390933915178806  0.6582521333714837
  0.4446539039429069  0.4277296949438565  0.4055218248593349
  0.5583694015820768  0.5365827865914525  0.1547167823961288
  0.1136312982583334  0.4302647540147078  0.9063951187936681
  0.2227712495902523  0.5381388002012741  0.6562327773250445
  0.7731671623083898  0.4256968197365580  0.4067078699224353
  0.8890915364775296  0.5388545073030500  0.1457019926376049
  0.4446351915978894  0.4277670670781788  0.9043102488759871
  0.5561273603903629  0.5381388027183291  0.6562327951964377
  0.1101294737459000  0.7606107654115490  0.4104473820364944
  0.7773381381554429  0.7623611216100912  0.9057766483750527
  0.8879403525903484  0.8729861289790932  0.6559709623783831
  0.4462973510682673  0.7606106924958809  0.4104473736193626
  0.5587366711811654  0.8714680306883551  0.1545336550217655
  0.1097079761379689  0.7552858281364294  0.9023222328936740
  0.2254556179785112  0.8661261872916057  0.6544319476347553
  0.7741037559882216  0.7688300705969908  0.4074224307876406
  0.8868328000823311  0.8714680013322962  0.1545336436004376
  0.4520435620270291  0.7552858091896368  0.9023222568907556
  0.5561109671977960  0.8729861135848864  0.6559709627547932
  0.1090890304350864  0.0988595034113189  0.8921400606373737
  0.2237031278656261  0.8696311404463373  0.1534255039357433
  0.2211481403552042  0.2068295559360109  0.3504279361848930
  0.1019220912161174  0.1131933433796277  0.1017054213486972
  0.8647105239082933  0.2179332932951397  0.8402210639016943
  0.7766820595548936  0.0935389239959719  0.5944641913276385
  0.5553561582920992  0.2063251911381272  0.3458112307681276
  0.4443291842433084  0.0944216463453884  0.0981654947963477
  0.2343937372288849  0.2179332507961007  0.8402210304023328
  0.1104466936726141  0.0961440279468562  0.6077731618994520
  0.8890598397714484  0.2068295554260331  0.3504279456950101
  0.7782866964042654  0.0944216332941892  0.0981655110383528
  0.5555264944434555  0.2059845165942491  0.8469565648963311
  0.4468164847395286  0.0935388811066460  0.5944641761005229
  0.2211783387274338  0.5401413037373501  0.3465014652516700
  0.1109347005363830  0.4276188891409163  0.0994834833924330
  0.8893685592772087  0.5383004589821638  0.8496647165374185
  0.7780029066840370  0.4311348137056683  0.5936452946117612
  0.5557179510108412  0.5401412404301524  0.3465014822657508
  0.4442549942783600  0.4285275012899632  0.0968502868650631
  0.2234151791000514  0.5369386166577073  0.8455325517616572
  0.1078997785933069  0.4311347552216915  0.5936452868449180
  0.7784839548484968  0.4276189151306014  0.0994835163435539
  0.5566836961988741  0.5369386010575425  0.8455325856625961
  0.4446341791540291  0.4277690870165998  0.5962072864046561
  0.2221783344332025  0.8726808995209083  0.3645746496432380
  0.1008348176532294  0.7507899662809763  0.0911700673252014
  0.8867729799506563  0.8736611386215856  0.8461754925327725
  0.7789418790728746  0.7591537246485771  0.5954422299740756
  0.5568075198577205  0.8705892766289054  0.3465077163320984
  0.4654126685857634  0.7507899951819326  0.0911701089987886
  0.2330904650663257  0.8508564539052799  0.8460547569544090
  0.1093892125168807  0.7596225459666215  0.5993877423531018
  0.8896407345185082  0.8705893203171016  0.3465077132817811
  0.7783316646265135  0.7603741742626013  0.0982220796528139
  0.5566032911673773  0.8736611123502485  0.8461755028099915
  0.4480256958798279  0.7596225365494078  0.5993877552101168
  0.8887811807265891  0.5394752961684262  0.3446624320085050
 
  0.00000000E+00  0.00000000E+00  0.00000000E+00
  0.00000000E+00  0.00000000E+00  0.00000000E+00
  0.00000000E+00  0.00000000E+00  0.00000000E+00
  0.00000000E+00  0.00000000E+00  0.00000000E+00
  0.00000000E+00  0.00000000E+00  0.00000000E+00
  0.00000000E+00  0.00000000E+00  0.00000000E+00
  0.00000000E+00  0.00000000E+00  0.00000000E+00
  0.00000000E+00  0.00000000E+00  0.00000000E+00
  0.00000000E+00  0.00000000E+00  0.00000000E+00
  0.00000000E+00  0.00000000E+00  0.00000000E+00
  0.00000000E+00  0.00000000E+00  0.00000000E+00
  0.00000000E+00  0.00000000E+00  0.00000000E+00
  0.00000000E+00  0.00000000E+00  0.00000000E+00
  0.00000000E+00  0.00000000E+00  0.00000000E+00
  0.00000000E+00  0.00000000E+00  0.00000000E+00
  0.00000000E+00  0.00000000E+00  0.00000000E+00
  0.00000000E+00  0.00000000E+00  0.00000000E+00
  0.00000000E+00  0.00000000E+00  0.00000000E+00
  0.00000000E+00  0.00000000E+00  0.00000000E+00
  0.00000000E+00  0.00000000E+00  0.00000000E+00
  0.00000000E+00  0.00000000E+00  0.00000000E+00
  0.00000000E+00  0.00000000E+00  0.00000000E+00
  0.00000000E+00  0.00000000E+00  0.00000000E+00
  0.00000000E+00  0.00000000E+00  0.00000000E+00
  0.00000000E+00  0.00000000E+00  0.00000000E+00
  0.00000000E+00  0.00000000E+00  0.00000000E+00
  0.00000000E+00  0.00000000E+00  0.00000000E+00
  0.00000000E+00  0.00000000E+00  0.00000000E+00
  0.00000000E+00  0.00000000E+00  0.00000000E+00
  0.00000000E+00  0.00000000E+00  0.00000000E+00
  0.00000000E+00  0.00000000E+00  0.00000000E+00
  0.00000000E+00  0.00000000E+00  0.00000000E+00
  0.00000000E+00  0.00000000E+00  0.00000000E+00
  0.00000000E+00  0.00000000E+00  0.00000000E+00
  0.00000000E+00  0.00000000E+00  0.00000000E+00
  0.00000000E+00  0.00000000E+00  0.00000000E+00
  0.00000000E+00  0.00000000E+00  0.00000000E+00
  0.00000000E+00  0.00000000E+00  0.00000000E+00
  0.00000000E+00  0.00000000E+00  0.00000000E+00
  0.00000000E+00  0.00000000E+00  0.00000000E+00
  0.00000000E+00  0.00000000E+00  0.00000000E+00
  0.00000000E+00  0.00000000E+00  0.00000000E+00
  0.00000000E+00  0.00000000E+00  0.00000000E+00
  0.00000000E+00  0.00000000E+00  0.00000000E+00
  0.00000000E+00  0.00000000E+00  0.00000000E+00
  0.00000000E+00  0.00000000E+00  0.00000000E+00
  0.00000000E+00  0.00000000E+00  0.00000000E+00
  0.00000000E+00  0.00000000E+00  0.00000000E+00
  0.00000000E+00  0.00000000E+00  0.00000000E+00
  0.00000000E+00  0.00000000E+00  0.00000000E+00
  0.00000000E+00  0.00000000E+00  0.00000000E+00
  0.00000000E+00  0.00000000E+00  0.00000000E+00
  0.00000000E+00  0.00000000E+00  0.00000000E+00
  0.00000000E+00  0.00000000E+00  0.00000000E+00
  0.00000000E+00  0.00000000E+00  0.00000000E+00
  0.00000000E+00  0.00000000E+00  0.00000000E+00
  0.00000000E+00  0.00000000E+00  0.00000000E+00
  0.00000000E+00  0.00000000E+00  0.00000000E+00
  0.00000000E+00  0.00000000E+00  0.00000000E+00
  0.00000000E+00  0.00000000E+00  0.00000000E+00
  0.00000000E+00  0.00000000E+00  0.00000000E+00
  0.00000000E+00  0.00000000E+00  0.00000000E+00
  0.00000000E+00  0.00000000E+00  0.00000000E+00
  0.00000000E+00  0.00000000E+00  0.00000000E+00
  0.00000000E+00  0.00000000E+00  0.00000000E+00
  0.00000000E+00  0.00000000E+00  0.00000000E+00
  0.00000000E+00  0.00000000E+00  0.00000000E+00
  0.00000000E+00  0.00000000E+00  0.00000000E+00
  0.00000000E+00  0.00000000E+00  0.00000000E+00
  0.00000000E+00  0.00000000E+00  0.00000000E+00
  0.00000000E+00  0.00000000E+00  0.00000000E+00
  0.00000000E+00  0.00000000E+00  0.00000000E+00
