Al   Sc   N    O                        
   1.00000000000000     
    -9.4431662628980124   -0.0000436313083801   -0.0000347713334256
    -4.7216209350620284    8.1742018427162364   -0.0024679620577573
     0.0000359066281305    0.0033298450526307  -10.0075731961182903
   Al   Sc   N    O 
    34     2    35     1
Direct
  0.1106756152118464  0.0956655402530089  0.4095891122144195
  0.2225165625761605  0.2082440990707397  0.1544566360162136
  0.7734467960608455  0.0958813810325481  0.9018989314988062
  0.8817680140760586  0.2090552593418593  0.6492762365801923
  0.4460049757260407  0.0942935766277202  0.4012761193410057
  0.5554087150799489  0.2061994008419958  0.1512500483385892
  0.2261934721697969  0.2090552142114390  0.6492762004114354
  0.7767182094379592  0.0942936238321579  0.4012761320104730
  0.8862562059668093  0.2082440728054067  0.1544566388099256
  0.4476887363263700  0.0958813707970947  0.9018989110447606
  0.5557891777941109  0.2054383519512157  0.6523102565879810
  0.1181635982643385  0.4256956984251232  0.4029800531931755
  0.2220759157653021  0.5365800537192911  0.1509880199098959
  0.7731316919676772  0.4302625959262159  0.9026678548705718
  0.8889627624896477  0.5390911890192527  0.6545272119829946
  0.4446442618296160  0.4277282484325440  0.4017892175289148
  0.5583608574827679  0.5365800213389704  0.1509880228079581
  0.1136225686442174  0.4302626080897625  0.9026678320406205
  0.2227621456990505  0.5381360070919001  0.6525037127907822
  0.7731575964892912  0.4256956948185433  0.4029800563423933
  0.8890821576761709  0.5388525503534822  0.1419722721800696
  0.4446259722184678  0.4277648054645908  0.9005797373888385
  0.5561185336071688  0.5381359966191113  0.6525037322244955
  0.1101191617351418  0.7606083391646905  0.4067292971025651
  0.7773284298046548  0.7623598373966445  0.9020458004789873
  0.8879302492085586  0.8729844147835237  0.6522419950999563
  0.4462893666417145  0.7606082681569291  0.4067293093893696
  0.5587274629661252  0.8714664101185292  0.1508050215758843
  0.1096997022461110  0.7552840021907485  0.8986011801848051
  0.2254449956693279  0.8661267138866791  0.6507076032187697
  0.7740944467616728  0.7688279513408460  0.4036924183973767
  0.8868229801292742  0.8714663931312074  0.1508050204298144
  0.4520330128039873  0.7552839419002737  0.8986011755247461
  0.5561020539689423  0.8729844058253562  0.6522420007041276
  0.1090813913239614  0.0988541879877971  0.8884274260973157
  0.2236956938118055  0.8696255034909797  0.1497136505697085
  0.2211390314702868  0.2068280218014849  0.3467037083798985
  0.1019151196747359  0.1131866313601577  0.0979909261969780
  0.8647049698344702  0.2179294264256626  0.8364986165946746
  0.7766737479595633  0.0935376503189005  0.5907364021306805
  0.5553470074113207  0.2063227806979810  0.3420804890921048
  0.4443195703735654  0.0944194334850224  0.0944359839155950
  0.2343824967725823  0.2179294361405795  0.8364985655266679
  0.1104367966701787  0.0961431144095570  0.6040475890510919
  0.8890497769940566  0.2068280138690426  0.3467037027769067
  0.7782778619559849  0.0944194186025911  0.0944359937297534
  0.5555171126699818  0.2059826633845105  0.8432242363325742
  0.4468053632931870  0.0935376186933254  0.5907363798816334
  0.2211676823811501  0.5401408709882176  0.3427733274208578
  0.1109259633232327  0.4276151475908705  0.0957566498175169
  0.8893594628336317  0.5382979056007073  0.8459392867373978
  0.7779942787993974  0.4311319480026867  0.5899184083090674
  0.5557083137824677  0.5401408198562692  0.3427733341207997
  0.4442457251080327  0.4285253413419241  0.0931205129082073
  0.2234055679681148  0.5369369293280997  0.8418045197452244
  0.1078905175653162  0.4311319275343735  0.5899183928092100
  0.7784757594838965  0.4276151328204492  0.0957566634773031
  0.5566743260830052  0.5369368695513259  0.8418045421828211
  0.4446243446471456  0.4277680271339079  0.5924754146480353
  0.2221694465917778  0.8726779723586660  0.3608593981071166
  0.1008266013066716  0.7507885911445698  0.0874464278151379
  0.8867649233051225  0.8736582031988860  0.8424470411239469
  0.7789327793978273  0.7591511878031554  0.5917130599063398
  0.5567971360849029  0.8705873474458770  0.3427801151426664
  0.4654016902759395  0.7507885595109798  0.0874464036366334
  0.2330807667634645  0.8508551888033367  0.8423297005214039
  0.1093796936486910  0.7596204771750621  0.5956657140153681
  0.8896323170916034  0.8705873819196484  0.3427801143033022
  0.7783222923202402  0.7603722744795220  0.0944923213364106
  0.5565935832415221  0.8736581831899670  0.8424470448068746
  0.4480165650456271  0.7596204572268235  0.5956657333938651
  0.8887717030297537  0.5394734831756480  0.3409341475207270
 
  0.00000000E+00  0.00000000E+00  0.00000000E+00
  0.00000000E+00  0.00000000E+00  0.00000000E+00
  0.00000000E+00  0.00000000E+00  0.00000000E+00
  0.00000000E+00  0.00000000E+00  0.00000000E+00
  0.00000000E+00  0.00000000E+00  0.00000000E+00
  0.00000000E+00  0.00000000E+00  0.00000000E+00
  0.00000000E+00  0.00000000E+00  0.00000000E+00
  0.00000000E+00  0.00000000E+00  0.00000000E+00
  0.00000000E+00  0.00000000E+00  0.00000000E+00
  0.00000000E+00  0.00000000E+00  0.00000000E+00
  0.00000000E+00  0.00000000E+00  0.00000000E+00
  0.00000000E+00  0.00000000E+00  0.00000000E+00
  0.00000000E+00  0.00000000E+00  0.00000000E+00
  0.00000000E+00  0.00000000E+00  0.00000000E+00
  0.00000000E+00  0.00000000E+00  0.00000000E+00
  0.00000000E+00  0.00000000E+00  0.00000000E+00
  0.00000000E+00  0.00000000E+00  0.00000000E+00
  0.00000000E+00  0.00000000E+00  0.00000000E+00
  0.00000000E+00  0.00000000E+00  0.00000000E+00
  0.00000000E+00  0.00000000E+00  0.00000000E+00
  0.00000000E+00  0.00000000E+00  0.00000000E+00
  0.00000000E+00  0.00000000E+00  0.00000000E+00
  0.00000000E+00  0.00000000E+00  0.00000000E+00
  0.00000000E+00  0.00000000E+00  0.00000000E+00
  0.00000000E+00  0.00000000E+00  0.00000000E+00
  0.00000000E+00  0.00000000E+00  0.00000000E+00
  0.00000000E+00  0.00000000E+00  0.00000000E+00
  0.00000000E+00  0.00000000E+00  0.00000000E+00
  0.00000000E+00  0.00000000E+00  0.00000000E+00
  0.00000000E+00  0.00000000E+00  0.00000000E+00
  0.00000000E+00  0.00000000E+00  0.00000000E+00
  0.00000000E+00  0.00000000E+00  0.00000000E+00
  0.00000000E+00  0.00000000E+00  0.00000000E+00
  0.00000000E+00  0.00000000E+00  0.00000000E+00
  0.00000000E+00  0.00000000E+00  0.00000000E+00
  0.00000000E+00  0.00000000E+00  0.00000000E+00
  0.00000000E+00  0.00000000E+00  0.00000000E+00
  0.00000000E+00  0.00000000E+00  0.00000000E+00
  0.00000000E+00  0.00000000E+00  0.00000000E+00
  0.00000000E+00  0.00000000E+00  0.00000000E+00
  0.00000000E+00  0.00000000E+00  0.00000000E+00
  0.00000000E+00  0.00000000E+00  0.00000000E+00
  0.00000000E+00  0.00000000E+00  0.00000000E+00
  0.00000000E+00  0.00000000E+00  0.00000000E+00
  0.00000000E+00  0.00000000E+00  0.00000000E+00
  0.00000000E+00  0.00000000E+00  0.00000000E+00
  0.00000000E+00  0.00000000E+00  0.00000000E+00
  0.00000000E+00  0.00000000E+00  0.00000000E+00
  0.00000000E+00  0.00000000E+00  0.00000000E+00
  0.00000000E+00  0.00000000E+00  0.00000000E+00
  0.00000000E+00  0.00000000E+00  0.00000000E+00
  0.00000000E+00  0.00000000E+00  0.00000000E+00
  0.00000000E+00  0.00000000E+00  0.00000000E+00
  0.00000000E+00  0.00000000E+00  0.00000000E+00
  0.00000000E+00  0.00000000E+00  0.00000000E+00
  0.00000000E+00  0.00000000E+00  0.00000000E+00
  0.00000000E+00  0.00000000E+00  0.00000000E+00
  0.00000000E+00  0.00000000E+00  0.00000000E+00
  0.00000000E+00  0.00000000E+00  0.00000000E+00
  0.00000000E+00  0.00000000E+00  0.00000000E+00
  0.00000000E+00  0.00000000E+00  0.00000000E+00
  0.00000000E+00  0.00000000E+00  0.00000000E+00
  0.00000000E+00  0.00000000E+00  0.00000000E+00
  0.00000000E+00  0.00000000E+00  0.00000000E+00
  0.00000000E+00  0.00000000E+00  0.00000000E+00
  0.00000000E+00  0.00000000E+00  0.00000000E+00
  0.00000000E+00  0.00000000E+00  0.00000000E+00
  0.00000000E+00  0.00000000E+00  0.00000000E+00
  0.00000000E+00  0.00000000E+00  0.00000000E+00
  0.00000000E+00  0.00000000E+00  0.00000000E+00
  0.00000000E+00  0.00000000E+00  0.00000000E+00
  0.00000000E+00  0.00000000E+00  0.00000000E+00
