Al   Sc   N    O                        
   1.00000000000000     
    -9.7564497200547464   -0.0000054829987766    0.0000255284883780
    -4.8782326199293129    8.4449685103884669   -0.0016602040876286
    -0.0000193644283434   -0.0078722962062283   -9.0927607520383518
   Al   Sc   N    O 
    34     2    35     1
Direct
  0.1092532835911797  0.0984085729965400  0.3405885462615856
  0.2235858240863706  0.2129406445800228  0.0895039531555923
  0.7728934190682537  0.0963363529722727  0.8342484909376964
  0.8869853629500994  0.2046105198167893  0.5815947190330064
  0.4469241154734078  0.0935787417136922  0.3344576330215787
  0.5560642974457011  0.2047864390972407  0.0846788095444992
  0.2253189505218245  0.2046105779657381  0.5815947562208095
  0.7764122279377688  0.0935785957832422  0.3344575842945900
  0.8803886306387128  0.2129405649372060  0.0895039719891315
  0.4476850679204034  0.0963364638649864  0.8342484381593422
  0.5549301348137377  0.2070546915765661  0.5837438900044560
  0.1159073481885144  0.4268885379235314  0.3399001229081975
  0.2191333454054103  0.5363291459582555  0.0838556164030706
  0.7723266545051217  0.4296558889645965  0.8278709160491786
  0.8885745116597050  0.5397656571055975  0.5999074013175658
  0.4446868159389794  0.4275412932271365  0.3314550870652653
  0.5614522249676810  0.5363291179459893  0.0838556602204008
  0.1149320970166912  0.4296559944883143  0.8278708880134360
  0.2256752406980809  0.5379087354020058  0.5846900116478935
  0.7741190421820008  0.4268884228907481  0.3399000775254351
  0.8892505853397594  0.5384136065376595  0.0752938872467226
  0.4448119383768230  0.4272910208798635  0.8378971740639543
  0.5533307887671981  0.5379087581192721  0.5846899551467146
  0.1076619158047905  0.7577219533159933  0.3398436571168659
  0.7764985818955807  0.7639179409895291  0.8309552623772376
  0.8877212221822930  0.8739333968653185  0.5855298124517816
  0.4515312748087865  0.7577219588193032  0.3398435299330700
  0.5602807451161880  0.8704968424564612  0.0836472695414585
  0.1108214831549077  0.7571731381316269  0.8311628025219377
  0.2232672414592685  0.8703807428730954  0.5861364343283171
  0.7752052467232105  0.7665046266314235  0.3363267913655861
  0.8861374085168947  0.8704967032312396  0.0836472510108734
  0.4489205121391535  0.7571731843782743  0.8311629252724657
  0.5552604346857066  0.8739333907188396  0.5855297852967070
  0.1092104736489503  0.0984940579893205  0.8481086140127729
  0.2257377583015767  0.8654393887835141  0.1027268436885791
  0.2239881058585382  0.2063206848007226  0.3707056082371594
  0.1015824408492136  0.1137502622751043  0.1184463203108876
  0.8657840663479703  0.2183657882720880  0.8765850982010974
  0.7766548944678178  0.0950762947761206  0.6224643096511926
  0.5550028223379897  0.2069093990569186  0.3726674536175594
  0.4466722585685758  0.0925242431147453  0.1244713284285694
  0.2327649839285897  0.2183659006756500  0.8765850865624216
  0.1106565913781239  0.0956017905857678  0.6088437173616228
  0.8866062454027812  0.2063205598677484  0.3707055469187139
  0.7777186135867709  0.0925241298346577  0.1244712791125622
  0.5556419310453009  0.2056310388040927  0.8743413235222093
  0.4451837712126547  0.0950763240040899  0.6224642713459261
  0.2248293409626854  0.5367090540159936  0.3754896275587853
  0.1048510154651154  0.4322807299878448  0.1309221547235211
  0.8895122211622848  0.5378902270710668  0.8629088074055886
  0.7779083319460227  0.4283078037191146  0.6153088345785562
  0.5553764774887568  0.5367091073497861  0.3754895550745729
  0.4439192348092078  0.4290763039378902  0.1201726329296093
  0.2211999983382142  0.5387605313613335  0.8717945414477697
  0.1106986055649983  0.4283078694368569  0.6153088461004188
  0.7797831321274842  0.4322806864993751  0.1309221468485191
  0.5569542509019101  0.5387605501588624  0.8717946198129241
  0.4448655866162170  0.4271837363738626  0.6264273517084362
  0.2231842133285866  0.8705467318394042  0.3658152203220766
  0.0991845034477592  0.7497160837252608  0.1290220525055972
  0.8879618955179893  0.8725471229339234  0.8708719475794879
  0.7780905836467937  0.7607339228005330  0.6197973626551274
  0.5575989228880118  0.8726234699762614  0.3760482844864796
  0.4680144385108704  0.7497161098178395  0.1290219443528429
  0.2317794205369239  0.8533562166095763  0.8644331042616642
  0.1101061045796925  0.7602443010943745  0.6181587636419152
  0.8866926894041143  0.8726234289624486  0.3760483270791681
  0.7802048481213077  0.7565052923179536  0.1261939895481348
  0.5564060029749243  0.8725472546968618  0.8708719791997694
  0.4465648043972053  0.7602442483391627  0.6181588647678851
  0.8881691150378970  0.5405766941960977  0.3824787729125774
 
  0.00000000E+00  0.00000000E+00  0.00000000E+00
  0.00000000E+00  0.00000000E+00  0.00000000E+00
  0.00000000E+00  0.00000000E+00  0.00000000E+00
  0.00000000E+00  0.00000000E+00  0.00000000E+00
  0.00000000E+00  0.00000000E+00  0.00000000E+00
  0.00000000E+00  0.00000000E+00  0.00000000E+00
  0.00000000E+00  0.00000000E+00  0.00000000E+00
  0.00000000E+00  0.00000000E+00  0.00000000E+00
  0.00000000E+00  0.00000000E+00  0.00000000E+00
  0.00000000E+00  0.00000000E+00  0.00000000E+00
  0.00000000E+00  0.00000000E+00  0.00000000E+00
  0.00000000E+00  0.00000000E+00  0.00000000E+00
  0.00000000E+00  0.00000000E+00  0.00000000E+00
  0.00000000E+00  0.00000000E+00  0.00000000E+00
  0.00000000E+00  0.00000000E+00  0.00000000E+00
  0.00000000E+00  0.00000000E+00  0.00000000E+00
  0.00000000E+00  0.00000000E+00  0.00000000E+00
  0.00000000E+00  0.00000000E+00  0.00000000E+00
  0.00000000E+00  0.00000000E+00  0.00000000E+00
  0.00000000E+00  0.00000000E+00  0.00000000E+00
  0.00000000E+00  0.00000000E+00  0.00000000E+00
  0.00000000E+00  0.00000000E+00  0.00000000E+00
  0.00000000E+00  0.00000000E+00  0.00000000E+00
  0.00000000E+00  0.00000000E+00  0.00000000E+00
  0.00000000E+00  0.00000000E+00  0.00000000E+00
  0.00000000E+00  0.00000000E+00  0.00000000E+00
  0.00000000E+00  0.00000000E+00  0.00000000E+00
  0.00000000E+00  0.00000000E+00  0.00000000E+00
  0.00000000E+00  0.00000000E+00  0.00000000E+00
  0.00000000E+00  0.00000000E+00  0.00000000E+00
  0.00000000E+00  0.00000000E+00  0.00000000E+00
  0.00000000E+00  0.00000000E+00  0.00000000E+00
  0.00000000E+00  0.00000000E+00  0.00000000E+00
  0.00000000E+00  0.00000000E+00  0.00000000E+00
  0.00000000E+00  0.00000000E+00  0.00000000E+00
  0.00000000E+00  0.00000000E+00  0.00000000E+00
  0.00000000E+00  0.00000000E+00  0.00000000E+00
  0.00000000E+00  0.00000000E+00  0.00000000E+00
  0.00000000E+00  0.00000000E+00  0.00000000E+00
  0.00000000E+00  0.00000000E+00  0.00000000E+00
  0.00000000E+00  0.00000000E+00  0.00000000E+00
  0.00000000E+00  0.00000000E+00  0.00000000E+00
  0.00000000E+00  0.00000000E+00  0.00000000E+00
  0.00000000E+00  0.00000000E+00  0.00000000E+00
  0.00000000E+00  0.00000000E+00  0.00000000E+00
  0.00000000E+00  0.00000000E+00  0.00000000E+00
  0.00000000E+00  0.00000000E+00  0.00000000E+00
  0.00000000E+00  0.00000000E+00  0.00000000E+00
  0.00000000E+00  0.00000000E+00  0.00000000E+00
  0.00000000E+00  0.00000000E+00  0.00000000E+00
  0.00000000E+00  0.00000000E+00  0.00000000E+00
  0.00000000E+00  0.00000000E+00  0.00000000E+00
  0.00000000E+00  0.00000000E+00  0.00000000E+00
  0.00000000E+00  0.00000000E+00  0.00000000E+00
  0.00000000E+00  0.00000000E+00  0.00000000E+00
  0.00000000E+00  0.00000000E+00  0.00000000E+00
  0.00000000E+00  0.00000000E+00  0.00000000E+00
  0.00000000E+00  0.00000000E+00  0.00000000E+00
  0.00000000E+00  0.00000000E+00  0.00000000E+00
  0.00000000E+00  0.00000000E+00  0.00000000E+00
  0.00000000E+00  0.00000000E+00  0.00000000E+00
  0.00000000E+00  0.00000000E+00  0.00000000E+00
  0.00000000E+00  0.00000000E+00  0.00000000E+00
  0.00000000E+00  0.00000000E+00  0.00000000E+00
  0.00000000E+00  0.00000000E+00  0.00000000E+00
  0.00000000E+00  0.00000000E+00  0.00000000E+00
  0.00000000E+00  0.00000000E+00  0.00000000E+00
  0.00000000E+00  0.00000000E+00  0.00000000E+00
  0.00000000E+00  0.00000000E+00  0.00000000E+00
  0.00000000E+00  0.00000000E+00  0.00000000E+00
  0.00000000E+00  0.00000000E+00  0.00000000E+00
  0.00000000E+00  0.00000000E+00  0.00000000E+00
