Al   Sc   N    O                        
   1.00000000000000     
    -9.6572759058330018   -0.0000018498264334    0.0000312713285497
    -4.8286436052835420    8.3587140972062759   -0.0015832747571401
    -0.0000237937562030   -0.0076025201614797   -9.3995180349466665
   Al   Sc   N    O 
    34     2    35     1
Direct
  0.1086633119897868  0.0995883905010970  0.3320474607386501
  0.2242202716295694  0.2129821622676147  0.0838138241417283
  0.7728758049869526  0.0963883148624944  0.8298809500355659
  0.8878310519139845  0.2044557711579458  0.5779274684582418
  0.4467554794165807  0.0936958712360578  0.3304601790976136
  0.5560048367718977  0.2049053276619617  0.0802785629822651
  0.2246280494634973  0.2044558491207766  0.5779274978419338
  0.7764636802295684  0.0936958058198627  0.3304601218387475
  0.8797125943044222  0.2129821009292243  0.0838138277805740
  0.4476507306312385  0.0963884085415074  0.8298808944155027
  0.5550148408571403  0.2068853418148677  0.5798088842662992
  0.1170822649253580  0.4262056963953214  0.3334263311005543
  0.2193905135639511  0.5364159523495999  0.0791116594697954
  0.7726413687369842  0.4300439561548757  0.8254807874667947
  0.8886528328566285  0.5396091519206223  0.5932036262756952
  0.4447116667993853  0.4274915857574584  0.3280073041579428
  0.5611083377586468  0.5364159698406183  0.0791116891776298
  0.1142294682277409  0.4300439900935942  0.8254807758666871
  0.2252519555784787  0.5379349187716258  0.5810789684813216
  0.7736269306902912  0.4262056595051433  0.3334263054265136
  0.8892162052410555  0.5384824228075615  0.0739712180429493
  0.4447168838004956  0.4274811786672217  0.8330505760001188
  0.5537279770355283  0.5379348977622911  0.5810789310043276
  0.1072091103216621  0.7573382087295499  0.3346227077575037
  0.7769157500665287  0.7630835055833387  0.8280468070206126
  0.8878395376866948  0.8737606090738055  0.5817630232513338
  0.4523677141859608  0.7573382203850798  0.3346226725483845
  0.5600532504651810  0.8706529867621811  0.0790377740436270
  0.1114638854947927  0.7574880411537137  0.8270745778883679
  0.2228105401722829  0.8712940595421301  0.5780229813531861
  0.7746027372730566  0.7677095174004975  0.3303284167524723
  0.8862087045978484  0.8706528574449450  0.0790377685670833
  0.4479630918695037  0.7574880893183646  0.8270746256596766
  0.5553149296939779  0.8737606227681098  0.5817630214262621
  0.1097662705155216  0.0973823977769257  0.8442070517531448
  0.2260045850472068  0.8649057262670965  0.0996430667274026
  0.2234169979938443  0.2064665573795423  0.3754444880754235
  0.1010216258643766  0.1148718835748497  0.1219654350023660
  0.8651814967937668  0.2184686469515640  0.8815266653842997
  0.7768517507255979  0.0951585062531421  0.6267150746275902
  0.5550857494157242  0.2067434969216961  0.3771794812182065
  0.4467026365714091  0.0925847588622233  0.1288948237704872
  0.2332646928683459  0.2184686894884535  0.8815266469568215
  0.1110250544335969  0.0948649346281911  0.6150944906322025
  0.8870314055930493  0.2064664998975232  0.3754444515257944
  0.7776277183073574  0.0925846679720621  0.1288947789825272
  0.5556009135269235  0.2057130524287345  0.8783785568327858
  0.4449047652125842  0.0951585588117396  0.6267150258757397
  0.2243763596301847  0.5367090004547990  0.3800200843774491
  0.1059161478461448  0.4317481393798985  0.1336701685979307
  0.8894879907961553  0.5379387961795103  0.8699554484626120
  0.7780402513960709  0.4280806908000727  0.6214121943805395
  0.5558294942161695  0.5367090524717852  0.3800200341112827
  0.4439045091377807  0.4291058859486796  0.1251283224433237
  0.2212867597501642  0.5390504683945494  0.8760221044924918
  0.1107939306380814  0.4280807475245538  0.6214121911815340
  0.7792506654033460  0.4317481119711957  0.1336701826310858
  0.5565775940569324  0.5390505063826367  0.8760221607591845
  0.4448374891429339  0.4272399887619684  0.6300146296882829
  0.2229104457462014  0.8710941341282634  0.3668071222187166
  0.0984085253916689  0.7489650248006328  0.1340400601012632
  0.8883097387540531  0.8725939957491562  0.8751848265660414
  0.7781075456445166  0.7607000403319262  0.6251086279110609
  0.5578319919776291  0.8724375076163824  0.3804555486650614
  0.4695414610715574  0.7489650674394639  0.1340400259791750
  0.2323374397927012  0.8522401029200637  0.8729742293363074
  0.1106659686634188  0.7607537574049985  0.6227233407793378
  0.8866454988773995  0.8724374916438791  0.3804555523068842
  0.7797118539156642  0.7574912705045733  0.1294701506357185
  0.5560111949742605  0.8725941038624043  0.8751848356710923
  0.4454954623400695  0.7607537308443426  0.6227233863891968
  0.8883183713725629  0.5402781302688808  0.3843682492191007
 
  0.00000000E+00  0.00000000E+00  0.00000000E+00
  0.00000000E+00  0.00000000E+00  0.00000000E+00
  0.00000000E+00  0.00000000E+00  0.00000000E+00
  0.00000000E+00  0.00000000E+00  0.00000000E+00
  0.00000000E+00  0.00000000E+00  0.00000000E+00
  0.00000000E+00  0.00000000E+00  0.00000000E+00
  0.00000000E+00  0.00000000E+00  0.00000000E+00
  0.00000000E+00  0.00000000E+00  0.00000000E+00
  0.00000000E+00  0.00000000E+00  0.00000000E+00
  0.00000000E+00  0.00000000E+00  0.00000000E+00
  0.00000000E+00  0.00000000E+00  0.00000000E+00
  0.00000000E+00  0.00000000E+00  0.00000000E+00
  0.00000000E+00  0.00000000E+00  0.00000000E+00
  0.00000000E+00  0.00000000E+00  0.00000000E+00
  0.00000000E+00  0.00000000E+00  0.00000000E+00
  0.00000000E+00  0.00000000E+00  0.00000000E+00
  0.00000000E+00  0.00000000E+00  0.00000000E+00
  0.00000000E+00  0.00000000E+00  0.00000000E+00
  0.00000000E+00  0.00000000E+00  0.00000000E+00
  0.00000000E+00  0.00000000E+00  0.00000000E+00
  0.00000000E+00  0.00000000E+00  0.00000000E+00
  0.00000000E+00  0.00000000E+00  0.00000000E+00
  0.00000000E+00  0.00000000E+00  0.00000000E+00
  0.00000000E+00  0.00000000E+00  0.00000000E+00
  0.00000000E+00  0.00000000E+00  0.00000000E+00
  0.00000000E+00  0.00000000E+00  0.00000000E+00
  0.00000000E+00  0.00000000E+00  0.00000000E+00
  0.00000000E+00  0.00000000E+00  0.00000000E+00
  0.00000000E+00  0.00000000E+00  0.00000000E+00
  0.00000000E+00  0.00000000E+00  0.00000000E+00
  0.00000000E+00  0.00000000E+00  0.00000000E+00
  0.00000000E+00  0.00000000E+00  0.00000000E+00
  0.00000000E+00  0.00000000E+00  0.00000000E+00
  0.00000000E+00  0.00000000E+00  0.00000000E+00
  0.00000000E+00  0.00000000E+00  0.00000000E+00
  0.00000000E+00  0.00000000E+00  0.00000000E+00
  0.00000000E+00  0.00000000E+00  0.00000000E+00
  0.00000000E+00  0.00000000E+00  0.00000000E+00
  0.00000000E+00  0.00000000E+00  0.00000000E+00
  0.00000000E+00  0.00000000E+00  0.00000000E+00
  0.00000000E+00  0.00000000E+00  0.00000000E+00
  0.00000000E+00  0.00000000E+00  0.00000000E+00
  0.00000000E+00  0.00000000E+00  0.00000000E+00
  0.00000000E+00  0.00000000E+00  0.00000000E+00
  0.00000000E+00  0.00000000E+00  0.00000000E+00
  0.00000000E+00  0.00000000E+00  0.00000000E+00
  0.00000000E+00  0.00000000E+00  0.00000000E+00
  0.00000000E+00  0.00000000E+00  0.00000000E+00
  0.00000000E+00  0.00000000E+00  0.00000000E+00
  0.00000000E+00  0.00000000E+00  0.00000000E+00
  0.00000000E+00  0.00000000E+00  0.00000000E+00
  0.00000000E+00  0.00000000E+00  0.00000000E+00
  0.00000000E+00  0.00000000E+00  0.00000000E+00
  0.00000000E+00  0.00000000E+00  0.00000000E+00
  0.00000000E+00  0.00000000E+00  0.00000000E+00
  0.00000000E+00  0.00000000E+00  0.00000000E+00
  0.00000000E+00  0.00000000E+00  0.00000000E+00
  0.00000000E+00  0.00000000E+00  0.00000000E+00
  0.00000000E+00  0.00000000E+00  0.00000000E+00
  0.00000000E+00  0.00000000E+00  0.00000000E+00
  0.00000000E+00  0.00000000E+00  0.00000000E+00
  0.00000000E+00  0.00000000E+00  0.00000000E+00
  0.00000000E+00  0.00000000E+00  0.00000000E+00
  0.00000000E+00  0.00000000E+00  0.00000000E+00
  0.00000000E+00  0.00000000E+00  0.00000000E+00
  0.00000000E+00  0.00000000E+00  0.00000000E+00
  0.00000000E+00  0.00000000E+00  0.00000000E+00
  0.00000000E+00  0.00000000E+00  0.00000000E+00
  0.00000000E+00  0.00000000E+00  0.00000000E+00
  0.00000000E+00  0.00000000E+00  0.00000000E+00
  0.00000000E+00  0.00000000E+00  0.00000000E+00
  0.00000000E+00  0.00000000E+00  0.00000000E+00
