Al   Sc   N    O                        
   1.00000000000000     
    -9.4960234336689062   -0.0000345483775221   -0.0000204142329962
    -4.7480371369009982    8.2196315035380234   -0.0022756387315362
     0.0000145898795695    0.0005023037849782   -9.8645137702726196
   Al   Sc   N    O 
    34     2    35     1
Direct
  0.1111803359344137  0.0945546686165173  0.3902273941554313
  0.2222082280980757  0.2079217096376027  0.1350304695475799
  0.7734109544777681  0.0958568307437844  0.8830316084137593
  0.8804742028957833  0.2097635084383356  0.6292168710335204
  0.4462479972099445  0.0941675687306684  0.3817068075401764
  0.5552815621411042  0.2063523029838237  0.1317604692755694
  0.2266776940357147  0.2097634795703485  0.6292168673153427
  0.7764997663452462  0.0941676079665399  0.3817068203326528
  0.8867854758707310  0.2079217245444411  0.1350304688693882
  0.4476475790807655  0.0958567906553043  0.8830316145997159
  0.5558361338305957  0.2052430844411646  0.6335706909114265
  0.1175786032317276  0.4257996670965767  0.3826661609391664
  0.2223541101581503  0.5364682811090162  0.1325959007938948
  0.7725535712505689  0.4301807725829931  0.8844673657810347
  0.8889896350505708  0.5389361142358382  0.6364866198008556
  0.4448100309008822  0.4272952942593946  0.3829776046258502
  0.5580930135751814  0.5364682912071643  0.1325959136204204
  0.1141811051872352  0.4301807243783600  0.8844673514425025
  0.2224969892912725  0.5381017347614758  0.6327330109189262
  0.7735371360937577  0.4257996797577164  0.3826661367388269
  0.8889533560416467  0.5390087940608908  0.1217499488455402
  0.4444712948376903  0.4279727806670977  0.8812154005434536
  0.5563166571674500  0.5381017388681713  0.6327329990138253
  0.1105922420756116  0.7609008649721787  0.3864358272201613
  0.7770224147724747  0.7628705012974848  0.8832592807540038
  0.8878646619821708  0.8728824697808832  0.6325342098606228
  0.4454222928502958  0.7609008306844629  0.3864358085105550
  0.5588288420878627  0.8714338567991931  0.1322739464474125
  0.1088886991362870  0.7547773613903246  0.8796959693273720
  0.2258781398519147  0.8651591196948303  0.6329594892554198
  0.7743987285886362  0.7681179185966016  0.3841931271511001
  0.8866527078353528  0.8714338367283077  0.1322739417670675
  0.4532493013165038  0.7547773332965804  0.8796959722848499
  0.5561682590693522  0.8728824840633536  0.6325341984979787
  0.1081393375440314  0.1006366138992334  0.8646496517875377
  0.2231951804760612  0.8705251311048627  0.1246062466900852
  0.2211634697872924  0.2062166483939833  0.3298823218138338
  0.1010295362907172  0.1148563174257404  0.0778546940929061
  0.8630927656906522  0.2188067254868855  0.8190591187176182
  0.7762947179434505  0.0934582225823846  0.5733927690538465
  0.5552870088438766  0.2063414498535181  0.3247378244626091
  0.4442490510989145  0.0942063368182389  0.0777530916675815
  0.2350159841749999  0.2188066322588966  0.8190591367470574
  0.1106683889143554  0.0955785554905333  0.5885839684201528
  0.8895353711547003  0.2062166418639890  0.3298823096282746
  0.7784599920948452  0.0942063387942298  0.0777530838530751
  0.5555208383378272  0.2058737695172326  0.8267374319031546
  0.4471624083258376  0.0934582107352497  0.5733927599961959
  0.2216271032785215  0.5397879796057623  0.3262927892096812
  0.1111537251326169  0.4276129041533565  0.0797194356206816
  0.8894165419960984  0.5380824651372293  0.8304264989213834
  0.7781844620948632  0.4316230128397649  0.5720960959672112
  0.5555004403094443  0.5397879440914934  0.3262928002487868
  0.4440894138321241  0.4287365658184470  0.0759835696111892
  0.2232254434484631  0.5369737111358361  0.8244246837119746
  0.1071079145623060  0.4316229863091365  0.5720961268340545
  0.7781487845793293  0.4276129267435635  0.0797194430364527
  0.5567163764821572  0.5369736921912676  0.8244246675521154
  0.4447419497674332  0.4274314504589896  0.5758030429209953
  0.2220678768356876  0.8727797892492646  0.3400552670256403
  0.1000707247012755  0.7499908148206131  0.0709753481036941
  0.8864817688964735  0.8737637845077870  0.8251100916662892
  0.7792430257671228  0.7584293052182787  0.5746070534019836
  0.5568960428091643  0.8704869030524662  0.3261914784011140
  0.4668538105952038  0.7499908289841315  0.0709753436707885
  0.2331092156259444  0.8506970623151560  0.8285257809862117
  0.1096918335592818  0.7598977981789687  0.5783408603021343
  0.8895325655093913  0.8704869079815438  0.3261914786464502
  0.7781160616124509  0.7606832715910627  0.0778402598904009
  0.5566699443128869  0.8737637501845370  0.8251100797377831
  0.4473257420792791  0.7598977954607165  0.5783408508320989
  0.8886866847129085  0.5395421634991635  0.3224727909404663
 
  0.00000000E+00  0.00000000E+00  0.00000000E+00
  0.00000000E+00  0.00000000E+00  0.00000000E+00
  0.00000000E+00  0.00000000E+00  0.00000000E+00
  0.00000000E+00  0.00000000E+00  0.00000000E+00
  0.00000000E+00  0.00000000E+00  0.00000000E+00
  0.00000000E+00  0.00000000E+00  0.00000000E+00
  0.00000000E+00  0.00000000E+00  0.00000000E+00
  0.00000000E+00  0.00000000E+00  0.00000000E+00
  0.00000000E+00  0.00000000E+00  0.00000000E+00
  0.00000000E+00  0.00000000E+00  0.00000000E+00
  0.00000000E+00  0.00000000E+00  0.00000000E+00
  0.00000000E+00  0.00000000E+00  0.00000000E+00
  0.00000000E+00  0.00000000E+00  0.00000000E+00
  0.00000000E+00  0.00000000E+00  0.00000000E+00
  0.00000000E+00  0.00000000E+00  0.00000000E+00
  0.00000000E+00  0.00000000E+00  0.00000000E+00
  0.00000000E+00  0.00000000E+00  0.00000000E+00
  0.00000000E+00  0.00000000E+00  0.00000000E+00
  0.00000000E+00  0.00000000E+00  0.00000000E+00
  0.00000000E+00  0.00000000E+00  0.00000000E+00
  0.00000000E+00  0.00000000E+00  0.00000000E+00
  0.00000000E+00  0.00000000E+00  0.00000000E+00
  0.00000000E+00  0.00000000E+00  0.00000000E+00
  0.00000000E+00  0.00000000E+00  0.00000000E+00
  0.00000000E+00  0.00000000E+00  0.00000000E+00
  0.00000000E+00  0.00000000E+00  0.00000000E+00
  0.00000000E+00  0.00000000E+00  0.00000000E+00
  0.00000000E+00  0.00000000E+00  0.00000000E+00
  0.00000000E+00  0.00000000E+00  0.00000000E+00
  0.00000000E+00  0.00000000E+00  0.00000000E+00
  0.00000000E+00  0.00000000E+00  0.00000000E+00
  0.00000000E+00  0.00000000E+00  0.00000000E+00
  0.00000000E+00  0.00000000E+00  0.00000000E+00
  0.00000000E+00  0.00000000E+00  0.00000000E+00
  0.00000000E+00  0.00000000E+00  0.00000000E+00
  0.00000000E+00  0.00000000E+00  0.00000000E+00
  0.00000000E+00  0.00000000E+00  0.00000000E+00
  0.00000000E+00  0.00000000E+00  0.00000000E+00
  0.00000000E+00  0.00000000E+00  0.00000000E+00
  0.00000000E+00  0.00000000E+00  0.00000000E+00
  0.00000000E+00  0.00000000E+00  0.00000000E+00
  0.00000000E+00  0.00000000E+00  0.00000000E+00
  0.00000000E+00  0.00000000E+00  0.00000000E+00
  0.00000000E+00  0.00000000E+00  0.00000000E+00
  0.00000000E+00  0.00000000E+00  0.00000000E+00
  0.00000000E+00  0.00000000E+00  0.00000000E+00
  0.00000000E+00  0.00000000E+00  0.00000000E+00
  0.00000000E+00  0.00000000E+00  0.00000000E+00
  0.00000000E+00  0.00000000E+00  0.00000000E+00
  0.00000000E+00  0.00000000E+00  0.00000000E+00
  0.00000000E+00  0.00000000E+00  0.00000000E+00
  0.00000000E+00  0.00000000E+00  0.00000000E+00
  0.00000000E+00  0.00000000E+00  0.00000000E+00
  0.00000000E+00  0.00000000E+00  0.00000000E+00
  0.00000000E+00  0.00000000E+00  0.00000000E+00
  0.00000000E+00  0.00000000E+00  0.00000000E+00
  0.00000000E+00  0.00000000E+00  0.00000000E+00
  0.00000000E+00  0.00000000E+00  0.00000000E+00
  0.00000000E+00  0.00000000E+00  0.00000000E+00
  0.00000000E+00  0.00000000E+00  0.00000000E+00
  0.00000000E+00  0.00000000E+00  0.00000000E+00
  0.00000000E+00  0.00000000E+00  0.00000000E+00
  0.00000000E+00  0.00000000E+00  0.00000000E+00
  0.00000000E+00  0.00000000E+00  0.00000000E+00
  0.00000000E+00  0.00000000E+00  0.00000000E+00
  0.00000000E+00  0.00000000E+00  0.00000000E+00
  0.00000000E+00  0.00000000E+00  0.00000000E+00
  0.00000000E+00  0.00000000E+00  0.00000000E+00
  0.00000000E+00  0.00000000E+00  0.00000000E+00
  0.00000000E+00  0.00000000E+00  0.00000000E+00
  0.00000000E+00  0.00000000E+00  0.00000000E+00
  0.00000000E+00  0.00000000E+00  0.00000000E+00
