Al   Sc   N    O                        
   1.00000000000000     
    -9.8489056233645051   -0.0000218322743209   -0.0000003142923950
    -4.9244673579913645    8.5265077191986638   -0.0020063860748266
    -0.0000014804229252   -0.0024473534655106   -8.7956266249048163
   Al   Sc   N    O 
    34     2    35     1
Direct
  0.1105873570551736  0.0957408031479829  0.3663103436007944
  0.2242101242599759  0.2074609626259587  0.1235292513255359
  0.7742742497967470  0.0953505659603024  0.8680310170459293
  0.8818928145843543  0.2103218950940757  0.6093656883821907
  0.4474072896564252  0.0942688051136642  0.3679420262673929
  0.5550514745249586  0.2068123989509871  0.1159365376432433
  0.2247007684451319  0.2103219447251803  0.6093658031184859
  0.7752392127953911  0.0942687211167552  0.3679419777707196
  0.8852444816099663  0.2074609185853973  0.1235293408861651
  0.4472904361579495  0.0953505959585499  0.8680310057752791
  0.5558487571294322  0.2052177819604921  0.6204933085826525
  0.1135863949356875  0.4281824951879045  0.3629277687805015
  0.2235488436949211  0.5368195809199392  0.1209393503478751
  0.7716310273986977  0.4288918255561569  0.8745969145990529
  0.8890477655984057  0.5388197530685801  0.6321991389131725
  0.4452039731698108  0.4265072842837228  0.3704341392552450
  0.5565470760745725  0.5368194755552622  0.1209394963878481
  0.1163922692779877  0.4288918626991602  0.8745969103619302
  0.2214927083367115  0.5373512461411920  0.6160071769468232
  0.7751465576867318  0.4281824239350485  0.3629277852786004
  0.8886451986835411  0.5396249268598723  0.1006193768625678
  0.4443194534162060  0.4282763886288876  0.8655231303048154
  0.5580714257912831  0.5373511166020677  0.6160070798921851
  0.1096960106091132  0.7598092938597460  0.3722182097337523
  0.7755303080278750  0.7658549082349353  0.8722845013864742
  0.8868671897831604  0.8723037059578402  0.6161580687696500
  0.4474101351989290  0.7598093193244679  0.3722181767013026
  0.5578370364390040  0.8721077787202773  0.1200638759523898
  0.1088418730025680  0.7555269150927657  0.8617744660876028
  0.2245918333171772  0.8677320709616225  0.6097686224172136
  0.7763836659728724  0.7641481805546348  0.3654035517266934
  0.8869707302105141  0.8721078488757854  0.1200638340975573
  0.4525468129634689  0.7555268663699408  0.8617745202020544
  0.5577446048645882  0.8723035866597328  0.6161580675261362
  0.1080941606540833  0.1007268884726571  0.8515544390772831
  0.2248158730329806  0.8672839626376216  0.1075373046522543
  0.2236306728414661  0.2064718588290262  0.3469416348460825
  0.1022556842619196  0.1124040900549801  0.1020436994118583
  0.8664542685819470  0.2178375681980498  0.8345558797970938
  0.7756728406910156  0.0937832695175231  0.5884651113477659
  0.5550512629244579  0.2068128177542476  0.3377364660745741
  0.4445412300644449  0.0936497520133344  0.0927018743582195
  0.2326234678264285  0.2178375745624805  0.8345559422961202
  0.1102305627809486  0.0964543104850577  0.5934718874270786
  0.8868129962336653  0.2064717423051405  0.3469417184700774
  0.7787243317819161  0.0936498241726227  0.0927019399829518
  0.5555370431626159  0.2058412599178752  0.8433435690783071
  0.4474591622525423  0.0937832112088302  0.5884651544920416
  0.2232900094733239  0.5389664392019711  0.3430797815429258
  0.1110818511387777  0.4279785559300819  0.0995456470927110
  0.8893355344233811  0.5382441944461718  0.8531341822183904
  0.7801044542891020  0.4335096919617527  0.5822196322975728
  0.5546589909483046  0.5389663707468699  0.3430798438674003
  0.4437444295520194  0.4294264736871654  0.0895740894458825
  0.2228713257275885  0.5364116363820202  0.8378061658056666
  0.1033011244661637  0.4335097178616394  0.5822196666690687
  0.7778549721945751  0.4279784817586005  0.0995456933304553
  0.5576323499458979  0.5364116401087173  0.8378060840524597
  0.4450264722710884  0.4268622192710652  0.5918197674733605
  0.2233192401655728  0.8702770828829571  0.3563512983954382
  0.1005418797299100  0.7502775076744683  0.0879760363622424
  0.8857381953118306  0.8735610747260054  0.8386064087851679
  0.7810101470857376  0.7548951168581723  0.5859697755074649
  0.5565969101750028  0.8714873468711062  0.3426379519649032
  0.4660962917776956  0.7502773243013579  0.0879760523738824
  0.2313697257363643  0.8541762650761981  0.8424061871012825
  0.1090463907932460  0.7597503275773292  0.5939635701843997
  0.8888313200462505  0.8714873023529819  0.3426379620660001
  0.7778555785382366  0.7612043586078840  0.0960255869999287
  0.5576162843558450  0.8735610645458394  0.8386063910058965
  0.4481188183697355  0.7597501716907757  0.5939634809824739
  0.8882775760267734  0.5403603759829778  0.3285048031372639
 
  0.00000000E+00  0.00000000E+00  0.00000000E+00
  0.00000000E+00  0.00000000E+00  0.00000000E+00
  0.00000000E+00  0.00000000E+00  0.00000000E+00
  0.00000000E+00  0.00000000E+00  0.00000000E+00
  0.00000000E+00  0.00000000E+00  0.00000000E+00
  0.00000000E+00  0.00000000E+00  0.00000000E+00
  0.00000000E+00  0.00000000E+00  0.00000000E+00
  0.00000000E+00  0.00000000E+00  0.00000000E+00
  0.00000000E+00  0.00000000E+00  0.00000000E+00
  0.00000000E+00  0.00000000E+00  0.00000000E+00
  0.00000000E+00  0.00000000E+00  0.00000000E+00
  0.00000000E+00  0.00000000E+00  0.00000000E+00
  0.00000000E+00  0.00000000E+00  0.00000000E+00
  0.00000000E+00  0.00000000E+00  0.00000000E+00
  0.00000000E+00  0.00000000E+00  0.00000000E+00
  0.00000000E+00  0.00000000E+00  0.00000000E+00
  0.00000000E+00  0.00000000E+00  0.00000000E+00
  0.00000000E+00  0.00000000E+00  0.00000000E+00
  0.00000000E+00  0.00000000E+00  0.00000000E+00
  0.00000000E+00  0.00000000E+00  0.00000000E+00
  0.00000000E+00  0.00000000E+00  0.00000000E+00
  0.00000000E+00  0.00000000E+00  0.00000000E+00
  0.00000000E+00  0.00000000E+00  0.00000000E+00
  0.00000000E+00  0.00000000E+00  0.00000000E+00
  0.00000000E+00  0.00000000E+00  0.00000000E+00
  0.00000000E+00  0.00000000E+00  0.00000000E+00
  0.00000000E+00  0.00000000E+00  0.00000000E+00
  0.00000000E+00  0.00000000E+00  0.00000000E+00
  0.00000000E+00  0.00000000E+00  0.00000000E+00
  0.00000000E+00  0.00000000E+00  0.00000000E+00
  0.00000000E+00  0.00000000E+00  0.00000000E+00
  0.00000000E+00  0.00000000E+00  0.00000000E+00
  0.00000000E+00  0.00000000E+00  0.00000000E+00
  0.00000000E+00  0.00000000E+00  0.00000000E+00
  0.00000000E+00  0.00000000E+00  0.00000000E+00
  0.00000000E+00  0.00000000E+00  0.00000000E+00
  0.00000000E+00  0.00000000E+00  0.00000000E+00
  0.00000000E+00  0.00000000E+00  0.00000000E+00
  0.00000000E+00  0.00000000E+00  0.00000000E+00
  0.00000000E+00  0.00000000E+00  0.00000000E+00
  0.00000000E+00  0.00000000E+00  0.00000000E+00
  0.00000000E+00  0.00000000E+00  0.00000000E+00
  0.00000000E+00  0.00000000E+00  0.00000000E+00
  0.00000000E+00  0.00000000E+00  0.00000000E+00
  0.00000000E+00  0.00000000E+00  0.00000000E+00
  0.00000000E+00  0.00000000E+00  0.00000000E+00
  0.00000000E+00  0.00000000E+00  0.00000000E+00
  0.00000000E+00  0.00000000E+00  0.00000000E+00
  0.00000000E+00  0.00000000E+00  0.00000000E+00
  0.00000000E+00  0.00000000E+00  0.00000000E+00
  0.00000000E+00  0.00000000E+00  0.00000000E+00
  0.00000000E+00  0.00000000E+00  0.00000000E+00
  0.00000000E+00  0.00000000E+00  0.00000000E+00
  0.00000000E+00  0.00000000E+00  0.00000000E+00
  0.00000000E+00  0.00000000E+00  0.00000000E+00
  0.00000000E+00  0.00000000E+00  0.00000000E+00
  0.00000000E+00  0.00000000E+00  0.00000000E+00
  0.00000000E+00  0.00000000E+00  0.00000000E+00
  0.00000000E+00  0.00000000E+00  0.00000000E+00
  0.00000000E+00  0.00000000E+00  0.00000000E+00
  0.00000000E+00  0.00000000E+00  0.00000000E+00
  0.00000000E+00  0.00000000E+00  0.00000000E+00
  0.00000000E+00  0.00000000E+00  0.00000000E+00
  0.00000000E+00  0.00000000E+00  0.00000000E+00
  0.00000000E+00  0.00000000E+00  0.00000000E+00
  0.00000000E+00  0.00000000E+00  0.00000000E+00
  0.00000000E+00  0.00000000E+00  0.00000000E+00
  0.00000000E+00  0.00000000E+00  0.00000000E+00
  0.00000000E+00  0.00000000E+00  0.00000000E+00
  0.00000000E+00  0.00000000E+00  0.00000000E+00
  0.00000000E+00  0.00000000E+00  0.00000000E+00
  0.00000000E+00  0.00000000E+00  0.00000000E+00
