Al   Sc   N    O                        
   1.00000000000000     
    -9.4431648693924810   -0.0000472644807233   -0.0000405141735974
    -4.7216249314141230    8.1741993676341060   -0.0025448913882458
     0.0000432977980226    0.0032614012726712  -10.0075786791230694
   Al   Sc   N    O 
    34     2    35     1
Direct
  0.1106938388280909  0.0956701186172708  0.4169710386913863
  0.2225347308807102  0.2082485241866934  0.1618356304912965
  0.7734647968240580  0.0958855311992508  0.9092814458707323
  0.8817862619457415  0.2090595616508892  0.6566586931406917
  0.4460227348969212  0.0942981187090695  0.4086601524449804
  0.5554272030956540  0.2062034146868541  0.1586346954367528
  0.2262119127013165  0.2090594892010174  0.6566586964677796
  0.7767369172570042  0.0942981654746120  0.4086601667528598
  0.8862745976587689  0.2082485243928005  0.1618356479049226
  0.4477075329621840  0.0958855305011355  0.9092814254887145
  0.5558073472884715  0.2054430032317782  0.6596934946784501
  0.1181819436917237  0.4256994306306936  0.4103619319054346
  0.2220938991880530  0.5365844458459463  0.1583714684572755
  0.7731497299944223  0.4302673984982306  0.9100474020607692
  0.8889809586375108  0.5390958630810374  0.6619064793299572
  0.4446626278583139  0.4277325399552367  0.4091727369081681
  0.5583794393969796  0.5365844702399443  0.1583714837287715
  0.1136407975889142  0.4302673335871106  0.9100473714396955
  0.2227807328997002  0.5381404352274899  0.6598859992981545
  0.7731765589441864  0.4256994448005003  0.4103619414725088
  0.8891006710235487  0.5388565692312852  0.1493508074791094
  0.4446443236779558  0.4277691570818973  0.9079642847292888
  0.5561365440087869  0.5381404473509619  0.6598860264413986
  0.1101376064659831  0.7606127811844061  0.4141112589099833
  0.7773466415257886  0.7623643989226778  0.9094273757373372
  0.8879488330125014  0.8729883558593841  0.6596243083009341
  0.4463074839677432  0.7606127236690909  0.4141112548149763
  0.5587455955179692  0.8714709025803202  0.1581885630480073
  0.1097180266858047  0.7552881093167088  0.9059836511015220
  0.2254636814299786  0.8661303447722375  0.6580907088924803
  0.7741130211808169  0.7688318447918903  0.4110734436705670
  0.8868413041353662  0.8714708360637147  0.1581885575684225
  0.4520515095532858  0.7552881257447055  0.9059836898915137
  0.5561205341166442  0.8729883529822899  0.6596243117989999
  0.1090996779274889  0.0988583631982891  0.8958066306027135
  0.2237136307994021  0.8696304027719890  0.1570956464019915
  0.2211573444755075  0.2068322646216672  0.3540841855751609
  0.1019334662279050  0.1131909252641208  0.1053701487543606
  0.8647226277522222  0.2179338066287144  0.8438806975559885
  0.7766921112083693  0.0935420499608455  0.5981199401993820
  0.5553654436082596  0.2063268893818773  0.3494647486075451
  0.4443385210696036  0.0944236416914066  0.1018183231677199
  0.2344013504557054  0.2179337119690743  0.8438807022359995
  0.1104551808687191  0.0961473604038332  0.6114299962457395
  0.8890681988988689  0.2068322566885215  0.3540842124644641
  0.7782957295026733  0.0944236030597310  0.1018183514853064
  0.5555351320339454  0.2059875379374816  0.8506071483448849
  0.4468235955805895  0.0935420193157910  0.5981199315527235
  0.2211858816656189  0.5401451455981814  0.3501562766120614
  0.1109445154563247  0.4276199447909548  0.1031364549091194
  0.8893775183374331  0.5383028330854245  0.8533190415284437
  0.7780125082826856  0.4311359675612891  0.5973004417905088
  0.5557268384427374  0.5401450855647170  0.3501563118949989
  0.4442640738563526  0.4285296876767362  0.1005046979263327
  0.2234244044948497  0.5369414373665080  0.8491865500225586
  0.1079093556559769  0.4311359109254482  0.5973004334006973
  0.7784934163198756  0.4276199758252872  0.1031365044597976
  0.5566919205325505  0.5369414643704644  0.8491865926536590
  0.4446426864918678  0.4277724034368191  0.5998582304307263
  0.2221875905978123  0.8726826348223611  0.3682414858271770
  0.1008447766889091  0.7507930521415389  0.0948291771777576
  0.8867833230558446  0.8736625477253810  0.8498290801797026
  0.7789508874696338  0.7591560047647334  0.5990942298800732
  0.5568151429645098  0.8705921396868916  0.3501630515787184
  0.4654198890399144  0.7507931176716056  0.0948292300841871
  0.2330993680768216  0.8508588912277446  0.8497120569602572
  0.1093981169115352  0.7596248499902885  0.6030477980897118
  0.8896505215529587  0.8705921785035926  0.3501630429606948
  0.7783403176355463  0.7603771594783382  0.1018743708537997
  0.5566117878368431  0.8736625461069067  0.8498290916549820
  0.4480347854991678  0.7596248569383306  0.6030478164057200
  0.8887902189200148  0.5394775296452892  0.3483158753714477
 
  0.00000000E+00  0.00000000E+00  0.00000000E+00
  0.00000000E+00  0.00000000E+00  0.00000000E+00
  0.00000000E+00  0.00000000E+00  0.00000000E+00
  0.00000000E+00  0.00000000E+00  0.00000000E+00
  0.00000000E+00  0.00000000E+00  0.00000000E+00
  0.00000000E+00  0.00000000E+00  0.00000000E+00
  0.00000000E+00  0.00000000E+00  0.00000000E+00
  0.00000000E+00  0.00000000E+00  0.00000000E+00
  0.00000000E+00  0.00000000E+00  0.00000000E+00
  0.00000000E+00  0.00000000E+00  0.00000000E+00
  0.00000000E+00  0.00000000E+00  0.00000000E+00
  0.00000000E+00  0.00000000E+00  0.00000000E+00
  0.00000000E+00  0.00000000E+00  0.00000000E+00
  0.00000000E+00  0.00000000E+00  0.00000000E+00
  0.00000000E+00  0.00000000E+00  0.00000000E+00
  0.00000000E+00  0.00000000E+00  0.00000000E+00
  0.00000000E+00  0.00000000E+00  0.00000000E+00
  0.00000000E+00  0.00000000E+00  0.00000000E+00
  0.00000000E+00  0.00000000E+00  0.00000000E+00
  0.00000000E+00  0.00000000E+00  0.00000000E+00
  0.00000000E+00  0.00000000E+00  0.00000000E+00
  0.00000000E+00  0.00000000E+00  0.00000000E+00
  0.00000000E+00  0.00000000E+00  0.00000000E+00
  0.00000000E+00  0.00000000E+00  0.00000000E+00
  0.00000000E+00  0.00000000E+00  0.00000000E+00
  0.00000000E+00  0.00000000E+00  0.00000000E+00
  0.00000000E+00  0.00000000E+00  0.00000000E+00
  0.00000000E+00  0.00000000E+00  0.00000000E+00
  0.00000000E+00  0.00000000E+00  0.00000000E+00
  0.00000000E+00  0.00000000E+00  0.00000000E+00
  0.00000000E+00  0.00000000E+00  0.00000000E+00
  0.00000000E+00  0.00000000E+00  0.00000000E+00
  0.00000000E+00  0.00000000E+00  0.00000000E+00
  0.00000000E+00  0.00000000E+00  0.00000000E+00
  0.00000000E+00  0.00000000E+00  0.00000000E+00
  0.00000000E+00  0.00000000E+00  0.00000000E+00
  0.00000000E+00  0.00000000E+00  0.00000000E+00
  0.00000000E+00  0.00000000E+00  0.00000000E+00
  0.00000000E+00  0.00000000E+00  0.00000000E+00
  0.00000000E+00  0.00000000E+00  0.00000000E+00
  0.00000000E+00  0.00000000E+00  0.00000000E+00
  0.00000000E+00  0.00000000E+00  0.00000000E+00
  0.00000000E+00  0.00000000E+00  0.00000000E+00
  0.00000000E+00  0.00000000E+00  0.00000000E+00
  0.00000000E+00  0.00000000E+00  0.00000000E+00
  0.00000000E+00  0.00000000E+00  0.00000000E+00
  0.00000000E+00  0.00000000E+00  0.00000000E+00
  0.00000000E+00  0.00000000E+00  0.00000000E+00
  0.00000000E+00  0.00000000E+00  0.00000000E+00
  0.00000000E+00  0.00000000E+00  0.00000000E+00
  0.00000000E+00  0.00000000E+00  0.00000000E+00
  0.00000000E+00  0.00000000E+00  0.00000000E+00
  0.00000000E+00  0.00000000E+00  0.00000000E+00
  0.00000000E+00  0.00000000E+00  0.00000000E+00
  0.00000000E+00  0.00000000E+00  0.00000000E+00
  0.00000000E+00  0.00000000E+00  0.00000000E+00
  0.00000000E+00  0.00000000E+00  0.00000000E+00
  0.00000000E+00  0.00000000E+00  0.00000000E+00
  0.00000000E+00  0.00000000E+00  0.00000000E+00
  0.00000000E+00  0.00000000E+00  0.00000000E+00
  0.00000000E+00  0.00000000E+00  0.00000000E+00
  0.00000000E+00  0.00000000E+00  0.00000000E+00
  0.00000000E+00  0.00000000E+00  0.00000000E+00
  0.00000000E+00  0.00000000E+00  0.00000000E+00
  0.00000000E+00  0.00000000E+00  0.00000000E+00
  0.00000000E+00  0.00000000E+00  0.00000000E+00
  0.00000000E+00  0.00000000E+00  0.00000000E+00
  0.00000000E+00  0.00000000E+00  0.00000000E+00
  0.00000000E+00  0.00000000E+00  0.00000000E+00
  0.00000000E+00  0.00000000E+00  0.00000000E+00
  0.00000000E+00  0.00000000E+00  0.00000000E+00
  0.00000000E+00  0.00000000E+00  0.00000000E+00
