supercell of POSCAR                     
   1.01800000000000     
     3.1310994802600001   -5.4896946145000003   10.0244832682999991
    -9.4821132118399998   -5.5089477087900001    0.0170740616273000
     6.3359946057599998  -11.0114127993000004  -10.0652216442999993
   Al   Gd   N    O 
    84    12    95     1
Direct
  0.0888570078567810  0.5822670552678417  0.3347797157003995
  0.4995645672218956  0.3255835642390181  0.2550293174650022
  0.0876816914210679  0.0837824566116439  0.3334193754378703
  0.2524522410120156  0.5793863410508493  0.4924785599827501
  0.3312963065955898  0.3189378653085129  0.0786420778326118
  0.4187832764979547  0.0909384813002916  0.1698873703364399
  0.0071006292920259  0.8436681118065792  0.2543064585598316
  0.1683280284394399  0.3312353213394346  0.4118076123854877
  0.2482109063388762  0.0863352737298584  0.4956343864770503
  0.1628500706047475  0.8364642583908122  0.4155144256945746
  0.3359987761246686  0.6768077861505120  0.3329463471811209
  0.1692596501784607  0.6786093614763189  0.1726675007076039
  0.2506738295591688  0.4004454433574622  0.2524515486942107
  0.3348143791522205  0.1625161757900244  0.3331357646600210
  0.0065629785167474  0.6732739684455069  0.4940284216300057
  0.1678148607891146  0.1574205990100310  0.1695548281280850
  0.2570102724072640  0.9122581301923134  0.2528693185968578
  0.4125342543300192  0.4158008042624033  0.4145274994440697
  0.4987440299977877  0.1622590468481420  0.4967565944069676
  0.0817621937741890  0.9240394417934610  0.0796696592907296
  0.4204314798933950  0.9202347115690515  0.4114875022537916
  0.0879401046523540  0.5844936539481012  0.8335155202247151
  0.4992856875802971  0.3231680280161555  0.7549223999230676
  0.0856832853512870  0.0846719311322417  0.8343739909846306
  0.2487597003135136  0.5711003387652411  0.9864056003572230
  0.3317974359337086  0.3187001093628581  0.5778102785535353
  0.4172492196531437  0.0869941305396722  0.6704216161619598
  0.0072749831939944  0.8431500746659779  0.7552145328042315
  0.1668210145352802  0.3294047614744500  0.9116648526885882
  0.2481462504414083  0.0848006977304578  0.9970145869704439
  0.1627954568611827  0.8370000537145401  0.9168274382512607
  0.3364125482311096  0.6745529184752925  0.8387517133600824
  0.1547739195159323  0.6748613570478099  0.6655016969327363
  0.2490752187520968  0.4017248414324399  0.7518696669727802
  0.3340703536784915  0.1635265052248513  0.8339069470357572
  0.0076954648761003  0.6733032504593481  0.9969101422138280
  0.1669881165174871  0.1587642255428676  0.6688858741948920
  0.2528861122665091  0.9196031813507446  0.7554765879962133
  0.4131970788085013  0.4140591166515293  0.9143163227908602
  0.4983987689127076  0.1630670923400928  0.9970446026914388
  0.0830570997995679  0.9234604521893175  0.5796105198417436
  0.4184064194299566  0.9200994743586861  0.9139355931429733
  0.5928315673824684  0.5833739363875665  0.3349218215856311
  0.0002662713111974  0.3224886052448852  0.2557204792152419
  0.5859934279034889  0.0862150369745223  0.3341015155802012
  0.7522524248109264  0.5788172421546776  0.4949300988861580
  0.8311516537591430  0.3201390389069090  0.0789560638944522
  0.9177041200435028  0.0876525876949827  0.1709864139567614
  0.5076181066810364  0.8439630580697610  0.2544899109838070
  0.6681200822462472  0.3319531460519798  0.4123580390151460
  0.7480287662787788  0.0864541140494453  0.4960107587536911
  0.6622757298132171  0.8365028131959420  0.4159017093091748
  0.8373110285445549  0.6734454645969237  0.3395934602569284
  0.6556989347259048  0.6766093557684201  0.1665178834567129
  0.7519250556595622  0.4036264614735714  0.2523718453645998
  0.8348376319766970  0.1641971868567751  0.3340713526687651
  0.5055291948435112  0.6731832794168398  0.4923448681184794
  0.6676077084866421  0.1609328449343010  0.1694874289951684
  0.7527141208317047  0.9209873015547814  0.2560816276682658
  0.9124552406474038  0.4143180012611936  0.4158645524728044
  0.9990465045873549  0.1614462223845123  0.4967782559026475
  0.5803898594281591  0.9247314163472140  0.0805314188156316
  0.9202462266496170  0.9198290347562477  0.4115311772536785
  0.5890981948135590  0.5850089547728388  0.8341389205139578
  0.9989065484958957  0.3228761979919810  0.7550264649412455
  0.5851946276291571  0.0852795887500832  0.8346475453504567
  0.7504101310613436  0.5792846098234463  0.9954898973736732
  0.8316257205423625  0.3180028730600455  0.5786480991529714
  0.9172752138960973  0.0866994071985872  0.6708374382625593
  0.5069094921817907  0.8438141110394568  0.7552801279313570
  0.6671239179465189  0.3328439060976507  0.9135390169142639
  0.7467238087134191  0.0876638142063513  0.9965134245639433
  0.6619763077790779  0.8375856793160708  0.9161287212250571
  0.8365214079849395  0.6735638888952380  0.8410628875620532
  0.6537549739512798  0.6749635243878558  0.6661155884864201
  0.7490813926775388  0.4019465715457784  0.7527734299395306
  0.8337349041029825  0.1642271715189025  0.8345627869071564
  0.5058937855097128  0.6756803556640349  0.9942188288955123
  0.6669348383092952  0.1585966647305170  0.6692731553593134
  0.7527725420316429  0.9199909237247184  0.7558667675795832
  0.9125533904418290  0.4153458391483156  0.9158134094671979
  0.9979254174534944  0.1625227748029019  0.9973958632513700
  0.5832973048751668  0.9236900733034759  0.5795432972631147
  0.9197035199477028  0.9200016348807551  0.9119992109625485
  0.3979057624884632  0.5871807399803259  0.1802971524629626
  0.3286738005708685  0.8268673370946829  0.0903320763993420
  0.0829975328863171  0.4202171043333820  0.0863669990820171
  0.3981472073567716  0.5795789932801654  0.6784008395452901
  0.3326869644274097  0.8352260819911024  0.5830684073057242
  0.0827022118689769  0.4203358290530090  0.5844938804312605
  0.9024014911034683  0.5819705767111003  0.1776088630801738
  0.8306775785610299  0.8388491435493179  0.0839732593965365
  0.5772374722849136  0.4228037407735670  0.0872393627958772
  0.8980647328886846  0.5787826285580593  0.6795550165109390
  0.8323122645108398  0.8352941730199390  0.5838219569093255
  0.5820827882226922  0.4204790689148439  0.5851275917453762
  0.2146709739152186  0.5707146105747114  0.2688549657154908
  0.0425420664589993  0.6148628499583424  0.1035620597461602
  0.1298280876107825  0.3151497995785917  0.2005454597411358
  0.2139353160251716  0.0788115601559198  0.2714372203570292
  0.3814974372080968  0.5853628711138512  0.4343101859871652
  0.4481226881194118  0.3205954833405826  0.0100960748636965
  0.0401882051694287  0.0864127662234253  0.1032241877868003
  0.1277436949429642  0.8458489766458328  0.1834627258852564
  0.2968362021872508  0.3271481809001671  0.3525991740514201
  0.3773857043347917  0.0808545309813127  0.4351048110895945
  0.4716159257294237  0.8388103690788640  0.0104770443836770
  0.2935998229371108  0.8364604783133913  0.3576583794212382
  0.4792694282790393  0.6846703012411197  0.2878904426338806
  0.3723416992190565  0.3834001256548731  0.1854002055997483
  0.4630117576037591  0.1651353278665084  0.2739229356444852
  0.1336060727936754  0.6655322867412679  0.4327080301231732
  0.2225026569374435  0.4086548353408759  0.0078573862527946
  0.2900209124700410  0.1583001575599710  0.1015813648694532
  0.3894683728377828  0.9343091131596424  0.2000966836479776
  0.0414448093402839  0.4177024908501750  0.3532253013128468
  0.1270373804020224  0.1698406855684738  0.4343370833994413
  0.1981428257666877  0.9290534841361335  0.0123199011922495
  0.0485837896328079  0.9235276951078575  0.3524870210448157
  0.2176176119410513  0.5809007520977261  0.7663506594783982
  0.0318029936710147  0.6122665812416983  0.6006272022161880
  0.1288533145447417  0.3167464373513411  0.6996147589213351
  0.2119238589472516  0.0822261139581215  0.7719136670268796
  0.3820261474819375  0.5834160839936615  0.9357911302500739
  0.4493526581734955  0.3201580649538442  0.5106482469749167
  0.0404818360651262  0.0852786964125372  0.6035835003576295
  0.1318645488588572  0.8426185777398985  0.6857519922257680
  0.2955230331139873  0.3286177927054226  0.8517636450573818
  0.3763123829572805  0.0815513326344472  0.9352095106156213
  0.4764796424972886  0.8383098867723788  0.5075940862210544
  0.2923966345692790  0.8357549535121294  0.8564666201524531
  0.4712742653589501  0.6855756161259805  0.7862836465827598
  0.2631207214539657  0.6540561459526515  0.5940458425924078
  0.3727825455147027  0.3819866342183857  0.6851249719738490
  0.4614725993231019  0.1627992784783174  0.7737028831134438
  0.1332643513713805  0.6656894893793321  0.9321648398917546
  0.2244949495537725  0.4121566569367374  0.5084764615721582
  0.2901031488116672  0.1572885636912744  0.6016504358964312
  0.3844292384123094  0.9281068644005046  0.7014765493186061
  0.0421415981947888  0.4188238719235073  0.8520284929771407
  0.1262250180461564  0.1686378758331628  0.9347742746305698
  0.1967886077280809  0.9312150567167308  0.5104108303037975
  0.0487055510617296  0.9237560903166155  0.8529495541283509
  0.7208907951824415  0.5806600019719212  0.2670025547507890
  0.5327453811908143  0.6178534512818601  0.1000512449769033
  0.6311399089426502  0.3189685709068399  0.2006904201304778
  0.7125043737518695  0.0837201063446145  0.2723456953720600
  0.8822568233504313  0.5836486498104705  0.4375150339727156
  0.9483928708823015  0.3205991744469685  0.0109851597495521
  0.5420057708022128  0.0889950455750892  0.1031723747684339
  0.6336117514950530  0.8445312584692388  0.1858148556389239
  0.7963809725583531  0.3291396142213401  0.3525649284091799
  0.8768918242685828  0.0807162354740498  0.4351920252964376
  0.9747650958410361  0.8379240556387728  0.0078048170712677
  0.7928467814541733  0.8353319446298784  0.3564864020016358
  0.9716767137366134  0.6853883282275461  0.2872835609599420
  0.7653609960408332  0.6565800493128791  0.0955774728729182
  0.8754805443106051  0.3838220165026414  0.1856792389773929
  0.9623811483963109  0.1624222565456890  0.2742226218344825
  0.6358890098438081  0.6654401596024684  0.4337462616718923
  0.7213750611499492  0.4128622563305200  0.0108813540557904
  0.7905627788874625  0.1582586616998611  0.1023178603253143
  0.8838542507973131  0.9294302114152586  0.2026345019465765
  0.5438276122569050  0.4192038571006336  0.3527823382446797
  0.6272495987386719  0.1706944774712653  0.4349782945753162
  0.6941912114228472  0.9327597041674025  0.0102986204750906
  0.5492613194519009  0.9249435102363961  0.3524907362325038
  0.7181961932804199  0.5809748853801224  0.7672378831794973
  0.5316484881826042  0.6130180936885807  0.5995020515136460
  0.6293649373361418  0.3166080702545599  0.6999735983171149
  0.7118335882397275  0.0824385232052620  0.7725019766578711
  0.8821935435285155  0.5839075723790970  0.9389376076511979
  0.9490829373915517  0.3189838591235130  0.5113039871809733
  0.5405942963511379  0.0856678246368503  0.6034263541361966
  0.6320092514924838  0.8431570538459212  0.6859802361704439
  0.7952622083030505  0.3295412060828369  0.8531573752011496
  0.8760329743884085  0.0808759252825695  0.9355649081947774
  0.9755137985070235  0.8380376515638730  0.5079301248215558
  0.7923723049448910  0.8357073985078358  0.8566878228123684
  0.9702737586833834  0.6856245303571669  0.7869714221782687
  0.7634242319570390  0.6542575610058421  0.5958954272261821
  0.8724743188351809  0.3814156679521901  0.6856452144034293
  0.9613138874572371  0.1625683254838108  0.7741765221519827
  0.6336626648382335  0.6665607694929605  0.9328494167804422
  0.7245160717130901  0.4118469059717569  0.5094040771559989
  0.7900934615665776  0.1566140862734358  0.6021640277294580
  0.8845588113397298  0.9279277156267014  0.7021789546446300
  0.5427292619650999  0.4193737579241485  0.8518352684301789
  0.6261642899747457  0.1713684831984281  0.9345098001812246
  0.6973145134079530  0.9312380996985539  0.5103848129619735
  0.5471584701512242  0.9241550683351747  0.8533379504543177
  0.2589106283698968  0.6371332637153984  0.0844724735252314
 
  0.00000000E+00  0.00000000E+00  0.00000000E+00
  0.00000000E+00  0.00000000E+00  0.00000000E+00
  0.00000000E+00  0.00000000E+00  0.00000000E+00
  0.00000000E+00  0.00000000E+00  0.00000000E+00
  0.00000000E+00  0.00000000E+00  0.00000000E+00
  0.00000000E+00  0.00000000E+00  0.00000000E+00
  0.00000000E+00  0.00000000E+00  0.00000000E+00
  0.00000000E+00  0.00000000E+00  0.00000000E+00
  0.00000000E+00  0.00000000E+00  0.00000000E+00
  0.00000000E+00  0.00000000E+00  0.00000000E+00
  0.00000000E+00  0.00000000E+00  0.00000000E+00
  0.00000000E+00  0.00000000E+00  0.00000000E+00
  0.00000000E+00  0.00000000E+00  0.00000000E+00
  0.00000000E+00  0.00000000E+00  0.00000000E+00
  0.00000000E+00  0.00000000E+00  0.00000000E+00
  0.00000000E+00  0.00000000E+00  0.00000000E+00
  0.00000000E+00  0.00000000E+00  0.00000000E+00
  0.00000000E+00  0.00000000E+00  0.00000000E+00
  0.00000000E+00  0.00000000E+00  0.00000000E+00
  0.00000000E+00  0.00000000E+00  0.00000000E+00
  0.00000000E+00  0.00000000E+00  0.00000000E+00
  0.00000000E+00  0.00000000E+00  0.00000000E+00
  0.00000000E+00  0.00000000E+00  0.00000000E+00
  0.00000000E+00  0.00000000E+00  0.00000000E+00
  0.00000000E+00  0.00000000E+00  0.00000000E+00
  0.00000000E+00  0.00000000E+00  0.00000000E+00
  0.00000000E+00  0.00000000E+00  0.00000000E+00
  0.00000000E+00  0.00000000E+00  0.00000000E+00
  0.00000000E+00  0.00000000E+00  0.00000000E+00
  0.00000000E+00  0.00000000E+00  0.00000000E+00
  0.00000000E+00  0.00000000E+00  0.00000000E+00
  0.00000000E+00  0.00000000E+00  0.00000000E+00
  0.00000000E+00  0.00000000E+00  0.00000000E+00
  0.00000000E+00  0.00000000E+00  0.00000000E+00
  0.00000000E+00  0.00000000E+00  0.00000000E+00
  0.00000000E+00  0.00000000E+00  0.00000000E+00
  0.00000000E+00  0.00000000E+00  0.00000000E+00
  0.00000000E+00  0.00000000E+00  0.00000000E+00
  0.00000000E+00  0.00000000E+00  0.00000000E+00
  0.00000000E+00  0.00000000E+00  0.00000000E+00
  0.00000000E+00  0.00000000E+00  0.00000000E+00
  0.00000000E+00  0.00000000E+00  0.00000000E+00
  0.00000000E+00  0.00000000E+00  0.00000000E+00
  0.00000000E+00  0.00000000E+00  0.00000000E+00
  0.00000000E+00  0.00000000E+00  0.00000000E+00
  0.00000000E+00  0.00000000E+00  0.00000000E+00
  0.00000000E+00  0.00000000E+00  0.00000000E+00
  0.00000000E+00  0.00000000E+00  0.00000000E+00
  0.00000000E+00  0.00000000E+00  0.00000000E+00
  0.00000000E+00  0.00000000E+00  0.00000000E+00
  0.00000000E+00  0.00000000E+00  0.00000000E+00
  0.00000000E+00  0.00000000E+00  0.00000000E+00
  0.00000000E+00  0.00000000E+00  0.00000000E+00
  0.00000000E+00  0.00000000E+00  0.00000000E+00
  0.00000000E+00  0.00000000E+00  0.00000000E+00
  0.00000000E+00  0.00000000E+00  0.00000000E+00
  0.00000000E+00  0.00000000E+00  0.00000000E+00
  0.00000000E+00  0.00000000E+00  0.00000000E+00
  0.00000000E+00  0.00000000E+00  0.00000000E+00
  0.00000000E+00  0.00000000E+00  0.00000000E+00
  0.00000000E+00  0.00000000E+00  0.00000000E+00
  0.00000000E+00  0.00000000E+00  0.00000000E+00
  0.00000000E+00  0.00000000E+00  0.00000000E+00
  0.00000000E+00  0.00000000E+00  0.00000000E+00
  0.00000000E+00  0.00000000E+00  0.00000000E+00
  0.00000000E+00  0.00000000E+00  0.00000000E+00
  0.00000000E+00  0.00000000E+00  0.00000000E+00
  0.00000000E+00  0.00000000E+00  0.00000000E+00
  0.00000000E+00  0.00000000E+00  0.00000000E+00
  0.00000000E+00  0.00000000E+00  0.00000000E+00
  0.00000000E+00  0.00000000E+00  0.00000000E+00
  0.00000000E+00  0.00000000E+00  0.00000000E+00
  0.00000000E+00  0.00000000E+00  0.00000000E+00
  0.00000000E+00  0.00000000E+00  0.00000000E+00
  0.00000000E+00  0.00000000E+00  0.00000000E+00
  0.00000000E+00  0.00000000E+00  0.00000000E+00
  0.00000000E+00  0.00000000E+00  0.00000000E+00
  0.00000000E+00  0.00000000E+00  0.00000000E+00
  0.00000000E+00  0.00000000E+00  0.00000000E+00
  0.00000000E+00  0.00000000E+00  0.00000000E+00
  0.00000000E+00  0.00000000E+00  0.00000000E+00
  0.00000000E+00  0.00000000E+00  0.00000000E+00
  0.00000000E+00  0.00000000E+00  0.00000000E+00
  0.00000000E+00  0.00000000E+00  0.00000000E+00
  0.00000000E+00  0.00000000E+00  0.00000000E+00
  0.00000000E+00  0.00000000E+00  0.00000000E+00
  0.00000000E+00  0.00000000E+00  0.00000000E+00
  0.00000000E+00  0.00000000E+00  0.00000000E+00
  0.00000000E+00  0.00000000E+00  0.00000000E+00
  0.00000000E+00  0.00000000E+00  0.00000000E+00
  0.00000000E+00  0.00000000E+00  0.00000000E+00
  0.00000000E+00  0.00000000E+00  0.00000000E+00
  0.00000000E+00  0.00000000E+00  0.00000000E+00
  0.00000000E+00  0.00000000E+00  0.00000000E+00
  0.00000000E+00  0.00000000E+00  0.00000000E+00
  0.00000000E+00  0.00000000E+00  0.00000000E+00
  0.00000000E+00  0.00000000E+00  0.00000000E+00
  0.00000000E+00  0.00000000E+00  0.00000000E+00
  0.00000000E+00  0.00000000E+00  0.00000000E+00
  0.00000000E+00  0.00000000E+00  0.00000000E+00
  0.00000000E+00  0.00000000E+00  0.00000000E+00
  0.00000000E+00  0.00000000E+00  0.00000000E+00
  0.00000000E+00  0.00000000E+00  0.00000000E+00
  0.00000000E+00  0.00000000E+00  0.00000000E+00
  0.00000000E+00  0.00000000E+00  0.00000000E+00
  0.00000000E+00  0.00000000E+00  0.00000000E+00
  0.00000000E+00  0.00000000E+00  0.00000000E+00
  0.00000000E+00  0.00000000E+00  0.00000000E+00
  0.00000000E+00  0.00000000E+00  0.00000000E+00
  0.00000000E+00  0.00000000E+00  0.00000000E+00
  0.00000000E+00  0.00000000E+00  0.00000000E+00
  0.00000000E+00  0.00000000E+00  0.00000000E+00
  0.00000000E+00  0.00000000E+00  0.00000000E+00
  0.00000000E+00  0.00000000E+00  0.00000000E+00
  0.00000000E+00  0.00000000E+00  0.00000000E+00
  0.00000000E+00  0.00000000E+00  0.00000000E+00
  0.00000000E+00  0.00000000E+00  0.00000000E+00
  0.00000000E+00  0.00000000E+00  0.00000000E+00
  0.00000000E+00  0.00000000E+00  0.00000000E+00
  0.00000000E+00  0.00000000E+00  0.00000000E+00
  0.00000000E+00  0.00000000E+00  0.00000000E+00
  0.00000000E+00  0.00000000E+00  0.00000000E+00
  0.00000000E+00  0.00000000E+00  0.00000000E+00
  0.00000000E+00  0.00000000E+00  0.00000000E+00
  0.00000000E+00  0.00000000E+00  0.00000000E+00
  0.00000000E+00  0.00000000E+00  0.00000000E+00
  0.00000000E+00  0.00000000E+00  0.00000000E+00
  0.00000000E+00  0.00000000E+00  0.00000000E+00
  0.00000000E+00  0.00000000E+00  0.00000000E+00
  0.00000000E+00  0.00000000E+00  0.00000000E+00
  0.00000000E+00  0.00000000E+00  0.00000000E+00
  0.00000000E+00  0.00000000E+00  0.00000000E+00
  0.00000000E+00  0.00000000E+00  0.00000000E+00
  0.00000000E+00  0.00000000E+00  0.00000000E+00
  0.00000000E+00  0.00000000E+00  0.00000000E+00
  0.00000000E+00  0.00000000E+00  0.00000000E+00
  0.00000000E+00  0.00000000E+00  0.00000000E+00
  0.00000000E+00  0.00000000E+00  0.00000000E+00
  0.00000000E+00  0.00000000E+00  0.00000000E+00
  0.00000000E+00  0.00000000E+00  0.00000000E+00
  0.00000000E+00  0.00000000E+00  0.00000000E+00
  0.00000000E+00  0.00000000E+00  0.00000000E+00
  0.00000000E+00  0.00000000E+00  0.00000000E+00
  0.00000000E+00  0.00000000E+00  0.00000000E+00
  0.00000000E+00  0.00000000E+00  0.00000000E+00
  0.00000000E+00  0.00000000E+00  0.00000000E+00
  0.00000000E+00  0.00000000E+00  0.00000000E+00
  0.00000000E+00  0.00000000E+00  0.00000000E+00
  0.00000000E+00  0.00000000E+00  0.00000000E+00
  0.00000000E+00  0.00000000E+00  0.00000000E+00
  0.00000000E+00  0.00000000E+00  0.00000000E+00
  0.00000000E+00  0.00000000E+00  0.00000000E+00
  0.00000000E+00  0.00000000E+00  0.00000000E+00
  0.00000000E+00  0.00000000E+00  0.00000000E+00
  0.00000000E+00  0.00000000E+00  0.00000000E+00
  0.00000000E+00  0.00000000E+00  0.00000000E+00
  0.00000000E+00  0.00000000E+00  0.00000000E+00
  0.00000000E+00  0.00000000E+00  0.00000000E+00
  0.00000000E+00  0.00000000E+00  0.00000000E+00
  0.00000000E+00  0.00000000E+00  0.00000000E+00
  0.00000000E+00  0.00000000E+00  0.00000000E+00
  0.00000000E+00  0.00000000E+00  0.00000000E+00
  0.00000000E+00  0.00000000E+00  0.00000000E+00
  0.00000000E+00  0.00000000E+00  0.00000000E+00
  0.00000000E+00  0.00000000E+00  0.00000000E+00
  0.00000000E+00  0.00000000E+00  0.00000000E+00
  0.00000000E+00  0.00000000E+00  0.00000000E+00
  0.00000000E+00  0.00000000E+00  0.00000000E+00
  0.00000000E+00  0.00000000E+00  0.00000000E+00
  0.00000000E+00  0.00000000E+00  0.00000000E+00
  0.00000000E+00  0.00000000E+00  0.00000000E+00
  0.00000000E+00  0.00000000E+00  0.00000000E+00
  0.00000000E+00  0.00000000E+00  0.00000000E+00
  0.00000000E+00  0.00000000E+00  0.00000000E+00
  0.00000000E+00  0.00000000E+00  0.00000000E+00
  0.00000000E+00  0.00000000E+00  0.00000000E+00
  0.00000000E+00  0.00000000E+00  0.00000000E+00
  0.00000000E+00  0.00000000E+00  0.00000000E+00
  0.00000000E+00  0.00000000E+00  0.00000000E+00
  0.00000000E+00  0.00000000E+00  0.00000000E+00
  0.00000000E+00  0.00000000E+00  0.00000000E+00
  0.00000000E+00  0.00000000E+00  0.00000000E+00
  0.00000000E+00  0.00000000E+00  0.00000000E+00
  0.00000000E+00  0.00000000E+00  0.00000000E+00
  0.00000000E+00  0.00000000E+00  0.00000000E+00
  0.00000000E+00  0.00000000E+00  0.00000000E+00
  0.00000000E+00  0.00000000E+00  0.00000000E+00
  0.00000000E+00  0.00000000E+00  0.00000000E+00
  0.00000000E+00  0.00000000E+00  0.00000000E+00
  0.00000000E+00  0.00000000E+00  0.00000000E+00
  0.00000000E+00  0.00000000E+00  0.00000000E+00
  0.00000000E+00  0.00000000E+00  0.00000000E+00
