generated by phonopy                    
   1.00000000000000     
    10.0351470768999995   -0.0000022330999784   -0.0000001056124209
    -5.0175765436399997    8.6906901959899994    0.0000001395531216
    -0.0000001735893656    0.0000001431815548   14.9533752540999991
   Pb   P    O    Cu
    20    12    49     1
Direct
  0.9992072373854555  0.7738181630432734  0.1317158191939214
  0.9952661484478611  0.7736716644933779  0.6425356503866553
  0.9768046763765952  0.2590275227201886  0.3692037689475569
  0.0032503357719165  0.2583963541308449  0.8776950111373836
  0.2260480422494666  0.2264633663372777  0.1287626488730922
  0.1903135299971126  0.1969646647539420  0.6489634960252673
  0.7456048189709037  0.7488036242466833  0.3871912991994435
  0.7451576809188367  0.7483639133792579  0.8756819191527896
  0.7703289137372948  0.9983756002778819  0.1290812313944372
  0.7780435548641549  0.9952621587839161  0.6386901002695495
  0.2512947165147068  0.9988106143843609  0.3784233940211692
  0.2558356549282763  0.9968086079649012  0.8764280433409795
  0.6674635639621158  0.3286740047338625  0.9996684485362053
  0.6600985384400033  0.3210985367177273  0.4972770169250040
  0.3334364864792860  0.6764529119250469  0.0046878266504464
  0.3385108793832501  0.6886501038541653  0.4985704381080396
  0.3355240890752498  0.6455696401403159  0.2467104371992193
  0.3337696253293529  0.6596415462620016  0.7415011248397789
  0.6612996793219210  0.3459399037600974  0.2463525562364453
  0.6600523125982534  0.3455848010045628  0.7466105267884231
  0.6273865507257597  0.5960339066756219  0.1180989887325978
  0.6195013184944713  0.5935010333757162  0.6244989136826433
  0.3648644772034473  0.3923709060838618  0.3771486328196545
  0.3693895772031013  0.3999140062580580  0.8768853536343073
  0.4034914346472505  0.0302205857132947  0.1197914969465046
  0.4199153358979544  0.0295505177132611  0.6217168925123318
  0.6039401790661998  0.9692087399249232  0.3698398806111456
  0.6081922290159412  0.9788139302510217  0.8679507737876335
  0.9713392632504636  0.3762908213997918  0.1163859394176683
  0.9796979932378278  0.3906246050881776  0.6171950023738617
  0.0260581791580279  0.6381006710474892  0.3718837079079478
  0.0270735938278932  0.6303478801865978  0.8726065207849345
  0.5070403916663864  0.6510536996244696  0.1184131191338267
  0.5019970492048316  0.6516742480042552  0.6265740312154833
  0.4810136783188739  0.3278660278169809  0.3685550682925580
  0.4617588654366216  0.3137814257172806  0.8759644965551914
  0.3514662104351629  0.8557200694371332  0.1217463378507873
  0.3660072125859415  0.8542210967091748  0.6247607731283367
  0.6732344808049859  0.1477409386031994  0.3733654720333277
  0.6911558136402860  0.1573622923181333  0.8642866105476870
  0.1464951001911672  0.4978653369389718  0.1178490990812477
  0.1543992241968724  0.5140512639962580  0.6182053163165975
  0.8487337212504684  0.5297156498435598  0.3797876780051084
  0.8488941130874323  0.5364440485999253  0.8753541425558780
  0.7370617051630930  0.6615708746613151  0.0354393722409441
  0.7369910394428985  0.6735162150083198  0.5463281450908468
  0.2526181804565937  0.3469496337249538  0.9564570955069414
  0.3487571786777366  0.0748885753531994  0.0319718937084659
  0.3902885280115740  0.0755273851989813  0.5273733534119742
  0.6367664996057059  0.9054906148146245  0.4577745308583658
  0.6581519353091494  0.9198341739081215  0.9509425036512482
  0.9233666496930724  0.2779021689834309  0.0282894304934587
  0.9251173868171065  0.3205905133617932  0.5222535028632862
  0.1017280553702733  0.7360735753581551  0.4580912629841905
  0.0977708962489743  0.7399627440916277  0.9551162380391887
  0.2754793482070355  0.3670871426852784  0.2843155827485546
  0.2712419802340023  0.3694748878866747  0.7894998420658439
  0.7297234965437625  0.6498839881480265  0.2046224390285616
  0.7192929196262838  0.6390393261876781  0.7129795254384490
  0.6801593005362747  0.9266949425297568  0.2917049220707639
  0.6448670507750975  0.9086930256735855  0.7837717833198781
  0.3340245151476751  0.0753156811758231  0.2003353093997404
  0.3315199859416111  0.0652578141217361  0.6959048904240888
  0.0634982497755914  0.7565445387445848  0.2943970310106820
  0.0886739095650881  0.7371089894849661  0.7882637400930932
  0.9306996131031511  0.2606333898872748  0.1958012017972663
  0.9548851459073830  0.2594503507029273  0.6846862599853552
  0.5438909682094462  0.4149957103428932  0.1158096630534047
  0.5371005830578426  0.4148316570856423  0.6158622252244683
  0.4713009518788311  0.5777374614882262  0.3832673895259759
  0.4810516322770511  0.5791681115107181  0.8833978414011980
  0.5837534514051512  0.1309263611071714  0.1241739842762186
  0.5977045994490311  0.1290011125115740  0.6394282936580993
  0.4249954575539263  0.8857736929792779  0.3569732691690106
  0.4280967733038565  0.9082157812675149  0.8716983563228808
  0.8723341487498857  0.4566069769228633  0.1225305545440847
  0.8809551578713837  0.4638614028507888  0.6466720415488965
  0.1059843504324931  0.5394023940632096  0.3529890523039896
  0.0960847670655696  0.5195706517697687  0.8704098733171080
  0.9971139763625914  0.9994091361131012  0.1309589965720193
  0.9847311403833245  0.9819684087940601  0.7041597610659664
  0.1724842759601728  0.2011957105956341  0.4659815071955506
 
  0.00000000E+00  0.00000000E+00  0.00000000E+00
  0.00000000E+00  0.00000000E+00  0.00000000E+00
  0.00000000E+00  0.00000000E+00  0.00000000E+00
  0.00000000E+00  0.00000000E+00  0.00000000E+00
  0.00000000E+00  0.00000000E+00  0.00000000E+00
  0.00000000E+00  0.00000000E+00  0.00000000E+00
  0.00000000E+00  0.00000000E+00  0.00000000E+00
  0.00000000E+00  0.00000000E+00  0.00000000E+00
  0.00000000E+00  0.00000000E+00  0.00000000E+00
  0.00000000E+00  0.00000000E+00  0.00000000E+00
  0.00000000E+00  0.00000000E+00  0.00000000E+00
  0.00000000E+00  0.00000000E+00  0.00000000E+00
  0.00000000E+00  0.00000000E+00  0.00000000E+00
  0.00000000E+00  0.00000000E+00  0.00000000E+00
  0.00000000E+00  0.00000000E+00  0.00000000E+00
  0.00000000E+00  0.00000000E+00  0.00000000E+00
  0.00000000E+00  0.00000000E+00  0.00000000E+00
  0.00000000E+00  0.00000000E+00  0.00000000E+00
  0.00000000E+00  0.00000000E+00  0.00000000E+00
  0.00000000E+00  0.00000000E+00  0.00000000E+00
  0.00000000E+00  0.00000000E+00  0.00000000E+00
  0.00000000E+00  0.00000000E+00  0.00000000E+00
  0.00000000E+00  0.00000000E+00  0.00000000E+00
  0.00000000E+00  0.00000000E+00  0.00000000E+00
  0.00000000E+00  0.00000000E+00  0.00000000E+00
  0.00000000E+00  0.00000000E+00  0.00000000E+00
  0.00000000E+00  0.00000000E+00  0.00000000E+00
  0.00000000E+00  0.00000000E+00  0.00000000E+00
  0.00000000E+00  0.00000000E+00  0.00000000E+00
  0.00000000E+00  0.00000000E+00  0.00000000E+00
  0.00000000E+00  0.00000000E+00  0.00000000E+00
  0.00000000E+00  0.00000000E+00  0.00000000E+00
  0.00000000E+00  0.00000000E+00  0.00000000E+00
  0.00000000E+00  0.00000000E+00  0.00000000E+00
  0.00000000E+00  0.00000000E+00  0.00000000E+00
  0.00000000E+00  0.00000000E+00  0.00000000E+00
  0.00000000E+00  0.00000000E+00  0.00000000E+00
  0.00000000E+00  0.00000000E+00  0.00000000E+00
  0.00000000E+00  0.00000000E+00  0.00000000E+00
  0.00000000E+00  0.00000000E+00  0.00000000E+00
  0.00000000E+00  0.00000000E+00  0.00000000E+00
  0.00000000E+00  0.00000000E+00  0.00000000E+00
  0.00000000E+00  0.00000000E+00  0.00000000E+00
  0.00000000E+00  0.00000000E+00  0.00000000E+00
  0.00000000E+00  0.00000000E+00  0.00000000E+00
  0.00000000E+00  0.00000000E+00  0.00000000E+00
  0.00000000E+00  0.00000000E+00  0.00000000E+00
  0.00000000E+00  0.00000000E+00  0.00000000E+00
  0.00000000E+00  0.00000000E+00  0.00000000E+00
  0.00000000E+00  0.00000000E+00  0.00000000E+00
  0.00000000E+00  0.00000000E+00  0.00000000E+00
  0.00000000E+00  0.00000000E+00  0.00000000E+00
  0.00000000E+00  0.00000000E+00  0.00000000E+00
  0.00000000E+00  0.00000000E+00  0.00000000E+00
  0.00000000E+00  0.00000000E+00  0.00000000E+00
  0.00000000E+00  0.00000000E+00  0.00000000E+00
  0.00000000E+00  0.00000000E+00  0.00000000E+00
  0.00000000E+00  0.00000000E+00  0.00000000E+00
  0.00000000E+00  0.00000000E+00  0.00000000E+00
  0.00000000E+00  0.00000000E+00  0.00000000E+00
  0.00000000E+00  0.00000000E+00  0.00000000E+00
  0.00000000E+00  0.00000000E+00  0.00000000E+00
  0.00000000E+00  0.00000000E+00  0.00000000E+00
  0.00000000E+00  0.00000000E+00  0.00000000E+00
  0.00000000E+00  0.00000000E+00  0.00000000E+00
  0.00000000E+00  0.00000000E+00  0.00000000E+00
  0.00000000E+00  0.00000000E+00  0.00000000E+00
  0.00000000E+00  0.00000000E+00  0.00000000E+00
  0.00000000E+00  0.00000000E+00  0.00000000E+00
  0.00000000E+00  0.00000000E+00  0.00000000E+00
  0.00000000E+00  0.00000000E+00  0.00000000E+00
  0.00000000E+00  0.00000000E+00  0.00000000E+00
  0.00000000E+00  0.00000000E+00  0.00000000E+00
  0.00000000E+00  0.00000000E+00  0.00000000E+00
  0.00000000E+00  0.00000000E+00  0.00000000E+00
  0.00000000E+00  0.00000000E+00  0.00000000E+00
  0.00000000E+00  0.00000000E+00  0.00000000E+00
  0.00000000E+00  0.00000000E+00  0.00000000E+00
  0.00000000E+00  0.00000000E+00  0.00000000E+00
  0.00000000E+00  0.00000000E+00  0.00000000E+00
  0.00000000E+00  0.00000000E+00  0.00000000E+00
  0.00000000E+00  0.00000000E+00  0.00000000E+00
