Zn   Sb   N                             
   1.00000000000000     
    -0.0000000523926110   -0.0000043880565465   -5.4701754936923299
    -5.8215555440892697   -0.0180553629381763   -0.0000043933512044
    -0.0313360017678455   10.1036766205861959   -0.0000464315123355
   Zn   Sb   N 
     8     4    12
Direct
  0.0646599810475546  0.6411814226913687  0.8315197755792183
  0.0646587360342791  0.6411809257506330  0.1756246073821801
  0.0646598843053120  0.1411814343420202  0.3315196890193554
  0.0646587417667422  0.1411809265297325  0.6756246135629744
  0.5646598613238326  0.3159605563684084  0.8315203977005999
  0.5646588915557537  0.3159617381436735  0.1756251558668420
  0.5646588745423631  0.8159617221918988  0.6756251931021989
  0.5646599456457789  0.8159605765442676  0.3315204738053684
  0.0759766010805007  0.1566417103155413  0.0035709220583147
  0.5759767499963001  0.8005015206989385  0.0035712086707514
  0.0759765698042155  0.6566417062149424  0.5035709168713324
  0.5759767202657375  0.3005015213675867  0.5035712129630835
  0.1978773763410161  0.8202173519712179  0.0035704844922137
  0.6978772543316057  0.1369259603460225  0.0035708497582330
  0.1896733565394391  0.3110167068228405  0.1685597273197631
  0.1896742332504398  0.3110172410800386  0.8385818522127191
  0.6896734850386796  0.6461263608803114  0.1685600348678283
  0.6896744394812802  0.6461253957721178  0.8385822468348062
  0.1896733479066625  0.8110167087832341  0.6685597268368512
  0.1896742260262730  0.8110172442741884  0.3385818478915762
  0.6896735038067315  0.1461263510927351  0.6685600183257913
  0.6896744333479237  0.1461253825075839  0.3385822471359833
  0.1978773871765819  0.3202173666911898  0.5035704713868946
  0.6978772234418745  0.6369259658258429  0.5035708545230771
 
             NaN             NaN             NaN
             NaN             NaN             NaN
             NaN             NaN             NaN
             NaN             NaN             NaN
             NaN             NaN             NaN
             NaN             NaN             NaN
             NaN             NaN             NaN
             NaN             NaN             NaN
             NaN             NaN             NaN
             NaN             NaN             NaN
             NaN             NaN             NaN
             NaN             NaN             NaN
             NaN             NaN             NaN
             NaN             NaN             NaN
             NaN             NaN             NaN
             NaN             NaN             NaN
             NaN             NaN             NaN
             NaN             NaN             NaN
             NaN             NaN             NaN
             NaN             NaN             NaN
             NaN             NaN             NaN
             NaN             NaN             NaN
             NaN             NaN             NaN
             NaN             NaN             NaN
