Zn   Sb   N                             
   1.00000000000000     
    -0.0005565909738025   -0.0000317187270343   -5.4951450989543904
    -5.8589897022960971   -0.0485014560028894   -0.0000631927707595
    -0.0842570044382077   10.1741098402012646   -0.0002760943232004
   Zn   Sb   N 
     8     4    12
Direct
  0.0613717568504130  0.6381280227026023  0.8230621922373023
  0.0613671641337938  0.6381282922126040  0.1840812232897735
  0.0418149579827504  0.1400744293415201  0.3326837777793206
  0.0418122396684000  0.1400755490698026  0.6744604636156563
  0.5427088104786495  0.3127784556150047  0.8309438482641868
  0.5427059954210858  0.3127777089424501  0.1762004701164973
  0.5443049329135958  0.8184523318118062  0.6743171571718467
  0.5443076568530423  0.8184535929853701  0.3328272349444357
  0.0558729493612472  0.1689414508966064  0.0035716861042866
  0.6737527851629826  0.7966907831644540  0.0035718257210459
  0.0546178227452793  0.6551246535725227  0.5035716922321394
  0.5553968986260593  0.3013162546573144  0.5035717390729407
  0.0660927920317048  0.8189353842077359  0.0035708834236364
  0.6709536257089540  0.1536855010309452  0.0035711781838461
  0.1699742033226161  0.3089461003087848  0.1713948349794046
  0.1699755681398182  0.3089459041276629  0.8357458834585141
  0.6651761883352477  0.6386577302625643  0.1766272624086067
  0.6651765339643878  0.6386600837370102  0.8305164868869921
  0.1712448921263463  0.8139595660984488  0.6649602852954917
  0.1712464168924346  0.8139586022419300  0.3421801931290024
  0.6684679618598754  0.1459792623788702  0.6673047588792698
  0.6684695872783510  0.1459799277258894  0.3398369643447187
  0.1778720246444907  0.3211320764822814  0.5035709883430389
  0.6780611771641749  0.6359321060408308  0.5035713379035753
 
             NaN             NaN             NaN
             NaN             NaN             NaN
             NaN             NaN             NaN
             NaN             NaN             NaN
             NaN             NaN             NaN
             NaN             NaN             NaN
             NaN             NaN             NaN
             NaN             NaN             NaN
             NaN             NaN             NaN
             NaN             NaN             NaN
             NaN             NaN             NaN
             NaN             NaN             NaN
             NaN             NaN             NaN
             NaN             NaN             NaN
             NaN             NaN             NaN
             NaN             NaN             NaN
             NaN             NaN             NaN
             NaN             NaN             NaN
             NaN             NaN             NaN
             NaN             NaN             NaN
             NaN             NaN             NaN
             NaN             NaN             NaN
             NaN             NaN             NaN
             NaN             NaN             NaN
