Zn   Sb   N                             
   1.00000000000000     
    -0.0222430052715514   -0.0000296163677660   -5.4932243600880799
    -5.8522571401605141   -0.0484578582917138   -0.0000586697384861
    -0.0841317501051592   10.1615917596782790    0.0002762724309054
   Zn   Sb   N 
     8     4    12
Direct
  0.0618831684048474  0.6398477661818929  0.8252709882061724
  0.0618833811647562  0.6398491935087116  0.1818704928986417
  0.0421822097399621  0.1411495815584609  0.3321542037219789
  0.0421812151589711  0.1411485785757924  0.6749905467267794
  0.5415446305349995  0.3125494286124878  0.8311140547049418
  0.5415443696288482  0.3125500605716649  0.1760311876514933
  0.5436224141220265  0.8186897633159541  0.6738972359718921
  0.5436230712418550  0.8186900417377889  0.3332452058473474
  0.0571225928875171  0.1648742336677253  0.0035718470433440
  0.6609386895130710  0.7964800085586657  0.0035709530669479
  0.0542605974294885  0.6559293901088366  0.5035707382644967
  0.5552176094557398  0.3016477314778751  0.5035717522124263
  0.0798761626667519  0.8170765085091365  0.0035706899298402
  0.6733204367883390  0.1520836726479562  0.0035718622830751
  0.1693283615385919  0.3093354180818583  0.1707336820075408
  0.1693287698389662  0.3093350439053558  0.8364098302791684
  0.6658695313333812  0.6386807635848960  0.1763818492362549
  0.6658696568660500  0.6386801551260166  0.8307597208576711
  0.1704870684737847  0.8137211309052415  0.6655280276417759
  0.1704874068703960  0.8137214430280402  0.3416137411705087
  0.6684745807357264  0.1460093403103792  0.6675107790070123
  0.6684753241820096  0.1460091968820652  0.3396327068275320
  0.1775982255102610  0.3213157764118363  0.5035715213112301
  0.6776254675793731  0.6363395423465098  0.5035707509174971
 
             NaN             NaN             NaN
             NaN             NaN             NaN
             NaN             NaN             NaN
             NaN             NaN             NaN
             NaN             NaN             NaN
             NaN             NaN             NaN
             NaN             NaN             NaN
             NaN             NaN             NaN
             NaN             NaN             NaN
             NaN             NaN             NaN
             NaN             NaN             NaN
             NaN             NaN             NaN
             NaN             NaN             NaN
             NaN             NaN             NaN
             NaN             NaN             NaN
             NaN             NaN             NaN
             NaN             NaN             NaN
             NaN             NaN             NaN
             NaN             NaN             NaN
             NaN             NaN             NaN
             NaN             NaN             NaN
             NaN             NaN             NaN
             NaN             NaN             NaN
             NaN             NaN             NaN
