Zn   Sb   N                             
   1.00000000000000     
    -0.0133536713909361   -0.0000905847865465   -5.5489257872111297
    -5.8664688776173941   -0.0913357821399067   -0.0001898376744168
    -0.1631672015113817   10.1434241026359242    0.0257984124356287
   Zn   Sb   N 
     8     4    12
Direct
  0.1770856642238750  0.6329018761396403  0.8362198381446658
  0.1728848260065130  0.6385329075229050  0.1704375249936809
  0.0438296792392891  0.1352350973199916  0.3347910828457062
  0.0471572662980972  0.1335618493054878  0.6699345397429399
  0.6769972249170101  0.3218052827640185  0.8363061523441274
  0.6396999173826006  0.3193889883262488  0.1738119508828328
  0.5464716154025584  0.8229934487455655  0.6705917322827862
  0.5449875850783457  0.8242521228338928  0.3377424486848916
  0.1701673830470548  0.1533417357662735  0.0030562137711395
  0.6724108543603902  0.8019083477807881  0.0029841589651328
  0.0514310885026707  0.6539233284065019  0.5034859647783309
  0.5507328019795543  0.3043412185563744  0.5040508672485317
  0.0462303782519958  0.8206731811810223  0.0025911743562780
  0.5462451467517360  0.1337648025530637  0.0015683172125035
  0.0761417561631139  0.3116094350725951  0.1669047489071109
  0.0539273545486064  0.3121856544066083  0.8418357010676906
  0.5555977248639739  0.6492478074399862  0.1652855681861232
  0.5543473403357327  0.6433902473802964  0.8423258167594555
  0.1691193168124554  0.8118609682385974  0.6644321239598882
  0.1676247006810888  0.8136565524810196  0.3431485621524368
  0.6695243369269980  0.1438361745291739  0.6638990215030928
  0.6678542212730046  0.1458285522114434  0.3427894646852103
  0.1768210776478181  0.3215495628201686  0.5036957214504234
  0.6771494337364780  0.6359246277315245  0.5038256714279112
 
             NaN             NaN             NaN
             NaN             NaN             NaN
             NaN             NaN             NaN
             NaN             NaN             NaN
             NaN             NaN             NaN
             NaN             NaN             NaN
             NaN             NaN             NaN
             NaN             NaN             NaN
             NaN             NaN             NaN
             NaN             NaN             NaN
             NaN             NaN             NaN
             NaN             NaN             NaN
             NaN             NaN             NaN
             NaN             NaN             NaN
             NaN             NaN             NaN
             NaN             NaN             NaN
             NaN             NaN             NaN
             NaN             NaN             NaN
             NaN             NaN             NaN
             NaN             NaN             NaN
             NaN             NaN             NaN
             NaN             NaN             NaN
             NaN             NaN             NaN
             NaN             NaN             NaN
