Zn   Sb   N 
   1.00000000000000     
   0.0000043683729172  -0.0000001833380099  -5.4663340159597000
  -5.8211882345813803  -0.0000001177039404   0.0000046527133426
   0.0000002051513472  10.1017758486310996   0.0000003400581333
Zn   Sb   N 
8  4  12  
Direct
  0.0724769140930235  0.6412214829306748  0.8315389162726348  
  0.0724768086951215  0.6412215520064137  0.1756040057267683  
  0.0724768210251909  0.1412215255401534  0.3315388419948562  
  0.0724768961406141  0.1412214356650807  0.6756038938875761  
  0.5724764365225639  0.3159200518258700  0.8315385687654313  
  0.5724764607273087  0.3159202097415772  0.1756043849544682  
  0.5724762755609163  0.8159200530333450  0.6756043204056965  
  0.5724765643878555  0.8159200856387940  0.3315385234922630  
  0.0838752820806334  0.1566801438339382  0.0035713950595095  
  0.5838752863867711  0.8004634361341374  0.0035714945996190  
  0.0838752474393090  0.6566800442102902  0.5035714912119431  
  0.5838752702348344  0.3004633136573602  0.5035713780821496  
  0.2055411430321143  0.8200997813875190  0.0035713578824499  
  0.7055410944958425  0.1370442074347693  0.0035716265720680  
  0.1975016767368913  0.3110602073272446  0.1686185461860106  
  0.1975009533807039  0.3110603275265547  0.8385240813176580  
  0.6975010948186480  0.6460828187037322  0.1686185585984674  
  0.6975017412871267  0.6460830357044358  0.8385244655429318  
  0.1975008943500782  0.8110603153878557  0.6686187480355557  
  0.1975017066273992  0.8110601667672626  0.3385243470154293  
  0.6975017721111172  0.1460829360782725  0.6686184404523203  
  0.6975010569307400  0.1460828062713304  0.3385243252255421  
  0.2055411224067498  0.3200996878187112  0.5035715415379158  
  0.7055410620879385  0.6370440896603995  0.5035713186092678  
