Zn   Sb   N                             
   1.00000000000000     
     0.0139341850072041   -0.0000380258048392   -5.5009073155533201
    -5.8583427874946858   -0.0485006290261162   -0.0000767618675800
    -0.0845035381473621   10.2049399673631243   -0.0002915077941311
   Zn   Sb   N 
     8     4    12
Direct
  0.0543880738726744  0.6382642961168963  0.8218410782365044
  0.0543863791877693  0.6382631334127500  0.1853045408734744
  0.0411188830172610  0.1386902241508902  0.3338661176227677
  0.0411186732342914  0.1386902924035553  0.6732775987756939
  0.5519071849080948  0.3142107852240086  0.8284607420634149
  0.5519071260701122  0.3142120592036370  0.1786800099488804
  0.5437282989377343  0.8175236302831278  0.6750867490557629
  0.5437281412484944  0.8175264905106853  0.3320550871959526
  0.1021064386927706  0.1640349793162892  0.0035717041251962
  0.6727691630879178  0.8030398878644206  0.0035712961151436
  0.0543764310773228  0.6549028201701285  0.5035720279493846
  0.5548530038081059  0.3013541516969683  0.5035707705042828
  0.0645689470139550  0.8186506197322808  0.0035720775966235
  0.6259173765268969  0.1469534676249210  0.0035707460353610
  0.1690768114054363  0.3121615453179155  0.1749679354251613
  0.1690766134050016  0.3121617073959012  0.8321751106063962
  0.6662249344740822  0.6406595713920584  0.1757858754488235
  0.6662253969056853  0.6406588478379114  0.8313571970770269
  0.1710505340369544  0.8134251716973681  0.6648173025560232
  0.1710507946015249  0.8134255674156647  0.3423265443099732
  0.6687818497873552  0.1449687117140389  0.6660517083472802
  0.6687821421546555  0.1449703299482720  0.3410896795280705
  0.1777164941433420  0.3210012670751916  0.5035714117719281
  0.6778852500682302  0.6359642121100887  0.5035710566163957
 
             NaN             NaN             NaN
             NaN             NaN             NaN
             NaN             NaN             NaN
             NaN             NaN             NaN
             NaN             NaN             NaN
             NaN             NaN             NaN
             NaN             NaN             NaN
             NaN             NaN             NaN
             NaN             NaN             NaN
             NaN             NaN             NaN
             NaN             NaN             NaN
             NaN             NaN             NaN
             NaN             NaN             NaN
             NaN             NaN             NaN
             NaN             NaN             NaN
             NaN             NaN             NaN
             NaN             NaN             NaN
             NaN             NaN             NaN
             NaN             NaN             NaN
             NaN             NaN             NaN
             NaN             NaN             NaN
             NaN             NaN             NaN
             NaN             NaN             NaN
             NaN             NaN             NaN
