Zn   Sb   N                             
   1.00000000000000     
    -0.0150588180056976   -0.0000863800680099   -5.5450843094785096
    -5.8732749661451971   -0.0917623639609262   -0.0001807916098699
    -0.1728924863277294   10.1477612402994630    0.0274916732413785
   Zn   Sb   N 
     8     4    12
Direct
  0.1774995712720763  0.6327398252292771  0.8360019513601832
  0.1702411171715964  0.6425928427259016  0.1704720543408098
  0.0415467414605512  0.1365750024548024  0.3334274284286995
  0.0471990958896054  0.1335251212783310  0.6695871075031598
  0.6768363073334600  0.3212755397443465  0.8360881254031779
  0.5947319037297770  0.3164342124174747  0.1771528039382658
  0.5465729639991598  0.8228673511769365  0.6705560804536265
  0.5452429575609956  0.8248984263044213  0.3379561591858588
  0.1707312921092375  0.1519763501079005  0.0017686301322112
  0.6728673487699947  0.8011449274258439  0.0025065500498740
  0.0516146745263364  0.6540428278271453  0.5034491649946934
  0.5507889810188699  0.3046348105859250  0.5040537640059510
  0.0467755697303310  0.8199120979174883  0.0022907957785007
  0.5476695733628820  0.1320707351302302  0.9994859681841288
  0.1188864431146107  0.3087569722787945  0.1703433729947068
  0.0535882294747258  0.3126625571544462  0.8415498611176689
  0.5587950612116485  0.6521103397594308  0.1657694394386746
  0.5546362010827723  0.6425633577173170  0.8420818995487906
  0.1689389254418380  0.8119456020538811  0.6643982847769220
  0.1672071092398501  0.8146899389756581  0.3434395471147070
  0.6696125854422519  0.1434854805856010  0.6635205763762821
  0.6686314701689164  0.1470796756826710  0.3421224591721488
  0.1767643330096624  0.3217548613937758  0.5037778601004693
  0.6770602386343663  0.6359749135868827  0.5039144819539100
 
             NaN             NaN             NaN
             NaN             NaN             NaN
             NaN             NaN             NaN
             NaN             NaN             NaN
             NaN             NaN             NaN
             NaN             NaN             NaN
             NaN             NaN             NaN
             NaN             NaN             NaN
             NaN             NaN             NaN
             NaN             NaN             NaN
             NaN             NaN             NaN
             NaN             NaN             NaN
             NaN             NaN             NaN
             NaN             NaN             NaN
             NaN             NaN             NaN
             NaN             NaN             NaN
             NaN             NaN             NaN
             NaN             NaN             NaN
             NaN             NaN             NaN
             NaN             NaN             NaN
             NaN             NaN             NaN
             NaN             NaN             NaN
             NaN             NaN             NaN
             NaN             NaN             NaN
