Zn   Sb   N                             
   1.00000000000000     
    -0.0158331090145497   -0.0000842777087417   -5.5431635706121902
    -5.8758851077759520   -0.0952245263320480   -0.0001762685775964
    -0.1855434410765208   10.1498455868155961    0.0252614227840630
   Zn   Sb   N 
     8     4    12
Direct
  0.1776861679155241  0.6327000679538162  0.8358822399057048
  0.1686976697973318  0.6444139365311461  0.1705877856504874
  0.0402982344140196  0.1376487899617883  0.3328055812827614
  0.0470910593013512  0.1335446898970733  0.6693797453534776
  0.6764245566954822  0.3209429885327602  0.8359633704702839
  0.5731338139875516  0.3149989142588266  0.1790063525134069
  0.5466963526392429  0.8227985106329883  0.6705367583463778
  0.5456248410289268  0.8253767555601235  0.3379076549351357
  0.1713233755742909  0.1510401269604150  0.0009866146534726
  0.6724163995928131  0.8006808938440285  0.0023579965332665
  0.0516992079750231  0.6542391654107983  0.5034390319352616
  0.5511494140272163  0.3047149219673086  0.5039912495580178
  0.0465842889353993  0.8195797141063812  0.0022358406815165
  0.5479484769212553  0.1311562109377966  0.9982271586252603
  0.1405499968566814  0.3070795367547814  0.1719554755735684
  0.0531629474051091  0.3129467204363862  0.8415804182590593
  0.5603917389532765  0.6531769527567441  0.1660963479749840
  0.5546729804231932  0.6420673094137411  0.8419313678554673
  0.1688674789064840  0.8120422782666079  0.6643855326477252
  0.1670114088496516  0.8153524841111081  0.3435167766816981
  0.6696826506579057  0.1433408781038557  0.6633932277566954
  0.6693157146449068  0.1478409759178070  0.3417916444927471
  0.1769367150827821  0.3219675472143523  0.5037682666921179
  0.6770732049294316  0.6360633999869042  0.5039879279761166
 
             NaN             NaN             NaN
             NaN             NaN             NaN
             NaN             NaN             NaN
             NaN             NaN             NaN
             NaN             NaN             NaN
             NaN             NaN             NaN
             NaN             NaN             NaN
             NaN             NaN             NaN
             NaN             NaN             NaN
             NaN             NaN             NaN
             NaN             NaN             NaN
             NaN             NaN             NaN
             NaN             NaN             NaN
             NaN             NaN             NaN
             NaN             NaN             NaN
             NaN             NaN             NaN
             NaN             NaN             NaN
             NaN             NaN             NaN
             NaN             NaN             NaN
             NaN             NaN             NaN
             NaN             NaN             NaN
             NaN             NaN             NaN
             NaN             NaN             NaN
             NaN             NaN             NaN
