Zn   Sb   N                             
   1.00000000000000     
    -0.0231532320502096   -0.0000212069306928   -5.4855414046228299
    -5.8412044858383831   -0.0483669149945942   -0.0000405776093922
    -0.0839907588574862   10.1446886473109998    0.0002795163120643
   Zn   Sb   N 
     8     4    12
Direct
  0.0572762561508550  0.6419895099219560  0.8282357495264389
  0.0572761148771430  0.6419905753613362  0.1789047825046351
  0.0428085567835644  0.1414470612721315  0.3318483338420808
  0.0428075091708016  0.1414462878857579  0.6752972321435672
  0.5420678293925892  0.3129024015118249  0.8308927292130693
  0.5420672791973262  0.3129029306055732  0.1762529413832700
  0.5437504493135692  0.8181708027869409  0.6739287283132593
  0.5437510384521121  0.8181709008849508  0.3332136099675351
  0.0584777671145740  0.1595117382290500  0.0035718109280812
  0.5953703551798949  0.7978383334618165  0.0035706087716204
  0.0546857351488402  0.6562591642583142  0.5035708932561769
  0.5550198579857326  0.3015984265745026  0.5035721117020004
  0.1375583804662625  0.8169193229108924  0.0035704571395596
  0.6770496356076208  0.1453486648469033  0.0035718691458064
  0.1693372585640916  0.3101250593171414  0.1700961878364057
  0.1693378135465050  0.3101249090051807  0.8370476365827081
  0.6703671209920736  0.6413561035067440  0.1736703926165148
  0.6703671719631643  0.6413559158884197  0.8334712078338291
  0.1703464836662899  0.8132217389271209  0.6661671528645435
  0.1703466971647488  0.8132217059761621  0.3409739843468194
  0.6688050704525593  0.1460761635774847  0.6676494784760881
  0.6688058025253839  0.1460758562157223  0.3394940009967172
  0.1774621829131581  0.3210969698692757  0.5035717132664498
  0.6776025750368619  0.6365632268199468  0.5035707551283614
 
             NaN             NaN             NaN
             NaN             NaN             NaN
             NaN             NaN             NaN
             NaN             NaN             NaN
             NaN             NaN             NaN
             NaN             NaN             NaN
             NaN             NaN             NaN
             NaN             NaN             NaN
             NaN             NaN             NaN
             NaN             NaN             NaN
             NaN             NaN             NaN
             NaN             NaN             NaN
             NaN             NaN             NaN
             NaN             NaN             NaN
             NaN             NaN             NaN
             NaN             NaN             NaN
             NaN             NaN             NaN
             NaN             NaN             NaN
             NaN             NaN             NaN
             NaN             NaN             NaN
             NaN             NaN             NaN
             NaN             NaN             NaN
             NaN             NaN             NaN
             NaN             NaN             NaN
