Zn   Sb   N                             
   1.00000000000000     
    -0.0173505351141106   -0.0000548446789855   -5.5162732264838201
    -5.8795978177188175   -0.0572578615742772   -0.0001129461257678
    -0.0672658991881747   10.1976439945226396   -0.0626337225735979
   Zn   Sb   N 
     8     4    12
Direct
  0.1242610870841227  0.6440722616281689  0.8300062538076156
  0.0485644116464025  0.6336967244425332  0.1859325025224461
  0.0425030425967902  0.1378935697224579  0.3331574789577308
  0.0408480057260582  0.1411148034606878  0.6738415077431474
  0.5607204957910875  0.3136789067729983  0.8243340093731020
  0.5526580609470297  0.3212916082738156  0.1843257649119549
  0.5460009661953555  0.8226377049438025  0.6708011025290261
  0.5420728365556913  0.8189139773940376  0.3313998470018031
  0.1741619922629547  0.1516742249252244  0.0040780506097899
  0.6737589209788970  0.8002152411857874  0.0013167941563750
  0.0535404163183486  0.6556850552208920  0.5038034746229794
  0.5538761733499393  0.3037302678200818  0.5029145627806347
  0.0519253369341580  0.8240303072866833  0.0012305658168637
  0.5525049685322730  0.1279469332988063  0.0039657492662194
  0.1673909074185392  0.3132274456397272  0.1764322909896140
  0.1577082738766458  0.3103641952174454  0.8326075060463649
  0.6681803644656537  0.6420911321813900  0.1747124769369371
  0.6084933176629426  0.6454101820960074  0.8345920025683261
  0.1690178011465221  0.8172807889993017  0.6633878071337191
  0.1701116211507255  0.8122104357066240  0.3415460102278541
  0.6703932454017688  0.1455271747750020  0.6636409744772572
  0.6703205685226616  0.1440351155925327  0.3412633821802637
  0.1778185035116319  0.3226949651022549  0.5037828773136016
  0.6776245620963977  0.6362906982345555  0.5026413741137611
 
             NaN             NaN             NaN
             NaN             NaN             NaN
             NaN             NaN             NaN
             NaN             NaN             NaN
             NaN             NaN             NaN
             NaN             NaN             NaN
             NaN             NaN             NaN
             NaN             NaN             NaN
             NaN             NaN             NaN
             NaN             NaN             NaN
             NaN             NaN             NaN
             NaN             NaN             NaN
             NaN             NaN             NaN
             NaN             NaN             NaN
             NaN             NaN             NaN
             NaN             NaN             NaN
             NaN             NaN             NaN
             NaN             NaN             NaN
             NaN             NaN             NaN
             NaN             NaN             NaN
             NaN             NaN             NaN
             NaN             NaN             NaN
             NaN             NaN             NaN
             NaN             NaN             NaN
