Zn   Sb   N                             
   1.00000000000000     
     0.0129974609270390   -0.0000422305233758   -5.5047487932859500
    -5.8579403714946707   -0.0484971441530032   -0.0000858079321269
    -0.0845563114532306   10.2112760947572703   -0.0002907015872265
   Zn   Sb   N 
     8     4    12
Direct
  0.0534297973054897  0.6379825411462099  0.8216378757641460
  0.0534283090634301  0.6379814083435084  0.1855077090573119
  0.0410445515394238  0.1386585545560040  0.3338719740794612
  0.0410443588835831  0.1386586923862005  0.6732717396998218
  0.5538218755587415  0.3155254986770851  0.8270748407002178
  0.5538221022009566  0.3155261292088045  0.1800660199156380
  0.5436141249186762  0.8174453088916688  0.6750959874456389
  0.5436139045713736  0.8174481493104138  0.3320457230151511
  0.1387298036404254  0.1598048110633027  0.0035716724097253
  0.6734485860440345  0.8045337014233748  0.0035713289045483
  0.0544419598143162  0.6549687590785959  0.5035720404774520
  0.5546637592025554  0.3014049994245729  0.5035708065304831
  0.0610917404143125  0.8206408998571914  0.0035720493472402
  0.5938149270660760  0.1421844219063758  0.0035708094862138
  0.1672467441279900  0.3134849135149509  0.1759695050147968
  0.1672465550891781  0.3134850996645593  0.8311735450919576
  0.6663494885098112  0.6412136009636772  0.1755718098057842
  0.6663499613662865  0.6412131618081557  0.8315712857485814
  0.1710162274583013  0.8134824627048413  0.6648201198211989
  0.1710164843055259  0.8134828596440800  0.3423236652641095
  0.6689001756175624  0.1447941971715586  0.6658439024097539
  0.6689005043645393  0.1447956834159470  0.3412975367065946
  0.1777489092319721  0.3210450372926524  0.5035713898181838
  0.6779600913711286  0.6359528781612425  0.5035710312714814
 
             NaN             NaN             NaN
             NaN             NaN             NaN
             NaN             NaN             NaN
             NaN             NaN             NaN
             NaN             NaN             NaN
             NaN             NaN             NaN
             NaN             NaN             NaN
             NaN             NaN             NaN
             NaN             NaN             NaN
             NaN             NaN             NaN
             NaN             NaN             NaN
             NaN             NaN             NaN
             NaN             NaN             NaN
             NaN             NaN             NaN
             NaN             NaN             NaN
             NaN             NaN             NaN
             NaN             NaN             NaN
             NaN             NaN             NaN
             NaN             NaN             NaN
             NaN             NaN             NaN
             NaN             NaN             NaN
             NaN             NaN             NaN
             NaN             NaN             NaN
             NaN             NaN             NaN
