Zn   Sb   N                             
   1.00000000000000     
    -0.0006506821004150   -0.0000127974936197   -5.4778584491575799
    -5.8194548147428433   -0.0497716123959768   -0.0000224854802983
    -0.0863803343851426   10.1001074583082993   -0.0000282111487514
   Zn   Sb   N 
     8     4    12
Direct
  0.0486577024577274  0.6411944156769925  0.8315437297739026
  0.0486565158311226  0.6411936662496953  0.1756004890009084
  0.0486231634959017  0.1412006680265193  0.3315482123835859
  0.0486222444875027  0.1411998679726142  0.6755960258733965
  0.5486330581831655  0.3159480515507967  0.8315487819301081
  0.5486320368508839  0.3159489255320146  0.1755958966037043
  0.5486230962516990  0.8159569401282849  0.6755953740631070
  0.5486239374464958  0.8159560591022376  0.3315492659139289
  0.0600201473832695  0.1565813668791317  0.0035710408529786
  0.5600424327989287  0.8005526436540324  0.0035711182521465
  0.0599972567170349  0.6565930405228406  0.5035710258971009
  0.5600081193384828  0.3005683555090933  0.5035711416140141
  0.1822734642818895  0.8201571781783911  0.0035708172582401
  0.6822631476775762  0.1369680015006591  0.0035709277564300
  0.1739235722929746  0.3109958841511047  0.1685711120178533
  0.1739242328338781  0.3109964456147103  0.8385709815631650
  0.6739350918646690  0.6461177726844167  0.1685745867845955
  0.6739358224884493  0.6461171265476789  0.8385676235760328
  0.1739150281277107  0.8110106447119454  0.6685663437586156
  0.1739156485980466  0.8110111748449996  0.3385757129798924
  0.6739133224515862  0.1461242943022303  0.6685673482475804
  0.6739140111682005  0.1461236387959407  0.3385749060410522
  0.1822458159467625  0.3201708392613528  0.5035708258302016
  0.6822418210745586  0.6369779949027793  0.5035708919694273
 
             NaN             NaN             NaN
             NaN             NaN             NaN
             NaN             NaN             NaN
             NaN             NaN             NaN
             NaN             NaN             NaN
             NaN             NaN             NaN
             NaN             NaN             NaN
             NaN             NaN             NaN
             NaN             NaN             NaN
             NaN             NaN             NaN
             NaN             NaN             NaN
             NaN             NaN             NaN
             NaN             NaN             NaN
             NaN             NaN             NaN
             NaN             NaN             NaN
             NaN             NaN             NaN
             NaN             NaN             NaN
             NaN             NaN             NaN
             NaN             NaN             NaN
             NaN             NaN             NaN
             NaN             NaN             NaN
             NaN             NaN             NaN
             NaN             NaN             NaN
             NaN             NaN             NaN
