Zn   Sb   N 
   1.00000000000000     
   0.0002097067598713  -0.0001031989421563  -5.5604502204089901
  -5.8504818595109898  -0.0956075996720000  -0.0002169758680577
  -0.1655164408992950  10.1328199503951009  -0.0001916783113809
Zn   Sb   N 
8  4  12  
Direct
  0.1486763592982214  0.6336417190740136  0.8367012553979478  
  0.1486848465382948  0.6336467471653506  0.1704409010963843  
  0.0191114610188805  0.1336464171601506  0.3367004684780923  
  0.0191026309980273  0.1336410131271322  0.6704402466571437  
  0.6486785252435396  0.3235006733120258  0.8367030878891413  
  0.6486872854433798  0.3235039755365250  0.1704405754522114  
  0.5190987356934684  0.8234996195864355  0.6704407451217662  
  0.5191101600519374  0.8235044590577090  0.3367037470415255  
  0.1429934124460530  0.1534645523688098  0.0035679209154793  
  0.6429923209097055  0.8036754846580436  0.0035747901486829  
  0.0248001614952642  0.6534640252217514  0.5035666257302793  
  0.5248014835630386  0.3036760104437874  0.5035742406179367  
  0.0166087188961015  0.8209040805656471  0.0035719094210691  
  0.5166092481076205  0.1362354021025070  0.0035707111433112  
  0.0254408850435013  0.3120078166617972  0.1645221449709382  
  0.0254364119917270  0.3120011295801106  0.8426259308089357  
  0.5254434478269303  0.6451410439632781  0.1645172822341934  
  0.5254311258298472  0.6451347314883265  0.8426193355955078  
  0.1423510452003995  0.8120040964238839  0.6645241188278135  
  0.1423561523101355  0.8120059248917713  0.3426276801654851  
  0.6423489431786180  0.1451359613877727  0.6645173423480060  
  0.6423614404803573  0.1451386500608010  0.3426195266418759  
  0.1511854190125490  0.3209041762351532  0.5035723454902410  
  0.6511847793432324  0.6362361075782346  0.5035712307469922  
