supercell of 100% icsd_608626.cif, 0% i 
   1.00000000000000     
    -9.5347216000978623   -0.0169969777340921   -0.0177153471108052
    -4.7526468071404153    8.2358120034560471   -0.0240957001002886
    -0.0189204528234565    0.0188125007907850  -10.2179510967380232
   Al   Si   Ca   N 
    28     4     4    36
Direct
  0.1162976581731954  0.0938738784983286  0.3007971416950284
  0.7719001945146076  0.0977671646849316  0.8054965127912439
  0.4465306264410600  0.0934457365931110  0.2929520516310475
  0.2204081685597217  0.2100329576943807  0.5384485859479327
  0.7685445926685190  0.0936943696040871  0.2964326537533140
  0.8855096494139900  0.2083934457463030  0.0510603544242656
  0.4430435930602457  0.0997789870493051  0.8068408335917709
  0.5485562791688210  0.2129553622739948  0.5486309197936876
  0.1173759334185647  0.4245253219519611  0.2958223248823302
  0.2251632951568325  0.5359209176775153  0.0434245083231346
  0.4459942548143090  0.4236518301553431  0.2959769368904617
  0.5563884273843414  0.5376156782292796  0.0460950161111739
  0.1182138030045650  0.4291464157437233  0.8048455797921932
  0.2240250486635773  0.5375106045272275  0.5404396645416725
  0.7744788060655523  0.4309749620517920  0.2995281478435032
  0.8930066686208207  0.5380815541308053  0.0481942111374138
  0.4433697974025392  0.4291345188694464  0.8003202739795015
  0.5468163640778059  0.5409672907993226  0.5392537889093134
  0.1100184749647681  0.7596098187769016  0.2966155696565806
  0.2280062631663426  0.8713548989276134  0.0508636932640201
  0.7843189909320145  0.7570353843840820  0.8010830020220112
  0.8941647332184317  0.8654625182467086  0.5365760379350135
  0.4471398184536284  0.7607674772786410  0.2889897208955361
  0.5588182738052794  0.8646370334557432  0.0408153623337668
  0.2216098013923329  0.8650976572785964  0.5293492021935009
  0.7738850671865407  0.7645673158768886  0.2901850605870635
  0.8821467816305955  0.8740134231924515  0.0438260287141574
  0.4387015032334105  0.7572905608855081  0.8021660262907346
  0.2224516179972653  0.2113249864258293  0.0485359933300700
  0.8902101799789293  0.2032642764242354  0.5267251137511550
  0.5541232062926724  0.2090244473781837  0.0440758453900258
  0.8990223983365624  0.5335739192822473  0.5378081517110331
  0.1123962715181221  0.1003816249932683  0.7882931485816442
  0.7784150617232157  0.4311386769290309  0.7906411064275289
  0.1090113578672174  0.7662187374097016  0.7939008082816486
  0.5533858856041149  0.8748637605331027  0.5573013966108107
  0.2279141185436302  0.2056201301382004  0.3523761580036719
  0.1192997913768750  0.1058641675155556  0.1102444750650662
  0.8754125689413286  0.1924294027163000  0.8769142304959061
  0.7824306221112138  0.1035553274048553  0.5987875072892166
  0.5524729329380023  0.2046729357109172  0.3598221866372313
  0.4405649276381993  0.1069646221395004  0.0992795558675965
  0.2351863268720393  0.2195344483087709  0.8814292265260519
  0.0977471379993204  0.0990553694466456  0.5615797897727717
  0.8841950007198847  0.2022365956074523  0.3504154512886686
  0.7570680326083306  0.1016679191688681  0.1100730316305558
  0.5539393287670507  0.2080929227363271  0.8696639837147018
  0.4201315541645130  0.1334493714846445  0.6232761302190539
  0.2263679419612075  0.5333569387978230  0.3504563966063827
  0.1186786093857535  0.4161891186791635  0.1102219287283361
  0.9103113712570519  0.5495312990840802  0.8691118967062721
  0.7925178038516378  0.4188688170377688  0.5637811759036353
  0.5519012502834855  0.5392788404034334  0.3513976736372797
  0.4522624665785813  0.4121855298385810  0.1069698356982727
  0.2389663177264794  0.5140979069600959  0.8635671815344637
  0.1009284144289424  0.4272833373944849  0.6012563833324478
  0.8947129984698421  0.5398693013894516  0.3599072328768642
  0.7792251161241452  0.4295875954339436  0.1112376682278580
  0.5335493278214969  0.5459922812271927  0.8665829932243483
  0.4454459195413136  0.4277650206309289  0.6066420195244220
  0.2261108269132066  0.8694970780291200  0.3416176730143690
  0.1072821394819883  0.7611900625351282  0.1054165096994524
  0.8528853690659801  0.8911912447281551  0.8638350731943305
  0.8167271154228715  0.7267225782078626  0.6088184574006164
  0.5546387869792966  0.8737441125212158  0.3338712549154508
  0.4499497000838915  0.7562613694516074  0.1063267234498468
  0.2441704526171407  0.8710288565004589  0.8772168951037713
  0.1101536137825789  0.7589713224543146  0.5695414113506700
  0.8830636215959586  0.8741246432624337  0.3493832424869865
  0.7785539749573687  0.7581690837615156  0.1056277171011288
  0.5579782485154254  0.8684961894011138  0.8477712875550552
  0.4238074225634918  0.7463567459325802  0.6132688682018994
 
  0.00000000E+00  0.00000000E+00  0.00000000E+00
  0.00000000E+00  0.00000000E+00  0.00000000E+00
  0.00000000E+00  0.00000000E+00  0.00000000E+00
  0.00000000E+00  0.00000000E+00  0.00000000E+00
  0.00000000E+00  0.00000000E+00  0.00000000E+00
  0.00000000E+00  0.00000000E+00  0.00000000E+00
  0.00000000E+00  0.00000000E+00  0.00000000E+00
  0.00000000E+00  0.00000000E+00  0.00000000E+00
  0.00000000E+00  0.00000000E+00  0.00000000E+00
  0.00000000E+00  0.00000000E+00  0.00000000E+00
  0.00000000E+00  0.00000000E+00  0.00000000E+00
  0.00000000E+00  0.00000000E+00  0.00000000E+00
  0.00000000E+00  0.00000000E+00  0.00000000E+00
  0.00000000E+00  0.00000000E+00  0.00000000E+00
  0.00000000E+00  0.00000000E+00  0.00000000E+00
  0.00000000E+00  0.00000000E+00  0.00000000E+00
  0.00000000E+00  0.00000000E+00  0.00000000E+00
  0.00000000E+00  0.00000000E+00  0.00000000E+00
  0.00000000E+00  0.00000000E+00  0.00000000E+00
  0.00000000E+00  0.00000000E+00  0.00000000E+00
  0.00000000E+00  0.00000000E+00  0.00000000E+00
  0.00000000E+00  0.00000000E+00  0.00000000E+00
  0.00000000E+00  0.00000000E+00  0.00000000E+00
  0.00000000E+00  0.00000000E+00  0.00000000E+00
  0.00000000E+00  0.00000000E+00  0.00000000E+00
  0.00000000E+00  0.00000000E+00  0.00000000E+00
  0.00000000E+00  0.00000000E+00  0.00000000E+00
  0.00000000E+00  0.00000000E+00  0.00000000E+00
  0.00000000E+00  0.00000000E+00  0.00000000E+00
  0.00000000E+00  0.00000000E+00  0.00000000E+00
  0.00000000E+00  0.00000000E+00  0.00000000E+00
  0.00000000E+00  0.00000000E+00  0.00000000E+00
  0.00000000E+00  0.00000000E+00  0.00000000E+00
  0.00000000E+00  0.00000000E+00  0.00000000E+00
  0.00000000E+00  0.00000000E+00  0.00000000E+00
  0.00000000E+00  0.00000000E+00  0.00000000E+00
  0.00000000E+00  0.00000000E+00  0.00000000E+00
  0.00000000E+00  0.00000000E+00  0.00000000E+00
  0.00000000E+00  0.00000000E+00  0.00000000E+00
  0.00000000E+00  0.00000000E+00  0.00000000E+00
  0.00000000E+00  0.00000000E+00  0.00000000E+00
  0.00000000E+00  0.00000000E+00  0.00000000E+00
  0.00000000E+00  0.00000000E+00  0.00000000E+00
  0.00000000E+00  0.00000000E+00  0.00000000E+00
  0.00000000E+00  0.00000000E+00  0.00000000E+00
  0.00000000E+00  0.00000000E+00  0.00000000E+00
  0.00000000E+00  0.00000000E+00  0.00000000E+00
  0.00000000E+00  0.00000000E+00  0.00000000E+00
  0.00000000E+00  0.00000000E+00  0.00000000E+00
  0.00000000E+00  0.00000000E+00  0.00000000E+00
  0.00000000E+00  0.00000000E+00  0.00000000E+00
  0.00000000E+00  0.00000000E+00  0.00000000E+00
  0.00000000E+00  0.00000000E+00  0.00000000E+00
  0.00000000E+00  0.00000000E+00  0.00000000E+00
  0.00000000E+00  0.00000000E+00  0.00000000E+00
  0.00000000E+00  0.00000000E+00  0.00000000E+00
  0.00000000E+00  0.00000000E+00  0.00000000E+00
  0.00000000E+00  0.00000000E+00  0.00000000E+00
  0.00000000E+00  0.00000000E+00  0.00000000E+00
  0.00000000E+00  0.00000000E+00  0.00000000E+00
  0.00000000E+00  0.00000000E+00  0.00000000E+00
  0.00000000E+00  0.00000000E+00  0.00000000E+00
  0.00000000E+00  0.00000000E+00  0.00000000E+00
  0.00000000E+00  0.00000000E+00  0.00000000E+00
  0.00000000E+00  0.00000000E+00  0.00000000E+00
  0.00000000E+00  0.00000000E+00  0.00000000E+00
  0.00000000E+00  0.00000000E+00  0.00000000E+00
  0.00000000E+00  0.00000000E+00  0.00000000E+00
  0.00000000E+00  0.00000000E+00  0.00000000E+00
  0.00000000E+00  0.00000000E+00  0.00000000E+00
  0.00000000E+00  0.00000000E+00  0.00000000E+00
  0.00000000E+00  0.00000000E+00  0.00000000E+00
