supercell of 100% icsd_608626.cif, 0% i 
   1.00000000000000     
    -9.5268547874692739    0.0235116641095981   -0.0007682161245556
    -4.7837745049302507    8.2629247036114624   -0.0246993571671254
    -0.0007343429049464    0.0298839319294183  -10.2154364173995589
   Al   Ca   Si   N 
    28     4     4    36
Direct
  0.1110081824648930  0.0947219267566481  0.2902299571490374
  0.2189146783007985  0.2087846307677452  0.0477566598548052
  0.7793027494364395  0.0998625585933297  0.8061500831143960
  0.8914223395424301  0.2074181337151160  0.5475728703112352
  0.4405503562709541  0.0986565734023728  0.2969886227630170
  0.5568847793673655  0.2086781929370645  0.0458795843257604
  0.1072147473475908  0.1055623982185523  0.8014243151870133
  0.2209404095360270  0.2087509737173363  0.5394511132639224
  0.7785637572883459  0.0996458649985570  0.2961070579201319
  0.8900071159114731  0.2063387346086429  0.0425950331715796
  0.5556908665322737  0.2028325292489086  0.5385359117256385
  0.1090520850588064  0.4242521552037388  0.2929891347819265
  0.2235417936384323  0.5305994005813730  0.0458322071342323
  0.7773347846263476  0.4261563406507562  0.7985780197357499
  0.8900435715873130  0.5338986057901707  0.5372887824687567
  0.4449308612381344  0.4294569129626566  0.2953629969144700
  0.5559158241801470  0.5375397627086826  0.0433378438030587
  0.1116055426430549  0.4194208804376700  0.8031445594268618
  0.7778184256122387  0.4271345240273092  0.2930055127033384
  0.8905803048839545  0.5376390518410830  0.0436651751817649
  0.4443970636270862  0.4276842591933345  0.8010501354617503
  0.5565394960252945  0.5445830827025375  0.5492848210132308
  0.1139966890507509  0.7598604905030584  0.2908934174165552
  0.2228990890738913  0.8791891976321295  0.0424925952039317
  0.5580940099904765  0.8729048845963163  0.0569647416206749
  0.7800520458266718  0.7569827162565943  0.3028974595795546
  0.4527625634057202  0.7591878389587379  0.8054272337928481
  0.5552565378573817  0.8709815722171115  0.5302346047762896
  0.4455596686431846  0.0901663167305244  0.7976395602498130
  0.7750269344261014  0.7633138667371639  0.7828460259962498
  0.1068365015908554  0.7591414049359315  0.8015318696151255
  0.2256381607173168  0.8733743664265461  0.5563981647175709
  0.2143542827542930  0.5362754422930962  0.5377255160252901
  0.8887223186709434  0.8654026867455258  0.5275044563730376
  0.4411954208619662  0.7593827907411637  0.2878898237678911
  0.8833347724656093  0.8796000367510004  0.0520917778827510
  0.2179396590557587  0.2057575877707478  0.3507690334776257
  0.1080604744400731  0.0968075299888440  0.1060889504317899
  0.8873903924690580  0.2072219963097552  0.8559186441899413
  0.7906147682955336  0.0720040224339087  0.6003932684692970
  0.5588178354878437  0.2089296446495581  0.3519943807820098
  0.4446911202694608  0.0993249344192861  0.1087671993923394
  0.1983468234764700  0.2165089386339005  0.8694174962570713
  0.0971120671720485  0.1299259827352159  0.6148367764768992
  0.8893703490113936  0.2058311169013933  0.3571267346507199
  0.7842359975613178  0.0875016533259583  0.1119611702311829
  0.5715109437425170  0.2219117341373078  0.8635376771914878
  0.4465893776479746  0.0916571436206226  0.5699166197436298
  0.2223574769217294  0.5346595224735395  0.3594778794901572
  0.1094167854202510  0.4297372520634966  0.1107639109739367
  0.8981472536884638  0.5162293413135330  0.8611523497881635
  0.7754384803736514  0.4264237020909789  0.6037307711660347
  0.5475759461209009  0.5531051865864640  0.3540599585542736
  0.4436135551975156  0.4313391102888815  0.1108265890306228
  0.2369387419882614  0.5048478514078596  0.8654021139340102
  0.1172436023958809  0.4314385494721265  0.5984784775046350
  0.8900813876374087  0.5324707420885275  0.3507299620634754
  0.7758017659722825  0.4279390682657578  0.1065067082015645
  0.5530045403338164  0.5373170249319088  0.8561726233704121
  0.4265614310439929  0.4393289885197902  0.5980423938996609
  0.2341747356409556  0.8644476879785046  0.3308715781726619
  0.1000080500982108  0.7652785517516918  0.1004749818576300
  0.8673979767509721  0.9028441026901248  0.8884496004237903
  0.7810742405276869  0.7661022739973404  0.5542770596059725
  0.5450509078408032  0.8635500932455784  0.3396510103095522
  0.4459972624307724  0.7552171762203059  0.1157710738406408
  0.2339130757600785  0.8872903581302509  0.8574494806166939
  0.0879533307232165  0.7390034392559457  0.5772276329865420
  0.8905615605149251  0.8778825921090103  0.3529586380846794
  0.7889958035019404  0.7666539427932193  0.1139411835104553
  0.5542750441091471  0.8495999951984885  0.8855867328242724
  0.4837485059231099  0.7485300576117311  0.6185016940668717
 
  0.00000000E+00  0.00000000E+00  0.00000000E+00
  0.00000000E+00  0.00000000E+00  0.00000000E+00
  0.00000000E+00  0.00000000E+00  0.00000000E+00
  0.00000000E+00  0.00000000E+00  0.00000000E+00
  0.00000000E+00  0.00000000E+00  0.00000000E+00
  0.00000000E+00  0.00000000E+00  0.00000000E+00
  0.00000000E+00  0.00000000E+00  0.00000000E+00
  0.00000000E+00  0.00000000E+00  0.00000000E+00
  0.00000000E+00  0.00000000E+00  0.00000000E+00
  0.00000000E+00  0.00000000E+00  0.00000000E+00
  0.00000000E+00  0.00000000E+00  0.00000000E+00
  0.00000000E+00  0.00000000E+00  0.00000000E+00
  0.00000000E+00  0.00000000E+00  0.00000000E+00
  0.00000000E+00  0.00000000E+00  0.00000000E+00
  0.00000000E+00  0.00000000E+00  0.00000000E+00
  0.00000000E+00  0.00000000E+00  0.00000000E+00
  0.00000000E+00  0.00000000E+00  0.00000000E+00
  0.00000000E+00  0.00000000E+00  0.00000000E+00
  0.00000000E+00  0.00000000E+00  0.00000000E+00
  0.00000000E+00  0.00000000E+00  0.00000000E+00
  0.00000000E+00  0.00000000E+00  0.00000000E+00
  0.00000000E+00  0.00000000E+00  0.00000000E+00
  0.00000000E+00  0.00000000E+00  0.00000000E+00
  0.00000000E+00  0.00000000E+00  0.00000000E+00
  0.00000000E+00  0.00000000E+00  0.00000000E+00
  0.00000000E+00  0.00000000E+00  0.00000000E+00
  0.00000000E+00  0.00000000E+00  0.00000000E+00
  0.00000000E+00  0.00000000E+00  0.00000000E+00
  0.00000000E+00  0.00000000E+00  0.00000000E+00
  0.00000000E+00  0.00000000E+00  0.00000000E+00
  0.00000000E+00  0.00000000E+00  0.00000000E+00
  0.00000000E+00  0.00000000E+00  0.00000000E+00
  0.00000000E+00  0.00000000E+00  0.00000000E+00
  0.00000000E+00  0.00000000E+00  0.00000000E+00
  0.00000000E+00  0.00000000E+00  0.00000000E+00
  0.00000000E+00  0.00000000E+00  0.00000000E+00
  0.00000000E+00  0.00000000E+00  0.00000000E+00
  0.00000000E+00  0.00000000E+00  0.00000000E+00
  0.00000000E+00  0.00000000E+00  0.00000000E+00
  0.00000000E+00  0.00000000E+00  0.00000000E+00
  0.00000000E+00  0.00000000E+00  0.00000000E+00
  0.00000000E+00  0.00000000E+00  0.00000000E+00
  0.00000000E+00  0.00000000E+00  0.00000000E+00
  0.00000000E+00  0.00000000E+00  0.00000000E+00
  0.00000000E+00  0.00000000E+00  0.00000000E+00
  0.00000000E+00  0.00000000E+00  0.00000000E+00
  0.00000000E+00  0.00000000E+00  0.00000000E+00
  0.00000000E+00  0.00000000E+00  0.00000000E+00
  0.00000000E+00  0.00000000E+00  0.00000000E+00
  0.00000000E+00  0.00000000E+00  0.00000000E+00
  0.00000000E+00  0.00000000E+00  0.00000000E+00
  0.00000000E+00  0.00000000E+00  0.00000000E+00
  0.00000000E+00  0.00000000E+00  0.00000000E+00
  0.00000000E+00  0.00000000E+00  0.00000000E+00
  0.00000000E+00  0.00000000E+00  0.00000000E+00
  0.00000000E+00  0.00000000E+00  0.00000000E+00
  0.00000000E+00  0.00000000E+00  0.00000000E+00
  0.00000000E+00  0.00000000E+00  0.00000000E+00
  0.00000000E+00  0.00000000E+00  0.00000000E+00
  0.00000000E+00  0.00000000E+00  0.00000000E+00
  0.00000000E+00  0.00000000E+00  0.00000000E+00
  0.00000000E+00  0.00000000E+00  0.00000000E+00
  0.00000000E+00  0.00000000E+00  0.00000000E+00
  0.00000000E+00  0.00000000E+00  0.00000000E+00
  0.00000000E+00  0.00000000E+00  0.00000000E+00
  0.00000000E+00  0.00000000E+00  0.00000000E+00
  0.00000000E+00  0.00000000E+00  0.00000000E+00
  0.00000000E+00  0.00000000E+00  0.00000000E+00
  0.00000000E+00  0.00000000E+00  0.00000000E+00
  0.00000000E+00  0.00000000E+00  0.00000000E+00
  0.00000000E+00  0.00000000E+00  0.00000000E+00
  0.00000000E+00  0.00000000E+00  0.00000000E+00
