supercell of 100% icsd_608626.cif, 0% i 
   1.00000000000000     
    -9.5577112135262698   -0.0469072580809521    0.0102593364081362
    -4.7380956463082438    8.2703380592649829   -0.0031252239787697
     0.0108936236467066    0.0100887216754884  -10.0968026991138533
   Al   Si   Ca   N 
    28     4     4    36
Direct
  0.1155575592324070  0.0975396980708325  0.2988492826459961
  0.2248200332416346  0.1985244873008938  0.0455751686301582
  0.8909240177206499  0.2042557488139849  0.5498778726153901
  0.4425034076273775  0.0950294920567245  0.3021077618818140
  0.5581262269425693  0.2016711759588716  0.0454911228280466
  0.1188594971718047  0.0900606504965893  0.7930195798287940
  0.2220895377101257  0.2072334555599440  0.5469403867244722
  0.7712127613693838  0.0982153262638761  0.3015415049978998
  0.8911789468946196  0.1996779075598596  0.0474263986670493
  0.4429244705848490  0.0945435060065378  0.7948287331068116
  0.1119432574514860  0.4225072903548650  0.2788883573608487
  0.2283395320762196  0.5269853601248258  0.0560111665648648
  0.7782525188084222  0.4281349484537245  0.7965022473958214
  0.4511297116271962  0.4251825542187220  0.2894963201328409
  0.5569082471691402  0.5394096545993250  0.0441393533459546
  0.1218361798164764  0.4138326657433424  0.8051954645908950
  0.7778485404949009  0.4272478282124794  0.2896992563408674
  0.8905324940819455  0.5366114554023227  0.0496495846022995
  0.4495589139499643  0.4218702063451332  0.7989878625285272
  0.5647291907434919  0.5286352281402813  0.5498791999161128
  0.2251089758588307  0.8730513219312286  0.0409976697241632
  0.7667321755567187  0.7654581548321957  0.8000521713567892
  0.8741762552063364  0.8845180636316599  0.5455749087761390
  0.4478408713960462  0.7620822740998392  0.2989755862324515
  0.5508708279637133  0.8743426767115352  0.0471577575632693
  0.2195341577657075  0.8818883471661252  0.5440984834117870
  0.7708688193539786  0.7669354518383713  0.2904614325190948
  0.5580125440745434  0.8758561785199035  0.5460385501139129
  0.7681402654797012  0.0989553186852987  0.7972687005816681
  0.5572660784764309  0.2068468980682994  0.5508486597091675
  0.8792330272551467  0.8804153605959257  0.0404271917295276
  0.4462921131396982  0.7632923123076623  0.7954755493574623
  0.8914054207261941  0.5428751441008899  0.5443336823122777
  0.2285026940804187  0.5354759556520676  0.5328851387055309
  0.0992871996439462  0.7783707781991254  0.2996030932507949
  0.1053303927881188  0.7548068940886523  0.8037096374583612
  0.2213861057046032  0.2106574999497397  0.3549512285958940
  0.1102008123163642  0.0909479845689418  0.1055791251695410
  0.8845035569443525  0.1917323604607262  0.8535967905812996
  0.7632225179161836  0.1026878756392193  0.6170993767335702
  0.5546454698216294  0.2100997333471426  0.3709960507023595
  0.4468195465345843  0.0936409647528151  0.1081695250614345
  0.2291937853991755  0.1923013146978860  0.8595149263976793
  0.1119630968438159  0.0969596586220476  0.6065898377777685
  0.8889404156698575  0.2045971306221332  0.3558314575313304
  0.7814920871428015  0.0838978213156381  0.1073995998336841
  0.5671963603532717  0.1991849354053556  0.8546150851082359
  0.4518720972698986  0.1007458753655683  0.6013817521140936
  0.2359877219528599  0.5155829556982638  0.3060916698073726
  0.1105028539490931  0.4163766346449123  0.0917072196970992
  0.8878057940967423  0.5414332048554726  0.8566508605111594
  0.7705680133047608  0.4108984151242225  0.6151854244630073
  0.5582111988262284  0.5384978737307193  0.3574306458836887
  0.4618092277911003  0.4174861493848496  0.1003792016697105
  0.2489407753332813  0.4984817973528237  0.8685669479865297
  0.1293383094892420  0.3997813450859908  0.6261905713854290
  0.8879164377119722  0.5419128101663873  0.3159495967741535
  0.7766326987363570  0.4218567196968621  0.0966863469652068
  0.5495708576261720  0.5544890175302015  0.8522927471723918
  0.4782997091400176  0.4001674059015485  0.6131584791020046
  0.2446043052734623  0.8911623474933137  0.3622602719109267
  0.0906428701399662  0.7729676363572366  0.0637972765614307
  0.8407840460102847  0.9066459187398834  0.8678841356145597
  0.7589232668460681  0.7947670807281710  0.6205622042910335
  0.5565145798465991  0.8713650571986875  0.3555462678808468
  0.4458878513373250  0.7578074911817012  0.1073845022781867
  0.2515909767471101  0.8760251322977339  0.8551476490645911
  0.0884889884898072  0.7976467629371982  0.5794726672282238
  0.8440035454580510  0.8951064159423296  0.3630041542382898
  0.7787120798570015  0.7728294970200622  0.0952580837130697
  0.5472049517603921  0.8679733319693455  0.8549980888537050
  0.4477462248794168  0.7589460741030010  0.6166553938325166
 
  0.00000000E+00  0.00000000E+00  0.00000000E+00
  0.00000000E+00  0.00000000E+00  0.00000000E+00
  0.00000000E+00  0.00000000E+00  0.00000000E+00
  0.00000000E+00  0.00000000E+00  0.00000000E+00
  0.00000000E+00  0.00000000E+00  0.00000000E+00
  0.00000000E+00  0.00000000E+00  0.00000000E+00
  0.00000000E+00  0.00000000E+00  0.00000000E+00
  0.00000000E+00  0.00000000E+00  0.00000000E+00
  0.00000000E+00  0.00000000E+00  0.00000000E+00
  0.00000000E+00  0.00000000E+00  0.00000000E+00
  0.00000000E+00  0.00000000E+00  0.00000000E+00
  0.00000000E+00  0.00000000E+00  0.00000000E+00
  0.00000000E+00  0.00000000E+00  0.00000000E+00
  0.00000000E+00  0.00000000E+00  0.00000000E+00
  0.00000000E+00  0.00000000E+00  0.00000000E+00
  0.00000000E+00  0.00000000E+00  0.00000000E+00
  0.00000000E+00  0.00000000E+00  0.00000000E+00
  0.00000000E+00  0.00000000E+00  0.00000000E+00
  0.00000000E+00  0.00000000E+00  0.00000000E+00
  0.00000000E+00  0.00000000E+00  0.00000000E+00
  0.00000000E+00  0.00000000E+00  0.00000000E+00
  0.00000000E+00  0.00000000E+00  0.00000000E+00
  0.00000000E+00  0.00000000E+00  0.00000000E+00
  0.00000000E+00  0.00000000E+00  0.00000000E+00
  0.00000000E+00  0.00000000E+00  0.00000000E+00
  0.00000000E+00  0.00000000E+00  0.00000000E+00
  0.00000000E+00  0.00000000E+00  0.00000000E+00
  0.00000000E+00  0.00000000E+00  0.00000000E+00
  0.00000000E+00  0.00000000E+00  0.00000000E+00
  0.00000000E+00  0.00000000E+00  0.00000000E+00
  0.00000000E+00  0.00000000E+00  0.00000000E+00
  0.00000000E+00  0.00000000E+00  0.00000000E+00
  0.00000000E+00  0.00000000E+00  0.00000000E+00
  0.00000000E+00  0.00000000E+00  0.00000000E+00
  0.00000000E+00  0.00000000E+00  0.00000000E+00
  0.00000000E+00  0.00000000E+00  0.00000000E+00
  0.00000000E+00  0.00000000E+00  0.00000000E+00
  0.00000000E+00  0.00000000E+00  0.00000000E+00
  0.00000000E+00  0.00000000E+00  0.00000000E+00
  0.00000000E+00  0.00000000E+00  0.00000000E+00
  0.00000000E+00  0.00000000E+00  0.00000000E+00
  0.00000000E+00  0.00000000E+00  0.00000000E+00
  0.00000000E+00  0.00000000E+00  0.00000000E+00
  0.00000000E+00  0.00000000E+00  0.00000000E+00
  0.00000000E+00  0.00000000E+00  0.00000000E+00
  0.00000000E+00  0.00000000E+00  0.00000000E+00
  0.00000000E+00  0.00000000E+00  0.00000000E+00
  0.00000000E+00  0.00000000E+00  0.00000000E+00
  0.00000000E+00  0.00000000E+00  0.00000000E+00
  0.00000000E+00  0.00000000E+00  0.00000000E+00
  0.00000000E+00  0.00000000E+00  0.00000000E+00
  0.00000000E+00  0.00000000E+00  0.00000000E+00
  0.00000000E+00  0.00000000E+00  0.00000000E+00
  0.00000000E+00  0.00000000E+00  0.00000000E+00
  0.00000000E+00  0.00000000E+00  0.00000000E+00
  0.00000000E+00  0.00000000E+00  0.00000000E+00
  0.00000000E+00  0.00000000E+00  0.00000000E+00
  0.00000000E+00  0.00000000E+00  0.00000000E+00
  0.00000000E+00  0.00000000E+00  0.00000000E+00
  0.00000000E+00  0.00000000E+00  0.00000000E+00
  0.00000000E+00  0.00000000E+00  0.00000000E+00
  0.00000000E+00  0.00000000E+00  0.00000000E+00
  0.00000000E+00  0.00000000E+00  0.00000000E+00
  0.00000000E+00  0.00000000E+00  0.00000000E+00
  0.00000000E+00  0.00000000E+00  0.00000000E+00
  0.00000000E+00  0.00000000E+00  0.00000000E+00
  0.00000000E+00  0.00000000E+00  0.00000000E+00
  0.00000000E+00  0.00000000E+00  0.00000000E+00
  0.00000000E+00  0.00000000E+00  0.00000000E+00
  0.00000000E+00  0.00000000E+00  0.00000000E+00
  0.00000000E+00  0.00000000E+00  0.00000000E+00
  0.00000000E+00  0.00000000E+00  0.00000000E+00
