Zn   O                                  
   1.00000000000000     
     3.3021565470020238    0.0000000000000000    0.0000000000000000
    -1.6507753205697400    2.8596311393350380    0.0000000000000000
    -0.0000064316588837    0.0000008441660652    5.2444489766500144
   Zn   O 
     2     2
Direct
  0.6666849419623043  0.3333467743355156  0.4465531308212627
  0.3333147126763050  0.6666529673187430  0.9465521685282401
  0.6667029349946586  0.3333541784855081  0.0628790066563332
  0.3332974855046975  0.6666460731994800  0.5628793674248654
 
             NaN             NaN             NaN
             NaN             NaN             NaN
             NaN             NaN             NaN
             NaN             NaN             NaN
