Zn   O                                  
   1.00000000000000     
     3.4605689733266209    0.0000000000000000    0.0000000000000000
    -1.7302598457047138    2.9969685644607824    0.0000000000000000
    -0.0000005366782454   -0.0000015316927661    4.5894496072881239
   Zn   O 
     2     2
Direct
  0.6666663930504029  0.3333327100715774  0.5008311616436866
  0.3333336141548153  0.6666672930100379  0.0008311626762129
  0.6666675368315573  0.3333308087308593  0.0001669370485570
  0.3333324559636841  0.6666691881875340  0.5001669363746459
 
             NaN             NaN             NaN
             NaN             NaN             NaN
             NaN             NaN             NaN
             NaN             NaN             NaN
