Zn   O 
   1.00000000000000     
   3.2878854407525600   0.0000000000000000   0.0000000000000000
  -1.6439427203762800   2.8473987262831901   0.0000000000000000
   0.0000000000000003   0.0000000000000006   5.3065497891700302
Zn   O 
2  2  
Direct
  0.6666677220182742  0.3333354440365554  0.5030144144838380  
  0.3333323331309978  0.6666646662619814  0.0030169468186491  
  0.6666647252902466  0.3333294505804860  0.1239820061629951  
  0.3333352195604887  0.6666704391209773  0.6239866325345156  
