Zn   O                                  
   1.00000000000000     
     3.3719146551475632    0.0000000000000000    0.0000000000000000
    -1.6859202052272140    2.9201779936111332    0.0000000000000000
    -0.0000001323018281   -0.0000024845839040    4.9766901836324875
   Zn   O 
     2     2
Direct
  0.6666630658880355  0.3333274767350833  0.4550930129656796
  0.3333369091308868  0.6666724581953046  0.9550930126214190
  0.6666729003597086  0.3333369923096592  0.0459625972380207
  0.3333271340927767  0.6666630727400793  0.5459625973689902
 
             NaN             NaN             NaN
             NaN             NaN             NaN
             NaN             NaN             NaN
             NaN             NaN             NaN
