Zn   O                                  
   1.00000000000000     
     3.2874083180082843    0.0000000000000000    0.0000000000000000
    -1.6436435153575162    2.8469662094217378    0.0000000000000000
    -0.0000013700294728    0.0000003263812418    5.2972414170481148
   Zn   O 
     2     2
Direct
  0.6666681876695241  0.3333357520444195  0.4738126584020105
  0.3333318068817314  0.6666642702077521  0.9738126315560787
  0.6666725660989410  0.3333333169585387  0.0942885969678114
  0.3333275084297360  0.6666666545456552  0.5942885784795220
 
             NaN             NaN             NaN
             NaN             NaN             NaN
             NaN             NaN             NaN
             NaN             NaN             NaN
