supercell of icsd_608626.cif            
  0.991772326733240     
     9.3279279617751012    0.0000021768697936   -0.0000000708782965
    -4.6639620977531209    8.0759951847024958   -0.0020695197383045
    -0.0000000805532306   -0.0025785464756964    9.8708204095335255
   Al   B    N 
    34     2    36
Direct
  0.2242966137215561  0.1117863817819824  0.2491337900366730
  0.1111953168906794  0.2223906532456255  0.4995039295491566
  0.8839741969403363  0.1093960807150367  0.7495519940924780
  0.7739334833289107  0.2245590573516907  0.9928549233247281
  0.5556416488714220  0.1112832629563414  0.2478236891982775
  0.4484053745744987  0.2213125272431782  0.5034326444071269
  0.2254218622767326  0.1093960709569544  0.7495520172704389
  0.1108963666320832  0.2217927687657308  0.0000209965740581
  0.8874897475824213  0.1117863931940448  0.2491337324702201
  0.7729071714143672  0.2213124541989373  0.5034325994143884
  0.4506255765186467  0.2245590437682381  0.9928547267824683
  0.2224297281297041  0.4448596116501804  0.2492389773191164
  0.1092579136647700  0.5545276586591825  0.4991639034246020
  0.8810194295024587  0.4439034468729091  0.7539485450157244
  0.5573277886455656  0.4439669158884740  0.2421623026632744
  0.4452697410016242  0.5545276294979686  0.4991639769498093
  0.2220157460626098  0.4440314293738865  0.7502032587190897
  0.1074888409254768  0.5574705550956480  0.9992776956783374
  0.8866391158880376  0.4439669143167748  0.2421623474134265
  0.7775618213041966  0.5551236232999770  0.4971441973483337
  0.5628842489761041  0.4439035354689196  0.7539484982614937
  0.4499816837653583  0.5574705714481141  0.9992776190222941
  0.2241043759674923  0.7788542264686811  0.2497659508205174
  0.1094776754226174  0.8879216639710492  0.4990142153056283
  0.8859757899109653  0.7719514405143570  0.7539464724068594
  0.7760325571537123  0.8837564373969045  0.9999067127923453
  0.5547498796563772  0.7788543032456658  0.2497659263500083
  0.4474787672444336  0.8949575698745278  0.5039112098087131
  0.2254182040588546  0.7828467767117573  0.7490697177163455
  0.1077237894269416  0.8837564323573304  0.9999067274480851
  0.8876539826459364  0.7753079351174534  0.2426599628266572
  0.7784439549984583  0.8879215828889500  0.4990142139339966
  0.5574286088692872  0.7828467678291773  0.7490697325642373
  0.4457191732684720  0.8914385076725821  0.9930814538389896
  0.5558736787145762  0.1117473031377472  0.7547640304336909
  0.7777472890073867  0.5554945269473137  0.0040370496232853
  0.2249152577594131  0.1121695081225980  0.4439560817035755
  0.1108623139571563  0.2217246334521690  0.1930395824749525
  0.8883276214830644  0.1102844400865166  0.9417503052859644
  0.7543370119453385  0.2121057376939035  0.7008535216164020
  0.5558205022403016  0.1116410107901018  0.4381861918936210
  0.4452213521505399  0.2208031436198183  0.1859941842817747
  0.2219567121455199  0.1102843627498444  0.9417500935994951
  0.1107544943044587  0.2215089945491826  0.6922928134205364
  0.8872543071992780  0.1121694274657656  0.4439560349558178
  0.7755816493948586  0.2208031903891552  0.1859942296035371
  0.5554049399703729  0.1108098395348378  0.9198937520407213
  0.4577689169854366  0.2121059813204980  0.7008538495004188
  0.2224403323797972  0.4448806274078621  0.4423212539579140
  0.1114192731771411  0.5563503738564179  0.1917546396379208
  0.8764501208246216  0.4573097205535390  0.9487655002351119
  0.7780027660618742  0.5560053432504333  0.6868570519422832
  0.5559674632132143  0.4428409608169943  0.4379061305276366
  0.4449311190895031  0.5563504510101325  0.1917545648173089
  0.2224692610907866  0.4449385408083728  0.9429018658229751
  0.1081610160267417  0.5541334183039694  0.6937587201401101
  0.8868733933144952  0.4428407704380888  0.4379059867322894
  0.7776543134878153  0.5553086711657969  0.1706076941452395
  0.5808597449838260  0.4573099545933985  0.9487654622908579
  0.4459724273257066  0.5541334399315758  0.6937587494705681
  0.2243905958363541  0.7787307061152760  0.4443782954390585
  0.1120663600196465  0.8890941522753693  0.1921094112114972
  0.8765949309289880  0.7531896575680008  0.9497400676568475
  0.7794207724322249  0.8872646901562931  0.6925910478670971
  0.5543401481080465  0.7787305659321433  0.4443782874366349
  0.4453013409156981  0.8906025756171729  0.1873583923826203
  0.2224284835809271  0.7781288655834331  0.9404050548268685
  0.1078439947351200  0.8872647418771891  0.6925908400524534
  0.8879518476761064  0.7759037646202103  0.4364490466470841
  0.7770275804890687  0.8890940515492360  0.1921092768494503
  0.5557001901439804  0.7781288770447858  0.9404049611511809
  0.4570363016595635  0.9140727498666834  0.6990073175773475
 
  0.00000000E+00  0.00000000E+00  0.00000000E+00
  0.00000000E+00  0.00000000E+00  0.00000000E+00
  0.00000000E+00  0.00000000E+00  0.00000000E+00
  0.00000000E+00  0.00000000E+00  0.00000000E+00
  0.00000000E+00  0.00000000E+00  0.00000000E+00
  0.00000000E+00  0.00000000E+00  0.00000000E+00
  0.00000000E+00  0.00000000E+00  0.00000000E+00
  0.00000000E+00  0.00000000E+00  0.00000000E+00
  0.00000000E+00  0.00000000E+00  0.00000000E+00
  0.00000000E+00  0.00000000E+00  0.00000000E+00
  0.00000000E+00  0.00000000E+00  0.00000000E+00
  0.00000000E+00  0.00000000E+00  0.00000000E+00
  0.00000000E+00  0.00000000E+00  0.00000000E+00
  0.00000000E+00  0.00000000E+00  0.00000000E+00
  0.00000000E+00  0.00000000E+00  0.00000000E+00
  0.00000000E+00  0.00000000E+00  0.00000000E+00
  0.00000000E+00  0.00000000E+00  0.00000000E+00
  0.00000000E+00  0.00000000E+00  0.00000000E+00
  0.00000000E+00  0.00000000E+00  0.00000000E+00
  0.00000000E+00  0.00000000E+00  0.00000000E+00
  0.00000000E+00  0.00000000E+00  0.00000000E+00
  0.00000000E+00  0.00000000E+00  0.00000000E+00
  0.00000000E+00  0.00000000E+00  0.00000000E+00
  0.00000000E+00  0.00000000E+00  0.00000000E+00
  0.00000000E+00  0.00000000E+00  0.00000000E+00
  0.00000000E+00  0.00000000E+00  0.00000000E+00
  0.00000000E+00  0.00000000E+00  0.00000000E+00
  0.00000000E+00  0.00000000E+00  0.00000000E+00
  0.00000000E+00  0.00000000E+00  0.00000000E+00
  0.00000000E+00  0.00000000E+00  0.00000000E+00
  0.00000000E+00  0.00000000E+00  0.00000000E+00
  0.00000000E+00  0.00000000E+00  0.00000000E+00
  0.00000000E+00  0.00000000E+00  0.00000000E+00
  0.00000000E+00  0.00000000E+00  0.00000000E+00
  0.00000000E+00  0.00000000E+00  0.00000000E+00
  0.00000000E+00  0.00000000E+00  0.00000000E+00
  0.00000000E+00  0.00000000E+00  0.00000000E+00
  0.00000000E+00  0.00000000E+00  0.00000000E+00
  0.00000000E+00  0.00000000E+00  0.00000000E+00
  0.00000000E+00  0.00000000E+00  0.00000000E+00
  0.00000000E+00  0.00000000E+00  0.00000000E+00
  0.00000000E+00  0.00000000E+00  0.00000000E+00
  0.00000000E+00  0.00000000E+00  0.00000000E+00
  0.00000000E+00  0.00000000E+00  0.00000000E+00
  0.00000000E+00  0.00000000E+00  0.00000000E+00
  0.00000000E+00  0.00000000E+00  0.00000000E+00
  0.00000000E+00  0.00000000E+00  0.00000000E+00
  0.00000000E+00  0.00000000E+00  0.00000000E+00
  0.00000000E+00  0.00000000E+00  0.00000000E+00
  0.00000000E+00  0.00000000E+00  0.00000000E+00
  0.00000000E+00  0.00000000E+00  0.00000000E+00
  0.00000000E+00  0.00000000E+00  0.00000000E+00
  0.00000000E+00  0.00000000E+00  0.00000000E+00
  0.00000000E+00  0.00000000E+00  0.00000000E+00
  0.00000000E+00  0.00000000E+00  0.00000000E+00
  0.00000000E+00  0.00000000E+00  0.00000000E+00
  0.00000000E+00  0.00000000E+00  0.00000000E+00
  0.00000000E+00  0.00000000E+00  0.00000000E+00
  0.00000000E+00  0.00000000E+00  0.00000000E+00
  0.00000000E+00  0.00000000E+00  0.00000000E+00
  0.00000000E+00  0.00000000E+00  0.00000000E+00
  0.00000000E+00  0.00000000E+00  0.00000000E+00
  0.00000000E+00  0.00000000E+00  0.00000000E+00
  0.00000000E+00  0.00000000E+00  0.00000000E+00
  0.00000000E+00  0.00000000E+00  0.00000000E+00
  0.00000000E+00  0.00000000E+00  0.00000000E+00
  0.00000000E+00  0.00000000E+00  0.00000000E+00
  0.00000000E+00  0.00000000E+00  0.00000000E+00
  0.00000000E+00  0.00000000E+00  0.00000000E+00
  0.00000000E+00  0.00000000E+00  0.00000000E+00
  0.00000000E+00  0.00000000E+00  0.00000000E+00
  0.00000000E+00  0.00000000E+00  0.00000000E+00
