Al   B    N                             
   1.00000000000000     
    -9.2589143717433036    0.0022774010069450   -0.0036237563091343
    -4.6282892605172901    8.0194503934700112    0.0006968022146447
    -0.0072438334928272   -0.0013778896851015   -9.8968279184972179
   Al   B    N 
    33     3    36
Direct
  0.1119982618072157  0.0895965426870902  0.3007854327203461
  0.2236204142102736  0.2006165951353864  0.0544484665144438
  0.8886468534382459  0.2033328326731052  0.5621084058304859
  0.4460270362149572  0.0935076629236278  0.3048614902266280
  0.5620207042959962  0.2020935774274335  0.0504856903338151
  0.1089973378970797  0.0898135808073945  0.8104276881738386
  0.2210231793788111  0.2047916029587213  0.5550670211627917
  0.7788080610063801  0.0923703207855269  0.3073436470944060
  0.8904804866420051  0.1966638324620078  0.0504088545319092
  0.4546393632957262  0.0891872999986987  0.8039957060432172
  0.5570794876827350  0.2046161035731160  0.5599979207153751
  0.1091067680276723  0.4291206650513573  0.3049770479939795
  0.2241798374899062  0.5422878169518626  0.0547913913276048
  0.7758871922311315  0.4283147870718196  0.8055401039070560
  0.8869958480430924  0.5419631212368685  0.5617827848781758
  0.4454252383501043  0.4263133123763083  0.3048880842427408
  0.5514182441369258  0.5419981993417835  0.0552520813275592
  0.1083443512786957  0.4331431501868508  0.8042928903740005
  0.2214018010230205  0.5412290165453939  0.5546168682889885
  0.7798495189185104  0.4268929680086870  0.3051874170826920
  0.8871072884031364  0.5445335806299241  0.0499159578159620
  0.4501526000535421  0.4240882976112985  0.8037346104616248
  0.5547969729050521  0.5406917347818521  0.5539974396308409
  0.1100733071257096  0.7657452107916285  0.3013547013131941
  0.8875862737575559  0.8729860617478664  0.5696650330988646
  0.4398268928017117  0.7647055123720676  0.3003622397796946
  0.5571790760996223  0.8708477341350545  0.0508439034431944
  0.1062224464946411  0.7650366083347393  0.8114833078540897
  0.2220783812500571  0.8718915495216280  0.5562855129364550
  0.7785546132327994  0.7622079216851034  0.3072441964412675
  0.8869622691863626  0.8761827417139472  0.0462509073462769
  0.4475900606621366  0.7604175757830447  0.8106276290756540
  0.5559928716644720  0.8708861229215614  0.5602881963690223
  0.7718343713743749  0.0932658761053702  0.7988503322284330
  0.2217384173169705  0.8731186191942228  0.0497745730981052
  0.7716441179951730  0.7683014602634231  0.7992041066036251
  0.2210416286303243  0.2044018641436907  0.3611721141458801
  0.1220837038955764  0.0701013369769470  0.1050779998358564
  0.8765350991373708  0.1909924198044664  0.8573017136349037
  0.7757927338636748  0.0954155310455249  0.6356531952218134
  0.5570672345974685  0.2044512808262553  0.3679396512570960
  0.4471966468417961  0.0935389952866146  0.1110568004598704
  0.2228627662752771  0.2054357177313690  0.8631917886107132
  0.1121203099026005  0.0922801396768236  0.6187794940223199
  0.8898796515064191  0.2037577943257318  0.3673490862783311
  0.7788799241408739  0.0917775528350475  0.1177171213114434
  0.5807518929069175  0.1928553399125263  0.8560934876784572
  0.4433778505011503  0.0946678158767469  0.6140707827063068
  0.2208405990109625  0.5416983568181877  0.3612491211844713
  0.1099251126962315  0.4285284087650041  0.1121129884818686
  0.8771249484803221  0.5649641623957109  0.8564946375905862
  0.7767775816430600  0.4279472800594348  0.6149911586452177
  0.5550833827192960  0.5410871683797751  0.3607517359061845
  0.4466793228280963  0.4242217008547939  0.1130877109964388
  0.2253278573782467  0.5373746953907741  0.8643404753674844
  0.1117181202236068  0.4280029764897861  0.6133092566666249
  0.8874525298227596  0.5410453977950382  0.3687190488092185
  0.7812974520930211  0.4255024708033162  0.1103432687057335
  0.5560467211730185  0.5380778331354961  0.8656165884179430
  0.4442556648349480  0.4287767319696130  0.6128333559737129
  0.2220708721534095  0.8719135349829799  0.3666885329800991
  0.1200954474930640  0.7754233363769600  0.1040385527114793
  0.8662636559077441  0.8835397873070008  0.8514164141293037
  0.7753001408539859  0.7625145161472062  0.6357527413195427
  0.5558059583162986  0.8706256943846142  0.3663785142514655
  0.4209723215176453  0.7748064477401542  0.1051316196271017
  0.2241493493989068  0.8710318921081850  0.8850890924653214
  0.1128207157530241  0.7615620436703949  0.6202193560532550
  0.8891856380039442  0.8720095331292725  0.3735540199971510
  0.7791760397280925  0.7628687534254084  0.1166386924599578
  0.5808309631851358  0.8597476358646290  0.8574383832046806
  0.4425624870410871  0.7615413615845199  0.6187193431190821
 
  0.00000000E+00  0.00000000E+00  0.00000000E+00
  0.00000000E+00  0.00000000E+00  0.00000000E+00
  0.00000000E+00  0.00000000E+00  0.00000000E+00
  0.00000000E+00  0.00000000E+00  0.00000000E+00
  0.00000000E+00  0.00000000E+00  0.00000000E+00
  0.00000000E+00  0.00000000E+00  0.00000000E+00
  0.00000000E+00  0.00000000E+00  0.00000000E+00
  0.00000000E+00  0.00000000E+00  0.00000000E+00
  0.00000000E+00  0.00000000E+00  0.00000000E+00
  0.00000000E+00  0.00000000E+00  0.00000000E+00
  0.00000000E+00  0.00000000E+00  0.00000000E+00
  0.00000000E+00  0.00000000E+00  0.00000000E+00
  0.00000000E+00  0.00000000E+00  0.00000000E+00
  0.00000000E+00  0.00000000E+00  0.00000000E+00
  0.00000000E+00  0.00000000E+00  0.00000000E+00
  0.00000000E+00  0.00000000E+00  0.00000000E+00
  0.00000000E+00  0.00000000E+00  0.00000000E+00
  0.00000000E+00  0.00000000E+00  0.00000000E+00
  0.00000000E+00  0.00000000E+00  0.00000000E+00
  0.00000000E+00  0.00000000E+00  0.00000000E+00
  0.00000000E+00  0.00000000E+00  0.00000000E+00
  0.00000000E+00  0.00000000E+00  0.00000000E+00
  0.00000000E+00  0.00000000E+00  0.00000000E+00
  0.00000000E+00  0.00000000E+00  0.00000000E+00
  0.00000000E+00  0.00000000E+00  0.00000000E+00
  0.00000000E+00  0.00000000E+00  0.00000000E+00
  0.00000000E+00  0.00000000E+00  0.00000000E+00
  0.00000000E+00  0.00000000E+00  0.00000000E+00
  0.00000000E+00  0.00000000E+00  0.00000000E+00
  0.00000000E+00  0.00000000E+00  0.00000000E+00
  0.00000000E+00  0.00000000E+00  0.00000000E+00
  0.00000000E+00  0.00000000E+00  0.00000000E+00
  0.00000000E+00  0.00000000E+00  0.00000000E+00
  0.00000000E+00  0.00000000E+00  0.00000000E+00
  0.00000000E+00  0.00000000E+00  0.00000000E+00
  0.00000000E+00  0.00000000E+00  0.00000000E+00
  0.00000000E+00  0.00000000E+00  0.00000000E+00
  0.00000000E+00  0.00000000E+00  0.00000000E+00
  0.00000000E+00  0.00000000E+00  0.00000000E+00
  0.00000000E+00  0.00000000E+00  0.00000000E+00
  0.00000000E+00  0.00000000E+00  0.00000000E+00
  0.00000000E+00  0.00000000E+00  0.00000000E+00
  0.00000000E+00  0.00000000E+00  0.00000000E+00
  0.00000000E+00  0.00000000E+00  0.00000000E+00
  0.00000000E+00  0.00000000E+00  0.00000000E+00
  0.00000000E+00  0.00000000E+00  0.00000000E+00
  0.00000000E+00  0.00000000E+00  0.00000000E+00
  0.00000000E+00  0.00000000E+00  0.00000000E+00
  0.00000000E+00  0.00000000E+00  0.00000000E+00
  0.00000000E+00  0.00000000E+00  0.00000000E+00
  0.00000000E+00  0.00000000E+00  0.00000000E+00
  0.00000000E+00  0.00000000E+00  0.00000000E+00
  0.00000000E+00  0.00000000E+00  0.00000000E+00
  0.00000000E+00  0.00000000E+00  0.00000000E+00
  0.00000000E+00  0.00000000E+00  0.00000000E+00
  0.00000000E+00  0.00000000E+00  0.00000000E+00
  0.00000000E+00  0.00000000E+00  0.00000000E+00
  0.00000000E+00  0.00000000E+00  0.00000000E+00
  0.00000000E+00  0.00000000E+00  0.00000000E+00
  0.00000000E+00  0.00000000E+00  0.00000000E+00
  0.00000000E+00  0.00000000E+00  0.00000000E+00
  0.00000000E+00  0.00000000E+00  0.00000000E+00
  0.00000000E+00  0.00000000E+00  0.00000000E+00
  0.00000000E+00  0.00000000E+00  0.00000000E+00
  0.00000000E+00  0.00000000E+00  0.00000000E+00
  0.00000000E+00  0.00000000E+00  0.00000000E+00
  0.00000000E+00  0.00000000E+00  0.00000000E+00
  0.00000000E+00  0.00000000E+00  0.00000000E+00
  0.00000000E+00  0.00000000E+00  0.00000000E+00
  0.00000000E+00  0.00000000E+00  0.00000000E+00
  0.00000000E+00  0.00000000E+00  0.00000000E+00
  0.00000000E+00  0.00000000E+00  0.00000000E+00
