Al   B    N                             
   1.00000000000000     
    -9.2598218495621492    0.0009569904240785    0.0092975293504020
    -4.6307359571402600    8.0182876418621198    0.0002607129449453
     0.0100552720479724    0.0054845566973783   -9.8963307885829792
   Al   B    N 
    33     3    36
Direct
  0.1110983174832256  0.0921035604798135  0.4075055376804073
  0.2237477161332109  0.2005704741120624  0.1646028680630849
  0.8891421500189551  0.2005302521897292  0.6686875314867535
  0.4464484580021093  0.0933119483632225  0.4154562025965092
  0.5575599464525709  0.2043601162028281  0.1601519945665970
  0.1109536179043644  0.0866724185674030  0.9196344790500390
  0.2212664811600931  0.2045618823356037  0.6647125196814301
  0.7790546672851306  0.0921017773422292  0.4129407719350908
  0.8910220606356134  0.1991219397987578  0.1580373106229729
  0.4550845777732562  0.0889238737296765  0.9150000940933012
  0.5625749833465932  0.2016480774872562  0.6690337289856032
  0.1100597074469363  0.4285714682049218  0.4144201628463335
  0.2241817245013138  0.5428867255048289  0.1649699726777456
  0.7763227600697107  0.4287071114428045  0.9143075982242692
  0.8870406694938922  0.5446739590516785  0.6690920121569377
  0.4459068547332734  0.4257469472306070  0.4153568714048319
  0.5510977848408629  0.5421959431026764  0.1657429729387943
  0.1077836880096967  0.4336232886347915  0.9154315790657392
  0.2218800877601694  0.5404858980229363  0.6642456111925057
  0.7799030539277965  0.4263519432237786  0.4144973120522266
  0.8874052360983882  0.5415857147252439  0.1590462778763353
  0.4504786267568832  0.4240040495270279  0.9149968150899142
  0.5558003763850579  0.5399865141969542  0.6641460914377433
  0.1093054928832160  0.7640090848174665  0.4069555989044602
  0.8861319768766549  0.8737518178683885  0.6730486841245522
  0.4430892687419643  0.7628740926495965  0.4080557102633904
  0.5518456392249576  0.8730725312398704  0.1598848962711443
  0.1087891881764733  0.7666038830077540  0.9184862792942781
  0.2226178531404344  0.8719909140314144  0.6624838137548323
  0.7786554281794835  0.7624012992621445  0.4126641022342454
  0.8902311060811030  0.8745950755303937  0.1509279942902708
  0.4445514931054859  0.7616477581576717  0.9194181580500640
  0.5611104440381709  0.8683363775584567  0.6686912548366024
  0.7726820354712487  0.0925491508897593  0.9214168471669595
  0.2222768659406640  0.8718876854111244  0.1679082512418333
  0.7721990160207071  0.7663622713848781  0.9215762035606048
  0.2232034380453172  0.2053075318783470  0.3562445904273090
  0.1241782648489007  0.0685632088198034  0.1129188747402523
  0.8796773962496971  0.1903216828955223  0.8641277808649690
  0.7800735518698190  0.0912907048340017  0.6031235005182012
  0.5573352502362354  0.2041387916580106  0.3526147169299563
  0.4441674161316200  0.0951600921116622  0.1041996474009323
  0.2209775596973671  0.2045195811423284  0.8581706224051047
  0.1102997567494484  0.0934703740652481  0.6014975026645573
  0.8872249763774107  0.2046992649026649  0.3503405095887189
  0.7756366468226332  0.0954960874311936  0.0834830235576973
  0.5817454071072135  0.1923530017546966  0.8628453427598828
  0.4467212938495138  0.0930423411424357  0.6101762148007168
  0.2230127463441960  0.5385503446299609  0.3562323541197614
  0.1121830151079450  0.4279340182686937  0.1062615509553595
  0.8769493441925889  0.5653150849879509  0.8630029923932057
  0.7813074072588435  0.4257656682177426  0.6095036084944923
  0.5565366791771993  0.5378149508115371  0.3568066986668157
  0.4451600599225074  0.4275153018755375  0.1051871390920525
  0.2234920395855724  0.5405171123579535  0.8568838064286766
  0.1096586566553484  0.4285835760036676  0.6075163311282097
  0.8877898650693510  0.5407162443374105  0.3517982216135849
  0.7770568566355394  0.4276096678449477  0.1047624571563333
  0.5549893590557602  0.5410302341843121  0.8558165087604905
  0.4463514904890005  0.4249654029020320  0.6080311294935257
  0.2225427311134709  0.8716595153771607  0.3344776933438638
  0.1246278322308640  0.7734822762330111  0.1114382557915476
  0.8693874814441216  0.8821046350743629  0.8704305363793665
  0.7792349014825533  0.7627958703400282  0.6031743312741611
  0.5573685010295861  0.8720904782062036  0.3514145229242658
  0.4198169712965978  0.7730560838013290  0.1127262524633892
  0.2249225853274837  0.8705990683865537  0.8515834167637593
  0.1082679589263051  0.7637771140524663  0.6025512377081341
  0.8866489919331499  0.8732800554151297  0.3443360294656301
  0.7755386396712538  0.7622588641233108  0.0846140191981917
  0.5800039587957357  0.8580467445467974  0.8646110570943577
  0.4446881611299318  0.7628467936633498  0.6019696339363847
 
  0.00000000E+00  0.00000000E+00  0.00000000E+00
  0.00000000E+00  0.00000000E+00  0.00000000E+00
  0.00000000E+00  0.00000000E+00  0.00000000E+00
  0.00000000E+00  0.00000000E+00  0.00000000E+00
  0.00000000E+00  0.00000000E+00  0.00000000E+00
  0.00000000E+00  0.00000000E+00  0.00000000E+00
  0.00000000E+00  0.00000000E+00  0.00000000E+00
  0.00000000E+00  0.00000000E+00  0.00000000E+00
  0.00000000E+00  0.00000000E+00  0.00000000E+00
  0.00000000E+00  0.00000000E+00  0.00000000E+00
  0.00000000E+00  0.00000000E+00  0.00000000E+00
  0.00000000E+00  0.00000000E+00  0.00000000E+00
  0.00000000E+00  0.00000000E+00  0.00000000E+00
  0.00000000E+00  0.00000000E+00  0.00000000E+00
  0.00000000E+00  0.00000000E+00  0.00000000E+00
  0.00000000E+00  0.00000000E+00  0.00000000E+00
  0.00000000E+00  0.00000000E+00  0.00000000E+00
  0.00000000E+00  0.00000000E+00  0.00000000E+00
  0.00000000E+00  0.00000000E+00  0.00000000E+00
  0.00000000E+00  0.00000000E+00  0.00000000E+00
  0.00000000E+00  0.00000000E+00  0.00000000E+00
  0.00000000E+00  0.00000000E+00  0.00000000E+00
  0.00000000E+00  0.00000000E+00  0.00000000E+00
  0.00000000E+00  0.00000000E+00  0.00000000E+00
  0.00000000E+00  0.00000000E+00  0.00000000E+00
  0.00000000E+00  0.00000000E+00  0.00000000E+00
  0.00000000E+00  0.00000000E+00  0.00000000E+00
  0.00000000E+00  0.00000000E+00  0.00000000E+00
  0.00000000E+00  0.00000000E+00  0.00000000E+00
  0.00000000E+00  0.00000000E+00  0.00000000E+00
  0.00000000E+00  0.00000000E+00  0.00000000E+00
  0.00000000E+00  0.00000000E+00  0.00000000E+00
  0.00000000E+00  0.00000000E+00  0.00000000E+00
  0.00000000E+00  0.00000000E+00  0.00000000E+00
  0.00000000E+00  0.00000000E+00  0.00000000E+00
  0.00000000E+00  0.00000000E+00  0.00000000E+00
  0.00000000E+00  0.00000000E+00  0.00000000E+00
  0.00000000E+00  0.00000000E+00  0.00000000E+00
  0.00000000E+00  0.00000000E+00  0.00000000E+00
  0.00000000E+00  0.00000000E+00  0.00000000E+00
  0.00000000E+00  0.00000000E+00  0.00000000E+00
  0.00000000E+00  0.00000000E+00  0.00000000E+00
  0.00000000E+00  0.00000000E+00  0.00000000E+00
  0.00000000E+00  0.00000000E+00  0.00000000E+00
  0.00000000E+00  0.00000000E+00  0.00000000E+00
  0.00000000E+00  0.00000000E+00  0.00000000E+00
  0.00000000E+00  0.00000000E+00  0.00000000E+00
  0.00000000E+00  0.00000000E+00  0.00000000E+00
  0.00000000E+00  0.00000000E+00  0.00000000E+00
  0.00000000E+00  0.00000000E+00  0.00000000E+00
  0.00000000E+00  0.00000000E+00  0.00000000E+00
  0.00000000E+00  0.00000000E+00  0.00000000E+00
  0.00000000E+00  0.00000000E+00  0.00000000E+00
  0.00000000E+00  0.00000000E+00  0.00000000E+00
  0.00000000E+00  0.00000000E+00  0.00000000E+00
  0.00000000E+00  0.00000000E+00  0.00000000E+00
  0.00000000E+00  0.00000000E+00  0.00000000E+00
  0.00000000E+00  0.00000000E+00  0.00000000E+00
  0.00000000E+00  0.00000000E+00  0.00000000E+00
  0.00000000E+00  0.00000000E+00  0.00000000E+00
  0.00000000E+00  0.00000000E+00  0.00000000E+00
  0.00000000E+00  0.00000000E+00  0.00000000E+00
  0.00000000E+00  0.00000000E+00  0.00000000E+00
  0.00000000E+00  0.00000000E+00  0.00000000E+00
  0.00000000E+00  0.00000000E+00  0.00000000E+00
  0.00000000E+00  0.00000000E+00  0.00000000E+00
  0.00000000E+00  0.00000000E+00  0.00000000E+00
  0.00000000E+00  0.00000000E+00  0.00000000E+00
  0.00000000E+00  0.00000000E+00  0.00000000E+00
  0.00000000E+00  0.00000000E+00  0.00000000E+00
  0.00000000E+00  0.00000000E+00  0.00000000E+00
  0.00000000E+00  0.00000000E+00  0.00000000E+00
