Al   B    N                             
   1.00000000000000     
    -9.2895538584106472    0.0118001688462090    0.0029902477888111
    -4.6369248115865664    8.0845641147303979    0.0070628547168257
    -0.0337985627011499   -0.0274278268389651  -10.0617268148388614
   Al   B    N 
    33     3    36
Direct
  0.1149289130269935  0.0882468869137512  0.3172585930139178
  0.2217005761648494  0.2022087917223274  0.0692430377553066
  0.8939070491258008  0.2054289501485940  0.5727036763396569
  0.4429391766710111  0.0983002638387021  0.3185609293720617
  0.5492055070728270  0.2116586146331940  0.0706720652198101
  0.1092119591650373  0.0889558883885471  0.8281644412313867
  0.2239072823516679  0.2023264388223751  0.5713477719021895
  0.7835688715755040  0.0846346340397801  0.3881635384037807
  0.8958735836726959  0.2032306557034644  0.0691372407057145
  0.4523334112666362  0.0990415119340113  0.8251629853495714
  0.5496817747137328  0.2100725472512295  0.5721326440926120
  0.1097712684963028  0.4280449733789737  0.3221539494891204
  0.2243725539404977  0.5403260716575815  0.0720374413388143
  0.7793857060476128  0.4158964708612203  0.8203356142015394
  0.8927113520556915  0.5322040346738746  0.5772824688627409
  0.4440761146026162  0.4281346958145988  0.3231993336600425
  0.5518174247825769  0.5407666978416685  0.0714724704734593
  0.1136982717551547  0.4211602527545679  0.8201400237482375
  0.2166644472632342  0.5456458605154353  0.5759720834684288
  0.7792679161813609  0.4279076337692373  0.3201428011194878
  0.8912755394438392  0.5347783878628718  0.0555909382135056
  0.4496801691435124  0.4255558936622137  0.8211291336416124
  0.5543470714877401  0.5411205427015489  0.5729003693743806
  0.1202864825982601  0.7595306782310800  0.3162422823080391
  0.8735039840531869  0.8831392683817967  0.6577983317940905
  0.4378254630028806  0.7593688871509059  0.3183695589814874
  0.5527899281850921  0.8720825737562095  0.1248448160916453
  0.1102757082701231  0.7611687358797923  0.8420113012979016
  0.2192121857803926  0.8716364172466555  0.5789405287620255
  0.7778773707750659  0.7642731725701779  0.3901545639669948
  0.8911319096743924  0.8761957732148176  0.1296629536910032
  0.4495426304933687  0.7583920974745695  0.8377129896810089
  0.5638318206787361  0.8674523938427967  0.6369126152678461
  0.7742648364836668  0.0944224659879751  0.9083345540310148
  0.2249146903530530  0.8693096600066355  0.0672439120705874
  0.7469104083044371  0.8241971008404079  0.9115427472346269
  0.2228655115646276  0.2026946074521305  0.3804388466848891
  0.1241811813412497  0.0693904498625244  0.1246819858671060
  0.8789166820931129  0.1871085243850032  0.8770909551652224
  0.7809991656677653  0.0880393435020110  0.5803273527814525
  0.5501936847526707  0.2082748584397152  0.3798232707392586
  0.4400162771185805  0.1027013423516294  0.1279307928076960
  0.2297966155722762  0.1969897017769142  0.8813156818887506
  0.1128697511374668  0.0927757830741385  0.6375030425456032
  0.8943639483562933  0.2058345479617500  0.3764932031528971
  0.7786954291105488  0.0906158419969927  0.0714164365459382
  0.5737606157737929  0.2013072359245101  0.8800157350009599
  0.4439127184809308  0.0972214908288933  0.6337724868501269
  0.2194682637538108  0.5430490002922923  0.3834283210109888
  0.1085336171428253  0.4306748712609050  0.1320563486128279
  0.9005667149373551  0.5100695956491137  0.8750217979707458
  0.7757043628479465  0.4255776196163339  0.6309407577863908
  0.5547352943415333  0.5406378893442536  0.3819437765339799
  0.4444562116053703  0.4285004974048761  0.1345425486630418
  0.2250460897710909  0.5330779604754809  0.8842788193253384
  0.1153485159525331  0.4243135327094762  0.6306901728016783
  0.8920154053405724  0.5324972982169882  0.3838957116843886
  0.7773449741119691  0.4301959804619742  0.1305969590487450
  0.5581127982419858  0.5357477243649740  0.8843071465804329
  0.4420389875150121  0.4306573370169460  0.6320043270117566
  0.2215591352149104  0.8714479340818855  0.3892037986069141
  0.1298602916461888  0.7706863012768821  0.1205898813624273
  0.8544745574248580  0.8958258017341407  0.8535602341951929
  0.7794241306631022  0.7661078740694833  0.5807976604000089
  0.5621877255824685  0.8656099301271425  0.3256929698592614
  0.4172172416423194  0.7710416716247366  0.1219755190285312
  0.2248828698214211  0.8710336143846504  0.9054950737467351
  0.1088122329080861  0.7636586767701630  0.6492693355808612
  0.8864104218684972  0.8707390369076080  0.3186780580717397
  0.7740505390654491  0.7742614420445761  0.0576971506568924
  0.5823334254886703  0.8663339679427295  0.8517991260643640
  0.4410409543447997  0.7605296296330408  0.6426733786921091
 
  0.00000000E+00  0.00000000E+00  0.00000000E+00
  0.00000000E+00  0.00000000E+00  0.00000000E+00
  0.00000000E+00  0.00000000E+00  0.00000000E+00
  0.00000000E+00  0.00000000E+00  0.00000000E+00
  0.00000000E+00  0.00000000E+00  0.00000000E+00
  0.00000000E+00  0.00000000E+00  0.00000000E+00
  0.00000000E+00  0.00000000E+00  0.00000000E+00
  0.00000000E+00  0.00000000E+00  0.00000000E+00
  0.00000000E+00  0.00000000E+00  0.00000000E+00
  0.00000000E+00  0.00000000E+00  0.00000000E+00
  0.00000000E+00  0.00000000E+00  0.00000000E+00
  0.00000000E+00  0.00000000E+00  0.00000000E+00
  0.00000000E+00  0.00000000E+00  0.00000000E+00
  0.00000000E+00  0.00000000E+00  0.00000000E+00
  0.00000000E+00  0.00000000E+00  0.00000000E+00
  0.00000000E+00  0.00000000E+00  0.00000000E+00
  0.00000000E+00  0.00000000E+00  0.00000000E+00
  0.00000000E+00  0.00000000E+00  0.00000000E+00
  0.00000000E+00  0.00000000E+00  0.00000000E+00
  0.00000000E+00  0.00000000E+00  0.00000000E+00
  0.00000000E+00  0.00000000E+00  0.00000000E+00
  0.00000000E+00  0.00000000E+00  0.00000000E+00
  0.00000000E+00  0.00000000E+00  0.00000000E+00
  0.00000000E+00  0.00000000E+00  0.00000000E+00
  0.00000000E+00  0.00000000E+00  0.00000000E+00
  0.00000000E+00  0.00000000E+00  0.00000000E+00
  0.00000000E+00  0.00000000E+00  0.00000000E+00
  0.00000000E+00  0.00000000E+00  0.00000000E+00
  0.00000000E+00  0.00000000E+00  0.00000000E+00
  0.00000000E+00  0.00000000E+00  0.00000000E+00
  0.00000000E+00  0.00000000E+00  0.00000000E+00
  0.00000000E+00  0.00000000E+00  0.00000000E+00
  0.00000000E+00  0.00000000E+00  0.00000000E+00
  0.00000000E+00  0.00000000E+00  0.00000000E+00
  0.00000000E+00  0.00000000E+00  0.00000000E+00
  0.00000000E+00  0.00000000E+00  0.00000000E+00
  0.00000000E+00  0.00000000E+00  0.00000000E+00
  0.00000000E+00  0.00000000E+00  0.00000000E+00
  0.00000000E+00  0.00000000E+00  0.00000000E+00
  0.00000000E+00  0.00000000E+00  0.00000000E+00
  0.00000000E+00  0.00000000E+00  0.00000000E+00
  0.00000000E+00  0.00000000E+00  0.00000000E+00
  0.00000000E+00  0.00000000E+00  0.00000000E+00
  0.00000000E+00  0.00000000E+00  0.00000000E+00
  0.00000000E+00  0.00000000E+00  0.00000000E+00
  0.00000000E+00  0.00000000E+00  0.00000000E+00
  0.00000000E+00  0.00000000E+00  0.00000000E+00
  0.00000000E+00  0.00000000E+00  0.00000000E+00
  0.00000000E+00  0.00000000E+00  0.00000000E+00
  0.00000000E+00  0.00000000E+00  0.00000000E+00
  0.00000000E+00  0.00000000E+00  0.00000000E+00
  0.00000000E+00  0.00000000E+00  0.00000000E+00
  0.00000000E+00  0.00000000E+00  0.00000000E+00
  0.00000000E+00  0.00000000E+00  0.00000000E+00
  0.00000000E+00  0.00000000E+00  0.00000000E+00
  0.00000000E+00  0.00000000E+00  0.00000000E+00
  0.00000000E+00  0.00000000E+00  0.00000000E+00
  0.00000000E+00  0.00000000E+00  0.00000000E+00
  0.00000000E+00  0.00000000E+00  0.00000000E+00
  0.00000000E+00  0.00000000E+00  0.00000000E+00
  0.00000000E+00  0.00000000E+00  0.00000000E+00
  0.00000000E+00  0.00000000E+00  0.00000000E+00
  0.00000000E+00  0.00000000E+00  0.00000000E+00
  0.00000000E+00  0.00000000E+00  0.00000000E+00
  0.00000000E+00  0.00000000E+00  0.00000000E+00
  0.00000000E+00  0.00000000E+00  0.00000000E+00
  0.00000000E+00  0.00000000E+00  0.00000000E+00
  0.00000000E+00  0.00000000E+00  0.00000000E+00
  0.00000000E+00  0.00000000E+00  0.00000000E+00
  0.00000000E+00  0.00000000E+00  0.00000000E+00
  0.00000000E+00  0.00000000E+00  0.00000000E+00
  0.00000000E+00  0.00000000E+00  0.00000000E+00
