Al   B    N                             
   1.00000000000000     
    -9.2999924561477378   -0.0020170086705825   -0.0122117044250854
    -4.6353824972099904    8.0317153628264393   -0.0067655046550732
     0.0339558807057932   -0.0035736248478530  -10.0676000760618187
   Al   B    N 
    33     3    36
Direct
  0.1148447660819869  0.0875745543416997  0.3128901416564531
  0.2174427612642162  0.2065466910793319  0.0692133670999553
  0.8858073049161135  0.1979740165798631  0.6413207198643178
  0.4523287502495918  0.0872510250121223  0.3897448129333227
  0.5598145979873124  0.2012421839946441  0.1385500379153299
  0.1153106328174687  0.0875760520384574  0.8332925664159347
  0.2166202860947024  0.2044046167593336  0.5724247627952863
  0.7835179303536535  0.0900631650882957  0.3882523890228882
  0.8911668481416797  0.2013102830519315  0.0931815279896995
  0.4605002926189457  0.0893216240399255  0.8911135146121438
  0.5636654707706938  0.1955018697014737  0.6411975215173698
  0.1108309766901527  0.4263994764255159  0.3204746133961862
  0.2250650144205508  0.5421970110107566  0.0709420932076341
  0.7733091717033673  0.4374043181694063  0.8270944809177507
  0.8918716573937431  0.5302716161385206  0.5701077669877108
  0.4425285233551577  0.4314526172547133  0.3247188371045695
  0.5478423648497497  0.5457596146386408  0.0707479293915370
  0.1071899564478613  0.4344920732937609  0.8187749078045030
  0.2200543174629885  0.5419252899595079  0.5738700015442646
  0.7778566161020279  0.4274132443268357  0.3145607453265526
  0.8891873462718607  0.5430488987008033  0.0629816196780126
  0.4476500880353029  0.4286978721098222  0.8239070228485588
  0.5551952649884555  0.5395721963358113  0.5727681433716683
  0.1170351451563363  0.7614380577233177  0.3139521234631104
  0.8799989143492226  0.8724492144236820  0.6525265123699100
  0.4362800503011357  0.7603495142136154  0.3180144930225097
  0.5516431337759684  0.8772076826528803  0.1324879848104672
  0.1095374763500274  0.7639116233811905  0.8390815428316145
  0.2207284616228407  0.8706098582469508  0.5761302041470273
  0.7775109203310322  0.7648818909600550  0.3866291388093117
  0.8872197118309231  0.8790291716769261  0.1233631906757395
  0.4452721341510255  0.7599552681977073  0.8325867459052816
  0.5656013839111083  0.8682675773663675  0.6464349483285972
  0.7683692217854698  0.0922866875456023  0.8970113316599964
  0.2257993692905060  0.8707768378892311  0.0664615290028365
  0.7687800771997360  0.7790113412161261  0.9004088365922271
  0.2184654451822681  0.2036153671888812  0.3786170067253849
  0.1277627912815475  0.0681101374476967  0.1182817222660333
  0.8772873911617367  0.1915937869249618  0.8539404895188483
  0.7816907647826170  0.0871310759600945  0.5777898749357320
  0.5610789275819101  0.1976097737704166  0.3301092087152711
  0.4471014022224153  0.0968685301618493  0.0792791655030456
  0.2184074090145884  0.2105413497280395  0.8784693336287006
  0.1161594834057667  0.0890058200405051  0.6412737780529341
  0.8883591393635371  0.2003076730506521  0.3300608439276402
  0.7698274187516532  0.0967122057599639  0.0552857264166278
  0.5838873917808272  0.1900935165878579  0.8352019547863989
  0.4509394972997143  0.0877477908269952  0.5831122446052248
  0.2196213664871891  0.5417994915946309  0.3826350438752328
  0.1086788636108196  0.4320889610165750  0.1307757473591522
  0.8813384520092100  0.5614876637082133  0.8737860033372939
  0.7755672874197330  0.4294796098068190  0.6363346945721702
  0.5566504698536008  0.5399768736831518  0.3823451886370961
  0.4423234467099135  0.4339331585414499  0.1334615990963570
  0.2255486974611216  0.5356867433574237  0.8839107914621067
  0.1120166738972230  0.4265026253109809  0.6305923867281322
  0.8914549386109556  0.5311098894472650  0.3788129336698987
  0.7745651939103269  0.4369925730261173  0.1217213695170969
  0.5549815276960288  0.5392107073170962  0.8852334450442783
  0.4430105543768548  0.4291419801079073  0.6318923791881659
  0.2208506097960736  0.8717078643492826  0.3873485342298508
  0.1271088509379368  0.7738234153652570  0.1189636688736542
  0.8630126929732995  0.8850024700404688  0.8479197387990638
  0.7781587660250580  0.7639351754212527  0.5766898173342412
  0.5597089817495871  0.8694558369043364  0.3228627517147942
  0.4161066919951821  0.7739469907720462  0.1231967764938560
  0.2262911158187322  0.8705098348811475  0.9049983909386228
  0.1129066839954831  0.7604791803901847  0.6451808589391987
  0.8845967054649719  0.8721113224757318  0.3157869041027510
  0.7691348546758974  0.7760695560172977  0.0601293385696309
  0.5838809392908502  0.8610688708544814  0.8401126788032585
  0.4409501296045519  0.7596403596855907  0.6399212719602474
 
  0.00000000E+00  0.00000000E+00  0.00000000E+00
  0.00000000E+00  0.00000000E+00  0.00000000E+00
  0.00000000E+00  0.00000000E+00  0.00000000E+00
  0.00000000E+00  0.00000000E+00  0.00000000E+00
  0.00000000E+00  0.00000000E+00  0.00000000E+00
  0.00000000E+00  0.00000000E+00  0.00000000E+00
  0.00000000E+00  0.00000000E+00  0.00000000E+00
  0.00000000E+00  0.00000000E+00  0.00000000E+00
  0.00000000E+00  0.00000000E+00  0.00000000E+00
  0.00000000E+00  0.00000000E+00  0.00000000E+00
  0.00000000E+00  0.00000000E+00  0.00000000E+00
  0.00000000E+00  0.00000000E+00  0.00000000E+00
  0.00000000E+00  0.00000000E+00  0.00000000E+00
  0.00000000E+00  0.00000000E+00  0.00000000E+00
  0.00000000E+00  0.00000000E+00  0.00000000E+00
  0.00000000E+00  0.00000000E+00  0.00000000E+00
  0.00000000E+00  0.00000000E+00  0.00000000E+00
  0.00000000E+00  0.00000000E+00  0.00000000E+00
  0.00000000E+00  0.00000000E+00  0.00000000E+00
  0.00000000E+00  0.00000000E+00  0.00000000E+00
  0.00000000E+00  0.00000000E+00  0.00000000E+00
  0.00000000E+00  0.00000000E+00  0.00000000E+00
  0.00000000E+00  0.00000000E+00  0.00000000E+00
  0.00000000E+00  0.00000000E+00  0.00000000E+00
  0.00000000E+00  0.00000000E+00  0.00000000E+00
  0.00000000E+00  0.00000000E+00  0.00000000E+00
  0.00000000E+00  0.00000000E+00  0.00000000E+00
  0.00000000E+00  0.00000000E+00  0.00000000E+00
  0.00000000E+00  0.00000000E+00  0.00000000E+00
  0.00000000E+00  0.00000000E+00  0.00000000E+00
  0.00000000E+00  0.00000000E+00  0.00000000E+00
  0.00000000E+00  0.00000000E+00  0.00000000E+00
  0.00000000E+00  0.00000000E+00  0.00000000E+00
  0.00000000E+00  0.00000000E+00  0.00000000E+00
  0.00000000E+00  0.00000000E+00  0.00000000E+00
  0.00000000E+00  0.00000000E+00  0.00000000E+00
  0.00000000E+00  0.00000000E+00  0.00000000E+00
  0.00000000E+00  0.00000000E+00  0.00000000E+00
  0.00000000E+00  0.00000000E+00  0.00000000E+00
  0.00000000E+00  0.00000000E+00  0.00000000E+00
  0.00000000E+00  0.00000000E+00  0.00000000E+00
  0.00000000E+00  0.00000000E+00  0.00000000E+00
  0.00000000E+00  0.00000000E+00  0.00000000E+00
  0.00000000E+00  0.00000000E+00  0.00000000E+00
  0.00000000E+00  0.00000000E+00  0.00000000E+00
  0.00000000E+00  0.00000000E+00  0.00000000E+00
  0.00000000E+00  0.00000000E+00  0.00000000E+00
  0.00000000E+00  0.00000000E+00  0.00000000E+00
  0.00000000E+00  0.00000000E+00  0.00000000E+00
  0.00000000E+00  0.00000000E+00  0.00000000E+00
  0.00000000E+00  0.00000000E+00  0.00000000E+00
  0.00000000E+00  0.00000000E+00  0.00000000E+00
  0.00000000E+00  0.00000000E+00  0.00000000E+00
  0.00000000E+00  0.00000000E+00  0.00000000E+00
  0.00000000E+00  0.00000000E+00  0.00000000E+00
  0.00000000E+00  0.00000000E+00  0.00000000E+00
  0.00000000E+00  0.00000000E+00  0.00000000E+00
  0.00000000E+00  0.00000000E+00  0.00000000E+00
  0.00000000E+00  0.00000000E+00  0.00000000E+00
  0.00000000E+00  0.00000000E+00  0.00000000E+00
  0.00000000E+00  0.00000000E+00  0.00000000E+00
  0.00000000E+00  0.00000000E+00  0.00000000E+00
  0.00000000E+00  0.00000000E+00  0.00000000E+00
  0.00000000E+00  0.00000000E+00  0.00000000E+00
  0.00000000E+00  0.00000000E+00  0.00000000E+00
  0.00000000E+00  0.00000000E+00  0.00000000E+00
  0.00000000E+00  0.00000000E+00  0.00000000E+00
  0.00000000E+00  0.00000000E+00  0.00000000E+00
  0.00000000E+00  0.00000000E+00  0.00000000E+00
  0.00000000E+00  0.00000000E+00  0.00000000E+00
  0.00000000E+00  0.00000000E+00  0.00000000E+00
  0.00000000E+00  0.00000000E+00  0.00000000E+00
