Al   B    N                             
   1.00000000000000     
    -9.3084441345805402   -0.0141093241336268   -0.0204189039736376
    -4.6729797113942455    8.0486929567947332   -0.0170326103834749
     0.0036167733750978   -0.0009067828773065  -10.0185122125128991
   Al   B    N 
    33     3    36
Direct
  0.1051076597054177  0.1022869454083306  0.3878872649663236
  0.2226703747202805  0.1995239476726312  0.1382055809700162
  0.8875284475157414  0.2014457128013873  0.6424619067754165
  0.4464039693778545  0.0922597393047369  0.3867896897646403
  0.5610801172809516  0.1970231253580934  0.1307324362982172
  0.1066174858662166  0.0926447418782743  0.8924710981218098
  0.2214504402320543  0.2062966688436205  0.6388915677931521
  0.7801015701675666  0.0904497194711880  0.3842068846845663
  0.8929670289273943  0.1974135135610879  0.1327082100903283
  0.4550539329137422  0.0898288521099104  0.8883652145383820
  0.5647183491174061  0.1957881806419479  0.6382680349582799
  0.1064975000502386  0.4278250912932009  0.3859797101026388
  0.2252060140089398  0.5444909404306131  0.0669702346685739
  0.7817450994832669  0.4243389297342119  0.8886559543194608
  0.8877357300492150  0.5445950229600101  0.6410995336244198
  0.4407089792557812  0.4305585066828286  0.3167599756465620
  0.5544988636076695  0.5418027026585079  0.1118844227474156
  0.1036298792156245  0.4284910538260931  0.8880557853366895
  0.2233035131349652  0.5452281596128046  0.5713549292549231
  0.7745800054383807  0.4301438640298940  0.3869608850611286
  0.8881277854237126  0.5404942883644068  0.1335788666260456
  0.4464649741280340  0.4217279000549254  0.8293423349290592
  0.5589904850939931  0.5388341657041806  0.6371225885646155
  0.1164769193268356  0.7648034314774748  0.3089729447898719
  0.8793160486575147  0.8768110569922030  0.6470556630850339
  0.4327324965751629  0.7687072504446206  0.3122469465095676
  0.5548925068937436  0.8756068503405601  0.1250737759525933
  0.1095673584472223  0.7615795633351325  0.8314465785559619
  0.2235111608547768  0.8683270328276862  0.5728878780497908
  0.7777908165934235  0.7634449134079517  0.3826237130161729
  0.8886261395450035  0.8753602076527542  0.1152543546602587
  0.4466254589115835  0.7632371831889415  0.8369144832453159
  0.5639880544051792  0.8729899687460971  0.6426441867158204
  0.7714850937626210  0.0908588745013716  0.8935168873263777
  0.2261778348464105  0.8669740411613418  0.0583671825552301
  0.7721065203898618  0.7710967124896584  0.8943564937724844
  0.2231505826188496  0.2053441102522910  0.3281962553396198
  0.1209450628121971  0.0743300402315086  0.0834101142262824
  0.8800002202498192  0.1878053180216028  0.8342136242373428
  0.7814670347020183  0.0902749320576319  0.5733064013789573
  0.5599876198909328  0.1982912399565748  0.3248339319060491
  0.4422164185069946  0.0967127189001715  0.0744263737727167
  0.2237796364155500  0.2016289783461218  0.8292899517524930
  0.1059104503238899  0.1018849835544415  0.5815721081112457
  0.8861585257323341  0.2060742727807821  0.3237522449310930
  0.7762631247573353  0.0963030409359789  0.0537441602747890
  0.5851260808579042  0.1858102346189341  0.8346998913849433
  0.4459898621084122  0.0930043982158821  0.5793126505119233
  0.2215871452866125  0.5465526107383667  0.3767848742064430
  0.1092196365721136  0.4239778086746284  0.0806179495113639
  0.8779448126308651  0.5629971021709750  0.8325719053053220
  0.7796251170638726  0.4271857756372341  0.5817161537459370
  0.5573669613234529  0.5419126749161620  0.3300665642092042
  0.4419426688753347  0.4265280778293672  0.1198668013784143
  0.2246232339885452  0.5376453245261459  0.8780971381853888
  0.1074954745327688  0.4274053513276570  0.5799074662159640
  0.8865998371675801  0.5413347971376226  0.3241240332152913
  0.7839219786761333  0.4231446621612918  0.0765562584289867
  0.5604866744995718  0.5348690984803355  0.8475976347198539
  0.4415436262085350  0.4264602071812149  0.6313371344791250
  0.2219070644159942  0.8698536423651646  0.3830782844699101
  0.1282961500485271  0.7733859337970159  0.1152207263037113
  0.8646351952051603  0.8829858912532558  0.8447440113418168
  0.7792237352089089  0.7630968863870464  0.5728197940574873
  0.5583376242851443  0.8741987938095974  0.3190401112988610
  0.4155604390195720  0.7778675220003990  0.1126122955152127
  0.2278451627368412  0.8614727695314954  0.8974618455776948
  0.1120196130509186  0.7628149613885782  0.6397592370741663
  0.8834276120669742  0.8745369299042309  0.3111955842415668
  0.7777471338006023  0.7600055637481518  0.0549649193907342
  0.5851502899562178  0.8618055024258453  0.8387675129391496
  0.4380494662325773  0.7689528074578220  0.6392812063142372
 
  0.00000000E+00  0.00000000E+00  0.00000000E+00
  0.00000000E+00  0.00000000E+00  0.00000000E+00
  0.00000000E+00  0.00000000E+00  0.00000000E+00
  0.00000000E+00  0.00000000E+00  0.00000000E+00
  0.00000000E+00  0.00000000E+00  0.00000000E+00
  0.00000000E+00  0.00000000E+00  0.00000000E+00
  0.00000000E+00  0.00000000E+00  0.00000000E+00
  0.00000000E+00  0.00000000E+00  0.00000000E+00
  0.00000000E+00  0.00000000E+00  0.00000000E+00
  0.00000000E+00  0.00000000E+00  0.00000000E+00
  0.00000000E+00  0.00000000E+00  0.00000000E+00
  0.00000000E+00  0.00000000E+00  0.00000000E+00
  0.00000000E+00  0.00000000E+00  0.00000000E+00
  0.00000000E+00  0.00000000E+00  0.00000000E+00
  0.00000000E+00  0.00000000E+00  0.00000000E+00
  0.00000000E+00  0.00000000E+00  0.00000000E+00
  0.00000000E+00  0.00000000E+00  0.00000000E+00
  0.00000000E+00  0.00000000E+00  0.00000000E+00
  0.00000000E+00  0.00000000E+00  0.00000000E+00
  0.00000000E+00  0.00000000E+00  0.00000000E+00
  0.00000000E+00  0.00000000E+00  0.00000000E+00
  0.00000000E+00  0.00000000E+00  0.00000000E+00
  0.00000000E+00  0.00000000E+00  0.00000000E+00
  0.00000000E+00  0.00000000E+00  0.00000000E+00
  0.00000000E+00  0.00000000E+00  0.00000000E+00
  0.00000000E+00  0.00000000E+00  0.00000000E+00
  0.00000000E+00  0.00000000E+00  0.00000000E+00
  0.00000000E+00  0.00000000E+00  0.00000000E+00
  0.00000000E+00  0.00000000E+00  0.00000000E+00
  0.00000000E+00  0.00000000E+00  0.00000000E+00
  0.00000000E+00  0.00000000E+00  0.00000000E+00
  0.00000000E+00  0.00000000E+00  0.00000000E+00
  0.00000000E+00  0.00000000E+00  0.00000000E+00
  0.00000000E+00  0.00000000E+00  0.00000000E+00
  0.00000000E+00  0.00000000E+00  0.00000000E+00
  0.00000000E+00  0.00000000E+00  0.00000000E+00
  0.00000000E+00  0.00000000E+00  0.00000000E+00
  0.00000000E+00  0.00000000E+00  0.00000000E+00
  0.00000000E+00  0.00000000E+00  0.00000000E+00
  0.00000000E+00  0.00000000E+00  0.00000000E+00
  0.00000000E+00  0.00000000E+00  0.00000000E+00
  0.00000000E+00  0.00000000E+00  0.00000000E+00
  0.00000000E+00  0.00000000E+00  0.00000000E+00
  0.00000000E+00  0.00000000E+00  0.00000000E+00
  0.00000000E+00  0.00000000E+00  0.00000000E+00
  0.00000000E+00  0.00000000E+00  0.00000000E+00
  0.00000000E+00  0.00000000E+00  0.00000000E+00
  0.00000000E+00  0.00000000E+00  0.00000000E+00
  0.00000000E+00  0.00000000E+00  0.00000000E+00
  0.00000000E+00  0.00000000E+00  0.00000000E+00
  0.00000000E+00  0.00000000E+00  0.00000000E+00
  0.00000000E+00  0.00000000E+00  0.00000000E+00
  0.00000000E+00  0.00000000E+00  0.00000000E+00
  0.00000000E+00  0.00000000E+00  0.00000000E+00
  0.00000000E+00  0.00000000E+00  0.00000000E+00
  0.00000000E+00  0.00000000E+00  0.00000000E+00
  0.00000000E+00  0.00000000E+00  0.00000000E+00
  0.00000000E+00  0.00000000E+00  0.00000000E+00
  0.00000000E+00  0.00000000E+00  0.00000000E+00
  0.00000000E+00  0.00000000E+00  0.00000000E+00
  0.00000000E+00  0.00000000E+00  0.00000000E+00
  0.00000000E+00  0.00000000E+00  0.00000000E+00
  0.00000000E+00  0.00000000E+00  0.00000000E+00
  0.00000000E+00  0.00000000E+00  0.00000000E+00
  0.00000000E+00  0.00000000E+00  0.00000000E+00
  0.00000000E+00  0.00000000E+00  0.00000000E+00
  0.00000000E+00  0.00000000E+00  0.00000000E+00
  0.00000000E+00  0.00000000E+00  0.00000000E+00
  0.00000000E+00  0.00000000E+00  0.00000000E+00
  0.00000000E+00  0.00000000E+00  0.00000000E+00
  0.00000000E+00  0.00000000E+00  0.00000000E+00
  0.00000000E+00  0.00000000E+00  0.00000000E+00
