generated by phonopy                    
   1.00000000000000     
    10.0351470768999995   -0.0000022330999784   -0.0000001056124209
    -5.0175765436399997    8.6906901959899994    0.0000001395531216
    -0.0000001735893656    0.0000001431815548   14.9533752540999991
   Pb   P    O 
    20    11    50
Direct
  0.9840711588990914  0.7526484450788828  0.1240118527060616
  0.9974670373530969  0.7739963019300546  0.6236788225377765
  0.0068707523251277  0.2684865328204822  0.3700264344183353
  0.0066378047017679  0.2673547300585355  0.8767123763951261
  0.2380052570936755  0.2234838843178224  0.1231130585402411
  0.2296494944144669  0.2262680785834945  0.6232874521478919
  0.7341393684638859  0.7421743031828143  0.3832832964471251
  0.7332328432104944  0.7415881190485365  0.8649473623164567
  0.7650648246649538  0.9942903052338607  0.1235871938331954
  0.7772195477041706  0.0084410346060366  0.6236031829730777
  0.2613965024948683  0.9962298419165592  0.3732474326046997
  0.2610538311464481  0.9961896904044139  0.8735540440801302
  0.6642773797391328  0.3289887639901892  0.9986458713761621
  0.6669344562389057  0.3301964531380719  0.5020172265128480
  0.3377067171272756  0.6615920016284917  0.0031508439583590
  0.3273748598736148  0.6657750491376291  0.5038642602782204
  0.3408645691435339  0.6593829669472910  0.2439352159103194
  0.3278853608344008  0.6643383700691956  0.7433745476803963
  0.6640634889329320  0.3292568101587676  0.2491526843205776
  0.6669598213394323  0.3310078429446150  0.7459182804205255
  0.6216179658765100  0.5972055000445735  0.6239174845772695
  0.3686142656703026  0.3952794365542118  0.3725407203472741
  0.3682268661130408  0.3950600996423006  0.8751376342639361
  0.4094035948404127  0.0275457555593803  0.1240569106887719
  0.4031840530403699  0.0269732474899556  0.6239613327526925
  0.6033096553725841  0.9714929019838578  0.3676152411147413
  0.6032935290845174  0.9717471079102467  0.8797753081116397
  0.9743760722037038  0.3759297540214348  0.1237747559735212
  0.9690446624780336  0.3785470543214231  0.6237285748861936
  0.0251803844626863  0.6324141438161561  0.3656087932943350
  0.0253933281677092  0.6321233138972531  0.8820657762048327
  0.5523651525812951  0.6746394463530123  0.1236460181650898
  0.4964941252114414  0.6456931566820430  0.6237023211478316
  0.4726070764784325  0.3214484178912613  0.3721603466528549
  0.4727328007229517  0.3217597389023652  0.8754663277223003
  0.3403473949758720  0.8501015817557587  0.1240227755468268
  0.3525253387242060  0.8522469617836208  0.6237093808953063
  0.6727955874977951  0.1490083327957521  0.3682452290789442
  0.6730061012639155  0.1492980532522878  0.8792441514675957
  0.1512312438167953  0.4917034459731795  0.1237058658391419
  0.1441018991987377  0.5015539002276199  0.6236133114270999
  0.8482423841592919  0.5208277406497785  0.3678890966578621
  0.8482381494775169  0.5218100649621533  0.8807578173650157
  0.7174514944877473  0.6428031716885840  0.0500939142124395
  0.7298792128391867  0.6629886034864256  0.5397320282060107
  0.2580053182964832  0.3458540964469066  0.4548793619674143
  0.2631771813667925  0.3524172673394759  0.9603820578288733
  0.3572239714535215  0.0846103081838478  0.0398639899090156
  0.3413368100962231  0.0707161457103780  0.5390979510214962
  0.6549612286919171  0.9142154289690936  0.4516439958657656
  0.6498826976377146  0.9109438069307743  0.9635790733816378
  0.9229969371799100  0.2692377735992935  0.0393367719795990
  0.9242590485836359  0.2730423307175442  0.5386691962825267
  0.0853508128029077  0.7368762945233840  0.4507333032060217
  0.0816267540120066  0.7418665032590610  0.9654764748567359
  0.2641532781776021  0.3538704174647123  0.2870354626129341
  0.2580072803471580  0.3458306664911674  0.7925527857237782
  0.7168967895736245  0.6426282585704612  0.1975951109481713
  0.7297101074848982  0.6632844975223477  0.7081329261443443
  0.6511787145459493  0.9110650234009938  0.2841688097463404
  0.6558316519614351  0.9146114765291955  0.7961078665124433
  0.3570070754095624  0.0844406251882504  0.2082168343591420
  0.3398875669037551  0.0696391101014413  0.7086201044171077
  0.0778813171753896  0.7442789821792744  0.2832120453235518
  0.0839619084278880  0.7383660747549996  0.7976326138262522
  0.9233666335235498  0.2687831865479140  0.2080267753848304
  0.9250604046355093  0.2722581074985655  0.7083885665456862
  0.5488881426647652  0.4502703734898574  0.1236494806465629
  0.5471805044703473  0.4177925598048446  0.6240164955492347
  0.4724657482089469  0.5779525204331435  0.3745766733122053
  0.4715647280421891  0.5777517297104851  0.8731940790647812
  0.5905589562336218  0.1151425275349283  0.1241147133165583
  0.5838452525158715  0.1289768614879918  0.6244283620069950
  0.4207204752191629  0.8887493628275465  0.3686384778408893
  0.4207142344749499  0.8892849226327613  0.8780614826027815
  0.8822915738003800  0.4662693530001363  0.1240617398398172
  0.8687946169939735  0.4590376160799750  0.6241910321233988
  0.1114809096935048  0.5355927300671439  0.3604212522279795
  0.1106917969162495  0.5341734455504223  0.8846055376877189
  0.0018668861624676  0.9882248395259055  0.1230320219256313
  0.9998614674932114  0.0006337939317973  0.6226506447656206
 
  0.00000000E+00  0.00000000E+00  0.00000000E+00
  0.00000000E+00  0.00000000E+00  0.00000000E+00
  0.00000000E+00  0.00000000E+00  0.00000000E+00
  0.00000000E+00  0.00000000E+00  0.00000000E+00
  0.00000000E+00  0.00000000E+00  0.00000000E+00
  0.00000000E+00  0.00000000E+00  0.00000000E+00
  0.00000000E+00  0.00000000E+00  0.00000000E+00
  0.00000000E+00  0.00000000E+00  0.00000000E+00
  0.00000000E+00  0.00000000E+00  0.00000000E+00
  0.00000000E+00  0.00000000E+00  0.00000000E+00
  0.00000000E+00  0.00000000E+00  0.00000000E+00
  0.00000000E+00  0.00000000E+00  0.00000000E+00
  0.00000000E+00  0.00000000E+00  0.00000000E+00
  0.00000000E+00  0.00000000E+00  0.00000000E+00
  0.00000000E+00  0.00000000E+00  0.00000000E+00
  0.00000000E+00  0.00000000E+00  0.00000000E+00
  0.00000000E+00  0.00000000E+00  0.00000000E+00
  0.00000000E+00  0.00000000E+00  0.00000000E+00
  0.00000000E+00  0.00000000E+00  0.00000000E+00
  0.00000000E+00  0.00000000E+00  0.00000000E+00
  0.00000000E+00  0.00000000E+00  0.00000000E+00
  0.00000000E+00  0.00000000E+00  0.00000000E+00
  0.00000000E+00  0.00000000E+00  0.00000000E+00
  0.00000000E+00  0.00000000E+00  0.00000000E+00
  0.00000000E+00  0.00000000E+00  0.00000000E+00
  0.00000000E+00  0.00000000E+00  0.00000000E+00
  0.00000000E+00  0.00000000E+00  0.00000000E+00
  0.00000000E+00  0.00000000E+00  0.00000000E+00
  0.00000000E+00  0.00000000E+00  0.00000000E+00
  0.00000000E+00  0.00000000E+00  0.00000000E+00
  0.00000000E+00  0.00000000E+00  0.00000000E+00
  0.00000000E+00  0.00000000E+00  0.00000000E+00
  0.00000000E+00  0.00000000E+00  0.00000000E+00
  0.00000000E+00  0.00000000E+00  0.00000000E+00
  0.00000000E+00  0.00000000E+00  0.00000000E+00
  0.00000000E+00  0.00000000E+00  0.00000000E+00
  0.00000000E+00  0.00000000E+00  0.00000000E+00
  0.00000000E+00  0.00000000E+00  0.00000000E+00
  0.00000000E+00  0.00000000E+00  0.00000000E+00
  0.00000000E+00  0.00000000E+00  0.00000000E+00
  0.00000000E+00  0.00000000E+00  0.00000000E+00
  0.00000000E+00  0.00000000E+00  0.00000000E+00
  0.00000000E+00  0.00000000E+00  0.00000000E+00
  0.00000000E+00  0.00000000E+00  0.00000000E+00
  0.00000000E+00  0.00000000E+00  0.00000000E+00
  0.00000000E+00  0.00000000E+00  0.00000000E+00
  0.00000000E+00  0.00000000E+00  0.00000000E+00
  0.00000000E+00  0.00000000E+00  0.00000000E+00
  0.00000000E+00  0.00000000E+00  0.00000000E+00
  0.00000000E+00  0.00000000E+00  0.00000000E+00
  0.00000000E+00  0.00000000E+00  0.00000000E+00
  0.00000000E+00  0.00000000E+00  0.00000000E+00
  0.00000000E+00  0.00000000E+00  0.00000000E+00
  0.00000000E+00  0.00000000E+00  0.00000000E+00
  0.00000000E+00  0.00000000E+00  0.00000000E+00
  0.00000000E+00  0.00000000E+00  0.00000000E+00
  0.00000000E+00  0.00000000E+00  0.00000000E+00
  0.00000000E+00  0.00000000E+00  0.00000000E+00
  0.00000000E+00  0.00000000E+00  0.00000000E+00
  0.00000000E+00  0.00000000E+00  0.00000000E+00
  0.00000000E+00  0.00000000E+00  0.00000000E+00
  0.00000000E+00  0.00000000E+00  0.00000000E+00
  0.00000000E+00  0.00000000E+00  0.00000000E+00
  0.00000000E+00  0.00000000E+00  0.00000000E+00
  0.00000000E+00  0.00000000E+00  0.00000000E+00
  0.00000000E+00  0.00000000E+00  0.00000000E+00
  0.00000000E+00  0.00000000E+00  0.00000000E+00
  0.00000000E+00  0.00000000E+00  0.00000000E+00
  0.00000000E+00  0.00000000E+00  0.00000000E+00
  0.00000000E+00  0.00000000E+00  0.00000000E+00
  0.00000000E+00  0.00000000E+00  0.00000000E+00
  0.00000000E+00  0.00000000E+00  0.00000000E+00
  0.00000000E+00  0.00000000E+00  0.00000000E+00
  0.00000000E+00  0.00000000E+00  0.00000000E+00
  0.00000000E+00  0.00000000E+00  0.00000000E+00
  0.00000000E+00  0.00000000E+00  0.00000000E+00
  0.00000000E+00  0.00000000E+00  0.00000000E+00
  0.00000000E+00  0.00000000E+00  0.00000000E+00
  0.00000000E+00  0.00000000E+00  0.00000000E+00
  0.00000000E+00  0.00000000E+00  0.00000000E+00
  0.00000000E+00  0.00000000E+00  0.00000000E+00
