Al   Sc   N                             
   1.00000000000000     
    -9.7495884033429494   -0.0000502670942345   -0.0000158595099369
    -4.8748342656433259    8.4396047727659234   -0.0023582718478565
     0.0000114233173988   -0.0018139665931009   -9.0942908956744688
   Al   Sc   N 
    34     2    35
Direct
  0.1108975819948839  0.0949644560702509  0.3753486870101241
  0.2235425969409093  0.2067418186814862  0.1298556842896232
  0.7743313891666688  0.0956530708368319  0.8738910387291909
  0.8804291335327292  0.2110850703933167  0.6144257405444122
  0.4477683969559294  0.0945204685827505  0.3733776107108255
  0.5548433864827658  0.2070728487457529  0.1206377429914767
  0.2252453997695838  0.2110851072760696  0.6144257735439353
  0.7744706857699200  0.0945204227425265  0.3733776202591770
  0.8864751924031040  0.2067417945894903  0.1298557010784549
  0.4467750159899850  0.0956531267373251  0.8738910565035880
  0.5557696479551879  0.2052202872688582  0.6271079070455343
  0.1100557475847737  0.4302593203781626  0.3664543254119010
  0.2234225314441716  0.5374757185942372  0.1268456324586680
  0.7715685476218184  0.4292534521239588  0.8789352364184566
  0.8887979706572722  0.5391636365981114  0.6325357151232751
  0.4453498999748930  0.4260597294311594  0.3759531690226225
  0.5558613955932756  0.5374756734567896  0.1268456999968492
  0.1159374583724926  0.4292535107387252  0.8789352250908919
  0.2213288139851599  0.5375633220365543  0.6209684543839487
  0.7764445732502239  0.4302592635875158  0.3664542905766837
  0.8885597132172620  0.5396401530861823  0.1067960968784192
  0.4439496762824291  0.4288602100688763  0.8710118195562870
  0.5578675154255137  0.5375632552743212  0.6209683851546473
  0.1099171538463466  0.7604464719352606  0.3777333077687359
  0.7756549594701312  0.7654497290338824  0.8767061522879516
  0.8865648374370068  0.8725911194757643  0.6210247768702359
  0.4463960291941049  0.7604464699590565  0.3777333010720909
  0.5572844199991138  0.8722142205874945  0.1261668102744267
  0.1081233738972927  0.7550738094889837  0.8679839347101961
  0.2249520550102915  0.8668556553673170  0.6181739807402309
  0.7782553975171211  0.7602488143521242  0.3690595296636729
  0.8872610510990668  0.8722142280090637  0.1261668254181529
  0.4535625131111800  0.7550737429125221  0.8679839289926150
  0.5576036899706480  0.8725911360740781  0.6210248009014734
  0.1073680367359557  0.1020234215007818  0.8529572211768652
  0.2240670921492267  0.8686255779710450  0.1093796750408558
  0.2231944508195909  0.2059900959941245  0.3416982330697209
  0.1013512612402394  0.1140570368809151  0.0915291846324067
  0.8642175326268955  0.2192596985082105  0.8265079018137982
  0.7749749020212207  0.0939612841573876  0.5822404413335533
  0.5548844383383837  0.2069907437456706  0.3309654535139828
  0.4438280431681036  0.0938872585829600  0.0864806531388354
  0.2332823097792343  0.2192597295173115  0.8265079330350673
  0.1103320902320988  0.0960953872220500  0.5926865233246161
  0.8875751315256508  0.2059900113638875  0.3416982468921006
  0.7790442581371693  0.0938872377257383  0.0864806497870632
  0.5554177082119551  0.2059241721029963  0.8379106035617809
  0.4478233208540487  0.0939613112609265  0.5822404511447203
  0.2233441782529226  0.5394372417472511  0.3370903949948385
  0.1113106293226807  0.4277613760087249  0.0942201933395950
  0.8892245241271439  0.5383105004186817  0.8467860100063618
  0.7796733104390441  0.4339870595294855  0.5763140308953538
  0.5539782441930043  0.5394372058622423  0.3370904422042429
  0.4434086355508029  0.4299422885834332  0.0832919883715277
  0.2225754287761532  0.5364265539480968  0.8313887895607976
  0.1030991952369718  0.4339870953293143  0.5763140878295516
  0.7776875658648592  0.4277613222559822  0.0942202012697990
  0.5577576553176584  0.5364265108254287  0.8313887277044358
  0.4450537890627686  0.4266519383352829  0.5858726736805195
  0.2227764028961445  0.8712069448616830  0.3487967965839616
  0.0996942294433509  0.7498328077158192  0.0802482141844933
  0.8852242268947563  0.8738586832074020  0.8322296929684043
  0.7807092790865369  0.7553410467060715  0.5801930370973594
  0.5562031980284416  0.8716235948146647  0.3366574944808178
  0.4672326879121584  0.7498327264764271  0.0802482128244506
  0.2317289267773077  0.8533019233659545  0.8392770434529240
  0.1090783946798908  0.7601435895337474  0.5880655778737847
  0.8889329264112220  0.8716235543178144  0.3366575045178735
  0.7776257508826276  0.7615081576300540  0.0906108982068403
  0.5576767882307792  0.8738586937054578  0.8322297155836864
  0.4475377052415652  0.7601435321678096  0.5880655714011382
 
  0.00000000E+00  0.00000000E+00  0.00000000E+00
  0.00000000E+00  0.00000000E+00  0.00000000E+00
  0.00000000E+00  0.00000000E+00  0.00000000E+00
  0.00000000E+00  0.00000000E+00  0.00000000E+00
  0.00000000E+00  0.00000000E+00  0.00000000E+00
  0.00000000E+00  0.00000000E+00  0.00000000E+00
  0.00000000E+00  0.00000000E+00  0.00000000E+00
  0.00000000E+00  0.00000000E+00  0.00000000E+00
  0.00000000E+00  0.00000000E+00  0.00000000E+00
  0.00000000E+00  0.00000000E+00  0.00000000E+00
  0.00000000E+00  0.00000000E+00  0.00000000E+00
  0.00000000E+00  0.00000000E+00  0.00000000E+00
  0.00000000E+00  0.00000000E+00  0.00000000E+00
  0.00000000E+00  0.00000000E+00  0.00000000E+00
  0.00000000E+00  0.00000000E+00  0.00000000E+00
  0.00000000E+00  0.00000000E+00  0.00000000E+00
  0.00000000E+00  0.00000000E+00  0.00000000E+00
  0.00000000E+00  0.00000000E+00  0.00000000E+00
  0.00000000E+00  0.00000000E+00  0.00000000E+00
  0.00000000E+00  0.00000000E+00  0.00000000E+00
  0.00000000E+00  0.00000000E+00  0.00000000E+00
  0.00000000E+00  0.00000000E+00  0.00000000E+00
  0.00000000E+00  0.00000000E+00  0.00000000E+00
  0.00000000E+00  0.00000000E+00  0.00000000E+00
  0.00000000E+00  0.00000000E+00  0.00000000E+00
  0.00000000E+00  0.00000000E+00  0.00000000E+00
  0.00000000E+00  0.00000000E+00  0.00000000E+00
  0.00000000E+00  0.00000000E+00  0.00000000E+00
  0.00000000E+00  0.00000000E+00  0.00000000E+00
  0.00000000E+00  0.00000000E+00  0.00000000E+00
  0.00000000E+00  0.00000000E+00  0.00000000E+00
  0.00000000E+00  0.00000000E+00  0.00000000E+00
  0.00000000E+00  0.00000000E+00  0.00000000E+00
  0.00000000E+00  0.00000000E+00  0.00000000E+00
  0.00000000E+00  0.00000000E+00  0.00000000E+00
  0.00000000E+00  0.00000000E+00  0.00000000E+00
  0.00000000E+00  0.00000000E+00  0.00000000E+00
  0.00000000E+00  0.00000000E+00  0.00000000E+00
  0.00000000E+00  0.00000000E+00  0.00000000E+00
  0.00000000E+00  0.00000000E+00  0.00000000E+00
  0.00000000E+00  0.00000000E+00  0.00000000E+00
  0.00000000E+00  0.00000000E+00  0.00000000E+00
  0.00000000E+00  0.00000000E+00  0.00000000E+00
  0.00000000E+00  0.00000000E+00  0.00000000E+00
  0.00000000E+00  0.00000000E+00  0.00000000E+00
  0.00000000E+00  0.00000000E+00  0.00000000E+00
  0.00000000E+00  0.00000000E+00  0.00000000E+00
  0.00000000E+00  0.00000000E+00  0.00000000E+00
  0.00000000E+00  0.00000000E+00  0.00000000E+00
  0.00000000E+00  0.00000000E+00  0.00000000E+00
  0.00000000E+00  0.00000000E+00  0.00000000E+00
  0.00000000E+00  0.00000000E+00  0.00000000E+00
  0.00000000E+00  0.00000000E+00  0.00000000E+00
  0.00000000E+00  0.00000000E+00  0.00000000E+00
  0.00000000E+00  0.00000000E+00  0.00000000E+00
  0.00000000E+00  0.00000000E+00  0.00000000E+00
  0.00000000E+00  0.00000000E+00  0.00000000E+00
  0.00000000E+00  0.00000000E+00  0.00000000E+00
  0.00000000E+00  0.00000000E+00  0.00000000E+00
  0.00000000E+00  0.00000000E+00  0.00000000E+00
  0.00000000E+00  0.00000000E+00  0.00000000E+00
  0.00000000E+00  0.00000000E+00  0.00000000E+00
  0.00000000E+00  0.00000000E+00  0.00000000E+00
  0.00000000E+00  0.00000000E+00  0.00000000E+00
  0.00000000E+00  0.00000000E+00  0.00000000E+00
  0.00000000E+00  0.00000000E+00  0.00000000E+00
  0.00000000E+00  0.00000000E+00  0.00000000E+00
  0.00000000E+00  0.00000000E+00  0.00000000E+00
  0.00000000E+00  0.00000000E+00  0.00000000E+00
  0.00000000E+00  0.00000000E+00  0.00000000E+00
  0.00000000E+00  0.00000000E+00  0.00000000E+00
