Al   Sc   N                             
   1.00000000000000     
    -9.6011650111479110   -0.0000507491297406   -0.0000224673535572
    -4.8006236306769399    8.3103874094676282   -0.0025279466264660
     0.0000168538775215   -0.0001440915359665   -9.5560696953269808
   Al   Sc   N 
    34     2    35
Direct
  0.1113278815115635  0.0941038048175997  0.3857933314394018
  0.2224314806094156  0.2070234394361137  0.1334341088519082
  0.7736743314656849  0.0959841282309029  0.8800068078024665
  0.8795457469431227  0.2108682726973257  0.6236686404999645
  0.4470205986222098  0.0944706958977051  0.3788200071198986
  0.5549775325006721  0.2068045687516076  0.1276209495257703
  0.2263455595122181  0.2108682903540995  0.6236686523316592
  0.7752682566389524  0.0944706971069564  0.3788200203641665
  0.8873046942896252  0.2070234108932425  0.1334341101986567
  0.4471010357907232  0.0959841493671476  0.8800068255118845
  0.5557325528989310  0.2052944637598202  0.6317614578841599
  0.1136072731709916  0.4281326040957296  0.3753672160833474
  0.2228032902999502  0.5371279339233368  0.1310045418475099
  0.7722023333333539  0.4301460899008589  0.8830024658359079
  0.8888000045313191  0.5391596008381896  0.6340568315336412
  0.4451107557848530  0.4265380423904048  0.3808247832605645
  0.5568284048134160  0.5371279055740033  0.1310045644990936
  0.1144111290786896  0.4301460899804894  0.8830024662442355
  0.2218141947321755  0.5380217808397489  0.6283043964191108
  0.7750197337337283  0.4281325982708566  0.3753671699886993
  0.8887296295393483  0.5393003569901680  0.1195004583457191
  0.4441080365466306  0.4285434906280585  0.8775967244148788
  0.5569236643322881  0.5380217571283836  0.6283043556334036
  0.1105540491834915  0.7611144600466417  0.3828855360897805
  0.7766080693773318  0.7635434565201322  0.8812456913098643
  0.8872263597494410  0.8728361221223437  0.6282381805770854
  0.4450911320804352  0.7611144515954393  0.3828855401349287
  0.5579680702782852  0.8718493547466224  0.1305286700182577
  0.1080078024781344  0.7545826850163095  0.8758462189346474
  0.2257768685012280  0.8652059118347779  0.6294159685290595
  0.7762702068782730  0.7642191709582846  0.3777601874995753
  0.8869422283665926  0.8718493419371711  0.1305286734614839
  0.4541691704088109  0.7545826340614639  0.8758461948935263
  0.5566971374210823  0.8728361603906336  0.6282381816867684
  0.1072482792008316  0.1022628918593540  0.8578567401992885
  0.2231970943336492  0.8703655220359181  0.1157366044369397
  0.2221584635615343  0.2053704410292880  0.3337425852496096
  0.1005980989567234  0.1155634066644780  0.0799211707201195
  0.8624008047964438  0.2198230656363123  0.8207620794544610
  0.7754324793854011  0.0937537649451201  0.5760091203714879
  0.5550168795187105  0.2067258647761960  0.3262730125841600
  0.4438671051093053  0.0941443715033259  0.0804222005337749
  0.2345357058267155  0.2198230324969757  0.8207620858313902
  0.1106053407617225  0.0955488762450400  0.5911559289024666
  0.8892307545440801  0.2053704001099774  0.3337425764168316
  0.7787481027210603  0.0941443537787450  0.0804221821639715
  0.5553898371009112  0.2059799079469400  0.8305079395164086
  0.4475732945863911  0.0937537858321207  0.5760091120495261
  0.2227877386906130  0.5398712682834699  0.3297376025029166
  0.1114340192507584  0.4275700223401913  0.0851767664686562
  0.8892750613754998  0.5382095171942538  0.8353236156592487
  0.7785927264941321  0.4328473307423693  0.5722489886822402
  0.5541006486021232  0.5398712580991685  0.3297376255273790
  0.4436532684892072  0.4294530587267147  0.0779464870733477
  0.2227191173365242  0.5367831574713975  0.8262140165149816
  0.1053195595401775  0.4328473281764786  0.5722490427806406
  0.7777555627446233  0.4275699877201902  0.0851767638808596
  0.5572573841507023  0.5367831275990014  0.8262139677766314
  0.4448357895806012  0.4270879913213292  0.5791101817143982
  0.2221147644620771  0.8725302038281555  0.3403485835448734
  0.0993676201120408  0.7495916738017740  0.0737093279143366
  0.8856583028921534  0.8739165574316132  0.8269789082248167
  0.7797059670875939  0.7573476698734254  0.5755804507015725
  0.5560169867157185  0.8713831260123257  0.3294923754224754
  0.4678004088498184  0.7495916181976270  0.0737093099359569
  0.2326029663311786  0.8515538010531571  0.8339276421144248
  0.1095260836081096  0.7602950813220843  0.5811524857580537
  0.8893595900896472  0.8713831122388811  0.3294923850513740
  0.7777537644570884  0.7612521143207758  0.0824481934988128
  0.5571848156407313  0.8739165715778512  0.8269789172543440
  0.4469384870538846  0.7602950670278474  0.5811524894336486
 
  0.00000000E+00  0.00000000E+00  0.00000000E+00
  0.00000000E+00  0.00000000E+00  0.00000000E+00
  0.00000000E+00  0.00000000E+00  0.00000000E+00
  0.00000000E+00  0.00000000E+00  0.00000000E+00
  0.00000000E+00  0.00000000E+00  0.00000000E+00
  0.00000000E+00  0.00000000E+00  0.00000000E+00
  0.00000000E+00  0.00000000E+00  0.00000000E+00
  0.00000000E+00  0.00000000E+00  0.00000000E+00
  0.00000000E+00  0.00000000E+00  0.00000000E+00
  0.00000000E+00  0.00000000E+00  0.00000000E+00
  0.00000000E+00  0.00000000E+00  0.00000000E+00
  0.00000000E+00  0.00000000E+00  0.00000000E+00
  0.00000000E+00  0.00000000E+00  0.00000000E+00
  0.00000000E+00  0.00000000E+00  0.00000000E+00
  0.00000000E+00  0.00000000E+00  0.00000000E+00
  0.00000000E+00  0.00000000E+00  0.00000000E+00
  0.00000000E+00  0.00000000E+00  0.00000000E+00
  0.00000000E+00  0.00000000E+00  0.00000000E+00
  0.00000000E+00  0.00000000E+00  0.00000000E+00
  0.00000000E+00  0.00000000E+00  0.00000000E+00
  0.00000000E+00  0.00000000E+00  0.00000000E+00
  0.00000000E+00  0.00000000E+00  0.00000000E+00
  0.00000000E+00  0.00000000E+00  0.00000000E+00
  0.00000000E+00  0.00000000E+00  0.00000000E+00
  0.00000000E+00  0.00000000E+00  0.00000000E+00
  0.00000000E+00  0.00000000E+00  0.00000000E+00
  0.00000000E+00  0.00000000E+00  0.00000000E+00
  0.00000000E+00  0.00000000E+00  0.00000000E+00
  0.00000000E+00  0.00000000E+00  0.00000000E+00
  0.00000000E+00  0.00000000E+00  0.00000000E+00
  0.00000000E+00  0.00000000E+00  0.00000000E+00
  0.00000000E+00  0.00000000E+00  0.00000000E+00
  0.00000000E+00  0.00000000E+00  0.00000000E+00
  0.00000000E+00  0.00000000E+00  0.00000000E+00
  0.00000000E+00  0.00000000E+00  0.00000000E+00
  0.00000000E+00  0.00000000E+00  0.00000000E+00
  0.00000000E+00  0.00000000E+00  0.00000000E+00
  0.00000000E+00  0.00000000E+00  0.00000000E+00
  0.00000000E+00  0.00000000E+00  0.00000000E+00
  0.00000000E+00  0.00000000E+00  0.00000000E+00
  0.00000000E+00  0.00000000E+00  0.00000000E+00
  0.00000000E+00  0.00000000E+00  0.00000000E+00
  0.00000000E+00  0.00000000E+00  0.00000000E+00
  0.00000000E+00  0.00000000E+00  0.00000000E+00
  0.00000000E+00  0.00000000E+00  0.00000000E+00
  0.00000000E+00  0.00000000E+00  0.00000000E+00
  0.00000000E+00  0.00000000E+00  0.00000000E+00
  0.00000000E+00  0.00000000E+00  0.00000000E+00
  0.00000000E+00  0.00000000E+00  0.00000000E+00
  0.00000000E+00  0.00000000E+00  0.00000000E+00
  0.00000000E+00  0.00000000E+00  0.00000000E+00
  0.00000000E+00  0.00000000E+00  0.00000000E+00
  0.00000000E+00  0.00000000E+00  0.00000000E+00
  0.00000000E+00  0.00000000E+00  0.00000000E+00
  0.00000000E+00  0.00000000E+00  0.00000000E+00
  0.00000000E+00  0.00000000E+00  0.00000000E+00
  0.00000000E+00  0.00000000E+00  0.00000000E+00
  0.00000000E+00  0.00000000E+00  0.00000000E+00
  0.00000000E+00  0.00000000E+00  0.00000000E+00
  0.00000000E+00  0.00000000E+00  0.00000000E+00
  0.00000000E+00  0.00000000E+00  0.00000000E+00
  0.00000000E+00  0.00000000E+00  0.00000000E+00
  0.00000000E+00  0.00000000E+00  0.00000000E+00
  0.00000000E+00  0.00000000E+00  0.00000000E+00
  0.00000000E+00  0.00000000E+00  0.00000000E+00
  0.00000000E+00  0.00000000E+00  0.00000000E+00
  0.00000000E+00  0.00000000E+00  0.00000000E+00
  0.00000000E+00  0.00000000E+00  0.00000000E+00
  0.00000000E+00  0.00000000E+00  0.00000000E+00
  0.00000000E+00  0.00000000E+00  0.00000000E+00
  0.00000000E+00  0.00000000E+00  0.00000000E+00
