Al   Sc   N                             
   1.00000000000000     
    -9.4462965604004694   -0.0000464108101860    0.0000370032390259
    -4.7231055462325600    8.1766194971178408   -0.0010008736189806
     0.0000365869471151    0.0012737911752680  -10.0064545505558993
   Al   Sc   N 
    34     2    35
Direct
  0.1082760027217304  0.1001999074533160  0.2970219391906568
  0.2236234471665313  0.2112858844322929  0.0484703065112555
  0.7732536216891361  0.0964539503382085  0.7961730579336148
  0.8866502682407713  0.2059868165771661  0.5421086032182885
  0.4461722472225560  0.0946972880805603  0.2953555248640498
  0.5553846305088754  0.2059408580263380  0.0453444207984930
  0.2241113125675369  0.2060133952852681  0.5420912730175189
  0.7758928998597412  0.0946853868580249  0.2953551122083908
  0.8818079097006546  0.2112929686554779  0.0484921604150941
  0.4470914083361919  0.0964682113993121  0.7961475837037497
  0.5551952317768922  0.2063818883904744  0.5461478942035569
  0.1174699054081429  0.4263704017044319  0.2944852615966056
  0.2206231267254850  0.5372557981031463  0.0447193365886420
  0.7735182513968439  0.4310374900616338  0.7963120695516110
  0.8888239557227919  0.5391010697271952  0.5535442933776764
  0.4445995472255078  0.4275468283811321  0.2952849761251599
  0.5588650758729301  0.5372354547005784  0.0447433604632650
  0.1121950845672686  0.4310657633933985  0.7962920551302375
  0.2234646106846867  0.5384626576256579  0.5468476187826781
  0.7728895923274308  0.4263873737827311  0.2945139772379903
  0.8886683050661333  0.5393810332282953  0.0458407777181336
  0.4443229152960839  0.4281505695261245  0.7969301780068534
  0.5548407075404285  0.5384580867772328  0.5468561400414416
  0.1075227754077446  0.7581259266528946  0.2980777487413420
  0.7775816449352462  0.7616458169268299  0.7962423200695881
  0.8881337844137107  0.8734297230529648  0.5469737825500189
  0.4510901466770463  0.7581352716614091  0.2980658196760260
  0.5587281115552258  0.8717446769611357  0.0449171494861247
  0.1113610121716633  0.7579797768161285  0.7924949183248629
  0.2231437205453304  0.8705009876263716  0.5393259032409077
  0.7740351037890036  0.7686594035343575  0.2939635801285689
  0.8862436787960206  0.8717452603971196  0.0449252257531683
  0.4474782030300517  0.7579644604685143  0.7925140145959517
  0.5552000152860899  0.8734225767530930  0.5469812663587206
  0.1096871334638507  0.0974381848555126  0.7970013216130241
  0.2242173487079526  0.8682738350657004  0.0583078426180634
  0.2232218174876905  0.2078332362528528  0.3523963790798987
  0.1001741338474815  0.1163762063163389  0.1056206596369620
  0.8679043720000124  0.2167615754208327  0.8599608161356898
  0.7773956263298061  0.0952075670257457  0.6043281434829666
  0.5551641511092100  0.2064344924179480  0.3547645112101065
  0.4460849439720107  0.0934924832099142  0.1054376533100907
  0.2321309396294282  0.2167823565458278  0.8599422548611173
  0.1110786051838772  0.0946192150426626  0.5860994004462512
  0.8857100579930091  0.2078164811070096  0.3524126283122655
  0.7771270632534453  0.0934983952362600  0.1054388573206495
  0.5551424472374791  0.2065241249777827  0.8549189413013352
  0.4441511226705970  0.0952242488871988  0.6043066606294545
  0.2229632169585258  0.5376317118075633  0.3568537197969377
  0.1085034367967381  0.4307559886306720  0.1069838537342704
  0.8889807529557174  0.5388051800590219  0.8535574539988531
  0.7782850781662205  0.4277907419644222  0.6027633791621199
  0.5561331664194995  0.5376523348602049  0.3568585686020995
  0.4437747232787714  0.4291678171844850  0.1038885400255722
  0.2217820644302009  0.5397461526253338  0.8536508038914761
  0.1106783161005325  0.4278114035016856  0.6027574012314716
  0.7774724027419850  0.4307562991695661  0.1070254989105877
  0.5552574703867421  0.5397334932967581  0.8536797585992062
  0.4444658743626846  0.4278213545607912  0.6053828918729494
  0.2228300035080153  0.8710846355905986  0.3438422478077285
  0.0986192820569229  0.7497807422374336  0.1110455972279780
  0.8886710068016157  0.8727247452992941  0.8529668985134649
  0.7780730947055332  0.7606276439340931  0.6035800560297204
  0.5570021460759023  0.8728581230256438  0.3567999016533889
  0.4683052981758209  0.7497826008956210  0.1110386029571728
  0.2312883381563893  0.8542434846194809  0.8491882560080768
  0.1107792729121826  0.7611697446139942  0.6005351086466320
  0.8868788253238193  0.8728488468089495  0.3567982582176086
  0.7781578942283858  0.7603926061575592  0.1051682161956506
  0.5554110583341298  0.8727410398968587  0.8529592630294616
  0.4448362746873613  0.7611552589980732  0.6005580935002328
 
  0.00000000E+00  0.00000000E+00  0.00000000E+00
  0.00000000E+00  0.00000000E+00  0.00000000E+00
  0.00000000E+00  0.00000000E+00  0.00000000E+00
  0.00000000E+00  0.00000000E+00  0.00000000E+00
  0.00000000E+00  0.00000000E+00  0.00000000E+00
  0.00000000E+00  0.00000000E+00  0.00000000E+00
  0.00000000E+00  0.00000000E+00  0.00000000E+00
  0.00000000E+00  0.00000000E+00  0.00000000E+00
  0.00000000E+00  0.00000000E+00  0.00000000E+00
  0.00000000E+00  0.00000000E+00  0.00000000E+00
  0.00000000E+00  0.00000000E+00  0.00000000E+00
  0.00000000E+00  0.00000000E+00  0.00000000E+00
  0.00000000E+00  0.00000000E+00  0.00000000E+00
  0.00000000E+00  0.00000000E+00  0.00000000E+00
  0.00000000E+00  0.00000000E+00  0.00000000E+00
  0.00000000E+00  0.00000000E+00  0.00000000E+00
  0.00000000E+00  0.00000000E+00  0.00000000E+00
  0.00000000E+00  0.00000000E+00  0.00000000E+00
  0.00000000E+00  0.00000000E+00  0.00000000E+00
  0.00000000E+00  0.00000000E+00  0.00000000E+00
  0.00000000E+00  0.00000000E+00  0.00000000E+00
  0.00000000E+00  0.00000000E+00  0.00000000E+00
  0.00000000E+00  0.00000000E+00  0.00000000E+00
  0.00000000E+00  0.00000000E+00  0.00000000E+00
  0.00000000E+00  0.00000000E+00  0.00000000E+00
  0.00000000E+00  0.00000000E+00  0.00000000E+00
  0.00000000E+00  0.00000000E+00  0.00000000E+00
  0.00000000E+00  0.00000000E+00  0.00000000E+00
  0.00000000E+00  0.00000000E+00  0.00000000E+00
  0.00000000E+00  0.00000000E+00  0.00000000E+00
  0.00000000E+00  0.00000000E+00  0.00000000E+00
  0.00000000E+00  0.00000000E+00  0.00000000E+00
  0.00000000E+00  0.00000000E+00  0.00000000E+00
  0.00000000E+00  0.00000000E+00  0.00000000E+00
  0.00000000E+00  0.00000000E+00  0.00000000E+00
  0.00000000E+00  0.00000000E+00  0.00000000E+00
  0.00000000E+00  0.00000000E+00  0.00000000E+00
  0.00000000E+00  0.00000000E+00  0.00000000E+00
  0.00000000E+00  0.00000000E+00  0.00000000E+00
  0.00000000E+00  0.00000000E+00  0.00000000E+00
  0.00000000E+00  0.00000000E+00  0.00000000E+00
  0.00000000E+00  0.00000000E+00  0.00000000E+00
  0.00000000E+00  0.00000000E+00  0.00000000E+00
  0.00000000E+00  0.00000000E+00  0.00000000E+00
  0.00000000E+00  0.00000000E+00  0.00000000E+00
  0.00000000E+00  0.00000000E+00  0.00000000E+00
  0.00000000E+00  0.00000000E+00  0.00000000E+00
  0.00000000E+00  0.00000000E+00  0.00000000E+00
  0.00000000E+00  0.00000000E+00  0.00000000E+00
  0.00000000E+00  0.00000000E+00  0.00000000E+00
  0.00000000E+00  0.00000000E+00  0.00000000E+00
  0.00000000E+00  0.00000000E+00  0.00000000E+00
  0.00000000E+00  0.00000000E+00  0.00000000E+00
  0.00000000E+00  0.00000000E+00  0.00000000E+00
  0.00000000E+00  0.00000000E+00  0.00000000E+00
  0.00000000E+00  0.00000000E+00  0.00000000E+00
  0.00000000E+00  0.00000000E+00  0.00000000E+00
  0.00000000E+00  0.00000000E+00  0.00000000E+00
  0.00000000E+00  0.00000000E+00  0.00000000E+00
  0.00000000E+00  0.00000000E+00  0.00000000E+00
  0.00000000E+00  0.00000000E+00  0.00000000E+00
  0.00000000E+00  0.00000000E+00  0.00000000E+00
  0.00000000E+00  0.00000000E+00  0.00000000E+00
  0.00000000E+00  0.00000000E+00  0.00000000E+00
  0.00000000E+00  0.00000000E+00  0.00000000E+00
  0.00000000E+00  0.00000000E+00  0.00000000E+00
  0.00000000E+00  0.00000000E+00  0.00000000E+00
  0.00000000E+00  0.00000000E+00  0.00000000E+00
  0.00000000E+00  0.00000000E+00  0.00000000E+00
  0.00000000E+00  0.00000000E+00  0.00000000E+00
  0.00000000E+00  0.00000000E+00  0.00000000E+00
