Al   Sc   N                             
   1.00000000000000     
    -9.9611715127593090   -0.0000494637017244   -0.0000048464372363
    -4.9806271155322666    8.6236599178430353   -0.0020754805501740
     0.0000046766688037   -0.0040479658428572   -8.4381459331363189
   Al   Sc   N 
    34     2    35
Direct
  0.1092729038989688  0.0982140168639276  0.3574539866682898
  0.2238644579022662  0.2092647535368641  0.1121319299522980
  0.7735743635882173  0.0954868510017235  0.8560662085688904
  0.8835676264073840  0.2086965910520036  0.6003575855787346
  0.4467233940290853  0.0945127660120093  0.3571437118960077
  0.5551649229169016  0.2064298316930007  0.1066594750605105
  0.2244953961554401  0.2086967651232001  0.6003576184634980
  0.7755234776717757  0.0945126531620701  0.3571436867090938
  0.8836307199759048  0.2092645315183574  0.1121319831836800
  0.4476983559486456  0.0954869778581227  0.8560662184637948
  0.5553500325871497  0.2060595203200819  0.6068775415554768
  0.1095492279669941  0.4300665936973544  0.3556410216159733
  0.2223963748799633  0.5366216968035289  0.1098784822285666
  0.7723915526450824  0.4303523920930843  0.8585002358830707
  0.8887225564144714  0.5393141743609604  0.6214125411198737
  0.4449001089965634  0.4269591639962158  0.3581663335851530
  0.5577414973444945  0.5366216280102947  0.1098785054119062
  0.1140153432353799  0.4303525626280802  0.8585001602589699
  0.2223051363922934  0.5383775251562923  0.6044788552440821
  0.7771436974390298  0.4300663997695935  0.3556410135927592
  0.8885987607312558  0.5395618193550575  0.0936984305862225
  0.4444392191564006  0.4278809629362215  0.8555627853396430
  0.5560768896324220  0.5383773997651815  0.6044788554474394
  0.1085357092932853  0.7590265074703026  0.3603740953992869
  0.7762281007139222  0.7643034286987813  0.8574130335816434
  0.8875358567920557  0.8726748602553869  0.6043895912392330
  0.4491975478211359  0.7590264377168126  0.3603740980723273
  0.5584586849457054  0.8720615333036292  0.1092538493560795
  0.1090376323684197  0.7564433604047238  0.8523634329116163
  0.2243340952193620  0.8680916359702877  0.6027119106497381
  0.7787553587375129  0.7592488360535441  0.3560977416810189
  0.8862395851273845  0.8720614328750358  0.1092538469638171
  0.4512787715930600  0.7564433181109038  0.8523634585274138
  0.5565488871358824  0.8726749006697290  0.6043896223991965
  0.1083463819130017  0.1000669505150640  0.8506901875076665
  0.2248277812621424  0.8671042819722672  0.1065975946389770
  0.2239549336137898  0.2078335112192633  0.3539470440668211
  0.1024914460968134  0.1117769967917397  0.1112561309968854
  0.8681332281720344  0.2171721209489519  0.8488687436181763
  0.7762587931467380  0.0942003835115770  0.5997643199505944
  0.5550312193529905  0.2066971980287136  0.3502422042146662
  0.4452183588364136  0.0936445543145226  0.1031388528657828
  0.2314542482551332  0.2171722760328905  0.8488687488115900
  0.1097276811658432  0.0973043561585882  0.5941797616153934
  0.8849713709070386  0.2078332946773074  0.3539470284215938
  0.7778968020118811  0.0936444616895358  0.1031388575033532
  0.5551916240759383  0.2063764376505048  0.8525796636401424
  0.4463003603118310  0.0942004441588082  0.5997643320032253
  0.2232605057404129  0.5376716792104546  0.3532133472581975
  0.1071904035325630  0.4304755156458455  0.1081514734742015
  0.8890203630355060  0.5387185991504779  0.8551771757662578
  0.7797069807536374  0.4325028118501635  0.5946385086707124
  0.5558273338485336  0.5376715962996172  0.3532133271355420
  0.4438065015975852  0.4291464596437322  0.1011318341463507
  0.2226002830317029  0.5371409900014967  0.8493024323371401
  0.1045495184047311  0.4325030042084279  0.5946385650073154
  0.7790936351361921  0.4304753132898185  0.1081515174892189
  0.5570182355353310  0.5371409064852841  0.8493024411116323
  0.4445583712375623  0.4276426882005495  0.6016511216951272
  0.2234069860046688  0.8699458754607718  0.3625632070588551
  0.1010293759072383  0.7513890526643365  0.1016212988959850
  0.8860658825177410  0.8731554425764330  0.8496765115552876
  0.7804275737430757  0.7559044233713053  0.5974583243560119
  0.5574494533426559  0.8721828777247893  0.3531975147176993
  0.4643414139771025  0.7513889799779889  0.1016212544599711
  0.2307056229258038  0.8553485220829700  0.8447226483663144
  0.1087170916218625  0.7597511590389701  0.6014592903046747
  0.8871273707005045  0.8721827734088947  0.3531975160154630
  0.7793292636416851  0.7581011282220160  0.1059019655682718
  0.5575383192748049  0.8731555676472951  0.8496765121800891
  0.4482915139748798  0.7597510262229221  0.6014593167636164
 
  0.00000000E+00  0.00000000E+00  0.00000000E+00
  0.00000000E+00  0.00000000E+00  0.00000000E+00
  0.00000000E+00  0.00000000E+00  0.00000000E+00
  0.00000000E+00  0.00000000E+00  0.00000000E+00
  0.00000000E+00  0.00000000E+00  0.00000000E+00
  0.00000000E+00  0.00000000E+00  0.00000000E+00
  0.00000000E+00  0.00000000E+00  0.00000000E+00
  0.00000000E+00  0.00000000E+00  0.00000000E+00
  0.00000000E+00  0.00000000E+00  0.00000000E+00
  0.00000000E+00  0.00000000E+00  0.00000000E+00
  0.00000000E+00  0.00000000E+00  0.00000000E+00
  0.00000000E+00  0.00000000E+00  0.00000000E+00
  0.00000000E+00  0.00000000E+00  0.00000000E+00
  0.00000000E+00  0.00000000E+00  0.00000000E+00
  0.00000000E+00  0.00000000E+00  0.00000000E+00
  0.00000000E+00  0.00000000E+00  0.00000000E+00
  0.00000000E+00  0.00000000E+00  0.00000000E+00
  0.00000000E+00  0.00000000E+00  0.00000000E+00
  0.00000000E+00  0.00000000E+00  0.00000000E+00
  0.00000000E+00  0.00000000E+00  0.00000000E+00
  0.00000000E+00  0.00000000E+00  0.00000000E+00
  0.00000000E+00  0.00000000E+00  0.00000000E+00
  0.00000000E+00  0.00000000E+00  0.00000000E+00
  0.00000000E+00  0.00000000E+00  0.00000000E+00
  0.00000000E+00  0.00000000E+00  0.00000000E+00
  0.00000000E+00  0.00000000E+00  0.00000000E+00
  0.00000000E+00  0.00000000E+00  0.00000000E+00
  0.00000000E+00  0.00000000E+00  0.00000000E+00
  0.00000000E+00  0.00000000E+00  0.00000000E+00
  0.00000000E+00  0.00000000E+00  0.00000000E+00
  0.00000000E+00  0.00000000E+00  0.00000000E+00
  0.00000000E+00  0.00000000E+00  0.00000000E+00
  0.00000000E+00  0.00000000E+00  0.00000000E+00
  0.00000000E+00  0.00000000E+00  0.00000000E+00
  0.00000000E+00  0.00000000E+00  0.00000000E+00
  0.00000000E+00  0.00000000E+00  0.00000000E+00
  0.00000000E+00  0.00000000E+00  0.00000000E+00
  0.00000000E+00  0.00000000E+00  0.00000000E+00
  0.00000000E+00  0.00000000E+00  0.00000000E+00
  0.00000000E+00  0.00000000E+00  0.00000000E+00
  0.00000000E+00  0.00000000E+00  0.00000000E+00
  0.00000000E+00  0.00000000E+00  0.00000000E+00
  0.00000000E+00  0.00000000E+00  0.00000000E+00
  0.00000000E+00  0.00000000E+00  0.00000000E+00
  0.00000000E+00  0.00000000E+00  0.00000000E+00
  0.00000000E+00  0.00000000E+00  0.00000000E+00
  0.00000000E+00  0.00000000E+00  0.00000000E+00
  0.00000000E+00  0.00000000E+00  0.00000000E+00
  0.00000000E+00  0.00000000E+00  0.00000000E+00
  0.00000000E+00  0.00000000E+00  0.00000000E+00
  0.00000000E+00  0.00000000E+00  0.00000000E+00
  0.00000000E+00  0.00000000E+00  0.00000000E+00
  0.00000000E+00  0.00000000E+00  0.00000000E+00
  0.00000000E+00  0.00000000E+00  0.00000000E+00
  0.00000000E+00  0.00000000E+00  0.00000000E+00
  0.00000000E+00  0.00000000E+00  0.00000000E+00
  0.00000000E+00  0.00000000E+00  0.00000000E+00
  0.00000000E+00  0.00000000E+00  0.00000000E+00
  0.00000000E+00  0.00000000E+00  0.00000000E+00
  0.00000000E+00  0.00000000E+00  0.00000000E+00
  0.00000000E+00  0.00000000E+00  0.00000000E+00
  0.00000000E+00  0.00000000E+00  0.00000000E+00
  0.00000000E+00  0.00000000E+00  0.00000000E+00
  0.00000000E+00  0.00000000E+00  0.00000000E+00
  0.00000000E+00  0.00000000E+00  0.00000000E+00
  0.00000000E+00  0.00000000E+00  0.00000000E+00
  0.00000000E+00  0.00000000E+00  0.00000000E+00
  0.00000000E+00  0.00000000E+00  0.00000000E+00
  0.00000000E+00  0.00000000E+00  0.00000000E+00
  0.00000000E+00  0.00000000E+00  0.00000000E+00
  0.00000000E+00  0.00000000E+00  0.00000000E+00
