Al   Sc   N                             
   1.00000000000000     
    -9.4461896742803457   -0.0000472142026961    0.0000259901663253
    -4.7231353310054214    8.1764446932006170   -0.0012836649166631
    -0.0000273367388579    0.0008512586065106  -10.0058769793591260
   Al   Sc   N 
    34     2    35
Direct
  0.1083610413294522  0.1000366507568415  0.3154645037525086
  0.2237156775747096  0.2111391455893283  0.0669390589998002
  0.7732821311930351  0.0963536248759169  0.8146301609780906
  0.8867054955306912  0.2058887135070151  0.5605692449277271
  0.4462461426626660  0.0945559875390174  0.3138297792020239
  0.5554874140492103  0.2057839522341354  0.0638184269623991
  0.2241645919402728  0.2058887154504916  0.5605692450544737
  0.7759566180332271  0.0945560019227258  0.3138297575196276
  0.8819039169580662  0.2111391455080494  0.0669390571559774
  0.4471230338628231  0.0963536185037910  0.8146301846184087
  0.5552488785778920  0.2062609916013116  0.5646287076205780
  0.1175397371674336  0.4262252671155053  0.3129764683168901
  0.2207147482687333  0.5370808208749835  0.0631939408649487
  0.7735654464256285  0.4309532321642209  0.8147526204123636
  0.8888724750999870  0.5390137811870517  0.5720026550417856
  0.4446753278806881  0.4274080644405629  0.3137515881754780
  0.5589631670335393  0.5370808345642999  0.0631939605177365
  0.1122400804083341  0.4309532289253255  0.8147526078117835
  0.2235280520381338  0.5383378507256253  0.5653214009584531
  0.7729937572142660  0.4262252484853519  0.3129764697527548
  0.8887590313088509  0.5392407259686891  0.0643118771870377
  0.4443615971398671  0.4280355630800727  0.8154091712730107
  0.5548928629774821  0.5383378467790223  0.5653214075828927
  0.1075995686436357  0.7579758774711678  0.3165482799887869
  0.7775966023429888  0.7615655339556824  0.8147208507069053
  0.8881968758255567  0.8733091363123791  0.5654542076610269
  0.4511833070048326  0.7579758900238645  0.3165483178127886
  0.5588226295666772  0.8715954868209437  0.0633955932729151
  0.1113992858130644  0.7578453831212357  0.8109705877661000
  0.2231869020588988  0.8703849678483451  0.5578067613973516
  0.7741185818995078  0.7685216398912615  0.3124504159026884
  0.8863406624737422  0.8715954875185616  0.0633955948393847
  0.4475141406066072  0.7578453331426118  0.8109705848045223
  0.5552527514789105  0.8733091147521108  0.5654542517036205
  0.1097267207120893  0.0973053081591289  0.8155017391875745
  0.2243422176084380  0.8680744525604283  0.0767740624995881
  0.2232917011132756  0.2076702707387739  0.3708581120108789
  0.1002866462932275  0.1161854027268703  0.1240405498408492
  0.8679178056482755  0.2166680494486926  0.8784022709736874
  0.7774466279065422  0.0951084956579678  0.6227846273675794
  0.5552300704330833  0.2062985887149509  0.3732360988225309
  0.4461882363886431  0.0933438653361094  0.1239064832582670
  0.2321728833264629  0.2166680694970111  0.8784023092718769
  0.1111243769053303  0.0945100056857129  0.6045908471806172
  0.8857967900017840  0.2076702889597044  0.3708580841748912
  0.7772266289194576  0.0933438808484510  0.1239064863289912
  0.5551775574995261  0.2064037368515912  0.8733853696720075
  0.4442036312072872  0.0951085404047731  0.6227846174317548
  0.2230494829655001  0.5374862726342755  0.3753295186906627
  0.1085903651832822  0.4305946700240213  0.1254687978827391
  0.8890162188776287  0.5387263131747702  0.8720200665845681
  0.7783309218471501  0.4277020017933211  0.6212093184877290
  0.5562230094781526  0.5374862954577253  0.3753294493589578
  0.4438757855100945  0.4290071849504855  0.1223486622405332
  0.2218337553074008  0.5396134743378340  0.8721260268259030
  0.1107258550872032  0.4277020194415044  0.6212093441410573
  0.7775737030435295  0.4305946720624689  0.1254688506536183
  0.5553115402572857  0.5396134555922742  0.8721259942199424
  0.4445261702769159  0.4277063917732207  0.6238599042885653
  0.2229170663618163  0.8709246753727413  0.3623077016129486
  0.0987173666001695  0.7496088611834253  0.1295073479414839
  0.8886995253826271  0.8726285680821135  0.8714306637534790
  0.7781060235086557  0.7605467602578386  0.6220579617035398
  0.5570805239791454  0.8727224085091407  0.3752743049755480
  0.4684325861040151  0.7496088569041675  0.1295073212450717
  0.2313352103021202  0.8540883272517519  0.8676518190698914
  0.1108336255672029  0.7610385341047632  0.6190099012331061
  0.8869558426089128  0.8727224114511216  0.3752743414742952
  0.7782532164089702  0.7602522962269234  0.1236436708556852
  0.5554307068755620  0.8726285589173060  0.8714306721456211
  0.4448866067854667  0.7610385236653201  0.6190099267225833
 
  0.00000000E+00  0.00000000E+00  0.00000000E+00
  0.00000000E+00  0.00000000E+00  0.00000000E+00
  0.00000000E+00  0.00000000E+00  0.00000000E+00
  0.00000000E+00  0.00000000E+00  0.00000000E+00
  0.00000000E+00  0.00000000E+00  0.00000000E+00
  0.00000000E+00  0.00000000E+00  0.00000000E+00
  0.00000000E+00  0.00000000E+00  0.00000000E+00
  0.00000000E+00  0.00000000E+00  0.00000000E+00
  0.00000000E+00  0.00000000E+00  0.00000000E+00
  0.00000000E+00  0.00000000E+00  0.00000000E+00
  0.00000000E+00  0.00000000E+00  0.00000000E+00
  0.00000000E+00  0.00000000E+00  0.00000000E+00
  0.00000000E+00  0.00000000E+00  0.00000000E+00
  0.00000000E+00  0.00000000E+00  0.00000000E+00
  0.00000000E+00  0.00000000E+00  0.00000000E+00
  0.00000000E+00  0.00000000E+00  0.00000000E+00
  0.00000000E+00  0.00000000E+00  0.00000000E+00
  0.00000000E+00  0.00000000E+00  0.00000000E+00
  0.00000000E+00  0.00000000E+00  0.00000000E+00
  0.00000000E+00  0.00000000E+00  0.00000000E+00
  0.00000000E+00  0.00000000E+00  0.00000000E+00
  0.00000000E+00  0.00000000E+00  0.00000000E+00
  0.00000000E+00  0.00000000E+00  0.00000000E+00
  0.00000000E+00  0.00000000E+00  0.00000000E+00
  0.00000000E+00  0.00000000E+00  0.00000000E+00
  0.00000000E+00  0.00000000E+00  0.00000000E+00
  0.00000000E+00  0.00000000E+00  0.00000000E+00
  0.00000000E+00  0.00000000E+00  0.00000000E+00
  0.00000000E+00  0.00000000E+00  0.00000000E+00
  0.00000000E+00  0.00000000E+00  0.00000000E+00
  0.00000000E+00  0.00000000E+00  0.00000000E+00
  0.00000000E+00  0.00000000E+00  0.00000000E+00
  0.00000000E+00  0.00000000E+00  0.00000000E+00
  0.00000000E+00  0.00000000E+00  0.00000000E+00
  0.00000000E+00  0.00000000E+00  0.00000000E+00
  0.00000000E+00  0.00000000E+00  0.00000000E+00
  0.00000000E+00  0.00000000E+00  0.00000000E+00
  0.00000000E+00  0.00000000E+00  0.00000000E+00
  0.00000000E+00  0.00000000E+00  0.00000000E+00
  0.00000000E+00  0.00000000E+00  0.00000000E+00
  0.00000000E+00  0.00000000E+00  0.00000000E+00
  0.00000000E+00  0.00000000E+00  0.00000000E+00
  0.00000000E+00  0.00000000E+00  0.00000000E+00
  0.00000000E+00  0.00000000E+00  0.00000000E+00
  0.00000000E+00  0.00000000E+00  0.00000000E+00
  0.00000000E+00  0.00000000E+00  0.00000000E+00
  0.00000000E+00  0.00000000E+00  0.00000000E+00
  0.00000000E+00  0.00000000E+00  0.00000000E+00
  0.00000000E+00  0.00000000E+00  0.00000000E+00
  0.00000000E+00  0.00000000E+00  0.00000000E+00
  0.00000000E+00  0.00000000E+00  0.00000000E+00
  0.00000000E+00  0.00000000E+00  0.00000000E+00
  0.00000000E+00  0.00000000E+00  0.00000000E+00
  0.00000000E+00  0.00000000E+00  0.00000000E+00
  0.00000000E+00  0.00000000E+00  0.00000000E+00
  0.00000000E+00  0.00000000E+00  0.00000000E+00
  0.00000000E+00  0.00000000E+00  0.00000000E+00
  0.00000000E+00  0.00000000E+00  0.00000000E+00
  0.00000000E+00  0.00000000E+00  0.00000000E+00
  0.00000000E+00  0.00000000E+00  0.00000000E+00
  0.00000000E+00  0.00000000E+00  0.00000000E+00
  0.00000000E+00  0.00000000E+00  0.00000000E+00
  0.00000000E+00  0.00000000E+00  0.00000000E+00
  0.00000000E+00  0.00000000E+00  0.00000000E+00
  0.00000000E+00  0.00000000E+00  0.00000000E+00
  0.00000000E+00  0.00000000E+00  0.00000000E+00
  0.00000000E+00  0.00000000E+00  0.00000000E+00
  0.00000000E+00  0.00000000E+00  0.00000000E+00
  0.00000000E+00  0.00000000E+00  0.00000000E+00
  0.00000000E+00  0.00000000E+00  0.00000000E+00
  0.00000000E+00  0.00000000E+00  0.00000000E+00
