Al   Sc   N                             
   1.00000000000000     
    -9.9210888529812724   -0.0000491423447204   -0.0000004412081561
    -4.9605825013014728    8.5882392518030048   -0.0019623640311010
     0.0000001937157177   -0.0072237436645506   -8.5574342263309617
   Al   Sc   N 
    34     2    35
Direct
  0.1093438410149261  0.0980720343374415  0.3538321324340927
  0.2227489485296132  0.2117626391511820  0.1041829206424438
  0.7731928967069592  0.0958988129108462  0.8472224721133159
  0.8852804626504920  0.2059786393773848  0.5924546674825422
  0.4467957418407309  0.0941607845722530  0.3469235938912476
  0.5556035580061405  0.2055525084220662  0.0969968109550194
  0.2255005024005854  0.2059787054279170  0.5924546968057953
  0.7758030605714268  0.0941606932600152  0.3469236465231376
  0.8822481922409438  0.2117624323075802  0.1041829778077101
  0.4476677722448770  0.0958989178273555  0.8472225102771347
  0.5549361119901448  0.2068873158252629  0.5962542752805433
  0.1104512347229161  0.4297279235696010  0.3524783692330544
  0.2200741343004466  0.5362559825684983  0.0988449950742449
  0.7724402785744005  0.4304045855296863  0.8404925463039348
  0.8884760165873828  0.5398073340309679  0.6095588290616334
  0.4447482649180898  0.4272629456324282  0.3447097582125309
  0.5604294530867620  0.5362558772189985  0.0988450120339692
  0.1139144650756521  0.4304046957766303  0.8404924895009316
  0.2246320222926954  0.5387161375848279  0.5950865906960203
  0.7765804250465820  0.4297278318821185  0.3524783205344519
  0.8888915322788122  0.5389763467344437  0.0834825988116563
  0.4445991120530124  0.4275612100613699  0.8489385324278231
  0.5534114301508453  0.5387160940894447  0.5950865651576223
  0.1081735305466225  0.7586084629427461  0.3523438314968601
  0.7763911001630959  0.7639774855057055  0.8433102342380465
  0.8879373756560298  0.8737865002259610  0.5958905426391468
  0.4499778058919972  0.7586084148333114  0.3523437297019569
  0.5600195159738206  0.8710286564088605  0.0991853776530220
  0.1094063786932153  0.7568870137082655  0.8448005635643838
  0.2240524732138809  0.8686549274363031  0.5997893014146030
  0.7784785048419636  0.7598025670279398  0.3513748824659544
  0.8857116647170855  0.8710285494387122  0.0991854351570325
  0.4504663585979145  0.7568869800613172  0.8448006598854647
  0.5550357654613336  0.8737865331029155  0.5958905855594168
  0.1083107459511865  0.1001380591666958  0.8517216869815840
  0.2249051133980586  0.8669495963061422  0.1067100829486236
  0.2242571311952304  0.2071478498162236  0.3597939210162835
  0.1022937715523966  0.1121721481587556  0.1140238218469847
  0.8675581088204609  0.2178344754253061  0.8619121621092347
  0.7764731110674248  0.0946982028032224  0.6100695090991337
  0.5549100127324209  0.2069396006741826  0.3607796967628403
  0.4458931827577857  0.0932818225277430  0.1124203507940251
  0.2313669661770561  0.2178345789765075  0.8619121460971968
  0.1098873564368930  0.0969848561210966  0.5978579640505899
  0.8853547827158721  0.2071477343003139  0.3597938859473260
  0.7775845648857782  0.0932817133860411  0.1124204112098539
  0.5553060326246708  0.2061475893840665  0.8621925094390122
  0.4455881572016693  0.0946982347305649  0.6100695739053137
  0.2243120525003377  0.5370010208061018  0.3625766470252714
  0.1039321525963359  0.4324550279822077  0.1200347803167716
  0.8891953470743701  0.5383687825815784  0.8538616538775230
  0.7784295120241538  0.4302873994856427  0.6030536149145149
  0.5554465652596647  0.5370009629642212  0.3625765933043041
  0.4438727589561182  0.4290138646713615  0.1093603563890753
  0.2216492468131079  0.5379214769495277  0.8601631576778956
  0.1080424211872000  0.4302875074059003  0.6030535895269722
  0.7803723234263558  0.4324548639533674  0.1200347328885485
  0.5571888185358986  0.5379214242059476  0.8601632019660315
  0.4445365040944225  0.4276864648248022  0.6134901436296332
  0.2233027081705217  0.8701545149557930  0.3645330435351681
  0.1006560619401924  0.7513356937337576  0.1136407974720655
  0.8867216554776931  0.8727505744777346  0.8593504928540767
  0.7789765867911527  0.7588064058022610  0.6063537737029705
  0.5575230732532219  0.8726935576314290  0.3626565415925143
  0.4647680310218547  0.7513356285330346  0.1136407408989726
  0.2307475786228252  0.8552646584838399  0.8492256004172845
  0.1090398147375424  0.7598224241485454  0.6077012080284447
  0.8865431752548716  0.8726934416668257  0.3626565337271401
  0.7805945523654572  0.7555705304911697  0.1155566769480458
  0.5572875200743397  0.8727506510465375  0.8593505158227046
  0.4478975027193073  0.7598223236120134  0.6077012542827234
 
  0.00000000E+00  0.00000000E+00  0.00000000E+00
  0.00000000E+00  0.00000000E+00  0.00000000E+00
  0.00000000E+00  0.00000000E+00  0.00000000E+00
  0.00000000E+00  0.00000000E+00  0.00000000E+00
  0.00000000E+00  0.00000000E+00  0.00000000E+00
  0.00000000E+00  0.00000000E+00  0.00000000E+00
  0.00000000E+00  0.00000000E+00  0.00000000E+00
  0.00000000E+00  0.00000000E+00  0.00000000E+00
  0.00000000E+00  0.00000000E+00  0.00000000E+00
  0.00000000E+00  0.00000000E+00  0.00000000E+00
  0.00000000E+00  0.00000000E+00  0.00000000E+00
  0.00000000E+00  0.00000000E+00  0.00000000E+00
  0.00000000E+00  0.00000000E+00  0.00000000E+00
  0.00000000E+00  0.00000000E+00  0.00000000E+00
  0.00000000E+00  0.00000000E+00  0.00000000E+00
  0.00000000E+00  0.00000000E+00  0.00000000E+00
  0.00000000E+00  0.00000000E+00  0.00000000E+00
  0.00000000E+00  0.00000000E+00  0.00000000E+00
  0.00000000E+00  0.00000000E+00  0.00000000E+00
  0.00000000E+00  0.00000000E+00  0.00000000E+00
  0.00000000E+00  0.00000000E+00  0.00000000E+00
  0.00000000E+00  0.00000000E+00  0.00000000E+00
  0.00000000E+00  0.00000000E+00  0.00000000E+00
  0.00000000E+00  0.00000000E+00  0.00000000E+00
  0.00000000E+00  0.00000000E+00  0.00000000E+00
  0.00000000E+00  0.00000000E+00  0.00000000E+00
  0.00000000E+00  0.00000000E+00  0.00000000E+00
  0.00000000E+00  0.00000000E+00  0.00000000E+00
  0.00000000E+00  0.00000000E+00  0.00000000E+00
  0.00000000E+00  0.00000000E+00  0.00000000E+00
  0.00000000E+00  0.00000000E+00  0.00000000E+00
  0.00000000E+00  0.00000000E+00  0.00000000E+00
  0.00000000E+00  0.00000000E+00  0.00000000E+00
  0.00000000E+00  0.00000000E+00  0.00000000E+00
  0.00000000E+00  0.00000000E+00  0.00000000E+00
  0.00000000E+00  0.00000000E+00  0.00000000E+00
  0.00000000E+00  0.00000000E+00  0.00000000E+00
  0.00000000E+00  0.00000000E+00  0.00000000E+00
  0.00000000E+00  0.00000000E+00  0.00000000E+00
  0.00000000E+00  0.00000000E+00  0.00000000E+00
  0.00000000E+00  0.00000000E+00  0.00000000E+00
  0.00000000E+00  0.00000000E+00  0.00000000E+00
  0.00000000E+00  0.00000000E+00  0.00000000E+00
  0.00000000E+00  0.00000000E+00  0.00000000E+00
  0.00000000E+00  0.00000000E+00  0.00000000E+00
  0.00000000E+00  0.00000000E+00  0.00000000E+00
  0.00000000E+00  0.00000000E+00  0.00000000E+00
  0.00000000E+00  0.00000000E+00  0.00000000E+00
  0.00000000E+00  0.00000000E+00  0.00000000E+00
  0.00000000E+00  0.00000000E+00  0.00000000E+00
  0.00000000E+00  0.00000000E+00  0.00000000E+00
  0.00000000E+00  0.00000000E+00  0.00000000E+00
  0.00000000E+00  0.00000000E+00  0.00000000E+00
  0.00000000E+00  0.00000000E+00  0.00000000E+00
  0.00000000E+00  0.00000000E+00  0.00000000E+00
  0.00000000E+00  0.00000000E+00  0.00000000E+00
  0.00000000E+00  0.00000000E+00  0.00000000E+00
  0.00000000E+00  0.00000000E+00  0.00000000E+00
  0.00000000E+00  0.00000000E+00  0.00000000E+00
  0.00000000E+00  0.00000000E+00  0.00000000E+00
  0.00000000E+00  0.00000000E+00  0.00000000E+00
  0.00000000E+00  0.00000000E+00  0.00000000E+00
  0.00000000E+00  0.00000000E+00  0.00000000E+00
  0.00000000E+00  0.00000000E+00  0.00000000E+00
  0.00000000E+00  0.00000000E+00  0.00000000E+00
  0.00000000E+00  0.00000000E+00  0.00000000E+00
  0.00000000E+00  0.00000000E+00  0.00000000E+00
  0.00000000E+00  0.00000000E+00  0.00000000E+00
  0.00000000E+00  0.00000000E+00  0.00000000E+00
  0.00000000E+00  0.00000000E+00  0.00000000E+00
  0.00000000E+00  0.00000000E+00  0.00000000E+00
