Al   Sc   N                             
   1.00000000000000     
    -9.6537283252631756   -0.0000481782737082    0.0000127744790846
    -4.8269023790926200    8.3552346121819987   -0.0016230144738820
    -0.0000074079489211   -0.0086117118242989   -9.4056642919293445
   Al   Sc   N 
    34     2    35
Direct
  0.1083317371340087  0.1000960644693194  0.3317995184157851
  0.2238443393626852  0.2134228109959224  0.0846189237479962
  0.7728143630582167  0.0966149190168082  0.8304406355126872
  0.8880821961123431  0.2040147140928639  0.5776810171728499
  0.4469442761776392  0.0940100538194670  0.3301950783838947
  0.5558291910605107  0.2051011835308074  0.0798762025998698
  0.2246626135687464  0.2040147768293892  0.5776810139863144
  0.7758052123898409  0.0940100546208527  0.3301950508435141
  0.8794924407329816  0.2134227905477104  0.0846189070556917
  0.4473301971175232  0.0966149667694580  0.8304406023055932
  0.5548430037128966  0.2070735908326498  0.5804626480974662
  0.1158340840514498  0.4270446378752553  0.3360275696555632
  0.2189900240855991  0.5366076554973418  0.0796689673930260
  0.7732255460150554  0.4309978056709411  0.8255678236780000
  0.8885212982049211  0.5397169322300570  0.5852971632567261
  0.4447803471343121  0.4271988342690705  0.3277665225753026
  0.5611619110875807  0.5366075999782325  0.0796689967674098
  0.1125361639552978  0.4309978083597841  0.8255678230735413
  0.2253327176431554  0.5385144903901917  0.5811003687580580
  0.7738808557752606  0.4270446390444320  0.3360276015826713
  0.8889676822784338  0.5388242142700790  0.0769260110235450
  0.4444732792845159  0.4278129751479653  0.8335796802209288
  0.5529123640256799  0.5385144278851683  0.5811003482571735
  0.1068767421547108  0.7573341705963799  0.3346522804399896
  0.7774794693759901  0.7618007420038992  0.8279172813570668
  0.8880442534654023  0.8741563460583350  0.5817360609430082
  0.4525487926587317  0.7573341306367993  0.3346522801979859
  0.5602025137970372  0.8706197227562384  0.0796797019725233
  0.1112344634702325  0.7577135610542172  0.8275840201889295
  0.2225897181207159  0.8715803415910059  0.5777466587927478
  0.7752937721130806  0.7661720699653713  0.3330454985514422
  0.8859374337239103  0.8706196864664761  0.0796797279421781
  0.4478116795125189  0.7577135262008241  0.8275840378045558
  0.5545591246794359  0.8741563428969101  0.5817360872705137
  0.1095157162213241  0.0977280254179931  0.8447292977731919
  0.2258456270606430  0.8650685137634611  0.1001098973156189
  0.2241412025094007  0.2057451265296919  0.3756978415002195
  0.1008140205625807  0.1151314940782839  0.1223047718388983
  0.8647086091159082  0.2193768716873095  0.8822644984961912
  0.7767836518499465  0.0953531450673495  0.6275399548255507
  0.5549273829942791  0.2069048654008654  0.3779019814242517
  0.4466396514318944  0.0928329816551070  0.1289355469573152
  0.2326740855193421  0.2193768615567393  0.8822644922944605
  0.1108766584666014  0.0950062395540598  0.6158421751896270
  0.8868733063751577  0.2057451008136084  0.3756978484573850
  0.7772868918617135  0.0928329654567150  0.1289355332430304
  0.5554055774076403  0.2059484359105923  0.8784949369213777
  0.4446227126806619  0.0953531771090965  0.6275399310745797
  0.2251546267545947  0.5369355357118835  0.3805105638096009
  0.1056484248044498  0.4320319026417536  0.1355629569519650
  0.8892982996769803  0.5381630188277668  0.8726855406442127
  0.7781071026174615  0.4284553559193967  0.6205260024627393
  0.5546694858332373  0.5369355105685898  0.3805105483961100
  0.4437888631086579  0.4291817546018777  0.1251580008745918
  0.2207059262252145  0.5391057255412264  0.8764853773732497
  0.1101970088692568  0.4284554078808327  0.6205259908478951
  0.7790792423746922  0.4320318840750588  0.1355629918159522
  0.5569479840919840  0.5391056928278886  0.8764854209612452
  0.4446340017259303  0.4274914949927222  0.6308467830624735
  0.2227111695313724  0.8713374464194885  0.3669769919629218
  0.0981751561106918  0.7491449387025355  0.1343792612808201
  0.8878583857098405  0.8724542287760428  0.8756603853863751
  0.7782508581595522  0.7602579637597842  0.6241112462248708
  0.5568278792942536  0.8734121647428594  0.3809235204232735
  0.4694396246477552  0.7491448807859413  0.1343792800939880
  0.2321611753416875  0.8524374534178065  0.8738353240095194
  0.1105678033743729  0.7610576351648959  0.6234279038004189
  0.8865196986340393  0.8734121535765809  0.3809234911314263
  0.7795320256573390  0.7576955723018983  0.1313631156590915
  0.5564471372032074  0.8724542598365232  0.8756603613525229
  0.4451342783676822  0.7610575768099821  0.6234279226554591
 
  0.00000000E+00  0.00000000E+00  0.00000000E+00
  0.00000000E+00  0.00000000E+00  0.00000000E+00
  0.00000000E+00  0.00000000E+00  0.00000000E+00
  0.00000000E+00  0.00000000E+00  0.00000000E+00
  0.00000000E+00  0.00000000E+00  0.00000000E+00
  0.00000000E+00  0.00000000E+00  0.00000000E+00
  0.00000000E+00  0.00000000E+00  0.00000000E+00
  0.00000000E+00  0.00000000E+00  0.00000000E+00
  0.00000000E+00  0.00000000E+00  0.00000000E+00
  0.00000000E+00  0.00000000E+00  0.00000000E+00
  0.00000000E+00  0.00000000E+00  0.00000000E+00
  0.00000000E+00  0.00000000E+00  0.00000000E+00
  0.00000000E+00  0.00000000E+00  0.00000000E+00
  0.00000000E+00  0.00000000E+00  0.00000000E+00
  0.00000000E+00  0.00000000E+00  0.00000000E+00
  0.00000000E+00  0.00000000E+00  0.00000000E+00
  0.00000000E+00  0.00000000E+00  0.00000000E+00
  0.00000000E+00  0.00000000E+00  0.00000000E+00
  0.00000000E+00  0.00000000E+00  0.00000000E+00
  0.00000000E+00  0.00000000E+00  0.00000000E+00
  0.00000000E+00  0.00000000E+00  0.00000000E+00
  0.00000000E+00  0.00000000E+00  0.00000000E+00
  0.00000000E+00  0.00000000E+00  0.00000000E+00
  0.00000000E+00  0.00000000E+00  0.00000000E+00
  0.00000000E+00  0.00000000E+00  0.00000000E+00
  0.00000000E+00  0.00000000E+00  0.00000000E+00
  0.00000000E+00  0.00000000E+00  0.00000000E+00
  0.00000000E+00  0.00000000E+00  0.00000000E+00
  0.00000000E+00  0.00000000E+00  0.00000000E+00
  0.00000000E+00  0.00000000E+00  0.00000000E+00
  0.00000000E+00  0.00000000E+00  0.00000000E+00
  0.00000000E+00  0.00000000E+00  0.00000000E+00
  0.00000000E+00  0.00000000E+00  0.00000000E+00
  0.00000000E+00  0.00000000E+00  0.00000000E+00
  0.00000000E+00  0.00000000E+00  0.00000000E+00
  0.00000000E+00  0.00000000E+00  0.00000000E+00
  0.00000000E+00  0.00000000E+00  0.00000000E+00
  0.00000000E+00  0.00000000E+00  0.00000000E+00
  0.00000000E+00  0.00000000E+00  0.00000000E+00
  0.00000000E+00  0.00000000E+00  0.00000000E+00
  0.00000000E+00  0.00000000E+00  0.00000000E+00
  0.00000000E+00  0.00000000E+00  0.00000000E+00
  0.00000000E+00  0.00000000E+00  0.00000000E+00
  0.00000000E+00  0.00000000E+00  0.00000000E+00
  0.00000000E+00  0.00000000E+00  0.00000000E+00
  0.00000000E+00  0.00000000E+00  0.00000000E+00
  0.00000000E+00  0.00000000E+00  0.00000000E+00
  0.00000000E+00  0.00000000E+00  0.00000000E+00
  0.00000000E+00  0.00000000E+00  0.00000000E+00
  0.00000000E+00  0.00000000E+00  0.00000000E+00
  0.00000000E+00  0.00000000E+00  0.00000000E+00
  0.00000000E+00  0.00000000E+00  0.00000000E+00
  0.00000000E+00  0.00000000E+00  0.00000000E+00
  0.00000000E+00  0.00000000E+00  0.00000000E+00
  0.00000000E+00  0.00000000E+00  0.00000000E+00
  0.00000000E+00  0.00000000E+00  0.00000000E+00
  0.00000000E+00  0.00000000E+00  0.00000000E+00
  0.00000000E+00  0.00000000E+00  0.00000000E+00
  0.00000000E+00  0.00000000E+00  0.00000000E+00
  0.00000000E+00  0.00000000E+00  0.00000000E+00
  0.00000000E+00  0.00000000E+00  0.00000000E+00
  0.00000000E+00  0.00000000E+00  0.00000000E+00
  0.00000000E+00  0.00000000E+00  0.00000000E+00
  0.00000000E+00  0.00000000E+00  0.00000000E+00
  0.00000000E+00  0.00000000E+00  0.00000000E+00
  0.00000000E+00  0.00000000E+00  0.00000000E+00
  0.00000000E+00  0.00000000E+00  0.00000000E+00
  0.00000000E+00  0.00000000E+00  0.00000000E+00
  0.00000000E+00  0.00000000E+00  0.00000000E+00
  0.00000000E+00  0.00000000E+00  0.00000000E+00
  0.00000000E+00  0.00000000E+00  0.00000000E+00
