supercell of icsd_608626.cif            
   1.04030204597605     
     9.2862853008457051    0.0406806898044778   -0.0021211427864795
    -4.6079290976306231    7.9872133163138823    0.0229113630927386
    -0.0025268959893404    0.0269862356123099    9.7730661348770447
   Al   La   N 
    32     4    36
Direct
  0.2143619689797376  0.1074108326632839  0.2622957698952106
  0.0929368194153497  0.2220103005518084  0.4927241404906511
  0.8872604492475276  0.1171888284655296  0.7480911710113816
  0.7896613614557637  0.2264495578856653  0.9950777197897125
  0.5591999503293010  0.1087560741266103  0.2714895396173276
  0.4596554883194770  0.2270970287436924  0.4849598027591497
  0.1032662442947228  0.2178090353368276  0.0087485384847810
  0.8855474636192895  0.1099731583288559  0.2487370902495698
  0.7849592073520100  0.2265015766174088  0.4975102762927435
  0.5748938379724891  0.1212822928070807  0.7297271443458229
  0.2110868812066542  0.4416547546423431  0.2386452979109634
  0.0986453379914636  0.5485218424935354  0.4975852383507942
  0.8893067537405983  0.4435937269083041  0.7469253086733616
  0.7880973854751687  0.5641712582181526  0.9963724805461567
  0.5656564623867055  0.4493021261340076  0.2558604126309163
  0.2162072193897870  0.4474381676714287  0.7602070309002471
  0.0991763317890104  0.5514379136869039  0.9972163699885570
  0.8881633853045088  0.4456771371938970  0.2477993160074874
  0.7863744187837085  0.5578996233467066  0.5009132890912724
  0.5712543870416695  0.4548369637255760  0.7517164480098302
  0.4543956831226836  0.5602307075407396  0.9926636201946906
  0.2194875547783610  0.7742780278494692  0.2592945987687116
  0.1008761124321893  0.8756561362562607  0.4916849328076083
  0.8849776552180941  0.7708905058147337  0.7490468390217160
  0.7884693377038801  0.8926343930689526  0.9978393385991495
  0.5635188403625548  0.7868051856933960  0.2543183007323719
  0.4462943078360269  0.8918755012436037  0.4991692138895232
  0.2058229292156994  0.7619135832440875  0.7389025206332462
  0.0933780775486994  0.8777022527511988  0.0074984365166060
  0.8848965828520221  0.7754481224931453  0.2490616759876332
  0.7838936747117273  0.8956618049619252  0.4988461182786779
  0.5649654715649604  0.7793253876267983  0.7524615198158031
  0.2212055301493479  0.1072932382410059  0.7336818805905665
  0.4551872417420455  0.2257730703830205  0.0120810711105435
  0.4298625412686476  0.5467794470390146  0.4975657497158181
  0.4354764920758001  0.8813858665358509  0.9915173561060797
  0.2155321488355355  0.1102818337546125  0.4556683677437050
  0.1056736085572467  0.2189386775484863  0.1948456929839466
  0.8940401614223106  0.1142729091011532  0.9399503587774589
  0.7892517827638841  0.2290310926109456  0.6817782542202195
  0.5647688130865589  0.1108618437918381  0.4547324414096821
  0.4412141020038121  0.2181461943217471  0.2424021920278250
  0.1911172993140084  0.0924529774595939  0.9652728710408169
  0.0947909575791570  0.2455042838496340  0.6789843805453657
  0.8833214669345111  0.1082147496606680  0.4353704425257661
  0.7727105402486387  0.2211791543127859  0.1895285415651173
  0.5965986867119994  0.1278014502269400  0.9110136712202319
  0.4856437619041643  0.2481741142804665  0.6773918530862417
  0.1763415361116856  0.4253517438053080  0.4196422699519857
  0.1082129660955218  0.5599769835145807  0.1847682733896079
  0.8874672897886740  0.4423878453909893  0.9385850834930380
  0.7820228693789346  0.5578058604566181  0.6896283868619051
  0.5831908564402184  0.4414875038201700  0.4351348904599135
  0.4455342522711518  0.5566635855571747  0.1963252276384040
  0.2216540812779897  0.4450024462175293  0.9509554918450220
  0.1087941943661050  0.5487961975830586  0.6867911930324411
  0.8875796889934904  0.4462167941230035  0.4370232113149726
  0.7790890860322648  0.5557663946240723  0.1857563378185034
  0.5802885378437068  0.4748047416578416  0.9352849915905708
  0.4405515910073845  0.5526602414295496  0.7263069066666787
  0.2210786512358496  0.7716747611096864  0.4451761050752978
  0.1081368818105801  0.8836263305074468  0.2005877808043124
  0.8885253424603050  0.7790887679056624  0.9393933634143607
  0.7840694619033570  0.8932027089061094  0.6895733876923629
  0.5758390747039357  0.8095814031805944  0.4385012159405903
  0.4424135815624410  0.8912375789516531  0.2232337783562528
  0.1752579393667588  0.7567993487648010  0.9241823195449683
  0.0849450379719840  0.8462285255753272  0.6718729503354552
  0.8837635121014031  0.7762120928073202  0.4360845725843205
  0.7797096061381197  0.8909436967689928  0.1878629105424352
  0.5824363430916009  0.7724602003959902  0.9353723954606608
  0.4400149020070714  0.8844995357368290  0.6947823312248786
 
  0.00000000E+00  0.00000000E+00  0.00000000E+00
  0.00000000E+00  0.00000000E+00  0.00000000E+00
  0.00000000E+00  0.00000000E+00  0.00000000E+00
  0.00000000E+00  0.00000000E+00  0.00000000E+00
  0.00000000E+00  0.00000000E+00  0.00000000E+00
  0.00000000E+00  0.00000000E+00  0.00000000E+00
  0.00000000E+00  0.00000000E+00  0.00000000E+00
  0.00000000E+00  0.00000000E+00  0.00000000E+00
  0.00000000E+00  0.00000000E+00  0.00000000E+00
  0.00000000E+00  0.00000000E+00  0.00000000E+00
  0.00000000E+00  0.00000000E+00  0.00000000E+00
  0.00000000E+00  0.00000000E+00  0.00000000E+00
  0.00000000E+00  0.00000000E+00  0.00000000E+00
  0.00000000E+00  0.00000000E+00  0.00000000E+00
  0.00000000E+00  0.00000000E+00  0.00000000E+00
  0.00000000E+00  0.00000000E+00  0.00000000E+00
  0.00000000E+00  0.00000000E+00  0.00000000E+00
  0.00000000E+00  0.00000000E+00  0.00000000E+00
  0.00000000E+00  0.00000000E+00  0.00000000E+00
  0.00000000E+00  0.00000000E+00  0.00000000E+00
  0.00000000E+00  0.00000000E+00  0.00000000E+00
  0.00000000E+00  0.00000000E+00  0.00000000E+00
  0.00000000E+00  0.00000000E+00  0.00000000E+00
  0.00000000E+00  0.00000000E+00  0.00000000E+00
  0.00000000E+00  0.00000000E+00  0.00000000E+00
  0.00000000E+00  0.00000000E+00  0.00000000E+00
  0.00000000E+00  0.00000000E+00  0.00000000E+00
  0.00000000E+00  0.00000000E+00  0.00000000E+00
  0.00000000E+00  0.00000000E+00  0.00000000E+00
  0.00000000E+00  0.00000000E+00  0.00000000E+00
  0.00000000E+00  0.00000000E+00  0.00000000E+00
  0.00000000E+00  0.00000000E+00  0.00000000E+00
  0.00000000E+00  0.00000000E+00  0.00000000E+00
  0.00000000E+00  0.00000000E+00  0.00000000E+00
  0.00000000E+00  0.00000000E+00  0.00000000E+00
  0.00000000E+00  0.00000000E+00  0.00000000E+00
  0.00000000E+00  0.00000000E+00  0.00000000E+00
  0.00000000E+00  0.00000000E+00  0.00000000E+00
  0.00000000E+00  0.00000000E+00  0.00000000E+00
  0.00000000E+00  0.00000000E+00  0.00000000E+00
  0.00000000E+00  0.00000000E+00  0.00000000E+00
  0.00000000E+00  0.00000000E+00  0.00000000E+00
  0.00000000E+00  0.00000000E+00  0.00000000E+00
  0.00000000E+00  0.00000000E+00  0.00000000E+00
  0.00000000E+00  0.00000000E+00  0.00000000E+00
  0.00000000E+00  0.00000000E+00  0.00000000E+00
  0.00000000E+00  0.00000000E+00  0.00000000E+00
  0.00000000E+00  0.00000000E+00  0.00000000E+00
  0.00000000E+00  0.00000000E+00  0.00000000E+00
  0.00000000E+00  0.00000000E+00  0.00000000E+00
  0.00000000E+00  0.00000000E+00  0.00000000E+00
  0.00000000E+00  0.00000000E+00  0.00000000E+00
  0.00000000E+00  0.00000000E+00  0.00000000E+00
  0.00000000E+00  0.00000000E+00  0.00000000E+00
  0.00000000E+00  0.00000000E+00  0.00000000E+00
  0.00000000E+00  0.00000000E+00  0.00000000E+00
  0.00000000E+00  0.00000000E+00  0.00000000E+00
  0.00000000E+00  0.00000000E+00  0.00000000E+00
  0.00000000E+00  0.00000000E+00  0.00000000E+00
  0.00000000E+00  0.00000000E+00  0.00000000E+00
  0.00000000E+00  0.00000000E+00  0.00000000E+00
  0.00000000E+00  0.00000000E+00  0.00000000E+00
  0.00000000E+00  0.00000000E+00  0.00000000E+00
  0.00000000E+00  0.00000000E+00  0.00000000E+00
  0.00000000E+00  0.00000000E+00  0.00000000E+00
  0.00000000E+00  0.00000000E+00  0.00000000E+00
  0.00000000E+00  0.00000000E+00  0.00000000E+00
  0.00000000E+00  0.00000000E+00  0.00000000E+00
  0.00000000E+00  0.00000000E+00  0.00000000E+00
  0.00000000E+00  0.00000000E+00  0.00000000E+00
  0.00000000E+00  0.00000000E+00  0.00000000E+00
  0.00000000E+00  0.00000000E+00  0.00000000E+00
