POSCAR                                  
   1.03200000000000     
    -6.3267378464900004    5.4750636025599997   -4.9987121849499996
     1.6375609116800001    8.3317137956299998    5.0581961811899996
     6.4054310619699999    5.5323823138500003  -10.0338839356000005
   Al   Gd   N 
    42    12    54
Direct
  0.6579143798124676  0.2818870605780432  0.5782670582647427
  0.3486959452634437  0.3567988037445318  0.7620645082698374
  0.3165940949410313  0.6427434857900352  0.9106165901582344
  0.5681797863463629  0.8321218729536355  0.8759617335444077
  0.5126554964484029  0.3381466896652654  0.1691336864888058
  0.8990850076210393  0.4679260806123224  0.5401162320411430
  0.7649557998661294  0.5296001656601064  0.1351282101276183
  0.4779976026684878  0.5954221753725832  0.2998325613060615
  0.7270635124115756  0.7777904021541886  0.2679290898745705
  0.1276005515027165  0.9337367160702357  0.6562672019213593
  0.8282220829842117  0.0030886147994806  0.8370663380716650
  0.6931291196294467  0.0293021911899700  0.4210964254196128
  0.3725458378796276  0.1176152160021573  0.6213779220443811
  0.0860214794636036  0.1716215622129980  0.7990627571778219
  0.7996768624712445  0.2451041212378797  0.9787054367903494
  0.0205040416603097  0.7079188793368729  0.0889402842121783
  0.2862572674653947  0.8880463801752185  0.0491592950805924
  0.5448601692647301  0.0651834705452430  0.0145608852735819
  0.2489528244441388  0.1348704924383100  0.1999735821795525
  0.9283615292824905  0.2238436456646085  0.3964554676542988
  0.9273577276335132  0.1753423284501281  0.6306280412526490
  0.6357265328203852  0.2347423165912588  0.8069010418188611
  0.8812761826110318  0.4254652087221018  0.7719304410869938
  0.8477821514838553  0.7203421296440595  0.9363294483713034
  0.7789183300662472  0.2203735998406771  0.2119951863613281
  0.1634284006983862  0.3585581193699809  0.6097660753825735
  0.7425294070761836  0.4871950979544692  0.3743698514101155
  0.1465603725593780  0.6342239169007726  0.7457776645479015
  0.9919087446049204  0.6801421457413426  0.3275107377424007
  0.7145513412178275  0.7476197889901783  0.5109423572670977
  0.4009507183340801  0.8286974662266005  0.7100433662886800
  0.1111208559973704  0.8887372069664110  0.8877796322961089
  0.9523541171703158  0.9413640495361690  0.4845234950686930
  0.6623328110615816  0.9977600556986346  0.6608203602305949
  0.3724464380500123  0.0669845812201331  0.8488295874999707
  0.0730754910559170  0.1334754584695474  0.0294517881196157
  0.2964287161465009  0.6104744118957370  0.1556563376481748
  0.5582161349823807  0.7884440778532351  0.1104698375817890
  0.2699803754866039  0.8604397490497746  0.2865924337126060
  0.8146451392598806  0.9648381675791384  0.0705882620159670
  0.5239428126822858  0.0383513375731823  0.2475098738613610
  0.2087637666725399  0.1069772075129194  0.4436008941078882
  0.0604639788229449  0.4430913433479446  0.9310142070834075
  0.5859506944841044  0.5481188087016235  0.7243458008649881
  0.2193513771468290  0.3970297646069767  0.3617972588685419
  0.1441313270720670  0.6753682936485603  0.4902796260498405
  0.8699931761130486  0.7312461351242803  0.7020237575252395
  0.4333651496354278  0.8583644135359521  0.4686297680266023
  0.9863855848290299  0.9651888636004244  0.2476807810662578
  0.3522669090517425  0.3183024959412606  0.0040311919791378
  0.6050383212487134  0.5209311401318359  0.9718953831378698
  0.5084065104981548  0.2747376386393512  0.4163050046272261
  0.0401275283761606  0.4051361739790096  0.1957443613240670
  0.4277186496005214  0.5516919230933439  0.5571605390790566
  0.6108272989724739  0.4131003256150194  0.4886464349969941
  0.2465287857247205  0.4670111767251655  0.6855630509552171
  0.9571636912657340  0.5811315341529024  0.8329609680498393
  0.5323744888111150  0.7100494532470449  0.6087948575283377
  0.2425811351278142  0.7443915769351364  0.8118906483187374
  0.5050687421893372  0.9319300318870418  0.7690865077426139
  0.4180917053919657  0.4593339084825061  0.0975866869282811
  0.1418069615083226  0.5554270671397674  0.2664276461017749
  0.8458935670529826  0.5957061544764102  0.4390699975535526
  0.7026432075138587  0.6546191861721624  0.0469936562643554
  0.4020107601243197  0.7169735100223349  0.2118048609988392
  0.0762652486608815  0.8202421076467630  0.3781483773759717
  0.7957438310103697  0.8623268214648547  0.5789585483919595
  0.6516547977567697  0.8952610135272323  0.1744533678296563
  0.3512197056984832  0.9862441591076418  0.3505683945295175
  0.0584186573662322  0.0333983263508699  0.5517376957961986
  0.7668606720040998  0.0997584158591778  0.7258818363448682
  0.6391727155348264  0.1219188792509271  0.3073589488110144
  0.2896109569154817  0.2210508513380915  0.5223102403875686
  0.0121544538432730  0.2813554400499285  0.7057511937069023
  0.7317694970952928  0.3445332378825654  0.8720151848420770
  0.9538661663938655  0.8241567823893803  0.9933412284023504
  0.2116433657644450  0.9945428723267540  0.9509380118952322
  0.9030444237959827  0.0854906559610811  0.1268279783846609
  0.4885587603928414  0.1552830348721912  0.9064923768329649
  0.1623951931215615  0.2300578641615871  0.1032901645522841
  0.8440593940187142  0.3280641275868419  0.3024503843734507
  0.8585383888973723  0.2886052089795896  0.5353779948429036
  0.5496616059535953  0.3321933593205202  0.7138244750213474
  0.2987793462021529  0.4616934051589823  0.8857526983046711
  0.8144538552204992  0.5278636016381029  0.6761717878257727
  0.5115456211250731  0.6628391966473757  0.8727457991156982
  0.7638039001547909  0.8341637082640432  0.8517502399502348
  0.7162068925084597  0.3445982090035997  0.1120932645274806
  0.4525300061829753  0.4135749680378140  0.3007842431822567
  0.0924899212297419  0.4662549239618770  0.5189350500904979
  0.9623003822341900  0.5359867940331924  0.0849791525572883
  0.6769342202114785  0.5978359282548666  0.2736703302297983
  0.3741657982009272  0.6639862164317520  0.4300463344495711
  0.1039593829753400  0.7542397125949662  0.6481256326434917
  0.9237840216654831  0.7646877152788818  0.2243096634692208
  0.6699206149052017  0.8518909276360134  0.4033860284070556
  0.3198960596094906  0.9478009039696573  0.6283451174153427
  0.0317998898510226  0.9979297359644264  0.7936732728838223
  0.8747062269242747  0.0575637002506397  0.4041966383228228
  0.5827019155966013  0.1122508538227365  0.5590508792187734
  0.2889937446014557  0.1845261200868720  0.7614233311719119
  0.9998327149711415  0.2366198199288263  0.9337545105640572
  0.2255905301187155  0.7091968176503940  0.0506392262995803
  0.4854179747598266  0.8938107363553698  0.0138471173851258
  0.2218431551409168  0.9611156098570746  0.1814656723263468
  0.7427421140828443  0.0734604294236760  0.9750486312937880
  0.4543382584877307  0.1607546732632414  0.1511124582660699
  0.1348661091561780  0.2046747672133904  0.3375015431341524
 
  0.00000000E+00  0.00000000E+00  0.00000000E+00
  0.00000000E+00  0.00000000E+00  0.00000000E+00
  0.00000000E+00  0.00000000E+00  0.00000000E+00
  0.00000000E+00  0.00000000E+00  0.00000000E+00
  0.00000000E+00  0.00000000E+00  0.00000000E+00
  0.00000000E+00  0.00000000E+00  0.00000000E+00
  0.00000000E+00  0.00000000E+00  0.00000000E+00
  0.00000000E+00  0.00000000E+00  0.00000000E+00
  0.00000000E+00  0.00000000E+00  0.00000000E+00
  0.00000000E+00  0.00000000E+00  0.00000000E+00
  0.00000000E+00  0.00000000E+00  0.00000000E+00
  0.00000000E+00  0.00000000E+00  0.00000000E+00
  0.00000000E+00  0.00000000E+00  0.00000000E+00
  0.00000000E+00  0.00000000E+00  0.00000000E+00
  0.00000000E+00  0.00000000E+00  0.00000000E+00
  0.00000000E+00  0.00000000E+00  0.00000000E+00
  0.00000000E+00  0.00000000E+00  0.00000000E+00
  0.00000000E+00  0.00000000E+00  0.00000000E+00
  0.00000000E+00  0.00000000E+00  0.00000000E+00
  0.00000000E+00  0.00000000E+00  0.00000000E+00
  0.00000000E+00  0.00000000E+00  0.00000000E+00
  0.00000000E+00  0.00000000E+00  0.00000000E+00
  0.00000000E+00  0.00000000E+00  0.00000000E+00
  0.00000000E+00  0.00000000E+00  0.00000000E+00
  0.00000000E+00  0.00000000E+00  0.00000000E+00
  0.00000000E+00  0.00000000E+00  0.00000000E+00
  0.00000000E+00  0.00000000E+00  0.00000000E+00
  0.00000000E+00  0.00000000E+00  0.00000000E+00
  0.00000000E+00  0.00000000E+00  0.00000000E+00
  0.00000000E+00  0.00000000E+00  0.00000000E+00
  0.00000000E+00  0.00000000E+00  0.00000000E+00
  0.00000000E+00  0.00000000E+00  0.00000000E+00
  0.00000000E+00  0.00000000E+00  0.00000000E+00
  0.00000000E+00  0.00000000E+00  0.00000000E+00
  0.00000000E+00  0.00000000E+00  0.00000000E+00
  0.00000000E+00  0.00000000E+00  0.00000000E+00
  0.00000000E+00  0.00000000E+00  0.00000000E+00
  0.00000000E+00  0.00000000E+00  0.00000000E+00
  0.00000000E+00  0.00000000E+00  0.00000000E+00
  0.00000000E+00  0.00000000E+00  0.00000000E+00
  0.00000000E+00  0.00000000E+00  0.00000000E+00
  0.00000000E+00  0.00000000E+00  0.00000000E+00
  0.00000000E+00  0.00000000E+00  0.00000000E+00
  0.00000000E+00  0.00000000E+00  0.00000000E+00
  0.00000000E+00  0.00000000E+00  0.00000000E+00
  0.00000000E+00  0.00000000E+00  0.00000000E+00
  0.00000000E+00  0.00000000E+00  0.00000000E+00
  0.00000000E+00  0.00000000E+00  0.00000000E+00
  0.00000000E+00  0.00000000E+00  0.00000000E+00
  0.00000000E+00  0.00000000E+00  0.00000000E+00
  0.00000000E+00  0.00000000E+00  0.00000000E+00
  0.00000000E+00  0.00000000E+00  0.00000000E+00
  0.00000000E+00  0.00000000E+00  0.00000000E+00
  0.00000000E+00  0.00000000E+00  0.00000000E+00
  0.00000000E+00  0.00000000E+00  0.00000000E+00
  0.00000000E+00  0.00000000E+00  0.00000000E+00
  0.00000000E+00  0.00000000E+00  0.00000000E+00
  0.00000000E+00  0.00000000E+00  0.00000000E+00
  0.00000000E+00  0.00000000E+00  0.00000000E+00
  0.00000000E+00  0.00000000E+00  0.00000000E+00
  0.00000000E+00  0.00000000E+00  0.00000000E+00
  0.00000000E+00  0.00000000E+00  0.00000000E+00
  0.00000000E+00  0.00000000E+00  0.00000000E+00
  0.00000000E+00  0.00000000E+00  0.00000000E+00
  0.00000000E+00  0.00000000E+00  0.00000000E+00
  0.00000000E+00  0.00000000E+00  0.00000000E+00
  0.00000000E+00  0.00000000E+00  0.00000000E+00
  0.00000000E+00  0.00000000E+00  0.00000000E+00
  0.00000000E+00  0.00000000E+00  0.00000000E+00
  0.00000000E+00  0.00000000E+00  0.00000000E+00
  0.00000000E+00  0.00000000E+00  0.00000000E+00
  0.00000000E+00  0.00000000E+00  0.00000000E+00
  0.00000000E+00  0.00000000E+00  0.00000000E+00
  0.00000000E+00  0.00000000E+00  0.00000000E+00
  0.00000000E+00  0.00000000E+00  0.00000000E+00
  0.00000000E+00  0.00000000E+00  0.00000000E+00
  0.00000000E+00  0.00000000E+00  0.00000000E+00
  0.00000000E+00  0.00000000E+00  0.00000000E+00
  0.00000000E+00  0.00000000E+00  0.00000000E+00
  0.00000000E+00  0.00000000E+00  0.00000000E+00
  0.00000000E+00  0.00000000E+00  0.00000000E+00
  0.00000000E+00  0.00000000E+00  0.00000000E+00
  0.00000000E+00  0.00000000E+00  0.00000000E+00
  0.00000000E+00  0.00000000E+00  0.00000000E+00
  0.00000000E+00  0.00000000E+00  0.00000000E+00
  0.00000000E+00  0.00000000E+00  0.00000000E+00
  0.00000000E+00  0.00000000E+00  0.00000000E+00
  0.00000000E+00  0.00000000E+00  0.00000000E+00
  0.00000000E+00  0.00000000E+00  0.00000000E+00
  0.00000000E+00  0.00000000E+00  0.00000000E+00
  0.00000000E+00  0.00000000E+00  0.00000000E+00
  0.00000000E+00  0.00000000E+00  0.00000000E+00
  0.00000000E+00  0.00000000E+00  0.00000000E+00
  0.00000000E+00  0.00000000E+00  0.00000000E+00
  0.00000000E+00  0.00000000E+00  0.00000000E+00
  0.00000000E+00  0.00000000E+00  0.00000000E+00
  0.00000000E+00  0.00000000E+00  0.00000000E+00
  0.00000000E+00  0.00000000E+00  0.00000000E+00
  0.00000000E+00  0.00000000E+00  0.00000000E+00
  0.00000000E+00  0.00000000E+00  0.00000000E+00
  0.00000000E+00  0.00000000E+00  0.00000000E+00
  0.00000000E+00  0.00000000E+00  0.00000000E+00
  0.00000000E+00  0.00000000E+00  0.00000000E+00
  0.00000000E+00  0.00000000E+00  0.00000000E+00
  0.00000000E+00  0.00000000E+00  0.00000000E+00
  0.00000000E+00  0.00000000E+00  0.00000000E+00
  0.00000000E+00  0.00000000E+00  0.00000000E+00
  0.00000000E+00  0.00000000E+00  0.00000000E+00
