supercell of 100% icsd_608626.cif, 0% i 
   1.00000000000000     
    -9.5355054733555349   -0.0055406459362142   -0.0038135174061290
    -4.7629503458053719    8.2511664692464883    0.0024452527707908
    -0.0040929435932817   -0.0054143278721184  -10.0857546248838226
   Al   Zr   Mg   N 
    32     2     2    36
Direct
  0.1104737859250164  0.0933065065934073  0.2975304522282229
  0.2139420412654900  0.2090685497205556  0.0503730476479660
  0.7820927407934164  0.0967022173212726  0.7946474968433890
  0.8891263849269038  0.2074282195341297  0.5465907958210252
  0.4391742069240365  0.1001189431748983  0.2907800498951971
  0.5584775268877920  0.2096479556210866  0.0503894514920944
  0.1047099930728308  0.0942211827889139  0.7935135538625246
  0.2190394843580634  0.2076311655843384  0.5422669099118878
  0.7791587097987644  0.1000245468260488  0.2960831738910272
  0.8898902444374883  0.2048311450197602  0.0455870682611916
  0.5537419625912960  0.2105126933622472  0.5421619438515890
  0.1161966598179447  0.4233942168329676  0.2960498292860265
  0.2218316538822265  0.5393107650679099  0.0457402809986291
  0.7782518784662997  0.4263923409911428  0.7958961881614073
  0.8953308182616055  0.5286849079579525  0.5523948137828327
  0.4439763526184635  0.4309033432951352  0.2949482896009528
  0.5551988683939513  0.5381712984231513  0.0470029812591122
  0.1067539591019582  0.4328526571366851  0.7937425350050091
  0.2235696583401605  0.5378638585065261  0.5478633235796195
  0.7768075496271791  0.4223939170946309  0.2936835884027289
  0.8910922861616939  0.5353168596706723  0.0411327656203184
  0.4444510772704859  0.4331440332210903  0.7930275576084895
  0.1169641681980238  0.7617507639303724  0.2962251058958003
  0.2201117564442185  0.8735127401362988  0.0457653240355711
  0.7847585978394420  0.7542925090970769  0.7895072802079994
  0.8943497506766462  0.8744956248529050  0.5524408564476317
  0.4387018189962717  0.7597118865919654  0.2918237148124092
  0.5557933503483810  0.8668366724593568  0.0474573790031201
  0.1129913312108570  0.7607589318675849  0.7951677331444316
  0.2234670883963261  0.8711151002612567  0.5478520916717571
  0.8909522574020414  0.8737645082647205  0.0411342009130919
  0.4417025426921555  0.7552281097111191  0.7949239661015355
  0.4429360313789203  0.0963486552897592  0.8018632948500439
  0.7806860354247718  0.7593257614773563  0.3071924189613497
  0.5555726236232772  0.5396881693374596  0.5471190803929105
  0.5494191715724170  0.8704857696245654  0.5475417237969751
  0.2220758925716169  0.2051597242388041  0.3509198233030375
  0.1095190851779506  0.0939904565678233  0.1072363570913737
  0.8892545964286711  0.2046662290672359  0.8566137456005833
  0.7759364956508747  0.0969295900983980  0.6048688485602511
  0.5558533362313867  0.2057201494191787  0.3493221973164111
  0.4427821257925189  0.0962872638287777  0.0938223828671809
  0.1994066042642260  0.2164269720026368  0.8606885665207571
  0.1103243414017285  0.0948418357758456  0.6029439957203948
  0.8893398354228594  0.2057731753778782  0.3549720232331595
  0.7796259514900328  0.0931741646928401  0.1057864791811198
  0.5667450022994203  0.2154507665221317  0.8614173006963881
  0.4370421146681238  0.1090587829144738  0.5978032161859801
  0.2207240510353330  0.5401088701803687  0.3544502019007680
  0.1096602061985692  0.4299026712489393  0.1058677541421318
  0.8897996461644269  0.5385386580342200  0.8530887982991260
  0.7919865006538984  0.4188952382045770  0.6107071722369923
  0.5565638281946832  0.5395222664675146  0.3398520766164097
  0.4416630231987426  0.4291187423787051  0.1045711983448854
  0.2217378300540247  0.5388080125393557  0.8554168927407773
  0.1142054152973984  0.4257027756905529  0.6049157222710164
  0.9003625023481163  0.5151339364818739  0.3599756050557730
  0.7799398156378388  0.4267713645429296  0.1020236605468696
  0.5568284196352735  0.5370637538546248  0.8566773594788160
  0.4375549307577771  0.4210438793801714  0.6075671332003125
  0.2222370329585033  0.8727363619647548  0.3546730398941378
  0.1098723255900325  0.7614454401811628  0.1048061501129496
  0.8882965496091160  0.8732988246467741  0.8510682704725099
  0.7934675798962516  0.7528102461876927  0.5973068009288056
  0.5364572129062353  0.8823149883380594  0.3402227129905739
  0.4410240000084045  0.7614348482906053  0.1009907119323898
  0.2187375048163744  0.8749004496192967  0.8573620626306919
  0.1124458274585010  0.7605700320436597  0.6061213395764753
  0.9001122157371668  0.8843878834369860  0.3607794440311736
  0.7809468917162903  0.7596570646898613  0.0962221849448781
  0.5676277850230633  0.8512941120821651  0.8571816664268042
  0.4281491565777387  0.7678239423628597  0.6143368377021687
 
  0.00000000E+00  0.00000000E+00  0.00000000E+00
  0.00000000E+00  0.00000000E+00  0.00000000E+00
  0.00000000E+00  0.00000000E+00  0.00000000E+00
  0.00000000E+00  0.00000000E+00  0.00000000E+00
  0.00000000E+00  0.00000000E+00  0.00000000E+00
  0.00000000E+00  0.00000000E+00  0.00000000E+00
  0.00000000E+00  0.00000000E+00  0.00000000E+00
  0.00000000E+00  0.00000000E+00  0.00000000E+00
  0.00000000E+00  0.00000000E+00  0.00000000E+00
  0.00000000E+00  0.00000000E+00  0.00000000E+00
  0.00000000E+00  0.00000000E+00  0.00000000E+00
  0.00000000E+00  0.00000000E+00  0.00000000E+00
  0.00000000E+00  0.00000000E+00  0.00000000E+00
  0.00000000E+00  0.00000000E+00  0.00000000E+00
  0.00000000E+00  0.00000000E+00  0.00000000E+00
  0.00000000E+00  0.00000000E+00  0.00000000E+00
  0.00000000E+00  0.00000000E+00  0.00000000E+00
  0.00000000E+00  0.00000000E+00  0.00000000E+00
  0.00000000E+00  0.00000000E+00  0.00000000E+00
  0.00000000E+00  0.00000000E+00  0.00000000E+00
  0.00000000E+00  0.00000000E+00  0.00000000E+00
  0.00000000E+00  0.00000000E+00  0.00000000E+00
  0.00000000E+00  0.00000000E+00  0.00000000E+00
  0.00000000E+00  0.00000000E+00  0.00000000E+00
  0.00000000E+00  0.00000000E+00  0.00000000E+00
  0.00000000E+00  0.00000000E+00  0.00000000E+00
  0.00000000E+00  0.00000000E+00  0.00000000E+00
  0.00000000E+00  0.00000000E+00  0.00000000E+00
  0.00000000E+00  0.00000000E+00  0.00000000E+00
  0.00000000E+00  0.00000000E+00  0.00000000E+00
  0.00000000E+00  0.00000000E+00  0.00000000E+00
  0.00000000E+00  0.00000000E+00  0.00000000E+00
  0.00000000E+00  0.00000000E+00  0.00000000E+00
  0.00000000E+00  0.00000000E+00  0.00000000E+00
  0.00000000E+00  0.00000000E+00  0.00000000E+00
  0.00000000E+00  0.00000000E+00  0.00000000E+00
  0.00000000E+00  0.00000000E+00  0.00000000E+00
  0.00000000E+00  0.00000000E+00  0.00000000E+00
  0.00000000E+00  0.00000000E+00  0.00000000E+00
  0.00000000E+00  0.00000000E+00  0.00000000E+00
  0.00000000E+00  0.00000000E+00  0.00000000E+00
  0.00000000E+00  0.00000000E+00  0.00000000E+00
  0.00000000E+00  0.00000000E+00  0.00000000E+00
  0.00000000E+00  0.00000000E+00  0.00000000E+00
  0.00000000E+00  0.00000000E+00  0.00000000E+00
  0.00000000E+00  0.00000000E+00  0.00000000E+00
  0.00000000E+00  0.00000000E+00  0.00000000E+00
  0.00000000E+00  0.00000000E+00  0.00000000E+00
  0.00000000E+00  0.00000000E+00  0.00000000E+00
  0.00000000E+00  0.00000000E+00  0.00000000E+00
  0.00000000E+00  0.00000000E+00  0.00000000E+00
  0.00000000E+00  0.00000000E+00  0.00000000E+00
  0.00000000E+00  0.00000000E+00  0.00000000E+00
  0.00000000E+00  0.00000000E+00  0.00000000E+00
  0.00000000E+00  0.00000000E+00  0.00000000E+00
  0.00000000E+00  0.00000000E+00  0.00000000E+00
  0.00000000E+00  0.00000000E+00  0.00000000E+00
  0.00000000E+00  0.00000000E+00  0.00000000E+00
  0.00000000E+00  0.00000000E+00  0.00000000E+00
  0.00000000E+00  0.00000000E+00  0.00000000E+00
  0.00000000E+00  0.00000000E+00  0.00000000E+00
  0.00000000E+00  0.00000000E+00  0.00000000E+00
  0.00000000E+00  0.00000000E+00  0.00000000E+00
  0.00000000E+00  0.00000000E+00  0.00000000E+00
  0.00000000E+00  0.00000000E+00  0.00000000E+00
  0.00000000E+00  0.00000000E+00  0.00000000E+00
  0.00000000E+00  0.00000000E+00  0.00000000E+00
  0.00000000E+00  0.00000000E+00  0.00000000E+00
  0.00000000E+00  0.00000000E+00  0.00000000E+00
  0.00000000E+00  0.00000000E+00  0.00000000E+00
  0.00000000E+00  0.00000000E+00  0.00000000E+00
  0.00000000E+00  0.00000000E+00  0.00000000E+00
