supercell of 100% icsd_608626.cif, 0% i 
   1.00000000000000     
    -9.5328787249436981    0.0021496847037794    0.0016481403509245
    -4.7683010498071789    8.2546397742048629    0.0016474016134940
     0.0017559142406521   -0.0010128732269288  -10.0934303881441245
   Al   Zr   Mg   N 
    32     2     2    36
Direct
  0.1070238354454958  0.1007743931705747  0.2953728638362207
  0.2201712917229841  0.2071204072288069  0.0472516798750675
  0.8909638838816960  0.2076315114422229  0.5408687066266182
  0.4424360089994295  0.1008094067484322  0.2960277671689440
  0.5492057322399120  0.2103072562148327  0.0497062125172221
  0.1164780786458479  0.0968516273412376  0.7949237617400655
  0.2218354607474495  0.2060019711450707  0.5445898301377810
  0.8926897025511096  0.2093558675581235  0.0498813846331316
  0.4368097181004060  0.0969929177163493  0.7950786638410960
  0.5518739938612001  0.2071131407907174  0.5411726459579000
  0.1101886982530189  0.4268557760973977  0.2958441499820239
  0.7801854285977043  0.4331442532968452  0.7949237332639854
  0.8893348012324154  0.5385030152138839  0.5445894866548358
  0.4444921531178778  0.4218279127700058  0.2956805698819736
  0.5586588387080909  0.5326519845380915  0.0413511788488705
  0.1117895001117404  0.4284558512019174  0.7946978862055261
  0.2217916013816179  0.5384596576937781  0.5453229814093206
  0.7841072808854292  0.4236907502791425  0.2953729184295497
  0.8904539575375594  0.5368376496365457  0.0472519192112415
  0.4360168739121235  0.4332981669326088  0.7929255691206478
  0.5593409715027562  0.5322508695268482  0.5515068351884693
  0.1051606499964777  0.7611596417524211  0.2956805846042698
  0.2159861185267218  0.8753249049799052  0.0413513157228493
  0.7803267706543906  0.7534757283279774  0.7950786322014807
  0.8904451788903245  0.8685424572311788  0.5411726158381711
  0.5577927215381635  0.8744588770185828  0.0410447344334131
  0.1166323698393938  0.7526825421895040  0.7929256020071307
  0.2155838501181648  0.8760081092299359  0.5515067065676078
  0.7841419861511412  0.7591034735562161  0.2960279153147951
  0.8936418385770324  0.8658708538137319  0.0497061306500441
  0.4442138263615831  0.7608803082853086  0.7945408810741981
  0.5586162772133818  0.8752832677251803  0.5514722433198997
  0.7779349776072308  0.0946003789175549  0.8116650250734523
  0.4438455590344361  0.7605123527799478  0.3009611356740720
  0.7776905190663399  0.0943578393857933  0.2919149752075541
  0.2218458624977089  0.5385115515928760  0.0482534723005230
  0.2234530783808069  0.2033099480274956  0.3553560470106518
  0.1140351915733007  0.0926672460470996  0.1049226878839065
  0.9012829232483597  0.2179490537936388  0.8589164083913516
  0.7780026383329783  0.0946709395295002  0.5973917771582080
  0.5424653551718848  0.2108227424401576  0.3565709637033478
  0.4438991888746457  0.0929337211999481  0.1049577597439537
  0.2216382506317842  0.2067608565846015  0.8556362940729727
  0.1106737498789627  0.0963945075086130  0.6063463923511776
  0.8958199093190728  0.2124867960002703  0.3550751924562832
  0.7778605801118701  0.0945257113278757  0.0735352535329881
  0.5315542212577000  0.2174934774342461  0.8581257115410850
  0.4430814503151268  0.0957010867250290  0.6064318801619351
  0.2226055880457167  0.5392731464601326  0.3536945495211725
  0.1033229690587021  0.4199894044134425  0.1096108787712069
  0.8900946190491723  0.5383043391030853  0.8556364873935252
  0.7797274687040385  0.4273412381682462  0.6063463585145357
  0.5660782269903493  0.5199171781283738  0.3619962650104469
  0.4589260079416633  0.4227477606078480  0.1096900462760999
  0.2213679328578095  0.5380334512731508  0.8428455712809964
  0.1102368880608822  0.4269042991294683  0.6024369377776964
  0.8866426695290244  0.5401203558768870  0.3553557693680958
  0.7760009299097490  0.4307014051070723  0.1049227320784922
  0.5565789552393809  0.5371160924699225  0.8499268430839919
  0.4448098972294616  0.4266354780287429  0.6040063505185174
  0.2032502886622467  0.8827453744862694  0.3619961745627549
  0.1060822065918430  0.7755917223988646  0.1096900721778553
  0.9008279017671512  0.8482194682011794  0.8581257535153952
  0.7790341627739608  0.7597488277791413  0.6064318655566652
  0.5646905297276987  0.8813579629067618  0.3606500825173882
  0.4446336871189160  0.7612994441684151  0.0908562704459825
  0.2204498120927099  0.8732451008886031  0.8499269706979078
  0.1099676889642112  0.7614778189000333  0.6040064100472975
  0.8941553368398516  0.8591329428234715  0.3565709755892286
  0.7762673929409019  0.7605654191731261  0.1049579310786797
  0.5563067950658933  0.8729728742541383  0.8505160305844370
  0.4444691902338249  0.7611361353056481  0.5988935911037174
 
  0.00000000E+00  0.00000000E+00  0.00000000E+00
  0.00000000E+00  0.00000000E+00  0.00000000E+00
  0.00000000E+00  0.00000000E+00  0.00000000E+00
  0.00000000E+00  0.00000000E+00  0.00000000E+00
  0.00000000E+00  0.00000000E+00  0.00000000E+00
  0.00000000E+00  0.00000000E+00  0.00000000E+00
  0.00000000E+00  0.00000000E+00  0.00000000E+00
  0.00000000E+00  0.00000000E+00  0.00000000E+00
  0.00000000E+00  0.00000000E+00  0.00000000E+00
  0.00000000E+00  0.00000000E+00  0.00000000E+00
  0.00000000E+00  0.00000000E+00  0.00000000E+00
  0.00000000E+00  0.00000000E+00  0.00000000E+00
  0.00000000E+00  0.00000000E+00  0.00000000E+00
  0.00000000E+00  0.00000000E+00  0.00000000E+00
  0.00000000E+00  0.00000000E+00  0.00000000E+00
  0.00000000E+00  0.00000000E+00  0.00000000E+00
  0.00000000E+00  0.00000000E+00  0.00000000E+00
  0.00000000E+00  0.00000000E+00  0.00000000E+00
  0.00000000E+00  0.00000000E+00  0.00000000E+00
  0.00000000E+00  0.00000000E+00  0.00000000E+00
  0.00000000E+00  0.00000000E+00  0.00000000E+00
  0.00000000E+00  0.00000000E+00  0.00000000E+00
  0.00000000E+00  0.00000000E+00  0.00000000E+00
  0.00000000E+00  0.00000000E+00  0.00000000E+00
  0.00000000E+00  0.00000000E+00  0.00000000E+00
  0.00000000E+00  0.00000000E+00  0.00000000E+00
  0.00000000E+00  0.00000000E+00  0.00000000E+00
  0.00000000E+00  0.00000000E+00  0.00000000E+00
  0.00000000E+00  0.00000000E+00  0.00000000E+00
  0.00000000E+00  0.00000000E+00  0.00000000E+00
  0.00000000E+00  0.00000000E+00  0.00000000E+00
  0.00000000E+00  0.00000000E+00  0.00000000E+00
  0.00000000E+00  0.00000000E+00  0.00000000E+00
  0.00000000E+00  0.00000000E+00  0.00000000E+00
  0.00000000E+00  0.00000000E+00  0.00000000E+00
  0.00000000E+00  0.00000000E+00  0.00000000E+00
  0.00000000E+00  0.00000000E+00  0.00000000E+00
  0.00000000E+00  0.00000000E+00  0.00000000E+00
  0.00000000E+00  0.00000000E+00  0.00000000E+00
  0.00000000E+00  0.00000000E+00  0.00000000E+00
  0.00000000E+00  0.00000000E+00  0.00000000E+00
  0.00000000E+00  0.00000000E+00  0.00000000E+00
  0.00000000E+00  0.00000000E+00  0.00000000E+00
  0.00000000E+00  0.00000000E+00  0.00000000E+00
  0.00000000E+00  0.00000000E+00  0.00000000E+00
  0.00000000E+00  0.00000000E+00  0.00000000E+00
  0.00000000E+00  0.00000000E+00  0.00000000E+00
  0.00000000E+00  0.00000000E+00  0.00000000E+00
  0.00000000E+00  0.00000000E+00  0.00000000E+00
  0.00000000E+00  0.00000000E+00  0.00000000E+00
  0.00000000E+00  0.00000000E+00  0.00000000E+00
  0.00000000E+00  0.00000000E+00  0.00000000E+00
  0.00000000E+00  0.00000000E+00  0.00000000E+00
  0.00000000E+00  0.00000000E+00  0.00000000E+00
  0.00000000E+00  0.00000000E+00  0.00000000E+00
  0.00000000E+00  0.00000000E+00  0.00000000E+00
  0.00000000E+00  0.00000000E+00  0.00000000E+00
  0.00000000E+00  0.00000000E+00  0.00000000E+00
  0.00000000E+00  0.00000000E+00  0.00000000E+00
  0.00000000E+00  0.00000000E+00  0.00000000E+00
  0.00000000E+00  0.00000000E+00  0.00000000E+00
  0.00000000E+00  0.00000000E+00  0.00000000E+00
  0.00000000E+00  0.00000000E+00  0.00000000E+00
  0.00000000E+00  0.00000000E+00  0.00000000E+00
  0.00000000E+00  0.00000000E+00  0.00000000E+00
  0.00000000E+00  0.00000000E+00  0.00000000E+00
  0.00000000E+00  0.00000000E+00  0.00000000E+00
  0.00000000E+00  0.00000000E+00  0.00000000E+00
  0.00000000E+00  0.00000000E+00  0.00000000E+00
  0.00000000E+00  0.00000000E+00  0.00000000E+00
  0.00000000E+00  0.00000000E+00  0.00000000E+00
  0.00000000E+00  0.00000000E+00  0.00000000E+00
