generated by phonopy                    
   1.00000000000000     
    10.0351470768999995   -0.0000022330999784   -0.0000001056124209
    -5.0175765436399997    8.6906901959899994    0.0000001395531216
    -0.0000001735893656    0.0000001431815548   14.9533752540999991
   Pb   P    O 
    21    12    49
Direct
  0.0031559972230824  0.7832251486554895  0.1221332423543871
  0.9910432854042099  0.7523368509180131  0.6206775595620897
  0.9792445151254512  0.2694215488407465  0.3443334207054463
  0.0058154824875700  0.2662979638354983  0.8793479546206271
  0.2266045720245486  0.2309808731845777  0.1229761271015093
  0.2568026644411745  0.2245962545029485  0.6798008913318867
  0.7437799871392414  0.7494333846024617  0.3724875306867759
  0.7513063580689661  0.7492017746696860  0.8769780178694404
  0.7677217460856909  0.0013806522869615  0.1210209182901849
  0.7559558339447889  0.9911939991772627  0.6293983732883319
  0.2655916198370960  0.9892321585252546  0.3627141953335880
  0.2639181626047460  0.9990335409016566  0.8823465858670900
  0.6748103186503442  0.3389602339950955  0.9948996286406810
  0.6455893528903758  0.3380622100470489  0.4961331969884384
  0.3361305721869527  0.6744493858675824  0.0067615062261197
  0.3440462988550692  0.6692244978760016  0.5022999887238626
  0.3329786807771740  0.6595566292116075  0.2472222657232948
  0.3310829129911852  0.6710943432994085  0.7455598748204366
  0.6501668227610793  0.3538689810464319  0.2416093339764060
  0.6848857164582327  0.3289613319127938  0.7429157153243722
  0.1059522797296779  0.1336162513924037  0.4978802465962389
  0.6324307662235071  0.6075254795244120  0.1189506999584893
  0.6194509521513965  0.5892904591135917  0.6265625480400843
  0.4158875628119247  0.4037491892295364  0.3356534927030239
  0.3798853334431413  0.4093569970612023  0.8829914055227164
  0.4069208246286351  0.0337051233798107  0.1213021117634412
  0.4126296453021610  0.0230021812235535  0.6216429120997091
  0.6061636504215855  0.9723902912469384  0.3762219827165296
  0.6132276992809693  0.9792439887959787  0.8740713584537403
  0.9702919283272138  0.3854252378910275  0.1147257589871700
  0.9798164651842853  0.3702004121318083  0.6199244274137286
  0.0214653720988593  0.6362199252312806  0.3714886159154460
  0.0304723543359984  0.6358738897828218  0.8712681282231571
  0.5114442390115244  0.6613345085332938  0.1229041369412798
  0.5047295196560313  0.6512759945782705  0.6244162337085513
  0.3935577156877699  0.3072586804646846  0.4232833865226056
  0.4674526531899730  0.3202121204657473  0.8697080728922586
  0.3553900193094464  0.8597860546242302  0.1261361796361413
  0.3662693223724744  0.8494870029631656  0.6201284162359286
  0.6647054199082589  0.1475083264731296  0.3789730617628138
  0.6916626256737075  0.1576684054383293  0.8675090746746648
  0.1459852135410600  0.5000460302462244  0.1196721914594363
  0.1535354458415981  0.4959641714712433  0.6263088755342494
  0.8438113894596597  0.5311266926733182  0.3717665121931404
  0.8521340456983069  0.5354464134220365  0.8677496544306464
  0.7473817288282945  0.6843782041644744  0.0392260341453436
  0.7202034518280627  0.6346573308366317  0.5393909316264498
  0.2587414034810678  0.3435443328174941  0.9601129308995979
  0.3251332676789573  0.0674402009254891  0.0419014172554100
  0.3284453316970826  0.0592226125377877  0.5467539092973510
  0.6446182580578750  0.9064157434860221  0.4614956844669038
  0.6817620891237510  0.9306397105406745  0.9528558160281690
  0.9237699658517329  0.2795412316749832  0.0299426919743198
  0.9524447018241418  0.2609581233595577  0.5381953115211502
  0.0866291712253329  0.7374712272773252  0.4572174926726049
  0.0853347300241936  0.7492317720676738  0.9528955699808961
  0.2490982770992787  0.3544536281657571  0.2948221937957385
  0.2843936041330579  0.4000663093530221  0.7968434000759643
  0.7324420933457034  0.6536082265014400  0.2065891796569161
  0.7316145710432309  0.6551853319567158  0.7079043848757181
  0.6735867723045317  0.9284470740499273  0.2942891820485656
  0.6355426056539173  0.9054616538776941  0.7874658961983840
  0.3592477323467023  0.0880329455580124  0.2087028446409107
  0.3743842398250692  0.0670827383167563  0.7153720523233460
  0.0784078384076778  0.7508270681600138  0.2900461952813060
  0.0996264379296079  0.7365283381717660  0.7854563927672942
  0.9198579757134056  0.2708539481211076  0.1962373442002061
  0.9232511190917378  0.2678690361443898  0.7069740907018414
  0.5507902190599268  0.4277151659717902  0.1093152681377560
  0.5295447509952780  0.4075234593914487  0.6329187333647255
  0.4775470975196257  0.5817577554456506  0.3672469830142404
  0.4930729978848802  0.5852673310295486  0.8997429972913125
  0.5848749876046142  0.1350095577321966  0.1104434520477682
  0.5918908534920249  0.1282851035317734  0.6095647134529045
  0.4232960950703770  0.8797575562385376  0.3689784448488354
  0.4343844492232165  0.9078927178142493  0.8904685124682175
  0.8754211659202653  0.4694572572963622  0.1154915226127713
  0.8760432678527295  0.4456007547610241  0.6093264426483742
  0.1006296213995057  0.5340333638240722  0.3628090423749413
  0.1041182843180550  0.5293801220376650  0.8808918489485293
  0.9989219860841629  0.0100216236412294  0.1253817752337767
  0.9927858508155509  0.9871905536356707  0.6191775262115939
 
  0.00000000E+00  0.00000000E+00  0.00000000E+00
  0.00000000E+00  0.00000000E+00  0.00000000E+00
  0.00000000E+00  0.00000000E+00  0.00000000E+00
  0.00000000E+00  0.00000000E+00  0.00000000E+00
  0.00000000E+00  0.00000000E+00  0.00000000E+00
  0.00000000E+00  0.00000000E+00  0.00000000E+00
  0.00000000E+00  0.00000000E+00  0.00000000E+00
  0.00000000E+00  0.00000000E+00  0.00000000E+00
  0.00000000E+00  0.00000000E+00  0.00000000E+00
  0.00000000E+00  0.00000000E+00  0.00000000E+00
  0.00000000E+00  0.00000000E+00  0.00000000E+00
  0.00000000E+00  0.00000000E+00  0.00000000E+00
  0.00000000E+00  0.00000000E+00  0.00000000E+00
  0.00000000E+00  0.00000000E+00  0.00000000E+00
  0.00000000E+00  0.00000000E+00  0.00000000E+00
  0.00000000E+00  0.00000000E+00  0.00000000E+00
  0.00000000E+00  0.00000000E+00  0.00000000E+00
  0.00000000E+00  0.00000000E+00  0.00000000E+00
  0.00000000E+00  0.00000000E+00  0.00000000E+00
  0.00000000E+00  0.00000000E+00  0.00000000E+00
  0.00000000E+00  0.00000000E+00  0.00000000E+00
  0.00000000E+00  0.00000000E+00  0.00000000E+00
  0.00000000E+00  0.00000000E+00  0.00000000E+00
  0.00000000E+00  0.00000000E+00  0.00000000E+00
  0.00000000E+00  0.00000000E+00  0.00000000E+00
  0.00000000E+00  0.00000000E+00  0.00000000E+00
  0.00000000E+00  0.00000000E+00  0.00000000E+00
  0.00000000E+00  0.00000000E+00  0.00000000E+00
  0.00000000E+00  0.00000000E+00  0.00000000E+00
  0.00000000E+00  0.00000000E+00  0.00000000E+00
  0.00000000E+00  0.00000000E+00  0.00000000E+00
  0.00000000E+00  0.00000000E+00  0.00000000E+00
  0.00000000E+00  0.00000000E+00  0.00000000E+00
  0.00000000E+00  0.00000000E+00  0.00000000E+00
  0.00000000E+00  0.00000000E+00  0.00000000E+00
  0.00000000E+00  0.00000000E+00  0.00000000E+00
  0.00000000E+00  0.00000000E+00  0.00000000E+00
  0.00000000E+00  0.00000000E+00  0.00000000E+00
  0.00000000E+00  0.00000000E+00  0.00000000E+00
  0.00000000E+00  0.00000000E+00  0.00000000E+00
  0.00000000E+00  0.00000000E+00  0.00000000E+00
  0.00000000E+00  0.00000000E+00  0.00000000E+00
  0.00000000E+00  0.00000000E+00  0.00000000E+00
  0.00000000E+00  0.00000000E+00  0.00000000E+00
  0.00000000E+00  0.00000000E+00  0.00000000E+00
  0.00000000E+00  0.00000000E+00  0.00000000E+00
  0.00000000E+00  0.00000000E+00  0.00000000E+00
  0.00000000E+00  0.00000000E+00  0.00000000E+00
  0.00000000E+00  0.00000000E+00  0.00000000E+00
  0.00000000E+00  0.00000000E+00  0.00000000E+00
  0.00000000E+00  0.00000000E+00  0.00000000E+00
  0.00000000E+00  0.00000000E+00  0.00000000E+00
  0.00000000E+00  0.00000000E+00  0.00000000E+00
  0.00000000E+00  0.00000000E+00  0.00000000E+00
  0.00000000E+00  0.00000000E+00  0.00000000E+00
  0.00000000E+00  0.00000000E+00  0.00000000E+00
  0.00000000E+00  0.00000000E+00  0.00000000E+00
  0.00000000E+00  0.00000000E+00  0.00000000E+00
  0.00000000E+00  0.00000000E+00  0.00000000E+00
  0.00000000E+00  0.00000000E+00  0.00000000E+00
  0.00000000E+00  0.00000000E+00  0.00000000E+00
  0.00000000E+00  0.00000000E+00  0.00000000E+00
  0.00000000E+00  0.00000000E+00  0.00000000E+00
  0.00000000E+00  0.00000000E+00  0.00000000E+00
  0.00000000E+00  0.00000000E+00  0.00000000E+00
  0.00000000E+00  0.00000000E+00  0.00000000E+00
  0.00000000E+00  0.00000000E+00  0.00000000E+00
  0.00000000E+00  0.00000000E+00  0.00000000E+00
  0.00000000E+00  0.00000000E+00  0.00000000E+00
  0.00000000E+00  0.00000000E+00  0.00000000E+00
  0.00000000E+00  0.00000000E+00  0.00000000E+00
  0.00000000E+00  0.00000000E+00  0.00000000E+00
  0.00000000E+00  0.00000000E+00  0.00000000E+00
  0.00000000E+00  0.00000000E+00  0.00000000E+00
  0.00000000E+00  0.00000000E+00  0.00000000E+00
  0.00000000E+00  0.00000000E+00  0.00000000E+00
  0.00000000E+00  0.00000000E+00  0.00000000E+00
  0.00000000E+00  0.00000000E+00  0.00000000E+00
  0.00000000E+00  0.00000000E+00  0.00000000E+00
  0.00000000E+00  0.00000000E+00  0.00000000E+00
  0.00000000E+00  0.00000000E+00  0.00000000E+00
  0.00000000E+00  0.00000000E+00  0.00000000E+00
