supercell of 100% icsd_608626.cif, 0% i 
   1.00000000000000     
    -9.8188627864228515    0.0273425880265484   -0.0330515077687971
    -4.9331978556380625    8.6111248829774123   -0.0221903485477444
    -0.0351550583808505    0.0073142369663977  -10.3996660332834647
   Al   Sr   Zr   N 
    28     4     4    36
Direct
  0.1030539201328651  0.0975803322894890  0.2898800481098789
  0.2174675283497436  0.2068839580210664  0.0502278718874578
  0.7732799103717340  0.1176086054546062  0.8061967995833612
  0.8858936102340493  0.2204017452650717  0.5538140323656862
  0.4414178722691844  0.1025221730621553  0.2961015912705989
  0.5554239288410230  0.2196355754985504  0.0481843438023972
  0.1042113479172357  0.1115775935792911  0.8033176826107464
  0.2152329442422669  0.2080488538279326  0.5391919102223000
  0.7704557577127673  0.1178037485123511  0.2910775843414370
  0.8869292390445906  0.2145824124914668  0.0424607935231620
  0.5561263660451488  0.2116620769947133  0.5411465297860687
  0.1088728110031454  0.4196927796682601  0.2870239709414477
  0.2329530487491596  0.5175970429665782  0.0448121019605239
  0.7819307070366648  0.4240430753156232  0.8025770045196907
  0.8887954023273110  0.5249853755748077  0.5320528122269934
  0.4507333110331686  0.4212492357304640  0.2909556445684558
  0.5577138168521145  0.5335668438114425  0.0400491150054094
  0.1096355897257837  0.4104191085611362  0.8120578942513035
  0.7819951436061103  0.4168454669949995  0.2939954100769597
  0.8872814727336831  0.5288707486732349  0.0500866501402868
  0.4547389476177557  0.4244762252383225  0.8047317698837233
  0.5715816616428882  0.5339780085719639  0.5576232091347606
  0.1184221826493044  0.7540720632226154  0.2729071809081134
  0.2271301901213647  0.8824717608813870  0.0359197085135392
  0.5562327096009696  0.8645231908395488  0.0537601740275448
  0.7775470731750858  0.7471608869840196  0.3066821182901265
  0.4580389229212969  0.7577549200769198  0.8068018359123101
  0.5536386592905913  0.8768717869720319  0.5272749100589422
  0.4515346822942163  0.0948581923005349  0.8040714100939326
  0.7845379728621324  0.7488250597459967  0.7727473306981167
  0.1097357941974266  0.7562680181374617  0.8211711784177851
  0.2269705979857903  0.8785573727998539  0.5679816996712361
  0.2259143766902554  0.5229018119959719  0.5432651097127987
  0.8754405564314709  0.8912838125730573  0.5158116311078658
  0.4430293758896653  0.7529615789998161  0.2949762601307881
  0.8708756929281734  0.8833246552634364  0.0708772686065302
  0.2163076121342797  0.2055680409091210  0.3491279868567503
  0.1058581343245280  0.0963324819945228  0.1061532402607384
  0.8890880262423195  0.2108774272816234  0.8583386944458482
  0.7678514269209700  0.1167342236698516  0.6104275131258632
  0.5566340966241938  0.2098480956166640  0.3534810507297408
  0.4476485101832637  0.0983022439100765  0.1063214864261752
  0.1928222461318612  0.2152568408036473  0.8756854738726645
  0.0888719710840249  0.1393497816207585  0.6183750708244489
  0.8896647186878681  0.2051543042198958  0.3618646492692719
  0.7657824415919166  0.1279875120309413  0.1147337087703590
  0.5772552338438288  0.2340042827435269  0.8736166530099609
  0.4440196709267354  0.0978701401827706  0.5646329024156245
  0.2223416574344981  0.5352989862910746  0.3362062379519273
  0.1101980938490925  0.4252647149121387  0.1078427094847783
  0.9016984074347079  0.5063080545557384  0.8716472890047413
  0.7812555219079087  0.4301640157782884  0.6104589661600812
  0.5663959095425568  0.5166316043676105  0.3648566637954005
  0.4448182344324678  0.4320982232381851  0.1096115866606269
  0.2476842177297485  0.4840969791513317  0.8624842457238913
  0.0982331817633266  0.4208644758411566  0.6086591714564875
  0.8937750292976361  0.5211917467211222  0.3478581238009042
  0.7733538868654364  0.4260231021891414  0.1090260362673803
  0.5547259289287041  0.5402042629747754  0.8553695407790798
  0.4619284565372155  0.4234560301132646  0.6125115036920121
  0.2027227320302032  0.8781163826829328  0.3302397796925192
  0.1292117347513084  0.7475927966736435  0.0861122592238814
  0.8471291469041091  0.9239380601801486  0.8804374260861110
  0.7769516572469541  0.7521434863868848  0.5297101722731128
  0.5504310020458831  0.8837882550542631  0.3416124960930063
  0.4410169197825411  0.7533411206882903  0.0974056503500620
  0.2398032797553071  0.8968283334649811  0.8515028643519429
  0.0845792054969010  0.7463865039419417  0.5921768083943348
  0.8894726165366151  0.8773345902310439  0.3097677483184214
  0.7689397533945268  0.7400631742203814  0.1206434129975236
  0.5586311406097764  0.8433833113940139  0.8841493765401438
  0.4981250725006987  0.7423303170681237  0.6151389145317978
 
  0.00000000E+00  0.00000000E+00  0.00000000E+00
  0.00000000E+00  0.00000000E+00  0.00000000E+00
  0.00000000E+00  0.00000000E+00  0.00000000E+00
  0.00000000E+00  0.00000000E+00  0.00000000E+00
  0.00000000E+00  0.00000000E+00  0.00000000E+00
  0.00000000E+00  0.00000000E+00  0.00000000E+00
  0.00000000E+00  0.00000000E+00  0.00000000E+00
  0.00000000E+00  0.00000000E+00  0.00000000E+00
  0.00000000E+00  0.00000000E+00  0.00000000E+00
  0.00000000E+00  0.00000000E+00  0.00000000E+00
  0.00000000E+00  0.00000000E+00  0.00000000E+00
  0.00000000E+00  0.00000000E+00  0.00000000E+00
  0.00000000E+00  0.00000000E+00  0.00000000E+00
  0.00000000E+00  0.00000000E+00  0.00000000E+00
  0.00000000E+00  0.00000000E+00  0.00000000E+00
  0.00000000E+00  0.00000000E+00  0.00000000E+00
  0.00000000E+00  0.00000000E+00  0.00000000E+00
  0.00000000E+00  0.00000000E+00  0.00000000E+00
  0.00000000E+00  0.00000000E+00  0.00000000E+00
  0.00000000E+00  0.00000000E+00  0.00000000E+00
  0.00000000E+00  0.00000000E+00  0.00000000E+00
  0.00000000E+00  0.00000000E+00  0.00000000E+00
  0.00000000E+00  0.00000000E+00  0.00000000E+00
  0.00000000E+00  0.00000000E+00  0.00000000E+00
  0.00000000E+00  0.00000000E+00  0.00000000E+00
  0.00000000E+00  0.00000000E+00  0.00000000E+00
  0.00000000E+00  0.00000000E+00  0.00000000E+00
  0.00000000E+00  0.00000000E+00  0.00000000E+00
  0.00000000E+00  0.00000000E+00  0.00000000E+00
  0.00000000E+00  0.00000000E+00  0.00000000E+00
  0.00000000E+00  0.00000000E+00  0.00000000E+00
  0.00000000E+00  0.00000000E+00  0.00000000E+00
  0.00000000E+00  0.00000000E+00  0.00000000E+00
  0.00000000E+00  0.00000000E+00  0.00000000E+00
  0.00000000E+00  0.00000000E+00  0.00000000E+00
  0.00000000E+00  0.00000000E+00  0.00000000E+00
  0.00000000E+00  0.00000000E+00  0.00000000E+00
  0.00000000E+00  0.00000000E+00  0.00000000E+00
  0.00000000E+00  0.00000000E+00  0.00000000E+00
  0.00000000E+00  0.00000000E+00  0.00000000E+00
  0.00000000E+00  0.00000000E+00  0.00000000E+00
  0.00000000E+00  0.00000000E+00  0.00000000E+00
  0.00000000E+00  0.00000000E+00  0.00000000E+00
  0.00000000E+00  0.00000000E+00  0.00000000E+00
  0.00000000E+00  0.00000000E+00  0.00000000E+00
  0.00000000E+00  0.00000000E+00  0.00000000E+00
  0.00000000E+00  0.00000000E+00  0.00000000E+00
  0.00000000E+00  0.00000000E+00  0.00000000E+00
  0.00000000E+00  0.00000000E+00  0.00000000E+00
  0.00000000E+00  0.00000000E+00  0.00000000E+00
  0.00000000E+00  0.00000000E+00  0.00000000E+00
  0.00000000E+00  0.00000000E+00  0.00000000E+00
  0.00000000E+00  0.00000000E+00  0.00000000E+00
  0.00000000E+00  0.00000000E+00  0.00000000E+00
  0.00000000E+00  0.00000000E+00  0.00000000E+00
  0.00000000E+00  0.00000000E+00  0.00000000E+00
  0.00000000E+00  0.00000000E+00  0.00000000E+00
  0.00000000E+00  0.00000000E+00  0.00000000E+00
  0.00000000E+00  0.00000000E+00  0.00000000E+00
  0.00000000E+00  0.00000000E+00  0.00000000E+00
  0.00000000E+00  0.00000000E+00  0.00000000E+00
  0.00000000E+00  0.00000000E+00  0.00000000E+00
  0.00000000E+00  0.00000000E+00  0.00000000E+00
  0.00000000E+00  0.00000000E+00  0.00000000E+00
  0.00000000E+00  0.00000000E+00  0.00000000E+00
  0.00000000E+00  0.00000000E+00  0.00000000E+00
  0.00000000E+00  0.00000000E+00  0.00000000E+00
  0.00000000E+00  0.00000000E+00  0.00000000E+00
  0.00000000E+00  0.00000000E+00  0.00000000E+00
  0.00000000E+00  0.00000000E+00  0.00000000E+00
  0.00000000E+00  0.00000000E+00  0.00000000E+00
  0.00000000E+00  0.00000000E+00  0.00000000E+00
