supercell of 100% icsd_608626.cif, 0% i 
   1.00000000000000     
    -9.8970727925001842    0.0302592360451986   -0.0093152778244927
    -4.9748743910960229    8.6016907031505472    0.0198494188261024
    -0.0100919265635738   -0.0296363147274759  -10.2964071574582370
   Al   Zr   Sr   N 
    28     4     4    36
Direct
  0.1178037254841939  0.1038470539342526  0.2996064155368430
  0.2209258504785510  0.1992122118802584  0.0473554849592475
  0.8925662779144830  0.2062907594764170  0.5427939206464103
  0.4377849237791622  0.0974184714350272  0.2957305263006447
  0.5493610895228969  0.2078502958205632  0.0453916786468582
  0.1158429770631741  0.1037308001271811  0.7970460022066987
  0.2173383222324432  0.1994676545283767  0.5525799669621421
  0.7674721674722775  0.1109303107443580  0.2939810894523518
  0.8953928068705181  0.2143283300160164  0.0547436278502005
  0.4346957656944568  0.0922388486379404  0.8015090443614952
  0.1053654020290651  0.4198551779184925  0.2719974070396205
  0.2338184397213681  0.5190167984213261  0.0682163106791123
  0.7818558870498293  0.4240679617813967  0.7998866767090576
  0.4532634644370006  0.4200686443283885  0.2764407338376742
  0.5622585286100517  0.5312177577191903  0.0506436219320676
  0.1299308166062829  0.4052137889984095  0.8147955104080182
  0.7782559969091878  0.4318076238412161  0.2913150202138866
  0.8814540905819825  0.5351213531750432  0.0429724731322452
  0.4459070476998122  0.4171588172793008  0.8120229705611237
  0.5618984515629109  0.5280885710347647  0.5472071701639294
  0.2252753648059524  0.8775792223771717  0.0444180247589685
  0.7647894956802475  0.7751630997830361  0.7972005329496596
  0.8758530249252701  0.8890950878832058  0.5273045696521308
  0.4506906482368152  0.7671700859095338  0.2986419907622562
  0.5495182105106267  0.8741334873864162  0.0528853354647865
  0.2176037920296565  0.8907675019422783  0.5392623223787041
  0.7673467718207334  0.7599202545860280  0.2922986295955425
  0.5514544942991151  0.8745351177122629  0.5417187976283202
  0.7827020957353312  0.1036034861558335  0.8018912683145345
  0.5481280813520470  0.2003561691852767  0.5549015486261339
  0.8834899183262692  0.8725919238362394  0.0687019799768009
  0.4536702039586444  0.7550273729278700  0.8026493802711485
  0.8895355156522484  0.5420942825957482  0.5616522466106346
  0.2235694765480716  0.5280530839559319  0.5175387466736865
  0.1236226870455539  0.7707526105119982  0.3059952300801996
  0.1169304591693816  0.7396705989846808  0.7940080362463107
  0.2184449447137311  0.2165337674818630  0.3582061132941377
  0.1124070359849867  0.0928063996840010  0.1121212430757339
  0.9065018570414622  0.2160486840045195  0.8683344723578017
  0.7888308393687709  0.0957682445357051  0.5945927254714150
  0.5497060076013511  0.2124384988279147  0.3481551405297552
  0.4442769699780627  0.0946943040933874  0.1078433509368537
  0.2289081649252438  0.1916832388452292  0.8658583138687632
  0.1049979157304861  0.0993375161140406  0.6090496063872450
  0.8892800525975986  0.2095900945054581  0.3523945680630476
  0.7688360655381032  0.1200572370474120  0.1017109410658037
  0.5462112689283032  0.1987663251648897  0.8527811170749828
  0.4286014792152031  0.0776565948680172  0.6123410989480362
  0.2400821296240565  0.4981845417035586  0.2768393348990443
  0.0983285189105843  0.4153654546830694  0.0876856419884433
  0.8772535752050530  0.5495848282802669  0.8489655417453079
  0.7635745313605966  0.4032318440868252  0.6186049724649365
  0.5529411908241286  0.5384941785096871  0.3531543055774833
  0.4651022464344337  0.4167983492098912  0.0949573386976681
  0.2498861285528378  0.4863782030133024  0.8822080849008032
  0.1439883754024009  0.3846252791807672  0.6374089320213301
  0.8886635249643575  0.5408466154743508  0.3256504917133327
  0.7761724161447461  0.4280459318657037  0.1045353059449496
  0.5668816609800942  0.5164897514776143  0.8651243377061775
  0.4665314117281056  0.4231492776580694  0.6263371972187386
  0.2530459117083126  0.9062336160644833  0.3634129619902282
  0.1259237521779966  0.7557115933925687  0.0665986298661068
  0.8542682521443439  0.8849187935599048  0.8682808814399223
  0.7509329445998034  0.8178052519993884  0.6139222251172569
  0.5569123275990364  0.8745548634112481  0.3535251673279163
  0.4454437884468163  0.7587250521320072  0.1029300290028274
  0.2279689597688659  0.8986648540914857  0.8614705651445220
  0.0880677024226131  0.8043181770749044  0.5567890858013769
  0.8420548694446737  0.8991975316342788  0.3340412925847858
  0.7622691641382247  0.7499628059314531  0.1048825107838951
  0.5571693796630797  0.8830021597546249  0.8659557083413887
  0.4521623643158961  0.7528855238067251  0.5960264750584443
 
  0.00000000E+00  0.00000000E+00  0.00000000E+00
  0.00000000E+00  0.00000000E+00  0.00000000E+00
  0.00000000E+00  0.00000000E+00  0.00000000E+00
  0.00000000E+00  0.00000000E+00  0.00000000E+00
  0.00000000E+00  0.00000000E+00  0.00000000E+00
  0.00000000E+00  0.00000000E+00  0.00000000E+00
  0.00000000E+00  0.00000000E+00  0.00000000E+00
  0.00000000E+00  0.00000000E+00  0.00000000E+00
  0.00000000E+00  0.00000000E+00  0.00000000E+00
  0.00000000E+00  0.00000000E+00  0.00000000E+00
  0.00000000E+00  0.00000000E+00  0.00000000E+00
  0.00000000E+00  0.00000000E+00  0.00000000E+00
  0.00000000E+00  0.00000000E+00  0.00000000E+00
  0.00000000E+00  0.00000000E+00  0.00000000E+00
  0.00000000E+00  0.00000000E+00  0.00000000E+00
  0.00000000E+00  0.00000000E+00  0.00000000E+00
  0.00000000E+00  0.00000000E+00  0.00000000E+00
  0.00000000E+00  0.00000000E+00  0.00000000E+00
  0.00000000E+00  0.00000000E+00  0.00000000E+00
  0.00000000E+00  0.00000000E+00  0.00000000E+00
  0.00000000E+00  0.00000000E+00  0.00000000E+00
  0.00000000E+00  0.00000000E+00  0.00000000E+00
  0.00000000E+00  0.00000000E+00  0.00000000E+00
  0.00000000E+00  0.00000000E+00  0.00000000E+00
  0.00000000E+00  0.00000000E+00  0.00000000E+00
  0.00000000E+00  0.00000000E+00  0.00000000E+00
  0.00000000E+00  0.00000000E+00  0.00000000E+00
  0.00000000E+00  0.00000000E+00  0.00000000E+00
  0.00000000E+00  0.00000000E+00  0.00000000E+00
  0.00000000E+00  0.00000000E+00  0.00000000E+00
  0.00000000E+00  0.00000000E+00  0.00000000E+00
  0.00000000E+00  0.00000000E+00  0.00000000E+00
  0.00000000E+00  0.00000000E+00  0.00000000E+00
  0.00000000E+00  0.00000000E+00  0.00000000E+00
  0.00000000E+00  0.00000000E+00  0.00000000E+00
  0.00000000E+00  0.00000000E+00  0.00000000E+00
  0.00000000E+00  0.00000000E+00  0.00000000E+00
  0.00000000E+00  0.00000000E+00  0.00000000E+00
  0.00000000E+00  0.00000000E+00  0.00000000E+00
  0.00000000E+00  0.00000000E+00  0.00000000E+00
  0.00000000E+00  0.00000000E+00  0.00000000E+00
  0.00000000E+00  0.00000000E+00  0.00000000E+00
  0.00000000E+00  0.00000000E+00  0.00000000E+00
  0.00000000E+00  0.00000000E+00  0.00000000E+00
  0.00000000E+00  0.00000000E+00  0.00000000E+00
  0.00000000E+00  0.00000000E+00  0.00000000E+00
  0.00000000E+00  0.00000000E+00  0.00000000E+00
  0.00000000E+00  0.00000000E+00  0.00000000E+00
  0.00000000E+00  0.00000000E+00  0.00000000E+00
  0.00000000E+00  0.00000000E+00  0.00000000E+00
  0.00000000E+00  0.00000000E+00  0.00000000E+00
  0.00000000E+00  0.00000000E+00  0.00000000E+00
  0.00000000E+00  0.00000000E+00  0.00000000E+00
  0.00000000E+00  0.00000000E+00  0.00000000E+00
  0.00000000E+00  0.00000000E+00  0.00000000E+00
  0.00000000E+00  0.00000000E+00  0.00000000E+00
  0.00000000E+00  0.00000000E+00  0.00000000E+00
  0.00000000E+00  0.00000000E+00  0.00000000E+00
  0.00000000E+00  0.00000000E+00  0.00000000E+00
  0.00000000E+00  0.00000000E+00  0.00000000E+00
  0.00000000E+00  0.00000000E+00  0.00000000E+00
  0.00000000E+00  0.00000000E+00  0.00000000E+00
  0.00000000E+00  0.00000000E+00  0.00000000E+00
  0.00000000E+00  0.00000000E+00  0.00000000E+00
  0.00000000E+00  0.00000000E+00  0.00000000E+00
  0.00000000E+00  0.00000000E+00  0.00000000E+00
  0.00000000E+00  0.00000000E+00  0.00000000E+00
  0.00000000E+00  0.00000000E+00  0.00000000E+00
  0.00000000E+00  0.00000000E+00  0.00000000E+00
  0.00000000E+00  0.00000000E+00  0.00000000E+00
  0.00000000E+00  0.00000000E+00  0.00000000E+00
  0.00000000E+00  0.00000000E+00  0.00000000E+00
