supercell of 100% icsd_608626.cif, 0% i 
   1.00000000000000     
    -9.8906743871420080    0.0176233442160377   -0.0265235366403980
    -4.9606931818700790    8.4786475253149458    0.0079138901453973
    -0.0281777907289427   -0.0260958592795231  -10.4595969211598252
   Al   Zr   Sr   N 
    28     4     4    36
Direct
  0.1164691301116108  0.0890799229848867  0.3034974159660209
  0.7621353144980390  0.0903980263600914  0.7952978954013332
  0.4580930102810470  0.0866912530733686  0.2937640570266424
  0.2337793411109175  0.2078216998801850  0.5283752389481577
  0.7732190427344037  0.0888498059915364  0.2999960933042232
  0.8891967164619885  0.1947932619001520  0.0611331222000899
  0.4403233295970210  0.1001027886411663  0.7890222988978621
  0.5452742122808871  0.2098251624263980  0.5496758511362998
  0.1166378598695132  0.4325438629656162  0.2911791280676042
  0.2276518000421888  0.5417245670166082  0.0478497772483877
  0.4467187305957765  0.4274888034074706  0.2986191510726144
  0.5440804890037469  0.5478923539859650  0.0486146680451398
  0.1292849070649069  0.4284604242526555  0.8056626857138554
  0.2305599861336205  0.5391178794103624  0.5353080211799650
  0.7709789181976348  0.4371162134438080  0.2844044654573210
  0.8971965839489542  0.5471280689581235  0.0485317685249385
  0.4374631366318980  0.4322059170020580  0.7908967081407354
  0.5354459353759964  0.5451942347122198  0.5413796682843994
  0.1123744730315011  0.7574853648887654  0.2995490730296027
  0.2250729176521347  0.8659204784337007  0.0583380634501367
  0.7789622576288622  0.7680698172587554  0.8127577029260564
  0.8942534590889792  0.8684894168905331  0.5349682913420466
  0.4491216937139200  0.7608719423198522  0.2863723473470330
  0.5637972494319783  0.8597357117425801  0.0418190904195157
  0.2265059762917616  0.8595227148060687  0.5242022416387400
  0.7730873689298150  0.7650514097016057  0.2840490316165472
  0.8884442033473405  0.8705454810517352  0.0555181611722944
  0.4291991995360434  0.7576176793013758  0.8074680213828387
  0.2276777870983011  0.2012840550913424  0.0590091092076790
  0.8814898496785588  0.2069247477560339  0.5311860746401749
  0.5783794770131649  0.2028953270948577  0.0295744235399340
  0.9025476706317477  0.5412304029536301  0.5456166668796953
  0.0993551659958953  0.1010583735946327  0.7874370542369462
  0.7715769864135709  0.4378236653698693  0.8169857020614586
  0.0964546253874801  0.7662923775235839  0.7952121049162102
  0.5573312595606694  0.8586255263313447  0.5603245985124161
  0.2304453505621424  0.2077056293849253  0.3370497876226537
  0.1037411134705124  0.0871829508406989  0.1179993837195994
  0.8495879251353315  0.1838127798900615  0.8897019273678666
  0.7712391151685551  0.0835557332788142  0.6039137242118073
  0.5564714357808569  0.2047786947471835  0.3584675715710901
  0.4696729999642315  0.0778372213822536  0.1057999828902396
  0.2388705762757084  0.2184872642437341  0.8641270138695845
  0.1256671537782310  0.0910666708421104  0.5468193101537793
  0.8811419773571529  0.2108765369834060  0.3332636107739262
  0.7936880053550297  0.0806029159619612  0.1260516077828981
  0.5463982983003035  0.2101400913509650  0.8278342212768450
  0.4249167524508195  0.1258643564214736  0.6083087961852058
  0.2277703856338249  0.5324486531354538  0.3508587918863100
  0.1095256505482993  0.4438969273757181  0.1120656106274396
  0.9224145851266101  0.5590901967043038  0.8685490693308324
  0.7568141206797989  0.4458346684531378  0.5810784874274688
  0.5529742850586530  0.5421817308574077  0.3520005530410870
  0.4441035017677422  0.4349339139494504  0.1161380663356866
  0.2472483670601306  0.5061964218978758  0.8713820716128211
  0.1349359235681078  0.4187792565483761  0.6065858053039364
  0.8919692092698668  0.5408032113067875  0.3396884036941614
  0.7781170860477928  0.4328183437424968  0.0984882903537638
  0.5129422349048980  0.5514746382890507  0.8719776469670819
  0.4433764666546836  0.4276904598719540  0.5993023022168487
  0.2307727588615478  0.8647696977623909  0.3398806936600351
  0.1102837648016219  0.7578883312769165  0.1092098499583045
  0.8290640189587251  0.9065907282373544  0.8849303771936121
  0.8232160346158253  0.7556127941232873  0.6307448090738887
  0.5580575928527693  0.8692704524589701  0.3294229805964477
  0.4494497192236580  0.7604353482843749  0.1067571100935325
  0.2420909503168645  0.8725445194525818  0.8874138110462155
  0.1096892409981862  0.7624545547989428  0.5564806141422878
  0.8826988826174258  0.8701397108289370  0.3508705502529139
  0.7789486990076568  0.7594286454302690  0.1041676402621832
  0.5536622219647072  0.8648700906678854  0.8468762458296411
  0.4078935314898686  0.7420571206955913  0.6221975087330378
 
  0.00000000E+00  0.00000000E+00  0.00000000E+00
  0.00000000E+00  0.00000000E+00  0.00000000E+00
  0.00000000E+00  0.00000000E+00  0.00000000E+00
  0.00000000E+00  0.00000000E+00  0.00000000E+00
  0.00000000E+00  0.00000000E+00  0.00000000E+00
  0.00000000E+00  0.00000000E+00  0.00000000E+00
  0.00000000E+00  0.00000000E+00  0.00000000E+00
  0.00000000E+00  0.00000000E+00  0.00000000E+00
  0.00000000E+00  0.00000000E+00  0.00000000E+00
  0.00000000E+00  0.00000000E+00  0.00000000E+00
  0.00000000E+00  0.00000000E+00  0.00000000E+00
  0.00000000E+00  0.00000000E+00  0.00000000E+00
  0.00000000E+00  0.00000000E+00  0.00000000E+00
  0.00000000E+00  0.00000000E+00  0.00000000E+00
  0.00000000E+00  0.00000000E+00  0.00000000E+00
  0.00000000E+00  0.00000000E+00  0.00000000E+00
  0.00000000E+00  0.00000000E+00  0.00000000E+00
  0.00000000E+00  0.00000000E+00  0.00000000E+00
  0.00000000E+00  0.00000000E+00  0.00000000E+00
  0.00000000E+00  0.00000000E+00  0.00000000E+00
  0.00000000E+00  0.00000000E+00  0.00000000E+00
  0.00000000E+00  0.00000000E+00  0.00000000E+00
  0.00000000E+00  0.00000000E+00  0.00000000E+00
  0.00000000E+00  0.00000000E+00  0.00000000E+00
  0.00000000E+00  0.00000000E+00  0.00000000E+00
  0.00000000E+00  0.00000000E+00  0.00000000E+00
  0.00000000E+00  0.00000000E+00  0.00000000E+00
  0.00000000E+00  0.00000000E+00  0.00000000E+00
  0.00000000E+00  0.00000000E+00  0.00000000E+00
  0.00000000E+00  0.00000000E+00  0.00000000E+00
  0.00000000E+00  0.00000000E+00  0.00000000E+00
  0.00000000E+00  0.00000000E+00  0.00000000E+00
  0.00000000E+00  0.00000000E+00  0.00000000E+00
  0.00000000E+00  0.00000000E+00  0.00000000E+00
  0.00000000E+00  0.00000000E+00  0.00000000E+00
  0.00000000E+00  0.00000000E+00  0.00000000E+00
  0.00000000E+00  0.00000000E+00  0.00000000E+00
  0.00000000E+00  0.00000000E+00  0.00000000E+00
  0.00000000E+00  0.00000000E+00  0.00000000E+00
  0.00000000E+00  0.00000000E+00  0.00000000E+00
  0.00000000E+00  0.00000000E+00  0.00000000E+00
  0.00000000E+00  0.00000000E+00  0.00000000E+00
  0.00000000E+00  0.00000000E+00  0.00000000E+00
  0.00000000E+00  0.00000000E+00  0.00000000E+00
  0.00000000E+00  0.00000000E+00  0.00000000E+00
  0.00000000E+00  0.00000000E+00  0.00000000E+00
  0.00000000E+00  0.00000000E+00  0.00000000E+00
  0.00000000E+00  0.00000000E+00  0.00000000E+00
  0.00000000E+00  0.00000000E+00  0.00000000E+00
  0.00000000E+00  0.00000000E+00  0.00000000E+00
  0.00000000E+00  0.00000000E+00  0.00000000E+00
  0.00000000E+00  0.00000000E+00  0.00000000E+00
  0.00000000E+00  0.00000000E+00  0.00000000E+00
  0.00000000E+00  0.00000000E+00  0.00000000E+00
  0.00000000E+00  0.00000000E+00  0.00000000E+00
  0.00000000E+00  0.00000000E+00  0.00000000E+00
  0.00000000E+00  0.00000000E+00  0.00000000E+00
  0.00000000E+00  0.00000000E+00  0.00000000E+00
  0.00000000E+00  0.00000000E+00  0.00000000E+00
  0.00000000E+00  0.00000000E+00  0.00000000E+00
  0.00000000E+00  0.00000000E+00  0.00000000E+00
  0.00000000E+00  0.00000000E+00  0.00000000E+00
  0.00000000E+00  0.00000000E+00  0.00000000E+00
  0.00000000E+00  0.00000000E+00  0.00000000E+00
  0.00000000E+00  0.00000000E+00  0.00000000E+00
  0.00000000E+00  0.00000000E+00  0.00000000E+00
  0.00000000E+00  0.00000000E+00  0.00000000E+00
  0.00000000E+00  0.00000000E+00  0.00000000E+00
  0.00000000E+00  0.00000000E+00  0.00000000E+00
  0.00000000E+00  0.00000000E+00  0.00000000E+00
  0.00000000E+00  0.00000000E+00  0.00000000E+00
  0.00000000E+00  0.00000000E+00  0.00000000E+00
