supercell of 100% icsd_608626.cif, 0% i 
   1.00000000000000     
    -9.6756602636486821    0.0051879059172119   -0.0014463106836997
    -4.8423104141442765    8.4084887227097447   -0.0189635060554685
    -0.0015403839483360    0.0223071000987968  -10.2013633315906969
   Al   Hf   Ca   N 
    30     3     3    36
Direct
  0.1060681916988386  0.1010179153428297  0.2962037153118473
  0.2154239019096025  0.2059556410767769  0.0514891583764410
  0.7794260312325250  0.1035789844321613  0.7950999135032717
  0.8793573109724093  0.2183541599295395  0.5462168937698593
  0.4432205613320193  0.0897562691597571  0.3023044280363294
  0.1076951437452323  0.1017087534292713  0.7926191093633363
  0.2189884787870824  0.2124262977308291  0.5375401725628066
  0.7821967777469041  0.0943495383217510  0.2952134079801567
  0.8905819217940163  0.2136308633673991  0.0469565955399531
  0.4369619585870623  0.0901671555713577  0.7940635502300779
  0.5532523022465909  0.2099713166470423  0.5471992699346444
  0.1128070151757825  0.4274019798207291  0.2971041371719139
  0.2201177382817221  0.5449657452927781  0.0498103812354884
  0.7752338922706414  0.4248036888994804  0.7951354742810537
  0.8873639306371359  0.5343223336999188  0.5368031089216601
  0.4437375849801271  0.4327671758551190  0.3005683945609334
  0.5611515048987243  0.5404011696460245  0.0467759606662455
  0.2252751526399805  0.5306130702048222  0.5367104252791819
  0.7757174137018197  0.4267452226975337  0.2951738498921515
  0.8886984095848049  0.5325779600127092  0.0557679710159817
  0.4435777523892170  0.4344080174688898  0.7924717011800197
  0.5624385600302162  0.5300415992312750  0.5457101758262652
  0.1093970625591183  0.7590091289628944  0.2891206173409984
  0.4512805588492554  0.7551997400418529  0.2967534805955623
  0.5532483158759547  0.8669845302133368  0.0523532942630567
  0.1209383115003959  0.7563859186434385  0.7947749858513475
  0.7771586636544399  0.7620338399441522  0.2851831888667675
  0.8960230432480216  0.8704885665613205  0.0550864198567496
  0.4486922431298055  0.7536992982635766  0.7908997431763183
  0.5595549975971608  0.8658461877508330  0.5429505772964092
  0.5512427436288760  0.2071714846051904  0.0535659502822554
  0.7751460895226643  0.7600424100660561  0.8121608984187461
  0.2231629179244976  0.8729509920037799  0.5624598643819070
  0.1186861730839155  0.4240132975284183  0.7977755119433425
  0.2246527787955799  0.8777175419772902  0.0364283771209060
  0.8802235467436077  0.8755932902039731  0.5440755605611827
  0.2244402105619230  0.2030728606636103  0.3519334065415123
  0.0921236875992975  0.1257847410053898  0.1162449943359718
  0.8894319471348950  0.2080147923331026  0.8572269818158347
  0.7612640659152277  0.1284067305301946  0.6127955176612900
  0.5554031045553174  0.2050145151227767  0.3492799289769479
  0.4375255935561455  0.0832739610143065  0.1135385155852902
  0.2354357188532816  0.1739249943830288  0.8680635810587702
  0.0968646061419349  0.1214216613473056  0.6038272992125542
  0.8857987281055344  0.2073755038991081  0.3581102162220589
  0.7901418666018074  0.0936406973756263  0.1041929722061212
  0.5508786996743780  0.2047951429545165  0.8481407073785121
  0.4440637776187017  0.0906741183931601  0.6021430320407433
  0.2245575752039741  0.5391930155756555  0.3497336486702878
  0.1154130225427750  0.4268132258925164  0.1029761459742318
  0.8686972742001657  0.5324991420157090  0.8723761427263952
  0.7778998921898719  0.4298862821441389  0.6048017008445612
  0.5575734185957231  0.5358928731334558  0.3588996942129867
  0.4409193513200478  0.4425913046118524  0.1119137255790292
  0.2418059815513587  0.5545853052711749  0.8677787759897697
  0.1086940732112538  0.4288806807940233  0.5738274666446728
  0.8848959812517165  0.5413114392521194  0.3442769822607019
  0.7747530751383422  0.4257528583795533  0.1086021230460759
  0.5575243793104434  0.5362252377225758  0.8538579158231130
  0.4422645072984466  0.4272018642608941  0.6019654890430246
  0.2224503853794388  0.8725664108772548  0.3481104234980776
  0.1027085228891735  0.7490482982864819  0.1088491265403988
  0.9004509103625367  0.8832993910081726  0.8571604218162108
  0.7651210918129578  0.7401366468268762  0.6120630610046334
  0.5592066403830529  0.8698817795209735  0.3554456979332414
  0.4750941694807764  0.7427172224705814  0.1152470865593784
  0.2236176820029456  0.8767642224929730  0.8036626119621317
  0.1305691987673256  0.7318606620561496  0.6102875410309920
  0.8856468514479516  0.8735711705020393  0.3254425085623538
  0.7763681245137874  0.7637817025964608  0.0917440508877476
  0.5362262599801397  0.8770994975446129  0.8621871721236758
  0.4654706440915533  0.7459389631375828  0.6027670696354619
 
  0.00000000E+00  0.00000000E+00  0.00000000E+00
  0.00000000E+00  0.00000000E+00  0.00000000E+00
  0.00000000E+00  0.00000000E+00  0.00000000E+00
  0.00000000E+00  0.00000000E+00  0.00000000E+00
  0.00000000E+00  0.00000000E+00  0.00000000E+00
  0.00000000E+00  0.00000000E+00  0.00000000E+00
  0.00000000E+00  0.00000000E+00  0.00000000E+00
  0.00000000E+00  0.00000000E+00  0.00000000E+00
  0.00000000E+00  0.00000000E+00  0.00000000E+00
  0.00000000E+00  0.00000000E+00  0.00000000E+00
  0.00000000E+00  0.00000000E+00  0.00000000E+00
  0.00000000E+00  0.00000000E+00  0.00000000E+00
  0.00000000E+00  0.00000000E+00  0.00000000E+00
  0.00000000E+00  0.00000000E+00  0.00000000E+00
  0.00000000E+00  0.00000000E+00  0.00000000E+00
  0.00000000E+00  0.00000000E+00  0.00000000E+00
  0.00000000E+00  0.00000000E+00  0.00000000E+00
  0.00000000E+00  0.00000000E+00  0.00000000E+00
  0.00000000E+00  0.00000000E+00  0.00000000E+00
  0.00000000E+00  0.00000000E+00  0.00000000E+00
  0.00000000E+00  0.00000000E+00  0.00000000E+00
  0.00000000E+00  0.00000000E+00  0.00000000E+00
  0.00000000E+00  0.00000000E+00  0.00000000E+00
  0.00000000E+00  0.00000000E+00  0.00000000E+00
  0.00000000E+00  0.00000000E+00  0.00000000E+00
  0.00000000E+00  0.00000000E+00  0.00000000E+00
  0.00000000E+00  0.00000000E+00  0.00000000E+00
  0.00000000E+00  0.00000000E+00  0.00000000E+00
  0.00000000E+00  0.00000000E+00  0.00000000E+00
  0.00000000E+00  0.00000000E+00  0.00000000E+00
  0.00000000E+00  0.00000000E+00  0.00000000E+00
  0.00000000E+00  0.00000000E+00  0.00000000E+00
  0.00000000E+00  0.00000000E+00  0.00000000E+00
  0.00000000E+00  0.00000000E+00  0.00000000E+00
  0.00000000E+00  0.00000000E+00  0.00000000E+00
  0.00000000E+00  0.00000000E+00  0.00000000E+00
  0.00000000E+00  0.00000000E+00  0.00000000E+00
  0.00000000E+00  0.00000000E+00  0.00000000E+00
  0.00000000E+00  0.00000000E+00  0.00000000E+00
  0.00000000E+00  0.00000000E+00  0.00000000E+00
  0.00000000E+00  0.00000000E+00  0.00000000E+00
  0.00000000E+00  0.00000000E+00  0.00000000E+00
  0.00000000E+00  0.00000000E+00  0.00000000E+00
  0.00000000E+00  0.00000000E+00  0.00000000E+00
  0.00000000E+00  0.00000000E+00  0.00000000E+00
  0.00000000E+00  0.00000000E+00  0.00000000E+00
  0.00000000E+00  0.00000000E+00  0.00000000E+00
  0.00000000E+00  0.00000000E+00  0.00000000E+00
  0.00000000E+00  0.00000000E+00  0.00000000E+00
  0.00000000E+00  0.00000000E+00  0.00000000E+00
  0.00000000E+00  0.00000000E+00  0.00000000E+00
  0.00000000E+00  0.00000000E+00  0.00000000E+00
  0.00000000E+00  0.00000000E+00  0.00000000E+00
  0.00000000E+00  0.00000000E+00  0.00000000E+00
  0.00000000E+00  0.00000000E+00  0.00000000E+00
  0.00000000E+00  0.00000000E+00  0.00000000E+00
  0.00000000E+00  0.00000000E+00  0.00000000E+00
  0.00000000E+00  0.00000000E+00  0.00000000E+00
  0.00000000E+00  0.00000000E+00  0.00000000E+00
  0.00000000E+00  0.00000000E+00  0.00000000E+00
  0.00000000E+00  0.00000000E+00  0.00000000E+00
  0.00000000E+00  0.00000000E+00  0.00000000E+00
  0.00000000E+00  0.00000000E+00  0.00000000E+00
  0.00000000E+00  0.00000000E+00  0.00000000E+00
  0.00000000E+00  0.00000000E+00  0.00000000E+00
  0.00000000E+00  0.00000000E+00  0.00000000E+00
  0.00000000E+00  0.00000000E+00  0.00000000E+00
  0.00000000E+00  0.00000000E+00  0.00000000E+00
  0.00000000E+00  0.00000000E+00  0.00000000E+00
  0.00000000E+00  0.00000000E+00  0.00000000E+00
  0.00000000E+00  0.00000000E+00  0.00000000E+00
  0.00000000E+00  0.00000000E+00  0.00000000E+00
