supercell of 100% icsd_608626.cif, 0% i 
   1.00000000000000     
    -9.7141254219343551   -0.0159592097027231   -0.0183766415086874
    -4.8432633256998718    8.4006693764295370   -0.0084061577086498
    -0.0194525525185448   -0.0008553455690295  -10.1552762723025598
   Al   Hf   Ca   N 
    30     3     3    36
Direct
  0.1164145558016401  0.0882132055954230  0.2954176802013464
  0.2155254683174448  0.2096746290021656  0.0466054636644344
  0.8963236439389703  0.1957399275151204  0.5472692097944787
  0.4392119224127384  0.1013003201097291  0.2952203988102866
  0.5453911840797332  0.2120100817779402  0.0502228247121295
  0.1178029556863223  0.0938713705837628  0.7939544513207792
  0.2163070959538089  0.2094157069313596  0.5477755575783618
  0.7771894993019899  0.0891739498406494  0.2946714004843400
  0.8980745369957859  0.2040122426995694  0.0491703353836428
  0.4332949064945737  0.1043881894611616  0.7922427800882801
  0.5522170367421069  0.2090533393922556  0.5419171725379215
  0.1168598279281881  0.4295108372805885  0.2897783452262033
  0.2212842062588010  0.5371103327159830  0.0457624407176596
  0.7794013466785970  0.4329779467203636  0.7837167682382145
  0.8990860240612690  0.5371590560721700  0.5519317347947066
  0.4334532126462278  0.4286520904360032  0.2925926738531004
  0.1093838418888495  0.4226946874179376  0.7987376341342554
  0.9013564353597232  0.5300891891182857  0.0446884529781144
  0.4458656793464115  0.4289294462563262  0.7906792023381044
  0.5489948983760513  0.5381715574095125  0.5539610970887381
  0.1132980099708973  0.7601685700023637  0.2919969436603651
  0.2133029002521951  0.8780343250364027  0.0442017174350937
  0.7875896401907170  0.7511931602361273  0.7950490285191734
  0.8935846433366308  0.8714174901224467  0.5439205109090182
  0.4317110114526628  0.7677418433240177  0.2964845953510178
  0.1124160122111419  0.7640358447653668  0.7976121229285908
  0.2139362533003819  0.8773915733396507  0.5476579419333802
  0.7878646743973121  0.7605908924454283  0.2945570065450340
  0.8981551568391168  0.8656004896088874  0.0507961099748542
  0.4391130348084715  0.7580751707300024  0.7878987445022716
  0.7767236654222600  0.0933032651218539  0.8012608425134502
  0.7826965534026087  0.4263290209784785  0.3178043756318374
  0.5555326428048062  0.8745216156273656  0.0588045935797226
  0.5604133906592708  0.5318833633370019  0.0468118382375877
  0.2175963635019542  0.5433364857628717  0.5582916120989054
  0.5581491582305702  0.8717561719648828  0.5469583166916436
  0.2190557739229533  0.2073073417681854  0.3530622545241116
  0.1111880928190416  0.0934592021807745  0.1055539598136761
  0.8963303805067326  0.2147610741652812  0.8546470045763215
  0.7739132866579226  0.0932042387972629  0.5957812232773989
  0.5564046546261565  0.2042179198576690  0.3508916218017433
  0.4303385275085674  0.1125345967232718  0.1063596072171080
  0.2214643878295988  0.2032300501206521  0.8595766444308310
  0.1123353934988458  0.0948038437769085  0.6047764217840239
  0.8996298138692111  0.1824703367849594  0.3582690196936227
  0.7766171830522666  0.0949268284241001  0.0979067852916060
  0.5404416820793969  0.2121683188400922  0.8617827941637088
  0.4260095334001903  0.1276690118915056  0.6085575520001214
  0.2178453253873585  0.5428881013716946  0.3344787238238283
  0.1127235527440220  0.4261776210960235  0.0994258790544293
  0.8870994137174080  0.5365937298518944  0.8567966707027352
  0.7800809288947690  0.4267246474360462  0.5844806685324144
  0.5366802767691468  0.5476022684201993  0.3523378930019589
  0.4282383277054080  0.4158437371445416  0.1091366135859246
  0.2225052305480020  0.5395989595811841  0.8482166857856370
  0.0954630254400968  0.4083247208847425  0.6183636400318591
  0.9027562858956841  0.5485739597062889  0.3611277263665755
  0.8144278027641576  0.4103161662931427  0.1169997959461497
  0.5616683287114412  0.5371045093735916  0.8269106673012629
  0.4759121912344924  0.4073575927482906  0.6093837494553824
  0.2176194201224249  0.8743536766916051  0.3561967528777004
  0.1122826694400132  0.7623292549247154  0.1013184410698074
  0.8952172565818870  0.8576852038000027  0.8644704510484544
  0.8132314472008204  0.7451741530751406  0.6123328747007548
  0.5596467337891582  0.8714601262709465  0.3147464628032068
  0.4166771186909628  0.7832925274202935  0.1114619972975675
  0.2210784082888679  0.8755759226047033  0.8567161990471135
  0.0886545949881281  0.8025303083584561  0.6173722553194025
  0.8906117247380863  0.8727810751830631  0.3512011642704351
  0.8015835277926087  0.7460086134522825  0.1064125050578326
  0.5560086376066451  0.8730529908628313  0.8421642762351595
  0.4227376721272975  0.7503699813782347  0.6043610936530470
 
  0.00000000E+00  0.00000000E+00  0.00000000E+00
  0.00000000E+00  0.00000000E+00  0.00000000E+00
  0.00000000E+00  0.00000000E+00  0.00000000E+00
  0.00000000E+00  0.00000000E+00  0.00000000E+00
  0.00000000E+00  0.00000000E+00  0.00000000E+00
  0.00000000E+00  0.00000000E+00  0.00000000E+00
  0.00000000E+00  0.00000000E+00  0.00000000E+00
  0.00000000E+00  0.00000000E+00  0.00000000E+00
  0.00000000E+00  0.00000000E+00  0.00000000E+00
  0.00000000E+00  0.00000000E+00  0.00000000E+00
  0.00000000E+00  0.00000000E+00  0.00000000E+00
  0.00000000E+00  0.00000000E+00  0.00000000E+00
  0.00000000E+00  0.00000000E+00  0.00000000E+00
  0.00000000E+00  0.00000000E+00  0.00000000E+00
  0.00000000E+00  0.00000000E+00  0.00000000E+00
  0.00000000E+00  0.00000000E+00  0.00000000E+00
  0.00000000E+00  0.00000000E+00  0.00000000E+00
  0.00000000E+00  0.00000000E+00  0.00000000E+00
  0.00000000E+00  0.00000000E+00  0.00000000E+00
  0.00000000E+00  0.00000000E+00  0.00000000E+00
  0.00000000E+00  0.00000000E+00  0.00000000E+00
  0.00000000E+00  0.00000000E+00  0.00000000E+00
  0.00000000E+00  0.00000000E+00  0.00000000E+00
  0.00000000E+00  0.00000000E+00  0.00000000E+00
  0.00000000E+00  0.00000000E+00  0.00000000E+00
  0.00000000E+00  0.00000000E+00  0.00000000E+00
  0.00000000E+00  0.00000000E+00  0.00000000E+00
  0.00000000E+00  0.00000000E+00  0.00000000E+00
  0.00000000E+00  0.00000000E+00  0.00000000E+00
  0.00000000E+00  0.00000000E+00  0.00000000E+00
  0.00000000E+00  0.00000000E+00  0.00000000E+00
  0.00000000E+00  0.00000000E+00  0.00000000E+00
  0.00000000E+00  0.00000000E+00  0.00000000E+00
  0.00000000E+00  0.00000000E+00  0.00000000E+00
  0.00000000E+00  0.00000000E+00  0.00000000E+00
  0.00000000E+00  0.00000000E+00  0.00000000E+00
  0.00000000E+00  0.00000000E+00  0.00000000E+00
  0.00000000E+00  0.00000000E+00  0.00000000E+00
  0.00000000E+00  0.00000000E+00  0.00000000E+00
  0.00000000E+00  0.00000000E+00  0.00000000E+00
  0.00000000E+00  0.00000000E+00  0.00000000E+00
  0.00000000E+00  0.00000000E+00  0.00000000E+00
  0.00000000E+00  0.00000000E+00  0.00000000E+00
  0.00000000E+00  0.00000000E+00  0.00000000E+00
  0.00000000E+00  0.00000000E+00  0.00000000E+00
  0.00000000E+00  0.00000000E+00  0.00000000E+00
  0.00000000E+00  0.00000000E+00  0.00000000E+00
  0.00000000E+00  0.00000000E+00  0.00000000E+00
  0.00000000E+00  0.00000000E+00  0.00000000E+00
  0.00000000E+00  0.00000000E+00  0.00000000E+00
  0.00000000E+00  0.00000000E+00  0.00000000E+00
  0.00000000E+00  0.00000000E+00  0.00000000E+00
  0.00000000E+00  0.00000000E+00  0.00000000E+00
  0.00000000E+00  0.00000000E+00  0.00000000E+00
  0.00000000E+00  0.00000000E+00  0.00000000E+00
  0.00000000E+00  0.00000000E+00  0.00000000E+00
  0.00000000E+00  0.00000000E+00  0.00000000E+00
  0.00000000E+00  0.00000000E+00  0.00000000E+00
  0.00000000E+00  0.00000000E+00  0.00000000E+00
  0.00000000E+00  0.00000000E+00  0.00000000E+00
  0.00000000E+00  0.00000000E+00  0.00000000E+00
  0.00000000E+00  0.00000000E+00  0.00000000E+00
  0.00000000E+00  0.00000000E+00  0.00000000E+00
  0.00000000E+00  0.00000000E+00  0.00000000E+00
  0.00000000E+00  0.00000000E+00  0.00000000E+00
  0.00000000E+00  0.00000000E+00  0.00000000E+00
  0.00000000E+00  0.00000000E+00  0.00000000E+00
  0.00000000E+00  0.00000000E+00  0.00000000E+00
  0.00000000E+00  0.00000000E+00  0.00000000E+00
  0.00000000E+00  0.00000000E+00  0.00000000E+00
  0.00000000E+00  0.00000000E+00  0.00000000E+00
  0.00000000E+00  0.00000000E+00  0.00000000E+00
