supercell of 100% icsd_608626.cif, 0% i 
   1.00000000000000     
    -9.4508059039103340   -0.0043793128439189    0.0014053629889775
    -4.7216103688489817    8.1800889720633023   -0.0022525376984732
     0.0015019669452262    0.0036467892297161  -10.1041428623459755
   Al   Ge   Mg   N 
    30     3     3    36
Direct
  0.1084990250852016  0.0986832588655702  0.2948660321673913
  0.2180343210845592  0.2063864838333132  0.0453917127793844
  0.7790273368926961  0.0971004799551025  0.7938186044609665
  0.8843838099041719  0.2079615525975029  0.5454750026147153
  0.4452179373462286  0.0945127778243631  0.2986174961561616
  0.1137336622036571  0.0923136275625325  0.7970503024073352
  0.2227154607698267  0.2086921583463166  0.5428281432069824
  0.7782586803899108  0.0936901209291676  0.2971521466816398
  0.8913649730602273  0.2084171986721017  0.0456799803939489
  0.4406027676696525  0.0949951046402973  0.7946100414007162
  0.5561769146899636  0.2070257891668135  0.5460813345679938
  0.1113624711672543  0.4280576903989655  0.2956193380258370
  0.2188790460033090  0.5412553674866558  0.0442935085009779
  0.7763837190073843  0.4279463379107824  0.7948010958556537
  0.8901013859636819  0.5360702581465162  0.5423256073861182
  0.4448456237640883  0.4278124077463659  0.2980439062396556
  0.5582267272363310  0.5405471712720029  0.0444473374730947
  0.2239256028412484  0.5358023315265328  0.5425748312186371
  0.7771996709756479  0.4276784958004569  0.2947580303174178
  0.8875674912865392  0.5392774542774106  0.0491145550171552
  0.4414668586666934  0.4329089383221927  0.7943816209001966
  0.5576851181622189  0.5352995220691241  0.5452756689200626
  0.1076350088516946  0.7597015429279708  0.2921184195494888
  0.4489238463573955  0.7586475730016033  0.2944723448601252
  0.5573842775547320  0.8684687516637908  0.0475382021444588
  0.1181555387990088  0.7577102373285101  0.7958043706232729
  0.7780397071785075  0.7624995530839129  0.2927841175069616
  0.8911036850389777  0.8676159824257539  0.0490774034428014
  0.4412998652621809  0.7607964817381188  0.7961465248146382
  0.5550433245846165  0.8738797556809814  0.5444291045718685
  0.5549726628436886  0.2063363086279750  0.0450743143750714
  0.7762082157292198  0.7580660857392658  0.7953779333836906
  0.2224939142969404  0.8704309951499098  0.5458321046204659
  0.1131340445222051  0.4264548571422750  0.7961114381795866
  0.2221033455041024  0.8729226833403061  0.0450626058410037
  0.8869501631981720  0.8740464316777050  0.5450807721068855
  0.2243313674532743  0.2041117471441964  0.3538268941999760
  0.1033683423841865  0.1078837748495189  0.1108564859711123
  0.8901460156283250  0.2060495590249829  0.8555592323018928
  0.7696500909910498  0.1092737399718118  0.6098650017370346
  0.5558120526518238  0.2057985613924771  0.3549771156375101
  0.4466328692395365  0.0949323291699002  0.1060406483883582
  0.2299545790687745  0.1902686498807356  0.8594775870880795
  0.1114649058793376  0.0939897884803713  0.6020624417291387
  0.8873812304169064  0.2062035084574276  0.3560757238093686
  0.7752302731579661  0.0968788823275872  0.1024202225128832
  0.5548855533870736  0.2058099698250615  0.8565946376740712
  0.4447361329003670  0.0948041952868834  0.6050058611748383
  0.2241991635998204  0.5385843253280740  0.3528101552707810
  0.1115093844549548  0.4273854311365710  0.1041735343324675
  0.8743008679567765  0.5463049155106319  0.8607939839270315
  0.7785414457644464  0.4280655536102884  0.6048660672783654
  0.5558925266796138  0.5379814482850875  0.3562848811719661
  0.4469448844379684  0.4252562574059553  0.1056331354448545
  0.2301461001510958  0.5445036282627314  0.8593120258732156
  0.1102151340175794  0.4285058683817766  0.5917949867713759
  0.8867090802478117  0.5404751761610740  0.3518461397987451
  0.7767242116912811  0.4270926597753331  0.1054934921975814
  0.5562525807305505  0.5386553775629324  0.8536861756520224
  0.4442667106853335  0.4276459990371038  0.6046267093976141
  0.2228248246279705  0.8719182714041338  0.3554251827380597
  0.1054508803933842  0.7545351703381300  0.1073433769484211
  0.8876067677789550  0.8709052954201795  0.8533215005660963
  0.7698872165168495  0.7529229803079360  0.6101234738625010
  0.5563324650591284  0.8727251089612196  0.3559704057147997
  0.4582746279018934  0.7540093270685588  0.1091730422643593
  0.2221280416459024  0.8730910506216176  0.8419575956166199
  0.1252072609088444  0.7535430606364599  0.6059294846728775
  0.8873198864322305  0.8734110298757898  0.3430335963107751
  0.7760205281515056  0.7621943444554518  0.1033579670448574
  0.5558862797381039  0.8726849385823456  0.8552635078309692
  0.4446595133774309  0.7615863091815598  0.6029017743769103
 
  0.00000000E+00  0.00000000E+00  0.00000000E+00
  0.00000000E+00  0.00000000E+00  0.00000000E+00
  0.00000000E+00  0.00000000E+00  0.00000000E+00
  0.00000000E+00  0.00000000E+00  0.00000000E+00
  0.00000000E+00  0.00000000E+00  0.00000000E+00
  0.00000000E+00  0.00000000E+00  0.00000000E+00
  0.00000000E+00  0.00000000E+00  0.00000000E+00
  0.00000000E+00  0.00000000E+00  0.00000000E+00
  0.00000000E+00  0.00000000E+00  0.00000000E+00
  0.00000000E+00  0.00000000E+00  0.00000000E+00
  0.00000000E+00  0.00000000E+00  0.00000000E+00
  0.00000000E+00  0.00000000E+00  0.00000000E+00
  0.00000000E+00  0.00000000E+00  0.00000000E+00
  0.00000000E+00  0.00000000E+00  0.00000000E+00
  0.00000000E+00  0.00000000E+00  0.00000000E+00
  0.00000000E+00  0.00000000E+00  0.00000000E+00
  0.00000000E+00  0.00000000E+00  0.00000000E+00
  0.00000000E+00  0.00000000E+00  0.00000000E+00
  0.00000000E+00  0.00000000E+00  0.00000000E+00
  0.00000000E+00  0.00000000E+00  0.00000000E+00
  0.00000000E+00  0.00000000E+00  0.00000000E+00
  0.00000000E+00  0.00000000E+00  0.00000000E+00
  0.00000000E+00  0.00000000E+00  0.00000000E+00
  0.00000000E+00  0.00000000E+00  0.00000000E+00
  0.00000000E+00  0.00000000E+00  0.00000000E+00
  0.00000000E+00  0.00000000E+00  0.00000000E+00
  0.00000000E+00  0.00000000E+00  0.00000000E+00
  0.00000000E+00  0.00000000E+00  0.00000000E+00
  0.00000000E+00  0.00000000E+00  0.00000000E+00
  0.00000000E+00  0.00000000E+00  0.00000000E+00
  0.00000000E+00  0.00000000E+00  0.00000000E+00
  0.00000000E+00  0.00000000E+00  0.00000000E+00
  0.00000000E+00  0.00000000E+00  0.00000000E+00
  0.00000000E+00  0.00000000E+00  0.00000000E+00
  0.00000000E+00  0.00000000E+00  0.00000000E+00
  0.00000000E+00  0.00000000E+00  0.00000000E+00
  0.00000000E+00  0.00000000E+00  0.00000000E+00
  0.00000000E+00  0.00000000E+00  0.00000000E+00
  0.00000000E+00  0.00000000E+00  0.00000000E+00
  0.00000000E+00  0.00000000E+00  0.00000000E+00
  0.00000000E+00  0.00000000E+00  0.00000000E+00
  0.00000000E+00  0.00000000E+00  0.00000000E+00
  0.00000000E+00  0.00000000E+00  0.00000000E+00
  0.00000000E+00  0.00000000E+00  0.00000000E+00
  0.00000000E+00  0.00000000E+00  0.00000000E+00
  0.00000000E+00  0.00000000E+00  0.00000000E+00
  0.00000000E+00  0.00000000E+00  0.00000000E+00
  0.00000000E+00  0.00000000E+00  0.00000000E+00
  0.00000000E+00  0.00000000E+00  0.00000000E+00
  0.00000000E+00  0.00000000E+00  0.00000000E+00
  0.00000000E+00  0.00000000E+00  0.00000000E+00
  0.00000000E+00  0.00000000E+00  0.00000000E+00
  0.00000000E+00  0.00000000E+00  0.00000000E+00
  0.00000000E+00  0.00000000E+00  0.00000000E+00
  0.00000000E+00  0.00000000E+00  0.00000000E+00
  0.00000000E+00  0.00000000E+00  0.00000000E+00
  0.00000000E+00  0.00000000E+00  0.00000000E+00
  0.00000000E+00  0.00000000E+00  0.00000000E+00
  0.00000000E+00  0.00000000E+00  0.00000000E+00
  0.00000000E+00  0.00000000E+00  0.00000000E+00
  0.00000000E+00  0.00000000E+00  0.00000000E+00
  0.00000000E+00  0.00000000E+00  0.00000000E+00
  0.00000000E+00  0.00000000E+00  0.00000000E+00
  0.00000000E+00  0.00000000E+00  0.00000000E+00
  0.00000000E+00  0.00000000E+00  0.00000000E+00
  0.00000000E+00  0.00000000E+00  0.00000000E+00
  0.00000000E+00  0.00000000E+00  0.00000000E+00
  0.00000000E+00  0.00000000E+00  0.00000000E+00
  0.00000000E+00  0.00000000E+00  0.00000000E+00
  0.00000000E+00  0.00000000E+00  0.00000000E+00
  0.00000000E+00  0.00000000E+00  0.00000000E+00
  0.00000000E+00  0.00000000E+00  0.00000000E+00
