supercell of icsd_608626.cif            
   1.05790148302789     
     9.2770517531727421    0.0454658592293340    0.0160562103442042
    -4.5992368668088757    8.0013278108032146   -0.0139012636036070
     0.0165062957235567   -0.0074520329801471    9.6517420842532964
   Al   Y    N 
    28     8    36
Direct
  0.2156209906114768  0.1139553971714662  0.2423692065616905
  0.8931170828417265  0.1061936283658937  0.7549000027541553
  0.7895244288666490  0.2261001356987506  0.9991514155833556
  0.2000667245744268  0.1019754675838485  0.7699802083002183
  0.0992705559730780  0.2188297534639077  0.0097435756968238
  0.8833746401237974  0.1069013814489210  0.2391212792450688
  0.7769081652557688  0.2221557667965754  0.4997011977726658
  0.2312408107547483  0.4518145103387852  0.2423851974084101
  0.1167259439606383  0.5578250410152208  0.4844423117058767
  0.8935704220821137  0.4440529835760785  0.7417634127145334
  0.7861836440034224  0.5637940271910367  0.9974542487616773
  0.5610314288645100  0.4550930242474678  0.2464165486181571
  0.4615238041136607  0.5735154025755165  0.4879569222128524
  0.1090210924255288  0.5518409074523447  0.0139648240703778
  0.8939493257756936  0.4483456329452196  0.2465511944714649
  0.7753218625500011  0.5587093623725821  0.4938270896840891
  0.5735560908694026  0.4639596578631142  0.7551794641364467
  0.4544568860106324  0.5684622748045314  0.0062690468172875
  0.2236652206166170  0.7688283070582926  0.2413318606949701
  0.8847434597737234  0.7793942321059149  0.7529005833407894
  0.7757005626571427  0.8874821354078009  0.9956733945066460
  0.5576036414532624  0.7724560263356750  0.2476101871286431
  0.4462185822926727  0.8738642762782689  0.4975604880287108
  0.0990132720712111  0.8818467276659661  0.0131087172518392
  0.8761965722644902  0.7726096978165202  0.2435849212094396
  0.7627771058091000  0.8837008169657494  0.4934858289120498
  0.5689831684125153  0.7728477613157878  0.7460157754816237
  0.4467758831840243  0.8781640235366694  0.0079049664171578
  0.0854822495822773  0.2248473232942203  0.4869625858705717
  0.5628921822805921  0.1084614566676123  0.2489942484759240
  0.4364892698103944  0.2400723369797575  0.5085423226717509
  0.5660495164261903  0.1029862559881778  0.7394725966255109
  0.4418050880879960  0.2313406044738713  0.9860917582627877
  0.2388660376841116  0.4478297151075950  0.7476879460105650
  0.0983634935837827  0.8762806130676140  0.4839714326905380
  0.2132956661136660  0.7706266582143684  0.7567417927431350
  0.2111706596863741  0.1130516505852484  0.4218043409016587
  0.1046726054951677  0.2231072394419087  0.1987335207089416
  0.8869970246546117  0.1089474895862352  0.9427115484539996
  0.8139282919395967  0.2334035946762612  0.6833819973963955
  0.5557977757963997  0.1009669518293563  0.4802428641845324
  0.4342561022641647  0.2369012756414506  0.2082713857230658
  0.1847070426083874  0.0917637766581123  0.9557851564310553
  0.0994224640783656  0.2007806128878045  0.7031646364469211
  0.8418923163045235  0.0890427819308641  0.4204609611848795
  0.8098313777883277  0.2421642227543330  0.1806549230680972
  0.5696606903079058  0.0965155620455036  0.9671574473033289
  0.4270922239710089  0.2350107048808070  0.7382529837060048
  0.2467759176995159  0.4723792767254480  0.4324543896607693
  0.1084738901211182  0.5519051680712508  0.1978860170842935
  0.8942402119965891  0.4477498949384184  0.9352199225040607
  0.7838513387793995  0.5547665124314278  0.6869748069335415
  0.5729361726941775  0.4745173392713866  0.4278594507746121
  0.4515122079456404  0.5595185423138389  0.1898984420371548
  0.2264431719804278  0.4454826537285399  0.9695869398725492
  0.0918380870785427  0.5405769467070414  0.6674228196634786
  0.8864683706923344  0.4435859992730613  0.4348014964553784
  0.7804115743459334  0.5542870025839406  0.1850827086365285
  0.5794093994982461  0.4869159598272716  0.9375335600864574
  0.4847437431034862  0.5700678040731120  0.6738677850767090
  0.2401828977129696  0.7681163233687087  0.4293207775521708
  0.1038387930748783  0.8831907875389859  0.2024466880380089
  0.8885972328248215  0.7776858890755278  0.9430320452606793
  0.7807637774449177  0.8913380614674793  0.6899170137452799
  0.5580793796025745  0.7809543530668321  0.4320351810135037
  0.4352921397408878  0.8585699983169306  0.1890603601222693
  0.2197808735352567  0.7757234557408594  0.9748486109751653
  0.0952854043523956  0.8987206250286519  0.7024481179323914
  0.8533699746721055  0.7655129719740259  0.4279220688505418
  0.7739200544900982  0.8873107828022029  0.1818496005140844
  0.5561624031253629  0.7771250621434831  0.9361857114052796
  0.4488095368325276  0.8551794034226035  0.6809051674584268
 
  0.00000000E+00  0.00000000E+00  0.00000000E+00
  0.00000000E+00  0.00000000E+00  0.00000000E+00
  0.00000000E+00  0.00000000E+00  0.00000000E+00
  0.00000000E+00  0.00000000E+00  0.00000000E+00
  0.00000000E+00  0.00000000E+00  0.00000000E+00
  0.00000000E+00  0.00000000E+00  0.00000000E+00
  0.00000000E+00  0.00000000E+00  0.00000000E+00
  0.00000000E+00  0.00000000E+00  0.00000000E+00
  0.00000000E+00  0.00000000E+00  0.00000000E+00
  0.00000000E+00  0.00000000E+00  0.00000000E+00
  0.00000000E+00  0.00000000E+00  0.00000000E+00
  0.00000000E+00  0.00000000E+00  0.00000000E+00
  0.00000000E+00  0.00000000E+00  0.00000000E+00
  0.00000000E+00  0.00000000E+00  0.00000000E+00
  0.00000000E+00  0.00000000E+00  0.00000000E+00
  0.00000000E+00  0.00000000E+00  0.00000000E+00
  0.00000000E+00  0.00000000E+00  0.00000000E+00
  0.00000000E+00  0.00000000E+00  0.00000000E+00
  0.00000000E+00  0.00000000E+00  0.00000000E+00
  0.00000000E+00  0.00000000E+00  0.00000000E+00
  0.00000000E+00  0.00000000E+00  0.00000000E+00
  0.00000000E+00  0.00000000E+00  0.00000000E+00
  0.00000000E+00  0.00000000E+00  0.00000000E+00
  0.00000000E+00  0.00000000E+00  0.00000000E+00
  0.00000000E+00  0.00000000E+00  0.00000000E+00
  0.00000000E+00  0.00000000E+00  0.00000000E+00
  0.00000000E+00  0.00000000E+00  0.00000000E+00
  0.00000000E+00  0.00000000E+00  0.00000000E+00
  0.00000000E+00  0.00000000E+00  0.00000000E+00
  0.00000000E+00  0.00000000E+00  0.00000000E+00
  0.00000000E+00  0.00000000E+00  0.00000000E+00
  0.00000000E+00  0.00000000E+00  0.00000000E+00
  0.00000000E+00  0.00000000E+00  0.00000000E+00
  0.00000000E+00  0.00000000E+00  0.00000000E+00
  0.00000000E+00  0.00000000E+00  0.00000000E+00
  0.00000000E+00  0.00000000E+00  0.00000000E+00
  0.00000000E+00  0.00000000E+00  0.00000000E+00
  0.00000000E+00  0.00000000E+00  0.00000000E+00
  0.00000000E+00  0.00000000E+00  0.00000000E+00
  0.00000000E+00  0.00000000E+00  0.00000000E+00
  0.00000000E+00  0.00000000E+00  0.00000000E+00
  0.00000000E+00  0.00000000E+00  0.00000000E+00
  0.00000000E+00  0.00000000E+00  0.00000000E+00
  0.00000000E+00  0.00000000E+00  0.00000000E+00
  0.00000000E+00  0.00000000E+00  0.00000000E+00
  0.00000000E+00  0.00000000E+00  0.00000000E+00
  0.00000000E+00  0.00000000E+00  0.00000000E+00
  0.00000000E+00  0.00000000E+00  0.00000000E+00
  0.00000000E+00  0.00000000E+00  0.00000000E+00
  0.00000000E+00  0.00000000E+00  0.00000000E+00
  0.00000000E+00  0.00000000E+00  0.00000000E+00
  0.00000000E+00  0.00000000E+00  0.00000000E+00
  0.00000000E+00  0.00000000E+00  0.00000000E+00
  0.00000000E+00  0.00000000E+00  0.00000000E+00
  0.00000000E+00  0.00000000E+00  0.00000000E+00
  0.00000000E+00  0.00000000E+00  0.00000000E+00
  0.00000000E+00  0.00000000E+00  0.00000000E+00
  0.00000000E+00  0.00000000E+00  0.00000000E+00
  0.00000000E+00  0.00000000E+00  0.00000000E+00
  0.00000000E+00  0.00000000E+00  0.00000000E+00
  0.00000000E+00  0.00000000E+00  0.00000000E+00
  0.00000000E+00  0.00000000E+00  0.00000000E+00
  0.00000000E+00  0.00000000E+00  0.00000000E+00
  0.00000000E+00  0.00000000E+00  0.00000000E+00
  0.00000000E+00  0.00000000E+00  0.00000000E+00
  0.00000000E+00  0.00000000E+00  0.00000000E+00
  0.00000000E+00  0.00000000E+00  0.00000000E+00
  0.00000000E+00  0.00000000E+00  0.00000000E+00
  0.00000000E+00  0.00000000E+00  0.00000000E+00
  0.00000000E+00  0.00000000E+00  0.00000000E+00
  0.00000000E+00  0.00000000E+00  0.00000000E+00
  0.00000000E+00  0.00000000E+00  0.00000000E+00
