Al   Hf   Mg   N                        
   1.00000000000000     
    -9.9251173228410803   -0.0095242836724900    0.0017317281362857
    -4.9453226718947372    8.5853707809301234   -0.0008574088581958
    -0.0152308185687756    0.0106689157301776   -9.1788496554511436
   Al   Hf   Mg   N 
    30     3     3    36
Direct
  0.1156889893946608  0.0885677316094284  0.3308197523749718
  0.2191909832956760  0.2093141157341500  0.0860981158993698
  0.8956855911525418  0.1972274281225689  0.5887459561779093
  0.4397402360401807  0.0987837456733187  0.3514896855656875
  0.5416670806361179  0.2142572493621228  0.0956073143450896
  0.1185865847956517  0.0936341436907298  0.8328626144078263
  0.2155111076352551  0.2099178926193690  0.5788510416954569
  0.7787177766661784  0.0912722805120740  0.3276497372851828
  0.8970827189530662  0.2076446444078566  0.0835892581066025
  0.4359851779815784  0.1008151755080646  0.8183644609313072
  0.5544949147794243  0.2107612436515368  0.5746348008328842
  0.1153273398837344  0.4295811048534863  0.3315342511454359
  0.2208923558298345  0.5397797713010790  0.0870395273223102
  0.7778233695079295  0.4327414976919679  0.8308735588550261
  0.8993428763089570  0.5369672756947365  0.5915278107523462
  0.4357957760967027  0.4329881309067971  0.3300110189043307
  0.1151492083849393  0.4244419791580255  0.8319873032773876
  0.8976249278134109  0.5348422663070377  0.0766933521094113
  0.4396931750411431  0.4294314269723400  0.8341908847626703
  0.5486868493143384  0.5388263466619772  0.6014880987544647
  0.1159938614158821  0.7585563623505218  0.3367630441072877
  0.2165285551129540  0.8729184011086845  0.0810073721847183
  0.7829079160976208  0.7565341597188082  0.8222852676068398
  0.8931433783607975  0.8723076959987979  0.5747032033480153
  0.4350679461355752  0.7645855824939539  0.3468075696078541
  0.1132045541467343  0.7576275558890229  0.8277097955134028
  0.2171637911702370  0.8750579161657610  0.5845466774465933
  0.7837161196545581  0.7599410863167095  0.3477863887711047
  0.9000052481154635  0.8596547671490117  0.0960797009374675
  0.4399500995949682  0.7613160209136980  0.8264286409170165
  0.7747286577734394  0.0922952407712854  0.8532533275414627
  0.7774624452443951  0.4289374306538494  0.3510112415089467
  0.5551704689686022  0.8736701763999912  0.1015792654374194
  0.5521318341386502  0.5385400619391841  0.0838835247541158
  0.2229005135596651  0.5377747454976962  0.5900097656955542
  0.5560691313380872  0.8712619370373373  0.5916032700960130
  0.2153673103561055  0.2079537572960167  0.3703405998102541
  0.1117662856211040  0.0934304686998629  0.1218155060048403
  0.8976411604677974  0.2133200939215163  0.8704521634725898
  0.7762118356611858  0.0925783874891579  0.6208453476260281
  0.5598641867679751  0.2065667277813864  0.3648650592172076
  0.4316890944566604  0.1107749999210785  0.1367680045504311
  0.2249584719740722  0.2029445707694450  0.8768244670343648
  0.1128322069751454  0.0944623234396705  0.6249885976292467
  0.8981836173064751  0.1861200387247702  0.3751130049915719
  0.7785875228634335  0.0950975495910929  0.1120630058426637
  0.5362540290534916  0.2104872072199059  0.8815556182256233
  0.4351951643836804  0.1116463400331485  0.6090662521045647
  0.2205331409607748  0.5397863307910131  0.3619608558392143
  0.1106491835058474  0.4273739959045458  0.1198597280241957
  0.8887999492167974  0.5398563517236660  0.8670118286533619
  0.7814118875257839  0.4249474428702951  0.6122636654572371
  0.5388501759050528  0.5463707032341059  0.3763811785914449
  0.4354327436090334  0.4253656749114466  0.1221173356833641
  0.2204449268369557  0.5405991897763882  0.8722390382850848
  0.1080222407082299  0.4175145968169271  0.6280358912533636
  0.9009728172952279  0.5439288116434363  0.3802854183905621
  0.7931772930654792  0.4224945843172555  0.1205312578305001
  0.5579180325326479  0.5387085844931999  0.8536742717664445
  0.4579755826581085  0.4165494004088235  0.6268372776466425
  0.2181060451922398  0.8754954600046867  0.3755730061852030
  0.1138018226869066  0.7609914027805935  0.1261355045964138
  0.8974086078663507  0.8531999384537953  0.8828657058844230
  0.7945186657718797  0.7558280900880952  0.6156583897547946
  0.5579434815014934  0.8701893539590976  0.3572281917691703
  0.4260782660607584  0.7692259718282234  0.1276259390196479
  0.2194679564419512  0.8733495849837455  0.8721615138144413
  0.1013185595546472  0.7775362085582703  0.6220858237135309
  0.8899288159704353  0.8749955867150230  0.3644092502928217
  0.7972276028242911  0.7466165325006281  0.1319474513817395
  0.5565730473761388  0.8750956946418115  0.8610778817066143
  0.4329296956075151  0.7579785091602804  0.6183049730402111
 
             NaN             NaN             NaN
             NaN             NaN             NaN
             NaN             NaN             NaN
             NaN             NaN             NaN
             NaN             NaN             NaN
             NaN             NaN             NaN
             NaN             NaN             NaN
             NaN             NaN             NaN
             NaN             NaN             NaN
             NaN             NaN             NaN
             NaN             NaN             NaN
             NaN             NaN             NaN
             NaN             NaN             NaN
             NaN             NaN             NaN
             NaN             NaN             NaN
             NaN             NaN             NaN
             NaN             NaN             NaN
             NaN             NaN             NaN
             NaN             NaN             NaN
             NaN             NaN             NaN
             NaN             NaN             NaN
             NaN             NaN             NaN
             NaN             NaN             NaN
             NaN             NaN             NaN
             NaN             NaN             NaN
             NaN             NaN             NaN
             NaN             NaN             NaN
             NaN             NaN             NaN
             NaN             NaN             NaN
             NaN             NaN             NaN
             NaN             NaN             NaN
             NaN             NaN             NaN
             NaN             NaN             NaN
             NaN             NaN             NaN
             NaN             NaN             NaN
             NaN             NaN             NaN
             NaN             NaN             NaN
             NaN             NaN             NaN
             NaN             NaN             NaN
             NaN             NaN             NaN
             NaN             NaN             NaN
             NaN             NaN             NaN
             NaN             NaN             NaN
             NaN             NaN             NaN
             NaN             NaN             NaN
             NaN             NaN             NaN
             NaN             NaN             NaN
             NaN             NaN             NaN
             NaN             NaN             NaN
             NaN             NaN             NaN
             NaN             NaN             NaN
             NaN             NaN             NaN
             NaN             NaN             NaN
             NaN             NaN             NaN
             NaN             NaN             NaN
             NaN             NaN             NaN
             NaN             NaN             NaN
             NaN             NaN             NaN
             NaN             NaN             NaN
             NaN             NaN             NaN
             NaN             NaN             NaN
             NaN             NaN             NaN
             NaN             NaN             NaN
             NaN             NaN             NaN
             NaN             NaN             NaN
             NaN             NaN             NaN
             NaN             NaN             NaN
             NaN             NaN             NaN
             NaN             NaN             NaN
             NaN             NaN             NaN
             NaN             NaN             NaN
             NaN             NaN             NaN
