Al   Hf   Mg   N                        
   1.00000000000000     
    -9.6374247140310612   -0.0085208987146315    0.0064027325603230
    -4.8111551426205841    8.3383094095172758    0.0006115854288469
     0.0053789827976606    0.0076243670204820  -10.0047953531673954
   Al   Hf   Mg   N 
    30     3     3    36
Direct
  0.1173825216169912  0.0883283258838807  0.3838407259208853
  0.2161109539964796  0.2109576749576287  0.1326477012406383
  0.8947011247280960  0.2069613626183034  0.6298115485059546
  0.4404642637885141  0.0985711667624097  0.3864995692762471
  0.5500543246172330  0.2125268377162023  0.1368522869599835
  0.1172172922017086  0.0936404614185859  0.8823305933981561
  0.2196552272578923  0.2079453514495113  0.6303547713484395
  0.7772221023121134  0.0889876763083762  0.3884810820522100
  0.8951296554196283  0.1993314122194257  0.1309558273272188
  0.4351700916580760  0.1011136539907526  0.8794604695449169
  0.5461225267135027  0.2121696726253324  0.6257000961990726
  0.1154142597723920  0.4277147461382773  0.3851562134439589
  0.2233891440048972  0.5363837888262586  0.1313103071710105
  0.7804800690400007  0.4317723596557143  0.8878831736004815
  0.8934856244096019  0.5372750580273939  0.6341547848111693
  0.4405647736173394  0.4304609914470973  0.3851875201463052
  0.1140244706751211  0.4278008024137452  0.8818925547954405
  0.9020161288774878  0.5347334594300078  0.1278200829359243
  0.4350497467677159  0.4321631304084926  0.8848780538327173
  0.5520946564988624  0.5383677809575704  0.6351343665107165
  0.1121425736272751  0.7622059342818110  0.3828205802713295
  0.2169458759352772  0.8735801484155985  0.1330877928295157
  0.7853799140990261  0.7525139862024744  0.8779552871825499
  0.8969558471106743  0.8631579126446945  0.6264619634013563
  0.4365692134509964  0.7634080657375613  0.3912711942328028
  0.1174509082396998  0.7544142953452392  0.8844238614785721
  0.2186477673879582  0.8723929830351910  0.6313692837792196
  0.7819157052762481  0.7635994482048557  0.3878321719916780
  0.8961801951158015  0.8685855190130809  0.1363841326072265
  0.4388650110181064  0.7618417748226385  0.8765550381104958
  0.7761539286557750  0.0941483802010623  0.8675360261415073
  0.7766149318105716  0.4302673808904919  0.3709894439679938
  0.5559815819346613  0.8711967959064739  0.1182360061167428
  0.5485410739633081  0.5378719752980522  0.1225062174550541
  0.2215124337331229  0.5399554092700219  0.6283453452651421
  0.5556812096564335  0.8732771225554350  0.6331831780631141
  0.2201681933504748  0.2057048692959332  0.3232205528698492
  0.1116607063769642  0.0935515913753538  0.0742586372650120
  0.8982837815377157  0.2147384592132899  0.8227196761418323
  0.7776328047455254  0.0942458103129260  0.5871076308056111
  0.5573413152217630  0.2044105187042737  0.3277714188490281
  0.4333341154066229  0.1129482406236096  0.0730441616870982
  0.2200325683206132  0.2064841990055710  0.8241083886339111
  0.1121498103354219  0.0941368682196153  0.5743596836880771
  0.8972526209239478  0.1856387088634559  0.3239406707994649
  0.7763303991250072  0.0929851293839268  0.0779952253764087
  0.5363708617255353  0.2152020920345355  0.8190137437097905
  0.4344128286078967  0.1091896440089544  0.5729558980969662
  0.2218847839363897  0.5392966550670403  0.3257906464648301
  0.1144773874851750  0.4254976186825291  0.0739705140770221
  0.8913207153184486  0.5358763152017646  0.8265081266071680
  0.7770521630398101  0.4295723462495986  0.5803235355813194
  0.5385217288106209  0.5498739739147558  0.3293433873875092
  0.4365189392414818  0.4189954843390162  0.0725711198790172
  0.2202147401625562  0.5401345914247024  0.8352430051800011
  0.1023909648533314  0.4197357523717871  0.5712922210659915
  0.8981749001804209  0.5499712198499955  0.3183547813247745
  0.7944989264934528  0.4198399263849898  0.0827861740212723
  0.5578941749964573  0.5355640491143224  0.8310818821784601
  0.4587483656433192  0.4220746388861821  0.5715812228720480
  0.2223523477106110  0.8732725987660895  0.3236440046692008
  0.1104675285058942  0.7620441030284880  0.0777521195826348
  0.9003914382639948  0.8537786556838998  0.8199027264775058
  0.7924394734267363  0.7519400220767070  0.5746479115659461
  0.5555209573827645  0.8715460136515344  0.3325488978010043
  0.4238057440890656  0.7696809246638820  0.0652954547408055
  0.2169992271707901  0.8748724830122759  0.8239633250733531
  0.1049364480787571  0.7763023038612378  0.5684702895406538
  0.8876183043713493  0.8739229525352825  0.3261943188445846
  0.8004292691049336  0.7509016840871846  0.0697162234905884
  0.5581227176471507  0.8733671996946539  0.8509556000670249
  0.4358323677352206  0.7552357134483864  0.5801484178869889
 
             NaN             NaN             NaN
             NaN             NaN             NaN
             NaN             NaN             NaN
             NaN             NaN             NaN
             NaN             NaN             NaN
             NaN             NaN             NaN
             NaN             NaN             NaN
             NaN             NaN             NaN
             NaN             NaN             NaN
             NaN             NaN             NaN
             NaN             NaN             NaN
             NaN             NaN             NaN
             NaN             NaN             NaN
             NaN             NaN             NaN
             NaN             NaN             NaN
             NaN             NaN             NaN
             NaN             NaN             NaN
             NaN             NaN             NaN
             NaN             NaN             NaN
             NaN             NaN             NaN
             NaN             NaN             NaN
             NaN             NaN             NaN
             NaN             NaN             NaN
             NaN             NaN             NaN
             NaN             NaN             NaN
             NaN             NaN             NaN
             NaN             NaN             NaN
             NaN             NaN             NaN
             NaN             NaN             NaN
             NaN             NaN             NaN
             NaN             NaN             NaN
             NaN             NaN             NaN
             NaN             NaN             NaN
             NaN             NaN             NaN
             NaN             NaN             NaN
             NaN             NaN             NaN
             NaN             NaN             NaN
             NaN             NaN             NaN
             NaN             NaN             NaN
             NaN             NaN             NaN
             NaN             NaN             NaN
             NaN             NaN             NaN
             NaN             NaN             NaN
             NaN             NaN             NaN
             NaN             NaN             NaN
             NaN             NaN             NaN
             NaN             NaN             NaN
             NaN             NaN             NaN
             NaN             NaN             NaN
             NaN             NaN             NaN
             NaN             NaN             NaN
             NaN             NaN             NaN
             NaN             NaN             NaN
             NaN             NaN             NaN
             NaN             NaN             NaN
             NaN             NaN             NaN
             NaN             NaN             NaN
             NaN             NaN             NaN
             NaN             NaN             NaN
             NaN             NaN             NaN
             NaN             NaN             NaN
             NaN             NaN             NaN
             NaN             NaN             NaN
             NaN             NaN             NaN
             NaN             NaN             NaN
             NaN             NaN             NaN
             NaN             NaN             NaN
             NaN             NaN             NaN
             NaN             NaN             NaN
             NaN             NaN             NaN
             NaN             NaN             NaN
             NaN             NaN             NaN
