supercell of icsd_181358.cif            
   1.00000000000000     
     9.9647408550860810   -0.0037804171558532    0.0067061245388034
    -4.9856478848152666    8.6916210907101963    0.0200080741997988
     0.0075245630110337    0.0299709153678044   10.5666333899638563
   N    Ga   La
    36    30     6
Direct
  0.2258165933467708  0.1087106080763505  0.4429180230843386
  0.1491662698501131  0.2419286803979688  0.2088543313544378
  0.8504069020030016  0.0906686684848452  0.9444266746167713
  0.7584132157686483  0.1831305268122918  0.6758401985760614
  0.5519079388639767  0.1115311873163520  0.4442889929510230
  0.4236249958310836  0.1782460928822260  0.1740723852182242
  0.2452830829586716  0.0831381723758327  0.9233812485950210
  0.0939350856626007  0.1869427800352881  0.6960059297968328
  0.8896969267355388  0.1069047481521181  0.4581810381261704
  0.7540405117931854  0.2387676593370927  0.1918355902821247
  0.5829219258688241  0.1560768648536168  0.9180707765310956
  0.4472318039463161  0.2295616529704887  0.6884551991862935
  0.2250536778289245  0.4457792716013316  0.4547883715240815
  0.1128775713587160  0.5583726860665763  0.2063795168619862
  0.8966304106008067  0.4463246350004439  0.9700886762591452
  0.7705748615584369  0.5769254393504042  0.6842439940536735
  0.5569924593081339  0.4440252026439993  0.4537538119195901
  0.4277754138043406  0.5769506501279125  0.1876793693272063
  0.2333073277992170  0.4760729977445166  0.9518366387595947
  0.1141328525126113  0.5904874848728241  0.6658973346608690
  0.8838018126912459  0.4418341025570030  0.4435229693368754
  0.8140093365084411  0.5762490903776012  0.1861362163792109
  0.5535815111963700  0.4465607815757053  0.9497954257124377
  0.4792392758283697  0.5773717399810891  0.6793464712739592
  0.2233538802970827  0.7844205893432772  0.4378585900730769
  0.1096571945693583  0.8911436199583918  0.1888069685686773
  0.8932223462140669  0.7807067753304082  0.9348050526585894
  0.7788874451588512  0.8845340178467964  0.6888733028877496
  0.5598978592843409  0.7822829865890313  0.4440559508667121
  0.4479556309308137  0.8906290567209538  0.2135427740350906
  0.1855254961109338  0.7556859246764560  0.9323088055995683
  0.1089001739172772  0.8887599771820618  0.6831036784789930
  0.8905403837469805  0.7805895782723340  0.4379193227776241
  0.7556488833802888  0.8454641375618408  0.1808492383149201
  0.5682830628522595  0.7614189247164660  0.9254068277105816
  0.4398573505519607  0.8873627893642961  0.6970811614657109
  0.2263493801427288  0.1041130905031409  0.2542782888688393
  0.8719424537105596  0.0909311439907725  0.7463567175965338
  0.7728233551976587  0.2137680706003522  0.4975323923037891
  0.5447176831732463  0.1050143576722533  0.2579820189362820
  0.4502862890008572  0.2189304484382077  0.9894451283131005
  0.2249268833784228  0.0980114316788772  0.7420705302061847
  0.1085738692582439  0.2107076119856401  0.5028795447418091
  0.7715065872819622  0.2310279445498438  0.0065997942137486
  0.5532183178292840  0.1111257334454194  0.7391659766878931
  0.4461257257676081  0.2257607775276611  0.5044875082333036
  0.2267133415269242  0.4531762282389522  0.2610403338029954
  0.1107549781308492  0.5599559711919255  0.0174714279944936
  0.7762978196872723  0.5614347752218123  0.5010031309263709
  0.4451016448899310  0.5661573291881368  0.0022370251325512
  0.1098750892696643  0.5655582122941283  0.4885363771163469
  0.8912594882286271  0.4509937109847755  0.2520934978751157
  0.7946543862032911  0.5669650797937891  0.0047301051092958
  0.5606100835649812  0.4546784066160328  0.7506558159390835
  0.4578133178524126  0.5629225483876539  0.4986526035203482
  0.2245352982643141  0.7826923179398833  0.2552914072432984
  0.1072219454915668  0.8800354345999750  0.9987659602832082
  0.8912484632420572  0.7839437321672023  0.7474055730551754
  0.7792797951460031  0.8867411766145565  0.5054235471628488
  0.5497694334970973  0.7758374420095748  0.2569599195434407
  0.2133724104650483  0.7824742692174809  0.7455171870416493
  0.1104738294146443  0.8879567680568670  0.4989476890036499
  0.8939134004391178  0.7768155557280565  0.2503038542102942
  0.7687674398050959  0.8691987130295260  0.9957318592796440
  0.5668937136846424  0.7805970852469883  0.7440472452899414
  0.4426604208407525  0.8893480689347584  0.5011999585825606
  0.1210717346917107  0.2181377803960984  0.9859162517875433
  0.8830520470426038  0.1040075469224817  0.2408283571805043
  0.8754914340570750  0.4340110407241085  0.7505711811714164
  0.5517074034242668  0.4381089602063994  0.2304090515131563
  0.2282002593503520  0.4557222335873661  0.7276689569349131
  0.4466388064105473  0.8975789011531177  0.9873829253743693
 
  0.00000000E+00  0.00000000E+00  0.00000000E+00
  0.00000000E+00  0.00000000E+00  0.00000000E+00
  0.00000000E+00  0.00000000E+00  0.00000000E+00
  0.00000000E+00  0.00000000E+00  0.00000000E+00
  0.00000000E+00  0.00000000E+00  0.00000000E+00
  0.00000000E+00  0.00000000E+00  0.00000000E+00
  0.00000000E+00  0.00000000E+00  0.00000000E+00
  0.00000000E+00  0.00000000E+00  0.00000000E+00
  0.00000000E+00  0.00000000E+00  0.00000000E+00
  0.00000000E+00  0.00000000E+00  0.00000000E+00
  0.00000000E+00  0.00000000E+00  0.00000000E+00
  0.00000000E+00  0.00000000E+00  0.00000000E+00
  0.00000000E+00  0.00000000E+00  0.00000000E+00
  0.00000000E+00  0.00000000E+00  0.00000000E+00
  0.00000000E+00  0.00000000E+00  0.00000000E+00
  0.00000000E+00  0.00000000E+00  0.00000000E+00
  0.00000000E+00  0.00000000E+00  0.00000000E+00
  0.00000000E+00  0.00000000E+00  0.00000000E+00
  0.00000000E+00  0.00000000E+00  0.00000000E+00
  0.00000000E+00  0.00000000E+00  0.00000000E+00
  0.00000000E+00  0.00000000E+00  0.00000000E+00
  0.00000000E+00  0.00000000E+00  0.00000000E+00
  0.00000000E+00  0.00000000E+00  0.00000000E+00
  0.00000000E+00  0.00000000E+00  0.00000000E+00
  0.00000000E+00  0.00000000E+00  0.00000000E+00
  0.00000000E+00  0.00000000E+00  0.00000000E+00
  0.00000000E+00  0.00000000E+00  0.00000000E+00
  0.00000000E+00  0.00000000E+00  0.00000000E+00
  0.00000000E+00  0.00000000E+00  0.00000000E+00
  0.00000000E+00  0.00000000E+00  0.00000000E+00
  0.00000000E+00  0.00000000E+00  0.00000000E+00
  0.00000000E+00  0.00000000E+00  0.00000000E+00
  0.00000000E+00  0.00000000E+00  0.00000000E+00
  0.00000000E+00  0.00000000E+00  0.00000000E+00
  0.00000000E+00  0.00000000E+00  0.00000000E+00
  0.00000000E+00  0.00000000E+00  0.00000000E+00
  0.00000000E+00  0.00000000E+00  0.00000000E+00
  0.00000000E+00  0.00000000E+00  0.00000000E+00
  0.00000000E+00  0.00000000E+00  0.00000000E+00
  0.00000000E+00  0.00000000E+00  0.00000000E+00
  0.00000000E+00  0.00000000E+00  0.00000000E+00
  0.00000000E+00  0.00000000E+00  0.00000000E+00
  0.00000000E+00  0.00000000E+00  0.00000000E+00
  0.00000000E+00  0.00000000E+00  0.00000000E+00
  0.00000000E+00  0.00000000E+00  0.00000000E+00
  0.00000000E+00  0.00000000E+00  0.00000000E+00
  0.00000000E+00  0.00000000E+00  0.00000000E+00
  0.00000000E+00  0.00000000E+00  0.00000000E+00
  0.00000000E+00  0.00000000E+00  0.00000000E+00
  0.00000000E+00  0.00000000E+00  0.00000000E+00
  0.00000000E+00  0.00000000E+00  0.00000000E+00
  0.00000000E+00  0.00000000E+00  0.00000000E+00
  0.00000000E+00  0.00000000E+00  0.00000000E+00
  0.00000000E+00  0.00000000E+00  0.00000000E+00
  0.00000000E+00  0.00000000E+00  0.00000000E+00
  0.00000000E+00  0.00000000E+00  0.00000000E+00
  0.00000000E+00  0.00000000E+00  0.00000000E+00
  0.00000000E+00  0.00000000E+00  0.00000000E+00
  0.00000000E+00  0.00000000E+00  0.00000000E+00
  0.00000000E+00  0.00000000E+00  0.00000000E+00
  0.00000000E+00  0.00000000E+00  0.00000000E+00
  0.00000000E+00  0.00000000E+00  0.00000000E+00
  0.00000000E+00  0.00000000E+00  0.00000000E+00
  0.00000000E+00  0.00000000E+00  0.00000000E+00
  0.00000000E+00  0.00000000E+00  0.00000000E+00
  0.00000000E+00  0.00000000E+00  0.00000000E+00
  0.00000000E+00  0.00000000E+00  0.00000000E+00
  0.00000000E+00  0.00000000E+00  0.00000000E+00
  0.00000000E+00  0.00000000E+00  0.00000000E+00
  0.00000000E+00  0.00000000E+00  0.00000000E+00
  0.00000000E+00  0.00000000E+00  0.00000000E+00
  0.00000000E+00  0.00000000E+00  0.00000000E+00
