generated by phonopy                    
   1.00000000000000     
    10.0351470768999995   -0.0000022330999784   -0.0000001056124209
    -5.0175765436399997    8.6906901959899994    0.0000001395531216
    -0.0000001735893656    0.0000001431815548   14.9533752540999991
   Pb   O    P 
    19    51    12
Direct
  0.0039252587721563  0.7578926596222288  0.1207760350009650
  0.9886762582423216  0.7622348732881363  0.6271544609901056
  0.0061902980493471  0.2644808749549128  0.3761554243157761
  0.0068424160165463  0.2682194270263523  0.8806178973478396
  0.2426117084585613  0.2459427791927595  0.1216010624792858
  0.2355384190786367  0.2319267104954292  0.6284638744198077
  0.7359161483183954  0.7421932921351058  0.3751532327779046
  0.7310771659878981  0.7381185258935190  0.8796404232182766
  0.7554717580495094  0.9969452621358172  0.1216336023468685
  0.7650641468167905  0.0125221417328305  0.6293876060505355
  0.2600458852110066  0.9929297441718390  0.3758431608405317
  0.2624534892967603  0.9927441908163814  0.8779254950217990
  0.6646539460040799  0.3319022560362086  0.9940383636924324
  0.6669023457370145  0.3373310877836104  0.4986844265497581
  0.3342819499967149  0.6667631184444787  0.5048939945503861
  0.3313788696486029  0.6657576595073849  0.2183833666696131
  0.3302875455730998  0.6658421620048358  0.7602779089714957
  0.6672700010073882  0.3332140440254889  0.2514577348442018
  0.6690996543559677  0.3397084761711966  0.7465925931416493
  0.3362015551256547  0.6683559930794374  0.0511107284056678
  0.5595388808948485  0.7041976037767554  0.1322313384790164
  0.5158021020298520  0.6666178012969723  0.6242872373946611
  0.4779978401374549  0.3229366915889145  0.3737915014065791
  0.4782306524270723  0.3181444532324775  0.8727312881492253
  0.2976788310858609  0.8560997053892265  0.1307241747356827
  0.3411182830579023  0.8470886924553795  0.6245130421829685
  0.6776455751690662  0.1561507354692822  0.3746136255642440
  0.6823085113675162  0.1621477681964265  0.8723450991453134
  0.1429449559789830  0.4404174758578137  0.1322004879320957
  0.1503985305779167  0.4881594982890363  0.6244031652030273
  0.8450055610059621  0.5226044635384568  0.3728167163011875
  0.8395758416432884  0.5224122882069508  0.8734801633515445
  0.7389065641650632  0.6457970557014860  0.0384389044663322
  0.7277785728747332  0.6452441271800993  0.5365634768997225
  0.2628316466048872  0.3486224290587501  0.4547175451646552
  0.2574500372687254  0.3265420863007691  0.9555687102882118
  0.3583710273683351  0.0953787473119121  0.0374885669475660
  0.3496477655414409  0.0741176949780780  0.5360799355548735
  0.6531043395902856  0.9164652437475382  0.4572210923494708
  0.6753635683698533  0.9323343184939574  0.9532887760191002
  0.9053504969547532  0.2604999739376908  0.0386242435930910
  0.9210676999251604  0.2722942754830697  0.5362360271634543
  0.0855327202048031  0.7383310722416212  0.4535301115636798
  0.0686808413183826  0.7429555706751430  0.9563111857363111
  0.2642673928080512  0.3431671793023412  0.2870617827344617
  0.2615144697368308  0.3409846898730819  0.7892496595920164
  0.7449988242165233  0.6365043689407273  0.2077369352071798
  0.7331016030075332  0.6473408564306311  0.7055632038329449
  0.6613612917550142  0.9224728903554293  0.2897165792473118
  0.6624809297934817  0.9250736828309414  0.7870299438856847
  0.3657155047542489  0.1090014494891989  0.2069722156567479
  0.3420520242563043  0.0759970884898848  0.7043585136972013
  0.0806077216932479  0.7349760596876180  0.2859405643181034
  0.0806316267924601  0.7375574328219159  0.7900989894175368
  0.8893605987229805  0.2550390230706796  0.2078223298417825
  0.9174511841472466  0.2657091025529752  0.7047169988378741
  0.5183662363084451  0.4264504032217999  0.1222068594820414
  0.5269557596009520  0.4140343331894769  0.6230496876284519
  0.4747752639788487  0.5770515579037863  0.3704733127468742
  0.4702766809759851  0.5689636667932518  0.8721604330549795
  0.5759245899123684  0.0920765664071723  0.1218581627483744
  0.5842174318038929  0.1156446633184274  0.6246049375074492
  0.4251966821527162  0.8974558465407796  0.3710188513129822
  0.4327960838256288  0.9021567220207487  0.8701417363701296
  0.9064816698561273  0.4816128672897975  0.1219518590388589
  0.8832334396292225  0.4689493747355797  0.6229706434584372
  0.1018764561163223  0.5249673802869737  0.3708610516570587
  0.0978560007567353  0.5289102107660071  0.8738642067232263
  0.0001747476333591  0.0002626837574553  0.1213565021611771
  0.9775814157076184  0.9923348814809785  0.6272062824642646
  0.6366816519045528  0.6031522330270249  0.1248275673783468
  0.6223560854770369  0.5952474632854674  0.6221836454367349
  0.3719988671501326  0.3958566359776796  0.3710971642750636
  0.3694205442803948  0.3885679573321070  0.8736147560210838
  0.3990298442248630  0.0341936772110287  0.1239699998658850
  0.4012244224484434  0.0228301517423830  0.6222099414620530
  0.6064349925539929  0.9775820072150978  0.3727857479132837
  0.6133951086040312  0.9834054942871973  0.8719041695276601
  0.9650507662104815  0.3633033193643982  0.1248865641879107
  0.9732089726490685  0.3776244948443690  0.6217637666678399
  0.0240905000006322  0.6281617104128188  0.3703765969298161
  0.0188794436359601  0.6304235899576653  0.8746330092849917
 
  0.00000000E+00  0.00000000E+00  0.00000000E+00
  0.00000000E+00  0.00000000E+00  0.00000000E+00
  0.00000000E+00  0.00000000E+00  0.00000000E+00
  0.00000000E+00  0.00000000E+00  0.00000000E+00
  0.00000000E+00  0.00000000E+00  0.00000000E+00
  0.00000000E+00  0.00000000E+00  0.00000000E+00
  0.00000000E+00  0.00000000E+00  0.00000000E+00
  0.00000000E+00  0.00000000E+00  0.00000000E+00
  0.00000000E+00  0.00000000E+00  0.00000000E+00
  0.00000000E+00  0.00000000E+00  0.00000000E+00
  0.00000000E+00  0.00000000E+00  0.00000000E+00
  0.00000000E+00  0.00000000E+00  0.00000000E+00
  0.00000000E+00  0.00000000E+00  0.00000000E+00
  0.00000000E+00  0.00000000E+00  0.00000000E+00
  0.00000000E+00  0.00000000E+00  0.00000000E+00
  0.00000000E+00  0.00000000E+00  0.00000000E+00
  0.00000000E+00  0.00000000E+00  0.00000000E+00
  0.00000000E+00  0.00000000E+00  0.00000000E+00
  0.00000000E+00  0.00000000E+00  0.00000000E+00
  0.00000000E+00  0.00000000E+00  0.00000000E+00
  0.00000000E+00  0.00000000E+00  0.00000000E+00
  0.00000000E+00  0.00000000E+00  0.00000000E+00
  0.00000000E+00  0.00000000E+00  0.00000000E+00
  0.00000000E+00  0.00000000E+00  0.00000000E+00
  0.00000000E+00  0.00000000E+00  0.00000000E+00
  0.00000000E+00  0.00000000E+00  0.00000000E+00
  0.00000000E+00  0.00000000E+00  0.00000000E+00
  0.00000000E+00  0.00000000E+00  0.00000000E+00
  0.00000000E+00  0.00000000E+00  0.00000000E+00
  0.00000000E+00  0.00000000E+00  0.00000000E+00
  0.00000000E+00  0.00000000E+00  0.00000000E+00
  0.00000000E+00  0.00000000E+00  0.00000000E+00
  0.00000000E+00  0.00000000E+00  0.00000000E+00
  0.00000000E+00  0.00000000E+00  0.00000000E+00
  0.00000000E+00  0.00000000E+00  0.00000000E+00
  0.00000000E+00  0.00000000E+00  0.00000000E+00
  0.00000000E+00  0.00000000E+00  0.00000000E+00
  0.00000000E+00  0.00000000E+00  0.00000000E+00
  0.00000000E+00  0.00000000E+00  0.00000000E+00
  0.00000000E+00  0.00000000E+00  0.00000000E+00
  0.00000000E+00  0.00000000E+00  0.00000000E+00
  0.00000000E+00  0.00000000E+00  0.00000000E+00
  0.00000000E+00  0.00000000E+00  0.00000000E+00
  0.00000000E+00  0.00000000E+00  0.00000000E+00
  0.00000000E+00  0.00000000E+00  0.00000000E+00
  0.00000000E+00  0.00000000E+00  0.00000000E+00
  0.00000000E+00  0.00000000E+00  0.00000000E+00
  0.00000000E+00  0.00000000E+00  0.00000000E+00
  0.00000000E+00  0.00000000E+00  0.00000000E+00
  0.00000000E+00  0.00000000E+00  0.00000000E+00
  0.00000000E+00  0.00000000E+00  0.00000000E+00
  0.00000000E+00  0.00000000E+00  0.00000000E+00
  0.00000000E+00  0.00000000E+00  0.00000000E+00
  0.00000000E+00  0.00000000E+00  0.00000000E+00
  0.00000000E+00  0.00000000E+00  0.00000000E+00
  0.00000000E+00  0.00000000E+00  0.00000000E+00
  0.00000000E+00  0.00000000E+00  0.00000000E+00
  0.00000000E+00  0.00000000E+00  0.00000000E+00
  0.00000000E+00  0.00000000E+00  0.00000000E+00
  0.00000000E+00  0.00000000E+00  0.00000000E+00
  0.00000000E+00  0.00000000E+00  0.00000000E+00
  0.00000000E+00  0.00000000E+00  0.00000000E+00
  0.00000000E+00  0.00000000E+00  0.00000000E+00
  0.00000000E+00  0.00000000E+00  0.00000000E+00
  0.00000000E+00  0.00000000E+00  0.00000000E+00
  0.00000000E+00  0.00000000E+00  0.00000000E+00
  0.00000000E+00  0.00000000E+00  0.00000000E+00
  0.00000000E+00  0.00000000E+00  0.00000000E+00
  0.00000000E+00  0.00000000E+00  0.00000000E+00
  0.00000000E+00  0.00000000E+00  0.00000000E+00
  0.00000000E+00  0.00000000E+00  0.00000000E+00
  0.00000000E+00  0.00000000E+00  0.00000000E+00
  0.00000000E+00  0.00000000E+00  0.00000000E+00
  0.00000000E+00  0.00000000E+00  0.00000000E+00
  0.00000000E+00  0.00000000E+00  0.00000000E+00
  0.00000000E+00  0.00000000E+00  0.00000000E+00
  0.00000000E+00  0.00000000E+00  0.00000000E+00
  0.00000000E+00  0.00000000E+00  0.00000000E+00
  0.00000000E+00  0.00000000E+00  0.00000000E+00
  0.00000000E+00  0.00000000E+00  0.00000000E+00
  0.00000000E+00  0.00000000E+00  0.00000000E+00
  0.00000000E+00  0.00000000E+00  0.00000000E+00
