Mg   P    N                             
   1.00000000000000     
    -0.0285633495295860    0.0000063754349178   -4.7136249142288680
     5.7052426650982877    0.0000023323926714   -0.0343516315413792
    -0.0000024023061372   -9.8088515016346562    0.0000138787491428
   Mg   P    N 
     8     4    12
Direct
  0.0523492757974680  0.3496284315079663  0.1631064686545329
  0.0523489092620579  0.3496288254210356  0.8368927677723477
  0.5523850904276486  0.6812039224768185  0.1630962555071847
  0.5523846147723077  0.6812035455417629  0.8369026985326187
  0.0907874507041271  0.8495679323543754  0.6630974460525394
  0.0907869059677893  0.8495675777705074  0.3369024257263717
  0.5907978902740183  0.1811362745914167  0.6631057621180574
  0.5907974609772779  0.1811365377638765  0.3368942594535298
  0.0223257614888226  0.8532142965044400  0.9999979579089526
  0.5223333467640501  0.1776602462205048  0.9999974420481266
  0.1208104537018073  0.3531156803008031  0.5000021583035945
  0.6208178073906154  0.6775526582715159  0.5000015299285394
  0.1668082982649537  0.1247100015267506  0.9999992584901847
  0.6668037738392769  0.9061601806859940  0.9999993193500316
  0.0919423953837608  0.7115552942519798  0.8594734946856590
  0.0919422520380735  0.7115543366310462  0.1405269706130454
  0.5919702753741234  0.3192899092744099  0.8594689348267721
  0.5919709774510693  0.3192913032774953  0.1405324737117724
  0.0511690599840691  0.2114791770295525  0.3594677833638400
  0.0511703961508729  0.2114808913683888  0.6405297929065270
  0.5511894261238126  0.8192121510015866  0.3594726910412049
  0.5511902406064522  0.8192110553120102  0.6405253435455478
  0.9763401070556412  0.6246150606990781  0.5000001390122151
  0.4763362976778396  0.4060582611273205  0.5000000878750512
