generated by phonopy                    
   1.00000000000000     
    11.7777700938999992   -0.0000006592896312    0.0000118211769744
    -0.0000006477562692   11.7777479613999994   -0.0000130806483528
     0.0000177256125076   -0.0000204342245446   17.8544012557999991
   Se   Bi   Cu   O 
    37    35    36    36
Direct
  0.0260295685158312  0.1408983394088068  0.4477282556540061
  0.1641944721718787  0.3298104441355392  0.3388768202267229
  0.4985369778823951  0.3329070774873131  0.3359885278011063
  0.8334204280072370  0.3334833961407071  0.3387323400707416
  0.1668368985726048  0.6666916797704374  0.3361810388624278
  0.4990382544292018  0.6678671646971281  0.3362150021122901
  0.8340034315341285  0.6683587553966746  0.3359905835042269
  0.1688891245655668  0.9980053193585334  0.3351322147652738
  0.5002074421744922  0.0000653667347805  0.3361782500529955
  0.8370858722944092  0.0026891732050771  0.3388680221000158
  0.1658692521836258  0.3335503362727081  0.8371405853576732
  0.4989434617275990  0.3330694849148230  0.8362779548229895
  0.8331350258633918  0.3337650400342724  0.8369772480707312
  0.1666964088459153  0.6676055314480109  0.8386520587158657
  0.4989988311847853  0.6679027778091324  0.8362545179971193
  0.8338255291937813  0.6679608103822119  0.8362762420138310
  0.1663167845967806  0.0005889001769219  0.8370412654482990
  0.4993007834197272  0.0002072648022775  0.8386529493334720
  0.8333509563043080  0.0010352333790848  0.8371409455120897
  0.3333398082262065  0.1674101934670986  0.1629176803921624
  0.6679420267546874  0.1674439398084147  0.1636308171468457
  0.0001735955535764  0.1667089130223118  0.1624083436440742
  0.3318932517117119  0.5004297045175790  0.1624566598459793
  0.6656043285176949  0.5012802667068357  0.1628893767620241
  0.9994424797113410  0.4989450898489665  0.1636282992477973
  0.3336365681581057  0.8332583025679128  0.1612134985078129
  0.6664647293054458  0.8349859139569347  0.1624516054608804
  0.9994875794841391  0.8335390934990841  0.1629141546194077
  0.3318758826599932  0.1658193669965158  0.6619386484212200
  0.6641471086911608  0.1660557275888905  0.6640714942865387
  0.9998518526397220  0.1670633559748467  0.6614356200725027
  0.3330420005027577  0.5001522923838380  0.6625315609798221
  0.6660988808062100  0.5008094448599962  0.6621017822293354
  0.0008530841924141  0.5027724783937799  0.6640775999940232
  0.3336887906710757  0.8332317892029053  0.6636811459722196
  0.6667660467701069  0.8338762214015247  0.6625291885847417
  0.0010914368324961  0.8350421424826919  0.6619387796558840
  0.3389482175420326  0.1670964244008672  0.4255680749295649
  0.6726570383273724  0.1683356282796211  0.4281418018478149
  0.9985779354958950  0.4942578300398708  0.4281550983355515
  0.3328789081084835  0.4986182066551379  0.4274396861449219
  0.6670260381205679  0.4998883948239126  0.4271887231552114
  0.9998219811264306  0.8279692668102356  0.4255684179527890
  0.3331991801009835  0.8337158844244641  0.4277838485341832
  0.6683009685177410  0.8340334489511037  0.4274325499852907
  0.9997057865535481  0.1671859100747497  0.9291267536828869
  0.3328473435198234  0.1672695695489210  0.9293827716030947
  0.6666757956358751  0.1674871040607329  0.9289388181452267
  0.9994048800749624  0.5002146267846825  0.9289356108689120
  0.3331580094966569  0.4998711403417744  0.9291636430881525
  0.6668356138659419  0.5000513528598134  0.9291130560108698
  0.9996236857209553  0.8340445163850987  0.9293804107634216
  0.3331791436731493  0.8337136862358960  0.9293081662577478
  0.6670184712256741  0.8337334436388488  0.9291638715637589
  0.1665188389900649  0.0003713705470645  0.0712308519069609
  0.5003545589952623  0.0005105895017721  0.0708680276667764
  0.8331985906054484  0.0009297299166278  0.0713328505438895
  0.1659584302932942  0.3336931854879239  0.0713334439093813
  0.4997997075030867  0.3336630668532621  0.0712112060294245
  0.8331877641919121  0.3337033210853164  0.0714095306338294
  0.1663815883231337  0.6665357884877139  0.0708660030605088
  0.5000535374998307  0.6668370669029997  0.0708466052292707
  0.8332289431157633  0.6670882108152654  0.0712060658004319
  0.1776467478390842  0.9892717617231810  0.5788155319942163
  0.5013512337319028  0.0002067266269705  0.5694050020382804
  0.8266295777758828  0.0040861061100728  0.5719568516765676
  0.1628303838929170  0.3402895579627696  0.5719665681748793
  0.4999344362951916  0.3332130512404632  0.5687311903341978
  0.8348376678682072  0.3320726167600583  0.5688231733488038
  0.1667079498126753  0.6655715910027595  0.5694114117467919
  0.5000822379499681  0.6668368289997630  0.5685794777906210
  0.8337007322816206  0.6669845692800109  0.5687339688682940
  0.0013086776669837  0.0000000835304306  0.2504548142266927
  0.3348899956596085  0.9987188016289252  0.2490377947935301
  0.6719913736972316  0.0006235888539265  0.2516241636263103
  0.9997181103110648  0.3304444550579646  0.2516615035924374
  0.3295530549722088  0.3341702845147765  0.2510013655546146
  0.6697081900904251  0.3348376537835520  0.2509022875156930
  0.0003766858732774  0.6656738277460619  0.2489358347326345
  0.3332333160509435  0.6669646225970780  0.2490003435909998
  0.6667016282875053  0.6683232070540015  0.2496285616049221
  0.9995489523403052  0.0011612273451362  0.7496953478916311
  0.3343331528860531  0.0013394372924864  0.7508782967779837
  0.6657408351466714  0.9999900332161928  0.7510050605373593
  0.9993358913815911  0.3328308588562479  0.7487783696097807
  0.3317969363203801  0.3335823274505003  0.7494360024278492
  0.6667795177537812  0.3352120637050717  0.7497357328913381
  0.0017416478081103  0.6687923761374464  0.7502619073777197
  0.3312445419944225  0.6636472039443859  0.7510270687770415
  0.6667359666869146  0.6658863736626088  0.7496184638613599
  0.1668739724824420  0.1655834842523731  0.2504583593809713
  0.5012117281541464  0.1665257939016627  0.2489346142837121
  0.8364451459402886  0.1671747984898531  0.2516648605846115
  0.1662495031403850  0.4948957938615877  0.2516313849184755
  0.4985631121981200  0.5002055645454959  0.2496281927644972
  0.8320501468250541  0.4971922232979722  0.2509010458043690
  0.1681688117784361  0.8319990886422701  0.2490369912332184
  0.4999309308087589  0.8336670384961167  0.2489965940560595
  0.8327186588294424  0.8373244674528308  0.2509926378823195
  0.1657619152267955  0.1673581889403479  0.7496924304199482
  0.4981328031487848  0.1651591578441440  0.7502584411745872
  0.8340846051997701  0.1675658177103685  0.7487780616626338
  0.1669275679312321  0.5011693385674221  0.7510069198774900
  0.5010324010279774  0.5001643303055303  0.7496226141423037
  0.8316923642909870  0.5001227830061268  0.7497371505429982
  0.1655798402529740  0.8325762530433849  0.7508765800155501
  0.5032755896477283  0.8356603032699752  0.7510296688120022
  0.8333296748354257  0.8351091075972761  0.7494366537142128
  0.1609191074720115  0.1644101467553156  0.4962392292380855
  0.5016560935899292  0.1659219888126415  0.4985717608384448
  0.8195174644633383  0.1663816623158496  0.5055962771537423
  0.1700941095572475  0.5010084901817251  0.4993022024975105
  0.4984255062966199  0.5005487767997820  0.4989722238578906
  0.8303640842350788  0.5022514198651038  0.4979312241587479
  0.1659455249742479  0.8342371656157610  0.5005828621321271
  0.4994495799182559  0.8339022884382672  0.4985748822207938
  0.8368853557921909  0.8349020003984222  0.4986106879067904
  0.1662477231196391  0.1671554143330880  0.0000703407273264
  0.5000569839843578  0.1675163239069377  0.0000641797350198
  0.8330289548586052  0.1673808377885919  0.0000980351367019
  0.1661639168117262  0.5000247704781486  0.9998366488679622
  0.4999936389481334  0.5001261441782106  0.9996810674118208
  0.8328570533042807  0.5002864140650587  0.9999364023218575
  0.1662017165776604  0.8338078339606341  0.0001799745412328
  0.5002617463360011  0.8337492349375353  0.0000217711385559
  0.8331014971728123  0.8338222157872366  0.0002709136119492
  0.9997372228719925  0.0006436917625834  0.0000693998369314
  0.3330841867546184  0.0006937895022787  0.0001823176093012
  0.6668661393403923  0.0007285463421027  0.9998391422200328
  0.9995088874024844  0.3338648644868769  0.0000963890978412
  0.3330684524334515  0.3337932222765971  0.0002730127123058
  0.6666023614142276  0.3340360540234428  0.9999398009798384
  0.9993761854606760  0.6668349472303987  0.0000604360304095
  0.3331441101582868  0.6666303530127777  0.0000205489887861
  0.6667633162950679  0.6668971607523062  0.9996796940200099
  0.0025012442300465  0.0059895071602867  0.4962403864430343
  0.3326754259669258  0.0009684565883674  0.5005830240855076
  0.6659119256738535  0.9968147092742043  0.4992934087031671
  0.0005310695663425  0.3473949355863439  0.5056058857188290
  0.3320095791345778  0.3300287921832634  0.4986143895622988
  0.6646545287275600  0.3365411537432621  0.4979231878326758
  0.0009890576312941  0.6652686636417684  0.4985782874066658
  0.3330193242968633  0.6674653883749784  0.4985789192240517
  0.6663686214523707  0.6684889379924215  0.4989690429723552
 
  0.00000000E+00  0.00000000E+00  0.00000000E+00
  0.00000000E+00  0.00000000E+00  0.00000000E+00
  0.00000000E+00  0.00000000E+00  0.00000000E+00
  0.00000000E+00  0.00000000E+00  0.00000000E+00
  0.00000000E+00  0.00000000E+00  0.00000000E+00
  0.00000000E+00  0.00000000E+00  0.00000000E+00
  0.00000000E+00  0.00000000E+00  0.00000000E+00
  0.00000000E+00  0.00000000E+00  0.00000000E+00
  0.00000000E+00  0.00000000E+00  0.00000000E+00
  0.00000000E+00  0.00000000E+00  0.00000000E+00
  0.00000000E+00  0.00000000E+00  0.00000000E+00
  0.00000000E+00  0.00000000E+00  0.00000000E+00
  0.00000000E+00  0.00000000E+00  0.00000000E+00
  0.00000000E+00  0.00000000E+00  0.00000000E+00
  0.00000000E+00  0.00000000E+00  0.00000000E+00
  0.00000000E+00  0.00000000E+00  0.00000000E+00
  0.00000000E+00  0.00000000E+00  0.00000000E+00
  0.00000000E+00  0.00000000E+00  0.00000000E+00
  0.00000000E+00  0.00000000E+00  0.00000000E+00
  0.00000000E+00  0.00000000E+00  0.00000000E+00
  0.00000000E+00  0.00000000E+00  0.00000000E+00
  0.00000000E+00  0.00000000E+00  0.00000000E+00
  0.00000000E+00  0.00000000E+00  0.00000000E+00
  0.00000000E+00  0.00000000E+00  0.00000000E+00
  0.00000000E+00  0.00000000E+00  0.00000000E+00
  0.00000000E+00  0.00000000E+00  0.00000000E+00
  0.00000000E+00  0.00000000E+00  0.00000000E+00
  0.00000000E+00  0.00000000E+00  0.00000000E+00
  0.00000000E+00  0.00000000E+00  0.00000000E+00
  0.00000000E+00  0.00000000E+00  0.00000000E+00
  0.00000000E+00  0.00000000E+00  0.00000000E+00
  0.00000000E+00  0.00000000E+00  0.00000000E+00
  0.00000000E+00  0.00000000E+00  0.00000000E+00
  0.00000000E+00  0.00000000E+00  0.00000000E+00
  0.00000000E+00  0.00000000E+00  0.00000000E+00
  0.00000000E+00  0.00000000E+00  0.00000000E+00
  0.00000000E+00  0.00000000E+00  0.00000000E+00
  0.00000000E+00  0.00000000E+00  0.00000000E+00
  0.00000000E+00  0.00000000E+00  0.00000000E+00
  0.00000000E+00  0.00000000E+00  0.00000000E+00
  0.00000000E+00  0.00000000E+00  0.00000000E+00
  0.00000000E+00  0.00000000E+00  0.00000000E+00
  0.00000000E+00  0.00000000E+00  0.00000000E+00
  0.00000000E+00  0.00000000E+00  0.00000000E+00
  0.00000000E+00  0.00000000E+00  0.00000000E+00
  0.00000000E+00  0.00000000E+00  0.00000000E+00
  0.00000000E+00  0.00000000E+00  0.00000000E+00
  0.00000000E+00  0.00000000E+00  0.00000000E+00
  0.00000000E+00  0.00000000E+00  0.00000000E+00
  0.00000000E+00  0.00000000E+00  0.00000000E+00
  0.00000000E+00  0.00000000E+00  0.00000000E+00
  0.00000000E+00  0.00000000E+00  0.00000000E+00
  0.00000000E+00  0.00000000E+00  0.00000000E+00
  0.00000000E+00  0.00000000E+00  0.00000000E+00
  0.00000000E+00  0.00000000E+00  0.00000000E+00
  0.00000000E+00  0.00000000E+00  0.00000000E+00
  0.00000000E+00  0.00000000E+00  0.00000000E+00
  0.00000000E+00  0.00000000E+00  0.00000000E+00
  0.00000000E+00  0.00000000E+00  0.00000000E+00
  0.00000000E+00  0.00000000E+00  0.00000000E+00
  0.00000000E+00  0.00000000E+00  0.00000000E+00
  0.00000000E+00  0.00000000E+00  0.00000000E+00
  0.00000000E+00  0.00000000E+00  0.00000000E+00
  0.00000000E+00  0.00000000E+00  0.00000000E+00
  0.00000000E+00  0.00000000E+00  0.00000000E+00
  0.00000000E+00  0.00000000E+00  0.00000000E+00
  0.00000000E+00  0.00000000E+00  0.00000000E+00
  0.00000000E+00  0.00000000E+00  0.00000000E+00
  0.00000000E+00  0.00000000E+00  0.00000000E+00
  0.00000000E+00  0.00000000E+00  0.00000000E+00
  0.00000000E+00  0.00000000E+00  0.00000000E+00
  0.00000000E+00  0.00000000E+00  0.00000000E+00
  0.00000000E+00  0.00000000E+00  0.00000000E+00
  0.00000000E+00  0.00000000E+00  0.00000000E+00
  0.00000000E+00  0.00000000E+00  0.00000000E+00
  0.00000000E+00  0.00000000E+00  0.00000000E+00
  0.00000000E+00  0.00000000E+00  0.00000000E+00
  0.00000000E+00  0.00000000E+00  0.00000000E+00
  0.00000000E+00  0.00000000E+00  0.00000000E+00
  0.00000000E+00  0.00000000E+00  0.00000000E+00
  0.00000000E+00  0.00000000E+00  0.00000000E+00
  0.00000000E+00  0.00000000E+00  0.00000000E+00
  0.00000000E+00  0.00000000E+00  0.00000000E+00
  0.00000000E+00  0.00000000E+00  0.00000000E+00
  0.00000000E+00  0.00000000E+00  0.00000000E+00
  0.00000000E+00  0.00000000E+00  0.00000000E+00
  0.00000000E+00  0.00000000E+00  0.00000000E+00
  0.00000000E+00  0.00000000E+00  0.00000000E+00
  0.00000000E+00  0.00000000E+00  0.00000000E+00
  0.00000000E+00  0.00000000E+00  0.00000000E+00
  0.00000000E+00  0.00000000E+00  0.00000000E+00
  0.00000000E+00  0.00000000E+00  0.00000000E+00
  0.00000000E+00  0.00000000E+00  0.00000000E+00
  0.00000000E+00  0.00000000E+00  0.00000000E+00
  0.00000000E+00  0.00000000E+00  0.00000000E+00
  0.00000000E+00  0.00000000E+00  0.00000000E+00
  0.00000000E+00  0.00000000E+00  0.00000000E+00
  0.00000000E+00  0.00000000E+00  0.00000000E+00
  0.00000000E+00  0.00000000E+00  0.00000000E+00
  0.00000000E+00  0.00000000E+00  0.00000000E+00
  0.00000000E+00  0.00000000E+00  0.00000000E+00
  0.00000000E+00  0.00000000E+00  0.00000000E+00
  0.00000000E+00  0.00000000E+00  0.00000000E+00
  0.00000000E+00  0.00000000E+00  0.00000000E+00
  0.00000000E+00  0.00000000E+00  0.00000000E+00
  0.00000000E+00  0.00000000E+00  0.00000000E+00
  0.00000000E+00  0.00000000E+00  0.00000000E+00
  0.00000000E+00  0.00000000E+00  0.00000000E+00
  0.00000000E+00  0.00000000E+00  0.00000000E+00
  0.00000000E+00  0.00000000E+00  0.00000000E+00
  0.00000000E+00  0.00000000E+00  0.00000000E+00
  0.00000000E+00  0.00000000E+00  0.00000000E+00
  0.00000000E+00  0.00000000E+00  0.00000000E+00
  0.00000000E+00  0.00000000E+00  0.00000000E+00
  0.00000000E+00  0.00000000E+00  0.00000000E+00
  0.00000000E+00  0.00000000E+00  0.00000000E+00
  0.00000000E+00  0.00000000E+00  0.00000000E+00
  0.00000000E+00  0.00000000E+00  0.00000000E+00
  0.00000000E+00  0.00000000E+00  0.00000000E+00
  0.00000000E+00  0.00000000E+00  0.00000000E+00
  0.00000000E+00  0.00000000E+00  0.00000000E+00
  0.00000000E+00  0.00000000E+00  0.00000000E+00
  0.00000000E+00  0.00000000E+00  0.00000000E+00
  0.00000000E+00  0.00000000E+00  0.00000000E+00
  0.00000000E+00  0.00000000E+00  0.00000000E+00
  0.00000000E+00  0.00000000E+00  0.00000000E+00
  0.00000000E+00  0.00000000E+00  0.00000000E+00
  0.00000000E+00  0.00000000E+00  0.00000000E+00
  0.00000000E+00  0.00000000E+00  0.00000000E+00
  0.00000000E+00  0.00000000E+00  0.00000000E+00
  0.00000000E+00  0.00000000E+00  0.00000000E+00
  0.00000000E+00  0.00000000E+00  0.00000000E+00
  0.00000000E+00  0.00000000E+00  0.00000000E+00
  0.00000000E+00  0.00000000E+00  0.00000000E+00
  0.00000000E+00  0.00000000E+00  0.00000000E+00
  0.00000000E+00  0.00000000E+00  0.00000000E+00
  0.00000000E+00  0.00000000E+00  0.00000000E+00
  0.00000000E+00  0.00000000E+00  0.00000000E+00
  0.00000000E+00  0.00000000E+00  0.00000000E+00
  0.00000000E+00  0.00000000E+00  0.00000000E+00
  0.00000000E+00  0.00000000E+00  0.00000000E+00
  0.00000000E+00  0.00000000E+00  0.00000000E+00
  0.00000000E+00  0.00000000E+00  0.00000000E+00
  0.00000000E+00  0.00000000E+00  0.00000000E+00
