Al   Gd   N                             
   1.00000000000000     
    -9.7168206938071897    0.0028450398316850    0.0070095279146100
    -4.8870164131749618    8.4593054538422781    0.0018554137837542
     0.1418400721062969   -0.0356745810619863  -10.2668868709941137
   Al   Gd   N 
    31     5    36
Direct
  0.1110736885631383  0.0931881817719074  0.3919665250337658
  0.2268124323275060  0.2002126639560089  0.1537122987892801
  0.7858475298791490  0.0834725928234050  0.8994067929069018
  0.8943078433883898  0.1970578412115742  0.6570418806258118
  0.4512252032771400  0.0906703847731123  0.3921398962476843
  0.5543262128487711  0.1984863893450779  0.1414498598324627
  0.1128988372716293  0.0942520799727333  0.9043793243945970
  0.8878281012542999  0.2068718504761975  0.1392348134419166
  0.4467967935287263  0.0826081721464078  0.9066679817319567
  0.5662441968644458  0.1841781072204540  0.6618375251916362
  0.1072033233502054  0.4296249251883140  0.3985295499373080
  0.2141120647267201  0.5479370553529961  0.0873427787446275
  0.7768258083246025  0.4294399795533295  0.8914873426842007
  0.8926901914563956  0.5393447044342210  0.6510203751912158
  0.4325775410345045  0.4331756872243204  0.3214643695163986
  0.5535985020896774  0.5459080282634972  0.1469887045734879
  0.1083035924281717  0.4217622458897736  0.9055821713550856
  0.2230337553088191  0.5391092299585054  0.5816863946961348
  0.7941792298696839  0.4232693729820198  0.4001365095958178
  0.1136198688972598  0.7602137896844638  0.3851059809359327
  0.2209725869883670  0.8762524341176032  0.1448825944162664
  0.7727233788968846  0.7696827799764421  0.8906002657749426
  0.8950845556167906  0.8668093384681086  0.6554901786029248
  0.4382202384195253  0.7772391631573257  0.3906889895496306
  0.5533568061811991  0.8781922842256193  0.1457761643414628
  0.1046552182796532  0.7721633128551915  0.8985555875734121
  0.2137937338849980  0.8761765582524106  0.6443929439927203
  0.7799861912310391  0.7571950812250634  0.4060097834650733
  0.8853753504160125  0.8760427595457756  0.1433837532745414
  0.4465204461100711  0.7668594362039727  0.8944894497437232
  0.5599092522909075  0.8730979896041475  0.6452494292321589
  0.2307092758686267  0.1993216482539140  0.6375655973415633
  0.7812687910713052  0.0960469404882218  0.3985547905092659
  0.8795154980594901  0.5463411639066820  0.1414042651660310
  0.4494020557200926  0.4234209033950194  0.8770692969938381
  0.5497551057539027  0.5398890473371338  0.6138702287320257
  0.2253309877456360  0.2021991386920803  0.3491864904866020
  0.1120542761074006  0.0947589929356809  0.0909805291283377
  0.8916251624146199  0.2039656221816841  0.8453100911648548
  0.7817174013989998  0.0907503507762328  0.6173563704330647
  0.5329802279007083  0.2134793724984902  0.3242815638156316
  0.4410296495660120  0.0919096112508129  0.0929518483430130
  0.2236428053740553  0.2030717901282628  0.8581699491545862
  0.0910207215491852  0.0797781810637446  0.5757298925120580
  0.9033673605466035  0.2229720867205316  0.3218517627391577
  0.7780064277237244  0.0950454451219400  0.0935383169651658
  0.5742483635056459  0.1620886522625895  0.8486431493143627
  0.4855512460855991  0.0733530537412435  0.5732450251502357
  0.2269947889820045  0.5376896330082914  0.3820188736873860
  0.1335518796010220  0.4094134615554665  0.0963599012500396
  0.8900562265155187  0.5382893176330370  0.8466548250519637
  0.8129993821361410  0.4048222573415288  0.5869322769490708
  0.5586105952783953  0.5425626667166270  0.3464657634009995
  0.4367224551894466  0.4366775330394219  0.1267709693528687
  0.1918890272324560  0.5555778655552928  0.8976473101162767
  0.0953482468531064  0.4509786047218327  0.5843593669311602
  0.8870301529497340  0.5427143193067892  0.3574297668990098
  0.7558875216672689  0.4156670927831527  0.0751099019585979
  0.5685392750190417  0.5609319884118591  0.8324867635251039
  0.4261135553721971  0.4033264803706373  0.6453823727237307
  0.2205025181518110  0.8740828606746334  0.3309994075904541
  0.1049073919586903  0.7744184561695562  0.0939297488089963
  0.8931117775102138  0.8690399245653353  0.8408885407981543
  0.7797726381450403  0.7583759332871267  0.5963707324650969
  0.5615036797334696  0.8698874786935704  0.3331802238611630
  0.4443401634719635  0.7640865131271610  0.0882301351355608
  0.2213981968254402  0.8751266236134541  0.8388696422420239
  0.1109643792859103  0.7632504301938283  0.5894308936110164
  0.8996864170488479  0.8431125840967226  0.3290080682822136
  0.7582033965682982  0.7963699428567566  0.0735995544198786
  0.5508290463624945  0.8746574716724993  0.8338799065491500
  0.4221037686675899  0.8031852369819887  0.5756754405216000
 
  0.00000000E+00  0.00000000E+00  0.00000000E+00
  0.00000000E+00  0.00000000E+00  0.00000000E+00
  0.00000000E+00  0.00000000E+00  0.00000000E+00
  0.00000000E+00  0.00000000E+00  0.00000000E+00
  0.00000000E+00  0.00000000E+00  0.00000000E+00
  0.00000000E+00  0.00000000E+00  0.00000000E+00
  0.00000000E+00  0.00000000E+00  0.00000000E+00
  0.00000000E+00  0.00000000E+00  0.00000000E+00
  0.00000000E+00  0.00000000E+00  0.00000000E+00
  0.00000000E+00  0.00000000E+00  0.00000000E+00
  0.00000000E+00  0.00000000E+00  0.00000000E+00
  0.00000000E+00  0.00000000E+00  0.00000000E+00
  0.00000000E+00  0.00000000E+00  0.00000000E+00
  0.00000000E+00  0.00000000E+00  0.00000000E+00
  0.00000000E+00  0.00000000E+00  0.00000000E+00
  0.00000000E+00  0.00000000E+00  0.00000000E+00
  0.00000000E+00  0.00000000E+00  0.00000000E+00
  0.00000000E+00  0.00000000E+00  0.00000000E+00
  0.00000000E+00  0.00000000E+00  0.00000000E+00
  0.00000000E+00  0.00000000E+00  0.00000000E+00
  0.00000000E+00  0.00000000E+00  0.00000000E+00
  0.00000000E+00  0.00000000E+00  0.00000000E+00
  0.00000000E+00  0.00000000E+00  0.00000000E+00
  0.00000000E+00  0.00000000E+00  0.00000000E+00
  0.00000000E+00  0.00000000E+00  0.00000000E+00
  0.00000000E+00  0.00000000E+00  0.00000000E+00
  0.00000000E+00  0.00000000E+00  0.00000000E+00
  0.00000000E+00  0.00000000E+00  0.00000000E+00
  0.00000000E+00  0.00000000E+00  0.00000000E+00
  0.00000000E+00  0.00000000E+00  0.00000000E+00
  0.00000000E+00  0.00000000E+00  0.00000000E+00
  0.00000000E+00  0.00000000E+00  0.00000000E+00
  0.00000000E+00  0.00000000E+00  0.00000000E+00
  0.00000000E+00  0.00000000E+00  0.00000000E+00
  0.00000000E+00  0.00000000E+00  0.00000000E+00
  0.00000000E+00  0.00000000E+00  0.00000000E+00
  0.00000000E+00  0.00000000E+00  0.00000000E+00
  0.00000000E+00  0.00000000E+00  0.00000000E+00
  0.00000000E+00  0.00000000E+00  0.00000000E+00
  0.00000000E+00  0.00000000E+00  0.00000000E+00
  0.00000000E+00  0.00000000E+00  0.00000000E+00
  0.00000000E+00  0.00000000E+00  0.00000000E+00
  0.00000000E+00  0.00000000E+00  0.00000000E+00
  0.00000000E+00  0.00000000E+00  0.00000000E+00
  0.00000000E+00  0.00000000E+00  0.00000000E+00
  0.00000000E+00  0.00000000E+00  0.00000000E+00
  0.00000000E+00  0.00000000E+00  0.00000000E+00
  0.00000000E+00  0.00000000E+00  0.00000000E+00
  0.00000000E+00  0.00000000E+00  0.00000000E+00
  0.00000000E+00  0.00000000E+00  0.00000000E+00
  0.00000000E+00  0.00000000E+00  0.00000000E+00
  0.00000000E+00  0.00000000E+00  0.00000000E+00
  0.00000000E+00  0.00000000E+00  0.00000000E+00
  0.00000000E+00  0.00000000E+00  0.00000000E+00
  0.00000000E+00  0.00000000E+00  0.00000000E+00
  0.00000000E+00  0.00000000E+00  0.00000000E+00
  0.00000000E+00  0.00000000E+00  0.00000000E+00
  0.00000000E+00  0.00000000E+00  0.00000000E+00
  0.00000000E+00  0.00000000E+00  0.00000000E+00
  0.00000000E+00  0.00000000E+00  0.00000000E+00
  0.00000000E+00  0.00000000E+00  0.00000000E+00
  0.00000000E+00  0.00000000E+00  0.00000000E+00
  0.00000000E+00  0.00000000E+00  0.00000000E+00
  0.00000000E+00  0.00000000E+00  0.00000000E+00
  0.00000000E+00  0.00000000E+00  0.00000000E+00
  0.00000000E+00  0.00000000E+00  0.00000000E+00
  0.00000000E+00  0.00000000E+00  0.00000000E+00
  0.00000000E+00  0.00000000E+00  0.00000000E+00
  0.00000000E+00  0.00000000E+00  0.00000000E+00
  0.00000000E+00  0.00000000E+00  0.00000000E+00
  0.00000000E+00  0.00000000E+00  0.00000000E+00
  0.00000000E+00  0.00000000E+00  0.00000000E+00
