supercell of 100% icsd_608626.cif, 0% i 
   1.00000000000000     
    -9.4893448821246764   -0.0015942660007282    0.0071789779523930
    -4.7433042845888655    8.2341881038551961   -0.0134982019171770
     0.0078542163350987    0.0210788900989734  -10.0013349906282336
   Al   Be   Zr   N 
    30     3     3    36
Direct
  0.1142008474526008  0.0956286672203106  0.2952617995644360
  0.2257002026482269  0.2061646244246660  0.0516160079072847
  0.7790029497988726  0.0945527413614116  0.8051265058820576
  0.8931717030429311  0.2045793243636069  0.5431067860209993
  0.1052921727868323  0.1019155059001093  0.7965038046580020
  0.2134760455258586  0.2114538439975107  0.5406345751191921
  0.7717307831399367  0.0961539372183537  0.2865442427114289
  0.8865228489817198  0.2052830057251569  0.0476267781798541
  0.4417537123728508  0.1040796354673077  0.8123999936586941
  0.1194077300478256  0.4233319072016428  0.2954854022970892
  0.2277933026570835  0.5333259600290461  0.0524053972266643
  0.7830379896164033  0.4216609085651939  0.7956917354122268
  0.8945129705714479  0.5339913780989249  0.5443572671236154
  0.5599268052824939  0.5209333700321608  0.0574419783461835
  0.1123305110950099  0.4276657346252435  0.7982328894856536
  0.2178213515374097  0.5452111969917368  0.5410977328956648
  0.7780648237253374  0.4253167733184071  0.2963089452063983
  0.8909544436258869  0.5356841815558866  0.0463271633880922
  0.4423942163198618  0.4256001671772793  0.8061891443056055
  0.5530114351673774  0.5395855468468795  0.5351695409908004
  0.1141390279423717  0.7552047789897287  0.2952010137740828
  0.2104047651767189  0.8778195659388430  0.0522146058914075
  0.7864200562835038  0.7597870535013840  0.8016190760648882
  0.8969103128109523  0.8701080593246431  0.5429167545363640
  0.4429996968498244  0.7531052420150743  0.2827065504993556
  0.5581104212695891  0.8832009276110071  0.0626927722860913
  0.1053422790008369  0.7604936116096610  0.7965779460630529
  0.2141567591925906  0.8747553375325197  0.5411168449063979
  0.7863848715285044  0.7543287097132065  0.2883763497894734
  0.8875398768601030  0.8752037268215531  0.0467161397755333
  0.4375271989016483  0.1144317298527540  0.2762135058858632
  0.5509290382345569  0.2091546358240706  0.0584345899411645
  0.4411282736317617  0.4224826781618987  0.2830862198332298
  0.5509931905031493  0.2166223309645758  0.5466268180433573
  0.4444327823750669  0.7595323472040647  0.8194384287331928
  0.5539129240625655  0.8748855074264199  0.5314630423936819
  0.2304223868295168  0.2012021884823696  0.3518355091937906
  0.1098559272579536  0.0964831387198686  0.1055463813227888
  0.8899335568610027  0.2064240880842547  0.8552435923518047
  0.7962130700332395  0.0851956054056089  0.6096195186828410
  0.5498476845083289  0.2045393067872467  0.3418266654650850
  0.4453893219160605  0.1038986612239938  0.1028252933099409
  0.2188376210492748  0.2071028066606360  0.8581734518254081
  0.1118187548802752  0.0946104858980661  0.6035241761548065
  0.8894232185699877  0.2025552540373852  0.3534735366961996
  0.7728080270114788  0.0965591144653217  0.0978481771405484
  0.5574951653076710  0.2073433353359064  0.8467256197547357
  0.4240040385475012  0.1035692895719649  0.6181413175931283
  0.2286044732843493  0.5349716142907681  0.3524057379429948
  0.1100659570887075  0.4278839331892641  0.1046518561983376
  0.8887194981508202  0.5375434418272107  0.8532230621490200
  0.7753137444366871  0.4286628396424064  0.6021828061084520
  0.5539433438359893  0.5347747827477676  0.3466029065971910
  0.4462796749865561  0.4176638485484787  0.1078019645621566
  0.2202479997301481  0.5411100955298238  0.8577066076586846
  0.1125518787640019  0.4284325083323992  0.6052655883059472
  0.8926516420041679  0.5353729063490604  0.3544140053612566
  0.7814994086866491  0.4254778133161352  0.1063098298514404
  0.5698800346430843  0.5152080985264931  0.8642887432899613
  0.4307649475868160  0.4549462135265117  0.6137751679890187
  0.2237859136095963  0.8707165442442175  0.3504429662536452
  0.1099337410975423  0.7593054545983620  0.1056418062827333
  0.8903657407494450  0.8720864388393679  0.8558219453054292
  0.7931325254136325  0.7540977628098489  0.6080250718527580
  0.5575248133678983  0.8658346921416467  0.3254584944329224
  0.4425929574117831  0.7590702966921867  0.0865479133844715
  0.1973192092983140  0.8852529355336785  0.8599862660568860
  0.1112076572050924  0.7619836404817448  0.6045715521598680
  0.8886027687943994  0.8716164383719587  0.3527928464887893
  0.7840671616428878  0.7567793940015903  0.1003832416348800
  0.5681718620206908  0.8823074341458010  0.8610586132634381
  0.4352859533987470  0.7561829450284705  0.6029294185814749
 
  0.00000000E+00  0.00000000E+00  0.00000000E+00
  0.00000000E+00  0.00000000E+00  0.00000000E+00
  0.00000000E+00  0.00000000E+00  0.00000000E+00
  0.00000000E+00  0.00000000E+00  0.00000000E+00
  0.00000000E+00  0.00000000E+00  0.00000000E+00
  0.00000000E+00  0.00000000E+00  0.00000000E+00
  0.00000000E+00  0.00000000E+00  0.00000000E+00
  0.00000000E+00  0.00000000E+00  0.00000000E+00
  0.00000000E+00  0.00000000E+00  0.00000000E+00
  0.00000000E+00  0.00000000E+00  0.00000000E+00
  0.00000000E+00  0.00000000E+00  0.00000000E+00
  0.00000000E+00  0.00000000E+00  0.00000000E+00
  0.00000000E+00  0.00000000E+00  0.00000000E+00
  0.00000000E+00  0.00000000E+00  0.00000000E+00
  0.00000000E+00  0.00000000E+00  0.00000000E+00
  0.00000000E+00  0.00000000E+00  0.00000000E+00
  0.00000000E+00  0.00000000E+00  0.00000000E+00
  0.00000000E+00  0.00000000E+00  0.00000000E+00
  0.00000000E+00  0.00000000E+00  0.00000000E+00
  0.00000000E+00  0.00000000E+00  0.00000000E+00
  0.00000000E+00  0.00000000E+00  0.00000000E+00
  0.00000000E+00  0.00000000E+00  0.00000000E+00
  0.00000000E+00  0.00000000E+00  0.00000000E+00
  0.00000000E+00  0.00000000E+00  0.00000000E+00
  0.00000000E+00  0.00000000E+00  0.00000000E+00
  0.00000000E+00  0.00000000E+00  0.00000000E+00
  0.00000000E+00  0.00000000E+00  0.00000000E+00
  0.00000000E+00  0.00000000E+00  0.00000000E+00
  0.00000000E+00  0.00000000E+00  0.00000000E+00
  0.00000000E+00  0.00000000E+00  0.00000000E+00
  0.00000000E+00  0.00000000E+00  0.00000000E+00
  0.00000000E+00  0.00000000E+00  0.00000000E+00
  0.00000000E+00  0.00000000E+00  0.00000000E+00
  0.00000000E+00  0.00000000E+00  0.00000000E+00
  0.00000000E+00  0.00000000E+00  0.00000000E+00
  0.00000000E+00  0.00000000E+00  0.00000000E+00
  0.00000000E+00  0.00000000E+00  0.00000000E+00
  0.00000000E+00  0.00000000E+00  0.00000000E+00
  0.00000000E+00  0.00000000E+00  0.00000000E+00
  0.00000000E+00  0.00000000E+00  0.00000000E+00
  0.00000000E+00  0.00000000E+00  0.00000000E+00
  0.00000000E+00  0.00000000E+00  0.00000000E+00
  0.00000000E+00  0.00000000E+00  0.00000000E+00
  0.00000000E+00  0.00000000E+00  0.00000000E+00
  0.00000000E+00  0.00000000E+00  0.00000000E+00
  0.00000000E+00  0.00000000E+00  0.00000000E+00
  0.00000000E+00  0.00000000E+00  0.00000000E+00
  0.00000000E+00  0.00000000E+00  0.00000000E+00
  0.00000000E+00  0.00000000E+00  0.00000000E+00
  0.00000000E+00  0.00000000E+00  0.00000000E+00
  0.00000000E+00  0.00000000E+00  0.00000000E+00
  0.00000000E+00  0.00000000E+00  0.00000000E+00
  0.00000000E+00  0.00000000E+00  0.00000000E+00
  0.00000000E+00  0.00000000E+00  0.00000000E+00
  0.00000000E+00  0.00000000E+00  0.00000000E+00
  0.00000000E+00  0.00000000E+00  0.00000000E+00
  0.00000000E+00  0.00000000E+00  0.00000000E+00
  0.00000000E+00  0.00000000E+00  0.00000000E+00
  0.00000000E+00  0.00000000E+00  0.00000000E+00
  0.00000000E+00  0.00000000E+00  0.00000000E+00
  0.00000000E+00  0.00000000E+00  0.00000000E+00
  0.00000000E+00  0.00000000E+00  0.00000000E+00
  0.00000000E+00  0.00000000E+00  0.00000000E+00
  0.00000000E+00  0.00000000E+00  0.00000000E+00
  0.00000000E+00  0.00000000E+00  0.00000000E+00
  0.00000000E+00  0.00000000E+00  0.00000000E+00
  0.00000000E+00  0.00000000E+00  0.00000000E+00
  0.00000000E+00  0.00000000E+00  0.00000000E+00
  0.00000000E+00  0.00000000E+00  0.00000000E+00
  0.00000000E+00  0.00000000E+00  0.00000000E+00
  0.00000000E+00  0.00000000E+00  0.00000000E+00
  0.00000000E+00  0.00000000E+00  0.00000000E+00
