supercell of 100% icsd_608626.cif, 0% i 
   1.00000000000000     
    -9.4697172731996382    0.0071634986897839   -0.0111533848236371
    -4.7410696881609455    8.2097743648370951   -0.0042965480709164
    -0.0119371978675979   -0.0015431162399885  -10.0447984640222181
   Al   Zr   Be   N 
    30     3     3    36
Direct
  0.1112425575752809  0.0952229927633965  0.2914982176671330
  0.2157855208371018  0.2057751959177168  0.0417457319672820
  0.7849426879480461  0.0951453031741636  0.7847754181307778
  0.8831379613779617  0.2111444105791449  0.5436187553076124
  0.4396748571814513  0.0935700758498612  0.3012324941415088
  0.1087260629274667  0.1036149852438157  0.8006256924737869
  0.2171740618164435  0.2154875168143207  0.5469964317168916
  0.7851381803328010  0.0887902374656520  0.3069241205753102
  0.8973778030175481  0.2015373344132243  0.0464443703582660
  0.4333370646618633  0.1007655585558211  0.7890663620948644
  0.5583009790817925  0.2033678507000474  0.5445186082333251
  0.1118305193990636  0.4274418729772691  0.2957701577459346
  0.2162877816389255  0.5457680360880346  0.0428341134234955
  0.7807335109535103  0.4228762240616533  0.7957902132647021
  0.8936405372638205  0.5355069839172302  0.5424381774349598
  0.4403068773338461  0.4338143758877706  0.3025745013219563
  0.5519350365721678  0.5466049024526498  0.0457274443462836
  0.2137267114505974  0.5367086161045620  0.5489566056136752
  0.7779636220928197  0.4273784922219619  0.2942246387676803
  0.8940186797399292  0.5323477515641528  0.0472419247449025
  0.4375434282076824  0.4330191027958037  0.7899559517709420
  0.5617274434343074  0.5351242676442070  0.5445851894883802
  0.1103281088000330  0.7598914478165355  0.2953117090569961
  0.4436066421779472  0.7604550595528110  0.2917124623808789
  0.5481778788959986  0.8696579264302784  0.0503108545477318
  0.1137446650882126  0.7561514401478959  0.7993862824884275
  0.7809677626664921  0.7603982923126864  0.2969567110461000
  0.9014042112736718  0.8699269812542525  0.0535824019101199
  0.4450278346123966  0.7591333520853780  0.7998037859791722
  0.5615045795635183  0.8714318263302800  0.5380767730994265
  0.5571048402367751  0.2052061668969429  0.0501493414833973
  0.7865872891819023  0.7575223562675930  0.7950072414945311
  0.2159349467250280  0.8725854995985429  0.5664604847598014
  0.1166484654069748  0.4200975048944144  0.7928750226581585
  0.2221317556065756  0.8715887468324013  0.0729321504824156
  0.8879452948125888  0.8666478475204187  0.5353008221866986
  0.2194461470445859  0.2066897724093977  0.3560804553786099
  0.1165320429638257  0.0858519357207612  0.1011284958260106
  0.8866190846665702  0.2057667064246260  0.8564262305124117
  0.7822341732425144  0.0886065193454328  0.5960845004824762
  0.5547836315501087  0.2057917175505253  0.3486538445315546
  0.4332886498688637  0.0875797900299347  0.1110922569765336
  0.2194332192035446  0.2140353889962938  0.8532024877062980
  0.0964686435558164  0.1207091257281192  0.6088458630459286
  0.8902098536041692  0.2071208144907501  0.3542852935742999
  0.7966702861731960  0.0866802287737301  0.1154267066644081
  0.5570694886387244  0.2043038086183273  0.8390433394488710
  0.4432837295939507  0.0932449424184441  0.5986789567301756
  0.2200443400661101  0.5391511847768911  0.3573503804116314
  0.1140106991843837  0.4264436687116628  0.1066831287763321
  0.9036530024822085  0.5171658153971066  0.8578187884496842
  0.7779191495992066  0.4286632431161905  0.6047459183442783
  0.5562796941997519  0.5398951263057938  0.3545091480587104
  0.4347109158617002  0.4463053229441698  0.1111166093282066
  0.2196440739210672  0.5347947602923355  0.8536749098999437
  0.1087372178632364  0.4280450207242410  0.6107200897141709
  0.8893605056255467  0.5369732179637268  0.3510749825359980
  0.7764882086729088  0.4265930371387938  0.1039112356134808
  0.5560514396795000  0.5366719512537443  0.8549692940627764
  0.4424809993330996  0.4304272062317906  0.5996195177670742
  0.2220258657920482  0.8727236600770141  0.3509091473842858
  0.1194621711668731  0.7630151260053282  0.1049383247146451
  0.8975961943550246  0.8855200651219022  0.8649262677729794
  0.7814078819130401  0.7631318014499797  0.5872614227884370
  0.5553911503064626  0.8706734101528966  0.3493407890904052
  0.4347832075972491  0.7645812025454077  0.1023044710777299
  0.2209678098390242  0.8745474269286220  0.8182285838794030
  0.0877047065278305  0.7534687748262527  0.6085252196266211
  0.8913794456490010  0.8687555628487971  0.3565168369965548
  0.7784201473288519  0.7614988725226013  0.0989488682773754
  0.5403098440617526  0.8827825468281745  0.8595144023737120
  0.4694662189757111  0.7500847101974202  0.6080320680143529
 
  0.00000000E+00  0.00000000E+00  0.00000000E+00
  0.00000000E+00  0.00000000E+00  0.00000000E+00
  0.00000000E+00  0.00000000E+00  0.00000000E+00
  0.00000000E+00  0.00000000E+00  0.00000000E+00
  0.00000000E+00  0.00000000E+00  0.00000000E+00
  0.00000000E+00  0.00000000E+00  0.00000000E+00
  0.00000000E+00  0.00000000E+00  0.00000000E+00
  0.00000000E+00  0.00000000E+00  0.00000000E+00
  0.00000000E+00  0.00000000E+00  0.00000000E+00
  0.00000000E+00  0.00000000E+00  0.00000000E+00
  0.00000000E+00  0.00000000E+00  0.00000000E+00
  0.00000000E+00  0.00000000E+00  0.00000000E+00
  0.00000000E+00  0.00000000E+00  0.00000000E+00
  0.00000000E+00  0.00000000E+00  0.00000000E+00
  0.00000000E+00  0.00000000E+00  0.00000000E+00
  0.00000000E+00  0.00000000E+00  0.00000000E+00
  0.00000000E+00  0.00000000E+00  0.00000000E+00
  0.00000000E+00  0.00000000E+00  0.00000000E+00
  0.00000000E+00  0.00000000E+00  0.00000000E+00
  0.00000000E+00  0.00000000E+00  0.00000000E+00
  0.00000000E+00  0.00000000E+00  0.00000000E+00
  0.00000000E+00  0.00000000E+00  0.00000000E+00
  0.00000000E+00  0.00000000E+00  0.00000000E+00
  0.00000000E+00  0.00000000E+00  0.00000000E+00
  0.00000000E+00  0.00000000E+00  0.00000000E+00
  0.00000000E+00  0.00000000E+00  0.00000000E+00
  0.00000000E+00  0.00000000E+00  0.00000000E+00
  0.00000000E+00  0.00000000E+00  0.00000000E+00
  0.00000000E+00  0.00000000E+00  0.00000000E+00
  0.00000000E+00  0.00000000E+00  0.00000000E+00
  0.00000000E+00  0.00000000E+00  0.00000000E+00
  0.00000000E+00  0.00000000E+00  0.00000000E+00
  0.00000000E+00  0.00000000E+00  0.00000000E+00
  0.00000000E+00  0.00000000E+00  0.00000000E+00
  0.00000000E+00  0.00000000E+00  0.00000000E+00
  0.00000000E+00  0.00000000E+00  0.00000000E+00
  0.00000000E+00  0.00000000E+00  0.00000000E+00
  0.00000000E+00  0.00000000E+00  0.00000000E+00
  0.00000000E+00  0.00000000E+00  0.00000000E+00
  0.00000000E+00  0.00000000E+00  0.00000000E+00
  0.00000000E+00  0.00000000E+00  0.00000000E+00
  0.00000000E+00  0.00000000E+00  0.00000000E+00
  0.00000000E+00  0.00000000E+00  0.00000000E+00
  0.00000000E+00  0.00000000E+00  0.00000000E+00
  0.00000000E+00  0.00000000E+00  0.00000000E+00
  0.00000000E+00  0.00000000E+00  0.00000000E+00
  0.00000000E+00  0.00000000E+00  0.00000000E+00
  0.00000000E+00  0.00000000E+00  0.00000000E+00
  0.00000000E+00  0.00000000E+00  0.00000000E+00
  0.00000000E+00  0.00000000E+00  0.00000000E+00
  0.00000000E+00  0.00000000E+00  0.00000000E+00
  0.00000000E+00  0.00000000E+00  0.00000000E+00
  0.00000000E+00  0.00000000E+00  0.00000000E+00
  0.00000000E+00  0.00000000E+00  0.00000000E+00
  0.00000000E+00  0.00000000E+00  0.00000000E+00
  0.00000000E+00  0.00000000E+00  0.00000000E+00
  0.00000000E+00  0.00000000E+00  0.00000000E+00
  0.00000000E+00  0.00000000E+00  0.00000000E+00
  0.00000000E+00  0.00000000E+00  0.00000000E+00
  0.00000000E+00  0.00000000E+00  0.00000000E+00
  0.00000000E+00  0.00000000E+00  0.00000000E+00
  0.00000000E+00  0.00000000E+00  0.00000000E+00
  0.00000000E+00  0.00000000E+00  0.00000000E+00
  0.00000000E+00  0.00000000E+00  0.00000000E+00
  0.00000000E+00  0.00000000E+00  0.00000000E+00
  0.00000000E+00  0.00000000E+00  0.00000000E+00
  0.00000000E+00  0.00000000E+00  0.00000000E+00
  0.00000000E+00  0.00000000E+00  0.00000000E+00
  0.00000000E+00  0.00000000E+00  0.00000000E+00
  0.00000000E+00  0.00000000E+00  0.00000000E+00
  0.00000000E+00  0.00000000E+00  0.00000000E+00
  0.00000000E+00  0.00000000E+00  0.00000000E+00
