supercell of 100% icsd_608626.cif, 0% i 
   1.00000000000000     
    -9.2261873438954893   -0.0047222134925684   -0.0141907178346459
    -4.6090030536936810    7.9866016272875253   -0.0070274734652902
    -0.0152391588618783   -0.0000722122326580   -9.8467389940423686
   Al   Si   Be   N 
    26     5     5    36
Direct
  0.1106901246283911  0.0866223492194464  0.3032994700800415
  0.2186391993163639  0.2064753561603467  0.0447334924464826
  0.7846234424943859  0.0916788636984549  0.7924254685400882
  0.8899747414312529  0.2100081277338930  0.5423610092457309
  0.4442599887598391  0.0943858912959001  0.2992958812671844
  0.1123589562298761  0.0908060174350354  0.7865664701205759
  0.2163282585686659  0.2112795373643266  0.5446780305691235
  0.8912689660879352  0.2104579858603302  0.0487553949491755
  0.4417018159433823  0.0927546184939132  0.7923226122089702
  0.5564315781628437  0.2063661221095927  0.5491361494238092
  0.1031659347095513  0.4373209965438747  0.3141669411990264
  0.7803987371533552  0.4265191846605418  0.7911357454747261
  0.4361776453428163  0.4367889877512354  0.3069479203612246
  0.5588190132141975  0.5403891673962278  0.0519462079617696
  0.1107286900405100  0.4284728833630709  0.7829925199171157
  0.5593297176040721  0.5404598431738705  0.5433831185636606
  0.2236882122621608  0.8691838474652940  0.0486681529442450
  0.7804006658053808  0.7601660670684609  0.7863753364819743
  0.9002643615488779  0.8642478924473025  0.5406726229058947
  0.4390709686872611  0.7590213945123807  0.3038401452152613
  0.5582314589715480  0.8675296119466154  0.0449828933360195
  0.1141526342483274  0.7633151144462360  0.7855750640782304
  0.7810811050317170  0.7524577593104738  0.3044103037363186
  0.8947438753010317  0.8653389539451339  0.0498475307899113
  0.4394265576190080  0.7633811424811867  0.7869626685104336
  0.5566132496524645  0.8677189394193547  0.5440765815459727
  0.5512615466719879  0.2085816352063929  0.0462052564751971
  0.7774422414525048  0.0967538728102895  0.2998756802509277
  0.2196398304710883  0.5407973834853550  0.0466690361316395
  0.8883361139739279  0.5402962538109790  0.0466232272179568
  0.4459159917134983  0.4303346219459385  0.7931924869378193
  0.8894514199502694  0.5375879580496701  0.5395815279031524
  0.2000128685056097  0.5543616262908913  0.5388513771608672
  0.7762917297095910  0.4338729910776138  0.3025756397595103
  0.1210736709593903  0.7568830361663217  0.3073284641791005
  0.2209452129626186  0.8634205604527949  0.5368872276267140
  0.2216574147788819  0.2065509854152907  0.3496884511873333
  0.1114788215381495  0.0929840046747472  0.1073100955071311
  0.8894464087921676  0.2052558059011815  0.8578978943827735
  0.7797449006398409  0.0926310443802620  0.6037810102214110
  0.5643122188334502  0.2030078228237429  0.3531248870542001
  0.4506713493430752  0.1006465878365930  0.1002402977419479
  0.2206724960377926  0.2074853934574605  0.8538638010801165
  0.1134998462460786  0.0880810288458775  0.5968558890655729
  0.8770025059364457  0.2073407475026698  0.3456890461084470
  0.7619337406143174  0.1044669656104489  0.1099250024721528
  0.5517229139180984  0.2162575262877553  0.8640845523961431
  0.4446219378112914  0.0953292090727089  0.6033988155234837
  0.2160831449553129  0.5486364051626893  0.3594806595178923
  0.1057690146100825  0.4397396073536939  0.0993919617884558
  0.8907279789752209  0.5397965098026631  0.8658001346659105
  0.7824747639429575  0.4319848388343388  0.6044140096889450
  0.5644887812788042  0.5313656674889273  0.3498365098981537
  0.4367143556264566  0.4214479415265586  0.1026714430316389
  0.2358785529054401  0.5310454925409687  0.8629936561073777
  0.1061785659703034  0.4379474258705756  0.5966528057082527
  0.8816159210314325  0.5326916451314645  0.3580268395133643
  0.7856475987788158  0.4350297433998733  0.1038170738854021
  0.5502048672931892  0.5331540350335331  0.8566355138531634
  0.4482266303530125  0.4252123492510833  0.6185394552262480
  0.2167912013215556  0.8653457547137933  0.3550386055936130
  0.1203211608205947  0.7453399177436353  0.1034713495364059
  0.8901810276775919  0.8714104196478161  0.8583340110853044
  0.7824304567824285  0.7554626702574723  0.5975711133146575
  0.5543274468481201  0.8733965474505183  0.3505462413071569
  0.4452968834852626  0.7609476148413989  0.1067060346288002
  0.2223814868862561  0.8720528661452747  0.8573956470395103
  0.1196914221095611  0.7551077896510350  0.5999092276667497
  0.8855254236177146  0.8837872810259597  0.3426930370398367
  0.7843807645746210  0.7492243649733510  0.1040203829954294
  0.5574378714567843  0.8703091978026549  0.8539140255699493
  0.4375195990232470  0.7634901979433266  0.5989328630811102
 
  0.00000000E+00  0.00000000E+00  0.00000000E+00
  0.00000000E+00  0.00000000E+00  0.00000000E+00
  0.00000000E+00  0.00000000E+00  0.00000000E+00
  0.00000000E+00  0.00000000E+00  0.00000000E+00
  0.00000000E+00  0.00000000E+00  0.00000000E+00
  0.00000000E+00  0.00000000E+00  0.00000000E+00
  0.00000000E+00  0.00000000E+00  0.00000000E+00
  0.00000000E+00  0.00000000E+00  0.00000000E+00
  0.00000000E+00  0.00000000E+00  0.00000000E+00
  0.00000000E+00  0.00000000E+00  0.00000000E+00
  0.00000000E+00  0.00000000E+00  0.00000000E+00
  0.00000000E+00  0.00000000E+00  0.00000000E+00
  0.00000000E+00  0.00000000E+00  0.00000000E+00
  0.00000000E+00  0.00000000E+00  0.00000000E+00
  0.00000000E+00  0.00000000E+00  0.00000000E+00
  0.00000000E+00  0.00000000E+00  0.00000000E+00
  0.00000000E+00  0.00000000E+00  0.00000000E+00
  0.00000000E+00  0.00000000E+00  0.00000000E+00
  0.00000000E+00  0.00000000E+00  0.00000000E+00
  0.00000000E+00  0.00000000E+00  0.00000000E+00
  0.00000000E+00  0.00000000E+00  0.00000000E+00
  0.00000000E+00  0.00000000E+00  0.00000000E+00
  0.00000000E+00  0.00000000E+00  0.00000000E+00
  0.00000000E+00  0.00000000E+00  0.00000000E+00
  0.00000000E+00  0.00000000E+00  0.00000000E+00
  0.00000000E+00  0.00000000E+00  0.00000000E+00
  0.00000000E+00  0.00000000E+00  0.00000000E+00
  0.00000000E+00  0.00000000E+00  0.00000000E+00
  0.00000000E+00  0.00000000E+00  0.00000000E+00
  0.00000000E+00  0.00000000E+00  0.00000000E+00
  0.00000000E+00  0.00000000E+00  0.00000000E+00
  0.00000000E+00  0.00000000E+00  0.00000000E+00
  0.00000000E+00  0.00000000E+00  0.00000000E+00
  0.00000000E+00  0.00000000E+00  0.00000000E+00
  0.00000000E+00  0.00000000E+00  0.00000000E+00
  0.00000000E+00  0.00000000E+00  0.00000000E+00
  0.00000000E+00  0.00000000E+00  0.00000000E+00
  0.00000000E+00  0.00000000E+00  0.00000000E+00
  0.00000000E+00  0.00000000E+00  0.00000000E+00
  0.00000000E+00  0.00000000E+00  0.00000000E+00
  0.00000000E+00  0.00000000E+00  0.00000000E+00
  0.00000000E+00  0.00000000E+00  0.00000000E+00
  0.00000000E+00  0.00000000E+00  0.00000000E+00
  0.00000000E+00  0.00000000E+00  0.00000000E+00
  0.00000000E+00  0.00000000E+00  0.00000000E+00
  0.00000000E+00  0.00000000E+00  0.00000000E+00
  0.00000000E+00  0.00000000E+00  0.00000000E+00
  0.00000000E+00  0.00000000E+00  0.00000000E+00
  0.00000000E+00  0.00000000E+00  0.00000000E+00
  0.00000000E+00  0.00000000E+00  0.00000000E+00
  0.00000000E+00  0.00000000E+00  0.00000000E+00
  0.00000000E+00  0.00000000E+00  0.00000000E+00
  0.00000000E+00  0.00000000E+00  0.00000000E+00
  0.00000000E+00  0.00000000E+00  0.00000000E+00
  0.00000000E+00  0.00000000E+00  0.00000000E+00
  0.00000000E+00  0.00000000E+00  0.00000000E+00
  0.00000000E+00  0.00000000E+00  0.00000000E+00
  0.00000000E+00  0.00000000E+00  0.00000000E+00
  0.00000000E+00  0.00000000E+00  0.00000000E+00
  0.00000000E+00  0.00000000E+00  0.00000000E+00
  0.00000000E+00  0.00000000E+00  0.00000000E+00
  0.00000000E+00  0.00000000E+00  0.00000000E+00
  0.00000000E+00  0.00000000E+00  0.00000000E+00
  0.00000000E+00  0.00000000E+00  0.00000000E+00
  0.00000000E+00  0.00000000E+00  0.00000000E+00
  0.00000000E+00  0.00000000E+00  0.00000000E+00
  0.00000000E+00  0.00000000E+00  0.00000000E+00
  0.00000000E+00  0.00000000E+00  0.00000000E+00
  0.00000000E+00  0.00000000E+00  0.00000000E+00
  0.00000000E+00  0.00000000E+00  0.00000000E+00
  0.00000000E+00  0.00000000E+00  0.00000000E+00
  0.00000000E+00  0.00000000E+00  0.00000000E+00
