supercell of 100% icsd_608626.cif, 0% i 
   1.00000000000000     
    -9.2369972161613010   -0.0048666204086755   -0.0009498282090542
    -4.6142915459591629    7.9823083890348894   -0.0068114094385010
    -0.0010371334013993    0.0078526361761957   -9.8373898576592076
   Be   Al   Si   N 
     5    26     5    36
Direct
  0.1223961961502980  0.0822901446518074  0.2820666108515937
  0.5514826016320740  0.5493644886384175  0.0415018000477616
  0.2309676126106481  0.8710433988422679  0.0431066317942523
  0.7694908293670863  0.7684558730941689  0.7936022441732149
  0.5483765453797176  0.8671759376915347  0.0389916385945526
  0.2222341684831122  0.1985845047693928  0.0514647833926816
  0.8918520577025930  0.2063650782426407  0.5429229310471015
  0.4405501422935387  0.0889782911552359  0.2889754711363963
  0.5532417465619872  0.2062669301318749  0.0493408128771549
  0.1125981603082806  0.0890745755252311  0.8010100945979133
  0.2205490441161189  0.2039013757723254  0.5422164963370264
  0.8939972155226812  0.2028680440596986  0.0533577231077444
  0.4525119247451244  0.0848684871610814  0.8032903479251416
  0.1111001069368527  0.4262129446229181  0.2912310165737821
  0.2238394640328636  0.5412181179784596  0.0474195484184463
  0.7746479627725904  0.4312371513069593  0.8003630439231202
  0.8846863882443401  0.5445456722034976  0.5520054430166965
  0.4441650132392638  0.4346377697822064  0.2894556299845092
  0.2215073128397904  0.5405221226862622  0.5451662292893715
  0.7729179761918346  0.4294671439627891  0.2878600343462097
  0.8828348844179743  0.5425062199029327  0.0440839775713258
  0.4485667161310616  0.4275066208985692  0.8010215181341351
  0.5559713195944624  0.5428894590183333  0.5459625627829965
  0.1161561670690432  0.7672340586038118  0.2863831908593966
  0.8880618626848360  0.8678856657599638  0.5515876037416021
  0.4406367795342234  0.7637347977384792  0.2764904051363430
  0.1097744375229155  0.7662879906862798  0.8005769609047206
  0.2246593360673401  0.8739482483757826  0.5416768375578371
  0.8874959557994231  0.8705357815989672  0.0455702632642812
  0.4481065869602929  0.7617672137110105  0.8136130817440304
  0.5596592498366419  0.8670857496819124  0.5511905259231753
  0.7768033322693952  0.0922338123010036  0.7985235839901392
  0.7797959111527319  0.0944181635707508  0.2960277137220544
  0.5550073510901967  0.2052572349398432  0.5466861867018835
  0.1084405323203157  0.4293896150723171  0.7960226634302003
  0.7726588313291529  0.7632594523994882  0.2902094136330788
  0.2183928944193170  0.2032534424179886  0.3524218191482689
  0.1151386204201330  0.0847458971008876  0.1054183358551271
  0.8812307059220998  0.1975265017068040  0.8531945976858921
  0.7661289465899443  0.1004455704358662  0.6118021403742517
  0.5674766519384562  0.1984175225889686  0.3631985625271597
  0.4486849395209660  0.0877273655288136  0.1001636369187011
  0.2181446777851264  0.2167419852796044  0.8507585873796657
  0.1099219646725444  0.0953926984381823  0.6081258620608381
  0.8830889312638135  0.1978804057747610  0.3514577094116333
  0.7750753057299065  0.0938538543911349  0.1182327334890303
  0.5684699607221901  0.1989488852505374  0.8539425727118442
  0.4504681242627839  0.1009040468898021  0.6022112799772898
  0.2208563677303701  0.5406159860027273  0.3544112325465463
  0.1094978035946852  0.4285015848100144  0.1019688557234133
  0.8993081616051981  0.5380590358398720  0.8495044572627677
  0.7792430658867104  0.4260902888721176  0.6052069962081390
  0.5541026088700391  0.5425045185025894  0.3553839602259643
  0.4477811933589848  0.4291882083054404  0.1006641112025761
  0.2177109405420055  0.5319091183289117  0.8488733521670682
  0.1115893929195408  0.4273017572010716  0.6131807749139497
  0.8826445774362242  0.5527348246639505  0.3545277797122637
  0.7721336177731928  0.4299791675261204  0.0985578896198831
  0.5565777660780640  0.5359044057709710  0.8578553023055662
  0.4510854042191497  0.4144240387300826  0.6021715049189709
  0.2212492903189371  0.8804592282483341  0.3513318057303465
  0.1106729522848653  0.7650311733840169  0.0973701938477802
  0.8781814688707286  0.8835038398566795  0.8503613045831031
  0.7777371362507139  0.7625154284311790  0.6132283120854183
  0.5672040074779545  0.8658258134898347  0.3545656981738858
  0.4462542069030064  0.7603936401564440  0.0894420255603805
  0.2222794824378127  0.8719211467286172  0.8601914391673375
  0.1108118124346120  0.7628162945215777  0.6051455415881506
  0.8765974483269829  0.8789852960720097  0.3521853316853196
  0.7737582330453421  0.7636927714752275  0.1136828932158238
  0.5694066381243346  0.8662861509205086  0.8579018896833404
  0.4433529773524825  0.7624999698202188  0.6103844898004098
 
  0.00000000E+00  0.00000000E+00  0.00000000E+00
  0.00000000E+00  0.00000000E+00  0.00000000E+00
  0.00000000E+00  0.00000000E+00  0.00000000E+00
  0.00000000E+00  0.00000000E+00  0.00000000E+00
  0.00000000E+00  0.00000000E+00  0.00000000E+00
  0.00000000E+00  0.00000000E+00  0.00000000E+00
  0.00000000E+00  0.00000000E+00  0.00000000E+00
  0.00000000E+00  0.00000000E+00  0.00000000E+00
  0.00000000E+00  0.00000000E+00  0.00000000E+00
  0.00000000E+00  0.00000000E+00  0.00000000E+00
  0.00000000E+00  0.00000000E+00  0.00000000E+00
  0.00000000E+00  0.00000000E+00  0.00000000E+00
  0.00000000E+00  0.00000000E+00  0.00000000E+00
  0.00000000E+00  0.00000000E+00  0.00000000E+00
  0.00000000E+00  0.00000000E+00  0.00000000E+00
  0.00000000E+00  0.00000000E+00  0.00000000E+00
  0.00000000E+00  0.00000000E+00  0.00000000E+00
  0.00000000E+00  0.00000000E+00  0.00000000E+00
  0.00000000E+00  0.00000000E+00  0.00000000E+00
  0.00000000E+00  0.00000000E+00  0.00000000E+00
  0.00000000E+00  0.00000000E+00  0.00000000E+00
  0.00000000E+00  0.00000000E+00  0.00000000E+00
  0.00000000E+00  0.00000000E+00  0.00000000E+00
  0.00000000E+00  0.00000000E+00  0.00000000E+00
  0.00000000E+00  0.00000000E+00  0.00000000E+00
  0.00000000E+00  0.00000000E+00  0.00000000E+00
  0.00000000E+00  0.00000000E+00  0.00000000E+00
  0.00000000E+00  0.00000000E+00  0.00000000E+00
  0.00000000E+00  0.00000000E+00  0.00000000E+00
  0.00000000E+00  0.00000000E+00  0.00000000E+00
  0.00000000E+00  0.00000000E+00  0.00000000E+00
  0.00000000E+00  0.00000000E+00  0.00000000E+00
  0.00000000E+00  0.00000000E+00  0.00000000E+00
  0.00000000E+00  0.00000000E+00  0.00000000E+00
  0.00000000E+00  0.00000000E+00  0.00000000E+00
  0.00000000E+00  0.00000000E+00  0.00000000E+00
  0.00000000E+00  0.00000000E+00  0.00000000E+00
  0.00000000E+00  0.00000000E+00  0.00000000E+00
  0.00000000E+00  0.00000000E+00  0.00000000E+00
  0.00000000E+00  0.00000000E+00  0.00000000E+00
  0.00000000E+00  0.00000000E+00  0.00000000E+00
  0.00000000E+00  0.00000000E+00  0.00000000E+00
  0.00000000E+00  0.00000000E+00  0.00000000E+00
  0.00000000E+00  0.00000000E+00  0.00000000E+00
  0.00000000E+00  0.00000000E+00  0.00000000E+00
  0.00000000E+00  0.00000000E+00  0.00000000E+00
  0.00000000E+00  0.00000000E+00  0.00000000E+00
  0.00000000E+00  0.00000000E+00  0.00000000E+00
  0.00000000E+00  0.00000000E+00  0.00000000E+00
  0.00000000E+00  0.00000000E+00  0.00000000E+00
  0.00000000E+00  0.00000000E+00  0.00000000E+00
  0.00000000E+00  0.00000000E+00  0.00000000E+00
  0.00000000E+00  0.00000000E+00  0.00000000E+00
  0.00000000E+00  0.00000000E+00  0.00000000E+00
  0.00000000E+00  0.00000000E+00  0.00000000E+00
  0.00000000E+00  0.00000000E+00  0.00000000E+00
  0.00000000E+00  0.00000000E+00  0.00000000E+00
  0.00000000E+00  0.00000000E+00  0.00000000E+00
  0.00000000E+00  0.00000000E+00  0.00000000E+00
  0.00000000E+00  0.00000000E+00  0.00000000E+00
  0.00000000E+00  0.00000000E+00  0.00000000E+00
  0.00000000E+00  0.00000000E+00  0.00000000E+00
  0.00000000E+00  0.00000000E+00  0.00000000E+00
  0.00000000E+00  0.00000000E+00  0.00000000E+00
  0.00000000E+00  0.00000000E+00  0.00000000E+00
  0.00000000E+00  0.00000000E+00  0.00000000E+00
  0.00000000E+00  0.00000000E+00  0.00000000E+00
  0.00000000E+00  0.00000000E+00  0.00000000E+00
  0.00000000E+00  0.00000000E+00  0.00000000E+00
  0.00000000E+00  0.00000000E+00  0.00000000E+00
  0.00000000E+00  0.00000000E+00  0.00000000E+00
  0.00000000E+00  0.00000000E+00  0.00000000E+00
