supercell of 100% icsd_608626.cif, 0% i 
   1.00000000000000     
    -9.2347265126734897    0.0142250090689644   -0.0076989437260218
    -4.6296858593957868    7.9906434951089338   -0.0123690251073912
    -0.0082540834229761    0.0105506548836474   -9.8670553114872543
   Al   Si   Be   N 
    26     5     5    36
Direct
  0.1071715364354802  0.0960013014605039  0.2946978569253815
  0.8837536916832249  0.2032744957919590  0.5536137952145381
  0.4451506976471151  0.0955924921963813  0.2967830950791566
  0.5677141705297970  0.2052069775366547  0.0383442037607011
  0.2174418384898900  0.2105523453481979  0.5491209734243228
  0.7826434819821984  0.0913604676763384  0.2962399754589171
  0.4499926761024966  0.0949820716799508  0.7938366850990519
  0.5647403812464091  0.1989296383402959  0.5498395813296142
  0.2205332831048352  0.5461394210109631  0.0391996952999207
  0.7861145826618454  0.4215964130320913  0.7946690368227820
  0.4456721827235626  0.4268769348716006  0.2974695382939103
  0.1043005755536583  0.4362491034182341  0.7919877488483564
  0.2102310441389008  0.5444305573207018  0.5507339984964332
  0.7798489217864741  0.4241198300766840  0.2960173195890476
  0.8832359484594079  0.5413958436994619  0.0471790038820785
  0.4390462034625600  0.4285775347874576  0.7919974676227710
  0.5607832243592199  0.5354914627177010  0.5484937515906552
  0.1044528514110254  0.7653254107475220  0.3006692878780939
  0.2183410414768261  0.8747508255448651  0.0427291158899266
  0.7890137894396076  0.7610890842617124  0.7833025006374044
  0.4437430129673459  0.7607040920644010  0.2972762780885887
  0.5600987760341667  0.8694019735998779  0.0443374053666190
  0.2137732528919116  0.8692448026641415  0.5549805968067361
  0.7833733923049806  0.7616334745892956  0.3039379726278426
  0.8899024631076387  0.8793068409709477  0.0364624224348447
  0.5653695252675348  0.8674878488837265  0.5471887001861191
  0.2201246067404981  0.2029267865916538  0.0452544841925757
  0.1056724808186686  0.0939769420420049  0.7992904222187605
  0.1093376082698327  0.4264418330643025  0.2981107471396172
  0.5572569333394313  0.5390788805810161  0.0451993251304188
  0.4424495720597150  0.7669443718916398  0.7950662210678203
  0.7897943033943378  0.0782300381832783  0.7843432026930870
  0.8832908549474254  0.2030168842783056  0.0360016678074615
  0.8888542022906805  0.5408863357676807  0.5523955772013451
  0.8889885252958933  0.8711350887107940  0.5477180011041938
  0.0886682721625220  0.7576436654019361  0.7798338884067491
  0.2162870725626718  0.2152284903568216  0.3531371316027503
  0.1145718036511170  0.1016811362516634  0.1019042236636025
  0.9004215639384441  0.1955108708564097  0.8569052589402943
  0.7832151292106744  0.0836940682498337  0.6085514132936609
  0.5555627138718009  0.2053615271923093  0.3529437100457216
  0.4332232386126975  0.1015431588099744  0.0989043033283394
  0.2159157196303454  0.2029357130030789  0.8627792363400602
  0.1128528564930633  0.0945607635091221  0.6193433117043554
  0.8908519619245823  0.2051747705543718  0.3594339182696302
  0.7850790978669266  0.0996653174395732  0.1038645042326607
  0.5607741897287895  0.2051605479373819  0.8505631080375053
  0.4416764481781001  0.0937912254845017  0.6038565130487896
  0.2158213365352282  0.5309987304453614  0.3491693238701643
  0.1192020733725698  0.4148830786573612  0.1102233506885355
  0.8871209463709135  0.5404326761884235  0.8590738834199811
  0.7817017083091571  0.4306140402239862  0.6051819796777167
  0.5550882869583447  0.5399282616499335  0.3564358410078370
  0.4494900784652458  0.4358941060887389  0.0999650370660206
  0.2156454602309665  0.5465561396803338  0.8512548112496887
  0.1015591657870232  0.4296372692770873  0.6041563854658776
  0.9013682099468312  0.5296948207859202  0.3465570719540167
  0.7663998581393372  0.4285717088800070  0.0984126931268747
  0.5471696019309320  0.5533531505352940  0.8612532113410225
  0.4416294875751348  0.4293761419180058  0.6014408952921997
  0.2228012930469276  0.8736157337311568  0.3593232199598546
  0.1121805363686263  0.7630930500590338  0.1074674826548261
  0.8933472990045175  0.8743607843586787  0.8486149909146619
  0.7872749819531677  0.7515756662972208  0.5948074600967175
  0.5529994891525263  0.8723238699588691  0.3533562957849199
  0.4494478004900984  0.7506979748523577  0.1016659961147610
  0.2324084186182915  0.8817766701458964  0.8514010234656624
  0.1010165337489539  0.7634528801278506  0.6071876977101667
  0.8885206771666461  0.8740515959899327  0.3616145049129926
  0.7790976197592272  0.7644641309704099  0.1072571432605613
  0.5533291917099064  0.8659726153484471  0.8508479391349937
  0.4440682451030611  0.7603652433803987  0.6168235857066762
 
  0.00000000E+00  0.00000000E+00  0.00000000E+00
  0.00000000E+00  0.00000000E+00  0.00000000E+00
  0.00000000E+00  0.00000000E+00  0.00000000E+00
  0.00000000E+00  0.00000000E+00  0.00000000E+00
  0.00000000E+00  0.00000000E+00  0.00000000E+00
  0.00000000E+00  0.00000000E+00  0.00000000E+00
  0.00000000E+00  0.00000000E+00  0.00000000E+00
  0.00000000E+00  0.00000000E+00  0.00000000E+00
  0.00000000E+00  0.00000000E+00  0.00000000E+00
  0.00000000E+00  0.00000000E+00  0.00000000E+00
  0.00000000E+00  0.00000000E+00  0.00000000E+00
  0.00000000E+00  0.00000000E+00  0.00000000E+00
  0.00000000E+00  0.00000000E+00  0.00000000E+00
  0.00000000E+00  0.00000000E+00  0.00000000E+00
  0.00000000E+00  0.00000000E+00  0.00000000E+00
  0.00000000E+00  0.00000000E+00  0.00000000E+00
  0.00000000E+00  0.00000000E+00  0.00000000E+00
  0.00000000E+00  0.00000000E+00  0.00000000E+00
  0.00000000E+00  0.00000000E+00  0.00000000E+00
  0.00000000E+00  0.00000000E+00  0.00000000E+00
  0.00000000E+00  0.00000000E+00  0.00000000E+00
  0.00000000E+00  0.00000000E+00  0.00000000E+00
  0.00000000E+00  0.00000000E+00  0.00000000E+00
  0.00000000E+00  0.00000000E+00  0.00000000E+00
  0.00000000E+00  0.00000000E+00  0.00000000E+00
  0.00000000E+00  0.00000000E+00  0.00000000E+00
  0.00000000E+00  0.00000000E+00  0.00000000E+00
  0.00000000E+00  0.00000000E+00  0.00000000E+00
  0.00000000E+00  0.00000000E+00  0.00000000E+00
  0.00000000E+00  0.00000000E+00  0.00000000E+00
  0.00000000E+00  0.00000000E+00  0.00000000E+00
  0.00000000E+00  0.00000000E+00  0.00000000E+00
  0.00000000E+00  0.00000000E+00  0.00000000E+00
  0.00000000E+00  0.00000000E+00  0.00000000E+00
  0.00000000E+00  0.00000000E+00  0.00000000E+00
  0.00000000E+00  0.00000000E+00  0.00000000E+00
  0.00000000E+00  0.00000000E+00  0.00000000E+00
  0.00000000E+00  0.00000000E+00  0.00000000E+00
  0.00000000E+00  0.00000000E+00  0.00000000E+00
  0.00000000E+00  0.00000000E+00  0.00000000E+00
  0.00000000E+00  0.00000000E+00  0.00000000E+00
  0.00000000E+00  0.00000000E+00  0.00000000E+00
  0.00000000E+00  0.00000000E+00  0.00000000E+00
  0.00000000E+00  0.00000000E+00  0.00000000E+00
  0.00000000E+00  0.00000000E+00  0.00000000E+00
  0.00000000E+00  0.00000000E+00  0.00000000E+00
  0.00000000E+00  0.00000000E+00  0.00000000E+00
  0.00000000E+00  0.00000000E+00  0.00000000E+00
  0.00000000E+00  0.00000000E+00  0.00000000E+00
  0.00000000E+00  0.00000000E+00  0.00000000E+00
  0.00000000E+00  0.00000000E+00  0.00000000E+00
  0.00000000E+00  0.00000000E+00  0.00000000E+00
  0.00000000E+00  0.00000000E+00  0.00000000E+00
  0.00000000E+00  0.00000000E+00  0.00000000E+00
  0.00000000E+00  0.00000000E+00  0.00000000E+00
  0.00000000E+00  0.00000000E+00  0.00000000E+00
  0.00000000E+00  0.00000000E+00  0.00000000E+00
  0.00000000E+00  0.00000000E+00  0.00000000E+00
  0.00000000E+00  0.00000000E+00  0.00000000E+00
  0.00000000E+00  0.00000000E+00  0.00000000E+00
  0.00000000E+00  0.00000000E+00  0.00000000E+00
  0.00000000E+00  0.00000000E+00  0.00000000E+00
  0.00000000E+00  0.00000000E+00  0.00000000E+00
  0.00000000E+00  0.00000000E+00  0.00000000E+00
  0.00000000E+00  0.00000000E+00  0.00000000E+00
  0.00000000E+00  0.00000000E+00  0.00000000E+00
  0.00000000E+00  0.00000000E+00  0.00000000E+00
  0.00000000E+00  0.00000000E+00  0.00000000E+00
  0.00000000E+00  0.00000000E+00  0.00000000E+00
  0.00000000E+00  0.00000000E+00  0.00000000E+00
  0.00000000E+00  0.00000000E+00  0.00000000E+00
  0.00000000E+00  0.00000000E+00  0.00000000E+00
