supercell of 100% icsd_608626.cif, 0% i 
   1.00000000000000     
    -9.2192975684596572    0.0032145123290720    0.0065328698691962
    -4.6124423929801504    7.9747943688338809    0.0018093996263108
     0.0070129707260929    0.0018188912753245   -9.8616596109438284
   Al   Si   Be   N 
    26     5     5    36
Direct
  0.1069527785546569  0.0958726640319369  0.2879007016633537
  0.2212351635259822  0.2042673865084552  0.0411831895613517
  0.7735692357881092  0.0986609495228947  0.8018200419709487
  0.8827242346257336  0.2141957697418704  0.5473007630714690
  0.5601102216579505  0.2072077513404835  0.0454082342520792
  0.1091636264164606  0.0975924492436349  0.7994255534310426
  0.2250018823614610  0.2043231267947831  0.5509731208063187
  0.7852193199354218  0.0917889623582653  0.2895752920991583
  0.1037931417676532  0.4318231248890925  0.2925048002993904
  0.2258093456121273  0.5372108401305340  0.0476332418275405
  0.7725993019306046  0.4287078972691916  0.7997150195291169
  0.8795607425814893  0.5414200784186036  0.5417338446121178
  0.1104051223333897  0.4254259866894046  0.7948989327428535
  0.2265495994097719  0.5364261211688657  0.5493152931534908
  0.7747587780951548  0.4283752445606481  0.2861101984949883
  0.8820408058672697  0.5365715380898877  0.0472788291387047
  0.4509326198610140  0.4256848803765791  0.7972025313398206
  0.2262499223810366  0.8716434196585681  0.0467970657184225
  0.7734669068595963  0.7627500263309841  0.7968310225831345
  0.8861734621999844  0.8704329024391129  0.5430832931579417
  0.4511129942877830  0.7552606560789243  0.2922604877295569
  0.5582662009327919  0.8680254517321728  0.0456722594943955
  0.2271291611887207  0.8695203313261359  0.5475166146410828
  0.8868256753181214  0.8734266742132419  0.0502919614434774
  0.4501981734875358  0.7569160632107739  0.7950543227451590
  0.5561691899643861  0.8714826686322823  0.5472888372613127
  0.4441067947926101  0.0912412817945949  0.2946161234956151
  0.5513320839689655  0.2080210875568653  0.5516894820190998
  0.4460907311498161  0.4338678483856313  0.2931203160122351
  0.1106643858618170  0.7627075566383184  0.2933236752794244
  0.1111081241906007  0.7618727204653126  0.7958256694355654
  0.8826936588908723  0.2126497268840026  0.0405314287381700
  0.4457892901116267  0.0954247260191963  0.7991578356724816
  0.5656824683364690  0.5380782176569809  0.0423286861212731
  0.5603056853366510  0.5367737547689941  0.5450566332148838
  0.7824695395395977  0.7547521579422707  0.2855871403385351
  0.2331791192330428  0.2001795647792832  0.3530050072446116
  0.1065831304813116  0.0962023357993402  0.0992392950482426
  0.8881968908456628  0.2047517651684814  0.8564094513559226
  0.7646460653201217  0.0991634676146163  0.5999543228734225
  0.5432654288534664  0.2127514645148381  0.3595929612665145
  0.4456399685868888  0.0962472264284315  0.1171811705007855
  0.2325734817939917  0.2011028171878309  0.8502920593217667
  0.1106781795812992  0.0933199212856479  0.6040962060928052
  0.8888022882290230  0.2061885568711617  0.3565454284515823
  0.7818318382669318  0.0967300092482262  0.1022234366760628
  0.5489705765486974  0.2030729721948603  0.8561525794266984
  0.4511721076040232  0.1003256354739932  0.6045614715706975
  0.2275789441604914  0.5458174620944405  0.3513350500999266
  0.1123749197831998  0.4278500611534923  0.1028353089097180
  0.8889340917988378  0.5397378790362950  0.8543030233762607
  0.7660555593254799  0.4345366083577957  0.6046530568466153
  0.5504947391687693  0.5310558715069575  0.3590875655806016
  0.4455303819137910  0.4281548128114210  0.1169963349342638
  0.2174553792362559  0.5510180223456018  0.8521790750339449
  0.1089233036717516  0.4303959704523166  0.6004729011648209
  0.8814254230864549  0.5474251948673938  0.3497080910641728
  0.7726394690261600  0.4220814929766945  0.0980098837007475
  0.5523008119365187  0.5397301617378147  0.8637754315305415
  0.4525317276031942  0.4183938029008445  0.6013495616558799
  0.2172740101561317  0.8651405189995174  0.3520552172201121
  0.1132008456302600  0.7595790850857114  0.1151006592074637
  0.9021429401367769  0.8657656058099619  0.8530152291651589
  0.7777009299648299  0.7625725767484113  0.6055182891436033
  0.5548450830738787  0.8830407070907071  0.3516629341605650
  0.4490314263607118  0.7533607051485944  0.1031557532110696
  0.2166764287822076  0.8646831094813408  0.8516164314213768
  0.1104631480069074  0.7611742144935292  0.6145357079562999
  0.9025366230328089  0.8616204035822150  0.3506951297100400
  0.7792733388725139  0.7607787771907937  0.1090153189345031
  0.5496163876426579  0.8830808318631256  0.8533207355247470
  0.4491946431617464  0.7525683448288518  0.6003374775228423
 
  0.00000000E+00  0.00000000E+00  0.00000000E+00
  0.00000000E+00  0.00000000E+00  0.00000000E+00
  0.00000000E+00  0.00000000E+00  0.00000000E+00
  0.00000000E+00  0.00000000E+00  0.00000000E+00
  0.00000000E+00  0.00000000E+00  0.00000000E+00
  0.00000000E+00  0.00000000E+00  0.00000000E+00
  0.00000000E+00  0.00000000E+00  0.00000000E+00
  0.00000000E+00  0.00000000E+00  0.00000000E+00
  0.00000000E+00  0.00000000E+00  0.00000000E+00
  0.00000000E+00  0.00000000E+00  0.00000000E+00
  0.00000000E+00  0.00000000E+00  0.00000000E+00
  0.00000000E+00  0.00000000E+00  0.00000000E+00
  0.00000000E+00  0.00000000E+00  0.00000000E+00
  0.00000000E+00  0.00000000E+00  0.00000000E+00
  0.00000000E+00  0.00000000E+00  0.00000000E+00
  0.00000000E+00  0.00000000E+00  0.00000000E+00
  0.00000000E+00  0.00000000E+00  0.00000000E+00
  0.00000000E+00  0.00000000E+00  0.00000000E+00
  0.00000000E+00  0.00000000E+00  0.00000000E+00
  0.00000000E+00  0.00000000E+00  0.00000000E+00
  0.00000000E+00  0.00000000E+00  0.00000000E+00
  0.00000000E+00  0.00000000E+00  0.00000000E+00
  0.00000000E+00  0.00000000E+00  0.00000000E+00
  0.00000000E+00  0.00000000E+00  0.00000000E+00
  0.00000000E+00  0.00000000E+00  0.00000000E+00
  0.00000000E+00  0.00000000E+00  0.00000000E+00
  0.00000000E+00  0.00000000E+00  0.00000000E+00
  0.00000000E+00  0.00000000E+00  0.00000000E+00
  0.00000000E+00  0.00000000E+00  0.00000000E+00
  0.00000000E+00  0.00000000E+00  0.00000000E+00
  0.00000000E+00  0.00000000E+00  0.00000000E+00
  0.00000000E+00  0.00000000E+00  0.00000000E+00
  0.00000000E+00  0.00000000E+00  0.00000000E+00
  0.00000000E+00  0.00000000E+00  0.00000000E+00
  0.00000000E+00  0.00000000E+00  0.00000000E+00
  0.00000000E+00  0.00000000E+00  0.00000000E+00
  0.00000000E+00  0.00000000E+00  0.00000000E+00
  0.00000000E+00  0.00000000E+00  0.00000000E+00
  0.00000000E+00  0.00000000E+00  0.00000000E+00
  0.00000000E+00  0.00000000E+00  0.00000000E+00
  0.00000000E+00  0.00000000E+00  0.00000000E+00
  0.00000000E+00  0.00000000E+00  0.00000000E+00
  0.00000000E+00  0.00000000E+00  0.00000000E+00
  0.00000000E+00  0.00000000E+00  0.00000000E+00
  0.00000000E+00  0.00000000E+00  0.00000000E+00
  0.00000000E+00  0.00000000E+00  0.00000000E+00
  0.00000000E+00  0.00000000E+00  0.00000000E+00
  0.00000000E+00  0.00000000E+00  0.00000000E+00
  0.00000000E+00  0.00000000E+00  0.00000000E+00
  0.00000000E+00  0.00000000E+00  0.00000000E+00
  0.00000000E+00  0.00000000E+00  0.00000000E+00
  0.00000000E+00  0.00000000E+00  0.00000000E+00
  0.00000000E+00  0.00000000E+00  0.00000000E+00
  0.00000000E+00  0.00000000E+00  0.00000000E+00
  0.00000000E+00  0.00000000E+00  0.00000000E+00
  0.00000000E+00  0.00000000E+00  0.00000000E+00
  0.00000000E+00  0.00000000E+00  0.00000000E+00
  0.00000000E+00  0.00000000E+00  0.00000000E+00
  0.00000000E+00  0.00000000E+00  0.00000000E+00
  0.00000000E+00  0.00000000E+00  0.00000000E+00
  0.00000000E+00  0.00000000E+00  0.00000000E+00
  0.00000000E+00  0.00000000E+00  0.00000000E+00
  0.00000000E+00  0.00000000E+00  0.00000000E+00
  0.00000000E+00  0.00000000E+00  0.00000000E+00
  0.00000000E+00  0.00000000E+00  0.00000000E+00
  0.00000000E+00  0.00000000E+00  0.00000000E+00
  0.00000000E+00  0.00000000E+00  0.00000000E+00
  0.00000000E+00  0.00000000E+00  0.00000000E+00
  0.00000000E+00  0.00000000E+00  0.00000000E+00
  0.00000000E+00  0.00000000E+00  0.00000000E+00
  0.00000000E+00  0.00000000E+00  0.00000000E+00
  0.00000000E+00  0.00000000E+00  0.00000000E+00
