generated by phonopy                    
   1.00000000000000     
    10.0351470768999995   -0.0000022330999784   -0.0000001056124209
    -5.0175765436399997    8.6906901959899994    0.0000001395531216
    -0.0000001735893656    0.0000001431815548   14.9533752540999991
   Pb   O    P 
    19    51    12
Direct
  0.9948035011329495  0.7684696867448082  0.1237329176172182
  0.9953098591627096  0.7709941415617863  0.6238572693576572
  0.0001690298508663  0.2582982107473271  0.3756092532220094
  0.9667367729310214  0.2701120977228371  0.8907161060695330
  0.2273725741228958  0.2227832654273740  0.1208374602228233
  0.2273161720453487  0.2270859936142031  0.6241481588626172
  0.7406816267180858  0.7406502136126889  0.3737755280770898
  0.7322408190588305  0.7236194802485159  0.8824092896981597
  0.7754179406326784  0.9982529427536164  0.1262554057161580
  0.7732793845163854  0.0064817180845651  0.6252676658226761
  0.2592074121798120  0.0013807637521950  0.3726345226692018
  0.2827369996646070  0.0146078864867576  0.8835429837317790
  0.6670855246828182  0.3351315905184364  0.4944632788200636
  0.3292114421505516  0.6589799554217635  0.0092733331686716
  0.3322843033129885  0.6692808059553172  0.5057312956838160
  0.3335114130737225  0.6681405414880501  0.2495620348987728
  0.3283126938363168  0.6567673151207032  0.7465342287105230
  0.6641293686145673  0.3293117794326221  0.2226968659016890
  0.6551916852275212  0.3324746300123778  0.7480053521371985
  0.7819120173098426  0.3414168349080455  0.9512666260081843
  0.5041695836030868  0.6591379325266828  0.1297615092273503
  0.4975899152934389  0.6470478832498046  0.6220285575308324
  0.4618709405699022  0.3090138502684781  0.3748270110834042
  0.4595813237850592  0.3145439039922948  0.8602132515769512
  0.3410373023431035  0.8440843192927332  0.1283568487243727
  0.3502144179788331  0.8545944302380732  0.6209084816618287
  0.6898776700401257  0.1538453830718609  0.3772462113425519
  0.6663122199654765  0.1343381105247730  0.8465834494428819
  0.1537991975021455  0.4961041147701550  0.1354137614578903
  0.1448799305753141  0.5004385140023189  0.6212746798088062
  0.8472908723229295  0.5381488401990850  0.3739630229882280
  0.8542011318730971  0.5424949202940965  0.8568781845941658
  0.7343971698007579  0.6807519290453143  0.0453606740607171
  0.7305709355825485  0.6627616562653458  0.5387132849922338
  0.2604101453637355  0.3503362917154575  0.4599921071059114
  0.2395358257322471  0.3151128410706079  0.9483076651153226
  0.3210654008834908  0.0554326603462272  0.0454859051323879
  0.3328264395135250  0.0711835420483311  0.5381717916920365
  0.6501973751659165  0.9103926212486542  0.4611550539042923
  0.6943958322334964  0.9421747115384136  0.9484769227896592
  0.9573170787273995  0.2568283762713435  0.0547034722743405
  0.9271147471062307  0.2665792393328772  0.5392116533924138
  0.0890452329701006  0.7421992445835599  0.4584608608409226
  0.0669493301279047  0.7613593682368318  0.9502132620801760
  0.2604197328144764  0.3526452411215359  0.2921478518359137
  0.2725855456144757  0.3844280677652989  0.7831785972152474
  0.7319496009129907  0.6597631119833167  0.2114877284916545
  0.7224890644523185  0.6499295997533707  0.7072146587470840
  0.6479396958064427  0.9102414750719632  0.2934797965712193
  0.6156234820421460  0.8737237658097428  0.7877786823285007
  0.3460676680397299  0.0733829116624705  0.2115909210795692
  0.3513386130946827  0.0788452373520059  0.7063674849088741
  0.0936742518766707  0.7364249641144411  0.2907041520214264
  0.1072762815010293  0.7463843276870392  0.7851222257532484
  0.9231408065681705  0.2704981469256467  0.2184151997125880
  0.9242517244694994  0.2759152755176686  0.7073265604448622
  0.5409703944227289  0.4244725867677701  0.1238226563995255
  0.5383822096495408  0.4143377118015721  0.6163883823985472
  0.4792400212858823  0.5733399646144690  0.3768844903443380
  0.4665390347162770  0.5687566940429676  0.8945837476576841
  0.5773736047993836  0.1142577786050936  0.1219140255219671
  0.5836879146042691  0.1283707680721804  0.6137580679588908
  0.4266698689106079  0.9064653998173924  0.3787155845803767
  0.4273941673521762  0.8881112295953670  0.8964862389878121
  0.8801570614990268  0.4502271636045023  0.1194152390578651
  0.8713904049139956  0.4598204014566178  0.6162073374826704
  0.0943665537510796  0.5207824936039600  0.3792416815406554
  0.1072361525965704  0.5452042318724111  0.8887602035152753
  0.0013929035340681  0.9967994206347370  0.1392537924803960
  0.9974565581719759  0.0001758792122502  0.6229782639865675
  0.6241701716433354  0.6021269999443533  0.1269293607461606
  0.6201515266596118  0.5941851449767555  0.6212485021244376
  0.3671388143656529  0.3925984137334879  0.3759199962790589
  0.3591448920500113  0.3905807556495446  0.8711944569396763
  0.3994364426855626  0.0211959596449915  0.1261677668511254
  0.4040105306770982  0.0298737217512368  0.6198116754794114
  0.6075581608110170  0.9758665317568500  0.3777797482874590
  0.6033868852487245  0.9627022098958165  0.8701273255860400
  0.9786064271420827  0.3721316344173218  0.1318563653352882
  0.9689795145076516  0.3778966424646697  0.6216717256370998
  0.0254186195073416  0.6324772969338213  0.3755923382773290
  0.0315591118975576  0.6483189552105202  0.8704167163784149
 
  0.00000000E+00  0.00000000E+00  0.00000000E+00
  0.00000000E+00  0.00000000E+00  0.00000000E+00
  0.00000000E+00  0.00000000E+00  0.00000000E+00
  0.00000000E+00  0.00000000E+00  0.00000000E+00
  0.00000000E+00  0.00000000E+00  0.00000000E+00
  0.00000000E+00  0.00000000E+00  0.00000000E+00
  0.00000000E+00  0.00000000E+00  0.00000000E+00
  0.00000000E+00  0.00000000E+00  0.00000000E+00
  0.00000000E+00  0.00000000E+00  0.00000000E+00
  0.00000000E+00  0.00000000E+00  0.00000000E+00
  0.00000000E+00  0.00000000E+00  0.00000000E+00
  0.00000000E+00  0.00000000E+00  0.00000000E+00
  0.00000000E+00  0.00000000E+00  0.00000000E+00
  0.00000000E+00  0.00000000E+00  0.00000000E+00
  0.00000000E+00  0.00000000E+00  0.00000000E+00
  0.00000000E+00  0.00000000E+00  0.00000000E+00
  0.00000000E+00  0.00000000E+00  0.00000000E+00
  0.00000000E+00  0.00000000E+00  0.00000000E+00
  0.00000000E+00  0.00000000E+00  0.00000000E+00
  0.00000000E+00  0.00000000E+00  0.00000000E+00
  0.00000000E+00  0.00000000E+00  0.00000000E+00
  0.00000000E+00  0.00000000E+00  0.00000000E+00
  0.00000000E+00  0.00000000E+00  0.00000000E+00
  0.00000000E+00  0.00000000E+00  0.00000000E+00
  0.00000000E+00  0.00000000E+00  0.00000000E+00
  0.00000000E+00  0.00000000E+00  0.00000000E+00
  0.00000000E+00  0.00000000E+00  0.00000000E+00
  0.00000000E+00  0.00000000E+00  0.00000000E+00
  0.00000000E+00  0.00000000E+00  0.00000000E+00
  0.00000000E+00  0.00000000E+00  0.00000000E+00
  0.00000000E+00  0.00000000E+00  0.00000000E+00
  0.00000000E+00  0.00000000E+00  0.00000000E+00
  0.00000000E+00  0.00000000E+00  0.00000000E+00
  0.00000000E+00  0.00000000E+00  0.00000000E+00
  0.00000000E+00  0.00000000E+00  0.00000000E+00
  0.00000000E+00  0.00000000E+00  0.00000000E+00
  0.00000000E+00  0.00000000E+00  0.00000000E+00
  0.00000000E+00  0.00000000E+00  0.00000000E+00
  0.00000000E+00  0.00000000E+00  0.00000000E+00
  0.00000000E+00  0.00000000E+00  0.00000000E+00
  0.00000000E+00  0.00000000E+00  0.00000000E+00
  0.00000000E+00  0.00000000E+00  0.00000000E+00
  0.00000000E+00  0.00000000E+00  0.00000000E+00
  0.00000000E+00  0.00000000E+00  0.00000000E+00
  0.00000000E+00  0.00000000E+00  0.00000000E+00
  0.00000000E+00  0.00000000E+00  0.00000000E+00
  0.00000000E+00  0.00000000E+00  0.00000000E+00
  0.00000000E+00  0.00000000E+00  0.00000000E+00
  0.00000000E+00  0.00000000E+00  0.00000000E+00
  0.00000000E+00  0.00000000E+00  0.00000000E+00
  0.00000000E+00  0.00000000E+00  0.00000000E+00
  0.00000000E+00  0.00000000E+00  0.00000000E+00
  0.00000000E+00  0.00000000E+00  0.00000000E+00
  0.00000000E+00  0.00000000E+00  0.00000000E+00
  0.00000000E+00  0.00000000E+00  0.00000000E+00
  0.00000000E+00  0.00000000E+00  0.00000000E+00
  0.00000000E+00  0.00000000E+00  0.00000000E+00
  0.00000000E+00  0.00000000E+00  0.00000000E+00
  0.00000000E+00  0.00000000E+00  0.00000000E+00
  0.00000000E+00  0.00000000E+00  0.00000000E+00
  0.00000000E+00  0.00000000E+00  0.00000000E+00
  0.00000000E+00  0.00000000E+00  0.00000000E+00
  0.00000000E+00  0.00000000E+00  0.00000000E+00
  0.00000000E+00  0.00000000E+00  0.00000000E+00
  0.00000000E+00  0.00000000E+00  0.00000000E+00
  0.00000000E+00  0.00000000E+00  0.00000000E+00
  0.00000000E+00  0.00000000E+00  0.00000000E+00
  0.00000000E+00  0.00000000E+00  0.00000000E+00
  0.00000000E+00  0.00000000E+00  0.00000000E+00
  0.00000000E+00  0.00000000E+00  0.00000000E+00
  0.00000000E+00  0.00000000E+00  0.00000000E+00
  0.00000000E+00  0.00000000E+00  0.00000000E+00
  0.00000000E+00  0.00000000E+00  0.00000000E+00
  0.00000000E+00  0.00000000E+00  0.00000000E+00
  0.00000000E+00  0.00000000E+00  0.00000000E+00
  0.00000000E+00  0.00000000E+00  0.00000000E+00
  0.00000000E+00  0.00000000E+00  0.00000000E+00
  0.00000000E+00  0.00000000E+00  0.00000000E+00
  0.00000000E+00  0.00000000E+00  0.00000000E+00
  0.00000000E+00  0.00000000E+00  0.00000000E+00
  0.00000000E+00  0.00000000E+00  0.00000000E+00
  0.00000000E+00  0.00000000E+00  0.00000000E+00
