supercell of 100% icsd_608626.cif, 0% i 
   1.00000000000000     
    -9.9340107830952711   -0.0111539554968835    0.0009356326414474
    -4.9573593650405128    8.5797465362756604    0.0119447697541912
     0.0007401174570193   -0.0142432408480939  -10.2585454170119572
   Al   Hf   Ca   N 
    26     5     5    36
Direct
  0.1096286982323704  0.0990665159022228  0.3017457679318625
  0.2096319785603029  0.2136521011415269  0.0439908303711931
  0.7839670762348447  0.1005205655467805  0.7948452744947474
  0.8997313020546116  0.2029280328595036  0.5469289792409882
  0.5574654404099491  0.1990502758044812  0.0352727729619673
  0.1007631954154675  0.1076273283054476  0.7902082211097223
  0.2122221412325374  0.2113848022211187  0.5468856190513094
  0.7840614408160320  0.0919213785516391  0.2963016001498104
  0.0995050601143177  0.4242706510357337  0.2950019539714503
  0.2234077500745286  0.5232620139942838  0.0428095295847513
  0.7871352703317527  0.4208387887881884  0.7882450446106191
  0.8994717854530947  0.5265867820675894  0.5509466618208592
  0.1023241655071772  0.4254805862625943  0.7966612669904691
  0.2090064665967546  0.5393399858214494  0.5536970506538594
  0.7913679114302994  0.4252466098211514  0.2945623564079796
  0.8917990500913362  0.5430843952776101  0.0401806069258228
  0.4475257555322898  0.4276821805395983  0.7912591557375706
  0.2366487242891395  0.8888739186951753  0.0462316035806296
  0.7751368475887332  0.7535392686599138  0.7952195428534026
  0.8937688339876289  0.8706276906551480  0.5530317838698195
  0.4412939232667910  0.7665847513292121  0.2914825981068390
  0.5655527201270374  0.8605178297720926  0.0374955952711886
  0.2230762584729149  0.8825023722627989  0.5498672654673342
  0.8693084820249979  0.8781986974282034  0.0396850814076686
  0.4496499542693897  0.7608450680800374  0.7915304320053522
  0.5441799248029753  0.8767599978014715  0.5495943944576140
  0.4370810881718654  0.0904763310379408  0.2875787957570424
  0.5608751688586082  0.1961699110568986  0.5651923318378920
  0.4433994531310148  0.4263333720899993  0.3032394424330533
  0.1090381614867084  0.7680685276714314  0.2896414295074194
  0.1137203472457813  0.7635682259200038  0.8163387716608739
  0.8948658091895396  0.2006008358534430  0.0545915700731499
  0.4329535377131322  0.0896090513749641  0.8146611404391422
  0.5606451080257244  0.5402129539019072  0.0455002143204837
  0.5608207770992024  0.5477093728962927  0.5610446068273021
  0.7780570655429386  0.7511448216295378  0.3047079729703270
  0.2090455900122592  0.2144667618112166  0.3583387451820315
  0.1434245856093241  0.0851761575772585  0.1227413451494357
  0.8903343777673811  0.2035618399796633  0.8338990973096827
  0.8011218516336882  0.0829625502582871  0.6074200263579925
  0.5712652813776558  0.1921921974075076  0.3586194629210127
  0.4427352517049172  0.0939116191530545  0.0760095945443595
  0.1788168044295446  0.2268457855864128  0.8635832831899535
  0.1125617371358132  0.0957808522234771  0.5999927326963359
  0.8887970822461284  0.2028726542079156  0.3505999198002172
  0.7565595895258355  0.0784233522921340  0.1148073241638414
  0.5727708118315533  0.2184171366115137  0.8460212093624051
  0.4299599494784303  0.0943589082690366  0.5839075575945500
  0.2052042995816592  0.5382375445131515  0.3618796951400753
  0.1099555844898248  0.4313644029369996  0.1070059191033366
  0.8908429382736998  0.5399643489570067  0.8491896637000806
  0.8145637598053668  0.4073500109015029  0.6073222697086820
  0.5602666668555472  0.5460023281427553  0.3271337145130957
  0.4291507401509449  0.4055278005744540  0.1057177738922022
  0.2304363084872563  0.5206304775528992  0.8556422025341277
  0.1120646457766128  0.4270897365759225  0.6100429067475943
  0.9075071623011084  0.5060303319507398  0.3709309030707715
  0.8011638583914547  0.4431922145139211  0.1172826719563815
  0.5547939595683857  0.5385667365221849  0.8140436282154297
  0.4178830552318260  0.4270373749583669  0.6012389098574786
  0.2261133110121349  0.8778510302005458  0.3603757566053503
  0.1122366000709292  0.7630671737455756  0.0779603900693857
  0.8729460011021430  0.8826657480546345  0.8504808556042036
  0.7759730283043496  0.7629654644730337  0.5995249414792241
  0.5288441814590499  0.8760217579369964  0.3654919248741990
  0.4363142893803200  0.7911703506345589  0.1115106322809964
  0.2296396855838552  0.8882173855370468  0.8580862620216720
  0.1139647716512826  0.7597882279864123  0.6057825045273688
  0.8955684922969738  0.8911190873380050  0.3681702401433569
  0.7815847132108615  0.7593828270547505  0.0822964909953541
  0.5741292298418017  0.8341868306556961  0.8573537294205309
  0.4223731310382703  0.7993150008480470  0.6134184504056464
 
  0.00000000E+00  0.00000000E+00  0.00000000E+00
  0.00000000E+00  0.00000000E+00  0.00000000E+00
  0.00000000E+00  0.00000000E+00  0.00000000E+00
  0.00000000E+00  0.00000000E+00  0.00000000E+00
  0.00000000E+00  0.00000000E+00  0.00000000E+00
  0.00000000E+00  0.00000000E+00  0.00000000E+00
  0.00000000E+00  0.00000000E+00  0.00000000E+00
  0.00000000E+00  0.00000000E+00  0.00000000E+00
  0.00000000E+00  0.00000000E+00  0.00000000E+00
  0.00000000E+00  0.00000000E+00  0.00000000E+00
  0.00000000E+00  0.00000000E+00  0.00000000E+00
  0.00000000E+00  0.00000000E+00  0.00000000E+00
  0.00000000E+00  0.00000000E+00  0.00000000E+00
  0.00000000E+00  0.00000000E+00  0.00000000E+00
  0.00000000E+00  0.00000000E+00  0.00000000E+00
  0.00000000E+00  0.00000000E+00  0.00000000E+00
  0.00000000E+00  0.00000000E+00  0.00000000E+00
  0.00000000E+00  0.00000000E+00  0.00000000E+00
  0.00000000E+00  0.00000000E+00  0.00000000E+00
  0.00000000E+00  0.00000000E+00  0.00000000E+00
  0.00000000E+00  0.00000000E+00  0.00000000E+00
  0.00000000E+00  0.00000000E+00  0.00000000E+00
  0.00000000E+00  0.00000000E+00  0.00000000E+00
  0.00000000E+00  0.00000000E+00  0.00000000E+00
  0.00000000E+00  0.00000000E+00  0.00000000E+00
  0.00000000E+00  0.00000000E+00  0.00000000E+00
  0.00000000E+00  0.00000000E+00  0.00000000E+00
  0.00000000E+00  0.00000000E+00  0.00000000E+00
  0.00000000E+00  0.00000000E+00  0.00000000E+00
  0.00000000E+00  0.00000000E+00  0.00000000E+00
  0.00000000E+00  0.00000000E+00  0.00000000E+00
  0.00000000E+00  0.00000000E+00  0.00000000E+00
  0.00000000E+00  0.00000000E+00  0.00000000E+00
  0.00000000E+00  0.00000000E+00  0.00000000E+00
  0.00000000E+00  0.00000000E+00  0.00000000E+00
  0.00000000E+00  0.00000000E+00  0.00000000E+00
  0.00000000E+00  0.00000000E+00  0.00000000E+00
  0.00000000E+00  0.00000000E+00  0.00000000E+00
  0.00000000E+00  0.00000000E+00  0.00000000E+00
  0.00000000E+00  0.00000000E+00  0.00000000E+00
  0.00000000E+00  0.00000000E+00  0.00000000E+00
  0.00000000E+00  0.00000000E+00  0.00000000E+00
  0.00000000E+00  0.00000000E+00  0.00000000E+00
  0.00000000E+00  0.00000000E+00  0.00000000E+00
  0.00000000E+00  0.00000000E+00  0.00000000E+00
  0.00000000E+00  0.00000000E+00  0.00000000E+00
  0.00000000E+00  0.00000000E+00  0.00000000E+00
  0.00000000E+00  0.00000000E+00  0.00000000E+00
  0.00000000E+00  0.00000000E+00  0.00000000E+00
  0.00000000E+00  0.00000000E+00  0.00000000E+00
  0.00000000E+00  0.00000000E+00  0.00000000E+00
  0.00000000E+00  0.00000000E+00  0.00000000E+00
  0.00000000E+00  0.00000000E+00  0.00000000E+00
  0.00000000E+00  0.00000000E+00  0.00000000E+00
  0.00000000E+00  0.00000000E+00  0.00000000E+00
  0.00000000E+00  0.00000000E+00  0.00000000E+00
  0.00000000E+00  0.00000000E+00  0.00000000E+00
  0.00000000E+00  0.00000000E+00  0.00000000E+00
  0.00000000E+00  0.00000000E+00  0.00000000E+00
  0.00000000E+00  0.00000000E+00  0.00000000E+00
  0.00000000E+00  0.00000000E+00  0.00000000E+00
  0.00000000E+00  0.00000000E+00  0.00000000E+00
  0.00000000E+00  0.00000000E+00  0.00000000E+00
  0.00000000E+00  0.00000000E+00  0.00000000E+00
  0.00000000E+00  0.00000000E+00  0.00000000E+00
  0.00000000E+00  0.00000000E+00  0.00000000E+00
  0.00000000E+00  0.00000000E+00  0.00000000E+00
  0.00000000E+00  0.00000000E+00  0.00000000E+00
  0.00000000E+00  0.00000000E+00  0.00000000E+00
  0.00000000E+00  0.00000000E+00  0.00000000E+00
  0.00000000E+00  0.00000000E+00  0.00000000E+00
  0.00000000E+00  0.00000000E+00  0.00000000E+00
