supercell of 100% icsd_608626.cif, 0% i 
   1.00000000000000     
    -9.9542395600040479   -0.0504296883212048    0.0181412895608392
    -4.9334244116312176    8.5668683765145115   -0.0025759579024448
     0.0206531583163138    0.0142331444918737  -10.1761294416406809
   Al   Hf   Ca   N 
    26     5     5    36
Direct
  0.1221215446793522  0.0933755416395599  0.2921665471844008
  0.2226546986960614  0.1904026227969595  0.0403830601879633
  0.7845672879037835  0.0895168182026325  0.7865560990976945
  0.8970883649107435  0.2031872165083115  0.5580211386679537
  0.4310716589187606  0.0868323666565516  0.3073048749751308
  0.1112555195496512  0.0974435088601382  0.7989713846435507
  0.2161650876780357  0.2088975865273071  0.5517762687424792
  0.8944101286095290  0.2029977048465668  0.0386120471680229
  0.4398035170049468  0.0843472006831973  0.7882322709771117
  0.5522479497999839  0.2004364641271579  0.5511509368973151
  0.1181963609729877  0.4137585642280968  0.2830262320204113
  0.7815104542526470  0.4266720083281754  0.7865280246471187
  0.4465141144387132  0.4267464033324160  0.2942901634172514
  0.5659511903867838  0.5402138316992051  0.0414013094241454
  0.1124152704562746  0.4216093583850693  0.7957484566688322
  0.5595351689897683  0.5364524751471578  0.5513557074288542
  0.2221354527896011  0.8764611143161787  0.0452664736430819
  0.7674203277415472  0.7742886400586713  0.7996281994461896
  0.8730782377269222  0.8805720595070170  0.5615433172390993
  0.4440426723014710  0.7622655672619771  0.2940735284742715
  0.5447272230612299  0.8738701216922991  0.0462740259565209
  0.0994583700977145  0.7697841941964114  0.7947879279709156
  0.7665496955591209  0.7739292582139896  0.2910152359267144
  0.8898239509857149  0.8800598495182328  0.0384100216595016
  0.4526625325162783  0.7619367662227461  0.7973990257183559
  0.5580500616299133  0.8700322454952882  0.5491053591300314
  0.5636073019723824  0.1826991748776763  0.0555082208691928
  0.7790795364568268  0.0931386373461578  0.3193665054011703
  0.2223339670363416  0.5415050343696635  0.0709870503808148
  0.8817406139421564  0.5451141854332633  0.0639228818786677
  0.4474932775255311  0.4256795580054842  0.8046186054351594
  0.8922445831237056  0.5546018574731590  0.5499355690575456
  0.2294212526764170  0.5353399390777938  0.5321688521610710
  0.7753772336348277  0.4273468133789038  0.3208333565100432
  0.1068527115410305  0.7730353903726481  0.3140202643438528
  0.2287601744570722  0.8784585978005595  0.5561610421620884
  0.2175887011182240  0.2099153759032717  0.3562179250190667
  0.1068663881732590  0.0966545994405692  0.0962732788006733
  0.8860056354707808  0.2039164229993560  0.8502658887492274
  0.7711935387586877  0.1015144318852634  0.5962276583238051
  0.5359925246767929  0.2112143250797303  0.3507014992071120
  0.4285840651737303  0.0833936135083349  0.1146088307151913
  0.2300318690496326  0.1987441796193465  0.8565412421607022
  0.0973833303763314  0.1253824326325983  0.6200893037983022
  0.9255593655283434  0.1718291618654249  0.3712285015227366
  0.7956731783892224  0.0885322950343408  0.1080459506598430
  0.5652886474859571  0.1818519038863045  0.8504853582547582
  0.4395212022938182  0.0920362625504723  0.5988944802409222
  0.2369870194029531  0.5100982646153938  0.2902917121830413
  0.1187886443605777  0.4004492630079923  0.0908834826661717
  0.8863162624242307  0.5434874353714534  0.8457889676878239
  0.7697740600027956  0.4148778145978866  0.5986014006656291
  0.5155046033663453  0.5555136417591200  0.3643517816869135
  0.4686452635420579  0.4205721622432819  0.0898381874755785
  0.2104204303359083  0.5461583043380998  0.8545737188405553
  0.1329381448331119  0.4040721176399771  0.6183549055042334
  0.9051102756204017  0.5580890840350605  0.2973137697023560
  0.7746327610890376  0.4156925615676670  0.0897458818083336
  0.5664903789348372  0.5444290244037617  0.8550890397912667
  0.4746750535603539  0.4078016145193502  0.6087074257402705
  0.2442816938057888  0.8910029822164489  0.3306671968900190
  0.0996562429358363  0.7803149028641911  0.0841690002891937
  0.8825994998043996  0.8805838605667873  0.8541986132084105
  0.7508512732275605  0.8029383622535136  0.6211667848370226
  0.5580443265762511  0.8659149461439313  0.3549442055890850
  0.4518559097441610  0.7522926038641131  0.0993022723340928
  0.2269451419761808  0.8715894155650830  0.8496868414611640
  0.0772871745969042  0.7762286063423716  0.6122380752616721
  0.8570776466348420  0.8741387265117453  0.3743681838748287
  0.7576896900112757  0.7980669407587158  0.0990482134877197
  0.5501232754655092  0.8771068335567875  0.8603591802092225
  0.4832492872300733  0.7405868502657000  0.6161812558404876
 
  0.00000000E+00  0.00000000E+00  0.00000000E+00
  0.00000000E+00  0.00000000E+00  0.00000000E+00
  0.00000000E+00  0.00000000E+00  0.00000000E+00
  0.00000000E+00  0.00000000E+00  0.00000000E+00
  0.00000000E+00  0.00000000E+00  0.00000000E+00
  0.00000000E+00  0.00000000E+00  0.00000000E+00
  0.00000000E+00  0.00000000E+00  0.00000000E+00
  0.00000000E+00  0.00000000E+00  0.00000000E+00
  0.00000000E+00  0.00000000E+00  0.00000000E+00
  0.00000000E+00  0.00000000E+00  0.00000000E+00
  0.00000000E+00  0.00000000E+00  0.00000000E+00
  0.00000000E+00  0.00000000E+00  0.00000000E+00
  0.00000000E+00  0.00000000E+00  0.00000000E+00
  0.00000000E+00  0.00000000E+00  0.00000000E+00
  0.00000000E+00  0.00000000E+00  0.00000000E+00
  0.00000000E+00  0.00000000E+00  0.00000000E+00
  0.00000000E+00  0.00000000E+00  0.00000000E+00
  0.00000000E+00  0.00000000E+00  0.00000000E+00
  0.00000000E+00  0.00000000E+00  0.00000000E+00
  0.00000000E+00  0.00000000E+00  0.00000000E+00
  0.00000000E+00  0.00000000E+00  0.00000000E+00
  0.00000000E+00  0.00000000E+00  0.00000000E+00
  0.00000000E+00  0.00000000E+00  0.00000000E+00
  0.00000000E+00  0.00000000E+00  0.00000000E+00
  0.00000000E+00  0.00000000E+00  0.00000000E+00
  0.00000000E+00  0.00000000E+00  0.00000000E+00
  0.00000000E+00  0.00000000E+00  0.00000000E+00
  0.00000000E+00  0.00000000E+00  0.00000000E+00
  0.00000000E+00  0.00000000E+00  0.00000000E+00
  0.00000000E+00  0.00000000E+00  0.00000000E+00
  0.00000000E+00  0.00000000E+00  0.00000000E+00
  0.00000000E+00  0.00000000E+00  0.00000000E+00
  0.00000000E+00  0.00000000E+00  0.00000000E+00
  0.00000000E+00  0.00000000E+00  0.00000000E+00
  0.00000000E+00  0.00000000E+00  0.00000000E+00
  0.00000000E+00  0.00000000E+00  0.00000000E+00
  0.00000000E+00  0.00000000E+00  0.00000000E+00
  0.00000000E+00  0.00000000E+00  0.00000000E+00
  0.00000000E+00  0.00000000E+00  0.00000000E+00
  0.00000000E+00  0.00000000E+00  0.00000000E+00
  0.00000000E+00  0.00000000E+00  0.00000000E+00
  0.00000000E+00  0.00000000E+00  0.00000000E+00
  0.00000000E+00  0.00000000E+00  0.00000000E+00
  0.00000000E+00  0.00000000E+00  0.00000000E+00
  0.00000000E+00  0.00000000E+00  0.00000000E+00
  0.00000000E+00  0.00000000E+00  0.00000000E+00
  0.00000000E+00  0.00000000E+00  0.00000000E+00
  0.00000000E+00  0.00000000E+00  0.00000000E+00
  0.00000000E+00  0.00000000E+00  0.00000000E+00
  0.00000000E+00  0.00000000E+00  0.00000000E+00
  0.00000000E+00  0.00000000E+00  0.00000000E+00
  0.00000000E+00  0.00000000E+00  0.00000000E+00
  0.00000000E+00  0.00000000E+00  0.00000000E+00
  0.00000000E+00  0.00000000E+00  0.00000000E+00
  0.00000000E+00  0.00000000E+00  0.00000000E+00
  0.00000000E+00  0.00000000E+00  0.00000000E+00
  0.00000000E+00  0.00000000E+00  0.00000000E+00
  0.00000000E+00  0.00000000E+00  0.00000000E+00
  0.00000000E+00  0.00000000E+00  0.00000000E+00
  0.00000000E+00  0.00000000E+00  0.00000000E+00
  0.00000000E+00  0.00000000E+00  0.00000000E+00
  0.00000000E+00  0.00000000E+00  0.00000000E+00
  0.00000000E+00  0.00000000E+00  0.00000000E+00
  0.00000000E+00  0.00000000E+00  0.00000000E+00
  0.00000000E+00  0.00000000E+00  0.00000000E+00
  0.00000000E+00  0.00000000E+00  0.00000000E+00
  0.00000000E+00  0.00000000E+00  0.00000000E+00
  0.00000000E+00  0.00000000E+00  0.00000000E+00
  0.00000000E+00  0.00000000E+00  0.00000000E+00
  0.00000000E+00  0.00000000E+00  0.00000000E+00
  0.00000000E+00  0.00000000E+00  0.00000000E+00
  0.00000000E+00  0.00000000E+00  0.00000000E+00
