supercell of 100% icsd_608626.cif, 0% i 
   1.00000000000000     
    -9.9543567602878156   -0.0222147573492846    0.0135272630789027
    -4.9576550040362228    8.5214849568431230    0.0610617196114593
     0.0147726865455946   -0.0662267782057310  -10.2796682297023043
   Al   Hf   Ca   N 
    26     5     5    36
Direct
  0.1176593402845540  0.0900232009620936  0.3032899133174780
  0.8765709542696172  0.2132565591425504  0.5259664110192048
  0.4503703019343277  0.0905101017616943  0.2984915838996542
  0.5543719271977920  0.1957761461777139  0.0495527993341156
  0.2327667304202592  0.2059919821520992  0.5419495829960326
  0.7693334392727493  0.0915251099445271  0.3100472445842328
  0.4494468853686371  0.0963151222462386  0.7913058423141379
  0.5504010614212476  0.2109834394325887  0.5361927814082392
  0.2220503677577668  0.5379679401563209  0.0463215149101401
  0.7797462267719979  0.4191135309477900  0.7903367665393120
  0.4426240767081140  0.4244144692266687  0.2984877397248624
  0.1188922951907543  0.4282786760848580  0.7877901307836765
  0.2387984287020615  0.5423147404451143  0.5508039306867545
  0.7771323054948738  0.4349921987051815  0.2954250447474180
  0.8822097608858854  0.5489045883062005  0.0391146422572675
  0.4394359903527061  0.4146506024447447  0.7963065771279716
  0.5548893919350562  0.5283441997105669  0.5388072210737960
  0.1156541544396532  0.7647956816316324  0.2860237241469221
  0.2338833957259183  0.8692903841440156  0.0583853210230174
  0.7682131128331164  0.7716742741605174  0.8111066980642505
  0.4469269978298342  0.7650856360831355  0.3041980233846928
  0.5577739871421414  0.8740985043586136  0.0536482424249698
  0.2277004965877012  0.8653682421301809  0.5299540369712119
  0.7723490158904625  0.7636413629336971  0.2865131936612002
  0.8721569204472530  0.8745108221708833  0.0635999912971670
  0.5522931041787587  0.8815114402907511  0.5429528370214243
  0.2284593290820780  0.2083630461885235  0.0472922671996301
  0.1145672783118101  0.0927040664148251  0.7798227054948441
  0.1048566892051426  0.4403179753502258  0.3144057554904620
  0.5528565303934627  0.5347126734863181  0.0609685320515183
  0.4592313492873217  0.7549771323033383  0.7872782477911997
  0.7679861672799788  0.0927636335714084  0.7793564622470228
  0.8918587153666095  0.1908534870033876  0.0652234621218639
  0.8757116206467899  0.5468113033372077  0.5726085121676334
  0.8976593483107891  0.8544982051752754  0.5386578435926381
  0.1100622169293288  0.7573785738746608  0.8197746236981871
  0.2319154035481432  0.1963851129812397  0.3514891466092749
  0.1439081396010735  0.0757288131661937  0.1186867924898038
  0.8989644114178645  0.2163292531352923  0.8449915001278896
  0.7650031250931804  0.1127788012524675  0.5468756970162687
  0.5388193579131837  0.2129350004734292  0.3522393683704976
  0.4535369261806181  0.0859879238550079  0.1130772360837753
  0.2278230313559320  0.2099700135770846  0.8408912558644417
  0.1117749446449707  0.0983438743679201  0.5741590335273941
  0.8931304425423860  0.2125695065091762  0.3367740821042915
  0.7499231428608937  0.0855979412811649  0.1227949215957764
  0.5289133005488935  0.2134978682119169  0.8657532919269144
  0.4421096425422846  0.0980498446201565  0.6016752864894812
  0.2319963972695476  0.5516251446059997  0.3571468340253574
  0.0970903027301588  0.4487122150110849  0.1075548081478743
  0.8889807627186599  0.5351826210394677  0.8451691800071046
  0.7554018878147915  0.4134542680331208  0.6073405875765943
  0.5549927804664279  0.5359646803220173  0.3449623408828941
  0.4325863641433116  0.4160588924497901  0.1129620752997482
  0.2373213633322777  0.5044206858471867  0.8660200704765160
  0.1426508048444433  0.4199237481556111  0.5969304610392925
  0.8700046244659561  0.5540492828704373  0.3478977951763369
  0.7769525484996294  0.4515367085824593  0.1109473956134011
  0.5609691309137546  0.5212985678455055  0.8551078316916687
  0.4485380869040370  0.4242864365384662  0.6056890510053989
  0.2263768992601740  0.8710830718729881  0.3452810919775828
  0.1255044206407021  0.7571961264260381  0.0971722148936323
  0.8685229970495669  0.8648789328742623  0.8832991651192899
  0.7312777721312571  0.7925614208036080  0.6353322719030814
  0.5577445922059141  0.8754266453072859  0.3541291409193690
  0.4463464426809125  0.7706832670516377  0.1134810823926884
  0.2458053474418662  0.8793880178000251  0.8733585915487438
  0.1488803631533315  0.7507845586354520  0.6001064966638552
  0.8973925506350042  0.8591416920414190  0.3158671477141013
  0.7681918649413717  0.7575390716504700  0.1027737997859006
  0.5489899711409905  0.8862249413204140  0.8689831553453331
  0.4447599425099256  0.7636859970286736  0.5811195920141685
 
  0.00000000E+00  0.00000000E+00  0.00000000E+00
  0.00000000E+00  0.00000000E+00  0.00000000E+00
  0.00000000E+00  0.00000000E+00  0.00000000E+00
  0.00000000E+00  0.00000000E+00  0.00000000E+00
  0.00000000E+00  0.00000000E+00  0.00000000E+00
  0.00000000E+00  0.00000000E+00  0.00000000E+00
  0.00000000E+00  0.00000000E+00  0.00000000E+00
  0.00000000E+00  0.00000000E+00  0.00000000E+00
  0.00000000E+00  0.00000000E+00  0.00000000E+00
  0.00000000E+00  0.00000000E+00  0.00000000E+00
  0.00000000E+00  0.00000000E+00  0.00000000E+00
  0.00000000E+00  0.00000000E+00  0.00000000E+00
  0.00000000E+00  0.00000000E+00  0.00000000E+00
  0.00000000E+00  0.00000000E+00  0.00000000E+00
  0.00000000E+00  0.00000000E+00  0.00000000E+00
  0.00000000E+00  0.00000000E+00  0.00000000E+00
  0.00000000E+00  0.00000000E+00  0.00000000E+00
  0.00000000E+00  0.00000000E+00  0.00000000E+00
  0.00000000E+00  0.00000000E+00  0.00000000E+00
  0.00000000E+00  0.00000000E+00  0.00000000E+00
  0.00000000E+00  0.00000000E+00  0.00000000E+00
  0.00000000E+00  0.00000000E+00  0.00000000E+00
  0.00000000E+00  0.00000000E+00  0.00000000E+00
  0.00000000E+00  0.00000000E+00  0.00000000E+00
  0.00000000E+00  0.00000000E+00  0.00000000E+00
  0.00000000E+00  0.00000000E+00  0.00000000E+00
  0.00000000E+00  0.00000000E+00  0.00000000E+00
  0.00000000E+00  0.00000000E+00  0.00000000E+00
  0.00000000E+00  0.00000000E+00  0.00000000E+00
  0.00000000E+00  0.00000000E+00  0.00000000E+00
  0.00000000E+00  0.00000000E+00  0.00000000E+00
  0.00000000E+00  0.00000000E+00  0.00000000E+00
  0.00000000E+00  0.00000000E+00  0.00000000E+00
  0.00000000E+00  0.00000000E+00  0.00000000E+00
  0.00000000E+00  0.00000000E+00  0.00000000E+00
  0.00000000E+00  0.00000000E+00  0.00000000E+00
  0.00000000E+00  0.00000000E+00  0.00000000E+00
  0.00000000E+00  0.00000000E+00  0.00000000E+00
  0.00000000E+00  0.00000000E+00  0.00000000E+00
  0.00000000E+00  0.00000000E+00  0.00000000E+00
  0.00000000E+00  0.00000000E+00  0.00000000E+00
  0.00000000E+00  0.00000000E+00  0.00000000E+00
  0.00000000E+00  0.00000000E+00  0.00000000E+00
  0.00000000E+00  0.00000000E+00  0.00000000E+00
  0.00000000E+00  0.00000000E+00  0.00000000E+00
  0.00000000E+00  0.00000000E+00  0.00000000E+00
  0.00000000E+00  0.00000000E+00  0.00000000E+00
  0.00000000E+00  0.00000000E+00  0.00000000E+00
  0.00000000E+00  0.00000000E+00  0.00000000E+00
  0.00000000E+00  0.00000000E+00  0.00000000E+00
  0.00000000E+00  0.00000000E+00  0.00000000E+00
  0.00000000E+00  0.00000000E+00  0.00000000E+00
  0.00000000E+00  0.00000000E+00  0.00000000E+00
  0.00000000E+00  0.00000000E+00  0.00000000E+00
  0.00000000E+00  0.00000000E+00  0.00000000E+00
  0.00000000E+00  0.00000000E+00  0.00000000E+00
  0.00000000E+00  0.00000000E+00  0.00000000E+00
  0.00000000E+00  0.00000000E+00  0.00000000E+00
  0.00000000E+00  0.00000000E+00  0.00000000E+00
  0.00000000E+00  0.00000000E+00  0.00000000E+00
  0.00000000E+00  0.00000000E+00  0.00000000E+00
  0.00000000E+00  0.00000000E+00  0.00000000E+00
  0.00000000E+00  0.00000000E+00  0.00000000E+00
  0.00000000E+00  0.00000000E+00  0.00000000E+00
  0.00000000E+00  0.00000000E+00  0.00000000E+00
  0.00000000E+00  0.00000000E+00  0.00000000E+00
  0.00000000E+00  0.00000000E+00  0.00000000E+00
  0.00000000E+00  0.00000000E+00  0.00000000E+00
  0.00000000E+00  0.00000000E+00  0.00000000E+00
  0.00000000E+00  0.00000000E+00  0.00000000E+00
  0.00000000E+00  0.00000000E+00  0.00000000E+00
  0.00000000E+00  0.00000000E+00  0.00000000E+00
