supercell of 100% icsd_608626.cif, 0% i 
   1.00000000000000     
    -9.8766487926987434   -0.0064166598053607   -0.0346566336471161
    -4.9326823851535408    8.5775299940334122    0.0215746880723030
    -0.0366350717259156   -0.0478760023993820  -10.3168466386658366
   Ca   Al   Hf   N 
     5    26     5    36
Direct
  0.1265856824447837  0.0811325812805208  0.3045141943203618
  0.5606678671497036  0.5369724078878093  0.0499566115012513
  0.2215829452397600  0.8657102351087858  0.0285020292428229
  0.7789037274937414  0.7560703074222488  0.7841174995039637
  0.5532612437892013  0.8734546686256479  0.0514011052335235
  0.2194728156309864  0.2069541169612279  0.0482912380714353
  0.8914048052037273  0.2088565330772170  0.5504083510028650
  0.4319293703208018  0.1072910774820599  0.2926847931300145
  0.5254714730132548  0.2228828386628905  0.0439462876691579
  0.1165243841042027  0.0932594502413551  0.7840666897424597
  0.2170840152085489  0.2122216865665649  0.5420210974983632
  0.9042360842072839  0.2214729988103414  0.0382097757836419
  0.4330706922383385  0.0903296958044351  0.7927898686275938
  0.1216254781333106  0.4218515195080741  0.2906162481111423
  0.2219364097635790  0.5404149783072754  0.0592189967632990
  0.7740750759010311  0.4320603171143205  0.7893763626377037
  0.8939893618688046  0.5289597117312397  0.5393514872920733
  0.4356944863837953  0.4365405517813628  0.2973080000307462
  0.2139321222967965  0.5445947852310411  0.5407114782605191
  0.7799259695403364  0.4224139123811383  0.3004824320940642
  0.8981269634828450  0.5274924699506514  0.0583548908433968
  0.4379976237395837  0.4460732831658447  0.7933193822414637
  0.5577762648832518  0.5422223767514325  0.5462909537857854
  0.1255338123810006  0.7490128411179100  0.3023878301290566
  0.8970753437923804  0.8691778226285365  0.5429946833517434
  0.4360842843558927  0.7536102809920493  0.3103517914380802
  0.1194301901842465  0.7598607549634337  0.7874426913085344
  0.2242854598547197  0.8636513406964283  0.5619299771832189
  0.9096174948750502  0.8437142742135819  0.0498015339582381
  0.4450413575118475  0.7635981232240212  0.7737838019331136
  0.5449245346827283  0.8764904464374439  0.5416305251094613
  0.7801576174115183  0.0944605312922846  0.8311530005061911
  0.7761025018336767  0.1008796907784912  0.2780610336372078
  0.5529849563094089  0.2088273527727367  0.5560556154265726
  0.1151522073705848  0.4287943353704833  0.8120770277207825
  0.7784675801469589  0.7547804455158484  0.3173534471698503
  0.2353008331379272  0.2264113409645390  0.3646684977868730
  0.1041925542444346  0.1143533249303630  0.0866342868452534
  0.8970843009228346  0.2173339570845485  0.8477314097553474
  0.7917945154151766  0.0839223664187472  0.6150272056970252
  0.5481890291412483  0.2105464283294936  0.3532721838629342
  0.4238871390464993  0.1252356262927066  0.1114347203657786
  0.2252259084844468  0.1944486260305283  0.8530770257692524
  0.1081988758932084  0.1031964404566921  0.5943535417072567
  0.8630687062629363  0.2200378452447183  0.3697037928070444
  0.7686733889011563  0.1032256985504247  0.0678933586119186
  0.5271114479818166  0.2226978037857918  0.8462847975960273
  0.4316089916649446  0.0948149223788519  0.6048646125438992
  0.2194546112892013  0.5357318656441876  0.3572096152274611
  0.1159610677610061  0.4261792038690828  0.0958835301209575
  0.8885501984589936  0.5153689442384390  0.8707591901280338
  0.7812254294655787  0.4282344952222985  0.6026954379277001
  0.5617415597771753  0.5290872281358361  0.3593650059065538
  0.4272806617279912  0.4198880721179563  0.1170068795481711
  0.2316284088220399  0.5548183623150322  0.8648160382723944
  0.1073321417077295  0.4324083373037055  0.6061086341385220
  0.9055361171465677  0.5126430162938505  0.3561914600097964
  0.8076442095434118  0.4131034450220099  0.1212943517643623
  0.5557736344997934  0.5437442519994633  0.8220122192275099
  0.4291897178217638  0.4459394416332430  0.6042795237621590
  0.2342717134570620  0.8337738825854117  0.3812148952429055
  0.1036934378737513  0.7439993607802222  0.1237644596333567
  0.9220952077650466  0.8614224325477124  0.8690078482348014
  0.7776138344936498  0.7598240728954835  0.5553973668002570
  0.5341716226916162  0.8922402510544387  0.3554058288026809
  0.4346455832775789  0.7636921915985724  0.1375858020049776
  0.2234129375290053  0.8734663514863072  0.7973112827564677
  0.1025092398835028  0.7530261526827005  0.6049116016869434
  0.9015627826375621  0.8774814580373089  0.3578196513538359
  0.8090043385801522  0.7401299597602744  0.1150157187447292
  0.5291475372386287  0.8841266113455433  0.8294929519780112
  0.4520861127068869  0.7573554871068353  0.5895425411190161
 
  0.00000000E+00  0.00000000E+00  0.00000000E+00
  0.00000000E+00  0.00000000E+00  0.00000000E+00
  0.00000000E+00  0.00000000E+00  0.00000000E+00
  0.00000000E+00  0.00000000E+00  0.00000000E+00
  0.00000000E+00  0.00000000E+00  0.00000000E+00
  0.00000000E+00  0.00000000E+00  0.00000000E+00
  0.00000000E+00  0.00000000E+00  0.00000000E+00
  0.00000000E+00  0.00000000E+00  0.00000000E+00
  0.00000000E+00  0.00000000E+00  0.00000000E+00
  0.00000000E+00  0.00000000E+00  0.00000000E+00
  0.00000000E+00  0.00000000E+00  0.00000000E+00
  0.00000000E+00  0.00000000E+00  0.00000000E+00
  0.00000000E+00  0.00000000E+00  0.00000000E+00
  0.00000000E+00  0.00000000E+00  0.00000000E+00
  0.00000000E+00  0.00000000E+00  0.00000000E+00
  0.00000000E+00  0.00000000E+00  0.00000000E+00
  0.00000000E+00  0.00000000E+00  0.00000000E+00
  0.00000000E+00  0.00000000E+00  0.00000000E+00
  0.00000000E+00  0.00000000E+00  0.00000000E+00
  0.00000000E+00  0.00000000E+00  0.00000000E+00
  0.00000000E+00  0.00000000E+00  0.00000000E+00
  0.00000000E+00  0.00000000E+00  0.00000000E+00
  0.00000000E+00  0.00000000E+00  0.00000000E+00
  0.00000000E+00  0.00000000E+00  0.00000000E+00
  0.00000000E+00  0.00000000E+00  0.00000000E+00
  0.00000000E+00  0.00000000E+00  0.00000000E+00
  0.00000000E+00  0.00000000E+00  0.00000000E+00
  0.00000000E+00  0.00000000E+00  0.00000000E+00
  0.00000000E+00  0.00000000E+00  0.00000000E+00
  0.00000000E+00  0.00000000E+00  0.00000000E+00
  0.00000000E+00  0.00000000E+00  0.00000000E+00
  0.00000000E+00  0.00000000E+00  0.00000000E+00
  0.00000000E+00  0.00000000E+00  0.00000000E+00
  0.00000000E+00  0.00000000E+00  0.00000000E+00
  0.00000000E+00  0.00000000E+00  0.00000000E+00
  0.00000000E+00  0.00000000E+00  0.00000000E+00
  0.00000000E+00  0.00000000E+00  0.00000000E+00
  0.00000000E+00  0.00000000E+00  0.00000000E+00
  0.00000000E+00  0.00000000E+00  0.00000000E+00
  0.00000000E+00  0.00000000E+00  0.00000000E+00
  0.00000000E+00  0.00000000E+00  0.00000000E+00
  0.00000000E+00  0.00000000E+00  0.00000000E+00
  0.00000000E+00  0.00000000E+00  0.00000000E+00
  0.00000000E+00  0.00000000E+00  0.00000000E+00
  0.00000000E+00  0.00000000E+00  0.00000000E+00
  0.00000000E+00  0.00000000E+00  0.00000000E+00
  0.00000000E+00  0.00000000E+00  0.00000000E+00
  0.00000000E+00  0.00000000E+00  0.00000000E+00
  0.00000000E+00  0.00000000E+00  0.00000000E+00
  0.00000000E+00  0.00000000E+00  0.00000000E+00
  0.00000000E+00  0.00000000E+00  0.00000000E+00
  0.00000000E+00  0.00000000E+00  0.00000000E+00
  0.00000000E+00  0.00000000E+00  0.00000000E+00
  0.00000000E+00  0.00000000E+00  0.00000000E+00
  0.00000000E+00  0.00000000E+00  0.00000000E+00
  0.00000000E+00  0.00000000E+00  0.00000000E+00
  0.00000000E+00  0.00000000E+00  0.00000000E+00
  0.00000000E+00  0.00000000E+00  0.00000000E+00
  0.00000000E+00  0.00000000E+00  0.00000000E+00
  0.00000000E+00  0.00000000E+00  0.00000000E+00
  0.00000000E+00  0.00000000E+00  0.00000000E+00
  0.00000000E+00  0.00000000E+00  0.00000000E+00
  0.00000000E+00  0.00000000E+00  0.00000000E+00
  0.00000000E+00  0.00000000E+00  0.00000000E+00
  0.00000000E+00  0.00000000E+00  0.00000000E+00
  0.00000000E+00  0.00000000E+00  0.00000000E+00
  0.00000000E+00  0.00000000E+00  0.00000000E+00
  0.00000000E+00  0.00000000E+00  0.00000000E+00
  0.00000000E+00  0.00000000E+00  0.00000000E+00
  0.00000000E+00  0.00000000E+00  0.00000000E+00
  0.00000000E+00  0.00000000E+00  0.00000000E+00
  0.00000000E+00  0.00000000E+00  0.00000000E+00
