POSCAR                                  
  0.960000000000000     
     0.0075371078512200   -7.0336700072399996    7.5723401532499999
    10.6497183037000003    2.6295915700900001    7.8648683724800001
    -2.3264117118500001    7.2074248096800000   10.2629755125000006
   Tb   Al   N 
    30    18    48
Direct
  0.8422105241977462  0.2096444915173521  0.7179812263818874
  0.7456013573551843  0.2517456367636512  0.9905979919318852
  0.8780834576687511  0.5195446076799328  0.9777263278019319
  0.8418409886258331  0.8116345282975033  0.2699953866239539
  0.5486829032162888  0.1658100575061425  0.4794330260938580
  0.4761112483532486  0.2023327699855315  0.7361266878577268
  0.3979242788493806  0.2499942580768959  0.9983444702104407
  0.3196028830830144  0.3105801304010143  0.2458002820347787
  0.5483547338084023  0.4377063782371735  0.7430871397844783
  0.5270059617767728  0.4903967718320317  0.9978114925347228
  0.4506492726957276  0.5410466521398902  0.2546157475320143
  0.7598382110208632  0.5743038758565433  0.5053687998228398
  0.5866015466761638  0.7556710047503756  0.0016721189528468
  0.7456766535686299  0.9531779248807339  0.7505082568793355
  0.6619305960369388  0.0055521252436321  0.0022327985978094
  0.5777395900578313  0.0582181416684833  0.2722903308842390
  0.0818433236560665  0.2457266003894034  0.9815286869315401
  0.2038371559813967  0.4225442026998181  0.5403756752671285
  0.1010377040196389  0.5620049045411193  0.2511398569482992
  0.3779139906978841  0.6319608397958874  0.4835373717515452
  0.3410273806777155  0.6918859842855056  0.7480987811724162
  0.2625624284309183  0.7537230477043693  0.9906476916176530
  0.4015116671346988  0.9522575629997476  0.7209714854064373
  0.3336587180782118  0.9870009069477703  0.0119358522309199
  0.2448626479088318  0.0469176191239740  0.2605807887552416
  0.8973651770659785  0.1326641004734910  0.4875429816575334
  0.9241260285652189  0.7551799767625766  0.0003575294753446
  0.1303280859653881  0.8650950966532918  0.5271434332671916
  0.0029776857760453  0.9936387975610828  0.0111835373124975
  0.9084774356311982  0.0861715001609653  0.2454924810654973
  0.7385011985094962  0.3679184821583590  0.2411918300796074
  0.7166670129823416  0.6118672818516231  0.2429296046925060
  0.6032766721548697  0.4026566900908009  0.4829615815985520
  0.6728159983189883  0.7188050188231827  0.7654026296327601
  0.5061219860352111  0.8443754681752438  0.2485944146907997
  0.7958914550224563  0.8947604236900020  0.5155299961403372
  0.2053607940024520  0.1866956886643436  0.5147148329228415
  0.1776204679800841  0.1473699492193319  0.7913836984190681
  0.0181862882822017  0.3313337857516245  0.1931528720338633
  0.1696462426134389  0.5293750049575081  0.7911934052623906
  0.1942081974013448  0.5228196045366786  0.0038640171966549
  0.2287250346805081  0.7623047273953247  0.2498267748073459
  0.5636684363074949  0.7998774228487306  0.5272290874440415
  0.9284334402450654  0.3957310051022205  0.4195318685119602
  0.8976620844898946  0.4766650366247518  0.7590800025661579
  0.9896097144001530  0.6511528499500017  0.5760391737036841
  0.9500701817688366  0.7314950947987171  0.7586145230489194
  0.0846116222968902  0.9741710104393917  0.7494308047901228
  0.8940073708879623  0.3184589799228803  0.3345534768239560
  0.7734119356361617  0.3823976717941164  0.5510652530908189
  0.7179729123561103  0.4445815286732966  0.8528109682834142
  0.8556507715319199  0.6424757998036483  0.7217680052646571
  0.7865309740537896  0.7410731403056232  0.8774002424608014
  0.9083613394629495  0.9490656672690747  0.8654777970050418
  0.5303542849353420  0.2796711686243043  0.1129873832274200
  0.5762214645940347  0.3479581907211369  0.3596719530653445
  0.4438819283960100  0.4066198139458947  0.6029383515910354
  0.3434954977364697  0.4732576564747788  0.8779470316650659
  0.6766439234154689  0.5380342344656199  0.1329002600970668
  0.5769513240638844  0.5723438728903076  0.3727614841771114
  0.5228860134861790  0.6510375390539735  0.6077985927206129
  0.4899420228436071  0.7042359836349661  0.8669145129688545
  0.6914593164618026  0.7818826842629818  0.1441617561481365
  0.6030926587741305  0.8500294645044306  0.3631415015422732
  0.6183634083124545  0.8592200716758214  0.6219847122305140
  0.5351374799561697  0.9606565658839656  0.8750824669473545
  0.7905775152522523  0.0224936594297844  0.1350473661037270
  0.7275986781536190  0.0532064241050634  0.4017260602093202
  0.6852872779325949  0.1449572184306618  0.6252089399240361
  0.6148916969244382  0.2214301003944286  0.8677725011353203
  0.2035890954918074  0.2557108687861316  0.1446568705780109
  0.1363011610836580  0.3567324278991748  0.4139158032211654
  0.9755676243853983  0.4995176165836739  0.5964102764887969
  0.0444407732926209  0.4359671803814891  0.8577767018518188
  0.3094041096278275  0.5382160214641729  0.1032197760225770
  0.2405814715401888  0.5957036135192126  0.3632233672373246
  0.1656692032305287  0.6454421058128688  0.6296298576836179
  0.0982041916261096  0.6561289753858972  0.8707804492071034
  0.3715829053965720  0.7667236065129757  0.1181117330040635
  0.3149699186982531  0.8238262619984837  0.3308875673619696
  0.2328529918548341  0.8792824966824142  0.6820646208947281
  0.2056371937856909  0.9728744925080761  0.8649168321167053
  0.4663513274006732  0.0161978902783773  0.1330167733783085
  0.3649026784594440  0.1338788952429013  0.4025169090665983
  0.3071326307032862  0.1743043073854196  0.6401532748970524
  0.2866006884925270  0.1839625143502701  0.8840444625819686
  0.8708836053260782  0.3018669347957612  0.1239783690767169
  0.0338093203682490  0.4913402106748492  0.1112648618009260
  0.8742488674344315  0.5735673131308374  0.3263968840837137
  0.0585192348896015  0.7737948599069142  0.1350876860738950
  0.9071018608599672  0.7852852099653518  0.4484375272507464
  0.9177172777791256  0.8826557296320701  0.6277259953697438
  0.1149332890541288  0.0402242778175932  0.1231944528714379
  0.0535965552713833  0.0385573838872801  0.3841419929194956
  0.0419405967992930  0.1264757469411109  0.6174638954872478
  0.9802811679092684  0.1931705821761796  0.8610630884668140
 
  0.00000000E+00  0.00000000E+00  0.00000000E+00
  0.00000000E+00  0.00000000E+00  0.00000000E+00
  0.00000000E+00  0.00000000E+00  0.00000000E+00
  0.00000000E+00  0.00000000E+00  0.00000000E+00
  0.00000000E+00  0.00000000E+00  0.00000000E+00
  0.00000000E+00  0.00000000E+00  0.00000000E+00
  0.00000000E+00  0.00000000E+00  0.00000000E+00
  0.00000000E+00  0.00000000E+00  0.00000000E+00
  0.00000000E+00  0.00000000E+00  0.00000000E+00
  0.00000000E+00  0.00000000E+00  0.00000000E+00
  0.00000000E+00  0.00000000E+00  0.00000000E+00
  0.00000000E+00  0.00000000E+00  0.00000000E+00
  0.00000000E+00  0.00000000E+00  0.00000000E+00
  0.00000000E+00  0.00000000E+00  0.00000000E+00
  0.00000000E+00  0.00000000E+00  0.00000000E+00
  0.00000000E+00  0.00000000E+00  0.00000000E+00
  0.00000000E+00  0.00000000E+00  0.00000000E+00
  0.00000000E+00  0.00000000E+00  0.00000000E+00
  0.00000000E+00  0.00000000E+00  0.00000000E+00
  0.00000000E+00  0.00000000E+00  0.00000000E+00
  0.00000000E+00  0.00000000E+00  0.00000000E+00
  0.00000000E+00  0.00000000E+00  0.00000000E+00
  0.00000000E+00  0.00000000E+00  0.00000000E+00
  0.00000000E+00  0.00000000E+00  0.00000000E+00
  0.00000000E+00  0.00000000E+00  0.00000000E+00
  0.00000000E+00  0.00000000E+00  0.00000000E+00
  0.00000000E+00  0.00000000E+00  0.00000000E+00
  0.00000000E+00  0.00000000E+00  0.00000000E+00
  0.00000000E+00  0.00000000E+00  0.00000000E+00
  0.00000000E+00  0.00000000E+00  0.00000000E+00
  0.00000000E+00  0.00000000E+00  0.00000000E+00
  0.00000000E+00  0.00000000E+00  0.00000000E+00
  0.00000000E+00  0.00000000E+00  0.00000000E+00
  0.00000000E+00  0.00000000E+00  0.00000000E+00
  0.00000000E+00  0.00000000E+00  0.00000000E+00
  0.00000000E+00  0.00000000E+00  0.00000000E+00
  0.00000000E+00  0.00000000E+00  0.00000000E+00
  0.00000000E+00  0.00000000E+00  0.00000000E+00
  0.00000000E+00  0.00000000E+00  0.00000000E+00
  0.00000000E+00  0.00000000E+00  0.00000000E+00
  0.00000000E+00  0.00000000E+00  0.00000000E+00
  0.00000000E+00  0.00000000E+00  0.00000000E+00
  0.00000000E+00  0.00000000E+00  0.00000000E+00
  0.00000000E+00  0.00000000E+00  0.00000000E+00
  0.00000000E+00  0.00000000E+00  0.00000000E+00
  0.00000000E+00  0.00000000E+00  0.00000000E+00
  0.00000000E+00  0.00000000E+00  0.00000000E+00
  0.00000000E+00  0.00000000E+00  0.00000000E+00
  0.00000000E+00  0.00000000E+00  0.00000000E+00
  0.00000000E+00  0.00000000E+00  0.00000000E+00
  0.00000000E+00  0.00000000E+00  0.00000000E+00
  0.00000000E+00  0.00000000E+00  0.00000000E+00
  0.00000000E+00  0.00000000E+00  0.00000000E+00
  0.00000000E+00  0.00000000E+00  0.00000000E+00
  0.00000000E+00  0.00000000E+00  0.00000000E+00
  0.00000000E+00  0.00000000E+00  0.00000000E+00
  0.00000000E+00  0.00000000E+00  0.00000000E+00
  0.00000000E+00  0.00000000E+00  0.00000000E+00
  0.00000000E+00  0.00000000E+00  0.00000000E+00
  0.00000000E+00  0.00000000E+00  0.00000000E+00
  0.00000000E+00  0.00000000E+00  0.00000000E+00
  0.00000000E+00  0.00000000E+00  0.00000000E+00
  0.00000000E+00  0.00000000E+00  0.00000000E+00
  0.00000000E+00  0.00000000E+00  0.00000000E+00
  0.00000000E+00  0.00000000E+00  0.00000000E+00
  0.00000000E+00  0.00000000E+00  0.00000000E+00
  0.00000000E+00  0.00000000E+00  0.00000000E+00
  0.00000000E+00  0.00000000E+00  0.00000000E+00
  0.00000000E+00  0.00000000E+00  0.00000000E+00
  0.00000000E+00  0.00000000E+00  0.00000000E+00
  0.00000000E+00  0.00000000E+00  0.00000000E+00
  0.00000000E+00  0.00000000E+00  0.00000000E+00
  0.00000000E+00  0.00000000E+00  0.00000000E+00
  0.00000000E+00  0.00000000E+00  0.00000000E+00
  0.00000000E+00  0.00000000E+00  0.00000000E+00
  0.00000000E+00  0.00000000E+00  0.00000000E+00
  0.00000000E+00  0.00000000E+00  0.00000000E+00
  0.00000000E+00  0.00000000E+00  0.00000000E+00
  0.00000000E+00  0.00000000E+00  0.00000000E+00
  0.00000000E+00  0.00000000E+00  0.00000000E+00
  0.00000000E+00  0.00000000E+00  0.00000000E+00
  0.00000000E+00  0.00000000E+00  0.00000000E+00
  0.00000000E+00  0.00000000E+00  0.00000000E+00
  0.00000000E+00  0.00000000E+00  0.00000000E+00
  0.00000000E+00  0.00000000E+00  0.00000000E+00
  0.00000000E+00  0.00000000E+00  0.00000000E+00
  0.00000000E+00  0.00000000E+00  0.00000000E+00
  0.00000000E+00  0.00000000E+00  0.00000000E+00
  0.00000000E+00  0.00000000E+00  0.00000000E+00
  0.00000000E+00  0.00000000E+00  0.00000000E+00
  0.00000000E+00  0.00000000E+00  0.00000000E+00
  0.00000000E+00  0.00000000E+00  0.00000000E+00
  0.00000000E+00  0.00000000E+00  0.00000000E+00
  0.00000000E+00  0.00000000E+00  0.00000000E+00
  0.00000000E+00  0.00000000E+00  0.00000000E+00
  0.00000000E+00  0.00000000E+00  0.00000000E+00
