generated by phonopy                    
   1.00000000000000     
    10.0351470768999995   -0.0000022330999784   -0.0000001056124209
    -5.0175765436399997    8.6906901959899994    0.0000001395531216
    -0.0000001735893656    0.0000001431815548   14.9533752540999991
   Pb   P    O    Cu
    20    12    49     1
Direct
  0.9922436174481035  0.7700257961127051  0.1153698414169142
  0.0037531525519512  0.7641296930707497  0.6315408924416843
  0.9591180879214178  0.2351555412510606  0.3474992475761454
  0.0008764183920889  0.2592202907759500  0.8760800566907960
  0.2207816848800306  0.2189258615991534  0.1150375462390869
  0.2589293113058346  0.2266591466187293  0.6374479446050927
  0.7319266689515302  0.7336755270072928  0.3711770808134034
  0.7370802310987159  0.7364867055989635  0.8745467525129342
  0.7642138120545923  0.9944657000396973  0.1150886885247004
  0.7907211918993013  0.0131573685057091  0.6355790324456834
  0.2513795839870809  0.9885867068998024  0.3670853665357541
  0.2580088579305624  0.9963428954044602  0.8778714276164123
  0.6644429300441530  0.3290017585941527  0.9983500655105502
  0.6734124946887832  0.3474393629398449  0.4980122231699866
  0.3332668286064973  0.6700633673337677  0.0023159525820020
  0.3575410543298716  0.7087701474474173  0.5058243225241910
  0.3120066665741845  0.6657915861126682  0.2426318706799648
  0.3428494245486249  0.6710180254812954  0.7472634634209712
  0.6543624057862729  0.3422009411700273  0.2408978282826837
  0.6784763529188282  0.3297742679002340  0.7490797894278174
  0.6164818528171949  0.5954731918077840  0.1234851264341188
  0.6224980446905448  0.5965426682025310  0.6230723627376449
  0.3605690854749284  0.3929217615349074  0.3864818796553848
  0.3721732889877032  0.3845589903713744  0.8663976882218805
  0.3990498371778841  0.0277668750765869  0.1246558883190048
  0.4214956175373032  0.0380802628673038  0.6238339821235570
  0.6056917964896158  0.9787823934851190  0.3748161374139372
  0.6082576063361387  0.9755490852304547  0.8714913278012943
  0.9654830961735712  0.3778248049640922  0.1185796808538200
  0.9903603533264942  0.3844974447908101  0.6257724714818380
  0.0269761826134101  0.6234868975046055  0.3755890370210437
  0.0271068227546678  0.6293359118642741  0.8714323179039027
  0.4973486653510264  0.6515374567079846  0.1227816768201961
  0.5090093020740980  0.6596267616362752  0.6229840312851493
  0.4615042317522580  0.3173892378606951  0.3911896858258217
  0.4764366577191410  0.3112485403855629  0.8691920001772786
  0.3479228476481566  0.8528997884298590  0.1230890515595817
  0.3496009607041799  0.8595620338854886  0.6291976822454259
  0.6798679322389845  0.1581403205455700  0.3767400077731438
  0.6866256673396478  0.1541958378088282  0.8721274013726301
  0.1394912502324814  0.5010943031914650  0.1185853074876988
  0.1650206414496154  0.5040352646412032  0.6321264338567048
  0.8474758742131456  0.5346353172319454  0.3742413578005497
  0.8485866214746167  0.5282185662169567  0.8734660341255989
  0.7301869454726173  0.6637455251746260  0.0419346619007470
  0.7157247805436455  0.6319047564511209  0.5340709546114226
  0.2561500920674362  0.3307509084460349  0.9464583473832278
  0.3372829716202119  0.0721010621752427  0.0393871241235004
  0.3613035040193324  0.0850722548364473  0.5400532925639183
  0.6277874100659133  0.9112284254662910  0.4645350002398558
  0.6560435784777496  0.9122713464393755  0.9538346461711811
  0.9170379139491658  0.2766501875364185  0.0322060986859825
  0.9732213392180284  0.2780377369162181  0.5427005776673823
  0.0963774502267754  0.7319759798371237  0.4586437661719387
  0.0903392784758381  0.7395962920885140  0.9545480838250882
  0.2372120236977580  0.3222465288954055  0.3116933443801031
  0.2691001910078796  0.3377213915074577  0.7790575160839808
  0.7170195187796793  0.6469250842104302  0.2112700663576064
  0.7410000039206466  0.6664907071311390  0.7019077452254550
  0.6791686190892392  0.9311068845820216  0.2981476108453975
  0.6525087090142989  0.9145000378854817  0.7864400849396560
  0.3317140510696888  0.0703838057203754  0.2075960244455857
  0.3672351127535052  0.0963892435354552  0.7079122039414756
  0.0959033344709752  0.7306431787680125  0.2907938627346880
  0.0863098838285623  0.7354629564018467  0.7865674777180374
  0.9262036260287090  0.2624427716867004  0.1988639792911187
  0.9250093096645955  0.2739453457548109  0.7087498136448147
  0.5351756225692910  0.4147790435759333  0.1190008583529405
  0.5312642654999706  0.4142608087759498  0.6351742617995768
  0.4592210034294197  0.5723401456245583  0.3794954814184806
  0.4727978266184394  0.5659654519801904  0.8690799762799770
  0.5790451865044446  0.1294738885539743  0.1266113073032855
  0.6008536617661733  0.1230165882904970  0.6250757039781192
  0.4258343060783361  0.9013376705586253  0.3595423317921629
  0.4274026940519349  0.9017605461685889  0.8739691276990627
  0.8626370830703181  0.4539946351319912  0.1278170943636070
  0.8912746891087977  0.4632479209207503  0.6139408969593916
  0.0869735072161930  0.5042829892488925  0.3729540068141333
  0.1038387076520664  0.5246074834724155  0.8719350114892919
  0.9940899180112623  0.9986832857355736  0.1061330232456328
  0.0371727120619951  0.0228971370327216  0.6508100759496784
  0.1827764378229375  0.3484721127136226  0.4963082668516776
 
  0.00000000E+00  0.00000000E+00  0.00000000E+00
  0.00000000E+00  0.00000000E+00  0.00000000E+00
  0.00000000E+00  0.00000000E+00  0.00000000E+00
  0.00000000E+00  0.00000000E+00  0.00000000E+00
  0.00000000E+00  0.00000000E+00  0.00000000E+00
  0.00000000E+00  0.00000000E+00  0.00000000E+00
  0.00000000E+00  0.00000000E+00  0.00000000E+00
  0.00000000E+00  0.00000000E+00  0.00000000E+00
  0.00000000E+00  0.00000000E+00  0.00000000E+00
  0.00000000E+00  0.00000000E+00  0.00000000E+00
  0.00000000E+00  0.00000000E+00  0.00000000E+00
  0.00000000E+00  0.00000000E+00  0.00000000E+00
  0.00000000E+00  0.00000000E+00  0.00000000E+00
  0.00000000E+00  0.00000000E+00  0.00000000E+00
  0.00000000E+00  0.00000000E+00  0.00000000E+00
  0.00000000E+00  0.00000000E+00  0.00000000E+00
  0.00000000E+00  0.00000000E+00  0.00000000E+00
  0.00000000E+00  0.00000000E+00  0.00000000E+00
  0.00000000E+00  0.00000000E+00  0.00000000E+00
  0.00000000E+00  0.00000000E+00  0.00000000E+00
  0.00000000E+00  0.00000000E+00  0.00000000E+00
  0.00000000E+00  0.00000000E+00  0.00000000E+00
  0.00000000E+00  0.00000000E+00  0.00000000E+00
  0.00000000E+00  0.00000000E+00  0.00000000E+00
  0.00000000E+00  0.00000000E+00  0.00000000E+00
  0.00000000E+00  0.00000000E+00  0.00000000E+00
  0.00000000E+00  0.00000000E+00  0.00000000E+00
  0.00000000E+00  0.00000000E+00  0.00000000E+00
  0.00000000E+00  0.00000000E+00  0.00000000E+00
  0.00000000E+00  0.00000000E+00  0.00000000E+00
  0.00000000E+00  0.00000000E+00  0.00000000E+00
  0.00000000E+00  0.00000000E+00  0.00000000E+00
  0.00000000E+00  0.00000000E+00  0.00000000E+00
  0.00000000E+00  0.00000000E+00  0.00000000E+00
  0.00000000E+00  0.00000000E+00  0.00000000E+00
  0.00000000E+00  0.00000000E+00  0.00000000E+00
  0.00000000E+00  0.00000000E+00  0.00000000E+00
  0.00000000E+00  0.00000000E+00  0.00000000E+00
  0.00000000E+00  0.00000000E+00  0.00000000E+00
  0.00000000E+00  0.00000000E+00  0.00000000E+00
  0.00000000E+00  0.00000000E+00  0.00000000E+00
  0.00000000E+00  0.00000000E+00  0.00000000E+00
  0.00000000E+00  0.00000000E+00  0.00000000E+00
  0.00000000E+00  0.00000000E+00  0.00000000E+00
  0.00000000E+00  0.00000000E+00  0.00000000E+00
  0.00000000E+00  0.00000000E+00  0.00000000E+00
  0.00000000E+00  0.00000000E+00  0.00000000E+00
  0.00000000E+00  0.00000000E+00  0.00000000E+00
  0.00000000E+00  0.00000000E+00  0.00000000E+00
  0.00000000E+00  0.00000000E+00  0.00000000E+00
  0.00000000E+00  0.00000000E+00  0.00000000E+00
  0.00000000E+00  0.00000000E+00  0.00000000E+00
  0.00000000E+00  0.00000000E+00  0.00000000E+00
  0.00000000E+00  0.00000000E+00  0.00000000E+00
  0.00000000E+00  0.00000000E+00  0.00000000E+00
  0.00000000E+00  0.00000000E+00  0.00000000E+00
  0.00000000E+00  0.00000000E+00  0.00000000E+00
  0.00000000E+00  0.00000000E+00  0.00000000E+00
  0.00000000E+00  0.00000000E+00  0.00000000E+00
  0.00000000E+00  0.00000000E+00  0.00000000E+00
  0.00000000E+00  0.00000000E+00  0.00000000E+00
  0.00000000E+00  0.00000000E+00  0.00000000E+00
  0.00000000E+00  0.00000000E+00  0.00000000E+00
  0.00000000E+00  0.00000000E+00  0.00000000E+00
  0.00000000E+00  0.00000000E+00  0.00000000E+00
  0.00000000E+00  0.00000000E+00  0.00000000E+00
  0.00000000E+00  0.00000000E+00  0.00000000E+00
  0.00000000E+00  0.00000000E+00  0.00000000E+00
  0.00000000E+00  0.00000000E+00  0.00000000E+00
  0.00000000E+00  0.00000000E+00  0.00000000E+00
  0.00000000E+00  0.00000000E+00  0.00000000E+00
  0.00000000E+00  0.00000000E+00  0.00000000E+00
  0.00000000E+00  0.00000000E+00  0.00000000E+00
  0.00000000E+00  0.00000000E+00  0.00000000E+00
  0.00000000E+00  0.00000000E+00  0.00000000E+00
  0.00000000E+00  0.00000000E+00  0.00000000E+00
  0.00000000E+00  0.00000000E+00  0.00000000E+00
  0.00000000E+00  0.00000000E+00  0.00000000E+00
  0.00000000E+00  0.00000000E+00  0.00000000E+00
  0.00000000E+00  0.00000000E+00  0.00000000E+00
  0.00000000E+00  0.00000000E+00  0.00000000E+00
  0.00000000E+00  0.00000000E+00  0.00000000E+00
