supercell of icsd_181358.cif            
   1.00000000000000     
     9.1476696376966640   -0.0033883739705616    0.0057817098713652
    -4.5767739328792079    7.9073643754336684    0.0146508445740852
     0.0063560561138416    0.0222773859173078    9.8668708917635133
   N    Ga   B 
    36    28     8
Direct
  0.2513326108572187  0.1296431088941645  0.4447743379723335
  0.1210573419169236  0.2561551062085670  0.1982905426388299
  0.8893536301215406  0.1155593644069555  0.9169609426612908
  0.7909969298473101  0.2062789388215123  0.6974858112314308
  0.5396214680360885  0.1269607239222736  0.4223616633491218
  0.4548770539346521  0.2064453380979856  0.1712656720301027
  0.2514541365942904  0.1248681304248578  0.9527540059928086
  0.0816666587528587  0.2037137154250246  0.6966388904207577
  0.8874417979179086  0.1091391922312468  0.4385175771089536
  0.7393702557343289  0.2032585224043615  0.1978399962265414
  0.5367028939036445  0.1244565995958737  0.9411420528072298
  0.4462604566278472  0.2196885081965831  0.6580927297899706
  0.2107027897261347  0.4602998627668669  0.4239898066420338
  0.1417315575398277  0.5729812302757793  0.2051399391103104
  0.8957388003956623  0.4447772365461020  0.9416754925689617
  0.7796547109738299  0.5516490376258147  0.6945999516894474
  0.5391597376691379  0.4157480952301427  0.4465462750632767
  0.4138756677151179  0.5419986236574985  0.1994005758671591
  0.2206091370613734  0.4469614615510551  0.9301466740997171
  0.1180743112512062  0.5572694639074314  0.6496949864203998
  0.9181727387192353  0.4570034070910367  0.4465367529238975
  0.7729046006732077  0.5510770979823718  0.1947655958831831
  0.5372793534063902  0.4106916234931290  0.9498806077167714
  0.4659547244903663  0.5869377351397560  0.6970909166036989
  0.2115225767915234  0.7519162852902994  0.4231056203021453
  0.1255566916743760  0.8698469464645555  0.2059530108240253
  0.8935895928220887  0.7773756388250135  0.9436744442534675
  0.7650592713995223  0.9026331423279288  0.7106051113235310
  0.5599791204881939  0.7802241377817580  0.4374581107872402
  0.4291156852746383  0.9030631945280021  0.2074525071072273
  0.2225910365323216  0.7740692369530606  0.9341310419014874
  0.1165997810909047  0.8884687811373340  0.6875959940245195
  0.8870597357719561  0.7798011959854634  0.4462636832846130
  0.7772630264457234  0.8896667167812993  0.1799037152434835
  0.5505882006163390  0.7779870028845295  0.9184654321192056
  0.4630665336406921  0.8772380659601566  0.6923830320735505
  0.2336069601609907  0.1154898711471972  0.2498761718811195
  0.1152672748205461  0.2273633050239923  0.9996473264626573
  0.7752728882081428  0.2224818922027083  0.4994275147744034
  0.2258972509268986  0.1132095494173697  0.7507217040363230
  0.1128382439708844  0.2291804971185982  0.4985342979252678
  0.8831336871831041  0.1141225181863774  0.2494126541725166
  0.7660382832513903  0.2177737223007767  0.9998855577161692
  0.5564911996416342  0.1082635695632348  0.7475494446164461
  0.1183918929318537  0.5581213718119002  0.0114054465289684
  0.9015578246607703  0.4415795381268808  0.7449218258547106
  0.7772473825052586  0.5486308401973119  0.5015358965003713
  0.5421992019697228  0.4289260255452589  0.2506124293871181
  0.4391746968093173  0.5495809092273660  0.9995147241094955
  0.2222915574518538  0.4475273821315042  0.7402961057997643
  0.8950265371047195  0.4442637925519577  0.2546287334713497
  0.7719889972360363  0.5467868577250314  0.0012476866219160
  0.5518674686428113  0.4390194194842891  0.7506177074889990
  0.4400595630307791  0.5554837079675039  0.4998071264053365
  0.1209596673555211  0.8894595568847947  0.0083885315803656
  0.8886700968846455  0.7823229457941849  0.7510804062128216
  0.7752962298133781  0.8920333168281402  0.5149477444948687
  0.5472793768914102  0.7802554707507596  0.2487092835671660
  0.4413378140484951  0.8951479837542209  0.0054380030538894
  0.2295024621437207  0.7713342183768361  0.7422692119313936
  0.1202492313324726  0.8890217409775900  0.4942453906238029
  0.8898353367755263  0.7773188210208630  0.2528348402414693
  0.7758653255247339  0.8907325470405354  0.9862703434088260
  0.4419399471229397  0.8899647188851674  0.4926637350443670
  0.8812028741873235  0.1087193300860818  0.7542009924611079
  0.5417025781677225  0.1114164367794714  0.2475190244295504
  0.4457289707097232  0.2170428248548717  0.0031383582607987
  0.4432266945610905  0.2234014554784665  0.4933584894000376
  0.2238222957218667  0.4601277656697889  0.2566252206261979
  0.1138859019391134  0.5560488711359497  0.4859745862418450
  0.2259399318941107  0.7752591448034565  0.2610088615062338
  0.5592197380051687  0.7867356123337927  0.7531011230996825
 
  0.00000000E+00  0.00000000E+00  0.00000000E+00
  0.00000000E+00  0.00000000E+00  0.00000000E+00
  0.00000000E+00  0.00000000E+00  0.00000000E+00
  0.00000000E+00  0.00000000E+00  0.00000000E+00
  0.00000000E+00  0.00000000E+00  0.00000000E+00
  0.00000000E+00  0.00000000E+00  0.00000000E+00
  0.00000000E+00  0.00000000E+00  0.00000000E+00
  0.00000000E+00  0.00000000E+00  0.00000000E+00
  0.00000000E+00  0.00000000E+00  0.00000000E+00
  0.00000000E+00  0.00000000E+00  0.00000000E+00
  0.00000000E+00  0.00000000E+00  0.00000000E+00
  0.00000000E+00  0.00000000E+00  0.00000000E+00
  0.00000000E+00  0.00000000E+00  0.00000000E+00
  0.00000000E+00  0.00000000E+00  0.00000000E+00
  0.00000000E+00  0.00000000E+00  0.00000000E+00
  0.00000000E+00  0.00000000E+00  0.00000000E+00
  0.00000000E+00  0.00000000E+00  0.00000000E+00
  0.00000000E+00  0.00000000E+00  0.00000000E+00
  0.00000000E+00  0.00000000E+00  0.00000000E+00
  0.00000000E+00  0.00000000E+00  0.00000000E+00
  0.00000000E+00  0.00000000E+00  0.00000000E+00
  0.00000000E+00  0.00000000E+00  0.00000000E+00
  0.00000000E+00  0.00000000E+00  0.00000000E+00
  0.00000000E+00  0.00000000E+00  0.00000000E+00
  0.00000000E+00  0.00000000E+00  0.00000000E+00
  0.00000000E+00  0.00000000E+00  0.00000000E+00
  0.00000000E+00  0.00000000E+00  0.00000000E+00
  0.00000000E+00  0.00000000E+00  0.00000000E+00
  0.00000000E+00  0.00000000E+00  0.00000000E+00
  0.00000000E+00  0.00000000E+00  0.00000000E+00
  0.00000000E+00  0.00000000E+00  0.00000000E+00
  0.00000000E+00  0.00000000E+00  0.00000000E+00
  0.00000000E+00  0.00000000E+00  0.00000000E+00
  0.00000000E+00  0.00000000E+00  0.00000000E+00
  0.00000000E+00  0.00000000E+00  0.00000000E+00
  0.00000000E+00  0.00000000E+00  0.00000000E+00
  0.00000000E+00  0.00000000E+00  0.00000000E+00
  0.00000000E+00  0.00000000E+00  0.00000000E+00
  0.00000000E+00  0.00000000E+00  0.00000000E+00
  0.00000000E+00  0.00000000E+00  0.00000000E+00
  0.00000000E+00  0.00000000E+00  0.00000000E+00
  0.00000000E+00  0.00000000E+00  0.00000000E+00
  0.00000000E+00  0.00000000E+00  0.00000000E+00
  0.00000000E+00  0.00000000E+00  0.00000000E+00
  0.00000000E+00  0.00000000E+00  0.00000000E+00
  0.00000000E+00  0.00000000E+00  0.00000000E+00
  0.00000000E+00  0.00000000E+00  0.00000000E+00
  0.00000000E+00  0.00000000E+00  0.00000000E+00
  0.00000000E+00  0.00000000E+00  0.00000000E+00
  0.00000000E+00  0.00000000E+00  0.00000000E+00
  0.00000000E+00  0.00000000E+00  0.00000000E+00
  0.00000000E+00  0.00000000E+00  0.00000000E+00
  0.00000000E+00  0.00000000E+00  0.00000000E+00
  0.00000000E+00  0.00000000E+00  0.00000000E+00
  0.00000000E+00  0.00000000E+00  0.00000000E+00
  0.00000000E+00  0.00000000E+00  0.00000000E+00
  0.00000000E+00  0.00000000E+00  0.00000000E+00
  0.00000000E+00  0.00000000E+00  0.00000000E+00
  0.00000000E+00  0.00000000E+00  0.00000000E+00
  0.00000000E+00  0.00000000E+00  0.00000000E+00
  0.00000000E+00  0.00000000E+00  0.00000000E+00
  0.00000000E+00  0.00000000E+00  0.00000000E+00
  0.00000000E+00  0.00000000E+00  0.00000000E+00
  0.00000000E+00  0.00000000E+00  0.00000000E+00
  0.00000000E+00  0.00000000E+00  0.00000000E+00
  0.00000000E+00  0.00000000E+00  0.00000000E+00
  0.00000000E+00  0.00000000E+00  0.00000000E+00
  0.00000000E+00  0.00000000E+00  0.00000000E+00
  0.00000000E+00  0.00000000E+00  0.00000000E+00
  0.00000000E+00  0.00000000E+00  0.00000000E+00
  0.00000000E+00  0.00000000E+00  0.00000000E+00
  0.00000000E+00  0.00000000E+00  0.00000000E+00
