supercell of icsd_191774.cif            
   1.00000000000000     
    10.6266915333911331    0.0011115375274308    0.0012006617890358
    -5.3123829312680497    9.2012803008374533   -0.0000271157384920
     0.0013101395487323    0.0007210808448332   11.2841342801421742
   N    In   Sc
    36    32     4
Direct
  0.2226610178788988  0.1114424987440046  0.4404853600231888
  0.1114338975623355  0.2224767774464596  0.1893117788141581
  0.8893375488795385  0.1116465114792504  0.9406844568748127
  0.7761234156392831  0.2213032295446240  0.6907493017639510
  0.5545061417790080  0.1109608455242679  0.4386960767243195
  0.4436944512343715  0.2223188291789171  0.1827590098826875
  0.2275496111415123  0.1138671214819169  0.9355773164881001
  0.1131478940369703  0.2197934712880780  0.6929575896007378
  0.8893928946746712  0.1113022592784603  0.4408444705346710
  0.7774198460810169  0.2220076691589981  0.1908471613407698
  0.5515164523105085  0.1090861738078814  0.9452025621164850
  0.4391229981484770  0.2193337304639158  0.6938791732771818
  0.2267028317321262  0.4464414359815407  0.4431582393519662
  0.1112663906006475  0.5551629268419660  0.1906456307753359
  0.8892267441895854  0.4442593192889390  0.9406823027344231
  0.7769081713961938  0.5553290833497186  0.6908527445782084
  0.5528568671743486  0.4459221519695689  0.4421829232678363
  0.4445191846720178  0.5554724990701700  0.1911461250629145
  0.2234979665476615  0.4451759851903034  0.9392955681789132
  0.1113944422733937  0.5560584276210818  0.6907637950037184
  0.8889313359598816  0.4446146656885333  0.4410561513040747
  0.7773003201248017  0.5552671512777891  0.1907043346010582
  0.5540854607211259  0.4402829756178903  0.9418004809464406
  0.4448333107891500  0.5555775125053444  0.6835806541142873
  0.2224683277069559  0.7780981789002439  0.4395185066578051
  0.1113180637617290  0.8893641943962933  0.1893772281135213
  0.8897068491819766  0.7782228465678998  0.9409248268946584
  0.7776213971346380  0.8887397513194770  0.6904465300748370
  0.5530180633195840  0.7733718677161079  0.4419555715541748
  0.4443600094650364  0.8884549946117417  0.1837068659010441
  0.2272539171639565  0.7801023022124767  0.9430679740152570
  0.1134377955306789  0.8930996769387107  0.6930748452849045
  0.8893188599657265  0.7779327143160657  0.4406250904931710
  0.7774819583794681  0.8888153901599907  0.1905028024267494
  0.5538350858022412  0.7801814347925600  0.9415275465802395
  0.4444888862452601  0.8893532719541923  0.6910796406065458
  0.2232435885518740  0.1117948252148224  0.2487910124016679
  0.1113492562988014  0.2229174735187627  0.5005894876061845
  0.8890724176557683  0.1114004366797730  0.7494546798309116
  0.7763353956793253  0.2214288368971609  0.9995715332470354
  0.5536993888737953  0.1105275278585012  0.2466433114259985
  0.4450856487501582  0.2227548641093406  0.5009089509395466
  0.1127448402416036  0.2219536169336749  0.9976372936523816
  0.8892702347353776  0.1113160334541092  0.2492360850314981
  0.7767618069423605  0.2216895212512853  0.4991942099924316
  0.5548494898311489  0.1113474369099379  0.7523412031482408
  0.2218960792681131  0.4439188023625817  0.2505169812985812
  0.1115992634615495  0.5555963196759919  0.4992653814433368
  0.8885747194848719  0.4442337468535342  0.7495480309920453
  0.7772683329847325  0.5552928832157988  0.9994164435641082
  0.5547957847976690  0.4425994757006606  0.2494987214814657
  0.2232915692169044  0.4445815873020820  0.7480090788732312
  0.1117450042566830  0.5558231496724986  0.9992545996147300
  0.8888243685128145  0.4443531823319162  0.2496301563291610
  0.7767234566334622  0.5550494273773339  0.4993908449559186
  0.5544074555954168  0.4443808271895762  0.7496421126702799
  0.4458024423858973  0.5561856448755620  0.9995962027747822
  0.2231133138178762  0.7784135446755300  0.2480347191475474
  0.1113719228570318  0.8887088817486486  0.5004373361995320
  0.8893718257341732  0.7779147044952239  0.7494451388255072
  0.7770873938954779  0.8886124916299778  0.9991515374087143
  0.5551303349642822  0.7786622728825563  0.2495356063423770
  0.4448452178364306  0.8889540026187959  0.4995636858824071
  0.2216921772076361  0.7779311797519028  0.7507259723439361
  0.1130652071252385  0.8910112170793738  0.9979950671592945
  0.8892036325175283  0.7779751003508935  0.2492652332654259
  0.7768541540143374  0.8884636463108819  0.4991871183079439
  0.5551066970349794  0.7764886503187611  0.7493463456918192
  0.2213691296485720  0.1106611718779220  0.7480789029085813
  0.4434850930466538  0.2217536246904928  0.9962349327403714
  0.4446679697312348  0.5556119710150256  0.4972113308598480
  0.4445569772055222  0.8888520454837447  0.9977801156800368
 
  0.00000000E+00  0.00000000E+00  0.00000000E+00
  0.00000000E+00  0.00000000E+00  0.00000000E+00
  0.00000000E+00  0.00000000E+00  0.00000000E+00
  0.00000000E+00  0.00000000E+00  0.00000000E+00
  0.00000000E+00  0.00000000E+00  0.00000000E+00
  0.00000000E+00  0.00000000E+00  0.00000000E+00
  0.00000000E+00  0.00000000E+00  0.00000000E+00
  0.00000000E+00  0.00000000E+00  0.00000000E+00
  0.00000000E+00  0.00000000E+00  0.00000000E+00
  0.00000000E+00  0.00000000E+00  0.00000000E+00
  0.00000000E+00  0.00000000E+00  0.00000000E+00
  0.00000000E+00  0.00000000E+00  0.00000000E+00
  0.00000000E+00  0.00000000E+00  0.00000000E+00
  0.00000000E+00  0.00000000E+00  0.00000000E+00
  0.00000000E+00  0.00000000E+00  0.00000000E+00
  0.00000000E+00  0.00000000E+00  0.00000000E+00
  0.00000000E+00  0.00000000E+00  0.00000000E+00
  0.00000000E+00  0.00000000E+00  0.00000000E+00
  0.00000000E+00  0.00000000E+00  0.00000000E+00
  0.00000000E+00  0.00000000E+00  0.00000000E+00
  0.00000000E+00  0.00000000E+00  0.00000000E+00
  0.00000000E+00  0.00000000E+00  0.00000000E+00
  0.00000000E+00  0.00000000E+00  0.00000000E+00
  0.00000000E+00  0.00000000E+00  0.00000000E+00
  0.00000000E+00  0.00000000E+00  0.00000000E+00
  0.00000000E+00  0.00000000E+00  0.00000000E+00
  0.00000000E+00  0.00000000E+00  0.00000000E+00
  0.00000000E+00  0.00000000E+00  0.00000000E+00
  0.00000000E+00  0.00000000E+00  0.00000000E+00
  0.00000000E+00  0.00000000E+00  0.00000000E+00
  0.00000000E+00  0.00000000E+00  0.00000000E+00
  0.00000000E+00  0.00000000E+00  0.00000000E+00
  0.00000000E+00  0.00000000E+00  0.00000000E+00
  0.00000000E+00  0.00000000E+00  0.00000000E+00
  0.00000000E+00  0.00000000E+00  0.00000000E+00
  0.00000000E+00  0.00000000E+00  0.00000000E+00
  0.00000000E+00  0.00000000E+00  0.00000000E+00
  0.00000000E+00  0.00000000E+00  0.00000000E+00
  0.00000000E+00  0.00000000E+00  0.00000000E+00
  0.00000000E+00  0.00000000E+00  0.00000000E+00
  0.00000000E+00  0.00000000E+00  0.00000000E+00
  0.00000000E+00  0.00000000E+00  0.00000000E+00
  0.00000000E+00  0.00000000E+00  0.00000000E+00
  0.00000000E+00  0.00000000E+00  0.00000000E+00
  0.00000000E+00  0.00000000E+00  0.00000000E+00
  0.00000000E+00  0.00000000E+00  0.00000000E+00
  0.00000000E+00  0.00000000E+00  0.00000000E+00
  0.00000000E+00  0.00000000E+00  0.00000000E+00
  0.00000000E+00  0.00000000E+00  0.00000000E+00
  0.00000000E+00  0.00000000E+00  0.00000000E+00
  0.00000000E+00  0.00000000E+00  0.00000000E+00
  0.00000000E+00  0.00000000E+00  0.00000000E+00
  0.00000000E+00  0.00000000E+00  0.00000000E+00
  0.00000000E+00  0.00000000E+00  0.00000000E+00
  0.00000000E+00  0.00000000E+00  0.00000000E+00
  0.00000000E+00  0.00000000E+00  0.00000000E+00
  0.00000000E+00  0.00000000E+00  0.00000000E+00
  0.00000000E+00  0.00000000E+00  0.00000000E+00
  0.00000000E+00  0.00000000E+00  0.00000000E+00
  0.00000000E+00  0.00000000E+00  0.00000000E+00
  0.00000000E+00  0.00000000E+00  0.00000000E+00
  0.00000000E+00  0.00000000E+00  0.00000000E+00
  0.00000000E+00  0.00000000E+00  0.00000000E+00
  0.00000000E+00  0.00000000E+00  0.00000000E+00
  0.00000000E+00  0.00000000E+00  0.00000000E+00
  0.00000000E+00  0.00000000E+00  0.00000000E+00
  0.00000000E+00  0.00000000E+00  0.00000000E+00
  0.00000000E+00  0.00000000E+00  0.00000000E+00
  0.00000000E+00  0.00000000E+00  0.00000000E+00
  0.00000000E+00  0.00000000E+00  0.00000000E+00
  0.00000000E+00  0.00000000E+00  0.00000000E+00
  0.00000000E+00  0.00000000E+00  0.00000000E+00
