POSCAR
1.00
  4.69260000  2.70930000  5.01530000
 -6.25680000  0.00000000  5.01530000
  4.69260000 -8.12790000  0.00000000
  Al  Gd   N
  22   2  24
Direct
  0.41675000  0.08325000  0.69458333
  0.41675000  0.08325000  0.36125000
  0.41675000  0.08325000  0.02791667
  0.66675000  0.83325000  0.77791667
  0.91675000  0.58325000  0.86125000
  0.16675000  0.33325000  0.94458333
  0.66675000  0.83325000  0.44458333
  0.91675000  0.58325000  0.52791667
  0.66675000  0.83325000  0.11125000
  0.91675000  0.58325000  0.19458333
  0.16675000  0.33325000  0.27791667
  0.08325000  0.91675000  0.47208333
  0.08325000  0.91675000  0.13875000
  0.08325000  0.91675000  0.80541667
  0.33325000  0.66675000  0.55541667
  0.58325000  0.41675000  0.63875000
  0.83325000  0.16675000  0.72208333
  0.33325000  0.66675000  0.22208333
  0.58325000  0.41675000  0.30541667
  0.83325000  0.16675000  0.38875000
  0.58325000  0.41675000  0.97208333
  0.83325000  0.16675000  0.05541667
  0.16675000  0.33325000  0.61125000
  0.33325000  0.66675000  0.88875000
  0.60725000  0.27375000  0.75808333
  0.60725000  0.27375000  0.42475000
  0.60725000  0.27375000  0.09141667
  0.85725000  0.02375000  0.84141667
  0.10725000  0.77375000  0.92475000
  0.35725000  0.52375000  0.00808333
  0.85725000  0.02375000  0.50808333
  0.10725000  0.77375000  0.59141667
  0.35725000  0.52375000  0.67475000
  0.85725000  0.02375000  0.17475000
  0.10725000  0.77375000  0.25808333
  0.35725000  0.52375000  0.34141667
  0.27375000  0.10725000  0.53558333
  0.27375000  0.10725000  0.20225000
  0.27375000  0.10725000  0.86891667
  0.52375000  0.85725000  0.61891667
  0.77375000  0.60725000  0.70225000
  0.02375000  0.35725000  0.78558333
  0.52375000  0.85725000  0.28558333
  0.77375000  0.60725000  0.36891667
  0.02375000  0.35725000  0.45225000
  0.52375000  0.85725000  0.95225000
  0.77375000  0.60725000  0.03558333
  0.02375000  0.35725000  0.11891667
