supercell of icsd_608626.cif            
   1.11007618650226     
     9.5611212867748847    0.0965914499333816   -0.0383183403699531
    -4.6977764404555815    8.1650728167278839    0.0857878397013324
    -0.0412621893418453    0.0771453873961507    9.0834436339692424
   Al   Y    N 
    20    16    36
Direct
  0.2588957060218462  0.1177154270839296  0.2635451888564191
  0.7776435289272712  0.2279488706266264  0.0156081407551554
  0.5451431420148580  0.1017784239440189  0.2524070468635031
  0.4632534838873283  0.2200996183284687  0.5083420715725566
  0.8204871251513381  0.0771329561357135  0.2200897786215847
  0.5817639945829285  0.1355762823615621  0.7412011105654059
  0.2282756771157750  0.4533132568562124  0.2615079339986792
  0.8792539943099769  0.4283144175011913  0.7521717362534304
  0.0878322901247515  0.5279079210380644  0.0064740103863841
  0.8797625740931991  0.4390070522922542  0.2421193978751219
  0.7569047506588618  0.5300268227167493  0.4978283396447267
  0.5654756504056095  0.4470603977854921  0.7459393062061750
  0.1771620107515588  0.9059299114579247  0.4977519148444927
  0.8807499625795359  0.7661558265129358  0.6452022256908236
  0.7700164356518187  0.8915683567403079  0.0235192716610726
  0.5433010760129022  0.7953542889112697  0.2628285037476772
  0.4499848280069259  0.9091282055789023  0.5090770364217434
  0.1378680027501531  0.7362346625720306  0.7725259676088427
  0.1005903710979368  0.9010818701111418  0.0163267044834825
  0.7688511010216388  0.8874859197391203  0.4741303891558815
  0.1037719986424079  0.2025190173236808  0.4604274524932350
  0.8791856504877202  0.0991768780716740  0.7738972753004205
  0.2225821275420898  0.0931093772520271  0.7253570138976286
  0.1181409303338725  0.2192784108869503  0.0271371077452045
  0.7731956972956624  0.2156395659855690  0.4692185910920230
  0.4539783824782191  0.2177508926893594  0.9759367988976706
  0.0961701943412123  0.5695966648808977  0.4861974084627576
  0.8076793261596293  0.5841826290978673  0.9605550453594631
  0.5605689279069139  0.4351430016605562  0.2314126240655057
  0.4543632230807617  0.5561109738459038  0.4751534104476107
  0.2161961627487159  0.4452330901708379  0.7319167737681269
  0.4511065662642793  0.5777656094969856  0.9954596070748210
  0.2314060452200906  0.7788297159712059  0.2188710222772698
  0.8870983086563982  0.7820316587682186  0.2421744169194042
  0.5754026213541934  0.7885051339011540  0.7109360544235628
  0.4514936204831201  0.9010915954825904  0.9531047296956672
  0.2576767174598231  0.1034315137455124  0.4654366168934345
  0.1973563105868692  0.2598753371517546  0.2353679538894298
  0.8696552552181558  0.1064002111971902  0.0214788106111783
  0.7801428576208735  0.2345581272954220  0.6908553510515674
  0.5366527324387675  0.1016295057069101  0.4420152802489739
  0.4456357721237509  0.1966011052480994  0.1977120101263381
  0.2157766752607699  0.0854848513792987  0.9431001586261587
  0.1000003796916005  0.2099496903793536  0.6980384081413291
  0.8734215248697694  0.0783089527150338  0.3991383640217521
  0.7557333166256655  0.2216067934745425  0.2085625848012711
  0.6011018103589478  0.1335546143207083  0.9276646807352051
  0.4782526636502311  0.2401160195311505  0.7027289179748664
  0.2133171295627037  0.4475490028856868  0.4574715794871480
  0.0880510240182559  0.5162320992333207  0.2013331025987100
  0.8960982861987006  0.4183010894751007  0.9424452097687634
  0.7775088225401703  0.5500416122623335  0.7006673346347512
  0.5619176244969921  0.4170068201902311  0.4523581370530181
  0.4328714703972594  0.5871695771902168  0.2304181757825319
  0.2128914882062318  0.4576937600247817  0.9559459060981581
  0.0761478273565430  0.5545485879861545  0.7070249542918816
  0.8679039877206804  0.4545705860955138  0.4270767085852043
  0.7943056873885155  0.5471026564007317  0.1802850177554163
  0.5640220664425115  0.4564674596328615  0.9434964077327450
  0.4587318278399408  0.5437443303199743  0.7029730758720518
  0.2588607558623082  0.8028873812861050  0.4415679759460005
  0.1321494763686175  0.9238070516621661  0.2076808846903688
  0.9031122583799771  0.8269207214922574  0.9985219223292532
  0.8072402238884777  0.8952294375385819  0.6614451384177187
  0.5609578352020108  0.8132229517506246  0.4598902457582810
  0.4676527354033908  0.9091593555517079  0.1864234813711860
  0.1606682706737246  0.7508072891156061  0.9584914248138787
  0.0853093703689609  0.8475958371803571  0.6629629003562485
  0.8275739497112156  0.7355623464159748  0.4627188042409784
  0.7322714843670539  0.8718519114993057  0.2061128628391131
  0.5963044788203504  0.8094124054604208  0.9303740913203740
  0.4571704147186963  0.9268143034256440  0.7018641140011255
 
  0.00000000E+00  0.00000000E+00  0.00000000E+00
  0.00000000E+00  0.00000000E+00  0.00000000E+00
  0.00000000E+00  0.00000000E+00  0.00000000E+00
  0.00000000E+00  0.00000000E+00  0.00000000E+00
  0.00000000E+00  0.00000000E+00  0.00000000E+00
  0.00000000E+00  0.00000000E+00  0.00000000E+00
  0.00000000E+00  0.00000000E+00  0.00000000E+00
  0.00000000E+00  0.00000000E+00  0.00000000E+00
  0.00000000E+00  0.00000000E+00  0.00000000E+00
  0.00000000E+00  0.00000000E+00  0.00000000E+00
  0.00000000E+00  0.00000000E+00  0.00000000E+00
  0.00000000E+00  0.00000000E+00  0.00000000E+00
  0.00000000E+00  0.00000000E+00  0.00000000E+00
  0.00000000E+00  0.00000000E+00  0.00000000E+00
  0.00000000E+00  0.00000000E+00  0.00000000E+00
  0.00000000E+00  0.00000000E+00  0.00000000E+00
  0.00000000E+00  0.00000000E+00  0.00000000E+00
  0.00000000E+00  0.00000000E+00  0.00000000E+00
  0.00000000E+00  0.00000000E+00  0.00000000E+00
  0.00000000E+00  0.00000000E+00  0.00000000E+00
  0.00000000E+00  0.00000000E+00  0.00000000E+00
  0.00000000E+00  0.00000000E+00  0.00000000E+00
  0.00000000E+00  0.00000000E+00  0.00000000E+00
  0.00000000E+00  0.00000000E+00  0.00000000E+00
  0.00000000E+00  0.00000000E+00  0.00000000E+00
  0.00000000E+00  0.00000000E+00  0.00000000E+00
  0.00000000E+00  0.00000000E+00  0.00000000E+00
  0.00000000E+00  0.00000000E+00  0.00000000E+00
  0.00000000E+00  0.00000000E+00  0.00000000E+00
  0.00000000E+00  0.00000000E+00  0.00000000E+00
  0.00000000E+00  0.00000000E+00  0.00000000E+00
  0.00000000E+00  0.00000000E+00  0.00000000E+00
  0.00000000E+00  0.00000000E+00  0.00000000E+00
  0.00000000E+00  0.00000000E+00  0.00000000E+00
  0.00000000E+00  0.00000000E+00  0.00000000E+00
  0.00000000E+00  0.00000000E+00  0.00000000E+00
  0.00000000E+00  0.00000000E+00  0.00000000E+00
  0.00000000E+00  0.00000000E+00  0.00000000E+00
  0.00000000E+00  0.00000000E+00  0.00000000E+00
  0.00000000E+00  0.00000000E+00  0.00000000E+00
  0.00000000E+00  0.00000000E+00  0.00000000E+00
  0.00000000E+00  0.00000000E+00  0.00000000E+00
  0.00000000E+00  0.00000000E+00  0.00000000E+00
  0.00000000E+00  0.00000000E+00  0.00000000E+00
  0.00000000E+00  0.00000000E+00  0.00000000E+00
  0.00000000E+00  0.00000000E+00  0.00000000E+00
  0.00000000E+00  0.00000000E+00  0.00000000E+00
  0.00000000E+00  0.00000000E+00  0.00000000E+00
  0.00000000E+00  0.00000000E+00  0.00000000E+00
  0.00000000E+00  0.00000000E+00  0.00000000E+00
  0.00000000E+00  0.00000000E+00  0.00000000E+00
  0.00000000E+00  0.00000000E+00  0.00000000E+00
  0.00000000E+00  0.00000000E+00  0.00000000E+00
  0.00000000E+00  0.00000000E+00  0.00000000E+00
  0.00000000E+00  0.00000000E+00  0.00000000E+00
  0.00000000E+00  0.00000000E+00  0.00000000E+00
  0.00000000E+00  0.00000000E+00  0.00000000E+00
  0.00000000E+00  0.00000000E+00  0.00000000E+00
  0.00000000E+00  0.00000000E+00  0.00000000E+00
  0.00000000E+00  0.00000000E+00  0.00000000E+00
  0.00000000E+00  0.00000000E+00  0.00000000E+00
  0.00000000E+00  0.00000000E+00  0.00000000E+00
  0.00000000E+00  0.00000000E+00  0.00000000E+00
  0.00000000E+00  0.00000000E+00  0.00000000E+00
  0.00000000E+00  0.00000000E+00  0.00000000E+00
  0.00000000E+00  0.00000000E+00  0.00000000E+00
  0.00000000E+00  0.00000000E+00  0.00000000E+00
  0.00000000E+00  0.00000000E+00  0.00000000E+00
  0.00000000E+00  0.00000000E+00  0.00000000E+00
  0.00000000E+00  0.00000000E+00  0.00000000E+00
  0.00000000E+00  0.00000000E+00  0.00000000E+00
  0.00000000E+00  0.00000000E+00  0.00000000E+00
