Mg   Mo   N                             
   1.00000000000000     
     5.0592711490197715   -0.0000001049831445   -0.0000000422183078
     0.0002848667505676   -5.9423429765690452   -0.0000000171355826
     0.0000273499059025   -0.0068052129435931   -6.8740653149116318
   Mg   Mo   N 
     6     2     8
Direct
  0.8749308507847289  0.8517576721214439  0.7559907603667781
  0.8749463234865118  0.8517994345524542  0.2636823222082185
  0.8753357493250888  0.3569845273805683  0.0100668618726090
  0.3749516646695383  0.1882035212656632  0.2563186622928413
  0.3749357759246479  0.1882445479920278  0.7640090550398355
  0.3753267710315384  0.6830203976489528  0.5099329808396433
  0.3579018568241850  0.6903538827762645  0.0099399741939692
  0.8579025167092809  0.3496472111771851  0.5100601612382860
  0.9901479385179996  0.6930288522102046  0.0099643779983154
  0.9566801458063310  0.1969125045757494  0.2788210029246372
  0.9566370382135787  0.1969412802785229  0.7415500339313468
  0.4566740790981427  0.8430840913336297  0.2411778732126848
  0.4566315357040338  0.8430546838142163  0.7784501083054423
  0.4559353704066496  0.3831380756537897  0.0100359145559779
  0.9559244531634050  0.6568567831770480  0.5099639944119616
  0.4901484354573427  0.3469725334552152  0.5100359166281478
 
  0.00000000E+00  0.00000000E+00  0.00000000E+00
  0.00000000E+00  0.00000000E+00  0.00000000E+00
  0.00000000E+00  0.00000000E+00  0.00000000E+00
  0.00000000E+00  0.00000000E+00  0.00000000E+00
  0.00000000E+00  0.00000000E+00  0.00000000E+00
  0.00000000E+00  0.00000000E+00  0.00000000E+00
  0.00000000E+00  0.00000000E+00  0.00000000E+00
  0.00000000E+00  0.00000000E+00  0.00000000E+00
  0.00000000E+00  0.00000000E+00  0.00000000E+00
  0.00000000E+00  0.00000000E+00  0.00000000E+00
  0.00000000E+00  0.00000000E+00  0.00000000E+00
  0.00000000E+00  0.00000000E+00  0.00000000E+00
  0.00000000E+00  0.00000000E+00  0.00000000E+00
  0.00000000E+00  0.00000000E+00  0.00000000E+00
  0.00000000E+00  0.00000000E+00  0.00000000E+00
  0.00000000E+00  0.00000000E+00  0.00000000E+00
