Mg   Mo   N                             
   1.00000000000000     
     5.2835357020969225   -0.0000001049831463   -0.0000000422183101
    -0.0000000602283622   -5.8510286825400808   -0.0000000171355790
     0.0000001053447673    0.0000005527516579   -6.7680202687394839
   Mg   Mo   N 
     6     2     8
Direct
  0.9917346571183714  0.8508448892703697  0.7577829495813617
  0.9917346864256089  0.8508448306925942  0.2622170312145400
  0.9909665001359542  0.3588043590618923  0.0100000176183528
  0.4917346309406270  0.1891550779696018  0.2577829495558319
  0.4917346227317054  0.1891551298062666  0.7622170647811544
  0.4909665316030640  0.6811955527337048  0.5100000399499933
  0.4992880502056281  0.6907400226818936  0.0099999710925474
  0.9992879830801940  0.3492600514124646  0.5099999666277881
  0.8528559248701981  0.6933202292842893  0.0099999415972789
  0.8915207831897405  0.1965085430926408  0.2781022672871742
  0.8915207799388583  0.1965086204579052  0.7418977309335446
  0.3915209191389266  0.8434913749024560  0.2418978124078279
  0.3915208448287402  0.8434914556942843  0.7781023032129397
  0.3921281199948794  0.3831752850382273  0.0100000081385261
  0.8921281726729404  0.6568249089045324  0.5099999607051231
  0.3528558369529122  0.3466796689640859  0.5099999852757122
 
  0.00000000E+00  0.00000000E+00  0.00000000E+00
  0.00000000E+00  0.00000000E+00  0.00000000E+00
  0.00000000E+00  0.00000000E+00  0.00000000E+00
  0.00000000E+00  0.00000000E+00  0.00000000E+00
  0.00000000E+00  0.00000000E+00  0.00000000E+00
  0.00000000E+00  0.00000000E+00  0.00000000E+00
  0.00000000E+00  0.00000000E+00  0.00000000E+00
  0.00000000E+00  0.00000000E+00  0.00000000E+00
  0.00000000E+00  0.00000000E+00  0.00000000E+00
  0.00000000E+00  0.00000000E+00  0.00000000E+00
  0.00000000E+00  0.00000000E+00  0.00000000E+00
  0.00000000E+00  0.00000000E+00  0.00000000E+00
  0.00000000E+00  0.00000000E+00  0.00000000E+00
  0.00000000E+00  0.00000000E+00  0.00000000E+00
  0.00000000E+00  0.00000000E+00  0.00000000E+00
  0.00000000E+00  0.00000000E+00  0.00000000E+00
