Mg   Mo   N                             
   1.00000000000000     
     5.2835301932579801   -0.0000001049831442   -0.0000000422183074
    -0.0000004342044484   -5.8510308539137563   -0.0000000171355832
    -0.0000004891341791    0.0000006996002340   -6.7680213329314798
   Mg   Mo   N 
     6     2     8
Direct
  0.8438856324267690  0.8508449440682071  0.7577828788398833
  0.8438855971068122  0.8508448802801212  0.2622170977273015
  0.8446537210024587  0.3588043266547203  0.0099999697950466
  0.3438856491859283  0.1891550208809676  0.2577828776643969
  0.3438856375875545  0.1891550643393742  0.7622171260037902
  0.3446537460366912  0.6811955644516843  0.5100000809781733
  0.3363318287607200  0.6907400305161886  0.0100000168320875
  0.8363319313830360  0.3492600556898111  0.5099999011820202
  0.9827635760253486  0.6933202274443033  0.0099999472914902
  0.9440990912189733  0.1965085665540443  0.2781022551336321
  0.9440990983107440  0.1965086540153962  0.7418976581765691
  0.4440990038925037  0.8434913506442641  0.2418978383357739
  0.4440990941871803  0.8434914455904519  0.7781023954996513
  0.4434916575132348  0.3831753734148720  0.0099999954701886
  0.9434916513593024  0.6568248367753569  0.5099999497146328
  0.4827636787559229  0.3466796586946472  0.5100000113567660
 
  0.00000000E+00  0.00000000E+00  0.00000000E+00
  0.00000000E+00  0.00000000E+00  0.00000000E+00
  0.00000000E+00  0.00000000E+00  0.00000000E+00
  0.00000000E+00  0.00000000E+00  0.00000000E+00
  0.00000000E+00  0.00000000E+00  0.00000000E+00
  0.00000000E+00  0.00000000E+00  0.00000000E+00
  0.00000000E+00  0.00000000E+00  0.00000000E+00
  0.00000000E+00  0.00000000E+00  0.00000000E+00
  0.00000000E+00  0.00000000E+00  0.00000000E+00
  0.00000000E+00  0.00000000E+00  0.00000000E+00
  0.00000000E+00  0.00000000E+00  0.00000000E+00
  0.00000000E+00  0.00000000E+00  0.00000000E+00
  0.00000000E+00  0.00000000E+00  0.00000000E+00
  0.00000000E+00  0.00000000E+00  0.00000000E+00
  0.00000000E+00  0.00000000E+00  0.00000000E+00
  0.00000000E+00  0.00000000E+00  0.00000000E+00
