Mg   Mo   N                             
   1.00000000000000     
     4.6029248450870162   -0.0000001049831456   -0.0000000422183092
     0.0030335359351036   -6.1121352741114015   -0.0000000171355804
    -0.0005072982804073    0.0477333213801461   -7.0715313118130103
   Mg   Mo   N 
     6     2     8
Direct
  0.9306702322299429  0.8533808987611167  0.7548217581325787
  0.9307258718155467  0.8532350590216069  0.2675882179977336
  0.9313274130882121  0.3539051926670851  0.0095352861997213
  0.4309718500169737  0.1867344681240866  0.2523541166622678
  0.4309079366485378  0.1865638462494701  0.7652453793066982
  0.4314969725344469  0.6861401760424783  0.5104599192315504
  0.4724971396321465  0.6898321778752887  0.0104446699993872
  0.9728355540447708  0.3501593121542541  0.5095574958501459
  0.8761727859002448  0.6921156202972583  0.0102770208224499
  0.9001953189703258  0.1972064051809141  0.2775419685747451
  0.9000081710180439  0.1969285698195549  0.7398841631751552
  0.4000305104558919  0.8428338630732455  0.2424649266995900
  0.3998318676615966  0.8430923634715413  0.7800970329828800
  0.4006495431564474  0.3821251060377406  0.0097137090433179
  0.9007195062797280  0.6578974710127241  0.5102837051648592
  0.3764664172908638  0.3478494727940031  0.5097306300119726
 
  0.00000000E+00  0.00000000E+00  0.00000000E+00
  0.00000000E+00  0.00000000E+00  0.00000000E+00
  0.00000000E+00  0.00000000E+00  0.00000000E+00
  0.00000000E+00  0.00000000E+00  0.00000000E+00
  0.00000000E+00  0.00000000E+00  0.00000000E+00
  0.00000000E+00  0.00000000E+00  0.00000000E+00
  0.00000000E+00  0.00000000E+00  0.00000000E+00
  0.00000000E+00  0.00000000E+00  0.00000000E+00
  0.00000000E+00  0.00000000E+00  0.00000000E+00
  0.00000000E+00  0.00000000E+00  0.00000000E+00
  0.00000000E+00  0.00000000E+00  0.00000000E+00
  0.00000000E+00  0.00000000E+00  0.00000000E+00
  0.00000000E+00  0.00000000E+00  0.00000000E+00
  0.00000000E+00  0.00000000E+00  0.00000000E+00
  0.00000000E+00  0.00000000E+00  0.00000000E+00
  0.00000000E+00  0.00000000E+00  0.00000000E+00
