Mg   Mo   N                             
   1.00000000000000     
     5.0591217145656238   -0.0000001049831460   -0.0000000422183097
     0.0002840796907368   -5.9424456075788274   -0.0000000171355796
    -0.0000332315450050    0.0111596993353764   -6.8740654773803742
   Mg   Mo   N 
     6     2     8
Direct
  0.9606726784839523  0.8518117849757445  0.7564250955269998
  0.9607002140486784  0.8517442245695435  0.2641184311444107
  0.9603039384352670  0.3569815099148741  0.0098849235696647
  0.4607051632837056  0.1882536032236999  0.2558815117616433
  0.4606781474189390  0.1881850949162995  0.7635759561871325
  0.4602949647378978  0.6830136338471888  0.5101148942500089
  0.4777338858135352  0.6903533906709001  0.0101037220919764
  0.9777345467036938  0.3496462572425827  0.5098964078748054
  0.8454975057765708  0.6930270730382802  0.0100621047121336
  0.8790269732301823  0.1969549365249108  0.2783261020934447
  0.8789533967849081  0.1969035749290953  0.7410553347881361
  0.3790214956066293  0.8430490933011185  0.2416738238848453
  0.3789471944456935  0.8430996415640735  0.7789436032599539
  0.3797182083430997  0.3831450741881000  0.0099378985510583
  0.8797074053661404  0.6568594462401478  0.5100619589061282
  0.3454981962553845  0.3469716614614597  0.5099382313559531
 
  0.00000000E+00  0.00000000E+00  0.00000000E+00
  0.00000000E+00  0.00000000E+00  0.00000000E+00
  0.00000000E+00  0.00000000E+00  0.00000000E+00
  0.00000000E+00  0.00000000E+00  0.00000000E+00
  0.00000000E+00  0.00000000E+00  0.00000000E+00
  0.00000000E+00  0.00000000E+00  0.00000000E+00
  0.00000000E+00  0.00000000E+00  0.00000000E+00
  0.00000000E+00  0.00000000E+00  0.00000000E+00
  0.00000000E+00  0.00000000E+00  0.00000000E+00
  0.00000000E+00  0.00000000E+00  0.00000000E+00
  0.00000000E+00  0.00000000E+00  0.00000000E+00
  0.00000000E+00  0.00000000E+00  0.00000000E+00
  0.00000000E+00  0.00000000E+00  0.00000000E+00
  0.00000000E+00  0.00000000E+00  0.00000000E+00
  0.00000000E+00  0.00000000E+00  0.00000000E+00
  0.00000000E+00  0.00000000E+00  0.00000000E+00
