Mg   Mo   N                             
   1.00000000000000     
     4.4928937288616311   -0.0000001049831455   -0.0000000422183091
     0.0068258141909741   -6.1498858038785755   -0.0000000171355806
    -0.0015499741171380    0.1048814302586795   -7.1177490563142900
   Mg   Mo   N 
     6     2     8
Direct
  0.9235681211073938  0.8533944338849295  0.7561386849650091
  0.9236834710615796  0.8530846931772658  0.2688422184321340
  0.9243131514232132  0.3540289844840814  0.0091621118579752
  0.4251841924094961  0.1865842848286263  0.2506099585383126
  0.4250002277583746  0.1861945476394524  0.7644229917393375
  0.4258301863884810  0.6866993242764252  0.5108312016672230
  0.4676324174370734  0.6897973593559001  0.0108587237751578
  0.9707705138400300  0.3501671942691758  0.5091520005090899
  0.8842009175451864  0.6918984660449823  0.0104351362260076
  0.9052659278378528  0.1972219530725070  0.2762563961814948
  0.9049086335002769  0.1966583208192176  0.7384386857522571
  0.4049951622058927  0.8428837296511205  0.2438047403576320
  0.4046458190663031  0.8433702930782232  0.7814690352100513
  0.4051853406565229  0.3817575880256356  0.0095140607187645
  0.9056665764955270  0.6582350863534856  0.5104786557951400
  0.3850113682569116  0.3480237458457296  0.5095853980132006
 
  0.00000000E+00  0.00000000E+00  0.00000000E+00
  0.00000000E+00  0.00000000E+00  0.00000000E+00
  0.00000000E+00  0.00000000E+00  0.00000000E+00
  0.00000000E+00  0.00000000E+00  0.00000000E+00
  0.00000000E+00  0.00000000E+00  0.00000000E+00
  0.00000000E+00  0.00000000E+00  0.00000000E+00
  0.00000000E+00  0.00000000E+00  0.00000000E+00
  0.00000000E+00  0.00000000E+00  0.00000000E+00
  0.00000000E+00  0.00000000E+00  0.00000000E+00
  0.00000000E+00  0.00000000E+00  0.00000000E+00
  0.00000000E+00  0.00000000E+00  0.00000000E+00
  0.00000000E+00  0.00000000E+00  0.00000000E+00
  0.00000000E+00  0.00000000E+00  0.00000000E+00
  0.00000000E+00  0.00000000E+00  0.00000000E+00
  0.00000000E+00  0.00000000E+00  0.00000000E+00
  0.00000000E+00  0.00000000E+00  0.00000000E+00
