Mg   Mo   N                             
   1.00000000000000     
     4.4057729712358391   -0.0000001049831451   -0.0000000422183086
     0.0123119710748540   -6.1686206187553259   -0.0000000171355814
     0.0012009806469769   -0.0513327189876531   -7.1487002210334216
   Mg   Mo   N 
     6     2     8
Direct
  0.9128011652927839  0.8534293379776159  0.7517711004023440
  0.9129026538793710  0.8536472593580555  0.2656839365998707
  0.9120629410204870  0.3530956135213543  0.0104808629960331
  0.4194914570176991  0.1883374985933841  0.2573074328044029
  0.4195105527967158  0.1884872957069703  0.7652200901721429
  0.4194729163277344  0.6828160494445115  0.5095262309570145
  0.3667708840154944  0.6899430341850135  0.0095523321228441
  0.9042289509648853  0.3501079026087979  0.5104699138274427
  0.9430466702384308  0.6920571975728009  0.0097587350968169
  0.9228271169330924  0.1962876993247065  0.2796699093961124
  0.9227918794683561  0.1965542814559882  0.7430102813143264
  0.4259037634357199  0.8436331848981098  0.2398428351527144
  0.4257770634905356  0.8432639642999575  0.7774651021322185
  0.4247459441681727  0.3810273815110108  0.0102726242236670
  0.9239215166055175  0.6593360057009008  0.5097193855856403
  0.4284745735891065  0.3479762915007569  0.5102492273285719
 
  0.00000000E+00  0.00000000E+00  0.00000000E+00
  0.00000000E+00  0.00000000E+00  0.00000000E+00
  0.00000000E+00  0.00000000E+00  0.00000000E+00
  0.00000000E+00  0.00000000E+00  0.00000000E+00
  0.00000000E+00  0.00000000E+00  0.00000000E+00
  0.00000000E+00  0.00000000E+00  0.00000000E+00
  0.00000000E+00  0.00000000E+00  0.00000000E+00
  0.00000000E+00  0.00000000E+00  0.00000000E+00
  0.00000000E+00  0.00000000E+00  0.00000000E+00
  0.00000000E+00  0.00000000E+00  0.00000000E+00
  0.00000000E+00  0.00000000E+00  0.00000000E+00
  0.00000000E+00  0.00000000E+00  0.00000000E+00
  0.00000000E+00  0.00000000E+00  0.00000000E+00
  0.00000000E+00  0.00000000E+00  0.00000000E+00
  0.00000000E+00  0.00000000E+00  0.00000000E+00
  0.00000000E+00  0.00000000E+00  0.00000000E+00
