Mg   Mo   N                             
   1.00000000000000     
     4.7146478218426164   -0.0000001049831457   -0.0000000422183093
     0.0014520512521869   -6.0714850516571408   -0.0000000171355802
    -0.0001853313533438    0.0268928000727602   -7.0231326791405859
   Mg   Mo   N 
     6     2     8
Direct
  0.9383871376061279  0.8530593279531473  0.7548524433610666
  0.9384181774250564  0.8529628067011856  0.2665649602917100
  0.9387516577449588  0.3545570920967194  0.0097013939443968
  0.4384707924411089  0.1870328237143823  0.2534257425365922
  0.4384391398591205  0.1869282251251789  0.7651591513591995
  0.4387504241423841  0.6854326488269180  0.5102957865370357
  0.4744171292411110  0.6899361680003011  0.0102751298592025
  0.9744728103132587  0.3500616697063776  0.5097260399270027
  0.8681953259752220  0.6923672832810013  0.0101845854522864
  0.8946430655517830  0.1971715488019186  0.2780199221375810
  0.8945129428528205  0.1970047972473523  0.7404522242597267
  0.3945882886394969  0.8428457837901959  0.2419825730022254
  0.3944524889292680  0.8430065807045679  0.7795420830127000
  0.3953198823460369  0.3824359173487721  0.0098143853579415
  0.8952986361802715  0.6575793466074273  0.5101851123542787
  0.3682542272392197  0.3476179818273053  0.5098184665065517
 
  0.00000000E+00  0.00000000E+00  0.00000000E+00
  0.00000000E+00  0.00000000E+00  0.00000000E+00
  0.00000000E+00  0.00000000E+00  0.00000000E+00
  0.00000000E+00  0.00000000E+00  0.00000000E+00
  0.00000000E+00  0.00000000E+00  0.00000000E+00
  0.00000000E+00  0.00000000E+00  0.00000000E+00
  0.00000000E+00  0.00000000E+00  0.00000000E+00
  0.00000000E+00  0.00000000E+00  0.00000000E+00
  0.00000000E+00  0.00000000E+00  0.00000000E+00
  0.00000000E+00  0.00000000E+00  0.00000000E+00
  0.00000000E+00  0.00000000E+00  0.00000000E+00
  0.00000000E+00  0.00000000E+00  0.00000000E+00
  0.00000000E+00  0.00000000E+00  0.00000000E+00
  0.00000000E+00  0.00000000E+00  0.00000000E+00
  0.00000000E+00  0.00000000E+00  0.00000000E+00
  0.00000000E+00  0.00000000E+00  0.00000000E+00
