Mg   Mo   N                             
   1.00000000000000     
     4.4271872063598172   -0.0000001049831452   -0.0000000422183087
     0.0127553536106872   -6.1658146432483187   -0.0000000171355812
     0.0014896076802998   -0.0580799697713479   -7.1452217814198020
   Mg   Mo   N 
     6     2     8
Direct
  0.9116707714064347  0.8534547138367117  0.7514592502464694
  0.9117832999504927  0.8536789434469085  0.2656401138293276
  0.9110012099318681  0.3530580326810622  0.0105551710490417
  0.4214033927815493  0.1876139342057570  0.2562625442646791
  0.4214666645066956  0.1877882070929360  0.7666269241616988
  0.4217532605315242  0.6841840611811350  0.5094455211674145
  0.3654936880603046  0.6900555360130056  0.0094682230946219
  0.9575468980023984  0.3500317329690574  0.5105452874560541
  0.9439724663683151  0.6921757012402594  0.0097050187347065
  0.9156639476726056  0.1963670128094464  0.2800862737253453
  0.9156979562115382  0.1966907786358334  0.7429973171443578
  0.4247343053195820  0.8435805800142973  0.2396537877658531
  0.4246103163273673  0.8431777477277578  0.7772566886832735
  0.4230260751049215  0.3812216365733860  0.0103163841009888
  0.9174080188092688  0.6591019228437460  0.5096788388310856
  0.3974398489214650  0.3478194560220160  0.5103026558763517
 
  0.00000000E+00  0.00000000E+00  0.00000000E+00
  0.00000000E+00  0.00000000E+00  0.00000000E+00
  0.00000000E+00  0.00000000E+00  0.00000000E+00
  0.00000000E+00  0.00000000E+00  0.00000000E+00
  0.00000000E+00  0.00000000E+00  0.00000000E+00
  0.00000000E+00  0.00000000E+00  0.00000000E+00
  0.00000000E+00  0.00000000E+00  0.00000000E+00
  0.00000000E+00  0.00000000E+00  0.00000000E+00
  0.00000000E+00  0.00000000E+00  0.00000000E+00
  0.00000000E+00  0.00000000E+00  0.00000000E+00
  0.00000000E+00  0.00000000E+00  0.00000000E+00
  0.00000000E+00  0.00000000E+00  0.00000000E+00
  0.00000000E+00  0.00000000E+00  0.00000000E+00
  0.00000000E+00  0.00000000E+00  0.00000000E+00
  0.00000000E+00  0.00000000E+00  0.00000000E+00
  0.00000000E+00  0.00000000E+00  0.00000000E+00
