Mg   Mo   N                             
   1.00000000000000     
     4.8278766573739338   -0.0000001049831447   -0.0000000422183080
     0.0007821633501335   -6.0298881442798526   -0.0000000171355822
     0.0000750858516185   -0.0146859267074665   -6.9748835934867630
   Mg   Mo   N 
     6     2     8
Direct
  0.8893122425268984  0.8526079152918697  0.7543865349817480
  0.8893347172025585  0.8526767178829715  0.2648831637578084
  0.8892907866878090  0.3553200836101240  0.0101448432987397
  0.3893536669458513  0.1873294576588904  0.2551207282912884
  0.3893306271123151  0.1873953945366083  0.7656114608393096
  0.3892754207890619  0.6846903345267847  0.5098545199236071
  0.3599002370413587  0.6900569245790891  0.0098632797122775
  0.8599116116569618  0.3499438049180910  0.5101369312525108
  0.9753316935926364  0.6926144805045880  0.0099171942682830
  0.9467450287836954  0.1970420399599959  0.2791784470302758
  0.9466631234278893  0.1971146434901669  0.7416213678829848
  0.4467216713465731  0.8429506627289882  0.2408187692406685
  0.4466419229105298  0.8428759261910841  0.7783794641055977
  0.4459103136951299  0.3827218097584577  0.0100842986711243
  0.9458857898044570  0.6572680615007229  0.5099152248670080
  0.4753440430501215  0.3473917419098100  0.5100837719165057
 
  0.00000000E+00  0.00000000E+00  0.00000000E+00
  0.00000000E+00  0.00000000E+00  0.00000000E+00
  0.00000000E+00  0.00000000E+00  0.00000000E+00
  0.00000000E+00  0.00000000E+00  0.00000000E+00
  0.00000000E+00  0.00000000E+00  0.00000000E+00
  0.00000000E+00  0.00000000E+00  0.00000000E+00
  0.00000000E+00  0.00000000E+00  0.00000000E+00
  0.00000000E+00  0.00000000E+00  0.00000000E+00
  0.00000000E+00  0.00000000E+00  0.00000000E+00
  0.00000000E+00  0.00000000E+00  0.00000000E+00
  0.00000000E+00  0.00000000E+00  0.00000000E+00
  0.00000000E+00  0.00000000E+00  0.00000000E+00
  0.00000000E+00  0.00000000E+00  0.00000000E+00
  0.00000000E+00  0.00000000E+00  0.00000000E+00
  0.00000000E+00  0.00000000E+00  0.00000000E+00
  0.00000000E+00  0.00000000E+00  0.00000000E+00
