supercell of icsd_608626.cif            
   1.00000000000000     
    10.0864120203757182   -0.0161530381668199   -0.0069783057020842
    -5.0572092149422492    8.7012984688444774    0.0052429111786420
    -0.0082099203214365    0.0027282809496300    9.6845076101127834
   Al   Sc   N 
    20    16    36
Direct
  0.2109805274956997  0.1064478459541007  0.2516122815342428
  0.1042378943813063  0.2199366136674072  0.4970416664986175
  0.8875935542402829  0.1053995351103012  0.7543586472786643
  0.1149636868029091  0.2135950109564533  0.9974131175663317
  0.5544280876918890  0.1085649930140420  0.7566844804158706
  0.4315639826443487  0.2115902069259832  0.9980717310228968
  0.1196350115302423  0.5587532173062257  0.5031731278138878
  0.7852886346642265  0.5605129997618619  0.0058548182608789
  0.4461546771829674  0.5550344096119204  0.5084485011288464
  0.2169722839650134  0.4361023692541224  0.7418177037580023
  0.8980115550572378  0.4493618924106570  0.2531808042180046
  0.5587583501553297  0.4378735311579405  0.7550023033196425
  0.1037860995331243  0.8885183087193766  0.4939035266281095
  0.7763370097543074  0.8817555802923565  0.9986541119370145
  0.5604513730336294  0.7691748184620550  0.2480973514649989
  0.1069547706166887  0.8956286705673904  0.0010281784491326
  0.8892192394549596  0.7830605762686460  0.2469507748625972
  0.7809301126184351  0.8903693533676673  0.4945623165453554
  0.5645032826296728  0.7946872329942352  0.7439339189877998
  0.4486956881572013  0.8895007344648249  0.0028738310191585
  0.7822775689231989  0.2263090216561565  0.9760939502863337
  0.5594167693464556  0.1141143322468494  0.2239253915370654
  0.4425577040044644  0.2228915281370334  0.4841612606497989
  0.2212959576163769  0.1165768416497670  0.7339081469282718
  0.8904960597074947  0.1043347567087167  0.2278243062734759
  0.7825793046525149  0.2136378183552878  0.4958943143360486
  0.2253907547350238  0.4463800839023477  0.2431783447454663
  0.8854697396558393  0.4479619257648295  0.7268530664288662
  0.5502363036296600  0.4459732306254693  0.2216304720687887
  0.1095845006089107  0.5552504741009727  0.9814290410090294
  0.7725136113245128  0.5585275268293586  0.4723719909480621
  0.4468079768302715  0.5604172884417480  0.9671642081875831
  0.2156101197345421  0.7799926271253597  0.2324499732538996
  0.8791295684481000  0.7766184351551999  0.7383255877816595
  0.4481328777987770  0.8845006714764239  0.4788599537454559
  0.2324452435106537  0.7896505373139533  0.7411042833409027
  0.2042604479780437  0.1048224703902605  0.4527067599592414
  0.1215055246797050  0.2175675243323383  0.1919546595720689
  0.8994220540978475  0.0968042154585831  0.9547100555574985
  0.7709053769417622  0.2056331173076700  0.7244349891028605
  0.5609408095190673  0.1141263122425755  0.4365478053806413
  0.4189719018294937  0.2072963102104310  0.1977924009684315
  0.2193779045572199  0.1078807014743646  0.9478681442236123
  0.0948780694890630  0.2259569825344059  0.6913455688725350
  0.8956553376270762  0.1009994678520201  0.4426190728923913
  0.7939458955016221  0.2432553358507974  0.1963328205369805
  0.5391733729345844  0.1035781619470768  0.9605316050168184
  0.4610546738803976  0.2268828391144169  0.7044933558116000
  0.2269108044876802  0.4481091928147904  0.4631905478317151
  0.1001582745683649  0.5499272236716806  0.1953858408121505
  0.8824893597164944  0.4592121227143693  0.9389428430910058
  0.7562564203415789  0.5490380028734947  0.6863674507946200
  0.5385540265821902  0.4494663307536655  0.4364728289967559
  0.4479821965600195  0.5711383129160907  0.1798349656604827
  0.2098072187394990  0.4207898819076874  0.9398283853749945
  0.1257825714626222  0.5559546698225404  0.7040351463048751
  0.9073948236960376  0.4499376705665341  0.4577653479417236
  0.7973319499736888  0.5646020383701256  0.2096989851934694
  0.5647938739640566  0.4338606383897883  0.9596546667926376
  0.4465005739803516  0.5533420190426384  0.7131891904413550
  0.2071098782346041  0.7732532491820976  0.4559629571720194
  0.0971695322417929  0.8989733633277126  0.1963831067752579
  0.8855949996161598  0.7746487392589074  0.9551684688668800
  0.7715163578329651  0.9000822424267909  0.6901318301875179
  0.5666357747236930  0.7649034866923046  0.4469729027328242
  0.4552809366880908  0.8766067528800718  0.2035195027450740
  0.2315505057155249  0.7989811575498749  0.9657994571928867
  0.1064157265004226  0.8883818030919954  0.6887631600400752
  0.8946435846796277  0.7947399642923685  0.4462857365849118
  0.7660882619819986  0.8655167339611012  0.1921984880571301
  0.5678924424589766  0.8028293414452747  0.9377715143158127
  0.4626386540814025  0.9018966235761852  0.6955019539683889
 
  0.00000000E+00  0.00000000E+00  0.00000000E+00
  0.00000000E+00  0.00000000E+00  0.00000000E+00
  0.00000000E+00  0.00000000E+00  0.00000000E+00
  0.00000000E+00  0.00000000E+00  0.00000000E+00
  0.00000000E+00  0.00000000E+00  0.00000000E+00
  0.00000000E+00  0.00000000E+00  0.00000000E+00
  0.00000000E+00  0.00000000E+00  0.00000000E+00
  0.00000000E+00  0.00000000E+00  0.00000000E+00
  0.00000000E+00  0.00000000E+00  0.00000000E+00
  0.00000000E+00  0.00000000E+00  0.00000000E+00
  0.00000000E+00  0.00000000E+00  0.00000000E+00
  0.00000000E+00  0.00000000E+00  0.00000000E+00
  0.00000000E+00  0.00000000E+00  0.00000000E+00
  0.00000000E+00  0.00000000E+00  0.00000000E+00
  0.00000000E+00  0.00000000E+00  0.00000000E+00
  0.00000000E+00  0.00000000E+00  0.00000000E+00
  0.00000000E+00  0.00000000E+00  0.00000000E+00
  0.00000000E+00  0.00000000E+00  0.00000000E+00
  0.00000000E+00  0.00000000E+00  0.00000000E+00
  0.00000000E+00  0.00000000E+00  0.00000000E+00
  0.00000000E+00  0.00000000E+00  0.00000000E+00
  0.00000000E+00  0.00000000E+00  0.00000000E+00
  0.00000000E+00  0.00000000E+00  0.00000000E+00
  0.00000000E+00  0.00000000E+00  0.00000000E+00
  0.00000000E+00  0.00000000E+00  0.00000000E+00
  0.00000000E+00  0.00000000E+00  0.00000000E+00
  0.00000000E+00  0.00000000E+00  0.00000000E+00
  0.00000000E+00  0.00000000E+00  0.00000000E+00
  0.00000000E+00  0.00000000E+00  0.00000000E+00
  0.00000000E+00  0.00000000E+00  0.00000000E+00
  0.00000000E+00  0.00000000E+00  0.00000000E+00
  0.00000000E+00  0.00000000E+00  0.00000000E+00
  0.00000000E+00  0.00000000E+00  0.00000000E+00
  0.00000000E+00  0.00000000E+00  0.00000000E+00
  0.00000000E+00  0.00000000E+00  0.00000000E+00
  0.00000000E+00  0.00000000E+00  0.00000000E+00
  0.00000000E+00  0.00000000E+00  0.00000000E+00
  0.00000000E+00  0.00000000E+00  0.00000000E+00
  0.00000000E+00  0.00000000E+00  0.00000000E+00
  0.00000000E+00  0.00000000E+00  0.00000000E+00
  0.00000000E+00  0.00000000E+00  0.00000000E+00
  0.00000000E+00  0.00000000E+00  0.00000000E+00
  0.00000000E+00  0.00000000E+00  0.00000000E+00
  0.00000000E+00  0.00000000E+00  0.00000000E+00
  0.00000000E+00  0.00000000E+00  0.00000000E+00
  0.00000000E+00  0.00000000E+00  0.00000000E+00
  0.00000000E+00  0.00000000E+00  0.00000000E+00
  0.00000000E+00  0.00000000E+00  0.00000000E+00
  0.00000000E+00  0.00000000E+00  0.00000000E+00
  0.00000000E+00  0.00000000E+00  0.00000000E+00
  0.00000000E+00  0.00000000E+00  0.00000000E+00
  0.00000000E+00  0.00000000E+00  0.00000000E+00
  0.00000000E+00  0.00000000E+00  0.00000000E+00
  0.00000000E+00  0.00000000E+00  0.00000000E+00
  0.00000000E+00  0.00000000E+00  0.00000000E+00
  0.00000000E+00  0.00000000E+00  0.00000000E+00
  0.00000000E+00  0.00000000E+00  0.00000000E+00
  0.00000000E+00  0.00000000E+00  0.00000000E+00
  0.00000000E+00  0.00000000E+00  0.00000000E+00
  0.00000000E+00  0.00000000E+00  0.00000000E+00
  0.00000000E+00  0.00000000E+00  0.00000000E+00
  0.00000000E+00  0.00000000E+00  0.00000000E+00
  0.00000000E+00  0.00000000E+00  0.00000000E+00
  0.00000000E+00  0.00000000E+00  0.00000000E+00
  0.00000000E+00  0.00000000E+00  0.00000000E+00
  0.00000000E+00  0.00000000E+00  0.00000000E+00
  0.00000000E+00  0.00000000E+00  0.00000000E+00
  0.00000000E+00  0.00000000E+00  0.00000000E+00
  0.00000000E+00  0.00000000E+00  0.00000000E+00
  0.00000000E+00  0.00000000E+00  0.00000000E+00
  0.00000000E+00  0.00000000E+00  0.00000000E+00
  0.00000000E+00  0.00000000E+00  0.00000000E+00
