generated by phonopy                    
   1.00000000000000     
    10.0351470768999995   -0.0000022330999784   -0.0000001056124209
    -5.0175765436399997    8.6906901959899994    0.0000001395531216
    -0.0000001735893656    0.0000001431815548   14.9533752540999991
   Pb   P    O 
    19    13    50
Direct
  0.0105364027747967  0.7717940975805746  0.1215007704521511
  0.9969704319948178  0.7724768673603108  0.6278701812783751
  0.0107285054250497  0.2683552810990832  0.3721934866278076
  0.0009753764955533  0.2681774070094676  0.8677925824382200
  0.2242794613976713  0.2222961157357304  0.1202160749987584
  0.2304762305187396  0.2264309471589812  0.6243624271562140
  0.7442862324690509  0.7421965037849816  0.3783811017705645
  0.7281877782878823  0.7327736820571786  0.8790442458314800
  0.7661593667075266  0.9883175055122351  0.1156544491381908
  0.7732187058824849  0.9995372673768799  0.6252882811891851
  0.2600258509777049  0.9982586249653522  0.3775224199034213
  0.2599758218510075  0.9894135333781406  0.8803570235793003
  0.6581664477912739  0.3327093261370919  0.9997051059007873
  0.6739830475118396  0.3345407678876526  0.5014246707899659
  0.3235333422570292  0.6633499954823137  0.5083620302699501
  0.3697926709287600  0.6938794389986924  0.2424312412876546
  0.3408008764452717  0.6628517338754065  0.7546971904562625
  0.6599949132343070  0.3406548960143496  0.2496352142800973
  0.6579610884597713  0.3251017819160253  0.7462287606585818
  0.2538685344367551  0.5863756474120194  0.0261814425780855
  0.6393235480818120  0.6015973525637790  0.1281236260570608
  0.6214442509842684  0.5947616147454937  0.6212547777849196
  0.3726023617806078  0.4002480188191129  0.3748461638810952
  0.3626644068535825  0.3825523959465613  0.8710660118582112
  0.4127472320763914  0.0407178022710113  0.1313642943618802
  0.4027846797655172  0.0251716225651535  0.6235885822021103
  0.6098768818025917  0.9789175989613881  0.3736261562041534
  0.6068186959303787  0.9727902761061387  0.8735833230284058
  0.9614453103090312  0.3672095648181255  0.1204862872375543
  0.9716354009465391  0.3754022339178462  0.6217536259823291
  0.0305441519126788  0.6361071489378247  0.3753282657250807
  0.0109017981101687  0.6346466110741247  0.8659438034465055
  0.5395097252539358  0.6784414366603926  0.1361524431082515
  0.4963080522723331  0.6434680333503806  0.6233191367803954
  0.4742141401571303  0.3233227365824263  0.3780390399183133
  0.4703533768029899  0.3124776082736105  0.8642718946155270
  0.3543849927721396  0.8678336242107889  0.1406333975743834
  0.3475442646711784  0.8498137412562770  0.6267301460280024
  0.6879629899934372  0.1568529939694088  0.3697683844452726
  0.6801771558173897  0.1515729797730714  0.8698903220885583
  0.1437007086697619  0.4983658124494781  0.1188570465194232
  0.1466105312401424  0.4968149597967226  0.6249542336361955
  0.8517330825514264  0.5365198998870184  0.3789523790280924
  0.8322401232356782  0.5288895382029111  0.8680697266997583
  0.7458822201488715  0.6642352762602073  0.0434558899400557
  0.7250920200862012  0.6572564677439203  0.5355122187091226
  0.2654792320005228  0.3590355423635003  0.4587522893012093
  0.2445136147050633  0.2996851707838388  0.9477724955145703
  0.3413142698309244  0.0763736647157316  0.0469956262045486
  0.3348011114798908  0.0669575652019248  0.5406421506584778
  0.6681277327636508  0.9227507557595729  0.4538990918568047
  0.6758701656726984  0.9271323600964081  0.9537892512916173
  0.9277863639139952  0.2649540992381887  0.0367312944263176
  0.9279761753066182  0.2737591172089253  0.5353213075287542
  0.0982670063642743  0.7406777218793081  0.4602359223820898
  0.0678680082422858  0.7369130351639939  0.9515323026790909
  0.2653447458428104  0.3502038996347210  0.2913542162251233
  0.2634463851007496  0.3589446218510730  0.7847077806692369
  0.7456949903759096  0.6395848174474565  0.2126689806759785
  0.7297669670938163  0.6603049945706090  0.7043456195232167
  0.6388169138612625  0.9083878644296988  0.2869491574023613
  0.6428075562410456  0.9048410220714942  0.7881119895113073
  0.3664579621830342  0.1044518893647037  0.2151187598475985
  0.3500796894009497  0.0770563996432898  0.7091017155150610
  0.0874323310377179  0.7473727010509776  0.2934388505082310
  0.0701950576852397  0.7527622271397973  0.7867172375753810
  0.9350336162673401  0.2751554119155628  0.2070414560190343
  0.9247107632097666  0.2629282405842517  0.7036697407643047
  0.5417521029895056  0.4215754690967515  0.1201250780395213
  0.5446372877197803  0.4146014599916228  0.6210695257820475
  0.4814495297732151  0.5815110968162855  0.3724170333604704
  0.4644726541886968  0.5622439423783590  0.8835298774541656
  0.5927460016076793  0.1370690227757123  0.1220317367607322
  0.5830700190071383  0.1225956679640205  0.6181143251201817
  0.4288327657865452  0.9051812071790906  0.3811531903896892
  0.4267053752237686  0.8944312482121362  0.8796115591207254
  0.8694977452913690  0.4531925878732963  0.1181597554149718
  0.8727333986957433  0.4566061645811175  0.6235358849359898
  0.1028778216870450  0.5279786084631510  0.3716723239870134
  0.0844126640360514  0.5291412878440411  0.8536083341836473
  0.9991224110962662  0.9933121143616361  0.1224522334649976
  0.0009766245695602  0.0021569447149830  0.6278423578508594
 
  0.00000000E+00  0.00000000E+00  0.00000000E+00
  0.00000000E+00  0.00000000E+00  0.00000000E+00
  0.00000000E+00  0.00000000E+00  0.00000000E+00
  0.00000000E+00  0.00000000E+00  0.00000000E+00
  0.00000000E+00  0.00000000E+00  0.00000000E+00
  0.00000000E+00  0.00000000E+00  0.00000000E+00
  0.00000000E+00  0.00000000E+00  0.00000000E+00
  0.00000000E+00  0.00000000E+00  0.00000000E+00
  0.00000000E+00  0.00000000E+00  0.00000000E+00
  0.00000000E+00  0.00000000E+00  0.00000000E+00
  0.00000000E+00  0.00000000E+00  0.00000000E+00
  0.00000000E+00  0.00000000E+00  0.00000000E+00
  0.00000000E+00  0.00000000E+00  0.00000000E+00
  0.00000000E+00  0.00000000E+00  0.00000000E+00
  0.00000000E+00  0.00000000E+00  0.00000000E+00
  0.00000000E+00  0.00000000E+00  0.00000000E+00
  0.00000000E+00  0.00000000E+00  0.00000000E+00
  0.00000000E+00  0.00000000E+00  0.00000000E+00
  0.00000000E+00  0.00000000E+00  0.00000000E+00
  0.00000000E+00  0.00000000E+00  0.00000000E+00
  0.00000000E+00  0.00000000E+00  0.00000000E+00
  0.00000000E+00  0.00000000E+00  0.00000000E+00
  0.00000000E+00  0.00000000E+00  0.00000000E+00
  0.00000000E+00  0.00000000E+00  0.00000000E+00
  0.00000000E+00  0.00000000E+00  0.00000000E+00
  0.00000000E+00  0.00000000E+00  0.00000000E+00
  0.00000000E+00  0.00000000E+00  0.00000000E+00
  0.00000000E+00  0.00000000E+00  0.00000000E+00
  0.00000000E+00  0.00000000E+00  0.00000000E+00
  0.00000000E+00  0.00000000E+00  0.00000000E+00
  0.00000000E+00  0.00000000E+00  0.00000000E+00
  0.00000000E+00  0.00000000E+00  0.00000000E+00
  0.00000000E+00  0.00000000E+00  0.00000000E+00
  0.00000000E+00  0.00000000E+00  0.00000000E+00
  0.00000000E+00  0.00000000E+00  0.00000000E+00
  0.00000000E+00  0.00000000E+00  0.00000000E+00
  0.00000000E+00  0.00000000E+00  0.00000000E+00
  0.00000000E+00  0.00000000E+00  0.00000000E+00
  0.00000000E+00  0.00000000E+00  0.00000000E+00
  0.00000000E+00  0.00000000E+00  0.00000000E+00
  0.00000000E+00  0.00000000E+00  0.00000000E+00
  0.00000000E+00  0.00000000E+00  0.00000000E+00
  0.00000000E+00  0.00000000E+00  0.00000000E+00
  0.00000000E+00  0.00000000E+00  0.00000000E+00
  0.00000000E+00  0.00000000E+00  0.00000000E+00
  0.00000000E+00  0.00000000E+00  0.00000000E+00
  0.00000000E+00  0.00000000E+00  0.00000000E+00
  0.00000000E+00  0.00000000E+00  0.00000000E+00
  0.00000000E+00  0.00000000E+00  0.00000000E+00
  0.00000000E+00  0.00000000E+00  0.00000000E+00
  0.00000000E+00  0.00000000E+00  0.00000000E+00
  0.00000000E+00  0.00000000E+00  0.00000000E+00
  0.00000000E+00  0.00000000E+00  0.00000000E+00
  0.00000000E+00  0.00000000E+00  0.00000000E+00
  0.00000000E+00  0.00000000E+00  0.00000000E+00
  0.00000000E+00  0.00000000E+00  0.00000000E+00
  0.00000000E+00  0.00000000E+00  0.00000000E+00
  0.00000000E+00  0.00000000E+00  0.00000000E+00
  0.00000000E+00  0.00000000E+00  0.00000000E+00
  0.00000000E+00  0.00000000E+00  0.00000000E+00
  0.00000000E+00  0.00000000E+00  0.00000000E+00
  0.00000000E+00  0.00000000E+00  0.00000000E+00
  0.00000000E+00  0.00000000E+00  0.00000000E+00
  0.00000000E+00  0.00000000E+00  0.00000000E+00
  0.00000000E+00  0.00000000E+00  0.00000000E+00
  0.00000000E+00  0.00000000E+00  0.00000000E+00
  0.00000000E+00  0.00000000E+00  0.00000000E+00
  0.00000000E+00  0.00000000E+00  0.00000000E+00
  0.00000000E+00  0.00000000E+00  0.00000000E+00
  0.00000000E+00  0.00000000E+00  0.00000000E+00
  0.00000000E+00  0.00000000E+00  0.00000000E+00
  0.00000000E+00  0.00000000E+00  0.00000000E+00
  0.00000000E+00  0.00000000E+00  0.00000000E+00
  0.00000000E+00  0.00000000E+00  0.00000000E+00
  0.00000000E+00  0.00000000E+00  0.00000000E+00
  0.00000000E+00  0.00000000E+00  0.00000000E+00
  0.00000000E+00  0.00000000E+00  0.00000000E+00
  0.00000000E+00  0.00000000E+00  0.00000000E+00
  0.00000000E+00  0.00000000E+00  0.00000000E+00
  0.00000000E+00  0.00000000E+00  0.00000000E+00
  0.00000000E+00  0.00000000E+00  0.00000000E+00
  0.00000000E+00  0.00000000E+00  0.00000000E+00
