Sc   Al   N                             
   1.00000000000000     
    -9.8903936593019903   -0.0019222079996734   -0.0021631748031863
    -4.9444386581999211    8.5657707423859755   -0.0021631453502687
     0.0056140259162960   -0.0032406943250574   -8.8183237979238118
   Sc   Al   N 
     2    34    36
Direct
  0.1087990958084575  0.0921320497921272  0.3588467762184493
  0.2253832575737178  0.2087166754234815  0.1013677470822216
  0.7764549408577324  0.0942204350487117  0.8666060940760545
  0.8844418919093968  0.2077704886050284  0.6206503799125400
  0.4491171475387787  0.0938811268767452  0.3738100576191243
  0.5599747523354281  0.2035504484352586  0.1194628251558072
  0.1088184746679985  0.0921517891604253  0.8577604022417020
  0.2234716056714987  0.2068049626051547  0.6159007948865209
  0.7744362856189539  0.0941488466554077  0.3706363791783645
  0.8811211920883224  0.2076984650528573  0.1132682079979901
  0.4522658368296746  0.0905106764042856  0.8597226831607472
  0.5559121049093889  0.2080373381229563  0.6175915443306934
  0.1105477791387557  0.4324504883180680  0.3738100560610036
  0.2202171022791006  0.5433081105002344  0.1194628322189644
  0.7770727378516753  0.4297722903040011  0.8667924300249368
  0.8859894202062080  0.5413123836507694  0.6166931016607862
  0.4448760184959824  0.4282093699813245  0.3654867232532837
  0.5561255586804492  0.5394589084475641  0.1162968210038073
  0.1071773368872115  0.4355991903410441  0.8597226783310745
  0.2247039878275103  0.5392454569810639  0.6175915418310751
  0.7729549125004738  0.4309716526495180  0.3699301510837074
  0.8863717977335455  0.5418905810177108  0.1198497662709883
  0.4442620645582664  0.4275954109494293  0.8707203477749133
  0.5547577541681861  0.5380911187315291  0.6207867102031841
  0.1108155029299951  0.7577696014740383  0.3706363845589777
  0.2243651375478848  0.8644544959587179  0.1132681369163322
  0.7773672874035782  0.7607006349979102  0.8703339352956618
  0.8882584680732748  0.8715918132814195  0.6199391871849045
  0.4476383513784299  0.7562882145582108  0.3699301395092505
  0.5585572132959484  0.8697051592672338  0.1198497755532060
  0.1108870972809015  0.7597882735917523  0.8666060966676099
  0.2244371635296289  0.8677751991422085  0.6206504471878915
  0.7784235215257311  0.7617568660042622  0.3666009611497572
  0.8892372827308890  0.8725706249018828  0.1163914002149369
  0.4464389551161787  0.7604060742544121  0.8667924535658074
  0.5579790246812664  0.8693227641843535  0.6166930861705353
  0.2312277155961269  0.2145610544225889  0.3526351185917704
  0.1020665105409364  0.0853997845227426  0.0929936016783444
  0.8856007420463925  0.2074603231941836  0.8425292441829342
  0.7779839058302542  0.0930468359054260  0.5931950074407624
  0.5558259102918299  0.2048889015625122  0.3430058557114677
  0.4665340206116326  0.0832471723213075  0.0841212527122366
  0.2230711643580818  0.2064045366010774  0.8432595980785109
  0.1102068487204377  0.0935401104940183  0.6071648729449350
  0.8673291698421508  0.2160594115098746  0.3397504828627476
  0.7770924871268434  0.0934404609529409  0.0878605985304191
  0.5559961855857267  0.2085094210540390  0.8377729271473058
  0.4471246886394766  0.0930977604964696  0.5973981128231287
  0.2215555405248395  0.5391592873237698  0.3430058602951433
  0.0999138353001783  0.4498673814735525  0.0841212534216496
  0.8855045676375397  0.5417217630040909  0.8371442532492708
  0.7757940794740747  0.4290092015091247  0.5927728727816728
  0.5557982044236880  0.5391315867263202  0.3384121985571653
  0.4438041559700778  0.4271375186448481  0.0940006365720052
  0.2251760589207166  0.5393295533763052  0.8377729245091174
  0.1097644312839989  0.4304580284398227  0.5973981105895447
  0.8889886207751161  0.5378285026854215  0.3440208910043552
  0.7778852164086416  0.4296675871562528  0.0884839820360668
  0.5547946872215164  0.5381280619390267  0.8427001523937321
  0.4451165149175225  0.4284498643136985  0.5873164805749269
  0.2327261452787539  0.8506623731588761  0.3397504424824689
  0.1101071411489727  0.7604258111189708  0.0878606121517933
  0.8880556200553258  0.8713889561221606  0.8417701145158247
  0.7784364492282592  0.7617697909344372  0.5874801472643512
  0.5544951173026860  0.8723219781566769  0.3440209177355413
  0.4463342409672393  0.7612185524617914  0.0884840087564100
  0.2241269862704911  0.8689340668344414  0.8425292503586874
  0.1097135194295689  0.7613172420381247  0.5931949820796447
  0.8896422524516723  0.8729755778344028  0.3397980757026389
  0.7775845173141676  0.7609178655053910  0.0937986035780440
  0.5583883963581044  0.8688379131628423  0.8371442311694821
  0.4456758424813145  0.7591274214588566  0.5927728198044662
 
  0.00000000E+00  0.00000000E+00  0.00000000E+00
  0.00000000E+00  0.00000000E+00  0.00000000E+00
  0.00000000E+00  0.00000000E+00  0.00000000E+00
  0.00000000E+00  0.00000000E+00  0.00000000E+00
  0.00000000E+00  0.00000000E+00  0.00000000E+00
  0.00000000E+00  0.00000000E+00  0.00000000E+00
  0.00000000E+00  0.00000000E+00  0.00000000E+00
  0.00000000E+00  0.00000000E+00  0.00000000E+00
  0.00000000E+00  0.00000000E+00  0.00000000E+00
  0.00000000E+00  0.00000000E+00  0.00000000E+00
  0.00000000E+00  0.00000000E+00  0.00000000E+00
  0.00000000E+00  0.00000000E+00  0.00000000E+00
  0.00000000E+00  0.00000000E+00  0.00000000E+00
  0.00000000E+00  0.00000000E+00  0.00000000E+00
  0.00000000E+00  0.00000000E+00  0.00000000E+00
  0.00000000E+00  0.00000000E+00  0.00000000E+00
  0.00000000E+00  0.00000000E+00  0.00000000E+00
  0.00000000E+00  0.00000000E+00  0.00000000E+00
  0.00000000E+00  0.00000000E+00  0.00000000E+00
  0.00000000E+00  0.00000000E+00  0.00000000E+00
  0.00000000E+00  0.00000000E+00  0.00000000E+00
  0.00000000E+00  0.00000000E+00  0.00000000E+00
  0.00000000E+00  0.00000000E+00  0.00000000E+00
  0.00000000E+00  0.00000000E+00  0.00000000E+00
  0.00000000E+00  0.00000000E+00  0.00000000E+00
  0.00000000E+00  0.00000000E+00  0.00000000E+00
  0.00000000E+00  0.00000000E+00  0.00000000E+00
  0.00000000E+00  0.00000000E+00  0.00000000E+00
  0.00000000E+00  0.00000000E+00  0.00000000E+00
  0.00000000E+00  0.00000000E+00  0.00000000E+00
  0.00000000E+00  0.00000000E+00  0.00000000E+00
  0.00000000E+00  0.00000000E+00  0.00000000E+00
  0.00000000E+00  0.00000000E+00  0.00000000E+00
  0.00000000E+00  0.00000000E+00  0.00000000E+00
  0.00000000E+00  0.00000000E+00  0.00000000E+00
  0.00000000E+00  0.00000000E+00  0.00000000E+00
  0.00000000E+00  0.00000000E+00  0.00000000E+00
  0.00000000E+00  0.00000000E+00  0.00000000E+00
  0.00000000E+00  0.00000000E+00  0.00000000E+00
  0.00000000E+00  0.00000000E+00  0.00000000E+00
  0.00000000E+00  0.00000000E+00  0.00000000E+00
  0.00000000E+00  0.00000000E+00  0.00000000E+00
  0.00000000E+00  0.00000000E+00  0.00000000E+00
  0.00000000E+00  0.00000000E+00  0.00000000E+00
  0.00000000E+00  0.00000000E+00  0.00000000E+00
  0.00000000E+00  0.00000000E+00  0.00000000E+00
  0.00000000E+00  0.00000000E+00  0.00000000E+00
  0.00000000E+00  0.00000000E+00  0.00000000E+00
  0.00000000E+00  0.00000000E+00  0.00000000E+00
  0.00000000E+00  0.00000000E+00  0.00000000E+00
  0.00000000E+00  0.00000000E+00  0.00000000E+00
  0.00000000E+00  0.00000000E+00  0.00000000E+00
  0.00000000E+00  0.00000000E+00  0.00000000E+00
  0.00000000E+00  0.00000000E+00  0.00000000E+00
  0.00000000E+00  0.00000000E+00  0.00000000E+00
  0.00000000E+00  0.00000000E+00  0.00000000E+00
  0.00000000E+00  0.00000000E+00  0.00000000E+00
  0.00000000E+00  0.00000000E+00  0.00000000E+00
  0.00000000E+00  0.00000000E+00  0.00000000E+00
  0.00000000E+00  0.00000000E+00  0.00000000E+00
  0.00000000E+00  0.00000000E+00  0.00000000E+00
  0.00000000E+00  0.00000000E+00  0.00000000E+00
  0.00000000E+00  0.00000000E+00  0.00000000E+00
  0.00000000E+00  0.00000000E+00  0.00000000E+00
  0.00000000E+00  0.00000000E+00  0.00000000E+00
  0.00000000E+00  0.00000000E+00  0.00000000E+00
  0.00000000E+00  0.00000000E+00  0.00000000E+00
  0.00000000E+00  0.00000000E+00  0.00000000E+00
  0.00000000E+00  0.00000000E+00  0.00000000E+00
  0.00000000E+00  0.00000000E+00  0.00000000E+00
  0.00000000E+00  0.00000000E+00  0.00000000E+00
  0.00000000E+00  0.00000000E+00  0.00000000E+00
