Sc   Al   N                             
   1.00000000000000     
    -9.4978721921117533   -0.0019342700362908   -0.0021487890116176
    -4.7472412078558195    8.2263796994426261   -0.0021487915872902
    -0.0000284087854688    0.0000134580928051   -9.9896078175499312
   Sc   Al   N 
     2    34    36
Direct
  0.1098911230224502  0.0932254943610218  0.4068149667664898
  0.2247050825340864  0.2080389850483471  0.1442290664855221
  0.7766322040049118  0.0941427798928416  0.9095270448316697
  0.8861704506267643  0.2070845199161795  0.6635384709372119
  0.4474316262155043  0.0949600857810893  0.4127320584705885
  0.5599272186033204  0.2039571157621580  0.1601266086809829
  0.1077904274902011  0.0911236945306442  0.9072671671565047
  0.2231516601541017  0.2064851174611420  0.6662840348389665
  0.7740068306815076  0.0951901814729368  0.4094906768782423
  0.8810905289804296  0.2072383564270055  0.1563860463651778
  0.4527338113926760  0.0903230325894597  0.9062864535479065
  0.5562157786463544  0.2065821343486505  0.6588532032835133
  0.1116265159432075  0.4307652536723410  0.4127320494657596
  0.2206237094099137  0.5432604365404856  0.1601265933197311
  0.7766243565103181  0.4294101886797392  0.9091756491490699
  0.8874556045281565  0.5398631217290841  0.6586485759451222
  0.4443793945893759  0.4277128803319172  0.4083463169115049
  0.5556384820815197  0.5389715328722815  0.1593264546096762
  0.1069897449671586  0.4360671767215365  0.9062865442220982
  0.2232486972415799  0.5395492189431152  0.6588530059522313
  0.7736191880983370  0.4304943349655304  0.4092647843450834
  0.8858354718440182  0.5430946517917192  0.1598070562059135
  0.4444580429195994  0.4277914654976911  0.9093018366706715
  0.5553209216996251  0.5386542923320263  0.6593918804922794
  0.1118568643480486  0.7573398968682739  0.4094907175098399
  0.2239047694688878  0.8644239332022039  0.1563859970270514
  0.7776104957137093  0.7609437898834912  0.9096795294294964
  0.8888883658076807  0.8722215314994770  0.6592990207963751
  0.4471610237863857  0.7569522960258581  0.4092649282197840
  0.5597615925042803  0.8691686918775545  0.1598069236191435
  0.1108094809327014  0.7599654564647267  0.9095268873460896
  0.2237511432917572  0.8695036973119343  0.6635384374199873
  0.7780432060692704  0.7613761739876495  0.4092479205363944
  0.8889218012751030  0.8722551280522239  0.1583358737665392
  0.4460768509327480  0.7599576385174558  0.9091755281289693
  0.5565297803592415  0.8707888453790602  0.6586485818992145
  0.2314386520666289  0.2147719210931527  0.3563393878702001
  0.1003633750112414  0.0836966709175044  0.1011931535454025
  0.8851287458456554  0.2074849174196913  0.8541294200571485
  0.7783801710034197  0.0942229922817361  0.6019634238102469
  0.5551613152832360  0.2053843809531273  0.3526129609065052
  0.4690316720448564  0.0819838950718150  0.0949382293243417
  0.2230180862142390  0.2063515727285790  0.8636479236222385
  0.1111849154155422  0.0945182552020825  0.6203663474228946
  0.8679031174979031  0.2159998473843672  0.3464394076307613
  0.7771079354555468  0.0932803269912128  0.1002819869679286
  0.5563276705065832  0.2071212927475017  0.8496626078783862
  0.4450575955786249  0.0942212671264144  0.6058454147306165
  0.2220509996270579  0.5384946543087850  0.3526131387347675
  0.0986507035403577  0.4523647832613662  0.0949381669875180
  0.8864681366114411  0.5403378155783116  0.8495967076240376
  0.7773939093945259  0.4277305385320957  0.6018728069226782
  0.5553442572293150  0.5386774869003972  0.3512392598385219
  0.4439471909867407  0.4272805657265550  0.1026938154909232
  0.2237878810497094  0.5396610161570337  0.8496627397901264
  0.1108879403702190  0.4283908556722480  0.6058454133588214
  0.8891477865606845  0.5383502603528854  0.3532264293215803
  0.7773973749210228  0.4296342786722960  0.1008622103931742
  0.5552934280848660  0.5386266911008732  0.8516077867334886
  0.4446665962140344  0.4279999076593484  0.6006702127700621
  0.2326665263423209  0.8512363472660454  0.3464393860793322
  0.1099470671154492  0.7604412075931819  0.1002820712950481
  0.8886896154449460  0.8720229910130612  0.8516602945292604
  0.7780934148985565  0.7614266558675524  0.6009256556234206
  0.5550169158407101  0.8724811734515967  0.3532264988693896
  0.4463009449935100  0.7607306443549078  0.1008621528320575
  0.2241514472850810  0.8684621715166116  0.8541294739125433
  0.1108896851800694  0.7617134418992748  0.6019634747100824
  0.8892542259271892  0.8725875794114373  0.3517510274008089
  0.7778530315248418  0.7611863931650049  0.1020727108494697
  0.5570045002544006  0.8698014806055383  0.8495967958515465
  0.4443972897137698  0.7607271314992019  0.6018726432912089
 
  0.00000000E+00  0.00000000E+00  0.00000000E+00
  0.00000000E+00  0.00000000E+00  0.00000000E+00
  0.00000000E+00  0.00000000E+00  0.00000000E+00
  0.00000000E+00  0.00000000E+00  0.00000000E+00
  0.00000000E+00  0.00000000E+00  0.00000000E+00
  0.00000000E+00  0.00000000E+00  0.00000000E+00
  0.00000000E+00  0.00000000E+00  0.00000000E+00
  0.00000000E+00  0.00000000E+00  0.00000000E+00
  0.00000000E+00  0.00000000E+00  0.00000000E+00
  0.00000000E+00  0.00000000E+00  0.00000000E+00
  0.00000000E+00  0.00000000E+00  0.00000000E+00
  0.00000000E+00  0.00000000E+00  0.00000000E+00
  0.00000000E+00  0.00000000E+00  0.00000000E+00
  0.00000000E+00  0.00000000E+00  0.00000000E+00
  0.00000000E+00  0.00000000E+00  0.00000000E+00
  0.00000000E+00  0.00000000E+00  0.00000000E+00
  0.00000000E+00  0.00000000E+00  0.00000000E+00
  0.00000000E+00  0.00000000E+00  0.00000000E+00
  0.00000000E+00  0.00000000E+00  0.00000000E+00
  0.00000000E+00  0.00000000E+00  0.00000000E+00
  0.00000000E+00  0.00000000E+00  0.00000000E+00
  0.00000000E+00  0.00000000E+00  0.00000000E+00
  0.00000000E+00  0.00000000E+00  0.00000000E+00
  0.00000000E+00  0.00000000E+00  0.00000000E+00
  0.00000000E+00  0.00000000E+00  0.00000000E+00
  0.00000000E+00  0.00000000E+00  0.00000000E+00
  0.00000000E+00  0.00000000E+00  0.00000000E+00
  0.00000000E+00  0.00000000E+00  0.00000000E+00
  0.00000000E+00  0.00000000E+00  0.00000000E+00
  0.00000000E+00  0.00000000E+00  0.00000000E+00
  0.00000000E+00  0.00000000E+00  0.00000000E+00
  0.00000000E+00  0.00000000E+00  0.00000000E+00
  0.00000000E+00  0.00000000E+00  0.00000000E+00
  0.00000000E+00  0.00000000E+00  0.00000000E+00
  0.00000000E+00  0.00000000E+00  0.00000000E+00
  0.00000000E+00  0.00000000E+00  0.00000000E+00
  0.00000000E+00  0.00000000E+00  0.00000000E+00
  0.00000000E+00  0.00000000E+00  0.00000000E+00
  0.00000000E+00  0.00000000E+00  0.00000000E+00
  0.00000000E+00  0.00000000E+00  0.00000000E+00
  0.00000000E+00  0.00000000E+00  0.00000000E+00
  0.00000000E+00  0.00000000E+00  0.00000000E+00
  0.00000000E+00  0.00000000E+00  0.00000000E+00
  0.00000000E+00  0.00000000E+00  0.00000000E+00
  0.00000000E+00  0.00000000E+00  0.00000000E+00
  0.00000000E+00  0.00000000E+00  0.00000000E+00
  0.00000000E+00  0.00000000E+00  0.00000000E+00
  0.00000000E+00  0.00000000E+00  0.00000000E+00
  0.00000000E+00  0.00000000E+00  0.00000000E+00
  0.00000000E+00  0.00000000E+00  0.00000000E+00
  0.00000000E+00  0.00000000E+00  0.00000000E+00
  0.00000000E+00  0.00000000E+00  0.00000000E+00
  0.00000000E+00  0.00000000E+00  0.00000000E+00
  0.00000000E+00  0.00000000E+00  0.00000000E+00
  0.00000000E+00  0.00000000E+00  0.00000000E+00
  0.00000000E+00  0.00000000E+00  0.00000000E+00
  0.00000000E+00  0.00000000E+00  0.00000000E+00
  0.00000000E+00  0.00000000E+00  0.00000000E+00
  0.00000000E+00  0.00000000E+00  0.00000000E+00
  0.00000000E+00  0.00000000E+00  0.00000000E+00
  0.00000000E+00  0.00000000E+00  0.00000000E+00
  0.00000000E+00  0.00000000E+00  0.00000000E+00
  0.00000000E+00  0.00000000E+00  0.00000000E+00
  0.00000000E+00  0.00000000E+00  0.00000000E+00
  0.00000000E+00  0.00000000E+00  0.00000000E+00
  0.00000000E+00  0.00000000E+00  0.00000000E+00
  0.00000000E+00  0.00000000E+00  0.00000000E+00
  0.00000000E+00  0.00000000E+00  0.00000000E+00
  0.00000000E+00  0.00000000E+00  0.00000000E+00
  0.00000000E+00  0.00000000E+00  0.00000000E+00
  0.00000000E+00  0.00000000E+00  0.00000000E+00
  0.00000000E+00  0.00000000E+00  0.00000000E+00
