supercell of icsd_181358.cif            
   1.00000000000000     
    10.1947882626666999    0.0205904139132721   -0.0004581617300350
    -5.0795883547654892    8.8320907846178240   -0.0074450116836184
    -0.0003913538426628   -0.0096750954410272   10.5643406217683005
   N    Ga   Sc
    36    20    16
Direct
  0.2253430214426899  0.1146932773481879  0.4291965297579949
  0.1003695449841047  0.2064705823356832  0.1961158225116009
  0.8965935564611485  0.1240302377289382  0.9435908789984211
  0.7795830863601765  0.2317023842001404  0.6820813161111161
  0.5624945418393068  0.1010139125567235  0.4346769606881438
  0.4463111554871944  0.2241874760266569  0.1973927666571029
  0.2302799547450505  0.1269448725697941  0.9423378691234916
  0.1200158328756942  0.2181146105609244  0.6873013763609634
  0.8735894349510573  0.1010955693435420  0.4424225138169291
  0.7705754754766332  0.2071113321202773  0.1900583553268831
  0.5538616701484358  0.1097084762147063  0.9531514126901612
  0.4328909691886480  0.2141997367822555  0.6842647412338465
  0.2313292356051733  0.4592299557439148  0.4417871869745866
  0.1154555967676032  0.5703636159767740  0.1919046972857004
  0.8787426571783783  0.4267484417910481  0.9378900714097185
  0.7808241639696192  0.5453262237519212  0.6923059465365782
  0.5628696215356683  0.4611491410839790  0.4418744985663281
  0.4626879928103804  0.5671177059738852  0.1889986996866142
  0.2268805758873853  0.4387707983359448  0.9584324791360359
  0.0990873261212641  0.5460216043050039  0.6933872163271957
  0.8900984080425260  0.4447852238622971  0.4488780625719642
  0.7658479041302257  0.5479934133566360  0.1929762169525020
  0.5384130784032735  0.4358428279445405  0.9412122591848657
  0.4492834042755121  0.5705012934012501  0.6819935090706863
  0.2337679094896430  0.7714730039811855  0.4462247737012675
  0.1206696232790421  0.8900739182768476  0.2066883424249255
  0.8900221768893672  0.7795949041662027  0.9412072391101489
  0.7615704080077919  0.8849683269705011  0.6914726126913848
  0.5565481760556708  0.7779174296920814  0.4359806669634523
  0.4438444899275424  0.8858957049228664  0.1919099267586617
  0.2375823502503422  0.7890800413794992  0.9371563164126400
  0.1215960639233273  0.9053948859397636  0.6920159530439633
  0.8767258156588866  0.7733035903564911  0.4590050609555831
  0.7688951159256732  0.8920182501607812  0.1949601765702695
  0.5376125193498140  0.7682223115420470  0.9365897015896607
  0.4568232361828208  0.8880102106959455  0.6805268336962200
  0.2241562875450214  0.1100905927305789  0.2462742585105957
  0.1107332846808191  0.2214534247552464  0.0047051265741871
  0.7754675791151158  0.2197933887987276  0.4972021571696104
  0.5560797364692078  0.1031397060154262  0.2463990880821854
  0.4436133730607779  0.2251437184453096  0.0054043577649523
  0.2265917804331963  0.1162829279886850  0.7513567072792995
  0.8784731946609625  0.1021898338271470  0.2518848191968317
  0.7748579409567853  0.2169386462949419  0.0025807289698179
  0.8855072155123835  0.4376722876333545  0.7464581755329363
  0.7774895691086385  0.5535358264940200  0.5035881442020980
  0.5573408567027514  0.4496454227090538  0.2515880185366797
  0.4449893794270139  0.5547962050814874  0.0016995284803656
  0.1125617505728087  0.5540577293309283  0.5019608467669769
  0.4490389356933377  0.5672481293136187  0.4963285793660361
  0.2303569189788561  0.7796951035721449  0.2550904281709379
  0.7648973614390613  0.8848111630706441  0.5023283794435400
  0.5568500429303711  0.7809632678166878  0.2496726263332150
  0.4438778504683185  0.8883091007551585  0.0027836729957968
  0.5502546990190993  0.7766220472498873  0.7480614344168259
  0.4536259173889547  0.8861255440336180  0.4956831629163574
  0.8916398826292422  0.1161911460150904  0.7421697362819089
  0.1107731914023731  0.2245062435060419  0.4875356975948719
  0.5552236072407339  0.1111264238407443  0.7488908252414177
  0.4499124755699668  0.2239040457852042  0.4841451139256847
  0.2289606563653450  0.4497058979914144  0.2378894364890130
  0.1114280066081221  0.5591577430793961  0.9920625114506478
  0.2262182234712711  0.4426848484232337  0.7502435167599018
  0.8857046871997838  0.4396408911557401  0.2486064273971706
  0.7684942652629303  0.5481252156805922  0.9924595043558426
  0.5493503990531394  0.4420466249460304  0.7399643884402280
  0.1192479897205629  0.8968297650063874  0.9996975579986085
  0.8895534036161408  0.7791906812945655  0.7360288971792670
  0.2294659778007926  0.7811297127583785  0.7372583245545243
  0.1159324788913665  0.8912826393421227  0.4896679371374049
  0.8816104345473548  0.7757536847207334  0.2539680005507563
  0.7706345528303231  0.8911350791383796  0.9943928930358936
 
  0.00000000E+00  0.00000000E+00  0.00000000E+00
  0.00000000E+00  0.00000000E+00  0.00000000E+00
  0.00000000E+00  0.00000000E+00  0.00000000E+00
  0.00000000E+00  0.00000000E+00  0.00000000E+00
  0.00000000E+00  0.00000000E+00  0.00000000E+00
  0.00000000E+00  0.00000000E+00  0.00000000E+00
  0.00000000E+00  0.00000000E+00  0.00000000E+00
  0.00000000E+00  0.00000000E+00  0.00000000E+00
  0.00000000E+00  0.00000000E+00  0.00000000E+00
  0.00000000E+00  0.00000000E+00  0.00000000E+00
  0.00000000E+00  0.00000000E+00  0.00000000E+00
  0.00000000E+00  0.00000000E+00  0.00000000E+00
  0.00000000E+00  0.00000000E+00  0.00000000E+00
  0.00000000E+00  0.00000000E+00  0.00000000E+00
  0.00000000E+00  0.00000000E+00  0.00000000E+00
  0.00000000E+00  0.00000000E+00  0.00000000E+00
  0.00000000E+00  0.00000000E+00  0.00000000E+00
  0.00000000E+00  0.00000000E+00  0.00000000E+00
  0.00000000E+00  0.00000000E+00  0.00000000E+00
  0.00000000E+00  0.00000000E+00  0.00000000E+00
  0.00000000E+00  0.00000000E+00  0.00000000E+00
  0.00000000E+00  0.00000000E+00  0.00000000E+00
  0.00000000E+00  0.00000000E+00  0.00000000E+00
  0.00000000E+00  0.00000000E+00  0.00000000E+00
  0.00000000E+00  0.00000000E+00  0.00000000E+00
  0.00000000E+00  0.00000000E+00  0.00000000E+00
  0.00000000E+00  0.00000000E+00  0.00000000E+00
  0.00000000E+00  0.00000000E+00  0.00000000E+00
  0.00000000E+00  0.00000000E+00  0.00000000E+00
  0.00000000E+00  0.00000000E+00  0.00000000E+00
  0.00000000E+00  0.00000000E+00  0.00000000E+00
  0.00000000E+00  0.00000000E+00  0.00000000E+00
  0.00000000E+00  0.00000000E+00  0.00000000E+00
  0.00000000E+00  0.00000000E+00  0.00000000E+00
  0.00000000E+00  0.00000000E+00  0.00000000E+00
  0.00000000E+00  0.00000000E+00  0.00000000E+00
  0.00000000E+00  0.00000000E+00  0.00000000E+00
  0.00000000E+00  0.00000000E+00  0.00000000E+00
  0.00000000E+00  0.00000000E+00  0.00000000E+00
  0.00000000E+00  0.00000000E+00  0.00000000E+00
  0.00000000E+00  0.00000000E+00  0.00000000E+00
  0.00000000E+00  0.00000000E+00  0.00000000E+00
  0.00000000E+00  0.00000000E+00  0.00000000E+00
  0.00000000E+00  0.00000000E+00  0.00000000E+00
  0.00000000E+00  0.00000000E+00  0.00000000E+00
  0.00000000E+00  0.00000000E+00  0.00000000E+00
  0.00000000E+00  0.00000000E+00  0.00000000E+00
  0.00000000E+00  0.00000000E+00  0.00000000E+00
  0.00000000E+00  0.00000000E+00  0.00000000E+00
  0.00000000E+00  0.00000000E+00  0.00000000E+00
  0.00000000E+00  0.00000000E+00  0.00000000E+00
  0.00000000E+00  0.00000000E+00  0.00000000E+00
  0.00000000E+00  0.00000000E+00  0.00000000E+00
  0.00000000E+00  0.00000000E+00  0.00000000E+00
  0.00000000E+00  0.00000000E+00  0.00000000E+00
  0.00000000E+00  0.00000000E+00  0.00000000E+00
  0.00000000E+00  0.00000000E+00  0.00000000E+00
  0.00000000E+00  0.00000000E+00  0.00000000E+00
  0.00000000E+00  0.00000000E+00  0.00000000E+00
  0.00000000E+00  0.00000000E+00  0.00000000E+00
  0.00000000E+00  0.00000000E+00  0.00000000E+00
  0.00000000E+00  0.00000000E+00  0.00000000E+00
  0.00000000E+00  0.00000000E+00  0.00000000E+00
  0.00000000E+00  0.00000000E+00  0.00000000E+00
  0.00000000E+00  0.00000000E+00  0.00000000E+00
  0.00000000E+00  0.00000000E+00  0.00000000E+00
  0.00000000E+00  0.00000000E+00  0.00000000E+00
  0.00000000E+00  0.00000000E+00  0.00000000E+00
  0.00000000E+00  0.00000000E+00  0.00000000E+00
  0.00000000E+00  0.00000000E+00  0.00000000E+00
  0.00000000E+00  0.00000000E+00  0.00000000E+00
  0.00000000E+00  0.00000000E+00  0.00000000E+00
