generated by phonopy                    
   1.00000000000000     
    10.0351470768999995   -0.0000022330999784   -0.0000001056124209
    -5.0175765436399997    8.6906901959899994    0.0000001395531216
    -0.0000001735893656    0.0000001431815548   14.9533752540999991
   Pb   P    O    Cu
    20    12    49     1
Direct
  0.9996530754329314  0.7776284266031652  0.1300489614288054
  0.9872398510082903  0.7626222378792775  0.6429689194253640
  0.9913919233356978  0.2624777005644958  0.3704805661995394
  0.9991632198232807  0.2573108738301642  0.8811329468547271
  0.2294921383275224  0.2278799777313338  0.1282226023451756
  0.1810986059025907  0.1906318773044333  0.6579022823909355
  0.7416977814872965  0.7444411938419933  0.3816791403889397
  0.7447146872633041  0.7469237726316038  0.8750831351479320
  0.7720546934098564  0.0013581854618536  0.1271504374440866
  0.7639791924817985  0.9898066171548408  0.6395222722964320
  0.2583128367546337  0.9975178120384456  0.3712574316755379
  0.2553588839416818  0.9936919013856809  0.8797150859330003
  0.6656384050460460  0.3312430109615718  0.9986237037403995
  0.6654093437990198  0.3226267749831990  0.4976156179142350
  0.3312705181386022  0.6694905979712260  0.0043901997678759
  0.3333075742154818  0.6858867058299651  0.5005830115407051
  0.3390503854922997  0.6564831953074375  0.2446445075721542
  0.3316162382254575  0.6598386249516111  0.7418039585402738
  0.6753256103083913  0.3454323400312944  0.2437757436579844
  0.6533368545167093  0.3424296778753728  0.7453640193025137
  0.6290354134757550  0.5985995270391484  0.1192797046064911
  0.6146765178914961  0.5895638754201329  0.6215065155390604
  0.3762384694797731  0.3950996964824256  0.3708532054688902
  0.3679918710352581  0.4015296607923773  0.8778635857278942
  0.4030612423510505  0.0278689418218150  0.1215500911694107
  0.4138228036606080  0.0302997935507889  0.6190797154175982
  0.6071837501078718  0.9735105754609137  0.3692935218666875
  0.6080890028953050  0.9788805929211364  0.8687063855372514
  0.9726020643455655  0.3770058011503963  0.1183164676665456
  0.9760290101040283  0.3851432614910308  0.6165459014316639
  0.0293536943632802  0.6353822587393196  0.3728174450937871
  0.0239820573599232  0.6292534788812674  0.8734738082307132
  0.5053526841195577  0.6495744649159434  0.1209924269628999
  0.5013748362348096  0.6534038292617126  0.6262573854509839
  0.4890528248853414  0.3295780595658329  0.3585047211225714
  0.4600569692252137  0.3154713372910081  0.8764901537501260
  0.3542190244313304  0.8542089181925760  0.1228020546519346
  0.3617037745563465  0.8549850498182252  0.6210427823889262
  0.6829190329492363  0.1525951829178211  0.3705849839651592
  0.6890320022330343  0.1570764828589901  0.8629618333417355
  0.1484588780010583  0.4952128875627082  0.1212972172659761
  0.1497888195111017  0.5120205589853839  0.6177082395664328
  0.8515289590973794  0.5324337119419198  0.3785144130355533
  0.8456469375482385  0.5345538457053465  0.8745064127485804
  0.7383118882211690  0.6691919725812738  0.0367500907517524
  0.7304026679552038  0.6668177138375668  0.5422577701124922
  0.2520603192693613  0.3494987096827771  0.9578143274338586
  0.3387238057644169  0.0696749877977112  0.0366079784052999
  0.3798287576954777  0.0780619368189264  0.5264814487804301
  0.6458809414908728  0.9107831741701133  0.4551508689933144
  0.6699473599101182  0.9252344894090569  0.9485878690051948
  0.9286086821853488  0.2685860998651464  0.0344257282926961
  0.9236430719472182  0.3114631479261263  0.5219132506210755
  0.1036377760219835  0.7363307580146952  0.4580662073497521
  0.0917242910672513  0.7427304165730675  0.9546477945576441
  0.2703307775341912  0.3634415800788275  0.2856066252507361
  0.2695008502320491  0.3721126748550674  0.7905301266299531
  0.7322703649798399  0.6528277754674363  0.2054218050933372
  0.7160484489257399  0.6330302511050974  0.7095497371191541
  0.6640739226399219  0.9178871545359044  0.2877296961479345
  0.6345106875720461  0.9052992575423389  0.7823471248216620
  0.3378834478212411  0.0718795069467433  0.2048064582026043
  0.3295556380776929  0.0639852121351865  0.6965309525894199
  0.0770816943973145  0.7502600051683785  0.2922965740371168
  0.0875772919038340  0.7320374589187324  0.7876616466873685
  0.9215873275446214  0.2691887280002518  0.2023763255989834
  0.9514143671603250  0.2569438156871016  0.6859174815550944
  0.5488206222406475  0.4181233230695085  0.1150626933744334
  0.5281137369296829  0.4106907653723439  0.6130737047892723
  0.4776339948325514  0.5793853731699059  0.3762579129155839
  0.4795990580133704  0.5809586646945561  0.8842271252496516
  0.5829783486484104  0.1310286061237136  0.1212730283514816
  0.5927156026032776  0.1293041239541211  0.6346835647695741
  0.4261076447821992  0.8967869280498206  0.3634901722061770
  0.4284798449496705  0.9063743399332367  0.8794938981711979
  0.8772383964681296  0.4613733650169394  0.1142364707419858
  0.8728588180687495  0.4558424476667469  0.6420141194433171
  0.1055411665935821  0.5311776728829045  0.3593170134787442
  0.0938354777944070  0.5192153399757444  0.8762741712959539
  0.9996599358070313  0.0044056642245138  0.1362560806351851
  0.9737690764443769  0.9727963005565314  0.7002795469988428
  0.2283537181523130  0.2553034864208357  0.4829167645313674
 
  0.00000000E+00  0.00000000E+00  0.00000000E+00
  0.00000000E+00  0.00000000E+00  0.00000000E+00
  0.00000000E+00  0.00000000E+00  0.00000000E+00
  0.00000000E+00  0.00000000E+00  0.00000000E+00
  0.00000000E+00  0.00000000E+00  0.00000000E+00
  0.00000000E+00  0.00000000E+00  0.00000000E+00
  0.00000000E+00  0.00000000E+00  0.00000000E+00
  0.00000000E+00  0.00000000E+00  0.00000000E+00
  0.00000000E+00  0.00000000E+00  0.00000000E+00
  0.00000000E+00  0.00000000E+00  0.00000000E+00
  0.00000000E+00  0.00000000E+00  0.00000000E+00
  0.00000000E+00  0.00000000E+00  0.00000000E+00
  0.00000000E+00  0.00000000E+00  0.00000000E+00
  0.00000000E+00  0.00000000E+00  0.00000000E+00
  0.00000000E+00  0.00000000E+00  0.00000000E+00
  0.00000000E+00  0.00000000E+00  0.00000000E+00
  0.00000000E+00  0.00000000E+00  0.00000000E+00
  0.00000000E+00  0.00000000E+00  0.00000000E+00
  0.00000000E+00  0.00000000E+00  0.00000000E+00
  0.00000000E+00  0.00000000E+00  0.00000000E+00
  0.00000000E+00  0.00000000E+00  0.00000000E+00
  0.00000000E+00  0.00000000E+00  0.00000000E+00
  0.00000000E+00  0.00000000E+00  0.00000000E+00
  0.00000000E+00  0.00000000E+00  0.00000000E+00
  0.00000000E+00  0.00000000E+00  0.00000000E+00
  0.00000000E+00  0.00000000E+00  0.00000000E+00
  0.00000000E+00  0.00000000E+00  0.00000000E+00
  0.00000000E+00  0.00000000E+00  0.00000000E+00
  0.00000000E+00  0.00000000E+00  0.00000000E+00
  0.00000000E+00  0.00000000E+00  0.00000000E+00
  0.00000000E+00  0.00000000E+00  0.00000000E+00
  0.00000000E+00  0.00000000E+00  0.00000000E+00
  0.00000000E+00  0.00000000E+00  0.00000000E+00
  0.00000000E+00  0.00000000E+00  0.00000000E+00
  0.00000000E+00  0.00000000E+00  0.00000000E+00
  0.00000000E+00  0.00000000E+00  0.00000000E+00
  0.00000000E+00  0.00000000E+00  0.00000000E+00
  0.00000000E+00  0.00000000E+00  0.00000000E+00
  0.00000000E+00  0.00000000E+00  0.00000000E+00
  0.00000000E+00  0.00000000E+00  0.00000000E+00
  0.00000000E+00  0.00000000E+00  0.00000000E+00
  0.00000000E+00  0.00000000E+00  0.00000000E+00
  0.00000000E+00  0.00000000E+00  0.00000000E+00
  0.00000000E+00  0.00000000E+00  0.00000000E+00
  0.00000000E+00  0.00000000E+00  0.00000000E+00
  0.00000000E+00  0.00000000E+00  0.00000000E+00
  0.00000000E+00  0.00000000E+00  0.00000000E+00
  0.00000000E+00  0.00000000E+00  0.00000000E+00
  0.00000000E+00  0.00000000E+00  0.00000000E+00
  0.00000000E+00  0.00000000E+00  0.00000000E+00
  0.00000000E+00  0.00000000E+00  0.00000000E+00
  0.00000000E+00  0.00000000E+00  0.00000000E+00
  0.00000000E+00  0.00000000E+00  0.00000000E+00
  0.00000000E+00  0.00000000E+00  0.00000000E+00
  0.00000000E+00  0.00000000E+00  0.00000000E+00
  0.00000000E+00  0.00000000E+00  0.00000000E+00
  0.00000000E+00  0.00000000E+00  0.00000000E+00
  0.00000000E+00  0.00000000E+00  0.00000000E+00
  0.00000000E+00  0.00000000E+00  0.00000000E+00
  0.00000000E+00  0.00000000E+00  0.00000000E+00
  0.00000000E+00  0.00000000E+00  0.00000000E+00
  0.00000000E+00  0.00000000E+00  0.00000000E+00
  0.00000000E+00  0.00000000E+00  0.00000000E+00
  0.00000000E+00  0.00000000E+00  0.00000000E+00
  0.00000000E+00  0.00000000E+00  0.00000000E+00
  0.00000000E+00  0.00000000E+00  0.00000000E+00
  0.00000000E+00  0.00000000E+00  0.00000000E+00
  0.00000000E+00  0.00000000E+00  0.00000000E+00
  0.00000000E+00  0.00000000E+00  0.00000000E+00
  0.00000000E+00  0.00000000E+00  0.00000000E+00
  0.00000000E+00  0.00000000E+00  0.00000000E+00
  0.00000000E+00  0.00000000E+00  0.00000000E+00
  0.00000000E+00  0.00000000E+00  0.00000000E+00
  0.00000000E+00  0.00000000E+00  0.00000000E+00
  0.00000000E+00  0.00000000E+00  0.00000000E+00
  0.00000000E+00  0.00000000E+00  0.00000000E+00
  0.00000000E+00  0.00000000E+00  0.00000000E+00
  0.00000000E+00  0.00000000E+00  0.00000000E+00
  0.00000000E+00  0.00000000E+00  0.00000000E+00
  0.00000000E+00  0.00000000E+00  0.00000000E+00
  0.00000000E+00  0.00000000E+00  0.00000000E+00
  0.00000000E+00  0.00000000E+00  0.00000000E+00
