generated by phonopy                    
   1.00000000000000     
    10.0351470768999995   -0.0000022330999784   -0.0000001056124209
    -5.0175765436399997    8.6906901959899994    0.0000001395531216
    -0.0000001735893656    0.0000001431815548   14.9533752540999991
   Pb   P    O 
    20    13    49
Direct
  0.0011386278574221  0.7757004437542250  0.1218079713885274
  0.0013048100903035  0.7760328112549502  0.6249085823753688
  0.9906419522217647  0.2513314748646991  0.3741714201314039
  0.0057609049938065  0.2406312394609955  0.8736378059631065
  0.2271195521218061  0.2255061288653835  0.1237372313796854
  0.2271989601347144  0.2252823005942588  0.6229597007191785
  0.7199408031076899  0.7295631923733765  0.3735500655290451
  0.7606981983567422  0.7601531206500951  0.8736630611418263
  0.7723272086108111  0.0018833507487983  0.1224124220716476
  0.7721936593262271  0.0018284318335589  0.6246487496013060
  0.2525606677558514  0.0059205189036717  0.3734676020066772
  0.2403274494429084  0.9958970480770901  0.8735414412364833
  0.6601476434264768  0.3275112557425928  0.9976766410548805
  0.6949451180192909  0.3531892182845553  0.5063493186073060
  0.3380055359931760  0.6654275368846925  0.9987146897308818
  0.3248752513500008  0.6728734924094866  0.5061958083468667
  0.3228123948651813  0.6714088727769365  0.2412910533322119
  0.3372386572871306  0.6646445572323145  0.7487643435418008
  0.6968205824015001  0.3538715169940971  0.2417030365178761
  0.6619441562181194  0.3285530222876929  0.7505659610747202
  0.6278282749367889  0.5989104645189727  0.1237096199069896
  0.6281044013071408  0.5991389247690506  0.6244842742714951
  0.3490517130666717  0.4026580619831606  0.3735192406331365
  0.3712143518215996  0.3999701751082725  0.8737191147657910
  0.3969381677325714  0.0261641594919908  0.1216005335892874
  0.3969693127322671  0.0259925608340055  0.6265894861053454
  0.6030035329600878  0.9776134705980866  0.3738517665768981
  0.6023844252358543  0.9673553727744704  0.8737823303337464
  0.9790998674734226  0.3730357069727717  0.1162227130291882
  0.9795189866316534  0.3733000595783622  0.6309488651624235
  0.0305283977338675  0.6268531147112029  0.3742203006078952
  0.0291763519959645  0.6332561972605717  0.8740027174115568
  0.4871411642366823  0.3036868562998052  0.3733957594168231
  0.5058158664342756  0.6511499332505295  0.1255642163950839
  0.5064391874024778  0.6517873719285916  0.6222094769159057
  0.4748665933921430  0.3257728458653588  0.8737732874831039
  0.3500474244596319  0.8524625024666932  0.1173350304031047
  0.3497273840999426  0.8521653098691431  0.6302204511374114
  0.6885762592299258  0.1567940262170637  0.3741763779107430
  0.6786677590172374  0.1454411648740006  0.8739586364162548
  0.1550495237447507  0.4916783738850370  0.1199280011619166
  0.1554418620171703  0.4916810487883865  0.6270152691444082
  0.8520565491441516  0.5366208042105711  0.3747306674907378
  0.8510126460866303  0.5281517366715107  0.8741810908978067
  0.7412876458548894  0.6726740617026508  0.0430061817541372
  0.7294525080663306  0.6492737432233753  0.5371311015451994
  0.2419510025852958  0.3548905969677989  0.4580870217206297
  0.2638441656626540  0.3510059675164712  0.9577612137596816
  0.3423659995084805  0.0766816779924469  0.0361417718190040
  0.3198157429947273  0.0557933170041167  0.5442446446823013
  0.6440181362816659  0.9121596841546946  0.4580890668696682
  0.6510911567913737  0.9081869963313096  0.9579524927606187
  0.9397015441369732  0.2533243462056163  0.0390949789059860
  0.9248317394183729  0.2771006245204006  0.5420789114580131
  0.0953036586472180  0.7273282236511207  0.4600045408188365
  0.0869143671284220  0.7430270268056489  0.9576015133381475
  0.2413628687682561  0.3548600286998536  0.2892530862677773
  0.2637351517682802  0.3509276611481695  0.7897522955654566
  0.7295654991943721  0.6505593995096390  0.2109098185602676
  0.7420689092300918  0.6740285409299744  0.7048949940118021
  0.6477684716099503  0.9134109107678015  0.2905677897917158
  0.6524009048223576  0.9087255612072695  0.7899714769427106
  0.3163374291790646  0.0539095286846418  0.2029473850220924
  0.3389930031293957  0.0746618833410935  0.7113275872275011
  0.0939309051042088  0.7266692575761056  0.2881012834712990
  0.0863532096061022  0.7431603249977741  0.7904868443818884
  0.9252657851865749  0.2765963381412675  0.2049934327336231
  0.9405116020684403  0.2532566370826643  0.7078658039987005
  0.5489829725783508  0.4192593180016786  0.1171696814963497
  0.5488597537652709  0.4195582466830388  0.6318641888799590
  0.4514906728715786  0.5857061949494522  0.3734693850912407
  0.4735549458939516  0.5809910532118323  0.8736701009521113
  0.5762256656963700  0.1284340601923191  0.1274412832733418
  0.5764403449901963  0.1281269506546252  0.6228382624680933
  0.4226373938791284  0.9091326539541456  0.3725990760788349
  0.4217269716374901  0.8888626219996922  0.8733667569108547
  0.8881377808650939  0.4596115406002070  0.1005772638457998
  0.8887368046900050  0.4599447592123198  0.6470958377262335
  0.0950589027897024  0.5121039404155638  0.3739356882000138
  0.1112066748379803  0.5343268193255639  0.8737454876833937
  0.9975215191108617  0.0002170661546259  0.1281595603119356
  0.9974776916450807  0.0003088256354360  0.6156828022397463
 
  0.00000000E+00  0.00000000E+00  0.00000000E+00
  0.00000000E+00  0.00000000E+00  0.00000000E+00
  0.00000000E+00  0.00000000E+00  0.00000000E+00
  0.00000000E+00  0.00000000E+00  0.00000000E+00
  0.00000000E+00  0.00000000E+00  0.00000000E+00
  0.00000000E+00  0.00000000E+00  0.00000000E+00
  0.00000000E+00  0.00000000E+00  0.00000000E+00
  0.00000000E+00  0.00000000E+00  0.00000000E+00
  0.00000000E+00  0.00000000E+00  0.00000000E+00
  0.00000000E+00  0.00000000E+00  0.00000000E+00
  0.00000000E+00  0.00000000E+00  0.00000000E+00
  0.00000000E+00  0.00000000E+00  0.00000000E+00
  0.00000000E+00  0.00000000E+00  0.00000000E+00
  0.00000000E+00  0.00000000E+00  0.00000000E+00
  0.00000000E+00  0.00000000E+00  0.00000000E+00
  0.00000000E+00  0.00000000E+00  0.00000000E+00
  0.00000000E+00  0.00000000E+00  0.00000000E+00
  0.00000000E+00  0.00000000E+00  0.00000000E+00
  0.00000000E+00  0.00000000E+00  0.00000000E+00
  0.00000000E+00  0.00000000E+00  0.00000000E+00
  0.00000000E+00  0.00000000E+00  0.00000000E+00
  0.00000000E+00  0.00000000E+00  0.00000000E+00
  0.00000000E+00  0.00000000E+00  0.00000000E+00
  0.00000000E+00  0.00000000E+00  0.00000000E+00
  0.00000000E+00  0.00000000E+00  0.00000000E+00
  0.00000000E+00  0.00000000E+00  0.00000000E+00
  0.00000000E+00  0.00000000E+00  0.00000000E+00
  0.00000000E+00  0.00000000E+00  0.00000000E+00
  0.00000000E+00  0.00000000E+00  0.00000000E+00
  0.00000000E+00  0.00000000E+00  0.00000000E+00
  0.00000000E+00  0.00000000E+00  0.00000000E+00
  0.00000000E+00  0.00000000E+00  0.00000000E+00
  0.00000000E+00  0.00000000E+00  0.00000000E+00
  0.00000000E+00  0.00000000E+00  0.00000000E+00
  0.00000000E+00  0.00000000E+00  0.00000000E+00
  0.00000000E+00  0.00000000E+00  0.00000000E+00
  0.00000000E+00  0.00000000E+00  0.00000000E+00
  0.00000000E+00  0.00000000E+00  0.00000000E+00
  0.00000000E+00  0.00000000E+00  0.00000000E+00
  0.00000000E+00  0.00000000E+00  0.00000000E+00
  0.00000000E+00  0.00000000E+00  0.00000000E+00
  0.00000000E+00  0.00000000E+00  0.00000000E+00
  0.00000000E+00  0.00000000E+00  0.00000000E+00
  0.00000000E+00  0.00000000E+00  0.00000000E+00
  0.00000000E+00  0.00000000E+00  0.00000000E+00
  0.00000000E+00  0.00000000E+00  0.00000000E+00
  0.00000000E+00  0.00000000E+00  0.00000000E+00
  0.00000000E+00  0.00000000E+00  0.00000000E+00
  0.00000000E+00  0.00000000E+00  0.00000000E+00
  0.00000000E+00  0.00000000E+00  0.00000000E+00
  0.00000000E+00  0.00000000E+00  0.00000000E+00
  0.00000000E+00  0.00000000E+00  0.00000000E+00
  0.00000000E+00  0.00000000E+00  0.00000000E+00
  0.00000000E+00  0.00000000E+00  0.00000000E+00
  0.00000000E+00  0.00000000E+00  0.00000000E+00
  0.00000000E+00  0.00000000E+00  0.00000000E+00
  0.00000000E+00  0.00000000E+00  0.00000000E+00
  0.00000000E+00  0.00000000E+00  0.00000000E+00
  0.00000000E+00  0.00000000E+00  0.00000000E+00
  0.00000000E+00  0.00000000E+00  0.00000000E+00
  0.00000000E+00  0.00000000E+00  0.00000000E+00
  0.00000000E+00  0.00000000E+00  0.00000000E+00
  0.00000000E+00  0.00000000E+00  0.00000000E+00
  0.00000000E+00  0.00000000E+00  0.00000000E+00
  0.00000000E+00  0.00000000E+00  0.00000000E+00
  0.00000000E+00  0.00000000E+00  0.00000000E+00
  0.00000000E+00  0.00000000E+00  0.00000000E+00
  0.00000000E+00  0.00000000E+00  0.00000000E+00
  0.00000000E+00  0.00000000E+00  0.00000000E+00
  0.00000000E+00  0.00000000E+00  0.00000000E+00
  0.00000000E+00  0.00000000E+00  0.00000000E+00
  0.00000000E+00  0.00000000E+00  0.00000000E+00
  0.00000000E+00  0.00000000E+00  0.00000000E+00
  0.00000000E+00  0.00000000E+00  0.00000000E+00
  0.00000000E+00  0.00000000E+00  0.00000000E+00
  0.00000000E+00  0.00000000E+00  0.00000000E+00
  0.00000000E+00  0.00000000E+00  0.00000000E+00
  0.00000000E+00  0.00000000E+00  0.00000000E+00
  0.00000000E+00  0.00000000E+00  0.00000000E+00
  0.00000000E+00  0.00000000E+00  0.00000000E+00
  0.00000000E+00  0.00000000E+00  0.00000000E+00
  0.00000000E+00  0.00000000E+00  0.00000000E+00
