Al   Gd   N                             
   1.00000000000000     
    -9.8848529538096983   -0.0103234281666748    0.0020395588823220
    -4.9034335152909989    8.5294551171525210   -0.0000000633423175
     0.0024549661812446    0.0014197417623981   -9.1420466020235942
   Al   Gd   N 
    34     2    36
Direct
  0.1098750296885882  0.0939743676806870  0.3732556099033104
  0.2124184350870948  0.2104640428560742  0.1275814479642534
  0.7888959512622549  0.0886458138374095  0.8627710159118678
  0.8905389527684520  0.2084496648195042  0.6244347307994005
  0.4396870396731245  0.0968165326728183  0.3923036187220745
  0.1096665718863434  0.0967182302390626  0.8754822376722444
  0.2133334352443015  0.2100046785362792  0.6215657373099361
  0.7834147155103111  0.0923448190718474  0.3836525559059467
  0.8940520866834660  0.2032214557280554  0.1236768135803175
  0.4354944484610357  0.0989146252713624  0.8520695481844882
  0.5578820602757233  0.2070002393230297  0.6175137673942714
  0.1098752363925684  0.4294772289014404  0.3732584621896322
  0.2179873040761535  0.5430148561055148  0.1231881495830649
  0.7768904780276671  0.4282176855886277  0.8761056616429670
  0.8905395935694429  0.5343547956549628  0.6244340595380038
  0.4397332497033872  0.4330902673469765  0.3843122052794001
  0.5484000922124039  0.5424712123729236  0.1242162470566726
  0.1096672213995689  0.4269428144309373  0.8754788142890604
  0.2173177761610248  0.5411529220904754  0.6248020025039267
  0.7764706287568970  0.4284287183894833  0.3707462734029789
  0.8940524574992850  0.5360653206709998  0.1236776417838215
  0.4398118234751962  0.4350866956638484  0.8625328558166174
  0.5583360042997398  0.5375008850942820  0.6239127033420928
  0.1139805063831929  0.7596729387914039  0.3737063149467872
  0.2179910737428941  0.8723416963799266  0.1231860877035800
  0.7888961712751694  0.7557810017042499  0.8627729415107126
  0.8951941445091407  0.8690737864702811  0.6211356748407084
  0.4397328678297967  0.7604990363499411  0.3843159547898480
  0.1108146052080201  0.7612560980298468  0.8759606443166845
  0.2173157057698631  0.8748744068379537  0.6248036845849114
  0.7834149177967475  0.7575659209259058  0.3836510868562115
  0.9022431284206505  0.8655485067223339  0.1265542782039617
  0.4398134169771950  0.7584232226054226  0.8625275249518296
  0.5578831665173709  0.8684557696081114  0.6175146988351301
  0.5586285548863259  0.2073275377016870  0.1115979367543574
  0.5586285876737662  0.8673974956504367  0.1115974663561161
  0.2224815718342938  0.2054348811004871  0.3407377310891491
  0.1104453877887153  0.0956782191437995  0.0879189437443770
  0.8907923044987669  0.2092192692231052  0.8336694918181848
  0.7832411250104983  0.0931366399770113  0.5925455325538707
  0.5558947911532144  0.2053103974801473  0.3671852374214950
  0.4112453919264070  0.1110348759225559  0.0646375566912170
  0.2123745458828736  0.2104889478241319  0.8279571802982773
  0.1086891343726393  0.0946167045335429  0.5819967297790640
  0.8881893381074164  0.2058624872588339  0.3355167600871312
  0.8133031824232759  0.0747944243392382  0.0752305067411356
  0.5597806504781531  0.2061745050146513  0.8342375374744861
  0.4392274557500500  0.0970423083052196  0.6021546135940881
  0.2226899781444160  0.5380412843715661  0.3360705563796671
  0.1104454989671311  0.4271962896826480  0.0879168331398219
  0.8907933974235078  0.5333374748829911  0.8336672097203106
  0.7771084137784214  0.4281043905289721  0.5809852552596340
  0.5527215949227227  0.5403140209334225  0.3385293054105816
  0.4268033241698959  0.4557665880621258  0.0750559626298610
  0.2168388482237589  0.5405875990814692  0.8336382491149266
  0.1086909164246279  0.4300116263925204  0.5819981264415830
  0.8881913753526760  0.5392975290930764  0.3355181272924597
  0.7739341326927942  0.4296890766591090  0.0892017726237881
  0.5596188320831743  0.5368641585103973  0.8312630845567739
  0.4400333689206093  0.4329771928119328  0.5938178424828351
  0.2226924022348982  0.8726186741431903  0.3360689609283796
  0.1137830833947362  0.7597690937286572  0.0872790535778805
  0.8956532400308959  0.8688473735552478  0.8273354473186174
  0.7832413106362637  0.7569388431596948  0.5925433877944002
  0.5558939953203108  0.8721393062763951  0.3671853774670311
  0.4268066536863913  0.7507436062755275  0.0750532267178485
  0.2168393398738573  0.8759262773780492  0.8336406500203850
  0.1136469683089203  0.7598361093881891  0.5820935369727067
  0.8902852595142861  0.8715322368403307  0.3411786932401242
  0.8133042263783210  0.7452125788460364  0.0752322033158990
  0.5597818777449888  0.8673904241862402  0.8342379259654322
  0.4400323805109281  0.7603027922904033  0.5938227871477224
 
  0.00000000E+00  0.00000000E+00  0.00000000E+00
  0.00000000E+00  0.00000000E+00  0.00000000E+00
  0.00000000E+00  0.00000000E+00  0.00000000E+00
  0.00000000E+00  0.00000000E+00  0.00000000E+00
  0.00000000E+00  0.00000000E+00  0.00000000E+00
  0.00000000E+00  0.00000000E+00  0.00000000E+00
  0.00000000E+00  0.00000000E+00  0.00000000E+00
  0.00000000E+00  0.00000000E+00  0.00000000E+00
  0.00000000E+00  0.00000000E+00  0.00000000E+00
  0.00000000E+00  0.00000000E+00  0.00000000E+00
  0.00000000E+00  0.00000000E+00  0.00000000E+00
  0.00000000E+00  0.00000000E+00  0.00000000E+00
  0.00000000E+00  0.00000000E+00  0.00000000E+00
  0.00000000E+00  0.00000000E+00  0.00000000E+00
  0.00000000E+00  0.00000000E+00  0.00000000E+00
  0.00000000E+00  0.00000000E+00  0.00000000E+00
  0.00000000E+00  0.00000000E+00  0.00000000E+00
  0.00000000E+00  0.00000000E+00  0.00000000E+00
  0.00000000E+00  0.00000000E+00  0.00000000E+00
  0.00000000E+00  0.00000000E+00  0.00000000E+00
  0.00000000E+00  0.00000000E+00  0.00000000E+00
  0.00000000E+00  0.00000000E+00  0.00000000E+00
  0.00000000E+00  0.00000000E+00  0.00000000E+00
  0.00000000E+00  0.00000000E+00  0.00000000E+00
  0.00000000E+00  0.00000000E+00  0.00000000E+00
  0.00000000E+00  0.00000000E+00  0.00000000E+00
  0.00000000E+00  0.00000000E+00  0.00000000E+00
  0.00000000E+00  0.00000000E+00  0.00000000E+00
  0.00000000E+00  0.00000000E+00  0.00000000E+00
  0.00000000E+00  0.00000000E+00  0.00000000E+00
  0.00000000E+00  0.00000000E+00  0.00000000E+00
  0.00000000E+00  0.00000000E+00  0.00000000E+00
  0.00000000E+00  0.00000000E+00  0.00000000E+00
  0.00000000E+00  0.00000000E+00  0.00000000E+00
  0.00000000E+00  0.00000000E+00  0.00000000E+00
  0.00000000E+00  0.00000000E+00  0.00000000E+00
  0.00000000E+00  0.00000000E+00  0.00000000E+00
  0.00000000E+00  0.00000000E+00  0.00000000E+00
  0.00000000E+00  0.00000000E+00  0.00000000E+00
  0.00000000E+00  0.00000000E+00  0.00000000E+00
  0.00000000E+00  0.00000000E+00  0.00000000E+00
  0.00000000E+00  0.00000000E+00  0.00000000E+00
  0.00000000E+00  0.00000000E+00  0.00000000E+00
  0.00000000E+00  0.00000000E+00  0.00000000E+00
  0.00000000E+00  0.00000000E+00  0.00000000E+00
  0.00000000E+00  0.00000000E+00  0.00000000E+00
  0.00000000E+00  0.00000000E+00  0.00000000E+00
  0.00000000E+00  0.00000000E+00  0.00000000E+00
  0.00000000E+00  0.00000000E+00  0.00000000E+00
  0.00000000E+00  0.00000000E+00  0.00000000E+00
  0.00000000E+00  0.00000000E+00  0.00000000E+00
  0.00000000E+00  0.00000000E+00  0.00000000E+00
  0.00000000E+00  0.00000000E+00  0.00000000E+00
  0.00000000E+00  0.00000000E+00  0.00000000E+00
  0.00000000E+00  0.00000000E+00  0.00000000E+00
  0.00000000E+00  0.00000000E+00  0.00000000E+00
  0.00000000E+00  0.00000000E+00  0.00000000E+00
  0.00000000E+00  0.00000000E+00  0.00000000E+00
  0.00000000E+00  0.00000000E+00  0.00000000E+00
  0.00000000E+00  0.00000000E+00  0.00000000E+00
  0.00000000E+00  0.00000000E+00  0.00000000E+00
  0.00000000E+00  0.00000000E+00  0.00000000E+00
  0.00000000E+00  0.00000000E+00  0.00000000E+00
  0.00000000E+00  0.00000000E+00  0.00000000E+00
  0.00000000E+00  0.00000000E+00  0.00000000E+00
  0.00000000E+00  0.00000000E+00  0.00000000E+00
  0.00000000E+00  0.00000000E+00  0.00000000E+00
  0.00000000E+00  0.00000000E+00  0.00000000E+00
  0.00000000E+00  0.00000000E+00  0.00000000E+00
  0.00000000E+00  0.00000000E+00  0.00000000E+00
  0.00000000E+00  0.00000000E+00  0.00000000E+00
  0.00000000E+00  0.00000000E+00  0.00000000E+00
