supercell of icsd_191774.cif            
   1.00000000000000     
    10.2486133602072123    0.1348252665186739   -0.0755439397172897
    -5.0079310717068903    8.7539202443956761    0.0150144650987542
    -0.0832370455238532   -0.0294192308224035   10.8060187367399454
   N    In   B 
    36    30     6
Direct
  0.2252739746177923  0.1160434231563983  0.4564863264157992
  0.1081526805996518  0.2217912481797413  0.1886287473550610
  0.8779703726993660  0.1101670488929258  0.9432702655815675
  0.7693098406464713  0.2274707258963033  0.6815870329588236
  0.5285144112051938  0.0631106959835463  0.4505262497558959
  0.4430678133224859  0.2193340013431637  0.1923930346116052
  0.2196189195914044  0.1143193935634983  0.9425752951238380
  0.1174556956104098  0.2679760881446711  0.7098563292990434
  0.8906509315255065  0.1123440812224814  0.4479495042502393
  0.7924945256312981  0.2627082721959795  0.2125212304285498
  0.5312876895080905  0.0617548661551695  0.9501323899887595
  0.4574753131128375  0.2612316424423611  0.7114522879911434
  0.2353541944581039  0.4507288847111113  0.4397465388029644
  0.0665403626986034  0.5356703848691140  0.2036559929694306
  0.8844613154811256  0.4370136597824370  0.9367520181074624
  0.8433914434677092  0.6243756686835269  0.6954835642392965
  0.5674564131248587  0.4502685684859102  0.4417047609187321
  0.4401893099361516  0.5495250154527298  0.1732710845971042
  0.1999554832066153  0.4408602712443184  0.9027039206267276
  0.1309896130371015  0.5320445171532100  0.7007624287016085
  0.8937971908844204  0.4525375374060729  0.4032012027521077
  0.7976677985325438  0.5311074087321259  0.1881389726229870
  0.5405786628162375  0.4319854424977407  0.9076451370999976
  0.4816043229622906  0.5345190308796219  0.7116155435948315
  0.2687302290388516  0.7997624100688441  0.4532703323133376
  0.1143205482317526  0.8882453053187831  0.1828423874183827
  0.8918714327140265  0.7794203237636097  0.9034399879673671
  0.8080793029827191  0.8735711089103404  0.7039709144829018
  0.5343496026769685  0.7954579133071107  0.4543359913170733
  0.4420883120425785  0.8849949719020316  0.1490512051193988
  0.2681613825559737  0.7947661288970806  0.9498525620460327
  0.0914017560836129  0.8831696962318745  0.7137480013387787
  0.9004794799747060  0.7897245169501517  0.4331570605002497
  0.7723230223660380  0.8820351675458156  0.1879395657960359
  0.5295307168713919  0.7970165017195399  0.9420674713050374
  0.4490298298250153  0.8851672625078564  0.6519988764902820
  0.2217881307351988  0.1101782275626775  0.2558825679188459
  0.1127191142382813  0.2341762951839712  0.5110295395935083
  0.8846408563783825  0.1102387795160382  0.7475575579560285
  0.7638856563664689  0.2183427840605745  0.0130897417525517
  0.5512287073035651  0.0992236891269016  0.2506156247975895
  0.4527120348993705  0.2242234380751640  0.5102930242475949
  0.2196695685145116  0.1259261720429663  0.7501284202572194
  0.1040047735066025  0.2248964510887319  0.9942758406898875
  0.8887779821461734  0.1147099603095327  0.2508886117641254
  0.7675841816343123  0.2239112865265724  0.4832504408067990
  0.5496650896949973  0.1034797831979688  0.7513819575472240
  0.4416158966671091  0.2102925971628480  0.9965983996412788
  0.2184782543108597  0.4467495973421194  0.2478310860067907
  0.1180639259181362  0.5599713370499302  0.4961732650021986
  0.8936246348090791  0.4559150416990221  0.7453255821075260
  0.7709727500809009  0.5542826642877117  0.9796261944118925
  0.5696143843350114  0.4468589148169215  0.2462588702733086
  0.4492772332471020  0.5564842478292604  0.5189224492719831
  0.1065585622447287  0.5603443695372405  0.0050794526496745
  0.7914748570283265  0.5690977100720076  0.5067505993130013
  0.4284613115632823  0.5562847368175952  0.9725768481725581
  0.2284865534915212  0.7770516690225122  0.2503447941832775
  0.1174119418016275  0.8865199488239526  0.5143498859942284
  0.7653103924323617  0.8807322312613337  0.9896191900396119
  0.5469758843812116  0.7752087169308126  0.2482478653255527
  0.2363734465217391  0.7727284973870994  0.7508486897945446
  0.1158399266674763  0.8848293219152339  0.9847317081328413
  0.8931714865088765  0.7655477157282604  0.2421322594163371
  0.7734394588902447  0.8848215359085359  0.5051933176227195
  0.5661390404439928  0.7720296071991228  0.7466064171556965
  0.1600762421011268  0.4188729998732441  0.7670986083589568
  0.8862707235749951  0.4452714017664690  0.2502154339943914
  0.5017624011115274  0.4169958131142906  0.7696458215079858
  0.9013646819620149  0.7807446856843754  0.7517011859259455
  0.4465646741769689  0.8863822417839486  0.5032644238381749
  0.4423713462720258  0.8844563460978634  0.9985301096396668
 
  0.00000000E+00  0.00000000E+00  0.00000000E+00
  0.00000000E+00  0.00000000E+00  0.00000000E+00
  0.00000000E+00  0.00000000E+00  0.00000000E+00
  0.00000000E+00  0.00000000E+00  0.00000000E+00
  0.00000000E+00  0.00000000E+00  0.00000000E+00
  0.00000000E+00  0.00000000E+00  0.00000000E+00
  0.00000000E+00  0.00000000E+00  0.00000000E+00
  0.00000000E+00  0.00000000E+00  0.00000000E+00
  0.00000000E+00  0.00000000E+00  0.00000000E+00
  0.00000000E+00  0.00000000E+00  0.00000000E+00
  0.00000000E+00  0.00000000E+00  0.00000000E+00
  0.00000000E+00  0.00000000E+00  0.00000000E+00
  0.00000000E+00  0.00000000E+00  0.00000000E+00
  0.00000000E+00  0.00000000E+00  0.00000000E+00
  0.00000000E+00  0.00000000E+00  0.00000000E+00
  0.00000000E+00  0.00000000E+00  0.00000000E+00
  0.00000000E+00  0.00000000E+00  0.00000000E+00
  0.00000000E+00  0.00000000E+00  0.00000000E+00
  0.00000000E+00  0.00000000E+00  0.00000000E+00
  0.00000000E+00  0.00000000E+00  0.00000000E+00
  0.00000000E+00  0.00000000E+00  0.00000000E+00
  0.00000000E+00  0.00000000E+00  0.00000000E+00
  0.00000000E+00  0.00000000E+00  0.00000000E+00
  0.00000000E+00  0.00000000E+00  0.00000000E+00
  0.00000000E+00  0.00000000E+00  0.00000000E+00
  0.00000000E+00  0.00000000E+00  0.00000000E+00
  0.00000000E+00  0.00000000E+00  0.00000000E+00
  0.00000000E+00  0.00000000E+00  0.00000000E+00
  0.00000000E+00  0.00000000E+00  0.00000000E+00
  0.00000000E+00  0.00000000E+00  0.00000000E+00
  0.00000000E+00  0.00000000E+00  0.00000000E+00
  0.00000000E+00  0.00000000E+00  0.00000000E+00
  0.00000000E+00  0.00000000E+00  0.00000000E+00
  0.00000000E+00  0.00000000E+00  0.00000000E+00
  0.00000000E+00  0.00000000E+00  0.00000000E+00
  0.00000000E+00  0.00000000E+00  0.00000000E+00
  0.00000000E+00  0.00000000E+00  0.00000000E+00
  0.00000000E+00  0.00000000E+00  0.00000000E+00
  0.00000000E+00  0.00000000E+00  0.00000000E+00
  0.00000000E+00  0.00000000E+00  0.00000000E+00
  0.00000000E+00  0.00000000E+00  0.00000000E+00
  0.00000000E+00  0.00000000E+00  0.00000000E+00
  0.00000000E+00  0.00000000E+00  0.00000000E+00
  0.00000000E+00  0.00000000E+00  0.00000000E+00
  0.00000000E+00  0.00000000E+00  0.00000000E+00
  0.00000000E+00  0.00000000E+00  0.00000000E+00
  0.00000000E+00  0.00000000E+00  0.00000000E+00
  0.00000000E+00  0.00000000E+00  0.00000000E+00
  0.00000000E+00  0.00000000E+00  0.00000000E+00
  0.00000000E+00  0.00000000E+00  0.00000000E+00
  0.00000000E+00  0.00000000E+00  0.00000000E+00
  0.00000000E+00  0.00000000E+00  0.00000000E+00
  0.00000000E+00  0.00000000E+00  0.00000000E+00
  0.00000000E+00  0.00000000E+00  0.00000000E+00
  0.00000000E+00  0.00000000E+00  0.00000000E+00
  0.00000000E+00  0.00000000E+00  0.00000000E+00
  0.00000000E+00  0.00000000E+00  0.00000000E+00
  0.00000000E+00  0.00000000E+00  0.00000000E+00
  0.00000000E+00  0.00000000E+00  0.00000000E+00
  0.00000000E+00  0.00000000E+00  0.00000000E+00
  0.00000000E+00  0.00000000E+00  0.00000000E+00
  0.00000000E+00  0.00000000E+00  0.00000000E+00
  0.00000000E+00  0.00000000E+00  0.00000000E+00
  0.00000000E+00  0.00000000E+00  0.00000000E+00
  0.00000000E+00  0.00000000E+00  0.00000000E+00
  0.00000000E+00  0.00000000E+00  0.00000000E+00
  0.00000000E+00  0.00000000E+00  0.00000000E+00
  0.00000000E+00  0.00000000E+00  0.00000000E+00
  0.00000000E+00  0.00000000E+00  0.00000000E+00
  0.00000000E+00  0.00000000E+00  0.00000000E+00
  0.00000000E+00  0.00000000E+00  0.00000000E+00
  0.00000000E+00  0.00000000E+00  0.00000000E+00
