O    Ga   Li                            
   1.00000000000000     
    -0.0065869146991605   -0.0000036835289187   -5.0899850632555497
     5.4913479336375479   -0.0001437652901858    0.0000038513025319
     0.0002721930949136   -6.5116960027077102   -0.0092377054709105
   O    Ga   Li
     8     4     4
Direct
  0.0398155835564791  0.9286745061948469  0.1028726573044192
  0.5073167253308778  0.0730015905137479  0.8705696281844070
  0.0257807131143678  0.9073517631164478  0.6251839570375494
  0.0252987216261603  0.4074627641597736  0.8445315078233988
  0.5291532339918538  0.0941808933433729  0.3561507090840331
  0.5285514010584845  0.5852428880486518  0.1243173838717791
  0.0027523146651460  0.4321651593519367  0.3766516584256049
  0.5029813118764087  0.5713441816981966  0.5979720210268606
  0.1286218925725507  0.0815710857364117  0.8597590170808396
  0.5749691378643702  0.9184464009251909  0.1168856930104565
  0.1344409920220953  0.5832605392746544  0.6126710406097554
  0.6360167363056614  0.4205431737938685  0.3630019188778114
  0.1139873192783290  0.5771536351790593  0.1089608840652805
  0.1142651393395232  0.0842122365954794  0.3661692468566856
  0.6326405341772908  0.4189306548390229  0.8602704661647380
  0.6336276619797191  0.9165331076045834  0.6136523813808306
 
             NaN             NaN             NaN
             NaN             NaN             NaN
             NaN             NaN             NaN
             NaN             NaN             NaN
             NaN             NaN             NaN
             NaN             NaN             NaN
             NaN             NaN             NaN
             NaN             NaN             NaN
             NaN             NaN             NaN
             NaN             NaN             NaN
             NaN             NaN             NaN
             NaN             NaN             NaN
             NaN             NaN             NaN
             NaN             NaN             NaN
             NaN             NaN             NaN
             NaN             NaN             NaN
