O    Ga   Li                            
   1.00000000000000     
    -0.0041182176755263   -0.0000016794799691   -5.0900248553996104
     5.5063331235411566   -0.0040841951241522    0.0000032168918114
     0.0049019659132839   -6.5521637990771024    0.0086309326108059
   O    Ga   Li
     8     4     4
Direct
  0.1088126862705748  0.9282828850683230  0.1022214573901647
  0.5540567121258411  0.0741313313531710  0.8697899223253331
  0.0285640788766225  0.9043001309835471  0.6214810885558161
  0.0289618073528090  0.4125555871031412  0.8464566857158990
  0.5349549093132226  0.0941870435958511  0.3573692192632951
  0.5328938334690825  0.5856188523307952  0.1264554715105882
  0.0037015806546217  0.4308794570969808  0.3783298533326404
  0.5044588152770835  0.5704575875698137  0.5968738579362146
  0.0805247873535051  0.0819143828592299  0.8559006556850759
  0.4987534243822866  0.9222926239958695  0.1145063754733944
  0.1384257176657931  0.5804309965737602  0.6115126172060950
  0.6352075369859730  0.4199773925484341  0.3618293644016856
  0.1165837315798745  0.5686842290342728  0.1116105143069427
  0.1136299553383011  0.0878172783056222  0.3709112461989690
  0.6252327394529007  0.4230143217958123  0.8635887324411309
  0.6254571026592910  0.9155304801605961  0.6107831090612567
 
             NaN             NaN             NaN
             NaN             NaN             NaN
             NaN             NaN             NaN
             NaN             NaN             NaN
             NaN             NaN             NaN
             NaN             NaN             NaN
             NaN             NaN             NaN
             NaN             NaN             NaN
             NaN             NaN             NaN
             NaN             NaN             NaN
             NaN             NaN             NaN
             NaN             NaN             NaN
             NaN             NaN             NaN
             NaN             NaN             NaN
             NaN             NaN             NaN
             NaN             NaN             NaN
