O    Ga   Li                            
   1.00000000000000     
    -0.0006066300644851    0.0000035310473000   -5.0901283149741898
     5.5027932770175472    0.0064264779241299    0.0000015674239381
    -0.0076574946318812   -6.5599735467361686   -0.0041813151603505
   O    Ga   Li
     8     4     4
Direct
  0.1346854964490790  0.9335578507044647  0.0977667976192218
  0.6349606386966147  0.0681026386819934  0.8775486528359302
  0.1066055746992715  0.9127824805513020  0.6263149083055639
  0.1011990371369446  0.4039696867876957  0.8540525276670408
  0.6076576401287666  0.0878459018730214  0.3486992295439773
  0.5875413641849949  0.5938441937778445  0.1205640129888822
  0.0181329869918219  0.4337913273858434  0.3787616757063031
  0.5187113598809182  0.5675966792505441  0.5953974504505897
  0.0027115736600395  0.0777674854238220  0.8612150833381256
  0.5032112685394943  0.9231969591488673  0.1141188691098682
  0.1467892246266381  0.5755951258716561  0.6127096696948138
  0.6466011999350493  0.4257562785173286  0.3610743070194430
  0.0536678315577290  0.5834365150337937  0.1063657135002076
  0.0180662666968624  0.0672342663051605  0.3646179900614006
  0.5303489538025371  0.4124928729366415  0.8699442009901405
  0.5193290031733356  0.9331043181249814  0.6104690819763993
 
             NaN             NaN             NaN
             NaN             NaN             NaN
             NaN             NaN             NaN
             NaN             NaN             NaN
             NaN             NaN             NaN
             NaN             NaN             NaN
             NaN             NaN             NaN
             NaN             NaN             NaN
             NaN             NaN             NaN
             NaN             NaN             NaN
             NaN             NaN             NaN
             NaN             NaN             NaN
             NaN             NaN             NaN
             NaN             NaN             NaN
             NaN             NaN             NaN
             NaN             NaN             NaN
