O    Ga   Li                            
   1.00000000000000     
    -0.0063004056522407    0.0000071383354094   -5.0901999408335197
     5.4910410713478299    0.0002296446890312    0.0000004254846412
    -0.0002929829273961   -6.5116026484841854    0.0086485716456651
   O    Ga   Li
     8     4     4
Direct
  0.1382954071559268  0.9286780807497664  0.0979843334241514
  0.6385246161974523  0.0678529999932977  0.8766593917209662
  0.1127561638303902  0.9147065520314491  0.6243347050332069
  0.1121685678470611  0.4058466069339536  0.8560807791257791
  0.6159734322229684  0.0925404204362604  0.3445537211245520
  0.6155114075923794  0.5926458239192629  0.1251829878033263
  0.1340583697827345  0.4270492935912444  0.3706184842638143
  0.6022431934917536  0.5713098521057024  0.6028285424918284
  0.0052676931492696  0.0794789498190500  0.8630092981450207
  0.5068276961593753  0.9167580878471582  0.1126826786604770
  0.0652366187093809  0.5815451761763141  0.6168369599762573
  0.5126278911543444  0.4184630119377982  0.3597919075325278
  0.0077762112430969  0.5834620397334960  0.1136385325668094
  0.0087166608047132  0.0810690620741981  0.3602888835673675
  0.5269777360269041  0.4158283982485757  0.8661361881919631
  0.5272577548735160  0.9228402247769293  0.6089927771806147
 
             NaN             NaN             NaN
             NaN             NaN             NaN
             NaN             NaN             NaN
             NaN             NaN             NaN
             NaN             NaN             NaN
             NaN             NaN             NaN
             NaN             NaN             NaN
             NaN             NaN             NaN
             NaN             NaN             NaN
             NaN             NaN             NaN
             NaN             NaN             NaN
             NaN             NaN             NaN
             NaN             NaN             NaN
             NaN             NaN             NaN
             NaN             NaN             NaN
             NaN             NaN             NaN
