O    Ga   Li                            
   1.00000000000000     
    -0.0046462727696249   -0.0000012786701791   -5.0900328138284303
     5.5070136053967635   -0.0055084544150243    0.0000030900096673
     0.0065988528150577   -6.5512822153795467    0.0075517459870949
   O    Ga   Li
     8     4     4
Direct
  0.1121669593804925  0.9290348457752621  0.1009646882202928
  0.5776817550722984  0.0729288068790215  0.8719414876132620
  0.0302957740150353  0.9040007253193472  0.6205311541656031
  0.0305201233021696  0.4135694710139823  0.8467947429821856
  0.5348693841737430  0.0941860230509979  0.3571864647373166
  0.5327120516629068  0.5858908138005539  0.1265077454162019
  0.0037066345013682  0.4308163003633210  0.3782619977847561
  0.5047545929005303  0.5703486774391894  0.5968784577509545
  0.0510526620290902  0.0804945823998952  0.8577725619116032
  0.4984805366837443  0.9231252070101988  0.1133479244318637
  0.1388592345812798  0.5800854289639465  0.6114536308865118
  0.6351026189537402  0.4199487601608412  0.3616664887125187
  0.1171443708524694  0.5685143612323013  0.1116210898364139
  0.1142057164868567  0.0879787114525839  0.3710640099251633
  0.6243109258451564  0.4241952698279771  0.8637601793799496
  0.6243560783168943  0.9149565956857975  0.6098675470498971
 
             NaN             NaN             NaN
             NaN             NaN             NaN
             NaN             NaN             NaN
             NaN             NaN             NaN
             NaN             NaN             NaN
             NaN             NaN             NaN
             NaN             NaN             NaN
             NaN             NaN             NaN
             NaN             NaN             NaN
             NaN             NaN             NaN
             NaN             NaN             NaN
             NaN             NaN             NaN
             NaN             NaN             NaN
             NaN             NaN             NaN
             NaN             NaN             NaN
             NaN             NaN             NaN
