O    Ga   Li                            
   1.00000000000000     
    -0.0057104624950674    0.0000067375256195   -5.0901919824046997
     5.4944559669297455   -0.0003846366010118    0.0000005523667853
     0.0004345892582372   -6.5170792981717858    0.0077818284019046
   O    Ga   Li
     8     4     4
Direct
  0.1382666887459173  0.9285121428736567  0.0978078096475613
  0.6382216830567924  0.0678349463025160  0.8768675726141862
  0.1109669079496047  0.9160189131196971  0.6241529781721312
  0.1102056509026653  0.4055106639274461  0.8572781842336227
  0.6159445001673363  0.0923146104416337  0.3442927115327394
  0.6155016167643714  0.5927510179558512  0.1250079496711927
  0.1311874625559185  0.4260075586249233  0.3691409815873749
  0.5795273791908894  0.5719088389252261  0.6034593563378244
  0.0047249006945011  0.0792353831218012  0.8631713783853290
  0.5067452831486127  0.9166329373527151  0.1126728492089805
  0.0935584165172998  0.5818891458066734  0.6177786465021399
  0.5126110705208066  0.4176231859562524  0.3582882723427868
  0.0073571625259720  0.5835582726533567  0.1137188419762169
  0.0083856133355973  0.0810311290105553  0.3602502033447633
  0.5284535251750301  0.4152863069840327  0.8668814603857412
  0.5285615589899497  0.9239595273181209  0.6088509748660593
 
             NaN             NaN             NaN
             NaN             NaN             NaN
             NaN             NaN             NaN
             NaN             NaN             NaN
             NaN             NaN             NaN
             NaN             NaN             NaN
             NaN             NaN             NaN
             NaN             NaN             NaN
             NaN             NaN             NaN
             NaN             NaN             NaN
             NaN             NaN             NaN
             NaN             NaN             NaN
             NaN             NaN             NaN
             NaN             NaN             NaN
             NaN             NaN             NaN
             NaN             NaN             NaN
