O    Ga   Li                            
   1.00000000000000     
    -0.0015024807815909    0.0000015269983504   -5.0900885228301203
     5.4896048000392472   -0.0027529136122157    0.0000022018346586
    -0.0004336471012771   -6.5525888151509868    0.0075249011210216
   O    Ga   Li
     8     4     4
Direct
  0.1281253412355256  0.9378511641039362  0.0978285558886831
  0.6282513504380485  0.0606669341230940  0.8760068592657750
  0.1060856586184961  0.9132129768332045  0.6254024566232775
  0.0325559645255822  0.4133224907616885  0.8492720296203093
  0.5959122427958435  0.0875716570825172  0.3506487451532123
  0.5334816540309998  0.5858423834367127  0.1253229982286042
  0.0110093185034478  0.4385335011435678  0.3762038898031675
  0.5112597702521966  0.5606630090817136  0.5989834051886789
  0.9968523423586222  0.0729349176760018  0.8596357813473189
  0.4977505513767985  0.9257935313485616  0.1143927733314757
  0.1425458757562170  0.5733463450280805  0.6150597203555183
  0.6420377838054244  0.4256090599433532  0.3602809010373323
  0.1269352206363619  0.5672894927388631  0.1102849890374739
  0.0344151702871061  0.0741586216322257  0.3647558016991904
  0.6281851648412483  0.4326520870957741  0.8644124665154354
  0.5148160092190988  0.9306264083451267  0.6111287977113092
 
             NaN             NaN             NaN
             NaN             NaN             NaN
             NaN             NaN             NaN
             NaN             NaN             NaN
             NaN             NaN             NaN
             NaN             NaN             NaN
             NaN             NaN             NaN
             NaN             NaN             NaN
             NaN             NaN             NaN
             NaN             NaN             NaN
             NaN             NaN             NaN
             NaN             NaN             NaN
             NaN             NaN             NaN
             NaN             NaN             NaN
             NaN             NaN             NaN
             NaN             NaN             NaN
