O    Ga   Li                            
   1.00000000000000     
    -0.0120751218133123    0.0000059359060396   -5.0901760655470802
     5.5058521729964713   -0.0038819150784825    0.0000008061310735
     0.0044788547441194   -6.5298962360642800    0.0164965240157168
   O    Ga   Li
     8     4     4
Direct
  0.1377675527413023  0.9281100662920536  0.0975250719951097
  0.6377649675996999  0.0667338259710679  0.8769899213588096
  0.1045431299077612  0.9168722100926801  0.6236308018774875
  0.1006700321279711  0.4066968934755333  0.8599163828959682
  0.6154120586794719  0.0921841164224268  0.3431742116907629
  0.6150804683365315  0.5937150020066133  0.1257817103715938
  0.1246777583558775  0.4246928212740867  0.3682453961684222
  0.5372695683271700  0.5717514330739945  0.6034535677764924
  0.0059337189565727  0.0792638912051494  0.8621928230509632
  0.5052296947959785  0.9164189095840197  0.1118259320558948
  0.1470128431896654  0.5828736882213686  0.6214271238015426
  0.5059749040019469  0.4135768580164952  0.3518215312929928
  0.0057918440664653  0.5838036874081581  0.1152746682072796
  0.0076710823557955  0.0815761902893504  0.3606333788711860
  0.5420013215152446  0.4132926140582441  0.8701080529586939
  0.5374184752830287  0.9285123729832283  0.6076195964354583
 
             NaN             NaN             NaN
             NaN             NaN             NaN
             NaN             NaN             NaN
             NaN             NaN             NaN
             NaN             NaN             NaN
             NaN             NaN             NaN
             NaN             NaN             NaN
             NaN             NaN             NaN
             NaN             NaN             NaN
             NaN             NaN             NaN
             NaN             NaN             NaN
             NaN             NaN             NaN
             NaN             NaN             NaN
             NaN             NaN             NaN
             NaN             NaN             NaN
             NaN             NaN             NaN
