O    Ga   Li                            
   1.00000000000000     
    -0.0006560121114800   -0.0000000762408093   -5.0900566891148697
     5.5028264281386265   -0.0080293072034551    0.0000027093632350
     0.0054930003780426   -6.5602518632405014    0.0042439961046247
   O    Ga   Li
     8     4     4
Direct
  0.1226145847733768  0.9324452550136436  0.0954033986083586
  0.6232215041822305  0.0661331535368563  0.8787220097750750
  0.0546272825321260  0.9062728060327970  0.6206320484829804
  0.0335890194289782  0.4121625913406294  0.8487066483270739
  0.5403047881739734  0.0960201231248535  0.3539961592468462
  0.5346753888740713  0.5872041558856544  0.1263070194191732
  0.0063715839324159  0.4319533374381785  0.3775368392812479
  0.5066622315344362  0.5663408884333259  0.5977856400707778
  0.9947222268253826  0.0742218210731050  0.8610402822954324
  0.4945363848544540  0.9243937299682210  0.1126977037035585
  0.1380980232559247  0.5767469686363019  0.6141420080045964
  0.6386134664671539  0.4222604642266794  0.3612016397461922
  0.1218638585809622  0.5669361243764037  0.1104641807219987
  0.1108158391989191  0.0875124511274398  0.3698821146366624
  0.6231462498603693  0.4327293735821556  0.8646186264139541
  0.5863569863376430  0.9167413365777964  0.6064838520737136
 
             NaN             NaN             NaN
             NaN             NaN             NaN
             NaN             NaN             NaN
             NaN             NaN             NaN
             NaN             NaN             NaN
             NaN             NaN             NaN
             NaN             NaN             NaN
             NaN             NaN             NaN
             NaN             NaN             NaN
             NaN             NaN             NaN
             NaN             NaN             NaN
             NaN             NaN             NaN
             NaN             NaN             NaN
             NaN             NaN             NaN
             NaN             NaN             NaN
             NaN             NaN             NaN
