supercell of icsd_608626.cif            
  0.939760012806631     
     9.4290471258337316   -0.0554289510464311    0.0535489982134284
    -4.7628961449492415    8.0756881703174734   -0.0390477418411764
     0.0588531191430216   -0.0157031553433237    9.7434239616379799
   Al   B    N 
    22    14    36
Direct
  0.2324397642303637  0.1094955929248869  0.2356069198260116
  0.1138815434524574  0.2129940186181685  0.5072651264389236
  0.7611663866023406  0.2119352241319632  0.9775707262223747
  0.1205734415538302  0.2167473476136692  0.9904879126502948
  0.8825413840379710  0.1067384329951793  0.2510532819323004
  0.7582951648322975  0.2244845835788141  0.5083218228055557
  0.2233685033691017  0.4397561080241488  0.2542430835513088
  0.1078726126727290  0.5637577171712138  0.5068667898686314
  0.8786848814779660  0.4559063686324407  0.7504070333117738
  0.4567387959638083  0.5552863678623297  0.4914028002037654
  0.2259449269925398  0.4454908655731700  0.7450454030755225
  0.1130896793446752  0.5639895530507744  0.9900428615211680
  0.8751977336483279  0.4435561422503937  0.2430170999737413
  0.5624405189285469  0.4347634273061445  0.7400327768386461
  0.4539787012827432  0.5509258699832245  0.0017760342235107
  0.2162367373059553  0.7829130020490780  0.2379506401668365
  0.1092839420709311  0.8877842852830184  0.5036271444962068
  0.7826372693832440  0.8781832501049891  0.9934964555845767
  0.5568165153635718  0.7851720033724590  0.2382187558476616
  0.4399958904182526  0.9024560434217506  0.5023036988842904
  0.7830541697017068  0.8842481181553268  0.5013537509935091
  0.5569132099324321  0.7951804194548870  0.7566874307186922
  0.9294213468703347  0.0732221203200041  0.7707175563772068
  0.5536974281125779  0.1220486070982290  0.2412864289075856
  0.4431629267106842  0.2148207876882609  0.4901949129345553
  0.2264599214438832  0.0905936773662930  0.7603485340570799
  0.5266878976839067  0.1066991626343068  0.7554708778924351
  0.4613929291403807  0.2228800286822192  0.0026007359662543
  0.7758592867101513  0.5493322512539720  0.0038036299453665
  0.5683166778602100  0.4460926282064008  0.2483579789415202
  0.7834692516783974  0.5616721038550310  0.4931983411560310
  0.9046311080044589  0.7750335805121153  0.7556870911366644
  0.2264301781052183  0.7959089242625694  0.7657720992466963
  0.1126053585157578  0.8831564660076694  0.9971813453024865
  0.8779704689208359  0.7669874533938597  0.2409766989962137
  0.4345270289871976  0.9105401975365481  0.0027127289569933
  0.2476052725215041  0.1224360539468705  0.4386516043662709
  0.1092902475469799  0.2154460124630404  0.1898757912155773
  0.8938785113542025  0.1068513112096596  0.9205139060958345
  0.7216808218261903  0.2212641106377262  0.7071858574761123
  0.5390417361619768  0.1241316500018073  0.4193831791879461
  0.4731677207429428  0.2372439282585574  0.1768159345660436
  0.2325648409913583  0.0951716071370043  0.9374111042011535
  0.1101624404278851  0.1893448766249364  0.7117666385313299
  0.8860149278829468  0.1167829804346638  0.4521652929775470
  0.7510404642256958  0.2037570236575448  0.1894681381802314
  0.5241597440593893  0.1016820410253629  0.9341595745833544
  0.4191781484226098  0.1926457916595012  0.6845575646293582
  0.2192079567902994  0.4432922695485786  0.4594944573331503
  0.1114205945746178  0.5511654910135135  0.1919923167010893
  0.8748734778325513  0.4555572579739930  0.9545810434687922
  0.7954697299509377  0.5921574076416292  0.6705641156730167
  0.5712434555775587  0.4341488042168109  0.4334349396324484
  0.4590838147126206  0.5388447609923617  0.2073381834284405
  0.2279011104971289  0.4465730087912192  0.9435867394221589
  0.1234636677038807  0.5843841137860153  0.7125481455963651
  0.8768957576500540  0.4587137710429303  0.4505234025050910
  0.7658192450953720  0.5662871381605683  0.1801174558528302
  0.5717408903218058  0.4298274285424668  0.9446830277604050
  0.4580207197563624  0.5624559236092495  0.6947746171301858
  0.2211527404930180  0.7820954116565275  0.4351741343248250
  0.0825741996037621  0.8725238364978267  0.1693399093745427
  0.8983401601182379  0.7583864438640191  0.9288679566176583
  0.8104311755883131  0.8950885962168229  0.7100815900137789
  0.5563512210631600  0.7897175460267079  0.4448284457979881
  0.4483032053597711  0.9211735544798501  0.1752830433366768
  0.2319911792986105  0.8042184673384796  0.9425523196675485
  0.1135604378288093  0.8865874040390480  0.7106779449743854
  0.8793139640792447  0.7564151352890747  0.4190999313913579
  0.7908949606427242  0.8749733367140280  0.1944514630771081
  0.5425371235731475  0.7952676219279766  0.9605614660608524
  0.4258407544145939  0.9026351531981334  0.7064022558961511
 
  0.00000000E+00  0.00000000E+00  0.00000000E+00
  0.00000000E+00  0.00000000E+00  0.00000000E+00
  0.00000000E+00  0.00000000E+00  0.00000000E+00
  0.00000000E+00  0.00000000E+00  0.00000000E+00
  0.00000000E+00  0.00000000E+00  0.00000000E+00
  0.00000000E+00  0.00000000E+00  0.00000000E+00
  0.00000000E+00  0.00000000E+00  0.00000000E+00
  0.00000000E+00  0.00000000E+00  0.00000000E+00
  0.00000000E+00  0.00000000E+00  0.00000000E+00
  0.00000000E+00  0.00000000E+00  0.00000000E+00
  0.00000000E+00  0.00000000E+00  0.00000000E+00
  0.00000000E+00  0.00000000E+00  0.00000000E+00
  0.00000000E+00  0.00000000E+00  0.00000000E+00
  0.00000000E+00  0.00000000E+00  0.00000000E+00
  0.00000000E+00  0.00000000E+00  0.00000000E+00
  0.00000000E+00  0.00000000E+00  0.00000000E+00
  0.00000000E+00  0.00000000E+00  0.00000000E+00
  0.00000000E+00  0.00000000E+00  0.00000000E+00
  0.00000000E+00  0.00000000E+00  0.00000000E+00
  0.00000000E+00  0.00000000E+00  0.00000000E+00
  0.00000000E+00  0.00000000E+00  0.00000000E+00
  0.00000000E+00  0.00000000E+00  0.00000000E+00
  0.00000000E+00  0.00000000E+00  0.00000000E+00
  0.00000000E+00  0.00000000E+00  0.00000000E+00
  0.00000000E+00  0.00000000E+00  0.00000000E+00
  0.00000000E+00  0.00000000E+00  0.00000000E+00
  0.00000000E+00  0.00000000E+00  0.00000000E+00
  0.00000000E+00  0.00000000E+00  0.00000000E+00
  0.00000000E+00  0.00000000E+00  0.00000000E+00
  0.00000000E+00  0.00000000E+00  0.00000000E+00
  0.00000000E+00  0.00000000E+00  0.00000000E+00
  0.00000000E+00  0.00000000E+00  0.00000000E+00
  0.00000000E+00  0.00000000E+00  0.00000000E+00
  0.00000000E+00  0.00000000E+00  0.00000000E+00
  0.00000000E+00  0.00000000E+00  0.00000000E+00
  0.00000000E+00  0.00000000E+00  0.00000000E+00
  0.00000000E+00  0.00000000E+00  0.00000000E+00
  0.00000000E+00  0.00000000E+00  0.00000000E+00
  0.00000000E+00  0.00000000E+00  0.00000000E+00
  0.00000000E+00  0.00000000E+00  0.00000000E+00
  0.00000000E+00  0.00000000E+00  0.00000000E+00
  0.00000000E+00  0.00000000E+00  0.00000000E+00
  0.00000000E+00  0.00000000E+00  0.00000000E+00
  0.00000000E+00  0.00000000E+00  0.00000000E+00
  0.00000000E+00  0.00000000E+00  0.00000000E+00
  0.00000000E+00  0.00000000E+00  0.00000000E+00
  0.00000000E+00  0.00000000E+00  0.00000000E+00
  0.00000000E+00  0.00000000E+00  0.00000000E+00
  0.00000000E+00  0.00000000E+00  0.00000000E+00
  0.00000000E+00  0.00000000E+00  0.00000000E+00
  0.00000000E+00  0.00000000E+00  0.00000000E+00
  0.00000000E+00  0.00000000E+00  0.00000000E+00
  0.00000000E+00  0.00000000E+00  0.00000000E+00
  0.00000000E+00  0.00000000E+00  0.00000000E+00
  0.00000000E+00  0.00000000E+00  0.00000000E+00
  0.00000000E+00  0.00000000E+00  0.00000000E+00
  0.00000000E+00  0.00000000E+00  0.00000000E+00
  0.00000000E+00  0.00000000E+00  0.00000000E+00
  0.00000000E+00  0.00000000E+00  0.00000000E+00
  0.00000000E+00  0.00000000E+00  0.00000000E+00
  0.00000000E+00  0.00000000E+00  0.00000000E+00
  0.00000000E+00  0.00000000E+00  0.00000000E+00
  0.00000000E+00  0.00000000E+00  0.00000000E+00
  0.00000000E+00  0.00000000E+00  0.00000000E+00
  0.00000000E+00  0.00000000E+00  0.00000000E+00
  0.00000000E+00  0.00000000E+00  0.00000000E+00
  0.00000000E+00  0.00000000E+00  0.00000000E+00
  0.00000000E+00  0.00000000E+00  0.00000000E+00
  0.00000000E+00  0.00000000E+00  0.00000000E+00
  0.00000000E+00  0.00000000E+00  0.00000000E+00
  0.00000000E+00  0.00000000E+00  0.00000000E+00
  0.00000000E+00  0.00000000E+00  0.00000000E+00
