supercell of icsd_191774.cif            
   1.00000000000000     
    10.7746770880552543   -0.0050894451214203    0.0008810134908317
    -5.3917452320046708    9.3372089088847563    0.0007908093084127
     0.0009414717103005    0.0015466253751080   11.3648055191592601
   N    In   Y 
    36    30     6
Direct
  0.2224856679428768  0.1108916951488368  0.4374878256742605
  0.1106785747829235  0.2223904645052954  0.1913463321558737
  0.8892598648584666  0.1104713596435971  0.9398367673878880
  0.7797099361883539  0.2242434260227881  0.6922957592534544
  0.5605360498038650  0.1179761627181719  0.4404100672786484
  0.4448478252625065  0.2222402947216580  0.1920439532094420
  0.2226240125445216  0.1109421420111900  0.9413094485357050
  0.1069354635779121  0.2118675899796614  0.6883628332539686
  0.8879327291741959  0.1118556896613043  0.4390200002555460
  0.7739879826862932  0.2139020868628094  0.1871051257075251
  0.5588122461268696  0.1193180384727768  0.9391744885380646
  0.4409818072874714  0.2137660118763733  0.6866236406056174
  0.2208617305524214  0.4437779760067215  0.4442007178842857
  0.1192965433923519  0.5592187983662384  0.1896693502773203
  0.8887238102766943  0.4455518478482858  0.9450650011366122
  0.7816346051332914  0.5537826742537177  0.6880374758166994
  0.5555092642858597  0.4436097083272088  0.4419595716728963
  0.4435419474181472  0.5548154631732842  0.1934507859963759
  0.2228555641612573  0.4438902886266547  0.9421695312007543
  0.1074829874896537  0.5602189996960405  0.6896991014658909
  0.8885399854414899  0.4432323886613787  0.4405494588502563
  0.7740834253436404  0.5603648701356647  0.1920923281462521
  0.5547112867758273  0.4439983344956389  0.9451418348295988
  0.4480812296683823  0.5621306720881094  0.6871175360309323
  0.2157401608123664  0.7743505840670863  0.4391175000441905
  0.1105575131784349  0.8888158340345527  0.1917671197043660
  0.8894094434974775  0.7790045289420036  0.9426031269731467
  0.7730650133920776  0.8937405677105303  0.6874032950413707
  0.5588841533698812  0.7749113813867154  0.4380243457448572
  0.4446543896210073  0.8893392109478100  0.1959418771771908
  0.2143918931722126  0.7747192602212465  0.9406182978884843
  0.1193889145614193  0.8923250401063925  0.6866631205053721
  0.8890036534811045  0.7787107954055585  0.4434426375723035
  0.7784707718086210  0.8896251614065349  0.1914673205379174
  0.5597634651863146  0.7728912718674081  0.9422626540723797
  0.4447292071547650  0.8879921555948584  0.6996100933685909
  0.2220889545817002  0.1112591007585735  0.2477018286245212
  0.1091894541942864  0.2179975666670444  0.4971758692322439
  0.8869832526969788  0.1101985853612391  0.7484309640298363
  0.7779869790833871  0.2214752186042261  0.9966980015761706
  0.5564406078175139  0.1115529912048316  0.2497509684020258
  0.4437198692910300  0.2212437899463424  0.4963745552464403
  0.2229657556627131  0.1078555914423873  0.7488299853892926
  0.1110895738747999  0.2220063898470315  0.0002736283917599
  0.8877306024813620  0.1096151179792031  0.2483129321587469
  0.7800266227742441  0.2250039545796625  0.5009407661799941
  0.5565723370009508  0.1121330948815640  0.7488232236139538
  0.4451818169012043  0.2239275681284809  0.0015359341371237
  0.2232762619490956  0.4446266944638992  0.2508145554710453
  0.1070822712296575  0.5556942052034515  0.4991798766692028
  0.8887908171566394  0.4455569860766673  0.7508901825339009
  0.7764205938191964  0.5584757958458724  0.0016262792515747
  0.5541087252532577  0.4449067323842186  0.2499192524623766
  0.4467176829959669  0.5566303869170142  0.4966262521734066
  0.1124235578801844  0.5555922506085054  0.9992342024590215
  0.7790714206492879  0.5542333358094069  0.4979958597839342
  0.4442832969424870  0.5532478230685527  0.0029332032982694
  0.2220432551964251  0.7779290560195946  0.2490108976275849
  0.1122106880928229  0.8899802485440205  0.4965510293579314
  0.7799202207973082  0.8887037277045380  0.0011154503855551
  0.5568036751821097  0.7769445787671430  0.2485538411988344
  0.2203279688398823  0.7785801619081170  0.7497001035126303
  0.1087538304454938  0.8882240697263271  0.0012328009968954
  0.8881570419965783  0.7798377770542615  0.2507788150837484
  0.7773914227555281  0.8902550205701942  0.4970325026834317
  0.5570097380437247  0.7779999208237953  0.7506769519477814
  0.2189729816674983  0.4427868714456054  0.7437272081683162
  0.8886603066576768  0.4436160268650582  0.2431319449669047
  0.5547771082988717  0.4410875785417687  0.7468384539983361
  0.8911698533757004  0.7820569541836235  0.7441332496612034
  0.4446342160210932  0.8886164396804972  0.4984674389405157
  0.4448441189824806  0.8892656133931567  0.9956906665914644
 
  0.00000000E+00  0.00000000E+00  0.00000000E+00
  0.00000000E+00  0.00000000E+00  0.00000000E+00
  0.00000000E+00  0.00000000E+00  0.00000000E+00
  0.00000000E+00  0.00000000E+00  0.00000000E+00
  0.00000000E+00  0.00000000E+00  0.00000000E+00
  0.00000000E+00  0.00000000E+00  0.00000000E+00
  0.00000000E+00  0.00000000E+00  0.00000000E+00
  0.00000000E+00  0.00000000E+00  0.00000000E+00
  0.00000000E+00  0.00000000E+00  0.00000000E+00
  0.00000000E+00  0.00000000E+00  0.00000000E+00
  0.00000000E+00  0.00000000E+00  0.00000000E+00
  0.00000000E+00  0.00000000E+00  0.00000000E+00
  0.00000000E+00  0.00000000E+00  0.00000000E+00
  0.00000000E+00  0.00000000E+00  0.00000000E+00
  0.00000000E+00  0.00000000E+00  0.00000000E+00
  0.00000000E+00  0.00000000E+00  0.00000000E+00
  0.00000000E+00  0.00000000E+00  0.00000000E+00
  0.00000000E+00  0.00000000E+00  0.00000000E+00
  0.00000000E+00  0.00000000E+00  0.00000000E+00
  0.00000000E+00  0.00000000E+00  0.00000000E+00
  0.00000000E+00  0.00000000E+00  0.00000000E+00
  0.00000000E+00  0.00000000E+00  0.00000000E+00
  0.00000000E+00  0.00000000E+00  0.00000000E+00
  0.00000000E+00  0.00000000E+00  0.00000000E+00
  0.00000000E+00  0.00000000E+00  0.00000000E+00
  0.00000000E+00  0.00000000E+00  0.00000000E+00
  0.00000000E+00  0.00000000E+00  0.00000000E+00
  0.00000000E+00  0.00000000E+00  0.00000000E+00
  0.00000000E+00  0.00000000E+00  0.00000000E+00
  0.00000000E+00  0.00000000E+00  0.00000000E+00
  0.00000000E+00  0.00000000E+00  0.00000000E+00
  0.00000000E+00  0.00000000E+00  0.00000000E+00
  0.00000000E+00  0.00000000E+00  0.00000000E+00
  0.00000000E+00  0.00000000E+00  0.00000000E+00
  0.00000000E+00  0.00000000E+00  0.00000000E+00
  0.00000000E+00  0.00000000E+00  0.00000000E+00
  0.00000000E+00  0.00000000E+00  0.00000000E+00
  0.00000000E+00  0.00000000E+00  0.00000000E+00
  0.00000000E+00  0.00000000E+00  0.00000000E+00
  0.00000000E+00  0.00000000E+00  0.00000000E+00
  0.00000000E+00  0.00000000E+00  0.00000000E+00
  0.00000000E+00  0.00000000E+00  0.00000000E+00
  0.00000000E+00  0.00000000E+00  0.00000000E+00
  0.00000000E+00  0.00000000E+00  0.00000000E+00
  0.00000000E+00  0.00000000E+00  0.00000000E+00
  0.00000000E+00  0.00000000E+00  0.00000000E+00
  0.00000000E+00  0.00000000E+00  0.00000000E+00
  0.00000000E+00  0.00000000E+00  0.00000000E+00
  0.00000000E+00  0.00000000E+00  0.00000000E+00
  0.00000000E+00  0.00000000E+00  0.00000000E+00
  0.00000000E+00  0.00000000E+00  0.00000000E+00
  0.00000000E+00  0.00000000E+00  0.00000000E+00
  0.00000000E+00  0.00000000E+00  0.00000000E+00
  0.00000000E+00  0.00000000E+00  0.00000000E+00
  0.00000000E+00  0.00000000E+00  0.00000000E+00
  0.00000000E+00  0.00000000E+00  0.00000000E+00
  0.00000000E+00  0.00000000E+00  0.00000000E+00
  0.00000000E+00  0.00000000E+00  0.00000000E+00
  0.00000000E+00  0.00000000E+00  0.00000000E+00
  0.00000000E+00  0.00000000E+00  0.00000000E+00
  0.00000000E+00  0.00000000E+00  0.00000000E+00
  0.00000000E+00  0.00000000E+00  0.00000000E+00
  0.00000000E+00  0.00000000E+00  0.00000000E+00
  0.00000000E+00  0.00000000E+00  0.00000000E+00
  0.00000000E+00  0.00000000E+00  0.00000000E+00
  0.00000000E+00  0.00000000E+00  0.00000000E+00
  0.00000000E+00  0.00000000E+00  0.00000000E+00
  0.00000000E+00  0.00000000E+00  0.00000000E+00
  0.00000000E+00  0.00000000E+00  0.00000000E+00
  0.00000000E+00  0.00000000E+00  0.00000000E+00
  0.00000000E+00  0.00000000E+00  0.00000000E+00
  0.00000000E+00  0.00000000E+00  0.00000000E+00
