supercell of supercell of icsd_608626.c 
   1.00600000000000     
    18.8433725412000008    0.0042597715995000    0.0111656436851000
    -6.2786657403800001   10.8752831735999997   -0.0012954496991100
     0.0059525623905900    0.0022414031449000   10.0498800689000003
   Al   Gd   N 
    91     4    96
Direct
  0.1099297316476111  0.0821631904095170  0.2486167551390324
  0.0511582942794107  0.1617770414982829  0.9981174902183554
  0.4453833141779882  0.3357342391092715  0.7466790745227954
  0.3899737563441121  0.4168914218682360  0.4983437258234247
  0.2248861409560945  0.1716943871586309  0.9912532675454955
  0.1068603325516477  0.3300309168299691  0.7434746589446419
  0.0548179658639967  0.4173860947337502  0.5004741113798374
  0.4446358894657152  0.0806599152804424  0.2496166232252151
  0.3940827174846646  0.1752776800650793  0.9900172185411833
  0.2793843291545386  0.3326400088777532  0.7405905977147640
  0.2219154221997712  0.4161584147189714  0.4988973152139380
  0.1105847499560397  0.0829845780627494  0.7479432242715163
  0.0541512368207009  0.1639901395373400  0.4997185595574791
  0.4456071902370340  0.3364520942084468  0.2487244775158572
  0.3899942378656647  0.4156509598710159  0.9972587374897657
  0.2793908369598981  0.0866897436152669  0.7386343277264444
  0.2205272343302127  0.1646252554018730  0.4978479911998193
  0.1090442733750905  0.3314037343888074  0.2588341358983115
  0.0533381102269175  0.4162567530499146  0.9998866727545632
  0.4443607370608476  0.0822084695882808  0.7477633345169536
  0.3906809670149656  0.1672142244368402  0.4966879612111299
  0.2796661964111635  0.3340771341271420  0.2584980767373466
  0.6121017931951229  0.0833478219245123  0.2483273594157396
  0.5509893918172466  0.1616476800861122  0.9975979846989702
  0.9449993633297780  0.3345105402318111  0.7507136241570436
  0.8896353412685016  0.4164934081047491  0.5006277755828421
  0.7791085569462197  0.0857279637497541  0.2585297850508894
  0.7252204219597544  0.1691210386960620  0.9978641230782088
  0.6067415215277592  0.3299366811654281  0.7425566411932465
  0.5551380194378268  0.4177430570662182  0.4986207586498637
  0.9433809925928500  0.0826154712087828  0.2491938164486740
  0.8919316056595363  0.1720673325009727  0.9981292913058155
  0.7793011527606382  0.3317578147265863  0.7445909779369586
  0.7220733140233762  0.4164637853030584  0.4993615503980990
  0.6112384715304700  0.0833286416928516  0.7493389725283137
  0.5548469405881775  0.1640899513497871  0.4993200506019519
  0.9446422963905192  0.3335073557956107  0.2495882424282030
  0.8900101718518272  0.4153211548494795  0.9996534752587110
  0.7798799561219738  0.0879538711854337  0.7445075820681026
  0.7215187969369552  0.1659018132582943  0.5014660768740953
  0.6093293920668401  0.3316423983192465  0.2581442469272801
  0.5536380420114639  0.4171582694143865  0.9976848375525762
  0.9439647470834558  0.0823862466416898  0.7498472027740206
  0.8905127955757450  0.1682580712894719  0.5005802866795861
  0.7785870372827048  0.3322257107187525  0.2587238790627850
  0.1115373192213411  0.5838394040958406  0.2499223055268516
  0.0525965910000892  0.6635477360498072  0.9995827752425512
  0.4449583228137826  0.8345539572979206  0.7504669298548308
  0.3900555365048177  0.9161451546691310  0.5018189850349728
  0.2796494169390229  0.5860755284031498  0.2593464189073487
  0.2245343219678162  0.6705216189314669  0.9990415230292271
  0.1085490927208639  0.8310781400114564  0.7463911956529472
  0.0543288557828632  0.9168211793755532  0.5018306953847329
  0.4446101428781120  0.5837992041207443  0.2482257417999847
  0.3917898312241945  0.6725833511594885  0.9979978749390241
  0.2783181622087056  0.8326580698141939  0.7471260698870879
  0.2205313728029168  0.9117018182333467  0.4943083183925197
  0.1109864065087507  0.5829874060882858  0.7514089442535123
  0.0536634479899050  0.6628186730718824  0.5029020513547593
  0.4453245678182611  0.8335310353947065  0.2493361529548963
  0.3889382990339811  0.9148010008233740  0.9987982894622220
  0.2797942145352508  0.5882979601896210  0.7450154200016712
  0.2213671370402110  0.6647099037246349  0.5038493215573681
  0.1054202947528466  0.8279060538731002  0.2630920559680234
  0.0540298735046676  0.9164411600550295  0.9986791749181521
  0.4441371331146939  0.5827984127075467  0.7492332324595736
  0.3907642886396090  0.6681597249799296  0.5005404632715411
  0.2802583539007131  0.8292384562590485  0.2628945276501895
  0.6122392266161540  0.5849428084501156  0.2479647895315011
  0.5512809565968411  0.6622754600676828  0.9976463173978516
  0.9449791029187153  0.8342322411612528  0.7506352448968769
  0.8897994452849218  0.9168791573706514  0.5001759381574047
  0.7789792344587099  0.5855954886488206  0.2585043966669147
  0.7254031832291119  0.6691821851077862  0.9977185647141411
  0.6068440752842150  0.8301045465749013  0.7431072939129351
  0.5551355324966423  0.9176098036827227  0.4999486153428450
  0.9432070278997458  0.5816798391906062  0.2499507222180881
  0.8920974772188188  0.6718934118076518  0.9986758469329331
  0.7794229928617611  0.8317609045505776  0.7443309836936152
  0.7222186690764474  0.9166131177634043  0.4996238371685138
  0.6113372491478302  0.5836027087400950  0.7488653307012640
  0.5546187664306217  0.6642034104020027  0.4997284667928312
  0.9442225188547368  0.8332947251218599  0.2495403565485148
  0.8899710786045461  0.9146611639477769  0.9992192994252704
  0.7798764899810919  0.5878511073120833  0.7444586804517854
  0.7215309598650421  0.6660292470491100  0.5012268228526153
  0.6096599700597096  0.8319601535062944  0.2588160128234165
  0.5531504258891644  0.9164520929311024  0.9985779231067511
  0.9441179473397483  0.5825236726410239  0.7508833283773910
  0.8904190136733590  0.6680050025621682  0.5007228231895908
  0.7788416235204636  0.8326723673268290  0.2586640588712257
  0.2202590483331761  0.4159310638658198  0.9992391360903028
  0.7194500941610187  0.4151896600080534  0.9986210286686870
  0.2236780192302206  0.9267968771139010  0.0148921155208015
  0.7197946945061702  0.9153314884127113  0.9985527104626257
  0.1102838587826227  0.0822866219542391  0.4379802723149879
  0.0544396690701063  0.1668413671194813  0.1899448654780116
  0.4471193287833586  0.3402714959588948  0.9359936400027848
  0.3903896892204202  0.4183174904882350  0.6858783639975528
  0.2775510289865366  0.0810577181448053  0.4641255914567992
  0.2157684406712477  0.1801363816658110  0.1782856824301575
  0.0935536640490966  0.3194818124914391  0.9292402577249206
  0.0548683646304013  0.4183375762999617  0.6887450606837859
  0.4444281214201169  0.0816733417100082  0.4384767704866732
  0.4047081162125465  0.1784098863951584  0.1779034913967408
  0.2860264482874229  0.3285339725642800  0.9256077315340647
  0.2215729102687050  0.4170962428712102  0.6941988745319421
  0.1116829631671123  0.0840922782706883  0.9389905637280336
  0.0541131759954325  0.1634977560106421  0.6881197945518664
  0.4447938274756424  0.3335585396999150  0.4372393652832116
  0.3886834892207105  0.4169867138410908  0.1893974665709663
  0.2879308917229224  0.1078269566345611  0.9254106547921666
  0.2203483822695986  0.1661196724781462  0.6864034567961994
  0.1089021637533207  0.3312164750810069  0.4472477005286635
  0.0561908186468614  0.4164795047286631  0.1913865254428586
  0.4416425681373610  0.0788117592998745  0.9378424717757241
  0.3921196438521832  0.1694809772232801  0.6871477918392301
  0.2785850423080944  0.3317023302611304  0.4459207987818274
  0.2220906000382143  0.4178809421266578  0.2211039134068713
  0.6115211595871060  0.0832464178487058  0.4381279648742193
  0.5566906637384648  0.1670077458343115  0.1893868166302113
  0.9460480146903052  0.3370536775310740  0.9408371087547280
  0.8901240977404683  0.4174049240593192  0.6889060719698250
  0.7790588680422346  0.0857954481075822  0.4471363479216777
  0.7235117332114243  0.1673309786138546  0.1907686976543559
  0.5927160884551697  0.3189430843320764  0.9279654611580668
  0.5554601611834826  0.4190579104059537  0.6865044789602237
  0.9437637648039043  0.0825615693776811  0.4389764761052319
  0.8885383783651264  0.1667253056280273  0.1903004383673803
  0.7852359726890228  0.3264757151767341  0.9304563200842821
  0.7216646073424968  0.4164314511268543  0.6951117432141842
  0.6124843078362261  0.0845943624363983  0.9413772002362819
  0.5547670218524701  0.1634302299708636  0.6876198055026919
  0.9446854628153005  0.3336280244694763  0.4391867487677530
  0.8879626976387556  0.4154594615952973  0.1913273862259999
  0.7865128682781659  0.1033967534796645  0.9301980676354660
  0.7209716317188750  0.1656667161829120  0.6883274629010643
  0.6090364365396326  0.3313225679911653  0.4465314411327554
  0.5576023737040003  0.4184174790084185  0.1893381387249704
  0.9412662015388307  0.0791422379464422  0.9407282672558992
  0.8911617071716904  0.1687156032724246  0.6892105635059309
  0.7784403847930719  0.3319847933385489  0.4470577444656669
  0.7222472649709175  0.4165362960596326  0.2204798883543972
  0.1112437342378030  0.5833707478848353  0.4401024454481046
  0.0541519638113499  0.6647402846794677  0.1912149363620799
  0.4455953386075322  0.8373852181720736  0.9404394826571760
  0.3896488764357713  0.9167092141689821  0.6897686192224981
  0.2792746441119220  0.5853481879088420  0.4478592153731995
  0.2232257096825734  0.6653781373879326  0.1918214699004537
  0.0980434849520222  0.8229766309546349  0.9332317319911922
  0.0549286127959121  0.9176659746948985  0.6898785378592791
  0.4443484156296620  0.5828675579024889  0.4380163906492172
  0.3891032607256975  0.6670194354131027  0.1902653305095683
  0.2827510695902191  0.8293109487475832  0.9342418375359216
  0.2214334654134618  0.9154959475049225  0.6929051159868891
  0.1121491493317421  0.5838418564733274  0.9431293099549407
  0.0545110792257120  0.6635635559440090  0.6915508997004451
  0.4451818487755048  0.8336407678815547  0.4389401669179449
  0.3885254800801761  0.9152033239577548  0.1909237538764472
  0.2862660253083362  0.6048832377957041  0.9308680367655882
  0.2207588157478568  0.6658961906364311  0.6906575275755529
  0.1063687971707949  0.8288085837296393  0.4503352592945049
  0.0557884648591056  0.9158357259270460  0.1906258324364885
  0.4414310263854020  0.5802031342732832  0.9402455489628991
  0.3912316908814262  0.6688543247120009  0.6891629184491066
  0.2796701624268607  0.8296783637714782  0.4497458176213627
  0.2159584608151661  0.8979787314058569  0.2302271007710814
  0.6114211245384595  0.5837195159036668  0.4377878091359335
  0.5561372276204111  0.6677772967864755  0.1894599887214312
  0.9464993012693270  0.8367169905269094  0.9407158623067673
  0.8902230585839845  0.9173351379417412  0.6884122930847028
  0.7789228164999145  0.5856674963063568  0.4470785693229899
  0.7237096146120336  0.6678169429491163  0.1906706663314992
  0.5930192957604774  0.8194884089721342  0.9283475467841313
  0.5549143989595038  0.9184906101822179  0.6880924350599358
  0.9435953110638096  0.5819165631278551  0.4399586265330271
  0.8885763506029463  0.6664292130365652  0.1908645603341412
  0.7853558689154241  0.8261982192162804  0.9300712297015536
  0.7217644448604688  0.9165159102675986  0.6952774296132134
  0.6127986363214717  0.5852806933969319  0.9409683880011954
  0.5545077037027752  0.6635486121636305  0.6882506093719769
  0.9444202110333890  0.8335014462364185  0.4391741289340985
  0.8881977978682372  0.9159578392041752  0.1909571733273054
  0.7867051660034363  0.6032880854626157  0.9303108221462111
  0.7210625954365852  0.6657754934695674  0.6880670333382639
  0.6092475955329846  0.8315543114645365  0.4472930727556772
  0.5566766882963350  0.9165322479658329  0.1902102180319361
  0.9422801507780818  0.5804042245418586  0.9416540757389456
  0.8911554894579226  0.6685087356222681  0.6893562628028178
  0.7785716780292589  0.8322567480997236  0.4469411065743856
  0.7223520235606031  0.9167233329257840  0.2205330670285548
 
  0.00000000E+00  0.00000000E+00  0.00000000E+00
  0.00000000E+00  0.00000000E+00  0.00000000E+00
  0.00000000E+00  0.00000000E+00  0.00000000E+00
  0.00000000E+00  0.00000000E+00  0.00000000E+00
  0.00000000E+00  0.00000000E+00  0.00000000E+00
  0.00000000E+00  0.00000000E+00  0.00000000E+00
  0.00000000E+00  0.00000000E+00  0.00000000E+00
  0.00000000E+00  0.00000000E+00  0.00000000E+00
  0.00000000E+00  0.00000000E+00  0.00000000E+00
  0.00000000E+00  0.00000000E+00  0.00000000E+00
  0.00000000E+00  0.00000000E+00  0.00000000E+00
  0.00000000E+00  0.00000000E+00  0.00000000E+00
  0.00000000E+00  0.00000000E+00  0.00000000E+00
  0.00000000E+00  0.00000000E+00  0.00000000E+00
  0.00000000E+00  0.00000000E+00  0.00000000E+00
  0.00000000E+00  0.00000000E+00  0.00000000E+00
  0.00000000E+00  0.00000000E+00  0.00000000E+00
  0.00000000E+00  0.00000000E+00  0.00000000E+00
  0.00000000E+00  0.00000000E+00  0.00000000E+00
  0.00000000E+00  0.00000000E+00  0.00000000E+00
  0.00000000E+00  0.00000000E+00  0.00000000E+00
  0.00000000E+00  0.00000000E+00  0.00000000E+00
  0.00000000E+00  0.00000000E+00  0.00000000E+00
  0.00000000E+00  0.00000000E+00  0.00000000E+00
  0.00000000E+00  0.00000000E+00  0.00000000E+00
  0.00000000E+00  0.00000000E+00  0.00000000E+00
  0.00000000E+00  0.00000000E+00  0.00000000E+00
  0.00000000E+00  0.00000000E+00  0.00000000E+00
  0.00000000E+00  0.00000000E+00  0.00000000E+00
  0.00000000E+00  0.00000000E+00  0.00000000E+00
  0.00000000E+00  0.00000000E+00  0.00000000E+00
  0.00000000E+00  0.00000000E+00  0.00000000E+00
  0.00000000E+00  0.00000000E+00  0.00000000E+00
  0.00000000E+00  0.00000000E+00  0.00000000E+00
  0.00000000E+00  0.00000000E+00  0.00000000E+00
  0.00000000E+00  0.00000000E+00  0.00000000E+00
  0.00000000E+00  0.00000000E+00  0.00000000E+00
  0.00000000E+00  0.00000000E+00  0.00000000E+00
  0.00000000E+00  0.00000000E+00  0.00000000E+00
  0.00000000E+00  0.00000000E+00  0.00000000E+00
  0.00000000E+00  0.00000000E+00  0.00000000E+00
  0.00000000E+00  0.00000000E+00  0.00000000E+00
  0.00000000E+00  0.00000000E+00  0.00000000E+00
  0.00000000E+00  0.00000000E+00  0.00000000E+00
  0.00000000E+00  0.00000000E+00  0.00000000E+00
  0.00000000E+00  0.00000000E+00  0.00000000E+00
  0.00000000E+00  0.00000000E+00  0.00000000E+00
  0.00000000E+00  0.00000000E+00  0.00000000E+00
  0.00000000E+00  0.00000000E+00  0.00000000E+00
  0.00000000E+00  0.00000000E+00  0.00000000E+00
  0.00000000E+00  0.00000000E+00  0.00000000E+00
  0.00000000E+00  0.00000000E+00  0.00000000E+00
  0.00000000E+00  0.00000000E+00  0.00000000E+00
  0.00000000E+00  0.00000000E+00  0.00000000E+00
  0.00000000E+00  0.00000000E+00  0.00000000E+00
  0.00000000E+00  0.00000000E+00  0.00000000E+00
  0.00000000E+00  0.00000000E+00  0.00000000E+00
  0.00000000E+00  0.00000000E+00  0.00000000E+00
  0.00000000E+00  0.00000000E+00  0.00000000E+00
  0.00000000E+00  0.00000000E+00  0.00000000E+00
  0.00000000E+00  0.00000000E+00  0.00000000E+00
  0.00000000E+00  0.00000000E+00  0.00000000E+00
  0.00000000E+00  0.00000000E+00  0.00000000E+00
  0.00000000E+00  0.00000000E+00  0.00000000E+00
  0.00000000E+00  0.00000000E+00  0.00000000E+00
  0.00000000E+00  0.00000000E+00  0.00000000E+00
  0.00000000E+00  0.00000000E+00  0.00000000E+00
  0.00000000E+00  0.00000000E+00  0.00000000E+00
  0.00000000E+00  0.00000000E+00  0.00000000E+00
  0.00000000E+00  0.00000000E+00  0.00000000E+00
  0.00000000E+00  0.00000000E+00  0.00000000E+00
  0.00000000E+00  0.00000000E+00  0.00000000E+00
  0.00000000E+00  0.00000000E+00  0.00000000E+00
  0.00000000E+00  0.00000000E+00  0.00000000E+00
  0.00000000E+00  0.00000000E+00  0.00000000E+00
  0.00000000E+00  0.00000000E+00  0.00000000E+00
  0.00000000E+00  0.00000000E+00  0.00000000E+00
  0.00000000E+00  0.00000000E+00  0.00000000E+00
  0.00000000E+00  0.00000000E+00  0.00000000E+00
  0.00000000E+00  0.00000000E+00  0.00000000E+00
  0.00000000E+00  0.00000000E+00  0.00000000E+00
  0.00000000E+00  0.00000000E+00  0.00000000E+00
  0.00000000E+00  0.00000000E+00  0.00000000E+00
  0.00000000E+00  0.00000000E+00  0.00000000E+00
  0.00000000E+00  0.00000000E+00  0.00000000E+00
  0.00000000E+00  0.00000000E+00  0.00000000E+00
  0.00000000E+00  0.00000000E+00  0.00000000E+00
  0.00000000E+00  0.00000000E+00  0.00000000E+00
  0.00000000E+00  0.00000000E+00  0.00000000E+00
  0.00000000E+00  0.00000000E+00  0.00000000E+00
  0.00000000E+00  0.00000000E+00  0.00000000E+00
  0.00000000E+00  0.00000000E+00  0.00000000E+00
  0.00000000E+00  0.00000000E+00  0.00000000E+00
  0.00000000E+00  0.00000000E+00  0.00000000E+00
  0.00000000E+00  0.00000000E+00  0.00000000E+00
  0.00000000E+00  0.00000000E+00  0.00000000E+00
  0.00000000E+00  0.00000000E+00  0.00000000E+00
  0.00000000E+00  0.00000000E+00  0.00000000E+00
  0.00000000E+00  0.00000000E+00  0.00000000E+00
  0.00000000E+00  0.00000000E+00  0.00000000E+00
  0.00000000E+00  0.00000000E+00  0.00000000E+00
  0.00000000E+00  0.00000000E+00  0.00000000E+00
  0.00000000E+00  0.00000000E+00  0.00000000E+00
  0.00000000E+00  0.00000000E+00  0.00000000E+00
  0.00000000E+00  0.00000000E+00  0.00000000E+00
  0.00000000E+00  0.00000000E+00  0.00000000E+00
  0.00000000E+00  0.00000000E+00  0.00000000E+00
  0.00000000E+00  0.00000000E+00  0.00000000E+00
  0.00000000E+00  0.00000000E+00  0.00000000E+00
  0.00000000E+00  0.00000000E+00  0.00000000E+00
  0.00000000E+00  0.00000000E+00  0.00000000E+00
  0.00000000E+00  0.00000000E+00  0.00000000E+00
  0.00000000E+00  0.00000000E+00  0.00000000E+00
  0.00000000E+00  0.00000000E+00  0.00000000E+00
  0.00000000E+00  0.00000000E+00  0.00000000E+00
  0.00000000E+00  0.00000000E+00  0.00000000E+00
  0.00000000E+00  0.00000000E+00  0.00000000E+00
  0.00000000E+00  0.00000000E+00  0.00000000E+00
  0.00000000E+00  0.00000000E+00  0.00000000E+00
  0.00000000E+00  0.00000000E+00  0.00000000E+00
  0.00000000E+00  0.00000000E+00  0.00000000E+00
  0.00000000E+00  0.00000000E+00  0.00000000E+00
  0.00000000E+00  0.00000000E+00  0.00000000E+00
  0.00000000E+00  0.00000000E+00  0.00000000E+00
  0.00000000E+00  0.00000000E+00  0.00000000E+00
  0.00000000E+00  0.00000000E+00  0.00000000E+00
  0.00000000E+00  0.00000000E+00  0.00000000E+00
  0.00000000E+00  0.00000000E+00  0.00000000E+00
  0.00000000E+00  0.00000000E+00  0.00000000E+00
  0.00000000E+00  0.00000000E+00  0.00000000E+00
  0.00000000E+00  0.00000000E+00  0.00000000E+00
  0.00000000E+00  0.00000000E+00  0.00000000E+00
  0.00000000E+00  0.00000000E+00  0.00000000E+00
  0.00000000E+00  0.00000000E+00  0.00000000E+00
  0.00000000E+00  0.00000000E+00  0.00000000E+00
  0.00000000E+00  0.00000000E+00  0.00000000E+00
  0.00000000E+00  0.00000000E+00  0.00000000E+00
  0.00000000E+00  0.00000000E+00  0.00000000E+00
  0.00000000E+00  0.00000000E+00  0.00000000E+00
  0.00000000E+00  0.00000000E+00  0.00000000E+00
  0.00000000E+00  0.00000000E+00  0.00000000E+00
  0.00000000E+00  0.00000000E+00  0.00000000E+00
  0.00000000E+00  0.00000000E+00  0.00000000E+00
  0.00000000E+00  0.00000000E+00  0.00000000E+00
  0.00000000E+00  0.00000000E+00  0.00000000E+00
  0.00000000E+00  0.00000000E+00  0.00000000E+00
  0.00000000E+00  0.00000000E+00  0.00000000E+00
  0.00000000E+00  0.00000000E+00  0.00000000E+00
  0.00000000E+00  0.00000000E+00  0.00000000E+00
  0.00000000E+00  0.00000000E+00  0.00000000E+00
  0.00000000E+00  0.00000000E+00  0.00000000E+00
  0.00000000E+00  0.00000000E+00  0.00000000E+00
  0.00000000E+00  0.00000000E+00  0.00000000E+00
  0.00000000E+00  0.00000000E+00  0.00000000E+00
  0.00000000E+00  0.00000000E+00  0.00000000E+00
  0.00000000E+00  0.00000000E+00  0.00000000E+00
  0.00000000E+00  0.00000000E+00  0.00000000E+00
  0.00000000E+00  0.00000000E+00  0.00000000E+00
  0.00000000E+00  0.00000000E+00  0.00000000E+00
  0.00000000E+00  0.00000000E+00  0.00000000E+00
  0.00000000E+00  0.00000000E+00  0.00000000E+00
  0.00000000E+00  0.00000000E+00  0.00000000E+00
  0.00000000E+00  0.00000000E+00  0.00000000E+00
  0.00000000E+00  0.00000000E+00  0.00000000E+00
  0.00000000E+00  0.00000000E+00  0.00000000E+00
  0.00000000E+00  0.00000000E+00  0.00000000E+00
  0.00000000E+00  0.00000000E+00  0.00000000E+00
  0.00000000E+00  0.00000000E+00  0.00000000E+00
  0.00000000E+00  0.00000000E+00  0.00000000E+00
  0.00000000E+00  0.00000000E+00  0.00000000E+00
  0.00000000E+00  0.00000000E+00  0.00000000E+00
  0.00000000E+00  0.00000000E+00  0.00000000E+00
  0.00000000E+00  0.00000000E+00  0.00000000E+00
  0.00000000E+00  0.00000000E+00  0.00000000E+00
  0.00000000E+00  0.00000000E+00  0.00000000E+00
  0.00000000E+00  0.00000000E+00  0.00000000E+00
  0.00000000E+00  0.00000000E+00  0.00000000E+00
  0.00000000E+00  0.00000000E+00  0.00000000E+00
  0.00000000E+00  0.00000000E+00  0.00000000E+00
  0.00000000E+00  0.00000000E+00  0.00000000E+00
  0.00000000E+00  0.00000000E+00  0.00000000E+00
  0.00000000E+00  0.00000000E+00  0.00000000E+00
  0.00000000E+00  0.00000000E+00  0.00000000E+00
  0.00000000E+00  0.00000000E+00  0.00000000E+00
  0.00000000E+00  0.00000000E+00  0.00000000E+00
  0.00000000E+00  0.00000000E+00  0.00000000E+00
  0.00000000E+00  0.00000000E+00  0.00000000E+00
  0.00000000E+00  0.00000000E+00  0.00000000E+00
  0.00000000E+00  0.00000000E+00  0.00000000E+00
  0.00000000E+00  0.00000000E+00  0.00000000E+00
  0.00000000E+00  0.00000000E+00  0.00000000E+00
