supercell of icsd_191774.cif            
   1.00000000000000     
    10.6055520330612474    0.0045369665872268   -0.0028138338283917
    -5.2988472807818772    9.1876415176838009    0.0073350141905390
    -0.0030534133151236    0.0075702101220067   11.0183886455097557
   N    In   Sc
    36    20    16
Direct
  0.2205133560690626  0.1079189639418914  0.4424395460963524
  0.1125840204022879  0.2266886754123050  0.1858225158363496
  0.8927859702739269  0.1117856405176454  0.9360571907666255
  0.7764769015886159  0.2191783787109784  0.6962009818495574
  0.5551160375974504  0.1109662467468127  0.4432755780862436
  0.4451722880128699  0.2237293363518731  0.1844181377963423
  0.2218609712377742  0.1098472885090942  0.9493008551292093
  0.1101298135875695  0.2251357058757435  0.6987150571820351
  0.8876472958826440  0.1073882386112928  0.4457448731731901
  0.7791382877741526  0.2255554016462753  0.1922620238574879
  0.5528254973418569  0.1129018559054273  0.9377077229861186
  0.4480259560179078  0.2243298500252067  0.6993939404383624
  0.2196163409614513  0.4457570708318812  0.4377956601762421
  0.1093632513491087  0.5511847998383956  0.1975376682438679
  0.8896774953297708  0.4456538941268775  0.9416878457488451
  0.7766874401006447  0.5595408802028032  0.6862869823686424
  0.5596181517541510  0.4466798168754593  0.4460689367199464
  0.4402767958385212  0.5533993331826821  0.1933798242194413
  0.2195492865556972  0.4393806010295620  0.9385150560197033
  0.1163242968151934  0.5574765992509469  0.6863569563442198
  0.8907156706455552  0.4481876473101707  0.4387807614815031
  0.7829099950047365  0.5591206482283013  0.1971674102558012
  0.5551908615176018  0.4414190437831138  0.9365392051041823
  0.4418779007364577  0.5510309690620403  0.6967772092822813
  0.2166421800499378  0.7760867065459038  0.4492659370218064
  0.1057625837173859  0.8856096457550393  0.1886005113950304
  0.8951331618923106  0.7812040650901366  0.9365619225204895
  0.7835956668519941  0.8911255577769239  0.6869769403751746
  0.5580800690786489  0.7792795050077004  0.4461928806452988
  0.4416314234976682  0.8872761677424847  0.1916236447976303
  0.2187174293358112  0.7789966691185057  0.9355861504207823
  0.1078413032355101  0.8839907422969020  0.6898362284575938
  0.8900509210478091  0.7785301170885006  0.4420453760910732
  0.7796928188947518  0.8860533131394845  0.1955402736426279
  0.5566260481777476  0.7777620181340339  0.9427689787051037
  0.4422538177269715  0.8909066260649752  0.6980880697473850
  0.2217378593721335  0.1112212258369567  0.2446198810678482
  0.1122507589117205  0.2235766467409732  0.5008157560219288
  0.7770850241792715  0.2202489170299344  0.9955343007309025
  0.5548112383434685  0.1112353481696644  0.2473187520456577
  0.4433668568146700  0.2224719419219880  0.5018224690346429
  0.2210097290140922  0.1087217417638797  0.7522262023690303
  0.8903401237177562  0.1120298774120272  0.2487921206192922
  0.7791395089034907  0.2246119354595280  0.4996029037184329
  0.8905814713308615  0.4472794254142300  0.7450441331096371
  0.7780193432677649  0.5578340009388256  0.9986160010892533
  0.5565430241178362  0.4447273855959821  0.2493376402858658
  0.4421675720148457  0.5545969951792813  0.5001937703852519
  0.1131579202310036  0.5566647618626703  0.9989070171638872
  0.4439069825545303  0.5532812944898353  0.9968414065958129
  0.2192258411904078  0.7764354260244701  0.2512774482685245
  0.7806177016780538  0.8895966411067775  0.9980703966024294
  0.5547053309272840  0.7768517529286854  0.2494088244245418
  0.4423421279955804  0.8879250495128588  0.5018115935877461
  0.5582388507013860  0.7786182109211524  0.7467334585152656
  0.4422443301332990  0.8887864998255210  0.9951670246095432
  0.8882644303088298  0.1097493158197622  0.7453881116383272
  0.1100217033133006  0.2210296657583513  0.9943762502726656
  0.5561315851978890  0.1111245037513839  0.7480276687634344
  0.4451516173708825  0.2231461333951259  0.9941338496532310
  0.2217860315231377  0.4424097142775594  0.2469047759315401
  0.1094504148904178  0.5545689445174986  0.4951296057867012
  0.2221863111417548  0.4458128033901758  0.7480847910411512
  0.8886930183085724  0.4433508380568085  0.2472385855307166
  0.7799622161825468  0.5574068617898646  0.4953271693836712
  0.5578446743619665  0.4462671560103999  0.7458137675999126
  0.1094352238925040  0.8895170392767326  0.4988480119842436
  0.8884973351076013  0.7776091085832419  0.7447846738423536
  0.2208069069719585  0.7760269439284215  0.7442656280720925
  0.1115782126829927  0.8880754926305201  0.9965033153909530
  0.8904307034471941  0.7781716371641068  0.2492990422431518
  0.7781567139974399  0.8879407437774418  0.4962147996378263
 
  0.00000000E+00  0.00000000E+00  0.00000000E+00
  0.00000000E+00  0.00000000E+00  0.00000000E+00
  0.00000000E+00  0.00000000E+00  0.00000000E+00
  0.00000000E+00  0.00000000E+00  0.00000000E+00
  0.00000000E+00  0.00000000E+00  0.00000000E+00
  0.00000000E+00  0.00000000E+00  0.00000000E+00
  0.00000000E+00  0.00000000E+00  0.00000000E+00
  0.00000000E+00  0.00000000E+00  0.00000000E+00
  0.00000000E+00  0.00000000E+00  0.00000000E+00
  0.00000000E+00  0.00000000E+00  0.00000000E+00
  0.00000000E+00  0.00000000E+00  0.00000000E+00
  0.00000000E+00  0.00000000E+00  0.00000000E+00
  0.00000000E+00  0.00000000E+00  0.00000000E+00
  0.00000000E+00  0.00000000E+00  0.00000000E+00
  0.00000000E+00  0.00000000E+00  0.00000000E+00
  0.00000000E+00  0.00000000E+00  0.00000000E+00
  0.00000000E+00  0.00000000E+00  0.00000000E+00
  0.00000000E+00  0.00000000E+00  0.00000000E+00
  0.00000000E+00  0.00000000E+00  0.00000000E+00
  0.00000000E+00  0.00000000E+00  0.00000000E+00
  0.00000000E+00  0.00000000E+00  0.00000000E+00
  0.00000000E+00  0.00000000E+00  0.00000000E+00
  0.00000000E+00  0.00000000E+00  0.00000000E+00
  0.00000000E+00  0.00000000E+00  0.00000000E+00
  0.00000000E+00  0.00000000E+00  0.00000000E+00
  0.00000000E+00  0.00000000E+00  0.00000000E+00
  0.00000000E+00  0.00000000E+00  0.00000000E+00
  0.00000000E+00  0.00000000E+00  0.00000000E+00
  0.00000000E+00  0.00000000E+00  0.00000000E+00
  0.00000000E+00  0.00000000E+00  0.00000000E+00
  0.00000000E+00  0.00000000E+00  0.00000000E+00
  0.00000000E+00  0.00000000E+00  0.00000000E+00
  0.00000000E+00  0.00000000E+00  0.00000000E+00
  0.00000000E+00  0.00000000E+00  0.00000000E+00
  0.00000000E+00  0.00000000E+00  0.00000000E+00
  0.00000000E+00  0.00000000E+00  0.00000000E+00
  0.00000000E+00  0.00000000E+00  0.00000000E+00
  0.00000000E+00  0.00000000E+00  0.00000000E+00
  0.00000000E+00  0.00000000E+00  0.00000000E+00
  0.00000000E+00  0.00000000E+00  0.00000000E+00
  0.00000000E+00  0.00000000E+00  0.00000000E+00
  0.00000000E+00  0.00000000E+00  0.00000000E+00
  0.00000000E+00  0.00000000E+00  0.00000000E+00
  0.00000000E+00  0.00000000E+00  0.00000000E+00
  0.00000000E+00  0.00000000E+00  0.00000000E+00
  0.00000000E+00  0.00000000E+00  0.00000000E+00
  0.00000000E+00  0.00000000E+00  0.00000000E+00
  0.00000000E+00  0.00000000E+00  0.00000000E+00
  0.00000000E+00  0.00000000E+00  0.00000000E+00
  0.00000000E+00  0.00000000E+00  0.00000000E+00
  0.00000000E+00  0.00000000E+00  0.00000000E+00
  0.00000000E+00  0.00000000E+00  0.00000000E+00
  0.00000000E+00  0.00000000E+00  0.00000000E+00
  0.00000000E+00  0.00000000E+00  0.00000000E+00
  0.00000000E+00  0.00000000E+00  0.00000000E+00
  0.00000000E+00  0.00000000E+00  0.00000000E+00
  0.00000000E+00  0.00000000E+00  0.00000000E+00
  0.00000000E+00  0.00000000E+00  0.00000000E+00
  0.00000000E+00  0.00000000E+00  0.00000000E+00
  0.00000000E+00  0.00000000E+00  0.00000000E+00
  0.00000000E+00  0.00000000E+00  0.00000000E+00
  0.00000000E+00  0.00000000E+00  0.00000000E+00
  0.00000000E+00  0.00000000E+00  0.00000000E+00
  0.00000000E+00  0.00000000E+00  0.00000000E+00
  0.00000000E+00  0.00000000E+00  0.00000000E+00
  0.00000000E+00  0.00000000E+00  0.00000000E+00
  0.00000000E+00  0.00000000E+00  0.00000000E+00
  0.00000000E+00  0.00000000E+00  0.00000000E+00
  0.00000000E+00  0.00000000E+00  0.00000000E+00
  0.00000000E+00  0.00000000E+00  0.00000000E+00
  0.00000000E+00  0.00000000E+00  0.00000000E+00
  0.00000000E+00  0.00000000E+00  0.00000000E+00
