O    Ga   Li
1.0
  -5.497684385904375 -0.0010183976016995 -3.5975382437e-06
  -0.0011043491395238 -6.521948360324468 -0.0077892300554212
  0.0056794076028509 2.8819093388e-06 5.09000098011317
 O  Ga  Li 
8 4 4 
direct
   -0.9275596448534638   0.1040192097681494  -0.0852827620837931
   -0.0748828561392600   0.8679038304958063  -0.5127399259092406
   -0.9069577304384906   0.6251086680527040  -0.0256247163370486
   -0.4078900293264778   0.8442344067652351  -0.0252520485097861
   -0.0945897807189953   0.3582497618938124  -0.5334521892719033
   -0.5831914258849954   0.1240174061803925  -0.5324249053375371
   -0.4322464716614280   0.3770496290571128  -0.0033504343813484
   -0.5716999270417975   0.5976908524363832  -0.5030215078102024
   -0.0837778158170241   0.8558947279772126  -0.1297292146773432
   -0.9178254401531427   0.1187870590449515  -0.5183250355745115
   -0.5833373600215762   0.6125523625384582  -0.1348769825569796
   -0.4208275152201707   0.3629604743092119  -0.6364892039035633
   -0.5741778507282362   0.1087868046302134  -0.1113513148818741
   -0.0856412017237299   0.3682028657253684  -0.1111231281635927
   -0.4189719158657594   0.8603904024002471  -0.6330018864299412
   -0.9164976147806883   0.6137717095291860  -0.6341741629306763
