O    Ga   Li
1.0
  -5.502793277017547 -0.0064264779241299 -1.5674239381e-06
  -0.0076574946318812 -6.559973546736169 -0.0041813151603505
  0.0006066300644851 -3.5310473e-06 5.09012831497419
 O  Ga  Li 
8 4 4 
direct
   -0.9335578507044645   0.0977667976192218  -0.1346854964490790
   -0.0681026386819934   0.8775486528359303  -0.6349606386966148
   -0.9127824805513021   0.6263149083055639  -0.1066055746992715
   -0.4039696867876956   0.8540525276670408  -0.1011990371369446
   -0.0878459018730214   0.3486992295439773  -0.6076576401287666
   -0.5938441937778445   0.1205640129888822  -0.5875413641849949
   -0.4337913273858434   0.3787616757063031  -0.0181329869918219
   -0.5675966792505441   0.5953974504505897  -0.5187113598809183
   -0.0777674854238220   0.8612150833381257  -0.0027115736600395
   -0.9231969591488671   0.1141188691098682  -0.5032112685394943
   -0.5755951258716562   0.6127096696948139  -0.1467892246266381
   -0.4257562785173286   0.3610743070194430  -0.6466011999350494
   -0.5834365150337937   0.1063657135002076  -0.0536678315577290
   -0.0672342663051605   0.3646179900614007  -0.0180662666968624
   -0.4124928729366415   0.8699442009901407  -0.5303489538025371
   -0.9331043181249815   0.6104690819763993  -0.5193290031733357
