O    Ga   Li
1.0
  -5.50680565652055 0.0072063170572726 -2.9631275232e-06
  0.0086212632678117 -6.549158991006971 0.0060932923064198
  0.0051646238280595 8.778603892e-07 5.09004077225724
 O  Ga  Li 
8 4 4 
direct
   -0.9301296865839137   0.0991880432177230  -0.1161196812561845
   -0.0714256399580616   0.8745164882166780  -0.6015521541246527
   -0.9039370522081328   0.6198715533437461  -0.0321318467515309
   -0.4140371897308622   0.8471796390500312  -0.0320424846811071
   -0.0943515122483711   0.3567583045226215  -0.5350098999917616
   -0.5862276377243362   0.1263407662273530  -0.5327466482156088
   -0.4307346332434208   0.3780885430043344  -0.0037767990522454
   -0.5701587050403305   0.5969369190378535  -0.5050318222736383
   -0.0788217800485611   0.8598710911777029  -0.0217271497753450
   -0.9236853920790357   0.1126371153323563  -0.4972124262165983
   -0.5798665762630534   0.6117738360261972  -0.1387138935966156
   -0.4201441373099576   0.3615831171972830  -0.6353420833289033
   -0.5683154717848077   0.1114516453951374  -0.1176604019000936
   -0.0880384658276244   0.3713188346872326  -0.1147244102694942
   -0.4261981519177179   0.8638448190631134  -0.6233284859840174
   -0.9140025484070570   0.6082594553051349  -0.6230992313399795
