O    Ga   Li
1.0
  -5.506257015533313 -0.0040014652429249 -1.0598953617e-06
  -0.0047727472916208 -6.552064289045591 -0.008552684912799
  0.0042951004281576 -5.1342864598e-06 5.09016014868945
 O  Ga  Li 
8 4 4 
direct
   -0.9295367339457778   0.0968812843028932  -0.1368225380666455
   -0.0691067476730246   0.8783319491752326  -0.6375952344891246
   -0.9144152317289325   0.6264264745643469  -0.1083454704449158
   -0.4058266486956061   0.8573875694430029  -0.1062786779858093
   -0.0875466912988468   0.3464215923434564  -0.6123873394688231
   -0.5956886293181664   0.1215660008630647  -0.6127849515018357
   -0.4258164839517468   0.3696726523497257  -0.0886408231012337
   -0.5717610647335069   0.6022886967151861  -0.5326447716944461
   -0.0800167285956120   0.8618412200015447  -0.0060827195890899
   -0.9195439955661301   0.1115272974152327  -0.5028724211414416
   -0.5777938206771114   0.6146159567003872  -0.1425800558308171
   -0.4180087509644764   0.3557953484906692  -0.5589405727012091
   -0.5844616233185219   0.1108241069293300  -0.0155914378327942
   -0.0770464402369302   0.3635621613724004  -0.0158373371363462
   -0.4122212785470583   0.8708930619191155  -0.5279006369297361
   -0.9312837111229917   0.6115847982230914  -0.5249144323277740
