O    Ga   Li
1.0
  -5.4701231144391445 -0.0012811182922752 -1.71720353e-07
  -0.0015419571095968 -6.4739734273274205 0.0070718382367375
  0.006772996154783 -7.9399549893e-06 5.09021585769114
 O  Ga  Li 
8 4 4 
direct
   -0.9303685077330234   0.0993212664322017  -0.1399217046642866
   -0.0683027991279728   0.8751440796980410  -0.6405026290179320
   -0.9086531371500136   0.6253545658103066  -0.1173972607783996
   -0.4074666873555731   0.8506125025385061  -0.1173056963990681
   -0.0928720362787594   0.3477652638988492  -0.6173770483069537
   -0.5926545084471178   0.1261513003191381  -0.6171657275892881
   -0.4308222507832625   0.3752203009956564  -0.1408394901060128
   -0.5688962998580420   0.6003273597316671  -0.6412556151866812
   -0.0810184568258391   0.8613536542369479  -0.0089386595296174
   -0.9182581155917258   0.1129801922014687  -0.5082179284764252
   -0.5811794132950624   0.6143245403252399  -0.0128214562369984
   -0.4189922137592973   0.3616657068640339  -0.5098742455486045
   -0.5822465833422457   0.1126571061453350  -0.0120228137334264
   -0.0817855693851636   0.3620761203504143  -0.0124058743707483
   -0.4173924801358557   0.8640324160985438  -0.5170417310275210
   -0.9191656029638066   0.6106340504795843  -0.5172251406197621
