O    Ga   Li                            
   1.00000000000000     
    -0.0067729961547830    0.0000079399549893   -5.0902158576911400
     5.4701231144391445    0.0012811182922752    0.0000001717203530
    -0.0015419571095968   -6.4739734273274205    0.0070718382367375
   O    Ga   Li
     8     4     4
Direct
  0.1399217046642866  0.9303685077330235  0.0993212664322017
  0.6405026290179321  0.0683027991279728  0.8751440796980406
  0.1173972607783996  0.9086531371500136  0.6253545658103065
  0.1173056963990681  0.4074666873555731  0.8506125025385058
  0.6173770483069537  0.0928720362787594  0.3477652638988491
  0.6171657275892883  0.5926545084471176  0.1261513003191381
  0.1408394901060128  0.4308222507832626  0.3752203009956563
  0.6412556151866813  0.5688962998580420  0.6003273597316668
  0.0089386595296174  0.0810184568258391  0.8613536542369475
  0.5082179284764253  0.9182581155917257  0.1129801922014687
  0.0128214562369984  0.5811794132950625  0.6143245403252396
  0.5098742455486045  0.4189922137592973  0.3616657068640339
  0.0120228137334264  0.5822465833422458  0.1126571061453350
  0.0124058743707483  0.0817855693851636  0.3620761203504142
  0.5170417310275210  0.4173924801358557  0.8640324160985434
  0.5172251406197622  0.9191656029638067  0.6106340504795841
 
             NaN             NaN             NaN
             NaN             NaN             NaN
             NaN             NaN             NaN
             NaN             NaN             NaN
             NaN             NaN             NaN
             NaN             NaN             NaN
             NaN             NaN             NaN
             NaN             NaN             NaN
             NaN             NaN             NaN
             NaN             NaN             NaN
             NaN             NaN             NaN
             NaN             NaN             NaN
             NaN             NaN             NaN
             NaN             NaN             NaN
             NaN             NaN             NaN
             NaN             NaN             NaN
