O    Ga   Li
1.0
  -5.503713373361885 -0.0100757546535242 -1.440541794e-06
  -0.0119995594826667 -6.546367157421456 -0.0021468164413487
  0.0041045850912585 -3.93185709e-06 5.09013627340301
 O  Ga  Li 
8 4 4 
direct
   -0.9305939945867785   0.0969758329090010  -0.1361740017588514
   -0.0691400176943580   0.8778448928402197  -0.6365975597015220
   -0.9129670439709886   0.6261898609756089  -0.1077028555578621
   -0.4046242377052582   0.8557886903637050  -0.1054824598481513
   -0.0869338058309165   0.3483255845129896  -0.6074801072277102
   -0.5957775417618224   0.1195097515312624  -0.6061560276438338
   -0.4316766084663192   0.3790019132330025  -0.0200870074306122
   -0.5680963957193637   0.5960562129979473  -0.5199630460308087
   -0.0790324837954907   0.8614173234862564  -0.0044422625814490
   -0.9208194972384688   0.1131924588195657  -0.5037198858646671
   -0.5758078556662808   0.6128307274359250  -0.1472916701419366
   -0.4239300663668775   0.3621013643598730  -0.6461301132033305
   -0.5883161290949447   0.1034428638301801  -0.0221747098249051
   -0.0680165652958730   0.3641301742041984  -0.0203001855132149
   -0.4117259752959077   0.8721139403187692  -0.5249395912521687
   -0.9326163618847587   0.6106985789902217  -0.5215779366651155
