O    Ga   Li
1.0
  -5.497435211335985 0.0009444304459005 -6.792489294e-07
  0.00109796760589 -6.5219473459740716 0.007146246786729
  0.0053513494596004 -6.3367158295e-06 5.09018402397589
 O  Ga  Li 
8 4 4 
direct
   -0.9283222252790569   0.0976980669760694  -0.1382586645883600
   -0.0677766627170928   0.8770587753612715  -0.6379204255282543
   -0.9168065043234090   0.6240320818904789  -0.1088919636229116
   -0.4054156090506282   0.8582059009706976  -0.1078876341511281
   -0.0921074805337006   0.3442452118767456  -0.6160221506975383
   -0.5930284080992189   0.1250882270387184  -0.6156625324911832
   -0.4251483022514317   0.3679220054300444  -0.1286097880744983
   -0.5724394015923893   0.6039930519980699  -0.5565898300018481
   -0.0791810339279850   0.8629921293404663  -0.0047516322316280
   -0.9166721873141052   0.1125702089328313  -0.5064112702149905
   -0.5821711526311112   0.6187388269223232  -0.1221327167208713
   -0.4162824138272582   0.3559696492248378  -0.5116106655471899
   -0.5835079862571496   0.1137569420399671  -0.0072165535883215
   -0.0810253054120592   0.3603945357647966  -0.0083450489156197
   -0.4144190329365855   0.8681389409866966  -0.5300536892133805
   -0.9257708742212651   0.6088156160546215  -0.5298548546535332
