O    Ga   Li
1.0
  -5.4863202427848305 0.000893380754029 -3.978184676e-06
  0.0011596555191014 -6.5037837264081535 -0.0100782920671623
  0.007327927680873 4.0843387086e-06 5.08997710482673
 O  Ga  Li 
8 4 4 
direct
   -0.9294641326838572   0.1020068601724853  -0.0172205600187349
   -0.0716256019109968   0.8724880430524983  -0.5041930002280877
   -0.9073609499051747   0.6256409286069093  -0.0256108702855070
   -0.4071421999515381   0.8451149538233953  -0.0251396556729897
   -0.0936224170905103   0.3544547928727678  -0.5273567022773933
   -0.5872378689690473   0.1245987572350348  -0.5269437188277569
   -0.4321681518145337   0.3763229078771255  -0.0023660756663504
   -0.5711149422087036   0.5982678839348500  -0.5028817262526482
   -0.0809645559701074   0.8609468125565757  -0.1293542608811231
   -0.9188334031637350   0.1158501176834493  -0.6026627918155695
   -0.5829245480414676   0.6126369506443118  -0.1344793070142039
   -0.4201072421937558   0.3625218996161957  -0.6349207668465100
   -0.5781331677479337   0.1092264798279688  -0.1159707942686120
   -0.0837296665158792   0.3655614971547437  -0.1163823830091373
   -0.4188352562782970   0.8604791320140657  -0.6319225465681856
   -0.9168104759297010   0.6135021537320607  -0.6328142591265251
