O    Ga   Li
1.0
  -5.489604800039247 0.0027529136122157 -2.2018346586e-06
  -0.0004336471012771 -6.552588815150987 0.0075249011210216
  0.0015024807815909 -1.5269983504e-06 5.09008852283012
 O  Ga  Li 
8 4 4 
direct
   -0.9378511641039361   0.0978285558886831  -0.1281253412355256
   -0.0606669341230940   0.8760068592657749  -0.6282513504380484
   -0.9132129768332042   0.6254024566232774  -0.1060856586184961
   -0.4133224907616886   0.8492720296203092  -0.0325559645255822
   -0.0875716570825172   0.3506487451532123  -0.5959122427958435
   -0.5858423834367126   0.1253229982286042  -0.5334816540309998
   -0.4385335011435679   0.3762038898031674  -0.0110093185034478
   -0.5606630090817135   0.5989834051886788  -0.5112597702521965
   -0.0729349176760018   0.8596357813473188  -0.9968523423586221
   -0.9257935313485613   0.1143927733314757  -0.4977505513767984
   -0.5733463450280805   0.6150597203555180  -0.1425458757562170
   -0.4256090599433532   0.3602809010373323  -0.6420377838054243
   -0.5672894927388631   0.1102849890374739  -0.1269352206363619
   -0.0741586216322257   0.3647558016991904  -0.0344151702871061
   -0.4326520870957741   0.8644124665154354  -0.6281851648412482
   -0.9306264083451266   0.6111287977113091  -0.5148160092190988
