O    Ga   Li
1.0
  -5.4904623529815675 -0.0011724933928321 -2.0749525145e-06
  -0.0014074286623319 -6.553284460969369 -0.0070027384113319
  0.0016167299157539 -1.9278081403e-06 5.09009648125894
 O  Ga  Li 
8 4 4 
direct
   -0.9392678249509284   0.0989454767352691  -0.1300491195568800
   -0.0616033712938425   0.8762424364116080  -0.6303245593334325
   -0.9141053651710638   0.6253368118400816  -0.1076938438578002
   -0.4121843634447508   0.8507044842677143  -0.0467413538573314
   -0.0867915292808735   0.3492807441852274  -0.6085179150649174
   -0.5868997233169405   0.1254128492807042  -0.5354058452984038
   -0.4392759361133245   0.3760190302602947  -0.0130712597634295
   -0.5623148257761240   0.5977183953130765  -0.5132583267739069
   -0.0744567213232505   0.8602765167040924  -0.9993006187044609
   -0.9266616590853346   0.1150624335368727  -0.4987974271689716
   -0.5742653641600762   0.6143258459591432  -0.1435446116495142
   -0.4270809209445255   0.3596208280456588  -0.6444536720167592
   -0.5695451516726349   0.1111574282304770  -0.1261848126002166
   -0.0675647470590670   0.3644105468005382  -0.0136274376422403
   -0.4253909365260218   0.8648196595846995  -0.6047700344453851
   -0.9326661402556270   0.6102866836525894  -0.5144785824537442
