O    Ga   Li
1.0
  -5.502694828801077 0.0103614554652945 -2.8362453791e-06
  0.0126086313861298 -6.547853848089682 0.0007439230049409
  0.001922983827355 4.770505993e-07 5.09004873068606
 O  Ga  Li 
8 4 4 
direct
   -0.9319813597289429   0.0958372921847343  -0.1215116148215083
   -0.0680675511184985   0.8791738508985952  -0.6215428222933503
   -0.9042350098486925   0.6195090940561897  -0.0356830102964736
   -0.4128057890511624   0.8485388308017249  -0.0339061359450227
   -0.0956652801024573   0.3555537942303428  -0.5358834324385928
   -0.5872288481779268   0.1262883198432866  -0.5338055676767418
   -0.4308752848751273   0.3779005289176171  -0.0049921510207166
   -0.5692267305927917   0.5969859137096639  -0.5051082293723669
   -0.0756828592057883   0.8621454208909267  -0.9938832631658577
   -0.9243789707242837   0.1128459231901389  -0.4936755078613008
   -0.5789132192294363   0.6134418580871908  -0.1374309205702679
   -0.4211674620382067   0.3614114556291066  -0.6372400013250671
   -0.5670593770045000   0.1106597286725558  -0.1203970864387393
   -0.0883061947026597   0.3722359624156478  -0.1168221061562141
   -0.4328311180331922   0.8642437516757716  -0.6206946820738229
   -0.9116495259415964   0.6028484456008245  -0.6176428872986255
