O    Ga   Li
1.0
  -5.5070136053967635 0.0055084544150243 -3.0900096673e-06
  0.0065988528150577 -6.551282215379547 0.0075517459870949
  0.0046462727696249 1.2786701791e-06 5.09003281382843
 O  Ga  Li 
8 4 4 
direct
   -0.9290348457752623   0.1009646882202928  -0.1121669593804925
   -0.0729288068790215   0.8719414876132618  -0.5776817550722985
   -0.9040007253193473   0.6205311541656029  -0.0302957740150353
   -0.4135694710139823   0.8467947429821855  -0.0305201233021696
   -0.0941860230509979   0.3571864647373165  -0.5348693841737430
   -0.5858908138005540   0.1265077454162019  -0.5327120516629069
   -0.4308163003633210   0.3782619977847561  -0.0037066345013682
   -0.5703486774391895   0.5968784577509543  -0.5047545929005303
   -0.0804945823998952   0.8577725619116032  -0.0510526620290902
   -0.9231252070101991   0.1133479244318637  -0.4984805366837443
   -0.5800854289639467   0.6114536308865117  -0.1388592345812798
   -0.4199487601608413   0.3616664887125186  -0.6351026189537402
   -0.5685143612323014   0.1116210898364139  -0.1171443708524694
   -0.0879787114525839   0.3710640099251633  -0.1142057164868567
   -0.4241952698279772   0.8637601793799494  -0.6243109258451564
   -0.9149565956857975   0.6098675470498970  -0.6243560783168943
