O    Ga   Li
1.0
  -5.485932491730088 -0.0009823193378454 -2.986024971e-07
  -0.0011843210779786 -6.503560182716459 0.0094872210010533
  0.007050012388023 -7.5391451993e-06 5.09020789926233
 O  Ga  Li 
8 4 4 
direct
   -0.9289131518563529   0.0982860477060778  -0.1383992175216648
   -0.0678491572312147   0.8763238068722577  -0.6389186585390260
   -0.9126821052623688   0.6246203669513478  -0.1143585025959579
   -0.4064130440639551   0.8543619788920238  -0.1139596053828178
   -0.0928649098713972   0.3451520095834522  -0.6161360476292363
   -0.5926406143694254   0.1256516295358944  -0.6156867477753302
   -0.4284396688062880   0.3725542560352870  -0.1371825281035849
   -0.5705090613785520   0.6019495374667003  -0.6247338730089592
   -0.0799222507783064   0.8625149661517473  -0.0063896359772493
   -0.9171037653384664   0.1126481552198942  -0.5067885668119374
   -0.5811605501811358   0.6158013816840344  -0.0376705237675177
   -0.4190614254977824   0.3609712297903593  -0.5118635743119893
   -0.5831777492423847   0.1134857925603796  -0.0086058978345927
   -0.0811690201582536   0.3605057397151368  -0.0094450773784510
   -0.4163110977996447   0.8655296571199645  -0.5248348824827652
   -0.9218570085389244   0.6092636155240877  -0.5252460811201956
