O    Ga   Li
1.0
  -5.503408184920992 -0.0046445189186463 -1.6943060822e-06
  -0.0055380713495644 -6.562877693297702 -0.0056504272149979
  0.001300513760742 -3.1302375101e-06 5.09012035654538
 O  Ga  Li 
8 4 4 
direct
   -0.9360077391678222   0.0981853631210779  -0.1332688210615383
   -0.0671681656572731   0.8773570487466853  -0.6340922208709489
   -0.9130809948960320   0.6261111813158061  -0.1064026877770101
   -0.4042898127916930   0.8529520333459635  -0.0971722374169890
   -0.0880415800533502   0.3488597794054286  -0.6082516562829147
   -0.5914682637648462   0.1223791231112336  -0.5658441522369747
   -0.4356549090348447   0.3777389667464671  -0.0165970508661665
   -0.5670177996992644   0.5953768703938070  -0.5180064349434249
   -0.0774025321322364   0.8609807797772135  -0.0018867927722702
   -0.9248741143277810   0.1145852627107872  -0.5023861231798490
   -0.5758466172578391   0.6123966886490761  -0.1461117095111830
   -0.4266597496610605   0.3601507479758214  -0.6460585960388702
   -0.5795031684179532   0.1090301411346761  -0.0845645680320617
   -0.0675713274230165   0.3646247257422079  -0.0167932056586289
   -0.4126458216140943   0.8685343967149497  -0.5339411011328251
   -0.9328419844757614   0.6103570619167386  -0.5188420623830829
