O    Ga   Li                            
   1.00000000000000     
    -0.0056794076028509   -0.0000028819093388   -5.0900009801131700
     5.4976843859043747    0.0010183976016995    0.0000035975382437
    -0.0011043491395238   -6.5219483603244681   -0.0077892300554212
   O    Ga   Li
     8     4     4
Direct
  0.0852827620837931  0.9275596448534638  0.1040192097681494
  0.5127399259092406  0.0748828561392600  0.8679038304958064
  0.0256247163370486  0.9069577304384905  0.6251086680527042
  0.0252520485097861  0.4078900293264777  0.8442344067652353
  0.5334521892719033  0.0945897807189953  0.3582497618938124
  0.5324249053375371  0.5831914258849954  0.1240174061803925
  0.0033504343813484  0.4322464716614280  0.3770496290571129
  0.5030215078102024  0.5716999270417975  0.5976908524363832
  0.1297292146773432  0.0837778158170241  0.8558947279772128
  0.5183250355745116  0.9178254401531425  0.1187870590449515
  0.1348769825569796  0.5833373600215762  0.6125523625384584
  0.6364892039035634  0.4208275152201706  0.3629604743092119
  0.1113513148818741  0.5741778507282361  0.1087868046302134
  0.1111231281635927  0.0856412017237299  0.3682028657253685
  0.6330018864299412  0.4189719158657594  0.8603904024002472
  0.6341741629306765  0.9164976147806881  0.6137717095291861
 
             NaN             NaN             NaN
             NaN             NaN             NaN
             NaN             NaN             NaN
             NaN             NaN             NaN
             NaN             NaN             NaN
             NaN             NaN             NaN
             NaN             NaN             NaN
             NaN             NaN             NaN
             NaN             NaN             NaN
             NaN             NaN             NaN
             NaN             NaN             NaN
             NaN             NaN             NaN
             NaN             NaN             NaN
             NaN             NaN             NaN
             NaN             NaN             NaN
             NaN             NaN             NaN
