O    Ga   Li
1.0
  -5.496060287612667 0.0032504195943266 -2.3287168027e-06
  0.0002946702621071 -6.559539347506612 0.0077254444400784
  0.0020423687369866 -1.1261885605e-06 5.09008056440131
 O  Ga  Li 
8 4 4 
direct
   -0.9358061227809610   0.0964401302942156  -0.1263630885331373
   -0.0613400199369063   0.8761281938667471  -0.6273410944562922
   -0.9119810627797830   0.6253682231566737  -0.1027468898760016
   -0.4125054048433835   0.8490565714727435  -0.0326544252845001
   -0.0908075333245406   0.3515781949671313  -0.5747211373625791
   -0.5861568280467813   0.1254777688070350  -0.5342553343702102
   -0.4366103548138137   0.3766134805583238  -0.0097836402573860
   -0.5612497338963429   0.5988222341568491  -0.5105439331712192
   -0.0726383779361445   0.8593690191752387  -0.9960773367269267
   -0.9249591400179747   0.1133425242906244  -0.4972312697337061
   -0.5732281112911345   0.6150747687081943  -0.1416135979690146
   -0.4244530778292505   0.3604865831460750  -0.6409885593660807
   -0.5673967461763237   0.1101475037786403  -0.1252244550981632
   -0.0801754939182807   0.3656870630959380  -0.0656081134174419
   -0.4323233016718099   0.8644155967374552  -0.6268332523059270
   -0.9284432711108548   0.6116123145952931  -0.5182332908758570
