O    Ga   Li                            
   1.00000000000000     
    -0.0020423687369866    0.0000011261885605   -5.0900805644013101
     5.4960602876126670   -0.0032504195943266    0.0000023287168027
     0.0002946702621071   -6.5595393475066119    0.0077254444400784
   O    Ga   Li
     8     4     4
Direct
  0.1263630885331373  0.9358061227809609  0.0964401302942156
  0.6273410944562922  0.0613400199369063  0.8761281938667469
  0.1027468898760016  0.9119810627797829  0.6253682231566736
  0.0326544252845001  0.4125054048433835  0.8490565714727432
  0.5747211373625791  0.0908075333245406  0.3515781949671313
  0.5342553343702102  0.5861568280467813  0.1254777688070350
  0.0097836402573860  0.4366103548138136  0.3766134805583238
  0.5105439331712192  0.5612497338963428  0.5988222341568490
  0.9960773367269268  0.0726383779361445  0.8593690191752386
  0.4972312697337060  0.9249591400179747  0.1133425242906244
  0.1416135979690146  0.5732281112911345  0.6150747687081943
  0.6409885593660807  0.4244530778292505  0.3604865831460749
  0.1252244550981632  0.5673967461763237  0.1101475037786403
  0.0656081134174419  0.0801754939182807  0.3656870630959379
  0.6268332523059270  0.4323233016718100  0.8644155967374550
  0.5182332908758571  0.9284432711108547  0.6116123145952931
 
             NaN             NaN             NaN
             NaN             NaN             NaN
             NaN             NaN             NaN
             NaN             NaN             NaN
             NaN             NaN             NaN
             NaN             NaN             NaN
             NaN             NaN             NaN
             NaN             NaN             NaN
             NaN             NaN             NaN
             NaN             NaN             NaN
             NaN             NaN             NaN
             NaN             NaN             NaN
             NaN             NaN             NaN
             NaN             NaN             NaN
             NaN             NaN             NaN
             NaN             NaN             NaN
