O    Ga   Li
1.0
  -5.49104107134783 -0.0002296446890312 -4.254846412e-07
  -0.0002929829273961 -6.511602648484185 0.0086485716456651
  0.0063004056522407 -7.1383354094e-06 5.09019994083352
 O  Ga  Li 
8 4 4 
direct
   -0.9286780807497667   0.0979843334241514  -0.1382954071559268
   -0.0678529999932977   0.8766593917209663  -0.6385246161974524
   -0.9147065520314492   0.6243347050332069  -0.1127561638303902
   -0.4058466069339535   0.8560807791257790  -0.1121685678470611
   -0.0925404204362604   0.3445537211245520  -0.6159734322229685
   -0.5926458239192629   0.1251829878033263  -0.6155114075923794
   -0.4270492935912444   0.3706184842638143  -0.1340583697827345
   -0.5713098521057024   0.6028285424918283  -0.6022431934917537
   -0.0794789498190500   0.8630092981450207  -0.0052676931492696
   -0.9167580878471582   0.1126826786604770  -0.5068276961593753
   -0.5815451761763142   0.6168369599762574  -0.0652366187093809
   -0.4184630119377983   0.3597919075325278  -0.5126278911543445
   -0.5834620397334959   0.1136385325668094  -0.0077762112430969
   -0.0810690620741981   0.3602888835673675  -0.0087166608047132
   -0.4158283982485757   0.8661361881919631  -0.5269777360269043
   -0.9228402247769292   0.6089927771806146  -0.5272577548735160
