O    Ga   Li
1.0
  -5.470921028371929 0.0012896393125425 -4.1050668201e-06
  0.0016311150318068 -6.475458336020151 -0.008076189892245
  0.0073131723273643 4.4851484986e-06 5.08996914639792
 O  Ga  Li 
8 4 4 
direct
   -0.9310956160259504   0.1003671465280140  -0.0000754996012763
   -0.0692332617120744   0.8752366803483743  -0.5005147407715476
   -0.9073196206504417   0.6261997792617877  -0.0242368047570116
   -0.4070794528350968   0.8476088533662409  -0.0239912842406152
   -0.0925732283746819   0.3507622624373084  -0.5240717044522961
   -0.5912473675158795   0.1253195732852587  -0.5239687965699676
   -0.4317591519040088   0.3751634993668259  -0.0008736441788685
   -0.5697282878775212   0.5992545425331330  -0.5015116468936730
   -0.0809797644066649   0.8616899959787677  -0.1313824627163088
   -0.9188473484440761   0.1144061486606486  -0.6280493285833817
   -0.5817861754041329   0.6129270066358821  -0.1332098730925487
   -0.4190318021449700   0.3613431965497797  -0.6324191935811658
   -0.5807228261786622   0.1105110011699183  -0.1236079451834028
   -0.0826724644059424   0.3641266233464022  -0.1238065899344861
   -0.4182527902201572   0.8619618304786827  -0.6290097763023148
   -0.9177454049786002   0.6127419745726363  -0.6294694276614223
