O    Ga   Li                            
   1.00000000000000     
    -0.0013552398210449    0.0000003245689806   -5.0900646475436799
     5.5033440690390423   -0.0062486009093980    0.0000025824810909
     0.0034350296438113   -6.5629651371590425    0.0056763857148255
   O    Ga   Li
     8     4     4
Direct
  0.1233334500030818  0.9330343862009244  0.0953842558210435
  0.6247725574853376  0.0642678776213581  0.8776884992235312
  0.0763944007353901  0.9086478678535057  0.6224739992586464
  0.0330087231903967  0.4119757429373643  0.8488628921293857
  0.5444356512079822  0.0956677452669005  0.3529147955753763
  0.5348772513119289  0.5869027363903463  0.1260979153331699
  0.0072402579162571  0.4329006520258615  0.3773432626703690
  0.5080885331152588  0.5639084433258633  0.5982015503927952
  0.9952564045663507  0.0733239060017047  0.8601161223923350
  0.4952252577236855  0.9241528552797758  0.1123911750360412
  0.1389481181636645  0.5750705128046737  0.6146006155241178
  0.6394271014150730  0.4226237500923398  0.3609690246645203
  0.1223666414636389  0.5672013695127064  0.1103491388262189
  0.1069834416742275  0.0873144035104121  0.3684691688625204
  0.6244317768336071  0.4324000109027233  0.8646190007813359
  0.5554298520052838  0.9206823206476134  0.6091387543161662
 
             NaN             NaN             NaN
             NaN             NaN             NaN
             NaN             NaN             NaN
             NaN             NaN             NaN
             NaN             NaN             NaN
             NaN             NaN             NaN
             NaN             NaN             NaN
             NaN             NaN             NaN
             NaN             NaN             NaN
             NaN             NaN             NaN
             NaN             NaN             NaN
             NaN             NaN             NaN
             NaN             NaN             NaN
             NaN             NaN             NaN
             NaN             NaN             NaN
             NaN             NaN             NaN
