O    Ga   Li
   1.00000000000000     
  -0.0000000392740336   0.0000083407647792  -5.0902238161199600
   5.4652894397989105   0.0000032444986452   0.0000000448382089
  -0.0000038332758374  -6.4507254070081403   0.0000105665093613
O    Ga   Li
8  4  4  
Direct
  0.1496688535171060  0.9311637514263538  0.1001781812112768  
  0.6496688763633074  0.0688363108158043  0.8748227964976749  
  0.1268128563209103  0.9077319878705056  0.6255538920473001  
  0.1268139378851671  0.4077304340995198  0.8494469787170047  
  0.6268137965421730  0.0922691429147946  0.3494468868290923  
  0.6268124418903156  0.5922679911066169  0.1255534772348454  
  0.1496687264755607  0.4311638452813185  0.3748228683495398  
  0.6496687769582223  0.5688362430494962  0.6001779653785633  
  0.0179815246573085  0.0816559896020976  0.8614244345682209  
  0.5179796230807199  0.9183407401198380  0.1135784883166835  
  0.0179812631587382  0.5816576798635751  0.6135761286012809  
  0.5179808231058942  0.4183456176385008  0.3614255561784034  
  0.0222021859809232  0.5824267946421955  0.1118018413269226  
  0.0222031327571486  0.0824270664416602  0.3631947197139382  
  0.5222032126472200  0.4175729144153095  0.8631942387713210  
  0.5222023848898303  0.9175734907124138  0.6118015462579152  
