O    Ga   Li
1.0
  -5.49471756521499 -0.0004672112060868 -3.7244203878e-06
  -0.0004512866989297 -6.517105300689109 -0.0083825214009921
  0.0060075241266377 3.2827191288e-06 5.08999302168436
 O  Ga  Li 
8 4 4 
direct
   -0.9280775005791686   0.1035010487254595  -0.0624986562561761
   -0.0740338895152332   0.8691048050507977  -0.5101797976013104
   -0.9072438312185986   0.6250181444303013  -0.0257893373100195
   -0.4076842794527725   0.8442783472896150  -0.0253274113650669
   -0.0945088895431309   0.3573332765621242  -0.5311224190562064
   -0.5839516165872960   0.1241373775672230  -0.5303463636844117
   -0.4321851749755882   0.3768565229726013  -0.0030539305397749
   -0.5715098887969012   0.5977995295506013  -0.5030103722755405
   -0.0824201128627886   0.8582423654998885  -0.1286698841614918
   -0.9181042738026766   0.1178247525835638  -0.5466698630906038
   -0.5833800190291348   0.6126583616980463  -0.1345312555274579
   -0.4207804657044423   0.3631538958225861  -0.6365410857356396
   -0.5760280220333802   0.1088208120121803  -0.1126858980601132
   -0.0847585931177668   0.3669217858179181  -0.1127843226618888
   -0.4189663462840419   0.8602364964624033  -0.6329686394120165
   -0.9164416768723215   0.6137326487591406  -0.6340401820216238
