Al   Gd   N                             
   1.00000000000000     
    -9.9480492184829412   -0.0790325480460408    0.0128581451721158
    -4.9281341674963031    8.5357160133920615    0.0133131067327643
     0.0273026911706488   -0.0230493886383544  -10.5982451483793430
   Al   Gd   N 
    28     8    36
Direct
  0.1272441160083631  0.0849928293944942  0.3854766094044919
  0.2154471558664568  0.2132944169426949  0.1442240920865032
  0.5399177816354737  0.2194180294611954  0.1371052532701569
  0.1191964928455249  0.0925063737908545  0.9001269200267217
  0.2256132106159257  0.1999901522809324  0.6471810151559723
  0.7939580784242537  0.0896654557766681  0.2970378214250644
  0.9037615842008790  0.2001198851566883  0.0839377929647682
  0.4161185926720350  0.1176351515692602  0.8953848180994513
  0.5279600516130074  0.2184527627176749  0.6605877041647261
  0.1286224057310577  0.4196337423504204  0.3900299967135723
  0.2195164247644570  0.5323363273211683  0.1277872850051551
  0.4578584626629265  0.4262021556565969  0.4005153082858044
  0.1141108082257389  0.4256802583128234  0.8934634267771884
  0.2324672405015278  0.5269374322785723  0.6330781765403444
  0.8044284619061273  0.4180370868748540  0.3135064519685997
  0.9055311523032827  0.5345640378537695  0.0765542057809938
  0.4095843364514451  0.4429624474415945  0.8911330733577785
  0.5232562872415372  0.5547891373990268  0.6520058970600999
  0.1216772215538882  0.7537384921731700  0.3190143762637447
  0.2207082244566720  0.8814500382995476  0.1458197789628173
  0.7861442034786705  0.7588137369305485  0.8392986335005475
  0.4631115687587410  0.7506287709232780  0.4058236716852477
  0.1136041400437975  0.7564234775005474  0.8201951162054328
  0.2282325460827224  0.8781685723314681  0.6415901511106554
  0.8028279993963423  0.7425549663706121  0.3083978893907897
  0.9156962139960783  0.8516589652756039  0.0750672455641350
  0.4090340732968372  0.7769105971377712  0.8905149727788952
  0.5374674224060954  0.8816659484500207  0.6708214822909824
  0.7630217871320326  0.0943137054148409  0.8649868175003093
  0.8665105199067540  0.2164648339892992  0.5713514882244368
  0.4583663452705764  0.0875588987121461  0.3963414500850533
  0.7504501106619017  0.4453371711591672  0.8641564751194935
  0.8781555073681417  0.5433177414632979  0.5874670946245288
  0.5365252613127254  0.5456201039317747  0.1486025726537790
  0.8839757217255553  0.8740718961839917  0.5716997333447367
  0.5610033641036480  0.8727043950864655  0.1072241097247115
  0.2088689322099384  0.2127805447160682  0.3235191273375477
  0.1246406479625719  0.0899326462949190  0.0875296354980861
  0.9069240109900107  0.1993822767429378  0.9020731049103290
  0.7433620760410165  0.1069295534335382  0.6470434234631242
  0.5723543160790996  0.2232683621025444  0.3162263672470331
  0.4232853917328896  0.1272859912859872  0.0811824886773920
  0.2075782445007022  0.2111863215417173  0.8326377786905397
  0.1361767759432624  0.0831734424807919  0.5711338388318623
  0.9024796924586553  0.1961842254570527  0.3502580335719756
  0.7836404294061765  0.0871001708105439  0.1127122716828879
  0.5017975963492276  0.2361155881923978  0.8366491651932009
  0.4417215114742774  0.0900938748236939  0.6116580215571474
  0.2378638951718486  0.5295158556398789  0.3383124519781617
  0.1205714581711348  0.4194091005332723  0.0791147847136457
  0.8956744464275062  0.5520527687816923  0.8912741717441222
  0.7391171405852575  0.4464571375816959  0.6535787366011050
  0.5729568492590786  0.5313460888722545  0.3616581096106586
  0.4248029234211188  0.4209155683894892  0.0699870988344458
  0.2067825229586546  0.5385463382311286  0.8349925596910737
  0.1457760624236570  0.4046310151273005  0.5752612460005366
  0.9048124640326733  0.5319671263068528  0.3687451401023338
  0.8027785293699665  0.4203647804659596  0.1274912060256810
  0.4876434468652633  0.5716483685576534  0.8324993705754906
  0.4444542867536754  0.4237276070345146  0.5827699242134798
  0.2413474980350827  0.8658116597838657  0.3319480931452503
  0.1207471973006804  0.7567871621594691  0.1344026482559499
  0.9132504071580456  0.8403582786819541  0.8938640022750874
  0.7519644859811692  0.7780904470584034  0.6646434407860156
  0.5821010442399128  0.8362995593714544  0.3320131879391823
  0.4078747371657272  0.7768214031897145  0.0650948684758461
  0.2076045518446747  0.8922042951206777  0.8257545859424127
  0.1343783693468694  0.7482326838717697  0.6348549246552508
  0.8968297345141849  0.8721040282625481  0.3547942533138411
  0.8226591522728981  0.7381363398331544  0.1314272787140283
  0.5391946391565270  0.8830967196908048  0.8602030635445601
  0.4426794029326189  0.7674691879495938  0.5910483042719079
 
  0.00000000E+00  0.00000000E+00  0.00000000E+00
  0.00000000E+00  0.00000000E+00  0.00000000E+00
  0.00000000E+00  0.00000000E+00  0.00000000E+00
  0.00000000E+00  0.00000000E+00  0.00000000E+00
  0.00000000E+00  0.00000000E+00  0.00000000E+00
  0.00000000E+00  0.00000000E+00  0.00000000E+00
  0.00000000E+00  0.00000000E+00  0.00000000E+00
  0.00000000E+00  0.00000000E+00  0.00000000E+00
  0.00000000E+00  0.00000000E+00  0.00000000E+00
  0.00000000E+00  0.00000000E+00  0.00000000E+00
  0.00000000E+00  0.00000000E+00  0.00000000E+00
  0.00000000E+00  0.00000000E+00  0.00000000E+00
  0.00000000E+00  0.00000000E+00  0.00000000E+00
  0.00000000E+00  0.00000000E+00  0.00000000E+00
  0.00000000E+00  0.00000000E+00  0.00000000E+00
  0.00000000E+00  0.00000000E+00  0.00000000E+00
  0.00000000E+00  0.00000000E+00  0.00000000E+00
  0.00000000E+00  0.00000000E+00  0.00000000E+00
  0.00000000E+00  0.00000000E+00  0.00000000E+00
  0.00000000E+00  0.00000000E+00  0.00000000E+00
  0.00000000E+00  0.00000000E+00  0.00000000E+00
  0.00000000E+00  0.00000000E+00  0.00000000E+00
  0.00000000E+00  0.00000000E+00  0.00000000E+00
  0.00000000E+00  0.00000000E+00  0.00000000E+00
  0.00000000E+00  0.00000000E+00  0.00000000E+00
  0.00000000E+00  0.00000000E+00  0.00000000E+00
  0.00000000E+00  0.00000000E+00  0.00000000E+00
  0.00000000E+00  0.00000000E+00  0.00000000E+00
  0.00000000E+00  0.00000000E+00  0.00000000E+00
  0.00000000E+00  0.00000000E+00  0.00000000E+00
  0.00000000E+00  0.00000000E+00  0.00000000E+00
  0.00000000E+00  0.00000000E+00  0.00000000E+00
  0.00000000E+00  0.00000000E+00  0.00000000E+00
  0.00000000E+00  0.00000000E+00  0.00000000E+00
  0.00000000E+00  0.00000000E+00  0.00000000E+00
  0.00000000E+00  0.00000000E+00  0.00000000E+00
  0.00000000E+00  0.00000000E+00  0.00000000E+00
  0.00000000E+00  0.00000000E+00  0.00000000E+00
  0.00000000E+00  0.00000000E+00  0.00000000E+00
  0.00000000E+00  0.00000000E+00  0.00000000E+00
  0.00000000E+00  0.00000000E+00  0.00000000E+00
  0.00000000E+00  0.00000000E+00  0.00000000E+00
  0.00000000E+00  0.00000000E+00  0.00000000E+00
  0.00000000E+00  0.00000000E+00  0.00000000E+00
  0.00000000E+00  0.00000000E+00  0.00000000E+00
  0.00000000E+00  0.00000000E+00  0.00000000E+00
  0.00000000E+00  0.00000000E+00  0.00000000E+00
  0.00000000E+00  0.00000000E+00  0.00000000E+00
  0.00000000E+00  0.00000000E+00  0.00000000E+00
  0.00000000E+00  0.00000000E+00  0.00000000E+00
  0.00000000E+00  0.00000000E+00  0.00000000E+00
  0.00000000E+00  0.00000000E+00  0.00000000E+00
  0.00000000E+00  0.00000000E+00  0.00000000E+00
  0.00000000E+00  0.00000000E+00  0.00000000E+00
  0.00000000E+00  0.00000000E+00  0.00000000E+00
  0.00000000E+00  0.00000000E+00  0.00000000E+00
  0.00000000E+00  0.00000000E+00  0.00000000E+00
  0.00000000E+00  0.00000000E+00  0.00000000E+00
  0.00000000E+00  0.00000000E+00  0.00000000E+00
  0.00000000E+00  0.00000000E+00  0.00000000E+00
  0.00000000E+00  0.00000000E+00  0.00000000E+00
  0.00000000E+00  0.00000000E+00  0.00000000E+00
  0.00000000E+00  0.00000000E+00  0.00000000E+00
  0.00000000E+00  0.00000000E+00  0.00000000E+00
  0.00000000E+00  0.00000000E+00  0.00000000E+00
  0.00000000E+00  0.00000000E+00  0.00000000E+00
  0.00000000E+00  0.00000000E+00  0.00000000E+00
  0.00000000E+00  0.00000000E+00  0.00000000E+00
  0.00000000E+00  0.00000000E+00  0.00000000E+00
  0.00000000E+00  0.00000000E+00  0.00000000E+00
  0.00000000E+00  0.00000000E+00  0.00000000E+00
  0.00000000E+00  0.00000000E+00  0.00000000E+00
