Al   Gd   N                             
   1.00000000000000     
   -10.0098311790525702   -0.0758631087152596    0.0103642147745472
    -4.8971773354494479    8.5650639493384055    0.0101883388358251
     0.0927307689935748    0.0254191676989612  -10.4478006456828538
   Al   Gd   N 
    28     8    36
Direct
  0.1264245781354987  0.0865474231954906  0.3889026687156942
  0.2133218769958916  0.2143603796817359  0.1417608798388414
  0.5355016632003142  0.2220118803146818  0.1394961289188146
  0.1140987245926937  0.0939770183992437  0.8927131105736663
  0.2288799040511549  0.1990573268249349  0.6492893986865553
  0.7859706339372750  0.0879692562772334  0.3063670091176576
  0.9095635143873650  0.1980408052488869  0.1412218949894921
  0.4185305141808158  0.1166925314827409  0.8965433586670173
  0.5270041286681604  0.2205188882404343  0.6626804560968935
  0.1255687890839354  0.4192339929030666  0.3935731412322099
  0.2201578843167198  0.5300978552640103  0.1475972839670305
  0.4548912232442888  0.4271589345539439  0.4027418099422064
  0.1182468624454884  0.4254832396313120  0.8945501838320240
  0.2319073531783502  0.5265404585847904  0.6418832590071943
  0.7941928359919075  0.4276564910603895  0.3234007126823997
  0.9090505350913531  0.5339176113494730  0.0781732227180427
  0.4079540612827657  0.4432928640748770  0.8954977809125282
  0.5225398413497260  0.5547713866439565  0.6561988018552185
  0.1191024410310391  0.7586487715670032  0.3252054539445624
  0.2178533247313084  0.8826899426832213  0.1457506412829090
  0.7867574965012167  0.7581731348315728  0.8426963163442593
  0.4617433367082171  0.7514491029933765  0.4068529144318092
  0.1149263700962280  0.7582073375766427  0.8202341255001073
  0.2308477783533718  0.8764830186766517  0.6406972682010945
  0.8012058797208823  0.7423828482569732  0.3130749880897170
  0.9187479161646550  0.8488544124629982  0.0785310045210537
  0.4122999219161869  0.7758562186773617  0.8929236095514455
  0.5383718511311670  0.8805561526002705  0.6722958785930544
  0.7659744834757376  0.0956084817244260  0.8721767930058775
  0.8787850510111923  0.2099111930129567  0.6054229453168887
  0.4526245498087533  0.0880113777885327  0.3979563368800001
  0.7582193202149696  0.4351963557512519  0.8704298971967006
  0.8827908536621862  0.5403092930448281  0.5991799825350768
  0.5377995209950299  0.5461235514381713  0.1418593586213106
  0.8808690111762161  0.8754024214280207  0.5768443882487020
  0.5622744406646945  0.8731962172230894  0.1087302797073804
  0.2037968561514205  0.2150322873949477  0.3227049872895833
  0.1133322385444444  0.0947575872353639  0.0827580704955437
  0.9169808685848437  0.1907456084939056  0.8310285894751104
  0.7366197153952569  0.1079119589795994  0.6453055614625995
  0.5690205873944549  0.2225432690571907  0.3208931806826527
  0.4215467180452919  0.1268167711038757  0.0852292163671322
  0.2116442035650365  0.2104376472531584  0.8366814838151981
  0.1444439833868287  0.0805596146898964  0.5707313452477081
  0.9032216851159305  0.1958545960705038  0.3368918054591035
  0.7844624331654018  0.0900169595034725  0.1158363919483136
  0.5047414306148994  0.2364078260166309  0.8422146700188975
  0.4421658995806297  0.0900587023521311  0.6156150602319599
  0.2344475564093429  0.5288152201277327  0.3354979736697601
  0.1219181065890851  0.4220308021145840  0.0816001237876165
  0.9000512520037205  0.5479745695762475  0.8884766345763353
  0.7332843231251900  0.4522521843174729  0.6523401383392482
  0.5671634759925652  0.5338444202875365  0.3585629052461883
  0.4179773707031842  0.4241472804229574  0.0767940668368396
  0.2093576396035743  0.5369994353762166  0.8280624428426435
  0.1490885612278987  0.4028106055505489  0.5776386072227808
  0.9020689919266118  0.5332632254827843  0.3753760240404915
  0.8049410438680624  0.4205259239877108  0.1278666355924756
  0.4938895216062278  0.5672990704086800  0.8421185805118796
  0.4395178449690818  0.4278014301796915  0.5860818102968466
  0.2388284805221872  0.8693360744576850  0.3345209591642870
  0.1205514984132350  0.7570527560053648  0.1384304875766986
  0.9159972783292716  0.8396158056558818  0.8941428576446739
  0.7502346558588613  0.7774446148566909  0.6660653927675426
  0.5824965906551824  0.8363550765401726  0.3357765787065432
  0.4052434746677491  0.7826714311673868  0.0700440034319740
  0.2136952539114532  0.8875109916778783  0.8277251078004468
  0.1337575061780569  0.7500515203925886  0.6319069453287725
  0.8949532539172864  0.8720086517215080  0.3578235547490252
  0.8232144078512533  0.7372332945576403  0.1329708137222525
  0.5423643240764733  0.8815816447180538  0.8640677759627522
  0.4427463209309153  0.7665862602445159  0.5937145608030647
 
  0.00000000E+00  0.00000000E+00  0.00000000E+00
  0.00000000E+00  0.00000000E+00  0.00000000E+00
  0.00000000E+00  0.00000000E+00  0.00000000E+00
  0.00000000E+00  0.00000000E+00  0.00000000E+00
  0.00000000E+00  0.00000000E+00  0.00000000E+00
  0.00000000E+00  0.00000000E+00  0.00000000E+00
  0.00000000E+00  0.00000000E+00  0.00000000E+00
  0.00000000E+00  0.00000000E+00  0.00000000E+00
  0.00000000E+00  0.00000000E+00  0.00000000E+00
  0.00000000E+00  0.00000000E+00  0.00000000E+00
  0.00000000E+00  0.00000000E+00  0.00000000E+00
  0.00000000E+00  0.00000000E+00  0.00000000E+00
  0.00000000E+00  0.00000000E+00  0.00000000E+00
  0.00000000E+00  0.00000000E+00  0.00000000E+00
  0.00000000E+00  0.00000000E+00  0.00000000E+00
  0.00000000E+00  0.00000000E+00  0.00000000E+00
  0.00000000E+00  0.00000000E+00  0.00000000E+00
  0.00000000E+00  0.00000000E+00  0.00000000E+00
  0.00000000E+00  0.00000000E+00  0.00000000E+00
  0.00000000E+00  0.00000000E+00  0.00000000E+00
  0.00000000E+00  0.00000000E+00  0.00000000E+00
  0.00000000E+00  0.00000000E+00  0.00000000E+00
  0.00000000E+00  0.00000000E+00  0.00000000E+00
  0.00000000E+00  0.00000000E+00  0.00000000E+00
  0.00000000E+00  0.00000000E+00  0.00000000E+00
  0.00000000E+00  0.00000000E+00  0.00000000E+00
  0.00000000E+00  0.00000000E+00  0.00000000E+00
  0.00000000E+00  0.00000000E+00  0.00000000E+00
  0.00000000E+00  0.00000000E+00  0.00000000E+00
  0.00000000E+00  0.00000000E+00  0.00000000E+00
  0.00000000E+00  0.00000000E+00  0.00000000E+00
  0.00000000E+00  0.00000000E+00  0.00000000E+00
  0.00000000E+00  0.00000000E+00  0.00000000E+00
  0.00000000E+00  0.00000000E+00  0.00000000E+00
  0.00000000E+00  0.00000000E+00  0.00000000E+00
  0.00000000E+00  0.00000000E+00  0.00000000E+00
  0.00000000E+00  0.00000000E+00  0.00000000E+00
  0.00000000E+00  0.00000000E+00  0.00000000E+00
  0.00000000E+00  0.00000000E+00  0.00000000E+00
  0.00000000E+00  0.00000000E+00  0.00000000E+00
  0.00000000E+00  0.00000000E+00  0.00000000E+00
  0.00000000E+00  0.00000000E+00  0.00000000E+00
  0.00000000E+00  0.00000000E+00  0.00000000E+00
  0.00000000E+00  0.00000000E+00  0.00000000E+00
  0.00000000E+00  0.00000000E+00  0.00000000E+00
  0.00000000E+00  0.00000000E+00  0.00000000E+00
  0.00000000E+00  0.00000000E+00  0.00000000E+00
  0.00000000E+00  0.00000000E+00  0.00000000E+00
  0.00000000E+00  0.00000000E+00  0.00000000E+00
  0.00000000E+00  0.00000000E+00  0.00000000E+00
  0.00000000E+00  0.00000000E+00  0.00000000E+00
  0.00000000E+00  0.00000000E+00  0.00000000E+00
  0.00000000E+00  0.00000000E+00  0.00000000E+00
  0.00000000E+00  0.00000000E+00  0.00000000E+00
  0.00000000E+00  0.00000000E+00  0.00000000E+00
  0.00000000E+00  0.00000000E+00  0.00000000E+00
  0.00000000E+00  0.00000000E+00  0.00000000E+00
  0.00000000E+00  0.00000000E+00  0.00000000E+00
  0.00000000E+00  0.00000000E+00  0.00000000E+00
  0.00000000E+00  0.00000000E+00  0.00000000E+00
  0.00000000E+00  0.00000000E+00  0.00000000E+00
  0.00000000E+00  0.00000000E+00  0.00000000E+00
  0.00000000E+00  0.00000000E+00  0.00000000E+00
  0.00000000E+00  0.00000000E+00  0.00000000E+00
  0.00000000E+00  0.00000000E+00  0.00000000E+00
  0.00000000E+00  0.00000000E+00  0.00000000E+00
  0.00000000E+00  0.00000000E+00  0.00000000E+00
  0.00000000E+00  0.00000000E+00  0.00000000E+00
  0.00000000E+00  0.00000000E+00  0.00000000E+00
  0.00000000E+00  0.00000000E+00  0.00000000E+00
  0.00000000E+00  0.00000000E+00  0.00000000E+00
  0.00000000E+00  0.00000000E+00  0.00000000E+00
