Al   Gd   N                             
   1.00000000000000     
   -10.0396909779281600   -0.0754925472006222    0.0082134982509418
    -4.8894650498200178    8.5751143070972926    0.0096676031530505
     0.1188830660074753    0.0473444675450458  -10.3786291445384666
   Al   Gd   N 
    28     8    36
Direct
  0.1264958904352866  0.0871598586244815  0.3996784293251068
  0.2124898117516665  0.2148646924026991  0.1517126713429349
  0.5337029928790926  0.2232706480352959  0.1498822964874549
  0.1142622200871131  0.0925253508412212  0.9027106002914849
  0.2288655357344140  0.1990287530747139  0.6597006958922265
  0.7854663426678528  0.0886017931985350  0.3174721994171179
  0.9101077418645716  0.1976630970347060  0.1514752431765274
  0.4176739302655292  0.1168575584069274  0.9072125056956608
  0.5260699222812519  0.2210972366518646  0.6729928112508858
  0.1253487724048696  0.4191178312477746  0.4042825527819929
  0.2192082596676599  0.5320626275240983  0.1598224077406769
  0.4559622549374467  0.4269575508774395  0.4127581918742962
  0.1189114632699599  0.4262315505253582  0.9040615327684520
  0.2324741605235801  0.5273248311224989  0.6492395121686130
  0.7943822372231395  0.4281165180825894  0.3337982969171804
  0.9098883251893639  0.5340945019629828  0.0885609257144395
  0.4072309634663611  0.4440459853450349  0.9055287752787464
  0.5242820849828931  0.5539545525638019  0.6665617877811059
  0.1198570670274179  0.7583683662426068  0.3418432168377024
  0.2171722159974934  0.8818340872224155  0.1581712062508416
  0.7861941289086545  0.7586228549962115  0.8541715653655686
  0.4628352361338770  0.7509734031172570  0.4170903276924989
  0.1138069197664109  0.7589556869395366  0.8293024542954939
  0.2311101026496303  0.8757303572280080  0.6482837536876715
  0.8007704121807038  0.7427748473671087  0.3239447837219345
  0.9181011726290222  0.8498507246224563  0.0908479413462970
  0.4114279334709536  0.7754098673371885  0.9028585466087762
  0.5377368088560956  0.8807240570578543  0.6824635812965312
  0.7648321186264084  0.0964315729480845  0.8833471067183254
  0.8785384013974991  0.2095709752389183  0.6145442441763365
  0.4522046900576839  0.0884536559733036  0.4070975517019377
  0.7603526620334193  0.4338619679664859  0.8811515339551477
  0.8842946806693064  0.5401872383751467  0.6118027340923220
  0.5391199659042343  0.5451135382119361  0.1495026454339836
  0.8783847648358289  0.8768539412389487  0.5886757963886424
  0.5608825176503416  0.8729686412709512  0.1191391325743822
  0.2031495123596940  0.2155325334259430  0.3334365480296242
  0.1134756127751544  0.0938544970895734  0.0938279989598030
  0.9171139930604326  0.1895441606380786  0.8419862735793302
  0.7347355584715629  0.1097698705570025  0.6553859333993373
  0.5694285602512963  0.2227083935443801  0.3318438264807284
  0.4207943051264564  0.1267332684152720  0.0972006883115739
  0.2112309716651026  0.2103137651376201  0.8478784107905994
  0.1438248841455660  0.0812409196503410  0.5820958443355977
  0.9031581079312545  0.1960960198238055  0.3481236455570027
  0.7842872593211325  0.0905448569738212  0.1263972237372357
  0.5035897601947994  0.2368764293634555  0.8536630052400653
  0.4413836594918763  0.0904634617946485  0.6259094911323544
  0.2351306821442449  0.5282840289794564  0.3483135602427154
  0.1219575652543696  0.4232405331529918  0.0923311391506374
  0.9013949584358514  0.5475076947447448  0.8968253350166506
  0.7343177909391656  0.4517693404062086  0.6612712330460937
  0.5675783955849241  0.5339290920900410  0.3677760192884421
  0.4157756695762203  0.4256783584120711  0.0881175701495280
  0.2093447369415031  0.5385831992663697  0.8367974957992814
  0.1495178926444822  0.4026597930167810  0.5887376943394855
  0.9025101693449429  0.5334130352332522  0.3857594840820866
  0.8062744611445893  0.4200326283736615  0.1372360714105483
  0.4963911940805090  0.5657936359529145  0.8540851637497369
  0.4402758991267106  0.4280899573845858  0.5968012283552255
  0.2395102232566089  0.8694458800700033  0.3475225166622664
  0.1187962373915923  0.7580126269743275  0.1521945296035483
  0.9157424568214623  0.8403697368931446  0.9039589683931197
  0.7485332032948406  0.7778412640081953  0.6765023314874270
  0.5831201340083680  0.8363020746511367  0.3471789067035971
  0.4033019340462118  0.7828145476394965  0.0812580485128436
  0.2133052447718669  0.8859874337688964  0.8366319228901276
  0.1336837510833035  0.7501861967387953  0.6356928324915856
  0.8938604029679666  0.8725787587395715  0.3689622880936554
  0.8214745905412855  0.7380627534733861  0.1421029500900133
  0.5409756309356553  0.8818612697479367  0.8749927049392241
  0.4431286650429982  0.7660449036452661  0.6046058522216313
 
  0.00000000E+00  0.00000000E+00  0.00000000E+00
  0.00000000E+00  0.00000000E+00  0.00000000E+00
  0.00000000E+00  0.00000000E+00  0.00000000E+00
  0.00000000E+00  0.00000000E+00  0.00000000E+00
  0.00000000E+00  0.00000000E+00  0.00000000E+00
  0.00000000E+00  0.00000000E+00  0.00000000E+00
  0.00000000E+00  0.00000000E+00  0.00000000E+00
  0.00000000E+00  0.00000000E+00  0.00000000E+00
  0.00000000E+00  0.00000000E+00  0.00000000E+00
  0.00000000E+00  0.00000000E+00  0.00000000E+00
  0.00000000E+00  0.00000000E+00  0.00000000E+00
  0.00000000E+00  0.00000000E+00  0.00000000E+00
  0.00000000E+00  0.00000000E+00  0.00000000E+00
  0.00000000E+00  0.00000000E+00  0.00000000E+00
  0.00000000E+00  0.00000000E+00  0.00000000E+00
  0.00000000E+00  0.00000000E+00  0.00000000E+00
  0.00000000E+00  0.00000000E+00  0.00000000E+00
  0.00000000E+00  0.00000000E+00  0.00000000E+00
  0.00000000E+00  0.00000000E+00  0.00000000E+00
  0.00000000E+00  0.00000000E+00  0.00000000E+00
  0.00000000E+00  0.00000000E+00  0.00000000E+00
  0.00000000E+00  0.00000000E+00  0.00000000E+00
  0.00000000E+00  0.00000000E+00  0.00000000E+00
  0.00000000E+00  0.00000000E+00  0.00000000E+00
  0.00000000E+00  0.00000000E+00  0.00000000E+00
  0.00000000E+00  0.00000000E+00  0.00000000E+00
  0.00000000E+00  0.00000000E+00  0.00000000E+00
  0.00000000E+00  0.00000000E+00  0.00000000E+00
  0.00000000E+00  0.00000000E+00  0.00000000E+00
  0.00000000E+00  0.00000000E+00  0.00000000E+00
  0.00000000E+00  0.00000000E+00  0.00000000E+00
  0.00000000E+00  0.00000000E+00  0.00000000E+00
  0.00000000E+00  0.00000000E+00  0.00000000E+00
  0.00000000E+00  0.00000000E+00  0.00000000E+00
  0.00000000E+00  0.00000000E+00  0.00000000E+00
  0.00000000E+00  0.00000000E+00  0.00000000E+00
  0.00000000E+00  0.00000000E+00  0.00000000E+00
  0.00000000E+00  0.00000000E+00  0.00000000E+00
  0.00000000E+00  0.00000000E+00  0.00000000E+00
  0.00000000E+00  0.00000000E+00  0.00000000E+00
  0.00000000E+00  0.00000000E+00  0.00000000E+00
  0.00000000E+00  0.00000000E+00  0.00000000E+00
  0.00000000E+00  0.00000000E+00  0.00000000E+00
  0.00000000E+00  0.00000000E+00  0.00000000E+00
  0.00000000E+00  0.00000000E+00  0.00000000E+00
  0.00000000E+00  0.00000000E+00  0.00000000E+00
  0.00000000E+00  0.00000000E+00  0.00000000E+00
  0.00000000E+00  0.00000000E+00  0.00000000E+00
  0.00000000E+00  0.00000000E+00  0.00000000E+00
  0.00000000E+00  0.00000000E+00  0.00000000E+00
  0.00000000E+00  0.00000000E+00  0.00000000E+00
  0.00000000E+00  0.00000000E+00  0.00000000E+00
  0.00000000E+00  0.00000000E+00  0.00000000E+00
  0.00000000E+00  0.00000000E+00  0.00000000E+00
  0.00000000E+00  0.00000000E+00  0.00000000E+00
  0.00000000E+00  0.00000000E+00  0.00000000E+00
  0.00000000E+00  0.00000000E+00  0.00000000E+00
  0.00000000E+00  0.00000000E+00  0.00000000E+00
  0.00000000E+00  0.00000000E+00  0.00000000E+00
  0.00000000E+00  0.00000000E+00  0.00000000E+00
  0.00000000E+00  0.00000000E+00  0.00000000E+00
  0.00000000E+00  0.00000000E+00  0.00000000E+00
  0.00000000E+00  0.00000000E+00  0.00000000E+00
  0.00000000E+00  0.00000000E+00  0.00000000E+00
  0.00000000E+00  0.00000000E+00  0.00000000E+00
  0.00000000E+00  0.00000000E+00  0.00000000E+00
  0.00000000E+00  0.00000000E+00  0.00000000E+00
  0.00000000E+00  0.00000000E+00  0.00000000E+00
  0.00000000E+00  0.00000000E+00  0.00000000E+00
  0.00000000E+00  0.00000000E+00  0.00000000E+00
  0.00000000E+00  0.00000000E+00  0.00000000E+00
  0.00000000E+00  0.00000000E+00  0.00000000E+00
