Al   Gd   N                             
   1.00000000000000     
   -10.0098347416737354   -0.0756870287524384    0.0102256630857934
    -4.8970252002182519    8.5651512826901559    0.0100147406193284
     0.0928788714078098    0.0252930689804633  -10.4477957781938464
   Al   Gd   N 
    28     8    36
Direct
  0.1264077163626425  0.0865624612414351  0.3899811785106522
  0.2133046904500873  0.2143764427634736  0.1428413652517619
  0.5354837401259758  0.2220280042437324  0.1405745372613296
  0.1140812567149183  0.0939928289867993  0.8937929589286924
  0.2288616633430962  0.1990733319885720  0.6503697873544283
  0.7859532834231615  0.0879845194843440  0.3074446630798775
  0.9095465368652214  0.1980560946362857  0.1423013811186635
  0.4185130666738601  0.1167086263455417  0.8976224049734114
  0.5269864394395896  0.2205348636720643  0.6637578022670709
  0.1255517856073496  0.4192496698215109  0.3946529908954588
  0.2201403937320734  0.5301136575639873  0.1486766537432374
  0.4548739721825541  0.4271750355569779  0.4038201216448343
  0.1182293057337063  0.4254989334125057  0.8956287849654103
  0.2318894796296149  0.5265566381930142  0.6429637051701889
  0.7941758069478411  0.4276722987741906  0.3244776220627088
  0.9090336211693142  0.5339330071474109  0.0792530319443827
  0.4079370633755630  0.4433079465921708  0.8965758807518824
  0.5225221847786941  0.5547873546005775  0.6572801402640565
  0.1190853169791453  0.7586645486643917  0.3262857217540898
  0.2178354811852330  0.8827055807011348  0.1468297232941822
  0.7867405679857953  0.7581882767709587  0.8437760941236050
  0.4617267393436180  0.7514643346690448  0.4079338393249188
  0.1149091020495803  0.7582231383707594  0.8213144266660635
  0.2308302316709430  0.8764992390293997  0.6417787300859246
  0.8011889932671181  0.7423987142443593  0.3141523662328680
  0.9187307751820200  0.8488702022934973  0.0796086899265589
  0.4122827784401508  0.7758717076432902  0.8940055088286059
  0.5383540603404242  0.8805721760092879  0.6733775070278725
  0.7659569908108210  0.0956243616237273  0.8732546426955778
  0.8787671302357225  0.2099274220764400  0.6065002312705943
  0.4526080810407578  0.0880264464034397  0.3990361133313769
  0.7582034500639665  0.4352109825825821  0.8715088657274634
  0.8827715064483073  0.5403262811945595  0.6002574210929481
  0.5377822480722614  0.5461386248518991  0.1429377578563304
  0.8808517025570950  0.8754177633923135  0.5779236694013363
  0.5622566324942184  0.8732126630236507  0.1098099031530424
  0.2037802198935807  0.2150477446042771  0.3237852766405780
  0.1133150423567741  0.0947734683714998  0.0838378436310876
  0.9169642845635124  0.1907603497334165  0.8321065231329499
  0.7366020445781132  0.1079278408587001  0.6463831884324591
  0.5690033424756678  0.2225589906572267  0.3219716695449719
  0.4215289048803186  0.1268329917826705  0.0863081574582267
  0.2116266887275771  0.2104533091519158  0.8377613947763152
  0.1444263331646383  0.0805751953782945  0.5718106596502537
  0.9032044203367420  0.1958701445992332  0.3379705105565947
  0.7844452983698886  0.0900325646705724  0.1169145284654931
  0.5047241074177364  0.2364234221400068  0.8432923762065911
  0.4421477199941393  0.0900744360182983  0.6166948779945258
  0.2344304453352279  0.5288308504078501  0.3365773726980663
  0.1219009071303887  0.4220463830269168  0.0826793013066904
  0.9000342096278331  0.5479900592973763  0.8895564577717892
  0.7332666111042911  0.4522680186573709  0.6534194968785627
  0.5671465969163805  0.5338601849119655  0.3596414186738457
  0.4179594098237089  0.4241631126635781  0.0778723131218939
  0.2093402961312663  0.5370153254269354  0.8291422387375249
  0.1490697644614798  0.4028273054552542  0.5787187475175628
  0.9020521605707756  0.5332788191086593  0.3764533654327948
  0.8049239390695817  0.4205411699562305  0.1289450343249570
  0.4938729691854036  0.5673145796760934  0.8431997260486668
  0.4394998480763732  0.4278180466605690  0.5871607434765593
  0.2388113257916729  0.8693515304670854  0.3356003169363007
  0.1205336750169863  0.7570685859174588  0.1395100181173703
  0.9159798663553076  0.8396318275603107  0.8952211797668070
  0.7502167667606585  0.7774606694539159  0.6671454767628262
  0.5824799744222702  0.8363704251385968  0.3368562570827436
  0.4052262508360158  0.7826872246375345  0.0711251772534069
  0.2136784084197316  0.8875262617969568  0.8288063960146914
  0.1337400145494314  0.7500677765950101  0.6329873292126464
  0.8949359762370079  0.8720242442284842  0.3589025808256778
  0.8231965962179117  0.7372496278440011  0.1340483344094494
  0.5423468452718865  0.8815973937865849  0.8651485956514193
  0.4427288277249701  0.7666020520566619  0.5947955726871754
 
  0.00000000E+00  0.00000000E+00  0.00000000E+00
  0.00000000E+00  0.00000000E+00  0.00000000E+00
  0.00000000E+00  0.00000000E+00  0.00000000E+00
  0.00000000E+00  0.00000000E+00  0.00000000E+00
  0.00000000E+00  0.00000000E+00  0.00000000E+00
  0.00000000E+00  0.00000000E+00  0.00000000E+00
  0.00000000E+00  0.00000000E+00  0.00000000E+00
  0.00000000E+00  0.00000000E+00  0.00000000E+00
  0.00000000E+00  0.00000000E+00  0.00000000E+00
  0.00000000E+00  0.00000000E+00  0.00000000E+00
  0.00000000E+00  0.00000000E+00  0.00000000E+00
  0.00000000E+00  0.00000000E+00  0.00000000E+00
  0.00000000E+00  0.00000000E+00  0.00000000E+00
  0.00000000E+00  0.00000000E+00  0.00000000E+00
  0.00000000E+00  0.00000000E+00  0.00000000E+00
  0.00000000E+00  0.00000000E+00  0.00000000E+00
  0.00000000E+00  0.00000000E+00  0.00000000E+00
  0.00000000E+00  0.00000000E+00  0.00000000E+00
  0.00000000E+00  0.00000000E+00  0.00000000E+00
  0.00000000E+00  0.00000000E+00  0.00000000E+00
  0.00000000E+00  0.00000000E+00  0.00000000E+00
  0.00000000E+00  0.00000000E+00  0.00000000E+00
  0.00000000E+00  0.00000000E+00  0.00000000E+00
  0.00000000E+00  0.00000000E+00  0.00000000E+00
  0.00000000E+00  0.00000000E+00  0.00000000E+00
  0.00000000E+00  0.00000000E+00  0.00000000E+00
  0.00000000E+00  0.00000000E+00  0.00000000E+00
  0.00000000E+00  0.00000000E+00  0.00000000E+00
  0.00000000E+00  0.00000000E+00  0.00000000E+00
  0.00000000E+00  0.00000000E+00  0.00000000E+00
  0.00000000E+00  0.00000000E+00  0.00000000E+00
  0.00000000E+00  0.00000000E+00  0.00000000E+00
  0.00000000E+00  0.00000000E+00  0.00000000E+00
  0.00000000E+00  0.00000000E+00  0.00000000E+00
  0.00000000E+00  0.00000000E+00  0.00000000E+00
  0.00000000E+00  0.00000000E+00  0.00000000E+00
  0.00000000E+00  0.00000000E+00  0.00000000E+00
  0.00000000E+00  0.00000000E+00  0.00000000E+00
  0.00000000E+00  0.00000000E+00  0.00000000E+00
  0.00000000E+00  0.00000000E+00  0.00000000E+00
  0.00000000E+00  0.00000000E+00  0.00000000E+00
  0.00000000E+00  0.00000000E+00  0.00000000E+00
  0.00000000E+00  0.00000000E+00  0.00000000E+00
  0.00000000E+00  0.00000000E+00  0.00000000E+00
  0.00000000E+00  0.00000000E+00  0.00000000E+00
  0.00000000E+00  0.00000000E+00  0.00000000E+00
  0.00000000E+00  0.00000000E+00  0.00000000E+00
  0.00000000E+00  0.00000000E+00  0.00000000E+00
  0.00000000E+00  0.00000000E+00  0.00000000E+00
  0.00000000E+00  0.00000000E+00  0.00000000E+00
  0.00000000E+00  0.00000000E+00  0.00000000E+00
  0.00000000E+00  0.00000000E+00  0.00000000E+00
  0.00000000E+00  0.00000000E+00  0.00000000E+00
  0.00000000E+00  0.00000000E+00  0.00000000E+00
  0.00000000E+00  0.00000000E+00  0.00000000E+00
  0.00000000E+00  0.00000000E+00  0.00000000E+00
  0.00000000E+00  0.00000000E+00  0.00000000E+00
  0.00000000E+00  0.00000000E+00  0.00000000E+00
  0.00000000E+00  0.00000000E+00  0.00000000E+00
  0.00000000E+00  0.00000000E+00  0.00000000E+00
  0.00000000E+00  0.00000000E+00  0.00000000E+00
  0.00000000E+00  0.00000000E+00  0.00000000E+00
  0.00000000E+00  0.00000000E+00  0.00000000E+00
  0.00000000E+00  0.00000000E+00  0.00000000E+00
  0.00000000E+00  0.00000000E+00  0.00000000E+00
  0.00000000E+00  0.00000000E+00  0.00000000E+00
  0.00000000E+00  0.00000000E+00  0.00000000E+00
  0.00000000E+00  0.00000000E+00  0.00000000E+00
  0.00000000E+00  0.00000000E+00  0.00000000E+00
  0.00000000E+00  0.00000000E+00  0.00000000E+00
  0.00000000E+00  0.00000000E+00  0.00000000E+00
  0.00000000E+00  0.00000000E+00  0.00000000E+00
