Al   Gd   N                             
   1.00000000000000     
    -9.8754244621700948   -0.0908299055550599    0.0221411083186210
    -4.9744573930290112    8.4825891426731683    0.0249441872380380
    -0.1424487819291903   -0.0925117167157289  -10.7972201964791488
   Al   Gd   N 
    28     8    36
Direct
  0.1158970965078083  0.0821447431899216  0.3102656981051197
  0.2195224060591983  0.2105311358015172  0.1380291609458695
  0.5399939420783468  0.2190591525336885  0.1317251666455661
  0.1110055683063109  0.0875943661460354  0.8260315351338150
  0.2340768035292058  0.1983834687118886  0.6613164479219549
  0.7884399282744781  0.0924420006400268  0.2913160757393030
  0.9086959997062038  0.1977327126386399  0.0754436790139223
  0.4161425212701175  0.1170133822870554  0.8946715696262970
  0.5299255212281366  0.2190571370949286  0.6549079087890917
  0.1145714313746566  0.4366619080133702  0.3113620251831435
  0.2109102787078996  0.5432519698996572  0.0655120304585282
  0.4638808965324230  0.4237737875997638  0.3970384942461251
  0.1136008487852536  0.4368869978748933  0.8261975131405421
  0.2286605934491988  0.5355036051286746  0.5715208778659147
  0.8014103213674488  0.4193516018935597  0.3057958483034895
  0.9128726749025020  0.5322824505349146  0.0703961551901102
  0.4183700468135712  0.4396946299815525  0.8858839780465644
  0.5301234476146064  0.5490968813497119  0.6455738896957541
  0.1210258070449868  0.7591330288520197  0.3161255472129696
  0.2043744434359382  0.8782721371345730  0.0608820663802803
  0.7860517917367389  0.7573504656363639  0.8343940252937330
  0.4693080628645774  0.7476402204032269  0.4040088002193087
  0.1173989766236332  0.7542437889175275  0.8205024136394243
  0.2288699352120815  0.8699217446653904  0.5752567883936521
  0.7981542248679290  0.7483621214563243  0.3019489185193578
  0.9098352933289320  0.8552521593183755  0.0709262554621404
  0.4201522499003190  0.7697371846778225  0.8845408152328176
  0.5397199997763025  0.8790451145620324  0.6655878131310047
  0.7628059328343042  0.0965199268657528  0.8590053627746599
  0.8834659507978131  0.2052626534085178  0.5628680920512679
  0.4500474043378304  0.0934850601459587  0.3945980830884253
  0.7619333420473211  0.4409887364333542  0.8529638500975736
  0.8875897312473171  0.5384580285910090  0.5718876063629779
  0.5391957314854281  0.5405305765018298  0.1434000772100745
  0.8869934128755688  0.8715602935622258  0.5686113616665764
  0.5567344229896065  0.8726900435943605  0.1097546729278633
  0.2071758895139766  0.2132247032524290  0.3202167696073843
  0.1193418961732817  0.0818301161521404  0.1303183576306992
  0.9153694621638024  0.1943673713413290  0.9011476478325804
  0.7494294514849926  0.1060063091156564  0.6436730212452773
  0.5643745062601724  0.2271798244021923  0.3080281377298348
  0.4241700323287532  0.1271036604580686  0.0731214583340005
  0.2107283336468768  0.2103105454517262  0.8411591675821555
  0.1316660406716181  0.0768474792356812  0.6448345267791709
  0.8944864606456449  0.2000052739942433  0.3462318596214615
  0.7825729663464855  0.0880819213644273  0.1087446576186579
  0.4987884206725681  0.2366546301960355  0.8270069250437899
  0.4430951574416540  0.0898647682639648  0.6058290272436722
  0.2214327688472792  0.5423742088607639  0.3836712185745910
  0.1175341386667768  0.4326846669687683  0.1312561539824983
  0.9049697160967796  0.5494693527301990  0.8911194659019444
  0.7513635258276636  0.4381977006851159  0.6440084825002259
  0.5709778708756588  0.5331689687634977  0.3532229661407342
  0.4325884424093047  0.4160651764558665  0.0619975920896181
  0.2018061446050154  0.5524548451219786  0.8884561910137805
  0.1381905225474256  0.4219108184582510  0.6453024781515779
  0.8990121049437860  0.5362450297143724  0.3588879543807337
  0.8078756913448828  0.4177130879274245  0.1214395931536956
  0.4954909261562221  0.5662784021372715  0.8213614997187477
  0.4516768337456227  0.4192493809708537  0.5743301459872754
  0.2238901766395145  0.8719707844995455  0.3873406155522261
  0.1221038843927573  0.7563381295428258  0.1340155703398764
  0.9069386318585444  0.8436339293852839  0.8905647507945957
  0.7581888188451202  0.7704967881362492  0.6607120146436927
  0.5754680565160939  0.8421186835245109  0.3272166166900590
  0.4193923543770737  0.7663770464534494  0.0583826996790364
  0.1991147319259667  0.8808585235534423  0.8814088348668392
  0.1424289942964734  0.7446004487778310  0.6404764517358359
  0.8902220500173996  0.8766188677568678  0.3517473452407458
  0.8189602526798154  0.7400773824367377  0.1267951966045757
  0.5385541059421897  0.8817484460148748  0.8512072998808407
  0.4528890577077789  0.7613697870405218  0.5847636816644624
 
  0.00000000E+00  0.00000000E+00  0.00000000E+00
  0.00000000E+00  0.00000000E+00  0.00000000E+00
  0.00000000E+00  0.00000000E+00  0.00000000E+00
  0.00000000E+00  0.00000000E+00  0.00000000E+00
  0.00000000E+00  0.00000000E+00  0.00000000E+00
  0.00000000E+00  0.00000000E+00  0.00000000E+00
  0.00000000E+00  0.00000000E+00  0.00000000E+00
  0.00000000E+00  0.00000000E+00  0.00000000E+00
  0.00000000E+00  0.00000000E+00  0.00000000E+00
  0.00000000E+00  0.00000000E+00  0.00000000E+00
  0.00000000E+00  0.00000000E+00  0.00000000E+00
  0.00000000E+00  0.00000000E+00  0.00000000E+00
  0.00000000E+00  0.00000000E+00  0.00000000E+00
  0.00000000E+00  0.00000000E+00  0.00000000E+00
  0.00000000E+00  0.00000000E+00  0.00000000E+00
  0.00000000E+00  0.00000000E+00  0.00000000E+00
  0.00000000E+00  0.00000000E+00  0.00000000E+00
  0.00000000E+00  0.00000000E+00  0.00000000E+00
  0.00000000E+00  0.00000000E+00  0.00000000E+00
  0.00000000E+00  0.00000000E+00  0.00000000E+00
  0.00000000E+00  0.00000000E+00  0.00000000E+00
  0.00000000E+00  0.00000000E+00  0.00000000E+00
  0.00000000E+00  0.00000000E+00  0.00000000E+00
  0.00000000E+00  0.00000000E+00  0.00000000E+00
  0.00000000E+00  0.00000000E+00  0.00000000E+00
  0.00000000E+00  0.00000000E+00  0.00000000E+00
  0.00000000E+00  0.00000000E+00  0.00000000E+00
  0.00000000E+00  0.00000000E+00  0.00000000E+00
  0.00000000E+00  0.00000000E+00  0.00000000E+00
  0.00000000E+00  0.00000000E+00  0.00000000E+00
  0.00000000E+00  0.00000000E+00  0.00000000E+00
  0.00000000E+00  0.00000000E+00  0.00000000E+00
  0.00000000E+00  0.00000000E+00  0.00000000E+00
  0.00000000E+00  0.00000000E+00  0.00000000E+00
  0.00000000E+00  0.00000000E+00  0.00000000E+00
  0.00000000E+00  0.00000000E+00  0.00000000E+00
  0.00000000E+00  0.00000000E+00  0.00000000E+00
  0.00000000E+00  0.00000000E+00  0.00000000E+00
  0.00000000E+00  0.00000000E+00  0.00000000E+00
  0.00000000E+00  0.00000000E+00  0.00000000E+00
  0.00000000E+00  0.00000000E+00  0.00000000E+00
  0.00000000E+00  0.00000000E+00  0.00000000E+00
  0.00000000E+00  0.00000000E+00  0.00000000E+00
  0.00000000E+00  0.00000000E+00  0.00000000E+00
  0.00000000E+00  0.00000000E+00  0.00000000E+00
  0.00000000E+00  0.00000000E+00  0.00000000E+00
  0.00000000E+00  0.00000000E+00  0.00000000E+00
  0.00000000E+00  0.00000000E+00  0.00000000E+00
  0.00000000E+00  0.00000000E+00  0.00000000E+00
  0.00000000E+00  0.00000000E+00  0.00000000E+00
  0.00000000E+00  0.00000000E+00  0.00000000E+00
  0.00000000E+00  0.00000000E+00  0.00000000E+00
  0.00000000E+00  0.00000000E+00  0.00000000E+00
  0.00000000E+00  0.00000000E+00  0.00000000E+00
  0.00000000E+00  0.00000000E+00  0.00000000E+00
  0.00000000E+00  0.00000000E+00  0.00000000E+00
  0.00000000E+00  0.00000000E+00  0.00000000E+00
  0.00000000E+00  0.00000000E+00  0.00000000E+00
  0.00000000E+00  0.00000000E+00  0.00000000E+00
  0.00000000E+00  0.00000000E+00  0.00000000E+00
  0.00000000E+00  0.00000000E+00  0.00000000E+00
  0.00000000E+00  0.00000000E+00  0.00000000E+00
  0.00000000E+00  0.00000000E+00  0.00000000E+00
  0.00000000E+00  0.00000000E+00  0.00000000E+00
  0.00000000E+00  0.00000000E+00  0.00000000E+00
  0.00000000E+00  0.00000000E+00  0.00000000E+00
  0.00000000E+00  0.00000000E+00  0.00000000E+00
  0.00000000E+00  0.00000000E+00  0.00000000E+00
  0.00000000E+00  0.00000000E+00  0.00000000E+00
  0.00000000E+00  0.00000000E+00  0.00000000E+00
  0.00000000E+00  0.00000000E+00  0.00000000E+00
  0.00000000E+00  0.00000000E+00  0.00000000E+00
