Al   Gd   N                             
   1.00000000000000     
   -10.0388071775433794   -0.0765193470956461    0.0071303929679836
    -4.9579367353879773    8.5151241312986148    0.0252324187218380
     0.0037799043131189    0.0311263034409508  -10.4919740054517945
   Al   Gd   N 
    28     8    36
Direct
  0.1148145737366804  0.0927167115835630  0.3033143444574549
  0.2111726800699856  0.2125973801957315  0.0589635935985342
  0.5390106973163284  0.2163341503145517  0.1205024237962178
  0.1195400529873041  0.0901496097454171  0.8103361515414917
  0.2207020708612291  0.2045624216430539  0.5645925173353135
  0.7895116828672286  0.0930141217296452  0.2782542332300935
  0.9130885720352566  0.1954271007729034  0.0622264480965811
  0.4217488410338888  0.1135174107546817  0.8776433311543244
  0.5252565276154542  0.2199918355826398  0.6337423059110989
  0.1142687847732446  0.4269719856366549  0.3047648189480583
  0.2072319133376581  0.5426447886032832  0.0566708878806423
  0.4622805390870823  0.4277286281411889  0.3767417077565511
  0.1221527220760237  0.4266607478450766  0.8084075600751248
  0.2276368605550303  0.5371214923044292  0.5556148072307323
  0.7944966076669076  0.4245867792844464  0.2867696975698095
  0.9195519533876251  0.5293939114487500  0.0562063239252311
  0.4136882659077088  0.4345077891795555  0.8743452013559292
  0.5308799848196202  0.5450787764916498  0.6385067121329300
  0.1207111601161373  0.7577826581567138  0.3020002563145212
  0.2108339275646074  0.8780071856473768  0.0539291880897323
  0.7951352247812196  0.7549066894462584  0.8179708279807940
  0.4480325171994295  0.7565129017665555  0.3077042518193025
  0.1181980869744166  0.7556865897366265  0.8072814431779420
  0.2339471711716641  0.8685921532401082  0.5632769968077795
  0.7996326774240288  0.7475427940447901  0.2854885063638761
  0.9126660652748129  0.8562590280573943  0.0556214765796454
  0.4176275913687277  0.7712507545732592  0.8208714419925158
  0.5385923396669128  0.8862315190861239  0.6495050758437628
  0.7593414747387470  0.1011081411139401  0.8461725072670347
  0.8800247233129426  0.2080542697222754  0.5499907640404018
  0.4558865068762898  0.0858253581553896  0.3614751221235579
  0.7748485220585053  0.4348829206965874  0.8391714460195558
  0.8847973688086412  0.5408748375325558  0.5581034150190263
  0.5499250382807404  0.5266872286035422  0.0979081479493260
  0.8844181809346807  0.8754431970790932  0.5573545352107416
  0.5683693258445501  0.8621679502664392  0.0752098498551916
  0.1903746238475961  0.2204627106525905  0.3768373519397699
  0.1207265397941342  0.0895524110303185  0.1195774566807728
  0.9229513973074646  0.1858855347399242  0.8803298779455844
  0.7418979820313893  0.1122807973289639  0.6251349579248355
  0.5709387837655058  0.2240452817226526  0.2984621550102844
  0.4295809115796629  0.1182787968312837  0.0694256295053677
  0.2064138106423385  0.2131975203659238  0.8734835526933864
  0.1326664797433281  0.0832860679212359  0.6273780490308170
  0.8930937870281923  0.2024582071482826  0.3285434479645630
  0.7819227968301661  0.0905420920271283  0.0912956310462221
  0.4966692655343365  0.2348092431389546  0.8107300742538470
  0.4411253516110989  0.0911669012205749  0.5802563819485442
  0.2205989566317470  0.5406720770025117  0.3661906219664885
  0.1216053253695151  0.4210616307468342  0.1211275998021080
  0.9141902165496134  0.5465350058914353  0.8702153962920463
  0.7449523292992382  0.4435428982442673  0.6250759019229335
  0.5663479888815601  0.5337017466861198  0.3201995273161700
  0.4205720119339773  0.4126929443726013  0.0546271645787968
  0.2015115744879168  0.5513809991013403  0.8720699058156427
  0.1409374043733678  0.4156297099328015  0.6263429641388356
  0.8972427759482144  0.5357303679349315  0.3415066193167036
  0.8146001380183137  0.4162045242080552  0.0977770933086362
  0.5102761409008991  0.5505715112964609  0.8316204603351025
  0.4474994671579751  0.4266851465395973  0.5613503935199518
  0.2301902085513206  0.8704759043972459  0.3712270264038082
  0.1189475725254425  0.7591026507282521  0.1170962062692951
  0.9102526634140986  0.8476198809613535  0.8692946763329488
  0.7524898099693758  0.7748392493060265  0.6424011407611729
  0.5840612540333936  0.8368843568142665  0.3066866713868563
  0.4096484930314688  0.7755239153081206  0.1076593533986596
  0.2108064531575167  0.8772736780493275  0.8703944654975544
  0.1402048997856866  0.7471693560748633  0.6235559146828251
  0.8934740843860993  0.8755576871127033  0.3368201717931498
  0.8269938249296374  0.7370695516202161  0.1072727394389048
  0.5422629453387628  0.8833504621514834  0.8423008362807636
  0.4352508008413878  0.7689941607181794  0.6316917350841393
 
  0.00000000E+00  0.00000000E+00  0.00000000E+00
  0.00000000E+00  0.00000000E+00  0.00000000E+00
  0.00000000E+00  0.00000000E+00  0.00000000E+00
  0.00000000E+00  0.00000000E+00  0.00000000E+00
  0.00000000E+00  0.00000000E+00  0.00000000E+00
  0.00000000E+00  0.00000000E+00  0.00000000E+00
  0.00000000E+00  0.00000000E+00  0.00000000E+00
  0.00000000E+00  0.00000000E+00  0.00000000E+00
  0.00000000E+00  0.00000000E+00  0.00000000E+00
  0.00000000E+00  0.00000000E+00  0.00000000E+00
  0.00000000E+00  0.00000000E+00  0.00000000E+00
  0.00000000E+00  0.00000000E+00  0.00000000E+00
  0.00000000E+00  0.00000000E+00  0.00000000E+00
  0.00000000E+00  0.00000000E+00  0.00000000E+00
  0.00000000E+00  0.00000000E+00  0.00000000E+00
  0.00000000E+00  0.00000000E+00  0.00000000E+00
  0.00000000E+00  0.00000000E+00  0.00000000E+00
  0.00000000E+00  0.00000000E+00  0.00000000E+00
  0.00000000E+00  0.00000000E+00  0.00000000E+00
  0.00000000E+00  0.00000000E+00  0.00000000E+00
  0.00000000E+00  0.00000000E+00  0.00000000E+00
  0.00000000E+00  0.00000000E+00  0.00000000E+00
  0.00000000E+00  0.00000000E+00  0.00000000E+00
  0.00000000E+00  0.00000000E+00  0.00000000E+00
  0.00000000E+00  0.00000000E+00  0.00000000E+00
  0.00000000E+00  0.00000000E+00  0.00000000E+00
  0.00000000E+00  0.00000000E+00  0.00000000E+00
  0.00000000E+00  0.00000000E+00  0.00000000E+00
  0.00000000E+00  0.00000000E+00  0.00000000E+00
  0.00000000E+00  0.00000000E+00  0.00000000E+00
  0.00000000E+00  0.00000000E+00  0.00000000E+00
  0.00000000E+00  0.00000000E+00  0.00000000E+00
  0.00000000E+00  0.00000000E+00  0.00000000E+00
  0.00000000E+00  0.00000000E+00  0.00000000E+00
  0.00000000E+00  0.00000000E+00  0.00000000E+00
  0.00000000E+00  0.00000000E+00  0.00000000E+00
  0.00000000E+00  0.00000000E+00  0.00000000E+00
  0.00000000E+00  0.00000000E+00  0.00000000E+00
  0.00000000E+00  0.00000000E+00  0.00000000E+00
  0.00000000E+00  0.00000000E+00  0.00000000E+00
  0.00000000E+00  0.00000000E+00  0.00000000E+00
  0.00000000E+00  0.00000000E+00  0.00000000E+00
  0.00000000E+00  0.00000000E+00  0.00000000E+00
  0.00000000E+00  0.00000000E+00  0.00000000E+00
  0.00000000E+00  0.00000000E+00  0.00000000E+00
  0.00000000E+00  0.00000000E+00  0.00000000E+00
  0.00000000E+00  0.00000000E+00  0.00000000E+00
  0.00000000E+00  0.00000000E+00  0.00000000E+00
  0.00000000E+00  0.00000000E+00  0.00000000E+00
  0.00000000E+00  0.00000000E+00  0.00000000E+00
  0.00000000E+00  0.00000000E+00  0.00000000E+00
  0.00000000E+00  0.00000000E+00  0.00000000E+00
  0.00000000E+00  0.00000000E+00  0.00000000E+00
  0.00000000E+00  0.00000000E+00  0.00000000E+00
  0.00000000E+00  0.00000000E+00  0.00000000E+00
  0.00000000E+00  0.00000000E+00  0.00000000E+00
  0.00000000E+00  0.00000000E+00  0.00000000E+00
  0.00000000E+00  0.00000000E+00  0.00000000E+00
  0.00000000E+00  0.00000000E+00  0.00000000E+00
  0.00000000E+00  0.00000000E+00  0.00000000E+00
  0.00000000E+00  0.00000000E+00  0.00000000E+00
  0.00000000E+00  0.00000000E+00  0.00000000E+00
  0.00000000E+00  0.00000000E+00  0.00000000E+00
  0.00000000E+00  0.00000000E+00  0.00000000E+00
  0.00000000E+00  0.00000000E+00  0.00000000E+00
  0.00000000E+00  0.00000000E+00  0.00000000E+00
  0.00000000E+00  0.00000000E+00  0.00000000E+00
  0.00000000E+00  0.00000000E+00  0.00000000E+00
  0.00000000E+00  0.00000000E+00  0.00000000E+00
  0.00000000E+00  0.00000000E+00  0.00000000E+00
  0.00000000E+00  0.00000000E+00  0.00000000E+00
  0.00000000E+00  0.00000000E+00  0.00000000E+00
