Al   Gd   N                             
   1.00000000000000     
    -9.9574644978047626   -0.0802651077857891    0.0138280069933925
    -4.9293088764707420    8.5319259685846589    0.0145282942482406
     0.0280861809172583   -0.0247844683975661  -10.6134511471954891
   Al   Gd   N 
    28     8    36
Direct
  0.1273037666334318  0.0844310216759965  0.3856210900091668
  0.2155069070539710  0.2132674250241564  0.1448603183747039
  0.5397018998651930  0.2194383166736174  0.1380132815049606
  0.1192361324287603  0.0921490824103657  0.9004290008369651
  0.2256645694268684  0.1996059704104951  0.6476755007493153
  0.7944250615786927  0.0891753767172858  0.2971543587370533
  0.9038487742815491  0.2000756650766462  0.0839533805470865
  0.4160561967401364  0.1176409127071381  0.8956609090577246
  0.5277075505078770  0.2184081124514776  0.6608183997034658
  0.1269425673107776  0.4189435347719481  0.3894710288189955
  0.2138293357405203  0.5410138733100780  0.0837725195704166
  0.4617865627744564  0.4245870487674637  0.4010157809620125
  0.1121580050607633  0.4240613359738390  0.8941479705088682
  0.2328803002747435  0.5324314195092228  0.5897890529383787
  0.8044545475766895  0.4179306588682223  0.3133677267008323
  0.9049961223816467  0.5342967353683505  0.0772342958846082
  0.4137740021482372  0.4414581559099915  0.8905048672896072
  0.5238032856871726  0.5545667172563782  0.6526049520273673
  0.1233095535416453  0.7498981382897938  0.3185408660173152
  0.2206891053019788  0.8812690970265464  0.1462497861343905
  0.7858374957307319  0.7593459878352107  0.8392798277860791
  0.4629376670340690  0.7506779610517000  0.4057640596137873
  0.1150535350736916  0.7536228525679789  0.8215074637519209
  0.2284634103085210  0.8775969327626143  0.6425318502057706
  0.8028494565153821  0.7427028651317968  0.3083417698739908
  0.9145784688361971  0.8527087767452883  0.0753799143351515
  0.4088022886272213  0.7770224841037177  0.8904361515244901
  0.5373231165740719  0.8817241922820003  0.6708977899525479
  0.7626783588295254  0.0949174596545248  0.8651482279088256
  0.8663242593859621  0.2164650944243434  0.5713077734466196
  0.4584862284787476  0.0873444845185531  0.3965473433173941
  0.7504651236096009  0.4452813243924822  0.8643459632470183
  0.8777872860733709  0.5434898011082581  0.5876921284881078
  0.5363376948393892  0.5460023253708428  0.1491929013907622
  0.8842417480899982  0.8738710739976554  0.5722462839223610
  0.5607059895629973  0.8725536653822132  0.1072792655711012
  0.2092307516974969  0.2122417457497292  0.3239481683365568
  0.1246514046853093  0.0895736818116504  0.0876899897479575
  0.9071802472445398  0.1993116941772541  0.9022820527755542
  0.7435616321645213  0.1065125122548380  0.6472670436542245
  0.5726366049852132  0.2227854291935571  0.3165915165191819
  0.4233544686334554  0.1272404745385458  0.0811883892158463
  0.2077188387793996  0.2109698140989735  0.8326762395942211
  0.1360525051164743  0.0824048760908624  0.5713209401996551
  0.9025273808367729  0.1961543800632697  0.3504578670724996
  0.7840529121748290  0.0868042280811068  0.1130546669357031
  0.5009849657492396  0.2363320209001216  0.8359062950224541
  0.4415017409998825  0.0901170723086651  0.6115902519298260
  0.2358189663223058  0.5352475712110589  0.3689173256558860
  0.1186842586081198  0.4173666565800502  0.0810429596524642
  0.8949682156840950  0.5523633997677706  0.8909906503342953
  0.7395280236138433  0.4463344904439026  0.6538923387754636
  0.5737675384092142  0.5312313659312053  0.3617334550303681
  0.4290572821247665  0.4188430280058810  0.0709040897839088
  0.2033743857998545  0.5473194420588499  0.8733998370396705
  0.1443569708284329  0.4033207514495274  0.5770479755707498
  0.9044322235482340  0.5319876794074574  0.3687534381438127
  0.8023284463044860  0.4203263442386387  0.1275807621085221
  0.4881681478708586  0.5718027434575816  0.8317590249147031
  0.4495325686586256  0.4210399428395846  0.5833699985014604
  0.2413979782369680  0.8653949058178583  0.3317124108647462
  0.1210100585890714  0.7551065287609262  0.1355949586731100
  0.9118788603721484  0.8417422835311470  0.8936635610201620
  0.7516209145449011  0.7785968456320802  0.6645992227115940
  0.5820425442647661  0.8362118883749403  0.3319295357121774
  0.4072696527024178  0.7768780325634239  0.0647146336906204
  0.2074576166365674  0.8921132340146016  0.8256501441679447
  0.1360613172673695  0.7438550378832929  0.6382941389960521
  0.8970076023158811  0.8718197500783802  0.3551357840640605
  0.8222592955977674  0.7383455697092458  0.1313222357800541
  0.5389305628497780  0.8831900906700270  0.8600991610192850
  0.4424464870550793  0.7671851210660066  0.5910007512648860
 
  0.00000000E+00  0.00000000E+00  0.00000000E+00
  0.00000000E+00  0.00000000E+00  0.00000000E+00
  0.00000000E+00  0.00000000E+00  0.00000000E+00
  0.00000000E+00  0.00000000E+00  0.00000000E+00
  0.00000000E+00  0.00000000E+00  0.00000000E+00
  0.00000000E+00  0.00000000E+00  0.00000000E+00
  0.00000000E+00  0.00000000E+00  0.00000000E+00
  0.00000000E+00  0.00000000E+00  0.00000000E+00
  0.00000000E+00  0.00000000E+00  0.00000000E+00
  0.00000000E+00  0.00000000E+00  0.00000000E+00
  0.00000000E+00  0.00000000E+00  0.00000000E+00
  0.00000000E+00  0.00000000E+00  0.00000000E+00
  0.00000000E+00  0.00000000E+00  0.00000000E+00
  0.00000000E+00  0.00000000E+00  0.00000000E+00
  0.00000000E+00  0.00000000E+00  0.00000000E+00
  0.00000000E+00  0.00000000E+00  0.00000000E+00
  0.00000000E+00  0.00000000E+00  0.00000000E+00
  0.00000000E+00  0.00000000E+00  0.00000000E+00
  0.00000000E+00  0.00000000E+00  0.00000000E+00
  0.00000000E+00  0.00000000E+00  0.00000000E+00
  0.00000000E+00  0.00000000E+00  0.00000000E+00
  0.00000000E+00  0.00000000E+00  0.00000000E+00
  0.00000000E+00  0.00000000E+00  0.00000000E+00
  0.00000000E+00  0.00000000E+00  0.00000000E+00
  0.00000000E+00  0.00000000E+00  0.00000000E+00
  0.00000000E+00  0.00000000E+00  0.00000000E+00
  0.00000000E+00  0.00000000E+00  0.00000000E+00
  0.00000000E+00  0.00000000E+00  0.00000000E+00
  0.00000000E+00  0.00000000E+00  0.00000000E+00
  0.00000000E+00  0.00000000E+00  0.00000000E+00
  0.00000000E+00  0.00000000E+00  0.00000000E+00
  0.00000000E+00  0.00000000E+00  0.00000000E+00
  0.00000000E+00  0.00000000E+00  0.00000000E+00
  0.00000000E+00  0.00000000E+00  0.00000000E+00
  0.00000000E+00  0.00000000E+00  0.00000000E+00
  0.00000000E+00  0.00000000E+00  0.00000000E+00
  0.00000000E+00  0.00000000E+00  0.00000000E+00
  0.00000000E+00  0.00000000E+00  0.00000000E+00
  0.00000000E+00  0.00000000E+00  0.00000000E+00
  0.00000000E+00  0.00000000E+00  0.00000000E+00
  0.00000000E+00  0.00000000E+00  0.00000000E+00
  0.00000000E+00  0.00000000E+00  0.00000000E+00
  0.00000000E+00  0.00000000E+00  0.00000000E+00
  0.00000000E+00  0.00000000E+00  0.00000000E+00
  0.00000000E+00  0.00000000E+00  0.00000000E+00
  0.00000000E+00  0.00000000E+00  0.00000000E+00
  0.00000000E+00  0.00000000E+00  0.00000000E+00
  0.00000000E+00  0.00000000E+00  0.00000000E+00
  0.00000000E+00  0.00000000E+00  0.00000000E+00
  0.00000000E+00  0.00000000E+00  0.00000000E+00
  0.00000000E+00  0.00000000E+00  0.00000000E+00
  0.00000000E+00  0.00000000E+00  0.00000000E+00
  0.00000000E+00  0.00000000E+00  0.00000000E+00
  0.00000000E+00  0.00000000E+00  0.00000000E+00
  0.00000000E+00  0.00000000E+00  0.00000000E+00
  0.00000000E+00  0.00000000E+00  0.00000000E+00
  0.00000000E+00  0.00000000E+00  0.00000000E+00
  0.00000000E+00  0.00000000E+00  0.00000000E+00
  0.00000000E+00  0.00000000E+00  0.00000000E+00
  0.00000000E+00  0.00000000E+00  0.00000000E+00
  0.00000000E+00  0.00000000E+00  0.00000000E+00
  0.00000000E+00  0.00000000E+00  0.00000000E+00
  0.00000000E+00  0.00000000E+00  0.00000000E+00
  0.00000000E+00  0.00000000E+00  0.00000000E+00
  0.00000000E+00  0.00000000E+00  0.00000000E+00
  0.00000000E+00  0.00000000E+00  0.00000000E+00
  0.00000000E+00  0.00000000E+00  0.00000000E+00
  0.00000000E+00  0.00000000E+00  0.00000000E+00
  0.00000000E+00  0.00000000E+00  0.00000000E+00
  0.00000000E+00  0.00000000E+00  0.00000000E+00
  0.00000000E+00  0.00000000E+00  0.00000000E+00
  0.00000000E+00  0.00000000E+00  0.00000000E+00
