supercell of 100% icsd_608626.cif, 0% i 
   1.00000000000000     
    -9.3141929623003623    0.0043756911011574   -0.0008102360558553
    -4.6608840396071836    8.0763762922732312   -0.0042563782885299
    -0.0008634047671388    0.0047606107928688   -9.9608818779255017
   Al   Si   Be   N 
    32     2     2    36
Direct
  0.1118837770991092  0.0936802045574581  0.2952652519998296
  0.2245075488568631  0.2044014536115952  0.0463507301764849
  0.7787361587809087  0.0926683495700829  0.7938518307617741
  0.8860106162991457  0.2091599503734614  0.5458072066780346
  0.4473953592959461  0.0916265338152087  0.2994237569586531
  0.5534908258944782  0.2059263649536121  0.0465078137761239
  0.1119034217480035  0.0919465481904638  0.7934025243365710
  0.2236081211155749  0.2035887014193065  0.5480358090177049
  0.7752479649766926  0.0960461631628604  0.2955000763095583
  0.8882638146802364  0.2070229838820694  0.0454318230201025
  0.5547979444834041  0.2084266799937211  0.5481877806599158
  0.1125077956500675  0.4279339108999523  0.2959622383949281
  0.2235469293207615  0.5383438302545756  0.0450679169472750
  0.7739650599298287  0.4300679012570114  0.7892177131030067
  0.8796749859670996  0.5443851215950914  0.5471776161921866
  0.4464950442477971  0.4288097174168684  0.3002269755142564
  0.5551647565446487  0.5397009013907805  0.0469158868623936
  0.1103971322619088  0.4301432766797149  0.7927736973314197
  0.2257566706608571  0.5390165944838969  0.5457412254465268
  0.7724911664338734  0.4298713674935541  0.2991700094856071
  0.8884744762785104  0.5372603207986373  0.0467021176811002
  0.4440018333318605  0.4314826524160722  0.7893188581867818
  0.1130890088860994  0.7593077294871335  0.2953185178698092
  0.2247600117749329  0.8707856631528514  0.0449916194105597
  0.7751852430204238  0.7633638884934797  0.7903538270021855
  0.8844503276855136  0.8709727795953839  0.5466778813745847
  0.4488188108608142  0.7571327620213992  0.3038090629990222
  0.5521104072878558  0.8742944012758898  0.0488076061270704
  0.1112314647252362  0.7611871568427446  0.7937331344544418
  0.2306626506266625  0.8681939371985621  0.5458134891936979
  0.8896297312582817  0.8725440724334490  0.0463262172662695
  0.4465488690646069  0.7595090477789057  0.7842044072156256
  0.4457456104623390  0.0926031627207777  0.7903293516231642
  0.7746108309412350  0.7625481198767119  0.2974850893433683
  0.5559519242242317  0.5430020015821242  0.5421575682253632
  0.5617630640165601  0.8587001486771015  0.5471146059789973
  0.2232751108547077  0.2046763817448465  0.3562785462391318
  0.1118553140907252  0.0945869517017357  0.1028084956471105
  0.8880166018795421  0.2066782718151501  0.8540117442850459
  0.7786229376319227  0.0931556372680760  0.6040217594989130
  0.5553197779865755  0.2044022346070804  0.3568906595789940
  0.4446682277174006  0.0943936329155761  0.1079213073199767
  0.2349358792010747  0.1994848675897387  0.8510894885825380
  0.1108437749027829  0.0938866967861998  0.6042647450721716
  0.8896336416646093  0.2043780650997604  0.3536159076268248
  0.7767274588684856  0.0948126476558144  0.1038594950350031
  0.5489251881155894  0.1996642093325462  0.8511338668424173
  0.4467889195744448  0.0906931124742556  0.6134659728751828
  0.2216765863987007  0.5389311530593517  0.3541676639860967
  0.1113651994803746  0.4269356338240300  0.1039797947954639
  0.8866000299529020  0.5409046115454785  0.8556322558236644
  0.7713560634197663  0.4309290432278203  0.6002438239473449
  0.5557519738492545  0.5379401752227153  0.3598718150786766
  0.4450990162300315  0.4267288150895183  0.1057020989470132
  0.2225390722162572  0.5386634844934193  0.8540910182218369
  0.1082334931566038  0.4294870387995644  0.6025009402282677
  0.8829476365667048  0.5516328679953446  0.3507479253031818
  0.7778065328913257  0.4278011791973668  0.1070051302185178
  0.5551019647711897  0.5402225559410354  0.8563856284833093
  0.4477138138709122  0.4314693585935103  0.6017679654948296
  0.2215762697978647  0.8726749535799314  0.3538452843667343
  0.1112916016157186  0.7609731280202965  0.1044538636668548
  0.8877095109393522  0.8712796796555651  0.8560388185341097
  0.7693446754703004  0.7655355420060701  0.6031908775521657
  0.5688125722620470  0.8663132522546704  0.3563342627512540
  0.4454550474215893  0.7612297160587644  0.1081825186851120
  0.2246368025638290  0.8706692565323024  0.8534003340757224
  0.1091776568452971  0.7628670273579274  0.6027247772610096
  0.8827137667086902  0.8660945145471928  0.3504018726897797
  0.7769474590022583  0.7615466699738604  0.1153575168433321
  0.5493614614912374  0.8848175073359954  0.8547895016493641
  0.4542896018975640  0.7578857273450410  0.5966610858685684
 
  0.00000000E+00  0.00000000E+00  0.00000000E+00
  0.00000000E+00  0.00000000E+00  0.00000000E+00
  0.00000000E+00  0.00000000E+00  0.00000000E+00
  0.00000000E+00  0.00000000E+00  0.00000000E+00
  0.00000000E+00  0.00000000E+00  0.00000000E+00
  0.00000000E+00  0.00000000E+00  0.00000000E+00
  0.00000000E+00  0.00000000E+00  0.00000000E+00
  0.00000000E+00  0.00000000E+00  0.00000000E+00
  0.00000000E+00  0.00000000E+00  0.00000000E+00
  0.00000000E+00  0.00000000E+00  0.00000000E+00
  0.00000000E+00  0.00000000E+00  0.00000000E+00
  0.00000000E+00  0.00000000E+00  0.00000000E+00
  0.00000000E+00  0.00000000E+00  0.00000000E+00
  0.00000000E+00  0.00000000E+00  0.00000000E+00
  0.00000000E+00  0.00000000E+00  0.00000000E+00
  0.00000000E+00  0.00000000E+00  0.00000000E+00
  0.00000000E+00  0.00000000E+00  0.00000000E+00
  0.00000000E+00  0.00000000E+00  0.00000000E+00
  0.00000000E+00  0.00000000E+00  0.00000000E+00
  0.00000000E+00  0.00000000E+00  0.00000000E+00
  0.00000000E+00  0.00000000E+00  0.00000000E+00
  0.00000000E+00  0.00000000E+00  0.00000000E+00
  0.00000000E+00  0.00000000E+00  0.00000000E+00
  0.00000000E+00  0.00000000E+00  0.00000000E+00
  0.00000000E+00  0.00000000E+00  0.00000000E+00
  0.00000000E+00  0.00000000E+00  0.00000000E+00
  0.00000000E+00  0.00000000E+00  0.00000000E+00
  0.00000000E+00  0.00000000E+00  0.00000000E+00
  0.00000000E+00  0.00000000E+00  0.00000000E+00
  0.00000000E+00  0.00000000E+00  0.00000000E+00
  0.00000000E+00  0.00000000E+00  0.00000000E+00
  0.00000000E+00  0.00000000E+00  0.00000000E+00
  0.00000000E+00  0.00000000E+00  0.00000000E+00
  0.00000000E+00  0.00000000E+00  0.00000000E+00
  0.00000000E+00  0.00000000E+00  0.00000000E+00
  0.00000000E+00  0.00000000E+00  0.00000000E+00
  0.00000000E+00  0.00000000E+00  0.00000000E+00
  0.00000000E+00  0.00000000E+00  0.00000000E+00
  0.00000000E+00  0.00000000E+00  0.00000000E+00
  0.00000000E+00  0.00000000E+00  0.00000000E+00
  0.00000000E+00  0.00000000E+00  0.00000000E+00
  0.00000000E+00  0.00000000E+00  0.00000000E+00
  0.00000000E+00  0.00000000E+00  0.00000000E+00
  0.00000000E+00  0.00000000E+00  0.00000000E+00
  0.00000000E+00  0.00000000E+00  0.00000000E+00
  0.00000000E+00  0.00000000E+00  0.00000000E+00
  0.00000000E+00  0.00000000E+00  0.00000000E+00
  0.00000000E+00  0.00000000E+00  0.00000000E+00
  0.00000000E+00  0.00000000E+00  0.00000000E+00
  0.00000000E+00  0.00000000E+00  0.00000000E+00
  0.00000000E+00  0.00000000E+00  0.00000000E+00
  0.00000000E+00  0.00000000E+00  0.00000000E+00
  0.00000000E+00  0.00000000E+00  0.00000000E+00
  0.00000000E+00  0.00000000E+00  0.00000000E+00
  0.00000000E+00  0.00000000E+00  0.00000000E+00
  0.00000000E+00  0.00000000E+00  0.00000000E+00
  0.00000000E+00  0.00000000E+00  0.00000000E+00
  0.00000000E+00  0.00000000E+00  0.00000000E+00
  0.00000000E+00  0.00000000E+00  0.00000000E+00
  0.00000000E+00  0.00000000E+00  0.00000000E+00
  0.00000000E+00  0.00000000E+00  0.00000000E+00
  0.00000000E+00  0.00000000E+00  0.00000000E+00
  0.00000000E+00  0.00000000E+00  0.00000000E+00
  0.00000000E+00  0.00000000E+00  0.00000000E+00
  0.00000000E+00  0.00000000E+00  0.00000000E+00
  0.00000000E+00  0.00000000E+00  0.00000000E+00
  0.00000000E+00  0.00000000E+00  0.00000000E+00
  0.00000000E+00  0.00000000E+00  0.00000000E+00
  0.00000000E+00  0.00000000E+00  0.00000000E+00
  0.00000000E+00  0.00000000E+00  0.00000000E+00
  0.00000000E+00  0.00000000E+00  0.00000000E+00
  0.00000000E+00  0.00000000E+00  0.00000000E+00
