supercell of 100% icsd_608626.cif, 0% i 
   1.00000000000000     
    -9.3276549114664107   -0.0000001099706735    0.0000001619049429
    -4.6638273603290514    8.0687725016679721   -0.0017294550973417
     0.0000001715733061    0.0021356279025463   -9.9564078908594826
   Be   Al   Si   N 
     2    32     2    36
Direct
  0.1120942255158823  0.0923004570537174  0.2932957215096508
  0.7789386834898835  0.0923003155010775  0.2932956839662850
  0.2205542004536909  0.2031853669105601  0.0504157965898386
  0.7791862146140147  0.0959124144483923  0.7985937545952453
  0.4427825564681740  0.0977677098319489  0.2964194494039987
  0.5595935078040384  0.2031852160702954  0.0504157766337485
  0.1082350816680488  0.0959124800357429  0.7985937539139485
  0.2182644645405247  0.2053808012506337  0.5383978412308963
  0.8909909306030386  0.2013512442405840  0.0545202266423814
  0.4448443484411868  0.0936447797705000  0.7979476399622669
  0.5596882506383096  0.2053804500255296  0.5383977993693421
  0.1118263928660355  0.4244834239090309  0.2945751359361140
  0.2219621920977204  0.5394090603372561  0.0461605159770286
  0.7797756726623888  0.4237819982964979  0.7974949864439651
  0.8903432108824134  0.5362859640858204  0.5428171765696845
  0.4470238311341816  0.4244830748040798  0.2945751679556849
  0.5564868755542989  0.5383323425685660  0.0463358031832044
  0.1120450030146074  0.4269739419973178  0.7963279081423664
  0.2219911390303437  0.5393514058013267  0.5423662667377585
  0.7813617333246441  0.4206097430568008  0.2966757072055728
  0.8885137240423191  0.5383324193077783  0.0463359286011240
  0.4443143030801338  0.4269737422957718  0.7963278997977667
  0.5567039145761896  0.5362860251928652  0.5428172926968102
  0.1071205006270262  0.7690928188038484  0.2945121552915566
  0.2201177172470423  0.8762265105727920  0.0500573690810953
  0.7764020619916892  0.7626190169915006  0.7976357776515854
  0.8890877735122942  0.8766620871535480  0.5387460842999019
  0.4397002103181649  0.7634343182594563  0.2959314582044570
  0.5553980676369719  0.8725371685944481  0.0462847118390499
  0.1108256787296256  0.7616821114512362  0.7964857396212324
  0.2175832504556823  0.8766622998978235  0.5387460631825221
  0.7801991102115693  0.7634343690782117  0.2959314813486600
  0.8869889960650070  0.8762264107808804  0.0500573687742403
  0.4443123002066329  0.7626191020879105  0.7976357506792340
  0.8902985240268180  0.2027362823649383  0.5359274898588993
  0.5553769508856590  0.8725794003503964  0.5430203232449102
  0.2195617835295138  0.2016745971501805  0.3516102912661054
  0.1109086504352774  0.0945719327655254  0.1120101813655552
  0.8890543410615024  0.2052249140420770  0.8598429043467490
  0.7845385684795190  0.1012470110777954  0.6035892713283317
  0.5620969605410551  0.2016742507686615  0.3516102419244334
  0.4451076467462016  0.0931176955252795  0.1054996793654865
  0.2227258007617650  0.2043200065774826  0.8543536386084085
  0.0975477632409181  0.1012472112591354  0.6035892850802966
  0.8921469674641713  0.1990393955023038  0.3610390130612657
  0.7778525459834427  0.0945718659385051  0.1120100987033652
  0.5562878770786384  0.2043198316144554  0.8543536250304555
  0.4505967842225900  0.0821396799659624  0.6012118109841111
  0.2214695044136548  0.5403946385005156  0.3525012834504579
  0.1106663487225177  0.4281331485822051  0.1031384550926973
  0.8879022547348114  0.5392362546131508  0.8521386638878354
  0.7847129622836206  0.4139072996861159  0.6012472908889137
  0.5559373449916833  0.5394889209248035  0.3545031799272209
  0.4445338603112390  0.4281329484748468  0.1031384780012843
  0.2221932833887550  0.5389468303075446  0.8539752812219206
  0.1116377846361445  0.4269667053865831  0.6043519439993759
  0.8879070539671190  0.5394889771358038  0.3545030828739613
  0.7780535743398858  0.4272259124137463  0.1058251573716333
  0.5561947453519451  0.5392362268213802  0.8521385475087158
  0.4447290541750846  0.4269663304311635  0.6043519851171908
  0.2191565112721960  0.8797381818848038  0.3520679691700579
  0.1109750538338830  0.7613832093392219  0.1031309165880359
  0.8878460731168758  0.8728087219370906  0.8542447653014023
  0.7652873422977038  0.7678745323273333  0.6013786345824315
  0.5558173647243549  0.8716987829424099  0.3649967957800229
  0.4454982053295069  0.7611479674566226  0.1051682291336036
  0.2226786360303663  0.8728088108967995  0.8542447858817184
  0.1105528736007955  0.7622277427713584  0.6041418136072139
  0.8844389981167495  0.8797380705003022  0.3520679835099898
  0.7766870276541127  0.7611480156393924  0.1051682890099315
  0.5555954820052946  0.8721424886490823  0.8554028140668706
  0.4501713727408756  0.7678746170113584  0.6013786068208518
 
  0.00000000E+00  0.00000000E+00  0.00000000E+00
  0.00000000E+00  0.00000000E+00  0.00000000E+00
  0.00000000E+00  0.00000000E+00  0.00000000E+00
  0.00000000E+00  0.00000000E+00  0.00000000E+00
  0.00000000E+00  0.00000000E+00  0.00000000E+00
  0.00000000E+00  0.00000000E+00  0.00000000E+00
  0.00000000E+00  0.00000000E+00  0.00000000E+00
  0.00000000E+00  0.00000000E+00  0.00000000E+00
  0.00000000E+00  0.00000000E+00  0.00000000E+00
  0.00000000E+00  0.00000000E+00  0.00000000E+00
  0.00000000E+00  0.00000000E+00  0.00000000E+00
  0.00000000E+00  0.00000000E+00  0.00000000E+00
  0.00000000E+00  0.00000000E+00  0.00000000E+00
  0.00000000E+00  0.00000000E+00  0.00000000E+00
  0.00000000E+00  0.00000000E+00  0.00000000E+00
  0.00000000E+00  0.00000000E+00  0.00000000E+00
  0.00000000E+00  0.00000000E+00  0.00000000E+00
  0.00000000E+00  0.00000000E+00  0.00000000E+00
  0.00000000E+00  0.00000000E+00  0.00000000E+00
  0.00000000E+00  0.00000000E+00  0.00000000E+00
  0.00000000E+00  0.00000000E+00  0.00000000E+00
  0.00000000E+00  0.00000000E+00  0.00000000E+00
  0.00000000E+00  0.00000000E+00  0.00000000E+00
  0.00000000E+00  0.00000000E+00  0.00000000E+00
  0.00000000E+00  0.00000000E+00  0.00000000E+00
  0.00000000E+00  0.00000000E+00  0.00000000E+00
  0.00000000E+00  0.00000000E+00  0.00000000E+00
  0.00000000E+00  0.00000000E+00  0.00000000E+00
  0.00000000E+00  0.00000000E+00  0.00000000E+00
  0.00000000E+00  0.00000000E+00  0.00000000E+00
  0.00000000E+00  0.00000000E+00  0.00000000E+00
  0.00000000E+00  0.00000000E+00  0.00000000E+00
  0.00000000E+00  0.00000000E+00  0.00000000E+00
  0.00000000E+00  0.00000000E+00  0.00000000E+00
  0.00000000E+00  0.00000000E+00  0.00000000E+00
  0.00000000E+00  0.00000000E+00  0.00000000E+00
  0.00000000E+00  0.00000000E+00  0.00000000E+00
  0.00000000E+00  0.00000000E+00  0.00000000E+00
  0.00000000E+00  0.00000000E+00  0.00000000E+00
  0.00000000E+00  0.00000000E+00  0.00000000E+00
  0.00000000E+00  0.00000000E+00  0.00000000E+00
  0.00000000E+00  0.00000000E+00  0.00000000E+00
  0.00000000E+00  0.00000000E+00  0.00000000E+00
  0.00000000E+00  0.00000000E+00  0.00000000E+00
  0.00000000E+00  0.00000000E+00  0.00000000E+00
  0.00000000E+00  0.00000000E+00  0.00000000E+00
  0.00000000E+00  0.00000000E+00  0.00000000E+00
  0.00000000E+00  0.00000000E+00  0.00000000E+00
  0.00000000E+00  0.00000000E+00  0.00000000E+00
  0.00000000E+00  0.00000000E+00  0.00000000E+00
  0.00000000E+00  0.00000000E+00  0.00000000E+00
  0.00000000E+00  0.00000000E+00  0.00000000E+00
  0.00000000E+00  0.00000000E+00  0.00000000E+00
  0.00000000E+00  0.00000000E+00  0.00000000E+00
  0.00000000E+00  0.00000000E+00  0.00000000E+00
  0.00000000E+00  0.00000000E+00  0.00000000E+00
  0.00000000E+00  0.00000000E+00  0.00000000E+00
  0.00000000E+00  0.00000000E+00  0.00000000E+00
  0.00000000E+00  0.00000000E+00  0.00000000E+00
  0.00000000E+00  0.00000000E+00  0.00000000E+00
  0.00000000E+00  0.00000000E+00  0.00000000E+00
  0.00000000E+00  0.00000000E+00  0.00000000E+00
  0.00000000E+00  0.00000000E+00  0.00000000E+00
  0.00000000E+00  0.00000000E+00  0.00000000E+00
  0.00000000E+00  0.00000000E+00  0.00000000E+00
  0.00000000E+00  0.00000000E+00  0.00000000E+00
  0.00000000E+00  0.00000000E+00  0.00000000E+00
  0.00000000E+00  0.00000000E+00  0.00000000E+00
  0.00000000E+00  0.00000000E+00  0.00000000E+00
  0.00000000E+00  0.00000000E+00  0.00000000E+00
  0.00000000E+00  0.00000000E+00  0.00000000E+00
  0.00000000E+00  0.00000000E+00  0.00000000E+00
