supercell of 100% icsd_608626.cif, 0% i 
   1.00000000000000     
    -9.3197734394402865   -0.0021731569884582    0.0017725462332022
    -4.6580041482453254    8.0687259893125240    0.0005723613608384
     0.0018987177378635    0.0003861701212792   -9.9591029144673389
   Al   Be   Si   N 
    32     2     2    36
Direct
  0.1098592323376124  0.0953351892660805  0.2948741776312716
  0.2207937434010816  0.2082169944410310  0.0472944256527796
  0.8865779373629934  0.2057605455491256  0.5479262171128099
  0.4448844382911901  0.0949140671432787  0.2952400534695130
  0.5571109489823343  0.2031635321136065  0.0431857688728812
  0.1048181491827052  0.0947368197177667  0.7947065754757006
  0.2200575643466181  0.2073962044675923  0.5462020250549315
  0.7780002246071334  0.0941169241127824  0.2959842727190463
  0.8861892686536947  0.2085690368966553  0.0421954480462929
  0.5602301835728767  0.2047077290122061  0.5502801139401967
  0.1078921146978331  0.4295112517670816  0.2903053776212445
  0.2179136668372763  0.5403455146195526  0.0471365380224640
  0.7796285726189254  0.4254755472415894  0.7988122054433902
  0.8883166080215474  0.5389508332257265  0.5462133252919514
  0.4447483023350998  0.4268327294768497  0.2946590060492369
  0.5607352019798526  0.5376474877496022  0.0464312902993100
  0.1058064713276892  0.4315915985747196  0.7988878973100313
  0.2227283014318857  0.5367810241637514  0.5459276746823249
  0.7802123421074683  0.4283040888069607  0.2903295106887569
  0.4465906711475256  0.4263699772707028  0.7952162186352041
  0.5574784744639274  0.5376388270612225  0.5442732393717691
  0.1097624412893765  0.7614447308541941  0.2954180107161903
  0.2209570616874430  0.8715257847857814  0.0469142368672095
  0.7821463430787929  0.7594105958190056  0.7989300325034421
  0.8851599544128561  0.8757331597642946  0.5495217488644926
  0.4447505286486404  0.7610960691452462  0.2948219381569359
  0.5587639437417806  0.8711352319873953  0.0477183315025727
  0.2226866687986018  0.8732501924922644  0.5455765396488843
  0.7802120819376981  0.7585197548443645  0.2903882922083554
  0.8887630527452473  0.8712199959114386  0.0434311169577768
  0.4444023638847341  0.7594444253991099  0.7943405207106053
  0.5580027674609198  0.8700614637721955  0.5460225524734383
  0.7869301894610885  0.0920759160666691  0.7880684154992608
  0.8880452392170568  0.5383131819956262  0.0419309062025164
  0.4461802028254382  0.0953432096243318  0.7948166154566607
  0.1077030572415794  0.7636181267453068  0.7947961774255106
  0.2226059692361204  0.2060031403310774  0.3554165157189715
  0.1112989872874905  0.0939177550900112  0.1021880753450759
  0.8845882921050574  0.2009596264380633  0.8516135204161515
  0.7788955749645439  0.0940810589714474  0.6113671918706487
  0.5553810598795863  0.2049990601757443  0.3583654090641204
  0.4443160258266374  0.0945020277684065  0.1051747017991147
  0.2343044657688367  0.1982104381896335  0.8510759057251605
  0.1116870994941550  0.0941521062751605  0.6050625844461877
  0.8886203632963046  0.2060692114980114  0.3554057553257053
  0.7775439178890835  0.0937641009381949  0.1047146375496197
  0.5509772798448083  0.1982595491414685  0.8497487009381430
  0.4441702951338158  0.0941635433541492  0.6148113806147748
  0.2214194018363855  0.5393373012187723  0.3552820256301672
  0.1050155699232604  0.4307128901719253  0.0994264871801178
  0.8875509359212543  0.5390278432041171  0.8595260474080106
  0.7775281617693182  0.4283454613306077  0.6061167607523217
  0.5562117073301920  0.5385452310136429  0.3530460520281338
  0.4440799890543943  0.4272276501314707  0.1017724816186458
  0.2158453029100826  0.5525579626527986  0.8512410900142271
  0.1111950084206015  0.4279684896247034  0.6076290313667982
  0.8891224320856566  0.5392335381198023  0.3562082533773108
  0.7823513382807192  0.4304495777909381  0.1009928964112348
  0.5546793432899406  0.5395339354886559  0.8548788918449972
  0.4440462816938222  0.4285272487040785  0.6052821719842356
  0.2217746682504469  0.8718150512017502  0.3555294351543736
  0.1104466132291364  0.7618898293843515  0.1055614345621834
  0.8999123688615072  0.8714611930838743  0.8491178980610243
  0.7777551370721483  0.7610321155693427  0.6077520181231648
  0.5562476649708401  0.8725680559812616  0.3553825703547489
  0.4435730326113614  0.7624346758227318  0.1025637854280319
  0.2164727413007554  0.8656617214874132  0.8511891059956014
  0.1117991181821054  0.7608162135957102  0.6147450871734534
  0.8894031898430654  0.8713650878430883  0.3576936534476189
  0.7813110779404795  0.7556629184663279  0.0991065228260766
  0.5484111557198119  0.8849965862844869  0.8515459559427043
  0.4444201146377722  0.7611900417717266  0.6046891679161206
 
  0.00000000E+00  0.00000000E+00  0.00000000E+00
  0.00000000E+00  0.00000000E+00  0.00000000E+00
  0.00000000E+00  0.00000000E+00  0.00000000E+00
  0.00000000E+00  0.00000000E+00  0.00000000E+00
  0.00000000E+00  0.00000000E+00  0.00000000E+00
  0.00000000E+00  0.00000000E+00  0.00000000E+00
  0.00000000E+00  0.00000000E+00  0.00000000E+00
  0.00000000E+00  0.00000000E+00  0.00000000E+00
  0.00000000E+00  0.00000000E+00  0.00000000E+00
  0.00000000E+00  0.00000000E+00  0.00000000E+00
  0.00000000E+00  0.00000000E+00  0.00000000E+00
  0.00000000E+00  0.00000000E+00  0.00000000E+00
  0.00000000E+00  0.00000000E+00  0.00000000E+00
  0.00000000E+00  0.00000000E+00  0.00000000E+00
  0.00000000E+00  0.00000000E+00  0.00000000E+00
  0.00000000E+00  0.00000000E+00  0.00000000E+00
  0.00000000E+00  0.00000000E+00  0.00000000E+00
  0.00000000E+00  0.00000000E+00  0.00000000E+00
  0.00000000E+00  0.00000000E+00  0.00000000E+00
  0.00000000E+00  0.00000000E+00  0.00000000E+00
  0.00000000E+00  0.00000000E+00  0.00000000E+00
  0.00000000E+00  0.00000000E+00  0.00000000E+00
  0.00000000E+00  0.00000000E+00  0.00000000E+00
  0.00000000E+00  0.00000000E+00  0.00000000E+00
  0.00000000E+00  0.00000000E+00  0.00000000E+00
  0.00000000E+00  0.00000000E+00  0.00000000E+00
  0.00000000E+00  0.00000000E+00  0.00000000E+00
  0.00000000E+00  0.00000000E+00  0.00000000E+00
  0.00000000E+00  0.00000000E+00  0.00000000E+00
  0.00000000E+00  0.00000000E+00  0.00000000E+00
  0.00000000E+00  0.00000000E+00  0.00000000E+00
  0.00000000E+00  0.00000000E+00  0.00000000E+00
  0.00000000E+00  0.00000000E+00  0.00000000E+00
  0.00000000E+00  0.00000000E+00  0.00000000E+00
  0.00000000E+00  0.00000000E+00  0.00000000E+00
  0.00000000E+00  0.00000000E+00  0.00000000E+00
  0.00000000E+00  0.00000000E+00  0.00000000E+00
  0.00000000E+00  0.00000000E+00  0.00000000E+00
  0.00000000E+00  0.00000000E+00  0.00000000E+00
  0.00000000E+00  0.00000000E+00  0.00000000E+00
  0.00000000E+00  0.00000000E+00  0.00000000E+00
  0.00000000E+00  0.00000000E+00  0.00000000E+00
  0.00000000E+00  0.00000000E+00  0.00000000E+00
  0.00000000E+00  0.00000000E+00  0.00000000E+00
  0.00000000E+00  0.00000000E+00  0.00000000E+00
  0.00000000E+00  0.00000000E+00  0.00000000E+00
  0.00000000E+00  0.00000000E+00  0.00000000E+00
  0.00000000E+00  0.00000000E+00  0.00000000E+00
  0.00000000E+00  0.00000000E+00  0.00000000E+00
  0.00000000E+00  0.00000000E+00  0.00000000E+00
  0.00000000E+00  0.00000000E+00  0.00000000E+00
  0.00000000E+00  0.00000000E+00  0.00000000E+00
  0.00000000E+00  0.00000000E+00  0.00000000E+00
  0.00000000E+00  0.00000000E+00  0.00000000E+00
  0.00000000E+00  0.00000000E+00  0.00000000E+00
  0.00000000E+00  0.00000000E+00  0.00000000E+00
  0.00000000E+00  0.00000000E+00  0.00000000E+00
  0.00000000E+00  0.00000000E+00  0.00000000E+00
  0.00000000E+00  0.00000000E+00  0.00000000E+00
  0.00000000E+00  0.00000000E+00  0.00000000E+00
  0.00000000E+00  0.00000000E+00  0.00000000E+00
  0.00000000E+00  0.00000000E+00  0.00000000E+00
  0.00000000E+00  0.00000000E+00  0.00000000E+00
  0.00000000E+00  0.00000000E+00  0.00000000E+00
  0.00000000E+00  0.00000000E+00  0.00000000E+00
  0.00000000E+00  0.00000000E+00  0.00000000E+00
  0.00000000E+00  0.00000000E+00  0.00000000E+00
  0.00000000E+00  0.00000000E+00  0.00000000E+00
  0.00000000E+00  0.00000000E+00  0.00000000E+00
  0.00000000E+00  0.00000000E+00  0.00000000E+00
  0.00000000E+00  0.00000000E+00  0.00000000E+00
  0.00000000E+00  0.00000000E+00  0.00000000E+00
