supercell of icsd_191774.cif            
   1.00000000000000     
    10.9008716036162241    0.0007753507692386    0.0039023664023497
    -5.4497505753434217    9.4637249724348464    0.0093449986295575
     0.0042085231058405    0.0142596262611402   11.4170157127359939
   N    In   La
    36    30     6
Direct
  0.2356211786196596  0.0992168801176092  0.4386141845534652
  0.1282424780873299  0.2289522002898607  0.2009116516174458
  0.8884492202484182  0.1107516764695191  0.9556197798814097
  0.7677434657997821  0.2013953997181943  0.6891498284675279
  0.5625221723462417  0.1278994185609577  0.4358081013288100
  0.4345324072038679  0.2044433364854257  0.1801427486235383
  0.2211981761640374  0.1099476611864887  0.9401188169380390
  0.1008122032165915  0.2063932289542265  0.6964558659359810
  0.8704841595597443  0.0990947514087850  0.4364077162648599
  0.7660667989917798  0.2348462757093088  0.1872235434162803
  0.5555524584719436  0.1098955777007120  0.9406825671169869
  0.4458086915157438  0.2252420334933447  0.6978690430624539
  0.2331324784734505  0.4616164545973831  0.4431386268944664
  0.1087394551856846  0.5540721620681666  0.1960794281421414
  0.8921540581522649  0.4469287314964916  0.9458689212531084
  0.7721575281185551  0.5686290357291099  0.6865559774815750
  0.5536716563018658  0.4417543477586747  0.4489102911059035
  0.4371279089751638  0.5631650392023886  0.1868167975189650
  0.2203346954070327  0.4443712269320272  0.9550236082138355
  0.1218451080253260  0.5768860780064315  0.6817737125765717
  0.8865161290536321  0.4422995659624789  0.4482711298275888
  0.7965886087892997  0.5656063511884000  0.1897371381583071
  0.5580295841363636  0.4466297008578621  0.9470987855988398
  0.4615370494243436  0.5684723021960849  0.6905789401468780
  0.2053857045345069  0.7715709770301800  0.4301350569464333
  0.1083399117898907  0.8886219549580758  0.1865772971405875
  0.8915766722398217  0.7778247520509680  0.9358194287075818
  0.7779639190471386  0.8898842696887783  0.6942283024631166
  0.5662745987659576  0.7707252622333058  0.4359678090787185
  0.4457691666405239  0.8891215430104751  0.1958876293495067
  0.2216855625594647  0.7768620182204842  0.9471619115624677
  0.1127807646570176  0.8897770191999044  0.6916063201624922
  0.8907897460121035  0.7810273440898996  0.4413046859564034
  0.7665822987269451  0.8629772784966008  0.1821159867369104
  0.5541206764677824  0.7784647529264959  0.9405219880459441
  0.4422119575297003  0.8883223521022998  0.7004906886189985
  0.2265340323472955  0.1028908596013451  0.2477519145356055
  0.8849153401819478  0.1035684953050904  0.7568297495018115
  0.7741515964028167  0.2276228190804161  0.9988194550566547
  0.5511095319050909  0.1125231755952427  0.2459487283108928
  0.4496977133592068  0.2246232181104020  0.5054261936856932
  0.2195807188117627  0.1070788639133937  0.7503832864621671
  0.1181607549335126  0.2240518234001883  0.0048855323131249
  0.7738842952420910  0.2170298446492467  0.4975147152477035
  0.5522606356472011  0.1059886065764033  0.7517286575862769
  0.4423288134896239  0.2179461033356134  0.9926194098901746
  0.2262208272189170  0.4527830168750739  0.2488491780083848
  0.1115231905987244  0.5620742131667171  0.4928624748203632
  0.7857342449058038  0.5607339621934457  0.0005002451625273
  0.4535359892677633  0.5601000843234658  0.5008001241711497
  0.1095108849026616  0.5553040773015638  0.0073595032561755
  0.8900154498527399  0.4476042371433167  0.2530518350068647
  0.7755920910802416  0.5597805971863608  0.4981842100103577
  0.5590021323090895  0.4508402322060689  0.7513278268912700
  0.4439181741457290  0.5596090903992987  0.9998382554965488
  0.2169616546952042  0.7770252559758148  0.2427335578683198
  0.1092602538328293  0.8834046078571518  0.4999770715438601
  0.8902568728370710  0.7826024889386360  0.7462228621175981
  0.7743155590223623  0.8789773162607730  0.9944504288126055
  0.5542845777270884  0.7734974004829880  0.2465738505472146
  0.2238519030886579  0.7833523723105458  0.7549907129059008
  0.1099896371097202  0.8892028617879078  0.9976886666218689
  0.8926508401236788  0.7774933700209772  0.2499173912610999
  0.7772453589762875  0.8858849814206806  0.5019730374433991
  0.5595434770759127  0.7832925325209601  0.7511741832016483
  0.4450864104697345  0.8894010908761700  0.0011364989428202
  0.1102144708239621  0.2157619167807852  0.4868445855093668
  0.8783538623989813  0.1040030764269773  0.2277318848284722
  0.8845645560123359  0.4436632543465748  0.7384125137770781
  0.5549070895499426  0.4415348058583675  0.2401576104793506
  0.2257267274069861  0.4472369349163685  0.7478729753480309
  0.4427616830081433  0.8878234527582833  0.4905865644834719
 
  0.00000000E+00  0.00000000E+00  0.00000000E+00
  0.00000000E+00  0.00000000E+00  0.00000000E+00
  0.00000000E+00  0.00000000E+00  0.00000000E+00
  0.00000000E+00  0.00000000E+00  0.00000000E+00
  0.00000000E+00  0.00000000E+00  0.00000000E+00
  0.00000000E+00  0.00000000E+00  0.00000000E+00
  0.00000000E+00  0.00000000E+00  0.00000000E+00
  0.00000000E+00  0.00000000E+00  0.00000000E+00
  0.00000000E+00  0.00000000E+00  0.00000000E+00
  0.00000000E+00  0.00000000E+00  0.00000000E+00
  0.00000000E+00  0.00000000E+00  0.00000000E+00
  0.00000000E+00  0.00000000E+00  0.00000000E+00
  0.00000000E+00  0.00000000E+00  0.00000000E+00
  0.00000000E+00  0.00000000E+00  0.00000000E+00
  0.00000000E+00  0.00000000E+00  0.00000000E+00
  0.00000000E+00  0.00000000E+00  0.00000000E+00
  0.00000000E+00  0.00000000E+00  0.00000000E+00
  0.00000000E+00  0.00000000E+00  0.00000000E+00
  0.00000000E+00  0.00000000E+00  0.00000000E+00
  0.00000000E+00  0.00000000E+00  0.00000000E+00
  0.00000000E+00  0.00000000E+00  0.00000000E+00
  0.00000000E+00  0.00000000E+00  0.00000000E+00
  0.00000000E+00  0.00000000E+00  0.00000000E+00
  0.00000000E+00  0.00000000E+00  0.00000000E+00
  0.00000000E+00  0.00000000E+00  0.00000000E+00
  0.00000000E+00  0.00000000E+00  0.00000000E+00
  0.00000000E+00  0.00000000E+00  0.00000000E+00
  0.00000000E+00  0.00000000E+00  0.00000000E+00
  0.00000000E+00  0.00000000E+00  0.00000000E+00
  0.00000000E+00  0.00000000E+00  0.00000000E+00
  0.00000000E+00  0.00000000E+00  0.00000000E+00
  0.00000000E+00  0.00000000E+00  0.00000000E+00
  0.00000000E+00  0.00000000E+00  0.00000000E+00
  0.00000000E+00  0.00000000E+00  0.00000000E+00
  0.00000000E+00  0.00000000E+00  0.00000000E+00
  0.00000000E+00  0.00000000E+00  0.00000000E+00
  0.00000000E+00  0.00000000E+00  0.00000000E+00
  0.00000000E+00  0.00000000E+00  0.00000000E+00
  0.00000000E+00  0.00000000E+00  0.00000000E+00
  0.00000000E+00  0.00000000E+00  0.00000000E+00
  0.00000000E+00  0.00000000E+00  0.00000000E+00
  0.00000000E+00  0.00000000E+00  0.00000000E+00
  0.00000000E+00  0.00000000E+00  0.00000000E+00
  0.00000000E+00  0.00000000E+00  0.00000000E+00
  0.00000000E+00  0.00000000E+00  0.00000000E+00
  0.00000000E+00  0.00000000E+00  0.00000000E+00
  0.00000000E+00  0.00000000E+00  0.00000000E+00
  0.00000000E+00  0.00000000E+00  0.00000000E+00
  0.00000000E+00  0.00000000E+00  0.00000000E+00
  0.00000000E+00  0.00000000E+00  0.00000000E+00
  0.00000000E+00  0.00000000E+00  0.00000000E+00
  0.00000000E+00  0.00000000E+00  0.00000000E+00
  0.00000000E+00  0.00000000E+00  0.00000000E+00
  0.00000000E+00  0.00000000E+00  0.00000000E+00
  0.00000000E+00  0.00000000E+00  0.00000000E+00
  0.00000000E+00  0.00000000E+00  0.00000000E+00
  0.00000000E+00  0.00000000E+00  0.00000000E+00
  0.00000000E+00  0.00000000E+00  0.00000000E+00
  0.00000000E+00  0.00000000E+00  0.00000000E+00
  0.00000000E+00  0.00000000E+00  0.00000000E+00
  0.00000000E+00  0.00000000E+00  0.00000000E+00
  0.00000000E+00  0.00000000E+00  0.00000000E+00
  0.00000000E+00  0.00000000E+00  0.00000000E+00
  0.00000000E+00  0.00000000E+00  0.00000000E+00
  0.00000000E+00  0.00000000E+00  0.00000000E+00
  0.00000000E+00  0.00000000E+00  0.00000000E+00
  0.00000000E+00  0.00000000E+00  0.00000000E+00
  0.00000000E+00  0.00000000E+00  0.00000000E+00
  0.00000000E+00  0.00000000E+00  0.00000000E+00
  0.00000000E+00  0.00000000E+00  0.00000000E+00
  0.00000000E+00  0.00000000E+00  0.00000000E+00
  0.00000000E+00  0.00000000E+00  0.00000000E+00
