Al   B    N                             
   1.00000000000000     
    -9.2560793348199901   -0.0021471590954225    0.0022938725849130
    -4.6271885127850920    8.0161462527486815    0.0029484701215604
     0.0031045987688229   -0.0004459662892405   -9.8970872765679658
   Al   B    N 
    33     3    36
Direct
  0.1083502037060953  0.0955170772268303  0.3969109130643744
  0.2198295710565432  0.2026516613489520  0.1535105995894526
  0.7815742981617220  0.0940930912553384  0.9012917339289572
  0.8904846572854197  0.1999766988861325  0.6519890840523317
  0.4458149586708160  0.0921300740818509  0.3963592131120137
  0.5624988405355182  0.2019417736856965  0.1537142174275914
  0.1060077773157388  0.0967599243205228  0.9078891228339714
  0.2232191285304879  0.2033107753576502  0.6531781772553344
  0.7817594693597272  0.0906351769491920  0.4015624838195464
  0.4473112666087786  0.0886230230024836  0.9083007107407113
  0.5602191206577913  0.1982513349905020  0.6533705069452083
  0.1105977110234093  0.4278184940690366  0.4038545502413342
  0.2206940521327425  0.5410110578228284  0.1543541427249764
  0.7806751490455426  0.4224297381840358  0.9076871073377077
  0.8888310287193661  0.5428587890370409  0.6532280557638259
  0.4447504042399260  0.4278685276607845  0.4041675239115605
  0.5607204805389472  0.5367784337490349  0.1534261194667010
  0.1110857119330149  0.4276754380890324  0.9038076818838903
  0.2172311702087910  0.5421575667948204  0.6535200207318965
  0.7790186603452725  0.4248125297085394  0.3972428458543007
  0.8845696992182255  0.5389726522092460  0.1535970662365926
  0.4442941078732403  0.4274968518229514  0.9033127278146367
  0.5569111129743618  0.5393502285709815  0.6537226102707763
  0.1054234634063036  0.7641861461695072  0.4079512600482644
  0.2186216923704265  0.8767111121630791  0.1531866560390540
  0.7738715751323397  0.7652091381626889  0.9011776071774307
  0.4457521349689273  0.7621867185893905  0.3962076510604859
  0.1082302272632916  0.7626071086148016  0.8963221105600567
  0.2184883473838823  0.8745451004975777  0.6528696334235633
  0.7777832072339308  0.7650203429854301  0.4008279027922512
  0.8850712350000336  0.8779247230276255  0.1520117082779748
  0.4472276194503735  0.7641323809969478  0.9076123014788919
  0.5597263947111415  0.8734734508689499  0.6516627575868839
  0.8888292987295543  0.2046201164243939  0.1559661727115582
  0.8880660436922483  0.8731095924323498  0.6548777362494462
  0.5561422426791225  0.8727737692649242  0.1565736552663139
  0.2216428811858080  0.2062245721725731  0.3430721018481648
  0.0853247202655325  0.1069634177918317  0.1016897729396291
  0.8893666160763019  0.2056524692342094  0.8401169384731446
  0.7909431606713824  0.0696865222122156  0.5979718069069833
  0.5579154587804780  0.2052624332469719  0.3450129494484813
  0.4568754501402168  0.0699976224378602  0.1026221938228460
  0.2235180778911499  0.2030144898054331  0.8477968975301664
  0.1100103441126947  0.0950811091338650  0.5893100962815083
  0.8879928909298300  0.2042902237484299  0.3239495158419814
  0.7910025201028859  0.1059465924474239  0.0970457555298267
  0.5561864274531771  0.2029871035370192  0.8469743992355845
  0.4446878666908134  0.0930906777484068  0.5891462635314255
  0.2209609560254435  0.5412933941291698  0.3470104080906324
  0.1104990728032575  0.4282843240543883  0.0951198705165268
  0.8869621078619119  0.5396567238998458  0.8468252712209079
  0.7793248454629378  0.4251784037475232  0.5906280056128352
  0.5554729707109090  0.5383498195496301  0.3431968109599239
  0.4437721829000978  0.4278668461660615  0.0949335710767087
  0.2223118845007335  0.5382578601919192  0.8436278050053332
  0.1110993957649384  0.4264133940974375  0.5952122809909639
  0.8878082777312670  0.5408729428460006  0.3449184462960204
  0.7908092443286989  0.4021459610101275  0.1016382954933306
  0.5567552936583979  0.5400015821011337  0.8477995616448197
  0.4450185904964172  0.4268221732649096  0.5964535299633127
  0.2206337765360686  0.8706562845488435  0.3443639324141756
  0.1083586248598607  0.7622967357909545  0.0890958537198330
  0.8867697130852790  0.8734055160145715  0.8247585268482496
  0.7894980787459787  0.7738763450227424  0.5975589521510756
  0.5575552856832786  0.8714654383444298  0.3237812949999253
  0.4562926424031204  0.7739710720440414  0.1021558994749725
  0.2236868088810269  0.8736057515558784  0.8463457812963782
  0.0859819932317833  0.7741660145021427  0.6025607312197749
  0.8894793348674455  0.8721138800679640  0.3397038547791240
  0.7536490793467578  0.7747647419136356  0.0976325109447771
  0.5550291323448349  0.8726106796525670  0.8398564516343114
  0.4456176981999889  0.7620455436955069  0.5901143294744173
 
  0.00000000E+00  0.00000000E+00  0.00000000E+00
  0.00000000E+00  0.00000000E+00  0.00000000E+00
  0.00000000E+00  0.00000000E+00  0.00000000E+00
  0.00000000E+00  0.00000000E+00  0.00000000E+00
  0.00000000E+00  0.00000000E+00  0.00000000E+00
  0.00000000E+00  0.00000000E+00  0.00000000E+00
  0.00000000E+00  0.00000000E+00  0.00000000E+00
  0.00000000E+00  0.00000000E+00  0.00000000E+00
  0.00000000E+00  0.00000000E+00  0.00000000E+00
  0.00000000E+00  0.00000000E+00  0.00000000E+00
  0.00000000E+00  0.00000000E+00  0.00000000E+00
  0.00000000E+00  0.00000000E+00  0.00000000E+00
  0.00000000E+00  0.00000000E+00  0.00000000E+00
  0.00000000E+00  0.00000000E+00  0.00000000E+00
  0.00000000E+00  0.00000000E+00  0.00000000E+00
  0.00000000E+00  0.00000000E+00  0.00000000E+00
  0.00000000E+00  0.00000000E+00  0.00000000E+00
  0.00000000E+00  0.00000000E+00  0.00000000E+00
  0.00000000E+00  0.00000000E+00  0.00000000E+00
  0.00000000E+00  0.00000000E+00  0.00000000E+00
  0.00000000E+00  0.00000000E+00  0.00000000E+00
  0.00000000E+00  0.00000000E+00  0.00000000E+00
  0.00000000E+00  0.00000000E+00  0.00000000E+00
  0.00000000E+00  0.00000000E+00  0.00000000E+00
  0.00000000E+00  0.00000000E+00  0.00000000E+00
  0.00000000E+00  0.00000000E+00  0.00000000E+00
  0.00000000E+00  0.00000000E+00  0.00000000E+00
  0.00000000E+00  0.00000000E+00  0.00000000E+00
  0.00000000E+00  0.00000000E+00  0.00000000E+00
  0.00000000E+00  0.00000000E+00  0.00000000E+00
  0.00000000E+00  0.00000000E+00  0.00000000E+00
  0.00000000E+00  0.00000000E+00  0.00000000E+00
  0.00000000E+00  0.00000000E+00  0.00000000E+00
  0.00000000E+00  0.00000000E+00  0.00000000E+00
  0.00000000E+00  0.00000000E+00  0.00000000E+00
  0.00000000E+00  0.00000000E+00  0.00000000E+00
  0.00000000E+00  0.00000000E+00  0.00000000E+00
  0.00000000E+00  0.00000000E+00  0.00000000E+00
  0.00000000E+00  0.00000000E+00  0.00000000E+00
  0.00000000E+00  0.00000000E+00  0.00000000E+00
  0.00000000E+00  0.00000000E+00  0.00000000E+00
  0.00000000E+00  0.00000000E+00  0.00000000E+00
  0.00000000E+00  0.00000000E+00  0.00000000E+00
  0.00000000E+00  0.00000000E+00  0.00000000E+00
  0.00000000E+00  0.00000000E+00  0.00000000E+00
  0.00000000E+00  0.00000000E+00  0.00000000E+00
  0.00000000E+00  0.00000000E+00  0.00000000E+00
  0.00000000E+00  0.00000000E+00  0.00000000E+00
  0.00000000E+00  0.00000000E+00  0.00000000E+00
  0.00000000E+00  0.00000000E+00  0.00000000E+00
  0.00000000E+00  0.00000000E+00  0.00000000E+00
  0.00000000E+00  0.00000000E+00  0.00000000E+00
  0.00000000E+00  0.00000000E+00  0.00000000E+00
  0.00000000E+00  0.00000000E+00  0.00000000E+00
  0.00000000E+00  0.00000000E+00  0.00000000E+00
  0.00000000E+00  0.00000000E+00  0.00000000E+00
  0.00000000E+00  0.00000000E+00  0.00000000E+00
  0.00000000E+00  0.00000000E+00  0.00000000E+00
  0.00000000E+00  0.00000000E+00  0.00000000E+00
  0.00000000E+00  0.00000000E+00  0.00000000E+00
  0.00000000E+00  0.00000000E+00  0.00000000E+00
  0.00000000E+00  0.00000000E+00  0.00000000E+00
  0.00000000E+00  0.00000000E+00  0.00000000E+00
  0.00000000E+00  0.00000000E+00  0.00000000E+00
  0.00000000E+00  0.00000000E+00  0.00000000E+00
  0.00000000E+00  0.00000000E+00  0.00000000E+00
  0.00000000E+00  0.00000000E+00  0.00000000E+00
  0.00000000E+00  0.00000000E+00  0.00000000E+00
  0.00000000E+00  0.00000000E+00  0.00000000E+00
  0.00000000E+00  0.00000000E+00  0.00000000E+00
  0.00000000E+00  0.00000000E+00  0.00000000E+00
  0.00000000E+00  0.00000000E+00  0.00000000E+00
