Al   B    N                             
   1.00000000000000     
    -9.2699626153245127   -0.0034356451201462   -0.0017742866312981
    -4.6475265019193186    8.0306203337412221   -0.0018990727407969
    -0.0171201317345204   -0.0126667368142210   -9.9337964382019610
   Al   B    N 
    33     3    36
Direct
  0.1069365736309251  0.0966968270277775  0.3390747643094443
  0.2169698821057437  0.2026566929739460  0.0639056651787655
  0.7784987455806203  0.0870237599183667  0.8050871411370153
  0.8879256151451713  0.2029157603017850  0.5885664256853147
  0.4478410190298305  0.0880378059103748  0.3071794340785772
  0.5636289675212822  0.2023561151201250  0.0636849708710727
  0.1104881613514124  0.0941388255934683  0.8097951731648365
  0.2279417723943595  0.2057788951819006  0.5645903276425628
  0.7821102465348346  0.0933053941542212  0.3266505878484338
  0.4457011387648038  0.0919762116155738  0.8219125269404302
  0.5590545107873481  0.1979739090699510  0.5612359173013175
  0.1122869965847784  0.4282646033880724  0.3115875882525998
  0.2213524231106376  0.5404469388812601  0.0611976144735493
  0.7760038898029507  0.4306012455791119  0.8078583241343438
  0.8900615432101731  0.5465998281542781  0.5602643246471217
  0.4439235436252389  0.4276081834479584  0.3125943562532001
  0.5620473154562546  0.5344220337302019  0.0639078916060640
  0.1099349683525546  0.4277449079040565  0.8136861435129390
  0.2181913268167364  0.5423763547475033  0.5638926090994687
  0.7804614153948819  0.4232145081108172  0.3198389503830867
  0.8855783303707128  0.5366602594894090  0.0639560564622741
  0.4469768510194072  0.4264747208206430  0.8128069215742499
  0.5546089246231958  0.5427951644730840  0.5602167157977647
  0.1085931922148973  0.7611025566778835  0.3197158628537977
  0.2155629726974055  0.8789334064596304  0.0646158072513998
  0.7781182691175630  0.7640949027596378  0.8164430452256468
  0.4470553138320597  0.7645942147621270  0.3075432142931618
  0.1048712092010504  0.7646273657183684  0.8094867544063931
  0.2219564733197075  0.8687950500386918  0.5649355195082890
  0.7731846390004691  0.7655500406096749  0.3138261870680878
  0.8859069451114223  0.8785569506635866  0.0652518393701129
  0.4454687620114939  0.7618415196498205  0.8219396611602576
  0.5594741935344274  0.8732548280059973  0.5658285018574389
  0.8911652864329085  0.2033649199846579  0.1094223196837376
  0.8842212505249236  0.8732969594588198  0.5604735564039487
  0.5560438845330182  0.8725475007578680  0.0592199589020410
  0.2263551484803301  0.2060168696960858  0.3706806088590398
  0.0799266320864760  0.1094582281313379  0.1198962303708697
  0.8846709664489865  0.2053490026805704  0.8225156220179599
  0.7868058693362840  0.0630765485354416  0.6113108829877376
  0.5542296188624078  0.2036550671779906  0.3686464740292763
  0.4565957487618135  0.0698186621735459  0.1136466439033370
  0.2202257711478808  0.2052002148417174  0.8739181315961346
  0.1208504192139443  0.0905238521419491  0.6139606569165963
  0.8851230773516505  0.2080656536269458  0.3890471684642804
  0.7938685892345347  0.1078510089651488  0.1272195557287858
  0.5585999745203480  0.2039548151602020  0.8734352806809795
  0.4467263031835529  0.0928252555236782  0.6294961796347351
  0.2228350659899050  0.5379458855004273  0.3734851246045707
  0.1112409533087728  0.4278705496156689  0.1210156396046500
  0.8868000139656260  0.5401516940918114  0.8734301200557013
  0.7739809214236288  0.4406124138722589  0.6164962411208563
  0.5538664170107666  0.5419168561233647  0.3671576641830967
  0.4440016309661985  0.4274534276347239  0.1216159821865119
  0.2216907578957361  0.5407505157892345  0.8696155302144248
  0.1112188602799833  0.4279960947104939  0.6226479800780709
  0.8888473378801436  0.5410587497252664  0.3675462398113964
  0.7936080380241890  0.3963355798442407  0.1224834544840263
  0.5568216707276434  0.5378084997118293  0.8749145466262007
  0.4472985695488418  0.4260121699978328  0.6202237670980679
  0.2259106586544135  0.8682771765759298  0.3719406062164552
  0.1086123875854739  0.7615246621434579  0.1273834096971882
  0.8880875122916692  0.8731637045559992  0.8780402463817794
  0.7896194820265450  0.7737172108433157  0.6190319874191275
  0.5544641432547124  0.8727063606453598  0.3770811175521231
  0.4560184084684664  0.7739077304101443  0.1139266380862978
  0.2193200469997407  0.8724804759671940  0.8730271175342708
  0.0864650030143608  0.7733175333188527  0.6155068011578066
  0.8878874350192802  0.8699560798797137  0.3906088659936771
  0.7534236854590546  0.7747302631781494  0.1183981008258641
  0.5574798926739106  0.8711124411214470  0.8931591290947125
  0.4458291439392497  0.7619421685732917  0.6284930355915961
 
  0.00000000E+00  0.00000000E+00  0.00000000E+00
  0.00000000E+00  0.00000000E+00  0.00000000E+00
  0.00000000E+00  0.00000000E+00  0.00000000E+00
  0.00000000E+00  0.00000000E+00  0.00000000E+00
  0.00000000E+00  0.00000000E+00  0.00000000E+00
  0.00000000E+00  0.00000000E+00  0.00000000E+00
  0.00000000E+00  0.00000000E+00  0.00000000E+00
  0.00000000E+00  0.00000000E+00  0.00000000E+00
  0.00000000E+00  0.00000000E+00  0.00000000E+00
  0.00000000E+00  0.00000000E+00  0.00000000E+00
  0.00000000E+00  0.00000000E+00  0.00000000E+00
  0.00000000E+00  0.00000000E+00  0.00000000E+00
  0.00000000E+00  0.00000000E+00  0.00000000E+00
  0.00000000E+00  0.00000000E+00  0.00000000E+00
  0.00000000E+00  0.00000000E+00  0.00000000E+00
  0.00000000E+00  0.00000000E+00  0.00000000E+00
  0.00000000E+00  0.00000000E+00  0.00000000E+00
  0.00000000E+00  0.00000000E+00  0.00000000E+00
  0.00000000E+00  0.00000000E+00  0.00000000E+00
  0.00000000E+00  0.00000000E+00  0.00000000E+00
  0.00000000E+00  0.00000000E+00  0.00000000E+00
  0.00000000E+00  0.00000000E+00  0.00000000E+00
  0.00000000E+00  0.00000000E+00  0.00000000E+00
  0.00000000E+00  0.00000000E+00  0.00000000E+00
  0.00000000E+00  0.00000000E+00  0.00000000E+00
  0.00000000E+00  0.00000000E+00  0.00000000E+00
  0.00000000E+00  0.00000000E+00  0.00000000E+00
  0.00000000E+00  0.00000000E+00  0.00000000E+00
  0.00000000E+00  0.00000000E+00  0.00000000E+00
  0.00000000E+00  0.00000000E+00  0.00000000E+00
  0.00000000E+00  0.00000000E+00  0.00000000E+00
  0.00000000E+00  0.00000000E+00  0.00000000E+00
  0.00000000E+00  0.00000000E+00  0.00000000E+00
  0.00000000E+00  0.00000000E+00  0.00000000E+00
  0.00000000E+00  0.00000000E+00  0.00000000E+00
  0.00000000E+00  0.00000000E+00  0.00000000E+00
  0.00000000E+00  0.00000000E+00  0.00000000E+00
  0.00000000E+00  0.00000000E+00  0.00000000E+00
  0.00000000E+00  0.00000000E+00  0.00000000E+00
  0.00000000E+00  0.00000000E+00  0.00000000E+00
  0.00000000E+00  0.00000000E+00  0.00000000E+00
  0.00000000E+00  0.00000000E+00  0.00000000E+00
  0.00000000E+00  0.00000000E+00  0.00000000E+00
  0.00000000E+00  0.00000000E+00  0.00000000E+00
  0.00000000E+00  0.00000000E+00  0.00000000E+00
  0.00000000E+00  0.00000000E+00  0.00000000E+00
  0.00000000E+00  0.00000000E+00  0.00000000E+00
  0.00000000E+00  0.00000000E+00  0.00000000E+00
  0.00000000E+00  0.00000000E+00  0.00000000E+00
  0.00000000E+00  0.00000000E+00  0.00000000E+00
  0.00000000E+00  0.00000000E+00  0.00000000E+00
  0.00000000E+00  0.00000000E+00  0.00000000E+00
  0.00000000E+00  0.00000000E+00  0.00000000E+00
  0.00000000E+00  0.00000000E+00  0.00000000E+00
  0.00000000E+00  0.00000000E+00  0.00000000E+00
  0.00000000E+00  0.00000000E+00  0.00000000E+00
  0.00000000E+00  0.00000000E+00  0.00000000E+00
  0.00000000E+00  0.00000000E+00  0.00000000E+00
  0.00000000E+00  0.00000000E+00  0.00000000E+00
  0.00000000E+00  0.00000000E+00  0.00000000E+00
  0.00000000E+00  0.00000000E+00  0.00000000E+00
  0.00000000E+00  0.00000000E+00  0.00000000E+00
  0.00000000E+00  0.00000000E+00  0.00000000E+00
  0.00000000E+00  0.00000000E+00  0.00000000E+00
  0.00000000E+00  0.00000000E+00  0.00000000E+00
  0.00000000E+00  0.00000000E+00  0.00000000E+00
  0.00000000E+00  0.00000000E+00  0.00000000E+00
  0.00000000E+00  0.00000000E+00  0.00000000E+00
  0.00000000E+00  0.00000000E+00  0.00000000E+00
  0.00000000E+00  0.00000000E+00  0.00000000E+00
  0.00000000E+00  0.00000000E+00  0.00000000E+00
  0.00000000E+00  0.00000000E+00  0.00000000E+00
