Al   B    N                             
   1.00000000000000     
    -9.2799003907934132   -0.0046175096755290    0.0010381302361137
    -4.6660009907180306    8.0364296957244541    0.0053673683368816
    -0.0595639072057402   -0.0167492302004785  -10.0020504580718743
   Al   B    N 
    33     3    36
Direct
  0.1133720280511596  0.0939617426672186  0.4072359783019124
  0.2168149742639471  0.2040595776031182  0.1477104419804149
  0.7820072780880594  0.0815906259320158  0.8315441498381588
  0.8920332610804280  0.2021052241940140  0.6195053650291484
  0.4433655749199730  0.0908241257798252  0.3860195836783333
  0.5589118842098060  0.2040393019984279  0.1294026393763943
  0.1030474478454266  0.0973696984830710  0.8922881760276482
  0.2270505935396940  0.2040145636825059  0.6536790603554081
  0.7861580879622210  0.1000064797219764  0.3275136484316690
  0.4479282588701139  0.0871747158069169  0.9045096183935755
  0.5609027279354706  0.1963276597450090  0.6143822479220944
  0.1101756749076586  0.4264743555341610  0.4007690207532733
  0.2233643007429791  0.5385790803886508  0.1549678335982279
  0.7805634798851599  0.4215530081259899  0.8912656961172871
  0.8908936496062694  0.5475243760115305  0.6521603300004699
  0.4453578779248346  0.4298310031065355  0.3963669053712096
  0.5613940367826515  0.5365708029882725  0.1481864482404802
  0.1115123172977519  0.4297434178791946  0.9005153823962075
  0.2165330503307814  0.5428601893288700  0.6481194413423168
  0.7753225960717600  0.4318528798342243  0.4077918414585469
  0.8855507992090352  0.5338218743114638  0.1511539580738059
  0.4436189360372111  0.4284123818679930  0.8995749325649811
  0.5540482770329831  0.5433971989042519  0.6538983081070526
  0.1023680589523721  0.7669570661529690  0.3926208546928152
  0.2194790346189635  0.8791231572916942  0.1521322528952567
  0.7691776862252553  0.7621429736524377  0.9106769151866700
  0.4445273047611380  0.7617943548838042  0.3940699674186021
  0.1143846184837685  0.7591309401875179  0.9065931524005535
  0.2181373699593934  0.8732177055478516  0.6512885971299909
  0.7774353658195494  0.7657190086039165  0.3831819923514388
  0.8886884535417110  0.8750210855218086  0.1170634066124165
  0.4456169502110541  0.7654117305162771  0.9044600592560244
  0.5602060296162321  0.8731053804448976  0.6460060477557334
  0.8877926769654749  0.2083983466763257  0.1064866455609561
  0.8872976482514616  0.8702157942903455  0.6051044231743248
  0.5560033378433857  0.8658038465412616  0.1546195552508252
  0.2179472101981617  0.2060291202187798  0.3362449915790080
  0.0799623995204684  0.1105192439762916  0.0896646417195939
  0.8883954073752633  0.2064278195630891  0.8241705799195245
  0.7938875778563101  0.0535647210741246  0.6315061439121834
  0.5549219815859914  0.2056485584832188  0.3452473330790937
  0.4553755437064524  0.0675209570688580  0.0985367414598173
  0.2242267615895983  0.2044421722318219  0.8452590473999209
  0.1238449326012869  0.0899785171803202  0.5959191211439716
  0.8850479600213674  0.2039627635848973  0.4036598509035940
  0.7948837915019880  0.1184970285517224  0.1307813200588726
  0.5546851670434592  0.2039552281804475  0.8588592395617098
  0.4437002790546032  0.0900447583603068  0.5794919632029831
  0.2209627166529415  0.5397851086680419  0.3447100177979721
  0.1110383857626758  0.4297346715504986  0.0909449051341298
  0.8879734178050782  0.5425123816000550  0.8432422206590218
  0.7735361849218378  0.4427483384895226  0.5973743290717763
  0.5581493017919783  0.5383993932171123  0.3370237897644373
  0.4430666492975917  0.4312224318116193  0.0909258280233516
  0.2214289673268297  0.5412385029065234  0.8372902566820102
  0.1127673649384775  0.4257395835143711  0.5913060321668837
  0.8883555911449150  0.5370803913900346  0.3404727172045838
  0.7936584544947323  0.3984603230121095  0.0887562680455858
  0.5533860118156682  0.5426323308206733  0.8449349338597116
  0.4461819749272564  0.4292425592768438  0.5890722180756143
  0.2197836960336375  0.8750358697930807  0.3414532432917099
  0.1253953143512163  0.7551504364700747  0.0951966223409286
  0.8850511761900393  0.8746229040795086  0.9057772345232209
  0.7925224415906271  0.7752730579826732  0.5844119525932783
  0.5538741675696741  0.8702526980572287  0.3197107288129857
  0.4540880477567697  0.7746757570922824  0.0981446751617199
  0.2229672263075670  0.8707795973541792  0.8422004089189556
  0.0800323208419584  0.7766782404668930  0.5908091275751630
  0.8895753434958920  0.8699968351750229  0.3219591757152500
  0.7462227722354200  0.7650336757412930  0.1017416485189599
  0.5568333655603510  0.8709465624392507  0.8338576278774710
  0.4439710980150267  0.7621394104342372  0.5863679553086811
 
  0.00000000E+00  0.00000000E+00  0.00000000E+00
  0.00000000E+00  0.00000000E+00  0.00000000E+00
  0.00000000E+00  0.00000000E+00  0.00000000E+00
  0.00000000E+00  0.00000000E+00  0.00000000E+00
  0.00000000E+00  0.00000000E+00  0.00000000E+00
  0.00000000E+00  0.00000000E+00  0.00000000E+00
  0.00000000E+00  0.00000000E+00  0.00000000E+00
  0.00000000E+00  0.00000000E+00  0.00000000E+00
  0.00000000E+00  0.00000000E+00  0.00000000E+00
  0.00000000E+00  0.00000000E+00  0.00000000E+00
  0.00000000E+00  0.00000000E+00  0.00000000E+00
  0.00000000E+00  0.00000000E+00  0.00000000E+00
  0.00000000E+00  0.00000000E+00  0.00000000E+00
  0.00000000E+00  0.00000000E+00  0.00000000E+00
  0.00000000E+00  0.00000000E+00  0.00000000E+00
  0.00000000E+00  0.00000000E+00  0.00000000E+00
  0.00000000E+00  0.00000000E+00  0.00000000E+00
  0.00000000E+00  0.00000000E+00  0.00000000E+00
  0.00000000E+00  0.00000000E+00  0.00000000E+00
  0.00000000E+00  0.00000000E+00  0.00000000E+00
  0.00000000E+00  0.00000000E+00  0.00000000E+00
  0.00000000E+00  0.00000000E+00  0.00000000E+00
  0.00000000E+00  0.00000000E+00  0.00000000E+00
  0.00000000E+00  0.00000000E+00  0.00000000E+00
  0.00000000E+00  0.00000000E+00  0.00000000E+00
  0.00000000E+00  0.00000000E+00  0.00000000E+00
  0.00000000E+00  0.00000000E+00  0.00000000E+00
  0.00000000E+00  0.00000000E+00  0.00000000E+00
  0.00000000E+00  0.00000000E+00  0.00000000E+00
  0.00000000E+00  0.00000000E+00  0.00000000E+00
  0.00000000E+00  0.00000000E+00  0.00000000E+00
  0.00000000E+00  0.00000000E+00  0.00000000E+00
  0.00000000E+00  0.00000000E+00  0.00000000E+00
  0.00000000E+00  0.00000000E+00  0.00000000E+00
  0.00000000E+00  0.00000000E+00  0.00000000E+00
  0.00000000E+00  0.00000000E+00  0.00000000E+00
  0.00000000E+00  0.00000000E+00  0.00000000E+00
  0.00000000E+00  0.00000000E+00  0.00000000E+00
  0.00000000E+00  0.00000000E+00  0.00000000E+00
  0.00000000E+00  0.00000000E+00  0.00000000E+00
  0.00000000E+00  0.00000000E+00  0.00000000E+00
  0.00000000E+00  0.00000000E+00  0.00000000E+00
  0.00000000E+00  0.00000000E+00  0.00000000E+00
  0.00000000E+00  0.00000000E+00  0.00000000E+00
  0.00000000E+00  0.00000000E+00  0.00000000E+00
  0.00000000E+00  0.00000000E+00  0.00000000E+00
  0.00000000E+00  0.00000000E+00  0.00000000E+00
  0.00000000E+00  0.00000000E+00  0.00000000E+00
  0.00000000E+00  0.00000000E+00  0.00000000E+00
  0.00000000E+00  0.00000000E+00  0.00000000E+00
  0.00000000E+00  0.00000000E+00  0.00000000E+00
  0.00000000E+00  0.00000000E+00  0.00000000E+00
  0.00000000E+00  0.00000000E+00  0.00000000E+00
  0.00000000E+00  0.00000000E+00  0.00000000E+00
  0.00000000E+00  0.00000000E+00  0.00000000E+00
  0.00000000E+00  0.00000000E+00  0.00000000E+00
  0.00000000E+00  0.00000000E+00  0.00000000E+00
  0.00000000E+00  0.00000000E+00  0.00000000E+00
  0.00000000E+00  0.00000000E+00  0.00000000E+00
  0.00000000E+00  0.00000000E+00  0.00000000E+00
  0.00000000E+00  0.00000000E+00  0.00000000E+00
  0.00000000E+00  0.00000000E+00  0.00000000E+00
  0.00000000E+00  0.00000000E+00  0.00000000E+00
  0.00000000E+00  0.00000000E+00  0.00000000E+00
  0.00000000E+00  0.00000000E+00  0.00000000E+00
  0.00000000E+00  0.00000000E+00  0.00000000E+00
  0.00000000E+00  0.00000000E+00  0.00000000E+00
  0.00000000E+00  0.00000000E+00  0.00000000E+00
  0.00000000E+00  0.00000000E+00  0.00000000E+00
  0.00000000E+00  0.00000000E+00  0.00000000E+00
  0.00000000E+00  0.00000000E+00  0.00000000E+00
  0.00000000E+00  0.00000000E+00  0.00000000E+00
