Al   B    N                             
   1.00000000000000     
    -9.2906084763079697   -0.0043727398941305   -0.0010948231536116
    -4.6864434390979390    8.0689131708259829   -0.0000064916913084
    -0.0477184168716607   -0.0673358338145260  -10.1709344969374502
   Al   B    N 
    33     3    36
Direct
  0.1161095267114618  0.0941570902003406  0.3959601568765336
  0.2135603577816738  0.2045479590359136  0.1356406967605537
  0.7813848695157191  0.0837846300483562  0.8195343659872307
  0.8893455938955555  0.1999561656630391  0.5979277029888266
  0.4529539828912164  0.0858882816768727  0.3241491679569677
  0.5640133709561326  0.1986437516200681  0.0658224700472871
  0.1007184115965245  0.0985951285297872  0.8871376741216110
  0.2150569097315937  0.2109181756065936  0.6423989849213214
  0.7832172443963188  0.0991189410335735  0.3170351299805247
  0.4490256980580156  0.0916087583750382  0.8156464061159383
  0.5611769579555173  0.1973427572285402  0.5638334446490632
  0.1114793858581606  0.4280984033200639  0.3883984840704358
  0.2167481536865452  0.5414307517190693  0.1432533856603087
  0.7735438195932929  0.4275456781025682  0.8192112780277014
  0.8968082428700868  0.5433194547768210  0.6374326003338737
  0.4504908282006355  0.4235386619597818  0.3179381741805685
  0.5627446211496121  0.5312006440134951  0.0837709337570658
  0.1115986501327058  0.4284215887805303  0.8907310137817461
  0.2110926405905289  0.5470521744458452  0.6371269177151859
  0.7825316147081978  0.4179049801544465  0.3283189492541396
  0.8885746014754332  0.5331020851873944  0.1317608482488524
  0.4489986782331741  0.4236402343167001  0.8236719591103494
  0.5541532821681159  0.5373471867102211  0.5825959342938631
  0.1016090718446421  0.7681702981670924  0.3853078717931595
  0.2193293975071313  0.8798616866308109  0.1430756211524766
  0.7802026756712692  0.7685977886948905  0.8291538833192007
  0.4392278926945679  0.7657458463766886  0.3921724178257762
  0.1152707414420036  0.7587967910212328  0.8972687437586586
  0.2138775228524352  0.8762616674199393  0.6458123280165040
  0.7686550618411161  0.7677137162158445  0.3195814436602760
  0.8867465488798842  0.8781218316395751  0.1000735521501710
  0.4445740739594299  0.7686878588040926  0.8894906143176868
  0.5598299670688576  0.8748527007790585  0.5968612441754217
  0.8874195423790425  0.2065358639222907  0.1035887625901992
  0.8893545315505662  0.8712210100161002  0.6049353577578742
  0.5540043741205807  0.8709393569851969  0.1048923147291774
  0.2181481401458356  0.2077828873583485  0.3236913730027737
  0.0796253459206540  0.1089552200903583  0.0816111171371290
  0.8893390315246990  0.2015006637493784  0.8219450133024964
  0.7914888522894472  0.0580403613619396  0.6235050122659089
  0.5587707695418374  0.2037503999420522  0.3764469837351996
  0.4646108578338470  0.0609699723720496  0.1253399950635909
  0.2156507398808785  0.2076466332620654  0.8344926875048913
  0.1220804315797963  0.0902020761372384  0.5816614764816066
  0.8835613991144839  0.2062250752181356  0.3942411738525422
  0.7916894260171219  0.1168980329907257  0.1231979295181418
  0.5565453392651847  0.2017674263604263  0.8804509962022422
  0.4435137715183117  0.1033541312374595  0.6261602713156549
  0.2174195526090230  0.5435064158033285  0.3337071527171034
  0.1126240991835985  0.4278058207250623  0.0771638131050878
  0.8930657009853107  0.5387501235401118  0.8324335328729404
  0.7732502787906483  0.4365992558986846  0.6238863612485304
  0.5561549401514299  0.5414604955194235  0.3543354538024843
  0.4483204598338091  0.4177517829239434  0.1278094020040399
  0.2140526981840694  0.5441916409009977  0.8262491091688773
  0.1130873804394739  0.4267608668720655  0.5747588911889210
  0.8935472399348043  0.5373519668377895  0.3244889803401989
  0.7967053458102455  0.3919091087076154  0.1238377959816503
  0.5555249979810881  0.5353535579503301  0.8875683168950843
  0.4516500256605980  0.4202931683580857  0.6299141815240432
  0.2199499762837078  0.8762809406118706  0.3290339687186545
  0.1266126614736152  0.7549432420675757  0.0824571164212173
  0.8821486693108440  0.8769081309729216  0.8987954839055803
  0.8020605755898558  0.7757156902310527  0.6242435199966110
  0.5597976107654929  0.8757199426129887  0.3947619514549103
  0.4528366034557791  0.7838526141130941  0.0858188169164293
  0.2200231333367739  0.8726563449328140  0.8334587717399202
  0.0808811683449804  0.7793060504132399  0.5808518073989504
  0.8915856575017429  0.8714315163939261  0.3125421546830651
  0.7398035398836669  0.7720569363524419  0.1199549918375311
  0.5554904692696638  0.8659505687055855  0.8227672133817663
  0.4320872517599668  0.7623760928586307  0.5821928549246067
 
  0.00000000E+00  0.00000000E+00  0.00000000E+00
  0.00000000E+00  0.00000000E+00  0.00000000E+00
  0.00000000E+00  0.00000000E+00  0.00000000E+00
  0.00000000E+00  0.00000000E+00  0.00000000E+00
  0.00000000E+00  0.00000000E+00  0.00000000E+00
  0.00000000E+00  0.00000000E+00  0.00000000E+00
  0.00000000E+00  0.00000000E+00  0.00000000E+00
  0.00000000E+00  0.00000000E+00  0.00000000E+00
  0.00000000E+00  0.00000000E+00  0.00000000E+00
  0.00000000E+00  0.00000000E+00  0.00000000E+00
  0.00000000E+00  0.00000000E+00  0.00000000E+00
  0.00000000E+00  0.00000000E+00  0.00000000E+00
  0.00000000E+00  0.00000000E+00  0.00000000E+00
  0.00000000E+00  0.00000000E+00  0.00000000E+00
  0.00000000E+00  0.00000000E+00  0.00000000E+00
  0.00000000E+00  0.00000000E+00  0.00000000E+00
  0.00000000E+00  0.00000000E+00  0.00000000E+00
  0.00000000E+00  0.00000000E+00  0.00000000E+00
  0.00000000E+00  0.00000000E+00  0.00000000E+00
  0.00000000E+00  0.00000000E+00  0.00000000E+00
  0.00000000E+00  0.00000000E+00  0.00000000E+00
  0.00000000E+00  0.00000000E+00  0.00000000E+00
  0.00000000E+00  0.00000000E+00  0.00000000E+00
  0.00000000E+00  0.00000000E+00  0.00000000E+00
  0.00000000E+00  0.00000000E+00  0.00000000E+00
  0.00000000E+00  0.00000000E+00  0.00000000E+00
  0.00000000E+00  0.00000000E+00  0.00000000E+00
  0.00000000E+00  0.00000000E+00  0.00000000E+00
  0.00000000E+00  0.00000000E+00  0.00000000E+00
  0.00000000E+00  0.00000000E+00  0.00000000E+00
  0.00000000E+00  0.00000000E+00  0.00000000E+00
  0.00000000E+00  0.00000000E+00  0.00000000E+00
  0.00000000E+00  0.00000000E+00  0.00000000E+00
  0.00000000E+00  0.00000000E+00  0.00000000E+00
  0.00000000E+00  0.00000000E+00  0.00000000E+00
  0.00000000E+00  0.00000000E+00  0.00000000E+00
  0.00000000E+00  0.00000000E+00  0.00000000E+00
  0.00000000E+00  0.00000000E+00  0.00000000E+00
  0.00000000E+00  0.00000000E+00  0.00000000E+00
  0.00000000E+00  0.00000000E+00  0.00000000E+00
  0.00000000E+00  0.00000000E+00  0.00000000E+00
  0.00000000E+00  0.00000000E+00  0.00000000E+00
  0.00000000E+00  0.00000000E+00  0.00000000E+00
  0.00000000E+00  0.00000000E+00  0.00000000E+00
  0.00000000E+00  0.00000000E+00  0.00000000E+00
  0.00000000E+00  0.00000000E+00  0.00000000E+00
  0.00000000E+00  0.00000000E+00  0.00000000E+00
  0.00000000E+00  0.00000000E+00  0.00000000E+00
  0.00000000E+00  0.00000000E+00  0.00000000E+00
  0.00000000E+00  0.00000000E+00  0.00000000E+00
  0.00000000E+00  0.00000000E+00  0.00000000E+00
  0.00000000E+00  0.00000000E+00  0.00000000E+00
  0.00000000E+00  0.00000000E+00  0.00000000E+00
  0.00000000E+00  0.00000000E+00  0.00000000E+00
  0.00000000E+00  0.00000000E+00  0.00000000E+00
  0.00000000E+00  0.00000000E+00  0.00000000E+00
  0.00000000E+00  0.00000000E+00  0.00000000E+00
  0.00000000E+00  0.00000000E+00  0.00000000E+00
  0.00000000E+00  0.00000000E+00  0.00000000E+00
  0.00000000E+00  0.00000000E+00  0.00000000E+00
  0.00000000E+00  0.00000000E+00  0.00000000E+00
  0.00000000E+00  0.00000000E+00  0.00000000E+00
  0.00000000E+00  0.00000000E+00  0.00000000E+00
  0.00000000E+00  0.00000000E+00  0.00000000E+00
  0.00000000E+00  0.00000000E+00  0.00000000E+00
  0.00000000E+00  0.00000000E+00  0.00000000E+00
  0.00000000E+00  0.00000000E+00  0.00000000E+00
  0.00000000E+00  0.00000000E+00  0.00000000E+00
  0.00000000E+00  0.00000000E+00  0.00000000E+00
  0.00000000E+00  0.00000000E+00  0.00000000E+00
  0.00000000E+00  0.00000000E+00  0.00000000E+00
  0.00000000E+00  0.00000000E+00  0.00000000E+00
