supercell of 100% icsd_608626.cif, 0% i 
   1.00000000000000     
    -9.6362078890970579    0.0251776362046130    0.0151034158501132
    -4.8399838574914948    8.2872238456539087    0.0140928689952183
     0.0159852921657104   -0.0079763189387716  -10.1926308211104661
   Al   Si   Ca   N 
    26     5     5    36
Direct
  0.1118158286774360  0.0926413154182697  0.2973427007159870
  0.2141830910772882  0.2071608041879713  0.0513187416602605
  0.7743714639026251  0.1030218574189661  0.7903020768391116
  0.8913614737115623  0.2093758307226565  0.5480680675617080
  0.5558797441005865  0.1965875760201286  0.0602246195291229
  0.1063642182516347  0.0991153673447229  0.7871457583363082
  0.2225265383785953  0.2090296794110316  0.5397074593553199
  0.7894078854697213  0.0881096853334213  0.3033425376445464
  0.1092574891729257  0.4264195141130358  0.2902408996043420
  0.2172641561582651  0.5381186422412512  0.0525905404393683
  0.7829123017585005  0.4269282143390001  0.7802345684906342
  0.8983644605157508  0.5337101497927819  0.5471107437663534
  0.1048238964822872  0.4280217284264722  0.7975299139471375
  0.2211111883254020  0.5337252039670304  0.5523052896222538
  0.7888126348450584  0.4222393827811146  0.2952986089153882
  0.8916494955198075  0.5392106554411811  0.0380907278131204
  0.4494575274112620  0.4249536817159694  0.7944504962548393
  0.2257938291085893  0.8763884676205294  0.0501698190918063
  0.7773169875287564  0.7560476461651575  0.8007911061438620
  0.8914613424382054  0.8709312178213082  0.5529645529570146
  0.4380915687639018  0.7635136213274478  0.2862675730138591
  0.5594192038850423  0.8648939591989091  0.0425670846254178
  0.2219112961813252  0.8788092255190136  0.5468606847132875
  0.8872350384502283  0.8708934265775667  0.0450858644341494
  0.4446906316553907  0.7644554920588789  0.7902016292501415
  0.5498400307489106  0.8809780279686095  0.5416944818840150
  0.4333518061954038  0.0930150164912504  0.2919816417450463
  0.5456094613242826  0.2042627380369595  0.5405571766384654
  0.4398002246775263  0.4307343892278226  0.2925338150284276
  0.1173131318194294  0.7647840465551212  0.2999541773255103
  0.1138978355412519  0.7628042377780844  0.7988885001453880
  0.8863299239850662  0.2002850207170681  0.0401427841407695
  0.4430346207941795  0.1029989694761184  0.7977459485207348
  0.5569991661887457  0.5291390907429872  0.0418325135860016
  0.5495788019464740  0.5427136698529793  0.5558705307398881
  0.7811435707235361  0.7608244116399021  0.2925968727716253
  0.2309513733843502  0.2060239247041196  0.3484703256798483
  0.1342274036927833  0.0819458124504990  0.1182945242992304
  0.8888499128447762  0.2035062767643510  0.8166420048414906
  0.7549107451560033  0.1024641026720090  0.5949176794059952
  0.5407090621194257  0.2144239662053948  0.3586562637681183
  0.4413659851059322  0.0923200655206884  0.1157002343695055
  0.1902598255225598  0.2186071024572414  0.8668648831037302
  0.1141588280809600  0.0966001143350397  0.5953274960736863
  0.8911814030663265  0.2016234269690571  0.3570128466393427
  0.7636705843877962  0.0706752314505081  0.1269303530299126
  0.5752313685877866  0.2238362724774206  0.8794341162071646
  0.4482719671203270  0.1013630885685686  0.5761759275888210
  0.2276508341755346  0.5488289946353291  0.3565836807653824
  0.1101021689818751  0.4319675845654771  0.1042835851682256
  0.8899835333631287  0.5367906650124254  0.8479770690306694
  0.8060121773536579  0.4189658006177766  0.5999233712779954
  0.5471736608740017  0.5298164576271489  0.3259757785849331
  0.4221115470847963  0.4080593444010816  0.1274650695363775
  0.2167266992959327  0.5542073949066904  0.8583947163519383
  0.1164964588727102  0.4263658537144792  0.6085240509223340
  0.9112416474071594  0.5090307329713255  0.3667460214114939
  0.7979849238191505  0.4412143975168092  0.1188088658753159
  0.5546146215200594  0.5401823783999475  0.8107864827252982
  0.4328933619217352  0.3948253814428568  0.6099210546812230
  0.2218408045396671  0.8614139605089477  0.3564455172808607
  0.1131747734058308  0.7613040316224229  0.1209646002038767
  0.9046071679266277  0.8701435497853964  0.8479035291685406
  0.7771944364104257  0.7642201488157596  0.6005144168593901
  0.5192465368732968  0.8966539709634844  0.3540574554113007
  0.4345176188884636  0.7830862739660489  0.1066494788686754
  0.2126397808856382  0.8680392230800109  0.8554949905296638
  0.1174642553690362  0.7587673755142106  0.6208997696539811
  0.9268303158380107  0.8725993886014649  0.3708113078146766
  0.7834077906594885  0.7599272668668462  0.0727154718630842
  0.5649187125813171  0.8490470270591075  0.8598642692514815
  0.4249958471684607  0.8043114493793482  0.6098522845051448
 
  0.00000000E+00  0.00000000E+00  0.00000000E+00
  0.00000000E+00  0.00000000E+00  0.00000000E+00
  0.00000000E+00  0.00000000E+00  0.00000000E+00
  0.00000000E+00  0.00000000E+00  0.00000000E+00
  0.00000000E+00  0.00000000E+00  0.00000000E+00
  0.00000000E+00  0.00000000E+00  0.00000000E+00
  0.00000000E+00  0.00000000E+00  0.00000000E+00
  0.00000000E+00  0.00000000E+00  0.00000000E+00
  0.00000000E+00  0.00000000E+00  0.00000000E+00
  0.00000000E+00  0.00000000E+00  0.00000000E+00
  0.00000000E+00  0.00000000E+00  0.00000000E+00
  0.00000000E+00  0.00000000E+00  0.00000000E+00
  0.00000000E+00  0.00000000E+00  0.00000000E+00
  0.00000000E+00  0.00000000E+00  0.00000000E+00
  0.00000000E+00  0.00000000E+00  0.00000000E+00
  0.00000000E+00  0.00000000E+00  0.00000000E+00
  0.00000000E+00  0.00000000E+00  0.00000000E+00
  0.00000000E+00  0.00000000E+00  0.00000000E+00
  0.00000000E+00  0.00000000E+00  0.00000000E+00
  0.00000000E+00  0.00000000E+00  0.00000000E+00
  0.00000000E+00  0.00000000E+00  0.00000000E+00
  0.00000000E+00  0.00000000E+00  0.00000000E+00
  0.00000000E+00  0.00000000E+00  0.00000000E+00
  0.00000000E+00  0.00000000E+00  0.00000000E+00
  0.00000000E+00  0.00000000E+00  0.00000000E+00
  0.00000000E+00  0.00000000E+00  0.00000000E+00
  0.00000000E+00  0.00000000E+00  0.00000000E+00
  0.00000000E+00  0.00000000E+00  0.00000000E+00
  0.00000000E+00  0.00000000E+00  0.00000000E+00
  0.00000000E+00  0.00000000E+00  0.00000000E+00
  0.00000000E+00  0.00000000E+00  0.00000000E+00
  0.00000000E+00  0.00000000E+00  0.00000000E+00
  0.00000000E+00  0.00000000E+00  0.00000000E+00
  0.00000000E+00  0.00000000E+00  0.00000000E+00
  0.00000000E+00  0.00000000E+00  0.00000000E+00
  0.00000000E+00  0.00000000E+00  0.00000000E+00
  0.00000000E+00  0.00000000E+00  0.00000000E+00
  0.00000000E+00  0.00000000E+00  0.00000000E+00
  0.00000000E+00  0.00000000E+00  0.00000000E+00
  0.00000000E+00  0.00000000E+00  0.00000000E+00
  0.00000000E+00  0.00000000E+00  0.00000000E+00
  0.00000000E+00  0.00000000E+00  0.00000000E+00
  0.00000000E+00  0.00000000E+00  0.00000000E+00
  0.00000000E+00  0.00000000E+00  0.00000000E+00
  0.00000000E+00  0.00000000E+00  0.00000000E+00
  0.00000000E+00  0.00000000E+00  0.00000000E+00
  0.00000000E+00  0.00000000E+00  0.00000000E+00
  0.00000000E+00  0.00000000E+00  0.00000000E+00
  0.00000000E+00  0.00000000E+00  0.00000000E+00
  0.00000000E+00  0.00000000E+00  0.00000000E+00
  0.00000000E+00  0.00000000E+00  0.00000000E+00
  0.00000000E+00  0.00000000E+00  0.00000000E+00
  0.00000000E+00  0.00000000E+00  0.00000000E+00
  0.00000000E+00  0.00000000E+00  0.00000000E+00
  0.00000000E+00  0.00000000E+00  0.00000000E+00
  0.00000000E+00  0.00000000E+00  0.00000000E+00
  0.00000000E+00  0.00000000E+00  0.00000000E+00
  0.00000000E+00  0.00000000E+00  0.00000000E+00
  0.00000000E+00  0.00000000E+00  0.00000000E+00
  0.00000000E+00  0.00000000E+00  0.00000000E+00
  0.00000000E+00  0.00000000E+00  0.00000000E+00
  0.00000000E+00  0.00000000E+00  0.00000000E+00
  0.00000000E+00  0.00000000E+00  0.00000000E+00
  0.00000000E+00  0.00000000E+00  0.00000000E+00
  0.00000000E+00  0.00000000E+00  0.00000000E+00
  0.00000000E+00  0.00000000E+00  0.00000000E+00
  0.00000000E+00  0.00000000E+00  0.00000000E+00
  0.00000000E+00  0.00000000E+00  0.00000000E+00
  0.00000000E+00  0.00000000E+00  0.00000000E+00
  0.00000000E+00  0.00000000E+00  0.00000000E+00
  0.00000000E+00  0.00000000E+00  0.00000000E+00
  0.00000000E+00  0.00000000E+00  0.00000000E+00
