supercell of 100% icsd_608626.cif, 0% i 
   1.00000000000000     
    -9.6134262615080761    0.0323968857498002   -0.0509173430140931
    -4.8351026835712450    8.2912796180526964    0.0491570819984315
    -0.0544089925046293   -0.0916204881261784  -10.1519863358516442
   Ca   Al   Si   N 
     5    26     5    36
Direct
  0.1362266400647272  0.0696850825050532  0.2643675610324721
  0.5602794181300155  0.5456650720379841  0.0556170056259617
  0.2302469927406108  0.8459681840929818  0.0121039490730723
  0.7772480994696522  0.7612468055043848  0.8065172789918904
  0.5474003641387952  0.8740093588916764  0.0573238268640637
  0.2273898440386830  0.2143781849465398  0.0316500280515726
  0.8942809471721205  0.2044936312661463  0.5472666793957757
  0.4444280780587277  0.1002178299835421  0.2989785410177106
  0.5492691897206896  0.2105427063786678  0.0531988825050362
  0.1101489715642288  0.1016274054637805  0.8134391494096960
  0.2192803056430463  0.2097526277081130  0.5490616474787231
  0.8888714297451372  0.2087973016068290  0.0356637347934878
  0.4461716458507752  0.0983778148586296  0.7874348497086601
  0.1201967559256047  0.4234088584896369  0.2953121148862365
  0.2171111810847393  0.5348605874126804  0.0570579813054763
  0.7752588895775148  0.4281380084262878  0.7860596202854424
  0.8879166129545695  0.5432718695726422  0.5433825098183078
  0.4419032461607628  0.4305726511034322  0.2974752106823786
  0.2177317004395931  0.5379266135431919  0.5450029450452405
  0.7817456626696497  0.4188153910838892  0.3020842529765275
  0.9075367615073517  0.5181188716393521  0.0569712295262548
  0.4431794489688627  0.4306032391657055  0.7936212757206178
  0.5619446457774799  0.5336193800777735  0.5457646653474342
  0.1210384791610153  0.7530260711079535  0.3031531323130920
  0.8831079387692071  0.8701941150398227  0.5414306388349104
  0.4383391272383861  0.7542998823923810  0.3245606553212852
  0.0994924204686143  0.7674600128717799  0.7839899615192394
  0.2147671606968231  0.8753816175588156  0.5710432075464595
  0.8936063346243657  0.8713735538409253  0.0612041220597490
  0.4419473008524690  0.7661024485469810  0.7669505440578064
  0.5631698834932806  0.8721229535691180  0.5406421677907431
  0.7730898187105026  0.1013489706715660  0.7999026290253752
  0.7766398004100381  0.0963490635741735  0.3003818176993533
  0.5564507199974926  0.2055193376227322  0.5463264536791286
  0.1107443883292234  0.4287112538399498  0.7945312079512803
  0.7815708273585216  0.7575915506725508  0.2945182767093186
  0.2340709366864786  0.2175170509040072  0.3677958158868790
  0.1083195229386433  0.1116616822247636  0.0230805612508647
  0.8619691882488283  0.2136663193431758  0.8443146391133496
  0.7636194150485238  0.0995910621549498  0.6153148431904896
  0.5709827069848927  0.1975555559225910  0.3675224022530301
  0.4275322735003826  0.1269689262561471  0.1166854019170245
  0.2303662655958050  0.2282317624261765  0.8392115202481421
  0.1052468250148593  0.1095224723204993  0.6110722640003985
  0.8681602766386405  0.1981595996956642  0.3632793390293685
  0.7745318083237152  0.0981885181384428  0.1228362652355841
  0.5660065961154288  0.2025114234187839  0.8556821116310260
  0.4541175454268682  0.1043942591185854  0.5965095721698859
  0.2232164226732962  0.5335890949626361  0.3605861406437185
  0.1181558693294207  0.4206892745627471  0.1092035698004494
  0.9162681893498146  0.4963679388442301  0.8632596759520652
  0.7834969633156561  0.4276531384991884  0.5976940256542775
  0.5628899319240332  0.5249385534335076  0.3589923209904384
  0.4305755170381431  0.4207156736255513  0.1133440825713876
  0.2093369732386279  0.5405273423096659  0.8518121434485835
  0.1065256543747566  0.4337987713970719  0.6168497853269201
  0.8889182678288847  0.5482883704644337  0.3539114877646554
  0.8147006070479677  0.4036479081288107  0.1222830106803485
  0.5489330692535290  0.5473719499599454  0.8227555094801886
  0.4485365396838077  0.4125831593402012  0.6005584490061153
  0.2224245983296385  0.8483463677199410  0.3868940706385189
  0.0993010420450844  0.7468091840482671  0.1209541556983353
  0.8928755236345083  0.9084297350277879  0.8698158273411352
  0.7781509790826675  0.7619942316408554  0.5864152243957079
  0.5741239216288463  0.8710874266992121  0.3502608625650652
  0.4141040792132387  0.7808015237284920  0.1512248206273199
  0.2183424832537639  0.8691086968599109  0.7874027788243794
  0.0944029306674565  0.7561536181189723  0.6011223303210542
  0.8733419159737750  0.8829420590519561  0.3503435819314049
  0.8077716758831457  0.7398850932298018  0.1212689312708335
  0.5143620242177391  0.8934539755407016  0.8348473255182540
  0.4545904289758198  0.7592699738147175  0.5809053995729982
 
  0.00000000E+00  0.00000000E+00  0.00000000E+00
  0.00000000E+00  0.00000000E+00  0.00000000E+00
  0.00000000E+00  0.00000000E+00  0.00000000E+00
  0.00000000E+00  0.00000000E+00  0.00000000E+00
  0.00000000E+00  0.00000000E+00  0.00000000E+00
  0.00000000E+00  0.00000000E+00  0.00000000E+00
  0.00000000E+00  0.00000000E+00  0.00000000E+00
  0.00000000E+00  0.00000000E+00  0.00000000E+00
  0.00000000E+00  0.00000000E+00  0.00000000E+00
  0.00000000E+00  0.00000000E+00  0.00000000E+00
  0.00000000E+00  0.00000000E+00  0.00000000E+00
  0.00000000E+00  0.00000000E+00  0.00000000E+00
  0.00000000E+00  0.00000000E+00  0.00000000E+00
  0.00000000E+00  0.00000000E+00  0.00000000E+00
  0.00000000E+00  0.00000000E+00  0.00000000E+00
  0.00000000E+00  0.00000000E+00  0.00000000E+00
  0.00000000E+00  0.00000000E+00  0.00000000E+00
  0.00000000E+00  0.00000000E+00  0.00000000E+00
  0.00000000E+00  0.00000000E+00  0.00000000E+00
  0.00000000E+00  0.00000000E+00  0.00000000E+00
  0.00000000E+00  0.00000000E+00  0.00000000E+00
  0.00000000E+00  0.00000000E+00  0.00000000E+00
  0.00000000E+00  0.00000000E+00  0.00000000E+00
  0.00000000E+00  0.00000000E+00  0.00000000E+00
  0.00000000E+00  0.00000000E+00  0.00000000E+00
  0.00000000E+00  0.00000000E+00  0.00000000E+00
  0.00000000E+00  0.00000000E+00  0.00000000E+00
  0.00000000E+00  0.00000000E+00  0.00000000E+00
  0.00000000E+00  0.00000000E+00  0.00000000E+00
  0.00000000E+00  0.00000000E+00  0.00000000E+00
  0.00000000E+00  0.00000000E+00  0.00000000E+00
  0.00000000E+00  0.00000000E+00  0.00000000E+00
  0.00000000E+00  0.00000000E+00  0.00000000E+00
  0.00000000E+00  0.00000000E+00  0.00000000E+00
  0.00000000E+00  0.00000000E+00  0.00000000E+00
  0.00000000E+00  0.00000000E+00  0.00000000E+00
  0.00000000E+00  0.00000000E+00  0.00000000E+00
  0.00000000E+00  0.00000000E+00  0.00000000E+00
  0.00000000E+00  0.00000000E+00  0.00000000E+00
  0.00000000E+00  0.00000000E+00  0.00000000E+00
  0.00000000E+00  0.00000000E+00  0.00000000E+00
  0.00000000E+00  0.00000000E+00  0.00000000E+00
  0.00000000E+00  0.00000000E+00  0.00000000E+00
  0.00000000E+00  0.00000000E+00  0.00000000E+00
  0.00000000E+00  0.00000000E+00  0.00000000E+00
  0.00000000E+00  0.00000000E+00  0.00000000E+00
  0.00000000E+00  0.00000000E+00  0.00000000E+00
  0.00000000E+00  0.00000000E+00  0.00000000E+00
  0.00000000E+00  0.00000000E+00  0.00000000E+00
  0.00000000E+00  0.00000000E+00  0.00000000E+00
  0.00000000E+00  0.00000000E+00  0.00000000E+00
  0.00000000E+00  0.00000000E+00  0.00000000E+00
  0.00000000E+00  0.00000000E+00  0.00000000E+00
  0.00000000E+00  0.00000000E+00  0.00000000E+00
  0.00000000E+00  0.00000000E+00  0.00000000E+00
  0.00000000E+00  0.00000000E+00  0.00000000E+00
  0.00000000E+00  0.00000000E+00  0.00000000E+00
  0.00000000E+00  0.00000000E+00  0.00000000E+00
  0.00000000E+00  0.00000000E+00  0.00000000E+00
  0.00000000E+00  0.00000000E+00  0.00000000E+00
  0.00000000E+00  0.00000000E+00  0.00000000E+00
  0.00000000E+00  0.00000000E+00  0.00000000E+00
  0.00000000E+00  0.00000000E+00  0.00000000E+00
  0.00000000E+00  0.00000000E+00  0.00000000E+00
  0.00000000E+00  0.00000000E+00  0.00000000E+00
  0.00000000E+00  0.00000000E+00  0.00000000E+00
  0.00000000E+00  0.00000000E+00  0.00000000E+00
  0.00000000E+00  0.00000000E+00  0.00000000E+00
  0.00000000E+00  0.00000000E+00  0.00000000E+00
  0.00000000E+00  0.00000000E+00  0.00000000E+00
  0.00000000E+00  0.00000000E+00  0.00000000E+00
  0.00000000E+00  0.00000000E+00  0.00000000E+00
