supercell of 100% icsd_608626.cif, 0% i 
   1.00000000000000     
    -9.6004488119035685   -0.0701673726172575    0.0153440095911635
    -4.7390515316242707    8.3279006485708944    0.0060240917117939
     0.0165873444215166    0.0022091546598885  -10.0691112087759276
   Al   Si   Ca   N 
    26     5     5    36
Direct
  0.1097223617853018  0.0923935969813527  0.2919311298919212
  0.2223151674793158  0.2009427001329414  0.0429175795085044
  0.7809741364389282  0.0945939192969831  0.7960158391988088
  0.8865896031006884  0.2020551226786864  0.5497818908867060
  0.4416929454268370  0.0959187862090616  0.3025270230659061
  0.1081227403658076  0.0979036026804607  0.7961518664099287
  0.2184447692178821  0.2076809306107705  0.5508378526737872
  0.8899640433720322  0.2120696250420195  0.0435251280708471
  0.4399655251263752  0.0907534722469521  0.7914313250350347
  0.5593868087819516  0.2012216543370755  0.5563139103121912
  0.1094566574010400  0.4214221697866165  0.2759147745821338
  0.7765900603064182  0.4214333955619267  0.7875519989394135
  0.4597110219379417  0.4184083040457409  0.2820284118265874
  0.5652656505272518  0.5384960170705355  0.0385137593218019
  0.1297811788138930  0.4154790325965010  0.8060303901234107
  0.5559223898912506  0.5352249139826171  0.5582140837705012
  0.2234366734111433  0.8686710488823053  0.0447372795195022
  0.7654863692325122  0.7784450425607758  0.7978512606840127
  0.8703349107308611  0.8870250941605136  0.5539835742619488
  0.4360544948121543  0.7635865879262411  0.2943065520328361
  0.5554233802632993  0.8708541513017067  0.0476536605440359
  0.1052822289199753  0.7602760235380188  0.7992220417228424
  0.7717716265094978  0.7698909918915859  0.2953900560546714
  0.8907761540620953  0.8669213819333166  0.0425655505078879
  0.4467248675710493  0.7605535277308348  0.7984602113085799
  0.5545781404894612  0.8720121793473936  0.5461682318209213
  0.5589268733087422  0.2029219910288234  0.0448735798929576
  0.7676444015099833  0.0995263944128624  0.3026756405118860
  0.2249327409345199  0.5345509679833285  0.0739714100786060
  0.8848955090540329  0.5425682905878020  0.0310891813255125
  0.4484340244891101  0.4246971619804611  0.8047672050905490
  0.9033250051043993  0.5506941950554065  0.5688833786268717
  0.2394129212234404  0.5245043532734996  0.5186199817646013
  0.7759437926077695  0.4429460480213905  0.3187454929515283
  0.0955800063864061  0.7583778899213129  0.3060583632733724
  0.2236349114787686  0.8718422421962231  0.5538642531208779
  0.2165425743691571  0.2111011352886649  0.3495542203390372
  0.1071664294608965  0.0966501224661513  0.0987670444853848
  0.8866443750798680  0.2058652249909514  0.8572555408353821
  0.7728083427704533  0.1004587114662030  0.6111532623670612
  0.5612294777695581  0.2085445738905278  0.3574152738155689
  0.4517599038538762  0.1037534810605081  0.1053357647412270
  0.2298762723203609  0.1951338178801620  0.8605517224928647
  0.0918697040081469  0.1248782346930284  0.6130389069000799
  0.8918982413819165  0.1745041261158065  0.3540919856414746
  0.7638134838422630  0.1008471603972509  0.1125981783947410
  0.5538934238894839  0.2098818922725343  0.8657316574504961
  0.4415864049465128  0.0925604515445997  0.5998282175885663
  0.2483530475766926  0.4972474102622613  0.2584613278409194
  0.0946912577848948  0.4332290578326834  0.0780344581990775
  0.8860139446374404  0.5462374015021041  0.8523394501920833
  0.7694118176213252  0.4140244409233134  0.6002302821819825
  0.5112984009762229  0.5556494846470699  0.3701877695280800
  0.4741167005669809  0.4065144740767579  0.0906538934903125
  0.2471262460488433  0.5227019893704821  0.8760307118841624
  0.1501761318920316  0.3979963775184814  0.6298568095579142
  0.9210873957516412  0.5683590288327451  0.3449664327191044
  0.7868113629769340  0.4373909591322587  0.0825689039238355
  0.5525399711185557  0.5310155476677565  0.8528570810016944
  0.4694610472180685  0.4085605040797518  0.6347389700332613
  0.2292115540673478  0.8860731330757190  0.3302071396876585
  0.1128940102697698  0.7499417323856008  0.0759816918417400
  0.8813938923947973  0.8814945216389987  0.8600375443448769
  0.7489746420883421  0.8057788769929886  0.6189161713118523
  0.5529032741734170  0.8705176946695019  0.3483255114375723
  0.4491731232923897  0.7545597861606410  0.0987315488727916
  0.2228976692060343  0.8719994424853041  0.8490851680366021
  0.0770477082793875  0.7592056264751363  0.6141474935884048
  0.8370640335757926  0.9102164360196454  0.3586963611573211
  0.7824049736590695  0.7495889406267153  0.0954352646491117
  0.5503728930969984  0.8780026968712633  0.8624313750727168
  0.4789821759623649  0.7426526976924492  0.6181829956834903
 
  0.00000000E+00  0.00000000E+00  0.00000000E+00
  0.00000000E+00  0.00000000E+00  0.00000000E+00
  0.00000000E+00  0.00000000E+00  0.00000000E+00
  0.00000000E+00  0.00000000E+00  0.00000000E+00
  0.00000000E+00  0.00000000E+00  0.00000000E+00
  0.00000000E+00  0.00000000E+00  0.00000000E+00
  0.00000000E+00  0.00000000E+00  0.00000000E+00
  0.00000000E+00  0.00000000E+00  0.00000000E+00
  0.00000000E+00  0.00000000E+00  0.00000000E+00
  0.00000000E+00  0.00000000E+00  0.00000000E+00
  0.00000000E+00  0.00000000E+00  0.00000000E+00
  0.00000000E+00  0.00000000E+00  0.00000000E+00
  0.00000000E+00  0.00000000E+00  0.00000000E+00
  0.00000000E+00  0.00000000E+00  0.00000000E+00
  0.00000000E+00  0.00000000E+00  0.00000000E+00
  0.00000000E+00  0.00000000E+00  0.00000000E+00
  0.00000000E+00  0.00000000E+00  0.00000000E+00
  0.00000000E+00  0.00000000E+00  0.00000000E+00
  0.00000000E+00  0.00000000E+00  0.00000000E+00
  0.00000000E+00  0.00000000E+00  0.00000000E+00
  0.00000000E+00  0.00000000E+00  0.00000000E+00
  0.00000000E+00  0.00000000E+00  0.00000000E+00
  0.00000000E+00  0.00000000E+00  0.00000000E+00
  0.00000000E+00  0.00000000E+00  0.00000000E+00
  0.00000000E+00  0.00000000E+00  0.00000000E+00
  0.00000000E+00  0.00000000E+00  0.00000000E+00
  0.00000000E+00  0.00000000E+00  0.00000000E+00
  0.00000000E+00  0.00000000E+00  0.00000000E+00
  0.00000000E+00  0.00000000E+00  0.00000000E+00
  0.00000000E+00  0.00000000E+00  0.00000000E+00
  0.00000000E+00  0.00000000E+00  0.00000000E+00
  0.00000000E+00  0.00000000E+00  0.00000000E+00
  0.00000000E+00  0.00000000E+00  0.00000000E+00
  0.00000000E+00  0.00000000E+00  0.00000000E+00
  0.00000000E+00  0.00000000E+00  0.00000000E+00
  0.00000000E+00  0.00000000E+00  0.00000000E+00
  0.00000000E+00  0.00000000E+00  0.00000000E+00
  0.00000000E+00  0.00000000E+00  0.00000000E+00
  0.00000000E+00  0.00000000E+00  0.00000000E+00
  0.00000000E+00  0.00000000E+00  0.00000000E+00
  0.00000000E+00  0.00000000E+00  0.00000000E+00
  0.00000000E+00  0.00000000E+00  0.00000000E+00
  0.00000000E+00  0.00000000E+00  0.00000000E+00
  0.00000000E+00  0.00000000E+00  0.00000000E+00
  0.00000000E+00  0.00000000E+00  0.00000000E+00
  0.00000000E+00  0.00000000E+00  0.00000000E+00
  0.00000000E+00  0.00000000E+00  0.00000000E+00
  0.00000000E+00  0.00000000E+00  0.00000000E+00
  0.00000000E+00  0.00000000E+00  0.00000000E+00
  0.00000000E+00  0.00000000E+00  0.00000000E+00
  0.00000000E+00  0.00000000E+00  0.00000000E+00
  0.00000000E+00  0.00000000E+00  0.00000000E+00
  0.00000000E+00  0.00000000E+00  0.00000000E+00
  0.00000000E+00  0.00000000E+00  0.00000000E+00
  0.00000000E+00  0.00000000E+00  0.00000000E+00
  0.00000000E+00  0.00000000E+00  0.00000000E+00
  0.00000000E+00  0.00000000E+00  0.00000000E+00
  0.00000000E+00  0.00000000E+00  0.00000000E+00
  0.00000000E+00  0.00000000E+00  0.00000000E+00
  0.00000000E+00  0.00000000E+00  0.00000000E+00
  0.00000000E+00  0.00000000E+00  0.00000000E+00
  0.00000000E+00  0.00000000E+00  0.00000000E+00
  0.00000000E+00  0.00000000E+00  0.00000000E+00
  0.00000000E+00  0.00000000E+00  0.00000000E+00
  0.00000000E+00  0.00000000E+00  0.00000000E+00
  0.00000000E+00  0.00000000E+00  0.00000000E+00
  0.00000000E+00  0.00000000E+00  0.00000000E+00
  0.00000000E+00  0.00000000E+00  0.00000000E+00
  0.00000000E+00  0.00000000E+00  0.00000000E+00
  0.00000000E+00  0.00000000E+00  0.00000000E+00
  0.00000000E+00  0.00000000E+00  0.00000000E+00
  0.00000000E+00  0.00000000E+00  0.00000000E+00
