generated by phonopy                    
   1.00000000000000     
    10.0351470768999995   -0.0000022330999784   -0.0000001056124209
    -5.0175765436399997    8.6906901959899994    0.0000001395531216
    -0.0000001735893656    0.0000001431815548   14.9533752540999991
   Cu   Pb   P    O 
     1    19    12    50
Direct
  0.9541718979080898  0.7154966518858430  0.0707511732003496
  0.9879861916507338  0.7533913243703694  0.6160091609053140
  0.0068005088402998  0.2663402371687056  0.3781713795225130
  0.0044377845350851  0.2635219513330469  0.8706673520515125
  0.2457029004584399  0.2281942024864634  0.1178956140018101
  0.2388698006456664  0.2257002229605334  0.6192792521651143
  0.7334767321679792  0.7414440036443040  0.3659632263281125
  0.7370718871132809  0.7424143014439508  0.8691267700603689
  0.7554199975667260  0.0153685181436813  0.1158734841395912
  0.7721053524813328  0.0056911269367532  0.6204533568053918
  0.2590077108606010  0.9952431147064758  0.3642271753439132
  0.2568510717744843  0.9968866617200689  0.8705846256033638
  0.6596390764669380  0.3332802563495889  0.9978720577441464
  0.6546278583061209  0.3259842359906671  0.4992047864979483
  0.3350427238488720  0.6705258538090959  0.0050498152658704
  0.3447968555462992  0.6752387529121577  0.5040726701736915
  0.3178499985195486  0.6647769398900394  0.2455223579579737
  0.3296073034726348  0.6625648794989871  0.7460345789517788
  0.6825304543571349  0.3515295147910038  0.2517171848861892
  0.6641132916146191  0.3310191401530886  0.7486896644284613
  0.6107360709218881  0.5895706469267878  0.1288605673315004
  0.6222861244733977  0.5948096012773263  0.6284027169638478
  0.3697575386761542  0.3948053474525963  0.3736060106399037
  0.3691691508039199  0.3950735437768174  0.8765914456212514
  0.4077978106775220  0.0257375239780302  0.1251563210728790
  0.4092247646491316  0.0304643639869653  0.6273250509864141
  0.6085576561545807  0.9805270028228890  0.3744688488085259
  0.6046812184955570  0.9786399851243104  0.8770791511422473
  0.9746262648671120  0.3975858629031492  0.1210989174320147
  0.9780796683971005  0.3787251383340617  0.6250111029654093
  0.0275517805153029  0.6306331281386335  0.3824385345421319
  0.0215550827155582  0.6285739204092522  0.8760287549886741
  0.5080749182610873  0.6653582565885401  0.1241401632161043
  0.5097011183090601  0.6595977309946477  0.6274336906350868
  0.4778155890656137  0.3245466743169914  0.3726931713956745
  0.4718375907190548  0.3190852057000839  0.8736865081378937
  0.3487942026967090  0.8504511380598316  0.1249295774253483
  0.3384756305389018  0.8523553227380134  0.6267815033746515
  0.6805769339763117  0.1589049978777695  0.3754674480957902
  0.6796356272665065  0.1568806725742462  0.8742532666831124
  0.1537915421846421  0.4979876536258843  0.1213767587152148
  0.1539422705492441  0.4957034318288294  0.6246290413965099
  0.8493632527635882  0.5273242780458460  0.3761919644359679
  0.8434396925625904  0.5271394955952147  0.8765245926304885
  0.7298719788385739  0.6488189363943917  0.0494955250241986
  0.7354964283432466  0.6572764997760956  0.5465034680918635
  0.2574160833722772  0.3361018859357046  0.4561310605062019
  0.2636706093136496  0.3456944759667664  0.9615764836762821
  0.3539945166168366  0.0809930818030224  0.0413603655204398
  0.3577859655227869  0.0875900661208178  0.5429649366248910
  0.6525049305224684  0.9191881046876915  0.4594625858260457
  0.6472702375416759  0.9225038346120726  0.9650808977241283
  0.9182174440668618  0.2754740502563706  0.0432476725517077
  0.9294038054390228  0.2657308247971102  0.5430157302863208
  0.0781285752875149  0.7414290559507890  0.4653876032074820
  0.0843585596641816  0.7309153456755126  0.9629869396061324
  0.2661637302618871  0.3524202733415223  0.2882975405247379
  0.2596264382739548  0.3505348636109744  0.7934659156409225
  0.6952092488588448  0.6208890850030926  0.2201058406664060
  0.7238436329113682  0.6443388726433241  0.7152422363435278
  0.6613032896224311  0.9239616028777817  0.2910166486817971
  0.6578848011058653  0.9155029808643036  0.7969855753772208
  0.3558110341144882  0.0797593028431010  0.2097670406538583
  0.3579101347715294  0.0856348418127340  0.7124049230114977
  0.1008083544377811  0.7355788672832873  0.2989067550683657
  0.0827723282076249  0.7427588462673071  0.7950720304201440
  0.9150339262075491  0.3076429228383191  0.2111067044276496
  0.9258565415163957  0.2746065509020355  0.7106334836600254
  0.5126777607468753  0.4089923650142495  0.1161167368066032
  0.5321319940330085  0.4139112278607300  0.6240755244357388
  0.4698045487713216  0.5767067361151277  0.3812525552702155
  0.4742785145864161  0.5767092778615321  0.8771813172569054
  0.5902969930201394  0.1169627793927219  0.1229283915849280
  0.5903572352306696  0.1169308539634741  0.6265716922539184
  0.4263862351501757  0.9002086510105300  0.3726581204182153
  0.4233543240834834  0.9001793200954893  0.8730149003567078
  0.8976843751642605  0.5008253239056160  0.1080003756626269
  0.8845137332104400  0.4673048233930359  0.6211465926927175
  0.1043638797168356  0.5262754002833319  0.3911579224353332
  0.0992096091591108  0.5251743415272472  0.8719037301534058
  0.0084967911833544  0.9157381223394125  0.0834827930471604
  0.0118428477429475  0.9866424230415873  0.6201821722112584
 
  0.00000000E+00  0.00000000E+00  0.00000000E+00
  0.00000000E+00  0.00000000E+00  0.00000000E+00
  0.00000000E+00  0.00000000E+00  0.00000000E+00
  0.00000000E+00  0.00000000E+00  0.00000000E+00
  0.00000000E+00  0.00000000E+00  0.00000000E+00
  0.00000000E+00  0.00000000E+00  0.00000000E+00
  0.00000000E+00  0.00000000E+00  0.00000000E+00
  0.00000000E+00  0.00000000E+00  0.00000000E+00
  0.00000000E+00  0.00000000E+00  0.00000000E+00
  0.00000000E+00  0.00000000E+00  0.00000000E+00
  0.00000000E+00  0.00000000E+00  0.00000000E+00
  0.00000000E+00  0.00000000E+00  0.00000000E+00
  0.00000000E+00  0.00000000E+00  0.00000000E+00
  0.00000000E+00  0.00000000E+00  0.00000000E+00
  0.00000000E+00  0.00000000E+00  0.00000000E+00
  0.00000000E+00  0.00000000E+00  0.00000000E+00
  0.00000000E+00  0.00000000E+00  0.00000000E+00
  0.00000000E+00  0.00000000E+00  0.00000000E+00
  0.00000000E+00  0.00000000E+00  0.00000000E+00
  0.00000000E+00  0.00000000E+00  0.00000000E+00
  0.00000000E+00  0.00000000E+00  0.00000000E+00
  0.00000000E+00  0.00000000E+00  0.00000000E+00
  0.00000000E+00  0.00000000E+00  0.00000000E+00
  0.00000000E+00  0.00000000E+00  0.00000000E+00
  0.00000000E+00  0.00000000E+00  0.00000000E+00
  0.00000000E+00  0.00000000E+00  0.00000000E+00
  0.00000000E+00  0.00000000E+00  0.00000000E+00
  0.00000000E+00  0.00000000E+00  0.00000000E+00
  0.00000000E+00  0.00000000E+00  0.00000000E+00
  0.00000000E+00  0.00000000E+00  0.00000000E+00
  0.00000000E+00  0.00000000E+00  0.00000000E+00
  0.00000000E+00  0.00000000E+00  0.00000000E+00
  0.00000000E+00  0.00000000E+00  0.00000000E+00
  0.00000000E+00  0.00000000E+00  0.00000000E+00
  0.00000000E+00  0.00000000E+00  0.00000000E+00
  0.00000000E+00  0.00000000E+00  0.00000000E+00
  0.00000000E+00  0.00000000E+00  0.00000000E+00
  0.00000000E+00  0.00000000E+00  0.00000000E+00
  0.00000000E+00  0.00000000E+00  0.00000000E+00
  0.00000000E+00  0.00000000E+00  0.00000000E+00
  0.00000000E+00  0.00000000E+00  0.00000000E+00
  0.00000000E+00  0.00000000E+00  0.00000000E+00
  0.00000000E+00  0.00000000E+00  0.00000000E+00
  0.00000000E+00  0.00000000E+00  0.00000000E+00
  0.00000000E+00  0.00000000E+00  0.00000000E+00
  0.00000000E+00  0.00000000E+00  0.00000000E+00
  0.00000000E+00  0.00000000E+00  0.00000000E+00
  0.00000000E+00  0.00000000E+00  0.00000000E+00
  0.00000000E+00  0.00000000E+00  0.00000000E+00
  0.00000000E+00  0.00000000E+00  0.00000000E+00
  0.00000000E+00  0.00000000E+00  0.00000000E+00
  0.00000000E+00  0.00000000E+00  0.00000000E+00
  0.00000000E+00  0.00000000E+00  0.00000000E+00
  0.00000000E+00  0.00000000E+00  0.00000000E+00
  0.00000000E+00  0.00000000E+00  0.00000000E+00
  0.00000000E+00  0.00000000E+00  0.00000000E+00
  0.00000000E+00  0.00000000E+00  0.00000000E+00
  0.00000000E+00  0.00000000E+00  0.00000000E+00
  0.00000000E+00  0.00000000E+00  0.00000000E+00
  0.00000000E+00  0.00000000E+00  0.00000000E+00
  0.00000000E+00  0.00000000E+00  0.00000000E+00
  0.00000000E+00  0.00000000E+00  0.00000000E+00
  0.00000000E+00  0.00000000E+00  0.00000000E+00
  0.00000000E+00  0.00000000E+00  0.00000000E+00
  0.00000000E+00  0.00000000E+00  0.00000000E+00
  0.00000000E+00  0.00000000E+00  0.00000000E+00
  0.00000000E+00  0.00000000E+00  0.00000000E+00
  0.00000000E+00  0.00000000E+00  0.00000000E+00
  0.00000000E+00  0.00000000E+00  0.00000000E+00
  0.00000000E+00  0.00000000E+00  0.00000000E+00
  0.00000000E+00  0.00000000E+00  0.00000000E+00
  0.00000000E+00  0.00000000E+00  0.00000000E+00
  0.00000000E+00  0.00000000E+00  0.00000000E+00
  0.00000000E+00  0.00000000E+00  0.00000000E+00
  0.00000000E+00  0.00000000E+00  0.00000000E+00
  0.00000000E+00  0.00000000E+00  0.00000000E+00
  0.00000000E+00  0.00000000E+00  0.00000000E+00
  0.00000000E+00  0.00000000E+00  0.00000000E+00
  0.00000000E+00  0.00000000E+00  0.00000000E+00
  0.00000000E+00  0.00000000E+00  0.00000000E+00
  0.00000000E+00  0.00000000E+00  0.00000000E+00
  0.00000000E+00  0.00000000E+00  0.00000000E+00
