generated by phonopy                    
   1.00000000000000     
    11.7777700938999992   -0.0000006592896312    0.0000118211769744
    -0.0000006477562692   11.7777479613999994   -0.0000130806483528
     0.0000177256125076   -0.0000204342245446   17.8544012557999991
   Bi   Cu   Se   Cl   O 
    36    36    36     1    35
Direct
  0.9757902986058014  0.1615977561902469  0.4169996702673302
  0.3572927410779982  0.1714716677923320  0.4170355997498874
  0.6665699535233998  0.1666196901572121  0.4292557859891275
  0.9986368588063570  0.4982333500103735  0.4295747905293510
  0.3344187480162688  0.4994824309483974  0.4294303111749116
  0.6664226361717240  0.5012831950327978  0.4291158814336526
  0.9986983736087254  0.8336624058491608  0.4294100575105091
  0.3345136172452712  0.8349305940880569  0.4295424562237642
  0.6666994253062981  0.8319329444940706  0.4291122260807114
  0.9998673381267764  0.1664905570920112  0.9291249837748126
  0.3332214510700311  0.1666925506622334  0.9291190754917551
  0.6665483293644812  0.1665908809366812  0.9293142623945059
  0.9997437207439930  0.4993923261868787  0.9290778596028346
  0.3333504929434099  0.4992616000846795  0.9291949091771556
  0.6664868417252166  0.4993801220993390  0.9294490693099320
  0.9997528006437122  0.8339303676377057  0.9292121654147962
  0.3333613706262781  0.8338009493488485  0.9290892692144226
  0.6666143061299223  0.8337991845035830  0.9294632076743170
  0.1666523856917550  0.9999160998023982  0.0708610005088062
  0.4992116979211332  0.9997976531809130  0.0707808924284379
  0.8337508195798833  0.9997854096840584  0.0709054953484269
  0.1664484093185266  0.3332744887007593  0.0708525348370088
  0.4993362150525442  0.3334007481532382  0.0708885208157994
  0.8338829684432127  0.3333983771119122  0.0707734042733463
  0.1665553774591331  0.6665874946193284  0.0706633233325533
  0.4993416103202719  0.6666492507312753  0.0705232604948449
  0.8337618812249019  0.6665244326886537  0.0705246739400422
  0.1714901077426134  0.9758707964259870  0.5829437831667192
  0.4994840624448713  0.9987468394065644  0.5705588952613780
  0.8349064331692304  0.9986710977589439  0.5704157894857715
  0.1616109545878501  0.3573874010948970  0.5829872822988662
  0.4982077288911739  0.3345462351127182  0.5704265676310527
  0.8336598932897630  0.3344678192647166  0.5705619503997710
  0.1665789461485403  0.6666149739926084  0.5707295228786577
  0.5012376888487111  0.6667481340957906  0.5708682244815222
  0.8318835082492839  0.6664726285703892  0.5708697264100167
  0.0027256151401431  0.9977588019946992  0.2486850876665088
  0.3308976994980668  0.9986717656847048  0.2491602405987265
  0.6648644834352950  0.0022591653902282  0.2469256001868487
  0.0022219065536220  0.3345096305823887  0.2491789734522882
  0.3303970352162082  0.3354170358661577  0.2487125908534153
  0.6682383098896949  0.3310040722186329  0.2469551491867747
  0.0025145293858557  0.6662867809689672  0.2504080742886714
  0.3306224112146268  0.6668448564246958  0.2504153099849660
  0.6665738676200021  0.6665692719566465  0.2499881707564313
  0.9986320150489547  0.0022904313146270  0.7508201161725196
  0.3353916724683472  0.0027759317862106  0.7512892894475911
  0.6668410588025893  0.0025566061490352  0.7495751643341819
  0.9977321056294670  0.3304498338630069  0.7512739190405355
  0.3344625791879707  0.3309561398285439  0.7507978813655072
  0.6662728587396458  0.3306467853645429  0.7495621269876693
  0.0021925573962420  0.6683499787878091  0.7530506510254682
  0.3309454134525396  0.6649641317261086  0.7530414067858402
  0.6665648038023022  0.6665964272539782  0.7499859595150440
  0.1665316924881566  0.1666007960432836  0.2512285791291760
  0.5005020515425187  0.1663258264328960  0.2470980679314110
  0.8325835147216338  0.1669254004786254  0.2470997541961211
  0.1667349295276637  0.4988620791112055  0.2513839547069381
  0.4974773248209203  0.5069718330511392  0.2469998339234891
  0.8352676396556191  0.5050542001814264  0.2475885081083220
  0.1663953168385888  0.8342994887870034  0.2513827456753788
  0.4978356712136218  0.8280744595556868  0.2475851981315671
  0.8356703254205300  0.8261502474245503  0.2469950155277587
  0.1665598711528489  0.1666129818028139  0.7487501339933544
  0.4988253628159143  0.1664158461000227  0.7485904215307997
  0.8342670529004792  0.1667559224183819  0.7485916722423411
  0.1668766041609047  0.5006003836837181  0.7528919824682276
  0.5050592136559899  0.4978842716597214  0.7523974327457736
  0.8261470137647891  0.4975053176151292  0.7529860468517171
  0.1662858948461619  0.8326743739967526  0.7528766173878765
  0.5070048560566107  0.8357010907830187  0.7529878110204962
  0.8280725998717955  0.8353192651472554  0.7523938956670619
  0.1668862540882330  0.3331255828635591  0.3382259982324385
  0.5012941863047757  0.3350398601640663  0.3341771382836072
  0.8324928789953674  0.3346756808231106  0.3352102325835773
  0.1665648560953912  0.6665935671518710  0.3376804655698109
  0.4996908159041809  0.6668112777282715  0.3373242033210602
  0.8334425482333643  0.6663589177880382  0.3373261800536511
  0.1662242289549596  0.0000750581435227  0.3382154891621667
  0.5006252186605096  0.9985337562768350  0.3351869555833957
  0.8318163241078693  0.9981496357737285  0.3341476310486442
  0.1664729680738759  0.3325119517274757  0.8370341692427843
  0.5001946190311770  0.3321053972624810  0.8378735960717165
  0.8323179558428819  0.3320369914305914  0.8382399420921374
  0.1665673407269921  0.6666322074807880  0.8394499098611661
  0.4991618730567922  0.6667593598098236  0.8364858478855268
  0.8339598685063621  0.6664559391849068  0.8364859698734932
  0.1666365341067078  0.0007127518238477  0.8370439489058441
  0.5007937643586118  0.0011530342515016  0.8382530268564210
  0.8329071277975757  0.0010816922363190  0.8378897724351262
  0.3324426686964301  0.1666839943406089  0.1629451933244397
  0.6665465548439258  0.1666299852613378  0.1605357558384739
  0.0006423650679253  0.1665212750039231  0.1629422470497559
  0.3320082421187109  0.5008217998393292  0.1617361923624117
  0.6664075721596063  0.4991964535022504  0.1634851951562268
  0.0010403859358590  0.5002315439123421  0.1620992057703532
  0.3320698708714218  0.8329377440253296  0.1621021295376437
  0.6667114365922515  0.8340037114207348  0.1635109092773845
  0.0011178712495905  0.8323486964670579  0.1617349539198756
  0.3330772478926320  0.1662702551948598  0.6617530587711400
  0.6665524726471332  0.1665906612046726  0.6622941282185195
  0.0000285647122951  0.1669377125118388  0.6617573716298040
  0.3346402573359128  0.5007003557770986  0.6647860689234051
  0.6663362069228995  0.4997293341972622  0.6626526262620587
  0.9981207474131111  0.5013805056204887  0.6658322605907472
  0.3350175847177681  0.8318977003576791  0.6658057213114006
  0.6667953685238430  0.8334881406757972  0.6626490829674836
  0.9985019176464505  0.8325695921882712  0.6647767427297424
  0.1665215923091310  0.1666511272916935  0.4999867573265959
  0.5027649059690020  0.1659121145962672  0.4992980813526913
  0.8303696582316817  0.1673052557451413  0.4992952140878302
  0.1672674425061871  0.5028131106776144  0.5006895711525772
  0.5018721250246969  0.5026570315282370  0.5001462835844563
  0.8304998360457461  0.5019252607556126  0.4998397147474307
  0.1658760468927838  0.8304116638109136  0.5006639058811047
  0.5026082057377437  0.8313044602932891  0.4998307985324644
  0.8312509563254764  0.8305505775571618  0.5001314929897092
  0.1665488137295483  0.1665935158103551  0.9999934197084244
  0.4995780924553230  0.1666119268171116  0.0003041963013501
  0.8335191858110917  0.1665758106875330  0.0003089389330313
  0.1665352773085260  0.4996274928739197  0.9996726936686287
  0.4998508000610258  0.4999760967522562  0.0000037656009795
  0.8331711528770782  0.4998974335717037  0.9999665579986114
  0.1665725133998706  0.8335652940595679  0.9996859357843775
  0.4999343895990407  0.8332958240652744  0.9999827733371376
  0.8332504959465936  0.8332137290395707  0.0000205617592073
  0.9999081775027605  0.9999468050969895  0.0000085453883045
  0.3332017456891307  0.9999588924587925  0.9999910323804642
  0.6666145550824041  0.9995185299755676  0.0002857778720653
  0.9999000907276141  0.3332405887433083  0.9999803603826010
  0.3331881599824698  0.3332481278672219  0.9999924547173435
  0.6664850231072350  0.3336778938833262  0.0002726232805514
  0.9994735065679876  0.6665288060422014  0.9997088053336043
  0.3336356285218542  0.6666575849832981  0.9997070131075816
  0.6665524619981866  0.6665900092837234  0.9999935538373421
  0.9941218880105538  0.9968251212346360  0.4981994929145728
  0.3363376532091067  0.9942031524109751  0.5017219147667049
  0.6673737221064329  0.9998078312922658  0.4985608404882527
  0.9968011370661145  0.3390834527096871  0.5017896264897601
  0.3389941845878468  0.3363683533017578  0.4982344225718265
  0.6657558306350424  0.3333990487938365  0.4985646639718695
  0.9997776492996095  0.6657984414165838  0.5014178258876498
  0.3333640960714703  0.6674156672317579  0.5014086851343365
  0.6665567015420137  0.6666149665889591  0.4999877227072105
 
  0.00000000E+00  0.00000000E+00  0.00000000E+00
  0.00000000E+00  0.00000000E+00  0.00000000E+00
  0.00000000E+00  0.00000000E+00  0.00000000E+00
  0.00000000E+00  0.00000000E+00  0.00000000E+00
  0.00000000E+00  0.00000000E+00  0.00000000E+00
  0.00000000E+00  0.00000000E+00  0.00000000E+00
  0.00000000E+00  0.00000000E+00  0.00000000E+00
  0.00000000E+00  0.00000000E+00  0.00000000E+00
  0.00000000E+00  0.00000000E+00  0.00000000E+00
  0.00000000E+00  0.00000000E+00  0.00000000E+00
  0.00000000E+00  0.00000000E+00  0.00000000E+00
  0.00000000E+00  0.00000000E+00  0.00000000E+00
  0.00000000E+00  0.00000000E+00  0.00000000E+00
  0.00000000E+00  0.00000000E+00  0.00000000E+00
  0.00000000E+00  0.00000000E+00  0.00000000E+00
  0.00000000E+00  0.00000000E+00  0.00000000E+00
  0.00000000E+00  0.00000000E+00  0.00000000E+00
  0.00000000E+00  0.00000000E+00  0.00000000E+00
  0.00000000E+00  0.00000000E+00  0.00000000E+00
  0.00000000E+00  0.00000000E+00  0.00000000E+00
  0.00000000E+00  0.00000000E+00  0.00000000E+00
  0.00000000E+00  0.00000000E+00  0.00000000E+00
  0.00000000E+00  0.00000000E+00  0.00000000E+00
  0.00000000E+00  0.00000000E+00  0.00000000E+00
  0.00000000E+00  0.00000000E+00  0.00000000E+00
  0.00000000E+00  0.00000000E+00  0.00000000E+00
  0.00000000E+00  0.00000000E+00  0.00000000E+00
  0.00000000E+00  0.00000000E+00  0.00000000E+00
  0.00000000E+00  0.00000000E+00  0.00000000E+00
  0.00000000E+00  0.00000000E+00  0.00000000E+00
  0.00000000E+00  0.00000000E+00  0.00000000E+00
  0.00000000E+00  0.00000000E+00  0.00000000E+00
  0.00000000E+00  0.00000000E+00  0.00000000E+00
  0.00000000E+00  0.00000000E+00  0.00000000E+00
  0.00000000E+00  0.00000000E+00  0.00000000E+00
  0.00000000E+00  0.00000000E+00  0.00000000E+00
  0.00000000E+00  0.00000000E+00  0.00000000E+00
  0.00000000E+00  0.00000000E+00  0.00000000E+00
  0.00000000E+00  0.00000000E+00  0.00000000E+00
  0.00000000E+00  0.00000000E+00  0.00000000E+00
  0.00000000E+00  0.00000000E+00  0.00000000E+00
  0.00000000E+00  0.00000000E+00  0.00000000E+00
  0.00000000E+00  0.00000000E+00  0.00000000E+00
  0.00000000E+00  0.00000000E+00  0.00000000E+00
  0.00000000E+00  0.00000000E+00  0.00000000E+00
  0.00000000E+00  0.00000000E+00  0.00000000E+00
  0.00000000E+00  0.00000000E+00  0.00000000E+00
  0.00000000E+00  0.00000000E+00  0.00000000E+00
  0.00000000E+00  0.00000000E+00  0.00000000E+00
  0.00000000E+00  0.00000000E+00  0.00000000E+00
  0.00000000E+00  0.00000000E+00  0.00000000E+00
  0.00000000E+00  0.00000000E+00  0.00000000E+00
  0.00000000E+00  0.00000000E+00  0.00000000E+00
  0.00000000E+00  0.00000000E+00  0.00000000E+00
  0.00000000E+00  0.00000000E+00  0.00000000E+00
  0.00000000E+00  0.00000000E+00  0.00000000E+00
  0.00000000E+00  0.00000000E+00  0.00000000E+00
  0.00000000E+00  0.00000000E+00  0.00000000E+00
  0.00000000E+00  0.00000000E+00  0.00000000E+00
  0.00000000E+00  0.00000000E+00  0.00000000E+00
  0.00000000E+00  0.00000000E+00  0.00000000E+00
  0.00000000E+00  0.00000000E+00  0.00000000E+00
  0.00000000E+00  0.00000000E+00  0.00000000E+00
  0.00000000E+00  0.00000000E+00  0.00000000E+00
  0.00000000E+00  0.00000000E+00  0.00000000E+00
  0.00000000E+00  0.00000000E+00  0.00000000E+00
  0.00000000E+00  0.00000000E+00  0.00000000E+00
  0.00000000E+00  0.00000000E+00  0.00000000E+00
  0.00000000E+00  0.00000000E+00  0.00000000E+00
  0.00000000E+00  0.00000000E+00  0.00000000E+00
  0.00000000E+00  0.00000000E+00  0.00000000E+00
  0.00000000E+00  0.00000000E+00  0.00000000E+00
  0.00000000E+00  0.00000000E+00  0.00000000E+00
  0.00000000E+00  0.00000000E+00  0.00000000E+00
  0.00000000E+00  0.00000000E+00  0.00000000E+00
  0.00000000E+00  0.00000000E+00  0.00000000E+00
  0.00000000E+00  0.00000000E+00  0.00000000E+00
  0.00000000E+00  0.00000000E+00  0.00000000E+00
  0.00000000E+00  0.00000000E+00  0.00000000E+00
  0.00000000E+00  0.00000000E+00  0.00000000E+00
  0.00000000E+00  0.00000000E+00  0.00000000E+00
  0.00000000E+00  0.00000000E+00  0.00000000E+00
  0.00000000E+00  0.00000000E+00  0.00000000E+00
  0.00000000E+00  0.00000000E+00  0.00000000E+00
  0.00000000E+00  0.00000000E+00  0.00000000E+00
  0.00000000E+00  0.00000000E+00  0.00000000E+00
  0.00000000E+00  0.00000000E+00  0.00000000E+00
  0.00000000E+00  0.00000000E+00  0.00000000E+00
  0.00000000E+00  0.00000000E+00  0.00000000E+00
  0.00000000E+00  0.00000000E+00  0.00000000E+00
  0.00000000E+00  0.00000000E+00  0.00000000E+00
  0.00000000E+00  0.00000000E+00  0.00000000E+00
  0.00000000E+00  0.00000000E+00  0.00000000E+00
  0.00000000E+00  0.00000000E+00  0.00000000E+00
  0.00000000E+00  0.00000000E+00  0.00000000E+00
  0.00000000E+00  0.00000000E+00  0.00000000E+00
  0.00000000E+00  0.00000000E+00  0.00000000E+00
  0.00000000E+00  0.00000000E+00  0.00000000E+00
  0.00000000E+00  0.00000000E+00  0.00000000E+00
  0.00000000E+00  0.00000000E+00  0.00000000E+00
  0.00000000E+00  0.00000000E+00  0.00000000E+00
  0.00000000E+00  0.00000000E+00  0.00000000E+00
  0.00000000E+00  0.00000000E+00  0.00000000E+00
  0.00000000E+00  0.00000000E+00  0.00000000E+00
  0.00000000E+00  0.00000000E+00  0.00000000E+00
  0.00000000E+00  0.00000000E+00  0.00000000E+00
  0.00000000E+00  0.00000000E+00  0.00000000E+00
  0.00000000E+00  0.00000000E+00  0.00000000E+00
  0.00000000E+00  0.00000000E+00  0.00000000E+00
  0.00000000E+00  0.00000000E+00  0.00000000E+00
  0.00000000E+00  0.00000000E+00  0.00000000E+00
  0.00000000E+00  0.00000000E+00  0.00000000E+00
  0.00000000E+00  0.00000000E+00  0.00000000E+00
  0.00000000E+00  0.00000000E+00  0.00000000E+00
  0.00000000E+00  0.00000000E+00  0.00000000E+00
  0.00000000E+00  0.00000000E+00  0.00000000E+00
  0.00000000E+00  0.00000000E+00  0.00000000E+00
  0.00000000E+00  0.00000000E+00  0.00000000E+00
  0.00000000E+00  0.00000000E+00  0.00000000E+00
  0.00000000E+00  0.00000000E+00  0.00000000E+00
  0.00000000E+00  0.00000000E+00  0.00000000E+00
  0.00000000E+00  0.00000000E+00  0.00000000E+00
  0.00000000E+00  0.00000000E+00  0.00000000E+00
  0.00000000E+00  0.00000000E+00  0.00000000E+00
  0.00000000E+00  0.00000000E+00  0.00000000E+00
  0.00000000E+00  0.00000000E+00  0.00000000E+00
  0.00000000E+00  0.00000000E+00  0.00000000E+00
  0.00000000E+00  0.00000000E+00  0.00000000E+00
  0.00000000E+00  0.00000000E+00  0.00000000E+00
  0.00000000E+00  0.00000000E+00  0.00000000E+00
  0.00000000E+00  0.00000000E+00  0.00000000E+00
  0.00000000E+00  0.00000000E+00  0.00000000E+00
  0.00000000E+00  0.00000000E+00  0.00000000E+00
  0.00000000E+00  0.00000000E+00  0.00000000E+00
  0.00000000E+00  0.00000000E+00  0.00000000E+00
  0.00000000E+00  0.00000000E+00  0.00000000E+00
  0.00000000E+00  0.00000000E+00  0.00000000E+00
  0.00000000E+00  0.00000000E+00  0.00000000E+00
  0.00000000E+00  0.00000000E+00  0.00000000E+00
  0.00000000E+00  0.00000000E+00  0.00000000E+00
  0.00000000E+00  0.00000000E+00  0.00000000E+00
  0.00000000E+00  0.00000000E+00  0.00000000E+00
  0.00000000E+00  0.00000000E+00  0.00000000E+00
  0.00000000E+00  0.00000000E+00  0.00000000E+00
