supercell of icsd_181358.cif            
   1.00000000000000     
     9.7000385950963963   -0.0000074749420330    0.0000004543057938
    -4.8500257653693968    8.3974154771276179    0.0052079735567559
     0.0000004914274354    0.0065737359729804   10.4111451696097674
   N    Ga   La
    36    34     2
Direct
  0.2180425886495883  0.1095001407089313  0.4363646860964110
  0.1115959717761541  0.2231914814458449  0.1878852193381420
  0.8890862827781660  0.1119952380342255  0.9381224344125627
  0.8142427435501460  0.2419323441467043  0.6791133772743265
  0.5564017557744450  0.1128040156224870  0.4472907155459538
  0.4410256956047078  0.2197023709653934  0.1935051924352891
  0.2229088904426888  0.1119949606728099  0.9381224884574024
  0.1113750969895975  0.2227495264461226  0.6873922354082964
  0.8914576428996810  0.1095003695788321  0.4363649500154949
  0.7786769888804130  0.2197016833758738  0.1935051774859460
  0.5551767463490407  0.1103538596505018  0.9671258959288238
  0.4276901909834123  0.2419322132745023  0.6791133981131097
  0.2223126311908814  0.4446252916746829  0.4390882848800999
  0.1157263535547557  0.5576771955908058  0.1854304290031337
  0.8904644267079860  0.4420309414869834  0.9473287350838007
  0.7768476815742247  0.5536953471640729  0.7232701891200435
  0.5215577468306876  0.4309462465830336  0.4250767526875876
  0.4419505406011055  0.5576772021718384  0.1854302935207386
  0.2220441202942354  0.4440886928312366  0.9363402381866308
  0.1095722495208520  0.5547308324152311  0.6891992036145069
  0.9093879411921861  0.4309462647877140  0.4250767164433782
  0.7780370417173970  0.5560739412161055  0.1945593003317043
  0.5515660945458478  0.4420312546955216  0.9473290718548455
  0.4451586138887222  0.5547303707630320  0.6891994958872303
  0.2168085819600023  0.7754497147562063  0.4369668555929067
  0.1141655692853760  0.8904818885519674  0.1856322348799821
  0.8907013124621344  0.7814030707029644  0.9454074308863198
  0.7776280207387387  0.8891756404133559  0.6896675664928082
  0.5586405046558056  0.7754498413649884  0.4369670807076531
  0.4430472004305983  0.8860937573224916  0.1963152876486660
  0.2240832411321136  0.7790483113464575  0.9379475066144067
  0.1115480978615935  0.8891756541870421  0.6896675673119290
  0.9056691704494568  0.8113389289564736  0.4282291795454896
  0.7763165137809622  0.8904813298560654  0.1856323062799419
  0.5549649853594190  0.7790486630441720  0.9379474031946131
  0.4252930179992873  0.8505855235870072  0.6760034623405531
  0.2196114796245610  0.1100300200196429  0.2499312698442395
  0.1115320331335141  0.2230630139287371  0.9993617991432018
  0.8962097153979229  0.1141507849603869  0.7490788014538694
  0.7903049804947813  0.2229592642813927  0.4936867475960653
  0.5554608879881968  0.1109218124645608  0.2510260555176060
  0.4414389506308964  0.2204041261752607  0.0081573999133582
  0.2179411929049380  0.1141505240505651  0.7490789956479560
  0.1112031171322556  0.2224052688505580  0.4987622333780521
  0.8904182669245984  0.1100290294944131  0.2499317948866135
  0.7789656559816862  0.2204042554174208  0.0081574083953484
  0.4326540883736811  0.2229586081368637  0.4936867417999267
  0.2225327635744492  0.4450666468151354  0.2503676871292981
  0.1146589333028487  0.5566821956847434  0.9995003167589545
  0.8969368759228615  0.4470678509718482  0.7594857332197265
  0.5474502448411300  0.4427109664895426  0.2429971531106716
  0.4420233700381644  0.5566829204147439  0.9994999546191892
  0.2220420568614898  0.4440852959602068  0.7478034627197374
  0.1153182266763579  0.5535229269286077  0.4999185886203463
  0.8952594053353593  0.4427100960804040  0.2429971451755790
  0.7777981674945096  0.5555958493626321  0.9998854030091877
  0.5501306778040842  0.4470674448188134  0.7594862167818022
  0.4382046983409822  0.5535228282067735  0.4999189720767490
  0.2197265143526437  0.7764377628944743  0.2495806773831859
  0.1139197043405389  0.8907346606209785  0.9991049337495710
  0.8901332448150541  0.7802668919688998  0.7587184307223254
  0.7804792839156960  0.8949862625264942  0.4990893019657108
  0.5567107763846977  0.7764372617898658  0.2495810239152974
  0.4433465712741622  0.8866930366099908  0.0083009023866722
  0.2178036286382934  0.7708358257783559  0.7484788388246670
  0.1145067185696504  0.8949857592804662  0.4990892652864218
  0.8931463226739424  0.7862924003005247  0.2435141534522813
  0.7768154658144866  0.8907350023230123  0.9991049189080172
  0.5530318745280240  0.7708351775130780  0.7484787824374521
  0.4394615279104386  0.8789238328534950  0.4926488730129535
  0.5547113018395891  0.1094226486405034  0.7416379166541134
  0.7769390237510976  0.5538776379949013  0.4963337378831412
 
  0.00000000E+00  0.00000000E+00  0.00000000E+00
  0.00000000E+00  0.00000000E+00  0.00000000E+00
  0.00000000E+00  0.00000000E+00  0.00000000E+00
  0.00000000E+00  0.00000000E+00  0.00000000E+00
  0.00000000E+00  0.00000000E+00  0.00000000E+00
  0.00000000E+00  0.00000000E+00  0.00000000E+00
  0.00000000E+00  0.00000000E+00  0.00000000E+00
  0.00000000E+00  0.00000000E+00  0.00000000E+00
  0.00000000E+00  0.00000000E+00  0.00000000E+00
  0.00000000E+00  0.00000000E+00  0.00000000E+00
  0.00000000E+00  0.00000000E+00  0.00000000E+00
  0.00000000E+00  0.00000000E+00  0.00000000E+00
  0.00000000E+00  0.00000000E+00  0.00000000E+00
  0.00000000E+00  0.00000000E+00  0.00000000E+00
  0.00000000E+00  0.00000000E+00  0.00000000E+00
  0.00000000E+00  0.00000000E+00  0.00000000E+00
  0.00000000E+00  0.00000000E+00  0.00000000E+00
  0.00000000E+00  0.00000000E+00  0.00000000E+00
  0.00000000E+00  0.00000000E+00  0.00000000E+00
  0.00000000E+00  0.00000000E+00  0.00000000E+00
  0.00000000E+00  0.00000000E+00  0.00000000E+00
  0.00000000E+00  0.00000000E+00  0.00000000E+00
  0.00000000E+00  0.00000000E+00  0.00000000E+00
  0.00000000E+00  0.00000000E+00  0.00000000E+00
  0.00000000E+00  0.00000000E+00  0.00000000E+00
  0.00000000E+00  0.00000000E+00  0.00000000E+00
  0.00000000E+00  0.00000000E+00  0.00000000E+00
  0.00000000E+00  0.00000000E+00  0.00000000E+00
  0.00000000E+00  0.00000000E+00  0.00000000E+00
  0.00000000E+00  0.00000000E+00  0.00000000E+00
  0.00000000E+00  0.00000000E+00  0.00000000E+00
  0.00000000E+00  0.00000000E+00  0.00000000E+00
  0.00000000E+00  0.00000000E+00  0.00000000E+00
  0.00000000E+00  0.00000000E+00  0.00000000E+00
  0.00000000E+00  0.00000000E+00  0.00000000E+00
  0.00000000E+00  0.00000000E+00  0.00000000E+00
  0.00000000E+00  0.00000000E+00  0.00000000E+00
  0.00000000E+00  0.00000000E+00  0.00000000E+00
  0.00000000E+00  0.00000000E+00  0.00000000E+00
  0.00000000E+00  0.00000000E+00  0.00000000E+00
  0.00000000E+00  0.00000000E+00  0.00000000E+00
  0.00000000E+00  0.00000000E+00  0.00000000E+00
  0.00000000E+00  0.00000000E+00  0.00000000E+00
  0.00000000E+00  0.00000000E+00  0.00000000E+00
  0.00000000E+00  0.00000000E+00  0.00000000E+00
  0.00000000E+00  0.00000000E+00  0.00000000E+00
  0.00000000E+00  0.00000000E+00  0.00000000E+00
  0.00000000E+00  0.00000000E+00  0.00000000E+00
  0.00000000E+00  0.00000000E+00  0.00000000E+00
  0.00000000E+00  0.00000000E+00  0.00000000E+00
  0.00000000E+00  0.00000000E+00  0.00000000E+00
  0.00000000E+00  0.00000000E+00  0.00000000E+00
  0.00000000E+00  0.00000000E+00  0.00000000E+00
  0.00000000E+00  0.00000000E+00  0.00000000E+00
  0.00000000E+00  0.00000000E+00  0.00000000E+00
  0.00000000E+00  0.00000000E+00  0.00000000E+00
  0.00000000E+00  0.00000000E+00  0.00000000E+00
  0.00000000E+00  0.00000000E+00  0.00000000E+00
  0.00000000E+00  0.00000000E+00  0.00000000E+00
  0.00000000E+00  0.00000000E+00  0.00000000E+00
  0.00000000E+00  0.00000000E+00  0.00000000E+00
  0.00000000E+00  0.00000000E+00  0.00000000E+00
  0.00000000E+00  0.00000000E+00  0.00000000E+00
  0.00000000E+00  0.00000000E+00  0.00000000E+00
  0.00000000E+00  0.00000000E+00  0.00000000E+00
  0.00000000E+00  0.00000000E+00  0.00000000E+00
  0.00000000E+00  0.00000000E+00  0.00000000E+00
  0.00000000E+00  0.00000000E+00  0.00000000E+00
  0.00000000E+00  0.00000000E+00  0.00000000E+00
  0.00000000E+00  0.00000000E+00  0.00000000E+00
  0.00000000E+00  0.00000000E+00  0.00000000E+00
  0.00000000E+00  0.00000000E+00  0.00000000E+00
