Al   B    N                             
   1.00000000000000     
    -9.3134388891995936   -0.0012170535348680   -0.0024823682678753
    -4.6523481971387390    8.0627427519420269   -0.0017260795726874
     0.0101816407009521    0.0459519515627429   -9.9906808757563699
   Al   B    N 
    34     2    36
Direct
  0.1128248406348220  0.0920749273968440  0.3072590269778743
  0.2230405711303192  0.2047955206199106  0.0579245384870575
  0.7802767132059429  0.0965954813007670  0.8115749038969113
  0.4449017007502647  0.0932883562630806  0.3099643905573615
  0.5551269071010339  0.2050402800038853  0.0577957699945557
  0.1118928255813429  0.0933750675541134  0.8119217132641694
  0.2158479459090898  0.2079501143891278  0.5587961187465567
  0.7777214263300607  0.0935550174803836  0.3067759191074018
  0.8901174390941833  0.2023665704070865  0.0733036742787689
  0.4431965043640602  0.0905197036782397  0.8080971905747916
  0.5596546400830746  0.2084002593883483  0.5594676526038498
  0.1110171529443562  0.4268905946131554  0.3096939981860274
  0.2217728867688677  0.5391949543209051  0.0603545408760979
  0.7756408639740968  0.4290561641901576  0.8420413822482473
  0.8915902123295680  0.5331889005691295  0.5628401408954531
  0.4459358387735861  0.4279398054144323  0.3102252371063514
  0.5480377876785596  0.5468350539101721  0.0567044168707582
  0.1126383482238964  0.4281114946720024  0.8082929743259584
  0.2223311423671390  0.5396433376332652  0.5574070093993555
  0.7782551363647414  0.4240256493026564  0.3288525764265984
  0.8896585404031896  0.5410939208391596  0.0600074456791617
  0.4415938064342200  0.4333359114960942  0.8088976024735786
  0.5587072839727867  0.5353350098909289  0.5703258392171833
  0.1112612913602149  0.7633016097862537  0.3092120407237076
  0.2279449469762866  0.8695920406480653  0.0536159144242347
  0.7731733882201581  0.7607335850355526  0.8076423030095157
  0.8911667458318178  0.8771912324519064  0.5589617432138283
  0.4441225183139466  0.7609208373806098  0.3124416007128801
  0.5527028103861369  0.8692818185095632  0.0561577082765368
  0.1161689890201103  0.7593101218343037  0.8086228398137578
  0.2173603610938883  0.8763990730133884  0.5653909663083496
  0.7763112848346836  0.7614648361837482  0.3107078242644761
  0.8879447686678645  0.8718714316419138  0.0572309760237886
  0.5539168500753604  0.8716696234950518  0.5640736037215390
  0.8879695018149292  0.2086063189304426  0.5962667710262579
  0.4431588099974491  0.7623295264886849  0.8049099616642437
  0.2225402327918573  0.2043204996149655  0.3692153794540900
  0.1186445881307208  0.0885557993012256  0.1151325595476820
  0.8928499778325829  0.2000043290886495  0.8780982420013927
  0.7925817711596395  0.1098972336491926  0.6168117910890842
  0.5561850630835679  0.2048542853530577  0.3694999862640387
  0.4453697442329414  0.0923902398720600  0.1171633237577154
  0.2222185107074353  0.2059723519381080  0.8669120784689568
  0.0816392943617004  0.1100357254209072  0.6179264940789579
  0.8912340393939147  0.2015863200778227  0.3426080325652876
  0.7744816208384790  0.0905385289466807  0.1162906974528681
  0.5555250776882659  0.2057888465667261  0.8659377656958114
  0.4438402548324589  0.0957486564785839  0.6180854786906096
  0.2223381734386507  0.5392347837103202  0.3671221386163452
  0.1114871248775842  0.4268768268271472  0.1193277045912637
  0.8921815993884508  0.5408969608152105  0.8677636117745564
  0.7934676487458461  0.3978473464676711  0.6106410252603993
  0.5534923230117599  0.5409485144884698  0.3771593043303554
  0.4449803996291166  0.4280467289248051  0.1180907343260600
  0.2221446695009774  0.5388590881587092  0.8702354591362678
  0.1129668314076326  0.4279921808866121  0.6187546642947552
  0.8893511571389396  0.5391121109190138  0.3711307884486956
  0.7726470348221639  0.4325139780031293  0.0986734004256107
  0.5392289014074194  0.5661110858725920  0.8605967996581469
  0.4426683056456753  0.4280912660553327  0.6201816431167799
  0.2240187427789735  0.8716694542861845  0.3747375811120577
  0.1115227216798402  0.7630400892437521  0.1164206791495488
  0.8886845287369525  0.8718282653043303  0.8655100549632877
  0.7783320589625831  0.7618086739092504  0.6180989883140668
  0.5547252357321142  0.8712319467883276  0.3729011962495505
  0.4431051774947576  0.7616521911581700  0.1236467246767106
  0.2468342610766570  0.8607255096833129  0.8590073165623906
  0.1112848601236749  0.7602150946116666  0.6193680913152946
  0.8887661125172386  0.8718132356901123  0.3692183321600311
  0.7756198196994788  0.7623498886048452  0.1182865565451223
  0.5430097975556194  0.8595984172258113  0.8618605860253368
  0.4433760047098545  0.7624239580789407  0.6397595414978738
 
  0.00000000E+00  0.00000000E+00  0.00000000E+00
  0.00000000E+00  0.00000000E+00  0.00000000E+00
  0.00000000E+00  0.00000000E+00  0.00000000E+00
  0.00000000E+00  0.00000000E+00  0.00000000E+00
  0.00000000E+00  0.00000000E+00  0.00000000E+00
  0.00000000E+00  0.00000000E+00  0.00000000E+00
  0.00000000E+00  0.00000000E+00  0.00000000E+00
  0.00000000E+00  0.00000000E+00  0.00000000E+00
  0.00000000E+00  0.00000000E+00  0.00000000E+00
  0.00000000E+00  0.00000000E+00  0.00000000E+00
  0.00000000E+00  0.00000000E+00  0.00000000E+00
  0.00000000E+00  0.00000000E+00  0.00000000E+00
  0.00000000E+00  0.00000000E+00  0.00000000E+00
  0.00000000E+00  0.00000000E+00  0.00000000E+00
  0.00000000E+00  0.00000000E+00  0.00000000E+00
  0.00000000E+00  0.00000000E+00  0.00000000E+00
  0.00000000E+00  0.00000000E+00  0.00000000E+00
  0.00000000E+00  0.00000000E+00  0.00000000E+00
  0.00000000E+00  0.00000000E+00  0.00000000E+00
  0.00000000E+00  0.00000000E+00  0.00000000E+00
  0.00000000E+00  0.00000000E+00  0.00000000E+00
  0.00000000E+00  0.00000000E+00  0.00000000E+00
  0.00000000E+00  0.00000000E+00  0.00000000E+00
  0.00000000E+00  0.00000000E+00  0.00000000E+00
  0.00000000E+00  0.00000000E+00  0.00000000E+00
  0.00000000E+00  0.00000000E+00  0.00000000E+00
  0.00000000E+00  0.00000000E+00  0.00000000E+00
  0.00000000E+00  0.00000000E+00  0.00000000E+00
  0.00000000E+00  0.00000000E+00  0.00000000E+00
  0.00000000E+00  0.00000000E+00  0.00000000E+00
  0.00000000E+00  0.00000000E+00  0.00000000E+00
  0.00000000E+00  0.00000000E+00  0.00000000E+00
  0.00000000E+00  0.00000000E+00  0.00000000E+00
  0.00000000E+00  0.00000000E+00  0.00000000E+00
  0.00000000E+00  0.00000000E+00  0.00000000E+00
  0.00000000E+00  0.00000000E+00  0.00000000E+00
  0.00000000E+00  0.00000000E+00  0.00000000E+00
  0.00000000E+00  0.00000000E+00  0.00000000E+00
  0.00000000E+00  0.00000000E+00  0.00000000E+00
  0.00000000E+00  0.00000000E+00  0.00000000E+00
  0.00000000E+00  0.00000000E+00  0.00000000E+00
  0.00000000E+00  0.00000000E+00  0.00000000E+00
  0.00000000E+00  0.00000000E+00  0.00000000E+00
  0.00000000E+00  0.00000000E+00  0.00000000E+00
  0.00000000E+00  0.00000000E+00  0.00000000E+00
  0.00000000E+00  0.00000000E+00  0.00000000E+00
  0.00000000E+00  0.00000000E+00  0.00000000E+00
  0.00000000E+00  0.00000000E+00  0.00000000E+00
  0.00000000E+00  0.00000000E+00  0.00000000E+00
  0.00000000E+00  0.00000000E+00  0.00000000E+00
  0.00000000E+00  0.00000000E+00  0.00000000E+00
  0.00000000E+00  0.00000000E+00  0.00000000E+00
  0.00000000E+00  0.00000000E+00  0.00000000E+00
  0.00000000E+00  0.00000000E+00  0.00000000E+00
  0.00000000E+00  0.00000000E+00  0.00000000E+00
  0.00000000E+00  0.00000000E+00  0.00000000E+00
  0.00000000E+00  0.00000000E+00  0.00000000E+00
  0.00000000E+00  0.00000000E+00  0.00000000E+00
  0.00000000E+00  0.00000000E+00  0.00000000E+00
  0.00000000E+00  0.00000000E+00  0.00000000E+00
  0.00000000E+00  0.00000000E+00  0.00000000E+00
  0.00000000E+00  0.00000000E+00  0.00000000E+00
  0.00000000E+00  0.00000000E+00  0.00000000E+00
  0.00000000E+00  0.00000000E+00  0.00000000E+00
  0.00000000E+00  0.00000000E+00  0.00000000E+00
  0.00000000E+00  0.00000000E+00  0.00000000E+00
  0.00000000E+00  0.00000000E+00  0.00000000E+00
  0.00000000E+00  0.00000000E+00  0.00000000E+00
  0.00000000E+00  0.00000000E+00  0.00000000E+00
  0.00000000E+00  0.00000000E+00  0.00000000E+00
  0.00000000E+00  0.00000000E+00  0.00000000E+00
  0.00000000E+00  0.00000000E+00  0.00000000E+00
