Al   B    N                             
   1.00000000000000     
    -9.3597469961605686   -0.0023997527866444   -0.0083839183578322
    -4.6666648218667612    8.1133905573793257   -0.0086109457323589
     0.0522312462055053   -0.0304691533111279  -10.0839819161891100
   Al   B    N 
    34     2    36
Direct
  0.1042248218817221  0.1008155819477992  0.3931593737354007
  0.2220085417482238  0.2017634442799547  0.1365196531015442
  0.7817550663511739  0.0984435590877339  0.8700924205186169
  0.4388942723188620  0.0966374916115456  0.3911185549185276
  0.5533554733887200  0.2110578236336167  0.0651187211779174
  0.1113799705152729  0.0949059281342599  0.8758391015267719
  0.2132134441384039  0.2107570162720975  0.6387636436114619
  0.7835869512126692  0.1002717654820984  0.3897235857436172
  0.8893274789953836  0.2060129485537274  0.1334289569675988
  0.4368695375962162  0.0926476225623389  0.8744581505256264
  0.5573026514601693  0.2130909092320223  0.5818210780519948
  0.1087291436502653  0.4254134912927654  0.3820678715607002
  0.2245507264517457  0.5412341962996194  0.0742019186885585
  0.7782236888963325  0.4280641187280665  0.8758389153352155
  0.8940727355446043  0.5298991161679680  0.6387633914325335
  0.4482052865951047  0.4279622994568015  0.3197443568070000
  0.5491483583100134  0.5457375260132196  0.0631167439050699
  0.1083209480122918  0.4250047706906486  0.8913645691529481
  0.2249607700728262  0.5416430134256842  0.5649024484024352
  0.7841307531593387  0.4209104808047925  0.3931591143128443
  0.8850809357102918  0.5386934368748371  0.1365197519725072
  0.4392010544932248  0.4367558483450011  0.8175031966491630
  0.5550616584200014  0.5385871960472812  0.5804548671276422
  0.1112777809003234  0.7648886545077431  0.3197441348094188
  0.2290541839542044  0.8658303797216931  0.0631167857161827
  0.7759634441429739  0.7535552958637339  0.8744575478926464
  0.8964080114654820  0.8739854235609741  0.5818203757950471
  0.4439465919977010  0.7606326381399953  0.3228431745700107
  0.5496879897720888  0.8663695731855370  0.0665428344979446
  0.1200709540730074  0.7558854520164289  0.8175031574808216
  0.2219033731176978  0.8717443563199083  0.5804545406236699
  0.7799507245338546  0.7555804743658214  0.3911181914028390
  0.8943730593702170  0.8700428351410707  0.0651179893417506
  0.5515094445539717  0.8681954483124201  0.5860242483032891
  0.8899702842172843  0.2066542642539275  0.6419335806732249
  0.4433248202074012  0.7600086180115753  0.8143506099023199
  0.2212639336353277  0.2024140107585239  0.3267273709974532
  0.1074663504692595  0.0975139055054228  0.0689163007339175
  0.8904409563843743  0.2071257757008453  0.8041395335190771
  0.7936794916218801  0.1103629064330320  0.5902751862068172
  0.5545650584564044  0.2107959801766270  0.3818791909500447
  0.4391812718456976  0.0954011130468189  0.0743975371050425
  0.2171515451173534  0.2099046980138368  0.8246986788824699
  0.0839203386167071  0.1107722945445744  0.5872857027613918
  0.8901180969548150  0.2068038155741334  0.3215431903578079
  0.7817088517209925  0.0983961701937517  0.0713254537049792
  0.5512285416785616  0.2124220935264347  0.8661305580948806
  0.4375315366083470  0.0987254068765324  0.5901026970596774
  0.2251752556588471  0.5418587391463490  0.3731075672919744
  0.1081066186153450  0.4247895437132883  0.0831562685183940
  0.8932208469693563  0.5338371404961464  0.8246983696938983
  0.7940889870297525  0.4006046668308798  0.5872855033756892
  0.5524483170754309  0.5425053889616294  0.3873696583710284
  0.4475569819257146  0.4286891807671012  0.1295335515518303
  0.2241218060659875  0.5408061947512550  0.8829044881766492
  0.1091576715690934  0.4258420094014070  0.5733659579085071
  0.8857291860699945  0.5379497462269924  0.3267273666884947
  0.7808315062194993  0.4241512802011087  0.0689160419865189
  0.5391960919405605  0.5660374121136158  0.8689870880472554
  0.4400557269094563  0.4328161218012525  0.6315711030949274
  0.2258196466051317  0.8691331080664639  0.3873693684766550
  0.1120047602810814  0.7642406295430604  0.1295333297742545
  0.8957365229409362  0.8679161834300899  0.8661300227573676
  0.7820396736509636  0.7542172291958664  0.5901023373628007
  0.5515746850712091  0.8682614704493261  0.3849170346621946
  0.4431575166479291  0.7598407058429615  0.1347394731874516
  0.2493537504599246  0.8558791159937513  0.8689870972946849
  0.1161328459515900  0.7567381308630132  0.6315709876727524
  0.8941111396453607  0.8712497087817397  0.3818787141199564
  0.7787188412728767  0.7558658673476799  0.0743969980848647
  0.5395834677217692  0.8562677177119298  0.8660656730678440
  0.4428589217715242  0.7595430176765490  0.6521337891192971
 
  0.00000000E+00  0.00000000E+00  0.00000000E+00
  0.00000000E+00  0.00000000E+00  0.00000000E+00
  0.00000000E+00  0.00000000E+00  0.00000000E+00
  0.00000000E+00  0.00000000E+00  0.00000000E+00
  0.00000000E+00  0.00000000E+00  0.00000000E+00
  0.00000000E+00  0.00000000E+00  0.00000000E+00
  0.00000000E+00  0.00000000E+00  0.00000000E+00
  0.00000000E+00  0.00000000E+00  0.00000000E+00
  0.00000000E+00  0.00000000E+00  0.00000000E+00
  0.00000000E+00  0.00000000E+00  0.00000000E+00
  0.00000000E+00  0.00000000E+00  0.00000000E+00
  0.00000000E+00  0.00000000E+00  0.00000000E+00
  0.00000000E+00  0.00000000E+00  0.00000000E+00
  0.00000000E+00  0.00000000E+00  0.00000000E+00
  0.00000000E+00  0.00000000E+00  0.00000000E+00
  0.00000000E+00  0.00000000E+00  0.00000000E+00
  0.00000000E+00  0.00000000E+00  0.00000000E+00
  0.00000000E+00  0.00000000E+00  0.00000000E+00
  0.00000000E+00  0.00000000E+00  0.00000000E+00
  0.00000000E+00  0.00000000E+00  0.00000000E+00
  0.00000000E+00  0.00000000E+00  0.00000000E+00
  0.00000000E+00  0.00000000E+00  0.00000000E+00
  0.00000000E+00  0.00000000E+00  0.00000000E+00
  0.00000000E+00  0.00000000E+00  0.00000000E+00
  0.00000000E+00  0.00000000E+00  0.00000000E+00
  0.00000000E+00  0.00000000E+00  0.00000000E+00
  0.00000000E+00  0.00000000E+00  0.00000000E+00
  0.00000000E+00  0.00000000E+00  0.00000000E+00
  0.00000000E+00  0.00000000E+00  0.00000000E+00
  0.00000000E+00  0.00000000E+00  0.00000000E+00
  0.00000000E+00  0.00000000E+00  0.00000000E+00
  0.00000000E+00  0.00000000E+00  0.00000000E+00
  0.00000000E+00  0.00000000E+00  0.00000000E+00
  0.00000000E+00  0.00000000E+00  0.00000000E+00
  0.00000000E+00  0.00000000E+00  0.00000000E+00
  0.00000000E+00  0.00000000E+00  0.00000000E+00
  0.00000000E+00  0.00000000E+00  0.00000000E+00
  0.00000000E+00  0.00000000E+00  0.00000000E+00
  0.00000000E+00  0.00000000E+00  0.00000000E+00
  0.00000000E+00  0.00000000E+00  0.00000000E+00
  0.00000000E+00  0.00000000E+00  0.00000000E+00
  0.00000000E+00  0.00000000E+00  0.00000000E+00
  0.00000000E+00  0.00000000E+00  0.00000000E+00
  0.00000000E+00  0.00000000E+00  0.00000000E+00
  0.00000000E+00  0.00000000E+00  0.00000000E+00
  0.00000000E+00  0.00000000E+00  0.00000000E+00
  0.00000000E+00  0.00000000E+00  0.00000000E+00
  0.00000000E+00  0.00000000E+00  0.00000000E+00
  0.00000000E+00  0.00000000E+00  0.00000000E+00
  0.00000000E+00  0.00000000E+00  0.00000000E+00
  0.00000000E+00  0.00000000E+00  0.00000000E+00
  0.00000000E+00  0.00000000E+00  0.00000000E+00
  0.00000000E+00  0.00000000E+00  0.00000000E+00
  0.00000000E+00  0.00000000E+00  0.00000000E+00
  0.00000000E+00  0.00000000E+00  0.00000000E+00
  0.00000000E+00  0.00000000E+00  0.00000000E+00
  0.00000000E+00  0.00000000E+00  0.00000000E+00
  0.00000000E+00  0.00000000E+00  0.00000000E+00
  0.00000000E+00  0.00000000E+00  0.00000000E+00
  0.00000000E+00  0.00000000E+00  0.00000000E+00
  0.00000000E+00  0.00000000E+00  0.00000000E+00
  0.00000000E+00  0.00000000E+00  0.00000000E+00
  0.00000000E+00  0.00000000E+00  0.00000000E+00
  0.00000000E+00  0.00000000E+00  0.00000000E+00
  0.00000000E+00  0.00000000E+00  0.00000000E+00
  0.00000000E+00  0.00000000E+00  0.00000000E+00
  0.00000000E+00  0.00000000E+00  0.00000000E+00
  0.00000000E+00  0.00000000E+00  0.00000000E+00
  0.00000000E+00  0.00000000E+00  0.00000000E+00
  0.00000000E+00  0.00000000E+00  0.00000000E+00
  0.00000000E+00  0.00000000E+00  0.00000000E+00
  0.00000000E+00  0.00000000E+00  0.00000000E+00
