Al   B    N                             
   1.00000000000000     
    -9.2996382842109480   -0.0001680414390140   -0.0005882353263467
    -4.6496675081107233    8.0538106783385235   -0.0006451950160067
    -0.0004208178799464    0.0001714563861390   -9.9392555698045619
   Al   B    N 
    34     2    36
Direct
  0.1066142873226426  0.0953406512430135  0.4166172068321359
  0.2211839854892617  0.2046437707037967  0.1628956131616093
  0.7789786732599921  0.0956441732121291  0.9070842461462121
  0.4452587990454120  0.0924169890239810  0.4125353801681584
  0.5569349717754051  0.2049505634916997  0.1623857060513814
  0.1140033752582710  0.0919463975282042  0.9063456729342008
  0.2171113410271133  0.2069345546935963  0.6626265798358659
  0.7805671936425469  0.0972331809493809  0.4169807399404704
  0.8889973421291870  0.2056637930804541  0.1608021174294194
  0.4426025399082008  0.0913439638392717  0.9126525431461303
  0.5592154672132992  0.2071518671669565  0.6628507259745504
  0.1109271534870757  0.4275930865965236  0.4125276789435759
  0.2222066234624549  0.5388728576264157  0.1631359778693025
  0.7752797738385553  0.4306696857953085  0.9063456278245141
  0.8902677858675148  0.5337779332725603  0.6626265587874585
  0.4454296619862035  0.4286431867051519  0.4122205716280263
  0.5559697415573908  0.5404493329028242  0.1556676595487119
  0.1111163250037066  0.4277818792336063  0.9134805329124873
  0.2223045684987142  0.5389716158995128  0.6627572749031643
  0.7786742061738536  0.4232812007451798  0.4166171159628007
  0.8879776793552949  0.5378505804182865  0.1628957156271085
  0.4429361923842947  0.4329312041167057  0.9130922895084765
  0.5559102665822309  0.5396665363548721  0.6667836461366932
  0.1119766760728211  0.7620963390015518  0.4122206606209957
  0.2237840423344224  0.8726349681497894  0.1556674192383980
  0.7746775182356416  0.7592685028810919  0.9126523961967195
  0.8904843622204766  0.8758830265441020  0.6628506180266101
  0.4444788514022875  0.7611459323459897  0.4106908835433813
  0.5542490857468252  0.8709147040623790  0.1560247554702698
  0.1162643748085870  0.7596026509757436  0.9130922754364761
  0.2230008592737533  0.8725759397712380  0.6667839338966388
  0.7757496735018279  0.7619261075988462  0.4125354608482681
  0.8882843994710115  0.8736012232172641  0.1623857452302957
  0.5527727771540398  0.8694392538598024  0.6674987407886519
  0.8883143254272738  0.2049804743702310  0.6671393284678260
  0.4443884337492037  0.7610544961429397  0.9158645830840868
  0.2213010257961514  0.2038277968952187  0.3556498261052994
  0.1092366282572428  0.0957814561317818  0.0980284060864705
  0.8890213020679312  0.2056874189802258  0.8326218969209549
  0.7903475274238545  0.1070145726483744  0.6109804382015014
  0.5575822681023226  0.2043914967979887  0.3555855627970459
  0.4437320251774821  0.0953347319160329  0.1035386959456019
  0.2219942102006840  0.2066947158907411  0.8525021627575953
  0.0871852122733898  0.1045803019318114  0.6122971707787386
  0.8891064073451389  0.2057731246113121  0.3501820370668440
  0.7785754358236758  0.0952415229170143  0.0993185574704754
  0.5544412199714870  0.2063629574763368  0.8535753326753337
  0.4454200250333855  0.0926287721942813  0.6054655226932226
  0.2223673449590819  0.5390338609463114  0.3540879798648362
  0.1108644875729681  0.4275305231019431  0.1049408241560812
  0.8900287632769448  0.5386600251320957  0.8525022080324192
  0.7879142921685656  0.4038513080908004  0.6122970877021245
  0.5570225071015216  0.5394487593674100  0.3498204866025034
  0.4443245200788652  0.4275539740393057  0.1036788055960614
  0.2219642101375641  0.5386305291978388  0.8534969942991637
  0.1113972540680734  0.4280638859978367  0.6027840394261972
  0.8871614576374185  0.5379678668213899  0.3556499818427312
  0.7791157504949169  0.4259027559127375  0.0980283121743284
  0.5427546949341036  0.5640157293982568  0.8598961595960048
  0.4451083906776390  0.4292577481661723  0.6042726548309645
  0.2227820932572939  0.8736889901699527  0.3498203492154488
  0.1108877815552844  0.7609905802178218  0.1036787753758688
  0.8896964687377746  0.8711072283236163  0.8535751434398406
  0.7759621048143828  0.7620866954318899  0.6054655385142738
  0.5546464290143973  0.8713133911405393  0.3485011796909774
  0.4442502365345433  0.7609156053725243  0.0820219256404542
  0.2473494673527838  0.8594209189868067  0.8598964164425098
  0.1125907458055408  0.7617753777287390  0.6042727878147858
  0.8877251330544027  0.8742485683299179  0.3555855444750549
  0.7786688314975194  0.7603981939753552  0.1035385324513669
  0.5430168474341670  0.8596831256669617  0.8611567615160638
  0.4441058112753353  0.7607717469727859  0.6000604888539414
 
  0.00000000E+00  0.00000000E+00  0.00000000E+00
  0.00000000E+00  0.00000000E+00  0.00000000E+00
  0.00000000E+00  0.00000000E+00  0.00000000E+00
  0.00000000E+00  0.00000000E+00  0.00000000E+00
  0.00000000E+00  0.00000000E+00  0.00000000E+00
  0.00000000E+00  0.00000000E+00  0.00000000E+00
  0.00000000E+00  0.00000000E+00  0.00000000E+00
  0.00000000E+00  0.00000000E+00  0.00000000E+00
  0.00000000E+00  0.00000000E+00  0.00000000E+00
  0.00000000E+00  0.00000000E+00  0.00000000E+00
  0.00000000E+00  0.00000000E+00  0.00000000E+00
  0.00000000E+00  0.00000000E+00  0.00000000E+00
  0.00000000E+00  0.00000000E+00  0.00000000E+00
  0.00000000E+00  0.00000000E+00  0.00000000E+00
  0.00000000E+00  0.00000000E+00  0.00000000E+00
  0.00000000E+00  0.00000000E+00  0.00000000E+00
  0.00000000E+00  0.00000000E+00  0.00000000E+00
  0.00000000E+00  0.00000000E+00  0.00000000E+00
  0.00000000E+00  0.00000000E+00  0.00000000E+00
  0.00000000E+00  0.00000000E+00  0.00000000E+00
  0.00000000E+00  0.00000000E+00  0.00000000E+00
  0.00000000E+00  0.00000000E+00  0.00000000E+00
  0.00000000E+00  0.00000000E+00  0.00000000E+00
  0.00000000E+00  0.00000000E+00  0.00000000E+00
  0.00000000E+00  0.00000000E+00  0.00000000E+00
  0.00000000E+00  0.00000000E+00  0.00000000E+00
  0.00000000E+00  0.00000000E+00  0.00000000E+00
  0.00000000E+00  0.00000000E+00  0.00000000E+00
  0.00000000E+00  0.00000000E+00  0.00000000E+00
  0.00000000E+00  0.00000000E+00  0.00000000E+00
  0.00000000E+00  0.00000000E+00  0.00000000E+00
  0.00000000E+00  0.00000000E+00  0.00000000E+00
  0.00000000E+00  0.00000000E+00  0.00000000E+00
  0.00000000E+00  0.00000000E+00  0.00000000E+00
  0.00000000E+00  0.00000000E+00  0.00000000E+00
  0.00000000E+00  0.00000000E+00  0.00000000E+00
  0.00000000E+00  0.00000000E+00  0.00000000E+00
  0.00000000E+00  0.00000000E+00  0.00000000E+00
  0.00000000E+00  0.00000000E+00  0.00000000E+00
  0.00000000E+00  0.00000000E+00  0.00000000E+00
  0.00000000E+00  0.00000000E+00  0.00000000E+00
  0.00000000E+00  0.00000000E+00  0.00000000E+00
  0.00000000E+00  0.00000000E+00  0.00000000E+00
  0.00000000E+00  0.00000000E+00  0.00000000E+00
  0.00000000E+00  0.00000000E+00  0.00000000E+00
  0.00000000E+00  0.00000000E+00  0.00000000E+00
  0.00000000E+00  0.00000000E+00  0.00000000E+00
  0.00000000E+00  0.00000000E+00  0.00000000E+00
  0.00000000E+00  0.00000000E+00  0.00000000E+00
  0.00000000E+00  0.00000000E+00  0.00000000E+00
  0.00000000E+00  0.00000000E+00  0.00000000E+00
  0.00000000E+00  0.00000000E+00  0.00000000E+00
  0.00000000E+00  0.00000000E+00  0.00000000E+00
  0.00000000E+00  0.00000000E+00  0.00000000E+00
  0.00000000E+00  0.00000000E+00  0.00000000E+00
  0.00000000E+00  0.00000000E+00  0.00000000E+00
  0.00000000E+00  0.00000000E+00  0.00000000E+00
  0.00000000E+00  0.00000000E+00  0.00000000E+00
  0.00000000E+00  0.00000000E+00  0.00000000E+00
  0.00000000E+00  0.00000000E+00  0.00000000E+00
  0.00000000E+00  0.00000000E+00  0.00000000E+00
  0.00000000E+00  0.00000000E+00  0.00000000E+00
  0.00000000E+00  0.00000000E+00  0.00000000E+00
  0.00000000E+00  0.00000000E+00  0.00000000E+00
  0.00000000E+00  0.00000000E+00  0.00000000E+00
  0.00000000E+00  0.00000000E+00  0.00000000E+00
  0.00000000E+00  0.00000000E+00  0.00000000E+00
  0.00000000E+00  0.00000000E+00  0.00000000E+00
  0.00000000E+00  0.00000000E+00  0.00000000E+00
  0.00000000E+00  0.00000000E+00  0.00000000E+00
  0.00000000E+00  0.00000000E+00  0.00000000E+00
  0.00000000E+00  0.00000000E+00  0.00000000E+00
