Al   B    N                             
   1.00000000000000     
    -9.3043515712257268   -0.0000265368195622   -0.0070675586771701
    -4.6271669477650228    8.0721876422925476   -0.0106223595113490
     0.0163393650463164   -0.0139285328486170  -10.1401418990806356
   Al   B    N 
    34     2    36
Direct
  0.1033141245340232  0.1025548949240047  0.3982159030674026
  0.2207411998411501  0.2029864610966996  0.1416935349652135
  0.7783260613548961  0.0949886632149628  0.8879536290441621
  0.4452227894251735  0.0944860505515237  0.3941454110857450
  0.5596308661017133  0.2011362241472483  0.1412815392475721
  0.1112023156754987  0.0956565459423686  0.8789592324741022
  0.2161807044572086  0.2081690423204634  0.6428154047561137
  0.7803006683635090  0.0969627451808250  0.3964986485321589
  0.8895142146831247  0.2061775290518781  0.1380587547150611
  0.4429859446342164  0.0895369960209322  0.8932005148454962
  0.5616757363066682  0.1996240658547066  0.6434600314566907
  0.1083582078662033  0.4250206972205675  0.3881263317987802
  0.2253534746171866  0.5420153575450541  0.0759168465421993
  0.7789960585846885  0.4278636818494519  0.8789593286012121
  0.8915062278196757  0.5328437278258278  0.6428153669281329
  0.4457215816450173  0.4346812362726737  0.3239882443023845
  0.5489909621789621  0.5485654945142784  0.0651363700936614
  0.1079410909265164  0.4246039359303708  0.8944883689589602
  0.2243147037089344  0.5409776303929590  0.5706003642548083
  0.7858941701190290  0.4199757460513567  0.3982161329144915
  0.8863240307680087  0.5374053564665715  0.1416938966322547
  0.4393253750034631  0.4373540995921488  0.8228409362804499
  0.5544725074630534  0.5358506268531471  0.5834820001730350
  0.1180197548180359  0.7623833560878950  0.3239877393311232
  0.2319033977234781  0.8656515269498897  0.0651362104685944
  0.7728736744511835  0.7596490063285302  0.8932008652860475
  0.8829586880149733  0.8783399015946500  0.6434601739078687
  0.4430308023552811  0.7596926129199275  0.3265793764669027
  0.5590204213650694  0.8756849114725469  0.1432905546561400
  0.1206905332274388  0.7559875876495212  0.8228405623104322
  0.2191873054591298  0.8711342728521743  0.5834822713249892
  0.7778228988545735  0.7618864693765843  0.3941452146253823
  0.8844721157246482  0.8762952212193369  0.1412818547935402
  0.5550156545196003  0.8716787187152235  0.6486507485825115
  0.8895443010149506  0.2062068568227957  0.6456521398287833
  0.4412736013687848  0.7579360397077437  0.8149366432946010
  0.2223732267653205  0.2024685414679652  0.3313603697105520
  0.1073368589721966  0.0983517378557508  0.0715943781374548
  0.8878119515494092  0.2044738298886131  0.8089629246014809
  0.7894241648247160  0.1060880250330314  0.5874628132429081
  0.5597450001186388  0.2015800022882246  0.3345115681755715
  0.4433054013187530  0.0954315464733924  0.0814559461326425
  0.2230571859939303  0.2071613004174608  0.8291367849541516
  0.0826698173832199  0.1106579518681912  0.5922428900089827
  0.8892211629173801  0.2058832247898508  0.3262323554264270
  0.7787954357262379  0.0954595362340882  0.0769707213107083
  0.5566557280397006  0.2001397153156717  0.8341303685448196
  0.4429947881711769  0.0920453117702564  0.5830183278839343
  0.2252956405240454  0.5419576520262979  0.3807059952166156
  0.1082565734654892  0.4249193041902259  0.0857502479009469
  0.8904986281845382  0.5397204760491974  0.8291367227597206
  0.7939959627606186  0.3993323797752382  0.5922430959040526
  0.5535515597829956  0.5435160555870056  0.3934282121597903
  0.4461849712779724  0.4340428007170019  0.1328052095317460
  0.2241405262922171  0.5408029241590810  0.8867709953246177
  0.1080440618608520  0.4247069430395101  0.5785573425539212
  0.8858059826876783  0.5390365905856243  0.3313605724406443
  0.7816905740975102  0.4239997398032287  0.0715944716735777
  0.5396832102610318  0.5671336200781738  0.8724696739774132
  0.4397443518473736  0.4300802198939380  0.6345848917235415
  0.2268543738097577  0.8702127478333352  0.3934283630713509
  0.1173793002685883  0.7628472586299182  0.1328048692643407
  0.8834762355650483  0.8733186576924012  0.8341304629163417
  0.7753816553594746  0.7596578847957360  0.5830181336164699
  0.5594109307707456  0.8760742554468024  0.3339175270831447
  0.4428565193246712  0.7595188852347832  0.1380562348556538
  0.2504712958069675  0.8563444248984453  0.8724694731274525
  0.1134152818210765  0.7564076197539080  0.6345846298736433
  0.8849181852543353  0.8764074292267026  0.3345116779111166
  0.7787674744524153  0.7599696409463448  0.0814562907463596
  0.5454296781091656  0.8620928856950201  0.8378876405839648
  0.4384093473363890  0.7550724044038759  0.6531469758292587
 
  0.00000000E+00  0.00000000E+00  0.00000000E+00
  0.00000000E+00  0.00000000E+00  0.00000000E+00
  0.00000000E+00  0.00000000E+00  0.00000000E+00
  0.00000000E+00  0.00000000E+00  0.00000000E+00
  0.00000000E+00  0.00000000E+00  0.00000000E+00
  0.00000000E+00  0.00000000E+00  0.00000000E+00
  0.00000000E+00  0.00000000E+00  0.00000000E+00
  0.00000000E+00  0.00000000E+00  0.00000000E+00
  0.00000000E+00  0.00000000E+00  0.00000000E+00
  0.00000000E+00  0.00000000E+00  0.00000000E+00
  0.00000000E+00  0.00000000E+00  0.00000000E+00
  0.00000000E+00  0.00000000E+00  0.00000000E+00
  0.00000000E+00  0.00000000E+00  0.00000000E+00
  0.00000000E+00  0.00000000E+00  0.00000000E+00
  0.00000000E+00  0.00000000E+00  0.00000000E+00
  0.00000000E+00  0.00000000E+00  0.00000000E+00
  0.00000000E+00  0.00000000E+00  0.00000000E+00
  0.00000000E+00  0.00000000E+00  0.00000000E+00
  0.00000000E+00  0.00000000E+00  0.00000000E+00
  0.00000000E+00  0.00000000E+00  0.00000000E+00
  0.00000000E+00  0.00000000E+00  0.00000000E+00
  0.00000000E+00  0.00000000E+00  0.00000000E+00
  0.00000000E+00  0.00000000E+00  0.00000000E+00
  0.00000000E+00  0.00000000E+00  0.00000000E+00
  0.00000000E+00  0.00000000E+00  0.00000000E+00
  0.00000000E+00  0.00000000E+00  0.00000000E+00
  0.00000000E+00  0.00000000E+00  0.00000000E+00
  0.00000000E+00  0.00000000E+00  0.00000000E+00
  0.00000000E+00  0.00000000E+00  0.00000000E+00
  0.00000000E+00  0.00000000E+00  0.00000000E+00
  0.00000000E+00  0.00000000E+00  0.00000000E+00
  0.00000000E+00  0.00000000E+00  0.00000000E+00
  0.00000000E+00  0.00000000E+00  0.00000000E+00
  0.00000000E+00  0.00000000E+00  0.00000000E+00
  0.00000000E+00  0.00000000E+00  0.00000000E+00
  0.00000000E+00  0.00000000E+00  0.00000000E+00
  0.00000000E+00  0.00000000E+00  0.00000000E+00
  0.00000000E+00  0.00000000E+00  0.00000000E+00
  0.00000000E+00  0.00000000E+00  0.00000000E+00
  0.00000000E+00  0.00000000E+00  0.00000000E+00
  0.00000000E+00  0.00000000E+00  0.00000000E+00
  0.00000000E+00  0.00000000E+00  0.00000000E+00
  0.00000000E+00  0.00000000E+00  0.00000000E+00
  0.00000000E+00  0.00000000E+00  0.00000000E+00
  0.00000000E+00  0.00000000E+00  0.00000000E+00
  0.00000000E+00  0.00000000E+00  0.00000000E+00
  0.00000000E+00  0.00000000E+00  0.00000000E+00
  0.00000000E+00  0.00000000E+00  0.00000000E+00
  0.00000000E+00  0.00000000E+00  0.00000000E+00
  0.00000000E+00  0.00000000E+00  0.00000000E+00
  0.00000000E+00  0.00000000E+00  0.00000000E+00
  0.00000000E+00  0.00000000E+00  0.00000000E+00
  0.00000000E+00  0.00000000E+00  0.00000000E+00
  0.00000000E+00  0.00000000E+00  0.00000000E+00
  0.00000000E+00  0.00000000E+00  0.00000000E+00
  0.00000000E+00  0.00000000E+00  0.00000000E+00
  0.00000000E+00  0.00000000E+00  0.00000000E+00
  0.00000000E+00  0.00000000E+00  0.00000000E+00
  0.00000000E+00  0.00000000E+00  0.00000000E+00
  0.00000000E+00  0.00000000E+00  0.00000000E+00
  0.00000000E+00  0.00000000E+00  0.00000000E+00
  0.00000000E+00  0.00000000E+00  0.00000000E+00
  0.00000000E+00  0.00000000E+00  0.00000000E+00
  0.00000000E+00  0.00000000E+00  0.00000000E+00
  0.00000000E+00  0.00000000E+00  0.00000000E+00
  0.00000000E+00  0.00000000E+00  0.00000000E+00
  0.00000000E+00  0.00000000E+00  0.00000000E+00
  0.00000000E+00  0.00000000E+00  0.00000000E+00
  0.00000000E+00  0.00000000E+00  0.00000000E+00
  0.00000000E+00  0.00000000E+00  0.00000000E+00
  0.00000000E+00  0.00000000E+00  0.00000000E+00
  0.00000000E+00  0.00000000E+00  0.00000000E+00
