Al   B    N                             
   1.00000000000000     
    -9.3154107508214494   -0.0006670291804468   -0.0077355648899682
    -4.6428321032737463    8.0886408772371396   -0.0105496032405528
     0.0239640617007101   -0.0129982391007644  -10.1170267397204796
   Al   B    N 
    34     2    36
Direct
  0.1036312252007292  0.1019458101070896  0.3920809220961203
  0.2213476842424527  0.2025624011960687  0.1360852632164296
  0.7762818923478108  0.1000801031815968  0.8775087324993933
  0.4455645915892958  0.0942961605515933  0.3883109697715739
  0.5606269429377946  0.2005656794237964  0.1363539842734411
  0.1117317166582765  0.0951733678228521  0.8729430019496505
  0.2160177910205121  0.2082604469738527  0.6366792081236810
  0.7788769826407176  0.1006977183758195  0.3913268304641235
  0.8898380681776246  0.2063389932854847  0.1325558941530005
  0.4428414911739011  0.0896816343460216  0.8877961553605616
  0.5603420907871453  0.2005902507710644  0.6377759418195197
  0.1086615615228226  0.4252327308212145  0.3818063478491283
  0.2268013354622127  0.5404939527800181  0.0709510793244021
  0.7791997311108076  0.4277070442158504  0.8738994998414711
  0.8917976879262426  0.5313869885280056  0.6375262725542896
  0.4451014823101502  0.4354869961389980  0.3184460537667917
  0.5496290238189374  0.5483174558236712  0.0598704519380675
  0.1087042950358921  0.4242566765503852  0.8888269094994783
  0.2243903652345480  0.5410759479582268  0.5640730112745374
  0.7858519355661286  0.4201649863639432  0.3924542629011540
  0.8867598652253719  0.5369529122077523  0.1364416635103467
  0.4386343344107857  0.4381844764850769  0.8170558776160561
  0.5544647640303637  0.5360861120641403  0.5778142926031222
  0.1103626931399404  0.7661459110288078  0.3182241884308752
  0.2331943801166432  0.8655427803432332  0.0596491188108885
  0.7701268091152187  0.7565066132321263  0.8840174233602980
  0.8889068118684378  0.8756330468156222  0.5967789665415211
  0.4422688844097493  0.7597325215101876  0.3210712074613369
  0.5599094899428465  0.8755118871439649  0.1384996669419891
  0.1183012670380421  0.7567466108907652  0.8168272745203637
  0.2191803163360433  0.8711950847668817  0.5772879981947270
  0.7765137914877158  0.7600300352459399  0.3896776454862589
  0.8938540879846570  0.8711531118644302  0.0757470716248250
  0.5532921358528426  0.8721014735410577  0.6434375528748788
  0.8882194090099347  0.2076370294256193  0.6405158376209883
  0.4397775816558465  0.7581263153789521  0.8091289213636088
  0.2224998537956893  0.2023657739165827  0.3259133508167054
  0.1078910363464800  0.0977829832817818  0.0661518457267221
  0.8884472027696901  0.2058415818600849  0.8031586257162004
  0.7870135101756546  0.1118725913020100  0.5852414904172321
  0.5594763238096760  0.2021039802672675  0.3292008410913283
  0.4442182363742830  0.0950530684117226  0.0763564266389878
  0.2231378597356084  0.2069831775995468  0.8236018047211786
  0.0826648794701725  0.1105046127000193  0.5864845540845849
  0.8892341491718909  0.2064483206575503  0.3205389984412292
  0.7765544188093187  0.1009477867722737  0.0696885051128504
  0.5550206073867514  0.2009013552686483  0.8277569043106254
  0.4431264401244732  0.0919984702770762  0.5773757895373919
  0.2246156619526261  0.5428825647127695  0.3735465002704004
  0.1088857308091562  0.4245886211358609  0.0805848137455385
  0.8914913269228251  0.5376593008832131  0.8235639487499569
  0.7938800436925391  0.3996585292871728  0.5865755090666056
  0.5536912968255621  0.5435808604262817  0.3874605484300204
  0.4469194879556113  0.4338212460382209  0.1271027608132513
  0.2242816790243722  0.5407710738892249  0.8812443860959149
  0.1082488108862449  0.4249820088580520  0.5728290000123835
  0.8858118954093115  0.5387043697498868  0.3258959824481664
  0.7821612210664881  0.4239462572939203  0.0664254171454175
  0.5398330401674585  0.5670540808131506  0.8666807592757948
  0.4392016271673427  0.4308809769338069  0.6283773299051632
  0.2262608638885482  0.8699190289006324  0.3865948983018086
  0.1148307260880372  0.7639259060621697  0.1271709412702720
  0.8903342632102635  0.8700978974236691  0.8573149174629151
  0.7723212788625204  0.7564752447622638  0.5814292162115819
  0.5592464315935715  0.8758748340214666  0.3287513733903111
  0.4434018494168441  0.7592628056831145  0.1323578839785000
  0.2502712426376874  0.8558347250247209  0.8667062658698654
  0.1130637251018527  0.7564792522878392  0.6308359947498161
  0.8913587905606164  0.8733135566185055  0.3707331763862385
  0.7769085190504939  0.7571420535445199  0.0749698392190226
  0.5434720013442913  0.8629480377695202  0.8323226515064022
  0.4373579410154917  0.7551350296831103  0.6472448878937769
 
  0.00000000E+00  0.00000000E+00  0.00000000E+00
  0.00000000E+00  0.00000000E+00  0.00000000E+00
  0.00000000E+00  0.00000000E+00  0.00000000E+00
  0.00000000E+00  0.00000000E+00  0.00000000E+00
  0.00000000E+00  0.00000000E+00  0.00000000E+00
  0.00000000E+00  0.00000000E+00  0.00000000E+00
  0.00000000E+00  0.00000000E+00  0.00000000E+00
  0.00000000E+00  0.00000000E+00  0.00000000E+00
  0.00000000E+00  0.00000000E+00  0.00000000E+00
  0.00000000E+00  0.00000000E+00  0.00000000E+00
  0.00000000E+00  0.00000000E+00  0.00000000E+00
  0.00000000E+00  0.00000000E+00  0.00000000E+00
  0.00000000E+00  0.00000000E+00  0.00000000E+00
  0.00000000E+00  0.00000000E+00  0.00000000E+00
  0.00000000E+00  0.00000000E+00  0.00000000E+00
  0.00000000E+00  0.00000000E+00  0.00000000E+00
  0.00000000E+00  0.00000000E+00  0.00000000E+00
  0.00000000E+00  0.00000000E+00  0.00000000E+00
  0.00000000E+00  0.00000000E+00  0.00000000E+00
  0.00000000E+00  0.00000000E+00  0.00000000E+00
  0.00000000E+00  0.00000000E+00  0.00000000E+00
  0.00000000E+00  0.00000000E+00  0.00000000E+00
  0.00000000E+00  0.00000000E+00  0.00000000E+00
  0.00000000E+00  0.00000000E+00  0.00000000E+00
  0.00000000E+00  0.00000000E+00  0.00000000E+00
  0.00000000E+00  0.00000000E+00  0.00000000E+00
  0.00000000E+00  0.00000000E+00  0.00000000E+00
  0.00000000E+00  0.00000000E+00  0.00000000E+00
  0.00000000E+00  0.00000000E+00  0.00000000E+00
  0.00000000E+00  0.00000000E+00  0.00000000E+00
  0.00000000E+00  0.00000000E+00  0.00000000E+00
  0.00000000E+00  0.00000000E+00  0.00000000E+00
  0.00000000E+00  0.00000000E+00  0.00000000E+00
  0.00000000E+00  0.00000000E+00  0.00000000E+00
  0.00000000E+00  0.00000000E+00  0.00000000E+00
  0.00000000E+00  0.00000000E+00  0.00000000E+00
  0.00000000E+00  0.00000000E+00  0.00000000E+00
  0.00000000E+00  0.00000000E+00  0.00000000E+00
  0.00000000E+00  0.00000000E+00  0.00000000E+00
  0.00000000E+00  0.00000000E+00  0.00000000E+00
  0.00000000E+00  0.00000000E+00  0.00000000E+00
  0.00000000E+00  0.00000000E+00  0.00000000E+00
  0.00000000E+00  0.00000000E+00  0.00000000E+00
  0.00000000E+00  0.00000000E+00  0.00000000E+00
  0.00000000E+00  0.00000000E+00  0.00000000E+00
  0.00000000E+00  0.00000000E+00  0.00000000E+00
  0.00000000E+00  0.00000000E+00  0.00000000E+00
  0.00000000E+00  0.00000000E+00  0.00000000E+00
  0.00000000E+00  0.00000000E+00  0.00000000E+00
  0.00000000E+00  0.00000000E+00  0.00000000E+00
  0.00000000E+00  0.00000000E+00  0.00000000E+00
  0.00000000E+00  0.00000000E+00  0.00000000E+00
  0.00000000E+00  0.00000000E+00  0.00000000E+00
  0.00000000E+00  0.00000000E+00  0.00000000E+00
  0.00000000E+00  0.00000000E+00  0.00000000E+00
  0.00000000E+00  0.00000000E+00  0.00000000E+00
  0.00000000E+00  0.00000000E+00  0.00000000E+00
  0.00000000E+00  0.00000000E+00  0.00000000E+00
  0.00000000E+00  0.00000000E+00  0.00000000E+00
  0.00000000E+00  0.00000000E+00  0.00000000E+00
  0.00000000E+00  0.00000000E+00  0.00000000E+00
  0.00000000E+00  0.00000000E+00  0.00000000E+00
  0.00000000E+00  0.00000000E+00  0.00000000E+00
  0.00000000E+00  0.00000000E+00  0.00000000E+00
  0.00000000E+00  0.00000000E+00  0.00000000E+00
  0.00000000E+00  0.00000000E+00  0.00000000E+00
  0.00000000E+00  0.00000000E+00  0.00000000E+00
  0.00000000E+00  0.00000000E+00  0.00000000E+00
  0.00000000E+00  0.00000000E+00  0.00000000E+00
  0.00000000E+00  0.00000000E+00  0.00000000E+00
  0.00000000E+00  0.00000000E+00  0.00000000E+00
  0.00000000E+00  0.00000000E+00  0.00000000E+00
