supercell of icsd_181358.cif            
   1.00000000000000     
     9.7724228075925357    0.0001100445710280    0.0006690824462918
    -4.8861161007548644    8.4629882230313775    0.0000007382506903
     0.0007309073853087    0.0004229118315480   10.5404838111612591
   N    Ga   Sc
    36    32     4
Direct
  0.2298421144640628  0.1039245725952398  0.4351337795664776
  0.1254534344480049  0.2293928397431841  0.1881492829697464
  0.8882278924099296  0.1107809212458122  0.9451339295540890
  0.7764179373831084  0.2207697435470735  0.6909098211961577
  0.5634403327349062  0.1258048627742596  0.4345162934446094
  0.4450619463535403  0.2242323642989135  0.1871421045016461
  0.2230007105195710  0.1101810144089157  0.9399495205909645
  0.1108544102849933  0.2220937174505764  0.7012291136977282
  0.8764075217164802  0.1048707461835932  0.4423435991892148
  0.7710874043032021  0.2321749635979202  0.1832501985224582
  0.5543668507095489  0.1111202575760473  0.9402266583761474
  0.4435607192987234  0.2207382819687425  0.6882842311928314
  0.2298417810582194  0.4592514234683449  0.4351339525586368
  0.1092595195031265  0.5542245904150604  0.1876700503486859
  0.8966445194122485  0.4391618939222752  0.9330607077975728
  0.7774484781568276  0.5553908370550786  0.6910356163919715
  0.5546165284030309  0.4439752289406442  0.4412282917283576
  0.4450611271352329  0.5541618927203658  0.1871422221003698
  0.2230005639854227  0.4461530452931299  0.9399495269766120
  0.1128568471437816  0.5566752259631400  0.6880637259335742
  0.8893071870464979  0.4438967674436682  0.4420190679015974
  0.7776973253977815  0.5555152618745964  0.1993726686918009
  0.5415898412012723  0.4374615536986113  0.9342004301767162
  0.4435604299649683  0.5561554131859481  0.6882843075481233
  0.2077739718845706  0.7705539908312744  0.4336584931884602
  0.1092598266237701  0.8883679482268931  0.1876699694269917
  0.8966445545006252  0.7908165780766083  0.9330608091264523
  0.7764176997905281  0.8889812942767890  0.6909096818644187
  0.5634401323452565  0.7709690482810672  0.4345165030072096
  0.4449428677776055  0.8891377529544116  0.1924462945736352
  0.2214238588656841  0.7773786949896859  0.9413392439254267
  0.1128566519360774  0.8895148753233357  0.6880636462597209
  0.8893072416863887  0.7787441886959598  0.4420187707701331
  0.7710867786794182  0.8722450895464178  0.1832502128522435
  0.5543668585803658  0.7765796562177911  0.9402266308309990
  0.4440754861324478  0.8887043999607656  0.6968915695232312
  0.2266978220642386  0.1102796623030002  0.2482822477709732
  0.1154736601482398  0.2244032498536228  0.9990208012155151
  0.8875996292098876  0.1104665689061122  0.7547416679972514
  0.7766919000180010  0.2237710976402028  0.5024383005236643
  0.5556148231950786  0.1167893315429467  0.2478462431642967
  0.4419005166353642  0.2211490819366873  0.9998686091797211
  0.2228922565745890  0.1100486515915691  0.7528674023091568
  0.7768700252563505  0.2235542033462963  0.9976622557174366
  0.5546418885672679  0.1109632247376098  0.7527511227593280
  0.4473233045433105  0.2235205623542313  0.4998364138900655
  0.2266966133258919  0.4497504949377884  0.2482825059133376
  0.1120789268670421  0.5542345155753878  0.9999511977692066
  0.8911493408813342  0.4435070156516616  0.7475743028692747
  0.7775482168641972  0.5554406468828148  0.5008565296321734
  0.5546925637398630  0.4440131296879812  0.2529647252857714
  0.4419000957544554  0.5540836004248391  0.9998686541187993
  0.2228920540523092  0.4461770813620234  0.7528674689112265
  0.1101435608821362  0.5570895013863080  0.4994460819262088
  0.8883317763028060  0.4461184017391560  0.2535818911666468
  0.5516990381922753  0.4425164188425015  0.7478968535329642
  0.4473227614589135  0.5571358488128766  0.4998366196378043
  0.2178983107396846  0.7756157843279041  0.2475519408197613
  0.1120789689099126  0.8911774119741764  0.9999513730134595
  0.8911490336546706  0.7809760163511612  0.7475743433891608
  0.7766921885717011  0.8862541303825395  0.5024379139334698
  0.5556139026526310  0.7721579735459656  0.2478467581582180
  0.4442735340720958  0.8888027975032173  0.0014276677823233
  0.2218038623472935  0.7775689543129616  0.7529286587979698
  0.1101433337538253  0.8863877234041624  0.4994458848390693
  0.8883321472681658  0.7755472309071365  0.2535814362391307
  0.7768702235345160  0.8866495113804120  0.9976622655156930
  0.5546414966935558  0.7770120710480484  0.7527510390943846
  0.1132655933040496  0.2232995802376365  0.5002239426003641
  0.8848856868128152  0.1091093251289124  0.2419456646204665
  0.7776094761412082  0.5554714748935723  0.9977304684969965
  0.4443801151730824  0.8888567883344436  0.4950178211037226
 
  0.00000000E+00  0.00000000E+00  0.00000000E+00
  0.00000000E+00  0.00000000E+00  0.00000000E+00
  0.00000000E+00  0.00000000E+00  0.00000000E+00
  0.00000000E+00  0.00000000E+00  0.00000000E+00
  0.00000000E+00  0.00000000E+00  0.00000000E+00
  0.00000000E+00  0.00000000E+00  0.00000000E+00
  0.00000000E+00  0.00000000E+00  0.00000000E+00
  0.00000000E+00  0.00000000E+00  0.00000000E+00
  0.00000000E+00  0.00000000E+00  0.00000000E+00
  0.00000000E+00  0.00000000E+00  0.00000000E+00
  0.00000000E+00  0.00000000E+00  0.00000000E+00
  0.00000000E+00  0.00000000E+00  0.00000000E+00
  0.00000000E+00  0.00000000E+00  0.00000000E+00
  0.00000000E+00  0.00000000E+00  0.00000000E+00
  0.00000000E+00  0.00000000E+00  0.00000000E+00
  0.00000000E+00  0.00000000E+00  0.00000000E+00
  0.00000000E+00  0.00000000E+00  0.00000000E+00
  0.00000000E+00  0.00000000E+00  0.00000000E+00
  0.00000000E+00  0.00000000E+00  0.00000000E+00
  0.00000000E+00  0.00000000E+00  0.00000000E+00
  0.00000000E+00  0.00000000E+00  0.00000000E+00
  0.00000000E+00  0.00000000E+00  0.00000000E+00
  0.00000000E+00  0.00000000E+00  0.00000000E+00
  0.00000000E+00  0.00000000E+00  0.00000000E+00
  0.00000000E+00  0.00000000E+00  0.00000000E+00
  0.00000000E+00  0.00000000E+00  0.00000000E+00
  0.00000000E+00  0.00000000E+00  0.00000000E+00
  0.00000000E+00  0.00000000E+00  0.00000000E+00
  0.00000000E+00  0.00000000E+00  0.00000000E+00
  0.00000000E+00  0.00000000E+00  0.00000000E+00
  0.00000000E+00  0.00000000E+00  0.00000000E+00
  0.00000000E+00  0.00000000E+00  0.00000000E+00
  0.00000000E+00  0.00000000E+00  0.00000000E+00
  0.00000000E+00  0.00000000E+00  0.00000000E+00
  0.00000000E+00  0.00000000E+00  0.00000000E+00
  0.00000000E+00  0.00000000E+00  0.00000000E+00
  0.00000000E+00  0.00000000E+00  0.00000000E+00
  0.00000000E+00  0.00000000E+00  0.00000000E+00
  0.00000000E+00  0.00000000E+00  0.00000000E+00
  0.00000000E+00  0.00000000E+00  0.00000000E+00
  0.00000000E+00  0.00000000E+00  0.00000000E+00
  0.00000000E+00  0.00000000E+00  0.00000000E+00
  0.00000000E+00  0.00000000E+00  0.00000000E+00
  0.00000000E+00  0.00000000E+00  0.00000000E+00
  0.00000000E+00  0.00000000E+00  0.00000000E+00
  0.00000000E+00  0.00000000E+00  0.00000000E+00
  0.00000000E+00  0.00000000E+00  0.00000000E+00
  0.00000000E+00  0.00000000E+00  0.00000000E+00
  0.00000000E+00  0.00000000E+00  0.00000000E+00
  0.00000000E+00  0.00000000E+00  0.00000000E+00
  0.00000000E+00  0.00000000E+00  0.00000000E+00
  0.00000000E+00  0.00000000E+00  0.00000000E+00
  0.00000000E+00  0.00000000E+00  0.00000000E+00
  0.00000000E+00  0.00000000E+00  0.00000000E+00
  0.00000000E+00  0.00000000E+00  0.00000000E+00
  0.00000000E+00  0.00000000E+00  0.00000000E+00
  0.00000000E+00  0.00000000E+00  0.00000000E+00
  0.00000000E+00  0.00000000E+00  0.00000000E+00
  0.00000000E+00  0.00000000E+00  0.00000000E+00
  0.00000000E+00  0.00000000E+00  0.00000000E+00
  0.00000000E+00  0.00000000E+00  0.00000000E+00
  0.00000000E+00  0.00000000E+00  0.00000000E+00
  0.00000000E+00  0.00000000E+00  0.00000000E+00
  0.00000000E+00  0.00000000E+00  0.00000000E+00
  0.00000000E+00  0.00000000E+00  0.00000000E+00
  0.00000000E+00  0.00000000E+00  0.00000000E+00
  0.00000000E+00  0.00000000E+00  0.00000000E+00
  0.00000000E+00  0.00000000E+00  0.00000000E+00
  0.00000000E+00  0.00000000E+00  0.00000000E+00
  0.00000000E+00  0.00000000E+00  0.00000000E+00
  0.00000000E+00  0.00000000E+00  0.00000000E+00
  0.00000000E+00  0.00000000E+00  0.00000000E+00
