Al   Gd   N                             
   1.00000000000000     
    -9.5336211200347520    0.0029507661349151   -0.0055998740326515
    -4.7460175813640246    8.2469419818434293   -0.0001636099448312
    -0.0604967369169500   -0.0780031852166358  -10.3081405541977578
   Al   Gd   N 
    34     2    36
Direct
  0.1086085704703166  0.0901671371899084  0.3213933759122511
  0.7760806568054051  0.0916870719905418  0.8100966033640233
  0.8884219519555785  0.2002138286597130  0.5651554226573055
  0.4553117566863136  0.0883590297615129  0.3164743340268359
  0.5612250005163091  0.2049828651753387  0.0626400187293541
  0.1042222210884987  0.1009398863450528  0.8006340161402505
  0.2285579338629162  0.1957178385404603  0.5659214031046744
  0.7812578043453371  0.0883333908065822  0.3098544289573866
  0.8840925733447520  0.2030198912897845  0.0500724318991459
  0.4461241679929486  0.0940789012175429  0.8030835285853541
  0.5579637696039796  0.2053810859802923  0.5600118500802083
  0.1205261281361132  0.4311348639633152  0.3877113264709848
  0.2128007954420852  0.5472892898218049  0.1311117589646500
  0.7727926805682799  0.4290947337882614  0.8085633717768772
  0.8846508717232950  0.5451231012731839  0.5696138592461963
  0.4472244506074858  0.4252905217025997  0.3115598710557990
  0.5495023964317980  0.5423531517923834  0.0511846598915184
  0.1076472977705407  0.4353224232121775  0.8484921530842726
  0.2200572967730707  0.5429285837791795  0.6293989130285169
  0.8793714918474080  0.5497424342536590  0.0429472358551095
  0.4482291260244224  0.4243737121796016  0.8094536699525889
  0.5516838581232761  0.5398398950491483  0.5630437110491542
  0.1179676777933949  0.7569961268289020  0.3823149561863701
  0.2156672775803372  0.8668086192404445  0.1358397730718934
  0.7735756685045772  0.7684454804170997  0.8080179900584099
  0.8813033749230641  0.8762805135380418  0.5587789207480398
  0.4487752525428235  0.7594009905106276  0.3139310648641924
  0.5625655804234100  0.8681938093337180  0.0631698054010599
  0.1162002129717408  0.7604698867431097  0.8820053749641446
  0.2210974064970301  0.8661095192271020  0.6268493465816363
  0.7829468330485838  0.7629739339751254  0.3098001412985738
  0.8821178023605611  0.8756099107037372  0.0617662199528155
  0.4474637949658415  0.7618761557124003  0.8106521096391361
  0.5583851137563371  0.8688710404216309  0.5591450662130981
  0.2282122848283095  0.1972042667128733  0.0652289618819211
  0.7847684141647804  0.4250653752139613  0.3047821901357608
  0.2275974806116920  0.1983887478199193  0.3691017115873336
  0.0834199145791032  0.0923118733022079  0.1339055521893258
  0.8869921212178440  0.2041266007544209  0.8630172734618142
  0.7760199553423490  0.0923168650102184  0.6246032318355077
  0.5586151317929406  0.2064631755959212  0.3735883959460864
  0.4805908888822827  0.0774819847075179  0.1343103349397765
  0.2204912439342834  0.2066982384351590  0.8420826008386086
  0.1088339511821346  0.0953184327045733  0.6145945367423948
  0.8988335509315348  0.1779404821343178  0.3848568095370339
  0.7778812597035554  0.0964551577976707  0.1208099470732975
  0.5526063745826946  0.2060928174150050  0.8725296111886678
  0.4503630250893309  0.0903211668319202  0.6164490582613453
  0.2186240952073106  0.5408105119386306  0.3196288512359544
  0.0981691914482568  0.4577483879263937  0.0631488195808529
  0.8786769663173075  0.5466821973354214  0.8542917258417830
  0.7766458476003493  0.4267781852394990  0.6175153434019620
  0.5316478174278600  0.5499264885802049  0.3802675308676982
  0.4497047694580374  0.4263131036953069  0.1208780176420277
  0.2170647552930518  0.5472152626167883  0.8148996446796346
  0.1170875789032308  0.4255670460229979  0.5829758016472368
  0.8971804661329088  0.5578317846738301  0.3846483234257789
  0.7754905092920055  0.4303511335987480  0.0857674528185797
  0.5489364427239636  0.5422131771920036  0.8656423655267247
  0.4515718485010964  0.4221097566986671  0.6217940697421014
  0.2242869972909034  0.8645518343977301  0.3254501067044089
  0.1150271380125361  0.7604374285896043  0.0688746322591740
  0.8819271750928195  0.8756484979870720  0.8731604283496353
  0.7752943931231400  0.7665345265997274  0.6235122282997949
  0.5606207106967815  0.8669198638466042  0.3729910571915482
  0.4494933708119930  0.7599885580023269  0.1206393186384673
  0.2174247824311522  0.8725114390367708  0.8192163737709279
  0.1145672896513901  0.7577116802379535  0.5679364484520590
  0.8850500783370805  0.8746831137501232  0.3695737716315435
  0.7795780500616587  0.7580931396386958  0.1214365886333297
  0.5520220826654594  0.8765348919275269  0.8731757694564095
  0.4516715338777288  0.7589709200854102  0.6218427987530646
 
  0.00000000E+00  0.00000000E+00  0.00000000E+00
  0.00000000E+00  0.00000000E+00  0.00000000E+00
  0.00000000E+00  0.00000000E+00  0.00000000E+00
  0.00000000E+00  0.00000000E+00  0.00000000E+00
  0.00000000E+00  0.00000000E+00  0.00000000E+00
  0.00000000E+00  0.00000000E+00  0.00000000E+00
  0.00000000E+00  0.00000000E+00  0.00000000E+00
  0.00000000E+00  0.00000000E+00  0.00000000E+00
  0.00000000E+00  0.00000000E+00  0.00000000E+00
  0.00000000E+00  0.00000000E+00  0.00000000E+00
  0.00000000E+00  0.00000000E+00  0.00000000E+00
  0.00000000E+00  0.00000000E+00  0.00000000E+00
  0.00000000E+00  0.00000000E+00  0.00000000E+00
  0.00000000E+00  0.00000000E+00  0.00000000E+00
  0.00000000E+00  0.00000000E+00  0.00000000E+00
  0.00000000E+00  0.00000000E+00  0.00000000E+00
  0.00000000E+00  0.00000000E+00  0.00000000E+00
  0.00000000E+00  0.00000000E+00  0.00000000E+00
  0.00000000E+00  0.00000000E+00  0.00000000E+00
  0.00000000E+00  0.00000000E+00  0.00000000E+00
  0.00000000E+00  0.00000000E+00  0.00000000E+00
  0.00000000E+00  0.00000000E+00  0.00000000E+00
  0.00000000E+00  0.00000000E+00  0.00000000E+00
  0.00000000E+00  0.00000000E+00  0.00000000E+00
  0.00000000E+00  0.00000000E+00  0.00000000E+00
  0.00000000E+00  0.00000000E+00  0.00000000E+00
  0.00000000E+00  0.00000000E+00  0.00000000E+00
  0.00000000E+00  0.00000000E+00  0.00000000E+00
  0.00000000E+00  0.00000000E+00  0.00000000E+00
  0.00000000E+00  0.00000000E+00  0.00000000E+00
  0.00000000E+00  0.00000000E+00  0.00000000E+00
  0.00000000E+00  0.00000000E+00  0.00000000E+00
  0.00000000E+00  0.00000000E+00  0.00000000E+00
  0.00000000E+00  0.00000000E+00  0.00000000E+00
  0.00000000E+00  0.00000000E+00  0.00000000E+00
  0.00000000E+00  0.00000000E+00  0.00000000E+00
  0.00000000E+00  0.00000000E+00  0.00000000E+00
  0.00000000E+00  0.00000000E+00  0.00000000E+00
  0.00000000E+00  0.00000000E+00  0.00000000E+00
  0.00000000E+00  0.00000000E+00  0.00000000E+00
  0.00000000E+00  0.00000000E+00  0.00000000E+00
  0.00000000E+00  0.00000000E+00  0.00000000E+00
  0.00000000E+00  0.00000000E+00  0.00000000E+00
  0.00000000E+00  0.00000000E+00  0.00000000E+00
  0.00000000E+00  0.00000000E+00  0.00000000E+00
  0.00000000E+00  0.00000000E+00  0.00000000E+00
  0.00000000E+00  0.00000000E+00  0.00000000E+00
  0.00000000E+00  0.00000000E+00  0.00000000E+00
  0.00000000E+00  0.00000000E+00  0.00000000E+00
  0.00000000E+00  0.00000000E+00  0.00000000E+00
  0.00000000E+00  0.00000000E+00  0.00000000E+00
  0.00000000E+00  0.00000000E+00  0.00000000E+00
  0.00000000E+00  0.00000000E+00  0.00000000E+00
  0.00000000E+00  0.00000000E+00  0.00000000E+00
  0.00000000E+00  0.00000000E+00  0.00000000E+00
  0.00000000E+00  0.00000000E+00  0.00000000E+00
  0.00000000E+00  0.00000000E+00  0.00000000E+00
  0.00000000E+00  0.00000000E+00  0.00000000E+00
  0.00000000E+00  0.00000000E+00  0.00000000E+00
  0.00000000E+00  0.00000000E+00  0.00000000E+00
  0.00000000E+00  0.00000000E+00  0.00000000E+00
  0.00000000E+00  0.00000000E+00  0.00000000E+00
  0.00000000E+00  0.00000000E+00  0.00000000E+00
  0.00000000E+00  0.00000000E+00  0.00000000E+00
  0.00000000E+00  0.00000000E+00  0.00000000E+00
  0.00000000E+00  0.00000000E+00  0.00000000E+00
  0.00000000E+00  0.00000000E+00  0.00000000E+00
  0.00000000E+00  0.00000000E+00  0.00000000E+00
  0.00000000E+00  0.00000000E+00  0.00000000E+00
  0.00000000E+00  0.00000000E+00  0.00000000E+00
  0.00000000E+00  0.00000000E+00  0.00000000E+00
  0.00000000E+00  0.00000000E+00  0.00000000E+00
