Al   Gd   N                             
   1.00000000000000     
    -9.5114146363204952    0.0025700187510082   -0.0059250012227448
    -4.8354761574219260    8.2860205823730428    0.0004693535976665
     0.0283241083829139    0.0146520777418568  -10.4387892992979268
   Al   Gd   N 
    34     2    36
Direct
  0.1203016600344924  0.0832550902607849  0.4057392184907513
  0.7795443869387526  0.0902881072089912  0.8152922861252421
  0.8866083725633231  0.2013726289155571  0.5776554254011970
  0.4410835351837079  0.0959037743705409  0.4027888953397891
  0.5658934430373961  0.2042298931762900  0.0634039338869243
  0.1133327777665158  0.0878792054148576  0.8813336910794902
  0.2237641022047185  0.2047565515578853  0.6462269228869673
  0.7776431967741431  0.0900028546287359  0.3204795785855410
  0.8791798751479902  0.2037576500737970  0.0529686887105996
  0.4462625626812198  0.0936075940741006  0.8810409967800652
  0.5623428918674875  0.2022417613734859  0.5807299458838600
  0.1204898300437236  0.4296166601177092  0.4057758458524461
  0.2221951310716221  0.5435164949605280  0.1384356602560715
  0.7766194426409498  0.4283442152827490  0.8127114246181790
  0.8867122268764334  0.5452692859597903  0.5776305571495470
  0.4336755467571294  0.4294712294728313  0.3959026686591187
  0.5585314794425500  0.5376978927757605  0.0555833736665363
  0.1134017231838627  0.4320699830405559  0.8812697406968582
  0.2203957640726770  0.5429692546667226  0.6436065085178839
  0.8793477542804595  0.5504107828661660  0.0529831052758283
  0.4378347909503972  0.4308507653540445  0.8776064553974834
  0.5538066139055502  0.5396828740957034  0.5785887545330723
  0.1170664080476840  0.7580599653943025  0.3861546325335041
  0.2222282050064166  0.8677206476510548  0.1384057125492149
  0.7798667246424671  0.7634316735540807  0.8153066027641458
  0.8855625229309965  0.8738284043953684  0.5646391809064468
  0.4336569942090520  0.7702041343713546  0.3961238814540309
  0.5658581982377768  0.8631836378731990  0.0630898227808245
  0.1144767137667273  0.7594752601759041  0.8944133172342816
  0.2200362826875804  0.8700329179409394  0.6435340427106269
  0.7776152596867760  0.7655892778299815  0.3205000960508286
  0.8825608960779689  0.8754404498692097  0.0727404349020304
  0.4379944558181137  0.7645950662017356  0.8764558261610773
  0.5622915867553360  0.8687157448612695  0.5814728492588586
  0.2174279145660307  0.2079570050582475  0.1414502541160729
  0.7817130200251015  0.4258222168435708  0.3171444446953018
  0.2176756452547224  0.2077458322214483  0.3589095202604113
  0.1042681068438043  0.0738303352619383  0.0641477471649097
  0.8812789899485836  0.2079471546553933  0.8669505498717740
  0.7822416165844146  0.0873558773213645  0.6335057124276346
  0.5601438090938231  0.2028301268681716  0.3852406813284475
  0.4664497381703896  0.0833957002871912  0.0705805914476656
  0.2208104732023131  0.2062367965606100  0.8329262145099605
  0.1187244381056232  0.0892945308999984  0.5917561287207747
  0.8951567665520983  0.1786503744007035  0.3947648689492880
  0.7781641847492011  0.0969011958414754  0.1327877246427960
  0.5611239405180655  0.2054366719529028  0.8696731144236978
  0.4442247618041790  0.0945512833504765  0.5934563205693308
  0.2215472303934121  0.5366015547556700  0.3262174853228998
  0.1044572778180211  0.4551731186914125  0.0640823570845797
  0.8813392156696622  0.5441058876072020  0.8669679059827544
  0.7794087040047231  0.4269557303277480  0.6261616846924554
  0.5332101514436474  0.5501178612302056  0.3891285721319306
  0.4395803726800622  0.4308404799551298  0.0735586521044382
  0.2177484251054622  0.5459996995629695  0.8253595779202314
  0.1188137235688842  0.4252060704896579  0.5918178193552635
  0.8953619891179940  0.5594104447839854  0.3947300661075630
  0.7819860952857169  0.4257728693440299  0.0995497884074368
  0.5558531782631704  0.5387085214431977  0.8648972906259758
  0.4390702265672672  0.4276250001843209  0.5898281308066444
  0.2215330791684380  0.8751211080515304  0.3263365706638126
  0.1156232834932709  0.7588901090936844  0.0817729022100764
  0.8815885053467269  0.8759664108028815  0.8848830340841474
  0.7824427461686554  0.7635750842755229  0.6335753715621806
  0.5602809905952029  0.8700165410955307  0.3855802498313210
  0.4394206284345898  0.7632859558726253  0.0733036897205679
  0.2175247292238396  0.8697262127849683  0.8252399379262627
  0.1184637542862461  0.7573130928781282  0.5739829502306435
  0.8839932281839609  0.8746334792302903  0.3772800819099871
  0.7781144075931721  0.7583631453445818  0.1326839027621958
  0.5611443598581403  0.8669269677772888  0.8691034649461287
  0.4391220942980425  0.7664367695757051  0.5905496454197134
 
  0.00000000E+00  0.00000000E+00  0.00000000E+00
  0.00000000E+00  0.00000000E+00  0.00000000E+00
  0.00000000E+00  0.00000000E+00  0.00000000E+00
  0.00000000E+00  0.00000000E+00  0.00000000E+00
  0.00000000E+00  0.00000000E+00  0.00000000E+00
  0.00000000E+00  0.00000000E+00  0.00000000E+00
  0.00000000E+00  0.00000000E+00  0.00000000E+00
  0.00000000E+00  0.00000000E+00  0.00000000E+00
  0.00000000E+00  0.00000000E+00  0.00000000E+00
  0.00000000E+00  0.00000000E+00  0.00000000E+00
  0.00000000E+00  0.00000000E+00  0.00000000E+00
  0.00000000E+00  0.00000000E+00  0.00000000E+00
  0.00000000E+00  0.00000000E+00  0.00000000E+00
  0.00000000E+00  0.00000000E+00  0.00000000E+00
  0.00000000E+00  0.00000000E+00  0.00000000E+00
  0.00000000E+00  0.00000000E+00  0.00000000E+00
  0.00000000E+00  0.00000000E+00  0.00000000E+00
  0.00000000E+00  0.00000000E+00  0.00000000E+00
  0.00000000E+00  0.00000000E+00  0.00000000E+00
  0.00000000E+00  0.00000000E+00  0.00000000E+00
  0.00000000E+00  0.00000000E+00  0.00000000E+00
  0.00000000E+00  0.00000000E+00  0.00000000E+00
  0.00000000E+00  0.00000000E+00  0.00000000E+00
  0.00000000E+00  0.00000000E+00  0.00000000E+00
  0.00000000E+00  0.00000000E+00  0.00000000E+00
  0.00000000E+00  0.00000000E+00  0.00000000E+00
  0.00000000E+00  0.00000000E+00  0.00000000E+00
  0.00000000E+00  0.00000000E+00  0.00000000E+00
  0.00000000E+00  0.00000000E+00  0.00000000E+00
  0.00000000E+00  0.00000000E+00  0.00000000E+00
  0.00000000E+00  0.00000000E+00  0.00000000E+00
  0.00000000E+00  0.00000000E+00  0.00000000E+00
  0.00000000E+00  0.00000000E+00  0.00000000E+00
  0.00000000E+00  0.00000000E+00  0.00000000E+00
  0.00000000E+00  0.00000000E+00  0.00000000E+00
  0.00000000E+00  0.00000000E+00  0.00000000E+00
  0.00000000E+00  0.00000000E+00  0.00000000E+00
  0.00000000E+00  0.00000000E+00  0.00000000E+00
  0.00000000E+00  0.00000000E+00  0.00000000E+00
  0.00000000E+00  0.00000000E+00  0.00000000E+00
  0.00000000E+00  0.00000000E+00  0.00000000E+00
  0.00000000E+00  0.00000000E+00  0.00000000E+00
  0.00000000E+00  0.00000000E+00  0.00000000E+00
  0.00000000E+00  0.00000000E+00  0.00000000E+00
  0.00000000E+00  0.00000000E+00  0.00000000E+00
  0.00000000E+00  0.00000000E+00  0.00000000E+00
  0.00000000E+00  0.00000000E+00  0.00000000E+00
  0.00000000E+00  0.00000000E+00  0.00000000E+00
  0.00000000E+00  0.00000000E+00  0.00000000E+00
  0.00000000E+00  0.00000000E+00  0.00000000E+00
  0.00000000E+00  0.00000000E+00  0.00000000E+00
  0.00000000E+00  0.00000000E+00  0.00000000E+00
  0.00000000E+00  0.00000000E+00  0.00000000E+00
  0.00000000E+00  0.00000000E+00  0.00000000E+00
  0.00000000E+00  0.00000000E+00  0.00000000E+00
  0.00000000E+00  0.00000000E+00  0.00000000E+00
  0.00000000E+00  0.00000000E+00  0.00000000E+00
  0.00000000E+00  0.00000000E+00  0.00000000E+00
  0.00000000E+00  0.00000000E+00  0.00000000E+00
  0.00000000E+00  0.00000000E+00  0.00000000E+00
  0.00000000E+00  0.00000000E+00  0.00000000E+00
  0.00000000E+00  0.00000000E+00  0.00000000E+00
  0.00000000E+00  0.00000000E+00  0.00000000E+00
  0.00000000E+00  0.00000000E+00  0.00000000E+00
  0.00000000E+00  0.00000000E+00  0.00000000E+00
  0.00000000E+00  0.00000000E+00  0.00000000E+00
  0.00000000E+00  0.00000000E+00  0.00000000E+00
  0.00000000E+00  0.00000000E+00  0.00000000E+00
  0.00000000E+00  0.00000000E+00  0.00000000E+00
  0.00000000E+00  0.00000000E+00  0.00000000E+00
  0.00000000E+00  0.00000000E+00  0.00000000E+00
  0.00000000E+00  0.00000000E+00  0.00000000E+00
