Al   Gd   N                             
   1.00000000000000     
    -9.5131510331953351    0.0024408271141145   -0.0060074488687035
    -4.8214710182881619    8.2750022902497342    0.0006003563679600
     0.0355980694036362    0.0255712950229945  -10.4283314917629060
   Al   Gd   N 
    34     2    36
Direct
  0.1208601101650331  0.0837149316691708  0.4053810663079531
  0.7861980620688414  0.0865948697303196  0.8161972673793443
  0.8849469175324458  0.2012511161738999  0.5757914343599069
  0.4452890791038797  0.1004427101798342  0.4056292848527647
  0.5626760719449067  0.2061998938039906  0.0963315838489436
  0.1142554943349268  0.0881728915100197  0.8816076467575513
  0.2210687714135062  0.2054806230983530  0.6448738220435288
  0.7783528028447506  0.0897739200992902  0.3204120844283906
  0.8811776132852742  0.2040300769032726  0.0533625586737188
  0.4471014569808105  0.0946749851772353  0.8775111378415801
  0.5524706554560481  0.2072895391629146  0.6361598511310191
  0.1202416364508068  0.4298559079677062  0.4050732300093998
  0.2223307870767854  0.5427109931406378  0.1390692515019722
  0.7765757824474662  0.4283105675861520  0.8120219572633403
  0.8857955555189818  0.5457055396937065  0.5765912980648338
  0.4367824368667499  0.4232107410946711  0.3974492891815586
  0.5593981930193692  0.5373835358132979  0.0536726782718091
  0.1132823745027665  0.4313312378943763  0.8812955270793807
  0.2183113933401586  0.5444320078812623  0.6429030574280503
  0.8798562386226934  0.5495164414049469  0.0537601034321327
  0.4381636502043023  0.4285290863267832  0.8768605406698526
  0.5525158529027081  0.5397357264011688  0.5781332420899687
  0.1178825051567287  0.7574970359412916  0.3857068173006226
  0.2231960338001358  0.8675631509120407  0.1384897208936593
  0.7802667338339688  0.7625438212244120  0.8144755082776811
  0.8841660240141778  0.8752312944648750  0.5630699425711541
  0.4335303692745924  0.7708911789131889  0.3964853886144724
  0.5674569984649267  0.8630087534311954  0.0595297221591338
  0.1151943291804898  0.7586076397263000  0.8942667995533995
  0.2189535360517567  0.8705782514755427  0.6432299211713612
  0.7763279085525951  0.7666118634121091  0.3206103748059377
  0.8841480756415550  0.8739381628064891  0.0725965700702176
  0.4376536176549450  0.7644377392150687  0.8748659841899098
  0.5617351609192411  0.8692818547203700  0.5813891810067204
  0.2228220772344116  0.2053058773569632  0.1430047651977233
  0.7794011532624054  0.4268188483178292  0.3177098788316997
  0.2192404841710172  0.2073507541143158  0.3605135059103759
  0.1064386435597697  0.0747347041634256  0.0648142211590184
  0.8818061049550465  0.2081740744747052  0.8681633575876333
  0.7842971167124517  0.0860473202389613  0.6333339126989230
  0.5540242204810610  0.2061834157394244  0.3529671353540635
  0.4701203891514680  0.0850935958094539  0.0620621373231458
  0.2202927252158489  0.2062502404639872  0.8319087734366803
  0.1172035694158708  0.0896141255907068  0.5914384636102099
  0.8957232326781366  0.1786066621268745  0.3934494535882536
  0.7839720781868280  0.0940904712019872  0.1304130913997170
  0.5542698940696980  0.2081240800621558  0.8330700101824107
  0.4436661763204199  0.0962692675889443  0.5938553587280850
  0.2224845807555553  0.5363566431412110  0.3263275353618269
  0.1051635862162286  0.4531154601133096  0.0650022636024943
  0.8813806786898866  0.5436335497164677  0.8675152911586181
  0.7785162080915242  0.4269914362102085  0.6255967758572183
  0.5313036158671025  0.5503817181193114  0.3899701286598685
  0.4408303264553410  0.4278159783504876  0.0687951675386600
  0.2172898662461336  0.5458623755429599  0.8252438746863291
  0.1172468648106744  0.4262053424205021  0.5916403281197873
  0.8949339378538994  0.5595446996295053  0.3937783896656484
  0.7812239532403424  0.4259310956225804  0.0999009011718854
  0.5556388445140712  0.5379688025931202  0.8640186082340691
  0.4382979640814568  0.4258640870092876  0.5888000581574815
  0.2219041449224832  0.8753464779425641  0.3259404893619973
  0.1173021217286916  0.7577442883275225  0.0815007203775764
  0.8821528322948566  0.8745695346639479  0.8854237631175508
  0.7821669049863047  0.7638716957999350  0.6329920458320046
  0.5597116637154969  0.8718595813822105  0.3867827209168695
  0.4400921980653365  0.7634725221335827  0.0722368157992861
  0.2168082041085526  0.8700680347430065  0.8252844210378498
  0.1175332778769373  0.7580293328628684  0.5735416537355178
  0.8845492572769729  0.8743455742086468  0.3761366567027693
  0.7779042239983482  0.7586951341866808  0.1321447667838171
  0.5611377854522672  0.8664707516731340  0.8668056850355796
  0.4382095680857887  0.7670071433799919  0.5911953864483763
 
  0.00000000E+00  0.00000000E+00  0.00000000E+00
  0.00000000E+00  0.00000000E+00  0.00000000E+00
  0.00000000E+00  0.00000000E+00  0.00000000E+00
  0.00000000E+00  0.00000000E+00  0.00000000E+00
  0.00000000E+00  0.00000000E+00  0.00000000E+00
  0.00000000E+00  0.00000000E+00  0.00000000E+00
  0.00000000E+00  0.00000000E+00  0.00000000E+00
  0.00000000E+00  0.00000000E+00  0.00000000E+00
  0.00000000E+00  0.00000000E+00  0.00000000E+00
  0.00000000E+00  0.00000000E+00  0.00000000E+00
  0.00000000E+00  0.00000000E+00  0.00000000E+00
  0.00000000E+00  0.00000000E+00  0.00000000E+00
  0.00000000E+00  0.00000000E+00  0.00000000E+00
  0.00000000E+00  0.00000000E+00  0.00000000E+00
  0.00000000E+00  0.00000000E+00  0.00000000E+00
  0.00000000E+00  0.00000000E+00  0.00000000E+00
  0.00000000E+00  0.00000000E+00  0.00000000E+00
  0.00000000E+00  0.00000000E+00  0.00000000E+00
  0.00000000E+00  0.00000000E+00  0.00000000E+00
  0.00000000E+00  0.00000000E+00  0.00000000E+00
  0.00000000E+00  0.00000000E+00  0.00000000E+00
  0.00000000E+00  0.00000000E+00  0.00000000E+00
  0.00000000E+00  0.00000000E+00  0.00000000E+00
  0.00000000E+00  0.00000000E+00  0.00000000E+00
  0.00000000E+00  0.00000000E+00  0.00000000E+00
  0.00000000E+00  0.00000000E+00  0.00000000E+00
  0.00000000E+00  0.00000000E+00  0.00000000E+00
  0.00000000E+00  0.00000000E+00  0.00000000E+00
  0.00000000E+00  0.00000000E+00  0.00000000E+00
  0.00000000E+00  0.00000000E+00  0.00000000E+00
  0.00000000E+00  0.00000000E+00  0.00000000E+00
  0.00000000E+00  0.00000000E+00  0.00000000E+00
  0.00000000E+00  0.00000000E+00  0.00000000E+00
  0.00000000E+00  0.00000000E+00  0.00000000E+00
  0.00000000E+00  0.00000000E+00  0.00000000E+00
  0.00000000E+00  0.00000000E+00  0.00000000E+00
  0.00000000E+00  0.00000000E+00  0.00000000E+00
  0.00000000E+00  0.00000000E+00  0.00000000E+00
  0.00000000E+00  0.00000000E+00  0.00000000E+00
  0.00000000E+00  0.00000000E+00  0.00000000E+00
  0.00000000E+00  0.00000000E+00  0.00000000E+00
  0.00000000E+00  0.00000000E+00  0.00000000E+00
  0.00000000E+00  0.00000000E+00  0.00000000E+00
  0.00000000E+00  0.00000000E+00  0.00000000E+00
  0.00000000E+00  0.00000000E+00  0.00000000E+00
  0.00000000E+00  0.00000000E+00  0.00000000E+00
  0.00000000E+00  0.00000000E+00  0.00000000E+00
  0.00000000E+00  0.00000000E+00  0.00000000E+00
  0.00000000E+00  0.00000000E+00  0.00000000E+00
  0.00000000E+00  0.00000000E+00  0.00000000E+00
  0.00000000E+00  0.00000000E+00  0.00000000E+00
  0.00000000E+00  0.00000000E+00  0.00000000E+00
  0.00000000E+00  0.00000000E+00  0.00000000E+00
  0.00000000E+00  0.00000000E+00  0.00000000E+00
  0.00000000E+00  0.00000000E+00  0.00000000E+00
  0.00000000E+00  0.00000000E+00  0.00000000E+00
  0.00000000E+00  0.00000000E+00  0.00000000E+00
  0.00000000E+00  0.00000000E+00  0.00000000E+00
  0.00000000E+00  0.00000000E+00  0.00000000E+00
  0.00000000E+00  0.00000000E+00  0.00000000E+00
  0.00000000E+00  0.00000000E+00  0.00000000E+00
  0.00000000E+00  0.00000000E+00  0.00000000E+00
  0.00000000E+00  0.00000000E+00  0.00000000E+00
  0.00000000E+00  0.00000000E+00  0.00000000E+00
  0.00000000E+00  0.00000000E+00  0.00000000E+00
  0.00000000E+00  0.00000000E+00  0.00000000E+00
  0.00000000E+00  0.00000000E+00  0.00000000E+00
  0.00000000E+00  0.00000000E+00  0.00000000E+00
  0.00000000E+00  0.00000000E+00  0.00000000E+00
  0.00000000E+00  0.00000000E+00  0.00000000E+00
  0.00000000E+00  0.00000000E+00  0.00000000E+00
  0.00000000E+00  0.00000000E+00  0.00000000E+00
