Al   Gd   N                             
   1.00000000000000     
    -9.5276471784162631    0.0022940595495782   -0.0059546825222524
    -4.7635657357361643    8.2535675992618209    0.0002884482736451
    -0.0097645443400251   -0.0079175819049577  -10.1466108470957970
   Al   Gd   N 
    34     2    36
Direct
  0.1131365291438371  0.0870348022065102  0.4055186568520952
  0.7748752486921475  0.0966483841147578  0.8945449229780564
  0.8876427792638353  0.2048118922614890  0.6554092892594241
  0.4470632894235465  0.0931712561071834  0.4053282990050349
  0.5593107045043268  0.2042857537902023  0.1460806276541220
  0.1095682822325443  0.0891359332725230  0.8911403175942922
  0.2221423108458893  0.2055609735016759  0.6466190001476377
  0.7785452865691695  0.0916342903407568  0.3939162292569591
  0.8890233582761056  0.1961882674947333  0.1413634724325377
  0.4509175989976200  0.0911842818532875  0.8913156064824719
  0.5562332413802409  0.2072770901830125  0.6469963486583410
  0.1132334243031110  0.4332692389537485  0.4054890368288326
  0.2207692483749852  0.5437008174174167  0.1469143606783732
  0.7774441849557050  0.4279324306103760  0.8979551357208990
  0.8876653359244031  0.5408431835692440  0.6554147842657301
  0.4384127105765288  0.4299615185042498  0.3957150592854362
  0.5473056154564020  0.5430582496638792  0.1409886259542574
  0.1096347878741355  0.4345510179045178  0.8910755962732111
  0.2242920575802501  0.5397363472248244  0.6473574379024072
  0.8891227857081958  0.5481964852763994  0.1412057886578211
  0.4431672047875708  0.4269230839775489  0.8972599383002304
  0.5530747598890144  0.5401072138277456  0.6548344501920695
  0.1145548351713401  0.7594513932013669  0.3939271382571334
  0.2207190150451552  0.8689626354139577  0.1469168318209952
  0.7748826943285110  0.7618013565724553  0.8945260074190742
  0.8898471731266184  0.8717085555377437  0.6103790221428014
  0.4383430484210393  0.7651270645899331  0.3956855126533938
  0.5592911573674897  0.8698003099731011  0.1460128033974541
  0.1150653709706120  0.7591101089189181  0.8942859120426334
  0.2242738909102684  0.8692898048754500  0.6473641137372539
  0.7786215052491769  0.7633404309302207  0.3937113148102540
  0.8889100255874709  0.8722620408716892  0.1071751128231853
  0.4431497744396822  0.7632218578468226  0.8972297917616174
  0.5562772680909589  0.8697453667012951  0.6469372171736580
  0.2198698529119554  0.2067734915352091  0.1451282017159130
  0.7766106555256442  0.4286224130423619  0.3918425577798743
  0.2209062703295075  0.2062588977262720  0.3677473115499836
  0.0988779148945369  0.0764573354511668  0.0748263197044352
  0.8869108737881319  0.2056777281821027  0.8416132523354563
  0.7758617740805036  0.1001989533737131  0.5870127989472067
  0.5544610340413527  0.2061977268876163  0.3379153928138408
  0.4731992032712427  0.0800885431706888  0.0776533832958251
  0.2222663902050428  0.2054871109054943  0.8420953830195543
  0.1087464876211968  0.0928688951057381  0.5950304810183624
  0.9063922416932044  0.1746373997761737  0.3274885511493224
  0.7730969532317289  0.0979548650099957  0.0845320438050692
  0.5554381196527274  0.2079523155525251  0.8345537437927817
  0.4480205693031252  0.0926193754805169  0.5936282677727718
  0.2222756138565103  0.5373479415039810  0.3374078464026979
  0.0989896967670703  0.4579935430929609  0.0747314769084113
  0.8869318838803792  0.5407037572932083  0.8416120750115041
  0.7771491094348306  0.4280681080224227  0.6127355981939075
  0.5226873739940601  0.5553879610531922  0.3262977994876692
  0.4422518021892188  0.4255905747284103  0.0860993240137162
  0.2251960076622268  0.5395412360821794  0.8342453724060306
  0.1087581504534256  0.4316644067834972  0.5950206073064663
  0.9066241405198099  0.5525090044686181  0.3272783761987057
  0.7786716806559255  0.4273812088936140  0.0946044700532553
  0.5528876731232870  0.5402014082691409  0.8444708580537181
  0.4456278271069039  0.4282637034336645  0.5867519440739386
  0.2221888932806735  0.8738984136639445  0.3374063372265894
  0.1160057774475760  0.7586779870916018  0.0869484845189845
  0.8897763891081780  0.8717670557864210  0.8574439736375439
  0.7758976235894153  0.7571633924617274  0.5868615628990881
  0.5544757321254750  0.8727499112651813  0.3378449642132182
  0.4422002412098536  0.7655584408565872  0.0860716793263379
  0.2251599074973853  0.8685745662278705  0.8342637051213515
  0.1172784208895905  0.7580014953318255  0.5859439715005337
  0.8905362500111451  0.8715367986675275  0.3625685248283403
  0.7730964982740147  0.7623658184255149  0.0844910580375569
  0.5554610328977461  0.8698739118880354  0.8345118451667375
  0.4456155974276754  0.7593978886955952  0.5867273600500056
 
  0.00000000E+00  0.00000000E+00  0.00000000E+00
  0.00000000E+00  0.00000000E+00  0.00000000E+00
  0.00000000E+00  0.00000000E+00  0.00000000E+00
  0.00000000E+00  0.00000000E+00  0.00000000E+00
  0.00000000E+00  0.00000000E+00  0.00000000E+00
  0.00000000E+00  0.00000000E+00  0.00000000E+00
  0.00000000E+00  0.00000000E+00  0.00000000E+00
  0.00000000E+00  0.00000000E+00  0.00000000E+00
  0.00000000E+00  0.00000000E+00  0.00000000E+00
  0.00000000E+00  0.00000000E+00  0.00000000E+00
  0.00000000E+00  0.00000000E+00  0.00000000E+00
  0.00000000E+00  0.00000000E+00  0.00000000E+00
  0.00000000E+00  0.00000000E+00  0.00000000E+00
  0.00000000E+00  0.00000000E+00  0.00000000E+00
  0.00000000E+00  0.00000000E+00  0.00000000E+00
  0.00000000E+00  0.00000000E+00  0.00000000E+00
  0.00000000E+00  0.00000000E+00  0.00000000E+00
  0.00000000E+00  0.00000000E+00  0.00000000E+00
  0.00000000E+00  0.00000000E+00  0.00000000E+00
  0.00000000E+00  0.00000000E+00  0.00000000E+00
  0.00000000E+00  0.00000000E+00  0.00000000E+00
  0.00000000E+00  0.00000000E+00  0.00000000E+00
  0.00000000E+00  0.00000000E+00  0.00000000E+00
  0.00000000E+00  0.00000000E+00  0.00000000E+00
  0.00000000E+00  0.00000000E+00  0.00000000E+00
  0.00000000E+00  0.00000000E+00  0.00000000E+00
  0.00000000E+00  0.00000000E+00  0.00000000E+00
  0.00000000E+00  0.00000000E+00  0.00000000E+00
  0.00000000E+00  0.00000000E+00  0.00000000E+00
  0.00000000E+00  0.00000000E+00  0.00000000E+00
  0.00000000E+00  0.00000000E+00  0.00000000E+00
  0.00000000E+00  0.00000000E+00  0.00000000E+00
  0.00000000E+00  0.00000000E+00  0.00000000E+00
  0.00000000E+00  0.00000000E+00  0.00000000E+00
  0.00000000E+00  0.00000000E+00  0.00000000E+00
  0.00000000E+00  0.00000000E+00  0.00000000E+00
  0.00000000E+00  0.00000000E+00  0.00000000E+00
  0.00000000E+00  0.00000000E+00  0.00000000E+00
  0.00000000E+00  0.00000000E+00  0.00000000E+00
  0.00000000E+00  0.00000000E+00  0.00000000E+00
  0.00000000E+00  0.00000000E+00  0.00000000E+00
  0.00000000E+00  0.00000000E+00  0.00000000E+00
  0.00000000E+00  0.00000000E+00  0.00000000E+00
  0.00000000E+00  0.00000000E+00  0.00000000E+00
  0.00000000E+00  0.00000000E+00  0.00000000E+00
  0.00000000E+00  0.00000000E+00  0.00000000E+00
  0.00000000E+00  0.00000000E+00  0.00000000E+00
  0.00000000E+00  0.00000000E+00  0.00000000E+00
  0.00000000E+00  0.00000000E+00  0.00000000E+00
  0.00000000E+00  0.00000000E+00  0.00000000E+00
  0.00000000E+00  0.00000000E+00  0.00000000E+00
  0.00000000E+00  0.00000000E+00  0.00000000E+00
  0.00000000E+00  0.00000000E+00  0.00000000E+00
  0.00000000E+00  0.00000000E+00  0.00000000E+00
  0.00000000E+00  0.00000000E+00  0.00000000E+00
  0.00000000E+00  0.00000000E+00  0.00000000E+00
  0.00000000E+00  0.00000000E+00  0.00000000E+00
  0.00000000E+00  0.00000000E+00  0.00000000E+00
  0.00000000E+00  0.00000000E+00  0.00000000E+00
  0.00000000E+00  0.00000000E+00  0.00000000E+00
  0.00000000E+00  0.00000000E+00  0.00000000E+00
  0.00000000E+00  0.00000000E+00  0.00000000E+00
  0.00000000E+00  0.00000000E+00  0.00000000E+00
  0.00000000E+00  0.00000000E+00  0.00000000E+00
  0.00000000E+00  0.00000000E+00  0.00000000E+00
  0.00000000E+00  0.00000000E+00  0.00000000E+00
  0.00000000E+00  0.00000000E+00  0.00000000E+00
  0.00000000E+00  0.00000000E+00  0.00000000E+00
  0.00000000E+00  0.00000000E+00  0.00000000E+00
  0.00000000E+00  0.00000000E+00  0.00000000E+00
  0.00000000E+00  0.00000000E+00  0.00000000E+00
  0.00000000E+00  0.00000000E+00  0.00000000E+00
