Al   Gd   N                             
   1.00000000000000     
    -9.4878148925545460    0.0027853381458311   -0.0057875884794803
    -4.8073725496391493    8.2520723339360842    0.0002510156471774
     0.0188080127627298    0.0020088783060567  -10.4849840409290973
   Al   Gd   N 
    34     2    36
Direct
  0.1208594783612611  0.0825003909347686  0.4065434519786564
  0.7788253567427148  0.0907000147800474  0.8153180320555791
  0.8851910929358837  0.2026334655333599  0.5776697218966262
  0.4408953422004345  0.0955925054088524  0.4029639011429254
  0.5661838684651812  0.2044152702231941  0.0641934959534538
  0.1146284515110025  0.0865545276119661  0.8813275443566937
  0.2251689469979112  0.2035411580621656  0.6462087524273343
  0.7776289551180540  0.0900099110580612  0.3206393406651245
  0.8783245084204765  0.2054285646473986  0.0522311111488492
  0.4464537785411764  0.0915594670703683  0.8839426813068130
  0.5620194332275616  0.2022043869969607  0.5806131610988530
  0.1212445051916902  0.4292780600596302  0.4063877061751313
  0.2225183767278622  0.5435183392590091  0.1387701435158277
  0.7761064274139926  0.4284065682633482  0.8140728581771270
  0.8866887182734047  0.5445410473443317  0.5782719617122041
  0.4335055547010924  0.4321385261182868  0.3970197580556132
  0.5554241887254321  0.5466510025861382  0.0581751827037920
  0.1145970529685627  0.4310641017422085  0.8811862587588024
  0.2219421655591702  0.5418550740392476  0.6442252114348648
  0.8802564114875864  0.5501355400531267  0.0529768178082008
  0.4375890483080340  0.4328353653469605  0.8826317433050050
  0.5511328688761878  0.5466445770423931  0.5740377221266684
  0.1171955379178868  0.7585689977321053  0.3875062482503040
  0.2123594735145886  0.8729064707715253  0.1392781753116097
  0.7784191483993297  0.7634809334585597  0.8160124589099595
  0.8837509371218388  0.8736711818652338  0.5651132378655674
  0.4445415916178987  0.7647769545605456  0.3202570076700226
  0.5634413899060462  0.8600687073938289  0.0654071546742685
  0.1150234152667764  0.7596436390577352  0.8938528691692085
  0.2146742172908915  0.8719505606818103  0.6426907251273732
  0.7790284179640494  0.7645310617158927  0.3203746712157809
  0.8813764593230360  0.8754962347426343  0.0715605833040200
  0.4497451275076401  0.7582174170595621  0.8156635491457962
  0.5597454854873121  0.8632047956077855  0.5740527175411287
  0.2177030942952527  0.2081534159307097  0.1427886602329878
  0.7807895073681266  0.4255499155504339  0.3171384451802126
  0.2179951968459122  0.2073441255725825  0.3589778087786186
  0.1045531295457351  0.0750382688562823  0.0625537409689301
  0.8811211363694724  0.2080098740538077  0.8674015332060705
  0.7818477527801022  0.0874833796021832  0.6342067056562755
  0.5598625992357427  0.2037713395508618  0.3849705072945468
  0.4667730889498358  0.0824747763413427  0.0713322516247530
  0.2222308798294748  0.2047635307174502  0.8319672171128474
  0.1187072838519754  0.0892390694050604  0.5907665551817587
  0.8941801852126545  0.1798561532571128  0.3958529725395010
  0.7789206307672529  0.0969298765849729  0.1332936097660919
  0.5602854021454604  0.2059338810739959  0.8707448253743735
  0.4453731520515234  0.0914200409357306  0.5914352261084375
  0.2217501571615657  0.5371449026443997  0.3258582675147750
  0.1058673879653895  0.4543501308353015  0.0633226264839450
  0.8824328368687446  0.5433990357581706  0.8672883997242238
  0.7772828293742009  0.4279185311993103  0.6272065014608899
  0.5285891517685144  0.5605223260481225  0.3917948762415620
  0.4401668946857811  0.4326778187904949  0.0745312615088665
  0.2192635805175840  0.5452896581523348  0.8252183197162140
  0.1194651588197999  0.4246633841045835  0.5917255602106621
  0.8956589723030390  0.5581627208548099  0.3954393583649960
  0.7820910008329776  0.4265817547945971  0.1003728099284373
  0.5548990790178081  0.5438018901676855  0.8731617919858792
  0.4397706610018801  0.4289614133399056  0.5877696035820250
  0.2134803806167085  0.8791775980013767  0.3250310053953100
  0.1153633351914891  0.7584083454633657  0.0796804223161871
  0.8806094906744732  0.8759631600248241  0.8848025150938525
  0.7793030648290085  0.7641047835023045  0.6338182279754889
  0.5575448664536466  0.8666783628054517  0.3850332180878482
  0.4508804617407023  0.7581669934757826  0.1320675263982238
  0.2159760761273262  0.8700365284244569  0.8254943897919702
  0.1179530312676746  0.7565679350498939  0.5736609485690636
  0.8830239660281904  0.8747759708307967  0.3787491757779406
  0.7787692812800771  0.7583182053411051  0.1333600863221562
  0.5596316892163884  0.8616109315670002  0.8777050101416890
  0.4486182915533661  0.7603375659458393  0.6334925399700140
 
  0.00000000E+00  0.00000000E+00  0.00000000E+00
  0.00000000E+00  0.00000000E+00  0.00000000E+00
  0.00000000E+00  0.00000000E+00  0.00000000E+00
  0.00000000E+00  0.00000000E+00  0.00000000E+00
  0.00000000E+00  0.00000000E+00  0.00000000E+00
  0.00000000E+00  0.00000000E+00  0.00000000E+00
  0.00000000E+00  0.00000000E+00  0.00000000E+00
  0.00000000E+00  0.00000000E+00  0.00000000E+00
  0.00000000E+00  0.00000000E+00  0.00000000E+00
  0.00000000E+00  0.00000000E+00  0.00000000E+00
  0.00000000E+00  0.00000000E+00  0.00000000E+00
  0.00000000E+00  0.00000000E+00  0.00000000E+00
  0.00000000E+00  0.00000000E+00  0.00000000E+00
  0.00000000E+00  0.00000000E+00  0.00000000E+00
  0.00000000E+00  0.00000000E+00  0.00000000E+00
  0.00000000E+00  0.00000000E+00  0.00000000E+00
  0.00000000E+00  0.00000000E+00  0.00000000E+00
  0.00000000E+00  0.00000000E+00  0.00000000E+00
  0.00000000E+00  0.00000000E+00  0.00000000E+00
  0.00000000E+00  0.00000000E+00  0.00000000E+00
  0.00000000E+00  0.00000000E+00  0.00000000E+00
  0.00000000E+00  0.00000000E+00  0.00000000E+00
  0.00000000E+00  0.00000000E+00  0.00000000E+00
  0.00000000E+00  0.00000000E+00  0.00000000E+00
  0.00000000E+00  0.00000000E+00  0.00000000E+00
  0.00000000E+00  0.00000000E+00  0.00000000E+00
  0.00000000E+00  0.00000000E+00  0.00000000E+00
  0.00000000E+00  0.00000000E+00  0.00000000E+00
  0.00000000E+00  0.00000000E+00  0.00000000E+00
  0.00000000E+00  0.00000000E+00  0.00000000E+00
  0.00000000E+00  0.00000000E+00  0.00000000E+00
  0.00000000E+00  0.00000000E+00  0.00000000E+00
  0.00000000E+00  0.00000000E+00  0.00000000E+00
  0.00000000E+00  0.00000000E+00  0.00000000E+00
  0.00000000E+00  0.00000000E+00  0.00000000E+00
  0.00000000E+00  0.00000000E+00  0.00000000E+00
  0.00000000E+00  0.00000000E+00  0.00000000E+00
  0.00000000E+00  0.00000000E+00  0.00000000E+00
  0.00000000E+00  0.00000000E+00  0.00000000E+00
  0.00000000E+00  0.00000000E+00  0.00000000E+00
  0.00000000E+00  0.00000000E+00  0.00000000E+00
  0.00000000E+00  0.00000000E+00  0.00000000E+00
  0.00000000E+00  0.00000000E+00  0.00000000E+00
  0.00000000E+00  0.00000000E+00  0.00000000E+00
  0.00000000E+00  0.00000000E+00  0.00000000E+00
  0.00000000E+00  0.00000000E+00  0.00000000E+00
  0.00000000E+00  0.00000000E+00  0.00000000E+00
  0.00000000E+00  0.00000000E+00  0.00000000E+00
  0.00000000E+00  0.00000000E+00  0.00000000E+00
  0.00000000E+00  0.00000000E+00  0.00000000E+00
  0.00000000E+00  0.00000000E+00  0.00000000E+00
  0.00000000E+00  0.00000000E+00  0.00000000E+00
  0.00000000E+00  0.00000000E+00  0.00000000E+00
  0.00000000E+00  0.00000000E+00  0.00000000E+00
  0.00000000E+00  0.00000000E+00  0.00000000E+00
  0.00000000E+00  0.00000000E+00  0.00000000E+00
  0.00000000E+00  0.00000000E+00  0.00000000E+00
  0.00000000E+00  0.00000000E+00  0.00000000E+00
  0.00000000E+00  0.00000000E+00  0.00000000E+00
  0.00000000E+00  0.00000000E+00  0.00000000E+00
  0.00000000E+00  0.00000000E+00  0.00000000E+00
  0.00000000E+00  0.00000000E+00  0.00000000E+00
  0.00000000E+00  0.00000000E+00  0.00000000E+00
  0.00000000E+00  0.00000000E+00  0.00000000E+00
  0.00000000E+00  0.00000000E+00  0.00000000E+00
  0.00000000E+00  0.00000000E+00  0.00000000E+00
  0.00000000E+00  0.00000000E+00  0.00000000E+00
  0.00000000E+00  0.00000000E+00  0.00000000E+00
  0.00000000E+00  0.00000000E+00  0.00000000E+00
  0.00000000E+00  0.00000000E+00  0.00000000E+00
  0.00000000E+00  0.00000000E+00  0.00000000E+00
  0.00000000E+00  0.00000000E+00  0.00000000E+00
