Al   Gd   N                             
   1.00000000000000     
    -9.5091377171699119    0.0023375190297268   -0.0059123044469259
    -4.7565615158332042    8.2387089486655061    0.0001983062175815
    -0.0064262194181365   -0.0035862574239052  -10.1296735167186043
   Al   Gd   N 
    34     2    36
Direct
  0.1132053691775141  0.0869206808766734  0.4060376305663240
  0.7766110305951202  0.0932161571858359  0.8974706580457692
  0.8873673714663397  0.2040540967502125  0.6553016422621312
  0.4472001805633994  0.0930868955335242  0.4057861286195674
  0.5607358310371495  0.2033123099499647  0.1460643271527147
  0.1096840757730817  0.0891491432186626  0.8913027526855117
  0.2220924792545702  0.2056386462903674  0.6469587381457487
  0.7803598638107161  0.0880264719206494  0.3961649795721058
  0.8891248888720042  0.1951061955538762  0.1413382468606343
  0.4510653801806086  0.0911518608341240  0.8915605144701857
  0.5571369015891179  0.2065101558677185  0.6469405790269533
  0.1132079405835427  0.4332494021555675  0.4060371834446954
  0.2203442494794459  0.5444807277710950  0.1468716228475344
  0.7775836783904140  0.4278936451533895  0.8980236146608505
  0.8873680096742333  0.5419487283041136  0.6553021613555430
  0.4382186287762480  0.4300256056679856  0.3958390709213688
  0.5474435383694782  0.5429657234435723  0.1410594331070314
  0.1096853753319635  0.4345366522566465  0.8913011298202420
  0.2230461172255431  0.5411893238450673  0.6472174126057411
  0.8891270474008550  0.5491454811430430  0.1413351042792854
  0.4431165357576319  0.4269170915246221  0.8971723494107948
  0.5529485766145683  0.5402104699330295  0.6551402618703648
  0.1106480713494733  0.7613636115275568  0.3953526406596168
  0.2203431652833885  0.8685513975942953  0.1468718862672560
  0.7766109412824918  0.7635439855777904  0.8974700635603412
  0.8895081873609030  0.8719308267972039  0.6465349527001223
  0.4382165549923158  0.7651321142834107  0.3958385964736735
  0.5607356290863024  0.8693260192584873  0.1460637160559060
  0.1115470587599248  0.7609115700094833  0.8974723735457886
  0.2230456306125319  0.8691356150336702  0.6472175569285383
  0.7803617640091645  0.7649911836544518  0.3961624701404816
  0.8888338920332686  0.8722715158947665  0.1461191068336021
  0.4431160643597849  0.7633366557628705  0.8971720045906224
  0.5571374415825403  0.8697219965142438  0.6469392024132432
  0.2203126705354634  0.2065325635068689  0.1456594707914718
  0.7767906864852634  0.4282976370534186  0.3914711808304432
  0.2208313541482809  0.2062720793585200  0.3684384004424999
  0.0993262702343216  0.0764692405693097  0.0751007612008365
  0.8864471215399377  0.2047781332263696  0.8422094445229149
  0.7785482731545983  0.0944236481690623  0.5871524071495315
  0.5555055923339154  0.2054833551750335  0.3387764821317063
  0.4734246527255408  0.0799735295628849  0.0779359722283957
  0.2223261653658852  0.2055218099511862  0.8423858823965560
  0.1086911421122068  0.0929890985564512  0.5955961382851385
  0.9062457257794847  0.1734339110572449  0.3284068956939024
  0.7762634804967092  0.0921192550942180  0.0856019442902323
  0.5568223571872295  0.2070776420581240  0.8351558669195640
  0.4478428155422947  0.0927625862433032  0.5941820618948270
  0.2213157056301895  0.5385675124336871  0.3381508369597412
  0.0993279681045678  0.4575781989971048  0.0750980853657381
  0.8864474759587964  0.5421455813084819  0.8422093661994907
  0.7771894864597968  0.4280896082418124  0.6128858701803850
  0.5225442915750449  0.5554158513043248  0.3263759383557456
  0.4424747109388107  0.4253228450347848  0.0863377881978167
  0.2240636702354379  0.5411530586310533  0.8348360460026072
  0.1086912229654473  0.4316889585555117  0.5955959543833700
  0.9062514878076939  0.5536997265963990  0.3284025799995618
  0.7790141332091238  0.4271807445188216  0.0951920602262319
  0.5529444142742648  0.5402129277291507  0.8447396915902132
  0.4453678975545827  0.4284444809859451  0.5872158311340314
  0.2213131806157662  0.8734946871346025  0.3381510534218179
  0.1109783558959805  0.7611976017098030  0.0880358211599344
  0.8895047164048506  0.8719329861551870  0.8368793055248318
  0.7785490701876370  0.7603957546626248  0.5871502813182161
  0.5555063799881594  0.8723854404081166  0.3387759367989389
  0.4424737103887963  0.7655754641929349  0.0863375816556911
  0.2240627212346027  0.8681545937384101  0.8348366106974581
  0.1107644198560251  0.7613022851448861  0.5857265861200034
  0.8893489104520498  0.8720156954194209  0.3366339394371138
  0.7762633615404582  0.7649922582181148  0.0856009776094027
  0.5568226554075224  0.8694693297918832  0.8351547222031002
  0.4453675751341493  0.7595560141944091  0.5872153173602399
 
  0.00000000E+00  0.00000000E+00  0.00000000E+00
  0.00000000E+00  0.00000000E+00  0.00000000E+00
  0.00000000E+00  0.00000000E+00  0.00000000E+00
  0.00000000E+00  0.00000000E+00  0.00000000E+00
  0.00000000E+00  0.00000000E+00  0.00000000E+00
  0.00000000E+00  0.00000000E+00  0.00000000E+00
  0.00000000E+00  0.00000000E+00  0.00000000E+00
  0.00000000E+00  0.00000000E+00  0.00000000E+00
  0.00000000E+00  0.00000000E+00  0.00000000E+00
  0.00000000E+00  0.00000000E+00  0.00000000E+00
  0.00000000E+00  0.00000000E+00  0.00000000E+00
  0.00000000E+00  0.00000000E+00  0.00000000E+00
  0.00000000E+00  0.00000000E+00  0.00000000E+00
  0.00000000E+00  0.00000000E+00  0.00000000E+00
  0.00000000E+00  0.00000000E+00  0.00000000E+00
  0.00000000E+00  0.00000000E+00  0.00000000E+00
  0.00000000E+00  0.00000000E+00  0.00000000E+00
  0.00000000E+00  0.00000000E+00  0.00000000E+00
  0.00000000E+00  0.00000000E+00  0.00000000E+00
  0.00000000E+00  0.00000000E+00  0.00000000E+00
  0.00000000E+00  0.00000000E+00  0.00000000E+00
  0.00000000E+00  0.00000000E+00  0.00000000E+00
  0.00000000E+00  0.00000000E+00  0.00000000E+00
  0.00000000E+00  0.00000000E+00  0.00000000E+00
  0.00000000E+00  0.00000000E+00  0.00000000E+00
  0.00000000E+00  0.00000000E+00  0.00000000E+00
  0.00000000E+00  0.00000000E+00  0.00000000E+00
  0.00000000E+00  0.00000000E+00  0.00000000E+00
  0.00000000E+00  0.00000000E+00  0.00000000E+00
  0.00000000E+00  0.00000000E+00  0.00000000E+00
  0.00000000E+00  0.00000000E+00  0.00000000E+00
  0.00000000E+00  0.00000000E+00  0.00000000E+00
  0.00000000E+00  0.00000000E+00  0.00000000E+00
  0.00000000E+00  0.00000000E+00  0.00000000E+00
  0.00000000E+00  0.00000000E+00  0.00000000E+00
  0.00000000E+00  0.00000000E+00  0.00000000E+00
  0.00000000E+00  0.00000000E+00  0.00000000E+00
  0.00000000E+00  0.00000000E+00  0.00000000E+00
  0.00000000E+00  0.00000000E+00  0.00000000E+00
  0.00000000E+00  0.00000000E+00  0.00000000E+00
  0.00000000E+00  0.00000000E+00  0.00000000E+00
  0.00000000E+00  0.00000000E+00  0.00000000E+00
  0.00000000E+00  0.00000000E+00  0.00000000E+00
  0.00000000E+00  0.00000000E+00  0.00000000E+00
  0.00000000E+00  0.00000000E+00  0.00000000E+00
  0.00000000E+00  0.00000000E+00  0.00000000E+00
  0.00000000E+00  0.00000000E+00  0.00000000E+00
  0.00000000E+00  0.00000000E+00  0.00000000E+00
  0.00000000E+00  0.00000000E+00  0.00000000E+00
  0.00000000E+00  0.00000000E+00  0.00000000E+00
  0.00000000E+00  0.00000000E+00  0.00000000E+00
  0.00000000E+00  0.00000000E+00  0.00000000E+00
  0.00000000E+00  0.00000000E+00  0.00000000E+00
  0.00000000E+00  0.00000000E+00  0.00000000E+00
  0.00000000E+00  0.00000000E+00  0.00000000E+00
  0.00000000E+00  0.00000000E+00  0.00000000E+00
  0.00000000E+00  0.00000000E+00  0.00000000E+00
  0.00000000E+00  0.00000000E+00  0.00000000E+00
  0.00000000E+00  0.00000000E+00  0.00000000E+00
  0.00000000E+00  0.00000000E+00  0.00000000E+00
  0.00000000E+00  0.00000000E+00  0.00000000E+00
  0.00000000E+00  0.00000000E+00  0.00000000E+00
  0.00000000E+00  0.00000000E+00  0.00000000E+00
  0.00000000E+00  0.00000000E+00  0.00000000E+00
  0.00000000E+00  0.00000000E+00  0.00000000E+00
  0.00000000E+00  0.00000000E+00  0.00000000E+00
  0.00000000E+00  0.00000000E+00  0.00000000E+00
  0.00000000E+00  0.00000000E+00  0.00000000E+00
  0.00000000E+00  0.00000000E+00  0.00000000E+00
  0.00000000E+00  0.00000000E+00  0.00000000E+00
  0.00000000E+00  0.00000000E+00  0.00000000E+00
  0.00000000E+00  0.00000000E+00  0.00000000E+00
