Al   Gd   N                             
   1.00000000000000     
    -9.5237509352389900    0.0023114433416376   -0.0059377312921218
    -4.7619047686637863    8.2504761556362194    0.0002523914512196
    -0.0095017159929135   -0.0074133783493605  -10.1375904981575164
   Al   Gd   N 
    34     2    36
Direct
  0.1131300808865845  0.0870337759499193  0.4054035169588488
  0.7755462761708287  0.0953314705663502  0.8946885131857201
  0.8876544330822185  0.2047009435618605  0.6551794101271895
  0.4471294855792820  0.0931348648851369  0.4052017750864749
  0.5595749456837709  0.2041124295326497  0.1458606886768905
  0.1095977137949049  0.0891296173787026  0.8910237659702318
  0.2221558562281558  0.2055654691117681  0.6465614571506961
  0.7792845452062451  0.0902614636182619  0.3941464521213689
  0.8889953242567969  0.1960478029848218  0.1411012060327934
  0.4509610615869164  0.0911674309750623  0.8912182007115916
  0.5563630249677516  0.2071540958939337  0.6467503197936821
  0.1132078319623346  0.4332650220407004  0.4053809617804589
  0.2206733218050516  0.5438612452727583  0.1466803167747699
  0.7774390221205607  0.4279428613864695  0.8978263031981513
  0.8876743275555086  0.5409563367921848  0.6551840762758587
  0.4383637464849741  0.4299776324417550  0.3955587718785267
  0.5472922688667623  0.5430618650290668  0.1409082697866992
  0.1096486880008882  0.4345519831990501  0.8909737823515229
  0.2241215759434212  0.5399235613603679  0.6470988557840514
  0.8890733967793238  0.5483690925041742  0.1409845686433115
  0.4431694766419341  0.4269259233404981  0.8971087860397233
  0.5530447424192317  0.5401293987900715  0.6548153341666847
  0.1131112283952618  0.7601644322619308  0.3939879704256626
  0.2206342492288371  0.8688910435298780  0.1466827001711408
  0.7755516491032921  0.7624538987993930  0.8946720683598244
  0.8897870478903016  0.8717506063820437  0.6258324795840409
  0.4383070237678766  0.7651328728219511  0.3955367052234564
  0.5595646940617698  0.8697037669204732  0.1458154629744755
  0.1137511993288456  0.7597750841640618  0.8944760920842754
  0.2241076498365260  0.8692835656340137  0.6471041264078750
  0.7793435425079238  0.7639431489255344  0.3940097459390657
  0.8888526275613984  0.8722901789997621  0.1230162589548769
  0.4431563078577767  0.7632265191009751  0.8970869566417079
  0.5563949223177431  0.8697612573037645  0.6467032390268272
  0.2199260886270125  0.2067451073342426  0.1450731906956122
  0.7765515367344875  0.4286022482090175  0.3916398108060974
  0.2209248864380413  0.2062457097813493  0.3677674311489767
  0.0989483573321763  0.0764744178529355  0.0747811298735144
  0.8868205670874971  0.2055129875447150  0.8415843721938998
  0.7766777199289123  0.0985440755722848  0.5864184768885821
  0.5546997565248049  0.2060837795684236  0.3379213411095066
  0.4732250689011011  0.0800721083414544  0.0776286690134711
  0.2222862811173769  0.2054906557678748  0.8420942073495254
  0.1087659890413661  0.0929032329642112  0.5950111343696136
  0.9063239013053561  0.1745341116833359  0.3274963708309926
  0.7739883804168386  0.0962953012107306  0.0839899036908918
  0.5557086878665771  0.2078012572241548  0.8345050447661890
  0.4479796504097848  0.0926495790568751  0.5936064560310044
  0.2220816526793286  0.5376155838775603  0.3373922959361195
  0.0990336288776916  0.4579202192417853  0.0747072759889136
  0.8868385116909394  0.5409742119208119  0.8415816908625899
  0.7771201584652516  0.4280903257922546  0.6127035541658756
  0.5226081481174845  0.5554184817348684  0.3262176468567546
  0.4422918006553331  0.4255589867413292  0.0860480279766236
  0.2250115037932545  0.5398325768897649  0.8341920286898343
  0.1087758373235630  0.4316270674108367  0.5950028727382133
  0.9065050274412698  0.5526538981165885  0.3273391648474657
  0.7786499448126136  0.4273899089478590  0.0945913616432321
  0.5528934790196729  0.5402061395693138  0.8444524121467865
  0.4456243825370905  0.4283024323920017  0.5867205131203974
  0.2220111873660642  0.8737975081804521  0.3373920700486579
  0.1145541341794356  0.7594065457566757  0.0863335487694030
  0.8896837170415139  0.8718161734409335  0.8461672464960515
  0.7767063746734166  0.7580342381923657  0.5863120599699556
  0.5547152677719680  0.8726160829039529  0.3378747323532920
  0.4422525941094264  0.7655445218701260  0.0860291002840370
  0.2249833804032235  0.8684787891778427  0.8342067669834847
  0.1154955598950806  0.7589016995337872  0.5853171853063870
  0.8902611829012557  0.8716524028457897  0.3501939939246697
  0.7739895957648102  0.7631283189017566  0.0839572321528621
  0.5557264003023690  0.8697723302828848  0.8344701905571270
  0.4456145379857972  0.7593733453828619  0.5867010168813209
 
  0.00000000E+00  0.00000000E+00  0.00000000E+00
  0.00000000E+00  0.00000000E+00  0.00000000E+00
  0.00000000E+00  0.00000000E+00  0.00000000E+00
  0.00000000E+00  0.00000000E+00  0.00000000E+00
  0.00000000E+00  0.00000000E+00  0.00000000E+00
  0.00000000E+00  0.00000000E+00  0.00000000E+00
  0.00000000E+00  0.00000000E+00  0.00000000E+00
  0.00000000E+00  0.00000000E+00  0.00000000E+00
  0.00000000E+00  0.00000000E+00  0.00000000E+00
  0.00000000E+00  0.00000000E+00  0.00000000E+00
  0.00000000E+00  0.00000000E+00  0.00000000E+00
  0.00000000E+00  0.00000000E+00  0.00000000E+00
  0.00000000E+00  0.00000000E+00  0.00000000E+00
  0.00000000E+00  0.00000000E+00  0.00000000E+00
  0.00000000E+00  0.00000000E+00  0.00000000E+00
  0.00000000E+00  0.00000000E+00  0.00000000E+00
  0.00000000E+00  0.00000000E+00  0.00000000E+00
  0.00000000E+00  0.00000000E+00  0.00000000E+00
  0.00000000E+00  0.00000000E+00  0.00000000E+00
  0.00000000E+00  0.00000000E+00  0.00000000E+00
  0.00000000E+00  0.00000000E+00  0.00000000E+00
  0.00000000E+00  0.00000000E+00  0.00000000E+00
  0.00000000E+00  0.00000000E+00  0.00000000E+00
  0.00000000E+00  0.00000000E+00  0.00000000E+00
  0.00000000E+00  0.00000000E+00  0.00000000E+00
  0.00000000E+00  0.00000000E+00  0.00000000E+00
  0.00000000E+00  0.00000000E+00  0.00000000E+00
  0.00000000E+00  0.00000000E+00  0.00000000E+00
  0.00000000E+00  0.00000000E+00  0.00000000E+00
  0.00000000E+00  0.00000000E+00  0.00000000E+00
  0.00000000E+00  0.00000000E+00  0.00000000E+00
  0.00000000E+00  0.00000000E+00  0.00000000E+00
  0.00000000E+00  0.00000000E+00  0.00000000E+00
  0.00000000E+00  0.00000000E+00  0.00000000E+00
  0.00000000E+00  0.00000000E+00  0.00000000E+00
  0.00000000E+00  0.00000000E+00  0.00000000E+00
  0.00000000E+00  0.00000000E+00  0.00000000E+00
  0.00000000E+00  0.00000000E+00  0.00000000E+00
  0.00000000E+00  0.00000000E+00  0.00000000E+00
  0.00000000E+00  0.00000000E+00  0.00000000E+00
  0.00000000E+00  0.00000000E+00  0.00000000E+00
  0.00000000E+00  0.00000000E+00  0.00000000E+00
  0.00000000E+00  0.00000000E+00  0.00000000E+00
  0.00000000E+00  0.00000000E+00  0.00000000E+00
  0.00000000E+00  0.00000000E+00  0.00000000E+00
  0.00000000E+00  0.00000000E+00  0.00000000E+00
  0.00000000E+00  0.00000000E+00  0.00000000E+00
  0.00000000E+00  0.00000000E+00  0.00000000E+00
  0.00000000E+00  0.00000000E+00  0.00000000E+00
  0.00000000E+00  0.00000000E+00  0.00000000E+00
  0.00000000E+00  0.00000000E+00  0.00000000E+00
  0.00000000E+00  0.00000000E+00  0.00000000E+00
  0.00000000E+00  0.00000000E+00  0.00000000E+00
  0.00000000E+00  0.00000000E+00  0.00000000E+00
  0.00000000E+00  0.00000000E+00  0.00000000E+00
  0.00000000E+00  0.00000000E+00  0.00000000E+00
  0.00000000E+00  0.00000000E+00  0.00000000E+00
  0.00000000E+00  0.00000000E+00  0.00000000E+00
  0.00000000E+00  0.00000000E+00  0.00000000E+00
  0.00000000E+00  0.00000000E+00  0.00000000E+00
  0.00000000E+00  0.00000000E+00  0.00000000E+00
  0.00000000E+00  0.00000000E+00  0.00000000E+00
  0.00000000E+00  0.00000000E+00  0.00000000E+00
  0.00000000E+00  0.00000000E+00  0.00000000E+00
  0.00000000E+00  0.00000000E+00  0.00000000E+00
  0.00000000E+00  0.00000000E+00  0.00000000E+00
  0.00000000E+00  0.00000000E+00  0.00000000E+00
  0.00000000E+00  0.00000000E+00  0.00000000E+00
  0.00000000E+00  0.00000000E+00  0.00000000E+00
  0.00000000E+00  0.00000000E+00  0.00000000E+00
  0.00000000E+00  0.00000000E+00  0.00000000E+00
  0.00000000E+00  0.00000000E+00  0.00000000E+00
