Al   Gd   N                             
   1.00000000000000     
    -9.5321581044712058    0.0028790690438263   -0.0056277729158427
    -4.7483437004239590    8.2429367229665225   -0.0001445769678494
    -0.0656675321812118   -0.0617375109868648  -10.3022672677758269
   Al   Gd   N 
    34     2    36
Direct
  0.1086103923400188  0.0905906762018844  0.3206142504550300
  0.7760253433431998  0.0916246899691018  0.8101037228524604
  0.8883107500083582  0.2007087017194422  0.5652430484452680
  0.4552782995640356  0.0886751397851668  0.3161825196908552
  0.5609664811590136  0.2047963850772803  0.0627971997616896
  0.1043444607957653  0.0998630426564233  0.8006759884728893
  0.2264493509352832  0.1990148820043558  0.5638490363173787
  0.7815388028771935  0.0883309757194368  0.3098903165595459
  0.8843260861879187  0.2028033650595020  0.0500097829920492
  0.4462399825171417  0.0936893154480032  0.8026871932921225
  0.5580133020346096  0.2052816329443417  0.5598815931238761
  0.1158227876364109  0.4307587918302218  0.3504376953570087
  0.2140748523486806  0.5486641484321311  0.1348401502849583
  0.7732424452596831  0.4291109376349098  0.8103827324683408
  0.8856428343093512  0.5448674457605307  0.5684360255740941
  0.4495552361346782  0.4249571610220073  0.3129196538082297
  0.5497108646773512  0.5421775646306131  0.0509828397631793
  0.1050846168334019  0.4291903573186460  0.8023215847139298
  0.2219153239173863  0.5447948904014979  0.6264362206940959
  0.8851286784996617  0.5465249383871651  0.0454489503738529
  0.4472518695289267  0.4244577992814769  0.8099163159221590
  0.5528027089556531  0.5398618046543078  0.5633316654533616
  0.1181449179599880  0.7584813994154516  0.3836990975274759
  0.2159710068772682  0.8668372379595866  0.1351118672491651
  0.7745561570816903  0.7673748313903985  0.8091292400494510
  0.8807737272448932  0.8764630220820564  0.5592797249210051
  0.4490992130124027  0.7594246161368616  0.3136845653511529
  0.5616365557088301  0.8685792891179531  0.0629064398362402
  0.1164257516730487  0.7584547223960314  0.8816182369297110
  0.2211294982221901  0.8669301245693859  0.6269825022134086
  0.7830790146689210  0.7634247383765498  0.3093977526935277
  0.8816851296015784  0.8756635470643985  0.0616472989392420
  0.4473758602905633  0.7617079702704928  0.8106014190052662
  0.5581031198861837  0.8693228058681157  0.5593900134525214
  0.2257130689724889  0.2022637906756515  0.0615508876955744
  0.7857509911581388  0.4256003496021989  0.3033536031507182
  0.2266494153347125  0.2005021823571198  0.3709755557367771
  0.0849732178734683  0.0924217988568401  0.1329852792012858
  0.8872235128392987  0.2035595916744057  0.8630050914778309
  0.7758300543358843  0.0925949842283131  0.6245038497542552
  0.5593190732050957  0.2058990583053841  0.3734580968792400
  0.4781597070247159  0.0784768748079330  0.1339604624169013
  0.2199539292303996  0.2067953384099894  0.8413604233311389
  0.1088592109197464  0.0957754587418833  0.6142515984192585
  0.8986666600129141  0.1787004954874760  0.3844350270675818
  0.7779566721669369  0.0962307725220057  0.1209094066181251
  0.5526151294216959  0.2057110808274771  0.8725516845268899
  0.4493050606473119  0.0913535463458359  0.6158444397517187
  0.2237506399157567  0.5430715103577910  0.3255823805013378
  0.0900155411953207  0.4544958494065270  0.1135871793610761
  0.8846035620185120  0.5437224233306921  0.8574768892898064
  0.7769557928961248  0.4272091715135886  0.6184916948883128
  0.5341000977345942  0.5497019519113167  0.3803194015254903
  0.4496391049196333  0.4261351862746992  0.1212931801741206
  0.2167922414238888  0.5451254783080373  0.8163390500125232
  0.1119890199520057  0.4257407925277121  0.6063606093985783
  0.8986095875119133  0.5579139670226283  0.3868977741786637
  0.7751602056390965  0.4300627631217822  0.0845594148161766
  0.5488155705909392  0.5420870111331269  0.8654350693337918
  0.4519060414415677  0.4222389270341367  0.6213468850258366
  0.2245276072158759  0.8653368219402751  0.3253928810528990
  0.1149284470358864  0.7593996438986466  0.0687734936988633
  0.8820280138547218  0.8756018949700177  0.8731322570175095
  0.7751423034415694  0.7662346786945164  0.6242080553741260
  0.5607512919324975  0.8671423743650237  0.3729194009468131
  0.4495495940339893  0.7594039312962764  0.1205790800692270
  0.2174376566626179  0.8717589034961648  0.8194089774807409
  0.1136756638021481  0.7596414357299395  0.5687560383218084
  0.8853709898986324  0.8745760917213801  0.3697760240242545
  0.7785247806133953  0.7587652801740816  0.1206092394580054
  0.5523103459618000  0.8759365950571123  0.8728752156821855
  0.4515330577621270  0.7591307817639787  0.6217141547773366
 
  0.00000000E+00  0.00000000E+00  0.00000000E+00
  0.00000000E+00  0.00000000E+00  0.00000000E+00
  0.00000000E+00  0.00000000E+00  0.00000000E+00
  0.00000000E+00  0.00000000E+00  0.00000000E+00
  0.00000000E+00  0.00000000E+00  0.00000000E+00
  0.00000000E+00  0.00000000E+00  0.00000000E+00
  0.00000000E+00  0.00000000E+00  0.00000000E+00
  0.00000000E+00  0.00000000E+00  0.00000000E+00
  0.00000000E+00  0.00000000E+00  0.00000000E+00
  0.00000000E+00  0.00000000E+00  0.00000000E+00
  0.00000000E+00  0.00000000E+00  0.00000000E+00
  0.00000000E+00  0.00000000E+00  0.00000000E+00
  0.00000000E+00  0.00000000E+00  0.00000000E+00
  0.00000000E+00  0.00000000E+00  0.00000000E+00
  0.00000000E+00  0.00000000E+00  0.00000000E+00
  0.00000000E+00  0.00000000E+00  0.00000000E+00
  0.00000000E+00  0.00000000E+00  0.00000000E+00
  0.00000000E+00  0.00000000E+00  0.00000000E+00
  0.00000000E+00  0.00000000E+00  0.00000000E+00
  0.00000000E+00  0.00000000E+00  0.00000000E+00
  0.00000000E+00  0.00000000E+00  0.00000000E+00
  0.00000000E+00  0.00000000E+00  0.00000000E+00
  0.00000000E+00  0.00000000E+00  0.00000000E+00
  0.00000000E+00  0.00000000E+00  0.00000000E+00
  0.00000000E+00  0.00000000E+00  0.00000000E+00
  0.00000000E+00  0.00000000E+00  0.00000000E+00
  0.00000000E+00  0.00000000E+00  0.00000000E+00
  0.00000000E+00  0.00000000E+00  0.00000000E+00
  0.00000000E+00  0.00000000E+00  0.00000000E+00
  0.00000000E+00  0.00000000E+00  0.00000000E+00
  0.00000000E+00  0.00000000E+00  0.00000000E+00
  0.00000000E+00  0.00000000E+00  0.00000000E+00
  0.00000000E+00  0.00000000E+00  0.00000000E+00
  0.00000000E+00  0.00000000E+00  0.00000000E+00
  0.00000000E+00  0.00000000E+00  0.00000000E+00
  0.00000000E+00  0.00000000E+00  0.00000000E+00
  0.00000000E+00  0.00000000E+00  0.00000000E+00
  0.00000000E+00  0.00000000E+00  0.00000000E+00
  0.00000000E+00  0.00000000E+00  0.00000000E+00
  0.00000000E+00  0.00000000E+00  0.00000000E+00
  0.00000000E+00  0.00000000E+00  0.00000000E+00
  0.00000000E+00  0.00000000E+00  0.00000000E+00
  0.00000000E+00  0.00000000E+00  0.00000000E+00
  0.00000000E+00  0.00000000E+00  0.00000000E+00
  0.00000000E+00  0.00000000E+00  0.00000000E+00
  0.00000000E+00  0.00000000E+00  0.00000000E+00
  0.00000000E+00  0.00000000E+00  0.00000000E+00
  0.00000000E+00  0.00000000E+00  0.00000000E+00
  0.00000000E+00  0.00000000E+00  0.00000000E+00
  0.00000000E+00  0.00000000E+00  0.00000000E+00
  0.00000000E+00  0.00000000E+00  0.00000000E+00
  0.00000000E+00  0.00000000E+00  0.00000000E+00
  0.00000000E+00  0.00000000E+00  0.00000000E+00
  0.00000000E+00  0.00000000E+00  0.00000000E+00
  0.00000000E+00  0.00000000E+00  0.00000000E+00
  0.00000000E+00  0.00000000E+00  0.00000000E+00
  0.00000000E+00  0.00000000E+00  0.00000000E+00
  0.00000000E+00  0.00000000E+00  0.00000000E+00
  0.00000000E+00  0.00000000E+00  0.00000000E+00
  0.00000000E+00  0.00000000E+00  0.00000000E+00
  0.00000000E+00  0.00000000E+00  0.00000000E+00
  0.00000000E+00  0.00000000E+00  0.00000000E+00
  0.00000000E+00  0.00000000E+00  0.00000000E+00
  0.00000000E+00  0.00000000E+00  0.00000000E+00
  0.00000000E+00  0.00000000E+00  0.00000000E+00
  0.00000000E+00  0.00000000E+00  0.00000000E+00
  0.00000000E+00  0.00000000E+00  0.00000000E+00
  0.00000000E+00  0.00000000E+00  0.00000000E+00
  0.00000000E+00  0.00000000E+00  0.00000000E+00
  0.00000000E+00  0.00000000E+00  0.00000000E+00
  0.00000000E+00  0.00000000E+00  0.00000000E+00
  0.00000000E+00  0.00000000E+00  0.00000000E+00
