generated by phonopy                    
   1.00000000000000     
    10.0351470768999995   -0.0000022330999784   -0.0000001056124209
    -5.0175765436399997    8.6906901959899994    0.0000001395531216
    -0.0000001735893656    0.0000001431815548   14.9533752540999991
   Pb   O    P 
    19    51    12
Direct
  0.9934290540989537  0.7709963156294535  0.1234630967979058
  0.9922841937407370  0.7696727089117132  0.6237473939555045
  0.0012817351484031  0.2620982316644742  0.8738656060425569
  0.2338403654965688  0.2277404961097389  0.1242712262131107
  0.2343338708377232  0.2283930713550646  0.6221029079370908
  0.7411958366522242  0.7462276254353810  0.3735189286082274
  0.7376031206980542  0.7422443003408290  0.8738009133698768
  0.7705408694258580  0.0072284114060537  0.1293510361463106
  0.7696406631715504  0.0084541624473857  0.6175245932587643
  0.2658296161165907  0.9980130029697492  0.3736043977692560
  0.2564754315524524  0.9931325102841626  0.8738321798738653
  0.6663138346220308  0.3353285330805491  0.0005223256573217
  0.6849438167347444  0.3299868475203453  0.4988984404380972
  0.3349705703184895  0.6650153893595601  0.0038627773576323
  0.3221912828506746  0.6532824533844703  0.5018431536023655
  0.3249757423209303  0.6536563283998262  0.2449310397347304
  0.3355688483243213  0.6650883353952111  0.7433920279123996
  0.6848522672756161  0.3289397975458428  0.2489003659821449
  0.6651095947486070  0.3345161023324366  0.7481887449009008
  0.0716578053397825  0.3088048785493029  0.3720664830062219
  0.5022641242767989  0.6462204897088242  0.1223731001920498
  0.5028915534936331  0.6474408717116731  0.6245728318313866
  0.4801569874835039  0.3253982556132158  0.3745223769282049
  0.4719530777582861  0.3203655593072767  0.8741526831521114
  0.3464367355514213  0.8491717128649086  0.1228636056292274
  0.3450438931940383  0.8486865155799350  0.6250865841230038
  0.6570754651830342  0.1427328078146530  0.3745067188645308
  0.6771576435348692  0.1488861177136727  0.8739475707634057
  0.1440776435229552  0.4874649620203115  0.1216770756237722
  0.1437838951425050  0.4861432774163532  0.6259662446716945
  0.8531693848256694  0.5249759889220584  0.3744232779215295
  0.8472658061171359  0.5271097038635162  0.8739659887453683
  0.7289026342333500  0.6493658836270413  0.0377396122746845
  0.7347731988859465  0.6616351837993477  0.5414980944557612
  0.2701929719240468  0.3527509253563395  0.4587699247900616
  0.2626252944081671  0.3510230697814407  0.9580035083497052
  0.3436570468973557  0.0737859338474962  0.0390699786025053
  0.3382552271787347  0.0696049642637675  0.5410703758159769
  0.6520551261630771  0.9120781056334764  0.4581800089126347
  0.6476302165699579  0.9086700700085260  0.9575821283033505
  0.9176764231851280  0.2772793284429298  0.0300505240109459
  0.9053433741941390  0.2636888780184918  0.5489958071168743
  0.0835863120315707  0.7444170708471987  0.4589615754637322
  0.0861159615009797  0.7388619428945375  0.9576819889096200
  0.2719444758289598  0.3527986758602140  0.2883273307758145
  0.2621822983110391  0.3492874551884100  0.7895497192403766
  0.7350376392006552  0.6644698411383914  0.2063188343678277
  0.7291108169191673  0.6509286472429849  0.7100867291883119
  0.6530324013652589  0.9123451047821618  0.2910282243076878
  0.6487692744640654  0.9095222993785512  0.7897265023333517
  0.3376711226864302  0.0687297493189902  0.2073365744150379
  0.3435700345026120  0.0738827230495644  0.7092443583024419
  0.0810037974754465  0.7480806386713965  0.2909103467459317
  0.0851691760931246  0.7401799346807465  0.7903540450445306
  0.9074070398875449  0.2622844957847477  0.1984617055230586
  0.9175807525965922  0.2753071952704573  0.7172864389298041
  0.5443724536867833  0.4135468368554314  0.1278934826258507
  0.5429161485683380  0.4133730961284527  0.6215979375424681
  0.4769614175948860  0.5808886640913684  0.3739252324477462
  0.4745381446072798  0.5775897563081429  0.8731895150765610
  0.5824826672338972  0.1215620742394705  0.1251322535378421
  0.5822143560121873  0.1202218961849653  0.6234950877046046
  0.4164721231711113  0.8793563965722555  0.3739759306292854
  0.4202198117683480  0.8937569297795704  0.8732503399336551
  0.8786778581330594  0.4695283455368440  0.1204190792499134
  0.8795056557496679  0.4706758828686048  0.6294013694840572
  0.1241984717359799  0.5507853820381285  0.3721670021816195
  0.1037338286192053  0.5277567417158693  0.8730039421500493
  0.9936213553447004  0.0020393736736963  0.1182630092875527
  0.9916218786430235  0.0012816453511348  0.6257892425415790
  0.6245637472444585  0.5934323198567029  0.1237651272472391
  0.6242785355853329  0.5934915098070661  0.6243009251051319
  0.3768420047336889  0.3987031043522720  0.3739816517590810
  0.3688728713004465  0.3954264173544857  0.8736904821799243
  0.4013761788401808  0.0244364377845798  0.1236628159112740
  0.4008982144805202  0.0240866495311778  0.6246875852207623
  0.5998494672735148  0.9686743627870840  0.3744170469688299
  0.6023392331301594  0.9712224138639627  0.8736412534526963
  0.9665848811047582  0.3763226896725556  0.1175196482769678
  0.9661879794391623  0.3763017161932609  0.6306517972850330
  0.0293717432159042  0.6380862623144594  0.3740949923277981
  0.0254834210174977  0.6312428323709511  0.8737556798960213
 
  0.00000000E+00  0.00000000E+00  0.00000000E+00
  0.00000000E+00  0.00000000E+00  0.00000000E+00
  0.00000000E+00  0.00000000E+00  0.00000000E+00
  0.00000000E+00  0.00000000E+00  0.00000000E+00
  0.00000000E+00  0.00000000E+00  0.00000000E+00
  0.00000000E+00  0.00000000E+00  0.00000000E+00
  0.00000000E+00  0.00000000E+00  0.00000000E+00
  0.00000000E+00  0.00000000E+00  0.00000000E+00
  0.00000000E+00  0.00000000E+00  0.00000000E+00
  0.00000000E+00  0.00000000E+00  0.00000000E+00
  0.00000000E+00  0.00000000E+00  0.00000000E+00
  0.00000000E+00  0.00000000E+00  0.00000000E+00
  0.00000000E+00  0.00000000E+00  0.00000000E+00
  0.00000000E+00  0.00000000E+00  0.00000000E+00
  0.00000000E+00  0.00000000E+00  0.00000000E+00
  0.00000000E+00  0.00000000E+00  0.00000000E+00
  0.00000000E+00  0.00000000E+00  0.00000000E+00
  0.00000000E+00  0.00000000E+00  0.00000000E+00
  0.00000000E+00  0.00000000E+00  0.00000000E+00
  0.00000000E+00  0.00000000E+00  0.00000000E+00
  0.00000000E+00  0.00000000E+00  0.00000000E+00
  0.00000000E+00  0.00000000E+00  0.00000000E+00
  0.00000000E+00  0.00000000E+00  0.00000000E+00
  0.00000000E+00  0.00000000E+00  0.00000000E+00
  0.00000000E+00  0.00000000E+00  0.00000000E+00
  0.00000000E+00  0.00000000E+00  0.00000000E+00
  0.00000000E+00  0.00000000E+00  0.00000000E+00
  0.00000000E+00  0.00000000E+00  0.00000000E+00
  0.00000000E+00  0.00000000E+00  0.00000000E+00
  0.00000000E+00  0.00000000E+00  0.00000000E+00
  0.00000000E+00  0.00000000E+00  0.00000000E+00
  0.00000000E+00  0.00000000E+00  0.00000000E+00
  0.00000000E+00  0.00000000E+00  0.00000000E+00
  0.00000000E+00  0.00000000E+00  0.00000000E+00
  0.00000000E+00  0.00000000E+00  0.00000000E+00
  0.00000000E+00  0.00000000E+00  0.00000000E+00
  0.00000000E+00  0.00000000E+00  0.00000000E+00
  0.00000000E+00  0.00000000E+00  0.00000000E+00
  0.00000000E+00  0.00000000E+00  0.00000000E+00
  0.00000000E+00  0.00000000E+00  0.00000000E+00
  0.00000000E+00  0.00000000E+00  0.00000000E+00
  0.00000000E+00  0.00000000E+00  0.00000000E+00
  0.00000000E+00  0.00000000E+00  0.00000000E+00
  0.00000000E+00  0.00000000E+00  0.00000000E+00
  0.00000000E+00  0.00000000E+00  0.00000000E+00
  0.00000000E+00  0.00000000E+00  0.00000000E+00
  0.00000000E+00  0.00000000E+00  0.00000000E+00
  0.00000000E+00  0.00000000E+00  0.00000000E+00
  0.00000000E+00  0.00000000E+00  0.00000000E+00
  0.00000000E+00  0.00000000E+00  0.00000000E+00
  0.00000000E+00  0.00000000E+00  0.00000000E+00
  0.00000000E+00  0.00000000E+00  0.00000000E+00
  0.00000000E+00  0.00000000E+00  0.00000000E+00
  0.00000000E+00  0.00000000E+00  0.00000000E+00
  0.00000000E+00  0.00000000E+00  0.00000000E+00
  0.00000000E+00  0.00000000E+00  0.00000000E+00
  0.00000000E+00  0.00000000E+00  0.00000000E+00
  0.00000000E+00  0.00000000E+00  0.00000000E+00
  0.00000000E+00  0.00000000E+00  0.00000000E+00
  0.00000000E+00  0.00000000E+00  0.00000000E+00
  0.00000000E+00  0.00000000E+00  0.00000000E+00
  0.00000000E+00  0.00000000E+00  0.00000000E+00
  0.00000000E+00  0.00000000E+00  0.00000000E+00
  0.00000000E+00  0.00000000E+00  0.00000000E+00
  0.00000000E+00  0.00000000E+00  0.00000000E+00
  0.00000000E+00  0.00000000E+00  0.00000000E+00
  0.00000000E+00  0.00000000E+00  0.00000000E+00
  0.00000000E+00  0.00000000E+00  0.00000000E+00
  0.00000000E+00  0.00000000E+00  0.00000000E+00
  0.00000000E+00  0.00000000E+00  0.00000000E+00
  0.00000000E+00  0.00000000E+00  0.00000000E+00
  0.00000000E+00  0.00000000E+00  0.00000000E+00
  0.00000000E+00  0.00000000E+00  0.00000000E+00
  0.00000000E+00  0.00000000E+00  0.00000000E+00
  0.00000000E+00  0.00000000E+00  0.00000000E+00
  0.00000000E+00  0.00000000E+00  0.00000000E+00
  0.00000000E+00  0.00000000E+00  0.00000000E+00
  0.00000000E+00  0.00000000E+00  0.00000000E+00
  0.00000000E+00  0.00000000E+00  0.00000000E+00
  0.00000000E+00  0.00000000E+00  0.00000000E+00
  0.00000000E+00  0.00000000E+00  0.00000000E+00
  0.00000000E+00  0.00000000E+00  0.00000000E+00
