supercell of 100% icsd_608626.cif, 0% i 
   1.00000000000000     
    -9.4842410444320375   -0.0032069954174181    0.0033007717014168
    -4.7393431740642207    8.2087863438830677   -0.0000009526280113
     0.0035162142819571    0.0020312665032931  -10.0964809484019753
   Hf   Al   Ca   N 
     1    34     1    36
Direct
  0.1106422403992866  0.0946792460535661  0.2956092290269865
  0.2220820112503787  0.2061563552744943  0.0400359952050735
  0.7769148753295667  0.0935414426097765  0.7962070658317089
  0.8831326967114634  0.2084340635840576  0.5511645727300092
  0.4497747433715986  0.0942095508984764  0.2947534247291230
  0.5585577914615811  0.2057296977538599  0.0459980875608750
  0.1108672839324356  0.0945665519025738  0.7946085951682633
  0.2258721208040413  0.2059304793339436  0.5510609522293990
  0.7718199280658595  0.0944628599192541  0.2936470694178439
  0.8840604255453783  0.2079700318572790  0.0405031010347514
  0.4464934370645324  0.0937163760348056  0.7963889256527708
  0.5567131268549161  0.2038636033344758  0.5458122052196615
  0.1084485475529675  0.4298536848218433  0.2991379609844671
  0.7769145334519081  0.4295446657324362  0.7962070882438965
  0.8865102783972105  0.5400219260918533  0.5457603937141187
  0.4497017547289133  0.4251485486035804  0.2983979782402812
  0.5585575759455708  0.5357116949746086  0.0459979518989471
  0.1100404813013682  0.4292214370058076  0.7889028012463086
  0.2224121527009402  0.5387941237273353  0.5479225058924158
  0.7718196449142880  0.4337174869820188  0.2936471615951888
  0.8878989375703199  0.5355341638037245  0.0469845981347916
  0.4450840863665135  0.4274575736547845  0.7895894848034075
  0.5567123708543562  0.5394230034885226  0.5458123255852740
  0.1084485095227521  0.7616982822470035  0.2991378104627600
  0.2220817576194420  0.8717620184007231  0.0400361644818190
  0.7786572309229740  0.7606717090870561  0.7970304419430008
  0.8865103277870077  0.8734679313406915  0.5457605147549813
  0.4497745924601588  0.7560148029994807  0.2947533706999579
  0.5568156041269461  0.8715917459748965  0.0457401838534537
  0.1100405424178774  0.7607383872414744  0.7889030724124950
  0.2258714858423687  0.8681981687445841  0.5510608674431268
  0.7779834761525208  0.7610083895822228  0.2955374967571629
  0.8878988072904122  0.8765670976477011  0.0469845375208706
  0.4464932053584789  0.7597900218466478  0.7963889878258144
  0.5563703558246971  0.8718143887398213  0.5462512546838880
  0.2199192243725818  0.5400405696872426  0.0491436277537787
  0.2330996838654684  0.2095541353793280  0.3623132105462048
  0.1119545970777907  0.0940228883417831  0.0896665932581655
  0.8880404653005698  0.2059802457330449  0.8511218557458946
  0.7770190260419767  0.0938309875411392  0.6066330792727399
  0.5564543265516377  0.2030385142489024  0.3573271970056950
  0.4440558594237771  0.0947118588729836  0.1037089806654805
  0.2226272329451007  0.2064618477654321  0.8497036512210556
  0.1103453222945490  0.0948276278227098  0.6000906988302077
  0.8714617638264883  0.2142692871344138  0.3593669970320477
  0.7773121543805885  0.0952302763224182  0.1038728145782599
  0.5553780213463213  0.2062868148609809  0.8544564152793086
  0.4467884530279989  0.0927815809552754  0.6067142225279198
  0.2225978036450655  0.5387014144468196  0.3523842152897600
  0.0952863987050776  0.4082171905233594  0.1169299082579869
  0.8900374853236244  0.5383486328557652  0.8549591255255962
  0.7770183075203789  0.4291508077301103  0.6066330953966954
  0.5564539681089613  0.5405063037627542  0.3573272794778788
  0.4750160333530715  0.4124914103871973  0.1151877290360730
  0.2226049228020983  0.5386977072026014  0.8258551943527692
  0.1081370175172367  0.4275580339639262  0.5995296140654460
  0.8855260937230938  0.5402114485551692  0.3567273202330128
  0.7773118631074425  0.4274578950049843  0.1038728851712918
  0.5553776325148334  0.5383349245292024  0.8544563207041165
  0.4482520565902988  0.4258734599214833  0.5990571135195495
  0.2330994174027978  0.8573468249882197  0.3623131184627582
  0.0952861550166944  0.7964966940706120  0.1169298115610786
  0.8900374931775090  0.8716146129543887  0.8549591162314982
  0.7775017790334999  0.7612491489673374  0.6059646899035371
  0.5552788457489370  0.8723600762680093  0.3542932909241614
  0.4440557139276962  0.7612313531626995  0.1037089378341562
  0.2226270769487400  0.8709113518900367  0.8497038518858702
  0.1081369390002109  0.7643052934398895  0.5995298819346218
  0.8855262446055363  0.8742626599469787  0.3567274598307151
  0.7792786011278281  0.7603606915722665  0.1047413730880464
  0.5563313664535201  0.8718341952199609  0.8556408998676517
  0.4467877142899965  0.7604297226752692  0.6067142467440263
 
  0.00000000E+00  0.00000000E+00  0.00000000E+00
  0.00000000E+00  0.00000000E+00  0.00000000E+00
  0.00000000E+00  0.00000000E+00  0.00000000E+00
  0.00000000E+00  0.00000000E+00  0.00000000E+00
  0.00000000E+00  0.00000000E+00  0.00000000E+00
  0.00000000E+00  0.00000000E+00  0.00000000E+00
  0.00000000E+00  0.00000000E+00  0.00000000E+00
  0.00000000E+00  0.00000000E+00  0.00000000E+00
  0.00000000E+00  0.00000000E+00  0.00000000E+00
  0.00000000E+00  0.00000000E+00  0.00000000E+00
  0.00000000E+00  0.00000000E+00  0.00000000E+00
  0.00000000E+00  0.00000000E+00  0.00000000E+00
  0.00000000E+00  0.00000000E+00  0.00000000E+00
  0.00000000E+00  0.00000000E+00  0.00000000E+00
  0.00000000E+00  0.00000000E+00  0.00000000E+00
  0.00000000E+00  0.00000000E+00  0.00000000E+00
  0.00000000E+00  0.00000000E+00  0.00000000E+00
  0.00000000E+00  0.00000000E+00  0.00000000E+00
  0.00000000E+00  0.00000000E+00  0.00000000E+00
  0.00000000E+00  0.00000000E+00  0.00000000E+00
  0.00000000E+00  0.00000000E+00  0.00000000E+00
  0.00000000E+00  0.00000000E+00  0.00000000E+00
  0.00000000E+00  0.00000000E+00  0.00000000E+00
  0.00000000E+00  0.00000000E+00  0.00000000E+00
  0.00000000E+00  0.00000000E+00  0.00000000E+00
  0.00000000E+00  0.00000000E+00  0.00000000E+00
  0.00000000E+00  0.00000000E+00  0.00000000E+00
  0.00000000E+00  0.00000000E+00  0.00000000E+00
  0.00000000E+00  0.00000000E+00  0.00000000E+00
  0.00000000E+00  0.00000000E+00  0.00000000E+00
  0.00000000E+00  0.00000000E+00  0.00000000E+00
  0.00000000E+00  0.00000000E+00  0.00000000E+00
  0.00000000E+00  0.00000000E+00  0.00000000E+00
  0.00000000E+00  0.00000000E+00  0.00000000E+00
  0.00000000E+00  0.00000000E+00  0.00000000E+00
  0.00000000E+00  0.00000000E+00  0.00000000E+00
  0.00000000E+00  0.00000000E+00  0.00000000E+00
  0.00000000E+00  0.00000000E+00  0.00000000E+00
  0.00000000E+00  0.00000000E+00  0.00000000E+00
  0.00000000E+00  0.00000000E+00  0.00000000E+00
  0.00000000E+00  0.00000000E+00  0.00000000E+00
  0.00000000E+00  0.00000000E+00  0.00000000E+00
  0.00000000E+00  0.00000000E+00  0.00000000E+00
  0.00000000E+00  0.00000000E+00  0.00000000E+00
  0.00000000E+00  0.00000000E+00  0.00000000E+00
  0.00000000E+00  0.00000000E+00  0.00000000E+00
  0.00000000E+00  0.00000000E+00  0.00000000E+00
  0.00000000E+00  0.00000000E+00  0.00000000E+00
  0.00000000E+00  0.00000000E+00  0.00000000E+00
  0.00000000E+00  0.00000000E+00  0.00000000E+00
  0.00000000E+00  0.00000000E+00  0.00000000E+00
  0.00000000E+00  0.00000000E+00  0.00000000E+00
  0.00000000E+00  0.00000000E+00  0.00000000E+00
  0.00000000E+00  0.00000000E+00  0.00000000E+00
  0.00000000E+00  0.00000000E+00  0.00000000E+00
  0.00000000E+00  0.00000000E+00  0.00000000E+00
  0.00000000E+00  0.00000000E+00  0.00000000E+00
  0.00000000E+00  0.00000000E+00  0.00000000E+00
  0.00000000E+00  0.00000000E+00  0.00000000E+00
  0.00000000E+00  0.00000000E+00  0.00000000E+00
  0.00000000E+00  0.00000000E+00  0.00000000E+00
  0.00000000E+00  0.00000000E+00  0.00000000E+00
  0.00000000E+00  0.00000000E+00  0.00000000E+00
  0.00000000E+00  0.00000000E+00  0.00000000E+00
  0.00000000E+00  0.00000000E+00  0.00000000E+00
  0.00000000E+00  0.00000000E+00  0.00000000E+00
  0.00000000E+00  0.00000000E+00  0.00000000E+00
  0.00000000E+00  0.00000000E+00  0.00000000E+00
  0.00000000E+00  0.00000000E+00  0.00000000E+00
  0.00000000E+00  0.00000000E+00  0.00000000E+00
  0.00000000E+00  0.00000000E+00  0.00000000E+00
  0.00000000E+00  0.00000000E+00  0.00000000E+00
