supercell of 100% icsd_608626.cif, 0% i 
   1.00000000000000     
    -9.4867433352499635    0.0073345180701277   -0.0040340328808199
    -4.7497211626599256    8.2145258883110159   -0.0048091247363584
    -0.0043032330253473    0.0034439091817486  -10.1020825993566650
   Al   Ca   Hf   N 
    34     1     1    36
Direct
  0.1069565067332974  0.0944783029153413  0.2967324958733357
  0.2211986359684488  0.2059094888987545  0.0466348497608777
  0.7770341673321823  0.0930242988579835  0.7952768518586169
  0.8908292664509432  0.2005251542041790  0.5492840388791720
  0.4448642085519197  0.0998461979742657  0.2958875731692174
  0.5562067257930252  0.2053546153302932  0.0461508228399623
  0.1119673322460955  0.0947966955739616  0.7949088656030057
  0.2219563421013575  0.2057946342233450  0.5459869658042820
  0.7803648054762107  0.0908416713996516  0.2970565711924422
  0.8884577670192471  0.2044393983388204  0.0381762560396410
  0.4432832453947100  0.0966991305461562  0.7958887009733360
  0.5555105599445227  0.2059133183151687  0.5459803475899889
  0.1119593235487741  0.4303927271388659  0.2968856709291785
  0.2215521125796585  0.5385141368932693  0.0460284209687671
  0.7796417594889320  0.4269602743730445  0.7972552938986723
  0.8921019143838933  0.5416509581468389  0.5488313325025800
  0.4405585081163110  0.4250213755153425  0.2955123881662871
  0.5561106046305895  0.5354172383683391  0.0327311741238603
  0.1130407603402261  0.4270377064081785  0.7951026625331110
  0.2222792719696329  0.5377039817797780  0.5447527525634541
  0.8893814282800250  0.5392126774237411  0.0384480040051400
  0.4419684878063421  0.4263348543044501  0.7950320460805003
  0.5536678010821561  0.5361325628139539  0.5550601085394007
  0.1063339382612440  0.7596311805935727  0.2966358452086340
  0.2175149500580389  0.8738891613111903  0.0402350706961130
  0.7793687011851560  0.7622433921481360  0.7952358657512519
  0.8883498638915981  0.8729099354966081  0.5448395915655837
  0.5576666816504030  0.8739375098878241  0.0403174706997405
  0.1100246100447677  0.7600124952038172  0.7955352766514139
  0.2169833590412367  0.8747131963431229  0.5506961979713196
  0.7859505381543102  0.7625610929970108  0.2966934952498761
  0.8884971036281470  0.8727974354740127  0.0461654364847988
  0.4430520682512977  0.7633692250375930  0.7929563083760627
  0.5590822344953637  0.8760310346205742  0.5518174949879722
  0.7838733235255333  0.4227345478340325  0.2957852000278720
  0.4431150546576390  0.7640971266528993  0.2996071707258423
  0.2220890567382483  0.2040883955827439  0.3538511370477622
  0.1103206761784605  0.0937288686356794  0.1043828002437266
  0.8907048258979984  0.2011594126094636  0.8489398439490685
  0.7755600764977970  0.0930854349746113  0.6069731460353225
  0.5561801522033463  0.2060476104675644  0.3545769957384834
  0.4445546411032950  0.0936672329304358  0.1051962101910391
  0.2221664981450218  0.2053792729721451  0.8564511983056704
  0.1134919706703883  0.0945227075169157  0.6072511846080531
  0.9028379774493231  0.1743240938319630  0.3664177619132971
  0.7779342295386016  0.0948454731895367  0.1046741898375956
  0.5552893527606457  0.2053434005848445  0.8564035713745426
  0.4432359776660846  0.0970809167138071  0.6060748228876918
  0.2230302275718259  0.5379477611751113  0.3539776878291008
  0.1100105390650228  0.4279090110504598  0.1048788508233187
  0.8912873588314412  0.5408023342617128  0.8491025374132519
  0.7796597088228765  0.4271825559532658  0.6031152522192471
  0.5316606605587069  0.5389777065726662  0.3701252447199153
  0.4448043988221855  0.4283822313791532  0.1036656833933449
  0.2216373357358492  0.5390269636815503  0.8562205353028460
  0.1145854495156939  0.4256117293957828  0.6065213105527647
  0.9043636303207592  0.5554334032682817  0.3651781806239143
  0.7769122003933120  0.4281349823571148  0.0726204231960139
  0.5515384073346468  0.5403564351260428  0.8441445480413421
  0.4419503544966688  0.4253848558523075  0.6075029444777087
  0.2072951089457646  0.8770978434103185  0.3602130234481535
  0.1112777320720042  0.7609913403985189  0.1052572538830603
  0.8892500041878151  0.8722010122910007  0.8565385451630760
  0.7784619909866635  0.7636381079302126  0.6080383933935281
  0.5660943546781141  0.8821949050754228  0.3613931342093011
  0.4442349357799955  0.7602610926296762  0.0914578424478094
  0.2210479180404832  0.8721440984797937  0.8515962485906101
  0.1103688589514036  0.7598246975307319  0.6054473921069743
  0.8891425263602954  0.8733409300208024  0.3549165014062510
  0.7772355744170554  0.7608123299040273  0.1041468784764490
  0.5555980587126967  0.8731895736945816  0.8517309823287533
  0.4434832684662666  0.7649525452076844  0.6008931255296233
 
  0.00000000E+00  0.00000000E+00  0.00000000E+00
  0.00000000E+00  0.00000000E+00  0.00000000E+00
  0.00000000E+00  0.00000000E+00  0.00000000E+00
  0.00000000E+00  0.00000000E+00  0.00000000E+00
  0.00000000E+00  0.00000000E+00  0.00000000E+00
  0.00000000E+00  0.00000000E+00  0.00000000E+00
  0.00000000E+00  0.00000000E+00  0.00000000E+00
  0.00000000E+00  0.00000000E+00  0.00000000E+00
  0.00000000E+00  0.00000000E+00  0.00000000E+00
  0.00000000E+00  0.00000000E+00  0.00000000E+00
  0.00000000E+00  0.00000000E+00  0.00000000E+00
  0.00000000E+00  0.00000000E+00  0.00000000E+00
  0.00000000E+00  0.00000000E+00  0.00000000E+00
  0.00000000E+00  0.00000000E+00  0.00000000E+00
  0.00000000E+00  0.00000000E+00  0.00000000E+00
  0.00000000E+00  0.00000000E+00  0.00000000E+00
  0.00000000E+00  0.00000000E+00  0.00000000E+00
  0.00000000E+00  0.00000000E+00  0.00000000E+00
  0.00000000E+00  0.00000000E+00  0.00000000E+00
  0.00000000E+00  0.00000000E+00  0.00000000E+00
  0.00000000E+00  0.00000000E+00  0.00000000E+00
  0.00000000E+00  0.00000000E+00  0.00000000E+00
  0.00000000E+00  0.00000000E+00  0.00000000E+00
  0.00000000E+00  0.00000000E+00  0.00000000E+00
  0.00000000E+00  0.00000000E+00  0.00000000E+00
  0.00000000E+00  0.00000000E+00  0.00000000E+00
  0.00000000E+00  0.00000000E+00  0.00000000E+00
  0.00000000E+00  0.00000000E+00  0.00000000E+00
  0.00000000E+00  0.00000000E+00  0.00000000E+00
  0.00000000E+00  0.00000000E+00  0.00000000E+00
  0.00000000E+00  0.00000000E+00  0.00000000E+00
  0.00000000E+00  0.00000000E+00  0.00000000E+00
  0.00000000E+00  0.00000000E+00  0.00000000E+00
  0.00000000E+00  0.00000000E+00  0.00000000E+00
  0.00000000E+00  0.00000000E+00  0.00000000E+00
  0.00000000E+00  0.00000000E+00  0.00000000E+00
  0.00000000E+00  0.00000000E+00  0.00000000E+00
  0.00000000E+00  0.00000000E+00  0.00000000E+00
  0.00000000E+00  0.00000000E+00  0.00000000E+00
  0.00000000E+00  0.00000000E+00  0.00000000E+00
  0.00000000E+00  0.00000000E+00  0.00000000E+00
  0.00000000E+00  0.00000000E+00  0.00000000E+00
  0.00000000E+00  0.00000000E+00  0.00000000E+00
  0.00000000E+00  0.00000000E+00  0.00000000E+00
  0.00000000E+00  0.00000000E+00  0.00000000E+00
  0.00000000E+00  0.00000000E+00  0.00000000E+00
  0.00000000E+00  0.00000000E+00  0.00000000E+00
  0.00000000E+00  0.00000000E+00  0.00000000E+00
  0.00000000E+00  0.00000000E+00  0.00000000E+00
  0.00000000E+00  0.00000000E+00  0.00000000E+00
  0.00000000E+00  0.00000000E+00  0.00000000E+00
  0.00000000E+00  0.00000000E+00  0.00000000E+00
  0.00000000E+00  0.00000000E+00  0.00000000E+00
  0.00000000E+00  0.00000000E+00  0.00000000E+00
  0.00000000E+00  0.00000000E+00  0.00000000E+00
  0.00000000E+00  0.00000000E+00  0.00000000E+00
  0.00000000E+00  0.00000000E+00  0.00000000E+00
  0.00000000E+00  0.00000000E+00  0.00000000E+00
  0.00000000E+00  0.00000000E+00  0.00000000E+00
  0.00000000E+00  0.00000000E+00  0.00000000E+00
  0.00000000E+00  0.00000000E+00  0.00000000E+00
  0.00000000E+00  0.00000000E+00  0.00000000E+00
  0.00000000E+00  0.00000000E+00  0.00000000E+00
  0.00000000E+00  0.00000000E+00  0.00000000E+00
  0.00000000E+00  0.00000000E+00  0.00000000E+00
  0.00000000E+00  0.00000000E+00  0.00000000E+00
  0.00000000E+00  0.00000000E+00  0.00000000E+00
  0.00000000E+00  0.00000000E+00  0.00000000E+00
  0.00000000E+00  0.00000000E+00  0.00000000E+00
  0.00000000E+00  0.00000000E+00  0.00000000E+00
  0.00000000E+00  0.00000000E+00  0.00000000E+00
  0.00000000E+00  0.00000000E+00  0.00000000E+00
