supercell of 100% icsd_608626.cif, 0% i 
   1.00000000000000     
    -9.4892715528335660   -0.0001389029881894    0.0007068524638875
    -4.7445155467664746    8.2241239760727716   -0.0026538560972494
     0.0007522363423539    0.0037030578781662  -10.0813591192063985
   Al   Hf   Ca   N 
    34     1     1    36
Direct
  0.1110021231728524  0.0945593072661595  0.2970745653297016
  0.2232287427935802  0.2034987112447837  0.0457256063396301
  0.7778253231891554  0.0933591832252034  0.7937142336487781
  0.8896475559106705  0.2035505523210759  0.5474278817726344
  0.4442530202253181  0.0946944799153613  0.2971796720699373
  0.5573385885822688  0.1981323066882013  0.0441067151682262
  0.1122869553711467  0.0943902087361224  0.7935108141984060
  0.2191277135245784  0.2044706526533275  0.5466747199681876
  0.7782437499809944  0.0939544185350982  0.2967672822759155
  0.8947180862168551  0.1998092221262979  0.0445529483868654
  0.4437272912870256  0.0947452953194343  0.7946410274137037
  0.5597432987670672  0.2030507415447644  0.5464195225201678
  0.1111905647987825  0.4272550417783876  0.2901559056641787
  0.2172243914859493  0.5389206243534019  0.0456113738689226
  0.7816468387677133  0.4262773765156922  0.7890383752637931
  0.8883311573633108  0.5367777525503712  0.5469132157471890
  0.4418492018030378  0.4236953465890423  0.2950695318587293
  0.1085525557063605  0.4237667198052222  0.7981444239651125
  0.7851904802057419  0.4237872945089549  0.3022159867861234
  0.8930151930780568  0.5392605336647165  0.0447272673345793
  0.4480451962561958  0.4228538404421300  0.7928010163861785
  0.5588825520784297  0.5361752389424481  0.5439152406283156
  0.1104939622429484  0.7619110139760679  0.2900931335781181
  0.2173147093132783  0.8793767428243484  0.0446314027096122
  0.7780900138116209  0.7612723211903045  0.7951841712278167
  0.8874736754204235  0.8765690436898623  0.5467022553002749
  0.4407757278136657  0.7679377470517821  0.3023831076420436
  0.5554281919910409  0.8780981644579384  0.0449590697553361
  0.1075124840651966  0.7674553713788868  0.7982112247776385
  0.2172833834651300  0.8771616384389489  0.5467706344869825
  0.7785101359265312  0.7610248316130281  0.2973537840684770
  0.8871666041696358  0.8733917538860609  0.0455174754246030
  0.4424083768638383  0.7650438707644511  0.7903423791183997
  0.5564795663871678  0.8731292031461422  0.5463313250371513
  0.5573628745817913  0.5403869929535645  0.0534059802152314
  0.2183110737732221  0.5407212583785110  0.5500251494855419
  0.2219599108193719  0.2060966885643580  0.3537565276698302
  0.1109763068363137  0.0951553483234306  0.1062951968925105
  0.8888224309730646  0.2058604638680279  0.8535088315904957
  0.7771522949124829  0.0942492568214917  0.6042963529901400
  0.5563088727657615  0.2041259814031946  0.3546130417480597
  0.4445045139145662  0.0943881576064314  0.1062289225460518
  0.2244052467136157  0.2018054569199847  0.8573030688546908
  0.1115374589725633  0.0943025081042421  0.6042965137429661
  0.8899464075447199  0.2033931283586838  0.3564677719928540
  0.7779966446564899  0.0952789565343650  0.1051397303893111
  0.5568340773939937  0.2025886003163109  0.8556942275124939
  0.4438481068279643  0.0948791632099457  0.6041307914845859
  0.2205377385388942  0.5399508295750550  0.3268420523724984
  0.1105054680389799  0.4250683564772970  0.0994468317197175
  0.8850057915322225  0.5405685958758255  0.8565766075964376
  0.7772113777854983  0.4279399349068598  0.6000712449511809
  0.5557849766875691  0.5386271356693797  0.3450036192692636
  0.4397744499445935  0.4165447580104953  0.1030500723304897
  0.2224561993052490  0.5387101687400957  0.8508433466911427
  0.0941237824309127  0.4105236175625606  0.6158306569581384
  0.8907968846017411  0.5393522485091253  0.3551123980361055
  0.7975928459939112  0.4171266866973653  0.1108742790673105
  0.5571013003617509  0.5407808402472156  0.8479999259418491
  0.4754914669941925  0.4120178373371246  0.6102329523185119
  0.2199216006295828  0.8729805953093575  0.3551167412210745
  0.1102280059108836  0.7644138504472622  0.0986248279561934
  0.8852638436909785  0.8737357219124817  0.8573955558262156
  0.7784309302370858  0.7608680304217685  0.6043498452830391
  0.5566431023894367  0.8731567555553355  0.3562371519138736
  0.4347973530323799  0.7811190528908867  0.1110191711832087
  0.2246931535159575  0.8735032685685269  0.8563833490939032
  0.0937991398096045  0.7947398351838260  0.6156494954794667
  0.8895054548706227  0.8719907127882109  0.3535537158900439
  0.7769261181552025  0.7606608840982858  0.1055104515970626
  0.5553397023645275  0.8720284298083243  0.8540454600053593
  0.4440956804567477  0.7610033409007926  0.6002008504613272
 
  0.00000000E+00  0.00000000E+00  0.00000000E+00
  0.00000000E+00  0.00000000E+00  0.00000000E+00
  0.00000000E+00  0.00000000E+00  0.00000000E+00
  0.00000000E+00  0.00000000E+00  0.00000000E+00
  0.00000000E+00  0.00000000E+00  0.00000000E+00
  0.00000000E+00  0.00000000E+00  0.00000000E+00
  0.00000000E+00  0.00000000E+00  0.00000000E+00
  0.00000000E+00  0.00000000E+00  0.00000000E+00
  0.00000000E+00  0.00000000E+00  0.00000000E+00
  0.00000000E+00  0.00000000E+00  0.00000000E+00
  0.00000000E+00  0.00000000E+00  0.00000000E+00
  0.00000000E+00  0.00000000E+00  0.00000000E+00
  0.00000000E+00  0.00000000E+00  0.00000000E+00
  0.00000000E+00  0.00000000E+00  0.00000000E+00
  0.00000000E+00  0.00000000E+00  0.00000000E+00
  0.00000000E+00  0.00000000E+00  0.00000000E+00
  0.00000000E+00  0.00000000E+00  0.00000000E+00
  0.00000000E+00  0.00000000E+00  0.00000000E+00
  0.00000000E+00  0.00000000E+00  0.00000000E+00
  0.00000000E+00  0.00000000E+00  0.00000000E+00
  0.00000000E+00  0.00000000E+00  0.00000000E+00
  0.00000000E+00  0.00000000E+00  0.00000000E+00
  0.00000000E+00  0.00000000E+00  0.00000000E+00
  0.00000000E+00  0.00000000E+00  0.00000000E+00
  0.00000000E+00  0.00000000E+00  0.00000000E+00
  0.00000000E+00  0.00000000E+00  0.00000000E+00
  0.00000000E+00  0.00000000E+00  0.00000000E+00
  0.00000000E+00  0.00000000E+00  0.00000000E+00
  0.00000000E+00  0.00000000E+00  0.00000000E+00
  0.00000000E+00  0.00000000E+00  0.00000000E+00
  0.00000000E+00  0.00000000E+00  0.00000000E+00
  0.00000000E+00  0.00000000E+00  0.00000000E+00
  0.00000000E+00  0.00000000E+00  0.00000000E+00
  0.00000000E+00  0.00000000E+00  0.00000000E+00
  0.00000000E+00  0.00000000E+00  0.00000000E+00
  0.00000000E+00  0.00000000E+00  0.00000000E+00
  0.00000000E+00  0.00000000E+00  0.00000000E+00
  0.00000000E+00  0.00000000E+00  0.00000000E+00
  0.00000000E+00  0.00000000E+00  0.00000000E+00
  0.00000000E+00  0.00000000E+00  0.00000000E+00
  0.00000000E+00  0.00000000E+00  0.00000000E+00
  0.00000000E+00  0.00000000E+00  0.00000000E+00
  0.00000000E+00  0.00000000E+00  0.00000000E+00
  0.00000000E+00  0.00000000E+00  0.00000000E+00
  0.00000000E+00  0.00000000E+00  0.00000000E+00
  0.00000000E+00  0.00000000E+00  0.00000000E+00
  0.00000000E+00  0.00000000E+00  0.00000000E+00
  0.00000000E+00  0.00000000E+00  0.00000000E+00
  0.00000000E+00  0.00000000E+00  0.00000000E+00
  0.00000000E+00  0.00000000E+00  0.00000000E+00
  0.00000000E+00  0.00000000E+00  0.00000000E+00
  0.00000000E+00  0.00000000E+00  0.00000000E+00
  0.00000000E+00  0.00000000E+00  0.00000000E+00
  0.00000000E+00  0.00000000E+00  0.00000000E+00
  0.00000000E+00  0.00000000E+00  0.00000000E+00
  0.00000000E+00  0.00000000E+00  0.00000000E+00
  0.00000000E+00  0.00000000E+00  0.00000000E+00
  0.00000000E+00  0.00000000E+00  0.00000000E+00
  0.00000000E+00  0.00000000E+00  0.00000000E+00
  0.00000000E+00  0.00000000E+00  0.00000000E+00
  0.00000000E+00  0.00000000E+00  0.00000000E+00
  0.00000000E+00  0.00000000E+00  0.00000000E+00
  0.00000000E+00  0.00000000E+00  0.00000000E+00
  0.00000000E+00  0.00000000E+00  0.00000000E+00
  0.00000000E+00  0.00000000E+00  0.00000000E+00
  0.00000000E+00  0.00000000E+00  0.00000000E+00
  0.00000000E+00  0.00000000E+00  0.00000000E+00
  0.00000000E+00  0.00000000E+00  0.00000000E+00
  0.00000000E+00  0.00000000E+00  0.00000000E+00
  0.00000000E+00  0.00000000E+00  0.00000000E+00
  0.00000000E+00  0.00000000E+00  0.00000000E+00
  0.00000000E+00  0.00000000E+00  0.00000000E+00
