Sc   Al   N                             
   1.00000000000000     
   -10.2829495580535522    0.0139123601988436   -0.0058842934582998
    -5.1755500782495716    8.8973798639698281   -0.0081516154058086
     0.0043828661284107    0.0009143919514329   -8.5938120362678809
   Sc   Al   N 
     8    28    36
Direct
  0.1095790019774938  0.0944441045550519  0.3574666302381146
  0.2247424192136975  0.2150974004364485  0.1031303975023548
  0.1080563256770333  0.0970534785496682  0.8486037330576579
  0.7793468139057822  0.4314346978924704  0.3486792461511286
  0.5515800289356676  0.5357399075417888  0.6061092429832087
  0.2220966744383830  0.8618356870169706  0.1026530227910172
  0.8870321943486630  0.8751980035035842  0.6033876612110802
  0.5600034682554593  0.8706186346471370  0.1032584770396028
  0.7702748313571846  0.0990811669306240  0.8529046320583831
  0.8814314607364651  0.2087646432924970  0.6040680794790845
  0.4500645161048737  0.0977032888077645  0.3561114219929280
  0.5577998779492503  0.2082054142888907  0.0973319603784404
  0.2270938470320374  0.2126362394798562  0.6022931862132310
  0.7716079857295668  0.0947465771791940  0.3431689355682863
  0.8802771773980709  0.2072950332477959  0.0965538725091264
  0.4500979380963983  0.0964485816581728  0.8416748888947581
  0.5532327243567892  0.2077747809933115  0.5975062955482855
  0.1129377525531012  0.4366215271256380  0.3568505488769915
  0.2202700306731344  0.5391092280881509  0.0990225955989743
  0.7777336488449151  0.4294721336204006  0.8549708443174282
  0.8922612978332367  0.5377572344782635  0.6065979353530011
  0.4400287828075520  0.4261718002565473  0.3449355039822777
  0.5549594231277126  0.5329322187316805  0.0976818647710616
  0.1115544272137257  0.4344968467788277  0.8478809273809205
  0.2240013645297623  0.5349599688642002  0.6018863485450581
  0.8932449565470648  0.5420590728984820  0.0960851808470906
  0.4410074210703527  0.4239220104766588  0.8531383265405097
  0.1127687189165343  0.7527597388581100  0.3526405684312337
  0.7789530130117939  0.7588284810479493  0.8505541328954394
  0.4448448737563524  0.7574019230072508  0.3562586689404839
  0.1130551535242503  0.7532351107469140  0.8499909556261258
  0.2257974848604363  0.8651448403165887  0.6036118341490209
  0.7815406146802601  0.7599701065477689  0.3538524179166913
  0.8892798780144915  0.8698373365876861  0.1002078103941173
  0.4471355964317638  0.7574695792722324  0.8512479058857565
  0.5538194542025963  0.8728641891946793  0.6020926642190361
  0.2302065811736540  0.2181864495378321  0.3653664618395283
  0.0965637792885445  0.1031253743461917  0.1025882658860837
  0.8692330102873953  0.2140660491503183  0.8556289339018406
  0.7658705530521033  0.1117761089058646  0.6101066340026549
  0.5559363259524019  0.2079710540588806  0.3565483987321372
  0.4564067283308191  0.1025122764174853  0.1113090979055187
  0.2325269539524655  0.2156165707248476  0.8422125597226682
  0.1084842831125954  0.0947302276372000  0.6037087085592674
  0.8754942504139720  0.1991855567217016  0.3550182819130683
  0.7759293932238407  0.0942222921113256  0.1027917101015916
  0.5543847942864204  0.2057404296575314  0.8580373939665336
  0.4503211276221180  0.0933264420702358  0.6025811727780521
  0.2246777551028742  0.5370469624108978  0.3543538729052997
  0.1040609217510138  0.4455190896454155  0.1013229884805469
  0.8907120089922529  0.5387123004278678  0.8540344962411552
  0.7934315678295221  0.4224768722005408  0.6109133045000092
  0.5406759772474530  0.5413799800211265  0.3482076783227441
  0.4426647985695524  0.4262951486456004  0.1024676773095834
  0.2226211823591697  0.5383794199391261  0.8559842677554883
  0.1094552439450638  0.4338811574568240  0.6064054940095218
  0.8999275561251139  0.5476422794825382  0.3546422330774419
  0.7792606768697183  0.4294912625472662  0.0937958324895760
  0.5544535257423249  0.5356105383762966  0.8601237330840092
  0.4340766502705478  0.4176505830793360  0.6098991798857725
  0.2285631177379770  0.8543555958900200  0.3611259356843419
  0.1025396048755027  0.7504528176096201  0.1055926007465047
  0.8887248886944548  0.8730913006839032  0.8602608538372962
  0.7712392453069370  0.7528979408225638  0.6065602315979035
  0.5568823544175885  0.8705184855744079  0.3624952602733913
  0.4550846827575512  0.7429477732126202  0.1016275987703068
  0.2289589390596234  0.8542182175068902  0.8454838967436302
  0.1256569947802930  0.7492668934463609  0.6036393989327919
  0.8865539717914359  0.8739063831523879  0.3466673098627169
  0.7926140893646476  0.7538115805930801  0.1004493039765748
  0.5545020480657712  0.8738969539234347  0.8449541687526008
  0.4390944063054150  0.7740685535586849  0.6043095230496860
 
  0.00000000E+00  0.00000000E+00  0.00000000E+00
  0.00000000E+00  0.00000000E+00  0.00000000E+00
  0.00000000E+00  0.00000000E+00  0.00000000E+00
  0.00000000E+00  0.00000000E+00  0.00000000E+00
  0.00000000E+00  0.00000000E+00  0.00000000E+00
  0.00000000E+00  0.00000000E+00  0.00000000E+00
  0.00000000E+00  0.00000000E+00  0.00000000E+00
  0.00000000E+00  0.00000000E+00  0.00000000E+00
  0.00000000E+00  0.00000000E+00  0.00000000E+00
  0.00000000E+00  0.00000000E+00  0.00000000E+00
  0.00000000E+00  0.00000000E+00  0.00000000E+00
  0.00000000E+00  0.00000000E+00  0.00000000E+00
  0.00000000E+00  0.00000000E+00  0.00000000E+00
  0.00000000E+00  0.00000000E+00  0.00000000E+00
  0.00000000E+00  0.00000000E+00  0.00000000E+00
  0.00000000E+00  0.00000000E+00  0.00000000E+00
  0.00000000E+00  0.00000000E+00  0.00000000E+00
  0.00000000E+00  0.00000000E+00  0.00000000E+00
  0.00000000E+00  0.00000000E+00  0.00000000E+00
  0.00000000E+00  0.00000000E+00  0.00000000E+00
  0.00000000E+00  0.00000000E+00  0.00000000E+00
  0.00000000E+00  0.00000000E+00  0.00000000E+00
  0.00000000E+00  0.00000000E+00  0.00000000E+00
  0.00000000E+00  0.00000000E+00  0.00000000E+00
  0.00000000E+00  0.00000000E+00  0.00000000E+00
  0.00000000E+00  0.00000000E+00  0.00000000E+00
  0.00000000E+00  0.00000000E+00  0.00000000E+00
  0.00000000E+00  0.00000000E+00  0.00000000E+00
  0.00000000E+00  0.00000000E+00  0.00000000E+00
  0.00000000E+00  0.00000000E+00  0.00000000E+00
  0.00000000E+00  0.00000000E+00  0.00000000E+00
  0.00000000E+00  0.00000000E+00  0.00000000E+00
  0.00000000E+00  0.00000000E+00  0.00000000E+00
  0.00000000E+00  0.00000000E+00  0.00000000E+00
  0.00000000E+00  0.00000000E+00  0.00000000E+00
  0.00000000E+00  0.00000000E+00  0.00000000E+00
  0.00000000E+00  0.00000000E+00  0.00000000E+00
  0.00000000E+00  0.00000000E+00  0.00000000E+00
  0.00000000E+00  0.00000000E+00  0.00000000E+00
  0.00000000E+00  0.00000000E+00  0.00000000E+00
  0.00000000E+00  0.00000000E+00  0.00000000E+00
  0.00000000E+00  0.00000000E+00  0.00000000E+00
  0.00000000E+00  0.00000000E+00  0.00000000E+00
  0.00000000E+00  0.00000000E+00  0.00000000E+00
  0.00000000E+00  0.00000000E+00  0.00000000E+00
  0.00000000E+00  0.00000000E+00  0.00000000E+00
  0.00000000E+00  0.00000000E+00  0.00000000E+00
  0.00000000E+00  0.00000000E+00  0.00000000E+00
  0.00000000E+00  0.00000000E+00  0.00000000E+00
  0.00000000E+00  0.00000000E+00  0.00000000E+00
  0.00000000E+00  0.00000000E+00  0.00000000E+00
  0.00000000E+00  0.00000000E+00  0.00000000E+00
  0.00000000E+00  0.00000000E+00  0.00000000E+00
  0.00000000E+00  0.00000000E+00  0.00000000E+00
  0.00000000E+00  0.00000000E+00  0.00000000E+00
  0.00000000E+00  0.00000000E+00  0.00000000E+00
  0.00000000E+00  0.00000000E+00  0.00000000E+00
  0.00000000E+00  0.00000000E+00  0.00000000E+00
  0.00000000E+00  0.00000000E+00  0.00000000E+00
  0.00000000E+00  0.00000000E+00  0.00000000E+00
  0.00000000E+00  0.00000000E+00  0.00000000E+00
  0.00000000E+00  0.00000000E+00  0.00000000E+00
  0.00000000E+00  0.00000000E+00  0.00000000E+00
  0.00000000E+00  0.00000000E+00  0.00000000E+00
  0.00000000E+00  0.00000000E+00  0.00000000E+00
  0.00000000E+00  0.00000000E+00  0.00000000E+00
  0.00000000E+00  0.00000000E+00  0.00000000E+00
  0.00000000E+00  0.00000000E+00  0.00000000E+00
  0.00000000E+00  0.00000000E+00  0.00000000E+00
  0.00000000E+00  0.00000000E+00  0.00000000E+00
  0.00000000E+00  0.00000000E+00  0.00000000E+00
  0.00000000E+00  0.00000000E+00  0.00000000E+00
