Sc   Al   N                             
   1.00000000000000     
   -10.2355547750080422    0.0139123601988436   -0.0058842934582998
    -5.1498510530671107    8.8562682459630118   -0.0081516154058086
     0.0027306185441086    0.0044590565510847   -8.7232859670233491
   Sc   Al   N 
     8    28    36
Direct
  0.1094256876800870  0.0944597346028644  0.3570281955312495
  0.2253211489563682  0.2147745899348763  0.1020226393973260
  0.1083942780333444  0.0968990932036036  0.8478119088365901
  0.7788334524054008  0.4314804549061506  0.3482125688071278
  0.5510993979851548  0.5353254791321547  0.6061020120379936
  0.2218219152952017  0.8617100253910550  0.1020564555301249
  0.8861925526565173  0.8756608347696684  0.6021762495039837
  0.5594401747280742  0.8714364784717077  0.1025045735444081
  0.7696745443677955  0.0995722720283823  0.8485472103328391
  0.8815085324977119  0.2083454493045451  0.5998093323030105
  0.4499437427595865  0.0982808590766027  0.3534753601967964
  0.5575970399283179  0.2073906936492733  0.0910626165479798
  0.2260689274229009  0.2128105665220374  0.5990014793286207
  0.7717723715466107  0.0944175239364071  0.3360432739623249
  0.8802768863226120  0.2080037636626102  0.0907693611596017
  0.4500985741860646  0.0962526387702098  0.8331728679597177
  0.5534825087419861  0.2088192749749496  0.5901338107826888
  0.1125775877452000  0.4370338399855385  0.3474334798556740
  0.2189620642757291  0.5398864144545925  0.0916325474878974
  0.7782216158150064  0.4296155727182551  0.8516802872334637
  0.8925772936529910  0.5384195639393781  0.5984576301513798
  0.4407709313245434  0.4265130827579071  0.3352654409155846
  0.5560456499732354  0.5326490117378739  0.0931042388820771
  0.1121241081342745  0.4342209100365153  0.8387013603709548
  0.2249947635377723  0.5339111633946771  0.5908805051699986
  0.8931620020282409  0.5412938149562905  0.0887146208183012
  0.4398838884738936  0.4232803010513564  0.8490551771318167
  0.1119501326899766  0.7530984859706464  0.3476738846645446
  0.7783799558208315  0.7588234788948114  0.8456777020905619
  0.4452921579987432  0.7563862276312392  0.3531194588272939
  0.1140982327065672  0.7525389959143354  0.8420898819980991
  0.2257900392275474  0.8657129383376940  0.6013618853752760
  0.7821152202060873  0.7602487575441756  0.3462840233647029
  0.8899494632817238  0.8694739870450618  0.0960877170743188
  0.4468149953119678  0.7584412665533478  0.8479471223639194
  0.5543711937609146  0.8721674422353303  0.5983745936988214
  0.2295373899760094  0.2185517976597566  0.3668175672889902
  0.0959554414283375  0.1035043280375803  0.1033314705441342
  0.8692960496494209  0.2144218294590914  0.8594373978676231
  0.7649085593168721  0.1126407728513783  0.6184800553878276
  0.5565348370879306  0.2093143653930056  0.3624342329934649
  0.4566869580741653  0.1029904074843841  0.1223688241006684
  0.2332036900313028  0.2156159652346403  0.8449468867063459
  0.1092840233827630  0.0945157112683432  0.6040987665980282
  0.8749865381524131  0.1986242626657884  0.3622094964868765
  0.7763668353838469  0.0942207369658519  0.1060763163321781
  0.5537805693695930  0.2043850954358035  0.8651216576860747
  0.4503001135701226  0.0934041219307389  0.6036552026252977
  0.2261654450286628  0.5364554864834261  0.3614607827688019
  0.1032207890608916  0.4460437161120296  0.1131392925470891
  0.8918909472448036  0.5380725817265031  0.8590181468406399
  0.7939921418341100  0.4223626030033643  0.6128262731759264
  0.5405290600765582  0.5407777843236374  0.3526062882851519
  0.4429321451880242  0.4264167683928051  0.1053558921722981
  0.2211108642445510  0.5387146352363246  0.8645127097400973
  0.1101068856035070  0.4335845759127039  0.6111322298866639
  0.8994107614804747  0.5484973481108710  0.3642744551568171
  0.7792055639351645  0.4295304866089609  0.0961341473800843
  0.5546458602748459  0.5362258585858442  0.8606445144081647
  0.4333426180807791  0.4169460802308933  0.6203017809781670
  0.2286593544989159  0.8540660232972712  0.3620590226015921
  0.1020814098175435  0.7503321953207589  0.1137445051918320
  0.8896483129008317  0.8722306489546341  0.8615851204025446
  0.7704896063570530  0.7532487000421142  0.6134390871747897
  0.5577309013766012  0.8693139738885733  0.3636358490600173
  0.4554591392918539  0.7422163829420612  0.1061004453241452
  0.2289588007730714  0.8541120003488203  0.8482452417156523
  0.1264415692008285  0.7486742308799208  0.6082162086138965
  0.8857555143767968  0.8748514702437191  0.3505984076766282
  0.7932584836928811  0.7531693071891397  0.1061911083380949
  0.5535860278426483  0.8750726421775070  0.8483488869459137
  0.4388078992391655  0.7746108781729788  0.6074262256567380
 
  0.00000000E+00  0.00000000E+00  0.00000000E+00
  0.00000000E+00  0.00000000E+00  0.00000000E+00
  0.00000000E+00  0.00000000E+00  0.00000000E+00
  0.00000000E+00  0.00000000E+00  0.00000000E+00
  0.00000000E+00  0.00000000E+00  0.00000000E+00
  0.00000000E+00  0.00000000E+00  0.00000000E+00
  0.00000000E+00  0.00000000E+00  0.00000000E+00
  0.00000000E+00  0.00000000E+00  0.00000000E+00
  0.00000000E+00  0.00000000E+00  0.00000000E+00
  0.00000000E+00  0.00000000E+00  0.00000000E+00
  0.00000000E+00  0.00000000E+00  0.00000000E+00
  0.00000000E+00  0.00000000E+00  0.00000000E+00
  0.00000000E+00  0.00000000E+00  0.00000000E+00
  0.00000000E+00  0.00000000E+00  0.00000000E+00
  0.00000000E+00  0.00000000E+00  0.00000000E+00
  0.00000000E+00  0.00000000E+00  0.00000000E+00
  0.00000000E+00  0.00000000E+00  0.00000000E+00
  0.00000000E+00  0.00000000E+00  0.00000000E+00
  0.00000000E+00  0.00000000E+00  0.00000000E+00
  0.00000000E+00  0.00000000E+00  0.00000000E+00
  0.00000000E+00  0.00000000E+00  0.00000000E+00
  0.00000000E+00  0.00000000E+00  0.00000000E+00
  0.00000000E+00  0.00000000E+00  0.00000000E+00
  0.00000000E+00  0.00000000E+00  0.00000000E+00
  0.00000000E+00  0.00000000E+00  0.00000000E+00
  0.00000000E+00  0.00000000E+00  0.00000000E+00
  0.00000000E+00  0.00000000E+00  0.00000000E+00
  0.00000000E+00  0.00000000E+00  0.00000000E+00
  0.00000000E+00  0.00000000E+00  0.00000000E+00
  0.00000000E+00  0.00000000E+00  0.00000000E+00
  0.00000000E+00  0.00000000E+00  0.00000000E+00
  0.00000000E+00  0.00000000E+00  0.00000000E+00
  0.00000000E+00  0.00000000E+00  0.00000000E+00
  0.00000000E+00  0.00000000E+00  0.00000000E+00
  0.00000000E+00  0.00000000E+00  0.00000000E+00
  0.00000000E+00  0.00000000E+00  0.00000000E+00
  0.00000000E+00  0.00000000E+00  0.00000000E+00
  0.00000000E+00  0.00000000E+00  0.00000000E+00
  0.00000000E+00  0.00000000E+00  0.00000000E+00
  0.00000000E+00  0.00000000E+00  0.00000000E+00
  0.00000000E+00  0.00000000E+00  0.00000000E+00
  0.00000000E+00  0.00000000E+00  0.00000000E+00
  0.00000000E+00  0.00000000E+00  0.00000000E+00
  0.00000000E+00  0.00000000E+00  0.00000000E+00
  0.00000000E+00  0.00000000E+00  0.00000000E+00
  0.00000000E+00  0.00000000E+00  0.00000000E+00
  0.00000000E+00  0.00000000E+00  0.00000000E+00
  0.00000000E+00  0.00000000E+00  0.00000000E+00
  0.00000000E+00  0.00000000E+00  0.00000000E+00
  0.00000000E+00  0.00000000E+00  0.00000000E+00
  0.00000000E+00  0.00000000E+00  0.00000000E+00
  0.00000000E+00  0.00000000E+00  0.00000000E+00
  0.00000000E+00  0.00000000E+00  0.00000000E+00
  0.00000000E+00  0.00000000E+00  0.00000000E+00
  0.00000000E+00  0.00000000E+00  0.00000000E+00
  0.00000000E+00  0.00000000E+00  0.00000000E+00
  0.00000000E+00  0.00000000E+00  0.00000000E+00
  0.00000000E+00  0.00000000E+00  0.00000000E+00
  0.00000000E+00  0.00000000E+00  0.00000000E+00
  0.00000000E+00  0.00000000E+00  0.00000000E+00
  0.00000000E+00  0.00000000E+00  0.00000000E+00
  0.00000000E+00  0.00000000E+00  0.00000000E+00
  0.00000000E+00  0.00000000E+00  0.00000000E+00
  0.00000000E+00  0.00000000E+00  0.00000000E+00
  0.00000000E+00  0.00000000E+00  0.00000000E+00
  0.00000000E+00  0.00000000E+00  0.00000000E+00
  0.00000000E+00  0.00000000E+00  0.00000000E+00
  0.00000000E+00  0.00000000E+00  0.00000000E+00
  0.00000000E+00  0.00000000E+00  0.00000000E+00
  0.00000000E+00  0.00000000E+00  0.00000000E+00
  0.00000000E+00  0.00000000E+00  0.00000000E+00
  0.00000000E+00  0.00000000E+00  0.00000000E+00
