supercell of 100% icsd_608626.cif, 0% i 
   1.00000000000000     
    -9.7390578154412051    0.0136189713458667   -0.0062334846821244
    -4.8813040212974190    8.4289366344445504    0.0036695521659062
    -0.0067094009151813   -0.0079809018916601  -10.1409301535671688
   Sc   Al   N 
     8    28    36
Direct
  0.1094705218257488  0.0931805443992317  0.4222355130885305
  0.2212235954173494  0.2142983712088480  0.1555467030054061
  0.1087933089569191  0.0970150948605237  0.8871634722063391
  0.7798520812151892  0.4296470895804987  0.3926287007225469
  0.5564596508239319  0.5343600085195561  0.6528611251317145
  0.2192827452985568  0.8680174928244710  0.1514690928983811
  0.8882543828886256  0.8733059008606219  0.6492344394724014
  0.5604941793434648  0.8710402486727205  0.1533852346589839
  0.7714446956007066  0.0959700523461180  0.9124932742568959
  0.8797017617362712  0.2119083397398924  0.6666276495817840
  0.4481461261146862  0.0953752640464387  0.4171496345712669
  0.5574766537681413  0.2079253587495344  0.1592905328873755
  0.2274781356678517  0.2117740836726227  0.6626828196449921
  0.7706730710582761  0.0971741999565054  0.4060559461452442
  0.8826614061800129  0.2038737242091528  0.1546548934535892
  0.4505000590832253  0.0989378561916610  0.9039954014732317
  0.5524879832177660  0.2077160850994773  0.6596992919012692
  0.1136383806415111  0.4349793807662863  0.4142669370756096
  0.2196127639271737  0.5394839309013548  0.1590069757181496
  0.7733961920014778  0.4310489193825902  0.9171117249989891
  0.8916728243772454  0.5342376095938661  0.6626750249424376
  0.4370038134259175  0.4252164471638480  0.4067399454557972
  0.5515270617640695  0.5355894342894771  0.1600629724816685
  0.1117980396355946  0.4350546740616110  0.9066329156681547
  0.2243195238502409  0.5344171192399614  0.6609576098967267
  0.8947206767020219  0.5439699177761739  0.1557642546042715
  0.4443975304471550  0.4262877881309350  0.9121453817820608
  0.1172124852681833  0.7530386624499812  0.4098687620865178
  0.7816454442451999  0.7593903968036742  0.9084634517528940
  0.4405870162176200  0.7640729999359266  0.4140853670338203
  0.1102016948794997  0.7531786252458730  0.9107572303117593
  0.2279455541069879  0.8629056058402327  0.6665179598050699
  0.7776292179488067  0.7600225420781683  0.4116561622456416
  0.8889010156221673  0.8704037560758024  0.1607655866680489
  0.4507758964803443  0.7513331870909852  0.9084075728743386
  0.5531079491691528  0.8730586004935503  0.6610998711466323
  0.2297437784879293  0.2149566140060628  0.3675078998893397
  0.0934732337060353  0.1061603200124210  0.0975237396753883
  0.8612194248316527  0.2191983829436737  0.8535236029504603
  0.7659311697915072  0.1165681878073599  0.5950729788507090
  0.5534097931196129  0.2043913586280155  0.3493269363683567
  0.4552878535472686  0.1050264055331880  0.0897014899157895
  0.2344040541519519  0.2196506026521874  0.8506905018045003
  0.1103532935743630  0.0931048816627609  0.6385831600901213
  0.8824460993733680  0.1918491708706682  0.3404616107052618
  0.7757067829755044  0.0924461574551003  0.1023431764903577
  0.5571494180319547  0.2077688706250527  0.8488439647522057
  0.4486461378007789  0.0926857642446919  0.6071612503108170
  0.2215874062279326  0.5381235045495032  0.3486388738492465
  0.1041233481372572  0.4464354616233663  0.0927350278636965
  0.8884473938348307  0.5371771892912207  0.8537078834119995
  0.7996215540375289  0.4171096806768091  0.6010180156301885
  0.5341981640209710  0.5474206973287465  0.3539400114135347
  0.4429229056909065  0.4269448227049963  0.1033192756401178
  0.2247897036706519  0.5380599238080706  0.8501773966908885
  0.1093969310258416  0.4319956662494278  0.6048445765459221
  0.9029121422507060  0.5500095275081236  0.3440323066791251
  0.7771493733299835  0.4302140102902001  0.1127893988160196
  0.5578379817781851  0.5338098094028680  0.8616284335998330
  0.4330029418389145  0.4164702812260330  0.5949498004294682
  0.2273739662512639  0.8587610196434170  0.3598171354070701
  0.1005159531616897  0.7510666224338038  0.0988679815318037
  0.8885643701276109  0.8739111654324248  0.8582364283693735
  0.7689424632881696  0.7486099263952539  0.6006880169206568
  0.5543652215630672  0.8730148113463798  0.3641755452509727
  0.4558615828387431  0.7414662019041387  0.0936632543526059
  0.2337348672359241  0.8462868732949431  0.8558347187794979
  0.1317591969949490  0.7480759872349196  0.5988171680112373
  0.8880690859008169  0.8719757618777919  0.3598822284277361
  0.7947576836877630  0.7545558001987231  0.0958788873990173
  0.5563344346293491  0.8713734061028049  0.8548012977991348
  0.4360579136321903  0.7782391321001256  0.6023597926621775
 
  0.00000000E+00  0.00000000E+00  0.00000000E+00
  0.00000000E+00  0.00000000E+00  0.00000000E+00
  0.00000000E+00  0.00000000E+00  0.00000000E+00
  0.00000000E+00  0.00000000E+00  0.00000000E+00
  0.00000000E+00  0.00000000E+00  0.00000000E+00
  0.00000000E+00  0.00000000E+00  0.00000000E+00
  0.00000000E+00  0.00000000E+00  0.00000000E+00
  0.00000000E+00  0.00000000E+00  0.00000000E+00
  0.00000000E+00  0.00000000E+00  0.00000000E+00
  0.00000000E+00  0.00000000E+00  0.00000000E+00
  0.00000000E+00  0.00000000E+00  0.00000000E+00
  0.00000000E+00  0.00000000E+00  0.00000000E+00
  0.00000000E+00  0.00000000E+00  0.00000000E+00
  0.00000000E+00  0.00000000E+00  0.00000000E+00
  0.00000000E+00  0.00000000E+00  0.00000000E+00
  0.00000000E+00  0.00000000E+00  0.00000000E+00
  0.00000000E+00  0.00000000E+00  0.00000000E+00
  0.00000000E+00  0.00000000E+00  0.00000000E+00
  0.00000000E+00  0.00000000E+00  0.00000000E+00
  0.00000000E+00  0.00000000E+00  0.00000000E+00
  0.00000000E+00  0.00000000E+00  0.00000000E+00
  0.00000000E+00  0.00000000E+00  0.00000000E+00
  0.00000000E+00  0.00000000E+00  0.00000000E+00
  0.00000000E+00  0.00000000E+00  0.00000000E+00
  0.00000000E+00  0.00000000E+00  0.00000000E+00
  0.00000000E+00  0.00000000E+00  0.00000000E+00
  0.00000000E+00  0.00000000E+00  0.00000000E+00
  0.00000000E+00  0.00000000E+00  0.00000000E+00
  0.00000000E+00  0.00000000E+00  0.00000000E+00
  0.00000000E+00  0.00000000E+00  0.00000000E+00
  0.00000000E+00  0.00000000E+00  0.00000000E+00
  0.00000000E+00  0.00000000E+00  0.00000000E+00
  0.00000000E+00  0.00000000E+00  0.00000000E+00
  0.00000000E+00  0.00000000E+00  0.00000000E+00
  0.00000000E+00  0.00000000E+00  0.00000000E+00
  0.00000000E+00  0.00000000E+00  0.00000000E+00
  0.00000000E+00  0.00000000E+00  0.00000000E+00
  0.00000000E+00  0.00000000E+00  0.00000000E+00
  0.00000000E+00  0.00000000E+00  0.00000000E+00
  0.00000000E+00  0.00000000E+00  0.00000000E+00
  0.00000000E+00  0.00000000E+00  0.00000000E+00
  0.00000000E+00  0.00000000E+00  0.00000000E+00
  0.00000000E+00  0.00000000E+00  0.00000000E+00
  0.00000000E+00  0.00000000E+00  0.00000000E+00
  0.00000000E+00  0.00000000E+00  0.00000000E+00
  0.00000000E+00  0.00000000E+00  0.00000000E+00
  0.00000000E+00  0.00000000E+00  0.00000000E+00
  0.00000000E+00  0.00000000E+00  0.00000000E+00
  0.00000000E+00  0.00000000E+00  0.00000000E+00
  0.00000000E+00  0.00000000E+00  0.00000000E+00
  0.00000000E+00  0.00000000E+00  0.00000000E+00
  0.00000000E+00  0.00000000E+00  0.00000000E+00
  0.00000000E+00  0.00000000E+00  0.00000000E+00
  0.00000000E+00  0.00000000E+00  0.00000000E+00
  0.00000000E+00  0.00000000E+00  0.00000000E+00
  0.00000000E+00  0.00000000E+00  0.00000000E+00
  0.00000000E+00  0.00000000E+00  0.00000000E+00
  0.00000000E+00  0.00000000E+00  0.00000000E+00
  0.00000000E+00  0.00000000E+00  0.00000000E+00
  0.00000000E+00  0.00000000E+00  0.00000000E+00
  0.00000000E+00  0.00000000E+00  0.00000000E+00
  0.00000000E+00  0.00000000E+00  0.00000000E+00
  0.00000000E+00  0.00000000E+00  0.00000000E+00
  0.00000000E+00  0.00000000E+00  0.00000000E+00
  0.00000000E+00  0.00000000E+00  0.00000000E+00
  0.00000000E+00  0.00000000E+00  0.00000000E+00
  0.00000000E+00  0.00000000E+00  0.00000000E+00
  0.00000000E+00  0.00000000E+00  0.00000000E+00
  0.00000000E+00  0.00000000E+00  0.00000000E+00
  0.00000000E+00  0.00000000E+00  0.00000000E+00
  0.00000000E+00  0.00000000E+00  0.00000000E+00
  0.00000000E+00  0.00000000E+00  0.00000000E+00
