Sc   Al   N                             
   1.00000000000000     
    -9.7406439880140034    0.0139123601988436   -0.0058842934582998
    -4.8824083680784227    8.4270063718762724   -0.0081516154058086
    -0.0063105040134257    0.0063730378238282  -10.1418419192798250
   Sc   Al   N 
     8    28    36
Direct
  0.1093662193166338  0.0958675696037545  0.3209837929343138
  0.2219741076910751  0.2142638414007578  0.0551503241353828
  0.1094046900889794  0.0948985855364270  0.7914713260953761
  0.7740206458900900  0.4341918045931905  0.2989822772117279
  0.5540770742899213  0.5354797334898151  0.5682766954811029
  0.2207533801595503  0.8663911904103827  0.0597653790248529
  0.8881046598570066  0.8736792818563401  0.5598801753415827
  0.5604747563074852  0.8703859454491649  0.0587429522739669
  0.7693518476819179  0.1007308087785717  0.8037719120450575
  0.8824199719065504  0.2084562380588366  0.5500708461144299
  0.4501322224164070  0.0992071710797120  0.3063522761004762
  0.5577060957059530  0.2080706658457956  0.0508935933323968
  0.2274591395339058  0.2117042304004642  0.5479302281183678
  0.7724479844391325  0.0933167302476505  0.2964298779444974
  0.8800635332875117  0.2087521779039321  0.0466442874557629
  0.4489345502585280  0.0951242355387052  0.7929597368893653
  0.5527275846800563  0.2074021491747047  0.5496171608501754
  0.1129851024478370  0.4376196771082945  0.3031282444540437
  0.2193712319006664  0.5397069545574880  0.0512039382685998
  0.7809942507821219  0.4276150617357786  0.8039682226342180
  0.8941677014821039  0.5368247664142274  0.5532371388167050
  0.4415704700391245  0.4279365099249119  0.2986554769591834
  0.5563329797802652  0.5334028252295795  0.0414316004410367
  0.1126380257645465  0.4324836447797509  0.7958629662310983
  0.2247808909736690  0.5339484402962711  0.5489200340765450
  0.8918466796324793  0.5407192755605337  0.0466511184570066
  0.4391827118894227  0.4227374015397345  0.8030863324041349
  0.1091918404500518  0.7538334294828744  0.2997326047197006
  0.7753541550150942  0.7585903218457020  0.7987639282860144
  0.4468396053895916  0.7520272053781980  0.3034194696914696
  0.1178317273150284  0.7526710163230277  0.7996786728253724
  0.2276045937648732  0.8645378632566363  0.5445454880158493
  0.7842604287537611  0.7609095013051927  0.3004818558501583
  0.8896383380187913  0.8698982384190970  0.0487547279191887
  0.4438357936619681  0.7643429007274207  0.7958923924632089
  0.5533027173427527  0.8735241137297791  0.5481991389972976
  0.2331919693460165  0.2206757991934012  0.3589598826593772
  0.0905878471462245  0.1072637990487948  0.1080479064825397
  0.8717399913834925  0.2122393076770877  0.8596749961447472
  0.7646965634071208  0.1155914068668977  0.6164415071521532
  0.5571037068499436  0.2078013111866142  0.3600387939137235
  0.4558173387539810  0.1050119424582405  0.1209982091098993
  0.2313610805340716  0.2140472090654697  0.8440520489815029
  0.1123266555068909  0.0931544556415531  0.5764776218474452
  0.8686742792543427  0.2025297613813848  0.3653668106734287
  0.7770540645718000  0.0936428076982381  0.1048214761172588
  0.5533811051117965  0.2041170191991810  0.8615340289096380
  0.4488141656306865  0.0926602545665816  0.6024690739648264
  0.2248454663347061  0.5386656919607375  0.3594020125687294
  0.1010334922120038  0.4476140462280753  0.1150016408219798
  0.8922622330045584  0.5388188448078566  0.8569852887706375
  0.8014793726449625  0.4171548419891309  0.6135159638348497
  0.5399708356275070  0.5409623369286933  0.3609796514279964
  0.4441246592958592  0.4281701234175017  0.1046273123213695
  0.2209829879550753  0.5378596079938518  0.8616230427218881
  0.1116248918630163  0.4309479515925858  0.6073738175880976
  0.8991094464061504  0.5484740885240313  0.3654730599314604
  0.7761825875341515  0.4303906867607026  0.0885368741361106
  0.5533724928375463  0.5390782268632819  0.8448899638725038
  0.4317841333804324  0.4145391993562910  0.6164309782778190
  0.2303069582527186  0.8494825369530474  0.3541533918904136
  0.1006500020906600  0.7509531314642359  0.1117442245140126
  0.8890449425711537  0.8714350370191823  0.8509080769669310
  0.7675009722266495  0.7515309599769679  0.6113841856477791
  0.5566087476421941  0.8703188085830931  0.3538502629085585
  0.4581712610786610  0.7369118665586001  0.1167667988875749
  0.2299027685960837  0.8560045329811032  0.8515876589226252
  0.1320952835730367  0.7481990619089132  0.6108341150493075
  0.8875186024535822  0.8748257012109377  0.3502849217241177
  0.7963266486170184  0.7514676946102909  0.1111286499566546
  0.5539250470804404  0.8742170694429632  0.8481752188605753
  0.4348754532831407  0.7815586686251308  0.6085912340618123
 
  0.00000000E+00  0.00000000E+00  0.00000000E+00
  0.00000000E+00  0.00000000E+00  0.00000000E+00
  0.00000000E+00  0.00000000E+00  0.00000000E+00
  0.00000000E+00  0.00000000E+00  0.00000000E+00
  0.00000000E+00  0.00000000E+00  0.00000000E+00
  0.00000000E+00  0.00000000E+00  0.00000000E+00
  0.00000000E+00  0.00000000E+00  0.00000000E+00
  0.00000000E+00  0.00000000E+00  0.00000000E+00
  0.00000000E+00  0.00000000E+00  0.00000000E+00
  0.00000000E+00  0.00000000E+00  0.00000000E+00
  0.00000000E+00  0.00000000E+00  0.00000000E+00
  0.00000000E+00  0.00000000E+00  0.00000000E+00
  0.00000000E+00  0.00000000E+00  0.00000000E+00
  0.00000000E+00  0.00000000E+00  0.00000000E+00
  0.00000000E+00  0.00000000E+00  0.00000000E+00
  0.00000000E+00  0.00000000E+00  0.00000000E+00
  0.00000000E+00  0.00000000E+00  0.00000000E+00
  0.00000000E+00  0.00000000E+00  0.00000000E+00
  0.00000000E+00  0.00000000E+00  0.00000000E+00
  0.00000000E+00  0.00000000E+00  0.00000000E+00
  0.00000000E+00  0.00000000E+00  0.00000000E+00
  0.00000000E+00  0.00000000E+00  0.00000000E+00
  0.00000000E+00  0.00000000E+00  0.00000000E+00
  0.00000000E+00  0.00000000E+00  0.00000000E+00
  0.00000000E+00  0.00000000E+00  0.00000000E+00
  0.00000000E+00  0.00000000E+00  0.00000000E+00
  0.00000000E+00  0.00000000E+00  0.00000000E+00
  0.00000000E+00  0.00000000E+00  0.00000000E+00
  0.00000000E+00  0.00000000E+00  0.00000000E+00
  0.00000000E+00  0.00000000E+00  0.00000000E+00
  0.00000000E+00  0.00000000E+00  0.00000000E+00
  0.00000000E+00  0.00000000E+00  0.00000000E+00
  0.00000000E+00  0.00000000E+00  0.00000000E+00
  0.00000000E+00  0.00000000E+00  0.00000000E+00
  0.00000000E+00  0.00000000E+00  0.00000000E+00
  0.00000000E+00  0.00000000E+00  0.00000000E+00
  0.00000000E+00  0.00000000E+00  0.00000000E+00
  0.00000000E+00  0.00000000E+00  0.00000000E+00
  0.00000000E+00  0.00000000E+00  0.00000000E+00
  0.00000000E+00  0.00000000E+00  0.00000000E+00
  0.00000000E+00  0.00000000E+00  0.00000000E+00
  0.00000000E+00  0.00000000E+00  0.00000000E+00
  0.00000000E+00  0.00000000E+00  0.00000000E+00
  0.00000000E+00  0.00000000E+00  0.00000000E+00
  0.00000000E+00  0.00000000E+00  0.00000000E+00
  0.00000000E+00  0.00000000E+00  0.00000000E+00
  0.00000000E+00  0.00000000E+00  0.00000000E+00
  0.00000000E+00  0.00000000E+00  0.00000000E+00
  0.00000000E+00  0.00000000E+00  0.00000000E+00
  0.00000000E+00  0.00000000E+00  0.00000000E+00
  0.00000000E+00  0.00000000E+00  0.00000000E+00
  0.00000000E+00  0.00000000E+00  0.00000000E+00
  0.00000000E+00  0.00000000E+00  0.00000000E+00
  0.00000000E+00  0.00000000E+00  0.00000000E+00
  0.00000000E+00  0.00000000E+00  0.00000000E+00
  0.00000000E+00  0.00000000E+00  0.00000000E+00
  0.00000000E+00  0.00000000E+00  0.00000000E+00
  0.00000000E+00  0.00000000E+00  0.00000000E+00
  0.00000000E+00  0.00000000E+00  0.00000000E+00
  0.00000000E+00  0.00000000E+00  0.00000000E+00
  0.00000000E+00  0.00000000E+00  0.00000000E+00
  0.00000000E+00  0.00000000E+00  0.00000000E+00
  0.00000000E+00  0.00000000E+00  0.00000000E+00
  0.00000000E+00  0.00000000E+00  0.00000000E+00
  0.00000000E+00  0.00000000E+00  0.00000000E+00
  0.00000000E+00  0.00000000E+00  0.00000000E+00
  0.00000000E+00  0.00000000E+00  0.00000000E+00
  0.00000000E+00  0.00000000E+00  0.00000000E+00
  0.00000000E+00  0.00000000E+00  0.00000000E+00
  0.00000000E+00  0.00000000E+00  0.00000000E+00
  0.00000000E+00  0.00000000E+00  0.00000000E+00
  0.00000000E+00  0.00000000E+00  0.00000000E+00
