Mg   P    N                             
   1.00000000000000     
     0.0000000076028731    0.0000000329283677   -4.7678859509100002
     5.6759479684986669   -0.0000000008701824    0.0000000277189985
     0.0000000019059213   -9.7569268061821699   -0.0000000696951348
   Mg   P    N 
     8     4    12
Direct
  0.0791380020054263  0.3493808549751609  0.1633358535590707
  0.0791380015531751  0.3493808464681400  0.8366632188909745
  0.5791380011684778  0.6813887779012393  0.1633358583472130
  0.5791380000246653  0.6813887863724492  0.8366632145189105
  0.0791379995285446  0.8493808457130699  0.6633358023058460
  0.0791380038499193  0.8493808557357315  0.3366631676121051
  0.5791379987264900  0.1813887870139072  0.6633358069325102
  0.5791380024068524  0.1813887772662126  0.3366631630607933
  0.0963188064138914  0.8532875898891364  1.0000000007995655
  0.5963188130887278  0.1774820403771558  1.0000000005905254
  0.0963188063629614  0.3532875898571449  0.4999990199645853
  0.5963188129806674  0.6774820403240331  0.4999990199407895
  0.9497800130745946  0.1259155163395764  0.9999994315628850
  0.4497800064536836  0.9048541131707949  0.9999994318291310
  0.0237336136767841  0.7118097613776223  0.8590294411850247
  0.0237337983274782  0.7118101315901485  0.1409691052444733
  0.5237336148794295  0.3189598733255707  0.8590294474718851
  0.5237337997162786  0.3189595033915144  0.1409690986165191
  0.0237337985610914  0.2118101310681017  0.3590299159290838
  0.0237336135984764  0.2118097622361774  0.6409695799894275
  0.5237337995697525  0.8189595041840276  0.3590299222907486
  0.5237336145602557  0.8189598727039186  0.6409695735221915
  0.9497800128310810  0.6259155164851838  0.4999995885513763
  0.4497800065125926  0.4048541132452274  0.4999995885983174
 
             NaN             NaN             NaN
             NaN             NaN             NaN
             NaN             NaN             NaN
             NaN             NaN             NaN
             NaN             NaN             NaN
             NaN             NaN             NaN
             NaN             NaN             NaN
             NaN             NaN             NaN
             NaN             NaN             NaN
             NaN             NaN             NaN
             NaN             NaN             NaN
             NaN             NaN             NaN
             NaN             NaN             NaN
             NaN             NaN             NaN
             NaN             NaN             NaN
             NaN             NaN             NaN
             NaN             NaN             NaN
             NaN             NaN             NaN
             NaN             NaN             NaN
             NaN             NaN             NaN
             NaN             NaN             NaN
             NaN             NaN             NaN
             NaN             NaN             NaN
             NaN             NaN             NaN
