Mg   P    N                             
   1.00000000000000     
    -0.1052566088448125    0.0000000329283643   -4.7678859509100002
     5.7020452758036786    0.0000020106153402    0.0000000277190066
    -0.0000019451896196   -9.8108991560211134    0.0000003058719569
   Mg   P    N 
     8     4    12
Direct
  0.0494068320012632  0.3497584459585406  0.1627960748736394
  0.0494068238467689  0.3497585196833370  0.8372032359539198
  0.5405659542056934  0.6806734278266627  0.1623503068815871
  0.5405659295814452  0.6806734143950555  0.8376490236933701
  0.0473725252693823  0.8486694112536314  0.6652357189133565
  0.0473724704916545  0.8486694329440084  0.3347638276016532
  0.5960491379851938  0.1820136584948749  0.6642104844785610
  0.5960491472793081  0.1820137487105425  0.3357891139973452
  0.0202557210048990  0.8535024613570431  0.9999987857088048
  0.5238882547266682  0.1775346206037342  0.9999989519674541
  0.1434321045738634  0.3456005782891625  0.5000004456470575
  0.4861403998828392  0.6860654095680104  0.5000022704994711
  0.1697404209744414  0.1255156081446560  0.9999998771229947
  0.6677564731424466  0.9065353710064143  0.9999999089071341
  0.0903493459207302  0.7119910830060726  0.8601384270452651
  0.0903496825627060  0.7119904301702249  0.1398620516837236
  0.5960030102642891  0.3197914740159443  0.8597996122638920
  0.5960033068346937  0.3197920014446968  0.1402006017930851
  0.0574981314800343  0.2118678671107312  0.3588196985376452
  0.0574984597531490  0.2118684134237543  0.6411791263046080
  0.5688384570298799  0.8177769023148619  0.3581227798590646
  0.5688370138742050  0.8177750576658099  0.6418742558393392
  0.1079267240789628  0.6402715644233797  0.4999994380465402
  0.5064521407134251  0.3891246490995037  0.4999994438087590
 
             NaN             NaN             NaN
             NaN             NaN             NaN
             NaN             NaN             NaN
             NaN             NaN             NaN
             NaN             NaN             NaN
             NaN             NaN             NaN
             NaN             NaN             NaN
             NaN             NaN             NaN
             NaN             NaN             NaN
             NaN             NaN             NaN
             NaN             NaN             NaN
             NaN             NaN             NaN
             NaN             NaN             NaN
             NaN             NaN             NaN
             NaN             NaN             NaN
             NaN             NaN             NaN
             NaN             NaN             NaN
             NaN             NaN             NaN
             NaN             NaN             NaN
             NaN             NaN             NaN
             NaN             NaN             NaN
             NaN             NaN             NaN
             NaN             NaN             NaN
             NaN             NaN             NaN
