Mg   P    N                             
   1.00000000000000     
    -0.0899392691549399    0.0000000329283637   -4.7678859509100002
     5.6953468069418980    0.0000001206386831    0.0000000277190080
     0.0000000664162501   -9.7895400772527221   -0.0000006703323550
   Mg   P    N 
     8     4    12
Direct
  0.0394095291698742  0.3504352977138114  0.1614749985868741
  0.0394095426460839  0.3504352825767340  0.8385245431489349
  0.5343856636256754  0.6814813023582931  0.1640839923447316
  0.5343856927711035  0.6814813526110495  0.8359155852277397
  0.0288729220401756  0.8465532432030622  0.6645024693757715
  0.0288728830458833  0.8465532862094887  0.3354968945853720
  0.5587911882805752  0.1821480640645846  0.6642690841852068
  0.5587910148553228  0.1821480879846494  0.3357302839513068
  0.0167901300692087  0.8531221364662428  0.0000004462797036
  0.5205605283990087  0.1771020915072350  0.0000005425612496
  0.1123722954294912  0.3451529302562465  0.4999979607320431
  0.5042697393150549  0.6794712391795261  0.4999990256732750
  0.1662188061367518  0.1255855704011100  0.9999995770810735
  0.6642099112250671  0.9054866724104338  0.9999995875410099
  0.0883183691653568  0.7120175068549550  0.8596862658821067
  0.0883181039132006  0.7120180385774985  0.1403124954744281
  0.5936364038678689  0.3196001268750304  0.8597287114730623
  0.5936361024813224  0.3195995240544939  0.1402698605091828
  0.0829873420606829  0.2102858195128372  0.3564588916725646
  0.0829869015511588  0.2102844250062295  0.6435423142807796
  0.5828464304391038  0.8208715442012173  0.3589196406941375
  0.5828466978865779  0.8208720783413569  0.6410804725308369
  0.1385928345474463  0.6384201897754869  0.4999999226166336
  0.5762494345559672  0.3981077407690852  0.4999998950202683
 
             NaN             NaN             NaN
             NaN             NaN             NaN
             NaN             NaN             NaN
             NaN             NaN             NaN
             NaN             NaN             NaN
             NaN             NaN             NaN
             NaN             NaN             NaN
             NaN             NaN             NaN
             NaN             NaN             NaN
             NaN             NaN             NaN
             NaN             NaN             NaN
             NaN             NaN             NaN
             NaN             NaN             NaN
             NaN             NaN             NaN
             NaN             NaN             NaN
             NaN             NaN             NaN
             NaN             NaN             NaN
             NaN             NaN             NaN
             NaN             NaN             NaN
             NaN             NaN             NaN
             NaN             NaN             NaN
             NaN             NaN             NaN
             NaN             NaN             NaN
             NaN             NaN             NaN
