Mg   P    N                             
   1.00000000000000     
    -0.0859567303963911    0.0000000329283635   -4.7678859509100002
     5.6938122589994498   -0.0000003103845377    0.0000000277190083
     0.0000008080787793   -9.7883265056423721   -0.0000011836380632
   Mg   P    N 
     8     4    12
Direct
  0.0393578955170346  0.3504010601017919  0.1614663227648881
  0.0393579362675820  0.3504010693650733  0.8385331043259563
  0.5344567797191321  0.6815092408255543  0.1641054465710351
  0.5344568103376164  0.6815092626957644  0.8358940254139022
  0.0293394063227495  0.8465622044585517  0.6645276617539377
  0.0293393526715227  0.8465622450783944  0.3354717788553578
  0.5565072720560520  0.1823572852125868  0.6639481643170783
  0.5565072011304508  0.1823572975279212  0.3360512795188656
  0.0168117754597136  0.8531211400209721  0.9999996111001878
  0.5205869724538129  0.1771090943044142  0.9999995684787676
  0.0810878445933677  0.3466648978183968  0.5000000409785856
  0.5071908230655923  0.6779482340446173  0.4999998523934104
  0.1662286502392805  0.1255919191430090 -0.0000002689454468
  0.6642499874916447  0.9054457426009090 -0.0000002740794769
  0.0884059413492954  0.7119873760532289  0.8596718665268367
  0.0884059881148203  0.7119872655766375  0.1403277248069996
  0.5936307343762539  0.3195688140483645  0.8596897555626539
  0.5936308188241105  0.3195689244131384  0.1403097952452943
  0.0854607451257938  0.2101625172663625  0.3565291455537160
  0.0854612216333395  0.2101627251784650  0.6434700317215211
  0.5832162896005642  0.8210171718919947  0.3589271173396178
  0.5832162191707519  0.8210170591071625  0.6410722313168752
  0.1432366106508659  0.6361801735320229  0.4999997384201943
  0.5976151913066249  0.4000408306453249  0.4999997414875209
 
             NaN             NaN             NaN
             NaN             NaN             NaN
             NaN             NaN             NaN
             NaN             NaN             NaN
             NaN             NaN             NaN
             NaN             NaN             NaN
             NaN             NaN             NaN
             NaN             NaN             NaN
             NaN             NaN             NaN
             NaN             NaN             NaN
             NaN             NaN             NaN
             NaN             NaN             NaN
             NaN             NaN             NaN
             NaN             NaN             NaN
             NaN             NaN             NaN
             NaN             NaN             NaN
             NaN             NaN             NaN
             NaN             NaN             NaN
             NaN             NaN             NaN
             NaN             NaN             NaN
             NaN             NaN             NaN
             NaN             NaN             NaN
             NaN             NaN             NaN
             NaN             NaN             NaN
