Mg   P    N                             
   1.00000000000000     
    -0.0932430626202182    0.0000000329283656   -4.7678859509100002
     5.7015396190534489    0.0000021824096819    0.0000000277190034
     0.0000012395479881   -9.8106380696121960   -0.0000005754525214
   Mg   P    N 
     8     4    12
Direct
  0.0478153100421106  0.3472730200986989  0.1642927348229206
  0.0478153075425084  0.3472730433687782  0.8357065412705603
  0.5839343522277864  0.6836318715599559  0.1637052779265536
  0.5839343446552778  0.6836318494018385  0.8362939853189050
  0.1016625459911271  0.8504221686916597  0.6614897388891342
  0.1016625507945754  0.8504220995192380  0.3385099398549980
  0.5936466729034089  0.1814653338510387  0.6633721083398187
  0.5936466875829407  0.1814653837328971  0.3366275509575501
  0.0998276257637574  0.8457989778758359  0.9999956719063923
  0.5102043507020511  0.1786455883666057  0.9999981907135175
  0.1195035585844756  0.3530179670849486  0.5000013306962519
  0.6223338607405529  0.6771004058991155  0.5000014736257252
  0.1444558163478389  0.1366358165783102  0.0000001401404671
  0.5888099118695944  0.8996208028261788  0.0000001030794503
  0.0802291000420614  0.7107776004611253  0.8567822290180938
  0.0802286199985579  0.7107744321083614  0.1432212065170100
  0.5850853408672188  0.3214539311914696  0.8589731763524354
  0.5850859462187878  0.3214551480677654  0.1410277470424572
  0.0473274635651169  0.2107375923250589  0.3598624339468411
  0.0473281043542764  0.2107388020950903  0.6401353968194150
  0.5523793391442052  0.8188109652647626  0.3600704115526317
  0.5523799853802862  0.8188097026193495  0.6399272385919739
  0.9751179084031282  0.6240694471385176  0.4999993992237335
  0.4733437638682803  0.4052016007839760  0.4999994348215553
 
             NaN             NaN             NaN
             NaN             NaN             NaN
             NaN             NaN             NaN
             NaN             NaN             NaN
             NaN             NaN             NaN
             NaN             NaN             NaN
             NaN             NaN             NaN
             NaN             NaN             NaN
             NaN             NaN             NaN
             NaN             NaN             NaN
             NaN             NaN             NaN
             NaN             NaN             NaN
             NaN             NaN             NaN
             NaN             NaN             NaN
             NaN             NaN             NaN
             NaN             NaN             NaN
             NaN             NaN             NaN
             NaN             NaN             NaN
             NaN             NaN             NaN
             NaN             NaN             NaN
             NaN             NaN             NaN
             NaN             NaN             NaN
             NaN             NaN             NaN
             NaN             NaN             NaN
