Mg   P    N                             
   1.00000000000000     
    -0.0720999100032444    0.0000000329283670   -4.7678859509100002
     5.6877702833208250    0.0000033731632072    0.0000000277190003
    -0.0000043924434389   -9.7815543873042348   -0.0000055585028877
   Mg   P    N 
     8     4    12
Direct
  0.0945799906114750  0.3490477929567997  0.1639121773390672
  0.0945799338245636  0.3490479583027133  0.8360870881540041
  0.6119156604105843  0.6830670092610091  0.1642157566060135
  0.6119156288968276  0.6830671222244418  0.8357836569894026
  0.1085419803478948  0.8493509408341563  0.6638159238980619
  0.1085420285033953  0.8493510116273147  0.3361835197354021
  0.6043148106901602  0.1808677846295516  0.6620219674089419
  0.6043148162096295  0.1808678979712567  0.3379776991092828
  0.1317693692275972  0.8536858246286709 -0.0000013948097935
  0.6162111322553456  0.1792915166837775 -0.0000014108064009
  0.1229240280956783  0.3534682632423081  0.5000010569335805
  0.6260832671856152  0.6775437029402664  0.5000010362403975
  0.9996162443657894  0.1288324234659986  0.9999999054536101
  0.4896838448471291  0.9005011835355049  0.9999998766609509
  0.0582626229468935  0.7110954877009035  0.8590931438947568
  0.0582621548430802  0.7110944826141429  0.1409074740183934
  0.5558165786082097  0.3192407523428398  0.8580205804689346
  0.5558161360879778  0.3192414462758149  0.1419798922787127
  0.0499954960568478  0.2112434876506067  0.3595377924524194
  0.0499960852554826  0.2112444329989294  0.6404605294060866
  0.5543830312044380  0.8187746238294229  0.3595324456848318
  0.5543835396138520  0.8187734852241415  0.6404656080734087
  0.9788125178034039  0.6254169107582398  0.4999995645836761
  0.4770375696981193  0.4051180092118623  0.4999995716544986
 
             NaN             NaN             NaN
             NaN             NaN             NaN
             NaN             NaN             NaN
             NaN             NaN             NaN
             NaN             NaN             NaN
             NaN             NaN             NaN
             NaN             NaN             NaN
             NaN             NaN             NaN
             NaN             NaN             NaN
             NaN             NaN             NaN
             NaN             NaN             NaN
             NaN             NaN             NaN
             NaN             NaN             NaN
             NaN             NaN             NaN
             NaN             NaN             NaN
             NaN             NaN             NaN
             NaN             NaN             NaN
             NaN             NaN             NaN
             NaN             NaN             NaN
             NaN             NaN             NaN
             NaN             NaN             NaN
             NaN             NaN             NaN
             NaN             NaN             NaN
             NaN             NaN             NaN
