Mg   P    N                             
   1.00000000000000     
    -0.0807406319205805    0.0000000329283634   -4.7678859509100002
     5.6916630277663165   -0.0000002300990454    0.0000000277190087
     0.0000006711519433   -9.7860268984040442   -0.0000012914080969
   Mg   P    N 
     8     4    12
Direct
  0.0392359039027323  0.3502350211987689  0.1616107105509534
  0.0392359647394133  0.3502350311406566  0.8383886763806883
  0.5345176760797671  0.6814929220680628  0.1640294181002855
  0.5345177159839382  0.6814929420394978  0.8359700080404310
  0.0300464070302768  0.8469028849756381  0.6644657040007710
  0.0300463468703968  0.8469029197645497  0.3355338048211867
  0.5534753398781789  0.1821902730613181  0.6638857277360561
  0.5534752687285839  0.1821903050753533  0.3361137912494480
  0.0168887027719542  0.8531606587873403 -0.0000010697601773
  0.5205148530539121  0.1771815426295968 -0.0000012165738991
  0.0515447080017185  0.3489189922596293  0.5000001194787657
  0.5094015453622008  0.6773984972359367  0.5000004349025701
  0.1662193149710203  0.1255944127318611  0.9999998178503764
  0.6642862854840995  0.9054024525452919  0.9999998225466538
  0.0885263599809846  0.7119732718625379  0.8596323328343960
  0.0885266567029367  0.7119726280872624  0.1403679099301116
  0.5935245074799399  0.3195543643640078  0.8596420910341170
  0.5935249058106926  0.3195551096263136  0.1403582008511130
  0.0870436713888328  0.2105873461807958  0.3570742194268338
  0.0870438351138162  0.2105876005648859  0.6429248416965773
  0.5838165211570391  0.8206469865413379  0.3589997287497919
  0.5838162426795255  0.8206464764335171  0.6409990399394306
  0.1482492082287004  0.6334688827282374  0.4999996774920391
  0.6202805260772891  0.4009420290082519  0.4999996701497567
 
             NaN             NaN             NaN
             NaN             NaN             NaN
             NaN             NaN             NaN
             NaN             NaN             NaN
             NaN             NaN             NaN
             NaN             NaN             NaN
             NaN             NaN             NaN
             NaN             NaN             NaN
             NaN             NaN             NaN
             NaN             NaN             NaN
             NaN             NaN             NaN
             NaN             NaN             NaN
             NaN             NaN             NaN
             NaN             NaN             NaN
             NaN             NaN             NaN
             NaN             NaN             NaN
             NaN             NaN             NaN
             NaN             NaN             NaN
             NaN             NaN             NaN
             NaN             NaN             NaN
             NaN             NaN             NaN
             NaN             NaN             NaN
             NaN             NaN             NaN
             NaN             NaN             NaN
