Mg   P    N                             
   1.00000000000000     
    -0.0000029116686932    0.0000000329283674   -4.7678859509100002
     5.6759479178962984    0.0000000326529470    0.0000000277189992
     0.0000000570912075   -9.7569292216556214   -0.0000000699445165
   Mg   P    N 
     8     4    12
Direct
  0.0942534117776646  0.3493766727351764  0.1633359943729807
  0.0942534394525586  0.3493766650143399  0.8366633668392969
  0.5942534245798818  0.6813846909009705  0.1633359955197538
  0.5942534515410429  0.6813846990664323  0.8366633658946842
  0.0942534032238958  0.8493766574808266  0.6633358725807823
  0.0942533806527471  0.8493766666810080  0.3366632519962695
  0.5942534001284614  0.1813846950161817  0.6633358760143800
  0.5942533768562126  0.1813846856102108  0.3366632489081222
  0.1114341605762648  0.8532834312175787  1.0000008503386573
  0.6114342213639367  0.1774779220075237  1.0000008503568492
  0.1114340896482112  0.3532834202812305  0.4999983917427288
  0.6114341544350104  0.6774779161487363  0.4999983920848541
  0.9648953890794528  0.1259113217313889  0.9999994011584517
  0.4648953596412617  0.9048499953869120  0.9999994014838967
  0.0388489837888577  0.7118053334785386  0.8590291895267219
  0.0388494552546797  0.7118062887934529  0.1409688337789045
  0.5388490483112780  0.3189559971175236  0.8590292039905834
  0.5388495202631323  0.3189550415874412  0.1409688193747633
  0.0388493967082582  0.2118062780014266  0.3590304083334993
  0.0388489233188939  0.2118053237874658  0.6409700544047923
  0.5388494664663005  0.8189550384944748  0.3590304230297180
  0.5388489933024909  0.8189559927095041  0.6409700389611620
  0.9648953155729162  0.6259113081807579  0.4999998407442838
  0.4648952840617249  0.4048499936291290  0.4999998409211261
 
             NaN             NaN             NaN
             NaN             NaN             NaN
             NaN             NaN             NaN
             NaN             NaN             NaN
             NaN             NaN             NaN
             NaN             NaN             NaN
             NaN             NaN             NaN
             NaN             NaN             NaN
             NaN             NaN             NaN
             NaN             NaN             NaN
             NaN             NaN             NaN
             NaN             NaN             NaN
             NaN             NaN             NaN
             NaN             NaN             NaN
             NaN             NaN             NaN
             NaN             NaN             NaN
             NaN             NaN             NaN
             NaN             NaN             NaN
             NaN             NaN             NaN
             NaN             NaN             NaN
             NaN             NaN             NaN
             NaN             NaN             NaN
             NaN             NaN             NaN
             NaN             NaN             NaN
