Mg   P    N                             
   1.00000000000000     
    -0.0003279863078672    0.0000000329283629   -4.7678859509100002
     5.6759528401697024    0.0000004293541543    0.0000000277190097
     0.0000009714781116   -9.7569645271595888   -0.0000000822207201
   Mg   P    N 
     8     4    12
Direct
  0.0414598555583484  0.3493902857972869  0.1633354397128937
  0.0414598498430684  0.3493903214951353  0.8366639626093028
  0.5414564228672044  0.6813986302080977  0.1633359594932101
  0.5414564192640509  0.6813986007404095  0.8366634484518317
  0.0414486624381180  0.8493895408392229  0.6633363891044051
  0.0414486620339251  0.8493895092768520  0.3366633191757287
  0.5414557334823825  0.1813976654629715  0.6633368812263272
  0.5414557353362508  0.1813977031351423  0.3366628329676527
  0.0242733694646700  0.8532981747875132  0.9999983388716333
  0.5242814039094175  0.1774929022185881  0.9999983368900549
  0.0242614876742967  0.3532975782481622  0.5000012212651190
  0.5242665112787613  0.6774911498011781  0.5000012212851092
  0.1708186984537120  0.1259274947439475 -0.0000000095608699
  0.6708146795297195  0.9048673095495908 -0.0000000099686212
  0.0968560177773091  0.7118225777664164  0.8590313767057908
  0.0968565492306327  0.7118215240494474  0.1409695555721352
  0.5968659004158571  0.3189712082812792  0.8590305145831381
  0.5968664330261092  0.3189722560740502  0.1409704112980159
  0.0968473960210657  0.2118213926391344  0.3590298368196254
  0.0968468720188601  0.2118224393743243  0.6409683537135608
  0.5968532391094880  0.8189701674755049  0.3590290483439245
  0.5968527154613152  0.8189691134741458  0.6409691343655664
  0.1708027765322508  0.6259282089209335  0.4999995690297117
  0.6708006083864155  0.4048649821790439  0.4999995687387092
 
             NaN             NaN             NaN
             NaN             NaN             NaN
             NaN             NaN             NaN
             NaN             NaN             NaN
             NaN             NaN             NaN
             NaN             NaN             NaN
             NaN             NaN             NaN
             NaN             NaN             NaN
             NaN             NaN             NaN
             NaN             NaN             NaN
             NaN             NaN             NaN
             NaN             NaN             NaN
             NaN             NaN             NaN
             NaN             NaN             NaN
             NaN             NaN             NaN
             NaN             NaN             NaN
             NaN             NaN             NaN
             NaN             NaN             NaN
             NaN             NaN             NaN
             NaN             NaN             NaN
             NaN             NaN             NaN
             NaN             NaN             NaN
             NaN             NaN             NaN
             NaN             NaN             NaN
