Mg   P    N                             
   1.00000000000000     
    -0.0003105942029545    0.0000000329283673   -4.7678859509100002
     5.6759526338992901    0.0000001149928054    0.0000000277189996
     0.0000006527096506   -9.7569626775554621   -0.0000001094572301
   Mg   P    N 
     8     4    12
Direct
  0.1018273061691047  0.3493711876578448  0.1633366434489029
  0.1018273117557996  0.3493712047117587  0.8366626940253852
  0.6018340807342649  0.6813793823746088  0.1633361973289967
  0.6018340847047420  0.6813793712250912  0.8366631490546651
  0.1018270277710289  0.8493703523641426  0.6633359643403632
  0.1018270232880246  0.8493703426082051  0.3366633971029599
  0.6018239351073872  0.1813786086022587  0.6633354376347526
  0.6018239281920491  0.1813786225504515  0.3366639336971490
  0.1190158264772945  0.8532777886916239 -0.0000003953841992
  0.6190205365203716  0.1774713479951310 -0.0000003961288161
  0.1190023002474010  0.3532761904760600  0.4999997480917941
  0.6190098956154201  0.6774707708002609  0.4999997492822496
  0.9724817407885943  0.1259040877028565  0.9999996483080215
  0.4724796139546177  0.9048408094350237  0.9999996468794961
  0.0464296022974661  0.7117992778546847  0.8590296512281392
  0.0464295979040535  0.7117992758177349  0.1409697061593858
  0.5464351785275150  0.3189471176192105  0.8590303735581839
  0.5464351762719856  0.3189471087029017  0.1409689720005206
  0.0464176382242481  0.2117973829505545  0.3590297423536341
  0.0464176438323823  0.2117973742908208  0.6409696211681267
  0.5464269371148114  0.8189469871517804  0.3590305601366544
  0.5464269480043504  0.8189469845636626  0.6409687910755449
  0.9724688571677664  0.6259018963980514  0.4999997059088466
  0.4724650899663459  0.4048415216106044  0.4999997048951463
 
             NaN             NaN             NaN
             NaN             NaN             NaN
             NaN             NaN             NaN
             NaN             NaN             NaN
             NaN             NaN             NaN
             NaN             NaN             NaN
             NaN             NaN             NaN
             NaN             NaN             NaN
             NaN             NaN             NaN
             NaN             NaN             NaN
             NaN             NaN             NaN
             NaN             NaN             NaN
             NaN             NaN             NaN
             NaN             NaN             NaN
             NaN             NaN             NaN
             NaN             NaN             NaN
             NaN             NaN             NaN
             NaN             NaN             NaN
             NaN             NaN             NaN
             NaN             NaN             NaN
             NaN             NaN             NaN
             NaN             NaN             NaN
             NaN             NaN             NaN
             NaN             NaN             NaN
