Mg   P    N 
   1.00000000000000     
  -0.0000000238176128   0.0000000329283623  -4.7678859509100002
   5.6760184847200001   0.0000001443667088   0.0000000277190111
  -0.0000002488038007  -9.7582056326500002   0.0000000683777763
Mg   P    N 
8  4  12  
Direct
  0.0715668960586271  0.3493662545490324  0.1633307506869883  
  0.0715668926232098  0.3493662822609380  0.8366691871328200  
  0.5715668843169865  0.6814029498383718  0.1633307565656494  
  0.5715668971383181  0.6814029283637950  0.8366691597805342  
  0.0715669057975745  0.8493663029597300  0.6633307915213038  
  0.0715668980008033  0.8493662796229486  0.3366692923413552  
  0.5715668970503671  0.1814029814739584  0.6633307701888000  
  0.5715669120791205  0.1814030013054122  0.3366692991017146  
  0.0543605722490526  0.8533229122249395  0.9999992903121324  
  0.5543605613441613  0.1774461922088548  0.9999992768061644  
  0.0543607053021447  0.3533233420702757  0.5000006884421211  
  0.5543607123157912  0.6774461428683054  0.5000006710534137  
  0.2009899006135356  0.1258514652977425  0.0000002057658435  
  0.7009898915605390  0.9049177298720892  0.0000001988654006  
  0.1269154916616770  0.7118700864415501  0.8590681740348884  
  0.1269152387975083  0.7118695438641609  0.1409326114898093  
  0.6269155206272146  0.3188991000480499  0.8590681731192973  
  0.6269152436676251  0.3188996444015046  0.1409326419064030  
  0.1269151950147176  0.2118694563923214  0.3590673084092444  
  0.1269154847823160  0.2118699773545316  0.6409319174136172  
  0.6269152160385119  0.8188998262797114  0.3590673257382875  
  0.6269154594866890  0.8188993112648291  0.6409319209761932  
  0.2009899337207699  0.6258514566423869  0.4999997988092275  
  0.7009898300244544  0.4049177554714873  0.4999997895387978  
