Mg   P    N                             
   1.00000000000000     
    -0.0808133628708846    0.0000000329283668   -4.7678859509100002
     5.6917587883329182    0.0000012651572836    0.0000000277190006
    -0.0000007642018380   -9.7862497624528739   -0.0000009899053224
   Mg   P    N 
     8     4    12
Direct
  0.0894975257023758  0.3485840138998026  0.1638934893667254
  0.0894974979517893  0.3485840927953241  0.8361060211233167
  0.6131364112241707  0.6838729033042397  0.1644724712496273
  0.6131363975068521  0.6838729561678117  0.8355270061503848
  0.1086278655038466  0.8492828752022287  0.6640339666517959
  0.1086278602706630  0.8492829122898048  0.3359654451035780
  0.6039045079878712  0.1805139357912945  0.6616027688657153
  0.6039045062665713  0.1805139848590557  0.3383966777462942
  0.1338468880845079  0.8533660585174772  0.9999999354596273
  0.5901473817746528  0.1819599276012077  1.0000002600676199
  0.1226294502957182  0.3535960696253994  0.4999993125245746
  0.6262589040773148  0.6776057121575473  0.4999991789054314
  0.0241434806902714  0.1298952919558531 -0.0000003203664704
  0.4951611970317381  0.8971239771229730 -0.0000003066517130
  0.0593446779129086  0.7101138578216603  0.8589945888731297
  0.0593447774784409  0.7101140154367896  0.1410047029650400
  0.5561473665154109  0.3201988026380998  0.8570356132060155
  0.5561475847042716  0.3201983807238841  0.1429633310292449
  0.0496126361997067  0.2112202639694111  0.3596466259624043
  0.0496125095260824  0.2112199610404102  0.6403532512728229
  0.5546181443159565  0.8187873760819776  0.3596343349026021
  0.5546179037166730  0.8187878323991912  0.6403655768145950
  0.9788623978909895  0.6253701703133164  0.4999997496474508
  0.4769305949612100  0.4051681791959226  0.4999997805584162
 
             NaN             NaN             NaN
             NaN             NaN             NaN
             NaN             NaN             NaN
             NaN             NaN             NaN
             NaN             NaN             NaN
             NaN             NaN             NaN
             NaN             NaN             NaN
             NaN             NaN             NaN
             NaN             NaN             NaN
             NaN             NaN             NaN
             NaN             NaN             NaN
             NaN             NaN             NaN
             NaN             NaN             NaN
             NaN             NaN             NaN
             NaN             NaN             NaN
             NaN             NaN             NaN
             NaN             NaN             NaN
             NaN             NaN             NaN
             NaN             NaN             NaN
             NaN             NaN             NaN
             NaN             NaN             NaN
             NaN             NaN             NaN
             NaN             NaN             NaN
             NaN             NaN             NaN
