Mg   P    N                             
   1.00000000000000     
    -0.0945145672430208    0.0000000329283664   -4.7678859509100002
     5.6968567447360794   -0.0000031845375918    0.0000000277190017
     0.0000068852925466   -9.7916733402549543    0.0000001985950277
   Mg   P    N 
     8     4    12
Direct
  0.0802920683847252  0.3497942782202472  0.1653233773108095
  0.0802920082314089  0.3497943541740341  0.8346760711608868
  0.6144564431329289  0.6835457371815434  0.1644223797846560
  0.6144564253963583  0.6835458221872333  0.8355772119770346
  0.1088788646455927  0.8495200384975573  0.6638569360633068
  0.1088788829743109  0.8495200887177816  0.3361423541231960
  0.6032679053172020  0.1804272506370828  0.6617962784371479
  0.6032678790632688  0.1804272987822637  0.3382032075869958
  0.1436365559505146  0.8479052423926695  0.0000005679189387
  0.5014428769265373  0.1857617230991008 -0.0000001002621213
  0.1225919725386537  0.3536277278270989  0.4999988918173222
  0.6262671161924976  0.6775591493968026  0.4999988078281546
  0.0933255844087689  0.1366759746945836  0.9999995928268341
  0.5080764053650597  0.8899747342709986  0.9999995462828600
  0.0599879246750188  0.7110724401433866  0.8588660137211396
  0.0599883250438790  0.7110729360216410  0.1411325072541779
  0.5622306614725409  0.3196393817688556  0.8570075333280913
  0.5622306906926344  0.3196390735833692  0.1429915752529993
  0.0492680488802323  0.2110857445158799  0.3598543039699477
  0.0492676638318870  0.2110848526346876  0.6401461718721427
  0.5549085331363035  0.8186056976493806  0.3596814450723125
  0.5549081839217092  0.8186064121580835  0.6403189115511756
  0.9789720138232098  0.6252259918293607  0.4999999561298354
  0.4768654335847533  0.4051216005270362  0.4999999204203934
 
             NaN             NaN             NaN
             NaN             NaN             NaN
             NaN             NaN             NaN
             NaN             NaN             NaN
             NaN             NaN             NaN
             NaN             NaN             NaN
             NaN             NaN             NaN
             NaN             NaN             NaN
             NaN             NaN             NaN
             NaN             NaN             NaN
             NaN             NaN             NaN
             NaN             NaN             NaN
             NaN             NaN             NaN
             NaN             NaN             NaN
             NaN             NaN             NaN
             NaN             NaN             NaN
             NaN             NaN             NaN
             NaN             NaN             NaN
             NaN             NaN             NaN
             NaN             NaN             NaN
             NaN             NaN             NaN
             NaN             NaN             NaN
             NaN             NaN             NaN
             NaN             NaN             NaN
