Mg   P    N                             
   1.00000000000000     
    -0.0539115671715044    0.0000000329283652   -4.7678859509100002
     5.6909675024525921    0.0000015067456341    0.0000000277190045
     0.0000024756913888   -9.7993615390745941    0.0000000063219777
   Mg   P    N 
     8     4    12
Direct
  0.0503835237585095  0.3492958483945715  0.1633222165688059
  0.0503835211102216  0.3492958320128385  0.8366772779421261
  0.5618760564958430  0.6814057578940296  0.1638224868698003
  0.5618760448808148  0.6814057540287032  0.8361769963726708
  0.0981808077683858  0.8496836188360795  0.6626040393620376
  0.0981808064708236  0.8496836207140414  0.3373953877221109
  0.5944812694529179  0.1811588079036068  0.6628275521539830
  0.5944812674893504  0.1811587937839287  0.3371718608355794
  0.0207041737805905  0.8535906769813363  1.0000001945401711
  0.5192125292975149  0.1774065203963242  1.0000000239340490
  0.1195869574701141  0.3531514350792018  0.4999994225751087
  0.6214709167567144  0.6772098262027865  0.4999993921300095
  0.1644838614807525  0.1265502780460242  0.9999996739312692
  0.6626302066401420  0.9055388039937703  0.9999996729744297
  0.0873821581289003  0.7121824805907833  0.8590303233625811
  0.0873820141241929  0.7121828487738403  0.1409686835039950
  0.5899703949480223  0.3191598433004708  0.8592152024510037
  0.5899702826309119  0.3191596247189679  0.1407839795574726
  0.0481655474778823  0.2111542575600313  0.3595775962429448
  0.0481654318862865  0.2111540363844777  0.6404221411285741
  0.5505876832565013  0.8189294073235135  0.3598514646493128
  0.5505875526944048  0.8189296638128977  0.6401483228590487
  0.9742886975211994  0.6245537325334558  0.4999997768748166
  0.4733267620714987  0.4052920816449185  0.4999997728865023
 
             NaN             NaN             NaN
             NaN             NaN             NaN
             NaN             NaN             NaN
             NaN             NaN             NaN
             NaN             NaN             NaN
             NaN             NaN             NaN
             NaN             NaN             NaN
             NaN             NaN             NaN
             NaN             NaN             NaN
             NaN             NaN             NaN
             NaN             NaN             NaN
             NaN             NaN             NaN
             NaN             NaN             NaN
             NaN             NaN             NaN
             NaN             NaN             NaN
             NaN             NaN             NaN
             NaN             NaN             NaN
             NaN             NaN             NaN
             NaN             NaN             NaN
             NaN             NaN             NaN
             NaN             NaN             NaN
             NaN             NaN             NaN
             NaN             NaN             NaN
             NaN             NaN             NaN
