Mg   P    N                             
   1.00000000000000     
     0.0000000797186401    0.0000000329283626   -4.7678859509100002
     5.6759480565966820    0.0000000409390483    0.0000000277190104
     0.0000000728092729   -9.7569286572627032   -0.0000000587063181
   Mg   P    N 
     8     4    12
Direct
  0.0565341173646214  0.3493809225907425  0.1633362018192536
  0.0565341335030222  0.3493809127143723  0.8366635935759571
  0.5565341158674035  0.6813890413969794  0.1633361958441608
  0.5565341326760992  0.6813890508950685  0.8366635998935473
  0.0565341356781561  0.8493809137069906  0.6633361856936967
  0.0565341149896411  0.8493809216079210  0.3366635774453346
  0.5565341342771016  0.1813890498508742  0.6633361795444745
  0.5565341140999854  0.1813890424773101  0.3366635835769303
  0.0393534445230460  0.8532876913649031  0.9999999829355368
  0.5393534432665589  0.1774822939847059  0.9999999827987247
  0.0393534444263754  0.3532876913427102  0.4999997972220731
  0.5393534430718903  0.6774822939630334  0.4999997971225162
  0.1858924467453972  0.1259155232819577 -0.0000001173962040
  0.6858924434689002  0.9048544653470700 -0.0000001172410484
  0.1119383809344411  0.7118100277311399  0.8590300244973726
  0.1119383580892268  0.7118100867229424  0.1409696689285513
  0.6119383710659142  0.3189599287353128  0.8590300196801892
  0.6119383481065721  0.3189598702696750  0.1409696733496501
  0.1119383535698142  0.2118100870552242  0.3590301105375814
  0.1119383853105811  0.2118100274231706  0.6409697549874719
  0.6119383434012463  0.8189598700066513  0.3590301058997729
  0.6119383753103463  0.8189599290314756  0.6409697595829463
  0.1858924465948520  0.6259155232345303  0.4999998977035919
  0.6858924432965453  0.4048544653142252  0.4999998977070853
 
             NaN             NaN             NaN
             NaN             NaN             NaN
             NaN             NaN             NaN
             NaN             NaN             NaN
             NaN             NaN             NaN
             NaN             NaN             NaN
             NaN             NaN             NaN
             NaN             NaN             NaN
             NaN             NaN             NaN
             NaN             NaN             NaN
             NaN             NaN             NaN
             NaN             NaN             NaN
             NaN             NaN             NaN
             NaN             NaN             NaN
             NaN             NaN             NaN
             NaN             NaN             NaN
             NaN             NaN             NaN
             NaN             NaN             NaN
             NaN             NaN             NaN
             NaN             NaN             NaN
             NaN             NaN             NaN
             NaN             NaN             NaN
             NaN             NaN             NaN
             NaN             NaN             NaN
