Mg   P    N                             
   1.00000000000000     
     0.0000000252744526    0.0000000329283676   -4.7678859509100002
     5.6759478083253070   -0.0000000046492133    0.0000000277189989
    -0.0000000048672518   -9.7569280182395453   -0.0000000631211291
   Mg   P    N 
     8     4    12
Direct
  0.0866893606032837  0.3493803997082900  0.1633358665941845
  0.0866893712321591  0.3493804032910218  0.8366632477340121
  0.5866893614784483  0.6813884315968390  0.1633358676359839
  0.5866893713248025  0.6813884281216597  0.8366632471449115
  0.0866893705003527  0.8493804024592184  0.6633358842598474
  0.0866893608704816  0.8493804010735991  0.3366632653060803
  0.5866893714876940  0.1813884294317805  0.6633358850045418
  0.5866893612297049  0.1813884309213575  0.3366632646795080
  0.1038698846423101  0.8532871409709279  0.9999994408032307
  0.6038698909396896  0.1774816893201639  0.9999994406780820
  0.1038698845811954  0.3532871419546380  0.4999996905695394
  0.6038698906933264  0.6774816899426321  0.4999996905083325
  0.9573310724373130  0.1259150650981455  0.9999996225296585
  0.4573310697509159  0.9048537615372017  0.9999996229150678
  0.0312849198482158  0.7118096362971628  0.8590298568842385
  0.0312848755694941  0.7118095079289508  0.1409694710239353
  0.5312849219340885  0.3189591962936490  0.8590298631653440
  0.5312848781433467  0.3189593248916482  0.1409694646269952
  0.0312848736488643  0.2118095080004081  0.3590296608558042
  0.0312849220483420  0.2118096371595913  0.6409692752325684
  0.5312848753014127  0.8189593258286806  0.3590296672254987
  0.5312849236284790  0.8189591965359613  0.6409692688041758
  0.9573310721222608  0.6259150656333606  0.4999995082083045
  0.4573310695866191  0.4048537620495547  0.4999995082641086
 
             NaN             NaN             NaN
             NaN             NaN             NaN
             NaN             NaN             NaN
             NaN             NaN             NaN
             NaN             NaN             NaN
             NaN             NaN             NaN
             NaN             NaN             NaN
             NaN             NaN             NaN
             NaN             NaN             NaN
             NaN             NaN             NaN
             NaN             NaN             NaN
             NaN             NaN             NaN
             NaN             NaN             NaN
             NaN             NaN             NaN
             NaN             NaN             NaN
             NaN             NaN             NaN
             NaN             NaN             NaN
             NaN             NaN             NaN
             NaN             NaN             NaN
             NaN             NaN             NaN
             NaN             NaN             NaN
             NaN             NaN             NaN
             NaN             NaN             NaN
             NaN             NaN             NaN
