supercell of 100% icsd_608626.cif, 0% i 
   1.00000000000000     
    -9.4154390095200142   -0.0010658547882862    0.0016513150834086
    -4.7067961680157575    8.1446091058588959    0.0076939756703412
     0.0017425181448624   -0.0085245460789099   -9.8973080105888656
   Al   Be   Ti   N 
    28     4     4    36
Direct
  0.1103308227471942  0.0965122802608036  0.2973827689330548
  0.2247420335784014  0.2030638539242133  0.0387795079710145
  0.7719148654252947  0.0995895805395008  0.7987873205907974
  0.8953799157699294  0.2039098556378178  0.5464391098214918
  0.4430043573148978  0.0972477693502540  0.2959119436448674
  0.5503460212163418  0.2050099560167595  0.0398948900580933
  0.1165240328722987  0.0878625604548446  0.7923868672847192
  0.2259789128501950  0.1969276637643063  0.5509283062224384
  0.7773303585213256  0.0948755117113009  0.2979822508287242
  0.8914936045599049  0.2067539694443639  0.0427994440619983
  0.5526927226488354  0.2028779082221419  0.5487103491447769
  0.1106834974179165  0.4259212968832173  0.2946415974251337
  0.2228114079900791  0.5380959611390352  0.0378855379821843
  0.7782551132693598  0.4311210340397622  0.7963103324904992
  0.8861425346368677  0.5377149347382044  0.5485703826983936
  0.4451839568724481  0.4238909088741778  0.2936805782700986
  0.5560942968160845  0.5384828127468069  0.0430010021402154
  0.1090749133426954  0.4277986383760890  0.8000424951499525
  0.7813021448847479  0.4250927964030566  0.2945284622543412
  0.8879637440587373  0.5384407332335712  0.0400075137375353
  0.4445288172955628  0.4257844683379730  0.8007063830506951
  0.5572127783747618  0.5409765881871351  0.5500809452783031
  0.1097422219857691  0.7626831195141932  0.3010898034936318
  0.2218586052158784  0.8732463433725073  0.0413286648004743
  0.5532511187949609  0.8760915888707999  0.0325269287386618
  0.7787219997095534  0.7608835812833235  0.2991551130796068
  0.4401461553003401  0.7664824686519296  0.7911296209125638
  0.5505084456280329  0.8769768041517167  0.5606650701444238
  0.4457286690823068  0.0917624882260242  0.7917728768387562
  0.7679699162641000  0.7575815800630821  0.7937058527491416
  0.1218096559313580  0.7601292201504606  0.7959805524334982
  0.2247125752929904  0.8784914952351386  0.5476842387138205
  0.2233859314804931  0.5412371908282836  0.5591812477168645
  0.8913852972392746  0.8706111752846510  0.5693428630274724
  0.4420619331121642  0.7641991703307696  0.3074062456094495
  0.8906874810701240  0.8681101053023497  0.0317703471243220
  0.2223636709842367  0.2060564616267655  0.3554692874986500
  0.1117046586366968  0.0941131377260902  0.1046087545415304
  0.8894079997140665  0.2063835652431720  0.8521309170757903
  0.7733586454497825  0.1042768337657449  0.6050026048870123
  0.5558778880581556  0.2053350551346753  0.3547604622255420
  0.4444680586759162  0.0930449585309177  0.1051150658746920
  0.2268494168508823  0.2020513995616682  0.8491515949565169
  0.1153072504209760  0.0854451998880705  0.6001339097821585
  0.8885052192220968  0.2053003229518922  0.3531785461346431
  0.7763728561076775  0.0960485190509459  0.1023347385048581
  0.5511218265333540  0.2032947032193135  0.8513117160167241
  0.4436666276486605  0.0971859084496103  0.6093217518980936
  0.2226682864016425  0.5384313031861581  0.3566222597326174
  0.1111815034051062  0.4284565563429794  0.1015135029372587
  0.8840973335076967  0.5469182271272075  0.8507432160644015
  0.7784627759204241  0.4261866503786891  0.6032098896395297
  0.5592096540877520  0.5308493340208216  0.3550280953033607
  0.4434643380030963  0.4279868233572159  0.1020368076618183
  0.2186314720883615  0.5464212606132435  0.8455356480640432
  0.1076426593740578  0.4243061121746834  0.6045339274541348
  0.8887360449686312  0.5388608312386154  0.3546367375991295
  0.7774622103086415  0.4281056401125554  0.1032541850918065
  0.5546387524536271  0.5404904806230419  0.8519350641505383
  0.4531140391921440  0.4239461377161504  0.6057242356324082
  0.2152886466520840  0.8763299830961273  0.3596544279825977
  0.1150606041502300  0.7580923114006879  0.1073975303261534
  0.8928060052047400  0.8687065119079733  0.8387576579628586
  0.7749616214223352  0.7560733704836622  0.6099934762393744
  0.5590544523165875  0.8772289245425711  0.3606624553650164
  0.4447984057595136  0.7621476370522942  0.1066362336932016
  0.2197620843159527  0.8669483756055172  0.8531672558865964
  0.1222361384344026  0.7675534998076685  0.6086517390256176
  0.8885834907858197  0.8722520991072358  0.3607563754480125
  0.7740101246495712  0.7604198778241695  0.1055887919922327
  0.5576115978224152  0.8739986653090739  0.8437862547489630
  0.4365527819014332  0.7643159082722661  0.5954574681800224
 
  0.00000000E+00  0.00000000E+00  0.00000000E+00
  0.00000000E+00  0.00000000E+00  0.00000000E+00
  0.00000000E+00  0.00000000E+00  0.00000000E+00
  0.00000000E+00  0.00000000E+00  0.00000000E+00
  0.00000000E+00  0.00000000E+00  0.00000000E+00
  0.00000000E+00  0.00000000E+00  0.00000000E+00
  0.00000000E+00  0.00000000E+00  0.00000000E+00
  0.00000000E+00  0.00000000E+00  0.00000000E+00
  0.00000000E+00  0.00000000E+00  0.00000000E+00
  0.00000000E+00  0.00000000E+00  0.00000000E+00
  0.00000000E+00  0.00000000E+00  0.00000000E+00
  0.00000000E+00  0.00000000E+00  0.00000000E+00
  0.00000000E+00  0.00000000E+00  0.00000000E+00
  0.00000000E+00  0.00000000E+00  0.00000000E+00
  0.00000000E+00  0.00000000E+00  0.00000000E+00
  0.00000000E+00  0.00000000E+00  0.00000000E+00
  0.00000000E+00  0.00000000E+00  0.00000000E+00
  0.00000000E+00  0.00000000E+00  0.00000000E+00
  0.00000000E+00  0.00000000E+00  0.00000000E+00
  0.00000000E+00  0.00000000E+00  0.00000000E+00
  0.00000000E+00  0.00000000E+00  0.00000000E+00
  0.00000000E+00  0.00000000E+00  0.00000000E+00
  0.00000000E+00  0.00000000E+00  0.00000000E+00
  0.00000000E+00  0.00000000E+00  0.00000000E+00
  0.00000000E+00  0.00000000E+00  0.00000000E+00
  0.00000000E+00  0.00000000E+00  0.00000000E+00
  0.00000000E+00  0.00000000E+00  0.00000000E+00
  0.00000000E+00  0.00000000E+00  0.00000000E+00
  0.00000000E+00  0.00000000E+00  0.00000000E+00
  0.00000000E+00  0.00000000E+00  0.00000000E+00
  0.00000000E+00  0.00000000E+00  0.00000000E+00
  0.00000000E+00  0.00000000E+00  0.00000000E+00
  0.00000000E+00  0.00000000E+00  0.00000000E+00
  0.00000000E+00  0.00000000E+00  0.00000000E+00
  0.00000000E+00  0.00000000E+00  0.00000000E+00
  0.00000000E+00  0.00000000E+00  0.00000000E+00
  0.00000000E+00  0.00000000E+00  0.00000000E+00
  0.00000000E+00  0.00000000E+00  0.00000000E+00
  0.00000000E+00  0.00000000E+00  0.00000000E+00
  0.00000000E+00  0.00000000E+00  0.00000000E+00
  0.00000000E+00  0.00000000E+00  0.00000000E+00
  0.00000000E+00  0.00000000E+00  0.00000000E+00
  0.00000000E+00  0.00000000E+00  0.00000000E+00
  0.00000000E+00  0.00000000E+00  0.00000000E+00
  0.00000000E+00  0.00000000E+00  0.00000000E+00
  0.00000000E+00  0.00000000E+00  0.00000000E+00
  0.00000000E+00  0.00000000E+00  0.00000000E+00
  0.00000000E+00  0.00000000E+00  0.00000000E+00
  0.00000000E+00  0.00000000E+00  0.00000000E+00
  0.00000000E+00  0.00000000E+00  0.00000000E+00
  0.00000000E+00  0.00000000E+00  0.00000000E+00
  0.00000000E+00  0.00000000E+00  0.00000000E+00
  0.00000000E+00  0.00000000E+00  0.00000000E+00
  0.00000000E+00  0.00000000E+00  0.00000000E+00
  0.00000000E+00  0.00000000E+00  0.00000000E+00
  0.00000000E+00  0.00000000E+00  0.00000000E+00
  0.00000000E+00  0.00000000E+00  0.00000000E+00
  0.00000000E+00  0.00000000E+00  0.00000000E+00
  0.00000000E+00  0.00000000E+00  0.00000000E+00
  0.00000000E+00  0.00000000E+00  0.00000000E+00
  0.00000000E+00  0.00000000E+00  0.00000000E+00
  0.00000000E+00  0.00000000E+00  0.00000000E+00
  0.00000000E+00  0.00000000E+00  0.00000000E+00
  0.00000000E+00  0.00000000E+00  0.00000000E+00
  0.00000000E+00  0.00000000E+00  0.00000000E+00
  0.00000000E+00  0.00000000E+00  0.00000000E+00
  0.00000000E+00  0.00000000E+00  0.00000000E+00
  0.00000000E+00  0.00000000E+00  0.00000000E+00
  0.00000000E+00  0.00000000E+00  0.00000000E+00
  0.00000000E+00  0.00000000E+00  0.00000000E+00
  0.00000000E+00  0.00000000E+00  0.00000000E+00
  0.00000000E+00  0.00000000E+00  0.00000000E+00
