supercell of 100% icsd_608626.cif, 0% i 
   1.00000000000000     
    -9.4016234981609994   -0.0051229908146159    0.0018581687332343
    -4.6963743043513810    8.1422549642778783    0.0084189872786722
     0.0020130952905026   -0.0092341021366057   -9.9484485450875511
   Al   Ti   Be   N 
    28     4     4    36
Direct
  0.1092593019946619  0.0905249009170461  0.2937870765384645
  0.2242071042668314  0.2022796680085861  0.0458128959319524
  0.7822631712759787  0.0915300928251455  0.7961416898864613
  0.8846919549960290  0.2065900865802774  0.5383062313277449
  0.4505980567595458  0.0824953594243993  0.2969787410460327
  0.5568549734629187  0.2015393507387770  0.0497130445274578
  0.1132972814910573  0.0883789594283684  0.8009034109415296
  0.7788191725335594  0.0969479861039702  0.2944408689686355
  0.8878879525105674  0.2083038351698150  0.0501893721672246
  0.4483737130661538  0.0822512225805383  0.7959613386642062
  0.5614547937179637  0.1983483592865056  0.5414469188405064
  0.1074981752498942  0.4273668438391667  0.2911353517932653
  0.2206053252780151  0.5415016970936151  0.0499481126681758
  0.7764881347139436  0.4283360634558377  0.8007845830768474
  0.4546106268665611  0.4291204750093769  0.2930570323753301
  0.5571819010255936  0.5455353456126346  0.0571040280253001
  0.1072490789004021  0.4279945283517108  0.8056762136916973
  0.8837416078523717  0.5395882845555988  0.0504172621539851
  0.5553246631652442  0.5536453936800569  0.5353636548380365
  0.1114512877899401  0.7685608325578812  0.2936439407273852
  0.2306970525011991  0.8684961949676762  0.0457111850872138
  0.7683731732878840  0.7641896430559783  0.7963482615687454
  0.8825761923936355  0.8766960420093923  0.5418446986917544
  0.5520714312650483  0.8677048874982631  0.0463320626763348
  0.1105724419968652  0.7691064816617939  0.7997332107843746
  0.2362485364828046  0.8681807738165261  0.5417017033222606
  0.7664583113568071  0.7648299060414061  0.2967498340987902
  0.8874969358525391  0.8714673415047685  0.0462219436198694
  0.2286469299192504  0.1964497680225250  0.5489357655110680
  0.8776990473969093  0.5453603217582099  0.5433364221315813
  0.2243971104572253  0.5434520870149342  0.5457848684523867
  0.4492470554638643  0.4313628398885072  0.8057878901030477
  0.7686772722475936  0.4265533857540760  0.2895776506650733
  0.4507041308906992  0.7594666729647699  0.2937331807998760
  0.4427702037226524  0.7719262473354647  0.7872140036905080
  0.5497186423083065  0.8638043928245551  0.5353650196612847
  0.2222592154334180  0.2059556219126293  0.3533106422346535
  0.1121483275830997  0.0937245084268170  0.1023315749667120
  0.8894863031588116  0.2051682179779064  0.8557501870686863
  0.7782892075893670  0.0949138026469001  0.6042777628362046
  0.5545973611022745  0.2056151555435477  0.3518789071180137
  0.4442461869230740  0.0930209950716403  0.1045723723299403
  0.2235759257401213  0.2046992657229652  0.8510835475695586
  0.1067734338871134  0.0913637124734805  0.6058351579924235
  0.8859374328491043  0.2120129023633268  0.3499023030533905
  0.7781896705863431  0.0935838387615107  0.1032732455392775
  0.5590591035422321  0.1980758921203147  0.8549435686818470
  0.4524786802396719  0.0872032131102145  0.6032981196192253
  0.2231992837286114  0.5385723728958212  0.3507232106929123
  0.1111919775747197  0.4271114647409888  0.1011342106670057
  0.8868247102840812  0.5402473524318054  0.8546353329825749
  0.7730948408817540  0.4246941146178926  0.6081384446867304
  0.5614082874219406  0.5408750570010170  0.3476352414233261
  0.4443044255084345  0.4271005574287940  0.0993033420200859
  0.2155120932513555  0.5440039540450172  0.8541583476103867
  0.1104278308518261  0.4296526879284741  0.6098757007610658
  0.8880095794112179  0.5380216633055213  0.3515388655425227
  0.7786038119643379  0.4269592886452145  0.1098476416281429
  0.5565699971213576  0.5458404086349304  0.8596038700975299
  0.4529403394607456  0.4257159503770609  0.6039931261252960
  0.2268553508595801  0.8707312221975059  0.3531379206885035
  0.1105528585464910  0.7623624755020799  0.1025903720996553
  0.8878827603821904  0.8708911014873593  0.8529562394542509
  0.7693400444025897  0.7689624827120340  0.6024996361418502
  0.5506793629568421  0.8676903653160153  0.3597224544186162
  0.4437404584719928  0.7624572921073138  0.1140778951301655
  0.2307042562318458  0.8682250918492258  0.8529899806649794
  0.1080564659159222  0.7680307210173538  0.6046168604890383
  0.8879110746271976  0.8725087474713717  0.3521707292974980
  0.7762972314395071  0.7617691590449382  0.1044476542562904
  0.5509721128872371  0.8671071746117107  0.8554137029199254
  0.4496672527230601  0.7652458971611509  0.6091423621372627
 
  0.00000000E+00  0.00000000E+00  0.00000000E+00
  0.00000000E+00  0.00000000E+00  0.00000000E+00
  0.00000000E+00  0.00000000E+00  0.00000000E+00
  0.00000000E+00  0.00000000E+00  0.00000000E+00
  0.00000000E+00  0.00000000E+00  0.00000000E+00
  0.00000000E+00  0.00000000E+00  0.00000000E+00
  0.00000000E+00  0.00000000E+00  0.00000000E+00
  0.00000000E+00  0.00000000E+00  0.00000000E+00
  0.00000000E+00  0.00000000E+00  0.00000000E+00
  0.00000000E+00  0.00000000E+00  0.00000000E+00
  0.00000000E+00  0.00000000E+00  0.00000000E+00
  0.00000000E+00  0.00000000E+00  0.00000000E+00
  0.00000000E+00  0.00000000E+00  0.00000000E+00
  0.00000000E+00  0.00000000E+00  0.00000000E+00
  0.00000000E+00  0.00000000E+00  0.00000000E+00
  0.00000000E+00  0.00000000E+00  0.00000000E+00
  0.00000000E+00  0.00000000E+00  0.00000000E+00
  0.00000000E+00  0.00000000E+00  0.00000000E+00
  0.00000000E+00  0.00000000E+00  0.00000000E+00
  0.00000000E+00  0.00000000E+00  0.00000000E+00
  0.00000000E+00  0.00000000E+00  0.00000000E+00
  0.00000000E+00  0.00000000E+00  0.00000000E+00
  0.00000000E+00  0.00000000E+00  0.00000000E+00
  0.00000000E+00  0.00000000E+00  0.00000000E+00
  0.00000000E+00  0.00000000E+00  0.00000000E+00
  0.00000000E+00  0.00000000E+00  0.00000000E+00
  0.00000000E+00  0.00000000E+00  0.00000000E+00
  0.00000000E+00  0.00000000E+00  0.00000000E+00
  0.00000000E+00  0.00000000E+00  0.00000000E+00
  0.00000000E+00  0.00000000E+00  0.00000000E+00
  0.00000000E+00  0.00000000E+00  0.00000000E+00
  0.00000000E+00  0.00000000E+00  0.00000000E+00
  0.00000000E+00  0.00000000E+00  0.00000000E+00
  0.00000000E+00  0.00000000E+00  0.00000000E+00
  0.00000000E+00  0.00000000E+00  0.00000000E+00
  0.00000000E+00  0.00000000E+00  0.00000000E+00
  0.00000000E+00  0.00000000E+00  0.00000000E+00
  0.00000000E+00  0.00000000E+00  0.00000000E+00
  0.00000000E+00  0.00000000E+00  0.00000000E+00
  0.00000000E+00  0.00000000E+00  0.00000000E+00
  0.00000000E+00  0.00000000E+00  0.00000000E+00
  0.00000000E+00  0.00000000E+00  0.00000000E+00
  0.00000000E+00  0.00000000E+00  0.00000000E+00
  0.00000000E+00  0.00000000E+00  0.00000000E+00
  0.00000000E+00  0.00000000E+00  0.00000000E+00
  0.00000000E+00  0.00000000E+00  0.00000000E+00
  0.00000000E+00  0.00000000E+00  0.00000000E+00
  0.00000000E+00  0.00000000E+00  0.00000000E+00
  0.00000000E+00  0.00000000E+00  0.00000000E+00
  0.00000000E+00  0.00000000E+00  0.00000000E+00
  0.00000000E+00  0.00000000E+00  0.00000000E+00
  0.00000000E+00  0.00000000E+00  0.00000000E+00
  0.00000000E+00  0.00000000E+00  0.00000000E+00
  0.00000000E+00  0.00000000E+00  0.00000000E+00
  0.00000000E+00  0.00000000E+00  0.00000000E+00
  0.00000000E+00  0.00000000E+00  0.00000000E+00
  0.00000000E+00  0.00000000E+00  0.00000000E+00
  0.00000000E+00  0.00000000E+00  0.00000000E+00
  0.00000000E+00  0.00000000E+00  0.00000000E+00
  0.00000000E+00  0.00000000E+00  0.00000000E+00
  0.00000000E+00  0.00000000E+00  0.00000000E+00
  0.00000000E+00  0.00000000E+00  0.00000000E+00
  0.00000000E+00  0.00000000E+00  0.00000000E+00
  0.00000000E+00  0.00000000E+00  0.00000000E+00
  0.00000000E+00  0.00000000E+00  0.00000000E+00
  0.00000000E+00  0.00000000E+00  0.00000000E+00
  0.00000000E+00  0.00000000E+00  0.00000000E+00
  0.00000000E+00  0.00000000E+00  0.00000000E+00
  0.00000000E+00  0.00000000E+00  0.00000000E+00
  0.00000000E+00  0.00000000E+00  0.00000000E+00
  0.00000000E+00  0.00000000E+00  0.00000000E+00
  0.00000000E+00  0.00000000E+00  0.00000000E+00
