supercell of icsd_191774.cif            
   1.00000000000000     
    10.6209118554373418    0.0068609184430732   -0.0041807004050515
    -5.3045139439809503    9.1854783705531275    0.0010961874677456
    -0.0045522695910757   -0.0012761276863839   11.1093711869199225
   N    In   Sc
    36    24    12
Direct
  0.2270579523591536  0.1130543677712055  0.4451075746423854
  0.1130426817287642  0.2257748273807820  0.1947116491803058
  0.8884684090490609  0.1142047692793753  0.9440173463784944
  0.7726855817504799  0.2207407147171736  0.6886696654278168
  0.5594043772227835  0.1161842445485988  0.4479755798743241
  0.4449760507636427  0.2226176416898085  0.1899796585410982
  0.2231208030906657  0.1126506550989816  0.9348856599521511
  0.1133214010295021  0.2209039258427623  0.6936227395444234
  0.8869476464129349  0.1134195486954965  0.4438486825636758
  0.7767322386350486  0.2215350511471996  0.1847630458835283
  0.5606056662536858  0.1144939312489015  0.9345561595118497
  0.4440909390637913  0.2219780363120947  0.6886952846739973
  0.2233040558469881  0.4453627863497474  0.4335822715732576
  0.1125665446046114  0.5524259058514218  0.1869647541483204
  0.8882470508612812  0.4440518813391705  0.9464895370567135
  0.7746987548626620  0.5579313813595590  0.6899772899315550
  0.5591403657485401  0.4431671630500205  0.4468972811331753
  0.4405134146511926  0.5521232151076134  0.1857612777901707
  0.2250596029992096  0.4498342085464628  0.9489129885218688
  0.1090215511631456  0.5539925753570643  0.6932079734324574
  0.8849963708201258  0.4423756039833577  0.4431002500837593
  0.7767569578338893  0.5550958097925758  0.1840660940070507
  0.5588242154055791  0.4492354317524345  0.9352696598433283
  0.4449736140284912  0.5517741931282885  0.6954510902719306
  0.2223284675313906  0.7777177640341861  0.4415121639612849
  0.1106879137994099  0.8891609459360552  0.1901897320327919
  0.8864825236723490  0.7719120854400998  0.9352356186891058
  0.7794346687430149  0.8873960162362522  0.6950308557963254
  0.5550936657267584  0.7770074445703798  0.4416913419048711
  0.4448968299648115  0.8899518472286374  0.1917131364873370
  0.2199012740901836  0.7736597445031279  0.9448135727667193
  0.1090463261766743  0.8911158286135361  0.6968299429393241
  0.8867266965487843  0.7722929193800070  0.4447798058115140
  0.7780442712350464  0.8886851822552231  0.1916112122045348
  0.5535570572336184  0.7738821662101358  0.9452819828323769
  0.4449015566896080  0.8915379237798504  0.6949741372723963
  0.2222807640128082  0.1110278053256835  0.2499072961871320
  0.1119665884603620  0.2238736483181327  0.4983898120178125
  0.8887160450658342  0.1126107218655150  0.7491568251677023
  0.5567511135212300  0.1120463506478302  0.2509610642177336
  0.1122926745616653  0.2231203273069369  0.9995728556698893
  0.8888488581266856  0.1116154318255127  0.2489138782102032
  0.4471123226674791  0.2247982885288309  0.9941517754977482
  0.1099663168077640  0.5535519095174521  0.4978344029678894
  0.8849752394060673  0.4440329078928045  0.7506695671812906
  0.5559504189087221  0.4459411195714651  0.2491151085498160
  0.4434413790175924  0.5537435026900752  0.4998122175168618
  0.2216422446439950  0.4435970399293296  0.7527809864738586
  0.8891989226722572  0.4446688323097518  0.2463606093898179
  0.2211195130352834  0.7760845983330995  0.2469151781492513
  0.1110756812017826  0.8887035605378131  0.5014468205322657
  0.7793730378213084  0.8882345674053553  0.9970992739593072
  0.5543668580716243  0.7752364380320813  0.2469296805707515
  0.4449550173614298  0.8897987239140193  0.4999875570450030
  0.2212292979416972  0.7783198150976247  0.7503839662960701
  0.1097263956759136  0.8892189985520176  0.9955486979025778
  0.8885878563840421  0.7763307452629462  0.2493597549332094
  0.7780806937330098  0.8890253155384116  0.4998585620288125
  0.5551532640261385  0.7773475533799186  0.7505761363706540
  0.4455431226228086  0.8917007725954633  0.9974551951747586
  0.7769320315067318  0.2222429634113396  0.9962516707446980
  0.4455871414953023  0.2227821980246816  0.4986613375146192
  0.2240049914036106  0.1118480628072476  0.7454120698763091
  0.7789560770010340  0.2236988341819668  0.4994454439231006
  0.5543287094902851  0.1118628369558152  0.7447785431141298
  0.2233323096673914  0.4453815791824667  0.2436160447865987
  0.7765282463879970  0.5545957652166820  0.9943051405219023
  0.1095115302901917  0.5548333147415150  0.9976219216670046
  0.7783151856718007  0.5542103300741701  0.4998695263595678
  0.5555623751393028  0.4424454597538841  0.7449468197650120
  0.4463718198817546  0.5549056741799632  0.9954538252423006
  0.8885584587202544  0.7773162695546390  0.7460734178081481
 
  0.00000000E+00  0.00000000E+00  0.00000000E+00
  0.00000000E+00  0.00000000E+00  0.00000000E+00
  0.00000000E+00  0.00000000E+00  0.00000000E+00
  0.00000000E+00  0.00000000E+00  0.00000000E+00
  0.00000000E+00  0.00000000E+00  0.00000000E+00
  0.00000000E+00  0.00000000E+00  0.00000000E+00
  0.00000000E+00  0.00000000E+00  0.00000000E+00
  0.00000000E+00  0.00000000E+00  0.00000000E+00
  0.00000000E+00  0.00000000E+00  0.00000000E+00
  0.00000000E+00  0.00000000E+00  0.00000000E+00
  0.00000000E+00  0.00000000E+00  0.00000000E+00
  0.00000000E+00  0.00000000E+00  0.00000000E+00
  0.00000000E+00  0.00000000E+00  0.00000000E+00
  0.00000000E+00  0.00000000E+00  0.00000000E+00
  0.00000000E+00  0.00000000E+00  0.00000000E+00
  0.00000000E+00  0.00000000E+00  0.00000000E+00
  0.00000000E+00  0.00000000E+00  0.00000000E+00
  0.00000000E+00  0.00000000E+00  0.00000000E+00
  0.00000000E+00  0.00000000E+00  0.00000000E+00
  0.00000000E+00  0.00000000E+00  0.00000000E+00
  0.00000000E+00  0.00000000E+00  0.00000000E+00
  0.00000000E+00  0.00000000E+00  0.00000000E+00
  0.00000000E+00  0.00000000E+00  0.00000000E+00
  0.00000000E+00  0.00000000E+00  0.00000000E+00
  0.00000000E+00  0.00000000E+00  0.00000000E+00
  0.00000000E+00  0.00000000E+00  0.00000000E+00
  0.00000000E+00  0.00000000E+00  0.00000000E+00
  0.00000000E+00  0.00000000E+00  0.00000000E+00
  0.00000000E+00  0.00000000E+00  0.00000000E+00
  0.00000000E+00  0.00000000E+00  0.00000000E+00
  0.00000000E+00  0.00000000E+00  0.00000000E+00
  0.00000000E+00  0.00000000E+00  0.00000000E+00
  0.00000000E+00  0.00000000E+00  0.00000000E+00
  0.00000000E+00  0.00000000E+00  0.00000000E+00
  0.00000000E+00  0.00000000E+00  0.00000000E+00
  0.00000000E+00  0.00000000E+00  0.00000000E+00
  0.00000000E+00  0.00000000E+00  0.00000000E+00
  0.00000000E+00  0.00000000E+00  0.00000000E+00
  0.00000000E+00  0.00000000E+00  0.00000000E+00
  0.00000000E+00  0.00000000E+00  0.00000000E+00
  0.00000000E+00  0.00000000E+00  0.00000000E+00
  0.00000000E+00  0.00000000E+00  0.00000000E+00
  0.00000000E+00  0.00000000E+00  0.00000000E+00
  0.00000000E+00  0.00000000E+00  0.00000000E+00
  0.00000000E+00  0.00000000E+00  0.00000000E+00
  0.00000000E+00  0.00000000E+00  0.00000000E+00
  0.00000000E+00  0.00000000E+00  0.00000000E+00
  0.00000000E+00  0.00000000E+00  0.00000000E+00
  0.00000000E+00  0.00000000E+00  0.00000000E+00
  0.00000000E+00  0.00000000E+00  0.00000000E+00
  0.00000000E+00  0.00000000E+00  0.00000000E+00
  0.00000000E+00  0.00000000E+00  0.00000000E+00
  0.00000000E+00  0.00000000E+00  0.00000000E+00
  0.00000000E+00  0.00000000E+00  0.00000000E+00
  0.00000000E+00  0.00000000E+00  0.00000000E+00
  0.00000000E+00  0.00000000E+00  0.00000000E+00
  0.00000000E+00  0.00000000E+00  0.00000000E+00
  0.00000000E+00  0.00000000E+00  0.00000000E+00
  0.00000000E+00  0.00000000E+00  0.00000000E+00
  0.00000000E+00  0.00000000E+00  0.00000000E+00
  0.00000000E+00  0.00000000E+00  0.00000000E+00
  0.00000000E+00  0.00000000E+00  0.00000000E+00
  0.00000000E+00  0.00000000E+00  0.00000000E+00
  0.00000000E+00  0.00000000E+00  0.00000000E+00
  0.00000000E+00  0.00000000E+00  0.00000000E+00
  0.00000000E+00  0.00000000E+00  0.00000000E+00
  0.00000000E+00  0.00000000E+00  0.00000000E+00
  0.00000000E+00  0.00000000E+00  0.00000000E+00
  0.00000000E+00  0.00000000E+00  0.00000000E+00
  0.00000000E+00  0.00000000E+00  0.00000000E+00
  0.00000000E+00  0.00000000E+00  0.00000000E+00
  0.00000000E+00  0.00000000E+00  0.00000000E+00
