supercell of icsd_181358.cif            
   1.00000000000000     
     9.9896613694200429   -0.0150726853167441    0.0082500668899054
    -5.0078771329794343    8.6535797776288685   -0.0113679178549539
     0.0088411476241916   -0.0089658002531863   10.5632009604363244
   N    Ga   Sc
    36    26    10
Direct
  0.2301075081247106  0.1026459666286641  0.4334049238347788
  0.1056927314490537  0.2034212734782059  0.1906877048608990
  0.8966268374905511  0.1051008744136084  0.9384713939837184
  0.7768745638009733  0.2207028793370043  0.7012812168996589
  0.5424990263433571  0.1041012488223174  0.4353078656573715
  0.4445462431439395  0.2220308815054750  0.1864901527741907
  0.2221341486756288  0.1086947364406115  0.9397499439215267
  0.1084516220397020  0.2137212875761847  0.6965676077972205
  0.8824334997602534  0.0972452523277454  0.4342013636294837
  0.7786142025795044  0.2227070821629766  0.2010500166681339
  0.5402794311646701  0.1048520676992553  0.9368924710041497
  0.4422849179483705  0.2209106299509216  0.6880305224646293
  0.2135422660292363  0.4484266779354158  0.4346596008274233
  0.1011483190716049  0.5678267509573089  0.1893243093050003
  0.9022531447886877  0.4516821677332672  0.9335282642440745
  0.7770490820394116  0.5570053582382144  0.6929922325022133
  0.5638453946241455  0.4326447784286103  0.4385982834428788
  0.4565055071636479  0.5487492872264355  0.1949635439029151
  0.2204820707224400  0.4441319052464223  0.9678200749351475
  0.1000096801635237  0.5487621158683069  0.6827436597087626
  0.8945967655121549  0.4585642837109063  0.4390966976230430
  0.7781662589016278  0.5565337241152406  0.1942242655729700
  0.5404576949256850  0.4346175292555543  0.9356818472360615
  0.4478805087911724  0.5505336693664162  0.6926708361328977
  0.2216522518263204  0.7786369508807809  0.4418253373474954
  0.1095228074984576  0.8879896558452742  0.1895068941914744
  0.8989998322249804  0.7920562414001324  0.9332160704268659
  0.7904962132197539  0.8960170543293984  0.6857026578547334
  0.5620629254614542  0.7906588798575953  0.4423629788767016
  0.4335124412941624  0.8971753498877035  0.1886791246380994
  0.2210003476562861  0.7789680131053700  0.9441955147082979
  0.1053031283174164  0.8985449290238137  0.6823692963314727
  0.8879981123821921  0.7764062515824222  0.4398278723378297
  0.7955984481201597  0.8936229406358080  0.1857933155531413
  0.5568968579292530  0.7797888661286336  0.9593690338884144
  0.4515903836674724  0.9022902887503648  0.6834150529205871
  0.2244797116877777  0.1051602720424256  0.2478747054215660
  0.1103060124585440  0.2119597155371551  0.0036307586937028
  0.8923844862501085  0.1089159326638551  0.7514203089874485
  0.5497384016199405  0.1120950538090568  0.2496909489965873
  0.4381363522839976  0.2187393606855537  0.9988446012124115
  0.2209075730289740  0.1102593463272257  0.7509206462421290
  0.8899790391826414  0.1056566537453634  0.2496084932624285
  0.5524231782840445  0.1134474532655858  0.7498349939348259
  0.4435428837545459  0.2156919577222283  0.4988223439617911
  0.1106293349696443  0.5637219964779803  0.0045185940930992
  0.8882397570042713  0.4449143106049505  0.7471510599482798
  0.7807210418558626  0.5573546049523017  0.5008368905815033
  0.5609390522141808  0.4381784645232756  0.2516409589655808
  0.4465697544463225  0.5521564921159765  0.0065846133147787
  0.1093092896557835  0.5583991921441509  0.4959039353661296
  0.8878375860096241  0.4509674990126271  0.2531247340240412
  0.5522909864089129  0.4395855614416675  0.7478754597334500
  0.2177615036922163  0.7824336718840001  0.2515333231544545
  0.1127126213736460  0.8914104917900261  0.0015917656260953
  0.8928845097131983  0.7850803545886151  0.7459871191533054
  0.7799600799830202  0.8877268296481517  0.4987647286237191
  0.4366939421520115  0.8908398770982160  0.0031889001653767
  0.1104918101978214  0.8887554416869534  0.4962292815506615
  0.8921303151200490  0.7776528614474074  0.2514560719900132
  0.7883161706902087  0.8923965146660677  0.0010678473463130
  0.4439875865708345  0.8921301096823342  0.4965575391739492
  0.7750779328638231  0.2213668524877903  0.4945465310980097
  0.1115399409116407  0.2164461125958965  0.4952197461657519
  0.7776683432991618  0.2198872354738342  0.9954717237981399
  0.2163811998986844  0.4425430849187464  0.2316349267903774
  0.2182648769590827  0.4411623904952151  0.7604222013015729
  0.7779359242469397  0.5592358469414194  0.9929075673683130
  0.4471256327073334  0.5547963734424783  0.4915124942658835
  0.5613265859037071  0.7861951238159790  0.2384396690049186
  0.2185235774442802  0.7817636247511928  0.7422215679383442
  0.5616678303052254  0.7832054856619308  0.7522610007408232
 
  0.00000000E+00  0.00000000E+00  0.00000000E+00
  0.00000000E+00  0.00000000E+00  0.00000000E+00
  0.00000000E+00  0.00000000E+00  0.00000000E+00
  0.00000000E+00  0.00000000E+00  0.00000000E+00
  0.00000000E+00  0.00000000E+00  0.00000000E+00
  0.00000000E+00  0.00000000E+00  0.00000000E+00
  0.00000000E+00  0.00000000E+00  0.00000000E+00
  0.00000000E+00  0.00000000E+00  0.00000000E+00
  0.00000000E+00  0.00000000E+00  0.00000000E+00
  0.00000000E+00  0.00000000E+00  0.00000000E+00
  0.00000000E+00  0.00000000E+00  0.00000000E+00
  0.00000000E+00  0.00000000E+00  0.00000000E+00
  0.00000000E+00  0.00000000E+00  0.00000000E+00
  0.00000000E+00  0.00000000E+00  0.00000000E+00
  0.00000000E+00  0.00000000E+00  0.00000000E+00
  0.00000000E+00  0.00000000E+00  0.00000000E+00
  0.00000000E+00  0.00000000E+00  0.00000000E+00
  0.00000000E+00  0.00000000E+00  0.00000000E+00
  0.00000000E+00  0.00000000E+00  0.00000000E+00
  0.00000000E+00  0.00000000E+00  0.00000000E+00
  0.00000000E+00  0.00000000E+00  0.00000000E+00
  0.00000000E+00  0.00000000E+00  0.00000000E+00
  0.00000000E+00  0.00000000E+00  0.00000000E+00
  0.00000000E+00  0.00000000E+00  0.00000000E+00
  0.00000000E+00  0.00000000E+00  0.00000000E+00
  0.00000000E+00  0.00000000E+00  0.00000000E+00
  0.00000000E+00  0.00000000E+00  0.00000000E+00
  0.00000000E+00  0.00000000E+00  0.00000000E+00
  0.00000000E+00  0.00000000E+00  0.00000000E+00
  0.00000000E+00  0.00000000E+00  0.00000000E+00
  0.00000000E+00  0.00000000E+00  0.00000000E+00
  0.00000000E+00  0.00000000E+00  0.00000000E+00
  0.00000000E+00  0.00000000E+00  0.00000000E+00
  0.00000000E+00  0.00000000E+00  0.00000000E+00
  0.00000000E+00  0.00000000E+00  0.00000000E+00
  0.00000000E+00  0.00000000E+00  0.00000000E+00
  0.00000000E+00  0.00000000E+00  0.00000000E+00
  0.00000000E+00  0.00000000E+00  0.00000000E+00
  0.00000000E+00  0.00000000E+00  0.00000000E+00
  0.00000000E+00  0.00000000E+00  0.00000000E+00
  0.00000000E+00  0.00000000E+00  0.00000000E+00
  0.00000000E+00  0.00000000E+00  0.00000000E+00
  0.00000000E+00  0.00000000E+00  0.00000000E+00
  0.00000000E+00  0.00000000E+00  0.00000000E+00
  0.00000000E+00  0.00000000E+00  0.00000000E+00
  0.00000000E+00  0.00000000E+00  0.00000000E+00
  0.00000000E+00  0.00000000E+00  0.00000000E+00
  0.00000000E+00  0.00000000E+00  0.00000000E+00
  0.00000000E+00  0.00000000E+00  0.00000000E+00
  0.00000000E+00  0.00000000E+00  0.00000000E+00
  0.00000000E+00  0.00000000E+00  0.00000000E+00
  0.00000000E+00  0.00000000E+00  0.00000000E+00
  0.00000000E+00  0.00000000E+00  0.00000000E+00
  0.00000000E+00  0.00000000E+00  0.00000000E+00
  0.00000000E+00  0.00000000E+00  0.00000000E+00
  0.00000000E+00  0.00000000E+00  0.00000000E+00
  0.00000000E+00  0.00000000E+00  0.00000000E+00
  0.00000000E+00  0.00000000E+00  0.00000000E+00
  0.00000000E+00  0.00000000E+00  0.00000000E+00
  0.00000000E+00  0.00000000E+00  0.00000000E+00
  0.00000000E+00  0.00000000E+00  0.00000000E+00
  0.00000000E+00  0.00000000E+00  0.00000000E+00
  0.00000000E+00  0.00000000E+00  0.00000000E+00
  0.00000000E+00  0.00000000E+00  0.00000000E+00
  0.00000000E+00  0.00000000E+00  0.00000000E+00
  0.00000000E+00  0.00000000E+00  0.00000000E+00
  0.00000000E+00  0.00000000E+00  0.00000000E+00
  0.00000000E+00  0.00000000E+00  0.00000000E+00
  0.00000000E+00  0.00000000E+00  0.00000000E+00
  0.00000000E+00  0.00000000E+00  0.00000000E+00
  0.00000000E+00  0.00000000E+00  0.00000000E+00
  0.00000000E+00  0.00000000E+00  0.00000000E+00
