supercell of icsd_181358.cif            
   1.00000000000000     
     9.3577502485307882    0.0070755220241242    0.0097676972119903
    -4.6727439663655073    8.0934390142754804   -0.0026004626550182
     0.0106984315813311    0.0028924345778535   10.0860918460876086
   N    Ga   B 
    36    32     4
Direct
  0.2520693122836448  0.1261100825826631  0.4456269499225840
  0.1138448151798812  0.2191171916059034  0.1851555824425049
  0.8900720163976885  0.1108879381311070  0.9418723510937568
  0.7785645689223841  0.2214900372365207  0.6894606978927342
  0.5262492916332491  0.0972296748214276  0.4581099903508274
  0.4445069165058086  0.2192696790865227  0.1805733104188505
  0.2263397038206278  0.1129376242031199  0.9065511088961884
  0.1270327673372762  0.2093497737288814  0.6993873493290153
  0.8949660971525120  0.1139452771563114  0.4421445209588128
  0.7728615596692592  0.2192501733673140  0.1942052145580035
  0.5539767928564672  0.1093551662334846  0.9282616458850086
  0.4155861291764111  0.2092154328321598  0.6727698692647053
  0.2232432512838258  0.4426383639943268  0.4335194490337528
  0.1132856929396837  0.5595457163383486  0.1915838661802951
  0.8894594839372587  0.4452376519221630  0.9433357161288498
  0.7751692854450241  0.5544923987702219  0.6931625186663339
  0.5383780959673032  0.4106779320153819  0.4465558539992358
  0.4471290612557368  0.5567785541839356  0.1653626381671671
  0.2536264119577822  0.4601320992767128  0.9499366296602147
  0.1135679919897470  0.5538285418310664  0.6927300609037843
  0.8916739717399835  0.4455956741381399  0.4410891605927247
  0.7750111040229797  0.5549149844532835  0.1925890447817267
  0.5397743487378932  0.4590483582569931  0.9443922380087599
  0.4441249895134192  0.5557050681682867  0.6838695964240600
  0.2504194133669486  0.7933789094204684  0.4516223431811994
  0.1146451164775115  0.8919491596948745  0.1889298732237989
  0.8908147998805802  0.7792406398864102  0.9404341590768013
  0.7738469468053850  0.8877191895763090  0.6914772402725973
  0.5397693967085360  0.7935309017680012  0.4438951824491610
  0.4453480080603569  0.8924169935924553  0.1870525891187214
  0.2245993454404243  0.7797586602883655  0.9335796355430830
  0.1250418571496112  0.9198994248698114  0.6971826865645454
  0.8911947477405562  0.7786070400019369  0.4444359708639993
  0.7757013156338886  0.8874352100039005  0.1926009114768590
  0.5395454545576612  0.7483109262310634  0.9449677378485362
  0.4435447162213748  0.8867247980682222  0.6629187954496913
  0.2293033700951170  0.1143398824860284  0.2539345851400157
  0.1212090670456263  0.2241212203468876  0.9932506112878627
  0.8934347568675420  0.1102750562956700  0.7513265317405029
  0.7693398612485964  0.2176754944224868  0.5003246279721125
  0.5488181822455900  0.1089366303427113  0.2612693402651161
  0.4416894672048244  0.2246654639014096  0.9904310675280641
  0.1219615700953014  0.2232161585449788  0.5058834941206243
  0.8912964682732181  0.1118393729911276  0.2505557858995147
  0.7737510907213050  0.2197793683241898  0.0012333443297052
  0.5459811409142503  0.1085504316554378  0.7349357311546569
  0.2263573461534989  0.4449408523536320  0.2412384496514477
  0.1188545197445450  0.5595021686374793  0.0006117842215403
  0.8887731726881540  0.4436160484772742  0.7524988649438171
  0.7704078666388483  0.5470387342659038  0.5021584273948605
  0.5493669055957398  0.4382638469421849  0.2484030562980521
  0.2298035706473129  0.4424319775442669  0.7569942850844527
  0.1185066894656472  0.5586834257733244  0.5012742230458684
  0.8890112993255030  0.4447469703148101  0.2508566007858946
  0.7706377565587914  0.5564253149647698  0.0012674942688022
  0.5446794972779685  0.4381663003271328  0.7487270327655722
  0.4427896611362456  0.5547956199524364  0.4975973014505826
  0.2280233488261487  0.7825086120191500  0.2564238995637993
  0.1164002833743396  0.8951359542466264  0.9935786001535618
  0.8928323213246472  0.7837865127510071  0.7504789062378237
  0.7705957098913245  0.8899187603442584  0.5010684249545463
  0.5503798665763355  0.7769931394941452  0.2490075377001304
  0.4444750379983091  0.8851617128182312  0.9986446876835515
  0.2266226050070017  0.7860723818053401  0.7436777783981299
  0.1252457179733781  0.9005548285128597  0.5063910784248264
  0.8907405161384787  0.7787780763312924  0.2522180589053491
  0.7707844506683088  0.8815743907494351  0.0016486564842708
  0.5495202946119733  0.7739241446460028  0.7490742528118233
  0.2207563130293124  0.1108265137945779  0.7447753706464013
  0.4299615791890190  0.2114048365344487  0.5068262674639072
  0.4450436209104893  0.5556882002036190  0.9995357029804310
  0.4376602967686267  0.8899363491487691  0.5045356496135014
 
  0.00000000E+00  0.00000000E+00  0.00000000E+00
  0.00000000E+00  0.00000000E+00  0.00000000E+00
  0.00000000E+00  0.00000000E+00  0.00000000E+00
  0.00000000E+00  0.00000000E+00  0.00000000E+00
  0.00000000E+00  0.00000000E+00  0.00000000E+00
  0.00000000E+00  0.00000000E+00  0.00000000E+00
  0.00000000E+00  0.00000000E+00  0.00000000E+00
  0.00000000E+00  0.00000000E+00  0.00000000E+00
  0.00000000E+00  0.00000000E+00  0.00000000E+00
  0.00000000E+00  0.00000000E+00  0.00000000E+00
  0.00000000E+00  0.00000000E+00  0.00000000E+00
  0.00000000E+00  0.00000000E+00  0.00000000E+00
  0.00000000E+00  0.00000000E+00  0.00000000E+00
  0.00000000E+00  0.00000000E+00  0.00000000E+00
  0.00000000E+00  0.00000000E+00  0.00000000E+00
  0.00000000E+00  0.00000000E+00  0.00000000E+00
  0.00000000E+00  0.00000000E+00  0.00000000E+00
  0.00000000E+00  0.00000000E+00  0.00000000E+00
  0.00000000E+00  0.00000000E+00  0.00000000E+00
  0.00000000E+00  0.00000000E+00  0.00000000E+00
  0.00000000E+00  0.00000000E+00  0.00000000E+00
  0.00000000E+00  0.00000000E+00  0.00000000E+00
  0.00000000E+00  0.00000000E+00  0.00000000E+00
  0.00000000E+00  0.00000000E+00  0.00000000E+00
  0.00000000E+00  0.00000000E+00  0.00000000E+00
  0.00000000E+00  0.00000000E+00  0.00000000E+00
  0.00000000E+00  0.00000000E+00  0.00000000E+00
  0.00000000E+00  0.00000000E+00  0.00000000E+00
  0.00000000E+00  0.00000000E+00  0.00000000E+00
  0.00000000E+00  0.00000000E+00  0.00000000E+00
  0.00000000E+00  0.00000000E+00  0.00000000E+00
  0.00000000E+00  0.00000000E+00  0.00000000E+00
  0.00000000E+00  0.00000000E+00  0.00000000E+00
  0.00000000E+00  0.00000000E+00  0.00000000E+00
  0.00000000E+00  0.00000000E+00  0.00000000E+00
  0.00000000E+00  0.00000000E+00  0.00000000E+00
  0.00000000E+00  0.00000000E+00  0.00000000E+00
  0.00000000E+00  0.00000000E+00  0.00000000E+00
  0.00000000E+00  0.00000000E+00  0.00000000E+00
  0.00000000E+00  0.00000000E+00  0.00000000E+00
  0.00000000E+00  0.00000000E+00  0.00000000E+00
  0.00000000E+00  0.00000000E+00  0.00000000E+00
  0.00000000E+00  0.00000000E+00  0.00000000E+00
  0.00000000E+00  0.00000000E+00  0.00000000E+00
  0.00000000E+00  0.00000000E+00  0.00000000E+00
  0.00000000E+00  0.00000000E+00  0.00000000E+00
  0.00000000E+00  0.00000000E+00  0.00000000E+00
  0.00000000E+00  0.00000000E+00  0.00000000E+00
  0.00000000E+00  0.00000000E+00  0.00000000E+00
  0.00000000E+00  0.00000000E+00  0.00000000E+00
  0.00000000E+00  0.00000000E+00  0.00000000E+00
  0.00000000E+00  0.00000000E+00  0.00000000E+00
  0.00000000E+00  0.00000000E+00  0.00000000E+00
  0.00000000E+00  0.00000000E+00  0.00000000E+00
  0.00000000E+00  0.00000000E+00  0.00000000E+00
  0.00000000E+00  0.00000000E+00  0.00000000E+00
  0.00000000E+00  0.00000000E+00  0.00000000E+00
  0.00000000E+00  0.00000000E+00  0.00000000E+00
  0.00000000E+00  0.00000000E+00  0.00000000E+00
  0.00000000E+00  0.00000000E+00  0.00000000E+00
  0.00000000E+00  0.00000000E+00  0.00000000E+00
  0.00000000E+00  0.00000000E+00  0.00000000E+00
  0.00000000E+00  0.00000000E+00  0.00000000E+00
  0.00000000E+00  0.00000000E+00  0.00000000E+00
  0.00000000E+00  0.00000000E+00  0.00000000E+00
  0.00000000E+00  0.00000000E+00  0.00000000E+00
  0.00000000E+00  0.00000000E+00  0.00000000E+00
  0.00000000E+00  0.00000000E+00  0.00000000E+00
  0.00000000E+00  0.00000000E+00  0.00000000E+00
  0.00000000E+00  0.00000000E+00  0.00000000E+00
  0.00000000E+00  0.00000000E+00  0.00000000E+00
  0.00000000E+00  0.00000000E+00  0.00000000E+00
