generated by phonopy                    
   1.00000000000000     
    10.0351470768999995   -0.0000022330999784   -0.0000001056124209
    -5.0175765436399997    8.6906901959899994    0.0000001395531216
    -0.0000001735893656    0.0000001431815548   14.9533752540999991
   Pb   P    O 
    19    13    50
Direct
  0.9979939436506342  0.7797925853326504  0.1142575701872346
  0.9947613904872128  0.7763610199739404  0.6210790867148432
  0.9964213636094783  0.2598963814249089  0.8730195542251664
  0.2286732157122557  0.2250040110971767  0.1123517939206735
  0.2298505615006050  0.2277958094973229  0.6281454805566398
  0.7394454232202960  0.7471623844170807  0.3641417487965697
  0.7379487748171982  0.7436659937281362  0.8709990288613625
  0.7747074758451689  0.0060308225805485  0.1188179686182522
  0.7705593914579225  0.0016386000215505  0.6176357419273870
  0.2608380545676852  0.9954881649075134  0.3756151058017494
  0.2539539057494764  0.9962588680287681  0.8723386669262254
  0.6680030653325844  0.3438738181919092  0.0027630968777004
  0.6926997594722835  0.3328017541085444  0.5004770941757286
  0.3365114941298302  0.6664807145611960  0.0049318892510684
  0.3167186562080317  0.6474953158086123  0.5039309065657207
  0.3144807037854065  0.6725628643262525  0.2468610244582479
  0.3380622751149289  0.6724663401894304  0.7443368966751365
  0.6881306875536453  0.3252225779758362  0.2502863724430426
  0.6620151080210874  0.3339422376312768  0.7470454817442871
  0.0591616379913447  0.1762582501406200  0.3430734049525341
  0.6253224501673600  0.5996458668021987  0.1231961009985838
  0.6232770532838430  0.5945679184958976  0.6266131534413120
  0.3826468181719989  0.4006905551141671  0.3870661341971342
  0.3679849582682664  0.3952883507303255  0.8757861174573947
  0.4032604891353060  0.0310737904253386  0.1239189855160490
  0.4008758039466187  0.0273518491996398  0.6263410814644459
  0.6008648175013960  0.9669618513100318  0.3749826192306571
  0.6011657677462097  0.9735572686460401  0.8754383958948679
  0.9671886093619264  0.3792603660321916  0.1183723349841799
  0.9667977181890066  0.3754655963720310  0.6317358213426658
  0.0342921585284728  0.6371874127636872  0.3724963839368627
  0.0251421668988669  0.6321881701722418  0.8743155675751382
  0.5004654044492653  0.6480335958233354  0.1192738690241981
  0.4981858540946860  0.6435447867426944  0.6289753447611446
  0.4761646169666491  0.3189064820925154  0.3801324237779085
  0.4690408451531454  0.3185816724906800  0.8758389429994864
  0.3485426841482706  0.8555738246354352  0.1199017861663663
  0.3506692472112576  0.8533982348003590  0.6287987265227315
  0.6592610369949909  0.1413623416129113  0.3776180078119893
  0.6818517961866206  0.1514498565513733  0.8750266227321717
  0.1440467518992889  0.4928622514364847  0.1208553775096703
  0.1437179464533855  0.4918348141642568  0.6274099620108657
  0.8560819377872875  0.5321991989573789  0.3683397653060041
  0.8466077042626736  0.5321728545166309  0.8743177253188605
  0.7249503529118115  0.6447946058398983  0.0348339125861443
  0.7308517048844081  0.6650671606471050  0.5432985998908819
  0.3076590771644163  0.3916562031277593  0.4774296613694418
  0.2656013077190167  0.3546295989401784  0.9617905968652281
  0.3443808522333498  0.0813806917855615  0.0396437121742252
  0.3261951858331074  0.0634679516365182  0.5450339954279215
  0.6502863841958657  0.9064244204002492  0.4574874368214097
  0.6446009865958757  0.9096054154186533  0.9593843423750954
  0.9173967188399246  0.2779463817373298  0.0316405073158634
  0.9098981820684529  0.2659314198475684  0.5490755469738389
  0.0807715418372652  0.7496579841647630  0.4549419908948948
  0.0868243304039851  0.7385094697668748  0.9588701321085296
  0.2367431166066325  0.3113065345481942  0.3149528147790974
  0.2566876016820956  0.3450464708423411  0.7940487129234057
  0.7422012932130286  0.6878192392936526  0.2009929265370403
  0.7287991509658909  0.6546120540771341  0.7122286736887347
  0.6548378290481551  0.9146154387337688  0.2904575409539234
  0.6424954630554680  0.9074349168376159  0.7916394606777644
  0.3375094055303762  0.0696285735556401  0.2081618253262576
  0.3483764851105491  0.0775837732173414  0.7131798797875604
  0.0977097956409452  0.7443963773258275  0.2872387712827162
  0.0877024499897772  0.7427229573872083  0.7917844177479409
  0.9126280287488697  0.2678074669870867  0.2003943196855857
  0.9234448444977446  0.2736028092458511  0.7177864438192358
  0.5510133767915235  0.4218190784501061  0.1354843289354548
  0.5474712050098631  0.4149892404702271  0.6245852090936737
  0.4702879379335059  0.5692547300469784  0.3519833343014227
  0.4741666974318903  0.5767747116199544  0.8729245838995823
  0.5834299810990728  0.1280488143214882  0.1242978816624074
  0.5807590221876140  0.1288804673827570  0.6206327178052433
  0.4174720086192494  0.8791406811993880  0.3724003422779916
  0.4199817042148482  0.9011307368610844  0.8758112746445903
  0.8764073827052172  0.4694882621278893  0.1210035150392343
  0.8752139945778978  0.4647713166556713  0.6326453882916709
  0.1190391189349711  0.5428045383747175  0.3780643939909467
  0.0989933661224072  0.5251660009629333  0.8732840631496472
  0.0014234720585478  0.0084495925138981  0.0875247963299088
  0.9976108091669289  0.0042355456257184  0.6284688981530238
 
  0.00000000E+00  0.00000000E+00  0.00000000E+00
  0.00000000E+00  0.00000000E+00  0.00000000E+00
  0.00000000E+00  0.00000000E+00  0.00000000E+00
  0.00000000E+00  0.00000000E+00  0.00000000E+00
  0.00000000E+00  0.00000000E+00  0.00000000E+00
  0.00000000E+00  0.00000000E+00  0.00000000E+00
  0.00000000E+00  0.00000000E+00  0.00000000E+00
  0.00000000E+00  0.00000000E+00  0.00000000E+00
  0.00000000E+00  0.00000000E+00  0.00000000E+00
  0.00000000E+00  0.00000000E+00  0.00000000E+00
  0.00000000E+00  0.00000000E+00  0.00000000E+00
  0.00000000E+00  0.00000000E+00  0.00000000E+00
  0.00000000E+00  0.00000000E+00  0.00000000E+00
  0.00000000E+00  0.00000000E+00  0.00000000E+00
  0.00000000E+00  0.00000000E+00  0.00000000E+00
  0.00000000E+00  0.00000000E+00  0.00000000E+00
  0.00000000E+00  0.00000000E+00  0.00000000E+00
  0.00000000E+00  0.00000000E+00  0.00000000E+00
  0.00000000E+00  0.00000000E+00  0.00000000E+00
  0.00000000E+00  0.00000000E+00  0.00000000E+00
  0.00000000E+00  0.00000000E+00  0.00000000E+00
  0.00000000E+00  0.00000000E+00  0.00000000E+00
  0.00000000E+00  0.00000000E+00  0.00000000E+00
  0.00000000E+00  0.00000000E+00  0.00000000E+00
  0.00000000E+00  0.00000000E+00  0.00000000E+00
  0.00000000E+00  0.00000000E+00  0.00000000E+00
  0.00000000E+00  0.00000000E+00  0.00000000E+00
  0.00000000E+00  0.00000000E+00  0.00000000E+00
  0.00000000E+00  0.00000000E+00  0.00000000E+00
  0.00000000E+00  0.00000000E+00  0.00000000E+00
  0.00000000E+00  0.00000000E+00  0.00000000E+00
  0.00000000E+00  0.00000000E+00  0.00000000E+00
  0.00000000E+00  0.00000000E+00  0.00000000E+00
  0.00000000E+00  0.00000000E+00  0.00000000E+00
  0.00000000E+00  0.00000000E+00  0.00000000E+00
  0.00000000E+00  0.00000000E+00  0.00000000E+00
  0.00000000E+00  0.00000000E+00  0.00000000E+00
  0.00000000E+00  0.00000000E+00  0.00000000E+00
  0.00000000E+00  0.00000000E+00  0.00000000E+00
  0.00000000E+00  0.00000000E+00  0.00000000E+00
  0.00000000E+00  0.00000000E+00  0.00000000E+00
  0.00000000E+00  0.00000000E+00  0.00000000E+00
  0.00000000E+00  0.00000000E+00  0.00000000E+00
  0.00000000E+00  0.00000000E+00  0.00000000E+00
  0.00000000E+00  0.00000000E+00  0.00000000E+00
  0.00000000E+00  0.00000000E+00  0.00000000E+00
  0.00000000E+00  0.00000000E+00  0.00000000E+00
  0.00000000E+00  0.00000000E+00  0.00000000E+00
  0.00000000E+00  0.00000000E+00  0.00000000E+00
  0.00000000E+00  0.00000000E+00  0.00000000E+00
  0.00000000E+00  0.00000000E+00  0.00000000E+00
  0.00000000E+00  0.00000000E+00  0.00000000E+00
  0.00000000E+00  0.00000000E+00  0.00000000E+00
  0.00000000E+00  0.00000000E+00  0.00000000E+00
  0.00000000E+00  0.00000000E+00  0.00000000E+00
  0.00000000E+00  0.00000000E+00  0.00000000E+00
  0.00000000E+00  0.00000000E+00  0.00000000E+00
  0.00000000E+00  0.00000000E+00  0.00000000E+00
  0.00000000E+00  0.00000000E+00  0.00000000E+00
  0.00000000E+00  0.00000000E+00  0.00000000E+00
  0.00000000E+00  0.00000000E+00  0.00000000E+00
  0.00000000E+00  0.00000000E+00  0.00000000E+00
  0.00000000E+00  0.00000000E+00  0.00000000E+00
  0.00000000E+00  0.00000000E+00  0.00000000E+00
  0.00000000E+00  0.00000000E+00  0.00000000E+00
  0.00000000E+00  0.00000000E+00  0.00000000E+00
  0.00000000E+00  0.00000000E+00  0.00000000E+00
  0.00000000E+00  0.00000000E+00  0.00000000E+00
  0.00000000E+00  0.00000000E+00  0.00000000E+00
  0.00000000E+00  0.00000000E+00  0.00000000E+00
  0.00000000E+00  0.00000000E+00  0.00000000E+00
  0.00000000E+00  0.00000000E+00  0.00000000E+00
  0.00000000E+00  0.00000000E+00  0.00000000E+00
  0.00000000E+00  0.00000000E+00  0.00000000E+00
  0.00000000E+00  0.00000000E+00  0.00000000E+00
  0.00000000E+00  0.00000000E+00  0.00000000E+00
  0.00000000E+00  0.00000000E+00  0.00000000E+00
  0.00000000E+00  0.00000000E+00  0.00000000E+00
  0.00000000E+00  0.00000000E+00  0.00000000E+00
  0.00000000E+00  0.00000000E+00  0.00000000E+00
  0.00000000E+00  0.00000000E+00  0.00000000E+00
  0.00000000E+00  0.00000000E+00  0.00000000E+00
