Al   Sc   N                             
   1.00000000000000     
   -10.0842134172369668    0.0126508135228823   -0.0009213363103179
    -5.0867978436072798    8.7583145394644699   -0.0016716665561309
     0.0151104648231527   -0.0650115736728575   -9.9585244195174933
   Al   Sc   N 
    23    13    36
Direct
  0.1170175366137158  0.0910557722805194  0.3949039094547047
  0.2119148522267480  0.2062926342232885  0.1314734941383549
  0.7737404476256984  0.0991407195478473  0.8157098015983877
  0.8864368055798835  0.2073851903933743  0.5791139620705366
  0.5461337249891116  0.2209003986833054  0.1397005315531814
  0.2337187802096636  0.2061185851787002  0.6358713131284901
  0.8772836355881779  0.2093651375944603  0.0640043156797105
  0.5476128551781869  0.2168536575856947  0.6271143645893318
  0.2267127340899151  0.5403259755727134  0.1342491952967819
  0.4352945255670306  0.4402791066741543  0.3839514980347474
  0.5476375821687043  0.5451953854518479  0.0756544459768946
  0.2311681895440145  0.5357366439844284  0.6319689423523087
  0.8816947245908082  0.5424379802286552  0.0657484447150836
  0.4414066657732363  0.4335539127269286  0.8837247362645613
  0.5584849390852114  0.5369905937204322  0.5709270570860383
  0.1113906501228072  0.7586102071129375  0.3846385422297658
  0.7684301362361978  0.7671882049832419  0.8236702567942942
  0.8912476375956402  0.8693742281847960  0.6335904002004042
  0.4460034015861680  0.7547954448036265  0.3299794330159571
  0.5570304134146937  0.8580210338391510  0.0758446462065123
  0.1240665234457694  0.7533830545231694  0.8771998662126208
  0.4507261782813714  0.7527472548437402  0.8228889971859772
  0.5563028767375542  0.8693500466122828  0.5776370394487103
  0.4407334776142946  0.0918376153514515  0.3612537352651799
  0.1116920581470779  0.0918389408793416  0.8562299821025690
  0.7797776235385783  0.0944754032779116  0.3495721404367345
  0.4575475500096147  0.0925903561268413  0.8731192298885802
  0.1230827648647690  0.4251121721089177  0.3673246608315281
  0.7618604170729881  0.4302441723363088  0.8395437833827799
  0.8914416253778796  0.5344461548640282  0.6025272519559763
  0.1224969748801996  0.4340295307877895  0.8729728055605577
  0.7788651937755162  0.4225429306485751  0.3231224492622644
  0.2151960515823106  0.8773282937491089  0.1257364409820880
  0.2299414634789869  0.8611980226133937  0.6087135163299209
  0.7788619697458898  0.7551371893967485  0.3369450270619083
  0.8830811468983910  0.8751287877008309  0.0961789772790311
  0.2092354375760266  0.1926393098929111  0.3226332118623532
  0.0979154502307082  0.1128355024550274  0.0769488092754997
  0.8740321445797790  0.1960571955691819  0.8721168608650132
  0.7813305659795091  0.0905836099476787  0.6106440274392924
  0.5335119898322986  0.2349310351374569  0.3321427772046661
  0.4461110496753165  0.0917444804815588  0.1014959930413397
  0.2305572489138825  0.2065748617095053  0.8260344301760796
  0.1119236919360489  0.1087801010174871  0.5986579421502611
  0.9054023358873735  0.1975351941725521  0.3880330176599855
  0.7639048347179553  0.1188253441637741  0.1232860826421245
  0.5580941807437014  0.2265405146954151  0.8207331187360509
  0.4500159785556264  0.0931231354423900  0.5955861919730339
  0.2319905388550296  0.5557988803902347  0.3232299631596689
  0.1102818947154844  0.4299794087737823  0.0985274981790383
  0.8812599015798668  0.5562856258388180  0.8624375129443536
  0.7654353451358133  0.4155648647325876  0.6234722326228166
  0.5426004748943427  0.5481859043612971  0.3770704802546518
  0.4384459100170730  0.4267494435398191  0.0789766070137716
  0.2374435498565859  0.5484581394419834  0.8203613610050056
  0.1388794736350434  0.4160711791798946  0.5932545242038003
  0.8909174499660466  0.5316383648503233  0.3902529440904701
  0.7750933767097692  0.4294452061830256  0.0996002799272802
  0.5316775116627497  0.5554351145165484  0.8855594285636315
  0.4421187125786616  0.4308682002048698  0.5780104759471101
  0.2217135221777013  0.8718539743725060  0.3607768615208329
  0.1229606079245897  0.7404645548316680  0.0655702511449832
  0.8869583600734288  0.8754458423691673  0.8417038460806623
  0.7658560327712465  0.7808704757978759  0.6270282196251813
  0.5459018742609274  0.8570857798755256  0.3879952849098842
  0.4572381442479880  0.7520549576240043  0.1367284524262899
  0.2316039916811405  0.8549808818390190  0.8340309208307275
  0.0995529975714575  0.7473908878216378  0.5781225378757000
  0.9112853723429879  0.8599750111894835  0.3208994118972726
  0.7675944648622064  0.7480348645591448  0.1198066777921412
  0.5615812804442442  0.8507071503013606  0.8822475538580790
  0.4738265186037083  0.7436746038064328  0.6321166457380087
 
  0.00000000E+00  0.00000000E+00  0.00000000E+00
  0.00000000E+00  0.00000000E+00  0.00000000E+00
  0.00000000E+00  0.00000000E+00  0.00000000E+00
  0.00000000E+00  0.00000000E+00  0.00000000E+00
  0.00000000E+00  0.00000000E+00  0.00000000E+00
  0.00000000E+00  0.00000000E+00  0.00000000E+00
  0.00000000E+00  0.00000000E+00  0.00000000E+00
  0.00000000E+00  0.00000000E+00  0.00000000E+00
  0.00000000E+00  0.00000000E+00  0.00000000E+00
  0.00000000E+00  0.00000000E+00  0.00000000E+00
  0.00000000E+00  0.00000000E+00  0.00000000E+00
  0.00000000E+00  0.00000000E+00  0.00000000E+00
  0.00000000E+00  0.00000000E+00  0.00000000E+00
  0.00000000E+00  0.00000000E+00  0.00000000E+00
  0.00000000E+00  0.00000000E+00  0.00000000E+00
  0.00000000E+00  0.00000000E+00  0.00000000E+00
  0.00000000E+00  0.00000000E+00  0.00000000E+00
  0.00000000E+00  0.00000000E+00  0.00000000E+00
  0.00000000E+00  0.00000000E+00  0.00000000E+00
  0.00000000E+00  0.00000000E+00  0.00000000E+00
  0.00000000E+00  0.00000000E+00  0.00000000E+00
  0.00000000E+00  0.00000000E+00  0.00000000E+00
  0.00000000E+00  0.00000000E+00  0.00000000E+00
  0.00000000E+00  0.00000000E+00  0.00000000E+00
  0.00000000E+00  0.00000000E+00  0.00000000E+00
  0.00000000E+00  0.00000000E+00  0.00000000E+00
  0.00000000E+00  0.00000000E+00  0.00000000E+00
  0.00000000E+00  0.00000000E+00  0.00000000E+00
  0.00000000E+00  0.00000000E+00  0.00000000E+00
  0.00000000E+00  0.00000000E+00  0.00000000E+00
  0.00000000E+00  0.00000000E+00  0.00000000E+00
  0.00000000E+00  0.00000000E+00  0.00000000E+00
  0.00000000E+00  0.00000000E+00  0.00000000E+00
  0.00000000E+00  0.00000000E+00  0.00000000E+00
  0.00000000E+00  0.00000000E+00  0.00000000E+00
  0.00000000E+00  0.00000000E+00  0.00000000E+00
  0.00000000E+00  0.00000000E+00  0.00000000E+00
  0.00000000E+00  0.00000000E+00  0.00000000E+00
  0.00000000E+00  0.00000000E+00  0.00000000E+00
  0.00000000E+00  0.00000000E+00  0.00000000E+00
  0.00000000E+00  0.00000000E+00  0.00000000E+00
  0.00000000E+00  0.00000000E+00  0.00000000E+00
  0.00000000E+00  0.00000000E+00  0.00000000E+00
  0.00000000E+00  0.00000000E+00  0.00000000E+00
  0.00000000E+00  0.00000000E+00  0.00000000E+00
  0.00000000E+00  0.00000000E+00  0.00000000E+00
  0.00000000E+00  0.00000000E+00  0.00000000E+00
  0.00000000E+00  0.00000000E+00  0.00000000E+00
  0.00000000E+00  0.00000000E+00  0.00000000E+00
  0.00000000E+00  0.00000000E+00  0.00000000E+00
  0.00000000E+00  0.00000000E+00  0.00000000E+00
  0.00000000E+00  0.00000000E+00  0.00000000E+00
  0.00000000E+00  0.00000000E+00  0.00000000E+00
  0.00000000E+00  0.00000000E+00  0.00000000E+00
  0.00000000E+00  0.00000000E+00  0.00000000E+00
  0.00000000E+00  0.00000000E+00  0.00000000E+00
  0.00000000E+00  0.00000000E+00  0.00000000E+00
  0.00000000E+00  0.00000000E+00  0.00000000E+00
  0.00000000E+00  0.00000000E+00  0.00000000E+00
  0.00000000E+00  0.00000000E+00  0.00000000E+00
  0.00000000E+00  0.00000000E+00  0.00000000E+00
  0.00000000E+00  0.00000000E+00  0.00000000E+00
  0.00000000E+00  0.00000000E+00  0.00000000E+00
  0.00000000E+00  0.00000000E+00  0.00000000E+00
  0.00000000E+00  0.00000000E+00  0.00000000E+00
  0.00000000E+00  0.00000000E+00  0.00000000E+00
  0.00000000E+00  0.00000000E+00  0.00000000E+00
  0.00000000E+00  0.00000000E+00  0.00000000E+00
  0.00000000E+00  0.00000000E+00  0.00000000E+00
  0.00000000E+00  0.00000000E+00  0.00000000E+00
  0.00000000E+00  0.00000000E+00  0.00000000E+00
  0.00000000E+00  0.00000000E+00  0.00000000E+00
