Al   Sc   N                             
   1.00000000000000     
   -10.0220800657492148    0.0100156391862735   -0.0134350251482190
    -5.0020714769753578    8.7154150560281263   -0.0082287079833849
    -0.0265518642041761    0.0763304925277655  -10.0293632810680435
   Al   Sc   N 
    23    13    36
Direct
  0.1094763648158548  0.0950367598282824  0.3112809650159534
  0.2209317204196282  0.2089403091015924  0.0644406318715482
  0.7751083675864407  0.0958398713536468  0.8067782800336616
  0.8899357394704381  0.2070767860386482  0.5635075946797485
  0.5563338770043558  0.2165077564489195  0.0587995576808353
  0.2244079652064173  0.2039020678694143  0.5582023751856440
  0.8814120271244477  0.2097866415258238  0.0619601301633352
  0.5463898461632155  0.2160145065412138  0.5657658561069567
  0.2326803162078761  0.5308465021073800  0.0577620451016472
  0.4389930624299794  0.4381038359382288  0.3121132694368498
  0.5507845681790613  0.5399055431999429  0.0614756502505642
  0.2323701184901168  0.5328915313953431  0.5596225342651593
  0.8872656297561932  0.5415240232199281  0.0489017393257782
  0.4453648211128822  0.4341546650246926  0.8102153066718287
  0.5532410806770969  0.5351313540993559  0.5616572552183072
  0.1137037427909675  0.7617958959215301  0.3714550490501765
  0.7733000857199741  0.7679363222459727  0.8095990960556989
  0.8856283913224559  0.8754559081469608  0.5826654228273256
  0.4436973177508321  0.7557326071403452  0.3160315981401141
  0.5619482884480007  0.8572101288526000  0.0585992839681566
  0.1152690199597899  0.7576367394653687  0.8682730108782408
  0.4513636053485044  0.7502731298257288  0.8125481884958603
  0.5528325880102685  0.8719519033431169  0.5660153181231351
  0.4443035150055650  0.0923124784290223  0.3181128042950192
  0.1088114086327536  0.0932198658834338  0.8256155513092267
  0.7739084831747221  0.1016539224359008  0.3319923052997851
  0.4545056288808809  0.0882968458368154  0.8258789897086416
  0.1157290049328097  0.4292618462514000  0.3171703244265061
  0.7665166005981092  0.4258795518795395  0.8286947654925427
  0.8879580548479211  0.5368678473055013  0.5830057066402432
  0.1224388271553778  0.4283457294602613  0.8190609170291552
  0.7728981012537588  0.4270021203169421  0.3119074908097161
  0.2288305242472575  0.8690124586985988  0.0866265539821427
  0.2272889013192412  0.8724175756219452  0.5809977973778686
  0.7723310584264027  0.7575345471559132  0.3223318707541551
  0.8804963196744069  0.8786136648985305  0.0771287355092838
  0.2147670999155693  0.1949698164235301  0.3673949051651988
  0.0976738149069192  0.1160201800551803  0.1155693021537800
  0.8789978323768750  0.1905299853501958  0.8748851982595554
  0.7755237030324409  0.0969112929887714  0.6086835280584992
  0.5359123791510356  0.2333949065761587  0.3779428668784348
  0.4518111521733132  0.0895450996059282  0.0978914988072432
  0.2269109697390164  0.2025645540509160  0.8789325653938533
  0.1025533429232794  0.1144268634595633  0.6152010288814296
  0.9077228869941862  0.1984052780438574  0.3752775936565200
  0.7626761909911011  0.1206307552249797  0.1203883164823054
  0.5641730798338074  0.2202283517612855  0.8657926333507788
  0.4440219354863046  0.0931902387109815  0.6057352291742859
  0.2334981092354980  0.5475902004538966  0.3668546986918528
  0.1113548722799109  0.4303847971918984  0.0965108437858220
  0.8824373435979140  0.5557080592951564  0.8517994520441761
  0.7643117936039658  0.4155911629086546  0.6122567342257241
  0.5363316557534432  0.5478514644792369  0.3717506147800549
  0.4440555732144063  0.4287038265532246  0.1195643382739036
  0.2393487308668938  0.5411967993789446  0.8658999429031979
  0.1360785055023328  0.4159288068872229  0.6028036931529712
  0.8897919299599550  0.5325643687308883  0.3754862755448727
  0.7770981287055179  0.4298428661363047  0.0898090238535048
  0.5334838962531805  0.5482306306119895  0.8747179905295894
  0.4436281231035935  0.4310786394018464  0.6204503963477350
  0.2218501331069049  0.8733332650263321  0.3447902661755791
  0.1172593378199664  0.7449243231148230  0.0702045746609343
  0.8849235929498462  0.8759142099984274  0.8486013471531137
  0.7646070572455272  0.7833627497791937  0.6154117803238179
  0.5403921885035956  0.8625083492362506  0.3785723519188267
  0.4670745034857546  0.7457366912243870  0.1253555697779234
  0.2350239018860307  0.8549401143287412  0.8490331002893896
  0.1027585453658233  0.7538524985786594  0.5769385890666783
  0.9018603685289861  0.8645561036562910  0.3483028191655748
  0.7720870822362755  0.7471539566561702  0.1088262847646035
  0.5646852046530384  0.8484705584083940  0.8692105221808575
  0.4686437725253683  0.7448732800635156  0.6229905379580174
 
  0.00000000E+00  0.00000000E+00  0.00000000E+00
  0.00000000E+00  0.00000000E+00  0.00000000E+00
  0.00000000E+00  0.00000000E+00  0.00000000E+00
  0.00000000E+00  0.00000000E+00  0.00000000E+00
  0.00000000E+00  0.00000000E+00  0.00000000E+00
  0.00000000E+00  0.00000000E+00  0.00000000E+00
  0.00000000E+00  0.00000000E+00  0.00000000E+00
  0.00000000E+00  0.00000000E+00  0.00000000E+00
  0.00000000E+00  0.00000000E+00  0.00000000E+00
  0.00000000E+00  0.00000000E+00  0.00000000E+00
  0.00000000E+00  0.00000000E+00  0.00000000E+00
  0.00000000E+00  0.00000000E+00  0.00000000E+00
  0.00000000E+00  0.00000000E+00  0.00000000E+00
  0.00000000E+00  0.00000000E+00  0.00000000E+00
  0.00000000E+00  0.00000000E+00  0.00000000E+00
  0.00000000E+00  0.00000000E+00  0.00000000E+00
  0.00000000E+00  0.00000000E+00  0.00000000E+00
  0.00000000E+00  0.00000000E+00  0.00000000E+00
  0.00000000E+00  0.00000000E+00  0.00000000E+00
  0.00000000E+00  0.00000000E+00  0.00000000E+00
  0.00000000E+00  0.00000000E+00  0.00000000E+00
  0.00000000E+00  0.00000000E+00  0.00000000E+00
  0.00000000E+00  0.00000000E+00  0.00000000E+00
  0.00000000E+00  0.00000000E+00  0.00000000E+00
  0.00000000E+00  0.00000000E+00  0.00000000E+00
  0.00000000E+00  0.00000000E+00  0.00000000E+00
  0.00000000E+00  0.00000000E+00  0.00000000E+00
  0.00000000E+00  0.00000000E+00  0.00000000E+00
  0.00000000E+00  0.00000000E+00  0.00000000E+00
  0.00000000E+00  0.00000000E+00  0.00000000E+00
  0.00000000E+00  0.00000000E+00  0.00000000E+00
  0.00000000E+00  0.00000000E+00  0.00000000E+00
  0.00000000E+00  0.00000000E+00  0.00000000E+00
  0.00000000E+00  0.00000000E+00  0.00000000E+00
  0.00000000E+00  0.00000000E+00  0.00000000E+00
  0.00000000E+00  0.00000000E+00  0.00000000E+00
  0.00000000E+00  0.00000000E+00  0.00000000E+00
  0.00000000E+00  0.00000000E+00  0.00000000E+00
  0.00000000E+00  0.00000000E+00  0.00000000E+00
  0.00000000E+00  0.00000000E+00  0.00000000E+00
  0.00000000E+00  0.00000000E+00  0.00000000E+00
  0.00000000E+00  0.00000000E+00  0.00000000E+00
  0.00000000E+00  0.00000000E+00  0.00000000E+00
  0.00000000E+00  0.00000000E+00  0.00000000E+00
  0.00000000E+00  0.00000000E+00  0.00000000E+00
  0.00000000E+00  0.00000000E+00  0.00000000E+00
  0.00000000E+00  0.00000000E+00  0.00000000E+00
  0.00000000E+00  0.00000000E+00  0.00000000E+00
  0.00000000E+00  0.00000000E+00  0.00000000E+00
  0.00000000E+00  0.00000000E+00  0.00000000E+00
  0.00000000E+00  0.00000000E+00  0.00000000E+00
  0.00000000E+00  0.00000000E+00  0.00000000E+00
  0.00000000E+00  0.00000000E+00  0.00000000E+00
  0.00000000E+00  0.00000000E+00  0.00000000E+00
  0.00000000E+00  0.00000000E+00  0.00000000E+00
  0.00000000E+00  0.00000000E+00  0.00000000E+00
  0.00000000E+00  0.00000000E+00  0.00000000E+00
  0.00000000E+00  0.00000000E+00  0.00000000E+00
  0.00000000E+00  0.00000000E+00  0.00000000E+00
  0.00000000E+00  0.00000000E+00  0.00000000E+00
  0.00000000E+00  0.00000000E+00  0.00000000E+00
  0.00000000E+00  0.00000000E+00  0.00000000E+00
  0.00000000E+00  0.00000000E+00  0.00000000E+00
  0.00000000E+00  0.00000000E+00  0.00000000E+00
  0.00000000E+00  0.00000000E+00  0.00000000E+00
  0.00000000E+00  0.00000000E+00  0.00000000E+00
  0.00000000E+00  0.00000000E+00  0.00000000E+00
  0.00000000E+00  0.00000000E+00  0.00000000E+00
  0.00000000E+00  0.00000000E+00  0.00000000E+00
  0.00000000E+00  0.00000000E+00  0.00000000E+00
  0.00000000E+00  0.00000000E+00  0.00000000E+00
  0.00000000E+00  0.00000000E+00  0.00000000E+00
