Al   Sc   N                             
   1.00000000000000     
   -10.1302172492721052    0.0128584349728259   -0.0006927253303334
    -5.1109539621113731    8.7994060354221997   -0.0011960913900148
    -0.0065044170270153   -0.0889074895038295   -9.8096620078030590
   Al   Sc   N 
    23    13    36
Direct
  0.1172341376564887  0.0899709024802817  0.3926941993855095
  0.2120788905878754  0.2061948173318910  0.1298047470357346
  0.7720100054838568  0.0997546507330753  0.8166086222841571
  0.8871485583715994  0.2066185213323379  0.5816750490244331
  0.5460564784167232  0.2207984629739030  0.1393468157914910
  0.2336441298576659  0.2059256164301217  0.6346998496113372
  0.8787334258977282  0.2076994086728376  0.0664002845342395
  0.5479039378715171  0.2163398141803370  0.6228311377183502
  0.2261954525308241  0.5405970473882462  0.1340657793781475
  0.4380866115825839  0.4427108398275905  0.3808147482797182
  0.5481337751996307  0.5399114117930139  0.1134156386044722
  0.2303189085087638  0.5370344401738052  0.6297440948034563
  0.8835956134616723  0.5434581411885944  0.0686669722982316
  0.4422725124552116  0.4334106523743486  0.8839869890392009
  0.5542253322021367  0.5327919579202884  0.6281097305466972
  0.1112714359897566  0.7587957378382910  0.3829431791880751
  0.7691392685780585  0.7680286423229532  0.8235560633654302
  0.8904381523524734  0.8700554311736184  0.6311809924179457
  0.4442595177253565  0.7558534096630893  0.3251955861814508
  0.5580388334395465  0.8597835675640653  0.0748852840587730
  0.1230060948559171  0.7528837699838391  0.8757100149436994
  0.4482893204706002  0.7566394366140585  0.8292610389086903
  0.5553221507436703  0.8687393310835745  0.5776955173423985
  0.4410609870659883  0.0904275371266863  0.3583536736682831
  0.1107069696323464  0.0929034292670039  0.8540395099575875
  0.7790273410840740  0.0950414126675128  0.3518756874441706
  0.4575824885943973  0.0929724393175135  0.8692094281293095
  0.1236286262564192  0.4244312603708593  0.3658354602679026
  0.7671148164234154  0.4290287585026675  0.8514053957237593
  0.8916506968301547  0.5341688427850215  0.6051546022537551
  0.1235116619923744  0.4341462581489921  0.8707771568360343
  0.7801821184006599  0.4217870633194636  0.3302132374228890
  0.2148805256610800  0.8776103512956155  0.1178946534754175
  0.2300353846929113  0.8611741918993161  0.6073581579275569
  0.7789887152246990  0.7556826620537578  0.3410701858085119
  0.8824659429297981  0.8755501905374956  0.0963689529952489
  0.2100354223715186  0.1919390067619062  0.3240042742988649
  0.0970808418683262  0.1139687297266647  0.0781119205734058
  0.8747071126374024  0.1942833027803914  0.8706856618757115
  0.7806339704952237  0.0907525357808794  0.6087671411684141
  0.5326859739645613  0.2346244840755460  0.3356203443804588
  0.4467883615963331  0.0926474824252566  0.1016685404250950
  0.2302551878678543  0.2065058731458080  0.8280927932340134
  0.1121778423060036  0.1080878748494953  0.6002459277129901
  0.9069552160093792  0.1954378500469716  0.3874131922484949
  0.7627902273595879  0.1193273373924910  0.1224321611795602
  0.5572943377756161  0.2268461749659210  0.8195159883574021
  0.4500016232922235  0.0923846299613515  0.5964243840202457
  0.2314203293295236  0.5551118535793265  0.3259176488543432
  0.1110477469561886  0.4298731228974901  0.1000038638436180
  0.8830435802435090  0.5579522837685928  0.8613839630890325
  0.7670710587345155  0.4149769154770553  0.6232767904571119
  0.5401907732019140  0.5429870626215632  0.3257738594770814
  0.4384397885665692  0.4273636005862045  0.0780956395056123
  0.2379466071825149  0.5483719321616789  0.8207170361033889
  0.1396145935809585  0.4159050770069044  0.5951350950727772
  0.8924628966122512  0.5319986890777102  0.3897730032064217
  0.7777324772815177  0.4287769022770220  0.0971797976069482
  0.5338366460068755  0.5492328366074588  0.8559377293883728
  0.4435186462919134  0.4346739167367062  0.5764939339851267
  0.2221268235273541  0.8708823882996981  0.3596099905851915
  0.1211232403336169  0.7399338662294070  0.0668719926416301
  0.8857320178405317  0.8763419190829538  0.8414883603077499
  0.7658296797075010  0.7810487461702067  0.6231112285098703
  0.5447336139386181  0.8558925997101738  0.3851421680916545
  0.4535548185113782  0.7582142248817476  0.1248144666224889
  0.2306246106381025  0.8559185643746190  0.8393394954228484
  0.0995053201384053  0.7484411328392540  0.5798126669919199
  0.9100776693874550  0.8612386665824374  0.3235552529644536
  0.7675541302833864  0.7490881901554403  0.1197971459613427
  0.5627678396213653  0.8520002414728438  0.8791044592107440
  0.4706865039452097  0.7462499168312604  0.6307312741830984
 
  0.00000000E+00  0.00000000E+00  0.00000000E+00
  0.00000000E+00  0.00000000E+00  0.00000000E+00
  0.00000000E+00  0.00000000E+00  0.00000000E+00
  0.00000000E+00  0.00000000E+00  0.00000000E+00
  0.00000000E+00  0.00000000E+00  0.00000000E+00
  0.00000000E+00  0.00000000E+00  0.00000000E+00
  0.00000000E+00  0.00000000E+00  0.00000000E+00
  0.00000000E+00  0.00000000E+00  0.00000000E+00
  0.00000000E+00  0.00000000E+00  0.00000000E+00
  0.00000000E+00  0.00000000E+00  0.00000000E+00
  0.00000000E+00  0.00000000E+00  0.00000000E+00
  0.00000000E+00  0.00000000E+00  0.00000000E+00
  0.00000000E+00  0.00000000E+00  0.00000000E+00
  0.00000000E+00  0.00000000E+00  0.00000000E+00
  0.00000000E+00  0.00000000E+00  0.00000000E+00
  0.00000000E+00  0.00000000E+00  0.00000000E+00
  0.00000000E+00  0.00000000E+00  0.00000000E+00
  0.00000000E+00  0.00000000E+00  0.00000000E+00
  0.00000000E+00  0.00000000E+00  0.00000000E+00
  0.00000000E+00  0.00000000E+00  0.00000000E+00
  0.00000000E+00  0.00000000E+00  0.00000000E+00
  0.00000000E+00  0.00000000E+00  0.00000000E+00
  0.00000000E+00  0.00000000E+00  0.00000000E+00
  0.00000000E+00  0.00000000E+00  0.00000000E+00
  0.00000000E+00  0.00000000E+00  0.00000000E+00
  0.00000000E+00  0.00000000E+00  0.00000000E+00
  0.00000000E+00  0.00000000E+00  0.00000000E+00
  0.00000000E+00  0.00000000E+00  0.00000000E+00
  0.00000000E+00  0.00000000E+00  0.00000000E+00
  0.00000000E+00  0.00000000E+00  0.00000000E+00
  0.00000000E+00  0.00000000E+00  0.00000000E+00
  0.00000000E+00  0.00000000E+00  0.00000000E+00
  0.00000000E+00  0.00000000E+00  0.00000000E+00
  0.00000000E+00  0.00000000E+00  0.00000000E+00
  0.00000000E+00  0.00000000E+00  0.00000000E+00
  0.00000000E+00  0.00000000E+00  0.00000000E+00
  0.00000000E+00  0.00000000E+00  0.00000000E+00
  0.00000000E+00  0.00000000E+00  0.00000000E+00
  0.00000000E+00  0.00000000E+00  0.00000000E+00
  0.00000000E+00  0.00000000E+00  0.00000000E+00
  0.00000000E+00  0.00000000E+00  0.00000000E+00
  0.00000000E+00  0.00000000E+00  0.00000000E+00
  0.00000000E+00  0.00000000E+00  0.00000000E+00
  0.00000000E+00  0.00000000E+00  0.00000000E+00
  0.00000000E+00  0.00000000E+00  0.00000000E+00
  0.00000000E+00  0.00000000E+00  0.00000000E+00
  0.00000000E+00  0.00000000E+00  0.00000000E+00
  0.00000000E+00  0.00000000E+00  0.00000000E+00
  0.00000000E+00  0.00000000E+00  0.00000000E+00
  0.00000000E+00  0.00000000E+00  0.00000000E+00
  0.00000000E+00  0.00000000E+00  0.00000000E+00
  0.00000000E+00  0.00000000E+00  0.00000000E+00
  0.00000000E+00  0.00000000E+00  0.00000000E+00
  0.00000000E+00  0.00000000E+00  0.00000000E+00
  0.00000000E+00  0.00000000E+00  0.00000000E+00
  0.00000000E+00  0.00000000E+00  0.00000000E+00
  0.00000000E+00  0.00000000E+00  0.00000000E+00
  0.00000000E+00  0.00000000E+00  0.00000000E+00
  0.00000000E+00  0.00000000E+00  0.00000000E+00
  0.00000000E+00  0.00000000E+00  0.00000000E+00
  0.00000000E+00  0.00000000E+00  0.00000000E+00
  0.00000000E+00  0.00000000E+00  0.00000000E+00
  0.00000000E+00  0.00000000E+00  0.00000000E+00
  0.00000000E+00  0.00000000E+00  0.00000000E+00
  0.00000000E+00  0.00000000E+00  0.00000000E+00
  0.00000000E+00  0.00000000E+00  0.00000000E+00
  0.00000000E+00  0.00000000E+00  0.00000000E+00
  0.00000000E+00  0.00000000E+00  0.00000000E+00
  0.00000000E+00  0.00000000E+00  0.00000000E+00
  0.00000000E+00  0.00000000E+00  0.00000000E+00
  0.00000000E+00  0.00000000E+00  0.00000000E+00
  0.00000000E+00  0.00000000E+00  0.00000000E+00
