Al   Sc   N                             
   1.00000000000000     
   -10.1221886993999259    0.0127130999578654   -0.0008527530163226
    -5.1077154634925472    8.7887615611933949   -0.0015289940062960
     0.0031511619768348   -0.0772435684810444   -9.8343245878933914
   Al   Sc   N 
    23    13    36
Direct
  0.1169760827837649  0.0902080221242727  0.3930582407563676
  0.2120594731424603  0.2061414117440066  0.1299924160211674
  0.7724309463346231  0.0997592691752587  0.8166596605385834
  0.8868202563351488  0.2070042309371374  0.5811699076090449
  0.5463248717251687  0.2203858509603762  0.1395809597702353
  0.2336155450029196  0.2059920254731296  0.6350701084806829
  0.8782678383361855  0.2083728232171538  0.0655307442822277
  0.5475387999367811  0.2170357154298301  0.6241759113797514
  0.2261381557715438  0.5404199823734785  0.1340438695373294
  0.4355214493393049  0.4407510749992483  0.3811004642801876
  0.5478830761538163  0.5439664533404240  0.0823368851831248
  0.2311436101989415  0.5364139741701379  0.6304460539765202
  0.8830626059036675  0.5430001725330342  0.0676471815016058
  0.4420931756247128  0.4336462876449048  0.8838812499653841
  0.5578834439445615  0.5359539020145832  0.5761506668978669
  0.1111639074503259  0.7590801549860373  0.3834699328750730
  0.7688367485936425  0.7677303310853105  0.8238255851820497
  0.8905473493950353  0.8700037862082795  0.6316626278488826
  0.4448800215297126  0.7554117999072005  0.3273476080006290
  0.5577237005668252  0.8590857721473668  0.0756111261605596
  0.1233671337167905  0.7531127827710904  0.8760331822119483
  0.4505398988393026  0.7525094974931719  0.8266188320528158
  0.5554567799746337  0.8687950759380740  0.5785005638630381
  0.4409477190984887  0.0905025485410533  0.3590684151306505
  0.1109326520155278  0.0927170392218954  0.8542788961833949
  0.7793528652219592  0.0948408031800057  0.3517628076188970
  0.4577135505358498  0.0926122864746972  0.8697521161613651
  0.1230714566125215  0.4246163896939024  0.3660227154695477
  0.7630401871316650  0.4304648913385947  0.8445995653078597
  0.8918078726939385  0.5341107734301787  0.6046596057290969
  0.1231845869400630  0.4342405863233054  0.8709502063172394
  0.7802026396289676  0.4219028603230583  0.3257865259166692
  0.2154131698570438  0.8771666796132891  0.1195646345200814
  0.2303434728565037  0.8607937510538761  0.6081127474783159
  0.7787345246349204  0.7556852956840387  0.3406487379086229
  0.8825467523377455  0.8754611454416690  0.0964302065268257
  0.2097658066707808  0.1921510092919476  0.3238472011901123
  0.0972855128794379  0.1134968925496267  0.0779098352225063
  0.8742737407037282  0.1955540543202119  0.8705723969814514
  0.7806659653060493  0.0908015639579318  0.6091436603280656
  0.5334018739445128  0.2339301258582651  0.3349824142630808
  0.4466683076668900  0.0919146141397391  0.1018931863652099
  0.2302723369305539  0.2066331959569681  0.8280387342426394
  0.1120725365614135  0.1081546054058080  0.6002155690288404
  0.9063880095000272  0.1963583306020098  0.3874363457086716
  0.7632004280118778  0.1191078018568561  0.1224315496894945
  0.5576480799364276  0.2270807930162135  0.8205081695639436
  0.4499863879253994  0.0923961431129499  0.5970386483633874
  0.2309623038198865  0.5556475132126124  0.3251606398652456
  0.1106575224200341  0.4299156580988068  0.0996617190711717
  0.8822968839834360  0.5570328563046516  0.8612340898158024
  0.7655023790248094  0.4156817833604478  0.6232860235370481
  0.5421054871668431  0.5467776137388256  0.3661355802932320
  0.4381118409434706  0.4265635687579703  0.0810092101972089
  0.2383663762399806  0.5484265205824244  0.8210337236988252
  0.1391940450108535  0.4161202212417123  0.5950973909214099
  0.8918876847798600  0.5316849600334308  0.3897898811170748
  0.7770612389562643  0.4289039478445744  0.0990359518196158
  0.5328831323059475  0.5539423978630182  0.8859203595489831
  0.4423318064208104  0.4322979900225192  0.5776378305054308
  0.2216706723666917  0.8713685177865287  0.3599983329330811
  0.1215072855315142  0.7401906911325682  0.0667526629651078
  0.8859603902609763  0.8761597434195849  0.8416542537766247
  0.7660065981626190  0.7808958370549135  0.6239069116571727
  0.5448709451488725  0.8564433096260160  0.3865763225245047
  0.4556969735285037  0.7548728515901217  0.1319069181804551
  0.2316011553135269  0.8553601706375957  0.8383703299319620
  0.0996495705459708  0.7482709072639864  0.5797936912823616
  0.9101512436500769  0.8609342226777059  0.3233615414696516
  0.7676191820815035  0.7487191718970436  0.1197844049790078
  0.5621248594866657  0.8513888343700415  0.8799414758953574
  0.4728714650818304  0.7431264740977355  0.6322797126322186
 
  0.00000000E+00  0.00000000E+00  0.00000000E+00
  0.00000000E+00  0.00000000E+00  0.00000000E+00
  0.00000000E+00  0.00000000E+00  0.00000000E+00
  0.00000000E+00  0.00000000E+00  0.00000000E+00
  0.00000000E+00  0.00000000E+00  0.00000000E+00
  0.00000000E+00  0.00000000E+00  0.00000000E+00
  0.00000000E+00  0.00000000E+00  0.00000000E+00
  0.00000000E+00  0.00000000E+00  0.00000000E+00
  0.00000000E+00  0.00000000E+00  0.00000000E+00
  0.00000000E+00  0.00000000E+00  0.00000000E+00
  0.00000000E+00  0.00000000E+00  0.00000000E+00
  0.00000000E+00  0.00000000E+00  0.00000000E+00
  0.00000000E+00  0.00000000E+00  0.00000000E+00
  0.00000000E+00  0.00000000E+00  0.00000000E+00
  0.00000000E+00  0.00000000E+00  0.00000000E+00
  0.00000000E+00  0.00000000E+00  0.00000000E+00
  0.00000000E+00  0.00000000E+00  0.00000000E+00
  0.00000000E+00  0.00000000E+00  0.00000000E+00
  0.00000000E+00  0.00000000E+00  0.00000000E+00
  0.00000000E+00  0.00000000E+00  0.00000000E+00
  0.00000000E+00  0.00000000E+00  0.00000000E+00
  0.00000000E+00  0.00000000E+00  0.00000000E+00
  0.00000000E+00  0.00000000E+00  0.00000000E+00
  0.00000000E+00  0.00000000E+00  0.00000000E+00
  0.00000000E+00  0.00000000E+00  0.00000000E+00
  0.00000000E+00  0.00000000E+00  0.00000000E+00
  0.00000000E+00  0.00000000E+00  0.00000000E+00
  0.00000000E+00  0.00000000E+00  0.00000000E+00
  0.00000000E+00  0.00000000E+00  0.00000000E+00
  0.00000000E+00  0.00000000E+00  0.00000000E+00
  0.00000000E+00  0.00000000E+00  0.00000000E+00
  0.00000000E+00  0.00000000E+00  0.00000000E+00
  0.00000000E+00  0.00000000E+00  0.00000000E+00
  0.00000000E+00  0.00000000E+00  0.00000000E+00
  0.00000000E+00  0.00000000E+00  0.00000000E+00
  0.00000000E+00  0.00000000E+00  0.00000000E+00
  0.00000000E+00  0.00000000E+00  0.00000000E+00
  0.00000000E+00  0.00000000E+00  0.00000000E+00
  0.00000000E+00  0.00000000E+00  0.00000000E+00
  0.00000000E+00  0.00000000E+00  0.00000000E+00
  0.00000000E+00  0.00000000E+00  0.00000000E+00
  0.00000000E+00  0.00000000E+00  0.00000000E+00
  0.00000000E+00  0.00000000E+00  0.00000000E+00
  0.00000000E+00  0.00000000E+00  0.00000000E+00
  0.00000000E+00  0.00000000E+00  0.00000000E+00
  0.00000000E+00  0.00000000E+00  0.00000000E+00
  0.00000000E+00  0.00000000E+00  0.00000000E+00
  0.00000000E+00  0.00000000E+00  0.00000000E+00
  0.00000000E+00  0.00000000E+00  0.00000000E+00
  0.00000000E+00  0.00000000E+00  0.00000000E+00
  0.00000000E+00  0.00000000E+00  0.00000000E+00
  0.00000000E+00  0.00000000E+00  0.00000000E+00
  0.00000000E+00  0.00000000E+00  0.00000000E+00
  0.00000000E+00  0.00000000E+00  0.00000000E+00
  0.00000000E+00  0.00000000E+00  0.00000000E+00
  0.00000000E+00  0.00000000E+00  0.00000000E+00
  0.00000000E+00  0.00000000E+00  0.00000000E+00
  0.00000000E+00  0.00000000E+00  0.00000000E+00
  0.00000000E+00  0.00000000E+00  0.00000000E+00
  0.00000000E+00  0.00000000E+00  0.00000000E+00
  0.00000000E+00  0.00000000E+00  0.00000000E+00
  0.00000000E+00  0.00000000E+00  0.00000000E+00
  0.00000000E+00  0.00000000E+00  0.00000000E+00
  0.00000000E+00  0.00000000E+00  0.00000000E+00
  0.00000000E+00  0.00000000E+00  0.00000000E+00
  0.00000000E+00  0.00000000E+00  0.00000000E+00
  0.00000000E+00  0.00000000E+00  0.00000000E+00
  0.00000000E+00  0.00000000E+00  0.00000000E+00
  0.00000000E+00  0.00000000E+00  0.00000000E+00
  0.00000000E+00  0.00000000E+00  0.00000000E+00
  0.00000000E+00  0.00000000E+00  0.00000000E+00
  0.00000000E+00  0.00000000E+00  0.00000000E+00
