Al   Sc   N                             
   1.00000000000000     
   -10.0453007240758811    0.0121135605077412   -0.0116345180957723
    -5.0312992332020894    8.7463129447365571   -0.0068071421930145
     0.0564252707879812    0.0547450314329341  -10.0011819021757198
   Al   Sc   N 
    23    13    36
Direct
  0.1087675305385218  0.0936003717261400  0.3195466147875337
  0.2200389697673089  0.2090326722741338  0.0753429589425210
  0.7734143089403602  0.1005888963912511  0.8157750971803566
  0.8900257608664717  0.2062486091255735  0.5715501704011174
  0.5555396117493672  0.2151349527203976  0.0651636434520384
  0.2245326907325946  0.2030915991609774  0.5695205596090247
  0.8805180348402359  0.2096764841133663  0.0708916427912527
  0.5497302963642525  0.2101435928431670  0.5766712474170248
  0.2323683259621561  0.5369356852014135  0.1312448403515845
  0.4354371549791978  0.4398428031872328  0.3806211745075956
  0.5501825228538380  0.5404065515524152  0.0679873462271274
  0.2269809644296004  0.5411204213727530  0.6281131212953710
  0.8856098253731020  0.5414106192333605  0.0620491292236167
  0.4429411070295757  0.4362490034833471  0.8531114061384528
  0.5562475523984602  0.5390654796588734  0.5749565020009513
  0.1107684342672854  0.7591099321388697  0.3763967953146832
  0.7699714977013628  0.7663034186985271  0.8207336893984944
  0.8908366674222492  0.8726118924566038  0.6328614017991470
  0.4438329165230499  0.7561401946563251  0.3237285695174350
  0.5606234786555504  0.8576219920817465  0.0675715139457509
  0.1211862243564283  0.7542426738310368  0.8775394241675656
  0.4496721322044621  0.7540599185624330  0.8193285909403443
  0.5535327504583591  0.8724822829555521  0.5732649329897654
  0.4435871021763305  0.0913042170726186  0.3253636462052683
  0.1085749083946794  0.0932354863503164  0.8340319426056482
  0.7766233980457145  0.0964810772445404  0.3377209543334772
  0.4522196590689163  0.0882024603086506  0.8340672877079740
  0.1144755931092192  0.4260614451103066  0.3384889868759160
  0.7683593972541161  0.4256195741898949  0.8377855945352906
  0.8889205133847256  0.5367250322808346  0.5943635748795444
  0.1206451646480815  0.4316859702763480  0.8445453197853681
  0.7709494941513029  0.4265466103765689  0.3213886246651754
  0.2286185684100559  0.8679539762851505  0.0939154790623249
  0.2261712029708534  0.8729678309277986  0.5830534952527415
  0.7748473183060298  0.7577812243632565  0.3309561783525155
  0.8855640286329134  0.8741554828643103  0.0939492048393618
  0.2150775540768137  0.1917658457694458  0.3775859222282634
  0.0976269505185172  0.1148782086243543  0.1237725738387425
  0.8790738030662411  0.1915347125225324  0.8832752800860106
  0.7779978281976696  0.0954818214648228  0.6174877914336037
  0.5394068017602365  0.2262156511902020  0.3855916116192191
  0.4511707002949876  0.0889909062696361  0.1053394220600268
  0.2254351201847768  0.2034500162188664  0.8885189041543811
  0.1031681749659441  0.1124350786376880  0.6229858135238686
  0.9067176244665589  0.1972315884237759  0.3826380964002567
  0.7620816607343812  0.1200270459669213  0.1240329607593722
  0.5638230204726895  0.2173460003426229  0.8671974147044992
  0.4443169038832835  0.0919323554228342  0.6146956898721641
  0.2316224824560251  0.5525012969977325  0.3245091250769434
  0.1106104597644517  0.4305408585309465  0.1067689662999740
  0.8813638420703711  0.5564264995559398  0.8630075412771419
  0.7667392989594290  0.4146022883694016  0.6217806534894166
  0.5377312818759208  0.5513289235770102  0.3828779394783766
  0.4423019828223005  0.4287740085421419  0.0873246660112343
  0.2328353794171534  0.5543499682351865  0.8174044766466295
  0.1351095658897563  0.4154012273251837  0.6111027454962326
  0.8870203549660332  0.5333631983875478  0.3854335431373244
  0.7763745910262045  0.4295444989759147  0.0989947347735907
  0.5364495260754367  0.5525997805434741  0.8778390169274388
  0.4435977844057959  0.4321305591659126  0.5995996005224313
  0.2216087326393108  0.8720245042947212  0.3521797677146878
  0.1229326072026282  0.7374022959033795  0.0659284909986297
  0.8898229640772897  0.8742319466358950  0.8397420798459834
  0.7647799784831122  0.7827650060127880  0.6247821195380610
  0.5419908620700014  0.8624083060079855  0.3852487257931116
  0.4661619296195951  0.7458028040668836  0.1327429161850375
  0.2353467166944867  0.8568273283850871  0.8581848514079837
  0.0986765107900709  0.7532496881943231  0.5723794873222445
  0.9089981357504087  0.8607249664504550  0.3169684973732316
  0.7702519514910406  0.7474549220949314  0.1152372246052735
  0.5633545426098934  0.8501735907050687  0.8777882499411120
  0.4665447144394150  0.7491826282409164  0.6301036140294372
 
  0.00000000E+00  0.00000000E+00  0.00000000E+00
  0.00000000E+00  0.00000000E+00  0.00000000E+00
  0.00000000E+00  0.00000000E+00  0.00000000E+00
  0.00000000E+00  0.00000000E+00  0.00000000E+00
  0.00000000E+00  0.00000000E+00  0.00000000E+00
  0.00000000E+00  0.00000000E+00  0.00000000E+00
  0.00000000E+00  0.00000000E+00  0.00000000E+00
  0.00000000E+00  0.00000000E+00  0.00000000E+00
  0.00000000E+00  0.00000000E+00  0.00000000E+00
  0.00000000E+00  0.00000000E+00  0.00000000E+00
  0.00000000E+00  0.00000000E+00  0.00000000E+00
  0.00000000E+00  0.00000000E+00  0.00000000E+00
  0.00000000E+00  0.00000000E+00  0.00000000E+00
  0.00000000E+00  0.00000000E+00  0.00000000E+00
  0.00000000E+00  0.00000000E+00  0.00000000E+00
  0.00000000E+00  0.00000000E+00  0.00000000E+00
  0.00000000E+00  0.00000000E+00  0.00000000E+00
  0.00000000E+00  0.00000000E+00  0.00000000E+00
  0.00000000E+00  0.00000000E+00  0.00000000E+00
  0.00000000E+00  0.00000000E+00  0.00000000E+00
  0.00000000E+00  0.00000000E+00  0.00000000E+00
  0.00000000E+00  0.00000000E+00  0.00000000E+00
  0.00000000E+00  0.00000000E+00  0.00000000E+00
  0.00000000E+00  0.00000000E+00  0.00000000E+00
  0.00000000E+00  0.00000000E+00  0.00000000E+00
  0.00000000E+00  0.00000000E+00  0.00000000E+00
  0.00000000E+00  0.00000000E+00  0.00000000E+00
  0.00000000E+00  0.00000000E+00  0.00000000E+00
  0.00000000E+00  0.00000000E+00  0.00000000E+00
  0.00000000E+00  0.00000000E+00  0.00000000E+00
  0.00000000E+00  0.00000000E+00  0.00000000E+00
  0.00000000E+00  0.00000000E+00  0.00000000E+00
  0.00000000E+00  0.00000000E+00  0.00000000E+00
  0.00000000E+00  0.00000000E+00  0.00000000E+00
  0.00000000E+00  0.00000000E+00  0.00000000E+00
  0.00000000E+00  0.00000000E+00  0.00000000E+00
  0.00000000E+00  0.00000000E+00  0.00000000E+00
  0.00000000E+00  0.00000000E+00  0.00000000E+00
  0.00000000E+00  0.00000000E+00  0.00000000E+00
  0.00000000E+00  0.00000000E+00  0.00000000E+00
  0.00000000E+00  0.00000000E+00  0.00000000E+00
  0.00000000E+00  0.00000000E+00  0.00000000E+00
  0.00000000E+00  0.00000000E+00  0.00000000E+00
  0.00000000E+00  0.00000000E+00  0.00000000E+00
  0.00000000E+00  0.00000000E+00  0.00000000E+00
  0.00000000E+00  0.00000000E+00  0.00000000E+00
  0.00000000E+00  0.00000000E+00  0.00000000E+00
  0.00000000E+00  0.00000000E+00  0.00000000E+00
  0.00000000E+00  0.00000000E+00  0.00000000E+00
  0.00000000E+00  0.00000000E+00  0.00000000E+00
  0.00000000E+00  0.00000000E+00  0.00000000E+00
  0.00000000E+00  0.00000000E+00  0.00000000E+00
  0.00000000E+00  0.00000000E+00  0.00000000E+00
  0.00000000E+00  0.00000000E+00  0.00000000E+00
  0.00000000E+00  0.00000000E+00  0.00000000E+00
  0.00000000E+00  0.00000000E+00  0.00000000E+00
  0.00000000E+00  0.00000000E+00  0.00000000E+00
  0.00000000E+00  0.00000000E+00  0.00000000E+00
  0.00000000E+00  0.00000000E+00  0.00000000E+00
  0.00000000E+00  0.00000000E+00  0.00000000E+00
  0.00000000E+00  0.00000000E+00  0.00000000E+00
  0.00000000E+00  0.00000000E+00  0.00000000E+00
  0.00000000E+00  0.00000000E+00  0.00000000E+00
  0.00000000E+00  0.00000000E+00  0.00000000E+00
  0.00000000E+00  0.00000000E+00  0.00000000E+00
  0.00000000E+00  0.00000000E+00  0.00000000E+00
  0.00000000E+00  0.00000000E+00  0.00000000E+00
  0.00000000E+00  0.00000000E+00  0.00000000E+00
  0.00000000E+00  0.00000000E+00  0.00000000E+00
  0.00000000E+00  0.00000000E+00  0.00000000E+00
  0.00000000E+00  0.00000000E+00  0.00000000E+00
  0.00000000E+00  0.00000000E+00  0.00000000E+00
