Al   Sc   N                             
   1.00000000000000     
   -10.0817800850810446    0.0172383635478920   -0.0049541893987025
    -5.0814764380091626    8.7634141860549217    0.0014808802721203
     0.0069813770043990   -0.0953431692112678   -9.9082553669112432
   Al   Sc   N 
    23    13    36
Direct
  0.1099196780829956  0.0952021702380250  0.3848051405372459
  0.2170017832601729  0.2050761589517478  0.1286439601168041
  0.7694771201194612  0.1048785757649497  0.8819103420851491
  0.8814161883848257  0.2012144128470368  0.6300081658408203
  0.5484994521832505  0.2200686309046915  0.1278894927359246
  0.2294442534286389  0.2066009908228352  0.6278011681539297
  0.8891243226781214  0.2125374748451989  0.1280215445202941
  0.5573255080936832  0.2109779591268506  0.6289994650385538
  0.2292852056051373  0.5390653900184930  0.1322762278882621
  0.4389850039393934  0.4389446733503561  0.3805681224531554
  0.5520240699138697  0.5370217186232011  0.1318724265038824
  0.2301333795794775  0.5364755931210254  0.6276123451488189
  0.8834786015645477  0.5410499934944681  0.0714038352933173
  0.4427141590348427  0.4348983832681483  0.8805384920117945
  0.5517821781104857  0.5316454774511357  0.6328621850496106
  0.1105003438147349  0.7583849780865108  0.3815630534174304
  0.7686714460757358  0.7677760654071193  0.8236911204560329
  0.8851335821435171  0.8798880904031847  0.6387121743823272
  0.4416773981975837  0.7597538746390171  0.3270161660452544
  0.5572706690202622  0.8589232901059631  0.0713457852420163
  0.1239674422011774  0.7522585915113211  0.8734434639269324
  0.4478772015177199  0.7562679661176901  0.8196394562051523
  0.5557546869396148  0.8700907757415095  0.5743472908491540
  0.4440653450775187  0.0935176815293985  0.3584737597514263
  0.1097373898389407  0.0926164905389655  0.8603871477199405
  0.7812407670650359  0.0920973744174844  0.3641248212650936
  0.4553773522156845  0.0906504184081740  0.8621233314508814
  0.1218120550461492  0.4247850768418999  0.3647482377984232
  0.7673376092331594  0.4255511381578145  0.8643899087737310
  0.8920833210990864  0.5371301980535748  0.6077066341187418
  0.1233530886251089  0.4321267403714799  0.8702389390415703
  0.7711651734797655  0.4241606284012533  0.3726487288407654
  0.2167411853684271  0.8755759462553314  0.1187064532245330
  0.2251029569134460  0.8668739431677537  0.6022041721474451
  0.7792506683751910  0.7563304866876095  0.3366756404070301
  0.8877472553234469  0.8690059147760536  0.0956035438416407
  0.2138145902985613  0.1907195829879171  0.3203001555922071
  0.0994740399519856  0.1145318628489846  0.0732090196054642
  0.8788180435468078  0.1925548934023595  0.8193307427684360
  0.7780348217991246  0.0901485907424231  0.5816577516013908
  0.5420776413515611  0.2328651581886518  0.3193773122613734
  0.4468279811039935  0.0932280574690338  0.0937148499778857
  0.2272076282745701  0.2052943959568694  0.8186116264935848
  0.1009024125154525  0.1152325337021765  0.5825331175982598
  0.9095108410538373  0.1931769399782794  0.3192107246501621
  0.7647290848765564  0.1196289701424220  0.0777831559908364
  0.5612858839858887  0.2229763282981878  0.8230186756093971
  0.4498055941020453  0.0943441457879004  0.5939620697391135
  0.2321813840705858  0.5534129967145418  0.3229349002439150
  0.1121711360038660  0.4289791853687248  0.0971316046632822
  0.8822405057255835  0.5554128706257160  0.8585739455384029
  0.7655405908415744  0.4147682177382777  0.5986939133806501
  0.5360666641277660  0.5454857033626510  0.3266039058019103
  0.4417137557551740  0.4308585415752049  0.0729528232096825
  0.2373397833597650  0.5471308071528753  0.8172964023275640
  0.1385102096902529  0.4167307355958130  0.5904110207001239
  0.8912297371359301  0.5351535953338526  0.3914285771677797
  0.7741567486936773  0.4301307279661586  0.0919844757137085
  0.5358602184302939  0.5444084101689128  0.8287608483093010
  0.4447388161711672  0.4288845013822851  0.5734144126635599
  0.2198187410932135  0.8722257579450172  0.3562779837896528
  0.1253814219252405  0.7371069015540144  0.0627608247356477
  0.8852484814043819  0.8782608735083741  0.8441307963049596
  0.7645511604170423  0.7844347956924906  0.6266961446980730
  0.5457012541253121  0.8585899766126843  0.3829631827681510
  0.4549861204425127  0.7564528318036139  0.1265952837637982
  0.2307651097423502  0.8558192710894090  0.8340966553830995
  0.0958686272516758  0.7508214263849879  0.5772019421514756
  0.9112720701896322  0.8621549003404638  0.3131403957911516
  0.7676060052613352  0.7479677207620981  0.1175819753730778
  0.5619015281069437  0.8490958634197767  0.8779927950484137
  0.4671930030956375  0.7499095115319037  0.6229519139201543
 
  0.00000000E+00  0.00000000E+00  0.00000000E+00
  0.00000000E+00  0.00000000E+00  0.00000000E+00
  0.00000000E+00  0.00000000E+00  0.00000000E+00
  0.00000000E+00  0.00000000E+00  0.00000000E+00
  0.00000000E+00  0.00000000E+00  0.00000000E+00
  0.00000000E+00  0.00000000E+00  0.00000000E+00
  0.00000000E+00  0.00000000E+00  0.00000000E+00
  0.00000000E+00  0.00000000E+00  0.00000000E+00
  0.00000000E+00  0.00000000E+00  0.00000000E+00
  0.00000000E+00  0.00000000E+00  0.00000000E+00
  0.00000000E+00  0.00000000E+00  0.00000000E+00
  0.00000000E+00  0.00000000E+00  0.00000000E+00
  0.00000000E+00  0.00000000E+00  0.00000000E+00
  0.00000000E+00  0.00000000E+00  0.00000000E+00
  0.00000000E+00  0.00000000E+00  0.00000000E+00
  0.00000000E+00  0.00000000E+00  0.00000000E+00
  0.00000000E+00  0.00000000E+00  0.00000000E+00
  0.00000000E+00  0.00000000E+00  0.00000000E+00
  0.00000000E+00  0.00000000E+00  0.00000000E+00
  0.00000000E+00  0.00000000E+00  0.00000000E+00
  0.00000000E+00  0.00000000E+00  0.00000000E+00
  0.00000000E+00  0.00000000E+00  0.00000000E+00
  0.00000000E+00  0.00000000E+00  0.00000000E+00
  0.00000000E+00  0.00000000E+00  0.00000000E+00
  0.00000000E+00  0.00000000E+00  0.00000000E+00
  0.00000000E+00  0.00000000E+00  0.00000000E+00
  0.00000000E+00  0.00000000E+00  0.00000000E+00
  0.00000000E+00  0.00000000E+00  0.00000000E+00
  0.00000000E+00  0.00000000E+00  0.00000000E+00
  0.00000000E+00  0.00000000E+00  0.00000000E+00
  0.00000000E+00  0.00000000E+00  0.00000000E+00
  0.00000000E+00  0.00000000E+00  0.00000000E+00
  0.00000000E+00  0.00000000E+00  0.00000000E+00
  0.00000000E+00  0.00000000E+00  0.00000000E+00
  0.00000000E+00  0.00000000E+00  0.00000000E+00
  0.00000000E+00  0.00000000E+00  0.00000000E+00
  0.00000000E+00  0.00000000E+00  0.00000000E+00
  0.00000000E+00  0.00000000E+00  0.00000000E+00
  0.00000000E+00  0.00000000E+00  0.00000000E+00
  0.00000000E+00  0.00000000E+00  0.00000000E+00
  0.00000000E+00  0.00000000E+00  0.00000000E+00
  0.00000000E+00  0.00000000E+00  0.00000000E+00
  0.00000000E+00  0.00000000E+00  0.00000000E+00
  0.00000000E+00  0.00000000E+00  0.00000000E+00
  0.00000000E+00  0.00000000E+00  0.00000000E+00
  0.00000000E+00  0.00000000E+00  0.00000000E+00
  0.00000000E+00  0.00000000E+00  0.00000000E+00
  0.00000000E+00  0.00000000E+00  0.00000000E+00
  0.00000000E+00  0.00000000E+00  0.00000000E+00
  0.00000000E+00  0.00000000E+00  0.00000000E+00
  0.00000000E+00  0.00000000E+00  0.00000000E+00
  0.00000000E+00  0.00000000E+00  0.00000000E+00
  0.00000000E+00  0.00000000E+00  0.00000000E+00
  0.00000000E+00  0.00000000E+00  0.00000000E+00
  0.00000000E+00  0.00000000E+00  0.00000000E+00
  0.00000000E+00  0.00000000E+00  0.00000000E+00
  0.00000000E+00  0.00000000E+00  0.00000000E+00
  0.00000000E+00  0.00000000E+00  0.00000000E+00
  0.00000000E+00  0.00000000E+00  0.00000000E+00
  0.00000000E+00  0.00000000E+00  0.00000000E+00
  0.00000000E+00  0.00000000E+00  0.00000000E+00
  0.00000000E+00  0.00000000E+00  0.00000000E+00
  0.00000000E+00  0.00000000E+00  0.00000000E+00
  0.00000000E+00  0.00000000E+00  0.00000000E+00
  0.00000000E+00  0.00000000E+00  0.00000000E+00
  0.00000000E+00  0.00000000E+00  0.00000000E+00
  0.00000000E+00  0.00000000E+00  0.00000000E+00
  0.00000000E+00  0.00000000E+00  0.00000000E+00
  0.00000000E+00  0.00000000E+00  0.00000000E+00
  0.00000000E+00  0.00000000E+00  0.00000000E+00
  0.00000000E+00  0.00000000E+00  0.00000000E+00
  0.00000000E+00  0.00000000E+00  0.00000000E+00
