Al   Sc   N                             
   1.00000000000000     
    -9.9409193103110276    0.0105287228414253   -0.0144940182820027
    -4.9811479404372871    8.6401083122291222   -0.0089761542547960
    -0.0169271919045987    0.0025592742782954  -10.1781490824826797
   Al   Sc   N 
    23    13    36
Direct
  0.1099797908068822  0.0953411370162272  0.3043965950135075
  0.2206653302342261  0.2087023910486323  0.0582482488327543
  0.7750762563712712  0.0953141609583028  0.8000296906705060
  0.8885133731113299  0.2064898067787908  0.5574991497437694
  0.5560624017090774  0.2155115444104396  0.0549607991035472
  0.2244926875524627  0.2035479423715714  0.5529318277532340
  0.8832548771648305  0.2079446293672902  0.0559715575661244
  0.5475305881896730  0.2156969954038956  0.5614968058375780
  0.2286053338401004  0.5374946534713771  0.0566894769506661
  0.4390585053828246  0.4387910823007246  0.3100057065400748
  0.5511308698175412  0.5399801484393478  0.0560774625756295
  0.2290620055303023  0.5372508364768294  0.5573003196891335
  0.8873012488723973  0.5418607911338640  0.0450116971480483
  0.4426430256768512  0.4362770884927869  0.8087169419170550
  0.5518543751588396  0.5361688385853043  0.5583659493564994
  0.1175246838814701  0.7569248835410818  0.3091136406371362
  0.7728319735656797  0.7681503722779865  0.8024887467380708
  0.8897588293688585  0.8713171970578486  0.5642448107593196
  0.4447845324233910  0.7566816065365600  0.3080796786072781
  0.5616314374301297  0.8595977749825110  0.0530059724673606
  0.1135789229535504  0.7570740688382855  0.8052196614151939
  0.4475300457136342  0.7525586929023476  0.8072734497503262
  0.5526756261022143  0.8718778748761693  0.5607938643222283
  0.4448700982771783  0.0922951040215025  0.3123100215320562
  0.1101206080376897  0.0901581503760340  0.8141989747572040
  0.7771678341087807  0.0978387982150508  0.3258319359762041
  0.4538285188412772  0.0890298688815179  0.8181103222599546
  0.1172889048729218  0.4293305383968260  0.3115879008300553
  0.7674176895265674  0.4256064419705936  0.8231357595860302
  0.8877418239961941  0.5368969673209705  0.5754197427142316
  0.1221310236271904  0.4299665838028446  0.8153161293593314
  0.7722498123754633  0.4276317896263322  0.3046118708295182
  0.2282109614995989  0.8670534480803340  0.0714453593925057
  0.2241780587541129  0.8691489995384245  0.5568947683466732
  0.7764581821063032  0.7593768692509073  0.3162239031850547
  0.8851066897773165  0.8757336101266660  0.0567387559240800
  0.2148860965214965  0.1956883552732904  0.3648748801933834
  0.0988825941512559  0.1147434418953779  0.1131565069350060
  0.8805540029906709  0.1888477691117600  0.8714829806586977
  0.7760445336280242  0.0959140992840162  0.6063821133940834
  0.5382949922834115  0.2326605976477865  0.3754008263211475
  0.4506751668465867  0.0906217216910079  0.0951726434459914
  0.2250422639396277  0.2023693622158902  0.8750707540524871
  0.1040843095948176  0.1096921280053138  0.6072758060904633
  0.9066426620663108  0.1992903635744057  0.3713155426271300
  0.7662189044267365  0.1144925260172798  0.1167761503281710
  0.5631108334226198  0.2211548913067105  0.8643468514477206
  0.4439674913357337  0.0937724905268027  0.6018654051382413
  0.2321583731432710  0.5515359314297470  0.3710158010375224
  0.1112196589997509  0.4306153400929134  0.0940569300174445
  0.8820766990051538  0.5566298463118997  0.8514918360041079
  0.7641258685093746  0.4160617504327320  0.6099495341349552
  0.5361990182090111  0.5495489796418909  0.3700729891734653
  0.4438565054664210  0.4293474702002982  0.1183754673018527
  0.2335179863057064  0.5504998206886640  0.8709288610030015
  0.1354759393765050  0.4159551913615616  0.6018619891527877
  0.8897294270891223  0.5336346403313215  0.3702682419110346
  0.7771833920600741  0.4293667352186432  0.0860075978164403
  0.5330690357894738  0.5495993633789169  0.8716781608382433
  0.4419973788837979  0.4318190800887507  0.6201719795824090
  0.2222562421047272  0.8737663481058817  0.3399262538554950
  0.1166421263767248  0.7418090941211233  0.1224816383229665
  0.8849202132409602  0.8755393973599439  0.8474018255141331
  0.7646686806936600  0.7829821038318485  0.6131760919360758
  0.5435161385809835  0.8615956717464357  0.3750263271614784
  0.4670950519976174  0.7471623706321324  0.1209105404876425
  0.2313022054479674  0.8532319028354536  0.8553591006869397
  0.1045329197934137  0.7491854986997453  0.6185857932431489
  0.9098752636251817  0.8608588327074855  0.3738321057236575
  0.7731438422439751  0.7505718964286459  0.1060086350027802
  0.5634208777756413  0.8495795159396380  0.8658661464179218
  0.4627127771255459  0.7487999096569879  0.6197143430089653
 
  0.00000000E+00  0.00000000E+00  0.00000000E+00
  0.00000000E+00  0.00000000E+00  0.00000000E+00
  0.00000000E+00  0.00000000E+00  0.00000000E+00
  0.00000000E+00  0.00000000E+00  0.00000000E+00
  0.00000000E+00  0.00000000E+00  0.00000000E+00
  0.00000000E+00  0.00000000E+00  0.00000000E+00
  0.00000000E+00  0.00000000E+00  0.00000000E+00
  0.00000000E+00  0.00000000E+00  0.00000000E+00
  0.00000000E+00  0.00000000E+00  0.00000000E+00
  0.00000000E+00  0.00000000E+00  0.00000000E+00
  0.00000000E+00  0.00000000E+00  0.00000000E+00
  0.00000000E+00  0.00000000E+00  0.00000000E+00
  0.00000000E+00  0.00000000E+00  0.00000000E+00
  0.00000000E+00  0.00000000E+00  0.00000000E+00
  0.00000000E+00  0.00000000E+00  0.00000000E+00
  0.00000000E+00  0.00000000E+00  0.00000000E+00
  0.00000000E+00  0.00000000E+00  0.00000000E+00
  0.00000000E+00  0.00000000E+00  0.00000000E+00
  0.00000000E+00  0.00000000E+00  0.00000000E+00
  0.00000000E+00  0.00000000E+00  0.00000000E+00
  0.00000000E+00  0.00000000E+00  0.00000000E+00
  0.00000000E+00  0.00000000E+00  0.00000000E+00
  0.00000000E+00  0.00000000E+00  0.00000000E+00
  0.00000000E+00  0.00000000E+00  0.00000000E+00
  0.00000000E+00  0.00000000E+00  0.00000000E+00
  0.00000000E+00  0.00000000E+00  0.00000000E+00
  0.00000000E+00  0.00000000E+00  0.00000000E+00
  0.00000000E+00  0.00000000E+00  0.00000000E+00
  0.00000000E+00  0.00000000E+00  0.00000000E+00
  0.00000000E+00  0.00000000E+00  0.00000000E+00
  0.00000000E+00  0.00000000E+00  0.00000000E+00
  0.00000000E+00  0.00000000E+00  0.00000000E+00
  0.00000000E+00  0.00000000E+00  0.00000000E+00
  0.00000000E+00  0.00000000E+00  0.00000000E+00
  0.00000000E+00  0.00000000E+00  0.00000000E+00
  0.00000000E+00  0.00000000E+00  0.00000000E+00
  0.00000000E+00  0.00000000E+00  0.00000000E+00
  0.00000000E+00  0.00000000E+00  0.00000000E+00
  0.00000000E+00  0.00000000E+00  0.00000000E+00
  0.00000000E+00  0.00000000E+00  0.00000000E+00
  0.00000000E+00  0.00000000E+00  0.00000000E+00
  0.00000000E+00  0.00000000E+00  0.00000000E+00
  0.00000000E+00  0.00000000E+00  0.00000000E+00
  0.00000000E+00  0.00000000E+00  0.00000000E+00
  0.00000000E+00  0.00000000E+00  0.00000000E+00
  0.00000000E+00  0.00000000E+00  0.00000000E+00
  0.00000000E+00  0.00000000E+00  0.00000000E+00
  0.00000000E+00  0.00000000E+00  0.00000000E+00
  0.00000000E+00  0.00000000E+00  0.00000000E+00
  0.00000000E+00  0.00000000E+00  0.00000000E+00
  0.00000000E+00  0.00000000E+00  0.00000000E+00
  0.00000000E+00  0.00000000E+00  0.00000000E+00
  0.00000000E+00  0.00000000E+00  0.00000000E+00
  0.00000000E+00  0.00000000E+00  0.00000000E+00
  0.00000000E+00  0.00000000E+00  0.00000000E+00
  0.00000000E+00  0.00000000E+00  0.00000000E+00
  0.00000000E+00  0.00000000E+00  0.00000000E+00
  0.00000000E+00  0.00000000E+00  0.00000000E+00
  0.00000000E+00  0.00000000E+00  0.00000000E+00
  0.00000000E+00  0.00000000E+00  0.00000000E+00
  0.00000000E+00  0.00000000E+00  0.00000000E+00
  0.00000000E+00  0.00000000E+00  0.00000000E+00
  0.00000000E+00  0.00000000E+00  0.00000000E+00
  0.00000000E+00  0.00000000E+00  0.00000000E+00
  0.00000000E+00  0.00000000E+00  0.00000000E+00
  0.00000000E+00  0.00000000E+00  0.00000000E+00
  0.00000000E+00  0.00000000E+00  0.00000000E+00
  0.00000000E+00  0.00000000E+00  0.00000000E+00
  0.00000000E+00  0.00000000E+00  0.00000000E+00
  0.00000000E+00  0.00000000E+00  0.00000000E+00
  0.00000000E+00  0.00000000E+00  0.00000000E+00
  0.00000000E+00  0.00000000E+00  0.00000000E+00
