supercell of 100% icsd_608626.cif, 0% i 
   1.00000000000000     
    -9.4717519505904750    0.0000009120951533   -0.0000032302793605
    -4.7358767735028451    8.2334279471413048   -0.0026406205950916
    -0.0000034571520463    0.0032661332490262  -10.1557285179222028
   Ca   Al   Ge   N 
     2    32     2    36
Direct
  0.1135693239164581  0.0906532508788516  0.2891940687747621
  0.7791106280337559  0.0906542433228736  0.2891949233922873
  0.2225385455306963  0.2076828952907235  0.0383305343381579
  0.7764893743112893  0.0940892241494424  0.8039092254196660
  0.4387146845875236  0.1059035670337565  0.2975002752927693
  0.5531110409463835  0.2076830427635841  0.0383305845714688
  0.1127553966273425  0.0940888222998595  0.8039102673186491
  0.2205461535357287  0.2107817373522067  0.5460790356684129
  0.8877377419858945  0.2078569835106734  0.0296662826146488
  0.4446950785534014  0.0939436496501358  0.7970301296755480
  0.5520074165271396  0.2107818512846293  0.5460790179430219
  0.1130964972529469  0.4281253380633530  0.2973390795376716
  0.2222389822284043  0.5388538482323995  0.0474517798968179
  0.7752273658358249  0.4328782468860481  0.7982090335944392
  0.8906751617947961  0.5382268872221019  0.5423245647305421
  0.4421102100579049  0.4281252542692471  0.2973390094179820
  0.5555162746353659  0.5383840411016934  0.0478913063176449
  0.1104493738111927  0.4305837672625756  0.7959648218275746
  0.2222038511135480  0.5389258116861271  0.5422445200797839
  0.7748694261011053  0.4335939964371249  0.2971981582122609
  0.8894317737040325  0.5383842219149244  0.0478913287690617
  0.4422994223798611  0.4305839299061986  0.7959647844034023
  0.5544322860997895  0.5382261597046920  0.5423244521403774
  0.1164090953654764  0.7505144557196246  0.2986713119594597
  0.2223967035972052  0.8702012987013958  0.0381036227798575
  0.7767057147509107  0.7599280812557794  0.7992341727440149
  0.8947308027809839  0.8662472254554245  0.5477627221557668
  0.4433516473692976  0.7559009189849917  0.2957308386870210
  0.5546949134138188  0.8739428715809083  0.0478845331968216
  0.1132557211142355  0.7568213861828426  0.7951201178572731
  0.2223572336462780  0.8662463538302418  0.5477629235566397
  0.7840800432510306  0.7559014310545251  0.2957306674191074
  0.8907342498268846  0.8702020316683701  0.0381038887062530
  0.4466997857827479  0.7599278905495979  0.7992338283773321
  0.8861259074102890  0.2110853829540957  0.5523151248646201
  0.5552122962830097  0.8729103513112477  0.5437342830345031
  0.2311122867893474  0.2199230363025180  0.3652758006655006
  0.1107272776470012  0.0946271443797002  0.0665170867209639
  0.8858582628819818  0.2116169841064632  0.8421570670103051
  0.7780440939623858  0.0931416010353558  0.6076679551267219
  0.5322973937185580  0.2199230817862698  0.3652758675274157
  0.4436771958649430  0.0959779695417424  0.1052651993737825
  0.2244991198250830  0.2091054986115068  0.8488146341198615
  0.1121512803510925  0.0931406363453746  0.6076687428115832
  0.8736874235080450  0.2359601236749285  0.3774790765868801
  0.7779778314188448  0.0946276901912952  0.0665178815004666
  0.5497289245188242  0.2091055909425918  0.8488145302728611
  0.4468728242636075  0.0895896904828888  0.6076177820125821
  0.2239682724896355  0.5353954991892635  0.3542561408961546
  0.1112939266805313  0.4268886463533192  0.1052081842917261
  0.8885579475248306  0.5399609785359658  0.8574949724526917
  0.7742833376647411  0.4347679585909177  0.6104294171232922
  0.5559558499445245  0.5394403013800400  0.3543736251734515
  0.4451491548121354  0.4268888675194873  0.1052081083544181
  0.2224096681299699  0.5385129451603916  0.8575189518405608
  0.1085354360343160  0.4316271428911023  0.6070660574231823
  0.8879358788119802  0.5394410366080820  0.3543737834516634
  0.7790598930103272  0.4252124622081155  0.1051501968585242
  0.5548138591801433  0.5399608512712675  0.8574948805656391
  0.4431709517328599  0.4316272181660210  0.6070660215849770
  0.2377835197946396  0.8394951924063960  0.3668178987189137
  0.1106693765939326  0.7619936146920523  0.1047304519909673
  0.8912897905875283  0.8666611038132928  0.8490018003550759
  0.7732713876544679  0.7612240637365986  0.6076204940051113
  0.5547843856426127  0.8737642789847939  0.3552398994422106
  0.4436476536586866  0.7621560462511212  0.1055160087319322
  0.2253825284317656  0.8666604771442223  0.8490015993110873
  0.1133110943345343  0.7567119470465045  0.6092931336079417
  0.9060538370232578  0.8394956303393499  0.3668177207586041
  0.7775288638478273  0.7621561799012184  0.1055159269284758
  0.5550894341778303  0.8731543351487261  0.8573577824165852
  0.4488399133247185  0.7612237257888808  0.6076201007121611
 
  0.00000000E+00  0.00000000E+00  0.00000000E+00
  0.00000000E+00  0.00000000E+00  0.00000000E+00
  0.00000000E+00  0.00000000E+00  0.00000000E+00
  0.00000000E+00  0.00000000E+00  0.00000000E+00
  0.00000000E+00  0.00000000E+00  0.00000000E+00
  0.00000000E+00  0.00000000E+00  0.00000000E+00
  0.00000000E+00  0.00000000E+00  0.00000000E+00
  0.00000000E+00  0.00000000E+00  0.00000000E+00
  0.00000000E+00  0.00000000E+00  0.00000000E+00
  0.00000000E+00  0.00000000E+00  0.00000000E+00
  0.00000000E+00  0.00000000E+00  0.00000000E+00
  0.00000000E+00  0.00000000E+00  0.00000000E+00
  0.00000000E+00  0.00000000E+00  0.00000000E+00
  0.00000000E+00  0.00000000E+00  0.00000000E+00
  0.00000000E+00  0.00000000E+00  0.00000000E+00
  0.00000000E+00  0.00000000E+00  0.00000000E+00
  0.00000000E+00  0.00000000E+00  0.00000000E+00
  0.00000000E+00  0.00000000E+00  0.00000000E+00
  0.00000000E+00  0.00000000E+00  0.00000000E+00
  0.00000000E+00  0.00000000E+00  0.00000000E+00
  0.00000000E+00  0.00000000E+00  0.00000000E+00
  0.00000000E+00  0.00000000E+00  0.00000000E+00
  0.00000000E+00  0.00000000E+00  0.00000000E+00
  0.00000000E+00  0.00000000E+00  0.00000000E+00
  0.00000000E+00  0.00000000E+00  0.00000000E+00
  0.00000000E+00  0.00000000E+00  0.00000000E+00
  0.00000000E+00  0.00000000E+00  0.00000000E+00
  0.00000000E+00  0.00000000E+00  0.00000000E+00
  0.00000000E+00  0.00000000E+00  0.00000000E+00
  0.00000000E+00  0.00000000E+00  0.00000000E+00
  0.00000000E+00  0.00000000E+00  0.00000000E+00
  0.00000000E+00  0.00000000E+00  0.00000000E+00
  0.00000000E+00  0.00000000E+00  0.00000000E+00
  0.00000000E+00  0.00000000E+00  0.00000000E+00
  0.00000000E+00  0.00000000E+00  0.00000000E+00
  0.00000000E+00  0.00000000E+00  0.00000000E+00
  0.00000000E+00  0.00000000E+00  0.00000000E+00
  0.00000000E+00  0.00000000E+00  0.00000000E+00
  0.00000000E+00  0.00000000E+00  0.00000000E+00
  0.00000000E+00  0.00000000E+00  0.00000000E+00
  0.00000000E+00  0.00000000E+00  0.00000000E+00
  0.00000000E+00  0.00000000E+00  0.00000000E+00
  0.00000000E+00  0.00000000E+00  0.00000000E+00
  0.00000000E+00  0.00000000E+00  0.00000000E+00
  0.00000000E+00  0.00000000E+00  0.00000000E+00
  0.00000000E+00  0.00000000E+00  0.00000000E+00
  0.00000000E+00  0.00000000E+00  0.00000000E+00
  0.00000000E+00  0.00000000E+00  0.00000000E+00
  0.00000000E+00  0.00000000E+00  0.00000000E+00
  0.00000000E+00  0.00000000E+00  0.00000000E+00
  0.00000000E+00  0.00000000E+00  0.00000000E+00
  0.00000000E+00  0.00000000E+00  0.00000000E+00
  0.00000000E+00  0.00000000E+00  0.00000000E+00
  0.00000000E+00  0.00000000E+00  0.00000000E+00
  0.00000000E+00  0.00000000E+00  0.00000000E+00
  0.00000000E+00  0.00000000E+00  0.00000000E+00
  0.00000000E+00  0.00000000E+00  0.00000000E+00
  0.00000000E+00  0.00000000E+00  0.00000000E+00
  0.00000000E+00  0.00000000E+00  0.00000000E+00
  0.00000000E+00  0.00000000E+00  0.00000000E+00
  0.00000000E+00  0.00000000E+00  0.00000000E+00
  0.00000000E+00  0.00000000E+00  0.00000000E+00
  0.00000000E+00  0.00000000E+00  0.00000000E+00
  0.00000000E+00  0.00000000E+00  0.00000000E+00
  0.00000000E+00  0.00000000E+00  0.00000000E+00
  0.00000000E+00  0.00000000E+00  0.00000000E+00
  0.00000000E+00  0.00000000E+00  0.00000000E+00
  0.00000000E+00  0.00000000E+00  0.00000000E+00
  0.00000000E+00  0.00000000E+00  0.00000000E+00
  0.00000000E+00  0.00000000E+00  0.00000000E+00
  0.00000000E+00  0.00000000E+00  0.00000000E+00
  0.00000000E+00  0.00000000E+00  0.00000000E+00
