supercell of 100% icsd_608626.cif, 0% i 
   1.00000000000000     
    -9.4979914380323791    0.0050700052482420   -0.0010463504335298
    -4.7533864757300481    8.2229699712461528   -0.0010480303135659
    -0.0011148479515612    0.0006457329432133  -10.1482265645626288
   Al   Ge   Ca   N 
    32     2     2    36
Direct
  0.1112099637480242  0.1004169346531114  0.2946011323057789
  0.2188897733255075  0.2056986075265428  0.0474086650833883
  0.8928283254652669  0.2094951518645232  0.5475176020902310
  0.4389364528526087  0.1000073917734667  0.2959217600117938
  0.5574341558566402  0.2053710101323958  0.0411259652239053
  0.1160984459748207  0.0925649682839591  0.7945218132261260
  0.2229652896636978  0.2037877668527486  0.5437617495709475
  0.8900302972147855  0.2066975640606117  0.0411307722752667
  0.4411615869121803  0.0927627945677827  0.7950413968699834
  0.5494341230338549  0.2071692860709078  0.5480689363295355
  0.1080886013161901  0.4247552118522009  0.2993640957392856
  0.7758979035574924  0.4327643796814371  0.7945218287963485
  0.8871217528005744  0.5396313049299692  0.5437618069003349
  0.4448189976559789  0.4236508155020218  0.2996865820992554
  0.5619865054324009  0.5312009361908281  0.0472002430425889
  0.1109777878976175  0.4276435599625898  0.7888526782406089
  0.2222714135116703  0.5389389229764632  0.5441618188767450
  0.7837489597314971  0.4278775848884777  0.2946011719258479
  0.8890321299355790  0.5355557666892494  0.0474085790277385
  0.4417616926258603  0.4326375001271856  0.7875911050698008
  0.5568465197206010  0.5399410607736570  0.5475917967879482
  0.1069833408552370  0.7614867278495154  0.2996866831878009
  0.2145338082407235  0.8786543026583047  0.0472003566498032
  0.7760966239934959  0.7578264334370672  0.7950414266665504
  0.8905017094116303  0.8661013337736847  0.5480681979089255
  0.5571907530871982  0.8738567878036463  0.0462140693042343
  0.1159716850500345  0.7584275414938091  0.7875911427785240
  0.2232738851346667  0.8735135182532119  0.5475919117065047
  0.7833404372838686  0.7556027760437729  0.2959217881449874
  0.8887044230172094  0.8741006662426685  0.0411271847512964
  0.4441014044903895  0.7607685010928407  0.7969522848075954
  0.5553603259385724  0.8720267508635757  0.5483610422396055
  0.7779648052617532  0.0946282290675313  0.7988697128267859
  0.4442207332964543  0.7608886595199351  0.2954992106752528
  0.7780746303429922  0.0947422904007880  0.2878427354496651
  0.2227495091675635  0.5394173522876642  0.0515083625216164
  0.2242055026310226  0.2018036753004395  0.3567200657726204
  0.1104499822754903  0.0954326833136250  0.1040085009170895
  0.8907576548740295  0.2074231547200185  0.8485440083945548
  0.7781548456284000  0.0948207413344164  0.6067499050229443
  0.5280541308792053  0.2158350314137394  0.3679012094370719
  0.4447255740464726  0.0951065793417953  0.1039055905697026
  0.2214461582512186  0.2068453452561059  0.8555069577512882
  0.1140710989627394  0.0927844534511877  0.6075611361940787
  0.9037105199343145  0.2203781751199543  0.3650902389321686
  0.7781416193310093  0.0948082002420065  0.0649849292382143
  0.5518240816308833  0.2079286128475104  0.8474027371866200
  0.4434093640133412  0.0917012490986124  0.6081030277201407
  0.2223107261713722  0.5389784196998235  0.3510194531068436
  0.0953142128709743  0.4119805800544398  0.1163212902900383
  0.8901793104154123  0.5381112387271969  0.8555068694152155
  0.7761176597322859  0.4307377954696037  0.6075611242425012
  0.5561811272735397  0.5422761816073418  0.3566753604240063
  0.4793680472425805  0.4081322479010936  0.1172969332211906
  0.2217061613751099  0.5383723773090807  0.8286199022690255
  0.1095074768149473  0.4261734513843010  0.5989378372352760
  0.8851370039364213  0.5408718934549057  0.3567201094126489
  0.7787649833956110  0.4271172432268386  0.1040084578452820
  0.5547884524339182  0.5389041499370251  0.8561269735191672
  0.4469674319321371  0.4295850358327584  0.6009390091414275
  0.2256083191165743  0.8728491123075770  0.3566755914635138
  0.0914656808026635  0.7960356182558428  0.1172972801448253
  0.8912639557319011  0.8684872887436583  0.8474039428446858
  0.7750350437425908  0.7600754749831609  0.6081030743848075
  0.5544352844794957  0.8711022281888532  0.3542982057475612
  0.4438451403444645  0.7605122964392450  0.1061605147045128
  0.2222370301214340  0.8714556867259802  0.8561270029544019
  0.1129172562272629  0.7636348803775306  0.6009390913946717
  0.8991672537634443  0.8447214459093573  0.3679006629462833
  0.7784405395314664  0.7613913885202095  0.1039057138256112
  0.5549919523676436  0.8716580020772753  0.8569956677893771
  0.4446906649139919  0.7613576712793417  0.6066640154279312
 
  0.00000000E+00  0.00000000E+00  0.00000000E+00
  0.00000000E+00  0.00000000E+00  0.00000000E+00
  0.00000000E+00  0.00000000E+00  0.00000000E+00
  0.00000000E+00  0.00000000E+00  0.00000000E+00
  0.00000000E+00  0.00000000E+00  0.00000000E+00
  0.00000000E+00  0.00000000E+00  0.00000000E+00
  0.00000000E+00  0.00000000E+00  0.00000000E+00
  0.00000000E+00  0.00000000E+00  0.00000000E+00
  0.00000000E+00  0.00000000E+00  0.00000000E+00
  0.00000000E+00  0.00000000E+00  0.00000000E+00
  0.00000000E+00  0.00000000E+00  0.00000000E+00
  0.00000000E+00  0.00000000E+00  0.00000000E+00
  0.00000000E+00  0.00000000E+00  0.00000000E+00
  0.00000000E+00  0.00000000E+00  0.00000000E+00
  0.00000000E+00  0.00000000E+00  0.00000000E+00
  0.00000000E+00  0.00000000E+00  0.00000000E+00
  0.00000000E+00  0.00000000E+00  0.00000000E+00
  0.00000000E+00  0.00000000E+00  0.00000000E+00
  0.00000000E+00  0.00000000E+00  0.00000000E+00
  0.00000000E+00  0.00000000E+00  0.00000000E+00
  0.00000000E+00  0.00000000E+00  0.00000000E+00
  0.00000000E+00  0.00000000E+00  0.00000000E+00
  0.00000000E+00  0.00000000E+00  0.00000000E+00
  0.00000000E+00  0.00000000E+00  0.00000000E+00
  0.00000000E+00  0.00000000E+00  0.00000000E+00
  0.00000000E+00  0.00000000E+00  0.00000000E+00
  0.00000000E+00  0.00000000E+00  0.00000000E+00
  0.00000000E+00  0.00000000E+00  0.00000000E+00
  0.00000000E+00  0.00000000E+00  0.00000000E+00
  0.00000000E+00  0.00000000E+00  0.00000000E+00
  0.00000000E+00  0.00000000E+00  0.00000000E+00
  0.00000000E+00  0.00000000E+00  0.00000000E+00
  0.00000000E+00  0.00000000E+00  0.00000000E+00
  0.00000000E+00  0.00000000E+00  0.00000000E+00
  0.00000000E+00  0.00000000E+00  0.00000000E+00
  0.00000000E+00  0.00000000E+00  0.00000000E+00
  0.00000000E+00  0.00000000E+00  0.00000000E+00
  0.00000000E+00  0.00000000E+00  0.00000000E+00
  0.00000000E+00  0.00000000E+00  0.00000000E+00
  0.00000000E+00  0.00000000E+00  0.00000000E+00
  0.00000000E+00  0.00000000E+00  0.00000000E+00
  0.00000000E+00  0.00000000E+00  0.00000000E+00
  0.00000000E+00  0.00000000E+00  0.00000000E+00
  0.00000000E+00  0.00000000E+00  0.00000000E+00
  0.00000000E+00  0.00000000E+00  0.00000000E+00
  0.00000000E+00  0.00000000E+00  0.00000000E+00
  0.00000000E+00  0.00000000E+00  0.00000000E+00
  0.00000000E+00  0.00000000E+00  0.00000000E+00
  0.00000000E+00  0.00000000E+00  0.00000000E+00
  0.00000000E+00  0.00000000E+00  0.00000000E+00
  0.00000000E+00  0.00000000E+00  0.00000000E+00
  0.00000000E+00  0.00000000E+00  0.00000000E+00
  0.00000000E+00  0.00000000E+00  0.00000000E+00
  0.00000000E+00  0.00000000E+00  0.00000000E+00
  0.00000000E+00  0.00000000E+00  0.00000000E+00
  0.00000000E+00  0.00000000E+00  0.00000000E+00
  0.00000000E+00  0.00000000E+00  0.00000000E+00
  0.00000000E+00  0.00000000E+00  0.00000000E+00
  0.00000000E+00  0.00000000E+00  0.00000000E+00
  0.00000000E+00  0.00000000E+00  0.00000000E+00
  0.00000000E+00  0.00000000E+00  0.00000000E+00
  0.00000000E+00  0.00000000E+00  0.00000000E+00
  0.00000000E+00  0.00000000E+00  0.00000000E+00
  0.00000000E+00  0.00000000E+00  0.00000000E+00
  0.00000000E+00  0.00000000E+00  0.00000000E+00
  0.00000000E+00  0.00000000E+00  0.00000000E+00
  0.00000000E+00  0.00000000E+00  0.00000000E+00
  0.00000000E+00  0.00000000E+00  0.00000000E+00
  0.00000000E+00  0.00000000E+00  0.00000000E+00
  0.00000000E+00  0.00000000E+00  0.00000000E+00
  0.00000000E+00  0.00000000E+00  0.00000000E+00
  0.00000000E+00  0.00000000E+00  0.00000000E+00
