POSCAR                                  
  0.915000000000000     
     2.3457918390699999   -7.8912938642400006   -4.7243859044400001
     0.0178415207775000   -5.1979898049899989    9.3466681752799996
   -14.2112353421000002   -0.0216709463584000   -0.0361405282937000
   Gd   Al   N 
    12    36    48
Direct
  0.1678107883209776  0.8667340021622252  0.8717144648073685
  0.7709035394103623  0.8743546529286519  0.7878387812650729
  0.9897513012445245  0.5183346116221017  0.8139447180317916
  0.4989567209359649  0.2769488920968470  0.7500201425508379
  0.0311093716080748  0.4821204834200614  0.5129318100783280
  0.6416683710884499  0.5654887117472711  0.4650779279276023
  0.5165678627434431  0.2329792794214285  0.4318416743335334
  0.3741651443197114  0.4374309379060861  0.2380719988371993
  0.2547625096788479  0.6402086323308396  0.0518813842451138
  0.5334839954848363  0.7426041296849846  0.9271577853064272
  0.1005946836325720  0.2793415440541480  0.0094130012872427
  0.7434277068661785  0.3958742688278889  0.9569694823443697
  0.4198787204159444  0.9709524052143195  0.7362478762556535
  0.0350133189535669  0.9925902660396630  0.6603305744670394
  0.6185973198955352  0.0045510401633919  0.5804857433448802
  0.5996325851222366  0.6030653107155004  0.7497873496565717
  0.2606141452622524  0.6536124909999401  0.7101097052015248
  0.8969218177923324  0.7171122960506580  0.6153496257549875
  0.4332336354006472  0.7588185008621338  0.5649657240768065
  0.0852935423178636  0.8000103154276985  0.4817303216130853
  0.7908436555134060  0.8927673716517077  0.4542121743396521
  0.3408513910009034  0.9191463795630739  0.3829850759677740
  0.0218383873318757  0.0075908157351279  0.3269664737995512
  0.6687953767596042  0.0714723480688306  0.2799327708477719
  0.8442650272085359  0.1579612434352953  0.7616372714745410
  0.1481385225156870  0.2708496647356569  0.6968284922041974
  0.7721152740544781  0.3601994536916351  0.6372567101140874
  0.3845523118257077  0.4608805368085527  0.5633803617826487
  0.2474957801355373  0.6406898787047695  0.3729080467035146
  0.8325690910139159  0.6713630527442831  0.3125359363427975
  0.5164036658698947  0.7695765685567011  0.2666708416004653
  0.1355996928471370  0.8282471777802343  0.1986029245885419
  0.7409592937278546  0.8690867573944061  0.1403898499846221
  0.4193381172904651  0.9590456179726132  0.1040273462114314
  0.9568406704617303  0.9796640233984633  0.0334197551160713
  0.6561090295597296  0.0678206003554820  0.9829277213405589
  0.2189292517451165  0.0925338919840399  0.5243027456939018
  0.8894760181059667  0.1871224314898967  0.4787694219368319
  0.1576223997365034  0.2918742587725234  0.3598528586576535
  0.8087596482673121  0.3640909322028989  0.3058843401233133
  0.9987458138648151  0.5258843973317227  0.1744417243757184
  0.6376276725354657  0.5377650120342707  0.1393855506240271
  0.8975067439258098  0.6927714048739659  0.9989111578570729
  0.2833850240967877  0.1248466888562234  0.2165679169180876
  0.9059981637311125  0.1946383862344589  0.1658453035223886
  0.5479802088362433  0.2541388157113431  0.1059387243273022
  0.3618140568216148  0.4502133817358072  0.9038036216736316
  0.3386085537277737  0.1460886208317831  0.9213987537034853
  0.4569515514905831  0.7757109922331935  0.7316135836147168
  0.0914897205009666  0.7913763339296338  0.6900432037473578
  0.7639945093752232  0.8647971215748100  0.6024980083801594
  0.3990075485791351  0.9575971454206496  0.5359382438712359
  0.0159473378265247  0.9808368001765331  0.4977475400717566
  0.2498876312932552  0.4432347857094285  0.6627475066580146
  0.8731729963240014  0.5317250677021264  0.6359603569058265
  0.5416450623844966  0.5985934571368574  0.6058560144497420
  0.2296316116626613  0.6661732089849295  0.5256101436748750
  0.8797351164630527  0.7089646484173500  0.4631364208170226
  0.4537941019100202  0.7479989076196745  0.4012793418179470
  0.1255748246347252  0.8282258651470045  0.3480505843176331
  0.7296956371281311  0.8670021285020226  0.2947323361690692
  0.3483009210502814  0.9296012733202517  0.2317562395671189
  0.9718328569491064  0.9686119216927480  0.1788383829392473
  0.2492874727919983  0.0993270868527460  0.6783092600769720
  0.9215080185429230  0.2101803652329082  0.6380504686404791
  0.5507627827381256  0.3262750826196879  0.5937125151007834
  0.1039473504372737  0.2611362113547813  0.4896648749082004
  0.7643053643612774  0.3560975151858159  0.4402966797711727
  0.3324360616534747  0.4408228936325003  0.4075645095424605
  0.9678556997559511  0.5108915424729403  0.3159121439361456
  0.6162512823141881  0.5856246386041022  0.2737903499606915
  0.1996255678335643  0.6315354142940848  0.2178829049108728
  0.8081166942348403  0.6632822770171174  0.1216888252661406
  0.4939821392239310  0.7789938860073207  0.0989256893158128
  0.0772490130870764  0.8194992329055850  0.0286127442713067
  0.7516289123683535  0.8943369822024323  0.9775598423209360
  0.4094385105241400  0.9740754541249146  0.8847398382899172
  0.9843023157729505  0.0185027140797871  0.8032133633208431
  0.6867678278075076  0.0606818437318069  0.4486846851148414
  0.2415081624571229  0.1061715222566093  0.3654793814998030
  0.8755658062375389  0.1652240038563804  0.3075497108396945
  0.4932342584210261  0.2205488325748703  0.2455832156368416
  0.1276151494548685  0.2840826496288145  0.2024624590073358
  0.7489484865254994  0.3598736955847315  0.1530344478537984
  0.4327245437049783  0.4493135556224530  0.0625414522415753
  0.0050571709228322  0.5067287586489186  0.0215775103766020
  0.5282581331714766  0.4966834299874208  0.8463464344682521
  0.2523307567430777  0.6269745342791282  0.8700543302264379
  0.7938114350568171  0.6533654769622927  0.8535719065176792
  0.6242676078322873  0.0507260047641083  0.1256805893852686
  0.2740022429652740  0.1004335858227847  0.0506154908229419
  0.8750892900203553  0.1612238540912401  0.0154714316797850
  0.5413271071606331  0.2293310283422230  0.9530964749655411
  0.2148464542083701  0.2998803476814587  0.8534937792926911
  0.8018485996685740  0.3328506581462420  0.7973580437348318
  0.6258824314241878  0.0634127795329675  0.7260127764845450
 
  0.00000000E+00  0.00000000E+00  0.00000000E+00
  0.00000000E+00  0.00000000E+00  0.00000000E+00
  0.00000000E+00  0.00000000E+00  0.00000000E+00
  0.00000000E+00  0.00000000E+00  0.00000000E+00
  0.00000000E+00  0.00000000E+00  0.00000000E+00
  0.00000000E+00  0.00000000E+00  0.00000000E+00
  0.00000000E+00  0.00000000E+00  0.00000000E+00
  0.00000000E+00  0.00000000E+00  0.00000000E+00
  0.00000000E+00  0.00000000E+00  0.00000000E+00
  0.00000000E+00  0.00000000E+00  0.00000000E+00
  0.00000000E+00  0.00000000E+00  0.00000000E+00
  0.00000000E+00  0.00000000E+00  0.00000000E+00
  0.00000000E+00  0.00000000E+00  0.00000000E+00
  0.00000000E+00  0.00000000E+00  0.00000000E+00
  0.00000000E+00  0.00000000E+00  0.00000000E+00
  0.00000000E+00  0.00000000E+00  0.00000000E+00
  0.00000000E+00  0.00000000E+00  0.00000000E+00
  0.00000000E+00  0.00000000E+00  0.00000000E+00
  0.00000000E+00  0.00000000E+00  0.00000000E+00
  0.00000000E+00  0.00000000E+00  0.00000000E+00
  0.00000000E+00  0.00000000E+00  0.00000000E+00
  0.00000000E+00  0.00000000E+00  0.00000000E+00
  0.00000000E+00  0.00000000E+00  0.00000000E+00
  0.00000000E+00  0.00000000E+00  0.00000000E+00
  0.00000000E+00  0.00000000E+00  0.00000000E+00
  0.00000000E+00  0.00000000E+00  0.00000000E+00
  0.00000000E+00  0.00000000E+00  0.00000000E+00
  0.00000000E+00  0.00000000E+00  0.00000000E+00
  0.00000000E+00  0.00000000E+00  0.00000000E+00
  0.00000000E+00  0.00000000E+00  0.00000000E+00
  0.00000000E+00  0.00000000E+00  0.00000000E+00
  0.00000000E+00  0.00000000E+00  0.00000000E+00
  0.00000000E+00  0.00000000E+00  0.00000000E+00
  0.00000000E+00  0.00000000E+00  0.00000000E+00
  0.00000000E+00  0.00000000E+00  0.00000000E+00
  0.00000000E+00  0.00000000E+00  0.00000000E+00
  0.00000000E+00  0.00000000E+00  0.00000000E+00
  0.00000000E+00  0.00000000E+00  0.00000000E+00
  0.00000000E+00  0.00000000E+00  0.00000000E+00
  0.00000000E+00  0.00000000E+00  0.00000000E+00
  0.00000000E+00  0.00000000E+00  0.00000000E+00
  0.00000000E+00  0.00000000E+00  0.00000000E+00
  0.00000000E+00  0.00000000E+00  0.00000000E+00
  0.00000000E+00  0.00000000E+00  0.00000000E+00
  0.00000000E+00  0.00000000E+00  0.00000000E+00
  0.00000000E+00  0.00000000E+00  0.00000000E+00
  0.00000000E+00  0.00000000E+00  0.00000000E+00
  0.00000000E+00  0.00000000E+00  0.00000000E+00
  0.00000000E+00  0.00000000E+00  0.00000000E+00
  0.00000000E+00  0.00000000E+00  0.00000000E+00
  0.00000000E+00  0.00000000E+00  0.00000000E+00
  0.00000000E+00  0.00000000E+00  0.00000000E+00
  0.00000000E+00  0.00000000E+00  0.00000000E+00
  0.00000000E+00  0.00000000E+00  0.00000000E+00
  0.00000000E+00  0.00000000E+00  0.00000000E+00
  0.00000000E+00  0.00000000E+00  0.00000000E+00
  0.00000000E+00  0.00000000E+00  0.00000000E+00
  0.00000000E+00  0.00000000E+00  0.00000000E+00
  0.00000000E+00  0.00000000E+00  0.00000000E+00
  0.00000000E+00  0.00000000E+00  0.00000000E+00
  0.00000000E+00  0.00000000E+00  0.00000000E+00
  0.00000000E+00  0.00000000E+00  0.00000000E+00
  0.00000000E+00  0.00000000E+00  0.00000000E+00
  0.00000000E+00  0.00000000E+00  0.00000000E+00
  0.00000000E+00  0.00000000E+00  0.00000000E+00
  0.00000000E+00  0.00000000E+00  0.00000000E+00
  0.00000000E+00  0.00000000E+00  0.00000000E+00
  0.00000000E+00  0.00000000E+00  0.00000000E+00
  0.00000000E+00  0.00000000E+00  0.00000000E+00
  0.00000000E+00  0.00000000E+00  0.00000000E+00
  0.00000000E+00  0.00000000E+00  0.00000000E+00
  0.00000000E+00  0.00000000E+00  0.00000000E+00
  0.00000000E+00  0.00000000E+00  0.00000000E+00
  0.00000000E+00  0.00000000E+00  0.00000000E+00
  0.00000000E+00  0.00000000E+00  0.00000000E+00
  0.00000000E+00  0.00000000E+00  0.00000000E+00
  0.00000000E+00  0.00000000E+00  0.00000000E+00
  0.00000000E+00  0.00000000E+00  0.00000000E+00
  0.00000000E+00  0.00000000E+00  0.00000000E+00
  0.00000000E+00  0.00000000E+00  0.00000000E+00
  0.00000000E+00  0.00000000E+00  0.00000000E+00
  0.00000000E+00  0.00000000E+00  0.00000000E+00
  0.00000000E+00  0.00000000E+00  0.00000000E+00
  0.00000000E+00  0.00000000E+00  0.00000000E+00
  0.00000000E+00  0.00000000E+00  0.00000000E+00
  0.00000000E+00  0.00000000E+00  0.00000000E+00
  0.00000000E+00  0.00000000E+00  0.00000000E+00
  0.00000000E+00  0.00000000E+00  0.00000000E+00
  0.00000000E+00  0.00000000E+00  0.00000000E+00
  0.00000000E+00  0.00000000E+00  0.00000000E+00
  0.00000000E+00  0.00000000E+00  0.00000000E+00
  0.00000000E+00  0.00000000E+00  0.00000000E+00
  0.00000000E+00  0.00000000E+00  0.00000000E+00
  0.00000000E+00  0.00000000E+00  0.00000000E+00
  0.00000000E+00  0.00000000E+00  0.00000000E+00
  0.00000000E+00  0.00000000E+00  0.00000000E+00
