Si   O    Li
1.0
  4.657112936815322 -2.8654897693066514 0.6266904094199617
  -0.1619882232034404 -5.463946624380942 2.32021247e-07
  0.582176728832351 -7.75804852e-08 -4.72871342141
 Si  O  Li 
2 6 4 
direct
   -0.9991883960301280   0.2254421496046533   0.9709933554591500
   -0.0001080333228174   0.8724239413006244   0.6293747031054978
   -0.9991148592974071   0.9111885355337462   0.9933711689756421
   -0.9998002048754132   0.1847629832045000   0.6017046280574121
   -0.7080973111438241   0.2092278822175259   0.0534488257204515
   -0.2909884822661509   0.5005426855195124   0.0452687684420070
   -0.7134555289145227   0.6028643979443729   0.5316930970893736
   -0.2881853549111213   0.8896860238037688   0.5307890150725710
   -0.3408527174142293   0.8767507647261468   0.1184756094819477
   -0.6570077168704600   0.5359604392384582   0.1191632202366080
   -0.6523911329448068   0.2202864817072197   0.5578240942439265
   -0.3510284372637500   0.5710063269796207   0.5717479383169604
