Si   O    Li
1.0
  4.74687755192 -2.7246322856000003 -5.347266852e-07
  -2.03564741902e-05 -5.44926449856 1.439279909e-07
  7.067730316e-07 -1.917382352e-07 -4.72871342141
 Si  O  Li 
2 6 4 
direct
   -0.0000366718316016   0.2216463071623735   0.1263990619762438
   -0.0000339259110973   0.8784002046945429   0.6263990262381114
   -0.0000348617244867   0.9357712854044351   0.9799228636276143
   -0.0000381771285589   0.1642765069006060   0.4799228770004618
   -0.7102580504692355   0.2145739087492088   0.0447876144539592
   -0.2898174304579869   0.5043540253309614   0.0447872608200441
   -0.7102563709972928   0.5956944897778483   0.5447875753777538
   -0.2898157578574471   0.8854737955057530   0.5447872440428014
   -0.3470994905327132   0.8803005485393951   0.1306415770930656
   -0.6529717061508792   0.5332366104998059   0.1306422926155761
   -0.6529731138159108   0.2197468678202840   0.6306422393021478
   -0.3471007784147204   0.5668106632004991   0.6306415206785729
