Si   O    Li
1.0
  4.649138028416308 -2.860816943786907 0.591071580030684
  -0.1570336733242577 -5.4504421534705845 2.98091189e-07
  0.5572674982656455 8.0378273e-09 -4.72871342141
 Si  O  Li 
2 6 4 
direct
   -0.9999471380705458   0.2180756876376151   0.0069306464086907
   -0.0003317257873761   0.8802847876331298   0.5241328875590696
   -0.9997630773129202   0.9261939635645576   0.1346084706042986
   -0.0006740244223451   0.1732518424733769   0.6471956616283806
   -0.7117873308462704   0.2127623087239171   0.0911184242053906
   -0.2872015099691154   0.5003171268115807   0.0904616136677703
   -0.7079604865321584   0.5974306486205235   0.5901257847472009
   -0.2920426215031213   0.8891686844743347   0.5883880539167023
   -0.3453042782484843   0.8804638659303876   0.0238139665413328
   -0.6542382091926696   0.5347484669962056   0.0237524661795803
   -0.6570820124599591   0.2221540245196607   0.5023281583829161
   -0.3438857609097781   0.5652912043948390   0.5009982903602221
