Si   O    Li
1.0
  4.662776213757196 -2.8246376408128233 0.4612137240390734
  -0.1160994394215715 -5.446453095837266 1.879746189e-07
  0.4625591674415118 -1.346593602e-07 -4.72871342141
 Si  O  Li 
2 6 4 
direct
   -0.0000265055308049   0.2213648967055946   0.1103934669637354
   -0.0000177979343405   0.8787896119146622   0.6100832736532951
   -0.0000111386793122   0.9361058906190178   0.9622324119027894
   -0.0000406934897583   0.1638950905620361   0.4623893583328423
   -0.7102906453339557   0.2144033351217871   0.0288631293759778
   -0.2897797598196802   0.5041658653544160   0.0288573189440271
   -0.7102115977326022   0.5957643814423150   0.5285492189083528
   -0.2897693879679010   0.8855584833921029   0.5285668678082872
   -0.3471262700758685   0.8800493133538863   0.1160158693298570
   -0.6528878974357751   0.5329147854902415   0.1160136133221954
   -0.6529597117761909   0.2200251752665707   0.6159439019231102
   -0.3470967694784264   0.5671057825575261   0.6159459937370784
