Si   O    Li
1.0
  4.660000166459147 -2.8611819363090105 0.5801406520445168
  -0.1509726206753902 -5.462478881076594 2.09997933e-07
  0.5420608029007157 -1.061199227e-07 -4.72871342141
 Si  O  Li 
2 6 4 
direct
   -0.9997088616183659   0.2218342621813818   0.0481198530884512
   -0.0001140161565871   0.8809905330872283   0.6140548213452491
   -0.9993222583190686   0.9201046707223172   0.9811334891792003
   -0.0004579388500687   0.1780046100747299   0.5283815297582281
   -0.7048988221930655   0.2104284824792941   0.0335241764564955
   -0.2948994715204165   0.5049901439169346   0.0320497150334944
   -0.7129988138639973   0.5992433547792189   0.5305662986031265
   -0.2881946351865921   0.8865980391861756   0.5298951058249488
   -0.3421380964468668   0.8777501264839388   0.1201183785806705
   -0.6568799461955379   0.5353320525872647   0.1213771849809220
   -0.6538239564878978   0.2190933727637655   0.5926209465118362
   -0.3467813584161661   0.5657729635179153   0.5920129248389401
