Si   O    Li
1.0
  4.746506450834889 -2.7301170703461026 0.072787363428897
  -0.0033580162430888 -5.454375492786351 3.421378171e-07
  0.0725590021151704 6.51167023e-08 -4.72871342141
 Si  O  Li 
2 6 4 
direct
   -0.0000415955481259   0.2215088021361353   0.0106864686525014
   -0.0000394485370023   0.8785482121738822   0.5106852149794392
   -0.0000380601260872   0.9360715257976082   0.1573439607106621
   -0.0000418517502254   0.1639864524397439   0.6573436933764825
   -0.7104379947879664   0.2145069033377495   0.0921527883645936
   -0.2896490844492234   0.5041091941684853   0.0921555350366532
   -0.7104391649757318   0.5959445955785866   0.5921522876873624
   -0.2896402463764218   0.8855430270848430   0.5921532423453115
   -0.3471698167727695   0.8800489561969157   0.0065324240382907
   -0.6529187397710245   0.5329301363510481   0.0065337439929820
   -0.6528890359078829   0.2199687318264623   0.5065285691703495
   -0.3471845381713194   0.5671130818270527   0.5065326530386755
