Si   O    Li
1.0
  4.708885751608536 -2.769489282351776 0.3357680864243652
  -0.0505000391346328 -5.450842128949881 1.769629619e-07
  0.3359836505579112 -1.48929079e-07 -4.72871342141
 Si  O  Li 
2 6 4 
direct
   -0.0000249039377778   0.2214281913961145   0.1103736872056658
   -0.0000188524682443   0.8786419146042377   0.6102634863063656
   -0.0000247850413615   0.9361379270052199   0.9629393514253622
   -0.0000322621049236   0.1638900551091638   0.4629875683693427
   -0.7103345577915050   0.2144725841744730   0.0288831932948099
   -0.2897070082283477   0.5041667589935558   0.0288948611658668
   -0.7103026875503317   0.5958275264675095   0.5287876562207785
   -0.2897037421552042   0.8855253625924463   0.5288023089663909
   -0.3471813566556605   0.8800370126616031   0.1154749041892131
   -0.6528573234215357   0.5328714337456617   0.1154574078848896
   -0.6528535728932212   0.2199926599011164   0.6154902651671179
   -0.3471771230068866   0.5671511851292835   0.6154997340664040
