Si   O    Li
1.0
  4.735750316930785 -2.7404694289233613 0.2009776719743079
  -0.0158287392551455 -5.453340205306057 1.659513049e-07
  0.2006064722862302 -1.631987977e-07 -4.72871342141
 Si  O  Li 
2 6 4 
direct
   -0.0000222912069958   0.2214699472533682   0.1104218077812291
   -0.0000195924193633   0.8785747312115149   0.6104019618966275
   -0.0000218877003633   0.9360966324314720   0.9635118672468223
   -0.0000262014816030   0.1639427553095345   0.4635213045638408
   -0.7103845531617453   0.2144861153561735   0.0289604648630117
   -0.2896540113988166   0.5041214947812237   0.0289651831492179
   -0.7103808698011987   0.5959041132748837   0.5289416949442511
   -0.2896468285149040   0.8855328727288878   0.5289483561669569
   -0.3471928392147561   0.8800222891130220   0.1150512556010170
   -0.6528506170260968   0.5328539400218376   0.1150424883182453
   -0.6528280768349219   0.2199807571478161   0.6150433923985900
   -0.3472030323048045   0.5671632967098645   0.6150466220899631
