Si   O    Li                            
   1.00000000000000     
     0.5596604163770716   -0.0000000205016102   -4.7287134214100002
    -0.1593050629169895   -5.4668826580658525    0.0000002760678750
    -4.6546929927204355    2.8698601698036694   -0.6012819956349360
   Si   O    Li
     2     6     4
Direct
  0.0027165806781824  0.2222770466435904  0.9999061395316886
  0.6236241075095492  0.8762382951388048  0.0002685536748714
  0.0526537572526919  0.9183006402565894  0.9993972445183203
  0.6338903358965311  0.1843715304489635  0.0007772686607552
  0.0909028959101548  0.2128866401071505  0.7117662072979485
  0.0901322754736427  0.5001106424504727  0.2870035925348446
  0.5852558248497886  0.5956193586551564  0.7055650922585599
  0.5837555660673814  0.8897463362042259  0.2950569189882444
  0.0309587090647412  0.8809371640619332  0.3476814459314213
  0.0313415493675322  0.5326396090407925  0.6516124746840219
  0.5000286737239321  0.2224161771317839  0.6581582499099312
  0.4985941484074203  0.5645991716406513  0.3430249872641369
 
             NaN             NaN             NaN
             NaN             NaN             NaN
             NaN             NaN             NaN
             NaN             NaN             NaN
             NaN             NaN             NaN
             NaN             NaN             NaN
             NaN             NaN             NaN
             NaN             NaN             NaN
             NaN             NaN             NaN
             NaN             NaN             NaN
             NaN             NaN             NaN
             NaN             NaN             NaN
