Si   O    Li                            
   1.00000000000000     
     0.6345202117721922   -0.0000000633107665   -4.7287134214100002
    -0.1738795241993162   -5.4498932172423631    0.0000002430329040
    -4.6416724038865622    2.8657885873162239   -0.6787233258057083
   Si   O    Li
     2     6     4
Direct
  0.9781258922260179  0.2258339826739117  0.9993596089487156
  0.6341900250103549  0.8732039832168823  0.9999817194893978
  0.9970282396217272  0.9094903631743279  0.9991889964823528
  0.6131577602917204  0.1881809762685762  0.9993823908979138
  0.0748822377799527  0.2076140307526018  0.7102050501140056
  0.0667142850124449  0.4969481060026055  0.2890484470751389
  0.5342938330069558  0.6048423887192058  0.7133811871389995
  0.5331672848180133  0.8920653781385326  0.2883384756099616
  0.1157484213101085  0.8769776339079414  0.3391410455331680
  0.1160423202895657  0.5380029116143206  0.6588556628498239
  0.5231330551038837  0.2210871576091620  0.6581882917774138
  0.5373710697308098  0.5658956997020752  0.3451472993377251
 
             NaN             NaN             NaN
             NaN             NaN             NaN
             NaN             NaN             NaN
             NaN             NaN             NaN
             NaN             NaN             NaN
             NaN             NaN             NaN
             NaN             NaN             NaN
             NaN             NaN             NaN
             NaN             NaN             NaN
             NaN             NaN             NaN
             NaN             NaN             NaN
             NaN             NaN             NaN
