Si   O    Li
1.0
  4.653852288561893 -2.867171530325691 0.5976708138276088
  -0.1584386418573021 -5.461864564466056 2.87079532e-07
  0.5589737793803358 -6.2318915e-09 -4.72871342141
 Si  O  Li 
2 6 4 
direct
   -0.9999159449830017   0.2190104495069819   0.0064820807940791
   -0.0003306483939625   0.8782005383446007   0.5721557517710282
   -0.9995471267675454   0.9220161468938386   0.0922768515935816
   -0.0007357188769959   0.1799109188472485   0.6395522216061665
   -0.7118370119256310   0.2134380566039766   0.0907492735524400
   -0.2870038069121534   0.5007248420844023   0.0900284660103381
   -0.7051732459613262   0.5950711062458396   0.5883966980325894
   -0.2951663932900033   0.8896024555900014   0.5867006496936967
   -0.3459982516156613   0.8809264426602753   0.0289504395651008
   -0.6533714236820315   0.5343758721026290   0.0289705827330806
   -0.6579766242896952   0.2222723260518010   0.5005006708346900
   -0.3431619785567363   0.5645934568485347   0.4990907380147577
