Si   O    Li
1.0
  4.7038069038760755 -2.7761533308555006 0.3482780849877191
  -0.0583676916334452 -5.450428230254853 3.201145031e-07
  0.3486128148195042 3.65772648e-08 -4.72871342141
 Si  O  Li 
2 6 4 
direct
   -0.0000186652992085   0.2213886303818812   0.0103162084802193
   -0.0000102896717280   0.8786055723322976   0.5101828433274207
   -0.0000036062236788   0.9361383118420648   0.1576145760510457
   -0.0000119424682907   0.1639092282347221   0.6576712376440951
   -0.7103245997837178   0.2145022542318814   0.0918016407243485
   -0.2897458342138535   0.5042105670584222   0.0918184129338258
   -0.7103327738120413   0.5958637792741401   0.5916894654662385
   -0.2896972397443420   0.8855549587084681   0.5917031694319519
   -0.3471068728097677   0.8800154927907117   0.0052494030921082
   -0.6529338018195431   0.5329336172762497   0.0052381701484663
   -0.6528818500523812   0.2199397889966690   0.5052745762562409
   -0.3471506993559927   0.5670804106525155   0.5052947206208528
