Si   O    Li
1.0
  4.650951467900998 -2.8706491542603447 0.6427561471323496
  -0.168873615014006 -5.463113395139098 2.65056218e-07
  0.5976494347734403 -3.4771329e-08 -4.72871342141
 Si  O  Li 
2 6 4 
direct
   -0.9999403134852684   0.2275647319342795   0.9911488449811543
   -0.0008756489567219   0.8745742492943975   0.6493789379162749
   -0.0003160857668050   0.9151933666607448   0.0185915266395469
   -0.0009299078226164   0.1888742886701777   0.6272957486056400
   -0.7118337075721185   0.2102921481618623   0.0898583047068726
   -0.2865659198726859   0.4971043862920013   0.0888893833648439
   -0.7090656544624068   0.5995281790536140   0.5750314712092006
   -0.2918875537709269   0.8908313062961425   0.5662282850939918
   -0.3472824823846139   0.8797377301370304   0.0643887664907297
   -0.6492373433169404   0.5292555878651726   0.0494634290658311
   -0.6592931893467480   0.2232824946213158   0.5022115775011784
   -0.3429903684968920   0.5639041427933761   0.5013681486262911
