Si   O    Li                            
   1.00000000000000     
     0.2122341927696794    0.0000000508469835   -4.7287134214100002
    -0.0193108565931732   -5.4530864960237109    0.0000003311261601
    -4.7333943782556904    2.7433786603352828   -0.2126331966299895
   Si   O    Li
     2     6     4
Direct
  0.0101897931981227  0.2214623959849789  0.0000185244217050
  0.5101633221022936  0.8785636084886335  0.0000156096892425
  0.1570807533813294  0.9360835809333850  0.0000123405366494
  0.6570914159585541  0.1639526170188503  0.0000168280029982
  0.0916684798095204  0.2144952350956046  0.7103855851756649
  0.0916753916327053  0.5041298647915511  0.2896627201219673
  0.5916465193724818  0.5959093681920891  0.7103886454950086
  0.5916513722563366  0.8855389340978377  0.2896471131350680
  0.0057509347333280  0.8800331176739746  0.3471338730767570
  0.0057480726209320  0.5329279599625920  0.6529097105036072
  0.5057492608086989  0.2199547508622359  0.6528755748611133
  0.5057580332347982  0.5670924146527554  0.3471539992194081
 
             NaN             NaN             NaN
             NaN             NaN             NaN
             NaN             NaN             NaN
             NaN             NaN             NaN
             NaN             NaN             NaN
             NaN             NaN             NaN
             NaN             NaN             NaN
             NaN             NaN             NaN
             NaN             NaN             NaN
             NaN             NaN             NaN
             NaN             NaN             NaN
             NaN             NaN             NaN
