Si   O    Li
1.0
  4.65538691442695 -2.8550715566443867 0.5737700459966233
  -0.1494820951788269 -5.45123932288644 1.98986276e-07
  0.5405223715219952 -1.203896415e-07 -4.72871342141
 Si  O  Li 
2 6 4 
direct
   -0.9997321561633613   0.2197790459655593   0.0958917280284979
   -0.0000688146845533   0.8819317324427446   0.6135990327190370
   -0.9993800796296881   0.9266735663862278   0.9735681686032791
   -0.0002399924801466   0.1739166603811029   0.4864226325710205
   -0.7079593209512608   0.2108453388536519   0.0318752290911704
   -0.2921274169033907   0.5026381824867912   0.0303378740732114
   -0.7128241108643607   0.5996600756231983   0.5301388568241592
   -0.2882470416490293   0.8872618114464217   0.5295269646836900
   -0.3430005686095753   0.8778640699604877   0.1183606109008721
   -0.6561737768574432   0.5346648488870615   0.1195265444820208
   -0.6545622608481807   0.2195395340677280   0.5975138357515490
   -0.3459026356136334   0.5653677452791754   0.5970929464730403
