Si   O    Li
1.0
  4.641672403886562 -2.865788587316224 0.6787233258057083
  -0.1738795241993162 -5.449893217242363 2.43032904e-07
  0.6345202117721922 -6.33107665e-08 -4.72871342141
 Si  O  Li 
2 6 4 
direct
   -0.9993596089487154   0.2258339826739117   0.9781258922260180
   -0.9999817194893976   0.8732039832168823   0.6341900250103549
   -0.9991889964823528   0.9094903631743279   0.9970282396217272
   -0.9993823908979138   0.1881809762685762   0.6131577602917204
   -0.7102050501140054   0.2076140307526018   0.0748822377799527
   -0.2890484470751388   0.4969481060026055   0.0667142850124449
   -0.7133811871389995   0.6048423887192059   0.5342938330069558
   -0.2883384756099616   0.8920653781385327   0.5331672848180133
   -0.3391410455331679   0.8769776339079414   0.1157484213101085
   -0.6588556628498238   0.5380029116143206   0.1160423202895657
   -0.6581882917774137   0.2210871576091620   0.5231330551038839
   -0.3451472993377251   0.5658956997020752   0.5373710697308098
