Si   O    Li
1.0
  4.74687755192 -2.7246322856000003 -4.826214521e-07
  -2.03564742378e-05 -5.44926449856 3.531494741e-07
  6.544685505e-07 7.9386421e-08 -4.72871342141
 Si  O  Li 
2 6 4 
direct
   -0.0000003105572688   0.2216225393635654   0.9942421452370667
   -0.9999975646367644   0.8783764368957349   0.4942421094989342
   -0.9999985004501609   0.9357475176056197   0.1407183435856965
   -0.0000018158542261   0.1642527391017907   0.6407183569585371
   -0.7102216891949098   0.2145501409504007   0.0758535927593442
   -0.2897810691836611   0.5043302575321532   0.0758532391254292
   -0.7102200097229669   0.5956707219790401   0.5758535536831317
   -0.2897793965831212   0.8854500277069448   0.5758532223481794
   -0.3470631292583874   0.8802767807405871   0.9899996301202447
   -0.6529353448765463   0.5332128427009976   0.9900003456427556
   -0.6529367525415850   0.2197231000214685   0.4900002923293272
   -0.3470644171403948   0.5667868954016910   0.4899995737057523
