generated by phonopy                    
   1.00000000000000     
    10.0351470768999995   -0.0000022330999784   -0.0000001056124209
    -5.0175765436399997    8.6906901959899994    0.0000001395531216
    -0.0000001735893656    0.0000001431815548   14.9533752540999991
   Pb   P    O 
    20    11    50
Direct
  0.0024751813560897  0.7661100980303601  0.1193449948308256
  0.0080732744783703  0.7578055521161104  0.6169037287055232
  0.0502623885594602  0.2612534888081370  0.3498173677062155
  0.9975240021571494  0.2606183487468599  0.8682705566175670
  0.2610072311985618  0.2452616343927971  0.1213290067136725
  0.2412192457729390  0.2430064306079132  0.5936133447434315
  0.7395999368282631  0.7438338491259344  0.3698474830551248
  0.7263289175498286  0.7335890005247663  0.8753093418983582
  0.7794386315290893  0.0164789525326512  0.1213614827971412
  0.7691003559391305  0.0048269780872090  0.6200925125418095
  0.2650905694564116  0.9768214307306380  0.3669771775126804
  0.2496475646917418  0.9960090285394330  0.8640201439910342
  0.6668429501702704  0.3273507724106892  0.9982079279230476
  0.7008083749199798  0.3252498013710152  0.5028307400126693
  0.3275318835943040  0.6779038095265264  0.0040795529875979
  0.3429576719521279  0.6301300939276331  0.4884142478556797
  0.3474263223818639  0.6388061120083250  0.2470293626535494
  0.3416073400325033  0.6732804286546425  0.7415459386581276
  0.6885920474433576  0.3357760819827718  0.2480580822158558
  0.6535837884876088  0.3299111070676659  0.7540289623110326
  0.6232487556506641  0.5978777220827922  0.1215576359000110
  0.6083920003024801  0.5824171682926647  0.6281207932388426
  0.3673024301091203  0.3900473194098737  0.8871834181331977
  0.4041585832796528  0.0330017243121432  0.1286090771682069
  0.4002303539453393  0.0259918968417239  0.6306470873913028
  0.6178868325900453  0.9806287856245604  0.3746064148510300
  0.5936735327318701  0.9705531970090391  0.8734127946238388
  0.9681417654638977  0.3814178931473080  0.1203091043563589
  0.9754691254352252  0.3684487916604482  0.6329495294370702
  0.0310700988937995  0.6212323127420021  0.3742196698324634
  0.0192088943944739  0.6276097695890925  0.8749416755767996
  0.5152122652448980  0.6668798686434627  0.1197469386102270
  0.5119546135133248  0.6651338162365832  0.6240018845563284
  0.4110979745594179  0.3698823398524098  0.3620144536895538
  0.4790580223652228  0.3243594413188333  0.8808663521107718
  0.3243791567978960  0.8561138726492032  0.1200025329289787
  0.3166503890761305  0.8469826071474529  0.6314451044240883
  0.6708368172243624  0.1566207696341451  0.3763194507083583
  0.6679280009491961  0.1490888401253372  0.8714405034569452
  0.1449358490004187  0.4800276237700345  0.1160064832948322
  0.1547153497813127  0.4431742447481994  0.6315764000530280
  0.8533790619834178  0.5111201303842989  0.3733527954923019
  0.8407428539992665  0.5206646633621190  0.8754671249473773
  0.7321818332210128  0.6491760913448346  0.0382094941502942
  0.7241375084271624  0.6318633131883971  0.5488900538530146
  0.2487366422962296  0.3470241452658485  0.4676917056644214
  0.2697521139620065  0.3420152483037882  0.9762782742753160
  0.3583264820247791  0.1045716022778791  0.0474596303923249
  0.3316951859275790  0.0800077567506463  0.5520363652697000
  0.6712191917142860  0.9285218883669160  0.4592188867474505
  0.6474988177631218  0.9151414326727547  0.9565170013766533
  0.9001904550158741  0.2702046759574586  0.0381042687465012
  0.9008924656985187  0.2642218576413384  0.5473790507666152
  0.0866751435505648  0.7223149153930351  0.4606667548261498
  0.0794272934794620  0.7294315279540200  0.9614080099370454
  0.2576150548526641  0.3550008108807035  0.2489542452405544
  0.2504133267508877  0.3316549322801094  0.8084429163034983
  0.7273471240257052  0.6464808501827406  0.2065743469414372
  0.6976552861244940  0.6135705881971134  0.7180459116533768
  0.6849711249927708  0.9384404838672609  0.2919117136700109
  0.6307461486203820  0.9038185654100630  0.7880817843239925
  0.3495356012583528  0.0842557122519523  0.2143322855245131
  0.3762794594950591  0.0903153714150733  0.7210897082509717
  0.0860732774155011  0.7373555778667509  0.2936361661523037
  0.0747205344761710  0.7421383499993794  0.7935824133744376
  0.9092574765655215  0.2776832440952148  0.2073908975919352
  0.9037586016591916  0.2618229614324221  0.7164858192132328
  0.5225348894112187  0.4138569276929829  0.1197769475362023
  0.4936039913795085  0.3994195149392894  0.6234841143284129
  0.4859476307925945  0.6077367709691757  0.3691761027800595
  0.4632123114617812  0.5720189004357863  0.8836006266826786
  0.5843032225454365  0.1127703142889089  0.1303169691252251
  0.5781036905097778  0.1019145624251863  0.6143894447065890
  0.4354493126092436  0.8871208167294711  0.3702895999507518
  0.4116376720286965  0.8934512863256003  0.8780212614752188
  0.8879542719941540  0.4823789479416263  0.1241635339695648
  0.9203521488264172  0.4890969894175186  0.6316979184648730
  0.1136423105705475  0.5218157650384114  0.3684116553027650
  0.1000958416555378  0.5269253408573960  0.8695670143162744
  0.0386269259725935  0.0550723115183303  0.1181457529923549
  0.0349474281330870  0.0540551232066804  0.6289695931111865
 
  0.00000000E+00  0.00000000E+00  0.00000000E+00
  0.00000000E+00  0.00000000E+00  0.00000000E+00
  0.00000000E+00  0.00000000E+00  0.00000000E+00
  0.00000000E+00  0.00000000E+00  0.00000000E+00
  0.00000000E+00  0.00000000E+00  0.00000000E+00
  0.00000000E+00  0.00000000E+00  0.00000000E+00
  0.00000000E+00  0.00000000E+00  0.00000000E+00
  0.00000000E+00  0.00000000E+00  0.00000000E+00
  0.00000000E+00  0.00000000E+00  0.00000000E+00
  0.00000000E+00  0.00000000E+00  0.00000000E+00
  0.00000000E+00  0.00000000E+00  0.00000000E+00
  0.00000000E+00  0.00000000E+00  0.00000000E+00
  0.00000000E+00  0.00000000E+00  0.00000000E+00
  0.00000000E+00  0.00000000E+00  0.00000000E+00
  0.00000000E+00  0.00000000E+00  0.00000000E+00
  0.00000000E+00  0.00000000E+00  0.00000000E+00
  0.00000000E+00  0.00000000E+00  0.00000000E+00
  0.00000000E+00  0.00000000E+00  0.00000000E+00
  0.00000000E+00  0.00000000E+00  0.00000000E+00
  0.00000000E+00  0.00000000E+00  0.00000000E+00
  0.00000000E+00  0.00000000E+00  0.00000000E+00
  0.00000000E+00  0.00000000E+00  0.00000000E+00
  0.00000000E+00  0.00000000E+00  0.00000000E+00
  0.00000000E+00  0.00000000E+00  0.00000000E+00
  0.00000000E+00  0.00000000E+00  0.00000000E+00
  0.00000000E+00  0.00000000E+00  0.00000000E+00
  0.00000000E+00  0.00000000E+00  0.00000000E+00
  0.00000000E+00  0.00000000E+00  0.00000000E+00
  0.00000000E+00  0.00000000E+00  0.00000000E+00
  0.00000000E+00  0.00000000E+00  0.00000000E+00
  0.00000000E+00  0.00000000E+00  0.00000000E+00
  0.00000000E+00  0.00000000E+00  0.00000000E+00
  0.00000000E+00  0.00000000E+00  0.00000000E+00
  0.00000000E+00  0.00000000E+00  0.00000000E+00
  0.00000000E+00  0.00000000E+00  0.00000000E+00
  0.00000000E+00  0.00000000E+00  0.00000000E+00
  0.00000000E+00  0.00000000E+00  0.00000000E+00
  0.00000000E+00  0.00000000E+00  0.00000000E+00
  0.00000000E+00  0.00000000E+00  0.00000000E+00
  0.00000000E+00  0.00000000E+00  0.00000000E+00
  0.00000000E+00  0.00000000E+00  0.00000000E+00
  0.00000000E+00  0.00000000E+00  0.00000000E+00
  0.00000000E+00  0.00000000E+00  0.00000000E+00
  0.00000000E+00  0.00000000E+00  0.00000000E+00
  0.00000000E+00  0.00000000E+00  0.00000000E+00
  0.00000000E+00  0.00000000E+00  0.00000000E+00
  0.00000000E+00  0.00000000E+00  0.00000000E+00
  0.00000000E+00  0.00000000E+00  0.00000000E+00
  0.00000000E+00  0.00000000E+00  0.00000000E+00
  0.00000000E+00  0.00000000E+00  0.00000000E+00
  0.00000000E+00  0.00000000E+00  0.00000000E+00
  0.00000000E+00  0.00000000E+00  0.00000000E+00
  0.00000000E+00  0.00000000E+00  0.00000000E+00
  0.00000000E+00  0.00000000E+00  0.00000000E+00
  0.00000000E+00  0.00000000E+00  0.00000000E+00
  0.00000000E+00  0.00000000E+00  0.00000000E+00
  0.00000000E+00  0.00000000E+00  0.00000000E+00
  0.00000000E+00  0.00000000E+00  0.00000000E+00
  0.00000000E+00  0.00000000E+00  0.00000000E+00
  0.00000000E+00  0.00000000E+00  0.00000000E+00
  0.00000000E+00  0.00000000E+00  0.00000000E+00
  0.00000000E+00  0.00000000E+00  0.00000000E+00
  0.00000000E+00  0.00000000E+00  0.00000000E+00
  0.00000000E+00  0.00000000E+00  0.00000000E+00
  0.00000000E+00  0.00000000E+00  0.00000000E+00
  0.00000000E+00  0.00000000E+00  0.00000000E+00
  0.00000000E+00  0.00000000E+00  0.00000000E+00
  0.00000000E+00  0.00000000E+00  0.00000000E+00
  0.00000000E+00  0.00000000E+00  0.00000000E+00
  0.00000000E+00  0.00000000E+00  0.00000000E+00
  0.00000000E+00  0.00000000E+00  0.00000000E+00
  0.00000000E+00  0.00000000E+00  0.00000000E+00
  0.00000000E+00  0.00000000E+00  0.00000000E+00
  0.00000000E+00  0.00000000E+00  0.00000000E+00
  0.00000000E+00  0.00000000E+00  0.00000000E+00
  0.00000000E+00  0.00000000E+00  0.00000000E+00
  0.00000000E+00  0.00000000E+00  0.00000000E+00
  0.00000000E+00  0.00000000E+00  0.00000000E+00
  0.00000000E+00  0.00000000E+00  0.00000000E+00
  0.00000000E+00  0.00000000E+00  0.00000000E+00
  0.00000000E+00  0.00000000E+00  0.00000000E+00
