supercell of supercell of icsd_608626.c 
   1.00600000000000     
    18.8433725412000008    0.0042597715995000    0.0111656436851000
    -6.2786657403800001   10.8752831735999997   -0.0012954496991100
     0.0059525623905900    0.0022414031449000   10.0498800689000003
   Al   Gd   N    O 
    92     4    95     1
Direct
  0.1111089344549328  0.0823618609040011  0.2488972811667338
  0.0512781582533250  0.1613702444190963  0.9987419711958978
  0.4458905619072624  0.3367535750670427  0.7490223818112227
  0.3901201494403850  0.4176043394582010  0.4994287125769574
  0.2788371427915806  0.0845479410986059  0.2607592612192704
  0.2236480040356170  0.1727616332694026  0.9996732499709253
  0.1067352715299705  0.3296556400555559  0.7435687389993859
  0.0547852483814424  0.4170943726180951  0.5000942818509557
  0.4440702611450007  0.0824083577570462  0.2490618988215942
  0.3964378506609805  0.1769759117977472  0.9989543020169762
  0.2796112225357135  0.3333559043491050  0.7438223887200905
  0.2220391362982284  0.4167923286232025  0.4995512974527898
  0.1106264547521718  0.0823627266817724  0.7490402617511620
  0.0543935305775349  0.1639315269064099  0.5001240531164655
  0.4448291267545201  0.3343075743881556  0.2491742924812144
  0.3899225517057161  0.4164321459427214  0.9998002159371211
  0.2804649239327688  0.0896889782692725  0.7347009083890796
  0.2211337810427096  0.1664732308233070  0.5012035327813891
  0.1093828418667400  0.3311581929550513  0.2588790313519880
  0.0530260410501313  0.4151072996358138  0.9992911365118289
  0.4442768651249196  0.0821826605321263  0.7490527570609800
  0.3914469589543756  0.1691024972834470  0.5001589670923181
  0.2790717467925390  0.3329780374242546  0.2584497005571365
  0.6116539317568908  0.0836284302966419  0.2480678608913820
  0.5508647446595702  0.1613573278549651  0.9980629957655722
  0.9448441300640553  0.3339926186391580  0.7502061266766233
  0.8899251097574847  0.4166189402062273  0.4998785634780916
  0.7791270358505855  0.0854688852927978  0.2581167720078454
  0.7251302695496804  0.1687584782243405  0.9978691505932744
  0.6067253495891620  0.3299114412108963  0.7428166433015093
  0.5554215858117360  0.4182247380467530  0.4992176824268171
  0.9440596433305828  0.0823887391350908  0.2489466985056907
  0.8918911935039162  0.1714092198674990  0.9979768270032707
  0.7793159237504526  0.3314481563529625  0.7442386357270934
  0.7222658691097692  0.4164703672695467  0.4994064899947048
  0.6112630350690225  0.0833042580094698  0.7491151914112422
  0.5548275097894191  0.1642898948021738  0.4996394955271910
  0.9446336127455055  0.3329778348067478  0.2492833029733390
  0.8896709302587098  0.4142965193710992  0.9993905510069681
  0.7798465405826818  0.0876552085546578  0.7441761519281940
  0.7216070034675610  0.1659341464703203  0.5009809489774568
  0.6094453391098682  0.3317088208065755  0.2585733175244300
  0.5536477647708367  0.4172845025482488  0.9985881262054193
  0.9439304799915575  0.0819015944741395  0.7497815161546413
  0.8905864999893964  0.1679562453931922  0.5001503682593267
  0.7787513122311722  0.3322707003766467  0.2583410630247869
  0.1113164080588760  0.5826531661047554  0.2491556773668506
  0.0514163812071828  0.6606485475159687  0.9994804342460668
  0.4452225382183457  0.8348779809511058  0.7498717593431650
  0.3897591268266183  0.9167856583815137  0.4999734069180590
  0.2791589674094297  0.5855731297502089  0.2586883136778013
  0.2242094816056905  0.6689945027099071  0.9990739885678366
  0.1064452227163173  0.8290613356992367  0.7448390314667606
  0.0548534119774118  0.9168730784875549  0.5002150527088389
  0.4444207902721686  0.5837148180359293  0.2489127408201099
  0.3920475261563965  0.6730781802753185  0.9979984032348383
  0.2791521311008438  0.8313370734692214  0.7456855618039455
  0.2218585487570408  0.9156771744436583  0.5002956367944691
  0.1108994657265114  0.5825448386141971  0.7500368827953281
  0.0544119846419662  0.6635359208801006  0.5005378578288457
  0.4448782061076599  0.8336195818616119  0.2493687636180368
  0.3887987539702920  0.9139403335614489  0.0004823388341535
  0.2800498295371483  0.5889570541663502  0.7440098304129847
  0.2212428818483261  0.6657614983281874  0.5014117298773328
  0.1091109861857902  0.8304691770038914  0.2588844432223567
  0.0530558268528978  0.9144070659010097  0.0003401404852283
  0.4443349602387059  0.5833934690285432  0.7493367397852353
  0.3907344172876819  0.6685828377977998  0.5001136521997296
  0.2784542776360510  0.8316841411541631  0.2584133580356109
  0.6117256357706893  0.5839684247226984  0.2480152906049966
  0.5511486111255124  0.6622850086615770  0.9980527212473902
  0.9446656919096910  0.8338037454273035  0.7500886806206850
  0.8899689990513266  0.9167131624826723  0.4998082926750556
  0.7790286608624655  0.5853072936231030  0.2581084333860204
  0.7252680742536697  0.6687718224965309  0.9978768087714727
  0.6068677151424424  0.8301850527888206  0.7428474205110973
  0.5550928722404151  0.9178616684443597  0.4995616748644522
  0.9439656287981890  0.5822837539679568  0.2493596755335545
  0.8917998971733638  0.6711374230571465  0.9982722165967317
  0.7793658657048042  0.8315503258031782  0.7440802484070019
  0.7222597573254319  0.9165311809194989  0.4992746458386748
  0.6114681818174148  0.5838935138110486  0.7489800554145987
  0.5547579814918109  0.6644798032669499  0.4997194058591461
  0.9444321568304730  0.8327468823190074  0.2496363039130785
  0.8897390267723608  0.9139771197254944  0.9993680086239323
  0.7798212247831628  0.5876250423119131  0.7443094522103735
  0.7216658646052636  0.6659878103583168  0.5009444151871136
  0.6095545655952179  0.8319239555343572  0.2586417500253546
  0.5531338221744804  0.9163925112156974  0.9987724335963222
  0.9438924913657871  0.5818271787112863  0.7500245125501408
  0.8905269062829291  0.6677755195574733  0.5003176938010370
  0.7787809738146692  0.8322963222698121  0.2583865864759289
  0.2204565843450936  0.4179130652134333  0.9980181963430468
  0.7191089792291976  0.4145084298246289  0.9979491616354395
  0.2216775880923052  0.9223181719508133  0.9975026808297898
  0.7195753444859534  0.9148261193425355  0.9982051580837705
  0.1115920249562947  0.0831659691345052  0.4387244973774500
  0.0562379471789001  0.1664573230737716  0.1900289521895786
  0.4455254098729711  0.3378535680918162  0.9395659742666993
  0.3901001354413935  0.4178382589132923  0.6878721021278267
  0.2791019332223712  0.0855960644270795  0.4491179990921665
  0.2239017365010341  0.1658309252173993  0.1893706482190112
  0.0937749901907168  0.3185900100675312  0.9292775068919354
  0.0550234263598881  0.4180290303460126  0.6884416472278190
  0.4439276109214916  0.0829830787628296  0.4388817191711638
  0.3874794632744596  0.1658035063069150  0.1880173062232231
  0.2852578577069522  0.3256016467990435  0.9301167771749732
  0.2218969074535622  0.4170505317183242  0.6956534759501949
  0.1137843249949881  0.0828455964940176  0.9415113218008457
  0.0547117894484401  0.1629996837169898  0.6889897047097620
  0.4447174614918126  0.3336212596616548  0.4384313656282615
  0.3883545242838125  0.4162233029815425  0.1909019276418107
  0.2211492350523088  0.1662871061799791  0.6893100212130037
  0.1092790158296353  0.3312193638970555  0.4474944079759027
  0.0564885637112198  0.4158281212702448  0.1907070871686471
  0.4392184684805187  0.0785871618743457  0.9404440697210106
  0.3913995527367504  0.1695991946907114  0.6902139310893602
  0.2785579708586212  0.3319863790533262  0.4467011557620992
  0.2223253741297668  0.4161497763113715  0.2198872450585867
  0.6112496295824883  0.0835636632314802  0.4380089249029027
  0.5551593214361930  0.1668267125361140  0.1896084832968015
  0.9460043886869869  0.3364019669426312  0.9403434682135199
  0.8902080840858915  0.4171271532965477  0.6882513668784469
  0.7791522548112084  0.0857224004460662  0.4467916491063235
  0.7232558522901940  0.1671113423285320  0.1906386239881996
  0.5916304814350895  0.3180776307462878  0.9282287747461595
  0.5550498512837265  0.4187608503535571  0.6875185852661190
  0.9444206626670280  0.0826242885657464  0.4388298699031736
  0.8889662102292775  0.1662619131536331  0.1900942818693139
  0.7850380538717587  0.3259530449493298  0.9301702618948653
  0.7214701780756698  0.4160741836640085  0.6953314649396489
  0.6119112636217210  0.0845147739019794  0.9413631449560640
  0.5540544902403681  0.1630854926629581  0.6883984042646816
  0.9449065356767008  0.3334760665706682  0.4387936187580834
  0.8884530038372773  0.4156877636045095  0.1910659327709681
  0.7864666860628517  0.1029813969309217  0.9300524853182779
  0.7208464555767833  0.1654236743271937  0.6880158121928730
  0.6090178318283392  0.3314468445252174  0.4470703360649182
  0.5559568797146213  0.4161711460008419  0.1900311272585853
  0.9418475930150052  0.0786499310751836  0.9408422550202502
  0.8913359519569326  0.1682968593146370  0.6889620014648585
  0.7786596802448642  0.3322003592714822  0.4467224783313384
  0.7220436844763682  0.4161887206291084  0.2198852356956493
  0.1112665452039536  0.5830423257400312  0.4390116550413126
  0.0558112674212836  0.6664349795473044  0.1908083963641189
  0.4455347434629786  0.8379489248657634  0.9401393324663516
  0.3895520859464270  0.9172968402667863  0.6887835368509698
  0.2790588316779150  0.5858366255208836  0.4472561197389382
  0.2231737445774584  0.6667967070868315  0.1915290192651113
  0.0956591240646958  0.8196305083436712  0.9315894907186006
  0.0552294722342381  0.9177956203434974  0.6889164832170778
  0.4441738077782489  0.5829663780917329  0.4386389175100192
  0.3887125055221716  0.6668152842952466  0.1900870025283865
  0.2830130299040192  0.8274143664757787  0.9328825530633580
  0.2224123598307486  0.9186393545848262  0.6989110295826393
  0.1122310300989326  0.5832284172257758  0.9421075884253867
  0.0547375891401742  0.6635768286690364  0.6894881142763936
  0.4446969834439400  0.8340362195692848  0.4387843487495857
  0.3880656898828789  0.9159059486773202  0.1913932267631537
  0.2867474083403820  0.6058442498348384  0.9296768464593015
  0.2208006988866487  0.6663950917897097  0.6885596446918925
  0.1096194131556274  0.8314449686654726  0.4478521258465946
  0.0564798998467353  0.9158122156648858  0.1911254213230791
  0.4409943584634064  0.5796379018038564  0.9404715666523416
  0.3912644943611738  0.6691623909878288  0.6887768819984217
  0.2783377503068394  0.8324274428289371  0.4471104382140751
  0.2221215791421685  0.9162095480584043  0.2182399512303803
  0.6113239093724800  0.5835587259832877  0.4379176944503058
  0.5557281270070575  0.6672290597359520  0.1896764061327971
  0.9465087626952382  0.8364250082428484  0.9403334928531493
  0.8903237807829427  0.9171222273731914  0.6881437933340635
  0.7791144750484946  0.5855899472923269  0.4467974776131101
  0.7233203556493919  0.6670562559769877  0.1906404457195165
  0.5925604727412335  0.8191205794746566  0.9282008532726707
  0.5548339556544732  0.9185948262037940  0.6877932153640600
  0.9443639215172936  0.5826747252378013  0.4392361198525379
  0.8888780216518839  0.6662779746186018  0.1903659245297504
  0.7852693668557009  0.8257649894279098  0.9299607402108734
  0.7216943403583116  0.9162546499790665  0.6950914855404378
  0.6122238532408488  0.5845609650344628  0.9412571349769507
  0.5543977533104396  0.6634124155475973  0.6883193099821483
  0.9450881758035834  0.8335375816162767  0.4390748525808732
  0.8885629143785465  0.9156114332896976  0.1910037824738993
  0.7864951915503582  0.6027811916838530  0.9302126230536203
  0.7209931040513169  0.6654811361824287  0.6879324037962888
  0.6090899085499402  0.8316296461354540  0.4471265970718576
  0.5562227812675005  0.9164858024520512  0.1902579963680253
  0.9418922107067758  0.5792912300788373  0.9410270528913642
  0.8912654586711568  0.6682830012577909  0.6890667931179308
  0.7787660487041990  0.8322015539351142  0.4466966196658007
  0.7222533672623541  0.9163791214119712  0.2201529145433838
  0.2896613060228859  0.1122481844412633  0.9257391502561276
 
  0.00000000E+00  0.00000000E+00  0.00000000E+00
  0.00000000E+00  0.00000000E+00  0.00000000E+00
  0.00000000E+00  0.00000000E+00  0.00000000E+00
  0.00000000E+00  0.00000000E+00  0.00000000E+00
  0.00000000E+00  0.00000000E+00  0.00000000E+00
  0.00000000E+00  0.00000000E+00  0.00000000E+00
  0.00000000E+00  0.00000000E+00  0.00000000E+00
  0.00000000E+00  0.00000000E+00  0.00000000E+00
  0.00000000E+00  0.00000000E+00  0.00000000E+00
  0.00000000E+00  0.00000000E+00  0.00000000E+00
  0.00000000E+00  0.00000000E+00  0.00000000E+00
  0.00000000E+00  0.00000000E+00  0.00000000E+00
  0.00000000E+00  0.00000000E+00  0.00000000E+00
  0.00000000E+00  0.00000000E+00  0.00000000E+00
  0.00000000E+00  0.00000000E+00  0.00000000E+00
  0.00000000E+00  0.00000000E+00  0.00000000E+00
  0.00000000E+00  0.00000000E+00  0.00000000E+00
  0.00000000E+00  0.00000000E+00  0.00000000E+00
  0.00000000E+00  0.00000000E+00  0.00000000E+00
  0.00000000E+00  0.00000000E+00  0.00000000E+00
  0.00000000E+00  0.00000000E+00  0.00000000E+00
  0.00000000E+00  0.00000000E+00  0.00000000E+00
  0.00000000E+00  0.00000000E+00  0.00000000E+00
  0.00000000E+00  0.00000000E+00  0.00000000E+00
  0.00000000E+00  0.00000000E+00  0.00000000E+00
  0.00000000E+00  0.00000000E+00  0.00000000E+00
  0.00000000E+00  0.00000000E+00  0.00000000E+00
  0.00000000E+00  0.00000000E+00  0.00000000E+00
  0.00000000E+00  0.00000000E+00  0.00000000E+00
  0.00000000E+00  0.00000000E+00  0.00000000E+00
  0.00000000E+00  0.00000000E+00  0.00000000E+00
  0.00000000E+00  0.00000000E+00  0.00000000E+00
  0.00000000E+00  0.00000000E+00  0.00000000E+00
  0.00000000E+00  0.00000000E+00  0.00000000E+00
  0.00000000E+00  0.00000000E+00  0.00000000E+00
  0.00000000E+00  0.00000000E+00  0.00000000E+00
  0.00000000E+00  0.00000000E+00  0.00000000E+00
  0.00000000E+00  0.00000000E+00  0.00000000E+00
  0.00000000E+00  0.00000000E+00  0.00000000E+00
  0.00000000E+00  0.00000000E+00  0.00000000E+00
  0.00000000E+00  0.00000000E+00  0.00000000E+00
  0.00000000E+00  0.00000000E+00  0.00000000E+00
  0.00000000E+00  0.00000000E+00  0.00000000E+00
  0.00000000E+00  0.00000000E+00  0.00000000E+00
  0.00000000E+00  0.00000000E+00  0.00000000E+00
  0.00000000E+00  0.00000000E+00  0.00000000E+00
  0.00000000E+00  0.00000000E+00  0.00000000E+00
  0.00000000E+00  0.00000000E+00  0.00000000E+00
  0.00000000E+00  0.00000000E+00  0.00000000E+00
  0.00000000E+00  0.00000000E+00  0.00000000E+00
  0.00000000E+00  0.00000000E+00  0.00000000E+00
  0.00000000E+00  0.00000000E+00  0.00000000E+00
  0.00000000E+00  0.00000000E+00  0.00000000E+00
  0.00000000E+00  0.00000000E+00  0.00000000E+00
  0.00000000E+00  0.00000000E+00  0.00000000E+00
  0.00000000E+00  0.00000000E+00  0.00000000E+00
  0.00000000E+00  0.00000000E+00  0.00000000E+00
  0.00000000E+00  0.00000000E+00  0.00000000E+00
  0.00000000E+00  0.00000000E+00  0.00000000E+00
  0.00000000E+00  0.00000000E+00  0.00000000E+00
  0.00000000E+00  0.00000000E+00  0.00000000E+00
  0.00000000E+00  0.00000000E+00  0.00000000E+00
  0.00000000E+00  0.00000000E+00  0.00000000E+00
  0.00000000E+00  0.00000000E+00  0.00000000E+00
  0.00000000E+00  0.00000000E+00  0.00000000E+00
  0.00000000E+00  0.00000000E+00  0.00000000E+00
  0.00000000E+00  0.00000000E+00  0.00000000E+00
  0.00000000E+00  0.00000000E+00  0.00000000E+00
  0.00000000E+00  0.00000000E+00  0.00000000E+00
  0.00000000E+00  0.00000000E+00  0.00000000E+00
  0.00000000E+00  0.00000000E+00  0.00000000E+00
  0.00000000E+00  0.00000000E+00  0.00000000E+00
  0.00000000E+00  0.00000000E+00  0.00000000E+00
  0.00000000E+00  0.00000000E+00  0.00000000E+00
  0.00000000E+00  0.00000000E+00  0.00000000E+00
  0.00000000E+00  0.00000000E+00  0.00000000E+00
  0.00000000E+00  0.00000000E+00  0.00000000E+00
  0.00000000E+00  0.00000000E+00  0.00000000E+00
  0.00000000E+00  0.00000000E+00  0.00000000E+00
  0.00000000E+00  0.00000000E+00  0.00000000E+00
  0.00000000E+00  0.00000000E+00  0.00000000E+00
  0.00000000E+00  0.00000000E+00  0.00000000E+00
  0.00000000E+00  0.00000000E+00  0.00000000E+00
  0.00000000E+00  0.00000000E+00  0.00000000E+00
  0.00000000E+00  0.00000000E+00  0.00000000E+00
  0.00000000E+00  0.00000000E+00  0.00000000E+00
  0.00000000E+00  0.00000000E+00  0.00000000E+00
  0.00000000E+00  0.00000000E+00  0.00000000E+00
  0.00000000E+00  0.00000000E+00  0.00000000E+00
  0.00000000E+00  0.00000000E+00  0.00000000E+00
  0.00000000E+00  0.00000000E+00  0.00000000E+00
  0.00000000E+00  0.00000000E+00  0.00000000E+00
  0.00000000E+00  0.00000000E+00  0.00000000E+00
  0.00000000E+00  0.00000000E+00  0.00000000E+00
  0.00000000E+00  0.00000000E+00  0.00000000E+00
  0.00000000E+00  0.00000000E+00  0.00000000E+00
  0.00000000E+00  0.00000000E+00  0.00000000E+00
  0.00000000E+00  0.00000000E+00  0.00000000E+00
  0.00000000E+00  0.00000000E+00  0.00000000E+00
  0.00000000E+00  0.00000000E+00  0.00000000E+00
  0.00000000E+00  0.00000000E+00  0.00000000E+00
  0.00000000E+00  0.00000000E+00  0.00000000E+00
  0.00000000E+00  0.00000000E+00  0.00000000E+00
  0.00000000E+00  0.00000000E+00  0.00000000E+00
  0.00000000E+00  0.00000000E+00  0.00000000E+00
  0.00000000E+00  0.00000000E+00  0.00000000E+00
  0.00000000E+00  0.00000000E+00  0.00000000E+00
  0.00000000E+00  0.00000000E+00  0.00000000E+00
  0.00000000E+00  0.00000000E+00  0.00000000E+00
  0.00000000E+00  0.00000000E+00  0.00000000E+00
  0.00000000E+00  0.00000000E+00  0.00000000E+00
  0.00000000E+00  0.00000000E+00  0.00000000E+00
  0.00000000E+00  0.00000000E+00  0.00000000E+00
  0.00000000E+00  0.00000000E+00  0.00000000E+00
  0.00000000E+00  0.00000000E+00  0.00000000E+00
  0.00000000E+00  0.00000000E+00  0.00000000E+00
  0.00000000E+00  0.00000000E+00  0.00000000E+00
  0.00000000E+00  0.00000000E+00  0.00000000E+00
  0.00000000E+00  0.00000000E+00  0.00000000E+00
  0.00000000E+00  0.00000000E+00  0.00000000E+00
  0.00000000E+00  0.00000000E+00  0.00000000E+00
  0.00000000E+00  0.00000000E+00  0.00000000E+00
  0.00000000E+00  0.00000000E+00  0.00000000E+00
  0.00000000E+00  0.00000000E+00  0.00000000E+00
  0.00000000E+00  0.00000000E+00  0.00000000E+00
  0.00000000E+00  0.00000000E+00  0.00000000E+00
  0.00000000E+00  0.00000000E+00  0.00000000E+00
  0.00000000E+00  0.00000000E+00  0.00000000E+00
  0.00000000E+00  0.00000000E+00  0.00000000E+00
  0.00000000E+00  0.00000000E+00  0.00000000E+00
  0.00000000E+00  0.00000000E+00  0.00000000E+00
  0.00000000E+00  0.00000000E+00  0.00000000E+00
  0.00000000E+00  0.00000000E+00  0.00000000E+00
  0.00000000E+00  0.00000000E+00  0.00000000E+00
  0.00000000E+00  0.00000000E+00  0.00000000E+00
  0.00000000E+00  0.00000000E+00  0.00000000E+00
  0.00000000E+00  0.00000000E+00  0.00000000E+00
  0.00000000E+00  0.00000000E+00  0.00000000E+00
  0.00000000E+00  0.00000000E+00  0.00000000E+00
  0.00000000E+00  0.00000000E+00  0.00000000E+00
  0.00000000E+00  0.00000000E+00  0.00000000E+00
  0.00000000E+00  0.00000000E+00  0.00000000E+00
  0.00000000E+00  0.00000000E+00  0.00000000E+00
  0.00000000E+00  0.00000000E+00  0.00000000E+00
  0.00000000E+00  0.00000000E+00  0.00000000E+00
  0.00000000E+00  0.00000000E+00  0.00000000E+00
  0.00000000E+00  0.00000000E+00  0.00000000E+00
  0.00000000E+00  0.00000000E+00  0.00000000E+00
  0.00000000E+00  0.00000000E+00  0.00000000E+00
  0.00000000E+00  0.00000000E+00  0.00000000E+00
  0.00000000E+00  0.00000000E+00  0.00000000E+00
  0.00000000E+00  0.00000000E+00  0.00000000E+00
  0.00000000E+00  0.00000000E+00  0.00000000E+00
  0.00000000E+00  0.00000000E+00  0.00000000E+00
  0.00000000E+00  0.00000000E+00  0.00000000E+00
  0.00000000E+00  0.00000000E+00  0.00000000E+00
  0.00000000E+00  0.00000000E+00  0.00000000E+00
  0.00000000E+00  0.00000000E+00  0.00000000E+00
  0.00000000E+00  0.00000000E+00  0.00000000E+00
  0.00000000E+00  0.00000000E+00  0.00000000E+00
  0.00000000E+00  0.00000000E+00  0.00000000E+00
  0.00000000E+00  0.00000000E+00  0.00000000E+00
  0.00000000E+00  0.00000000E+00  0.00000000E+00
  0.00000000E+00  0.00000000E+00  0.00000000E+00
  0.00000000E+00  0.00000000E+00  0.00000000E+00
  0.00000000E+00  0.00000000E+00  0.00000000E+00
  0.00000000E+00  0.00000000E+00  0.00000000E+00
  0.00000000E+00  0.00000000E+00  0.00000000E+00
  0.00000000E+00  0.00000000E+00  0.00000000E+00
  0.00000000E+00  0.00000000E+00  0.00000000E+00
  0.00000000E+00  0.00000000E+00  0.00000000E+00
  0.00000000E+00  0.00000000E+00  0.00000000E+00
  0.00000000E+00  0.00000000E+00  0.00000000E+00
  0.00000000E+00  0.00000000E+00  0.00000000E+00
  0.00000000E+00  0.00000000E+00  0.00000000E+00
  0.00000000E+00  0.00000000E+00  0.00000000E+00
  0.00000000E+00  0.00000000E+00  0.00000000E+00
  0.00000000E+00  0.00000000E+00  0.00000000E+00
  0.00000000E+00  0.00000000E+00  0.00000000E+00
  0.00000000E+00  0.00000000E+00  0.00000000E+00
  0.00000000E+00  0.00000000E+00  0.00000000E+00
  0.00000000E+00  0.00000000E+00  0.00000000E+00
  0.00000000E+00  0.00000000E+00  0.00000000E+00
  0.00000000E+00  0.00000000E+00  0.00000000E+00
  0.00000000E+00  0.00000000E+00  0.00000000E+00
  0.00000000E+00  0.00000000E+00  0.00000000E+00
  0.00000000E+00  0.00000000E+00  0.00000000E+00
  0.00000000E+00  0.00000000E+00  0.00000000E+00
  0.00000000E+00  0.00000000E+00  0.00000000E+00
  0.00000000E+00  0.00000000E+00  0.00000000E+00
  0.00000000E+00  0.00000000E+00  0.00000000E+00
  0.00000000E+00  0.00000000E+00  0.00000000E+00
