generated by phonopy                    
   1.00000000000000     
    10.0351470768999995   -0.0000022330999784   -0.0000001056124209
    -5.0175765436399997    8.6906901959899994    0.0000001395531216
    -0.0000001735893656    0.0000001431815548   14.9533752540999991
   Pb   P    O 
    20    12    49
Direct
  0.9976671814736449  0.7716657412353598  0.1257405198765156
  0.9976226077836117  0.7716182528524840  0.6204431319428139
  0.0126622504042189  0.2502716370193028  0.3735839107844896
  0.0058242207860104  0.2639667642229782  0.8735977839892612
  0.2284289274221365  0.2266594883069928  0.1275077774155378
  0.2284882427739348  0.2269059634207977  0.6186497183431356
  0.7484701372295177  0.7519433075195749  0.3733782861132084
  0.7379890473979458  0.7415211425648991  0.8736754396284425
  0.7744776600504792  0.0023861273537378  0.1266779150355859
  0.7743798229984336  0.0024374418132354  0.6195472938336408
  0.2448025818742536  0.9958432358429619  0.3734587479788232
  0.2589579075664119  0.9960345181305144  0.8735791747292865
  0.6677658046943264  0.3328061441455290  0.0030681658977159
  0.6617374831853908  0.3327501263608923  0.4971333015701660
  0.3342460399312159  0.6673314584304109  0.0047175504678236
  0.3294178514074417  0.6625033914480341  0.5007282209195694
  0.3294487011476477  0.6622143863761352  0.2468372457569430
  0.3344213242584360  0.6673502933325750  0.7427510605147916
  0.6618446380878140  0.3326123133852761  0.2517539563912976
  0.6676843416538389  0.3328996194439782  0.7457370927057738
  0.6246784146885815  0.5952674552531860  0.1224178890491530
  0.6248371736031828  0.5953043878848447  0.6257184362752568
  0.3792118674423932  0.4195337276088367  0.3740231706111601
  0.3689257818896650  0.3968091335582926  0.8741525636264100
  0.4042248874762393  0.0282358608744602  0.1236825828926982
  0.4043331361962501  0.0285060833119459  0.6246409131533923
  0.5965220877042086  0.9664304268393167  0.3739940940121116
  0.6041560293190145  0.9720422648402192  0.8740671099045585
  0.9711352223343965  0.3752741650887259  0.1236548140276099
  0.9709585295467349  0.3752079730432740  0.6246485809949434
  0.0314628251765043  0.6307294802706451  0.3739188911317726
  0.0278772725221685  0.6320322356401036  0.8740415208206258
  0.5015262917293839  0.6466786085464946  0.1221013949628116
  0.5016992972676846  0.6467357272861705  0.6253532884581148
  0.4745677637410211  0.3312695228723967  0.3743002828603252
  0.4705365064475018  0.3203248342915685  0.8744250873486763
  0.3521448337218231  0.8532740433499839  0.1242043009196365
  0.3522205608000846  0.8535307992595378  0.6234281315096766
  0.6681122811875255  0.1437939773949850  0.3742567709044167
  0.6803586512550410  0.1501431442728460  0.8743013419834611
  0.1460542867221690  0.4994446471552934  0.1234216001285446
  0.1458835307823918  0.4993358298712920  0.6242062802998234
  0.8532109481200081  0.5313473311429249  0.3740612625812290
  0.8498654633815974  0.5291337949925179  0.8742859571151840
  0.7264232782797393  0.6486442870769622  0.0357706668661351
  0.7354591994455575  0.6637471595861442  0.5433123840369518
  0.2614456718129858  0.3540320275297475  0.4578219322461052
  0.2623224957965533  0.3533077540299416  0.9583218390308303
  0.3487042831710525  0.0745856689356756  0.0372441579631584
  0.3381089327919824  0.0725823093419677  0.5417351596231725
  0.6449381390584747  0.9069620419851674  0.4581723736477343
  0.6478574793171603  0.9093343790135435  0.9582926938051699
  0.9241874069003799  0.2745107212690527  0.0366113397479637
  0.9304635530113927  0.2645490219097439  0.5424461190759260
  0.0939828620363841  0.7372740111566074  0.4584731044157024
  0.0899257265375013  0.7386988354087904  0.9581971268852243
  0.2612293160861228  0.3535498188079274  0.2903830016391709
  0.2609511428891622  0.3508876452133549  0.7905266580791874
  0.7362500069232993  0.6664171238589987  0.2042186666311494
  0.7274293885215783  0.6512017621769530  0.7119430848218400
  0.6458264236575531  0.9075058564374956  0.2900088666219034
  0.6500781452004816  0.9101757387713150  0.7903999245689661
  0.3354171499233658  0.0706309564686407  0.2060370913350198
  0.3464097019672465  0.0732269413515425  0.7106814114246589
  0.0937900274809422  0.7379707621369107  0.2897012619636001
  0.0890420694028364  0.7401616809089049  0.7904841529628897
  0.9323884869485823  0.2636103829850427  0.2051959551451858
  0.9256775195906215  0.2734561698105722  0.7112212613653313
  0.5448218589306677  0.4150594609357654  0.1276969602450677
  0.5448607356701132  0.4149540803860958  0.6219972000872929
  0.4752618009120795  0.5787369680719792  0.8732807380096972
  0.5843989867946462  0.1287648351291253  0.1278190422485252
  0.5846155661908412  0.1290343064940487  0.6219936467390497
  0.4147690725736837  0.8845689933430023  0.3736839375137393
  0.4222085698839209  0.8965021949522054  0.8732587526435509
  0.8703529937098367  0.4543821126889469  0.1288243168244207
  0.8701432303732020  0.4544116191730865  0.6211198740080235
  0.1074680527687164  0.5256829586020615  0.3735867823782471
  0.1044929704015303  0.5266767785722948  0.8731893915966253
  0.0003379876144010  0.9999949737950473  0.1197532672927721
  0.0003799712536079  0.0000832339668193  0.6213876294000755
 
  0.00000000E+00  0.00000000E+00  0.00000000E+00
  0.00000000E+00  0.00000000E+00  0.00000000E+00
  0.00000000E+00  0.00000000E+00  0.00000000E+00
  0.00000000E+00  0.00000000E+00  0.00000000E+00
  0.00000000E+00  0.00000000E+00  0.00000000E+00
  0.00000000E+00  0.00000000E+00  0.00000000E+00
  0.00000000E+00  0.00000000E+00  0.00000000E+00
  0.00000000E+00  0.00000000E+00  0.00000000E+00
  0.00000000E+00  0.00000000E+00  0.00000000E+00
  0.00000000E+00  0.00000000E+00  0.00000000E+00
  0.00000000E+00  0.00000000E+00  0.00000000E+00
  0.00000000E+00  0.00000000E+00  0.00000000E+00
  0.00000000E+00  0.00000000E+00  0.00000000E+00
  0.00000000E+00  0.00000000E+00  0.00000000E+00
  0.00000000E+00  0.00000000E+00  0.00000000E+00
  0.00000000E+00  0.00000000E+00  0.00000000E+00
  0.00000000E+00  0.00000000E+00  0.00000000E+00
  0.00000000E+00  0.00000000E+00  0.00000000E+00
  0.00000000E+00  0.00000000E+00  0.00000000E+00
  0.00000000E+00  0.00000000E+00  0.00000000E+00
  0.00000000E+00  0.00000000E+00  0.00000000E+00
  0.00000000E+00  0.00000000E+00  0.00000000E+00
  0.00000000E+00  0.00000000E+00  0.00000000E+00
  0.00000000E+00  0.00000000E+00  0.00000000E+00
  0.00000000E+00  0.00000000E+00  0.00000000E+00
  0.00000000E+00  0.00000000E+00  0.00000000E+00
  0.00000000E+00  0.00000000E+00  0.00000000E+00
  0.00000000E+00  0.00000000E+00  0.00000000E+00
  0.00000000E+00  0.00000000E+00  0.00000000E+00
  0.00000000E+00  0.00000000E+00  0.00000000E+00
  0.00000000E+00  0.00000000E+00  0.00000000E+00
  0.00000000E+00  0.00000000E+00  0.00000000E+00
  0.00000000E+00  0.00000000E+00  0.00000000E+00
  0.00000000E+00  0.00000000E+00  0.00000000E+00
  0.00000000E+00  0.00000000E+00  0.00000000E+00
  0.00000000E+00  0.00000000E+00  0.00000000E+00
  0.00000000E+00  0.00000000E+00  0.00000000E+00
  0.00000000E+00  0.00000000E+00  0.00000000E+00
  0.00000000E+00  0.00000000E+00  0.00000000E+00
  0.00000000E+00  0.00000000E+00  0.00000000E+00
  0.00000000E+00  0.00000000E+00  0.00000000E+00
  0.00000000E+00  0.00000000E+00  0.00000000E+00
  0.00000000E+00  0.00000000E+00  0.00000000E+00
  0.00000000E+00  0.00000000E+00  0.00000000E+00
  0.00000000E+00  0.00000000E+00  0.00000000E+00
  0.00000000E+00  0.00000000E+00  0.00000000E+00
  0.00000000E+00  0.00000000E+00  0.00000000E+00
  0.00000000E+00  0.00000000E+00  0.00000000E+00
  0.00000000E+00  0.00000000E+00  0.00000000E+00
  0.00000000E+00  0.00000000E+00  0.00000000E+00
  0.00000000E+00  0.00000000E+00  0.00000000E+00
  0.00000000E+00  0.00000000E+00  0.00000000E+00
  0.00000000E+00  0.00000000E+00  0.00000000E+00
  0.00000000E+00  0.00000000E+00  0.00000000E+00
  0.00000000E+00  0.00000000E+00  0.00000000E+00
  0.00000000E+00  0.00000000E+00  0.00000000E+00
  0.00000000E+00  0.00000000E+00  0.00000000E+00
  0.00000000E+00  0.00000000E+00  0.00000000E+00
  0.00000000E+00  0.00000000E+00  0.00000000E+00
  0.00000000E+00  0.00000000E+00  0.00000000E+00
  0.00000000E+00  0.00000000E+00  0.00000000E+00
  0.00000000E+00  0.00000000E+00  0.00000000E+00
  0.00000000E+00  0.00000000E+00  0.00000000E+00
  0.00000000E+00  0.00000000E+00  0.00000000E+00
  0.00000000E+00  0.00000000E+00  0.00000000E+00
  0.00000000E+00  0.00000000E+00  0.00000000E+00
  0.00000000E+00  0.00000000E+00  0.00000000E+00
  0.00000000E+00  0.00000000E+00  0.00000000E+00
  0.00000000E+00  0.00000000E+00  0.00000000E+00
  0.00000000E+00  0.00000000E+00  0.00000000E+00
  0.00000000E+00  0.00000000E+00  0.00000000E+00
  0.00000000E+00  0.00000000E+00  0.00000000E+00
  0.00000000E+00  0.00000000E+00  0.00000000E+00
  0.00000000E+00  0.00000000E+00  0.00000000E+00
  0.00000000E+00  0.00000000E+00  0.00000000E+00
  0.00000000E+00  0.00000000E+00  0.00000000E+00
  0.00000000E+00  0.00000000E+00  0.00000000E+00
  0.00000000E+00  0.00000000E+00  0.00000000E+00
  0.00000000E+00  0.00000000E+00  0.00000000E+00
  0.00000000E+00  0.00000000E+00  0.00000000E+00
  0.00000000E+00  0.00000000E+00  0.00000000E+00
