supercell of icsd_191774.cif            
   1.00000000000000     
    10.6465728817304388   -0.0178533043626965   -0.0037776799487676
    -5.3387396843234134    9.2312238311305048    0.0019056803106102
    -0.0043768603460717   -0.0002085226708343   10.8597638023550864
   N    Sc   In
    36    18    18
Direct
  0.2195898076944260  0.1114918278877752  0.4367468484218833
  0.1151244554470949  0.2247796819962957  0.2015961794736825
  0.8881456960386700  0.1092192782554022  0.9356556160928164
  0.7812940396594996  0.2238940931603608  0.6888547934724087
  0.5586429993308712  0.1124094374650966  0.4384540854377832
  0.4451505297316629  0.2230618952042107  0.2010888223718155
  0.2196753539938641  0.1082929146690077  0.9489815928894814
  0.1098522194524776  0.2213372993841745  0.6862965301002077
  0.8915728410075587  0.1158222325637439  0.4525718074475549
  0.7751580230064263  0.2214049252486348  0.1970066425347881
  0.5545716625355155  0.1103998694966961  0.9455305608039453
  0.4460555294265092  0.2246784593344202  0.6930464044738827
  0.2239054154220526  0.4456153960226814  0.4390895320235089
  0.1144201130315281  0.5577679256349626  0.2002949738120208
  0.8884670542118940  0.4451187787374380  0.9341985298633233
  0.7744305376834433  0.5509676006837623  0.6880119138572809
  0.5568899353771570  0.4503797156533622  0.4416955318744016
  0.4455594476239781  0.5551328037491459  0.1933410291625961
  0.2258614708819664  0.4479362007571055  0.9466231664654572
  0.1104828882770548  0.5581295685885905  0.6873025564537087
  0.8888536878708422  0.4449536432158681  0.4555767367618202
  0.7729342424759835  0.5520987062595637  0.1983019468832481
  0.5523574754428040  0.4459564259981335  0.9388608186041267
  0.4477212426296404  0.5531144405470627  0.6884042455033779
  0.2182529151653370  0.7728235651307855  0.4390457976348259
  0.1160645670270597  0.8906167083725975  0.1878547361620164
  0.8888477990595760  0.7793117792334030  0.9487955871978500
  0.7789881602249125  0.8919494542653368  0.6995927072695665
  0.5543157164012129  0.7730088893580955  0.4354003746516568
  0.4434515025265000  0.8881938174907731  0.2012551210924798
  0.2196218819019009  0.7790346551067415  0.9390798336917925
  0.1135998987855160  0.8868363545748466  0.6982184942187573
  0.8877976718549405  0.7755968108019218  0.4441220447342857
  0.7754122046684344  0.8897846587402611  0.1866566569539003
  0.5557343825447489  0.7742142926959943  0.9519202228466881
  0.4413266959514672  0.8850711537899230  0.6929733938456692
  0.2219001757078374  0.1092791845684218  0.2436308166852754
  0.1148088600675834  0.2248758044190211  0.4920603988734769
  0.8913685458101241  0.1143587184013839  0.7412755988683628
  0.5539092543943624  0.1102421294289968  0.2460416319953893
  0.7765267039501111  0.2222408757081382  0.4964378272854617
  0.2240693433111929  0.4459921916861020  0.2453246517301011
  0.1124491741766818  0.5541611337801129  0.4935265150866712
  0.8890658892290659  0.4448335459434034  0.7395751005371096
  0.5530620325797457  0.4437408335484960  0.2482384994146685
  0.4440367656033501  0.5560992352699827  0.4934117830372315
  0.7769257842317714  0.5563066129289638  0.4945224714399785
  0.5558702406499094  0.4431875399037608  0.7436639323631695
  0.4452448131371725  0.5544746475359688  0.9982215088695341
  0.2213498682565316  0.7786861930425104  0.2466305555351127
  0.7796243118504762  0.8912833194489096  0.9936804697583455
  0.5555900264119984  0.7772436101232003  0.2419854584988030
  0.2220753616347793  0.7758755699393305  0.7451354607508378
  0.1106312037011961  0.8879535084545793  0.9942504412015865
  0.7806569564457320  0.2234519987742090  0.9964529575704901
  0.4446049639638687  0.2232875588402337  0.4927384569571842
  0.2223589753765225  0.1126243701677794  0.7482506301668366
  0.1093297804276503  0.2229032145420717  0.0004623932982639
  0.8885195267825594  0.1105748593124218  0.2516190510458003
  0.5565974117990748  0.1104060624542456  0.7458142282346856
  0.4451640171903009  0.2243277671536248  0.0007044515673797
  0.7761478574992751  0.5537593963457894  0.9978002015536873
  0.2221791254831516  0.4453482281084860  0.7444285237842436
  0.1097352904941999  0.5564939187264031  0.9985101092093984
  0.8892273414061265  0.4447347892961773  0.2539055164747026
  0.1120489958870436  0.8895369745406967  0.4972947797877225
  0.8870083764721173  0.7738279684282929  0.7487849275928227
  0.4445149724349804  0.8871558530768695  0.4924075671482626
  0.8906782333928263  0.7805282860748051  0.2441536290387702
  0.7765452992201176  0.8881260317441573  0.4991655939304778
  0.5537254251386088  0.7750542550609651  0.7501872216383134
  0.4423190315174566  0.8866185531472794  0.0010608039851974
 
  0.00000000E+00  0.00000000E+00  0.00000000E+00
  0.00000000E+00  0.00000000E+00  0.00000000E+00
  0.00000000E+00  0.00000000E+00  0.00000000E+00
  0.00000000E+00  0.00000000E+00  0.00000000E+00
  0.00000000E+00  0.00000000E+00  0.00000000E+00
  0.00000000E+00  0.00000000E+00  0.00000000E+00
  0.00000000E+00  0.00000000E+00  0.00000000E+00
  0.00000000E+00  0.00000000E+00  0.00000000E+00
  0.00000000E+00  0.00000000E+00  0.00000000E+00
  0.00000000E+00  0.00000000E+00  0.00000000E+00
  0.00000000E+00  0.00000000E+00  0.00000000E+00
  0.00000000E+00  0.00000000E+00  0.00000000E+00
  0.00000000E+00  0.00000000E+00  0.00000000E+00
  0.00000000E+00  0.00000000E+00  0.00000000E+00
  0.00000000E+00  0.00000000E+00  0.00000000E+00
  0.00000000E+00  0.00000000E+00  0.00000000E+00
  0.00000000E+00  0.00000000E+00  0.00000000E+00
  0.00000000E+00  0.00000000E+00  0.00000000E+00
  0.00000000E+00  0.00000000E+00  0.00000000E+00
  0.00000000E+00  0.00000000E+00  0.00000000E+00
  0.00000000E+00  0.00000000E+00  0.00000000E+00
  0.00000000E+00  0.00000000E+00  0.00000000E+00
  0.00000000E+00  0.00000000E+00  0.00000000E+00
  0.00000000E+00  0.00000000E+00  0.00000000E+00
  0.00000000E+00  0.00000000E+00  0.00000000E+00
  0.00000000E+00  0.00000000E+00  0.00000000E+00
  0.00000000E+00  0.00000000E+00  0.00000000E+00
  0.00000000E+00  0.00000000E+00  0.00000000E+00
  0.00000000E+00  0.00000000E+00  0.00000000E+00
  0.00000000E+00  0.00000000E+00  0.00000000E+00
  0.00000000E+00  0.00000000E+00  0.00000000E+00
  0.00000000E+00  0.00000000E+00  0.00000000E+00
  0.00000000E+00  0.00000000E+00  0.00000000E+00
  0.00000000E+00  0.00000000E+00  0.00000000E+00
  0.00000000E+00  0.00000000E+00  0.00000000E+00
  0.00000000E+00  0.00000000E+00  0.00000000E+00
  0.00000000E+00  0.00000000E+00  0.00000000E+00
  0.00000000E+00  0.00000000E+00  0.00000000E+00
  0.00000000E+00  0.00000000E+00  0.00000000E+00
  0.00000000E+00  0.00000000E+00  0.00000000E+00
  0.00000000E+00  0.00000000E+00  0.00000000E+00
  0.00000000E+00  0.00000000E+00  0.00000000E+00
  0.00000000E+00  0.00000000E+00  0.00000000E+00
  0.00000000E+00  0.00000000E+00  0.00000000E+00
  0.00000000E+00  0.00000000E+00  0.00000000E+00
  0.00000000E+00  0.00000000E+00  0.00000000E+00
  0.00000000E+00  0.00000000E+00  0.00000000E+00
  0.00000000E+00  0.00000000E+00  0.00000000E+00
  0.00000000E+00  0.00000000E+00  0.00000000E+00
  0.00000000E+00  0.00000000E+00  0.00000000E+00
  0.00000000E+00  0.00000000E+00  0.00000000E+00
  0.00000000E+00  0.00000000E+00  0.00000000E+00
  0.00000000E+00  0.00000000E+00  0.00000000E+00
  0.00000000E+00  0.00000000E+00  0.00000000E+00
  0.00000000E+00  0.00000000E+00  0.00000000E+00
  0.00000000E+00  0.00000000E+00  0.00000000E+00
  0.00000000E+00  0.00000000E+00  0.00000000E+00
  0.00000000E+00  0.00000000E+00  0.00000000E+00
  0.00000000E+00  0.00000000E+00  0.00000000E+00
  0.00000000E+00  0.00000000E+00  0.00000000E+00
  0.00000000E+00  0.00000000E+00  0.00000000E+00
  0.00000000E+00  0.00000000E+00  0.00000000E+00
  0.00000000E+00  0.00000000E+00  0.00000000E+00
  0.00000000E+00  0.00000000E+00  0.00000000E+00
  0.00000000E+00  0.00000000E+00  0.00000000E+00
  0.00000000E+00  0.00000000E+00  0.00000000E+00
  0.00000000E+00  0.00000000E+00  0.00000000E+00
  0.00000000E+00  0.00000000E+00  0.00000000E+00
  0.00000000E+00  0.00000000E+00  0.00000000E+00
  0.00000000E+00  0.00000000E+00  0.00000000E+00
  0.00000000E+00  0.00000000E+00  0.00000000E+00
  0.00000000E+00  0.00000000E+00  0.00000000E+00
