POSCAR                                  
   1.12700000000000     
     0.0015817518135000    6.0813963492900003    4.4882499065700001
     1.7610570893699999    9.1230014091400005   -4.4897012278000004
   -17.6095874144000000    6.0799612870399997   -4.4926809358000002
   Tb   Al   N 
    51     3    54
Direct
  0.5005774197304618  0.2261012097755923  0.8191549369256919
  0.4668860241379136  0.3654749862706126  0.6417500965355458
  0.4329724909455521  0.5216557234732235  0.4549497382273060
  0.3967485178618517  0.6720676548186120  0.2666306720461904
  0.3486242270848763  0.8200551531916602  0.0798089655666061
  0.6732830243446699  0.5016444295594411  0.7480756531216954
  0.6564433005973314  0.6302814317725094  0.5677214415116083
  0.6200297399798274  0.7825610450329918  0.3790496797585519
  0.5840595896238767  0.9339567331848215  0.1878048394783107
  0.9120811676236045  0.6001124489265095  0.8585192943311952
  0.8736927124278324  0.7409539765993784  0.6748134527684684
  0.8447975458708612  0.8914276145708371  0.4924556398530129
  0.1055631142568814  0.8679105585565665  0.7803845303475754
  0.3186664523860117  0.9725294884984521  0.8919236018565044
  0.5473633868050101  0.0746254713905472  0.0109940576707430
  0.8005186053935489  0.0427582799426460  0.3040408653324604
  0.7623858359612896  0.1783978023630368  0.1164212620780489
  0.7239210140852421  0.3401215948223992  0.9299890393464096
  0.0755406296474348  0.0006077376966473  0.6087926182271275
  0.0276487731677904  0.1502937511298157  0.4175486062205493
  0.9801286748998166  0.3025927620900433  0.2296946537502080
  0.9425194816170333  0.4476933563882923  0.0431524632972966
  0.2485691133828212  0.2567362548668797  0.5308612657144920
  0.2091878940834988  0.4131443054403547  0.3416138558051642
  0.1644981057270840  0.5665366106552412  0.1540755479765679
  0.1318370661004806  0.7094710658250420  0.9698589082441984
  0.2932805255896440  0.3955150133676497  0.9389870883203812
  0.2549905353261508  0.5564477946006434  0.7537584465838876
  0.2272124905202375  0.6931584615697304  0.5749180478038411
  0.1862957844404178  0.8421078912889470  0.3852641512161483
  0.1431583804966792  0.9900623733694616  0.1965897291099381
  0.4765706419541118  0.6666787800185148  0.8635321321904073
  0.4115287155680249  0.9486896706377621  0.5005440448798666
  0.3672924515103446  0.1020428844361092  0.3093909945342901
  0.7023073789391461  0.7719835417907106  0.9781202924650856
  0.6605896382676804  0.9196740648982598  0.7878673448339484
  0.6261145332579474  0.0587403018039154  0.6112287775122240
  0.8851388665664288  0.0279084993728631  0.9038797877083482
  0.1048636037928645  0.1358316836608893  0.0115993535493857
  0.3163508536619446  0.2587590027837976  0.1248416500557852
  0.5915600667887873  0.2123233421863020  0.4227352884713866
  0.5518473861955755  0.3636940279848133  0.2338262302831353
  0.5150844835591641  0.5069997918907205  0.0493908761156518
  0.8535841452052821  0.1866228310720288  0.7200106059557001
  0.8139287253794976  0.3193919487106669  0.5362870569511813
  0.7772895046991053  0.4728853079643400  0.3481772808332266
  0.7377419872123525  0.6277537935773481  0.1585088722325452
  0.0747469926658013  0.2879516566626137  0.8219423582807863
  0.0477398838845744  0.4188621227522233  0.6484907427628173
  0.0012865013463284  0.5815524283520190  0.4611844871923836
  0.9613605535051803  0.7366961699366499  0.2698242387724079
  0.3133577823338882  0.0856177375954417  0.7091302912422179
  0.4678926191823933  0.7937808804744577  0.6792771804729512
  0.9553795011244119  0.8605575446697173  0.0840756089722490
  0.7797249493579415  0.0553107120331404  0.8047474154623657
  0.7435395665359010  0.1972494267319505  0.6245755452960893
  0.7111763723578264  0.3470620353122627  0.4371137334288520
  0.6732643162556400  0.4995296812382293  0.2484781253186412
  0.6311696623164380  0.6443434924574376  0.0626990809057730
  0.9343502402569044  0.3374356241018504  0.7331543335470627
  0.9370005148184859  0.4529273614867080  0.5498590866029858
  0.8980665594314203  0.6092778072656060  0.3606930816291865
  0.8695716265525348  0.7705547854919601  0.1625779673622461
  0.1894174315036352  0.4239712195403982  0.8399974550622815
  0.1525789515296339  0.5651252888648273  0.6585931598675145
  0.1229607476133268  0.7169780776159200  0.4752887742765992
  0.3817142408421716  0.7023527895828465  0.7572683056756659
  0.5990685582169917  0.7990723129619468  0.8782159208478575
  0.8367560252439645  0.8987779015264934  0.0012986339069272
  0.0812594654099854  0.8677547780164829  0.2861360336597230
  0.0323020044282245  0.9940957840653866  0.0974116036184327
  0.0072191043599474  0.1638925481279259  0.9117751056798582
  0.3544869491690292  0.8246271699607348  0.5965106509400471
  0.3061754932606888  0.9762941544444175  0.4003755211275433
  0.2537046815644430  0.1284585566075620  0.2126946070101852
  0.2156163688673729  0.2749616575316054  0.0262406662387491
  0.5378857341081087  0.9274406189362168  0.6932209749770237
  0.5279704155457594  0.0857411211016554  0.5118935802565474
  0.4875904309386954  0.2375996749545735  0.3234192616941201
  0.4393514734946606  0.3925331297812917  0.1376508558979808
  0.4090810372859295  0.5349884850492614  0.9504494221114754
  0.5723940897220174  0.2207369022320620  0.9217060639550283
  0.5270297951299838  0.3795917991102087  0.7383085590229683
  0.5001714664894266  0.5163065268763276  0.5565101623560693
  0.4650530743154562  0.6690412457168478  0.3680687601528376
  0.4258577133241062  0.8199480132960204  0.1793552513917192
  0.7489015013089713  0.4950692070030485  0.8486570198502505
  0.6999731833002087  0.6486849205242748  0.6644316393147847
  0.6889225839346196  0.7778410136193941  0.4810493934845823
  0.6489213235648208  0.9286272637142403  0.2906246363038321
  0.9755492635239946  0.5975536561923960  0.9592739887507022
  0.9481263019713211  0.7489969579955087  0.7723682333487716
  0.9143778476996758  0.8901576621101555  0.5932518502413373
  0.1676274048136150  0.8570034325355280  0.8832668882811490
  0.3877854237733231  0.9670744635742352  0.9944024826589057
  0.5778638213153968  0.0954712815106404  0.1084429644617941
  0.8715653034042035  0.0388324100996229  0.4052130163128922
  0.8290832838527962  0.1870136223157459  0.2160212564917501
  0.7900342734085086  0.3314244014803975  0.0318094051037789
  0.1324418425415033  0.0320108479256547  0.7038081121584838
  0.0975882102139138  0.1439533167377931  0.5192542830321543
  0.0545752578140224  0.2991669421373970  0.3307428904138803
  0.0093247261937890  0.4516935802535116  0.1433999196792897
  0.3505249257725254  0.1097739502693642  0.7956454172098120
  0.3200682448838066  0.2322656644075067  0.6383149597007218
  0.2787226772637510  0.4069224597092287  0.4440165256904507
  0.2379003521001479  0.5620413080792375  0.2552555764440712
  0.1915747463818036  0.7124399615141996  0.0689931964925705
 
  0.00000000E+00  0.00000000E+00  0.00000000E+00
  0.00000000E+00  0.00000000E+00  0.00000000E+00
  0.00000000E+00  0.00000000E+00  0.00000000E+00
  0.00000000E+00  0.00000000E+00  0.00000000E+00
  0.00000000E+00  0.00000000E+00  0.00000000E+00
  0.00000000E+00  0.00000000E+00  0.00000000E+00
  0.00000000E+00  0.00000000E+00  0.00000000E+00
  0.00000000E+00  0.00000000E+00  0.00000000E+00
  0.00000000E+00  0.00000000E+00  0.00000000E+00
  0.00000000E+00  0.00000000E+00  0.00000000E+00
  0.00000000E+00  0.00000000E+00  0.00000000E+00
  0.00000000E+00  0.00000000E+00  0.00000000E+00
  0.00000000E+00  0.00000000E+00  0.00000000E+00
  0.00000000E+00  0.00000000E+00  0.00000000E+00
  0.00000000E+00  0.00000000E+00  0.00000000E+00
  0.00000000E+00  0.00000000E+00  0.00000000E+00
  0.00000000E+00  0.00000000E+00  0.00000000E+00
  0.00000000E+00  0.00000000E+00  0.00000000E+00
  0.00000000E+00  0.00000000E+00  0.00000000E+00
  0.00000000E+00  0.00000000E+00  0.00000000E+00
  0.00000000E+00  0.00000000E+00  0.00000000E+00
  0.00000000E+00  0.00000000E+00  0.00000000E+00
  0.00000000E+00  0.00000000E+00  0.00000000E+00
  0.00000000E+00  0.00000000E+00  0.00000000E+00
  0.00000000E+00  0.00000000E+00  0.00000000E+00
  0.00000000E+00  0.00000000E+00  0.00000000E+00
  0.00000000E+00  0.00000000E+00  0.00000000E+00
  0.00000000E+00  0.00000000E+00  0.00000000E+00
  0.00000000E+00  0.00000000E+00  0.00000000E+00
  0.00000000E+00  0.00000000E+00  0.00000000E+00
  0.00000000E+00  0.00000000E+00  0.00000000E+00
  0.00000000E+00  0.00000000E+00  0.00000000E+00
  0.00000000E+00  0.00000000E+00  0.00000000E+00
  0.00000000E+00  0.00000000E+00  0.00000000E+00
  0.00000000E+00  0.00000000E+00  0.00000000E+00
  0.00000000E+00  0.00000000E+00  0.00000000E+00
  0.00000000E+00  0.00000000E+00  0.00000000E+00
  0.00000000E+00  0.00000000E+00  0.00000000E+00
  0.00000000E+00  0.00000000E+00  0.00000000E+00
  0.00000000E+00  0.00000000E+00  0.00000000E+00
  0.00000000E+00  0.00000000E+00  0.00000000E+00
  0.00000000E+00  0.00000000E+00  0.00000000E+00
  0.00000000E+00  0.00000000E+00  0.00000000E+00
  0.00000000E+00  0.00000000E+00  0.00000000E+00
  0.00000000E+00  0.00000000E+00  0.00000000E+00
  0.00000000E+00  0.00000000E+00  0.00000000E+00
  0.00000000E+00  0.00000000E+00  0.00000000E+00
  0.00000000E+00  0.00000000E+00  0.00000000E+00
  0.00000000E+00  0.00000000E+00  0.00000000E+00
  0.00000000E+00  0.00000000E+00  0.00000000E+00
  0.00000000E+00  0.00000000E+00  0.00000000E+00
  0.00000000E+00  0.00000000E+00  0.00000000E+00
  0.00000000E+00  0.00000000E+00  0.00000000E+00
  0.00000000E+00  0.00000000E+00  0.00000000E+00
  0.00000000E+00  0.00000000E+00  0.00000000E+00
  0.00000000E+00  0.00000000E+00  0.00000000E+00
  0.00000000E+00  0.00000000E+00  0.00000000E+00
  0.00000000E+00  0.00000000E+00  0.00000000E+00
  0.00000000E+00  0.00000000E+00  0.00000000E+00
  0.00000000E+00  0.00000000E+00  0.00000000E+00
  0.00000000E+00  0.00000000E+00  0.00000000E+00
  0.00000000E+00  0.00000000E+00  0.00000000E+00
  0.00000000E+00  0.00000000E+00  0.00000000E+00
  0.00000000E+00  0.00000000E+00  0.00000000E+00
  0.00000000E+00  0.00000000E+00  0.00000000E+00
  0.00000000E+00  0.00000000E+00  0.00000000E+00
  0.00000000E+00  0.00000000E+00  0.00000000E+00
  0.00000000E+00  0.00000000E+00  0.00000000E+00
  0.00000000E+00  0.00000000E+00  0.00000000E+00
  0.00000000E+00  0.00000000E+00  0.00000000E+00
  0.00000000E+00  0.00000000E+00  0.00000000E+00
  0.00000000E+00  0.00000000E+00  0.00000000E+00
  0.00000000E+00  0.00000000E+00  0.00000000E+00
  0.00000000E+00  0.00000000E+00  0.00000000E+00
  0.00000000E+00  0.00000000E+00  0.00000000E+00
  0.00000000E+00  0.00000000E+00  0.00000000E+00
  0.00000000E+00  0.00000000E+00  0.00000000E+00
  0.00000000E+00  0.00000000E+00  0.00000000E+00
  0.00000000E+00  0.00000000E+00  0.00000000E+00
  0.00000000E+00  0.00000000E+00  0.00000000E+00
  0.00000000E+00  0.00000000E+00  0.00000000E+00
  0.00000000E+00  0.00000000E+00  0.00000000E+00
  0.00000000E+00  0.00000000E+00  0.00000000E+00
  0.00000000E+00  0.00000000E+00  0.00000000E+00
  0.00000000E+00  0.00000000E+00  0.00000000E+00
  0.00000000E+00  0.00000000E+00  0.00000000E+00
  0.00000000E+00  0.00000000E+00  0.00000000E+00
  0.00000000E+00  0.00000000E+00  0.00000000E+00
  0.00000000E+00  0.00000000E+00  0.00000000E+00
  0.00000000E+00  0.00000000E+00  0.00000000E+00
  0.00000000E+00  0.00000000E+00  0.00000000E+00
  0.00000000E+00  0.00000000E+00  0.00000000E+00
  0.00000000E+00  0.00000000E+00  0.00000000E+00
  0.00000000E+00  0.00000000E+00  0.00000000E+00
  0.00000000E+00  0.00000000E+00  0.00000000E+00
  0.00000000E+00  0.00000000E+00  0.00000000E+00
  0.00000000E+00  0.00000000E+00  0.00000000E+00
  0.00000000E+00  0.00000000E+00  0.00000000E+00
  0.00000000E+00  0.00000000E+00  0.00000000E+00
  0.00000000E+00  0.00000000E+00  0.00000000E+00
  0.00000000E+00  0.00000000E+00  0.00000000E+00
  0.00000000E+00  0.00000000E+00  0.00000000E+00
  0.00000000E+00  0.00000000E+00  0.00000000E+00
  0.00000000E+00  0.00000000E+00  0.00000000E+00
  0.00000000E+00  0.00000000E+00  0.00000000E+00
  0.00000000E+00  0.00000000E+00  0.00000000E+00
  0.00000000E+00  0.00000000E+00  0.00000000E+00
  0.00000000E+00  0.00000000E+00  0.00000000E+00
