supercell of 100% icsd_608626.cif, 0% i 
   1.00000000000000     
    -9.5064527415318452    0.0071142008802854   -0.0044999729586138
    -4.7593825299771906    8.2309223367311048   -0.0066168151696561
    -0.0048033889875552    0.0053917787159687  -10.1343236018727740
   Al   Sr   Zr   N 
    34     1     1    36
Direct
  0.1075287392702720  0.0928538157019503  0.2981015342719999
  0.2209019419504514  0.2059054626041146  0.0471759158787535
  0.7766558440465943  0.0919689584059356  0.7945314386238564
  0.8910128591806270  0.2001648029480165  0.5523249725085080
  0.4452070702278590  0.0999905190353800  0.2961190220037366
  0.5563772207741948  0.2054210430520556  0.0465612369851272
  0.1132082914791823  0.0939431571183462  0.7941604361333461
  0.2223203178863429  0.2056299790279610  0.5462422198948786
  0.7811044035872357  0.0894348127083759  0.2982296498527575
  0.8897099001343634  0.2015881332024563  0.0329208157701402
  0.4432312048262403  0.0969003363509700  0.7962412413213400
  0.5553418420936040  0.2059673897797296  0.5461524900714707
  0.1127167531019992  0.4310159508596101  0.2981301825514322
  0.2214248737334827  0.5385021510079540  0.0465855012436407
  0.7797676678248067  0.4268768325093433  0.8022713174396614
  0.8925626262753639  0.5419684332450672  0.5517654000766896
  0.4391629437408753  0.4252987602419154  0.2963105107283752
  0.5532897627812972  0.5369177549717676  0.0274129418423854
  0.1144212945068119  0.4266203136807292  0.7944313976957957
  0.2223054586114515  0.5376435841436731  0.5446898333143650
  0.8906225823493870  0.5405099380270855  0.0333009622158826
  0.4409108096793162  0.4258816679552240  0.7944520955048873
  0.5532589316670666  0.5364146773303347  0.5591534167664918
  0.1060396338290914  0.7592392154028573  0.2969544825172221
  0.2173888022814552  0.8738026760105910  0.0402043453107694
  0.7791750777058581  0.7635567881107903  0.7945676415851253
  0.8884405756600344  0.8728704961380842  0.5446615647525874
  0.5576837554946223  0.8736641833309591  0.0402247006731216
  0.1098798165536081  0.7599265148410268  0.7960109164733424
  0.2165924533235568  0.8747659086248945  0.5512828129740939
  0.7867575132960098  0.7632257233560935  0.2980299315892054
  0.8884235433912977  0.8727098233648789  0.0467905411837606
  0.4420580190457386  0.7648670138037659  0.7923579346152181
  0.5592898921774605  0.8767403764706216  0.5524101948548434
  0.7837636838116353  0.4229308843971964  0.2875721435189718
  0.4422537084651026  0.7648628457341502  0.3008494550226288
  0.2220086420515557  0.2039176088859023  0.3539466683657437
  0.1091259655472427  0.0942793887528310  0.1051156749479034
  0.8924441470978195  0.1975464173877128  0.8456061871750435
  0.7747530546212431  0.0925117400334727  0.6073496010219941
  0.5564021852493113  0.2064247313504595  0.3545750691589831
  0.4445814585641656  0.0935752587579159  0.1056400805540605
  0.2221147644076993  0.2053483221095860  0.8572536544636833
  0.1147582094401258  0.0941145471905287  0.6076763252830020
  0.9062930167344518  0.1671812941716482  0.3710721811629512
  0.7782821513506306  0.0954850621323473  0.1053370745622999
  0.5553523010357821  0.2053494433544927  0.8571799781307448
  0.4431436249061775  0.0974558293665382  0.6066891302465578
  0.2231125589480882  0.5379715818962651  0.3540559217119110
  0.1087867684064960  0.4281751654117514  0.1056220515967397
  0.8931571970330552  0.5424705465764816  0.8459356829025637
  0.7798524891844707  0.4271826408518891  0.6052693937492677
  0.5239424171662748  0.5417374149353762  0.3755965162406554
  0.4454714694530537  0.4287440714286603  0.1041819576609839
  0.2216639224937893  0.5389049741496521  0.8572313293697960
  0.1160473966746949  0.4247293341705145  0.6070086400536070
  0.9085582166147859  0.5591969942729804  0.3698815654017125
  0.7770804172793930  0.4277981844983501  0.0532942477891609
  0.5483122347982174  0.5418717841655649  0.8403559695715188
  0.4412232208420264  0.4245727889622160  0.6081422887749852
  0.2053006103504984  0.8771250650299507  0.3614090971928050
  0.1112218300984580  0.7609047492922301  0.1057055002752989
  0.8891706975760911  0.8722260209194701  0.8575654677591658
  0.7780438977506847  0.7649005388201928  0.6086577798661139
  0.5676353679391681  0.8836011863672155  0.3626770364994698
  0.4446398991128078  0.7593736800941713  0.0895698034857517
  0.2207697015891199  0.8722658253665614  0.8520030904923530
  0.1102891851817134  0.7596192037802680  0.6061064516577943
  0.8895959651164986  0.8732879834002460  0.3550204658818288
  0.7774017984225807  0.7596544796696634  0.1048121545838256
  0.5557307081509606  0.8733977721413027  0.8520103536628909
  0.4429426940465788  0.7665174468117470  0.6012644109803631
 
  0.00000000E+00  0.00000000E+00  0.00000000E+00
  0.00000000E+00  0.00000000E+00  0.00000000E+00
  0.00000000E+00  0.00000000E+00  0.00000000E+00
  0.00000000E+00  0.00000000E+00  0.00000000E+00
  0.00000000E+00  0.00000000E+00  0.00000000E+00
  0.00000000E+00  0.00000000E+00  0.00000000E+00
  0.00000000E+00  0.00000000E+00  0.00000000E+00
  0.00000000E+00  0.00000000E+00  0.00000000E+00
  0.00000000E+00  0.00000000E+00  0.00000000E+00
  0.00000000E+00  0.00000000E+00  0.00000000E+00
  0.00000000E+00  0.00000000E+00  0.00000000E+00
  0.00000000E+00  0.00000000E+00  0.00000000E+00
  0.00000000E+00  0.00000000E+00  0.00000000E+00
  0.00000000E+00  0.00000000E+00  0.00000000E+00
  0.00000000E+00  0.00000000E+00  0.00000000E+00
  0.00000000E+00  0.00000000E+00  0.00000000E+00
  0.00000000E+00  0.00000000E+00  0.00000000E+00
  0.00000000E+00  0.00000000E+00  0.00000000E+00
  0.00000000E+00  0.00000000E+00  0.00000000E+00
  0.00000000E+00  0.00000000E+00  0.00000000E+00
  0.00000000E+00  0.00000000E+00  0.00000000E+00
  0.00000000E+00  0.00000000E+00  0.00000000E+00
  0.00000000E+00  0.00000000E+00  0.00000000E+00
  0.00000000E+00  0.00000000E+00  0.00000000E+00
  0.00000000E+00  0.00000000E+00  0.00000000E+00
  0.00000000E+00  0.00000000E+00  0.00000000E+00
  0.00000000E+00  0.00000000E+00  0.00000000E+00
  0.00000000E+00  0.00000000E+00  0.00000000E+00
  0.00000000E+00  0.00000000E+00  0.00000000E+00
  0.00000000E+00  0.00000000E+00  0.00000000E+00
  0.00000000E+00  0.00000000E+00  0.00000000E+00
  0.00000000E+00  0.00000000E+00  0.00000000E+00
  0.00000000E+00  0.00000000E+00  0.00000000E+00
  0.00000000E+00  0.00000000E+00  0.00000000E+00
  0.00000000E+00  0.00000000E+00  0.00000000E+00
  0.00000000E+00  0.00000000E+00  0.00000000E+00
  0.00000000E+00  0.00000000E+00  0.00000000E+00
  0.00000000E+00  0.00000000E+00  0.00000000E+00
  0.00000000E+00  0.00000000E+00  0.00000000E+00
  0.00000000E+00  0.00000000E+00  0.00000000E+00
  0.00000000E+00  0.00000000E+00  0.00000000E+00
  0.00000000E+00  0.00000000E+00  0.00000000E+00
  0.00000000E+00  0.00000000E+00  0.00000000E+00
  0.00000000E+00  0.00000000E+00  0.00000000E+00
  0.00000000E+00  0.00000000E+00  0.00000000E+00
  0.00000000E+00  0.00000000E+00  0.00000000E+00
  0.00000000E+00  0.00000000E+00  0.00000000E+00
  0.00000000E+00  0.00000000E+00  0.00000000E+00
  0.00000000E+00  0.00000000E+00  0.00000000E+00
  0.00000000E+00  0.00000000E+00  0.00000000E+00
  0.00000000E+00  0.00000000E+00  0.00000000E+00
  0.00000000E+00  0.00000000E+00  0.00000000E+00
  0.00000000E+00  0.00000000E+00  0.00000000E+00
  0.00000000E+00  0.00000000E+00  0.00000000E+00
  0.00000000E+00  0.00000000E+00  0.00000000E+00
  0.00000000E+00  0.00000000E+00  0.00000000E+00
  0.00000000E+00  0.00000000E+00  0.00000000E+00
  0.00000000E+00  0.00000000E+00  0.00000000E+00
  0.00000000E+00  0.00000000E+00  0.00000000E+00
  0.00000000E+00  0.00000000E+00  0.00000000E+00
  0.00000000E+00  0.00000000E+00  0.00000000E+00
  0.00000000E+00  0.00000000E+00  0.00000000E+00
  0.00000000E+00  0.00000000E+00  0.00000000E+00
  0.00000000E+00  0.00000000E+00  0.00000000E+00
  0.00000000E+00  0.00000000E+00  0.00000000E+00
  0.00000000E+00  0.00000000E+00  0.00000000E+00
  0.00000000E+00  0.00000000E+00  0.00000000E+00
  0.00000000E+00  0.00000000E+00  0.00000000E+00
  0.00000000E+00  0.00000000E+00  0.00000000E+00
  0.00000000E+00  0.00000000E+00  0.00000000E+00
  0.00000000E+00  0.00000000E+00  0.00000000E+00
  0.00000000E+00  0.00000000E+00  0.00000000E+00
