supercell of 100% icsd_608626.cif, 0% i 
   1.00000000000000     
    -9.5009342115611854   -0.0033102713618789    0.0071191841503295
    -4.7476003141577792    8.2230853134362007   -0.0000001803391477
     0.0075832862470887    0.0043784289419671  -10.1321329228592383
   Zr   Al   Sr   N 
     1    34     1    36
Direct
  0.1097667804140201  0.0951165492320882  0.2922094964741007
  0.2219999157713133  0.2050507042525567  0.0397309939904247
  0.7769975299937002  0.0933780696955466  0.7964288313222383
  0.8834250294989872  0.2082881928204685  0.5519339216548431
  0.4500958751203470  0.0938000546818003  0.2950249150872253
  0.5591660352751191  0.2056369958782369  0.0467279179760922
  0.1109519011028297  0.0945235265137256  0.7958068273350136
  0.2264579414837655  0.2040968184991527  0.5509109595300714
  0.7713355915080840  0.0948214459014665  0.2936687169585426
  0.8832052125340795  0.2083977911408397  0.0394376173933111
  0.4470133156599374  0.0936415874399188  0.7964945613597507
  0.5575645818457247  0.2027390155088966  0.5450950289167764
  0.1080850228408394  0.4288258455013505  0.3030556954662984
  0.7769968963907914  0.4296256265963052  0.7964289261534958
  0.8852612350720648  0.5403604476546988  0.5452719900165022
  0.4500001034323304  0.4249996207853783  0.3006629546970814
  0.5591658345196464  0.5351966102315018  0.0467278474981114
  0.1093463513441222  0.4279406069942269  0.7840189807580558
  0.2225703917927007  0.5387148815106499  0.5517983276364475
  0.7713352930465760  0.4338434438620027  0.2936687418025983
  0.8870679197440552  0.5338351963630217  0.0485669583405226
  0.4475508889477950  0.4262241743699917  0.7852996283908240
  0.5575639389011897  0.5396972653073391  0.5450951041156671
  0.1080851562647993  0.7630887332191776  0.3030555278883753
  0.2219996849008865  0.8729490805596569  0.0397310772830579
  0.7795157794064664  0.7602424701351822  0.7978377656448288
  0.8852613459310916  0.8743789174729315  0.5452722300116619
  0.4500958187984949  0.7561036841454793  0.2950248505819815
  0.5574210895376837  0.8712892603304923  0.0459116240138187
  0.1093468139384157  0.7627110974584284  0.7840192171456195
  0.2264572691181428  0.8694459380852919  0.5509110044981895
  0.7780699345888138  0.7609653647496444  0.2958775737190535
  0.8870677917321785  0.8790973137485665  0.0485667427875782
  0.4470130075676551  0.7593451928654531  0.7964946489076823
  0.5568144244846849  0.8715928786672649  0.5465272294360091
  0.2154862903897197  0.5422566890787550  0.0438682892720266
  0.2350075704754602  0.2079453283149988  0.3638484228685570
  0.1116931211036487  0.0941533213568562  0.0841621170796500
  0.8874818674105640  0.2062596009086164  0.8508052022876313
  0.7770057245645958  0.0936880148584365  0.6074847581709619
  0.5566938350179313  0.2021157409868337  0.3576580272808272
  0.4441261613475049  0.0946325835138566  0.1037916954599467
  0.2230740713275665  0.2074977162101987  0.8496296434162289
  0.1104228687407129  0.0947888550270122  0.6020360468332129
  0.8697025946657035  0.2151489852264206  0.3605473042901579
  0.7765573355126278  0.0963488201451526  0.1040518336526759
  0.5551351898976691  0.2069284793871802  0.8549620175707489
  0.4473581055541231  0.0923900661617196  0.6074128982433322
  0.2221950034585660  0.5389023314582815  0.3537895622490552
  0.0909312381014615  0.4013132700979014  0.1231414280433683
  0.8917467047650831  0.5374919530249400  0.8560549737304086
  0.7770050652671614  0.4293077136394956  0.6074848398234067
  0.5566935171698901  0.5411901235402468  0.3576580782127010
  0.4806985657496412  0.4096504207008351  0.1187680088550209
  0.2230338619983741  0.5384819759281854  0.8095361326203800
  0.1068149281157744  0.4260231558195784  0.5965081620263106
  0.8839245738970121  0.5410152681256619  0.3574602499671826
  0.7765570730136560  0.4270945041562513  0.1040518918062858
  0.5551345978280935  0.5379363393661549  0.8549619687489667
  0.4512151843647416  0.4243925635894428  0.5963757518806432
  0.2350073982683796  0.8570469027501346  0.3638484323501316
  0.0909309852709512  0.8077552318947170  0.1231413845146037
  0.8917469797143838  0.8707617043143330  0.8560548304071673
  0.7779044360799432  0.7610480922516487  0.6070502737346573
  0.5557885888650489  0.8721055396838935  0.3545569729747626
  0.4441260720548996  0.7612408633983279  0.1037916524910685
  0.2230738557488010  0.8694270446539036  0.8496297463680804
  0.1068150301481765  0.7671618659117243  0.5965085520848135
  0.8839249078312221  0.8750604801477238  0.3574604841716038
  0.7806527023919116  0.7596738386197188  0.1049788064827482
  0.5569048780103785  0.8715475429922037  0.8562221946672182
  0.4473574133693319  0.7602526705799448  0.6074129305715630
 
  0.00000000E+00  0.00000000E+00  0.00000000E+00
  0.00000000E+00  0.00000000E+00  0.00000000E+00
  0.00000000E+00  0.00000000E+00  0.00000000E+00
  0.00000000E+00  0.00000000E+00  0.00000000E+00
  0.00000000E+00  0.00000000E+00  0.00000000E+00
  0.00000000E+00  0.00000000E+00  0.00000000E+00
  0.00000000E+00  0.00000000E+00  0.00000000E+00
  0.00000000E+00  0.00000000E+00  0.00000000E+00
  0.00000000E+00  0.00000000E+00  0.00000000E+00
  0.00000000E+00  0.00000000E+00  0.00000000E+00
  0.00000000E+00  0.00000000E+00  0.00000000E+00
  0.00000000E+00  0.00000000E+00  0.00000000E+00
  0.00000000E+00  0.00000000E+00  0.00000000E+00
  0.00000000E+00  0.00000000E+00  0.00000000E+00
  0.00000000E+00  0.00000000E+00  0.00000000E+00
  0.00000000E+00  0.00000000E+00  0.00000000E+00
  0.00000000E+00  0.00000000E+00  0.00000000E+00
  0.00000000E+00  0.00000000E+00  0.00000000E+00
  0.00000000E+00  0.00000000E+00  0.00000000E+00
  0.00000000E+00  0.00000000E+00  0.00000000E+00
  0.00000000E+00  0.00000000E+00  0.00000000E+00
  0.00000000E+00  0.00000000E+00  0.00000000E+00
  0.00000000E+00  0.00000000E+00  0.00000000E+00
  0.00000000E+00  0.00000000E+00  0.00000000E+00
  0.00000000E+00  0.00000000E+00  0.00000000E+00
  0.00000000E+00  0.00000000E+00  0.00000000E+00
  0.00000000E+00  0.00000000E+00  0.00000000E+00
  0.00000000E+00  0.00000000E+00  0.00000000E+00
  0.00000000E+00  0.00000000E+00  0.00000000E+00
  0.00000000E+00  0.00000000E+00  0.00000000E+00
  0.00000000E+00  0.00000000E+00  0.00000000E+00
  0.00000000E+00  0.00000000E+00  0.00000000E+00
  0.00000000E+00  0.00000000E+00  0.00000000E+00
  0.00000000E+00  0.00000000E+00  0.00000000E+00
  0.00000000E+00  0.00000000E+00  0.00000000E+00
  0.00000000E+00  0.00000000E+00  0.00000000E+00
  0.00000000E+00  0.00000000E+00  0.00000000E+00
  0.00000000E+00  0.00000000E+00  0.00000000E+00
  0.00000000E+00  0.00000000E+00  0.00000000E+00
  0.00000000E+00  0.00000000E+00  0.00000000E+00
  0.00000000E+00  0.00000000E+00  0.00000000E+00
  0.00000000E+00  0.00000000E+00  0.00000000E+00
  0.00000000E+00  0.00000000E+00  0.00000000E+00
  0.00000000E+00  0.00000000E+00  0.00000000E+00
  0.00000000E+00  0.00000000E+00  0.00000000E+00
  0.00000000E+00  0.00000000E+00  0.00000000E+00
  0.00000000E+00  0.00000000E+00  0.00000000E+00
  0.00000000E+00  0.00000000E+00  0.00000000E+00
  0.00000000E+00  0.00000000E+00  0.00000000E+00
  0.00000000E+00  0.00000000E+00  0.00000000E+00
  0.00000000E+00  0.00000000E+00  0.00000000E+00
  0.00000000E+00  0.00000000E+00  0.00000000E+00
  0.00000000E+00  0.00000000E+00  0.00000000E+00
  0.00000000E+00  0.00000000E+00  0.00000000E+00
  0.00000000E+00  0.00000000E+00  0.00000000E+00
  0.00000000E+00  0.00000000E+00  0.00000000E+00
  0.00000000E+00  0.00000000E+00  0.00000000E+00
  0.00000000E+00  0.00000000E+00  0.00000000E+00
  0.00000000E+00  0.00000000E+00  0.00000000E+00
  0.00000000E+00  0.00000000E+00  0.00000000E+00
  0.00000000E+00  0.00000000E+00  0.00000000E+00
  0.00000000E+00  0.00000000E+00  0.00000000E+00
  0.00000000E+00  0.00000000E+00  0.00000000E+00
  0.00000000E+00  0.00000000E+00  0.00000000E+00
  0.00000000E+00  0.00000000E+00  0.00000000E+00
  0.00000000E+00  0.00000000E+00  0.00000000E+00
  0.00000000E+00  0.00000000E+00  0.00000000E+00
  0.00000000E+00  0.00000000E+00  0.00000000E+00
  0.00000000E+00  0.00000000E+00  0.00000000E+00
  0.00000000E+00  0.00000000E+00  0.00000000E+00
  0.00000000E+00  0.00000000E+00  0.00000000E+00
  0.00000000E+00  0.00000000E+00  0.00000000E+00
