supercell of 100% icsd_608626.cif, 0% i 
   1.00000000000000     
    -9.5060379076499970    0.0004730307248875    0.0022079697909762
    -4.7534285537925758    8.2444876862365870   -0.0043403402156539
     0.0023466789917108    0.0066993009481240  -10.1161555351166701
   Al   Zr   Sr   N 
    34     1     1    36
Direct
  0.1110418950895919  0.0945201114995484  0.2975941448895796
  0.2240125716880996  0.2020432790606037  0.0452036177586024
  0.7778259810806674  0.0932987358258970  0.7934410472537934
  0.8895552435673650  0.2033240494616990  0.5477166486622096
  0.4443834709159802  0.0947269822007186  0.2975126817720479
  0.5586221804711045  0.1965783025982972  0.0432972489871091
  0.1123127066563043  0.0943542413082170  0.7932218184218200
  0.2182379513974553  0.2036613814995718  0.5477678760142979
  0.7785001349349159  0.0937760041835816  0.2971931574992155
  0.8952472573003689  0.1994107888734007  0.0449502791874750
  0.4438966799909352  0.0944040178779630  0.7947465752334040
  0.5605354309791082  0.2026216146679403  0.5469984694675887
  0.1104732984067738  0.4258809575405280  0.2853041490790034
  0.2174204574275720  0.5389711227667959  0.0492811104548210
  0.7821641332054980  0.4258657828306127  0.7882081544173900
  0.8872074700944665  0.5357920565235474  0.5480255479810481
  0.4442492811332244  0.4223129301428301  0.2904743353834220
  0.1080248764319691  0.4229848017545947  0.8013557613599573
  0.7856516610923308  0.4234654662150845  0.3032329942793694
  0.8925288344227127  0.5394362298269897  0.0443256889953361
  0.4485121382049755  0.4222032733314336  0.7946497487467781
  0.5596668950853498  0.5355384608346867  0.5449886602403780
  0.1096042615957629  0.7641777414201840  0.2852854946378400
  0.2175445367561650  0.8807974607047271  0.0441636785114667
  0.7778413776349922  0.7612778923156682  0.7955130943045248
  0.8862778128743898  0.8785731696023547  0.5479143025986275
  0.4406912281713318  0.7680062666739005  0.3031757743988521
  0.5554146090950312  0.8786202977270321  0.0453588623896692
  0.1069032709125821  0.7686793333056841  0.8012904646921228
  0.2162631993478215  0.8788237111845518  0.5476930538614226
  0.7790296413027846  0.7607244771901875  0.2979677284947186
  0.8860559150170388  0.8741893838964430  0.0449877771054261
  0.4422595724781786  0.7655014705668748  0.7899270605091502
  0.5564902060670889  0.8731680957757320  0.5464511341063911
  0.5587293039268175  0.5415060313108455  0.0523412796699745
  0.2155954099109465  0.5419626103638748  0.5437885164951766
  0.2217947611816697  0.2069812522371350  0.3543348880863348
  0.1111314738347957  0.0952680873020739  0.1072376726378650
  0.8888705672590760  0.2057913836471243  0.8538448014828504
  0.7765827346962482  0.0947430870332369  0.6043750008147057
  0.5559285858574654  0.2047902099637469  0.3549738734948704
  0.4449094341808575  0.0944341567928788  0.1069134581893394
  0.2254000349245118  0.2001509459838928  0.8579926021699293
  0.1112530759330994  0.0943459000023452  0.6043500589724005
  0.8901502097696792  0.2030556634891667  0.3570830012123096
  0.7783523640612628  0.0949857844464717  0.1059128637526570
  0.5573771901217768  0.2012906185587724  0.8559381604596723
  0.4436159746915891  0.0950138009049795  0.6042198379014607
  0.2208372796890075  0.5399573952255636  0.3098920135956291
  0.1098849675533486  0.4233696305424886  0.0963999236662687
  0.8833842586258953  0.5412968802336025  0.8573872391547326
  0.7769485010744148  0.4274696404635918  0.5996775944288757
  0.5555415180637340  0.5383892324772361  0.3456069788433496
  0.4425582346687520  0.4141978178780121  0.1001820832850981
  0.2222518198132306  0.5388169691618785  0.8523478788671284
  0.0891275970259926  0.4056140851209946  0.6212028452706519
  0.8923722415409543  0.5388146433985384  0.3559750018477246
  0.8002080078569804  0.4157080119876184  0.1126260266801680
  0.5575708817220999  0.5414069206194441  0.8457547080955550
  0.4822940872989818  0.4082272658202797  0.6138779285555600
  0.2195328732745949  0.8723891113421374  0.3558511695665274
  0.1089101740284093  0.7673898243317794  0.0956894766973022
  0.8836778173958919  0.8743653607077562  0.8580582762150826
  0.7788351623446204  0.7604924517072860  0.6045951493652240
  0.5569663166949113  0.8731524182179413  0.3568619995339617
  0.4335772551440229  0.7838142497913410  0.1125993978473616
  0.2255776601323447  0.8741041933651843  0.8570711092876024
  0.0889313912401093  0.8042419530903331  0.6208320588084817
  0.8907101146878063  0.8712324557349618  0.3542847702115424
  0.7771197729658965  0.7604153174489880  0.1063455938640701
  0.5553528866344379  0.8719358561781405  0.8544124102825137
  0.4436918793438451  0.7611688919305095  0.5999442089951046
 
  0.00000000E+00  0.00000000E+00  0.00000000E+00
  0.00000000E+00  0.00000000E+00  0.00000000E+00
  0.00000000E+00  0.00000000E+00  0.00000000E+00
  0.00000000E+00  0.00000000E+00  0.00000000E+00
  0.00000000E+00  0.00000000E+00  0.00000000E+00
  0.00000000E+00  0.00000000E+00  0.00000000E+00
  0.00000000E+00  0.00000000E+00  0.00000000E+00
  0.00000000E+00  0.00000000E+00  0.00000000E+00
  0.00000000E+00  0.00000000E+00  0.00000000E+00
  0.00000000E+00  0.00000000E+00  0.00000000E+00
  0.00000000E+00  0.00000000E+00  0.00000000E+00
  0.00000000E+00  0.00000000E+00  0.00000000E+00
  0.00000000E+00  0.00000000E+00  0.00000000E+00
  0.00000000E+00  0.00000000E+00  0.00000000E+00
  0.00000000E+00  0.00000000E+00  0.00000000E+00
  0.00000000E+00  0.00000000E+00  0.00000000E+00
  0.00000000E+00  0.00000000E+00  0.00000000E+00
  0.00000000E+00  0.00000000E+00  0.00000000E+00
  0.00000000E+00  0.00000000E+00  0.00000000E+00
  0.00000000E+00  0.00000000E+00  0.00000000E+00
  0.00000000E+00  0.00000000E+00  0.00000000E+00
  0.00000000E+00  0.00000000E+00  0.00000000E+00
  0.00000000E+00  0.00000000E+00  0.00000000E+00
  0.00000000E+00  0.00000000E+00  0.00000000E+00
  0.00000000E+00  0.00000000E+00  0.00000000E+00
  0.00000000E+00  0.00000000E+00  0.00000000E+00
  0.00000000E+00  0.00000000E+00  0.00000000E+00
  0.00000000E+00  0.00000000E+00  0.00000000E+00
  0.00000000E+00  0.00000000E+00  0.00000000E+00
  0.00000000E+00  0.00000000E+00  0.00000000E+00
  0.00000000E+00  0.00000000E+00  0.00000000E+00
  0.00000000E+00  0.00000000E+00  0.00000000E+00
  0.00000000E+00  0.00000000E+00  0.00000000E+00
  0.00000000E+00  0.00000000E+00  0.00000000E+00
  0.00000000E+00  0.00000000E+00  0.00000000E+00
  0.00000000E+00  0.00000000E+00  0.00000000E+00
  0.00000000E+00  0.00000000E+00  0.00000000E+00
  0.00000000E+00  0.00000000E+00  0.00000000E+00
  0.00000000E+00  0.00000000E+00  0.00000000E+00
  0.00000000E+00  0.00000000E+00  0.00000000E+00
  0.00000000E+00  0.00000000E+00  0.00000000E+00
  0.00000000E+00  0.00000000E+00  0.00000000E+00
  0.00000000E+00  0.00000000E+00  0.00000000E+00
  0.00000000E+00  0.00000000E+00  0.00000000E+00
  0.00000000E+00  0.00000000E+00  0.00000000E+00
  0.00000000E+00  0.00000000E+00  0.00000000E+00
  0.00000000E+00  0.00000000E+00  0.00000000E+00
  0.00000000E+00  0.00000000E+00  0.00000000E+00
  0.00000000E+00  0.00000000E+00  0.00000000E+00
  0.00000000E+00  0.00000000E+00  0.00000000E+00
  0.00000000E+00  0.00000000E+00  0.00000000E+00
  0.00000000E+00  0.00000000E+00  0.00000000E+00
  0.00000000E+00  0.00000000E+00  0.00000000E+00
  0.00000000E+00  0.00000000E+00  0.00000000E+00
  0.00000000E+00  0.00000000E+00  0.00000000E+00
  0.00000000E+00  0.00000000E+00  0.00000000E+00
  0.00000000E+00  0.00000000E+00  0.00000000E+00
  0.00000000E+00  0.00000000E+00  0.00000000E+00
  0.00000000E+00  0.00000000E+00  0.00000000E+00
  0.00000000E+00  0.00000000E+00  0.00000000E+00
  0.00000000E+00  0.00000000E+00  0.00000000E+00
  0.00000000E+00  0.00000000E+00  0.00000000E+00
  0.00000000E+00  0.00000000E+00  0.00000000E+00
  0.00000000E+00  0.00000000E+00  0.00000000E+00
  0.00000000E+00  0.00000000E+00  0.00000000E+00
  0.00000000E+00  0.00000000E+00  0.00000000E+00
  0.00000000E+00  0.00000000E+00  0.00000000E+00
  0.00000000E+00  0.00000000E+00  0.00000000E+00
  0.00000000E+00  0.00000000E+00  0.00000000E+00
  0.00000000E+00  0.00000000E+00  0.00000000E+00
  0.00000000E+00  0.00000000E+00  0.00000000E+00
  0.00000000E+00  0.00000000E+00  0.00000000E+00
