supercell of 100% icsd_608626.cif, 0% i 
   1.00000000000000     
    -9.4955614064326213    0.0008214469589602   -0.0021175772281117
    -4.7484970089404834    8.2372074031902596   -0.0066168630883162
    -0.0022685194688824    0.0068553346691183  -10.1343238223954888
   Al   Zr   Sr   N 
    34     1     1    36
Direct
  0.1159441983816407  0.0911911731273349  0.2902043085654284
  0.2201246086295185  0.2071518984502205  0.0441604451331301
  0.7800743348622348  0.0896742711011242  0.8091536524228289
  0.4436221066080890  0.0912977932111829  0.2829206145480256
  0.5535651460499906  0.2066450758951177  0.0522710988506674
  0.1167416095025757  0.0913579915026475  0.8012827453009734
  0.2258044437195110  0.2003819585742193  0.5481015514808902
  0.7800416040880620  0.0902085571095625  0.2774128475612017
  0.8912755670741035  0.2069255524651155  0.0423580919121420
  0.4423202132849084  0.0911775380167299  0.8023251975147687
  0.1124309337356877  0.4268076716641858  0.2971758061975223
  0.2189125386377953  0.5410420091270467  0.0444314270812001
  0.7740441876012980  0.4360301020348842  0.8024101472599767
  0.8881262636376377  0.5451973349147607  0.5461191319109631
  0.4427101177239905  0.4311328048958813  0.2833010843932655
  0.5541592231817063  0.5427317600008124  0.0445676114621563
  0.1110133049722819  0.4279504596137187  0.7962422298382492
  0.2206163866653412  0.5437321665643680  0.5481300949412642
  0.7756497434615852  0.4313480536958991  0.2902246986339634
  0.8901024594636979  0.5401324683512527  0.0462411424109987
  0.4407710001361878  0.4345311422585709  0.8017650746620149
  0.5465763964262109  0.5499822487300605  0.5480297818416062
  0.1119075312490239  0.7599274813699424  0.2965855665014132
  0.2234539815244929  0.8698061679015296  0.0460109212199669
  0.7779919579279095  0.7613094427059863  0.7961524205143533
  0.8941704683121259  0.8644616756505457  0.5463106743395016
  0.4449098454335783  0.7611330013036337  0.2967905598409786
  0.5566776823005171  0.8686248358329891  0.0445314141280306
  0.1110278350565963  0.7599491643029381  0.7946899239338165
  0.2272942373735845  0.8652778412087656  0.5469544907741977
  0.7769560611995487  0.7617985939061782  0.2965613709364305
  0.8924225196671927  0.8667934004144442  0.0444521643884030
  0.4448933617580195  0.7613107865342812  0.7946615485563910
  0.5522289432946295  0.8705386812583242  0.5482296798880952
  0.8910799806273673  0.2071158640437645  0.5508492219690950
  0.5495696878203162  0.2066935253829385  0.5375722680951256
  0.2242064004703437  0.2034054707356034  0.3551157472860211
  0.1125638287711226  0.0930354210168503  0.1020031310023484
  0.8903913408358122  0.2094601403055663  0.8512645291593017
  0.8093909793902654  0.0656797618738807  0.6255967961514486
  0.5562508652262181  0.2048789115737648  0.3032943134414054
  0.4408887776232078  0.0899906999856483  0.0956058935657680
  0.2185749606647605  0.2088730715877958  0.8576764078791683
  0.1280330413346675  0.0824247275611611  0.6114090875165488
  0.8886927875915873  0.2040135957761464  0.3395695317141048
  0.7850204884804697  0.0901851130798406  0.0903559453553413
  0.5534805188862180  0.2070353623117711  0.8552692379429274
  0.4270400165864530  0.0734736228197903  0.6210724393454257
  0.2245457504141939  0.5369623345077059  0.3556219831085059
  0.1112187647481804  0.4274635843173300  0.1072535902797540
  0.8901900500869360  0.5405997647256200  0.8566890721358718
  0.7656985105904184  0.4512358180315346  0.6126770048882690
  0.5559316771541134  0.5370559255015834  0.3548120623552649
  0.4401766141831231  0.4356282000064340  0.0959357558304887
  0.2172862699060474  0.5407768860562001  0.8570086538714463
  0.1113247203630792  0.4259256928718997  0.6039467038110260
  0.8887516424140998  0.5381570471398618  0.3556402114400612
  0.7776034137847816  0.4291290431561521  0.1020103639216714
  0.5552901133956425  0.5429441606840584  0.8586576820034111
  0.4247752410242427  0.4677545792192035  0.6198810821594734
  0.2221114291092476  0.8721262317084424  0.3557055157669993
  0.1116693714568200  0.7605693219746215  0.1072314019691376
  0.8921101135082381  0.8657965741021272  0.8581424286573025
  0.7769312699928577  0.7628267797618520  0.6045750172228423
  0.5550509823792353  0.8737670256078331  0.3553370940996103
  0.4441631103173407  0.7613965072273743  0.1075655104502076
  0.2230447177265020  0.8699080384296849  0.8561064639974134
  0.1102209005347632  0.7610836241659271  0.6040560043880063
  0.8878609057380800  0.8742164979082432  0.3541821277714590
  0.7779812366061236  0.7607024616139242  0.1071801099677572
  0.5585807532105420  0.8672645872749953  0.8573496114216042
  0.4437379541053303  0.7628829222586546  0.6050204791135343
 
  0.00000000E+00  0.00000000E+00  0.00000000E+00
  0.00000000E+00  0.00000000E+00  0.00000000E+00
  0.00000000E+00  0.00000000E+00  0.00000000E+00
  0.00000000E+00  0.00000000E+00  0.00000000E+00
  0.00000000E+00  0.00000000E+00  0.00000000E+00
  0.00000000E+00  0.00000000E+00  0.00000000E+00
  0.00000000E+00  0.00000000E+00  0.00000000E+00
  0.00000000E+00  0.00000000E+00  0.00000000E+00
  0.00000000E+00  0.00000000E+00  0.00000000E+00
  0.00000000E+00  0.00000000E+00  0.00000000E+00
  0.00000000E+00  0.00000000E+00  0.00000000E+00
  0.00000000E+00  0.00000000E+00  0.00000000E+00
  0.00000000E+00  0.00000000E+00  0.00000000E+00
  0.00000000E+00  0.00000000E+00  0.00000000E+00
  0.00000000E+00  0.00000000E+00  0.00000000E+00
  0.00000000E+00  0.00000000E+00  0.00000000E+00
  0.00000000E+00  0.00000000E+00  0.00000000E+00
  0.00000000E+00  0.00000000E+00  0.00000000E+00
  0.00000000E+00  0.00000000E+00  0.00000000E+00
  0.00000000E+00  0.00000000E+00  0.00000000E+00
  0.00000000E+00  0.00000000E+00  0.00000000E+00
  0.00000000E+00  0.00000000E+00  0.00000000E+00
  0.00000000E+00  0.00000000E+00  0.00000000E+00
  0.00000000E+00  0.00000000E+00  0.00000000E+00
  0.00000000E+00  0.00000000E+00  0.00000000E+00
  0.00000000E+00  0.00000000E+00  0.00000000E+00
  0.00000000E+00  0.00000000E+00  0.00000000E+00
  0.00000000E+00  0.00000000E+00  0.00000000E+00
  0.00000000E+00  0.00000000E+00  0.00000000E+00
  0.00000000E+00  0.00000000E+00  0.00000000E+00
  0.00000000E+00  0.00000000E+00  0.00000000E+00
  0.00000000E+00  0.00000000E+00  0.00000000E+00
  0.00000000E+00  0.00000000E+00  0.00000000E+00
  0.00000000E+00  0.00000000E+00  0.00000000E+00
  0.00000000E+00  0.00000000E+00  0.00000000E+00
  0.00000000E+00  0.00000000E+00  0.00000000E+00
  0.00000000E+00  0.00000000E+00  0.00000000E+00
  0.00000000E+00  0.00000000E+00  0.00000000E+00
  0.00000000E+00  0.00000000E+00  0.00000000E+00
  0.00000000E+00  0.00000000E+00  0.00000000E+00
  0.00000000E+00  0.00000000E+00  0.00000000E+00
  0.00000000E+00  0.00000000E+00  0.00000000E+00
  0.00000000E+00  0.00000000E+00  0.00000000E+00
  0.00000000E+00  0.00000000E+00  0.00000000E+00
  0.00000000E+00  0.00000000E+00  0.00000000E+00
  0.00000000E+00  0.00000000E+00  0.00000000E+00
  0.00000000E+00  0.00000000E+00  0.00000000E+00
  0.00000000E+00  0.00000000E+00  0.00000000E+00
  0.00000000E+00  0.00000000E+00  0.00000000E+00
  0.00000000E+00  0.00000000E+00  0.00000000E+00
  0.00000000E+00  0.00000000E+00  0.00000000E+00
  0.00000000E+00  0.00000000E+00  0.00000000E+00
  0.00000000E+00  0.00000000E+00  0.00000000E+00
  0.00000000E+00  0.00000000E+00  0.00000000E+00
  0.00000000E+00  0.00000000E+00  0.00000000E+00
  0.00000000E+00  0.00000000E+00  0.00000000E+00
  0.00000000E+00  0.00000000E+00  0.00000000E+00
  0.00000000E+00  0.00000000E+00  0.00000000E+00
  0.00000000E+00  0.00000000E+00  0.00000000E+00
  0.00000000E+00  0.00000000E+00  0.00000000E+00
  0.00000000E+00  0.00000000E+00  0.00000000E+00
  0.00000000E+00  0.00000000E+00  0.00000000E+00
  0.00000000E+00  0.00000000E+00  0.00000000E+00
  0.00000000E+00  0.00000000E+00  0.00000000E+00
  0.00000000E+00  0.00000000E+00  0.00000000E+00
  0.00000000E+00  0.00000000E+00  0.00000000E+00
  0.00000000E+00  0.00000000E+00  0.00000000E+00
  0.00000000E+00  0.00000000E+00  0.00000000E+00
  0.00000000E+00  0.00000000E+00  0.00000000E+00
  0.00000000E+00  0.00000000E+00  0.00000000E+00
  0.00000000E+00  0.00000000E+00  0.00000000E+00
  0.00000000E+00  0.00000000E+00  0.00000000E+00
