supercell of icsd_181358.cif            
   1.00000000000000     
     9.8578094183477596    0.0155255608883286    0.0043690038654912
    -4.9154000507680689    8.4823170412839932   -0.0018711065241782
     0.0047610849404224    0.0003912188584982   10.5115445387433226
   N    La   Ga
    36     4    32
Direct
  0.2230145502203982  0.1112318013277402  0.4580913692431423
  0.0903717362888159  0.2410947391847245  0.1817867982235484
  0.9162628267475839  0.1082808176910532  0.9194673573494541
  0.7728898063575045  0.2180463827837755  0.7028175747984022
  0.5521261339868815  0.1101979029080553  0.4467859584079861
  0.4949560585412129  0.2478571893714587  0.1758754871338226
  0.2235992007914618  0.1128745952937038  0.9506771204186393
  0.1160122285149967  0.2249049558914180  0.6905425033037886
  0.8929646898898724  0.1141162360034755  0.4578222030378356
  0.7683183028740643  0.1972799059709089  0.2113542540326421
  0.5120174264154045  0.0873652984926139  0.9231092464185693
  0.4437578236706514  0.2254797210410260  0.6905204800582325
  0.2219978598651835  0.4440729705204447  0.4376120917614585
  0.1488786904765007  0.5753995446932194  0.1760015707607110
  0.9075975163605605  0.4709011921664157  0.9357093189229886
  0.7735821082156988  0.5537340881557711  0.6915669907484840
  0.5572774511852003  0.4452262791540846  0.4355165724665184
  0.4445422268092329  0.5573770892328582  0.1872190352798313
  0.2228044517349019  0.4429199908841710  0.9338828716524006
  0.1162129267351304  0.5572467726037615  0.6917399266940478
  0.8893737610251264  0.4432938031154521  0.4720567961159574
  0.7622281886787192  0.5877181320032392  0.1707499253198890
  0.5571601356731506  0.4499825870198606  0.9332628614366030
  0.4419220481045230  0.5518347640050081  0.6840235546816658
  0.2200085317993441  0.7755731959338377  0.4369421624582799
  0.0914518259229453  0.8509467013309973  0.1806168002225519
  0.9080806232787211  0.7685339362149932  0.9194035028082084
  0.7721013052922459  0.8822018960726794  0.6882740411525816
  0.5496461599554436  0.7746642663056491  0.4443331588428592
  0.4472980124174200  0.8936949367410492  0.1889472791010718
  0.2211654755115049  0.7765409755602093  0.9329882540323098
  0.1148279865485904  0.8901227493822716  0.6901530647540497
  0.8918079786761623  0.7734712886834885  0.4479211383554826
  0.7807703472662197  0.8942718343765321  0.2340847834701165
  0.5184544898764329  0.7612963193029927  0.9266937330096354
  0.4392400465892550  0.8852255356835386  0.6824680384575075
  0.2291951165762995  0.1158438172895089  0.2338283211425889
  0.7681639912941023  0.2112168909365266  0.9877549051669092
  0.8936671528966755  0.4599711964773121  0.2476641031715587
  0.7687977728012143  0.8666062717433434  0.0095076308666009
  0.1126548598317143  0.2286014834482373  0.9939556185243248
  0.8941130773114665  0.1070146477492528  0.7404611248156741
  0.7755452996700996  0.2201452253576761  0.5123019242083515
  0.5598000102196323  0.1095039786598875  0.2585513659927088
  0.4489261661392874  0.2273963611362433  0.9914851129230300
  0.2227538788270351  0.1118816364444655  0.7519993802188480
  0.1154289048412593  0.2246218768970323  0.5070260025417497
  0.8885509381823766  0.1140408310652248  0.2712149401647750
  0.5420992800442690  0.1029986298751950  0.7428084073697292
  0.4441514735284002  0.2241348978559685  0.5049647831850663
  0.2269141504642107  0.4523525293619244  0.2478590233739553
  0.1243236074822107  0.5637284040188888  0.9924450769246462
  0.8935227413798259  0.4510501942617609  0.7450315050976499
  0.7747022541711033  0.5530206147261296  0.5087443631613624
  0.5619130900703126  0.4570040716634978  0.2440204482715913
  0.4351164844721467  0.5510127814692396  0.9970420466973167
  0.2243814403816273  0.4443814274618703  0.7487901548184084
  0.1145821583009905  0.5558084547410473  0.5069417228332611
  0.7813786307382315  0.5614017098172468  0.9880888799548089
  0.5539756779960641  0.4462549252433945  0.7477443142613467
  0.4424733353079233  0.5526635142884828  0.4982548475229578
  0.2293403399958009  0.7778365573067276  0.2477355872349492
  0.1105455549230356  0.8773972333277129  0.9925664212748941
  0.8921616834688919  0.7771153049639423  0.7409456146723841
  0.7753151233998068  0.8853926800020204  0.4983568581557307
  0.5527820881435872  0.7788532156194563  0.2599140574052683
  0.4282956491865590  0.8807861176931269  0.9970187658645173
  0.2235352982744843  0.7784628912614480  0.7490474596625560
  0.1141313517926932  0.8888344410308520  0.5053141561534389
  0.8869905943745948  0.7791300024675678  0.2616507000778583
  0.5454574859195773  0.7724100660925259  0.7426282628682799
  0.4395924052953930  0.8861447231427775  0.4993182884896683
 
  0.00000000E+00  0.00000000E+00  0.00000000E+00
  0.00000000E+00  0.00000000E+00  0.00000000E+00
  0.00000000E+00  0.00000000E+00  0.00000000E+00
  0.00000000E+00  0.00000000E+00  0.00000000E+00
  0.00000000E+00  0.00000000E+00  0.00000000E+00
  0.00000000E+00  0.00000000E+00  0.00000000E+00
  0.00000000E+00  0.00000000E+00  0.00000000E+00
  0.00000000E+00  0.00000000E+00  0.00000000E+00
  0.00000000E+00  0.00000000E+00  0.00000000E+00
  0.00000000E+00  0.00000000E+00  0.00000000E+00
  0.00000000E+00  0.00000000E+00  0.00000000E+00
  0.00000000E+00  0.00000000E+00  0.00000000E+00
  0.00000000E+00  0.00000000E+00  0.00000000E+00
  0.00000000E+00  0.00000000E+00  0.00000000E+00
  0.00000000E+00  0.00000000E+00  0.00000000E+00
  0.00000000E+00  0.00000000E+00  0.00000000E+00
  0.00000000E+00  0.00000000E+00  0.00000000E+00
  0.00000000E+00  0.00000000E+00  0.00000000E+00
  0.00000000E+00  0.00000000E+00  0.00000000E+00
  0.00000000E+00  0.00000000E+00  0.00000000E+00
  0.00000000E+00  0.00000000E+00  0.00000000E+00
  0.00000000E+00  0.00000000E+00  0.00000000E+00
  0.00000000E+00  0.00000000E+00  0.00000000E+00
  0.00000000E+00  0.00000000E+00  0.00000000E+00
  0.00000000E+00  0.00000000E+00  0.00000000E+00
  0.00000000E+00  0.00000000E+00  0.00000000E+00
  0.00000000E+00  0.00000000E+00  0.00000000E+00
  0.00000000E+00  0.00000000E+00  0.00000000E+00
  0.00000000E+00  0.00000000E+00  0.00000000E+00
  0.00000000E+00  0.00000000E+00  0.00000000E+00
  0.00000000E+00  0.00000000E+00  0.00000000E+00
  0.00000000E+00  0.00000000E+00  0.00000000E+00
  0.00000000E+00  0.00000000E+00  0.00000000E+00
  0.00000000E+00  0.00000000E+00  0.00000000E+00
  0.00000000E+00  0.00000000E+00  0.00000000E+00
  0.00000000E+00  0.00000000E+00  0.00000000E+00
  0.00000000E+00  0.00000000E+00  0.00000000E+00
  0.00000000E+00  0.00000000E+00  0.00000000E+00
  0.00000000E+00  0.00000000E+00  0.00000000E+00
  0.00000000E+00  0.00000000E+00  0.00000000E+00
  0.00000000E+00  0.00000000E+00  0.00000000E+00
  0.00000000E+00  0.00000000E+00  0.00000000E+00
  0.00000000E+00  0.00000000E+00  0.00000000E+00
  0.00000000E+00  0.00000000E+00  0.00000000E+00
  0.00000000E+00  0.00000000E+00  0.00000000E+00
  0.00000000E+00  0.00000000E+00  0.00000000E+00
  0.00000000E+00  0.00000000E+00  0.00000000E+00
  0.00000000E+00  0.00000000E+00  0.00000000E+00
  0.00000000E+00  0.00000000E+00  0.00000000E+00
  0.00000000E+00  0.00000000E+00  0.00000000E+00
  0.00000000E+00  0.00000000E+00  0.00000000E+00
  0.00000000E+00  0.00000000E+00  0.00000000E+00
  0.00000000E+00  0.00000000E+00  0.00000000E+00
  0.00000000E+00  0.00000000E+00  0.00000000E+00
  0.00000000E+00  0.00000000E+00  0.00000000E+00
  0.00000000E+00  0.00000000E+00  0.00000000E+00
  0.00000000E+00  0.00000000E+00  0.00000000E+00
  0.00000000E+00  0.00000000E+00  0.00000000E+00
  0.00000000E+00  0.00000000E+00  0.00000000E+00
  0.00000000E+00  0.00000000E+00  0.00000000E+00
  0.00000000E+00  0.00000000E+00  0.00000000E+00
  0.00000000E+00  0.00000000E+00  0.00000000E+00
  0.00000000E+00  0.00000000E+00  0.00000000E+00
  0.00000000E+00  0.00000000E+00  0.00000000E+00
  0.00000000E+00  0.00000000E+00  0.00000000E+00
  0.00000000E+00  0.00000000E+00  0.00000000E+00
  0.00000000E+00  0.00000000E+00  0.00000000E+00
  0.00000000E+00  0.00000000E+00  0.00000000E+00
  0.00000000E+00  0.00000000E+00  0.00000000E+00
  0.00000000E+00  0.00000000E+00  0.00000000E+00
  0.00000000E+00  0.00000000E+00  0.00000000E+00
  0.00000000E+00  0.00000000E+00  0.00000000E+00
