supercell of 100% icsd_608626.cif, 0% i 
   1.00000000000000     
    -9.5831089729516918    0.0021487064811264   -0.0061799677638394
    -4.7934149733816556    8.3008976008929984   -0.0017770712629578
    -0.0065710611941579   -0.0016198561203100  -10.1691505045441257
   Al   Ca   Hf   N 
    32     2     2    36
Direct
  0.1112152237509534  0.0949741148007419  0.2955863633603570
  0.2207316272658062  0.2076356109621855  0.0536448401124687
  0.8882347379639057  0.2048759072497575  0.5373917189007642
  0.4430625790663072  0.0927885424780683  0.2917861785858022
  0.5531755196259311  0.2101592860748056  0.0568321183281100
  0.1062380954590978  0.1062513181335305  0.7982173009318032
  0.2206090662715141  0.2051594408011255  0.5397828496662456
  0.7795666081635062  0.0946966907952174  0.2952833662877055
  0.8871946926908052  0.2096171664926629  0.0518302038961451
  0.5565232648175495  0.2067958332085453  0.5335667023415525
  0.1138864346119846  0.4265212044341098  0.2992614949011454
  0.2288010481143985  0.5307827658631084  0.0525203269326155
  0.7794247604946278  0.4279731816706800  0.7883152942826612
  0.8882924696869168  0.5377530833417126  0.5492739391139310
  0.4436712332652917  0.4308697089981308  0.2943909834512084
  0.5547728489403596  0.5355262875104927  0.0487553234256168
  0.1079832877631617  0.4274173180524485  0.7859426767303006
  0.2251448081524501  0.5363780889309240  0.5402110331632599
  0.7746627354931732  0.4275861115433628  0.2984037498349963
  0.4448286511488604  0.4290019256309279  0.7957553060810412
  0.5543499543892807  0.5382238508616126  0.5452283306902501
  0.1133617175176411  0.7600716882657821  0.2927000856641939
  0.2258274622165501  0.8766666597882704  0.0526169580465492
  0.7792296807671377  0.7535893088613079  0.7859338969032805
  0.8860941462696061  0.8750438486469392  0.5334570429326959
  0.4450355081345165  0.7590895994460141  0.2965656354623860
  0.5584630671521182  0.8679732854641671  0.0544351051906276
  0.2230069720506620  0.8746267647440007  0.5422870612935711
  0.7764625025214045  0.7619600374818276  0.2993038594153958
  0.8826478006547518  0.8735917320962656  0.0563341406578388
  0.4512396562432031  0.7549132818373607  0.7967619524067047
  0.5548499499694017  0.8707851401147551  0.5399752026894404
  0.7789292991473289  0.1002893853588631  0.7981652088068216
  0.8891652377290882  0.5377805901411961  0.0399519136471582
  0.4427681297319950  0.0917899794904500  0.8035337477870783
  0.1138843611329179  0.7597528774545736  0.8050690348419494
  0.2235162848753092  0.2023763995937031  0.3542433830315161
  0.1119794607341333  0.0951501158458328  0.1085298346667116
  0.9020893249676405  0.2263351805958038  0.8673963035210903
  0.7763786472951750  0.0945876793803677  0.5755987733388537
  0.5518862416354651  0.2070677166843495  0.3449778598262938
  0.4432953157529980  0.0910613446546051  0.0996403713029608
  0.2069059787764687  0.2183415743596058  0.8608217327627017
  0.1103708694970464  0.0952354655128573  0.6057713534284233
  0.8924322640657465  0.2045348731293828  0.3512856599553018
  0.7788095929139445  0.0950002257606641  0.1027884302435282
  0.5316562763805379  0.2275673615251819  0.8714525339435113
  0.4446131949482535  0.0952014049742615  0.5959264532435995
  0.2234471956077826  0.5410263754258224  0.3543592083842313
  0.1400183458333260  0.4135331974796230  0.1176267366116548
  0.8896362255323993  0.5376555843917643  0.8147866977945526
  0.7748545827106170  0.4239501773898056  0.5983701553308904
  0.5518574076466365  0.5408770281704562  0.3586420542299464
  0.4432971921405766  0.4315697316349585  0.1080861904680432
  0.2280618777439329  0.5225300575401306  0.8582291944801170
  0.1172620050460083  0.4245166339347861  0.5971543804762689
  0.8891150887933108  0.5380222845820128  0.3560166143939298
  0.7596814776763736  0.4166544115708533  0.1173648094153705
  0.5551610366512563  0.5374124777733371  0.8539181654911232
  0.4443769259730317  0.4261140193302353  0.6046400924095963
  0.2223849919379433  0.8723672082150884  0.3534481157475042
  0.1145393447287475  0.7605297032627547  0.0984445713570423
  0.8865940282930538  0.8467410292319428  0.8694597827420623
  0.7745722949735310  0.7672549016686503  0.5962649694963176
  0.5516567178107081  0.8729234442487197  0.3545427634711729
  0.4453515874394043  0.7588180212997813  0.1072739610896818
  0.2325693338444097  0.8855921902478769  0.8608825253777965
  0.1099685424284047  0.7618643503718729  0.5975301806904199
  0.8934774538699486  0.8697093462013541  0.3476616128677037
  0.7624272960725165  0.7872223698531400  0.1197520125089184
  0.5687784762335113  0.8499103422799621  0.8617102172963627
  0.4436419807956398  0.7618341548525933  0.6063313518410496
 
  0.00000000E+00  0.00000000E+00  0.00000000E+00
  0.00000000E+00  0.00000000E+00  0.00000000E+00
  0.00000000E+00  0.00000000E+00  0.00000000E+00
  0.00000000E+00  0.00000000E+00  0.00000000E+00
  0.00000000E+00  0.00000000E+00  0.00000000E+00
  0.00000000E+00  0.00000000E+00  0.00000000E+00
  0.00000000E+00  0.00000000E+00  0.00000000E+00
  0.00000000E+00  0.00000000E+00  0.00000000E+00
  0.00000000E+00  0.00000000E+00  0.00000000E+00
  0.00000000E+00  0.00000000E+00  0.00000000E+00
  0.00000000E+00  0.00000000E+00  0.00000000E+00
  0.00000000E+00  0.00000000E+00  0.00000000E+00
  0.00000000E+00  0.00000000E+00  0.00000000E+00
  0.00000000E+00  0.00000000E+00  0.00000000E+00
  0.00000000E+00  0.00000000E+00  0.00000000E+00
  0.00000000E+00  0.00000000E+00  0.00000000E+00
  0.00000000E+00  0.00000000E+00  0.00000000E+00
  0.00000000E+00  0.00000000E+00  0.00000000E+00
  0.00000000E+00  0.00000000E+00  0.00000000E+00
  0.00000000E+00  0.00000000E+00  0.00000000E+00
  0.00000000E+00  0.00000000E+00  0.00000000E+00
  0.00000000E+00  0.00000000E+00  0.00000000E+00
  0.00000000E+00  0.00000000E+00  0.00000000E+00
  0.00000000E+00  0.00000000E+00  0.00000000E+00
  0.00000000E+00  0.00000000E+00  0.00000000E+00
  0.00000000E+00  0.00000000E+00  0.00000000E+00
  0.00000000E+00  0.00000000E+00  0.00000000E+00
  0.00000000E+00  0.00000000E+00  0.00000000E+00
  0.00000000E+00  0.00000000E+00  0.00000000E+00
  0.00000000E+00  0.00000000E+00  0.00000000E+00
  0.00000000E+00  0.00000000E+00  0.00000000E+00
  0.00000000E+00  0.00000000E+00  0.00000000E+00
  0.00000000E+00  0.00000000E+00  0.00000000E+00
  0.00000000E+00  0.00000000E+00  0.00000000E+00
  0.00000000E+00  0.00000000E+00  0.00000000E+00
  0.00000000E+00  0.00000000E+00  0.00000000E+00
  0.00000000E+00  0.00000000E+00  0.00000000E+00
  0.00000000E+00  0.00000000E+00  0.00000000E+00
  0.00000000E+00  0.00000000E+00  0.00000000E+00
  0.00000000E+00  0.00000000E+00  0.00000000E+00
  0.00000000E+00  0.00000000E+00  0.00000000E+00
  0.00000000E+00  0.00000000E+00  0.00000000E+00
  0.00000000E+00  0.00000000E+00  0.00000000E+00
  0.00000000E+00  0.00000000E+00  0.00000000E+00
  0.00000000E+00  0.00000000E+00  0.00000000E+00
  0.00000000E+00  0.00000000E+00  0.00000000E+00
  0.00000000E+00  0.00000000E+00  0.00000000E+00
  0.00000000E+00  0.00000000E+00  0.00000000E+00
  0.00000000E+00  0.00000000E+00  0.00000000E+00
  0.00000000E+00  0.00000000E+00  0.00000000E+00
  0.00000000E+00  0.00000000E+00  0.00000000E+00
  0.00000000E+00  0.00000000E+00  0.00000000E+00
  0.00000000E+00  0.00000000E+00  0.00000000E+00
  0.00000000E+00  0.00000000E+00  0.00000000E+00
  0.00000000E+00  0.00000000E+00  0.00000000E+00
  0.00000000E+00  0.00000000E+00  0.00000000E+00
  0.00000000E+00  0.00000000E+00  0.00000000E+00
  0.00000000E+00  0.00000000E+00  0.00000000E+00
  0.00000000E+00  0.00000000E+00  0.00000000E+00
  0.00000000E+00  0.00000000E+00  0.00000000E+00
  0.00000000E+00  0.00000000E+00  0.00000000E+00
  0.00000000E+00  0.00000000E+00  0.00000000E+00
  0.00000000E+00  0.00000000E+00  0.00000000E+00
  0.00000000E+00  0.00000000E+00  0.00000000E+00
  0.00000000E+00  0.00000000E+00  0.00000000E+00
  0.00000000E+00  0.00000000E+00  0.00000000E+00
  0.00000000E+00  0.00000000E+00  0.00000000E+00
  0.00000000E+00  0.00000000E+00  0.00000000E+00
  0.00000000E+00  0.00000000E+00  0.00000000E+00
  0.00000000E+00  0.00000000E+00  0.00000000E+00
  0.00000000E+00  0.00000000E+00  0.00000000E+00
  0.00000000E+00  0.00000000E+00  0.00000000E+00
