supercell of 100% icsd_608626.cif, 0% i 
   1.00000000000000     
    -9.5893809460678483    0.0065623630589174    0.0013728911529079
    -4.8003736578239256    8.3013677258239795    0.0013736288477709
     0.0014575400011411   -0.0008424205717623  -10.1536450345391938
   Al   Hf   Ca   N 
    32     2     2    36
Direct
  0.1087167831443736  0.1022825363685058  0.2961248968915271
  0.2190605697127879  0.2056201555434569  0.0477501620488923
  0.8923994304266003  0.2090673589710974  0.5451044750372205
  0.4399429567115121  0.1013159731611353  0.2974374534382704
  0.5501796228863114  0.2084967401642643  0.0420495232287763
  0.1177433914975765  0.0962544878066467  0.7944008207191047
  0.2227134258767549  0.2044707873165663  0.5441492221786248
  0.8947032073719186  0.2113702887639164  0.0419787562037399
  0.4363021588455496  0.0960645781243201  0.7950696068015759
  0.5506010922257616  0.2065318161621477  0.5459234102882746
  0.1079541053724355  0.4246203966085602  0.2994082967529366
  0.7795879249008664  0.4344100014091836  0.7944008724474259
  0.8878042565908402  0.5393803973719073  0.5441490224658310
  0.4468087580664744  0.4201747467988355  0.3007717459928259
  0.5629035900862434  0.5299540036274237  0.0432454836405967
  0.1111657847433563  0.4278315800419037  0.7904309074467974
  0.2220001335667661  0.5386675522261584  0.5443432256182987
  0.7856151650882950  0.4253843408824238  0.2961246234001322
  0.8889540335213582  0.5357262084856771  0.0477502077453380
  0.4368469846636174  0.4335567616443186  0.7878590143046722
  0.5600437325362080  0.5333121755116892  0.5507799392577724
  0.1035075893080801  0.7634751145379184  0.3007719436706395
  0.2132859963632256  0.8795711716959929  0.0432457176971539
  0.7793986254761549  0.7529678348439859  0.7950696079671076
  0.8898642758360111  0.8672689413483923  0.5459235513132938
  0.5571329005629337  0.8737991827079981  0.0424074555965106
  0.1168908499002939  0.7535125062219095  0.7878590299173922
  0.2166448590428445  0.8767110158973850  0.5507798685456606
  0.7846489490358906  0.7566093950137969  0.2974375761466206
  0.8918304374247654  0.8668448376170232  0.0420494155724427
  0.4439155567425246  0.7605826861640423  0.7954788275262104
  0.5580425168187020  0.8747090668847690  0.5512486389774267
  0.7782476724910694  0.0949129550336565  0.8143419213057328
  0.4435639913280625  0.7602313471659343  0.3014816129700861
  0.7783071619458184  0.0949733621056907  0.2838785597049949
  0.2230130644170245  0.5396793699370619  0.0536064266889582
  0.2244959833688611  0.2016034508778120  0.3564378200000462
  0.1124495742026781  0.0942535053957414  0.1049215294805279
  0.9017524441300111  0.2184189053577725  0.8534765835086944
  0.7783665893711031  0.0950343515511207  0.6002362178182636
  0.5289337176861650  0.2152630730288436  0.3655467910952623
  0.4448247487013148  0.0935223310138298  0.1048651391671385
  0.2214149443831772  0.2072432169707170  0.8562559186800911
  0.1129145549906170  0.0952098285908107  0.6076861045137392
  0.9036065981888868  0.2202738952765202  0.3624445444574604
  0.7784225808924603  0.0950876340213966  0.0489582187524462
  0.5306318020126781  0.2183212288014573  0.8526449345752312
  0.4425503608489052  0.0936613913131197  0.6081664723819813
  0.2227859563473089  0.5394525708083933  0.3498667386256429
  0.0950890640312636  0.4117549099644862  0.1158053979752580
  0.8905774969689659  0.5380806680775336  0.8562559698134677
  0.7785426759536094  0.4295822087833443  0.6076861687346451
  0.5662327697920091  0.5226760880298471  0.3619402095711521
  0.4808696116551090  0.4082728306851493  0.1175061674971758
  0.2212086146669208  0.5378740114699454  0.8300394350217886
  0.1096134663506447  0.4262800894030931  0.5990716297343681
  0.8849371165839131  0.5411625515295739  0.3564376678034620
  0.7775861224993861  0.4291166896593381  0.1049212446781027
  0.5560088540021368  0.5368440305258275  0.8517849886440487
  0.4458081627951671  0.4281026977452811  0.6014231006349320
  0.2060080900532668  0.8829001025276995  0.3619402302856400
  0.0916061256734935  0.7975359309701844  0.1175065432845841
  0.9016556021198312  0.8472969447661853  0.8526449848430531
  0.7769949238681022  0.7592171977321769  0.6081665568598140
  0.5630081962430324  0.8796752366283940  0.3594217107699151
  0.4435444609920793  0.7602123871971713  0.0943720911037857
  0.2201767397769601  0.8726756477122564  0.8517852108235218
  0.1114353268715860  0.7624756290323660  0.6014231838034689
  0.8985960234883805  0.8456003588213648  0.3655470703885726
  0.7768560327477303  0.7614902789980391  0.1048652553419700
  0.5557174656355954  0.8723834974244227  0.8528121293906850
  0.4444356475776701  0.7611029551431230  0.6003042204311200
 
  0.00000000E+00  0.00000000E+00  0.00000000E+00
  0.00000000E+00  0.00000000E+00  0.00000000E+00
  0.00000000E+00  0.00000000E+00  0.00000000E+00
  0.00000000E+00  0.00000000E+00  0.00000000E+00
  0.00000000E+00  0.00000000E+00  0.00000000E+00
  0.00000000E+00  0.00000000E+00  0.00000000E+00
  0.00000000E+00  0.00000000E+00  0.00000000E+00
  0.00000000E+00  0.00000000E+00  0.00000000E+00
  0.00000000E+00  0.00000000E+00  0.00000000E+00
  0.00000000E+00  0.00000000E+00  0.00000000E+00
  0.00000000E+00  0.00000000E+00  0.00000000E+00
  0.00000000E+00  0.00000000E+00  0.00000000E+00
  0.00000000E+00  0.00000000E+00  0.00000000E+00
  0.00000000E+00  0.00000000E+00  0.00000000E+00
  0.00000000E+00  0.00000000E+00  0.00000000E+00
  0.00000000E+00  0.00000000E+00  0.00000000E+00
  0.00000000E+00  0.00000000E+00  0.00000000E+00
  0.00000000E+00  0.00000000E+00  0.00000000E+00
  0.00000000E+00  0.00000000E+00  0.00000000E+00
  0.00000000E+00  0.00000000E+00  0.00000000E+00
  0.00000000E+00  0.00000000E+00  0.00000000E+00
  0.00000000E+00  0.00000000E+00  0.00000000E+00
  0.00000000E+00  0.00000000E+00  0.00000000E+00
  0.00000000E+00  0.00000000E+00  0.00000000E+00
  0.00000000E+00  0.00000000E+00  0.00000000E+00
  0.00000000E+00  0.00000000E+00  0.00000000E+00
  0.00000000E+00  0.00000000E+00  0.00000000E+00
  0.00000000E+00  0.00000000E+00  0.00000000E+00
  0.00000000E+00  0.00000000E+00  0.00000000E+00
  0.00000000E+00  0.00000000E+00  0.00000000E+00
  0.00000000E+00  0.00000000E+00  0.00000000E+00
  0.00000000E+00  0.00000000E+00  0.00000000E+00
  0.00000000E+00  0.00000000E+00  0.00000000E+00
  0.00000000E+00  0.00000000E+00  0.00000000E+00
  0.00000000E+00  0.00000000E+00  0.00000000E+00
  0.00000000E+00  0.00000000E+00  0.00000000E+00
  0.00000000E+00  0.00000000E+00  0.00000000E+00
  0.00000000E+00  0.00000000E+00  0.00000000E+00
  0.00000000E+00  0.00000000E+00  0.00000000E+00
  0.00000000E+00  0.00000000E+00  0.00000000E+00
  0.00000000E+00  0.00000000E+00  0.00000000E+00
  0.00000000E+00  0.00000000E+00  0.00000000E+00
  0.00000000E+00  0.00000000E+00  0.00000000E+00
  0.00000000E+00  0.00000000E+00  0.00000000E+00
  0.00000000E+00  0.00000000E+00  0.00000000E+00
  0.00000000E+00  0.00000000E+00  0.00000000E+00
  0.00000000E+00  0.00000000E+00  0.00000000E+00
  0.00000000E+00  0.00000000E+00  0.00000000E+00
  0.00000000E+00  0.00000000E+00  0.00000000E+00
  0.00000000E+00  0.00000000E+00  0.00000000E+00
  0.00000000E+00  0.00000000E+00  0.00000000E+00
  0.00000000E+00  0.00000000E+00  0.00000000E+00
  0.00000000E+00  0.00000000E+00  0.00000000E+00
  0.00000000E+00  0.00000000E+00  0.00000000E+00
  0.00000000E+00  0.00000000E+00  0.00000000E+00
  0.00000000E+00  0.00000000E+00  0.00000000E+00
  0.00000000E+00  0.00000000E+00  0.00000000E+00
  0.00000000E+00  0.00000000E+00  0.00000000E+00
  0.00000000E+00  0.00000000E+00  0.00000000E+00
  0.00000000E+00  0.00000000E+00  0.00000000E+00
  0.00000000E+00  0.00000000E+00  0.00000000E+00
  0.00000000E+00  0.00000000E+00  0.00000000E+00
  0.00000000E+00  0.00000000E+00  0.00000000E+00
  0.00000000E+00  0.00000000E+00  0.00000000E+00
  0.00000000E+00  0.00000000E+00  0.00000000E+00
  0.00000000E+00  0.00000000E+00  0.00000000E+00
  0.00000000E+00  0.00000000E+00  0.00000000E+00
  0.00000000E+00  0.00000000E+00  0.00000000E+00
  0.00000000E+00  0.00000000E+00  0.00000000E+00
  0.00000000E+00  0.00000000E+00  0.00000000E+00
  0.00000000E+00  0.00000000E+00  0.00000000E+00
  0.00000000E+00  0.00000000E+00  0.00000000E+00
