supercell of 100% icsd_608626.cif, 0% i 
   1.00000000000000     
    -9.5644619398287549   -0.0000011435973830   -0.0000001962500849
    -4.7822299802442192    8.3247975255922313   -0.0004895856051328
    -0.0000002099217277    0.0005339272320840  -10.1308722652117993
   Ca   Al   Hf   N 
     2    32     2    36
Direct
  0.1112063835940873  0.0924081847671303  0.2907973051521324
  0.7797181281302201  0.0924089857435177  0.2907967116800450
  0.2211525776019627  0.2095452320365752  0.0397484320078760
  0.7722456562225375  0.0888877268001025  0.8069547492960822
  0.4385378461248450  0.1062574645289516  0.2932540234392675
  0.5526344728075188  0.2095455594325699  0.0397482601368750
  0.1221998821084398  0.0888873162650015  0.8069541541193956
  0.2228285466422975  0.2127798599351678  0.5453947228721105
  0.8871655653009896  0.2090022423050684  0.0256279475854342
  0.4409317812341982  0.1014691700741608  0.7991711804042225
  0.5477249192026505  0.2127799837622035  0.5453948207652815
  0.1136235666252290  0.4286441119746343  0.2974977457842343
  0.2221668264910619  0.5389992110237642  0.0471029377203820
  0.7706615230194203  0.4420100336749329  0.8001400108348165
  0.8926417088608289  0.5394866713874578  0.5419960959951737
  0.4410653603213461  0.4286443237474344  0.2974978037324689
  0.5545508741628922  0.5382740094569201  0.0486006261889003
  0.1105897495025872  0.4302652840315275  0.7958852831441448
  0.2226810538153714  0.5379712403905472  0.5437106044201556
  0.7748397243775074  0.4336542958730263  0.2959901650981038
  0.8905081669716068  0.5382743106179433  0.0486005650310446
  0.4424777223606853  0.4302654036153228  0.7958852358665212
  0.5512051628610948  0.5394866751588552  0.5419959782560539
  0.1168927324969857  0.7495480863269393  0.2989006237547542
  0.2210922338812580  0.8701120182469566  0.0395622141867733
  0.7833998461078266  0.7563630081488384  0.8010593358539637
  0.8973540264967781  0.8605867827177107  0.5474230307553682
  0.4431671281972385  0.7559375337386527  0.2918555870551387
  0.5545524636214338  0.8742286270947446  0.0457848867397104
  0.1135118752462319  0.7563098311698866  0.7953623665994130
  0.2253933367198115  0.8605863994788976  0.5474230661286654
  0.7842290833698797  0.7559377918832695  0.2918557025680641
  0.8921290219135045  0.8701123598066687  0.0395621508197124
  0.4435710914901492  0.7563628755936733  0.8010594593649145
  0.8873193294103885  0.2086946985738010  0.5743806463192769
  0.5546541128461939  0.8740258240659671  0.5514858719449407
  0.2318656453508225  0.2200177646520203  0.3622465169993063
  0.1087350981797854  0.0958294520813112  0.0640034342876206
  0.8860525796771199  0.2112283178167687  0.8290870691104644
  0.7662024530182521  0.0792177928566176  0.6103771940933385
  0.5314495816120370  0.2200179702137106  0.3622466040654331
  0.4433913131437990  0.0965500210327406  0.1010283703066293
  0.2231525844838131  0.2115367197058475  0.8517029327577461
  0.1379131454546112  0.0792175655031144  0.6103769304161091
  0.8719301251476779  0.2394731430265793  0.3799622652978982
  0.7787679399202929  0.0958300172927835  0.0640026643708822
  0.5486431499667148  0.2115369433166450  0.8517028110598162
  0.4362725918309991  0.1107880777114261  0.6120597615465257
  0.2238762712910116  0.5355804916371412  0.3548933957955001
  0.1114603130992435  0.4278404492499988  0.1053373347115567
  0.8907543285327648  0.5388074865034724  0.8595388665108459
  0.7628695122346869  0.4575943815981205  0.6133842935358089
  0.5555138691590642  0.5400518925343363  0.3517910630096353
  0.4440319943592002  0.4278406218203941  0.1053373811820819
  0.2225548370964034  0.5382231711380214  0.8561363661331711
  0.1085313823966274  0.4303999508214105  0.6060973355164947
  0.8877677565088078  0.5400521444005761  0.3517911901985826
  0.7788400338452632  0.4256533380491874  0.1014707617321662
  0.5537713522528378  0.5388072725181132  0.8595388954959802
  0.4444019139358417  0.4304001653615330  0.6060972876989865
  0.2382233412320360  0.8392368283758316  0.3639654418410814
  0.1111244576908277  0.7610843218260612  0.1049440898909424
  0.8937989995594435  0.8649502448175070  0.8517807241404540
  0.7927547174174308  0.7505778930534888  0.6120116300885527
  0.5547581632444718  0.8738174727008499  0.3443916542245731
  0.4431275235113787  0.7624758045674724  0.1013670257394352
  0.2245846370557558  0.8649500453847807  0.8517807318829540
  0.1136556067205561  0.7560225580914874  0.6085347806857939
  0.9058733084265214  0.8392376333670839  0.3639653260581639
  0.7777301144987021  0.7624760023188131  0.1013671412450279
  0.5549943934860337  0.8733450303102472  0.8492087279499501
  0.4400014845221207  0.7505778808957473  0.6120116987990016
 
  0.00000000E+00  0.00000000E+00  0.00000000E+00
  0.00000000E+00  0.00000000E+00  0.00000000E+00
  0.00000000E+00  0.00000000E+00  0.00000000E+00
  0.00000000E+00  0.00000000E+00  0.00000000E+00
  0.00000000E+00  0.00000000E+00  0.00000000E+00
  0.00000000E+00  0.00000000E+00  0.00000000E+00
  0.00000000E+00  0.00000000E+00  0.00000000E+00
  0.00000000E+00  0.00000000E+00  0.00000000E+00
  0.00000000E+00  0.00000000E+00  0.00000000E+00
  0.00000000E+00  0.00000000E+00  0.00000000E+00
  0.00000000E+00  0.00000000E+00  0.00000000E+00
  0.00000000E+00  0.00000000E+00  0.00000000E+00
  0.00000000E+00  0.00000000E+00  0.00000000E+00
  0.00000000E+00  0.00000000E+00  0.00000000E+00
  0.00000000E+00  0.00000000E+00  0.00000000E+00
  0.00000000E+00  0.00000000E+00  0.00000000E+00
  0.00000000E+00  0.00000000E+00  0.00000000E+00
  0.00000000E+00  0.00000000E+00  0.00000000E+00
  0.00000000E+00  0.00000000E+00  0.00000000E+00
  0.00000000E+00  0.00000000E+00  0.00000000E+00
  0.00000000E+00  0.00000000E+00  0.00000000E+00
  0.00000000E+00  0.00000000E+00  0.00000000E+00
  0.00000000E+00  0.00000000E+00  0.00000000E+00
  0.00000000E+00  0.00000000E+00  0.00000000E+00
  0.00000000E+00  0.00000000E+00  0.00000000E+00
  0.00000000E+00  0.00000000E+00  0.00000000E+00
  0.00000000E+00  0.00000000E+00  0.00000000E+00
  0.00000000E+00  0.00000000E+00  0.00000000E+00
  0.00000000E+00  0.00000000E+00  0.00000000E+00
  0.00000000E+00  0.00000000E+00  0.00000000E+00
  0.00000000E+00  0.00000000E+00  0.00000000E+00
  0.00000000E+00  0.00000000E+00  0.00000000E+00
  0.00000000E+00  0.00000000E+00  0.00000000E+00
  0.00000000E+00  0.00000000E+00  0.00000000E+00
  0.00000000E+00  0.00000000E+00  0.00000000E+00
  0.00000000E+00  0.00000000E+00  0.00000000E+00
  0.00000000E+00  0.00000000E+00  0.00000000E+00
  0.00000000E+00  0.00000000E+00  0.00000000E+00
  0.00000000E+00  0.00000000E+00  0.00000000E+00
  0.00000000E+00  0.00000000E+00  0.00000000E+00
  0.00000000E+00  0.00000000E+00  0.00000000E+00
  0.00000000E+00  0.00000000E+00  0.00000000E+00
  0.00000000E+00  0.00000000E+00  0.00000000E+00
  0.00000000E+00  0.00000000E+00  0.00000000E+00
  0.00000000E+00  0.00000000E+00  0.00000000E+00
  0.00000000E+00  0.00000000E+00  0.00000000E+00
  0.00000000E+00  0.00000000E+00  0.00000000E+00
  0.00000000E+00  0.00000000E+00  0.00000000E+00
  0.00000000E+00  0.00000000E+00  0.00000000E+00
  0.00000000E+00  0.00000000E+00  0.00000000E+00
  0.00000000E+00  0.00000000E+00  0.00000000E+00
  0.00000000E+00  0.00000000E+00  0.00000000E+00
  0.00000000E+00  0.00000000E+00  0.00000000E+00
  0.00000000E+00  0.00000000E+00  0.00000000E+00
  0.00000000E+00  0.00000000E+00  0.00000000E+00
  0.00000000E+00  0.00000000E+00  0.00000000E+00
  0.00000000E+00  0.00000000E+00  0.00000000E+00
  0.00000000E+00  0.00000000E+00  0.00000000E+00
  0.00000000E+00  0.00000000E+00  0.00000000E+00
  0.00000000E+00  0.00000000E+00  0.00000000E+00
  0.00000000E+00  0.00000000E+00  0.00000000E+00
  0.00000000E+00  0.00000000E+00  0.00000000E+00
  0.00000000E+00  0.00000000E+00  0.00000000E+00
  0.00000000E+00  0.00000000E+00  0.00000000E+00
  0.00000000E+00  0.00000000E+00  0.00000000E+00
  0.00000000E+00  0.00000000E+00  0.00000000E+00
  0.00000000E+00  0.00000000E+00  0.00000000E+00
  0.00000000E+00  0.00000000E+00  0.00000000E+00
  0.00000000E+00  0.00000000E+00  0.00000000E+00
  0.00000000E+00  0.00000000E+00  0.00000000E+00
  0.00000000E+00  0.00000000E+00  0.00000000E+00
  0.00000000E+00  0.00000000E+00  0.00000000E+00
