supercell of 100% icsd_608626.cif, 0% i 
   1.00000000000000     
    -9.5958802616525301   -0.0191997608119162   -0.0021706698885951
    -4.7813108884394993    8.2843443025628574   -0.0005750815767695
    -0.0023142117382659   -0.0006395859137759  -10.1545789360038334
   Al   Hf   Ca   N 
    32     2     2    36
Direct
  0.1107733864983445  0.0935628657545635  0.2985230782856902
  0.2117945321116608  0.2102227557685765  0.0496103545863420
  0.7814513938592356  0.0966075136565649  0.7944471925132390
  0.8920119504218889  0.2054469400426413  0.5474336439381489
  0.4386649325077911  0.1016533586617783  0.2849488547954309
  0.5594574205115777  0.2093808716831944  0.0484754288959905
  0.1041258097697195  0.0941437911957337  0.7933855185987255
  0.2172314462717253  0.2096543367975556  0.5452662159986517
  0.7782230244922204  0.1000576886633766  0.2975706242765099
  0.8907721934526691  0.2031652650432960  0.0453815847356225
  0.5493585787212680  0.2115448106652522  0.5454476655330467
  0.1167644102496084  0.4228699941215623  0.2974172191959781
  0.2203349881893999  0.5399227728640881  0.0455847696984364
  0.7830419221809919  0.4241480486076412  0.7995019991968206
  0.9015242162372914  0.5273196743303572  0.5532579546284708
  0.4426890295112216  0.4299684129036052  0.2899523622468578
  0.5561699858178599  0.5364584797620964  0.0476149913900770
  0.1066880609862935  0.4328839933002726  0.7929232461373630
  0.2213640083247483  0.5379528637510163  0.5491559329960651
  0.7793376327899253  0.4216588450925016  0.2883836601091119
  0.8940436046681626  0.5333431106465483  0.0403114000088109
  0.4424118089076856  0.4326195896227318  0.7963574079241198
  0.1169825057190650  0.7616803241026844  0.2974624411197979
  0.2165564634710577  0.8752701983175513  0.0457062456407371
  0.7879535986483361  0.7532646698569110  0.7936547113693990
  0.8948322892665743  0.8728813411147058  0.5525478961469119
  0.4375112939555876  0.7607870412798334  0.2805662102243858
  0.5563477392427174  0.8676920176513576  0.0474593432109245
  0.1123079141720495  0.7616024838148974  0.7945095130276769
  0.2177248727600656  0.8734837259128909  0.5494052236317373
  0.8924447242955367  0.8747686833230759  0.0403055938761341
  0.4376874156097514  0.7577186159941647  0.8040291053356086
  0.4401163435783317  0.0991916423544410  0.8080433605848327
  0.7846329536518795  0.7576454212754413  0.2970579327594507
  0.5583772069348072  0.5375681588625554  0.5465547474486527
  0.5501316370727807  0.8716749903098346  0.5455541832739854
  0.2241583601138828  0.2037217408780236  0.3525906718638581
  0.1090674069705457  0.0945805504870378  0.1091194045115671
  0.8898285187189927  0.2023913616023663  0.8579039382591134
  0.7744056000093380  0.0973103696548208  0.6042057494086848
  0.5543496106800987  0.2060435639695655  0.3507249288919425
  0.4409891766906640  0.0988532213450242  0.0897187484901423
  0.1982832474602247  0.2167244729041187  0.8612164352900109
  0.1097932675540179  0.0944658971658399  0.6026812331526585
  0.8887673176219977  0.2065650177394573  0.3554142051048572
  0.7789210078427260  0.0934014921432080  0.1074042067163532
  0.5672552611038952  0.2137015681616461  0.8616663659052719
  0.4276633364483047  0.1220549503679464  0.6092685967674285
  0.2218613807006591  0.5397460842398800  0.3549856103061160
  0.1101305219964814  0.4294202246859271  0.1078346889494810
  0.8922191253690670  0.5377003837433847  0.8556623362241780
  0.8112249823352116  0.4100229488059952  0.6175390935453464
  0.5566427762256083  0.5400387388467962  0.3213418673496520
  0.4402762434483734  0.4277984127560686  0.1014228509087687
  0.2196363549784905  0.5403103416946067  0.8567194386956700
  0.1155215837354149  0.4253844608323831  0.6048084955587854
  0.8983660057400655  0.5188646074868046  0.3588409682875664
  0.7828112737301538  0.4251184042943521  0.0990467857705966
  0.5587845254313208  0.5350257449052265  0.8564824816354246
  0.4288663220713076  0.4169426594583001  0.6142035431480437
  0.2247866591525636  0.8716898467309875  0.3546174913096252
  0.1093732855575098  0.7614431505029415  0.1069631503543249
  0.8892851041793861  0.8744917132301495  0.8524323289518492
  0.8091870310000928  0.7438781427005097  0.6060539735903490
  0.5422059531716670  0.8794796949580714  0.3192114728164839
  0.4385764929262805  0.7627062210418671  0.0928157939240037
  0.2135149255822668  0.8773269773346186  0.8606021877008700
  0.1107132479258723  0.7613112856292759  0.6054094521827409
  0.8981994161087243  0.8824909437092501  0.3603006818072387
  0.7837172816863145  0.7584352465731925  0.0924277270599987
  0.5677755093513284  0.8543546187061395  0.8565789985589447
  0.4110005915213151  0.7763896436089652  0.6279764836622803
 
  0.00000000E+00  0.00000000E+00  0.00000000E+00
  0.00000000E+00  0.00000000E+00  0.00000000E+00
  0.00000000E+00  0.00000000E+00  0.00000000E+00
  0.00000000E+00  0.00000000E+00  0.00000000E+00
  0.00000000E+00  0.00000000E+00  0.00000000E+00
  0.00000000E+00  0.00000000E+00  0.00000000E+00
  0.00000000E+00  0.00000000E+00  0.00000000E+00
  0.00000000E+00  0.00000000E+00  0.00000000E+00
  0.00000000E+00  0.00000000E+00  0.00000000E+00
  0.00000000E+00  0.00000000E+00  0.00000000E+00
  0.00000000E+00  0.00000000E+00  0.00000000E+00
  0.00000000E+00  0.00000000E+00  0.00000000E+00
  0.00000000E+00  0.00000000E+00  0.00000000E+00
  0.00000000E+00  0.00000000E+00  0.00000000E+00
  0.00000000E+00  0.00000000E+00  0.00000000E+00
  0.00000000E+00  0.00000000E+00  0.00000000E+00
  0.00000000E+00  0.00000000E+00  0.00000000E+00
  0.00000000E+00  0.00000000E+00  0.00000000E+00
  0.00000000E+00  0.00000000E+00  0.00000000E+00
  0.00000000E+00  0.00000000E+00  0.00000000E+00
  0.00000000E+00  0.00000000E+00  0.00000000E+00
  0.00000000E+00  0.00000000E+00  0.00000000E+00
  0.00000000E+00  0.00000000E+00  0.00000000E+00
  0.00000000E+00  0.00000000E+00  0.00000000E+00
  0.00000000E+00  0.00000000E+00  0.00000000E+00
  0.00000000E+00  0.00000000E+00  0.00000000E+00
  0.00000000E+00  0.00000000E+00  0.00000000E+00
  0.00000000E+00  0.00000000E+00  0.00000000E+00
  0.00000000E+00  0.00000000E+00  0.00000000E+00
  0.00000000E+00  0.00000000E+00  0.00000000E+00
  0.00000000E+00  0.00000000E+00  0.00000000E+00
  0.00000000E+00  0.00000000E+00  0.00000000E+00
  0.00000000E+00  0.00000000E+00  0.00000000E+00
  0.00000000E+00  0.00000000E+00  0.00000000E+00
  0.00000000E+00  0.00000000E+00  0.00000000E+00
  0.00000000E+00  0.00000000E+00  0.00000000E+00
  0.00000000E+00  0.00000000E+00  0.00000000E+00
  0.00000000E+00  0.00000000E+00  0.00000000E+00
  0.00000000E+00  0.00000000E+00  0.00000000E+00
  0.00000000E+00  0.00000000E+00  0.00000000E+00
  0.00000000E+00  0.00000000E+00  0.00000000E+00
  0.00000000E+00  0.00000000E+00  0.00000000E+00
  0.00000000E+00  0.00000000E+00  0.00000000E+00
  0.00000000E+00  0.00000000E+00  0.00000000E+00
  0.00000000E+00  0.00000000E+00  0.00000000E+00
  0.00000000E+00  0.00000000E+00  0.00000000E+00
  0.00000000E+00  0.00000000E+00  0.00000000E+00
  0.00000000E+00  0.00000000E+00  0.00000000E+00
  0.00000000E+00  0.00000000E+00  0.00000000E+00
  0.00000000E+00  0.00000000E+00  0.00000000E+00
  0.00000000E+00  0.00000000E+00  0.00000000E+00
  0.00000000E+00  0.00000000E+00  0.00000000E+00
  0.00000000E+00  0.00000000E+00  0.00000000E+00
  0.00000000E+00  0.00000000E+00  0.00000000E+00
  0.00000000E+00  0.00000000E+00  0.00000000E+00
  0.00000000E+00  0.00000000E+00  0.00000000E+00
  0.00000000E+00  0.00000000E+00  0.00000000E+00
  0.00000000E+00  0.00000000E+00  0.00000000E+00
  0.00000000E+00  0.00000000E+00  0.00000000E+00
  0.00000000E+00  0.00000000E+00  0.00000000E+00
  0.00000000E+00  0.00000000E+00  0.00000000E+00
  0.00000000E+00  0.00000000E+00  0.00000000E+00
  0.00000000E+00  0.00000000E+00  0.00000000E+00
  0.00000000E+00  0.00000000E+00  0.00000000E+00
  0.00000000E+00  0.00000000E+00  0.00000000E+00
  0.00000000E+00  0.00000000E+00  0.00000000E+00
  0.00000000E+00  0.00000000E+00  0.00000000E+00
  0.00000000E+00  0.00000000E+00  0.00000000E+00
  0.00000000E+00  0.00000000E+00  0.00000000E+00
  0.00000000E+00  0.00000000E+00  0.00000000E+00
  0.00000000E+00  0.00000000E+00  0.00000000E+00
  0.00000000E+00  0.00000000E+00  0.00000000E+00
