generated by phonopy                    
   1.00000000000000     
    10.0351470768999995   -0.0000022330999784   -0.0000001056124209
    -5.0175765436399997    8.6906901959899994    0.0000001395531216
    -0.0000001735893656    0.0000001431815548   14.9533752540999991
   Pb   P    O 
    19    12    50
Direct
  0.0056490910648819  0.7731719664709829  0.1197741415808480
  0.9982326009637816  0.7713860580140377  0.6235873412317190
  0.0030234990227100  0.2464486933317147  0.3724951606457267
  0.0066016868402272  0.2696655434479283  0.8794357147639715
  0.2263886929548491  0.2324814255979177  0.1197756652511401
  0.2283173520612465  0.2267174381037336  0.6236212985690628
  0.7530647094728735  0.7563266132770821  0.3723772215561567
  0.7300425331821501  0.7367322915518741  0.8794527364682523
  0.7671562658497706  0.9937226171619145  0.1197280758004453
  0.7730496635579911  0.0015026614539195  0.6235526119434240
  0.2430135182713755  0.9964841916153944  0.3725428267458568
  0.2628079629413449  0.9930687475852906  0.8794800680860391
  0.6664119131015767  0.3333103213212851  0.0045136009200135
  0.6665247399919139  0.3331812247093993  0.4997327012948176
  0.3331214448602751  0.6664641061334464  0.4975633805654951
  0.3328111988185469  0.6663060007149895  0.2242552322066729
  0.3334072990162014  0.6666939950303075  0.7516448080645546
  0.6662053638586869  0.3326303576720946  0.2513211225061056
  0.6665224495211959  0.3331769641231688  0.7477912887672318
  0.6314661232387095  0.5974384120558369  0.1261442823538204
  0.6260886320251657  0.5971942390116851  0.6246126842341866
  0.3670992179551291  0.3997437227119676  0.3746491924834245
  0.3670630532458432  0.3910822273770691  0.8723272341146000
  0.4017172804581364  0.0338805053042108  0.1261847678695176
  0.4025591349082092  0.0287240429014020  0.6246659614848795
  0.5996954338698899  0.9669972523802031  0.3746396453645247
  0.6085749537950065  0.9758142205196876  0.8722812418256112
  0.9655446856211114  0.3676302096332194  0.1262273116132917
  0.9710372908285194  0.3737253401509477  0.6247059212040540
  0.0322801863957878  0.6324118764046460  0.3745159615406592
  0.0238730631546460  0.6326033809693641  0.8723338487403467
  0.5200731038138855  0.6604476385885292  0.1270636303929322
  0.5052979696467546  0.6510154218507793  0.6258284562984215
  0.4728494930933920  0.3271745144300127  0.3758960618189562
  0.4730371553563302  0.3184488739345497  0.8702139447949406
  0.3380490110201961  0.8593333190379653  0.1272913559237026
  0.3488767263581991  0.8541452283923689  0.6258606177071115
  0.6722026534428451  0.1453118182576887  0.3758579108645179
  0.6812790218287219  0.1543933446010470  0.8700845078102972
  0.1399654166915170  0.4787623026378611  0.1274355002866159
  0.1456278437900167  0.4945683746166338  0.6259057433378601
  0.8539782746665949  0.5265016202788715  0.3757488113793030
  0.8452694749267025  0.5265691548084135  0.8701565211413751
  0.7341821653065779  0.6492532528956119  0.0389919637063656
  0.7360109154193566  0.6632107957783475  0.5416436623889354
  0.2586035230077144  0.3499837985027270  0.4587705245965310
  0.2541397787359543  0.3259156206215152  0.9532702197449652
  0.3498455546299581  0.0848539416579470  0.0391459855559475
  0.3364015776180622  0.0725216952951016  0.5417255996497161
  0.6496212343263963  0.9083435484801043  0.4587200357717194
  0.6740555780934514  0.9281805311985138  0.9531300979024024
  0.9145957374454667  0.2645917874279675  0.0391712384900913
  0.9271471207862731  0.2638087651690810  0.5417267317771532
  0.0909265256522360  0.7408801971937606  0.4586451660412223
  0.0714277643846728  0.7456573031530382  0.9532199158864429
  0.2580718035605045  0.3455118168668818  0.2912037864675341
  0.2616798009060517  0.3516929525038464  0.7875206295559991
  0.7451606562738888  0.6573527927275293  0.2078485543361879
  0.7308340796308457  0.6524729992101825  0.7100767572361377
  0.6538017596573127  0.9122212495557633  0.2911401303999526
  0.6475357167686582  0.9095775816156788  0.7873955578780212
  0.3425699645039444  0.0879288973262433  0.2080865929388338
  0.3473662731615690  0.0781577465251715  0.7101689068130170
  0.0869455346637906  0.7415037203903907  0.2910896956001068
  0.0899733203618567  0.7378858367981849  0.7874877802540823
  0.9114918356253696  0.2540966899732240  0.2080490755936211
  0.9215954392629726  0.2689961061422252  0.7101693619298288
  0.5445796354447978  0.4162420037072323  0.1275200205223470
  0.5438673424642744  0.4165827295241300  0.6209149617981353
  0.4673406049721862  0.5800937185395725  0.3746701160198924
  0.4700264925683726  0.5713332706137777  0.8752684147400274
  0.5828727734380266  0.1276281038374236  0.1272099316094923
  0.5831709140887185  0.1271959306646195  0.6209013237143779
  0.4193532967773734  0.8869026107476472  0.3747550708541070
  0.4283715431584696  0.8985872480545325  0.8755163902088299
  0.8712647425798181  0.4545936301869204  0.1272884528364386
  0.8725658874321311  0.4558701610435207  0.6209974113816372
  0.1125693851647540  0.5323318715272478  0.3745101106712454
  0.1012036294814322  0.5297002140384492  0.8755038295457211
  0.9998360048585155  0.9998569688376904  0.1101492415158347
  0.9998715379247614  0.9998627597242873  0.6290432132461348
 
  0.00000000E+00  0.00000000E+00  0.00000000E+00
  0.00000000E+00  0.00000000E+00  0.00000000E+00
  0.00000000E+00  0.00000000E+00  0.00000000E+00
  0.00000000E+00  0.00000000E+00  0.00000000E+00
  0.00000000E+00  0.00000000E+00  0.00000000E+00
  0.00000000E+00  0.00000000E+00  0.00000000E+00
  0.00000000E+00  0.00000000E+00  0.00000000E+00
  0.00000000E+00  0.00000000E+00  0.00000000E+00
  0.00000000E+00  0.00000000E+00  0.00000000E+00
  0.00000000E+00  0.00000000E+00  0.00000000E+00
  0.00000000E+00  0.00000000E+00  0.00000000E+00
  0.00000000E+00  0.00000000E+00  0.00000000E+00
  0.00000000E+00  0.00000000E+00  0.00000000E+00
  0.00000000E+00  0.00000000E+00  0.00000000E+00
  0.00000000E+00  0.00000000E+00  0.00000000E+00
  0.00000000E+00  0.00000000E+00  0.00000000E+00
  0.00000000E+00  0.00000000E+00  0.00000000E+00
  0.00000000E+00  0.00000000E+00  0.00000000E+00
  0.00000000E+00  0.00000000E+00  0.00000000E+00
  0.00000000E+00  0.00000000E+00  0.00000000E+00
  0.00000000E+00  0.00000000E+00  0.00000000E+00
  0.00000000E+00  0.00000000E+00  0.00000000E+00
  0.00000000E+00  0.00000000E+00  0.00000000E+00
  0.00000000E+00  0.00000000E+00  0.00000000E+00
  0.00000000E+00  0.00000000E+00  0.00000000E+00
  0.00000000E+00  0.00000000E+00  0.00000000E+00
  0.00000000E+00  0.00000000E+00  0.00000000E+00
  0.00000000E+00  0.00000000E+00  0.00000000E+00
  0.00000000E+00  0.00000000E+00  0.00000000E+00
  0.00000000E+00  0.00000000E+00  0.00000000E+00
  0.00000000E+00  0.00000000E+00  0.00000000E+00
  0.00000000E+00  0.00000000E+00  0.00000000E+00
  0.00000000E+00  0.00000000E+00  0.00000000E+00
  0.00000000E+00  0.00000000E+00  0.00000000E+00
  0.00000000E+00  0.00000000E+00  0.00000000E+00
  0.00000000E+00  0.00000000E+00  0.00000000E+00
  0.00000000E+00  0.00000000E+00  0.00000000E+00
  0.00000000E+00  0.00000000E+00  0.00000000E+00
  0.00000000E+00  0.00000000E+00  0.00000000E+00
  0.00000000E+00  0.00000000E+00  0.00000000E+00
  0.00000000E+00  0.00000000E+00  0.00000000E+00
  0.00000000E+00  0.00000000E+00  0.00000000E+00
  0.00000000E+00  0.00000000E+00  0.00000000E+00
  0.00000000E+00  0.00000000E+00  0.00000000E+00
  0.00000000E+00  0.00000000E+00  0.00000000E+00
  0.00000000E+00  0.00000000E+00  0.00000000E+00
  0.00000000E+00  0.00000000E+00  0.00000000E+00
  0.00000000E+00  0.00000000E+00  0.00000000E+00
  0.00000000E+00  0.00000000E+00  0.00000000E+00
  0.00000000E+00  0.00000000E+00  0.00000000E+00
  0.00000000E+00  0.00000000E+00  0.00000000E+00
  0.00000000E+00  0.00000000E+00  0.00000000E+00
  0.00000000E+00  0.00000000E+00  0.00000000E+00
  0.00000000E+00  0.00000000E+00  0.00000000E+00
  0.00000000E+00  0.00000000E+00  0.00000000E+00
  0.00000000E+00  0.00000000E+00  0.00000000E+00
  0.00000000E+00  0.00000000E+00  0.00000000E+00
  0.00000000E+00  0.00000000E+00  0.00000000E+00
  0.00000000E+00  0.00000000E+00  0.00000000E+00
  0.00000000E+00  0.00000000E+00  0.00000000E+00
  0.00000000E+00  0.00000000E+00  0.00000000E+00
  0.00000000E+00  0.00000000E+00  0.00000000E+00
  0.00000000E+00  0.00000000E+00  0.00000000E+00
  0.00000000E+00  0.00000000E+00  0.00000000E+00
  0.00000000E+00  0.00000000E+00  0.00000000E+00
  0.00000000E+00  0.00000000E+00  0.00000000E+00
  0.00000000E+00  0.00000000E+00  0.00000000E+00
  0.00000000E+00  0.00000000E+00  0.00000000E+00
  0.00000000E+00  0.00000000E+00  0.00000000E+00
  0.00000000E+00  0.00000000E+00  0.00000000E+00
  0.00000000E+00  0.00000000E+00  0.00000000E+00
  0.00000000E+00  0.00000000E+00  0.00000000E+00
  0.00000000E+00  0.00000000E+00  0.00000000E+00
  0.00000000E+00  0.00000000E+00  0.00000000E+00
  0.00000000E+00  0.00000000E+00  0.00000000E+00
  0.00000000E+00  0.00000000E+00  0.00000000E+00
  0.00000000E+00  0.00000000E+00  0.00000000E+00
  0.00000000E+00  0.00000000E+00  0.00000000E+00
  0.00000000E+00  0.00000000E+00  0.00000000E+00
  0.00000000E+00  0.00000000E+00  0.00000000E+00
  0.00000000E+00  0.00000000E+00  0.00000000E+00
