supercell of 100% icsd_608626.cif, 0% i 
   1.00000000000000     
    -9.9612925815212314   -0.0217947797418971    0.0129835432185165
    -4.9614769483645125    8.5399871377200558    0.0653361453845565
     0.0142005346804937   -0.0717920842719452  -10.3063491457834235
   Al   Zr   Ca   N 
    26     5     5    36
Direct
  0.1174576685125217  0.0896981786908384  0.3049395415735745
  0.8756797640614735  0.2132598900364755  0.5255025622155216
  0.4511902126103919  0.0901266079659777  0.2991608306097433
  0.5542991669715391  0.1953105698039934  0.0494887098210910
  0.2329522704215705  0.2060593007241494  0.5418754726000756
  0.7695099098428813  0.0912033492511952  0.3078866935832281
  0.4494661911915614  0.0966949554802028  0.7907152323449935
  0.5511758734713510  0.2107815495947776  0.5365734532437330
  0.2214563410083059  0.5377495721387859  0.0458329326379072
  0.7792086730899612  0.4194934464561939  0.7892919761285597
  0.4427320505164545  0.4237317026285012  0.2988828323068731
  0.1191369265090785  0.4282863109441877  0.7871131362499497
  0.2387958896059530  0.5430544017141585  0.5512578686263794
  0.7765957820708209  0.4349387307332435  0.2959038080440166
  0.8822978206004777  0.5496257985412214  0.0384511123932043
  0.4397716471882305  0.4141620250503308  0.7959298839215592
  0.5549428074038332  0.5279396575279520  0.5378520829284383
  0.1154506596619242  0.7649288919126249  0.2858647966759946
  0.2341138044484481  0.8687187712730307  0.0600201383389489
  0.7682167751507478  0.7720738351097722  0.8112719818467724
  0.4470912595174781  0.7652707806441228  0.3053295030239909
  0.5583064005786298  0.8741226464538983  0.0544243921870233
  0.2272772256494022  0.8651525489508316  0.5285344515561690
  0.7720057128207358  0.7643922363604077  0.2862930404170356
  0.8728170355382616  0.8739900252342281  0.0627611606469358
  0.5520633584472208  0.8819851057115997  0.5421334707796461
  0.2288683768388324  0.2078724526937066  0.0471037825611376
  0.1137337648794343  0.0913199354245080  0.7783645124424012
  0.1043557228375107  0.4409656163135196  0.3154791697210086
  0.5525304532211379  0.5343455116208133  0.0616179317574890
  0.4609669546279846  0.7544529577566905  0.7858299841385090
  0.7676826417767089  0.0927819559166849  0.7811231512791323
  0.8921553489523220  0.1913203325364421  0.0656694988245263
  0.8751593826213337  0.5475793717688546  0.5730670997480161
  0.8966687569266583  0.8552995922583548  0.5393191165724218
  0.1112503349266873  0.7566534103924880  0.8200188386612339
  0.2333970951047917  0.1943562416218541  0.3517978946021003
  0.1432111743608857  0.0749748705453683  0.1203452537022613
  0.8977887564596116  0.2176268859409021  0.8457081646465667
  0.7650899797008464  0.1128464619816540  0.5504597622575886
  0.5403193984639501  0.2122732998078192  0.3527609461884680
  0.4557598411159560  0.0847068145766627  0.1145566511437011
  0.2282155341226257  0.2105620689008063  0.8382239774505891
  0.1109131452478422  0.0986214955426306  0.5705620234151141
  0.8918445539540727  0.2125845174707379  0.3366423028379941
  0.7506181899717532  0.0851889642013290  0.1215010333395767
  0.5283624574917383  0.2136787017912951  0.8660952038369913
  0.4422828461195039  0.0980994857398443  0.6013307796520095
  0.2329008304920563  0.5531362405850615  0.3582584227731829
  0.0950751643646370  0.4512860758581354  0.1060546572244405
  0.8881489966074128  0.5357035204461198  0.8445755817183525
  0.7554272050547226  0.4137340431971452  0.6064643960748697
  0.5550339359167893  0.5354078458949019  0.3443994200408866
  0.4308602156815482  0.4141684482189092  0.1139750390208150
  0.2375948179128073  0.5043048194912814  0.8655885820865450
  0.1424178625169290  0.4204586291385581  0.5962694006786862
  0.8675281146918579  0.5556166179100614  0.3485775322253701
  0.7784390881037098  0.4514418775196631  0.1117716039489380
  0.5621559631318078  0.5185280666533814  0.8535092632998627
  0.4484124573215240  0.4243708125993422  0.6053821008115250
  0.2260261459024093  0.8707171754703040  0.3446949300259234
  0.1256108167895320  0.7565870375592638  0.0975216853410856
  0.8697307243117081  0.8639973521734632  0.8830136885533904
  0.7296425476036887  0.7929264043739508  0.6361098829313150
  0.5583799558437121  0.8756106035103102  0.3542393891604547
  0.4461788924082555  0.7724668300056265  0.1151672411921822
  0.2469338618415975  0.8777830542289848  0.8758523023665745
  0.1484759342892730  0.7516587194619220  0.6006455643661042
  0.8970596963053268  0.8598016817094916  0.3164810218510681
  0.7686977947477160  0.7576656835520268  0.1028583681030355
  0.5495737481645548  0.8880971883505779  0.8703577932376021
  0.4445092933849466  0.7636694383558975  0.5773639894874876
 
  0.00000000E+00  0.00000000E+00  0.00000000E+00
  0.00000000E+00  0.00000000E+00  0.00000000E+00
  0.00000000E+00  0.00000000E+00  0.00000000E+00
  0.00000000E+00  0.00000000E+00  0.00000000E+00
  0.00000000E+00  0.00000000E+00  0.00000000E+00
  0.00000000E+00  0.00000000E+00  0.00000000E+00
  0.00000000E+00  0.00000000E+00  0.00000000E+00
  0.00000000E+00  0.00000000E+00  0.00000000E+00
  0.00000000E+00  0.00000000E+00  0.00000000E+00
  0.00000000E+00  0.00000000E+00  0.00000000E+00
  0.00000000E+00  0.00000000E+00  0.00000000E+00
  0.00000000E+00  0.00000000E+00  0.00000000E+00
  0.00000000E+00  0.00000000E+00  0.00000000E+00
  0.00000000E+00  0.00000000E+00  0.00000000E+00
  0.00000000E+00  0.00000000E+00  0.00000000E+00
  0.00000000E+00  0.00000000E+00  0.00000000E+00
  0.00000000E+00  0.00000000E+00  0.00000000E+00
  0.00000000E+00  0.00000000E+00  0.00000000E+00
  0.00000000E+00  0.00000000E+00  0.00000000E+00
  0.00000000E+00  0.00000000E+00  0.00000000E+00
  0.00000000E+00  0.00000000E+00  0.00000000E+00
  0.00000000E+00  0.00000000E+00  0.00000000E+00
  0.00000000E+00  0.00000000E+00  0.00000000E+00
  0.00000000E+00  0.00000000E+00  0.00000000E+00
  0.00000000E+00  0.00000000E+00  0.00000000E+00
  0.00000000E+00  0.00000000E+00  0.00000000E+00
  0.00000000E+00  0.00000000E+00  0.00000000E+00
  0.00000000E+00  0.00000000E+00  0.00000000E+00
  0.00000000E+00  0.00000000E+00  0.00000000E+00
  0.00000000E+00  0.00000000E+00  0.00000000E+00
  0.00000000E+00  0.00000000E+00  0.00000000E+00
  0.00000000E+00  0.00000000E+00  0.00000000E+00
  0.00000000E+00  0.00000000E+00  0.00000000E+00
  0.00000000E+00  0.00000000E+00  0.00000000E+00
  0.00000000E+00  0.00000000E+00  0.00000000E+00
  0.00000000E+00  0.00000000E+00  0.00000000E+00
  0.00000000E+00  0.00000000E+00  0.00000000E+00
  0.00000000E+00  0.00000000E+00  0.00000000E+00
  0.00000000E+00  0.00000000E+00  0.00000000E+00
  0.00000000E+00  0.00000000E+00  0.00000000E+00
  0.00000000E+00  0.00000000E+00  0.00000000E+00
  0.00000000E+00  0.00000000E+00  0.00000000E+00
  0.00000000E+00  0.00000000E+00  0.00000000E+00
  0.00000000E+00  0.00000000E+00  0.00000000E+00
  0.00000000E+00  0.00000000E+00  0.00000000E+00
  0.00000000E+00  0.00000000E+00  0.00000000E+00
  0.00000000E+00  0.00000000E+00  0.00000000E+00
  0.00000000E+00  0.00000000E+00  0.00000000E+00
  0.00000000E+00  0.00000000E+00  0.00000000E+00
  0.00000000E+00  0.00000000E+00  0.00000000E+00
  0.00000000E+00  0.00000000E+00  0.00000000E+00
  0.00000000E+00  0.00000000E+00  0.00000000E+00
  0.00000000E+00  0.00000000E+00  0.00000000E+00
  0.00000000E+00  0.00000000E+00  0.00000000E+00
  0.00000000E+00  0.00000000E+00  0.00000000E+00
  0.00000000E+00  0.00000000E+00  0.00000000E+00
  0.00000000E+00  0.00000000E+00  0.00000000E+00
  0.00000000E+00  0.00000000E+00  0.00000000E+00
  0.00000000E+00  0.00000000E+00  0.00000000E+00
  0.00000000E+00  0.00000000E+00  0.00000000E+00
  0.00000000E+00  0.00000000E+00  0.00000000E+00
  0.00000000E+00  0.00000000E+00  0.00000000E+00
  0.00000000E+00  0.00000000E+00  0.00000000E+00
  0.00000000E+00  0.00000000E+00  0.00000000E+00
  0.00000000E+00  0.00000000E+00  0.00000000E+00
  0.00000000E+00  0.00000000E+00  0.00000000E+00
  0.00000000E+00  0.00000000E+00  0.00000000E+00
  0.00000000E+00  0.00000000E+00  0.00000000E+00
  0.00000000E+00  0.00000000E+00  0.00000000E+00
  0.00000000E+00  0.00000000E+00  0.00000000E+00
  0.00000000E+00  0.00000000E+00  0.00000000E+00
  0.00000000E+00  0.00000000E+00  0.00000000E+00
