supercell of 100% icsd_608626.cif, 0% i 
   1.00000000000000     
    -9.8888485415854852   -0.0083479886028988   -0.0321183799509517
    -4.9371232759262567    8.5906045413094105    0.0232927839792528
    -0.0339109929576121   -0.0483496244199072  -10.3516502896082887
   Ca   Al   Zr   N 
     5    26     5    36
Direct
  0.1272160561849702  0.0804262755470049  0.3046080052522910
  0.5606782777841204  0.5373576110619354  0.0499632999841850
  0.2218155888092355  0.8656487434791416  0.0287765127252229
  0.7789948437444352  0.7555085898662028  0.7849539015745819
  0.5524742683914852  0.8743057843261823  0.0504675197073965
  0.2190527293558233  0.2068443748862521  0.0489364935454759
  0.8918569721449998  0.2087898298718684  0.5505991695149959
  0.4309999940729341  0.1079340359461938  0.2924474443119252
  0.5247716264441493  0.2234121791565471  0.0439528266422329
  0.1172085072609264  0.0924904066443659  0.7835009404542461
  0.2164518200365393  0.2121041521337617  0.5413306289773061
  0.9043369963059362  0.2215276455390125  0.0380921578248135
  0.4324823637159625  0.0899990697458364  0.7929796741099722
  0.1218515242940654  0.4216877547982207  0.2908830546864394
  0.2220161284437623  0.5408967915617922  0.0595479299565795
  0.7738349774126405  0.4321334821395553  0.7890045092212006
  0.8936805708404094  0.5292475595551451  0.5392832347359331
  0.4355042266542313  0.4367554336996449  0.2968509979233218
  0.2137047389721261  0.5451360129769611  0.5401637838699500
  0.7799238717579371  0.4226134545592615  0.3001659457007122
  0.8984928861695991  0.5268945263690838  0.0580574832449585
  0.4378372490718974  0.4472539186838347  0.7937137443951272
  0.5576139789470247  0.5426835037531319  0.5459783715590660
  0.1257992712877964  0.7484659733484094  0.3025113593771067
  0.8976662352821450  0.8678874392337477  0.5431579574603020
  0.4357338586641859  0.7537657789071872  0.3103799570680152
  0.1207804453751322  0.7596598510636241  0.7872805458261354
  0.2245259706898750  0.8631496348490799  0.5613133948766986
  0.9103334967863859  0.8434469923343855  0.0490948261696005
  0.4451498310456827  0.7635728855295767  0.7736865333377665
  0.5446650892161458  0.8761894002777453  0.5422714974013729
  0.7803143621459441  0.0941149411450368  0.8308221388244093
  0.7771206482262016  0.1005933028048531  0.2784254258053025
  0.5518096352181061  0.2095052440384819  0.5565063653259728
  0.1160954741401454  0.4285862255311628  0.8122328168813766
  0.7772001464747973  0.7546021913602559  0.3157757596434863
  0.2347997557797612  0.2263623330950182  0.3644509149269481
  0.1037841580141503  0.1143059554284989  0.0875521720929058
  0.8984625280411294  0.2178804360638225  0.8477089073312172
  0.7939262505979059  0.0829468008114986  0.6123790913883340
  0.5456905202701847  0.2123085774448938  0.3520258121838751
  0.4234917770466780  0.1254967240263483  0.1115995624251127
  0.2255544081728047  0.1922566012647096  0.8543970849654059
  0.1083804801936026  0.1027911491088247  0.5943634514433214
  0.8642321313082633  0.2211945165636493  0.3703388936383547
  0.7684480984362168  0.1032981825763244  0.0666742434957399
  0.5239825559345519  0.2242922301872454  0.8460179714282532
  0.4297573180890382  0.0938575054425286  0.6056207845273178
  0.2198301548043915  0.5355260110295035  0.3570113170576548
  0.1160150327601599  0.4262717769299869  0.0961770774382344
  0.8878169486233460  0.5150935693282790  0.8712778099584568
  0.7810832959989540  0.4282448688070843  0.6028594941836900
  0.5619315203026787  0.5292123475269221  0.3593665517690852
  0.4272745546361918  0.4203056383811017  0.1169872270592691
  0.2329793305138423  0.5567533558465527  0.8663644456208743
  0.1074800902321087  0.4322758284342214  0.6040041501198985
  0.9061259337681022  0.5112162159826283  0.3564867454079206
  0.8076685313213616  0.4130302826544465  0.1213438325396510
  0.5563310900790910  0.5439289833621643  0.8225212735656768
  0.4278728936529745  0.4489073244225921  0.6050374812168116
  0.2345426875071084  0.8331938640070291  0.3812066890937231
  0.1035590084502758  0.7443120398021250  0.1242493246557643
  0.9238879432086620  0.8593733837371076  0.8689065134979330
  0.7772313330922174  0.7596622889744182  0.5571764084665034
  0.5313711337361440  0.8938093598978227  0.3566518339466853
  0.4351502258147946  0.7639989280988644  0.1380489703547880
  0.2239508153941330  0.8735210824940509  0.7979106396067408
  0.1030604886873121  0.7527912874406724  0.6052719580984913
  0.9042158235149103  0.8750641400031682  0.3589919698296669
  0.8088812505631466  0.7401797673727799  0.1119622489289540
  0.5293778161709355  0.8839448547572175  0.8293905786011848
  0.4518574539151032  0.7572007919714849  0.5899503612200121
 
  0.00000000E+00  0.00000000E+00  0.00000000E+00
  0.00000000E+00  0.00000000E+00  0.00000000E+00
  0.00000000E+00  0.00000000E+00  0.00000000E+00
  0.00000000E+00  0.00000000E+00  0.00000000E+00
  0.00000000E+00  0.00000000E+00  0.00000000E+00
  0.00000000E+00  0.00000000E+00  0.00000000E+00
  0.00000000E+00  0.00000000E+00  0.00000000E+00
  0.00000000E+00  0.00000000E+00  0.00000000E+00
  0.00000000E+00  0.00000000E+00  0.00000000E+00
  0.00000000E+00  0.00000000E+00  0.00000000E+00
  0.00000000E+00  0.00000000E+00  0.00000000E+00
  0.00000000E+00  0.00000000E+00  0.00000000E+00
  0.00000000E+00  0.00000000E+00  0.00000000E+00
  0.00000000E+00  0.00000000E+00  0.00000000E+00
  0.00000000E+00  0.00000000E+00  0.00000000E+00
  0.00000000E+00  0.00000000E+00  0.00000000E+00
  0.00000000E+00  0.00000000E+00  0.00000000E+00
  0.00000000E+00  0.00000000E+00  0.00000000E+00
  0.00000000E+00  0.00000000E+00  0.00000000E+00
  0.00000000E+00  0.00000000E+00  0.00000000E+00
  0.00000000E+00  0.00000000E+00  0.00000000E+00
  0.00000000E+00  0.00000000E+00  0.00000000E+00
  0.00000000E+00  0.00000000E+00  0.00000000E+00
  0.00000000E+00  0.00000000E+00  0.00000000E+00
  0.00000000E+00  0.00000000E+00  0.00000000E+00
  0.00000000E+00  0.00000000E+00  0.00000000E+00
  0.00000000E+00  0.00000000E+00  0.00000000E+00
  0.00000000E+00  0.00000000E+00  0.00000000E+00
  0.00000000E+00  0.00000000E+00  0.00000000E+00
  0.00000000E+00  0.00000000E+00  0.00000000E+00
  0.00000000E+00  0.00000000E+00  0.00000000E+00
  0.00000000E+00  0.00000000E+00  0.00000000E+00
  0.00000000E+00  0.00000000E+00  0.00000000E+00
  0.00000000E+00  0.00000000E+00  0.00000000E+00
  0.00000000E+00  0.00000000E+00  0.00000000E+00
  0.00000000E+00  0.00000000E+00  0.00000000E+00
  0.00000000E+00  0.00000000E+00  0.00000000E+00
  0.00000000E+00  0.00000000E+00  0.00000000E+00
  0.00000000E+00  0.00000000E+00  0.00000000E+00
  0.00000000E+00  0.00000000E+00  0.00000000E+00
  0.00000000E+00  0.00000000E+00  0.00000000E+00
  0.00000000E+00  0.00000000E+00  0.00000000E+00
  0.00000000E+00  0.00000000E+00  0.00000000E+00
  0.00000000E+00  0.00000000E+00  0.00000000E+00
  0.00000000E+00  0.00000000E+00  0.00000000E+00
  0.00000000E+00  0.00000000E+00  0.00000000E+00
  0.00000000E+00  0.00000000E+00  0.00000000E+00
  0.00000000E+00  0.00000000E+00  0.00000000E+00
  0.00000000E+00  0.00000000E+00  0.00000000E+00
  0.00000000E+00  0.00000000E+00  0.00000000E+00
  0.00000000E+00  0.00000000E+00  0.00000000E+00
  0.00000000E+00  0.00000000E+00  0.00000000E+00
  0.00000000E+00  0.00000000E+00  0.00000000E+00
  0.00000000E+00  0.00000000E+00  0.00000000E+00
  0.00000000E+00  0.00000000E+00  0.00000000E+00
  0.00000000E+00  0.00000000E+00  0.00000000E+00
  0.00000000E+00  0.00000000E+00  0.00000000E+00
  0.00000000E+00  0.00000000E+00  0.00000000E+00
  0.00000000E+00  0.00000000E+00  0.00000000E+00
  0.00000000E+00  0.00000000E+00  0.00000000E+00
  0.00000000E+00  0.00000000E+00  0.00000000E+00
  0.00000000E+00  0.00000000E+00  0.00000000E+00
  0.00000000E+00  0.00000000E+00  0.00000000E+00
  0.00000000E+00  0.00000000E+00  0.00000000E+00
  0.00000000E+00  0.00000000E+00  0.00000000E+00
  0.00000000E+00  0.00000000E+00  0.00000000E+00
  0.00000000E+00  0.00000000E+00  0.00000000E+00
  0.00000000E+00  0.00000000E+00  0.00000000E+00
  0.00000000E+00  0.00000000E+00  0.00000000E+00
  0.00000000E+00  0.00000000E+00  0.00000000E+00
  0.00000000E+00  0.00000000E+00  0.00000000E+00
  0.00000000E+00  0.00000000E+00  0.00000000E+00
