supercell of 100% icsd_608626.cif, 0% i 
   1.00000000000000     
    -9.9728441382734072   -0.0455815143875373    0.0206995162222985
    -4.9469321116420701    8.5836002516852403   -0.0034972926334558
     0.0232151635375739    0.0169188580627401  -10.2026164640343762
   Al   Zr   Ca   N 
    26     5     5    36
Direct
  0.1229662471852322  0.0930840475767312  0.2918968385720149
  0.2224294074314415  0.1897436711352469  0.0404179056953708
  0.7846937216781527  0.0892990688846851  0.7861617134475480
  0.8973779827914115  0.2032985245064012  0.5586679046297931
  0.4304922352529132  0.0865379588621380  0.3076800212366919
  0.1115525914639832  0.0973923732991153  0.7988663465951404
  0.2160607431938288  0.2085663459157061  0.5513921527322054
  0.8950842023210726  0.2022759696846776  0.0376382087982421
  0.4397943279718532  0.0840190036461266  0.7878842965020354
  0.5518206703848278  0.1997938211053167  0.5506508662695708
  0.1178644242074682  0.4138796730172061  0.2843828626855398
  0.7815951851490510  0.4267155359449646  0.7857725201958985
  0.4459967935037525  0.4267980734414110  0.2956087965872882
  0.5658802718758409  0.5403516455311461  0.0417308577101068
  0.1120601325589092  0.4213484334947708  0.7943282601428194
  0.5597036490226941  0.5368470207067801  0.5504319830952440
  0.2225565515045531  0.8768472640399381  0.0450770740636059
  0.7672938389504509  0.7747116979790221  0.7989793024513787
  0.8731922910512253  0.8807000971325820  0.5621471165780605
  0.4443349112633896  0.7622127325702905  0.2940233430231913
  0.5444059110090578  0.8738028667357085  0.0464447006336570
  0.0989958782785294  0.7705313316860085  0.7941910687804565
  0.7663251344121420  0.7739058599022783  0.2916849046192596
  0.8896025785195576  0.8807635442667845  0.0378380758703543
  0.4532280285778114  0.7621105708595053  0.7973418881407284
  0.5579654494916895  0.8700858461405971  0.5491006875747999
  0.5635685678768070  0.1811775328611063  0.0555978155055072
  0.7799795227749797  0.0929909538411238  0.3200603349136131
  0.2219111729865944  0.5422201576950556  0.0707335537203164
  0.8810865168773461  0.5453940409389304  0.0629559705399458
  0.4473673659247979  0.4263301365982599  0.8033771156135856
  0.8914073035651526  0.5547957851397243  0.5509307906984731
  0.2279759110311517  0.5361748039458121  0.5329773015126236
  0.7758299173415750  0.4270586378594743  0.3207347111274430
  0.1074088304548368  0.7730093589297837  0.3142568636807042
  0.2290105617529719  0.8787919067168346  0.5558809939306641
  0.2174102984529043  0.2095357223270184  0.3565604894812182
  0.1069746242515279  0.0962791759138710  0.0961324497255660
  0.8861920010742068  0.2039808289039087  0.8496099270116062
  0.7711895071581054  0.1015922153917970  0.5959792919974092
  0.5338164182196579  0.2113437567259453  0.3512904869412523
  0.4268534833198956  0.0816722054725005  0.1156082990149230
  0.2299843274833719  0.1989346815316466  0.8567066540404937
  0.0976897185261549  0.1252371330677846  0.6204742011173181
  0.9273314756844755  0.1723547920957103  0.3724506052725829
  0.7978939013943958  0.0882110505386748  0.1060261609571853
  0.5661489320932134  0.1796835822559260  0.8484019550186730
  0.4391304226377173  0.0916792828524748  0.5989716622475854
  0.2364208053084624  0.5102485272769073  0.2929366979666526
  0.1192847175962086  0.3983636647022806  0.0928568547114494
  0.8864713596909937  0.5432788297153053  0.8425284461716132
  0.7693356317337674  0.4146939084357015  0.5985364695720747
  0.5159349048176622  0.5555472722236061  0.3641207846245962
  0.4699576989814531  0.4212161964965091  0.0916780045288590
  0.2075996869384014  0.5475914419273664  0.8522243562176541
  0.1328266622032857  0.4034692152348569  0.6174987487213457
  0.9047925782801300  0.5584536417116084  0.2996463603599224
  0.7746483568276759  0.4144404061635996  0.0899353991840925
  0.5679112424732651  0.5455675123743688  0.8557618425134592
  0.4747487282145215  0.4078385451388442  0.6061560814041158
  0.2446380037014038  0.8908252150142033  0.3305617475016049
  0.0991816388745406  0.7822178509850701  0.0845214975569277
  0.8828435001030641  0.8802948184770116  0.8538976891544223
  0.7505137906428985  0.8037491594740303  0.6210886721592388
  0.5580346158146270  0.8657577683346744  0.3555352645558472
  0.4523537201119652  0.7520561979881890  0.0995890818538356
  0.2272951621717780  0.8715131537971246  0.8498895603558410
  0.0772544227297445  0.7775252682961380  0.6122513451385885
  0.8581934630793597  0.8724748664918565  0.3755461641179139
  0.7564105254533047  0.8013604300500958  0.1002398541315728
  0.5503478652646194  0.8770101740168030  0.8606025967743918
  0.4835669790541814  0.7404352160053591  0.6163391500242241
 
  0.00000000E+00  0.00000000E+00  0.00000000E+00
  0.00000000E+00  0.00000000E+00  0.00000000E+00
  0.00000000E+00  0.00000000E+00  0.00000000E+00
  0.00000000E+00  0.00000000E+00  0.00000000E+00
  0.00000000E+00  0.00000000E+00  0.00000000E+00
  0.00000000E+00  0.00000000E+00  0.00000000E+00
  0.00000000E+00  0.00000000E+00  0.00000000E+00
  0.00000000E+00  0.00000000E+00  0.00000000E+00
  0.00000000E+00  0.00000000E+00  0.00000000E+00
  0.00000000E+00  0.00000000E+00  0.00000000E+00
  0.00000000E+00  0.00000000E+00  0.00000000E+00
  0.00000000E+00  0.00000000E+00  0.00000000E+00
  0.00000000E+00  0.00000000E+00  0.00000000E+00
  0.00000000E+00  0.00000000E+00  0.00000000E+00
  0.00000000E+00  0.00000000E+00  0.00000000E+00
  0.00000000E+00  0.00000000E+00  0.00000000E+00
  0.00000000E+00  0.00000000E+00  0.00000000E+00
  0.00000000E+00  0.00000000E+00  0.00000000E+00
  0.00000000E+00  0.00000000E+00  0.00000000E+00
  0.00000000E+00  0.00000000E+00  0.00000000E+00
  0.00000000E+00  0.00000000E+00  0.00000000E+00
  0.00000000E+00  0.00000000E+00  0.00000000E+00
  0.00000000E+00  0.00000000E+00  0.00000000E+00
  0.00000000E+00  0.00000000E+00  0.00000000E+00
  0.00000000E+00  0.00000000E+00  0.00000000E+00
  0.00000000E+00  0.00000000E+00  0.00000000E+00
  0.00000000E+00  0.00000000E+00  0.00000000E+00
  0.00000000E+00  0.00000000E+00  0.00000000E+00
  0.00000000E+00  0.00000000E+00  0.00000000E+00
  0.00000000E+00  0.00000000E+00  0.00000000E+00
  0.00000000E+00  0.00000000E+00  0.00000000E+00
  0.00000000E+00  0.00000000E+00  0.00000000E+00
  0.00000000E+00  0.00000000E+00  0.00000000E+00
  0.00000000E+00  0.00000000E+00  0.00000000E+00
  0.00000000E+00  0.00000000E+00  0.00000000E+00
  0.00000000E+00  0.00000000E+00  0.00000000E+00
  0.00000000E+00  0.00000000E+00  0.00000000E+00
  0.00000000E+00  0.00000000E+00  0.00000000E+00
  0.00000000E+00  0.00000000E+00  0.00000000E+00
  0.00000000E+00  0.00000000E+00  0.00000000E+00
  0.00000000E+00  0.00000000E+00  0.00000000E+00
  0.00000000E+00  0.00000000E+00  0.00000000E+00
  0.00000000E+00  0.00000000E+00  0.00000000E+00
  0.00000000E+00  0.00000000E+00  0.00000000E+00
  0.00000000E+00  0.00000000E+00  0.00000000E+00
  0.00000000E+00  0.00000000E+00  0.00000000E+00
  0.00000000E+00  0.00000000E+00  0.00000000E+00
  0.00000000E+00  0.00000000E+00  0.00000000E+00
  0.00000000E+00  0.00000000E+00  0.00000000E+00
  0.00000000E+00  0.00000000E+00  0.00000000E+00
  0.00000000E+00  0.00000000E+00  0.00000000E+00
  0.00000000E+00  0.00000000E+00  0.00000000E+00
  0.00000000E+00  0.00000000E+00  0.00000000E+00
  0.00000000E+00  0.00000000E+00  0.00000000E+00
  0.00000000E+00  0.00000000E+00  0.00000000E+00
  0.00000000E+00  0.00000000E+00  0.00000000E+00
  0.00000000E+00  0.00000000E+00  0.00000000E+00
  0.00000000E+00  0.00000000E+00  0.00000000E+00
  0.00000000E+00  0.00000000E+00  0.00000000E+00
  0.00000000E+00  0.00000000E+00  0.00000000E+00
  0.00000000E+00  0.00000000E+00  0.00000000E+00
  0.00000000E+00  0.00000000E+00  0.00000000E+00
  0.00000000E+00  0.00000000E+00  0.00000000E+00
  0.00000000E+00  0.00000000E+00  0.00000000E+00
  0.00000000E+00  0.00000000E+00  0.00000000E+00
  0.00000000E+00  0.00000000E+00  0.00000000E+00
  0.00000000E+00  0.00000000E+00  0.00000000E+00
  0.00000000E+00  0.00000000E+00  0.00000000E+00
  0.00000000E+00  0.00000000E+00  0.00000000E+00
  0.00000000E+00  0.00000000E+00  0.00000000E+00
  0.00000000E+00  0.00000000E+00  0.00000000E+00
  0.00000000E+00  0.00000000E+00  0.00000000E+00
