supercell of 100% icsd_608626.cif, 0% i 
   1.00000000000000     
    -9.9538424352508930   -0.0134510828256332    0.0031405804399939
    -4.9652846321742130    8.5924271420297575    0.0137550536163415
     0.0030732407939315   -0.0150852140607565  -10.2795967721902475
   Al   Zr   Ca   N 
    26     5     5    36
Direct
  0.1090619753795323  0.0997307586491658  0.3020185794290171
  0.2097212697346862  0.2143168427032336  0.0432385594897085
  0.7846059579952822  0.1005357461902392  0.7949197525526372
  0.9000506248219651  0.2024459246375727  0.5469752200025582
  0.5581411296777787  0.1989743502470418  0.0335885700360379
  0.1004378472810430  0.1082528528225026  0.7903563775887434
  0.2108397243115689  0.2117016165793260  0.5475136114965196
  0.7834722013657185  0.0925181042457410  0.2954758609550296
  0.0987492181223715  0.4242030044270564  0.2954162341062485
  0.2235197439503622  0.5229630608093245  0.0421870015852051
  0.7872888619552469  0.4205938265766207  0.7883688017094244
  0.8991643856272731  0.5262924541875833  0.5510205360490019
  0.1018374996677096  0.4255556947703170  0.7965790123326713
  0.2080944087237526  0.5390858937354821  0.5535277048116924
  0.7918795148156690  0.4251249585356192  0.2945567934918927
  0.8920368686332623  0.5431851556303400  0.0402470697368642
  0.4474860219528765  0.4277778147229867  0.7917644871982930
  0.2376231630633470  0.8896337993646739  0.0465812963375853
  0.7751742008235283  0.7532690991088842  0.7951319592867847
  0.8937686924215242  0.8704963287328695  0.5531636138260438
  0.4414721934234720  0.7666913757578229  0.2918566863320251
  0.5661492708339750  0.8608191869610948  0.0365907291798706
  0.2231911627941656  0.8827106586077633  0.5499468267604186
  0.8691032609425662  0.8784862486556335  0.0393602620451503
  0.4501994688939348  0.7604771719374455  0.7914994427544286
  0.5443081434592827  0.8758820762629895  0.5508540270757010
  0.4359749778973310  0.0892400397180353  0.2868841523169792
  0.5607949230791718  0.1955715484777585  0.5673463035300585
  0.4437954145237057  0.4261376905993473  0.3025750530670166
  0.1082460653450710  0.7683343298715570  0.2904085769608287
  0.1140242702188417  0.7639362770789759  0.8168692890429838
  0.8958859259100933  0.2006216137886128  0.0549779982293330
  0.4321821303625342  0.0893552534222692  0.8155851658426414
  0.5612409966026206  0.5412969097469613  0.0454595038230039
  0.5608517471880745  0.5472511488974590  0.5612502560871775
  0.7777690633283711  0.7507807600847585  0.3045348562755734
  0.2063272080183296  0.2154076214482927  0.3598478199841324
  0.1446102507286824  0.0857448511881245  0.1233760491051186
  0.8904747700576721  0.2036559165603506  0.8346945767648037
  0.8040374552293343  0.0816056632027582  0.6081738789667313
  0.5729911250626856  0.1905230844471291  0.3577629540274501
  0.4431488738999434  0.0942401597994760  0.0723445883516831
  0.1780200492529289  0.2274539404339819  0.8634594985592727
  0.1122710362612978  0.0956153210517243  0.6006970116602233
  0.8887445947980979  0.2027337545940568  0.3503388549602420
  0.7570219209313933  0.0788218371588485  0.1137952568011684
  0.5731819674940581  0.2178819812583868  0.8440095299794308
  0.4281287275105328  0.0934483395534897  0.5845371387666916
  0.2036200171103175  0.5362575631938853  0.3627751878777374
  0.1101687890974503  0.4313821122498211  0.1073004343193205
  0.8907208452822388  0.5400136904123372  0.8494817654085409
  0.8145612924456174  0.4069125824855391  0.6076097940919780
  0.5615139070466739  0.5468268881988720  0.3271530154359183
  0.4299888081714514  0.4058510491825942  0.1025722259517394
  0.2310035065399632  0.5184937466058912  0.8555007375243378
  0.1111824096447123  0.4271877785319091  0.6104659453627264
  0.9068755311750891  0.5062896969346866  0.3712452978967420
  0.8016352162620706  0.4433139145094955  0.1175385364857391
  0.5549217490836824  0.5384394378632038  0.8143946947233260
  0.4163501474356934  0.4289494101318567  0.6021332828569896
  0.2270754427092001  0.8793315255395910  0.3608663372713607
  0.1125746003248906  0.7631097437035450  0.0759127143068099
  0.8710802417770012  0.8833898545357357  0.8505866170402854
  0.7758169468251523  0.7629624458096416  0.6000064841681336
  0.5298873418059458  0.8741432821767532  0.3672805046231176
  0.4370253192862208  0.7923909988683349  0.1123380004757806
  0.2313175742927527  0.8896675457022738  0.8587597599720098
  0.1138547193340358  0.7597055703798290  0.6029142495251705
  0.8930852039293100  0.8923760725294301  0.3684332276484454
  0.7817053124010442  0.7595669529311593  0.0823067679053935
  0.5746272549659395  0.8335126540023197  0.8569812927716853
  0.4223075186808884  0.7985434362796511  0.6137757970845428
 
  0.00000000E+00  0.00000000E+00  0.00000000E+00
  0.00000000E+00  0.00000000E+00  0.00000000E+00
  0.00000000E+00  0.00000000E+00  0.00000000E+00
  0.00000000E+00  0.00000000E+00  0.00000000E+00
  0.00000000E+00  0.00000000E+00  0.00000000E+00
  0.00000000E+00  0.00000000E+00  0.00000000E+00
  0.00000000E+00  0.00000000E+00  0.00000000E+00
  0.00000000E+00  0.00000000E+00  0.00000000E+00
  0.00000000E+00  0.00000000E+00  0.00000000E+00
  0.00000000E+00  0.00000000E+00  0.00000000E+00
  0.00000000E+00  0.00000000E+00  0.00000000E+00
  0.00000000E+00  0.00000000E+00  0.00000000E+00
  0.00000000E+00  0.00000000E+00  0.00000000E+00
  0.00000000E+00  0.00000000E+00  0.00000000E+00
  0.00000000E+00  0.00000000E+00  0.00000000E+00
  0.00000000E+00  0.00000000E+00  0.00000000E+00
  0.00000000E+00  0.00000000E+00  0.00000000E+00
  0.00000000E+00  0.00000000E+00  0.00000000E+00
  0.00000000E+00  0.00000000E+00  0.00000000E+00
  0.00000000E+00  0.00000000E+00  0.00000000E+00
  0.00000000E+00  0.00000000E+00  0.00000000E+00
  0.00000000E+00  0.00000000E+00  0.00000000E+00
  0.00000000E+00  0.00000000E+00  0.00000000E+00
  0.00000000E+00  0.00000000E+00  0.00000000E+00
  0.00000000E+00  0.00000000E+00  0.00000000E+00
  0.00000000E+00  0.00000000E+00  0.00000000E+00
  0.00000000E+00  0.00000000E+00  0.00000000E+00
  0.00000000E+00  0.00000000E+00  0.00000000E+00
  0.00000000E+00  0.00000000E+00  0.00000000E+00
  0.00000000E+00  0.00000000E+00  0.00000000E+00
  0.00000000E+00  0.00000000E+00  0.00000000E+00
  0.00000000E+00  0.00000000E+00  0.00000000E+00
  0.00000000E+00  0.00000000E+00  0.00000000E+00
  0.00000000E+00  0.00000000E+00  0.00000000E+00
  0.00000000E+00  0.00000000E+00  0.00000000E+00
  0.00000000E+00  0.00000000E+00  0.00000000E+00
  0.00000000E+00  0.00000000E+00  0.00000000E+00
  0.00000000E+00  0.00000000E+00  0.00000000E+00
  0.00000000E+00  0.00000000E+00  0.00000000E+00
  0.00000000E+00  0.00000000E+00  0.00000000E+00
  0.00000000E+00  0.00000000E+00  0.00000000E+00
  0.00000000E+00  0.00000000E+00  0.00000000E+00
  0.00000000E+00  0.00000000E+00  0.00000000E+00
  0.00000000E+00  0.00000000E+00  0.00000000E+00
  0.00000000E+00  0.00000000E+00  0.00000000E+00
  0.00000000E+00  0.00000000E+00  0.00000000E+00
  0.00000000E+00  0.00000000E+00  0.00000000E+00
  0.00000000E+00  0.00000000E+00  0.00000000E+00
  0.00000000E+00  0.00000000E+00  0.00000000E+00
  0.00000000E+00  0.00000000E+00  0.00000000E+00
  0.00000000E+00  0.00000000E+00  0.00000000E+00
  0.00000000E+00  0.00000000E+00  0.00000000E+00
  0.00000000E+00  0.00000000E+00  0.00000000E+00
  0.00000000E+00  0.00000000E+00  0.00000000E+00
  0.00000000E+00  0.00000000E+00  0.00000000E+00
  0.00000000E+00  0.00000000E+00  0.00000000E+00
  0.00000000E+00  0.00000000E+00  0.00000000E+00
  0.00000000E+00  0.00000000E+00  0.00000000E+00
  0.00000000E+00  0.00000000E+00  0.00000000E+00
  0.00000000E+00  0.00000000E+00  0.00000000E+00
  0.00000000E+00  0.00000000E+00  0.00000000E+00
  0.00000000E+00  0.00000000E+00  0.00000000E+00
  0.00000000E+00  0.00000000E+00  0.00000000E+00
  0.00000000E+00  0.00000000E+00  0.00000000E+00
  0.00000000E+00  0.00000000E+00  0.00000000E+00
  0.00000000E+00  0.00000000E+00  0.00000000E+00
  0.00000000E+00  0.00000000E+00  0.00000000E+00
  0.00000000E+00  0.00000000E+00  0.00000000E+00
  0.00000000E+00  0.00000000E+00  0.00000000E+00
  0.00000000E+00  0.00000000E+00  0.00000000E+00
  0.00000000E+00  0.00000000E+00  0.00000000E+00
  0.00000000E+00  0.00000000E+00  0.00000000E+00
