Al   Sc   N    O                        
   1.00000000000000     
   -10.0219147663452617    0.0110657461583418    0.0012524488212019
    -5.0097037640756765    8.6982692749592587   -0.0012171261294532
    -0.0125974339154533   -0.0272790502780944   -9.8848130725355876
   Al   Sc   N    O 
    23    13    35     1
Direct
  0.1174831508430145  0.0890530309296054  0.4128739772573979
  0.2195440812416294  0.2001665555569403  0.1532579254563586
  0.7670679809826737  0.1008134029186039  0.8930934969013862
  0.8847777363033913  0.2046360179190643  0.6123500833937001
  0.5464028353754244  0.2195577474788806  0.1451388655876684
  0.2302777683308719  0.2079572823122007  0.6401641496040327
  0.8839999897784310  0.2126267255072420  0.0889968992103576
  0.5582597748276825  0.2118040695497001  0.6479898724635120
  0.2327417786653712  0.5396905556779430  0.1498950439103979
  0.4385244751962389  0.4399113427671892  0.3962730936318195
  0.5488708304109124  0.5406035638127591  0.1446419343698437
  0.2290816786246381  0.5340556835379999  0.6447143126209198
  0.8854807363538342  0.5352768556425005  0.1520742243586355
  0.4423875991433164  0.4347715401484251  0.8955316571617544
  0.5508530998102472  0.5370511059134273  0.6470041485025320
  0.1111852306460648  0.7582857349279735  0.4024499372971420
  0.7732213702914450  0.7578041539857878  0.8994974271386553
  0.8821795834693091  0.8757849397719468  0.6574812248169621
  0.4472288340950641  0.7548816537853540  0.3982885664501126
  0.5519882677348278  0.8631688336785928  0.1412234492699227
  0.1229945755983763  0.7514929363843450  0.8896823244781089
  0.4447566275984229  0.7527849345101245  0.8953044238461558
  0.5617168251624634  0.8650570414282654  0.6501753196511686
  0.4467876367288071  0.0898490212135385  0.3899824053824972
  0.1114291434022192  0.0897435747046416  0.8686891907398291
  0.7802461897573352  0.0919187497166263  0.3830521312466288
  0.4569845463427740  0.0876226921415864  0.8845639595749759
  0.1247458024071690  0.4238117385574398  0.3774252297466205
  0.7656004974718869  0.4387006033176775  0.8759389622547076
  0.8921422697459960  0.5439873352844771  0.6295787452029273
  0.1148336618534600  0.4371094969916669  0.9007299423929211
  0.7675650275688497  0.4253327096388304  0.3819004896520184
  0.2231601894448545  0.8723915523541308  0.1491290981777240
  0.2303498907159565  0.8581639148620042  0.6275105797443743
  0.7750139526176270  0.7692777689440788  0.3810282098662654
  0.8922588343598861  0.8690152011109618  0.1172242857377057
  0.2176200760834348  0.1864340889088894  0.3438117208382678
  0.1032920392214081  0.1110816646718291  0.0891534122857820
  0.8771716223912307  0.2006103077601438  0.8684509635685131
  0.7770123570075143  0.0907166496468719  0.6085327895423376
  0.5394066635978163  0.2321252849442175  0.3370633047368656
  0.4425220677740285  0.0942418423500868  0.1037715460766151
  0.1110191564186707  0.1083920695159506  0.6172724188733838
  0.9094203513141395  0.1930213904856188  0.3948930091116338
  0.7613929875909946  0.1160389254263237  0.0954522677435605
  0.5578090494467745  0.2220416598929731  0.8408609514310115
  0.4492894288529641  0.0906600940432725  0.6157728632965984
  0.2324536614095365  0.5552355127241100  0.3396648215147664
  0.1159737626625486  0.4251061317006730  0.1206734561698397
  0.8890022849527099  0.5547081463662948  0.8435478500164209
  0.7667285953039169  0.4220602960022362  0.6149203484823502
  0.5302792084740915  0.5523543777383679  0.3351296860669493
  0.4426996231130076  0.4301026107311117  0.0877889582056923
  0.2343525182372872  0.5429766968597676  0.8355694361821904
  0.1368589680435406  0.4152920359936303  0.5978052240601670
  0.8894000921725080  0.5372516447944307  0.3494381103674868
  0.7736584789709369  0.4293085753453312  0.1110023963769606
  0.5318153106261505  0.5490959415866143  0.8377239634448088
  0.4450013850816745  0.4294142140330521  0.5897625350177265
  0.2228292803082610  0.8707949222840341  0.3779997806674729
  0.1291874993367799  0.7387776181188173  0.0791761955617076
  0.8830594001275500  0.8743642979574702  0.8598121779187338
  0.7669534093878241  0.7861643452884195  0.5960977172827384
  0.5421827259256986  0.8611641979399138  0.3309461409725643
  0.4561742276669420  0.7503200494435305  0.0861668113049774
  0.2326711085569144  0.8534207300465440  0.8453715065520697
  0.0949821230094940  0.7484155166010851  0.5966951989138778
  0.9137617263844646  0.8621911509516096  0.3289462654050439
  0.7682353871269143  0.7479442632892059  0.0963314377894307
  0.5631386212542182  0.8493529912073825  0.8436315029760451
  0.4724084964323509  0.7455767728159728  0.5890815394285340
  0.2267209118538602  0.2116429459724074  0.8313216433109147
 
  0.00000000E+00  0.00000000E+00  0.00000000E+00
  0.00000000E+00  0.00000000E+00  0.00000000E+00
  0.00000000E+00  0.00000000E+00  0.00000000E+00
  0.00000000E+00  0.00000000E+00  0.00000000E+00
  0.00000000E+00  0.00000000E+00  0.00000000E+00
  0.00000000E+00  0.00000000E+00  0.00000000E+00
  0.00000000E+00  0.00000000E+00  0.00000000E+00
  0.00000000E+00  0.00000000E+00  0.00000000E+00
  0.00000000E+00  0.00000000E+00  0.00000000E+00
  0.00000000E+00  0.00000000E+00  0.00000000E+00
  0.00000000E+00  0.00000000E+00  0.00000000E+00
  0.00000000E+00  0.00000000E+00  0.00000000E+00
  0.00000000E+00  0.00000000E+00  0.00000000E+00
  0.00000000E+00  0.00000000E+00  0.00000000E+00
  0.00000000E+00  0.00000000E+00  0.00000000E+00
  0.00000000E+00  0.00000000E+00  0.00000000E+00
  0.00000000E+00  0.00000000E+00  0.00000000E+00
  0.00000000E+00  0.00000000E+00  0.00000000E+00
  0.00000000E+00  0.00000000E+00  0.00000000E+00
  0.00000000E+00  0.00000000E+00  0.00000000E+00
  0.00000000E+00  0.00000000E+00  0.00000000E+00
  0.00000000E+00  0.00000000E+00  0.00000000E+00
  0.00000000E+00  0.00000000E+00  0.00000000E+00
  0.00000000E+00  0.00000000E+00  0.00000000E+00
  0.00000000E+00  0.00000000E+00  0.00000000E+00
  0.00000000E+00  0.00000000E+00  0.00000000E+00
  0.00000000E+00  0.00000000E+00  0.00000000E+00
  0.00000000E+00  0.00000000E+00  0.00000000E+00
  0.00000000E+00  0.00000000E+00  0.00000000E+00
  0.00000000E+00  0.00000000E+00  0.00000000E+00
  0.00000000E+00  0.00000000E+00  0.00000000E+00
  0.00000000E+00  0.00000000E+00  0.00000000E+00
  0.00000000E+00  0.00000000E+00  0.00000000E+00
  0.00000000E+00  0.00000000E+00  0.00000000E+00
  0.00000000E+00  0.00000000E+00  0.00000000E+00
  0.00000000E+00  0.00000000E+00  0.00000000E+00
  0.00000000E+00  0.00000000E+00  0.00000000E+00
  0.00000000E+00  0.00000000E+00  0.00000000E+00
  0.00000000E+00  0.00000000E+00  0.00000000E+00
  0.00000000E+00  0.00000000E+00  0.00000000E+00
  0.00000000E+00  0.00000000E+00  0.00000000E+00
  0.00000000E+00  0.00000000E+00  0.00000000E+00
  0.00000000E+00  0.00000000E+00  0.00000000E+00
  0.00000000E+00  0.00000000E+00  0.00000000E+00
  0.00000000E+00  0.00000000E+00  0.00000000E+00
  0.00000000E+00  0.00000000E+00  0.00000000E+00
  0.00000000E+00  0.00000000E+00  0.00000000E+00
  0.00000000E+00  0.00000000E+00  0.00000000E+00
  0.00000000E+00  0.00000000E+00  0.00000000E+00
  0.00000000E+00  0.00000000E+00  0.00000000E+00
  0.00000000E+00  0.00000000E+00  0.00000000E+00
  0.00000000E+00  0.00000000E+00  0.00000000E+00
  0.00000000E+00  0.00000000E+00  0.00000000E+00
  0.00000000E+00  0.00000000E+00  0.00000000E+00
  0.00000000E+00  0.00000000E+00  0.00000000E+00
  0.00000000E+00  0.00000000E+00  0.00000000E+00
  0.00000000E+00  0.00000000E+00  0.00000000E+00
  0.00000000E+00  0.00000000E+00  0.00000000E+00
  0.00000000E+00  0.00000000E+00  0.00000000E+00
  0.00000000E+00  0.00000000E+00  0.00000000E+00
  0.00000000E+00  0.00000000E+00  0.00000000E+00
  0.00000000E+00  0.00000000E+00  0.00000000E+00
  0.00000000E+00  0.00000000E+00  0.00000000E+00
  0.00000000E+00  0.00000000E+00  0.00000000E+00
  0.00000000E+00  0.00000000E+00  0.00000000E+00
  0.00000000E+00  0.00000000E+00  0.00000000E+00
  0.00000000E+00  0.00000000E+00  0.00000000E+00
  0.00000000E+00  0.00000000E+00  0.00000000E+00
  0.00000000E+00  0.00000000E+00  0.00000000E+00
  0.00000000E+00  0.00000000E+00  0.00000000E+00
  0.00000000E+00  0.00000000E+00  0.00000000E+00
  0.00000000E+00  0.00000000E+00  0.00000000E+00
