Al   Sc   N    O                        
   1.00000000000000     
   -10.2009899190258242    0.0106195160565587    0.0007936734100262
    -5.0951932037578702    8.8615673087174240    0.0014489978544604
    -0.0104330395541658    0.0792871463629716   -9.3770332191780810
   Al   Sc   N    O 
    23    13    35     1
Direct
  0.1106845479137419  0.0885795267711131  0.3282382753316497
  0.2224675149562927  0.2067076582092753  0.1082826039222340
  0.7707279762480823  0.1003026579756607  0.8277612273274428
  0.8942775352700139  0.2036399825867008  0.5899016653052627
  0.5558705099426078  0.2169333806264007  0.0792776055455064
  0.2233882340909190  0.2003131145917862  0.5726010188769806
  0.8780626951301898  0.2100422749198927  0.0854018198184932
  0.5473438281067544  0.2175783181671278  0.5850478563945671
  0.2277666310766264  0.5385599063205220  0.1228887793869546
  0.4402099538601973  0.4370446820371754  0.3357584609768622
  0.5531299790578217  0.5400064523394263  0.1254337270262766
  0.2282263278117753  0.5360825704331234  0.6231941045013158
  0.8877782578279678  0.5358064171973496  0.1307603563809749
  0.4447037738202226  0.4321165867768855  0.8350666645000047
  0.5522372044604325  0.5387784598898477  0.6276355452236828
  0.1128972965570085  0.7602729497720162  0.3868415816654576
  0.7734854572539760  0.7587906579306392  0.8827717523992575
  0.8838776936531687  0.8717578284612841  0.6362385187181800
  0.4447778347881552  0.7561358539741718  0.3823174796416424
  0.5550092785740901  0.8610345915278970  0.1234207298499044
  0.1199788374465598  0.7521404114440955  0.8683476541652482
  0.4500149428585374  0.7519361225115588  0.8760849019668129
  0.5594535179669009  0.8677378608243629  0.6309143303973030
  0.4494999946020002  0.0894253507078702  0.3489449056432363
  0.1077112778971454  0.0923058864433273  0.8608574060081366
  0.7802285683871872  0.0941297863323669  0.3573380084385249
  0.4535632475853220  0.0890098113849191  0.8553151732566917
  0.1227329746803605  0.4280110111956787  0.3571463028088075
  0.7695480740779956  0.4315715927832429  0.8596352333341741
  0.8867649952355308  0.5444712982826090  0.6072113778789117
  0.1142755146658416  0.4330027928581757  0.8610665256004779
  0.7702601880701678  0.4224979891824177  0.3598990586760138
  0.2312854783233504  0.8584725273746301  0.1149752196441440
  0.2244748594946060  0.8729827663964116  0.6114534351131837
  0.7749165511090865  0.7687832197782356  0.3578722367509641
  0.8900177896613144  0.8768055149705631  0.0999080287323793
  0.2168110182307998  0.1906623224812236  0.3613272641183443
  0.1000303983676218  0.1081039803756667  0.1169211759485904
  0.8768993310197715  0.1954304481416997  0.8794313158150828
  0.7768036355271732  0.0954996760371571  0.6181082937087012
  0.5408691375140009  0.2316004928255850  0.3819708935788668
  0.4494309032394455  0.0936081277464069  0.1048200734496163
  0.1062248444494713  0.1151554205166079  0.6333853188238123
  0.9130204236158548  0.1904088121039962  0.3856626266529943
  0.7624190706546088  0.1181828240700469  0.1258691601277491
  0.5609218831700602  0.2184918462637881  0.8693223078506946
  0.4415978668244378  0.0928215238897749  0.6104212594841556
  0.2301295274531370  0.5557535046727153  0.3403667116134628
  0.1135521789569651  0.4280478192386141  0.1090016126655939
  0.8834821631606502  0.5553753621652575  0.8381227425393263
  0.7672817399404224  0.4189761315238343  0.6063767729067493
  0.5344638462606923  0.5524045009884091  0.3337484073068921
  0.4439444338145506  0.4279485976801283  0.1134845729699094
  0.2323656933130422  0.5438204299056721  0.8353179713398333
  0.1350062802470404  0.4128324783139306  0.6032678482438882
  0.8900211847508999  0.5366832716209444  0.3486808950832128
  0.7769573585762686  0.4275014949431650  0.1073961137684378
  0.5383005191551078  0.5478742374283456  0.8372219191842234
  0.4441741706499513  0.4305001917558968  0.6185225513767136
  0.2230513104718241  0.8704484501630958  0.3579641098165993
  0.1224439643760320  0.7394547454699705  0.0708785037843214
  0.8815539518098490  0.8750129848329564  0.8480656908781299
  0.7653812388915142  0.7861162543808149  0.5866472547978816
  0.5425279316134848  0.8593322713628311  0.3252586001117450
  0.4634636672410792  0.7467964938818099  0.0779061262105074
  0.2330501709337156  0.8563011739289834  0.8493690757146339
  0.0984957815555418  0.7532586705379174  0.5963812459646434
  0.9132196056710953  0.8624247195002113  0.3290379388155813
  0.7709065372415580  0.7505528587299182  0.0925900416986352
  0.5638414654575143  0.8523769970109427  0.8375356191883867
  0.4657077309968898  0.7502556267499827  0.5860504430527342
  0.2256325106996826  0.2035974234101658  0.9005555121259974
 
  0.00000000E+00  0.00000000E+00  0.00000000E+00
  0.00000000E+00  0.00000000E+00  0.00000000E+00
  0.00000000E+00  0.00000000E+00  0.00000000E+00
  0.00000000E+00  0.00000000E+00  0.00000000E+00
  0.00000000E+00  0.00000000E+00  0.00000000E+00
  0.00000000E+00  0.00000000E+00  0.00000000E+00
  0.00000000E+00  0.00000000E+00  0.00000000E+00
  0.00000000E+00  0.00000000E+00  0.00000000E+00
  0.00000000E+00  0.00000000E+00  0.00000000E+00
  0.00000000E+00  0.00000000E+00  0.00000000E+00
  0.00000000E+00  0.00000000E+00  0.00000000E+00
  0.00000000E+00  0.00000000E+00  0.00000000E+00
  0.00000000E+00  0.00000000E+00  0.00000000E+00
  0.00000000E+00  0.00000000E+00  0.00000000E+00
  0.00000000E+00  0.00000000E+00  0.00000000E+00
  0.00000000E+00  0.00000000E+00  0.00000000E+00
  0.00000000E+00  0.00000000E+00  0.00000000E+00
  0.00000000E+00  0.00000000E+00  0.00000000E+00
  0.00000000E+00  0.00000000E+00  0.00000000E+00
  0.00000000E+00  0.00000000E+00  0.00000000E+00
  0.00000000E+00  0.00000000E+00  0.00000000E+00
  0.00000000E+00  0.00000000E+00  0.00000000E+00
  0.00000000E+00  0.00000000E+00  0.00000000E+00
  0.00000000E+00  0.00000000E+00  0.00000000E+00
  0.00000000E+00  0.00000000E+00  0.00000000E+00
  0.00000000E+00  0.00000000E+00  0.00000000E+00
  0.00000000E+00  0.00000000E+00  0.00000000E+00
  0.00000000E+00  0.00000000E+00  0.00000000E+00
  0.00000000E+00  0.00000000E+00  0.00000000E+00
  0.00000000E+00  0.00000000E+00  0.00000000E+00
  0.00000000E+00  0.00000000E+00  0.00000000E+00
  0.00000000E+00  0.00000000E+00  0.00000000E+00
  0.00000000E+00  0.00000000E+00  0.00000000E+00
  0.00000000E+00  0.00000000E+00  0.00000000E+00
  0.00000000E+00  0.00000000E+00  0.00000000E+00
  0.00000000E+00  0.00000000E+00  0.00000000E+00
  0.00000000E+00  0.00000000E+00  0.00000000E+00
  0.00000000E+00  0.00000000E+00  0.00000000E+00
  0.00000000E+00  0.00000000E+00  0.00000000E+00
  0.00000000E+00  0.00000000E+00  0.00000000E+00
  0.00000000E+00  0.00000000E+00  0.00000000E+00
  0.00000000E+00  0.00000000E+00  0.00000000E+00
  0.00000000E+00  0.00000000E+00  0.00000000E+00
  0.00000000E+00  0.00000000E+00  0.00000000E+00
  0.00000000E+00  0.00000000E+00  0.00000000E+00
  0.00000000E+00  0.00000000E+00  0.00000000E+00
  0.00000000E+00  0.00000000E+00  0.00000000E+00
  0.00000000E+00  0.00000000E+00  0.00000000E+00
  0.00000000E+00  0.00000000E+00  0.00000000E+00
  0.00000000E+00  0.00000000E+00  0.00000000E+00
  0.00000000E+00  0.00000000E+00  0.00000000E+00
  0.00000000E+00  0.00000000E+00  0.00000000E+00
  0.00000000E+00  0.00000000E+00  0.00000000E+00
  0.00000000E+00  0.00000000E+00  0.00000000E+00
  0.00000000E+00  0.00000000E+00  0.00000000E+00
  0.00000000E+00  0.00000000E+00  0.00000000E+00
  0.00000000E+00  0.00000000E+00  0.00000000E+00
  0.00000000E+00  0.00000000E+00  0.00000000E+00
  0.00000000E+00  0.00000000E+00  0.00000000E+00
  0.00000000E+00  0.00000000E+00  0.00000000E+00
  0.00000000E+00  0.00000000E+00  0.00000000E+00
  0.00000000E+00  0.00000000E+00  0.00000000E+00
  0.00000000E+00  0.00000000E+00  0.00000000E+00
  0.00000000E+00  0.00000000E+00  0.00000000E+00
  0.00000000E+00  0.00000000E+00  0.00000000E+00
  0.00000000E+00  0.00000000E+00  0.00000000E+00
  0.00000000E+00  0.00000000E+00  0.00000000E+00
  0.00000000E+00  0.00000000E+00  0.00000000E+00
  0.00000000E+00  0.00000000E+00  0.00000000E+00
  0.00000000E+00  0.00000000E+00  0.00000000E+00
  0.00000000E+00  0.00000000E+00  0.00000000E+00
  0.00000000E+00  0.00000000E+00  0.00000000E+00
