Al   Sc   N    O                        
   1.00000000000000     
   -10.0861497786548107    0.0106999887738382    0.0001219520420959
    -5.0393095663013669    8.7659019159430400    0.0009117551497454
    -0.0136270174170168    0.1129654056822039   -9.7289364434363979
   Al   Sc   N    O 
    23    13    35     1
Direct
  0.1095587074924893  0.0869929060806811  0.3278822992222885
  0.2228635478521994  0.2056197918804514  0.1371726197311034
  0.7713097891802221  0.1012794167895379  0.8234650743424439
  0.8937265061202808  0.2027789209155628  0.5847858207168457
  0.5553369354662436  0.2140065762168462  0.0768606697492089
  0.2238931608863837  0.2039992540932190  0.5992872900332316
  0.8773135302745061  0.2104076145832323  0.0820086344052200
  0.5504006883815933  0.2153630556863462  0.5847116294214487
  0.2331141758949400  0.5379671508620518  0.1372543494111440
  0.4366849651524021  0.4444976961289484  0.3894943583480455
  0.5513718949367075  0.5380315237322364  0.1334536917784419
  0.2274566926484241  0.5377440985144943  0.6339173215167122
  0.8864181214362645  0.5355421784623360  0.1396776066103271
  0.4410682318941568  0.4391344589816271  0.8812802538880575
  0.5505500332726143  0.5394676479559877  0.6347706578770556
  0.1127461029203900  0.7592170452286666  0.3869439930703891
  0.7738857616379846  0.7571146445823800  0.8860354594530833
  0.8855473762426698  0.8701509554864231  0.6401380455819350
  0.4453675107448447  0.7554126603800384  0.3840987426958264
  0.5547615183194594  0.8607052246319356  0.1263914313984245
  0.1211950749224542  0.7521074311113409  0.8751949365036680
  0.4494003063025431  0.7514003484284402  0.8797874534523444
  0.5609193208087646  0.8653147047889931  0.6349836280739467
  0.4497424871961115  0.0865958501927793  0.3607925159333121
  0.1085208661015074  0.0927271325172185  0.8589993870766008
  0.7797564661152236  0.0936439628729531  0.3499766194153651
  0.4543889225584863  0.0883293256494184  0.8580134020008785
  0.1240591540697693  0.4278704824289008  0.3660160806437602
  0.7681400984011688  0.4334133260804123  0.8646996745450366
  0.8892680252756477  0.5427128062783382  0.6143863157747660
  0.1132628541114613  0.4389566374729554  0.8833590480756968
  0.7683808818352205  0.4237034812681841  0.3645431326150401
  0.2318326939525903  0.8576140335170095  0.1205447615043695
  0.2243405452426472  0.8709839713383047  0.6126302841173938
  0.7759104237638397  0.7682093634450951  0.3640615674064378
  0.8896872421984483  0.8750816024458032  0.1005233684107552
  0.2168951258224752  0.1912137633890652  0.3444062162035877
  0.1001139624613145  0.1077158531135112  0.1155962647324102
  0.8760634973001657  0.1958115198245522  0.8849991976355724
  0.7773651126696564  0.0956971497348960  0.6216025764320250
  0.5418801870379610  0.2295798342406030  0.3844150437016651
  0.4455557282595919  0.0940209347121339  0.0998330422285107
  0.1040768593893020  0.1139913158336583  0.6337066465692089
  0.9129475093550496  0.1894530792836591  0.3890972348379762
  0.7609414485010575  0.1190138783861698  0.1290221783934484
  0.5616578333261018  0.2186416176999870  0.8685810359434782
  0.4438080937767168  0.0912657406681205  0.6086325704986848
  0.2334633283722312  0.5554698895674335  0.3300286990936243
  0.1153510657539769  0.4264691211912606  0.1106637803851669
  0.8850931472324532  0.5547067894551745  0.8328219876370468
  0.7664367004193124  0.4190888172942522  0.6036506327310178
  0.5310267193685902  0.5519771263252551  0.3271262041452161
  0.4421785812449386  0.4324395234251384  0.0804923553644414
  0.2338065925947106  0.5455200714852282  0.8263971543297330
  0.1355798892878326  0.4163656670643405  0.5925844466906227
  0.8900134899814134  0.5361730688721380  0.3427382923016040
  0.7754785260391870  0.4280387725770964  0.1069288960608219
  0.5356677959984992  0.5485528760619331  0.8283296366590562
  0.4392223326590425  0.4394346793651565  0.5878333894588010
  0.2235139785801792  0.8696285370995440  0.3555324676395912
  0.1249628564049416  0.7358691529369707  0.0674691693711864
  0.8845495516497408  0.8726566772281572  0.8458746443786751
  0.7660632918934809  0.7866111879834605  0.5825387698399354
  0.5439029871534302  0.8569666569821379  0.3188252234256055
  0.4642716471163624  0.7448580368959981  0.0732040622753303
  0.2332871897608371  0.8552945492292565  0.8436665202885294
  0.0968255917848779  0.7522728135763899  0.5857237963672830
  0.9148477235407455  0.8598407592843529  0.3193194598651985
  0.7704853371640468  0.7487932964119679  0.0866540219344500
  0.5650689024737119  0.8492079299489390  0.8318556501521286
  0.4673402984440003  0.7497302528464118  0.5790211930356648
  0.2238453510071778  0.2106936398052284  0.8567352262726615
 
  0.00000000E+00  0.00000000E+00  0.00000000E+00
  0.00000000E+00  0.00000000E+00  0.00000000E+00
  0.00000000E+00  0.00000000E+00  0.00000000E+00
  0.00000000E+00  0.00000000E+00  0.00000000E+00
  0.00000000E+00  0.00000000E+00  0.00000000E+00
  0.00000000E+00  0.00000000E+00  0.00000000E+00
  0.00000000E+00  0.00000000E+00  0.00000000E+00
  0.00000000E+00  0.00000000E+00  0.00000000E+00
  0.00000000E+00  0.00000000E+00  0.00000000E+00
  0.00000000E+00  0.00000000E+00  0.00000000E+00
  0.00000000E+00  0.00000000E+00  0.00000000E+00
  0.00000000E+00  0.00000000E+00  0.00000000E+00
  0.00000000E+00  0.00000000E+00  0.00000000E+00
  0.00000000E+00  0.00000000E+00  0.00000000E+00
  0.00000000E+00  0.00000000E+00  0.00000000E+00
  0.00000000E+00  0.00000000E+00  0.00000000E+00
  0.00000000E+00  0.00000000E+00  0.00000000E+00
  0.00000000E+00  0.00000000E+00  0.00000000E+00
  0.00000000E+00  0.00000000E+00  0.00000000E+00
  0.00000000E+00  0.00000000E+00  0.00000000E+00
  0.00000000E+00  0.00000000E+00  0.00000000E+00
  0.00000000E+00  0.00000000E+00  0.00000000E+00
  0.00000000E+00  0.00000000E+00  0.00000000E+00
  0.00000000E+00  0.00000000E+00  0.00000000E+00
  0.00000000E+00  0.00000000E+00  0.00000000E+00
  0.00000000E+00  0.00000000E+00  0.00000000E+00
  0.00000000E+00  0.00000000E+00  0.00000000E+00
  0.00000000E+00  0.00000000E+00  0.00000000E+00
  0.00000000E+00  0.00000000E+00  0.00000000E+00
  0.00000000E+00  0.00000000E+00  0.00000000E+00
  0.00000000E+00  0.00000000E+00  0.00000000E+00
  0.00000000E+00  0.00000000E+00  0.00000000E+00
  0.00000000E+00  0.00000000E+00  0.00000000E+00
  0.00000000E+00  0.00000000E+00  0.00000000E+00
  0.00000000E+00  0.00000000E+00  0.00000000E+00
  0.00000000E+00  0.00000000E+00  0.00000000E+00
  0.00000000E+00  0.00000000E+00  0.00000000E+00
  0.00000000E+00  0.00000000E+00  0.00000000E+00
  0.00000000E+00  0.00000000E+00  0.00000000E+00
  0.00000000E+00  0.00000000E+00  0.00000000E+00
  0.00000000E+00  0.00000000E+00  0.00000000E+00
  0.00000000E+00  0.00000000E+00  0.00000000E+00
  0.00000000E+00  0.00000000E+00  0.00000000E+00
  0.00000000E+00  0.00000000E+00  0.00000000E+00
  0.00000000E+00  0.00000000E+00  0.00000000E+00
  0.00000000E+00  0.00000000E+00  0.00000000E+00
  0.00000000E+00  0.00000000E+00  0.00000000E+00
  0.00000000E+00  0.00000000E+00  0.00000000E+00
  0.00000000E+00  0.00000000E+00  0.00000000E+00
  0.00000000E+00  0.00000000E+00  0.00000000E+00
  0.00000000E+00  0.00000000E+00  0.00000000E+00
  0.00000000E+00  0.00000000E+00  0.00000000E+00
  0.00000000E+00  0.00000000E+00  0.00000000E+00
  0.00000000E+00  0.00000000E+00  0.00000000E+00
  0.00000000E+00  0.00000000E+00  0.00000000E+00
  0.00000000E+00  0.00000000E+00  0.00000000E+00
  0.00000000E+00  0.00000000E+00  0.00000000E+00
  0.00000000E+00  0.00000000E+00  0.00000000E+00
  0.00000000E+00  0.00000000E+00  0.00000000E+00
  0.00000000E+00  0.00000000E+00  0.00000000E+00
  0.00000000E+00  0.00000000E+00  0.00000000E+00
  0.00000000E+00  0.00000000E+00  0.00000000E+00
  0.00000000E+00  0.00000000E+00  0.00000000E+00
  0.00000000E+00  0.00000000E+00  0.00000000E+00
  0.00000000E+00  0.00000000E+00  0.00000000E+00
  0.00000000E+00  0.00000000E+00  0.00000000E+00
  0.00000000E+00  0.00000000E+00  0.00000000E+00
  0.00000000E+00  0.00000000E+00  0.00000000E+00
  0.00000000E+00  0.00000000E+00  0.00000000E+00
  0.00000000E+00  0.00000000E+00  0.00000000E+00
  0.00000000E+00  0.00000000E+00  0.00000000E+00
  0.00000000E+00  0.00000000E+00  0.00000000E+00
