Al   Sc   N    O                        
   1.00000000000000     
   -10.0156416013009366    0.0095052039431214   -0.0119578459336160
    -5.0332774780383875    8.6771967964296142   -0.0081779574354596
    -0.0358348612210474    0.0663177330905205   -9.9191916907670734
   Al   Sc   N    O 
    23    13    35     1
Direct
  0.1102500713892809  0.0943843343472466  0.3062652329236002
  0.2214780739792701  0.2076352413060505  0.0736178952395505
  0.7761017416854727  0.0938244212016173  0.8033635495936835
  0.8893845424578188  0.2074004229741746  0.5623887975000272
  0.5578355220399516  0.2163593907517409  0.0603513445430224
  0.2232853922912668  0.2050466128831374  0.5561140657927766
  0.8810965142124729  0.2081491984006050  0.0607882363733552
  0.5485285032864908  0.2171749613396443  0.5675243839574051
  0.2306030608276259  0.5372316617175557  0.0605033888104813
  0.4392003367635056  0.4382724223358494  0.3134777746148245
  0.5503627477992623  0.5389345808376476  0.0598184581022139
  0.2303140661540226  0.5363111143182877  0.5624631992794491
  0.8834004910218027  0.5435890625547444  0.0492522741693548
  0.4432784407582773  0.4358748662640224  0.8113920642503629
  0.5509404470588279  0.5352786461811192  0.5595193458444498
  0.1187031645656376  0.7561347787099564  0.3132459228113831
  0.7759885906407504  0.7676374217333830  0.8025190121184380
  0.8933501999576023  0.8714961496923763  0.5659451271194982
  0.4411181042261418  0.7545171371877046  0.3127015609062269
  0.5590356128735507  0.8622685953133455  0.0988993696911322
  0.1124065981359479  0.7574054875178646  0.8088857133461289
  0.4471210414315010  0.7511718292938525  0.8075245916117666
  0.5525766527458558  0.8722802321318426  0.5875496349364226
  0.4450785929275867  0.0964704055230072  0.3260550083868665
  0.1084078626865406  0.0913871167074234  0.8248851768253687
  0.7777634815071011  0.0996707865523021  0.3326643969089318
  0.4581480622769902  0.0859131905142902  0.8314381860387456
  0.1168044895307219  0.4316320460629441  0.3144129765307895
  0.7647241254393151  0.4266618715750710  0.8273764051880192
  0.8926329445738190  0.5311340003319813  0.5847371646067288
  0.1227983807350341  0.4313529016943676  0.8270863662902030
  0.7728493226070796  0.4288313694485808  0.3120274613293077
  0.2270412662649477  0.8644594274749977  0.0748545047174787
  0.2209456962615590  0.8725213547962696  0.5642096854470040
  0.7797875050853023  0.7584053386240726  0.3353747282857782
  0.8835582385423706  0.8739969367639020  0.0661005805802048
  0.2126701113748339  0.1973434154195104  0.3627224351752716
  0.0998406744356686  0.1135799341576273  0.1082823809272639
  0.8798739274965612  0.1890653835580665  0.8715356810235164
  0.7777787708905990  0.0951963035872581  0.6067498430827953
  0.5404166885588992  0.2340794680104068  0.3782056470666717
  0.4482013484694960  0.0927012443715469  0.0964740567623252
  0.1037055185389022  0.1147449543259356  0.6147331340141662
  0.9092733327207227  0.1986561633261417  0.3718609325687652
  0.7662580283356277  0.1139191715422498  0.1187463752360927
  0.5638435998179432  0.2199418215640705  0.8653509180702343
  0.4426427444730621  0.0953695380582928  0.6039025113405074
  0.2326466080157701  0.5502345589580955  0.3721524140243702
  0.1120135905750743  0.4287446032142910  0.0897896725408813
  0.8834389599440797  0.5551884358832098  0.8495148737420166
  0.7626425031811763  0.4166725733486771  0.6097935235323604
  0.5359552816491586  0.5476903256749708  0.3686663238995678
  0.4438707939670010  0.4282253162241432  0.1189063261860213
  0.2343296182859262  0.5499954803335640  0.8709994491727002
  0.1400505929670075  0.4129070865966114  0.6104019982288236
  0.8942359902064041  0.5294338750226188  0.3753026622725244
  0.7765580303176591  0.4290570800228082  0.0872005782394751
  0.5318461517874269  0.5493760095176583  0.8715761719414132
  0.4426392258117318  0.4317322770371135  0.6212120801716381
  0.2207065326627102  0.8741511799537278  0.3414906661431942
  0.1170886264911601  0.7398614714312046  0.1222764274400561
  0.8850645712573169  0.8743235563645726  0.8498630825705646
  0.7700729721821844  0.7795681032120854  0.6040057506553325
  0.5422927264828914  0.8629040590227248  0.3515968950620518
  0.4626495598558904  0.7448467519006456  0.1193223594109725
  0.2301139636636265  0.8547220793070949  0.8518446444029166
  0.1052683019067970  0.7484650554589010  0.6190767790652245
  0.9124850699226030  0.8632325378499601  0.3719659381709732
  0.7738118504181628  0.7478607375104005  0.1137700041066410
  0.5636904034288577  0.8504936433630732  0.8399018877453486
  0.4598758703804720  0.7478103919293559  0.6136441379331501
  0.2269387070346980  0.2008192229793409  0.8850384935911464
 
  0.00000000E+00  0.00000000E+00  0.00000000E+00
  0.00000000E+00  0.00000000E+00  0.00000000E+00
  0.00000000E+00  0.00000000E+00  0.00000000E+00
  0.00000000E+00  0.00000000E+00  0.00000000E+00
  0.00000000E+00  0.00000000E+00  0.00000000E+00
  0.00000000E+00  0.00000000E+00  0.00000000E+00
  0.00000000E+00  0.00000000E+00  0.00000000E+00
  0.00000000E+00  0.00000000E+00  0.00000000E+00
  0.00000000E+00  0.00000000E+00  0.00000000E+00
  0.00000000E+00  0.00000000E+00  0.00000000E+00
  0.00000000E+00  0.00000000E+00  0.00000000E+00
  0.00000000E+00  0.00000000E+00  0.00000000E+00
  0.00000000E+00  0.00000000E+00  0.00000000E+00
  0.00000000E+00  0.00000000E+00  0.00000000E+00
  0.00000000E+00  0.00000000E+00  0.00000000E+00
  0.00000000E+00  0.00000000E+00  0.00000000E+00
  0.00000000E+00  0.00000000E+00  0.00000000E+00
  0.00000000E+00  0.00000000E+00  0.00000000E+00
  0.00000000E+00  0.00000000E+00  0.00000000E+00
  0.00000000E+00  0.00000000E+00  0.00000000E+00
  0.00000000E+00  0.00000000E+00  0.00000000E+00
  0.00000000E+00  0.00000000E+00  0.00000000E+00
  0.00000000E+00  0.00000000E+00  0.00000000E+00
  0.00000000E+00  0.00000000E+00  0.00000000E+00
  0.00000000E+00  0.00000000E+00  0.00000000E+00
  0.00000000E+00  0.00000000E+00  0.00000000E+00
  0.00000000E+00  0.00000000E+00  0.00000000E+00
  0.00000000E+00  0.00000000E+00  0.00000000E+00
  0.00000000E+00  0.00000000E+00  0.00000000E+00
  0.00000000E+00  0.00000000E+00  0.00000000E+00
  0.00000000E+00  0.00000000E+00  0.00000000E+00
  0.00000000E+00  0.00000000E+00  0.00000000E+00
  0.00000000E+00  0.00000000E+00  0.00000000E+00
  0.00000000E+00  0.00000000E+00  0.00000000E+00
  0.00000000E+00  0.00000000E+00  0.00000000E+00
  0.00000000E+00  0.00000000E+00  0.00000000E+00
  0.00000000E+00  0.00000000E+00  0.00000000E+00
  0.00000000E+00  0.00000000E+00  0.00000000E+00
  0.00000000E+00  0.00000000E+00  0.00000000E+00
  0.00000000E+00  0.00000000E+00  0.00000000E+00
  0.00000000E+00  0.00000000E+00  0.00000000E+00
  0.00000000E+00  0.00000000E+00  0.00000000E+00
  0.00000000E+00  0.00000000E+00  0.00000000E+00
  0.00000000E+00  0.00000000E+00  0.00000000E+00
  0.00000000E+00  0.00000000E+00  0.00000000E+00
  0.00000000E+00  0.00000000E+00  0.00000000E+00
  0.00000000E+00  0.00000000E+00  0.00000000E+00
  0.00000000E+00  0.00000000E+00  0.00000000E+00
  0.00000000E+00  0.00000000E+00  0.00000000E+00
  0.00000000E+00  0.00000000E+00  0.00000000E+00
  0.00000000E+00  0.00000000E+00  0.00000000E+00
  0.00000000E+00  0.00000000E+00  0.00000000E+00
  0.00000000E+00  0.00000000E+00  0.00000000E+00
  0.00000000E+00  0.00000000E+00  0.00000000E+00
  0.00000000E+00  0.00000000E+00  0.00000000E+00
  0.00000000E+00  0.00000000E+00  0.00000000E+00
  0.00000000E+00  0.00000000E+00  0.00000000E+00
  0.00000000E+00  0.00000000E+00  0.00000000E+00
  0.00000000E+00  0.00000000E+00  0.00000000E+00
  0.00000000E+00  0.00000000E+00  0.00000000E+00
  0.00000000E+00  0.00000000E+00  0.00000000E+00
  0.00000000E+00  0.00000000E+00  0.00000000E+00
  0.00000000E+00  0.00000000E+00  0.00000000E+00
  0.00000000E+00  0.00000000E+00  0.00000000E+00
  0.00000000E+00  0.00000000E+00  0.00000000E+00
  0.00000000E+00  0.00000000E+00  0.00000000E+00
  0.00000000E+00  0.00000000E+00  0.00000000E+00
  0.00000000E+00  0.00000000E+00  0.00000000E+00
  0.00000000E+00  0.00000000E+00  0.00000000E+00
  0.00000000E+00  0.00000000E+00  0.00000000E+00
  0.00000000E+00  0.00000000E+00  0.00000000E+00
  0.00000000E+00  0.00000000E+00  0.00000000E+00
