Al   Sc   N    O                        
   1.00000000000000     
   -10.0168871661271677    0.0107312837194468   -0.0001392729343214
    -5.0046983821940794    8.7056800787561333    0.0007028274312451
    -0.0311685424770477    0.1295219365551546   -9.9482873806854446
   Al   Sc   N    O 
    23    13    35     1
Direct
  0.1100119299267632  0.0871744633164369  0.3314022496775308
  0.2262828328712629  0.2022721435263932  0.1398358385708889
  0.7716354099053078  0.1022314237017099  0.8219713633233781
  0.8934752099439649  0.2025756058394137  0.5832257534544638
  0.5541992259798150  0.2131309133043970  0.0722532075097675
  0.2225481516648955  0.2097078154158041  0.6347238459271054
  0.8776560076745952  0.2101411233631083  0.0794242452560496
  0.5520909305302482  0.2158745439587832  0.5849351745057021
  0.2325540212056438  0.5370270794163048  0.1394439537228536
  0.4354561097035017  0.4446184410266483  0.3912947099366448
  0.5517194147728404  0.5375047645492543  0.1351852064465788
  0.2265698304999759  0.5389618960513047  0.6353876313155382
  0.8872253488273287  0.5352054462697708  0.1411555906494684
  0.4402978439700433  0.4406657268062091  0.8831046294552323
  0.5511244736424388  0.5400486725351570  0.6361561246630032
  0.1117258232380038  0.7589165324306393  0.3883218453998296
  0.7753329938110696  0.7563386854816727  0.8877685246948772
  0.8855263893887155  0.8709570622011498  0.6416367195557626
  0.4463436352859489  0.7551460766996030  0.3847224361726447
  0.5536489492921248  0.8631638247322471  0.1272485908050598
  0.1210649766776299  0.7526451215934102  0.8776597580977352
  0.4484565625660863  0.7512385688569481  0.8825483253516424
  0.5624209858929063  0.8630104116057069  0.6388332027574251
  0.4442698475438505  0.0838595205892929  0.3829575638712726
  0.1085064516605740  0.0911523987382949  0.8607516663808781
  0.7766224379805564  0.0960511627870275  0.3435097723317782
  0.4583245576238397  0.0852395975027846  0.8601904859749894
  0.1260508950609136  0.4228101566620666  0.3704698924617418
  0.7671643162167427  0.4359263811785041  0.8703264371779937
  0.8904463195914900  0.5427752225189764  0.6193244239325253
  0.1143366687493526  0.4399018022145356  0.8900558719253695
  0.7684946682097191  0.4254968305619684  0.3683543556600455
  0.2316557990423505  0.8569139046929024  0.1268557177458618
  0.2243327049636790  0.8711943191033100  0.6142430943031201
  0.7761984091629444  0.7682167957056762  0.3673637519205002
  0.8893942997653710  0.8743408937948089  0.1019824406647771
  0.2185953802734275  0.1898185080138859  0.3300221367272016
  0.1009832412602165  0.1058830578765466  0.1088034249083520
  0.8752314901222249  0.1970263777565080  0.8866235019376703
  0.7766583346000360  0.0973225080854832  0.6253739473309210
  0.5394804397432438  0.2271728006910010  0.3888792393008842
  0.4438842064619806  0.0924543372507429  0.0861650512077716
  0.1023092530215450  0.1141225761900699  0.6359190553120726
  0.9123642159961136  0.1890161475974139  0.3912723998036896
  0.7592407688151610  0.1202194345617329  0.1290267356631603
  0.5621722742788933  0.2193945949495131  0.8700128769255429
  0.4442378485457184  0.0909253070504761  0.6126975677925088
  0.2324444274218109  0.5547620710248466  0.3278903164471814
  0.1165806416324671  0.4247931773427496  0.1075947479833061
  0.8879593025281878  0.5536759914317742  0.8317993872157885
  0.7665843908140602  0.4205063405802747  0.6000481424269353
  0.5307010397559679  0.5514118672886354  0.3246008460979937
  0.4413328309360480  0.4330476356198147  0.0783738688480469
  0.2330821058983261  0.5461917387461028  0.8239816403770277
  0.1356737806723132  0.4174119465390262  0.5893922530622646
  0.8913789362809652  0.5362332064653401  0.3370007875479857
  0.7754463146930135  0.4284094987391143  0.1045259172083632
  0.5352761870166987  0.5491367393951663  0.8255101148121540
  0.4386631479064604  0.4413696417708977  0.5856836054562393
  0.2236969833379803  0.8694883817170052  0.3556121418945892
  0.1256413451887539  0.7350566828898550  0.0655509404368146
  0.8853997481066287  0.8723530127989250  0.8443283089712068
  0.7662964449625846  0.7871521672943942  0.5811227886474057
  0.5436252856123858  0.8588193866135256  0.3155255630432876
  0.4636087520582350  0.7452630054727649  0.0717692030129129
  0.2336697807419412  0.8542647105307140  0.8391394725262913
  0.0957033413008688  0.7528197533204519  0.5823187418245794
  0.9145423516584188  0.8604345405042935  0.3160789043309649
  0.7702143882849057  0.7483605384528573  0.0829688832214188
  0.5670965188309012  0.8456154554926485  0.8297493073942874
  0.4686886236055443  0.7499627324961224  0.5754512105377074
  0.2241750817632990  0.2147742378980126  0.8288515170565915
 
  0.00000000E+00  0.00000000E+00  0.00000000E+00
  0.00000000E+00  0.00000000E+00  0.00000000E+00
  0.00000000E+00  0.00000000E+00  0.00000000E+00
  0.00000000E+00  0.00000000E+00  0.00000000E+00
  0.00000000E+00  0.00000000E+00  0.00000000E+00
  0.00000000E+00  0.00000000E+00  0.00000000E+00
  0.00000000E+00  0.00000000E+00  0.00000000E+00
  0.00000000E+00  0.00000000E+00  0.00000000E+00
  0.00000000E+00  0.00000000E+00  0.00000000E+00
  0.00000000E+00  0.00000000E+00  0.00000000E+00
  0.00000000E+00  0.00000000E+00  0.00000000E+00
  0.00000000E+00  0.00000000E+00  0.00000000E+00
  0.00000000E+00  0.00000000E+00  0.00000000E+00
  0.00000000E+00  0.00000000E+00  0.00000000E+00
  0.00000000E+00  0.00000000E+00  0.00000000E+00
  0.00000000E+00  0.00000000E+00  0.00000000E+00
  0.00000000E+00  0.00000000E+00  0.00000000E+00
  0.00000000E+00  0.00000000E+00  0.00000000E+00
  0.00000000E+00  0.00000000E+00  0.00000000E+00
  0.00000000E+00  0.00000000E+00  0.00000000E+00
  0.00000000E+00  0.00000000E+00  0.00000000E+00
  0.00000000E+00  0.00000000E+00  0.00000000E+00
  0.00000000E+00  0.00000000E+00  0.00000000E+00
  0.00000000E+00  0.00000000E+00  0.00000000E+00
  0.00000000E+00  0.00000000E+00  0.00000000E+00
  0.00000000E+00  0.00000000E+00  0.00000000E+00
  0.00000000E+00  0.00000000E+00  0.00000000E+00
  0.00000000E+00  0.00000000E+00  0.00000000E+00
  0.00000000E+00  0.00000000E+00  0.00000000E+00
  0.00000000E+00  0.00000000E+00  0.00000000E+00
  0.00000000E+00  0.00000000E+00  0.00000000E+00
  0.00000000E+00  0.00000000E+00  0.00000000E+00
  0.00000000E+00  0.00000000E+00  0.00000000E+00
  0.00000000E+00  0.00000000E+00  0.00000000E+00
  0.00000000E+00  0.00000000E+00  0.00000000E+00
  0.00000000E+00  0.00000000E+00  0.00000000E+00
  0.00000000E+00  0.00000000E+00  0.00000000E+00
  0.00000000E+00  0.00000000E+00  0.00000000E+00
  0.00000000E+00  0.00000000E+00  0.00000000E+00
  0.00000000E+00  0.00000000E+00  0.00000000E+00
  0.00000000E+00  0.00000000E+00  0.00000000E+00
  0.00000000E+00  0.00000000E+00  0.00000000E+00
  0.00000000E+00  0.00000000E+00  0.00000000E+00
  0.00000000E+00  0.00000000E+00  0.00000000E+00
  0.00000000E+00  0.00000000E+00  0.00000000E+00
  0.00000000E+00  0.00000000E+00  0.00000000E+00
  0.00000000E+00  0.00000000E+00  0.00000000E+00
  0.00000000E+00  0.00000000E+00  0.00000000E+00
  0.00000000E+00  0.00000000E+00  0.00000000E+00
  0.00000000E+00  0.00000000E+00  0.00000000E+00
  0.00000000E+00  0.00000000E+00  0.00000000E+00
  0.00000000E+00  0.00000000E+00  0.00000000E+00
  0.00000000E+00  0.00000000E+00  0.00000000E+00
  0.00000000E+00  0.00000000E+00  0.00000000E+00
  0.00000000E+00  0.00000000E+00  0.00000000E+00
  0.00000000E+00  0.00000000E+00  0.00000000E+00
  0.00000000E+00  0.00000000E+00  0.00000000E+00
  0.00000000E+00  0.00000000E+00  0.00000000E+00
  0.00000000E+00  0.00000000E+00  0.00000000E+00
  0.00000000E+00  0.00000000E+00  0.00000000E+00
  0.00000000E+00  0.00000000E+00  0.00000000E+00
  0.00000000E+00  0.00000000E+00  0.00000000E+00
  0.00000000E+00  0.00000000E+00  0.00000000E+00
  0.00000000E+00  0.00000000E+00  0.00000000E+00
  0.00000000E+00  0.00000000E+00  0.00000000E+00
  0.00000000E+00  0.00000000E+00  0.00000000E+00
  0.00000000E+00  0.00000000E+00  0.00000000E+00
  0.00000000E+00  0.00000000E+00  0.00000000E+00
  0.00000000E+00  0.00000000E+00  0.00000000E+00
  0.00000000E+00  0.00000000E+00  0.00000000E+00
  0.00000000E+00  0.00000000E+00  0.00000000E+00
  0.00000000E+00  0.00000000E+00  0.00000000E+00
