Al   Sc   N    O                        
   1.00000000000000     
   -10.0270618326567753    0.0107268130129313   -0.0001019550805475
    -5.0087367481012839    8.7162435053263891    0.0007326742481737
    -0.0271694407216750    0.1330225028929508   -9.9130289873886301
   Al   Sc   N    O 
    23    13    35     1
Direct
  0.1093244749569777  0.0873674405027884  0.3254470776977527
  0.2267466583721784  0.2030011126737392  0.1393080331179064
  0.7719360844719034  0.1020608827138716  0.8215277233590683
  0.8941612497576372  0.2026466964950799  0.5825536766377439
  0.5542676053780937  0.2132300898041706  0.0728272757110062
  0.2223216902468721  0.2097242974787434  0.6349971723228052
  0.8767927651975569  0.2102256997188121  0.0804290348112957
  0.5515514083496953  0.2161999723282833  0.5852676185620211
  0.2323823692333349  0.5366643579923505  0.1389691965040427
  0.4355232539030212  0.4443144589779919  0.3907843134934055
  0.5519017170059399  0.5372269946358230  0.1348815677592867
  0.2266730648129567  0.5395580915940599  0.6348675509949118
  0.8877687404784780  0.5348951462105447  0.1407829230798043
  0.4405443703605911  0.4405805781758332  0.8825000116033763
  0.5509173182425968  0.5401891242921053  0.6352889918813958
  0.1121644621555831  0.7590256758333851  0.3873407390808481
  0.7753809929079125  0.7562855311163688  0.8875996051715731
  0.8855747495232791  0.8709211132851848  0.6407284201850274
  0.4456546167207378  0.7553804204692938  0.3839131361866208
  0.5538638392256345  0.8628897571685670  0.1269337234597501
  0.1207959667517500  0.7528183320632564  0.8770741877278923
  0.4492048141086329  0.7509522199457805  0.8817526770463147
  0.5622485221204343  0.8632039723267297  0.6382337426502644
  0.4440778418716391  0.0839251124397933  0.3820239845286437
  0.1082803490195658  0.0916153888315989  0.8615805281411042
  0.7768128018290952  0.0954374032671552  0.3456683070266848
  0.4587927100806155  0.0852214165872667  0.8598452654337976
  0.1263351493926734  0.4223865321539932  0.3709962330545764
  0.7674984093321626  0.4350870659268296  0.8692383615418890
  0.8896940424997908  0.5431054869551133  0.6181364443656179
  0.1141019140087778  0.4403887373100446  0.8880371294136822
  0.7688161065306076  0.4248653322007954  0.3669495055472183
  0.2325156674132032  0.8556369944499806  0.1241204508116525
  0.2236238053965351  0.8726911552048620  0.6136412136081404
  0.7760979839284303  0.7680079586788295  0.3660851765372968
  0.8892533900416879  0.8748877841561224  0.1020493159276938
  0.2183297738355137  0.1899576595172690  0.3301392325823826
  0.1005929640097492  0.1058136479037941  0.1106971171201678
  0.8752790533465671  0.1964699009391779  0.8873287754124348
  0.7769847786142208  0.0972496818816353  0.6240275424546411
  0.5390543769739224  0.2272662280208309  0.3884972782124407
  0.4442250091713191  0.0924408990664531  0.0865770948938476
  0.1016677795063217  0.1149682295656191  0.6376531020776852
  0.9132912248346869  0.1885899194590834  0.3900904819899509
  0.7587958358894156  0.1202757456583043  0.1300234667481135
  0.5624805700632507  0.2194701951526312  0.8691967254855868
  0.4438154961478773  0.0911038750660111  0.6128562266248494
  0.2323242693165071  0.5544240327639045  0.3281158549818670
  0.1165458690020458  0.4247347042705485  0.1066633227436071
  0.8871906876170996  0.5538796986246197  0.8316353098676217
  0.7664651825134001  0.4202281414993720  0.5999241146752894
  0.5307265493835089  0.5512782747117555  0.3249040800874994
  0.4413533573080315  0.4329024711650575  0.0784216193697134
  0.2333506307494062  0.5466619670921986  0.8239522155367567
  0.1353481880958185  0.4177512958916907  0.5909605506525395
  0.8918200038525015  0.5357875949620521  0.3378264911054174
  0.7756364273440113  0.4282004374332544  0.1051841195778351
  0.5356271143804605  0.5489864024771265  0.8253661185548253
  0.4386238068512327  0.4412579796140008  0.5857782420310897
  0.2235680062603436  0.8695775196140190  0.3536894756804401
  0.1250920096257317  0.7346545182597524  0.0656091187357646
  0.8852423150750610  0.8724644108429516  0.8440177291217097
  0.7660211381050033  0.7873928799627379  0.5806495206972784
  0.5434157982918606  0.8587275584727223  0.3156826099914056
  0.4647054507971262  0.7444617996471905  0.0715544048481291
  0.2337040189081208  0.8547211608033365  0.8407815039603506
  0.0960845243861144  0.7534267405727988  0.5823579756500976
  0.9144709814965069  0.8603947997953725  0.3166254210577293
  0.7705701317226641  0.7483640739941464  0.0836873173300532
  0.5672739078655695  0.8458287822144612  0.8298378804667053
  0.4677923402924336  0.7505040412934605  0.5755933343705237
  0.2246742182913195  0.2143619999861031  0.8303168989289844
 
  0.00000000E+00  0.00000000E+00  0.00000000E+00
  0.00000000E+00  0.00000000E+00  0.00000000E+00
  0.00000000E+00  0.00000000E+00  0.00000000E+00
  0.00000000E+00  0.00000000E+00  0.00000000E+00
  0.00000000E+00  0.00000000E+00  0.00000000E+00
  0.00000000E+00  0.00000000E+00  0.00000000E+00
  0.00000000E+00  0.00000000E+00  0.00000000E+00
  0.00000000E+00  0.00000000E+00  0.00000000E+00
  0.00000000E+00  0.00000000E+00  0.00000000E+00
  0.00000000E+00  0.00000000E+00  0.00000000E+00
  0.00000000E+00  0.00000000E+00  0.00000000E+00
  0.00000000E+00  0.00000000E+00  0.00000000E+00
  0.00000000E+00  0.00000000E+00  0.00000000E+00
  0.00000000E+00  0.00000000E+00  0.00000000E+00
  0.00000000E+00  0.00000000E+00  0.00000000E+00
  0.00000000E+00  0.00000000E+00  0.00000000E+00
  0.00000000E+00  0.00000000E+00  0.00000000E+00
  0.00000000E+00  0.00000000E+00  0.00000000E+00
  0.00000000E+00  0.00000000E+00  0.00000000E+00
  0.00000000E+00  0.00000000E+00  0.00000000E+00
  0.00000000E+00  0.00000000E+00  0.00000000E+00
  0.00000000E+00  0.00000000E+00  0.00000000E+00
  0.00000000E+00  0.00000000E+00  0.00000000E+00
  0.00000000E+00  0.00000000E+00  0.00000000E+00
  0.00000000E+00  0.00000000E+00  0.00000000E+00
  0.00000000E+00  0.00000000E+00  0.00000000E+00
  0.00000000E+00  0.00000000E+00  0.00000000E+00
  0.00000000E+00  0.00000000E+00  0.00000000E+00
  0.00000000E+00  0.00000000E+00  0.00000000E+00
  0.00000000E+00  0.00000000E+00  0.00000000E+00
  0.00000000E+00  0.00000000E+00  0.00000000E+00
  0.00000000E+00  0.00000000E+00  0.00000000E+00
  0.00000000E+00  0.00000000E+00  0.00000000E+00
  0.00000000E+00  0.00000000E+00  0.00000000E+00
  0.00000000E+00  0.00000000E+00  0.00000000E+00
  0.00000000E+00  0.00000000E+00  0.00000000E+00
  0.00000000E+00  0.00000000E+00  0.00000000E+00
  0.00000000E+00  0.00000000E+00  0.00000000E+00
  0.00000000E+00  0.00000000E+00  0.00000000E+00
  0.00000000E+00  0.00000000E+00  0.00000000E+00
  0.00000000E+00  0.00000000E+00  0.00000000E+00
  0.00000000E+00  0.00000000E+00  0.00000000E+00
  0.00000000E+00  0.00000000E+00  0.00000000E+00
  0.00000000E+00  0.00000000E+00  0.00000000E+00
  0.00000000E+00  0.00000000E+00  0.00000000E+00
  0.00000000E+00  0.00000000E+00  0.00000000E+00
  0.00000000E+00  0.00000000E+00  0.00000000E+00
  0.00000000E+00  0.00000000E+00  0.00000000E+00
  0.00000000E+00  0.00000000E+00  0.00000000E+00
  0.00000000E+00  0.00000000E+00  0.00000000E+00
  0.00000000E+00  0.00000000E+00  0.00000000E+00
  0.00000000E+00  0.00000000E+00  0.00000000E+00
  0.00000000E+00  0.00000000E+00  0.00000000E+00
  0.00000000E+00  0.00000000E+00  0.00000000E+00
  0.00000000E+00  0.00000000E+00  0.00000000E+00
  0.00000000E+00  0.00000000E+00  0.00000000E+00
  0.00000000E+00  0.00000000E+00  0.00000000E+00
  0.00000000E+00  0.00000000E+00  0.00000000E+00
  0.00000000E+00  0.00000000E+00  0.00000000E+00
  0.00000000E+00  0.00000000E+00  0.00000000E+00
  0.00000000E+00  0.00000000E+00  0.00000000E+00
  0.00000000E+00  0.00000000E+00  0.00000000E+00
  0.00000000E+00  0.00000000E+00  0.00000000E+00
  0.00000000E+00  0.00000000E+00  0.00000000E+00
  0.00000000E+00  0.00000000E+00  0.00000000E+00
  0.00000000E+00  0.00000000E+00  0.00000000E+00
  0.00000000E+00  0.00000000E+00  0.00000000E+00
  0.00000000E+00  0.00000000E+00  0.00000000E+00
  0.00000000E+00  0.00000000E+00  0.00000000E+00
  0.00000000E+00  0.00000000E+00  0.00000000E+00
  0.00000000E+00  0.00000000E+00  0.00000000E+00
  0.00000000E+00  0.00000000E+00  0.00000000E+00
