Al   Sc   N    O                        
   1.00000000000000     
    -9.9266619795640878    0.0112690941988550    0.0025845266148921
    -4.9727662079328088    8.6225636305180959   -0.0023480787814757
     0.0025446333551516    0.0058586928466305  -10.0840568520955003
   Al   Sc   N    O 
    23    13    35     1
Direct
  0.1101884678567941  0.0941024603551028  0.4120069049060930
  0.2220327280107028  0.2014886152676354  0.1591551236466131
  0.7711331530951568  0.1026357201623966  0.9027798897152834
  0.8801985100748624  0.2055725238114690  0.6544998106294884
  0.5496379537826783  0.2184357597570852  0.1496533716444830
  0.2253048602402146  0.2082489734387494  0.6441682996872515
  0.8910008807035013  0.2083853262251125  0.1525553076751223
  0.5577777736762002  0.2116551698417979  0.6544631324600729
  0.2325100939072797  0.5394230657433496  0.1551252962042469
  0.4390312094425823  0.4394968805008901  0.4021495873269956
  0.5489081696024840  0.5411530625358054  0.1526884728024598
  0.2282859053974917  0.5348446986384943  0.6513116598349526
  0.8852381442529449  0.5371691421169587  0.1588593322229244
  0.4434199407754491  0.4346860137042015  0.9010327671178970
  0.5536109282753401  0.5351325496117383  0.6531434019417119
  0.1113517004104665  0.7581022745845587  0.4083412979276062
  0.7739141822476725  0.7572596418062929  0.9050302277709932
  0.8832867894409233  0.8751579299058108  0.6635851364631122
  0.4469021312319654  0.7558500001381745  0.4058190799269141
  0.5527907742407905  0.8639979329813414  0.1468255052304528
  0.1223245473737009  0.7529262356727813  0.8961570925009426
  0.4458841954846093  0.7519286098938238  0.9001354212902726
  0.5608029127821794  0.8656906377535236  0.6575654111694860
  0.4465456641664431  0.0904592609807651  0.3984062482455641
  0.1099606400169506  0.0887421840438805  0.8868857480162120
  0.7814102130900693  0.0920773465001048  0.3946800861516522
  0.4560920245735858  0.0884282127130831  0.8903343883010706
  0.1232237749474550  0.4257125064271108  0.3858145406420945
  0.7686443054991869  0.4307074972976466  0.9024133912269150
  0.8892122277480254  0.5404297553659134  0.6418164333608303
  0.1151483861118834  0.4356537025028189  0.9082643383404445
  0.7682616975194207  0.4240933805154725  0.3902137723105454
  0.2258337656121583  0.8702337004438903  0.1598555903655665
  0.2268204266561114  0.8639296467914619  0.6314870775777734
  0.7745017106769367  0.7685341812653022  0.3924976833925555
  0.8913896659860114  0.8704253130818316  0.1258163345178005
  0.2176220877495041  0.1883081899774766  0.3457889396440237
  0.1051842094340003  0.1102654995578618  0.0949450649423014
  0.8786391513949141  0.1980438180543871  0.8413332500415081
  0.7780263749451777  0.0909517322558742  0.6078060438554260
  0.5422169082805581  0.2307026988117968  0.3387974280747699
  0.4439514458551983  0.0948436445801946  0.1054817661576024
  0.1004344814661380  0.1156031152893249  0.6063208440255892
  0.9115045240216375  0.1901890174073131  0.3394960350442204
  0.7656119902896563  0.1188253110206219  0.0945049336776762
  0.5599936342163900  0.2211271825585044  0.8439906762889109
  0.4471587519274394  0.0914920813863773  0.6197493535209802
  0.2325764790643916  0.5555231476646725  0.3417267659792458
  0.1157909066090994  0.4263302241595142  0.1236300329408877
  0.8865693472282103  0.5501465047484970  0.8512648496233624
  0.7671051622224496  0.4169486398131141  0.6060077000092292
  0.5299983994215225  0.5536090744676869  0.3391507470384312
  0.4434100990459982  0.4302987448830748  0.0908221419382329
  0.2337655241923358  0.5431525809277318  0.8392658510485447
  0.1339184173954209  0.4172714178218300  0.6017776761598697
  0.8880753927363330  0.5382466900190579  0.3499757020133814
  0.7743680733502174  0.4283477960857667  0.1194131984377051
  0.5375448555289282  0.5461101411227105  0.8409590034858212
  0.4444911315306399  0.4290562042434445  0.5931905994981861
  0.2216315252636818  0.8720599925835089  0.3832290056690510
  0.1295954272549125  0.7400951951110599  0.0827031126942970
  0.8848784601392836  0.8740229146395961  0.8625510714741083
  0.7677912552709216  0.7838579789904614  0.6032769212537161
  0.5417162926151704  0.8620535998324215  0.3334283939625635
  0.4569211535853768  0.7502382749243282  0.0883270613377150
  0.2330687558230906  0.8541045477068394  0.8457863665841501
  0.0954647911221258  0.7488336206307054  0.5988036585318710
  0.9116096514097194  0.8625585651781691  0.3339299573973946
  0.7683247887024507  0.7485925860237401  0.0971931523074190
  0.5629005020092990  0.8504142634725014  0.8467612402204949
  0.4724118008062987  0.7457575940132273  0.5931089759726191
  0.2229801798049635  0.2098407709690449  0.8321720155570489
 
  0.00000000E+00  0.00000000E+00  0.00000000E+00
  0.00000000E+00  0.00000000E+00  0.00000000E+00
  0.00000000E+00  0.00000000E+00  0.00000000E+00
  0.00000000E+00  0.00000000E+00  0.00000000E+00
  0.00000000E+00  0.00000000E+00  0.00000000E+00
  0.00000000E+00  0.00000000E+00  0.00000000E+00
  0.00000000E+00  0.00000000E+00  0.00000000E+00
  0.00000000E+00  0.00000000E+00  0.00000000E+00
  0.00000000E+00  0.00000000E+00  0.00000000E+00
  0.00000000E+00  0.00000000E+00  0.00000000E+00
  0.00000000E+00  0.00000000E+00  0.00000000E+00
  0.00000000E+00  0.00000000E+00  0.00000000E+00
  0.00000000E+00  0.00000000E+00  0.00000000E+00
  0.00000000E+00  0.00000000E+00  0.00000000E+00
  0.00000000E+00  0.00000000E+00  0.00000000E+00
  0.00000000E+00  0.00000000E+00  0.00000000E+00
  0.00000000E+00  0.00000000E+00  0.00000000E+00
  0.00000000E+00  0.00000000E+00  0.00000000E+00
  0.00000000E+00  0.00000000E+00  0.00000000E+00
  0.00000000E+00  0.00000000E+00  0.00000000E+00
  0.00000000E+00  0.00000000E+00  0.00000000E+00
  0.00000000E+00  0.00000000E+00  0.00000000E+00
  0.00000000E+00  0.00000000E+00  0.00000000E+00
  0.00000000E+00  0.00000000E+00  0.00000000E+00
  0.00000000E+00  0.00000000E+00  0.00000000E+00
  0.00000000E+00  0.00000000E+00  0.00000000E+00
  0.00000000E+00  0.00000000E+00  0.00000000E+00
  0.00000000E+00  0.00000000E+00  0.00000000E+00
  0.00000000E+00  0.00000000E+00  0.00000000E+00
  0.00000000E+00  0.00000000E+00  0.00000000E+00
  0.00000000E+00  0.00000000E+00  0.00000000E+00
  0.00000000E+00  0.00000000E+00  0.00000000E+00
  0.00000000E+00  0.00000000E+00  0.00000000E+00
  0.00000000E+00  0.00000000E+00  0.00000000E+00
  0.00000000E+00  0.00000000E+00  0.00000000E+00
  0.00000000E+00  0.00000000E+00  0.00000000E+00
  0.00000000E+00  0.00000000E+00  0.00000000E+00
  0.00000000E+00  0.00000000E+00  0.00000000E+00
  0.00000000E+00  0.00000000E+00  0.00000000E+00
  0.00000000E+00  0.00000000E+00  0.00000000E+00
  0.00000000E+00  0.00000000E+00  0.00000000E+00
  0.00000000E+00  0.00000000E+00  0.00000000E+00
  0.00000000E+00  0.00000000E+00  0.00000000E+00
  0.00000000E+00  0.00000000E+00  0.00000000E+00
  0.00000000E+00  0.00000000E+00  0.00000000E+00
  0.00000000E+00  0.00000000E+00  0.00000000E+00
  0.00000000E+00  0.00000000E+00  0.00000000E+00
  0.00000000E+00  0.00000000E+00  0.00000000E+00
  0.00000000E+00  0.00000000E+00  0.00000000E+00
  0.00000000E+00  0.00000000E+00  0.00000000E+00
  0.00000000E+00  0.00000000E+00  0.00000000E+00
  0.00000000E+00  0.00000000E+00  0.00000000E+00
  0.00000000E+00  0.00000000E+00  0.00000000E+00
  0.00000000E+00  0.00000000E+00  0.00000000E+00
  0.00000000E+00  0.00000000E+00  0.00000000E+00
  0.00000000E+00  0.00000000E+00  0.00000000E+00
  0.00000000E+00  0.00000000E+00  0.00000000E+00
  0.00000000E+00  0.00000000E+00  0.00000000E+00
  0.00000000E+00  0.00000000E+00  0.00000000E+00
  0.00000000E+00  0.00000000E+00  0.00000000E+00
  0.00000000E+00  0.00000000E+00  0.00000000E+00
  0.00000000E+00  0.00000000E+00  0.00000000E+00
  0.00000000E+00  0.00000000E+00  0.00000000E+00
  0.00000000E+00  0.00000000E+00  0.00000000E+00
  0.00000000E+00  0.00000000E+00  0.00000000E+00
  0.00000000E+00  0.00000000E+00  0.00000000E+00
  0.00000000E+00  0.00000000E+00  0.00000000E+00
  0.00000000E+00  0.00000000E+00  0.00000000E+00
  0.00000000E+00  0.00000000E+00  0.00000000E+00
  0.00000000E+00  0.00000000E+00  0.00000000E+00
  0.00000000E+00  0.00000000E+00  0.00000000E+00
  0.00000000E+00  0.00000000E+00  0.00000000E+00
