Al   Sc   N    O                        
   1.00000000000000     
    -9.9266657728476151    0.0112787774388794    0.0026479588907821
    -4.9727608712341960    8.6225721437482115   -0.0024019336696673
     0.0024824087801187    0.0057555695715308  -10.0840487958604363
   Al   Sc   N    O 
    23    13    35     1
Direct
  0.1101910929062981  0.0940983664543182  0.4128587445538727
  0.2220353636010017  0.2014842907631120  0.1600044962332063
  0.7711358893392983  0.1026314364665097  0.9036305402453095
  0.8802010046154649  0.2055685369634475  0.6553515786639679
  0.5496410731851284  0.2184314201184563  0.1505034532639513
  0.2253079107364400  0.2082443923923307  0.6450192930263086
  0.8910039404055752  0.2083804208172211  0.1534052509346822
  0.5577804457812903  0.2116506370682600  0.6553146223282198
  0.2325129300702997  0.5394182940663228  0.1559763652023776
  0.4390344336326777  0.4394921361177424  0.4029991985207317
  0.5489104562396108  0.5411490604218514  0.1535378537483609
  0.2282885367752598  0.5348406675484085  0.6521604096642832
  0.8852416792609716  0.5371641600219874  0.1597087438931055
  0.4434223935585422  0.4346818888581367  0.9018821230129888
  0.5536139725468558  0.5351277512842501  0.6539936080077595
  0.1113542152047913  0.7580980521882381  0.4091908542071536
  0.7739165576612024  0.7572552585183203  0.9058824066146727
  0.8832894793592274  0.8751530730846611  0.6644358747683228
  0.4469048465726502  0.7558453126616129  0.4066710104430342
  0.5527931479116361  0.8639935176644471  0.1476772207042387
  0.1223279431331648  0.7529215073665796  0.8970080678239398
  0.4458871646833131  0.7519243173363179  0.9009850114486042
  0.5608059516594182  0.8656863184700967  0.6584152516492452
  0.4465483158754893  0.0904553140725071  0.3992563794583290
  0.1099637576522028  0.0887373843484198  0.8877362464507215
  0.7814133128748111  0.0920728486106555  0.3955319943821252
  0.4560952324226548  0.0884232968691805  0.8911856635942357
  0.1232264283972953  0.4257075732955684  0.3866657926072463
  0.7686471366725058  0.4307034607886209  0.9032647642723930
  0.8892140374527742  0.5404260804544876  0.6426662796242510
  0.1151511602687307  0.4356499021717468  0.9091135709160696
  0.7682643760194665  0.4240887401438016  0.3910632165395640
  0.2258370978649111  0.8702292802711611  0.1607077935454129
  0.2268227623641010  0.8639248883271335  0.6323384777348124
  0.7745047070958293  0.7685299327752020  0.3933461270093801
  0.8913928052998088  0.8704213172349355  0.1266662328171790
  0.2176246379003075  0.1883037129926279  0.3466389165033590
  0.1051873068437601  0.1102605467377771  0.0957953014492645
  0.8786419191322210  0.1980398721870955  0.8421848341789584
  0.7780292691527251  0.0909472784486312  0.6086580768113308
  0.5422204208538375  0.2306980308760345  0.3396476333789451
  0.4439545400805684  0.0948388700148897  0.1063327137192829
  0.1004372372426658  0.1155987021158680  0.6071724744096656
  0.9115075798966643  0.1901841428613125  0.3403466609581116
  0.7656147951803689  0.1188210166100419  0.0953551904164556
  0.5599961976405297  0.2211227542442344  0.8448418408751905
  0.4471615024554296  0.0914878287778933  0.6205998072169407
  0.2325791510177950  0.5555181732590810  0.3425779119669059
  0.1157939113548423  0.4263256120973367  0.1244792249316120
  0.8865715331203177  0.5501427467695663  0.8521150235013764
  0.7671080079302399  0.4169439928124063  0.6068576634225451
  0.5300006472165890  0.5536051570329406  0.3400007002579883
  0.4434125608737745  0.4302943806649111  0.0916718895906143
  0.2337683359850686  0.5431486908153929  0.8401150159501753
  0.1339206611176564  0.4172669856813016  0.6026289437176260
  0.8880784994818285  0.5382418230002628  0.3508256214207606
  0.7743709053680163  0.4283432330274408  0.1202639742619027
  0.5375480112524400  0.5461055292473276  0.8418094895342847
  0.4444942608138547  0.4290513736327881  0.5940406135416794
  0.2216342765006942  0.8720556726957369  0.3840807199506813
  0.1295990337717186  0.7400905505211242  0.0835543326365027
  0.8848811737644766  0.8740182623575521  0.8634021162292171
  0.7677938523247789  0.7838540106501739  0.6041257967074856
  0.5417183757236401  0.8620492433016196  0.3342801375343356
  0.4569239048239311  0.7502342740191352  0.0891768876444843
  0.2330715843251738  0.8540999463542320  0.8466368798148523
  0.0954669615573280  0.7488293669015249  0.5996533435192006
  0.9116123950554567  0.8625548498600963  0.3347798969302005
  0.7683273858537447  0.7485884345691716  0.0980449948241073
  0.5629036976038151  0.8504098047277182  0.8476112217257210
  0.4724144594702793  0.7457529603933395  0.5939606039956544
  0.2229834883267472  0.2098360780530228  0.8330230584619187
 
  0.00000000E+00  0.00000000E+00  0.00000000E+00
  0.00000000E+00  0.00000000E+00  0.00000000E+00
  0.00000000E+00  0.00000000E+00  0.00000000E+00
  0.00000000E+00  0.00000000E+00  0.00000000E+00
  0.00000000E+00  0.00000000E+00  0.00000000E+00
  0.00000000E+00  0.00000000E+00  0.00000000E+00
  0.00000000E+00  0.00000000E+00  0.00000000E+00
  0.00000000E+00  0.00000000E+00  0.00000000E+00
  0.00000000E+00  0.00000000E+00  0.00000000E+00
  0.00000000E+00  0.00000000E+00  0.00000000E+00
  0.00000000E+00  0.00000000E+00  0.00000000E+00
  0.00000000E+00  0.00000000E+00  0.00000000E+00
  0.00000000E+00  0.00000000E+00  0.00000000E+00
  0.00000000E+00  0.00000000E+00  0.00000000E+00
  0.00000000E+00  0.00000000E+00  0.00000000E+00
  0.00000000E+00  0.00000000E+00  0.00000000E+00
  0.00000000E+00  0.00000000E+00  0.00000000E+00
  0.00000000E+00  0.00000000E+00  0.00000000E+00
  0.00000000E+00  0.00000000E+00  0.00000000E+00
  0.00000000E+00  0.00000000E+00  0.00000000E+00
  0.00000000E+00  0.00000000E+00  0.00000000E+00
  0.00000000E+00  0.00000000E+00  0.00000000E+00
  0.00000000E+00  0.00000000E+00  0.00000000E+00
  0.00000000E+00  0.00000000E+00  0.00000000E+00
  0.00000000E+00  0.00000000E+00  0.00000000E+00
  0.00000000E+00  0.00000000E+00  0.00000000E+00
  0.00000000E+00  0.00000000E+00  0.00000000E+00
  0.00000000E+00  0.00000000E+00  0.00000000E+00
  0.00000000E+00  0.00000000E+00  0.00000000E+00
  0.00000000E+00  0.00000000E+00  0.00000000E+00
  0.00000000E+00  0.00000000E+00  0.00000000E+00
  0.00000000E+00  0.00000000E+00  0.00000000E+00
  0.00000000E+00  0.00000000E+00  0.00000000E+00
  0.00000000E+00  0.00000000E+00  0.00000000E+00
  0.00000000E+00  0.00000000E+00  0.00000000E+00
  0.00000000E+00  0.00000000E+00  0.00000000E+00
  0.00000000E+00  0.00000000E+00  0.00000000E+00
  0.00000000E+00  0.00000000E+00  0.00000000E+00
  0.00000000E+00  0.00000000E+00  0.00000000E+00
  0.00000000E+00  0.00000000E+00  0.00000000E+00
  0.00000000E+00  0.00000000E+00  0.00000000E+00
  0.00000000E+00  0.00000000E+00  0.00000000E+00
  0.00000000E+00  0.00000000E+00  0.00000000E+00
  0.00000000E+00  0.00000000E+00  0.00000000E+00
  0.00000000E+00  0.00000000E+00  0.00000000E+00
  0.00000000E+00  0.00000000E+00  0.00000000E+00
  0.00000000E+00  0.00000000E+00  0.00000000E+00
  0.00000000E+00  0.00000000E+00  0.00000000E+00
  0.00000000E+00  0.00000000E+00  0.00000000E+00
  0.00000000E+00  0.00000000E+00  0.00000000E+00
  0.00000000E+00  0.00000000E+00  0.00000000E+00
  0.00000000E+00  0.00000000E+00  0.00000000E+00
  0.00000000E+00  0.00000000E+00  0.00000000E+00
  0.00000000E+00  0.00000000E+00  0.00000000E+00
  0.00000000E+00  0.00000000E+00  0.00000000E+00
  0.00000000E+00  0.00000000E+00  0.00000000E+00
  0.00000000E+00  0.00000000E+00  0.00000000E+00
  0.00000000E+00  0.00000000E+00  0.00000000E+00
  0.00000000E+00  0.00000000E+00  0.00000000E+00
  0.00000000E+00  0.00000000E+00  0.00000000E+00
  0.00000000E+00  0.00000000E+00  0.00000000E+00
  0.00000000E+00  0.00000000E+00  0.00000000E+00
  0.00000000E+00  0.00000000E+00  0.00000000E+00
  0.00000000E+00  0.00000000E+00  0.00000000E+00
  0.00000000E+00  0.00000000E+00  0.00000000E+00
  0.00000000E+00  0.00000000E+00  0.00000000E+00
  0.00000000E+00  0.00000000E+00  0.00000000E+00
  0.00000000E+00  0.00000000E+00  0.00000000E+00
  0.00000000E+00  0.00000000E+00  0.00000000E+00
  0.00000000E+00  0.00000000E+00  0.00000000E+00
  0.00000000E+00  0.00000000E+00  0.00000000E+00
  0.00000000E+00  0.00000000E+00  0.00000000E+00
