Al   Sc   N    O                        
   1.00000000000000     
   -10.0456119375699533    0.0109204975579752    0.0003009646828518
    -5.0137939628168837    8.7328260807378690   -0.0004093028065800
    -0.0302169958810361    0.0517429376742759   -9.8238534239721886
   Al   Sc   N    O 
    23    13    35     1
Direct
  0.1186461364167997  0.0874439069594786  0.4110287612720072
  0.2182431647054557  0.2012102375629965  0.1527561359168956
  0.7700940941679661  0.1007693957356182  0.8317567761972597
  0.8871891170109834  0.2051440722888316  0.5981097904304278
  0.5483741271983504  0.2168562358339869  0.1285282579981128
  0.2285081016963346  0.2073998560218939  0.6407496491020268
  0.8800636158654669  0.2104364531028438  0.0863042656832889
  0.5501424963523078  0.2161588180548222  0.6198997911480575
  0.2316026812562129  0.5406869627244077  0.1488672920024356
  0.4357873499964739  0.4448406080719494  0.4009470524738177
  0.5491610431574898  0.5406845758209045  0.1442092818229952
  0.2270693791408362  0.5361939351120810  0.6472949539587560
  0.8871994908805902  0.5353750700438837  0.1514237210689444
  0.4425769943900022  0.4348247610208986  0.8934257473345255
  0.5515428380622254  0.5384521431486675  0.6486461262304246
  0.1120203883792925  0.7576912982650654  0.4009282673487107
  0.7744403440383181  0.7569166043051965  0.8987214194277513
  0.8869338733713263  0.8678779186246288  0.6522021775772728
  0.4482518686376906  0.7539645774633001  0.3978145966397904
  0.5533735255257142  0.8623942655438199  0.1393619883554820
  0.1227828168406404  0.7520161713775408  0.8902728151309987
  0.4457821432639761  0.7531553788050331  0.8953207231084761
  0.5625789397657783  0.8636857577466799  0.6496779702289501
  0.4457724433218786  0.0861480374312791  0.3888825000764129
  0.1085518708627120  0.0898445299978050  0.8697125521337199
  0.7808346773813497  0.0935807002357123  0.3622998764470395
  0.4577592584359493  0.0879512922981078  0.8777008634489576
  0.1268554521592264  0.4231896281318868  0.3784042159944079
  0.7664611133113155  0.4366921087793543  0.8765676399750575
  0.8908705344453480  0.5427022310114253  0.6268533586495622
  0.1143508255916856  0.4361757783304370  0.8987823603865479
  0.7684861813911752  0.4242675949237196  0.3747662618678262
  0.2239340830381735  0.8723195432146156  0.1475990901769677
  0.2313640722577190  0.8576797931451594  0.6278401555208433
  0.7761883177468292  0.7683543305796618  0.3769617329779820
  0.8895741813844751  0.8755784460114953  0.1125190829155756
  0.2163093960338571  0.1876275056211583  0.3446122367928126
  0.1028964999352482  0.1111032533107164  0.0917975551923575
  0.8734871416105108  0.1983481045849302  0.8866824494338275
  0.7803500689721545  0.0914150131031448  0.6290326736059413
  0.5380440894395875  0.2309683278648009  0.3780577615855663
  0.4434984893915441  0.0960986227150968  0.1044979660010625
  0.1108851699420725  0.1072926546370496  0.6194746723677653
  0.9099427979586565  0.1922078430015830  0.4023641180744875
  0.7617963958096752  0.1202632086413047  0.1371142417345013
  0.5556956348992372  0.2235131369265204  0.8429860618468510
  0.4465742596725093  0.0884009748500318  0.6176083814415563
  0.2327017441481232  0.5555251760206446  0.3394746018696964
  0.1161622591344482  0.4255025108407935  0.1203059610381700
  0.8880382442790804  0.5543739456956871  0.8432486870476055
  0.7667234329265895  0.4201679788671413  0.6165874503358566
  0.5305587811997228  0.5521975880854697  0.3360477775106645
  0.4427571024507699  0.4298103558996758  0.0897602792057839
  0.2330066955944758  0.5444727029763641  0.8388774181087868
  0.1367948153005756  0.4154799293523226  0.6008770776607548
  0.8914868067429964  0.5358096861532431  0.3517405759982140
  0.7747708846096870  0.4291285332700383  0.1150585216792379
  0.5331140422319365  0.5498324200496398  0.8407596201609877
  0.4391036939356852  0.4399912077154795  0.5952490768454837
  0.2237707840354233  0.8704459851445137  0.3779147159167948
  0.1275561731730903  0.7408160147432810  0.0804677597990775
  0.8843950960522378  0.8729487932023403  0.8571277454949069
  0.7667301571067284  0.7855598950182099  0.5936047339862256
  0.5435213692778476  0.8587492036153392  0.3295410440532862
  0.4569383076682030  0.7503606534951857  0.0866895552412572
  0.2330172028201503  0.8540011030981773  0.8469594001900163
  0.0963932421692277  0.7478331692080289  0.5963018508258884
  0.9155831005584147  0.8597852730686029  0.3291430444503973
  0.7697896298153566  0.7488863461668558  0.0969348303367568
  0.5649662708739598  0.8485786572783027  0.8441064605142401
  0.4729336473811259  0.7458539753746862  0.5898737986201326
  0.2249222244621336  0.2106167415419904  0.8331263263809205
 
  0.00000000E+00  0.00000000E+00  0.00000000E+00
  0.00000000E+00  0.00000000E+00  0.00000000E+00
  0.00000000E+00  0.00000000E+00  0.00000000E+00
  0.00000000E+00  0.00000000E+00  0.00000000E+00
  0.00000000E+00  0.00000000E+00  0.00000000E+00
  0.00000000E+00  0.00000000E+00  0.00000000E+00
  0.00000000E+00  0.00000000E+00  0.00000000E+00
  0.00000000E+00  0.00000000E+00  0.00000000E+00
  0.00000000E+00  0.00000000E+00  0.00000000E+00
  0.00000000E+00  0.00000000E+00  0.00000000E+00
  0.00000000E+00  0.00000000E+00  0.00000000E+00
  0.00000000E+00  0.00000000E+00  0.00000000E+00
  0.00000000E+00  0.00000000E+00  0.00000000E+00
  0.00000000E+00  0.00000000E+00  0.00000000E+00
  0.00000000E+00  0.00000000E+00  0.00000000E+00
  0.00000000E+00  0.00000000E+00  0.00000000E+00
  0.00000000E+00  0.00000000E+00  0.00000000E+00
  0.00000000E+00  0.00000000E+00  0.00000000E+00
  0.00000000E+00  0.00000000E+00  0.00000000E+00
  0.00000000E+00  0.00000000E+00  0.00000000E+00
  0.00000000E+00  0.00000000E+00  0.00000000E+00
  0.00000000E+00  0.00000000E+00  0.00000000E+00
  0.00000000E+00  0.00000000E+00  0.00000000E+00
  0.00000000E+00  0.00000000E+00  0.00000000E+00
  0.00000000E+00  0.00000000E+00  0.00000000E+00
  0.00000000E+00  0.00000000E+00  0.00000000E+00
  0.00000000E+00  0.00000000E+00  0.00000000E+00
  0.00000000E+00  0.00000000E+00  0.00000000E+00
  0.00000000E+00  0.00000000E+00  0.00000000E+00
  0.00000000E+00  0.00000000E+00  0.00000000E+00
  0.00000000E+00  0.00000000E+00  0.00000000E+00
  0.00000000E+00  0.00000000E+00  0.00000000E+00
  0.00000000E+00  0.00000000E+00  0.00000000E+00
  0.00000000E+00  0.00000000E+00  0.00000000E+00
  0.00000000E+00  0.00000000E+00  0.00000000E+00
  0.00000000E+00  0.00000000E+00  0.00000000E+00
  0.00000000E+00  0.00000000E+00  0.00000000E+00
  0.00000000E+00  0.00000000E+00  0.00000000E+00
  0.00000000E+00  0.00000000E+00  0.00000000E+00
  0.00000000E+00  0.00000000E+00  0.00000000E+00
  0.00000000E+00  0.00000000E+00  0.00000000E+00
  0.00000000E+00  0.00000000E+00  0.00000000E+00
  0.00000000E+00  0.00000000E+00  0.00000000E+00
  0.00000000E+00  0.00000000E+00  0.00000000E+00
  0.00000000E+00  0.00000000E+00  0.00000000E+00
  0.00000000E+00  0.00000000E+00  0.00000000E+00
  0.00000000E+00  0.00000000E+00  0.00000000E+00
  0.00000000E+00  0.00000000E+00  0.00000000E+00
  0.00000000E+00  0.00000000E+00  0.00000000E+00
  0.00000000E+00  0.00000000E+00  0.00000000E+00
  0.00000000E+00  0.00000000E+00  0.00000000E+00
  0.00000000E+00  0.00000000E+00  0.00000000E+00
  0.00000000E+00  0.00000000E+00  0.00000000E+00
  0.00000000E+00  0.00000000E+00  0.00000000E+00
  0.00000000E+00  0.00000000E+00  0.00000000E+00
  0.00000000E+00  0.00000000E+00  0.00000000E+00
  0.00000000E+00  0.00000000E+00  0.00000000E+00
  0.00000000E+00  0.00000000E+00  0.00000000E+00
  0.00000000E+00  0.00000000E+00  0.00000000E+00
  0.00000000E+00  0.00000000E+00  0.00000000E+00
  0.00000000E+00  0.00000000E+00  0.00000000E+00
  0.00000000E+00  0.00000000E+00  0.00000000E+00
  0.00000000E+00  0.00000000E+00  0.00000000E+00
  0.00000000E+00  0.00000000E+00  0.00000000E+00
  0.00000000E+00  0.00000000E+00  0.00000000E+00
  0.00000000E+00  0.00000000E+00  0.00000000E+00
  0.00000000E+00  0.00000000E+00  0.00000000E+00
  0.00000000E+00  0.00000000E+00  0.00000000E+00
  0.00000000E+00  0.00000000E+00  0.00000000E+00
  0.00000000E+00  0.00000000E+00  0.00000000E+00
  0.00000000E+00  0.00000000E+00  0.00000000E+00
  0.00000000E+00  0.00000000E+00  0.00000000E+00
