Al   Sc   N    O                        
   1.00000000000000     
   -10.0814251082960595    0.0096528952854297   -0.0100402401176770
    -5.0779408509630031    8.7397960474307883   -0.0067259291505117
    -0.0097332183671169    0.0898457791544174   -9.7452915932375461
   Al   Sc   N    O 
    23    13    35     1
Direct
  0.1102640291808754  0.0939909510230521  0.3067309958734654
  0.2223715385572120  0.2081800362293436  0.0774412913064140
  0.7758301027344743  0.0932551085438575  0.8036092946323521
  0.8908246907705433  0.2072286522132671  0.5641773790457094
  0.5579636002072021  0.2163206854085331  0.0617398407203567
  0.2232003280475183  0.2044223233903537  0.5571295815189004
  0.8798304365274277  0.2086834556698136  0.0626771414070433
  0.5473883618533293  0.2174226573617659  0.5684562550744943
  0.2309780267603898  0.5371957767816085  0.0618498531020890
  0.4391127742679970  0.4383328240996107  0.3124867828791125
  0.5509800248416141  0.5382695306253069  0.0603384343249758
  0.2304356290571619  0.5365669223894614  0.5628996746478805
  0.8833907970792367  0.5440332571920550  0.0509148360422671
  0.4433354603928095  0.4347468350729145  0.8114012303356475
  0.5507712803808360  0.5344075898152241  0.5599780592842194
  0.1189795462152574  0.7561099485762242  0.3146867041408896
  0.7787741860338429  0.7667625571295389  0.8044958494661643
  0.8933016918406551  0.8712682162009102  0.5653556343079629
  0.4387139871973744  0.7563707632504801  0.3296760553024498
  0.5582454394579415  0.8606006300335096  0.1196307064176736
  0.1109985035072469  0.7567293011626006  0.8111529897605507
  0.4463589376003938  0.7511675914164613  0.8192784718681168
  0.5529082962631904  0.8716042028391939  0.6112731768269697
  0.4456044213365331  0.0962660587380597  0.3308152463867060
  0.1071278330014280  0.0931161253325428  0.8324575046198674
  0.7770943694414498  0.1008718581186585  0.3357448772036165
  0.4584386284108533  0.0859254735701640  0.8386583106934964
  0.1174565041660856  0.4314723792713338  0.3183818226668436
  0.7656709101681614  0.4257269473275258  0.8277027517547424
  0.8928800825822449  0.5312783341294747  0.5871448126099139
  0.1235075420991194  0.4309961296737512  0.8286207870706690
  0.7737775441074959  0.4282894370069812  0.3154887846985304
  0.2276804305639644  0.8640258337361360  0.0797097120447248
  0.2182689896813841  0.8744226160961759  0.5751840109008697
  0.7796282448326650  0.7582319870171901  0.3399365138299544
  0.8831939724994200  0.8742241006872646  0.0714748366788598
  0.2132075977997872  0.1962110298766930  0.3590380051829243
  0.1000864441533196  0.1136952357710541  0.1044226361268770
  0.8778890136116644  0.1897618177422160  0.8696000777003263
  0.7783172699915184  0.0947743392787288  0.6036972671660195
  0.5395243527516271  0.2348941792177612  0.3756468678858198
  0.4492790752807068  0.0932860494305956  0.0935321718261903
  0.1031354025405875  0.1176390815777211  0.6175756797962180
  0.9104600469872182  0.1976708173421002  0.3702033434604601
  0.7657463540692788  0.1148704372705609  0.1182520759204877
  0.5637147831343015  0.2190687237813762  0.8622875130332019
  0.4428434894039697  0.0948027315207582  0.6004538444743517
  0.2333471438777366  0.5505515033717074  0.3696705859722158
  0.1124378792666221  0.4289803352985189  0.0896065862926392
  0.8839845192682958  0.5546258841947562  0.8461078451358048
  0.7630274429922110  0.4168317452189285  0.6056582883140322
  0.5365991195130633  0.5465212776509887  0.3644965507134188
  0.4444502859960835  0.4279765207167472  0.1157564997725942
  0.2347792503735704  0.5492366956891459  0.8689166245532221
  0.1406788142342421  0.4126496524817682  0.6067703646742189
  0.8945226624904095  0.5299311292723701  0.3736829062713056
  0.7772855817421132  0.4288347992146413  0.0866608522893060
  0.5341024650952662  0.5460676143458869  0.8669587063469706
  0.4425384859845281  0.4314607506151731  0.6187048241973443
  0.2195065768085200  0.8749807666081821  0.3427726647548113
  0.1180397786205205  0.7395297139111108  0.1198754295796434
  0.8845184784863847  0.8747298283841047  0.8498236056364235
  0.7704854771137164  0.7795903020821981  0.5986995974745710
  0.5427060366546286  0.8629359710185582  0.3265778153030752
  0.4613928818654784  0.7462996522554022  0.1025316048142102
  0.2283761332882932  0.8555644125313577  0.8461610072343220
  0.1036964957452824  0.7475593691080249  0.6176977536736459
  0.9117210053500884  0.8638171912724175  0.3667136495971377
  0.7739169701038477  0.7480274517499623  0.1100270482847279
  0.5639321374168631  0.8507431013632427  0.8207049254006407
  0.4585873629920059  0.7492044749385585  0.6010344506418903
  0.2275671744641485  0.2018874415790890  0.8841907625745904
 
  0.00000000E+00  0.00000000E+00  0.00000000E+00
  0.00000000E+00  0.00000000E+00  0.00000000E+00
  0.00000000E+00  0.00000000E+00  0.00000000E+00
  0.00000000E+00  0.00000000E+00  0.00000000E+00
  0.00000000E+00  0.00000000E+00  0.00000000E+00
  0.00000000E+00  0.00000000E+00  0.00000000E+00
  0.00000000E+00  0.00000000E+00  0.00000000E+00
  0.00000000E+00  0.00000000E+00  0.00000000E+00
  0.00000000E+00  0.00000000E+00  0.00000000E+00
  0.00000000E+00  0.00000000E+00  0.00000000E+00
  0.00000000E+00  0.00000000E+00  0.00000000E+00
  0.00000000E+00  0.00000000E+00  0.00000000E+00
  0.00000000E+00  0.00000000E+00  0.00000000E+00
  0.00000000E+00  0.00000000E+00  0.00000000E+00
  0.00000000E+00  0.00000000E+00  0.00000000E+00
  0.00000000E+00  0.00000000E+00  0.00000000E+00
  0.00000000E+00  0.00000000E+00  0.00000000E+00
  0.00000000E+00  0.00000000E+00  0.00000000E+00
  0.00000000E+00  0.00000000E+00  0.00000000E+00
  0.00000000E+00  0.00000000E+00  0.00000000E+00
  0.00000000E+00  0.00000000E+00  0.00000000E+00
  0.00000000E+00  0.00000000E+00  0.00000000E+00
  0.00000000E+00  0.00000000E+00  0.00000000E+00
  0.00000000E+00  0.00000000E+00  0.00000000E+00
  0.00000000E+00  0.00000000E+00  0.00000000E+00
  0.00000000E+00  0.00000000E+00  0.00000000E+00
  0.00000000E+00  0.00000000E+00  0.00000000E+00
  0.00000000E+00  0.00000000E+00  0.00000000E+00
  0.00000000E+00  0.00000000E+00  0.00000000E+00
  0.00000000E+00  0.00000000E+00  0.00000000E+00
  0.00000000E+00  0.00000000E+00  0.00000000E+00
  0.00000000E+00  0.00000000E+00  0.00000000E+00
  0.00000000E+00  0.00000000E+00  0.00000000E+00
  0.00000000E+00  0.00000000E+00  0.00000000E+00
  0.00000000E+00  0.00000000E+00  0.00000000E+00
  0.00000000E+00  0.00000000E+00  0.00000000E+00
  0.00000000E+00  0.00000000E+00  0.00000000E+00
  0.00000000E+00  0.00000000E+00  0.00000000E+00
  0.00000000E+00  0.00000000E+00  0.00000000E+00
  0.00000000E+00  0.00000000E+00  0.00000000E+00
  0.00000000E+00  0.00000000E+00  0.00000000E+00
  0.00000000E+00  0.00000000E+00  0.00000000E+00
  0.00000000E+00  0.00000000E+00  0.00000000E+00
  0.00000000E+00  0.00000000E+00  0.00000000E+00
  0.00000000E+00  0.00000000E+00  0.00000000E+00
  0.00000000E+00  0.00000000E+00  0.00000000E+00
  0.00000000E+00  0.00000000E+00  0.00000000E+00
  0.00000000E+00  0.00000000E+00  0.00000000E+00
  0.00000000E+00  0.00000000E+00  0.00000000E+00
  0.00000000E+00  0.00000000E+00  0.00000000E+00
  0.00000000E+00  0.00000000E+00  0.00000000E+00
  0.00000000E+00  0.00000000E+00  0.00000000E+00
  0.00000000E+00  0.00000000E+00  0.00000000E+00
  0.00000000E+00  0.00000000E+00  0.00000000E+00
  0.00000000E+00  0.00000000E+00  0.00000000E+00
  0.00000000E+00  0.00000000E+00  0.00000000E+00
  0.00000000E+00  0.00000000E+00  0.00000000E+00
  0.00000000E+00  0.00000000E+00  0.00000000E+00
  0.00000000E+00  0.00000000E+00  0.00000000E+00
  0.00000000E+00  0.00000000E+00  0.00000000E+00
  0.00000000E+00  0.00000000E+00  0.00000000E+00
  0.00000000E+00  0.00000000E+00  0.00000000E+00
  0.00000000E+00  0.00000000E+00  0.00000000E+00
  0.00000000E+00  0.00000000E+00  0.00000000E+00
  0.00000000E+00  0.00000000E+00  0.00000000E+00
  0.00000000E+00  0.00000000E+00  0.00000000E+00
  0.00000000E+00  0.00000000E+00  0.00000000E+00
  0.00000000E+00  0.00000000E+00  0.00000000E+00
  0.00000000E+00  0.00000000E+00  0.00000000E+00
  0.00000000E+00  0.00000000E+00  0.00000000E+00
  0.00000000E+00  0.00000000E+00  0.00000000E+00
  0.00000000E+00  0.00000000E+00  0.00000000E+00
