Al   Sc   N    O                        
   1.00000000000000     
    -9.9343677036659912    0.0093759740186016   -0.0136357510225625
    -4.9779687468291058    8.6311290058613466   -0.0094484821847890
    -0.0190126392948764    0.0083734662373332  -10.0631478135280137
   Al   Sc   N    O 
    23    13    35     1
Direct
  0.1105662361015760  0.0946716685791458  0.3064154935238790
  0.2223677987568280  0.2071822039953659  0.0697717241876177
  0.7756365495436199  0.0943233426740591  0.8023629727672699
  0.8895872835183880  0.2067906817663285  0.5617635166425217
  0.5568259420177526  0.2159925185189806  0.0587350946786884
  0.2248409993126685  0.2040276511648145  0.5547518317587716
  0.8816097725504832  0.2082740782116304  0.0600847541973266
  0.5476290421209882  0.2162315440850975  0.5656587347702811
  0.2302471262623556  0.5372609831476254  0.0598774005570419
  0.4391414745052487  0.4383549024857771  0.3138775907268467
  0.5512749876742902  0.5393552734739728  0.0608535099154750
  0.2297048704168105  0.5367914737160646  0.5620676887904992
  0.8854619365253384  0.5420368635711625  0.0487512860017674
  0.4427923790776092  0.4367143404041514  0.8110414295333044
  0.5514578054813910  0.5365606919695978  0.5610287312851057
  0.1177566907626826  0.7562611307921685  0.3134679329398367
  0.7734876884892259  0.7682855231141374  0.8051692449095000
  0.8902757364694480  0.8711048970713904  0.5669334596299436
  0.4449419039202098  0.7565362763528185  0.3118567263892587
  0.5622652437833224  0.8576167739714364  0.0569720296099234
  0.1122177413485588  0.7581467078635598  0.8084843308124761
  0.4472692309754365  0.7520330715088690  0.8101761469310702
  0.5522508518977887  0.8714702545709869  0.5647905705469967
  0.4466576118334729  0.0917217371470613  0.3151622411685437
  0.1088594261772187  0.0898266263681649  0.8218379446931650
  0.7774736685117958  0.0981150851573318  0.3315025005747998
  0.4576190554233293  0.0869318028702821  0.8231320318501858
  0.1175268817552180  0.4307528958090217  0.3130545179533115
  0.7652169452015301  0.4263620699163013  0.8258907374725268
  0.8896683240559256  0.5359014373433126  0.5813166452822500
  0.1217060507850789  0.4315525677732595  0.8234399873430718
  0.7729650368792704  0.4275585522056531  0.3105582767072761
  0.2287463445745956  0.8644293864805874  0.0769079199229807
  0.2236566744542614  0.8703663411583094  0.5614271929500561
  0.7764743295897745  0.7589247401546970  0.3224471862463290
  0.8848859014050916  0.8752017425088638  0.0625974555056601
  0.2153836355551135  0.1962267971274443  0.3645121292283804
  0.0999614582368977  0.1140896113849124  0.1110560792910249
  0.8802910078421249  0.1890332243215838  0.8733426354247626
  0.7766359814889157  0.0958127146837029  0.6080429450669200
  0.5380323797524866  0.2321653092425748  0.3782552837993549
  0.4487752355628416  0.0912380584996697  0.0942082764705674
  0.1050795552571202  0.1120689370356800  0.6144269159594984
  0.9090565321250708  0.1981863804784822  0.3739938647547376
  0.7658372593694693  0.1144519990928927  0.1201184263531019
  0.5626029328816742  0.2206053751034673  0.8661550565511362
  0.4429366454078050  0.0940138247367059  0.6077918112546357
  0.2322359202115578  0.5507519037867041  0.3743775048593676
  0.1126979495559652  0.4280810790755680  0.0910342756493279
  0.8828397144429943  0.5555184667638997  0.8525169283491607
  0.7639268450062886  0.4166578138335808  0.6115937719214912
  0.5360262773394382  0.5494378973768335  0.3718914453188518
  0.4438821346537338  0.4286217747864782  0.1208952748374870
  0.2332963320463435  0.5506629866258450  0.8724824350039810
  0.1382504862352363  0.4136036603888513  0.6102674195638258
  0.8923464315272085  0.5324245600252908  0.3742087957804330
  0.7772944701266127  0.4288630311230150  0.0892160232391603
  0.5319831215950330  0.5499633470075054  0.8749614350028807
  0.4426874290153719  0.4317785774362690  0.6224997352271942
  0.2221067932586251  0.8740851654149751  0.3415718581705818
  0.1169326471339147  0.7398538333047000  0.1252325068905265
  0.8846703776959473  0.8755511681410297  0.8508343011914903
  0.7647642624554294  0.7829852755658280  0.6146280589527606
  0.5425791599668628  0.8624616869985573  0.3776759765567590
  0.4671098143750001  0.7467160813765119  0.1232338589712398
  0.2305229577766426  0.8545808820324510  0.8574556180969921
  0.1045543016366608  0.7494407906131570  0.6208388727052991
  0.9100283151252100  0.8608922104294408  0.3751608479710740
  0.7729313322803506  0.7496755992337611  0.1096419669297077
  0.5632521492733105  0.8499875282720026  0.8677994045653321
  0.4621054592471694  0.7488000388823011  0.6219655533175512
  0.2270027724844255  0.2007832653331221  0.8839931135456638
 
  0.00000000E+00  0.00000000E+00  0.00000000E+00
  0.00000000E+00  0.00000000E+00  0.00000000E+00
  0.00000000E+00  0.00000000E+00  0.00000000E+00
  0.00000000E+00  0.00000000E+00  0.00000000E+00
  0.00000000E+00  0.00000000E+00  0.00000000E+00
  0.00000000E+00  0.00000000E+00  0.00000000E+00
  0.00000000E+00  0.00000000E+00  0.00000000E+00
  0.00000000E+00  0.00000000E+00  0.00000000E+00
  0.00000000E+00  0.00000000E+00  0.00000000E+00
  0.00000000E+00  0.00000000E+00  0.00000000E+00
  0.00000000E+00  0.00000000E+00  0.00000000E+00
  0.00000000E+00  0.00000000E+00  0.00000000E+00
  0.00000000E+00  0.00000000E+00  0.00000000E+00
  0.00000000E+00  0.00000000E+00  0.00000000E+00
  0.00000000E+00  0.00000000E+00  0.00000000E+00
  0.00000000E+00  0.00000000E+00  0.00000000E+00
  0.00000000E+00  0.00000000E+00  0.00000000E+00
  0.00000000E+00  0.00000000E+00  0.00000000E+00
  0.00000000E+00  0.00000000E+00  0.00000000E+00
  0.00000000E+00  0.00000000E+00  0.00000000E+00
  0.00000000E+00  0.00000000E+00  0.00000000E+00
  0.00000000E+00  0.00000000E+00  0.00000000E+00
  0.00000000E+00  0.00000000E+00  0.00000000E+00
  0.00000000E+00  0.00000000E+00  0.00000000E+00
  0.00000000E+00  0.00000000E+00  0.00000000E+00
  0.00000000E+00  0.00000000E+00  0.00000000E+00
  0.00000000E+00  0.00000000E+00  0.00000000E+00
  0.00000000E+00  0.00000000E+00  0.00000000E+00
  0.00000000E+00  0.00000000E+00  0.00000000E+00
  0.00000000E+00  0.00000000E+00  0.00000000E+00
  0.00000000E+00  0.00000000E+00  0.00000000E+00
  0.00000000E+00  0.00000000E+00  0.00000000E+00
  0.00000000E+00  0.00000000E+00  0.00000000E+00
  0.00000000E+00  0.00000000E+00  0.00000000E+00
  0.00000000E+00  0.00000000E+00  0.00000000E+00
  0.00000000E+00  0.00000000E+00  0.00000000E+00
  0.00000000E+00  0.00000000E+00  0.00000000E+00
  0.00000000E+00  0.00000000E+00  0.00000000E+00
  0.00000000E+00  0.00000000E+00  0.00000000E+00
  0.00000000E+00  0.00000000E+00  0.00000000E+00
  0.00000000E+00  0.00000000E+00  0.00000000E+00
  0.00000000E+00  0.00000000E+00  0.00000000E+00
  0.00000000E+00  0.00000000E+00  0.00000000E+00
  0.00000000E+00  0.00000000E+00  0.00000000E+00
  0.00000000E+00  0.00000000E+00  0.00000000E+00
  0.00000000E+00  0.00000000E+00  0.00000000E+00
  0.00000000E+00  0.00000000E+00  0.00000000E+00
  0.00000000E+00  0.00000000E+00  0.00000000E+00
  0.00000000E+00  0.00000000E+00  0.00000000E+00
  0.00000000E+00  0.00000000E+00  0.00000000E+00
  0.00000000E+00  0.00000000E+00  0.00000000E+00
  0.00000000E+00  0.00000000E+00  0.00000000E+00
  0.00000000E+00  0.00000000E+00  0.00000000E+00
  0.00000000E+00  0.00000000E+00  0.00000000E+00
  0.00000000E+00  0.00000000E+00  0.00000000E+00
  0.00000000E+00  0.00000000E+00  0.00000000E+00
  0.00000000E+00  0.00000000E+00  0.00000000E+00
  0.00000000E+00  0.00000000E+00  0.00000000E+00
  0.00000000E+00  0.00000000E+00  0.00000000E+00
  0.00000000E+00  0.00000000E+00  0.00000000E+00
  0.00000000E+00  0.00000000E+00  0.00000000E+00
  0.00000000E+00  0.00000000E+00  0.00000000E+00
  0.00000000E+00  0.00000000E+00  0.00000000E+00
  0.00000000E+00  0.00000000E+00  0.00000000E+00
  0.00000000E+00  0.00000000E+00  0.00000000E+00
  0.00000000E+00  0.00000000E+00  0.00000000E+00
  0.00000000E+00  0.00000000E+00  0.00000000E+00
  0.00000000E+00  0.00000000E+00  0.00000000E+00
  0.00000000E+00  0.00000000E+00  0.00000000E+00
  0.00000000E+00  0.00000000E+00  0.00000000E+00
  0.00000000E+00  0.00000000E+00  0.00000000E+00
  0.00000000E+00  0.00000000E+00  0.00000000E+00
