Al   Sc   N    O                        
   1.00000000000000     
   -10.0957693024586508    0.0106731645347450    0.0003458591647393
    -5.0453476052923785    8.7735254400705145    0.0010908360513171
     0.0023082483148765    0.0937819903094608   -9.6936190901398351
   Al   Sc   N    O 
    23    13    35     1
Direct
  0.1111418385590000  0.0894654450259011  0.3262760942959346
  0.2224196233295572  0.2076181082400481  0.0993797646958825
  0.7711536162036126  0.1008538833152173  0.8230017922415982
  0.8943664023041933  0.2030642713827291  0.5851774840749044
  0.5567052152112879  0.2140872463549783  0.0762798768018911
  0.2241269247753053  0.2001638687210416  0.5737895078994910
  0.8777113917414425  0.2105569011761190  0.0835207784272001
  0.5485336051969796  0.2144493395158165  0.5835665506363341
  0.2323078155329199  0.5382062392564464  0.1352321327601516
  0.4368879591259471  0.4438989189554405  0.3886115990621235
  0.5511762595712000  0.5381272160186441  0.1328565445103536
  0.2278306245285293  0.5378966148729347  0.6322921437702931
  0.8873906722681468  0.5353220599758615  0.1379262278494906
  0.4414469258788500  0.4390218639089127  0.8805557687523518
  0.5502924976894548  0.5394255095997877  0.6337246305948767
  0.1130658518616556  0.7590524756581516  0.3859541284391170
  0.7737497922389451  0.7576459455057929  0.8850805712260339
  0.8857404425610937  0.8700312806925368  0.6389691687982406
  0.4451210636992045  0.7557193236512276  0.3837767933700036
  0.5562124848962711  0.8585783556518294  0.1247251878232447
  0.1209984466699936  0.7525680156127734  0.8748420398439194
  0.4493615303023333  0.7514477314789687  0.8787059249045299
  0.5602086354106461  0.8669033426823347  0.6333785349385010
  0.4479911795728384  0.0896586944173947  0.3435392441551812
  0.1070989978653856  0.0917790404366698  0.8568859870294858
  0.7803231455203985  0.0932303141726862  0.3520567558045471
  0.4532475325492697  0.0894014203811722  0.8505415040785564
  0.1243868700744954  0.4265051451609381  0.3613831324719854
  0.7683508559007919  0.4325986665009225  0.8628861262299807
  0.8883985249759832  0.5428041526976770  0.6110919124943521
  0.1127226007663893  0.4387524634968472  0.8702981893922228
  0.7687910089898011  0.4228210421491738  0.3629480519805242
  0.2319485107397625  0.8583676956932678  0.1207381952804027
  0.2239868786463077  0.8720651688381906  0.6110744033614068
  0.7752329883296838  0.7687212663068266  0.3630454414287243
  0.8897956235467319  0.8755150893166643  0.1005901873792041
  0.2169742368569061  0.1889348013808885  0.3724372402210321
  0.1007434178755702  0.1093331128226822  0.1202351344107342
  0.8759359848995842  0.1950011214005514  0.8860121815083062
  0.7775598294464103  0.0955453557675483  0.6206227504684634
  0.5415172295396928  0.2290175744069458  0.3836813183228429
  0.4483745213499191  0.0936914947083665  0.1041875961907053
  0.1046698290026455  0.1161562235928955  0.6380276057098655
  0.9140504550955129  0.1889339890966397  0.3891315970728328
  0.7616510931911051  0.1190775639930308  0.1297674027828819
  0.5615149458091082  0.2179964665958138  0.8686936823507665
  0.4428330097193225  0.0928283759226218  0.6146716446053020
  0.2334327049083740  0.5547325651875923  0.3299304371763654
  0.1143620229070876  0.4283360177260604  0.1095455766761901
  0.8835303539240442  0.5554083017320934  0.8317977573915130
  0.7660926141024973  0.4188655387812474  0.6038865016384776
  0.5311392423006396  0.5517555096099116  0.3274033276316572
  0.4422326538769994  0.4324313885185589  0.0802309643632242
  0.2341852978488532  0.5460585889776937  0.8264939756388259
  0.1357951019632608  0.4147791931632909  0.5994914942545364
  0.8902117034384815  0.5359482826210709  0.3439624678123110
  0.7756270292597875  0.4282664775724712  0.1070973732476546
  0.5359437565301945  0.5483287792713440  0.8281911703397142
  0.4393556353368737  0.4389680195756114  0.5876853221308096
  0.2232752239240980  0.8701053164472086  0.3555551943937800
  0.1249563344549642  0.7370587479524318  0.0679148097972941
  0.8846014443699133  0.8726322279804251  0.8455954751685510
  0.7657113247246130  0.7868743778848142  0.5823339575171005
  0.5433877164637693  0.8569686149330167  0.3184170823308605
  0.4641678268082146  0.7445580737796291  0.0728046498837926
  0.2331921264651058  0.8553079672056398  0.8436859452385690
  0.0973316227197003  0.7524947367918315  0.5857014086701184
  0.9146125659986666  0.8597547283004587  0.3199956000437112
  0.7712128016682414  0.7484859611340866  0.0866243329717662
  0.5645015401505944  0.8503630094563590  0.8326045769506720
  0.4669880056901405  0.7501312857994051  0.5795496630415471
  0.2237597542436092  0.2058864252779102  0.9013881281613294
 
  0.00000000E+00  0.00000000E+00  0.00000000E+00
  0.00000000E+00  0.00000000E+00  0.00000000E+00
  0.00000000E+00  0.00000000E+00  0.00000000E+00
  0.00000000E+00  0.00000000E+00  0.00000000E+00
  0.00000000E+00  0.00000000E+00  0.00000000E+00
  0.00000000E+00  0.00000000E+00  0.00000000E+00
  0.00000000E+00  0.00000000E+00  0.00000000E+00
  0.00000000E+00  0.00000000E+00  0.00000000E+00
  0.00000000E+00  0.00000000E+00  0.00000000E+00
  0.00000000E+00  0.00000000E+00  0.00000000E+00
  0.00000000E+00  0.00000000E+00  0.00000000E+00
  0.00000000E+00  0.00000000E+00  0.00000000E+00
  0.00000000E+00  0.00000000E+00  0.00000000E+00
  0.00000000E+00  0.00000000E+00  0.00000000E+00
  0.00000000E+00  0.00000000E+00  0.00000000E+00
  0.00000000E+00  0.00000000E+00  0.00000000E+00
  0.00000000E+00  0.00000000E+00  0.00000000E+00
  0.00000000E+00  0.00000000E+00  0.00000000E+00
  0.00000000E+00  0.00000000E+00  0.00000000E+00
  0.00000000E+00  0.00000000E+00  0.00000000E+00
  0.00000000E+00  0.00000000E+00  0.00000000E+00
  0.00000000E+00  0.00000000E+00  0.00000000E+00
  0.00000000E+00  0.00000000E+00  0.00000000E+00
  0.00000000E+00  0.00000000E+00  0.00000000E+00
  0.00000000E+00  0.00000000E+00  0.00000000E+00
  0.00000000E+00  0.00000000E+00  0.00000000E+00
  0.00000000E+00  0.00000000E+00  0.00000000E+00
  0.00000000E+00  0.00000000E+00  0.00000000E+00
  0.00000000E+00  0.00000000E+00  0.00000000E+00
  0.00000000E+00  0.00000000E+00  0.00000000E+00
  0.00000000E+00  0.00000000E+00  0.00000000E+00
  0.00000000E+00  0.00000000E+00  0.00000000E+00
  0.00000000E+00  0.00000000E+00  0.00000000E+00
  0.00000000E+00  0.00000000E+00  0.00000000E+00
  0.00000000E+00  0.00000000E+00  0.00000000E+00
  0.00000000E+00  0.00000000E+00  0.00000000E+00
  0.00000000E+00  0.00000000E+00  0.00000000E+00
  0.00000000E+00  0.00000000E+00  0.00000000E+00
  0.00000000E+00  0.00000000E+00  0.00000000E+00
  0.00000000E+00  0.00000000E+00  0.00000000E+00
  0.00000000E+00  0.00000000E+00  0.00000000E+00
  0.00000000E+00  0.00000000E+00  0.00000000E+00
  0.00000000E+00  0.00000000E+00  0.00000000E+00
  0.00000000E+00  0.00000000E+00  0.00000000E+00
  0.00000000E+00  0.00000000E+00  0.00000000E+00
  0.00000000E+00  0.00000000E+00  0.00000000E+00
  0.00000000E+00  0.00000000E+00  0.00000000E+00
  0.00000000E+00  0.00000000E+00  0.00000000E+00
  0.00000000E+00  0.00000000E+00  0.00000000E+00
  0.00000000E+00  0.00000000E+00  0.00000000E+00
  0.00000000E+00  0.00000000E+00  0.00000000E+00
  0.00000000E+00  0.00000000E+00  0.00000000E+00
  0.00000000E+00  0.00000000E+00  0.00000000E+00
  0.00000000E+00  0.00000000E+00  0.00000000E+00
  0.00000000E+00  0.00000000E+00  0.00000000E+00
  0.00000000E+00  0.00000000E+00  0.00000000E+00
  0.00000000E+00  0.00000000E+00  0.00000000E+00
  0.00000000E+00  0.00000000E+00  0.00000000E+00
  0.00000000E+00  0.00000000E+00  0.00000000E+00
  0.00000000E+00  0.00000000E+00  0.00000000E+00
  0.00000000E+00  0.00000000E+00  0.00000000E+00
  0.00000000E+00  0.00000000E+00  0.00000000E+00
  0.00000000E+00  0.00000000E+00  0.00000000E+00
  0.00000000E+00  0.00000000E+00  0.00000000E+00
  0.00000000E+00  0.00000000E+00  0.00000000E+00
  0.00000000E+00  0.00000000E+00  0.00000000E+00
  0.00000000E+00  0.00000000E+00  0.00000000E+00
  0.00000000E+00  0.00000000E+00  0.00000000E+00
  0.00000000E+00  0.00000000E+00  0.00000000E+00
  0.00000000E+00  0.00000000E+00  0.00000000E+00
  0.00000000E+00  0.00000000E+00  0.00000000E+00
  0.00000000E+00  0.00000000E+00  0.00000000E+00
