Al   Sc   N    O                        
   1.00000000000000     
   -10.1396823883974907    0.0105748089914035    0.0011668519477653
    -5.0605453791588202    8.8170453642235778    0.0017474660237466
    -0.0453693783475084    0.1173333353533640   -9.5616964659901207
   Al   Sc   N    O 
    23    13    35     1
Direct
  0.1107134410123294  0.0904709305046154  0.3272187211079043
  0.2222233897154595  0.2077467730146836  0.0997748137504288
  0.7701301894035240  0.1013070163422185  0.8265598853725393
  0.8942948153321879  0.2032729540105720  0.5877113584550031
  0.5558915910114521  0.2169302900030985  0.0786679636987628
  0.2227973595767168  0.2014445772395703  0.5725428951150988
  0.8774977743460894  0.2104654125378147  0.0851149615790590
  0.5468008589317392  0.2171753139079868  0.5824987091072842
  0.2322761732306375  0.5316321852600794  0.0708307300666391
  0.4360637686078448  0.4386561121876440  0.3277201499532723
  0.5535329380178453  0.5406626079715338  0.1286390722650310
  0.2322624904612098  0.5343489408202373  0.5846239778211881
  0.8882955836428579  0.5353303684788671  0.1327182185952651
  0.4453329850687311  0.4299368577215503  0.8271639254970538
  0.5526360748474843  0.5391144698435468  0.6306611190136593
  0.1115323484188622  0.7640660288988457  0.3908075080070290
  0.7738841384714306  0.7575141188186763  0.8858180694318918
  0.8828831151189362  0.8718340153882664  0.6409512422829309
  0.4445505335678277  0.7560468214905640  0.3847237082682540
  0.5548209539812277  0.8606518964123140  0.1255731096104213
  0.1186233948745397  0.7540563679250312  0.8681705801133219
  0.4502016526779045  0.7512507875564438  0.8789097307453702
  0.5598790095942832  0.8677785794474957  0.6330664237335100
  0.4477742103576077  0.0904610536259227  0.3468511076870868
  0.1072487305305572  0.0911075968339006  0.8602091407237111
  0.7795604790997857  0.0941244841488356  0.3566842351777595
  0.4550863371452394  0.0880224568368249  0.8543630074488249
  0.1251256277263195  0.4287483301427457  0.3465994176842955
  0.7698842872333529  0.4319606016893829  0.8607577467216245
  0.8861608209514031  0.5450008552431456  0.6048693935624954
  0.1153525288206652  0.4298876596994887  0.8434266065774096
  0.7691291983545909  0.4225755801844571  0.3612754196587034
  0.2313595545165796  0.8584516423451944  0.1196473516906380
  0.2246704552448477  0.8737099405358109  0.6140901570707200
  0.7746139204385187  0.7690879995731734  0.3596687707484918
  0.8898228087907469  0.8769491291924609  0.1019080234002061
  0.2156826080744452  0.1920010329293760  0.3691311060173632
  0.1002482699150988  0.1094025712103885  0.1192372362133014
  0.8761758219504614  0.1949050134105548  0.8845646259561732
  0.7756666376487260  0.0964235801887980  0.6210120211224535
  0.5390460365350407  0.2335412107276582  0.3849858322724344
  0.4481826123877610  0.0937394262713411  0.1050147039259244
  0.1045633126946939  0.1168531072483461  0.6377895165960865
  0.9135385516874166  0.1894651263540510  0.3885886956535316
  0.7613359580851622  0.1194719853680581  0.1312214181277440
  0.5616821217432886  0.2186602951447867  0.8753466042710158
  0.4419235078931933  0.0931742939074951  0.6133108502049396
  0.2339597949075909  0.5539923685247103  0.3821836088304948
  0.1141438773085852  0.4278009149787962  0.1088079179313723
  0.8831734028058520  0.5565029895241267  0.8320573616705929
  0.7669346761991491  0.4186611557242159  0.6049155733861511
  0.5330618535809108  0.5535504718393298  0.3308148130791793
  0.4412123483303532  0.4277660200924274  0.1220856688029954
  0.2371659218931939  0.5382696152708064  0.8664970859472163
  0.1352140814585923  0.4136589829929207  0.6072942575330771
  0.8910411256899948  0.5359812459830806  0.3468829122358912
  0.7768473720853066  0.4279850636735034  0.1072456438458715
  0.5383396394442101  0.5479190564475047  0.8350874806434661
  0.4440795478582942  0.4285148607160210  0.6267538784354301
  0.2226263197764240  0.8717375636195968  0.3590003841697254
  0.1220290692778647  0.7414603215549178  0.0733407499920133
  0.8805767843186203  0.8751584121003830  0.8493411337606460
  0.7649048490091630  0.7877894221427297  0.5829508325968362
  0.5419349807745846  0.8592140213094979  0.3223610856582937
  0.4636592583657801  0.7466026918594011  0.0756687842441153
  0.2340515172237474  0.8553521712563921  0.8478342737548772
  0.0974277999313315  0.7551833806870363  0.6038814312544503
  0.9142351124751116  0.8614822590998870  0.3269778680176927
  0.7708781255494799  0.7494657266413398  0.0908085520029900
  0.5647690319917587  0.8510060662408421  0.8351923520972235
  0.4667652448933879  0.7498407413133492  0.5833961086020523
  0.2256421054273972  0.2030660554404804  0.9003979212039042
 
  0.00000000E+00  0.00000000E+00  0.00000000E+00
  0.00000000E+00  0.00000000E+00  0.00000000E+00
  0.00000000E+00  0.00000000E+00  0.00000000E+00
  0.00000000E+00  0.00000000E+00  0.00000000E+00
  0.00000000E+00  0.00000000E+00  0.00000000E+00
  0.00000000E+00  0.00000000E+00  0.00000000E+00
  0.00000000E+00  0.00000000E+00  0.00000000E+00
  0.00000000E+00  0.00000000E+00  0.00000000E+00
  0.00000000E+00  0.00000000E+00  0.00000000E+00
  0.00000000E+00  0.00000000E+00  0.00000000E+00
  0.00000000E+00  0.00000000E+00  0.00000000E+00
  0.00000000E+00  0.00000000E+00  0.00000000E+00
  0.00000000E+00  0.00000000E+00  0.00000000E+00
  0.00000000E+00  0.00000000E+00  0.00000000E+00
  0.00000000E+00  0.00000000E+00  0.00000000E+00
  0.00000000E+00  0.00000000E+00  0.00000000E+00
  0.00000000E+00  0.00000000E+00  0.00000000E+00
  0.00000000E+00  0.00000000E+00  0.00000000E+00
  0.00000000E+00  0.00000000E+00  0.00000000E+00
  0.00000000E+00  0.00000000E+00  0.00000000E+00
  0.00000000E+00  0.00000000E+00  0.00000000E+00
  0.00000000E+00  0.00000000E+00  0.00000000E+00
  0.00000000E+00  0.00000000E+00  0.00000000E+00
  0.00000000E+00  0.00000000E+00  0.00000000E+00
  0.00000000E+00  0.00000000E+00  0.00000000E+00
  0.00000000E+00  0.00000000E+00  0.00000000E+00
  0.00000000E+00  0.00000000E+00  0.00000000E+00
  0.00000000E+00  0.00000000E+00  0.00000000E+00
  0.00000000E+00  0.00000000E+00  0.00000000E+00
  0.00000000E+00  0.00000000E+00  0.00000000E+00
  0.00000000E+00  0.00000000E+00  0.00000000E+00
  0.00000000E+00  0.00000000E+00  0.00000000E+00
  0.00000000E+00  0.00000000E+00  0.00000000E+00
  0.00000000E+00  0.00000000E+00  0.00000000E+00
  0.00000000E+00  0.00000000E+00  0.00000000E+00
  0.00000000E+00  0.00000000E+00  0.00000000E+00
  0.00000000E+00  0.00000000E+00  0.00000000E+00
  0.00000000E+00  0.00000000E+00  0.00000000E+00
  0.00000000E+00  0.00000000E+00  0.00000000E+00
  0.00000000E+00  0.00000000E+00  0.00000000E+00
  0.00000000E+00  0.00000000E+00  0.00000000E+00
  0.00000000E+00  0.00000000E+00  0.00000000E+00
  0.00000000E+00  0.00000000E+00  0.00000000E+00
  0.00000000E+00  0.00000000E+00  0.00000000E+00
  0.00000000E+00  0.00000000E+00  0.00000000E+00
  0.00000000E+00  0.00000000E+00  0.00000000E+00
  0.00000000E+00  0.00000000E+00  0.00000000E+00
  0.00000000E+00  0.00000000E+00  0.00000000E+00
  0.00000000E+00  0.00000000E+00  0.00000000E+00
  0.00000000E+00  0.00000000E+00  0.00000000E+00
  0.00000000E+00  0.00000000E+00  0.00000000E+00
  0.00000000E+00  0.00000000E+00  0.00000000E+00
  0.00000000E+00  0.00000000E+00  0.00000000E+00
  0.00000000E+00  0.00000000E+00  0.00000000E+00
  0.00000000E+00  0.00000000E+00  0.00000000E+00
  0.00000000E+00  0.00000000E+00  0.00000000E+00
  0.00000000E+00  0.00000000E+00  0.00000000E+00
  0.00000000E+00  0.00000000E+00  0.00000000E+00
  0.00000000E+00  0.00000000E+00  0.00000000E+00
  0.00000000E+00  0.00000000E+00  0.00000000E+00
  0.00000000E+00  0.00000000E+00  0.00000000E+00
  0.00000000E+00  0.00000000E+00  0.00000000E+00
  0.00000000E+00  0.00000000E+00  0.00000000E+00
  0.00000000E+00  0.00000000E+00  0.00000000E+00
  0.00000000E+00  0.00000000E+00  0.00000000E+00
  0.00000000E+00  0.00000000E+00  0.00000000E+00
  0.00000000E+00  0.00000000E+00  0.00000000E+00
  0.00000000E+00  0.00000000E+00  0.00000000E+00
  0.00000000E+00  0.00000000E+00  0.00000000E+00
  0.00000000E+00  0.00000000E+00  0.00000000E+00
  0.00000000E+00  0.00000000E+00  0.00000000E+00
  0.00000000E+00  0.00000000E+00  0.00000000E+00
