Al   Sc   N    O                        
   1.00000000000000     
   -10.0644777080689476    0.0097821252099494   -0.0083623350287305
    -5.0741088070802398    8.7333706636867952   -0.0054554044011823
     0.0174669818372324    0.1063766260578401   -9.8016466093103460
   Al   Sc   N    O 
    23    13    35     1
Direct
  0.1104114276711670  0.0941929666638117  0.3078460390735955
  0.2220416032570114  0.2089424823998129  0.0753191271042581
  0.7756372358443713  0.0929988062176719  0.8024707353250591
  0.8912385052041074  0.2069102930996038  0.5633844366065901
  0.5573135251009305  0.2161300808048949  0.0596957300627281
  0.2234437416017769  0.2040800269369427  0.5569033551889717
  0.8793103684608568  0.2091035413008413  0.0618434134523937
  0.5469664703808377  0.2165165486482579  0.5667794409513860
  0.2306090619847794  0.5371649089708299  0.0604011047991264
  0.4387917833350912  0.4380812286566140  0.3107671608593137
  0.5535553121526888  0.5337119117903768  0.0595452783107220
  0.2298813486042590  0.5366960607059355  0.5616778292135365
  0.8842050311830931  0.5431713032697587  0.0496247835054717
  0.4430230484314990  0.4345989738672884  0.8089811569180370
  0.5521982558678928  0.5320268475943948  0.5576853044759531
  0.1194388112179325  0.7559191876656115  0.3153713020062483
  0.7787983638018829  0.7664163683339495  0.8072509444997067
  0.8922369131015557  0.8713636905029389  0.5637801473596724
  0.4407620420822767  0.7601192374263448  0.3681990212338491
  0.5575732920903747  0.8600060905865092  0.1167061467443702
  0.1110180051835670  0.7565102142435478  0.8109048913670591
  0.4481083389422196  0.7538600264547171  0.8657259391763930
  0.5524193248032674  0.8701592271444127  0.6164928369191642
  0.4454233544494812  0.0948904041315259  0.3274274037715088
  0.1067996421801780  0.0923135643351998  0.8335439605038033
  0.7764901746687016  0.1015346615962400  0.3346114120182833
  0.4572818837784851  0.0868616136487574  0.8366630475150316
  0.1175669924194267  0.4312456712915846  0.3176155244760963
  0.7659180559333763  0.4252015685580943  0.8246396407230279
  0.8916935105883468  0.5336708433370632  0.5851414755638800
  0.1230093330877011  0.4311173918551106  0.8261850208660775
  0.7742997309801041  0.4281988713924108  0.3142977302084589
  0.2280187820580863  0.8650671552028371  0.0897521846728324
  0.2185800805999065  0.8740749018538452  0.5832529080760622
  0.7782417426631554  0.7591324490642748  0.3358751318069650
  0.8840162788826333  0.8749700330280845  0.0708352757798565
  0.2135915774656709  0.1959699360753362  0.3603478895789394
  0.0998125790940492  0.1144019239650049  0.1051094055304773
  0.8771890086110901  0.1897279459975607  0.8699917086238500
  0.7782435721425500  0.0948372013549204  0.6033650192818456
  0.5383770787966142  0.2341248054322591  0.3749635728133711
  0.4485911682294272  0.0944889703017679  0.0909835869386413
  0.1031601806238882  0.1175994485088765  0.6188802060347243
  0.9106480908194499  0.1975320289725460  0.3708136438457998
  0.7650279673281872  0.1158616174107294  0.1182989522217923
  0.5632955905421966  0.2186788453229198  0.8611833419958046
  0.4431146401651986  0.0940674404582538  0.6007184058953854
  0.2333191912017725  0.5502909140789924  0.3697655027777955
  0.1124406384471826  0.4289669260880160  0.0896569816507835
  0.8839066672851885  0.5540236505256360  0.8459755889446683
  0.7635594618843129  0.4170401120479852  0.6040732241767017
  0.5374251362957736  0.5453892669017506  0.3593383185295451
  0.4440331958927004  0.4275355663584364  0.1149789763562836
  0.2345933389799058  0.5488953614423622  0.8684952721588459
  0.1401242454781766  0.4129113318865762  0.6060761722979677
  0.8939936963398267  0.5315969994902332  0.3725724687856982
  0.7777663303239351  0.4286825533366496  0.0871509777483155
  0.5360564831181662  0.5421414118369583  0.8641155119805788
  0.4424399693482783  0.4313184052136805  0.6171234140472563
  0.2207281219387980  0.8745582013447546  0.3404776322284420
  0.1191400831124625  0.7389143175243262  0.1206985783498098
  0.8846793878604871  0.8748654816566486  0.8504973583054536
  0.7693300597193655  0.7807329731449215  0.5983988921727388
  0.5410804111546383  0.8611089403723753  0.3126108532517620
  0.4633847664404414  0.7501748921126818  0.0652064473029768
  0.2287927397533522  0.8550853664835145  0.8433074672002121
  0.1028695274785463  0.7473110939947034  0.6177121206939020
  0.9110701085495094  0.8640354483159598  0.3657848371564114
  0.7743403042725987  0.7485942286861658  0.1050215882588574
  0.5623192803557515  0.8499515308930512  0.8160759757581246
  0.4603344173921826  0.7530674884700872  0.5688395385726253
  0.2264638413736293  0.2025126769903878  0.8835504437552615
 
  0.00000000E+00  0.00000000E+00  0.00000000E+00
  0.00000000E+00  0.00000000E+00  0.00000000E+00
  0.00000000E+00  0.00000000E+00  0.00000000E+00
  0.00000000E+00  0.00000000E+00  0.00000000E+00
  0.00000000E+00  0.00000000E+00  0.00000000E+00
  0.00000000E+00  0.00000000E+00  0.00000000E+00
  0.00000000E+00  0.00000000E+00  0.00000000E+00
  0.00000000E+00  0.00000000E+00  0.00000000E+00
  0.00000000E+00  0.00000000E+00  0.00000000E+00
  0.00000000E+00  0.00000000E+00  0.00000000E+00
  0.00000000E+00  0.00000000E+00  0.00000000E+00
  0.00000000E+00  0.00000000E+00  0.00000000E+00
  0.00000000E+00  0.00000000E+00  0.00000000E+00
  0.00000000E+00  0.00000000E+00  0.00000000E+00
  0.00000000E+00  0.00000000E+00  0.00000000E+00
  0.00000000E+00  0.00000000E+00  0.00000000E+00
  0.00000000E+00  0.00000000E+00  0.00000000E+00
  0.00000000E+00  0.00000000E+00  0.00000000E+00
  0.00000000E+00  0.00000000E+00  0.00000000E+00
  0.00000000E+00  0.00000000E+00  0.00000000E+00
  0.00000000E+00  0.00000000E+00  0.00000000E+00
  0.00000000E+00  0.00000000E+00  0.00000000E+00
  0.00000000E+00  0.00000000E+00  0.00000000E+00
  0.00000000E+00  0.00000000E+00  0.00000000E+00
  0.00000000E+00  0.00000000E+00  0.00000000E+00
  0.00000000E+00  0.00000000E+00  0.00000000E+00
  0.00000000E+00  0.00000000E+00  0.00000000E+00
  0.00000000E+00  0.00000000E+00  0.00000000E+00
  0.00000000E+00  0.00000000E+00  0.00000000E+00
  0.00000000E+00  0.00000000E+00  0.00000000E+00
  0.00000000E+00  0.00000000E+00  0.00000000E+00
  0.00000000E+00  0.00000000E+00  0.00000000E+00
  0.00000000E+00  0.00000000E+00  0.00000000E+00
  0.00000000E+00  0.00000000E+00  0.00000000E+00
  0.00000000E+00  0.00000000E+00  0.00000000E+00
  0.00000000E+00  0.00000000E+00  0.00000000E+00
  0.00000000E+00  0.00000000E+00  0.00000000E+00
  0.00000000E+00  0.00000000E+00  0.00000000E+00
  0.00000000E+00  0.00000000E+00  0.00000000E+00
  0.00000000E+00  0.00000000E+00  0.00000000E+00
  0.00000000E+00  0.00000000E+00  0.00000000E+00
  0.00000000E+00  0.00000000E+00  0.00000000E+00
  0.00000000E+00  0.00000000E+00  0.00000000E+00
  0.00000000E+00  0.00000000E+00  0.00000000E+00
  0.00000000E+00  0.00000000E+00  0.00000000E+00
  0.00000000E+00  0.00000000E+00  0.00000000E+00
  0.00000000E+00  0.00000000E+00  0.00000000E+00
  0.00000000E+00  0.00000000E+00  0.00000000E+00
  0.00000000E+00  0.00000000E+00  0.00000000E+00
  0.00000000E+00  0.00000000E+00  0.00000000E+00
  0.00000000E+00  0.00000000E+00  0.00000000E+00
  0.00000000E+00  0.00000000E+00  0.00000000E+00
  0.00000000E+00  0.00000000E+00  0.00000000E+00
  0.00000000E+00  0.00000000E+00  0.00000000E+00
  0.00000000E+00  0.00000000E+00  0.00000000E+00
  0.00000000E+00  0.00000000E+00  0.00000000E+00
  0.00000000E+00  0.00000000E+00  0.00000000E+00
  0.00000000E+00  0.00000000E+00  0.00000000E+00
  0.00000000E+00  0.00000000E+00  0.00000000E+00
  0.00000000E+00  0.00000000E+00  0.00000000E+00
  0.00000000E+00  0.00000000E+00  0.00000000E+00
  0.00000000E+00  0.00000000E+00  0.00000000E+00
  0.00000000E+00  0.00000000E+00  0.00000000E+00
  0.00000000E+00  0.00000000E+00  0.00000000E+00
  0.00000000E+00  0.00000000E+00  0.00000000E+00
  0.00000000E+00  0.00000000E+00  0.00000000E+00
  0.00000000E+00  0.00000000E+00  0.00000000E+00
  0.00000000E+00  0.00000000E+00  0.00000000E+00
  0.00000000E+00  0.00000000E+00  0.00000000E+00
  0.00000000E+00  0.00000000E+00  0.00000000E+00
  0.00000000E+00  0.00000000E+00  0.00000000E+00
  0.00000000E+00  0.00000000E+00  0.00000000E+00
