Al   Sc   N    O                        
   1.00000000000000     
   -10.0446012411553145    0.0109398640380241    0.0004278292346318
    -5.0128430192464455    8.7304326119181521   -0.0005170125829631
    -0.0282064410529624    0.0472026609902940   -9.8248623255884251
   Al   Sc   N    O 
    23    13    35     1
Direct
  0.1186840669725413  0.0874554264557830  0.4109978933344678
  0.2184655258967183  0.2010072877808611  0.1527932121651290
  0.7705447092658417  0.1003997912710943  0.8322090697764466
  0.8873203044041134  0.2052160168835115  0.5981024751691777
  0.5469254009467051  0.2184607944129624  0.1419980047996390
  0.2286878136231891  0.2073734901792577  0.6408226182890573
  0.8798495770144470  0.2102607200657829  0.0863540882650824
  0.5498075726521776  0.2166744069244473  0.6290779769382624
  0.2316808263720134  0.5406975940844276  0.1486521411969548
  0.4358393401217882  0.4444268747080287  0.3999438958017549
  0.5490700760223177  0.5406232207955384  0.1440053050358046
  0.2273174171121752  0.5359087703479233  0.6470044736465752
  0.8872303753209607  0.5353713460307290  0.1513149042490980
  0.4430990312994254  0.4338927536736676  0.8940503610409323
  0.5515714110767931  0.5381643220065015  0.6483656387514714
  0.1120733570620800  0.7576936546125026  0.4008828023027888
  0.7743376396120993  0.7569974288731984  0.8987617479433041
  0.8870464106213234  0.8676944917948788  0.6519680083634398
  0.4482137574096328  0.7540081363839235  0.3978108580479116
  0.5531961749339018  0.8626340728347301  0.1394608924999545
  0.1230040232649117  0.7518478234692196  0.8902143004636898
  0.4457288532869796  0.7531222519334548  0.8952490413533312
  0.5625488377333667  0.8638829437146143  0.6497348039035344
  0.4456572008828275  0.0862466391170216  0.3894997032076262
  0.1086611226429852  0.0899078523317201  0.8698121785984938
  0.7812301816855296  0.0931847207062049  0.3633316534424651
  0.4581905288358143  0.0883176592288422  0.8799155024892187
  0.1269028009137543  0.4232005349363490  0.3782242693172080
  0.7663724457539303  0.4367810455063790  0.8765744625004359
  0.8908732637367507  0.5426537504493041  0.6267864401819097
  0.1144145510495349  0.4361689188046469  0.8987209170216630
  0.7684817809938238  0.4243231844642921  0.3744666097975724
  0.2239053749815483  0.8723532345838478  0.1475439883942045
  0.2313114711593869  0.8577744763188733  0.6278308546198232
  0.7761537268644716  0.7682897003228675  0.3768620806916019
  0.8893263106157860  0.8759827167804275  0.1126212329325895
  0.2163476864223952  0.1875501581636314  0.3447242770067191
  0.1028399891589373  0.1111424193406165  0.0917345750393750
  0.8734365924586598  0.1984362208291515  0.8864584792253893
  0.7804784614014935  0.0911874222326077  0.6279338179576612
  0.5362866853841695  0.2321339217534160  0.3647830171646831
  0.4434804981971183  0.0960825434544859  0.1047052668461959
  0.1109748205913803  0.1073400821916053  0.6195220849783922
  0.9099753566907367  0.1922927944390764  0.4023673255540743
  0.7620483261045905  0.1199220555100382  0.1367776922577733
  0.5551997388424823  0.2241963291695939  0.8366203827304091
  0.4468701075328170  0.0888758886102821  0.6167804122248128
  0.2324942755665660  0.5557734330985795  0.3393215148292299
  0.1161481255944068  0.4254807975349877  0.1202428630502652
  0.8880133428042569  0.5544208693426498  0.8432037782599977
  0.7667063476532903  0.4201627556696721  0.6165528921062489
  0.5305283381276453  0.5522941137750124  0.3359533377143080
  0.4430692515480317  0.4291375215138800  0.0894910786571899
  0.2334345720114541  0.5441631379042562  0.8386043916393788
  0.1368129922245345  0.4154168238786013  0.6008552754471381
  0.8915352609437974  0.5357657158143354  0.3517046749433561
  0.7747673694973827  0.4291410957874717  0.1149847040944323
  0.5329407895340381  0.5496066739710557  0.8404984606237136
  0.4399015407449909  0.4383669513696091  0.5936529265711172
  0.2237400209514888  0.8704859894879391  0.3779353904981306
  0.1274991142351851  0.7408605903044645  0.0803231169665537
  0.8842847086647652  0.8730462894186743  0.8568862354976901
  0.7666986409522281  0.7854859675470962  0.5935712525127883
  0.5434191892890183  0.8589136088648814  0.3297045351831827
  0.4569565545353242  0.7503357543535571  0.0865945855214463
  0.2329753358345741  0.8540507291622248  0.8468986577394304
  0.0966405688375360  0.7476238981198122  0.5962809613896525
  0.9155421639110415  0.8597824776814136  0.3293650335142004
  0.7696968962830439  0.7489354925695864  0.0969256174815030
  0.5646256178653886  0.8491337529815013  0.8441122872371807
  0.4728872458355724  0.7458020285045421  0.5899322891073240
  0.2256034046891671  0.2102851517253939  0.8331760842726865
 
  0.00000000E+00  0.00000000E+00  0.00000000E+00
  0.00000000E+00  0.00000000E+00  0.00000000E+00
  0.00000000E+00  0.00000000E+00  0.00000000E+00
  0.00000000E+00  0.00000000E+00  0.00000000E+00
  0.00000000E+00  0.00000000E+00  0.00000000E+00
  0.00000000E+00  0.00000000E+00  0.00000000E+00
  0.00000000E+00  0.00000000E+00  0.00000000E+00
  0.00000000E+00  0.00000000E+00  0.00000000E+00
  0.00000000E+00  0.00000000E+00  0.00000000E+00
  0.00000000E+00  0.00000000E+00  0.00000000E+00
  0.00000000E+00  0.00000000E+00  0.00000000E+00
  0.00000000E+00  0.00000000E+00  0.00000000E+00
  0.00000000E+00  0.00000000E+00  0.00000000E+00
  0.00000000E+00  0.00000000E+00  0.00000000E+00
  0.00000000E+00  0.00000000E+00  0.00000000E+00
  0.00000000E+00  0.00000000E+00  0.00000000E+00
  0.00000000E+00  0.00000000E+00  0.00000000E+00
  0.00000000E+00  0.00000000E+00  0.00000000E+00
  0.00000000E+00  0.00000000E+00  0.00000000E+00
  0.00000000E+00  0.00000000E+00  0.00000000E+00
  0.00000000E+00  0.00000000E+00  0.00000000E+00
  0.00000000E+00  0.00000000E+00  0.00000000E+00
  0.00000000E+00  0.00000000E+00  0.00000000E+00
  0.00000000E+00  0.00000000E+00  0.00000000E+00
  0.00000000E+00  0.00000000E+00  0.00000000E+00
  0.00000000E+00  0.00000000E+00  0.00000000E+00
  0.00000000E+00  0.00000000E+00  0.00000000E+00
  0.00000000E+00  0.00000000E+00  0.00000000E+00
  0.00000000E+00  0.00000000E+00  0.00000000E+00
  0.00000000E+00  0.00000000E+00  0.00000000E+00
  0.00000000E+00  0.00000000E+00  0.00000000E+00
  0.00000000E+00  0.00000000E+00  0.00000000E+00
  0.00000000E+00  0.00000000E+00  0.00000000E+00
  0.00000000E+00  0.00000000E+00  0.00000000E+00
  0.00000000E+00  0.00000000E+00  0.00000000E+00
  0.00000000E+00  0.00000000E+00  0.00000000E+00
  0.00000000E+00  0.00000000E+00  0.00000000E+00
  0.00000000E+00  0.00000000E+00  0.00000000E+00
  0.00000000E+00  0.00000000E+00  0.00000000E+00
  0.00000000E+00  0.00000000E+00  0.00000000E+00
  0.00000000E+00  0.00000000E+00  0.00000000E+00
  0.00000000E+00  0.00000000E+00  0.00000000E+00
  0.00000000E+00  0.00000000E+00  0.00000000E+00
  0.00000000E+00  0.00000000E+00  0.00000000E+00
  0.00000000E+00  0.00000000E+00  0.00000000E+00
  0.00000000E+00  0.00000000E+00  0.00000000E+00
  0.00000000E+00  0.00000000E+00  0.00000000E+00
  0.00000000E+00  0.00000000E+00  0.00000000E+00
  0.00000000E+00  0.00000000E+00  0.00000000E+00
  0.00000000E+00  0.00000000E+00  0.00000000E+00
  0.00000000E+00  0.00000000E+00  0.00000000E+00
  0.00000000E+00  0.00000000E+00  0.00000000E+00
  0.00000000E+00  0.00000000E+00  0.00000000E+00
  0.00000000E+00  0.00000000E+00  0.00000000E+00
  0.00000000E+00  0.00000000E+00  0.00000000E+00
  0.00000000E+00  0.00000000E+00  0.00000000E+00
  0.00000000E+00  0.00000000E+00  0.00000000E+00
  0.00000000E+00  0.00000000E+00  0.00000000E+00
  0.00000000E+00  0.00000000E+00  0.00000000E+00
  0.00000000E+00  0.00000000E+00  0.00000000E+00
  0.00000000E+00  0.00000000E+00  0.00000000E+00
  0.00000000E+00  0.00000000E+00  0.00000000E+00
  0.00000000E+00  0.00000000E+00  0.00000000E+00
  0.00000000E+00  0.00000000E+00  0.00000000E+00
  0.00000000E+00  0.00000000E+00  0.00000000E+00
  0.00000000E+00  0.00000000E+00  0.00000000E+00
  0.00000000E+00  0.00000000E+00  0.00000000E+00
  0.00000000E+00  0.00000000E+00  0.00000000E+00
  0.00000000E+00  0.00000000E+00  0.00000000E+00
  0.00000000E+00  0.00000000E+00  0.00000000E+00
  0.00000000E+00  0.00000000E+00  0.00000000E+00
  0.00000000E+00  0.00000000E+00  0.00000000E+00
