Al   Sc   N    O                        
   1.00000000000000     
   -10.0431982671125937    0.0109495472780485    0.0004912615105218
    -5.0120211636578329    8.7280173973373323   -0.0005708674711546
    -0.0267062756609898    0.0433823914445480   -9.8294093746071471
   Al   Sc   N    O 
    23    13    35     1
Direct
  0.1187059092132472  0.0874553355530097  0.4110284055712086
  0.2186301243707405  0.2008325572380940  0.1528455538762330
  0.7709161052377809  0.1000823540339226  0.8326270481539098
  0.8873615205028784  0.2052727717903053  0.5981217121788873
  0.5462303671897857  0.2195170904931416  0.1480290600086676
  0.2289130760448188  0.2073432924292007  0.6409115624131871
  0.8797037924266817  0.2101330126435954  0.0863490626225953
  0.5495913790860811  0.2169113272727969  0.6335620478629451
  0.2317281720959485  0.5407212598687536  0.1485349533339644
  0.4359103150817134  0.4440198473484216  0.3991536876423609
  0.5489821526559382  0.5405983833727035  0.1439092924634977
  0.2275667133121004  0.5356325133135300  0.6467764501367839
  0.8872479462954246  0.5353767544426304  0.1512210436254122
  0.4433505153611961  0.4335219949852416  0.8946331155246767
  0.5515908996224894  0.5379048034811404  0.6481283191026321
  0.1121090409243237  0.7577166078166684  0.4008872878016518
  0.7742485170476883  0.7570640561681756  0.8988180364814511
  0.8870909631461146  0.8675852551454923  0.6518239412271001
  0.4481731693384958  0.7540277322867794  0.3978609686639700
  0.5530210171193133  0.8628225773199887  0.1396054886495151
  0.1231626861463724  0.7517138206164944  0.8901806353032811
  0.4456968423293191  0.7530920655754798  0.8952002727581032
  0.5625003359060088  0.8641107136147284  0.6498007903334084
  0.4455771756124633  0.0864064947142040  0.3896944907301432
  0.1087923548092959  0.0899614738317567  0.8699153226039442
  0.7812835921173615  0.0930587874029740  0.3638621236038020
  0.4584489843734616  0.0884745312655255  0.8816734887116695
  0.1268914462594353  0.4232248348196563  0.3781098056176333
  0.7662885012506635  0.4368728995323181  0.8766091912929710
  0.8908796885886545  0.5426102719234933  0.6267964293684187
  0.1144715360738928  0.4361672060879513  0.8987149940420451
  0.7685237666715707  0.4243484712052421  0.3742488753608413
  0.2238757497079007  0.8723796307645699  0.1475289934617692
  0.2312752562910489  0.8578477615865125  0.6278619575383928
  0.7761154585541021  0.7682498887798559  0.3768512510313258
  0.8891467206907180  0.8762518980697607  0.1127560975073436
  0.2163528014838647  0.1874959999165782  0.3447770878384802
  0.1027935334865759  0.1111649733671456  0.0916720911472879
  0.8734634094125724  0.1985086308044757  0.8862984528254145
  0.7803207700756118  0.0911782312272535  0.6274259500143984
  0.5350439039713208  0.2328980863459194  0.3573348072076286
  0.4433865807417732  0.0959378338424273  0.1050220799413140
  0.1110584837567075  0.1073913861098177  0.6195436906031020
  0.9099518018368755  0.1922902663509873  0.4024456032420503
  0.7621862936701618  0.1197225974587397  0.1366622471487489
  0.5551456324071395  0.2244368683547293  0.8348914945902166
  0.4471667615049597  0.0892902861275147  0.6162274278178685
  0.2323524061187214  0.5559228857446428  0.3391930178980971
  0.1161516211140565  0.4254532492032865  0.1201764874128344
  0.8880092560666881  0.5544531676363746  0.8431588206742049
  0.7667049452513552  0.4201756004580659  0.6164841387239761
  0.5305340434154147  0.5522936584108393  0.3358879604638929
  0.4431566776729241  0.4289658377670023  0.0893974620337801
  0.2337637470582692  0.5439090757147014  0.8383462802635009
  0.1368191766007101  0.4153653134670421  0.6007750713109630
  0.8915616120923815  0.5357499605465819  0.3515873655179789
  0.7747509057782764  0.4291514444566289  0.1149131510683432
  0.5328173483157101  0.5494550783210244  0.8402165495398535
  0.4405269541841008  0.4371005437848368  0.5926086485769204
  0.2237192537937034  0.8705072375995186  0.3779362816233913
  0.1274332732245469  0.7409010282947150  0.0801856797482188
  0.8842348026478817  0.8730727907181119  0.8567036117658020
  0.7666768924125904  0.7854197804725302  0.5935208339408931
  0.5433172164731204  0.8590392127234097  0.3298485639993913
  0.4569698207981858  0.7503096078589095  0.0864973834237404
  0.2329423347508950  0.8540783762849173  0.8468299523946357
  0.0968216205874839  0.7474676694990237  0.5962325766390677
  0.9154683875809582  0.8598637849027639  0.3295625324508364
  0.7695947025936221  0.7489968598416397  0.0969014625949569
  0.5643842601855980  0.8495197323329791  0.8440978410118518
  0.4728530775538502  0.7457722870023673  0.5899535277780643
  0.2261470929875244  0.2100598891218866  0.8331957925387954
 
  0.00000000E+00  0.00000000E+00  0.00000000E+00
  0.00000000E+00  0.00000000E+00  0.00000000E+00
  0.00000000E+00  0.00000000E+00  0.00000000E+00
  0.00000000E+00  0.00000000E+00  0.00000000E+00
  0.00000000E+00  0.00000000E+00  0.00000000E+00
  0.00000000E+00  0.00000000E+00  0.00000000E+00
  0.00000000E+00  0.00000000E+00  0.00000000E+00
  0.00000000E+00  0.00000000E+00  0.00000000E+00
  0.00000000E+00  0.00000000E+00  0.00000000E+00
  0.00000000E+00  0.00000000E+00  0.00000000E+00
  0.00000000E+00  0.00000000E+00  0.00000000E+00
  0.00000000E+00  0.00000000E+00  0.00000000E+00
  0.00000000E+00  0.00000000E+00  0.00000000E+00
  0.00000000E+00  0.00000000E+00  0.00000000E+00
  0.00000000E+00  0.00000000E+00  0.00000000E+00
  0.00000000E+00  0.00000000E+00  0.00000000E+00
  0.00000000E+00  0.00000000E+00  0.00000000E+00
  0.00000000E+00  0.00000000E+00  0.00000000E+00
  0.00000000E+00  0.00000000E+00  0.00000000E+00
  0.00000000E+00  0.00000000E+00  0.00000000E+00
  0.00000000E+00  0.00000000E+00  0.00000000E+00
  0.00000000E+00  0.00000000E+00  0.00000000E+00
  0.00000000E+00  0.00000000E+00  0.00000000E+00
  0.00000000E+00  0.00000000E+00  0.00000000E+00
  0.00000000E+00  0.00000000E+00  0.00000000E+00
  0.00000000E+00  0.00000000E+00  0.00000000E+00
  0.00000000E+00  0.00000000E+00  0.00000000E+00
  0.00000000E+00  0.00000000E+00  0.00000000E+00
  0.00000000E+00  0.00000000E+00  0.00000000E+00
  0.00000000E+00  0.00000000E+00  0.00000000E+00
  0.00000000E+00  0.00000000E+00  0.00000000E+00
  0.00000000E+00  0.00000000E+00  0.00000000E+00
  0.00000000E+00  0.00000000E+00  0.00000000E+00
  0.00000000E+00  0.00000000E+00  0.00000000E+00
  0.00000000E+00  0.00000000E+00  0.00000000E+00
  0.00000000E+00  0.00000000E+00  0.00000000E+00
  0.00000000E+00  0.00000000E+00  0.00000000E+00
  0.00000000E+00  0.00000000E+00  0.00000000E+00
  0.00000000E+00  0.00000000E+00  0.00000000E+00
  0.00000000E+00  0.00000000E+00  0.00000000E+00
  0.00000000E+00  0.00000000E+00  0.00000000E+00
  0.00000000E+00  0.00000000E+00  0.00000000E+00
  0.00000000E+00  0.00000000E+00  0.00000000E+00
  0.00000000E+00  0.00000000E+00  0.00000000E+00
  0.00000000E+00  0.00000000E+00  0.00000000E+00
  0.00000000E+00  0.00000000E+00  0.00000000E+00
  0.00000000E+00  0.00000000E+00  0.00000000E+00
  0.00000000E+00  0.00000000E+00  0.00000000E+00
  0.00000000E+00  0.00000000E+00  0.00000000E+00
  0.00000000E+00  0.00000000E+00  0.00000000E+00
  0.00000000E+00  0.00000000E+00  0.00000000E+00
  0.00000000E+00  0.00000000E+00  0.00000000E+00
  0.00000000E+00  0.00000000E+00  0.00000000E+00
  0.00000000E+00  0.00000000E+00  0.00000000E+00
  0.00000000E+00  0.00000000E+00  0.00000000E+00
  0.00000000E+00  0.00000000E+00  0.00000000E+00
  0.00000000E+00  0.00000000E+00  0.00000000E+00
  0.00000000E+00  0.00000000E+00  0.00000000E+00
  0.00000000E+00  0.00000000E+00  0.00000000E+00
  0.00000000E+00  0.00000000E+00  0.00000000E+00
  0.00000000E+00  0.00000000E+00  0.00000000E+00
  0.00000000E+00  0.00000000E+00  0.00000000E+00
  0.00000000E+00  0.00000000E+00  0.00000000E+00
  0.00000000E+00  0.00000000E+00  0.00000000E+00
  0.00000000E+00  0.00000000E+00  0.00000000E+00
  0.00000000E+00  0.00000000E+00  0.00000000E+00
  0.00000000E+00  0.00000000E+00  0.00000000E+00
  0.00000000E+00  0.00000000E+00  0.00000000E+00
  0.00000000E+00  0.00000000E+00  0.00000000E+00
  0.00000000E+00  0.00000000E+00  0.00000000E+00
  0.00000000E+00  0.00000000E+00  0.00000000E+00
  0.00000000E+00  0.00000000E+00  0.00000000E+00
