Al   Sc   N    O                        
   1.00000000000000     
   -10.2015281143898626    0.0105971625239811    0.0009802626788957
    -5.0951189293500061    8.8667913873075062    0.0015982319391035
    -0.0223771494498330    0.0901237123125488   -9.3643782165279532
   Al   Sc   N    O 
    23    13    35     1
Direct
  0.1105455312478796  0.0891118223014757  0.3284547891384548
  0.2225120101750662  0.2066128201705126  0.1076790534108483
  0.7703857373887928  0.1005860748994820  0.8285814054620033
  0.8941402224527053  0.2036979333841415  0.5902064765458448
  0.5559493377032680  0.2165985001607496  0.0801415736675324
  0.2229137808793595  0.2008967973322413  0.5719752876669659
  0.8781260767239161  0.2100487715546890  0.0857075741112183
  0.5473005432271023  0.2176613791887050  0.5851628906140931
  0.2308289487821682  0.5336050773696073  0.0831965258208314
  0.4374700066703241  0.4383424639018685  0.3321462165336015
  0.5531665986719858  0.5403749977124193  0.1254696327011047
  0.2304229206518116  0.5350289586703028  0.5963182628805654
  0.8878986723431836  0.5358853285964784  0.1294329365184623
  0.4451263610935570  0.4311767225876082  0.8312360483599193
  0.5523166218794771  0.5387669271502986  0.6277076519764364
  0.1124811182038599  0.7620822558252485  0.3878017075948748
  0.7734041697684617  0.7588218786736007  0.8829011422801898
  0.8830004593224032  0.8723716173663476  0.6371508257815321
  0.4447863907531442  0.7558661870925647  0.3824120257782155
  0.5549461248365262  0.8610847480629857  0.1235258754635282
  0.1187283527825969  0.7536036497908043  0.8647928602203265
  0.4502200519769062  0.7518148182431119  0.8762658433156005
  0.5593786053187841  0.8677846680955525  0.6309168099600484
  0.4494746261449620  0.0896686394917481  0.3492270360247716
  0.1077094345573002  0.0921714539316056  0.8611271516549834
  0.7797597011301747  0.0945704679529342  0.3579333767423449
  0.4539013029310084  0.0888814546170806  0.8554977038283766
  0.1236465323589329  0.4292011242582845  0.3514414448838110
  0.7694840622400747  0.4315850173388114  0.8595363110843621
  0.8863487839317656  0.5446516934212724  0.6057987693625080
  0.1145751171267833  0.4303823565530038  0.8521592383881895
  0.7700018061297840  0.4225873757232179  0.3596653619553223
  0.2312711393532538  0.8586752166557403  0.1151322960314829
  0.2247334812347077  0.8734747647147429  0.6122248812880215
  0.7748375017968598  0.7686876080538170  0.3576678107226954
  0.8902189228331636  0.8767611863879949  0.1004640491033513
  0.2165352685253623  0.1915335344802287  0.3611759421172422
  0.0999034557706437  0.1083619618123848  0.1170498770171378
  0.8769327739824178  0.1954396729627916  0.8794612449523456
  0.7762234525451959  0.0958686044943278  0.6185815450849290
  0.5402171995473495  0.2326869355279797  0.3823012278804399
  0.4494107934438532  0.0935880107992944  0.1050262062762499
  0.1060715710338016  0.1154170693761998  0.6333561028212173
  0.9128044467940057  0.1905563559437695  0.3856754744699700
  0.7623961087661684  0.1182494586701139  0.1263346691654093
  0.5609438300554146  0.2186619980664020  0.8708072166643248
  0.4414138900460074  0.0929155484065092  0.6104570329422501
  0.2325532383806390  0.5539778110666660  0.3733747107415724
  0.1140946795369970  0.4279973449967756  0.1082911757182146
  0.8831240778745553  0.5556269698477649  0.8380225016005625
  0.7671177701997038  0.4189661510432146  0.6063752747063234
  0.5341100233259013  0.5523183334813737  0.3338846885364362
  0.4425566094571707  0.4279873096715718  0.1180677656483908
  0.2350520803345262  0.5402073546602963  0.8573266665042354
  0.1347779045131716  0.4125113293103553  0.6059645924331534
  0.8904835465636367  0.5364857762537270  0.3486616694206575
  0.7769542963446057  0.4274598159139629  0.1074071569101278
  0.5382710985065486  0.5477056650246652  0.8382809820359753
  0.4443071909325340  0.4297216295258792  0.6233253295896830
  0.2227966507189407  0.8709727602817807  0.3587563457311091
  0.1218949683185429  0.7409392085659974  0.0741723016332259
  0.8804300458617718  0.8756576723273284  0.8492508981728193
  0.7652798883019969  0.7861818396814186  0.5868501154982226
  0.5423300737517138  0.8595346048881467  0.3256637924009738
  0.4635551705800651  0.7468263358093097  0.0783140017057420
  0.2334254032083791  0.8564218063897471  0.8501746983279901
  0.0980064039921658  0.7548394143249411  0.6045992474176600
  0.9131222983939011  0.8626357885656759  0.3309159506938499
  0.7709167306246840  0.7505702117792694  0.0929923156351151
  0.5637864423241084  0.8524832700665854  0.8378282019824752
  0.4658815792282951  0.7499937780131631  0.5864362481735128
  0.2259408019069440  0.2029558883665601  0.9005755244423881
 
  0.00000000E+00  0.00000000E+00  0.00000000E+00
  0.00000000E+00  0.00000000E+00  0.00000000E+00
  0.00000000E+00  0.00000000E+00  0.00000000E+00
  0.00000000E+00  0.00000000E+00  0.00000000E+00
  0.00000000E+00  0.00000000E+00  0.00000000E+00
  0.00000000E+00  0.00000000E+00  0.00000000E+00
  0.00000000E+00  0.00000000E+00  0.00000000E+00
  0.00000000E+00  0.00000000E+00  0.00000000E+00
  0.00000000E+00  0.00000000E+00  0.00000000E+00
  0.00000000E+00  0.00000000E+00  0.00000000E+00
  0.00000000E+00  0.00000000E+00  0.00000000E+00
  0.00000000E+00  0.00000000E+00  0.00000000E+00
  0.00000000E+00  0.00000000E+00  0.00000000E+00
  0.00000000E+00  0.00000000E+00  0.00000000E+00
  0.00000000E+00  0.00000000E+00  0.00000000E+00
  0.00000000E+00  0.00000000E+00  0.00000000E+00
  0.00000000E+00  0.00000000E+00  0.00000000E+00
  0.00000000E+00  0.00000000E+00  0.00000000E+00
  0.00000000E+00  0.00000000E+00  0.00000000E+00
  0.00000000E+00  0.00000000E+00  0.00000000E+00
  0.00000000E+00  0.00000000E+00  0.00000000E+00
  0.00000000E+00  0.00000000E+00  0.00000000E+00
  0.00000000E+00  0.00000000E+00  0.00000000E+00
  0.00000000E+00  0.00000000E+00  0.00000000E+00
  0.00000000E+00  0.00000000E+00  0.00000000E+00
  0.00000000E+00  0.00000000E+00  0.00000000E+00
  0.00000000E+00  0.00000000E+00  0.00000000E+00
  0.00000000E+00  0.00000000E+00  0.00000000E+00
  0.00000000E+00  0.00000000E+00  0.00000000E+00
  0.00000000E+00  0.00000000E+00  0.00000000E+00
  0.00000000E+00  0.00000000E+00  0.00000000E+00
  0.00000000E+00  0.00000000E+00  0.00000000E+00
  0.00000000E+00  0.00000000E+00  0.00000000E+00
  0.00000000E+00  0.00000000E+00  0.00000000E+00
  0.00000000E+00  0.00000000E+00  0.00000000E+00
  0.00000000E+00  0.00000000E+00  0.00000000E+00
  0.00000000E+00  0.00000000E+00  0.00000000E+00
  0.00000000E+00  0.00000000E+00  0.00000000E+00
  0.00000000E+00  0.00000000E+00  0.00000000E+00
  0.00000000E+00  0.00000000E+00  0.00000000E+00
  0.00000000E+00  0.00000000E+00  0.00000000E+00
  0.00000000E+00  0.00000000E+00  0.00000000E+00
  0.00000000E+00  0.00000000E+00  0.00000000E+00
  0.00000000E+00  0.00000000E+00  0.00000000E+00
  0.00000000E+00  0.00000000E+00  0.00000000E+00
  0.00000000E+00  0.00000000E+00  0.00000000E+00
  0.00000000E+00  0.00000000E+00  0.00000000E+00
  0.00000000E+00  0.00000000E+00  0.00000000E+00
  0.00000000E+00  0.00000000E+00  0.00000000E+00
  0.00000000E+00  0.00000000E+00  0.00000000E+00
  0.00000000E+00  0.00000000E+00  0.00000000E+00
  0.00000000E+00  0.00000000E+00  0.00000000E+00
  0.00000000E+00  0.00000000E+00  0.00000000E+00
  0.00000000E+00  0.00000000E+00  0.00000000E+00
  0.00000000E+00  0.00000000E+00  0.00000000E+00
  0.00000000E+00  0.00000000E+00  0.00000000E+00
  0.00000000E+00  0.00000000E+00  0.00000000E+00
  0.00000000E+00  0.00000000E+00  0.00000000E+00
  0.00000000E+00  0.00000000E+00  0.00000000E+00
  0.00000000E+00  0.00000000E+00  0.00000000E+00
  0.00000000E+00  0.00000000E+00  0.00000000E+00
  0.00000000E+00  0.00000000E+00  0.00000000E+00
  0.00000000E+00  0.00000000E+00  0.00000000E+00
  0.00000000E+00  0.00000000E+00  0.00000000E+00
  0.00000000E+00  0.00000000E+00  0.00000000E+00
  0.00000000E+00  0.00000000E+00  0.00000000E+00
  0.00000000E+00  0.00000000E+00  0.00000000E+00
  0.00000000E+00  0.00000000E+00  0.00000000E+00
  0.00000000E+00  0.00000000E+00  0.00000000E+00
  0.00000000E+00  0.00000000E+00  0.00000000E+00
  0.00000000E+00  0.00000000E+00  0.00000000E+00
  0.00000000E+00  0.00000000E+00  0.00000000E+00
