Al   Sc   N    O                        
   1.00000000000000     
   -10.1826975515207288    0.0105882211109501    0.0010548983864435
    -5.0842640735942650    8.8519459146045580    0.0016579255729607
    -0.0335876856361124    0.1003673355646907   -9.4246386583603634
   Al   Sc   N    O 
    23    13    35     1
Direct
  0.1104551321907152  0.0896901681075519  0.3278863891669985
  0.2224020950461636  0.2070493378817844  0.1051801754059412
  0.7701236046903119  0.1008575465722785  0.8281508658623125
  0.8941165598834147  0.2036713371117003  0.5894591718202236
  0.5558874299431977  0.2166545715063322  0.0800887406742206
  0.2226355080202680  0.2014373565294747  0.5716826162008388
  0.8778492225528680  0.2101800056200887  0.0854861053727305
  0.5470104141151637  0.2175506827020399  0.5842748908418542
  0.2320677747691562  0.5325289400677278  0.0728345832905930
  0.4363691462332113  0.4388391535817391  0.3299748101329953
  0.5531603889775809  0.5404432578960794  0.1264434742565683
  0.2318038596871759  0.5344163811676808  0.5886004090296666
  0.8882924924324413  0.5355809535091538  0.1297067539620542
  0.4454544317664144  0.4303386936364149  0.8294459934935503
  0.5523660614569721  0.5387841643383240  0.6287335129981102
  0.1121930034632683  0.7632038433385517  0.3891530061692521
  0.7734690071524071  0.7584439942594159  0.8840465318200401
  0.8825720321740320  0.8723289727947261  0.6386474508582154
  0.4446282358453786  0.7558560419644067  0.3832612038486900
  0.5548031326960228  0.8609861784265576  0.1244246616084865
  0.1184199650999886  0.7538035475842051  0.8639800450811492
  0.4503347012787984  0.7515762736292828  0.8772913452364861
  0.5595137596536190  0.8677205637443492  0.6316086643098373
  0.4488838266634048  0.0899394832333797  0.3487478646869846
  0.1075332917065737  0.0919037088738648  0.8609861564729613
  0.7795036371602038  0.0945999770269168  0.3578199797996007
  0.4543929128333488  0.0884969246285436  0.8553691675373543
  0.1243940458001731  0.4296329884285655  0.3481132294849658
  0.7695785283461376  0.4317158452471759  0.8597005095429466
  0.8864134977335212  0.5447225328121448  0.6050002359423914
  0.1150257050971746  0.4295575347660545  0.8475964839423682
  0.7697026771448989  0.4226843306857049  0.3598802894744324
  0.2311342018381666  0.8585041289981348  0.1160174027198551
  0.2248497098687210  0.8737693994506230  0.6131496778113643
  0.7747706033550372  0.7686913584188417  0.3580842297046942
  0.8904362592903681  0.8766207095247083  0.1010256962101295
  0.2159563430802294  0.1922675149086075  0.3631363397666618
  0.0999076141870034  0.1087166297663131  0.1176192215898055
  0.8766266559872093  0.1953062814991071  0.8810020321851724
  0.7758338415605479  0.0961402525651565  0.6193906994086404
  0.5394557928150192  0.2333601638525451  0.3831768228848276
  0.4490336531911510  0.0935062113701903  0.1051412709249675
  0.1055689264361206  0.1160826693560466  0.6347263832348347
  0.9129060843535370  0.1903516761382775  0.3866210161023318
  0.7621215168345117  0.1185324989890830  0.1281471237891907
  0.5611875208032515  0.2185938965073433  0.8727745505068754
  0.4414662497770649  0.0929690378617991  0.6111069567235248
  0.2334838945928226  0.5542014633318288  0.3810247338993094
  0.1143046330925515  0.4280462263654456  0.1078904177437536
  0.8832660338679403  0.5558696449079434  0.8362123296699906
  0.7670103011023670  0.4189470872996139  0.6060397422238637
  0.5336161782992050  0.5526616084297231  0.3330283231138012
  0.4415974491044636  0.4279845955294164  0.1201512276852483
  0.2365405019963660  0.5385432903555909  0.8636038424713988
  0.1351500638352405  0.4129427088446249  0.6065636150978904
  0.8910806777144202  0.5361246508405060  0.3481675791067431
  0.7768959311142254  0.4276244726636591  0.1073776489840057
  0.5381970571120220  0.5476679990534947  0.8376297820466050
  0.4442874479433954  0.4290553070365348  0.6253133561125708
  0.2225969376565899  0.8713745463919196  0.3592295480808048
  0.1219015512584178  0.7410033400920142  0.0741866092669952
  0.8797638954248370  0.8758427985612300  0.8496631207336662
  0.7651348958464013  0.7865385827248872  0.5855721333329384
  0.5421127106005841  0.8594542037797197  0.3248904834471702
  0.4636313430370862  0.7467231208286691  0.0776742750024084
  0.2337438024462841  0.8561760968523373  0.8499253664325224
  0.0980507830360011  0.7548424116862549  0.6075172379321927
  0.9135478068778866  0.8622813813751549  0.3305773732930106
  0.7708939076855330  0.7502368157206902  0.0926328520309667
  0.5641032041395917  0.8519814846870233  0.8370468198818273
  0.4661354597833949  0.7498267370003120  0.5856458904863402
  0.2259752957542176  0.2028216823896400  0.9005384919605817
 
  0.00000000E+00  0.00000000E+00  0.00000000E+00
  0.00000000E+00  0.00000000E+00  0.00000000E+00
  0.00000000E+00  0.00000000E+00  0.00000000E+00
  0.00000000E+00  0.00000000E+00  0.00000000E+00
  0.00000000E+00  0.00000000E+00  0.00000000E+00
  0.00000000E+00  0.00000000E+00  0.00000000E+00
  0.00000000E+00  0.00000000E+00  0.00000000E+00
  0.00000000E+00  0.00000000E+00  0.00000000E+00
  0.00000000E+00  0.00000000E+00  0.00000000E+00
  0.00000000E+00  0.00000000E+00  0.00000000E+00
  0.00000000E+00  0.00000000E+00  0.00000000E+00
  0.00000000E+00  0.00000000E+00  0.00000000E+00
  0.00000000E+00  0.00000000E+00  0.00000000E+00
  0.00000000E+00  0.00000000E+00  0.00000000E+00
  0.00000000E+00  0.00000000E+00  0.00000000E+00
  0.00000000E+00  0.00000000E+00  0.00000000E+00
  0.00000000E+00  0.00000000E+00  0.00000000E+00
  0.00000000E+00  0.00000000E+00  0.00000000E+00
  0.00000000E+00  0.00000000E+00  0.00000000E+00
  0.00000000E+00  0.00000000E+00  0.00000000E+00
  0.00000000E+00  0.00000000E+00  0.00000000E+00
  0.00000000E+00  0.00000000E+00  0.00000000E+00
  0.00000000E+00  0.00000000E+00  0.00000000E+00
  0.00000000E+00  0.00000000E+00  0.00000000E+00
  0.00000000E+00  0.00000000E+00  0.00000000E+00
  0.00000000E+00  0.00000000E+00  0.00000000E+00
  0.00000000E+00  0.00000000E+00  0.00000000E+00
  0.00000000E+00  0.00000000E+00  0.00000000E+00
  0.00000000E+00  0.00000000E+00  0.00000000E+00
  0.00000000E+00  0.00000000E+00  0.00000000E+00
  0.00000000E+00  0.00000000E+00  0.00000000E+00
  0.00000000E+00  0.00000000E+00  0.00000000E+00
  0.00000000E+00  0.00000000E+00  0.00000000E+00
  0.00000000E+00  0.00000000E+00  0.00000000E+00
  0.00000000E+00  0.00000000E+00  0.00000000E+00
  0.00000000E+00  0.00000000E+00  0.00000000E+00
  0.00000000E+00  0.00000000E+00  0.00000000E+00
  0.00000000E+00  0.00000000E+00  0.00000000E+00
  0.00000000E+00  0.00000000E+00  0.00000000E+00
  0.00000000E+00  0.00000000E+00  0.00000000E+00
  0.00000000E+00  0.00000000E+00  0.00000000E+00
  0.00000000E+00  0.00000000E+00  0.00000000E+00
  0.00000000E+00  0.00000000E+00  0.00000000E+00
  0.00000000E+00  0.00000000E+00  0.00000000E+00
  0.00000000E+00  0.00000000E+00  0.00000000E+00
  0.00000000E+00  0.00000000E+00  0.00000000E+00
  0.00000000E+00  0.00000000E+00  0.00000000E+00
  0.00000000E+00  0.00000000E+00  0.00000000E+00
  0.00000000E+00  0.00000000E+00  0.00000000E+00
  0.00000000E+00  0.00000000E+00  0.00000000E+00
  0.00000000E+00  0.00000000E+00  0.00000000E+00
  0.00000000E+00  0.00000000E+00  0.00000000E+00
  0.00000000E+00  0.00000000E+00  0.00000000E+00
  0.00000000E+00  0.00000000E+00  0.00000000E+00
  0.00000000E+00  0.00000000E+00  0.00000000E+00
  0.00000000E+00  0.00000000E+00  0.00000000E+00
  0.00000000E+00  0.00000000E+00  0.00000000E+00
  0.00000000E+00  0.00000000E+00  0.00000000E+00
  0.00000000E+00  0.00000000E+00  0.00000000E+00
  0.00000000E+00  0.00000000E+00  0.00000000E+00
  0.00000000E+00  0.00000000E+00  0.00000000E+00
  0.00000000E+00  0.00000000E+00  0.00000000E+00
  0.00000000E+00  0.00000000E+00  0.00000000E+00
  0.00000000E+00  0.00000000E+00  0.00000000E+00
  0.00000000E+00  0.00000000E+00  0.00000000E+00
  0.00000000E+00  0.00000000E+00  0.00000000E+00
  0.00000000E+00  0.00000000E+00  0.00000000E+00
  0.00000000E+00  0.00000000E+00  0.00000000E+00
  0.00000000E+00  0.00000000E+00  0.00000000E+00
  0.00000000E+00  0.00000000E+00  0.00000000E+00
  0.00000000E+00  0.00000000E+00  0.00000000E+00
  0.00000000E+00  0.00000000E+00  0.00000000E+00
