Al   Sc   N    O                        
   1.00000000000000     
   -10.1450200840484079    0.0101513535657201   -0.0035683204888832
    -5.0773984906497613    8.8147575178154511   -0.0018253336888127
    -0.0027511167688393    0.0776003099908475   -9.5572517781283501
   Al   Sc   N    O 
    23    13    35     1
Direct
  0.1107092716882931  0.0911477313533240  0.3089222321792846
  0.2223246586566887  0.2084946292608478  0.0835399390868119
  0.7701905609020443  0.0999824736276906  0.8109729828078613
  0.8931041262772084  0.2045219907200817  0.5699495352063408
  0.5567741583631829  0.2162163936759498  0.0632802378578106
  0.2219754167801185  0.2030303048747228  0.5563788947621831
  0.8782136175379804  0.2104798937240986  0.0684934728073898
  0.5449648097753936  0.2178843495185419  0.5684102187937157
  0.2339571744077702  0.5334192817094916  0.0616662455711676
  0.4383052864121737  0.4366119615914315  0.3140799948641799
  0.5540361069102744  0.5399458901199523  0.1131718558992389
  0.2279483944470329  0.5390648034673333  0.5636043814914657
  0.8890050306355946  0.5358894900338171  0.0626754900641657
  0.4417046489367422  0.4329744985352235  0.8128960703282218
  0.5493353629201323  0.5396393943067466  0.6122140101508720
  0.1216778440901649  0.7550926600045429  0.3095466734892298
  0.7706636041890391  0.7640009789880438  0.8655415453237794
  0.8832465326010208  0.8718549363901289  0.6188168367495379
  0.4445279967544096  0.7562576790556577  0.3661918309465761
  0.5567292437887801  0.8605736575799483  0.1120947377953030
  0.1173225695388993  0.7532953801616671  0.8201744008826068
  0.4499365707368241  0.7513835709699208  0.8623436797172275
  0.5564738812117582  0.8682094670582856  0.6161438101450472
  0.4472908143094045  0.0913156124547641  0.3320727976862159
  0.1066875249616714  0.0926956446244986  0.8393946826506138
  0.7792828607758651  0.0952862837096049  0.3417345964950016
  0.4550642057802321  0.0879086625161491  0.8382454677571829
  0.1179093079825293  0.4314182102416737  0.3265071976858920
  0.7661944807060692  0.4268673213913203  0.8380078353054472
  0.8877987572068662  0.5421903702377904  0.5921271281392748
  0.1221889038471602  0.4295313259036249  0.8283850334951879
  0.7744003452205845  0.4252779769273829  0.3389303438975091
  0.2337338330355649  0.8642152156002467  0.0886889554138932
  0.2181807456920879  0.8729136886657471  0.5843518246636989
  0.7772409974807744  0.7646464960095614  0.3475028559260238
  0.8897263153873567  0.8772360006534470  0.0860854400807085
  0.2144132617687333  0.1941998875353335  0.3528182473535821
  0.0994780265153068  0.1128755128143766  0.1019297134405619
  0.8769669106295339  0.1922843988968310  0.8688236449101367
  0.7761318389653269  0.0958527789361199  0.6054122243231888
  0.5393582446964871  0.2326697067249341  0.3713242694464967
  0.4485525844197227  0.0934944712042878  0.0896407408051871
  0.1048944509401792  0.1152073861397085  0.6185207623387683
  0.9131183898843815  0.1916584703780160  0.3713758405773575
  0.7628245330854213  0.1185788529295237  0.1155122741193537
  0.5604350995181377  0.2200603485173289  0.8591064082908062
  0.4411928698651977  0.0932418282223253  0.5972799660224268
  0.2334193347700335  0.5526863151554409  0.3664097657413947
  0.1132832201106169  0.4286105925879724  0.0918349401645244
  0.8855432469474280  0.5513391759474047  0.8446610341091798
  0.7654833067197444  0.4179832717899714  0.5962271700508595
  0.5354268078263260  0.5519147022830424  0.3171317643765406
  0.4439995406110526  0.4254886106166254  0.1091616243299427
  0.2357847086223117  0.5448331365176386  0.8648063296870063
  0.1375782077394163  0.4134535687235683  0.5995120634147568
  0.8927309973443514  0.5355395761675368  0.3663077276964941
  0.7776154031129394  0.4284880812264049  0.0901221572066930
  0.5353107628025242  0.5492800550786114  0.8189211319946068
  0.4393566769178463  0.4303071287223617  0.6122555636728393
  0.2232207920482310  0.8726623459685356  0.3389625418950857
  0.1282108022467625  0.7374339996792116  0.1056930564946299
  0.8805742767611449  0.8762737583627427  0.8389918147285655
  0.7643647981218464  0.7851643399228010  0.5771873452929412
  0.5434303495884336  0.8590977047532746  0.3091409991842582
  0.4673772315467204  0.7454189452515791  0.0602414504259201
  0.2308809166400252  0.8560844930208020  0.8414494051204429
  0.0999097415802339  0.7486282015734389  0.6191616148884123
  0.9115340866144450  0.8625449895270663  0.3215940603934229
  0.7705943334784706  0.7524677050906519  0.0751251575244964
  0.5623467529517043  0.8515117683386819  0.8182017708599716
  0.4614890298874457  0.7513727637309273  0.5669804537146206
  0.2262156459116369  0.2032555785046100  0.8837042350730968
 
  0.00000000E+00  0.00000000E+00  0.00000000E+00
  0.00000000E+00  0.00000000E+00  0.00000000E+00
  0.00000000E+00  0.00000000E+00  0.00000000E+00
  0.00000000E+00  0.00000000E+00  0.00000000E+00
  0.00000000E+00  0.00000000E+00  0.00000000E+00
  0.00000000E+00  0.00000000E+00  0.00000000E+00
  0.00000000E+00  0.00000000E+00  0.00000000E+00
  0.00000000E+00  0.00000000E+00  0.00000000E+00
  0.00000000E+00  0.00000000E+00  0.00000000E+00
  0.00000000E+00  0.00000000E+00  0.00000000E+00
  0.00000000E+00  0.00000000E+00  0.00000000E+00
  0.00000000E+00  0.00000000E+00  0.00000000E+00
  0.00000000E+00  0.00000000E+00  0.00000000E+00
  0.00000000E+00  0.00000000E+00  0.00000000E+00
  0.00000000E+00  0.00000000E+00  0.00000000E+00
  0.00000000E+00  0.00000000E+00  0.00000000E+00
  0.00000000E+00  0.00000000E+00  0.00000000E+00
  0.00000000E+00  0.00000000E+00  0.00000000E+00
  0.00000000E+00  0.00000000E+00  0.00000000E+00
  0.00000000E+00  0.00000000E+00  0.00000000E+00
  0.00000000E+00  0.00000000E+00  0.00000000E+00
  0.00000000E+00  0.00000000E+00  0.00000000E+00
  0.00000000E+00  0.00000000E+00  0.00000000E+00
  0.00000000E+00  0.00000000E+00  0.00000000E+00
  0.00000000E+00  0.00000000E+00  0.00000000E+00
  0.00000000E+00  0.00000000E+00  0.00000000E+00
  0.00000000E+00  0.00000000E+00  0.00000000E+00
  0.00000000E+00  0.00000000E+00  0.00000000E+00
  0.00000000E+00  0.00000000E+00  0.00000000E+00
  0.00000000E+00  0.00000000E+00  0.00000000E+00
  0.00000000E+00  0.00000000E+00  0.00000000E+00
  0.00000000E+00  0.00000000E+00  0.00000000E+00
  0.00000000E+00  0.00000000E+00  0.00000000E+00
  0.00000000E+00  0.00000000E+00  0.00000000E+00
  0.00000000E+00  0.00000000E+00  0.00000000E+00
  0.00000000E+00  0.00000000E+00  0.00000000E+00
  0.00000000E+00  0.00000000E+00  0.00000000E+00
  0.00000000E+00  0.00000000E+00  0.00000000E+00
  0.00000000E+00  0.00000000E+00  0.00000000E+00
  0.00000000E+00  0.00000000E+00  0.00000000E+00
  0.00000000E+00  0.00000000E+00  0.00000000E+00
  0.00000000E+00  0.00000000E+00  0.00000000E+00
  0.00000000E+00  0.00000000E+00  0.00000000E+00
  0.00000000E+00  0.00000000E+00  0.00000000E+00
  0.00000000E+00  0.00000000E+00  0.00000000E+00
  0.00000000E+00  0.00000000E+00  0.00000000E+00
  0.00000000E+00  0.00000000E+00  0.00000000E+00
  0.00000000E+00  0.00000000E+00  0.00000000E+00
  0.00000000E+00  0.00000000E+00  0.00000000E+00
  0.00000000E+00  0.00000000E+00  0.00000000E+00
  0.00000000E+00  0.00000000E+00  0.00000000E+00
  0.00000000E+00  0.00000000E+00  0.00000000E+00
  0.00000000E+00  0.00000000E+00  0.00000000E+00
  0.00000000E+00  0.00000000E+00  0.00000000E+00
  0.00000000E+00  0.00000000E+00  0.00000000E+00
  0.00000000E+00  0.00000000E+00  0.00000000E+00
  0.00000000E+00  0.00000000E+00  0.00000000E+00
  0.00000000E+00  0.00000000E+00  0.00000000E+00
  0.00000000E+00  0.00000000E+00  0.00000000E+00
  0.00000000E+00  0.00000000E+00  0.00000000E+00
  0.00000000E+00  0.00000000E+00  0.00000000E+00
  0.00000000E+00  0.00000000E+00  0.00000000E+00
  0.00000000E+00  0.00000000E+00  0.00000000E+00
  0.00000000E+00  0.00000000E+00  0.00000000E+00
  0.00000000E+00  0.00000000E+00  0.00000000E+00
  0.00000000E+00  0.00000000E+00  0.00000000E+00
  0.00000000E+00  0.00000000E+00  0.00000000E+00
  0.00000000E+00  0.00000000E+00  0.00000000E+00
  0.00000000E+00  0.00000000E+00  0.00000000E+00
  0.00000000E+00  0.00000000E+00  0.00000000E+00
  0.00000000E+00  0.00000000E+00  0.00000000E+00
  0.00000000E+00  0.00000000E+00  0.00000000E+00
