Al   Sc   N    O                        
   1.00000000000000     
   -10.0185334462530129    0.0095421267786984   -0.0114784444796312
    -5.0356303287439967    8.6797455372485377   -0.0078149503642226
    -0.0388427605159339    0.0713146238543667   -9.9251905319565754
   Al   Sc   N    O 
    23    13    35     1
Direct
  0.1102354067965905  0.0944530958645302  0.3061759231715442
  0.2214776671092480  0.2076914217135695  0.0736564937863307
  0.7761755907669752  0.0938666088492752  0.8033167405082864
  0.8893157393797324  0.2074506551944282  0.5622981774355722
  0.5577958588818106  0.2163899861143221  0.0605202544690542
  0.2231923937621971  0.2051307775605409  0.5562916197084178
  0.8811525423072482  0.2081236389924328  0.0607537351407430
  0.5485979016548725  0.2171651876174323  0.5675592798955975
  0.2305963665662176  0.5372434229612608  0.0604944123143980
  0.4392259364671744  0.4382579041475765  0.3133711161557997
  0.5503132972709324  0.5387917539423057  0.0594711431293078
  0.2303174069003617  0.5362903642231487  0.5624270274086385
  0.8832090320482067  0.5438025298404554  0.0492704421334906
  0.4433006354391722  0.4358092105386717  0.8112525045506942
  0.5509403465540146  0.5351353355256663  0.5592931281964724
  0.1187092757560393  0.7561010603303515  0.3130872354358800
  0.7775262960713363  0.7670154401793070  0.8025779313794459
  0.8936223820414710  0.8716099282926280  0.5657229136863293
  0.4402836754576640  0.7537956014517491  0.3121953950026892
  0.5583722884142546  0.8626670349631311  0.1137745163220529
  0.1124954544558321  0.7573485972008456  0.8087702688840608
  0.4464449796437080  0.7506013612501832  0.8072277250390059
  0.5531003057658381  0.8723323949798143  0.6024241399992150
  0.4446585636473799  0.0973879215071349  0.3273879179881547
  0.1083790388428625  0.0914004443003904  0.8247024364764997
  0.7778342478190439  0.0997607059648900  0.3324216272994747
  0.4580546906378160  0.0863954520788468  0.8336330799316372
  0.1167124622684383  0.4316875771410764  0.3142103292551610
  0.7648574440809455  0.4265444080671728  0.8273138643310389
  0.8928304325236240  0.5307507128501356  0.5846081314308478
  0.1227784803581784  0.4314282701611702  0.8271214676633818
  0.7728723459834654  0.4288455100376964  0.3117450463768350
  0.2268905367034790  0.8645198044284825  0.0745581931673556
  0.2207188784568714  0.8726888368542660  0.5638808822209214
  0.7803210188270171  0.7583342004957530  0.3368695712074725
  0.8833747028351198  0.8738906365843562  0.0661480001656471
  0.2123965195384798  0.1974983955008156  0.3629839702847377
  0.0998439064341738  0.1136777326006211  0.1083907476002679
  0.8799560071474417  0.1889840340784446  0.8715705767042721
  0.7778463228744954  0.0951528911186514  0.6068495551232900
  0.5407298758150958  0.2343054349259432  0.3783504533105528
  0.4480540869614629  0.0932092328465473  0.0958064288572658
  0.1035995762284188  0.1148540917142995  0.6147543064403038
  0.9092633509775894  0.1987173325122811  0.3718711526846334
  0.7662719361411376  0.1139354511955446  0.1187107707473061
  0.5640032803187438  0.2200322793506402  0.8653769828563540
  0.4425438827618180  0.0956721166029055  0.6034034549843597
  0.2326491385476146  0.5501820423496397  0.3721592740143578
  0.1119930398609199  0.4287471959229450  0.0897531160703338
  0.8834179101829349  0.5551717194876460  0.8495619768687561
  0.7625789704737329  0.4166533360159335  0.6098565464475669
  0.5360896577957561  0.5474928889691171  0.3685695086598386
  0.4438723803602045  0.4281617999045650  0.1188815411309960
  0.2343909803244415  0.5499659000428778  0.8710111492447226
  0.1400585455205103  0.4129208446097650  0.6105707384121359
  0.8942982801457902  0.5291960205316926  0.3753291695339200
  0.7765538541983261  0.4289886777007865  0.0870607794743918
  0.5320416728186501  0.5491385628775234  0.8712351715623825
  0.4426289056519508  0.4316795628183385  0.6212001861086307
  0.2205843427132663  0.8741765829294863  0.3414982465236278
  0.1170640001562973  0.7398074277241236  0.1222659803102815
  0.8852135439135722  0.8743206196216633  0.8497881076222029
  0.7710301992825777  0.7790349662408715  0.6026370832672896
  0.5424852160392319  0.8632569280227429  0.3376754643791173
  0.4618924649516742  0.7441286255160549  0.1178736405932810
  0.2300290254608939  0.8547339958786111  0.8516196917211190
  0.1053552102325881  0.7484030881621138  0.6191006572842213
  0.9127319650949985  0.8634623333147644  0.3719488746180701
  0.7741383670246620  0.7477004264982128  0.1132646950445633
  0.5635354642831345  0.8510751985569343  0.8285203991256367
  0.4592730347307281  0.7476173669645831  0.6122034770412483
  0.2265925948420886  0.2009662298015726  0.8850240942069334
 
  0.00000000E+00  0.00000000E+00  0.00000000E+00
  0.00000000E+00  0.00000000E+00  0.00000000E+00
  0.00000000E+00  0.00000000E+00  0.00000000E+00
  0.00000000E+00  0.00000000E+00  0.00000000E+00
  0.00000000E+00  0.00000000E+00  0.00000000E+00
  0.00000000E+00  0.00000000E+00  0.00000000E+00
  0.00000000E+00  0.00000000E+00  0.00000000E+00
  0.00000000E+00  0.00000000E+00  0.00000000E+00
  0.00000000E+00  0.00000000E+00  0.00000000E+00
  0.00000000E+00  0.00000000E+00  0.00000000E+00
  0.00000000E+00  0.00000000E+00  0.00000000E+00
  0.00000000E+00  0.00000000E+00  0.00000000E+00
  0.00000000E+00  0.00000000E+00  0.00000000E+00
  0.00000000E+00  0.00000000E+00  0.00000000E+00
  0.00000000E+00  0.00000000E+00  0.00000000E+00
  0.00000000E+00  0.00000000E+00  0.00000000E+00
  0.00000000E+00  0.00000000E+00  0.00000000E+00
  0.00000000E+00  0.00000000E+00  0.00000000E+00
  0.00000000E+00  0.00000000E+00  0.00000000E+00
  0.00000000E+00  0.00000000E+00  0.00000000E+00
  0.00000000E+00  0.00000000E+00  0.00000000E+00
  0.00000000E+00  0.00000000E+00  0.00000000E+00
  0.00000000E+00  0.00000000E+00  0.00000000E+00
  0.00000000E+00  0.00000000E+00  0.00000000E+00
  0.00000000E+00  0.00000000E+00  0.00000000E+00
  0.00000000E+00  0.00000000E+00  0.00000000E+00
  0.00000000E+00  0.00000000E+00  0.00000000E+00
  0.00000000E+00  0.00000000E+00  0.00000000E+00
  0.00000000E+00  0.00000000E+00  0.00000000E+00
  0.00000000E+00  0.00000000E+00  0.00000000E+00
  0.00000000E+00  0.00000000E+00  0.00000000E+00
  0.00000000E+00  0.00000000E+00  0.00000000E+00
  0.00000000E+00  0.00000000E+00  0.00000000E+00
  0.00000000E+00  0.00000000E+00  0.00000000E+00
  0.00000000E+00  0.00000000E+00  0.00000000E+00
  0.00000000E+00  0.00000000E+00  0.00000000E+00
  0.00000000E+00  0.00000000E+00  0.00000000E+00
  0.00000000E+00  0.00000000E+00  0.00000000E+00
  0.00000000E+00  0.00000000E+00  0.00000000E+00
  0.00000000E+00  0.00000000E+00  0.00000000E+00
  0.00000000E+00  0.00000000E+00  0.00000000E+00
  0.00000000E+00  0.00000000E+00  0.00000000E+00
  0.00000000E+00  0.00000000E+00  0.00000000E+00
  0.00000000E+00  0.00000000E+00  0.00000000E+00
  0.00000000E+00  0.00000000E+00  0.00000000E+00
  0.00000000E+00  0.00000000E+00  0.00000000E+00
  0.00000000E+00  0.00000000E+00  0.00000000E+00
  0.00000000E+00  0.00000000E+00  0.00000000E+00
  0.00000000E+00  0.00000000E+00  0.00000000E+00
  0.00000000E+00  0.00000000E+00  0.00000000E+00
  0.00000000E+00  0.00000000E+00  0.00000000E+00
  0.00000000E+00  0.00000000E+00  0.00000000E+00
  0.00000000E+00  0.00000000E+00  0.00000000E+00
  0.00000000E+00  0.00000000E+00  0.00000000E+00
  0.00000000E+00  0.00000000E+00  0.00000000E+00
  0.00000000E+00  0.00000000E+00  0.00000000E+00
  0.00000000E+00  0.00000000E+00  0.00000000E+00
  0.00000000E+00  0.00000000E+00  0.00000000E+00
  0.00000000E+00  0.00000000E+00  0.00000000E+00
  0.00000000E+00  0.00000000E+00  0.00000000E+00
  0.00000000E+00  0.00000000E+00  0.00000000E+00
  0.00000000E+00  0.00000000E+00  0.00000000E+00
  0.00000000E+00  0.00000000E+00  0.00000000E+00
  0.00000000E+00  0.00000000E+00  0.00000000E+00
  0.00000000E+00  0.00000000E+00  0.00000000E+00
  0.00000000E+00  0.00000000E+00  0.00000000E+00
  0.00000000E+00  0.00000000E+00  0.00000000E+00
  0.00000000E+00  0.00000000E+00  0.00000000E+00
  0.00000000E+00  0.00000000E+00  0.00000000E+00
  0.00000000E+00  0.00000000E+00  0.00000000E+00
  0.00000000E+00  0.00000000E+00  0.00000000E+00
  0.00000000E+00  0.00000000E+00  0.00000000E+00
