Al   Sc   N    O                        
   1.00000000000000     
   -10.0880535431878222    0.0099852008056233   -0.0057256270318145
    -5.0541143873250203    8.7664392641629156   -0.0034588655093790
     0.0311075962959375    0.1243901752345794   -9.7384143203532290
   Al   Sc   N    O 
    23    13    35     1
Direct
  0.1097548347150976  0.0932993307231058  0.3091376296423789
  0.2223981528004302  0.2089388800778451  0.0790545276532981
  0.7697086934513280  0.1011786397723142  0.8112344440141186
  0.8914768068754029  0.2063812844845145  0.5668326026237054
  0.5565001485597705  0.2165820261869484  0.0634019722898813
  0.2225065183036747  0.2035080778922875  0.5580580015995267
  0.8785825220459671  0.2109844363624518  0.0654659778691880
  0.5455984261262330  0.2171295826451143  0.5686272242022881
  0.2347531457813119  0.5329234816936577  0.0606800423984168
  0.4394500829671983  0.4372266865030596  0.3132056907675036
  0.5541576806781734  0.5333230089061729  0.0627494558367019
  0.2277207834049975  0.5392006073882030  0.5630595798222444
  0.8894042737419312  0.5348219158419525  0.0561549922225737
  0.4436315458616846  0.4339682909406193  0.8097802732174344
  0.5511548227684102  0.5334283133259774  0.5592323774260208
  0.1226556608928249  0.7539721058392317  0.3078969314104185
  0.7705281613607582  0.7637457229879061  0.8687402209562265
  0.8818946658094688  0.8723583934756078  0.6256153481665905
  0.4424742197120821  0.7600110530545336  0.3684842147222582
  0.5580756897224575  0.8599594085810125  0.1162496702428797
  0.1183178799798767  0.7522298321680765  0.8193734059112359
  0.4488022800120106  0.7526017327376948  0.8655216451867034
  0.5564295588164185  0.8681280770679933  0.6203316660148630
  0.4460660656572983  0.0926857800140439  0.3307587889093639
  0.1065326782027967  0.0923779929534021  0.8363271815035347
  0.7790328259616999  0.0961562717650750  0.3393654999637477
  0.4556958129755770  0.0878119011579415  0.8379337010620560
  0.1172010989933128  0.4314786950808767  0.3233398655408450
  0.7655692100925648  0.4258609927780839  0.8255417727720484
  0.8879877085049515  0.5404498812022283  0.5895463524306734
  0.1227321061255253  0.4298207200688609  0.8257206866181050
  0.7743647083142449  0.4270864041968636  0.3212238711468061
  0.2325836170243747  0.8662165918822140  0.0902157690266918
  0.2171042468259614  0.8734710894792741  0.5838834850393795
  0.7780648109636630  0.7655085688393086  0.3531835209435954
  0.8897735820506654  0.8767718111230778  0.0877841765899490
  0.2140208344372638  0.1946052990084652  0.3600922511978126
  0.0989648038733009  0.1153151595704216  0.1056459860119290
  0.8772243140901779  0.1923010454362455  0.8718846237810425
  0.7758862172144134  0.0966883002725183  0.6089541481966094
  0.5389004331123175  0.2326910347610820  0.3755914433260443
  0.4481356493282931  0.0944754964667496  0.0920826660635186
  0.1032920781604147  0.1164384178342530  0.6206117966653650
  0.9115099327799498  0.1947303788646906  0.3733851993547432
  0.7628425571563326  0.1201590887551873  0.1178587739873080
  0.5602343349576557  0.2205972454786433  0.8633374214821430
  0.4418714936567270  0.0940867523183258  0.6025262990413935
  0.2333324243528736  0.5519624978312550  0.3695768031490729
  0.1135812319479825  0.4283400132924982  0.0927260184844130
  0.8855926991643770  0.5504629913915480  0.8457940334675627
  0.7636080559727603  0.4179964412812538  0.6027539641333632
  0.5368641719852292  0.5461927039990684  0.3599765120066607
  0.4451950933540516  0.4264238823697326  0.1167464232449547
  0.2373881808408598  0.5438247932118898  0.8676987907712643
  0.1381401518743743  0.4137553744618003  0.6034498974620632
  0.8925243836310699  0.5346229210842282  0.3704652792181946
  0.7777889826106019  0.4288024091702383  0.0915355422005959
  0.5366441629417054  0.5415014077805367  0.8649174227912368
  0.4412754310862681  0.4322666791508283  0.6169302462610133
  0.2221976244147044  0.8735261847836711  0.3400520354199656
  0.1297267110921680  0.7359608573638141  0.1087503498494939
  0.8805652103078785  0.8761543421104676  0.8397210934689880
  0.7643229821897393  0.7856188920980927  0.5770539089536229
  0.5449206636438078  0.8585616858061300  0.3092933253870527
  0.4656637462996400  0.7484764242088673  0.0658252762931184
  0.2308760401443806  0.8555168637096671  0.8436527288055160
  0.0996096292621189  0.7480226697058967  0.6224218224600335
  0.9113303789271114  0.8628214993442924  0.3169154503916687
  0.7706635556315078  0.7518351608206757  0.0726244799294520
  0.5627399869031819  0.8499948418430421  0.8182989909192315
  0.4597828607979437  0.7540628143076162  0.5710422458064102
  0.2261023897221008  0.2028659223363647  0.8849770129802721
 
  0.00000000E+00  0.00000000E+00  0.00000000E+00
  0.00000000E+00  0.00000000E+00  0.00000000E+00
  0.00000000E+00  0.00000000E+00  0.00000000E+00
  0.00000000E+00  0.00000000E+00  0.00000000E+00
  0.00000000E+00  0.00000000E+00  0.00000000E+00
  0.00000000E+00  0.00000000E+00  0.00000000E+00
  0.00000000E+00  0.00000000E+00  0.00000000E+00
  0.00000000E+00  0.00000000E+00  0.00000000E+00
  0.00000000E+00  0.00000000E+00  0.00000000E+00
  0.00000000E+00  0.00000000E+00  0.00000000E+00
  0.00000000E+00  0.00000000E+00  0.00000000E+00
  0.00000000E+00  0.00000000E+00  0.00000000E+00
  0.00000000E+00  0.00000000E+00  0.00000000E+00
  0.00000000E+00  0.00000000E+00  0.00000000E+00
  0.00000000E+00  0.00000000E+00  0.00000000E+00
  0.00000000E+00  0.00000000E+00  0.00000000E+00
  0.00000000E+00  0.00000000E+00  0.00000000E+00
  0.00000000E+00  0.00000000E+00  0.00000000E+00
  0.00000000E+00  0.00000000E+00  0.00000000E+00
  0.00000000E+00  0.00000000E+00  0.00000000E+00
  0.00000000E+00  0.00000000E+00  0.00000000E+00
  0.00000000E+00  0.00000000E+00  0.00000000E+00
  0.00000000E+00  0.00000000E+00  0.00000000E+00
  0.00000000E+00  0.00000000E+00  0.00000000E+00
  0.00000000E+00  0.00000000E+00  0.00000000E+00
  0.00000000E+00  0.00000000E+00  0.00000000E+00
  0.00000000E+00  0.00000000E+00  0.00000000E+00
  0.00000000E+00  0.00000000E+00  0.00000000E+00
  0.00000000E+00  0.00000000E+00  0.00000000E+00
  0.00000000E+00  0.00000000E+00  0.00000000E+00
  0.00000000E+00  0.00000000E+00  0.00000000E+00
  0.00000000E+00  0.00000000E+00  0.00000000E+00
  0.00000000E+00  0.00000000E+00  0.00000000E+00
  0.00000000E+00  0.00000000E+00  0.00000000E+00
  0.00000000E+00  0.00000000E+00  0.00000000E+00
  0.00000000E+00  0.00000000E+00  0.00000000E+00
  0.00000000E+00  0.00000000E+00  0.00000000E+00
  0.00000000E+00  0.00000000E+00  0.00000000E+00
  0.00000000E+00  0.00000000E+00  0.00000000E+00
  0.00000000E+00  0.00000000E+00  0.00000000E+00
  0.00000000E+00  0.00000000E+00  0.00000000E+00
  0.00000000E+00  0.00000000E+00  0.00000000E+00
  0.00000000E+00  0.00000000E+00  0.00000000E+00
  0.00000000E+00  0.00000000E+00  0.00000000E+00
  0.00000000E+00  0.00000000E+00  0.00000000E+00
  0.00000000E+00  0.00000000E+00  0.00000000E+00
  0.00000000E+00  0.00000000E+00  0.00000000E+00
  0.00000000E+00  0.00000000E+00  0.00000000E+00
  0.00000000E+00  0.00000000E+00  0.00000000E+00
  0.00000000E+00  0.00000000E+00  0.00000000E+00
  0.00000000E+00  0.00000000E+00  0.00000000E+00
  0.00000000E+00  0.00000000E+00  0.00000000E+00
  0.00000000E+00  0.00000000E+00  0.00000000E+00
  0.00000000E+00  0.00000000E+00  0.00000000E+00
  0.00000000E+00  0.00000000E+00  0.00000000E+00
  0.00000000E+00  0.00000000E+00  0.00000000E+00
  0.00000000E+00  0.00000000E+00  0.00000000E+00
  0.00000000E+00  0.00000000E+00  0.00000000E+00
  0.00000000E+00  0.00000000E+00  0.00000000E+00
  0.00000000E+00  0.00000000E+00  0.00000000E+00
  0.00000000E+00  0.00000000E+00  0.00000000E+00
  0.00000000E+00  0.00000000E+00  0.00000000E+00
  0.00000000E+00  0.00000000E+00  0.00000000E+00
  0.00000000E+00  0.00000000E+00  0.00000000E+00
  0.00000000E+00  0.00000000E+00  0.00000000E+00
  0.00000000E+00  0.00000000E+00  0.00000000E+00
  0.00000000E+00  0.00000000E+00  0.00000000E+00
  0.00000000E+00  0.00000000E+00  0.00000000E+00
  0.00000000E+00  0.00000000E+00  0.00000000E+00
  0.00000000E+00  0.00000000E+00  0.00000000E+00
  0.00000000E+00  0.00000000E+00  0.00000000E+00
  0.00000000E+00  0.00000000E+00  0.00000000E+00
