Al   Sc   N    O                        
   1.00000000000000     
   -10.0458117415186301    0.0109108143179508    0.0002375324069618
    -5.0141756371175150    8.7335274196081478   -0.0003554479183884
    -0.0311283723591193    0.0535319632802806   -9.8249070667217548
   Al   Sc   N    O 
    23    13    35     1
Direct
  0.1186257565679867  0.0874323443758698  0.4110552041215030
  0.2182050062089473  0.2012513406609600  0.1527285793944273
  0.7699260166548711  0.1008944821793989  0.8316726172551157
  0.8871051219283430  0.2051271918962669  0.5981334248645069
  0.5491303847309652  0.2162358887483578  0.1216295246337040
  0.2284571763625252  0.2074195555417120  0.6407241894717686
  0.8801421960595448  0.2104899841475856  0.0862825068073079
  0.5502970966128231  0.2159101376566568  0.6151742141578396
  0.2316121495237695  0.5406711308818117  0.1489665648022012
  0.4357934081800821  0.4449376210120306  0.4012846382339106
  0.5491653501823279  0.5406958684246064  0.1443076267898533
  0.2269779100954707  0.5362870028392877  0.6474071259589493
  0.8871848032106584  0.5353791835893844  0.1514603669553054
  0.4422861616762574  0.4353769879710114  0.8933032804494090
  0.5515441579794071  0.5385505014156564  0.6487477040704803
  0.1119998420620334  0.7576970787413231  0.4009594857143952
  0.7744789296479837  0.7568808666290323  0.8987252127745649
  0.8868603817358647  0.8679655818427534  0.6523183367872605
  0.4482613783769835  0.7539406652348930  0.3978306015440509
  0.5533977667678798  0.8623523804254489  0.1393306033464441
  0.1226928816615711  0.7520825749853515  0.8903127244964395
  0.4458063447281830  0.7531609232726026  0.8953648782859744
  0.5625967554089470  0.8636251300547428  0.6496602228576265
  0.4458087431623241  0.0861286316347787  0.3884532013324531
  0.1085222252851423  0.0898204413574959  0.8696939394798022
  0.7806308271491602  0.0937906750473729  0.3617077303258824
  0.4575397958482625  0.0877319075046969  0.8769069066436259
  0.1268054498001021  0.4231967716711793  0.3784684629217239
  0.7664955034378309  0.4366683324244889  0.8765930378234046
  0.8908710441045571  0.5427190376898636  0.6268987854118464
  0.1143263063473512  0.4361778817926663  0.8988397913981174
  0.7685113565603956  0.4242419182815524  0.3748800974338025
  0.2239426420008570  0.8723094230772404  0.1476215416787596
  0.2313838595654474  0.8576471863705777  0.6278595526739537
  0.7762021874709291  0.7683805502552232  0.3770142137879802
  0.8896584426589058  0.8754335628458989  0.1124900824159241
  0.2162882322373250  0.1876572516608093  0.3445741772653719
  0.1029113058724036  0.1110914668305796  0.0918171361371307
  0.8735284388784947  0.1983251474483936  0.8867477485649999
  0.7800889111841443  0.0916358479996973  0.6296245836238228
  0.5387536887554418  0.2304549024882050  0.3835835187887540
  0.4434580485084680  0.0960188965399880  0.1044898946080295
  0.1108561534627199  0.1072744018315035  0.6194480998152798
  0.9099061201610681  0.1921450001879492  0.4024102081864740
  0.7616904557747404  0.1203999299211702  0.1373069269532294
  0.5560866764968608  0.2230711319464120  0.8474066644830600
  0.4465207604045744  0.0882903487483304  0.6179661871084008
  0.2327923176670765  0.5554035450344159  0.3395583725720144
  0.1161643609481970  0.4255124911237829  0.1203355557888557
  0.8880564605450374  0.5543545809478374  0.8432582286255936
  0.7667343291093331  0.4201788221731277  0.6165837450117735
  0.5305915792242644  0.5521216264350670  0.3361149289815160
  0.4425645858375447  0.4302361989857459  0.0899392623034529
  0.2328373986495151  0.5445877047264958  0.8389558541233697
  0.1367819229277103  0.4155090630571010  0.6008581842934007
  0.8914596399918864  0.5358379836462461  0.3517361194124575
  0.7747719130244448  0.4291243302465517  0.1150871947446248
  0.5331897200803581  0.5499208200179240  0.8408157617711325
  0.4388439182985806  0.4405221053158286  0.5959385117304379
  0.2237848868843741  0.8704250775636098  0.3779039506143391
  0.1275654699015902  0.7408059271084753  0.0805217960333380
  0.8844458147020831  0.8728999491572935  0.8572175248459359
  0.7667454062338876  0.7855887042502090  0.5936063183487761
  0.5435516916463143  0.8586865844548441  0.3295001462824345
  0.4569377446127945  0.7503620824094810  0.0867273855938180
  0.2330363359126579  0.8539748834601752  0.8469739289820382
  0.0962854930590993  0.7479294205501361  0.5963026786274881
  0.9155857782463031  0.8598187714438836  0.3290809714594971
  0.7698129784889929  0.7488718246090968  0.0969356481939485
  0.5651078683997142  0.8483393650232927  0.8440848940440731
  0.4729479027177419  0.7458827932590069  0.5898407529187040
  0.2246535244606278  0.2107597857811001  0.8330838444383417
 
  0.00000000E+00  0.00000000E+00  0.00000000E+00
  0.00000000E+00  0.00000000E+00  0.00000000E+00
  0.00000000E+00  0.00000000E+00  0.00000000E+00
  0.00000000E+00  0.00000000E+00  0.00000000E+00
  0.00000000E+00  0.00000000E+00  0.00000000E+00
  0.00000000E+00  0.00000000E+00  0.00000000E+00
  0.00000000E+00  0.00000000E+00  0.00000000E+00
  0.00000000E+00  0.00000000E+00  0.00000000E+00
  0.00000000E+00  0.00000000E+00  0.00000000E+00
  0.00000000E+00  0.00000000E+00  0.00000000E+00
  0.00000000E+00  0.00000000E+00  0.00000000E+00
  0.00000000E+00  0.00000000E+00  0.00000000E+00
  0.00000000E+00  0.00000000E+00  0.00000000E+00
  0.00000000E+00  0.00000000E+00  0.00000000E+00
  0.00000000E+00  0.00000000E+00  0.00000000E+00
  0.00000000E+00  0.00000000E+00  0.00000000E+00
  0.00000000E+00  0.00000000E+00  0.00000000E+00
  0.00000000E+00  0.00000000E+00  0.00000000E+00
  0.00000000E+00  0.00000000E+00  0.00000000E+00
  0.00000000E+00  0.00000000E+00  0.00000000E+00
  0.00000000E+00  0.00000000E+00  0.00000000E+00
  0.00000000E+00  0.00000000E+00  0.00000000E+00
  0.00000000E+00  0.00000000E+00  0.00000000E+00
  0.00000000E+00  0.00000000E+00  0.00000000E+00
  0.00000000E+00  0.00000000E+00  0.00000000E+00
  0.00000000E+00  0.00000000E+00  0.00000000E+00
  0.00000000E+00  0.00000000E+00  0.00000000E+00
  0.00000000E+00  0.00000000E+00  0.00000000E+00
  0.00000000E+00  0.00000000E+00  0.00000000E+00
  0.00000000E+00  0.00000000E+00  0.00000000E+00
  0.00000000E+00  0.00000000E+00  0.00000000E+00
  0.00000000E+00  0.00000000E+00  0.00000000E+00
  0.00000000E+00  0.00000000E+00  0.00000000E+00
  0.00000000E+00  0.00000000E+00  0.00000000E+00
  0.00000000E+00  0.00000000E+00  0.00000000E+00
  0.00000000E+00  0.00000000E+00  0.00000000E+00
  0.00000000E+00  0.00000000E+00  0.00000000E+00
  0.00000000E+00  0.00000000E+00  0.00000000E+00
  0.00000000E+00  0.00000000E+00  0.00000000E+00
  0.00000000E+00  0.00000000E+00  0.00000000E+00
  0.00000000E+00  0.00000000E+00  0.00000000E+00
  0.00000000E+00  0.00000000E+00  0.00000000E+00
  0.00000000E+00  0.00000000E+00  0.00000000E+00
  0.00000000E+00  0.00000000E+00  0.00000000E+00
  0.00000000E+00  0.00000000E+00  0.00000000E+00
  0.00000000E+00  0.00000000E+00  0.00000000E+00
  0.00000000E+00  0.00000000E+00  0.00000000E+00
  0.00000000E+00  0.00000000E+00  0.00000000E+00
  0.00000000E+00  0.00000000E+00  0.00000000E+00
  0.00000000E+00  0.00000000E+00  0.00000000E+00
  0.00000000E+00  0.00000000E+00  0.00000000E+00
  0.00000000E+00  0.00000000E+00  0.00000000E+00
  0.00000000E+00  0.00000000E+00  0.00000000E+00
  0.00000000E+00  0.00000000E+00  0.00000000E+00
  0.00000000E+00  0.00000000E+00  0.00000000E+00
  0.00000000E+00  0.00000000E+00  0.00000000E+00
  0.00000000E+00  0.00000000E+00  0.00000000E+00
  0.00000000E+00  0.00000000E+00  0.00000000E+00
  0.00000000E+00  0.00000000E+00  0.00000000E+00
  0.00000000E+00  0.00000000E+00  0.00000000E+00
  0.00000000E+00  0.00000000E+00  0.00000000E+00
  0.00000000E+00  0.00000000E+00  0.00000000E+00
  0.00000000E+00  0.00000000E+00  0.00000000E+00
  0.00000000E+00  0.00000000E+00  0.00000000E+00
  0.00000000E+00  0.00000000E+00  0.00000000E+00
  0.00000000E+00  0.00000000E+00  0.00000000E+00
  0.00000000E+00  0.00000000E+00  0.00000000E+00
  0.00000000E+00  0.00000000E+00  0.00000000E+00
  0.00000000E+00  0.00000000E+00  0.00000000E+00
  0.00000000E+00  0.00000000E+00  0.00000000E+00
  0.00000000E+00  0.00000000E+00  0.00000000E+00
  0.00000000E+00  0.00000000E+00  0.00000000E+00
