Al   Sc   N    O                        
   1.00000000000000     
   -10.0125121008321383    0.0111141623584640    0.0015696102006520
    -5.0056275778572079    8.6939673754260873   -0.0014864005704110
    -0.0125110059002569   -0.0229472558050290   -9.8857852043065968
   Al   Sc   N    O 
    23    13    35     1
Direct
  0.1146065819735682  0.0907226191329045  0.4123057801580998
  0.2198154555235092  0.2003895437756142  0.1533153119326087
  0.7684066493928370  0.1022268761045524  0.8937508555287152
  0.8822949366804025  0.2047326102143714  0.6378528792973697
  0.5468665214971580  0.2196138284365858  0.1447482758554628
  0.2295636094769691  0.2078223001329249  0.6394925809707317
  0.8859711153751846  0.2119730224977872  0.1172422408027387
  0.5579399563825120  0.2118379971148130  0.6478105781908496
  0.2326973571261561  0.5396332817490617  0.1498602300243448
  0.4387290430515520  0.4397467038836282  0.3960925995904248
  0.5488318958739242  0.5407100656659978  0.1449391406777494
  0.2291025332313907  0.5341304942865150  0.6446426661056179
  0.8853596347811887  0.5354907575665848  0.1524435725358160
  0.4425327359778564  0.4347340898381802  0.8954193588236521
  0.5512485029133103  0.5368887118503451  0.6472183263200009
  0.1111385979918253  0.7583053547382761  0.4023126693223418
  0.7732559441370199  0.7577236539346046  0.8994947139479734
  0.8822810808897970  0.8756301839137350  0.6575362625470902
  0.4471877741560917  0.7548224576638276  0.3983926911280591
  0.5520115187231198  0.8631665134625734  0.1412324029935945
  0.1228928636996685  0.7516755769615884  0.8895548996494611
  0.4450204086804774  0.7526343286757466  0.8951659691460918
  0.5616911899911017  0.8650263702541068  0.6502427492045157
  0.4470083270088949  0.0897129469401463  0.3898942371258798
  0.1107748959713106  0.0899098237361784  0.8710027688287809
  0.7807371085695749  0.0921254266250529  0.3855112719661875
  0.4571125842146344  0.0876276853051152  0.8842273151772915
  0.1246200172570724  0.4237347978125641  0.3775009250684960
  0.7668511942764695  0.4364041327437320  0.8798894411129297
  0.8918945332252903  0.5438011364149489  0.6299762490395722
  0.1148631809925860  0.4368774966815323  0.9004522105822375
  0.7676834264278085  0.4246955471718508  0.3854570155496120
  0.2232533288918646  0.8722011112907779  0.1497187497500434
  0.2298103894400825  0.8590283392220215  0.6270045018078321
  0.7750167960605552  0.7692079142647472  0.3810759167971725
  0.8921225566948010  0.8694687668006011  0.1171857885745382
  0.2179219370075955  0.1862740057753669  0.3437241331565204
  0.1024407753705319  0.1118172027061775  0.0880802970393475
  0.8775667868975248  0.1990487856716925  0.8458823721202791
  0.7772416532845057  0.0907400885583414  0.6065399724680347
  0.5400397038022433  0.2318188584318506  0.3365454430012349
  0.4427428894213392  0.0942104293211870  0.1035000921318243
  0.1082538352193154  0.1100051878360588  0.6137877402539758
  0.9103947944515554  0.1925835453305780  0.3677386266967275
  0.7626290897123340  0.1176549921713956  0.0925349342762942
  0.5582324511626311  0.2219447128393881  0.8407347305964237
  0.4490607043490371  0.0906758337402280  0.6157882533006713
  0.2324611680208051  0.5551454340984066  0.3395930070794648
  0.1159446510131161  0.4251250183384840  0.1204396293144754
  0.8884733977761528  0.5541625620465425  0.8438544833221258
  0.7672003549955022  0.4210122744144726  0.6123924492389534
  0.5305902365900295  0.5522215902588741  0.3350471016497067
  0.4427040514424618  0.4301897463522621  0.0876540297708104
  0.2343719768882906  0.5430475897604552  0.8355339096520211
  0.1366706951243231  0.4154458415568953  0.5979632676879092
  0.8891686862014794  0.5371574483267167  0.3494054594268192
  0.7736216066540322  0.4294792702431067  0.1094574752858435
  0.5329816604315596  0.5485322702160715  0.8378686152814439
  0.4450693517540216  0.4293532703831460  0.5896922334598145
  0.2227501175392561  0.8708208702047457  0.3781915058342449
  0.1291727105700460  0.7389088500450356  0.0791472125521935
  0.8831551716433736  0.8745304128768652  0.8597990053332794
  0.7670136184754455  0.7860475695088311  0.5962357488280077
  0.5421205668854014  0.8611171082687790  0.3308401252994884
  0.4560308811572824  0.7503851541412345  0.0860993987225811
  0.2327521438587610  0.8537212143791919  0.8451361275837144
  0.0950172512267642  0.7484754791424635  0.5966457133770859
  0.9134572119484403  0.8623699119154864  0.3287128473711789
  0.7682924094973131  0.7480539238402315  0.0962873747488047
  0.5631529161543298  0.8494572192705547  0.8436235941869796
  0.4724132932968743  0.7455143621675830  0.5892309638278164
  0.2263220826374521  0.2110795294184982  0.8308245185817924
 
  0.00000000E+00  0.00000000E+00  0.00000000E+00
  0.00000000E+00  0.00000000E+00  0.00000000E+00
  0.00000000E+00  0.00000000E+00  0.00000000E+00
  0.00000000E+00  0.00000000E+00  0.00000000E+00
  0.00000000E+00  0.00000000E+00  0.00000000E+00
  0.00000000E+00  0.00000000E+00  0.00000000E+00
  0.00000000E+00  0.00000000E+00  0.00000000E+00
  0.00000000E+00  0.00000000E+00  0.00000000E+00
  0.00000000E+00  0.00000000E+00  0.00000000E+00
  0.00000000E+00  0.00000000E+00  0.00000000E+00
  0.00000000E+00  0.00000000E+00  0.00000000E+00
  0.00000000E+00  0.00000000E+00  0.00000000E+00
  0.00000000E+00  0.00000000E+00  0.00000000E+00
  0.00000000E+00  0.00000000E+00  0.00000000E+00
  0.00000000E+00  0.00000000E+00  0.00000000E+00
  0.00000000E+00  0.00000000E+00  0.00000000E+00
  0.00000000E+00  0.00000000E+00  0.00000000E+00
  0.00000000E+00  0.00000000E+00  0.00000000E+00
  0.00000000E+00  0.00000000E+00  0.00000000E+00
  0.00000000E+00  0.00000000E+00  0.00000000E+00
  0.00000000E+00  0.00000000E+00  0.00000000E+00
  0.00000000E+00  0.00000000E+00  0.00000000E+00
  0.00000000E+00  0.00000000E+00  0.00000000E+00
  0.00000000E+00  0.00000000E+00  0.00000000E+00
  0.00000000E+00  0.00000000E+00  0.00000000E+00
  0.00000000E+00  0.00000000E+00  0.00000000E+00
  0.00000000E+00  0.00000000E+00  0.00000000E+00
  0.00000000E+00  0.00000000E+00  0.00000000E+00
  0.00000000E+00  0.00000000E+00  0.00000000E+00
  0.00000000E+00  0.00000000E+00  0.00000000E+00
  0.00000000E+00  0.00000000E+00  0.00000000E+00
  0.00000000E+00  0.00000000E+00  0.00000000E+00
  0.00000000E+00  0.00000000E+00  0.00000000E+00
  0.00000000E+00  0.00000000E+00  0.00000000E+00
  0.00000000E+00  0.00000000E+00  0.00000000E+00
  0.00000000E+00  0.00000000E+00  0.00000000E+00
  0.00000000E+00  0.00000000E+00  0.00000000E+00
  0.00000000E+00  0.00000000E+00  0.00000000E+00
  0.00000000E+00  0.00000000E+00  0.00000000E+00
  0.00000000E+00  0.00000000E+00  0.00000000E+00
  0.00000000E+00  0.00000000E+00  0.00000000E+00
  0.00000000E+00  0.00000000E+00  0.00000000E+00
  0.00000000E+00  0.00000000E+00  0.00000000E+00
  0.00000000E+00  0.00000000E+00  0.00000000E+00
  0.00000000E+00  0.00000000E+00  0.00000000E+00
  0.00000000E+00  0.00000000E+00  0.00000000E+00
  0.00000000E+00  0.00000000E+00  0.00000000E+00
  0.00000000E+00  0.00000000E+00  0.00000000E+00
  0.00000000E+00  0.00000000E+00  0.00000000E+00
  0.00000000E+00  0.00000000E+00  0.00000000E+00
  0.00000000E+00  0.00000000E+00  0.00000000E+00
  0.00000000E+00  0.00000000E+00  0.00000000E+00
  0.00000000E+00  0.00000000E+00  0.00000000E+00
  0.00000000E+00  0.00000000E+00  0.00000000E+00
  0.00000000E+00  0.00000000E+00  0.00000000E+00
  0.00000000E+00  0.00000000E+00  0.00000000E+00
  0.00000000E+00  0.00000000E+00  0.00000000E+00
  0.00000000E+00  0.00000000E+00  0.00000000E+00
  0.00000000E+00  0.00000000E+00  0.00000000E+00
  0.00000000E+00  0.00000000E+00  0.00000000E+00
  0.00000000E+00  0.00000000E+00  0.00000000E+00
  0.00000000E+00  0.00000000E+00  0.00000000E+00
  0.00000000E+00  0.00000000E+00  0.00000000E+00
  0.00000000E+00  0.00000000E+00  0.00000000E+00
  0.00000000E+00  0.00000000E+00  0.00000000E+00
  0.00000000E+00  0.00000000E+00  0.00000000E+00
  0.00000000E+00  0.00000000E+00  0.00000000E+00
  0.00000000E+00  0.00000000E+00  0.00000000E+00
  0.00000000E+00  0.00000000E+00  0.00000000E+00
  0.00000000E+00  0.00000000E+00  0.00000000E+00
  0.00000000E+00  0.00000000E+00  0.00000000E+00
  0.00000000E+00  0.00000000E+00  0.00000000E+00
