Al   Sc   N    O                        
   1.00000000000000     
   -10.0701599162592661    0.0105021205037022    0.0009859933239718
    -5.0227748957430007    8.7605093080356617    0.0016232334879385
    -0.0587286819900474    0.1439039185754951   -9.7883360711643039
   Al   Sc   N    O 
    23    13    35     1
Direct
  0.1112120084691810  0.0918007328899648  0.3183853673517163
  0.2209938229332948  0.2092364610166300  0.0836682763126078
  0.7710656496058519  0.1016123738966641  0.8157226847145154
  0.8941597846387026  0.2025085665872126  0.5760551049616254
  0.5560837748257441  0.2177957964872661  0.0662392657654394
  0.2241484812227483  0.2010122057688690  0.5644277880756192
  0.8783134156909469  0.2102478189421078  0.0753362126990780
  0.5470445823263432  0.2164130338980996  0.5716590600829647
  0.2322685879803572  0.5302309676286328  0.0609177851477298
  0.4360478575304398  0.4378488232051154  0.3155026475274809
  0.5538520746870788  0.5411662977222207  0.1222798875068705
  0.2324928001351054  0.5343074845788678  0.5688633018403095
  0.8874479571393437  0.5357450334242841  0.1271924061897778
  0.4444985876870220  0.4301499225050378  0.8145736281740952
  0.5530664028621572  0.5398484376188009  0.6238392636048431
  0.1102626739454067  0.7647462358414785  0.3821998732291334
  0.7749282556777501  0.7562893226205247  0.8773834150241626
  0.8840597086657667  0.8712734315248909  0.6341750228288703
  0.4448061605259142  0.7566583168133860  0.3770955154564959
  0.5554915703771499  0.8597463305330280  0.1164711977243229
  0.1191469615520759  0.7546325068835529  0.8668601030846546
  0.4493495361155482  0.7509886212367576  0.8714225141699927
  0.5596506418369245  0.8687176170166282  0.6263933309616334
  0.4463952517115430  0.0923199214570829  0.3308021118721456
  0.1076126885389854  0.0895010858595597  0.8476082004426644
  0.7795626816136618  0.0938326847889499  0.3439149798577219
  0.4556909611192950  0.0879271952100993  0.8435065827423287
  0.1247755981077887  0.4274100298501580  0.3352884062567725
  0.7699850806536688  0.4326180181838382  0.8557654735698037
  0.8850709641064114  0.5452634246380086  0.5970071560936177
  0.1166800351002379  0.4302633614267037  0.8270696695173356
  0.7676686952322740  0.4227744094927814  0.3552704820026449
  0.2320054038538615  0.8587026929341306  0.1181109927075497
  0.2242886333468661  0.8726438519570650  0.6051784595388128
  0.7735794522181436  0.7699691008420970  0.3549550654344600
  0.8886799898897237  0.8767456125891115  0.0942822344136331
  0.2164708493732590  0.1909933201703993  0.3683675200200867
  0.1008664663971359  0.1103099751744168  0.1138753394629362
  0.8767315999271403  0.1940147025178902  0.8801454280472640
  0.7756220372634672  0.0969789298448518  0.6152514148790118
  0.5392871232431560  0.2333401272776214  0.3790598041010256
  0.4469656289553257  0.0946977761696672  0.0950543387786027
  0.1034398875275784  0.1175247642165544  0.6313030966761914
  0.9142359436493592  0.1880820265311343  0.3821542232482145
  0.7605248313327593  0.1205937664816119  0.1248056739863159
  0.5626181395743757  0.2191776375974186  0.8688770388915543
  0.4423266303664022  0.0943269999804244  0.6096317798893125
  0.2344328672164622  0.5527082372870495  0.3727795793939848
  0.1137161807243956  0.4275808547120974  0.1028348355109898
  0.8833422056048690  0.5566485456961985  0.8176088311829091
  0.7663234749554064  0.4184640859962627  0.5921409741465595
  0.5319049614427556  0.5553448163653201  0.3179415441779057
  0.4410260975204068  0.4271298143608533  0.1156492701104384
  0.2379428657472218  0.5379878511403149  0.8626852812188659
  0.1348344488217563  0.4147820429733642  0.5990223291269814
  0.8894455388219313  0.5366687420188683  0.3346927504393520
  0.7765206037333670  0.4284699193839714  0.0967430716633046
  0.5387256877547131  0.5484876083010022  0.8216322283355595
  0.4429380207844034  0.4284870638003611  0.6192221774714923
  0.2227561371987434  0.8719443306390033  0.3491408429022087
  0.1225864823559704  0.7426329032748598  0.0643661300792857
  0.8833900479273495  0.8733539281669493  0.8388550159016503
  0.7643416033254553  0.7896454747710138  0.5718050103903494
  0.5416814914422119  0.8593932617069200  0.3083448231581301
  0.4630859194247279  0.7467043160372171  0.0630656902018174
  0.2343739379402905  0.8534517071088032  0.8329246367356831
  0.0959849668175892  0.7556122362611291  0.5862326587813484
  0.9142213124149947  0.8601512065737822  0.3125858734642719
  0.7707591954355593  0.7483190274910285  0.0767728204283813
  0.5653405821931869  0.8498694441486947  0.8235724486500899
  0.4679261665774206  0.7501921024908427  0.5703664759126923
  0.2243315505155792  0.2039822801086046  0.8914598424044016
 
  0.00000000E+00  0.00000000E+00  0.00000000E+00
  0.00000000E+00  0.00000000E+00  0.00000000E+00
  0.00000000E+00  0.00000000E+00  0.00000000E+00
  0.00000000E+00  0.00000000E+00  0.00000000E+00
  0.00000000E+00  0.00000000E+00  0.00000000E+00
  0.00000000E+00  0.00000000E+00  0.00000000E+00
  0.00000000E+00  0.00000000E+00  0.00000000E+00
  0.00000000E+00  0.00000000E+00  0.00000000E+00
  0.00000000E+00  0.00000000E+00  0.00000000E+00
  0.00000000E+00  0.00000000E+00  0.00000000E+00
  0.00000000E+00  0.00000000E+00  0.00000000E+00
  0.00000000E+00  0.00000000E+00  0.00000000E+00
  0.00000000E+00  0.00000000E+00  0.00000000E+00
  0.00000000E+00  0.00000000E+00  0.00000000E+00
  0.00000000E+00  0.00000000E+00  0.00000000E+00
  0.00000000E+00  0.00000000E+00  0.00000000E+00
  0.00000000E+00  0.00000000E+00  0.00000000E+00
  0.00000000E+00  0.00000000E+00  0.00000000E+00
  0.00000000E+00  0.00000000E+00  0.00000000E+00
  0.00000000E+00  0.00000000E+00  0.00000000E+00
  0.00000000E+00  0.00000000E+00  0.00000000E+00
  0.00000000E+00  0.00000000E+00  0.00000000E+00
  0.00000000E+00  0.00000000E+00  0.00000000E+00
  0.00000000E+00  0.00000000E+00  0.00000000E+00
  0.00000000E+00  0.00000000E+00  0.00000000E+00
  0.00000000E+00  0.00000000E+00  0.00000000E+00
  0.00000000E+00  0.00000000E+00  0.00000000E+00
  0.00000000E+00  0.00000000E+00  0.00000000E+00
  0.00000000E+00  0.00000000E+00  0.00000000E+00
  0.00000000E+00  0.00000000E+00  0.00000000E+00
  0.00000000E+00  0.00000000E+00  0.00000000E+00
  0.00000000E+00  0.00000000E+00  0.00000000E+00
  0.00000000E+00  0.00000000E+00  0.00000000E+00
  0.00000000E+00  0.00000000E+00  0.00000000E+00
  0.00000000E+00  0.00000000E+00  0.00000000E+00
  0.00000000E+00  0.00000000E+00  0.00000000E+00
  0.00000000E+00  0.00000000E+00  0.00000000E+00
  0.00000000E+00  0.00000000E+00  0.00000000E+00
  0.00000000E+00  0.00000000E+00  0.00000000E+00
  0.00000000E+00  0.00000000E+00  0.00000000E+00
  0.00000000E+00  0.00000000E+00  0.00000000E+00
  0.00000000E+00  0.00000000E+00  0.00000000E+00
  0.00000000E+00  0.00000000E+00  0.00000000E+00
  0.00000000E+00  0.00000000E+00  0.00000000E+00
  0.00000000E+00  0.00000000E+00  0.00000000E+00
  0.00000000E+00  0.00000000E+00  0.00000000E+00
  0.00000000E+00  0.00000000E+00  0.00000000E+00
  0.00000000E+00  0.00000000E+00  0.00000000E+00
  0.00000000E+00  0.00000000E+00  0.00000000E+00
  0.00000000E+00  0.00000000E+00  0.00000000E+00
  0.00000000E+00  0.00000000E+00  0.00000000E+00
  0.00000000E+00  0.00000000E+00  0.00000000E+00
  0.00000000E+00  0.00000000E+00  0.00000000E+00
  0.00000000E+00  0.00000000E+00  0.00000000E+00
  0.00000000E+00  0.00000000E+00  0.00000000E+00
  0.00000000E+00  0.00000000E+00  0.00000000E+00
  0.00000000E+00  0.00000000E+00  0.00000000E+00
  0.00000000E+00  0.00000000E+00  0.00000000E+00
  0.00000000E+00  0.00000000E+00  0.00000000E+00
  0.00000000E+00  0.00000000E+00  0.00000000E+00
  0.00000000E+00  0.00000000E+00  0.00000000E+00
  0.00000000E+00  0.00000000E+00  0.00000000E+00
  0.00000000E+00  0.00000000E+00  0.00000000E+00
  0.00000000E+00  0.00000000E+00  0.00000000E+00
  0.00000000E+00  0.00000000E+00  0.00000000E+00
  0.00000000E+00  0.00000000E+00  0.00000000E+00
  0.00000000E+00  0.00000000E+00  0.00000000E+00
  0.00000000E+00  0.00000000E+00  0.00000000E+00
  0.00000000E+00  0.00000000E+00  0.00000000E+00
  0.00000000E+00  0.00000000E+00  0.00000000E+00
  0.00000000E+00  0.00000000E+00  0.00000000E+00
  0.00000000E+00  0.00000000E+00  0.00000000E+00
