Al   Sc   N    O                        
   1.00000000000000     
   -10.1644862272256855    0.0100959693123545   -0.0042874226698603
    -5.0888644213095571    8.8300969031288794   -0.0023698442956681
     0.0076859535470991    0.0863878475742023   -9.4860238282246350
   Al   Sc   N    O 
    23    13    35     1
Direct
  0.1102779711554405  0.0912997757255809  0.3094658627206783
  0.2223245936398968  0.2083611447372107  0.0855995535486329
  0.7701003406961817  0.0998156112488999  0.8116279955247307
  0.8931097187781845  0.2046967208727821  0.5698692284514451
  0.5563689446840812  0.2161536408048050  0.0638616363909605
  0.2219501548251657  0.2029288842765737  0.5563977347501137
  0.8783454911439463  0.2102876502142408  0.0680725902149888
  0.5451592794412363  0.2179187706044772  0.5703281992982099
  0.2336468111768966  0.5334902228630938  0.0623059838593818
  0.4386770467638925  0.4368873187490010  0.3141019544168842
  0.5542049435528114  0.5372430878218353  0.0922559669658725
  0.2277773169390542  0.5396621668669468  0.5646991629647076
  0.8891232539317855  0.5360871705026540  0.0624622404950230
  0.4428677057490020  0.4338476979835235  0.8134688642332151
  0.5507826024199218  0.5364207133108465  0.5854305210393065
  0.1211696475294914  0.7552989727547441  0.3105814195892336
  0.7708226209090938  0.7638887172132698  0.8642965371283609
  0.8835302686522297  0.8718903370357793  0.6176693762930157
  0.4434443293955965  0.7578159003711065  0.3643956810184505
  0.5566381998084537  0.8614666347289415  0.1126661925529362
  0.1171853406803436  0.7531164172868543  0.8214883904763823
  0.4495455144945737  0.7516074670645310  0.8623273638535380
  0.5565730936361533  0.8678814205840553  0.6160393100785697
  0.4475996780553402  0.0916153932577188  0.3336542935841535
  0.1066115482058692  0.0930130129348186  0.8401593249102675
  0.7786889720733470  0.0959241861655258  0.3425352621446933
  0.4548289698873020  0.0877204538546223  0.8390579050034859
  0.1182502298674706  0.4315692379370049  0.3274704412349578
  0.7659617584291212  0.4267415731865825  0.8339297677064721
  0.8880371493198354  0.5420666495791053  0.5916865440033092
  0.1223072687767726  0.4292119964798289  0.8294132420453764
  0.7753932873837144  0.4253203308798348  0.3324626503966854
  0.2326130563203321  0.8647920930757138  0.0890970864912504
  0.2183457341074870  0.8727085877577636  0.5858062607429062
  0.7776916547017052  0.7645327790296506  0.3467518754213899
  0.8892871672055449  0.8775000644663393  0.0858187646561959
  0.2144974466277105  0.1941750673052240  0.3508699965770248
  0.0992418606486183  0.1128745305394929  0.1011836786365379
  0.8770272918969013  0.1923559857247312  0.8673128109099153
  0.7761436558236383  0.0959047582014847  0.6047598972384662
  0.5389466019774218  0.2330708769901122  0.3718126565578217
  0.4488651898654226  0.0937879528098762  0.0902073096391618
  0.1049334929666657  0.1153989931433514  0.6175574671952333
  0.9124997305355507  0.1923067027274357  0.3701496470297485
  0.7625885754893389  0.1187408325397357  0.1144929199219220
  0.5599522205104819  0.2198088236942723  0.8577644256553043
  0.4410005029094322  0.0931616606589216  0.5971028341849092
  0.2334190537891345  0.5527521724025135  0.3659102625160244
  0.1135589625807327  0.4285438227570992  0.0914650072319461
  0.8856549349240055  0.5514248479098285  0.8443714863496155
  0.7653719998768409  0.4180321319665055  0.5966153242095089
  0.5364602057583596  0.5495074174192141  0.3325259033631909
  0.4438462622250512  0.4256837418752610  0.1104145715234282
  0.2358980093628134  0.5443067386251528  0.8637117215621828
  0.1380561246977834  0.4132564089635267  0.5985021048543828
  0.8929007517563790  0.5357203777081097  0.3650021867307416
  0.7787138666133657  0.4279674763028325  0.0906088389898585
  0.5366695179767689  0.5452127100902757  0.8440184288061943
  0.4402378966016371  0.4320995618544003  0.6129848246774543
  0.2227177154797246  0.8729640812766988  0.3391783447853030
  0.1273604231653280  0.7376650543506358  0.1047271958839104
  0.8804776656139026  0.8764051996012157  0.8391576484662551
  0.7646088311121630  0.7846094857172545  0.5787376807009394
  0.5439261291231787  0.8597855600222459  0.3118011544648525
  0.4651781059793478  0.7483347284514608  0.0653125293807477
  0.2307817241426235  0.8561575092815090  0.8411053697202462
  0.0997066777805244  0.7489554813753756  0.6187406709834278
  0.9113959839798795  0.8632128953646543  0.3233808049318370
  0.7705722146499383  0.7525118890626814  0.0762470411391547
  0.5620919006376255  0.8514110843669940  0.8198447939952587
  0.4609189746783784  0.7515743794995160  0.5701776773970195
  0.2264109750438266  0.2029749336970426  0.8836621053698579
 
  0.00000000E+00  0.00000000E+00  0.00000000E+00
  0.00000000E+00  0.00000000E+00  0.00000000E+00
  0.00000000E+00  0.00000000E+00  0.00000000E+00
  0.00000000E+00  0.00000000E+00  0.00000000E+00
  0.00000000E+00  0.00000000E+00  0.00000000E+00
  0.00000000E+00  0.00000000E+00  0.00000000E+00
  0.00000000E+00  0.00000000E+00  0.00000000E+00
  0.00000000E+00  0.00000000E+00  0.00000000E+00
  0.00000000E+00  0.00000000E+00  0.00000000E+00
  0.00000000E+00  0.00000000E+00  0.00000000E+00
  0.00000000E+00  0.00000000E+00  0.00000000E+00
  0.00000000E+00  0.00000000E+00  0.00000000E+00
  0.00000000E+00  0.00000000E+00  0.00000000E+00
  0.00000000E+00  0.00000000E+00  0.00000000E+00
  0.00000000E+00  0.00000000E+00  0.00000000E+00
  0.00000000E+00  0.00000000E+00  0.00000000E+00
  0.00000000E+00  0.00000000E+00  0.00000000E+00
  0.00000000E+00  0.00000000E+00  0.00000000E+00
  0.00000000E+00  0.00000000E+00  0.00000000E+00
  0.00000000E+00  0.00000000E+00  0.00000000E+00
  0.00000000E+00  0.00000000E+00  0.00000000E+00
  0.00000000E+00  0.00000000E+00  0.00000000E+00
  0.00000000E+00  0.00000000E+00  0.00000000E+00
  0.00000000E+00  0.00000000E+00  0.00000000E+00
  0.00000000E+00  0.00000000E+00  0.00000000E+00
  0.00000000E+00  0.00000000E+00  0.00000000E+00
  0.00000000E+00  0.00000000E+00  0.00000000E+00
  0.00000000E+00  0.00000000E+00  0.00000000E+00
  0.00000000E+00  0.00000000E+00  0.00000000E+00
  0.00000000E+00  0.00000000E+00  0.00000000E+00
  0.00000000E+00  0.00000000E+00  0.00000000E+00
  0.00000000E+00  0.00000000E+00  0.00000000E+00
  0.00000000E+00  0.00000000E+00  0.00000000E+00
  0.00000000E+00  0.00000000E+00  0.00000000E+00
  0.00000000E+00  0.00000000E+00  0.00000000E+00
  0.00000000E+00  0.00000000E+00  0.00000000E+00
  0.00000000E+00  0.00000000E+00  0.00000000E+00
  0.00000000E+00  0.00000000E+00  0.00000000E+00
  0.00000000E+00  0.00000000E+00  0.00000000E+00
  0.00000000E+00  0.00000000E+00  0.00000000E+00
  0.00000000E+00  0.00000000E+00  0.00000000E+00
  0.00000000E+00  0.00000000E+00  0.00000000E+00
  0.00000000E+00  0.00000000E+00  0.00000000E+00
  0.00000000E+00  0.00000000E+00  0.00000000E+00
  0.00000000E+00  0.00000000E+00  0.00000000E+00
  0.00000000E+00  0.00000000E+00  0.00000000E+00
  0.00000000E+00  0.00000000E+00  0.00000000E+00
  0.00000000E+00  0.00000000E+00  0.00000000E+00
  0.00000000E+00  0.00000000E+00  0.00000000E+00
  0.00000000E+00  0.00000000E+00  0.00000000E+00
  0.00000000E+00  0.00000000E+00  0.00000000E+00
  0.00000000E+00  0.00000000E+00  0.00000000E+00
  0.00000000E+00  0.00000000E+00  0.00000000E+00
  0.00000000E+00  0.00000000E+00  0.00000000E+00
  0.00000000E+00  0.00000000E+00  0.00000000E+00
  0.00000000E+00  0.00000000E+00  0.00000000E+00
  0.00000000E+00  0.00000000E+00  0.00000000E+00
  0.00000000E+00  0.00000000E+00  0.00000000E+00
  0.00000000E+00  0.00000000E+00  0.00000000E+00
  0.00000000E+00  0.00000000E+00  0.00000000E+00
  0.00000000E+00  0.00000000E+00  0.00000000E+00
  0.00000000E+00  0.00000000E+00  0.00000000E+00
  0.00000000E+00  0.00000000E+00  0.00000000E+00
  0.00000000E+00  0.00000000E+00  0.00000000E+00
  0.00000000E+00  0.00000000E+00  0.00000000E+00
  0.00000000E+00  0.00000000E+00  0.00000000E+00
  0.00000000E+00  0.00000000E+00  0.00000000E+00
  0.00000000E+00  0.00000000E+00  0.00000000E+00
  0.00000000E+00  0.00000000E+00  0.00000000E+00
  0.00000000E+00  0.00000000E+00  0.00000000E+00
  0.00000000E+00  0.00000000E+00  0.00000000E+00
  0.00000000E+00  0.00000000E+00  0.00000000E+00
