Al   Sc   N    O                        
   1.00000000000000     
   -10.0679760668905303    0.0096159724498526   -0.0105196415716618
    -5.0692219877386977    8.7244731931021349   -0.0070889362217487
    -0.0228004794723498    0.0793229155274912   -9.7861778563885053
   Al   Sc   N    O 
    23    13    35     1
Direct
  0.1104311253363832  0.0935975239020621  0.3060340155114645
  0.2220815108677670  0.2080254910947872  0.0768193419372523
  0.7759379180367318  0.0934230720945237  0.8035948029253532
  0.8905145503461114  0.2072601153666653  0.5637776706683866
  0.5580082234384705  0.2164474345382246  0.0616258752188585
  0.2230831837099529  0.2045717531815825  0.5567952617523062
  0.8800358040531151  0.2086403530027425  0.0621483857539147
  0.5475748637981894  0.2176966881006024  0.5685995768052763
  0.2308490504135392  0.5371580889771721  0.0616073683227611
  0.4391685370817058  0.4383888467205779  0.3130392680250580
  0.5505494402431097  0.5387411909929014  0.0605853293764582
  0.2305244185060431  0.5367148963449111  0.5627841212066684
  0.8834675659139464  0.5437498283341995  0.0506791416264392
  0.4433818989211034  0.4354805371824497  0.8118899782254800
  0.5503277235369026  0.5353729749777685  0.5594038524303855
  0.1189933196935016  0.7563035166610845  0.3139497501812158
  0.7783566780292972  0.7669164895688922  0.8044793387295570
  0.8935443041047790  0.8713972237583221  0.5653524906491612
  0.4394895802347065  0.7542286799585085  0.3147519108993961
  0.5584040641150310  0.8616254967388670  0.1187457165197046
  0.1115278643054722  0.7571499812210618  0.8103142215395209
  0.4466158197926617  0.7500575150733368  0.8088553123491025
  0.5531490363995175  0.8719630120170763  0.6089573530169190
  0.4454265426787885  0.0963755798083099  0.3307933892801884
  0.1076056162028181  0.0926108150228018  0.8302061473533513
  0.7771660154263103  0.1007057202709944  0.3352300540720279
  0.4584811522351444  0.0858136143503430  0.8380560846855474
  0.1172949008796351  0.4315220402813083  0.3178372053025242
  0.7649134019397437  0.4263242523617947  0.8278728480654109
  0.8928823196135838  0.5310802811911586  0.5869658287175668
  0.1235507916333702  0.4310025475518628  0.8282146865579776
  0.7733944600639262  0.4284259614468482  0.3152758927927835
  0.2272573231084678  0.8638655789266139  0.0759398531759103
  0.2196732888938229  0.8737807283261319  0.5697619024695868
  0.7795495471173481  0.7582147788911513  0.3398671432009905
  0.8830821886725460  0.8741481604979526  0.0705855571768694
  0.2128630451807538  0.1963676245249601  0.3596286230782439
  0.1001264713335885  0.1132187230477513  0.1047917836546475
  0.8783324188827990  0.1898054050159885  0.8698669949241662
  0.7781793535986310  0.0948844830187667  0.6043825565876375
  0.5397159048856892  0.2349491385760061  0.3766026162991096
  0.4490087599769197  0.0930125163069206  0.0942466605608203
  0.1034786484411327  0.1165729122648287  0.6165871417520705
  0.9103738354335107  0.1977231721312194  0.3705274495185620
  0.7658382691065029  0.1147262045986750  0.1184826614771879
  0.5637800081850983  0.2195406422405739  0.8631615765349210
  0.4425967831750555  0.0951171682182448  0.6012270920241320
  0.2330906344227657  0.5506912864659412  0.3701775057778036
  0.1122973162717287  0.4289701025862271  0.0898425819405588
  0.8839945552271473  0.5545188631719569  0.8467949348370141
  0.7626001626347190  0.4169737626775216  0.6066054225426356
  0.5359082269623272  0.5474008563621808  0.3660718002076990
  0.4442449539722375  0.4280891363977801  0.1167241634289269
  0.2345500364850892  0.5495978149921541  0.8694105760482387
  0.1406024193725699  0.4128033402271427  0.6073829759821976
  0.8944596190542811  0.5296348258605903  0.3743919069121162
  0.7769188460564109  0.4290185460290559  0.0869711821692363
  0.5327992693013073  0.5482583320970491  0.8692777798620099
  0.4425597846463276  0.4319232550203580  0.6197031180125876
  0.2201993981250112  0.8744570008663288  0.3420276720387037
  0.1178369540852842  0.7398384174816997  0.1201041872623492
  0.8847942470561136  0.8746584053539479  0.8500413559143638
  0.7707581707098683  0.7794487848677889  0.5997974051653401
  0.5424889993562658  0.8629900277579665  0.3308326398799153
  0.4612232273347416  0.7445007264469794  0.1144479130734979
  0.2294966511175645  0.8550722788112495  0.8479204990377127
  0.1043519157347816  0.7482837508087314  0.6177303031366321
  0.9119282279671239  0.8636998493606356  0.3676779233418443
  0.7737361374723477  0.7478009485636150  0.1109304363969628
  0.5638801320448934  0.8508294958836515  0.8237040683503380
  0.4590763368126005  0.7478552469508628  0.6092303979122846
  0.2273073813664794  0.2017153110918031  0.8845100593563018
 
  0.00000000E+00  0.00000000E+00  0.00000000E+00
  0.00000000E+00  0.00000000E+00  0.00000000E+00
  0.00000000E+00  0.00000000E+00  0.00000000E+00
  0.00000000E+00  0.00000000E+00  0.00000000E+00
  0.00000000E+00  0.00000000E+00  0.00000000E+00
  0.00000000E+00  0.00000000E+00  0.00000000E+00
  0.00000000E+00  0.00000000E+00  0.00000000E+00
  0.00000000E+00  0.00000000E+00  0.00000000E+00
  0.00000000E+00  0.00000000E+00  0.00000000E+00
  0.00000000E+00  0.00000000E+00  0.00000000E+00
  0.00000000E+00  0.00000000E+00  0.00000000E+00
  0.00000000E+00  0.00000000E+00  0.00000000E+00
  0.00000000E+00  0.00000000E+00  0.00000000E+00
  0.00000000E+00  0.00000000E+00  0.00000000E+00
  0.00000000E+00  0.00000000E+00  0.00000000E+00
  0.00000000E+00  0.00000000E+00  0.00000000E+00
  0.00000000E+00  0.00000000E+00  0.00000000E+00
  0.00000000E+00  0.00000000E+00  0.00000000E+00
  0.00000000E+00  0.00000000E+00  0.00000000E+00
  0.00000000E+00  0.00000000E+00  0.00000000E+00
  0.00000000E+00  0.00000000E+00  0.00000000E+00
  0.00000000E+00  0.00000000E+00  0.00000000E+00
  0.00000000E+00  0.00000000E+00  0.00000000E+00
  0.00000000E+00  0.00000000E+00  0.00000000E+00
  0.00000000E+00  0.00000000E+00  0.00000000E+00
  0.00000000E+00  0.00000000E+00  0.00000000E+00
  0.00000000E+00  0.00000000E+00  0.00000000E+00
  0.00000000E+00  0.00000000E+00  0.00000000E+00
  0.00000000E+00  0.00000000E+00  0.00000000E+00
  0.00000000E+00  0.00000000E+00  0.00000000E+00
  0.00000000E+00  0.00000000E+00  0.00000000E+00
  0.00000000E+00  0.00000000E+00  0.00000000E+00
  0.00000000E+00  0.00000000E+00  0.00000000E+00
  0.00000000E+00  0.00000000E+00  0.00000000E+00
  0.00000000E+00  0.00000000E+00  0.00000000E+00
  0.00000000E+00  0.00000000E+00  0.00000000E+00
  0.00000000E+00  0.00000000E+00  0.00000000E+00
  0.00000000E+00  0.00000000E+00  0.00000000E+00
  0.00000000E+00  0.00000000E+00  0.00000000E+00
  0.00000000E+00  0.00000000E+00  0.00000000E+00
  0.00000000E+00  0.00000000E+00  0.00000000E+00
  0.00000000E+00  0.00000000E+00  0.00000000E+00
  0.00000000E+00  0.00000000E+00  0.00000000E+00
  0.00000000E+00  0.00000000E+00  0.00000000E+00
  0.00000000E+00  0.00000000E+00  0.00000000E+00
  0.00000000E+00  0.00000000E+00  0.00000000E+00
  0.00000000E+00  0.00000000E+00  0.00000000E+00
  0.00000000E+00  0.00000000E+00  0.00000000E+00
  0.00000000E+00  0.00000000E+00  0.00000000E+00
  0.00000000E+00  0.00000000E+00  0.00000000E+00
  0.00000000E+00  0.00000000E+00  0.00000000E+00
  0.00000000E+00  0.00000000E+00  0.00000000E+00
  0.00000000E+00  0.00000000E+00  0.00000000E+00
  0.00000000E+00  0.00000000E+00  0.00000000E+00
  0.00000000E+00  0.00000000E+00  0.00000000E+00
  0.00000000E+00  0.00000000E+00  0.00000000E+00
  0.00000000E+00  0.00000000E+00  0.00000000E+00
  0.00000000E+00  0.00000000E+00  0.00000000E+00
  0.00000000E+00  0.00000000E+00  0.00000000E+00
  0.00000000E+00  0.00000000E+00  0.00000000E+00
  0.00000000E+00  0.00000000E+00  0.00000000E+00
  0.00000000E+00  0.00000000E+00  0.00000000E+00
  0.00000000E+00  0.00000000E+00  0.00000000E+00
  0.00000000E+00  0.00000000E+00  0.00000000E+00
  0.00000000E+00  0.00000000E+00  0.00000000E+00
  0.00000000E+00  0.00000000E+00  0.00000000E+00
  0.00000000E+00  0.00000000E+00  0.00000000E+00
  0.00000000E+00  0.00000000E+00  0.00000000E+00
  0.00000000E+00  0.00000000E+00  0.00000000E+00
  0.00000000E+00  0.00000000E+00  0.00000000E+00
  0.00000000E+00  0.00000000E+00  0.00000000E+00
  0.00000000E+00  0.00000000E+00  0.00000000E+00
