Al   Sc   N    O                        
   1.00000000000000     
   -10.0702230038163680    0.0104836590859137    0.0007462925969794
    -5.0228303053902650    8.7605496719982145    0.0014417299523200
    -0.0584860201381835    0.1438137694588877   -9.7881449041603279
   Al   Sc   N    O 
    23    13    35     1
Direct
  0.1112042226284942  0.0918136075177927  0.3160916476495643
  0.2209895485321596  0.2092469219771189  0.0813717300814432
  0.7710572854020512  0.1016241748331836  0.8134302397195867
  0.8941535377941463  0.2025215850639910  0.5737674811024647
  0.5560764821602930  0.2178070078568410  0.0639485507909825
  0.2241386101675502  0.2010253019092687  0.5621390843238672
  0.8783034160864815  0.2102609519446474  0.0730450130189979
  0.5470358444149994  0.2164273524995437  0.5693698616987533
  0.2322616738478729  0.5302448841635581  0.0586322569482789
  0.4360403128335761  0.4378614854578586  0.3132142723769036
  0.5538445868463526  0.5411786379039540  0.1199894174516558
  0.2324845261725272  0.5343198485894760  0.5665795333414891
  0.8874405363917077  0.5357572098416412  0.1248966490081642
  0.4444904249117627  0.4301627001697810  0.8122861131888186
  0.5530581126304455  0.5398606531457304  0.6215520026429147
  0.1102568234247556  0.7647579210580133  0.3799094642768566
  0.7749183621068738  0.7563040087438822  0.8750911997887911
  0.8840529034171709  0.8712849822209776  0.6318808789516837
  0.4447969273195937  0.7566701854345723  0.3748046089253094
  0.5554832470686009  0.8597601033441862  0.1141874954997704
  0.1191385080208178  0.7546449309050942  0.8645699186618572
  0.4493434607355340  0.7510019801793533  0.8691313589039282
  0.5596437295513255  0.8687277770235440  0.6240976574171313
  0.4463868269853180  0.0923325483354631  0.3285211517734581
  0.1076031199548240  0.0895151578738123  0.8453217391678365
  0.7795553593341467  0.0938454094196857  0.3416311616140746
  0.4556853661142739  0.0879374157496784  0.8412128620257207
  0.1247689466443447  0.4274215313491396  0.3329975109931809
  0.7699769595451187  0.4326292934581275  0.8534711926108827
  0.8850661671744149  0.5452739501804231  0.5947192498052019
  0.1166710508860831  0.4302784616282125  0.8247889249111822
  0.7676627707605803  0.4227869989444173  0.3529784896861585
  0.2319973956325470  0.8587160900348891  0.1158126693903228
  0.2242809835479704  0.8726567184131682  0.6028908180630879
  0.7735753076583336  0.7699795947627948  0.3526623955858526
  0.8886709707420906  0.8767602995954533  0.0919919850237321
  0.2164610301030834  0.1910069966423578  0.3660752622336432
  0.1008588844372511  0.1103236392475964  0.1115781192649479
  0.8767217254770117  0.1940277045610443  0.8778508218547358
  0.7756152024193597  0.0969900543825304  0.6129559879899773
  0.5392788770450778  0.2333535091088095  0.3767677039273067
  0.4469584463563123  0.0947091462542744  0.0927641971863196
  0.1034331284708827  0.1175354714513546  0.6290128998931692
  0.9142288777794150  0.1880965228960605  0.3798621477545367
  0.7605168677652188  0.1206064052604248  0.1225150247273348
  0.5626099047274096  0.2191892100543669  0.8665820824788355
  0.4423199019602109  0.0943375020034622  0.6073347902555284
  0.2344245751249900  0.5527204771862486  0.3704898647256840
  0.1137097340254343  0.4275917768307167  0.1005383198674181
  0.8833342577108496  0.5566605184062325  0.8153265858576475
  0.7663167955789305  0.4184762659970289  0.5898584831350249
  0.5318983290447861  0.5553553664950499  0.3156557830998281
  0.4410197774266962  0.4271420090761779  0.1133570848676086
  0.2379349093215168  0.5380025006431097  0.8603943543861163
  0.1348277944441207  0.4147933778912218  0.5967355860609302
  0.8894407379860922  0.5366790414743292  0.3324044103207058
  0.7765130836999106  0.4284816068144934  0.0944552211477188
  0.5387166580557619  0.5484996217311888  0.8193489391986049
  0.4429310135033830  0.4285002273885326  0.6169316217772476
  0.2227479461103883  0.8719576266028071  0.3468495215536223
  0.1225772446065108  0.7426444669017940  0.0620807673197348
  0.8833805845998981  0.8733679056951544  0.8365659443263738
  0.7643365907096964  0.7896537580571490  0.5695177231451325
  0.5416745118138522  0.8594062226719927  0.3060643528773426
  0.4630801800332591  0.7467173181981082  0.0607795242110711
  0.2343654959462995  0.8534659979927284  0.8306439788577435
  0.0959797426121156  0.7556238022426456  0.5839483977594000
  0.9142131300128113  0.8601659262682233  0.3103013572039615
  0.7707503309393431  0.7483337159498404  0.0744871721224811
  0.5653327514602680  0.8498818028485715  0.8212803573220384
  0.4679162777480741  0.7502033312084038  0.5680802174248640
  0.2243272877779958  0.2039928788862255  0.8891603652243134
 
  0.00000000E+00  0.00000000E+00  0.00000000E+00
  0.00000000E+00  0.00000000E+00  0.00000000E+00
  0.00000000E+00  0.00000000E+00  0.00000000E+00
  0.00000000E+00  0.00000000E+00  0.00000000E+00
  0.00000000E+00  0.00000000E+00  0.00000000E+00
  0.00000000E+00  0.00000000E+00  0.00000000E+00
  0.00000000E+00  0.00000000E+00  0.00000000E+00
  0.00000000E+00  0.00000000E+00  0.00000000E+00
  0.00000000E+00  0.00000000E+00  0.00000000E+00
  0.00000000E+00  0.00000000E+00  0.00000000E+00
  0.00000000E+00  0.00000000E+00  0.00000000E+00
  0.00000000E+00  0.00000000E+00  0.00000000E+00
  0.00000000E+00  0.00000000E+00  0.00000000E+00
  0.00000000E+00  0.00000000E+00  0.00000000E+00
  0.00000000E+00  0.00000000E+00  0.00000000E+00
  0.00000000E+00  0.00000000E+00  0.00000000E+00
  0.00000000E+00  0.00000000E+00  0.00000000E+00
  0.00000000E+00  0.00000000E+00  0.00000000E+00
  0.00000000E+00  0.00000000E+00  0.00000000E+00
  0.00000000E+00  0.00000000E+00  0.00000000E+00
  0.00000000E+00  0.00000000E+00  0.00000000E+00
  0.00000000E+00  0.00000000E+00  0.00000000E+00
  0.00000000E+00  0.00000000E+00  0.00000000E+00
  0.00000000E+00  0.00000000E+00  0.00000000E+00
  0.00000000E+00  0.00000000E+00  0.00000000E+00
  0.00000000E+00  0.00000000E+00  0.00000000E+00
  0.00000000E+00  0.00000000E+00  0.00000000E+00
  0.00000000E+00  0.00000000E+00  0.00000000E+00
  0.00000000E+00  0.00000000E+00  0.00000000E+00
  0.00000000E+00  0.00000000E+00  0.00000000E+00
  0.00000000E+00  0.00000000E+00  0.00000000E+00
  0.00000000E+00  0.00000000E+00  0.00000000E+00
  0.00000000E+00  0.00000000E+00  0.00000000E+00
  0.00000000E+00  0.00000000E+00  0.00000000E+00
  0.00000000E+00  0.00000000E+00  0.00000000E+00
  0.00000000E+00  0.00000000E+00  0.00000000E+00
  0.00000000E+00  0.00000000E+00  0.00000000E+00
  0.00000000E+00  0.00000000E+00  0.00000000E+00
  0.00000000E+00  0.00000000E+00  0.00000000E+00
  0.00000000E+00  0.00000000E+00  0.00000000E+00
  0.00000000E+00  0.00000000E+00  0.00000000E+00
  0.00000000E+00  0.00000000E+00  0.00000000E+00
  0.00000000E+00  0.00000000E+00  0.00000000E+00
  0.00000000E+00  0.00000000E+00  0.00000000E+00
  0.00000000E+00  0.00000000E+00  0.00000000E+00
  0.00000000E+00  0.00000000E+00  0.00000000E+00
  0.00000000E+00  0.00000000E+00  0.00000000E+00
  0.00000000E+00  0.00000000E+00  0.00000000E+00
  0.00000000E+00  0.00000000E+00  0.00000000E+00
  0.00000000E+00  0.00000000E+00  0.00000000E+00
  0.00000000E+00  0.00000000E+00  0.00000000E+00
  0.00000000E+00  0.00000000E+00  0.00000000E+00
  0.00000000E+00  0.00000000E+00  0.00000000E+00
  0.00000000E+00  0.00000000E+00  0.00000000E+00
  0.00000000E+00  0.00000000E+00  0.00000000E+00
  0.00000000E+00  0.00000000E+00  0.00000000E+00
  0.00000000E+00  0.00000000E+00  0.00000000E+00
  0.00000000E+00  0.00000000E+00  0.00000000E+00
  0.00000000E+00  0.00000000E+00  0.00000000E+00
  0.00000000E+00  0.00000000E+00  0.00000000E+00
  0.00000000E+00  0.00000000E+00  0.00000000E+00
  0.00000000E+00  0.00000000E+00  0.00000000E+00
  0.00000000E+00  0.00000000E+00  0.00000000E+00
  0.00000000E+00  0.00000000E+00  0.00000000E+00
  0.00000000E+00  0.00000000E+00  0.00000000E+00
  0.00000000E+00  0.00000000E+00  0.00000000E+00
  0.00000000E+00  0.00000000E+00  0.00000000E+00
  0.00000000E+00  0.00000000E+00  0.00000000E+00
  0.00000000E+00  0.00000000E+00  0.00000000E+00
  0.00000000E+00  0.00000000E+00  0.00000000E+00
  0.00000000E+00  0.00000000E+00  0.00000000E+00
  0.00000000E+00  0.00000000E+00  0.00000000E+00
