Al   Sc   N    O                        
   1.00000000000000     
   -10.0903860270267423    0.0104467362503366    0.0002668911429947
    -5.0342137384151417    8.7773428350881311    0.0010787228810831
    -0.0535815674966196    0.1358169810985730   -9.7213784361285267
   Al   Sc   N    O 
    23    13    35     1
Direct
  0.1110467442284815  0.0914416401239535  0.3122006587370763
  0.2214826694016381  0.2088139018691066  0.0794486417483071
  0.7707073805183811  0.1015916212486374  0.8101379801024393
  0.8942557142883629  0.2027595662221557  0.5708484233392639
  0.5559798798181745  0.2175616224008863  0.0612953627430954
  0.2236038542042635  0.2011870910894302  0.5583695037040783
  0.8778565776956668  0.2105104224751244  0.0695660903821889
  0.5468854510571290  0.2167392775737156  0.5661493254901657
  0.2322617873693957  0.5306863710908516  0.0553149303481888
  0.4360469689268598  0.4381102822243079  0.3103737221378822
  0.5537883555768914  0.5410593613638710  0.1156233486780422
  0.2323628283040264  0.5344242143100715  0.5646400507507394
  0.8877261296975192  0.5355891306489511  0.1203591299609812
  0.4446434802613268  0.4301739799634134  0.8096293834891455
  0.5528418044558805  0.5396985988372265  0.6172679022272050
  0.1106297076633709  0.7646154505134319  0.3760114523771634
  0.7745728140391890  0.7566583914026879  0.8714457996432330
  0.8837573157919891  0.8713703102490911  0.6276009648490302
  0.4446554565178147  0.7564996936790180  0.3707872778196659
  0.5552055234750242  0.8601469130956048  0.1107034894012600
  0.1189455627057967  0.7545253098333049  0.8590979344883252
  0.4496387087147227  0.7510948026640989  0.8651107133207390
  0.5597881008175563  0.8683824963214164  0.6197080842918155
  0.4467480310098892  0.0916590828642185  0.3275217018184264
  0.1073927282845801  0.0900315951351018  0.8430030578018020
  0.7795389212658677  0.0939199208973918  0.3392774497294511
  0.4555384205582982  0.0879636991384203  0.8379713000658811
  0.1250008498177877  0.4276589245683766  0.3300031534835810
  0.7699602232662599  0.4324076319480952  0.8481198243089025
  0.8854506591087201  0.5452477932473627  0.5904958986404409
  0.1161289092193840  0.4303694147183634  0.8233934033948032
  0.7681365786176997  0.4226725805812066  0.3482956676673794
  0.2318161021948129  0.8587401538219552  0.1098134252380802
  0.2242888832543883  0.8730271331119184  0.5993149372763753
  0.7739426304563466  0.7697182053580320  0.3475110875469198
  0.8888859970153362  0.8770458778141403  0.0879354848934852
  0.2160759719482854  0.1912939400210831  0.3603347720199253
  0.1006698146908818  0.1101772022574252  0.1066336390313793
  0.8763826366318099  0.1943574068572289  0.8729304865371006
  0.7756401442071734  0.0968008504931746  0.6082150626416194
  0.5391192164722867  0.2335060252060899  0.3722172129832728
  0.4472834683561402  0.0944452296787262  0.0894452070031022
  0.1037073664661818  0.1173542061117061  0.6249194675429735
  0.9140760100010255  0.1885135427754605  0.3755000588650788
  0.7606573725039780  0.1204424542528244  0.1183129221797472
  0.5622886457920657  0.2190645508729361  0.8622049841131201
  0.4422757338239691  0.0939093458217641  0.6018244556385994
  0.2342637401533025  0.5531168215270270  0.3667855843412511
  0.1137993925706411  0.4276419575889321  0.0958360872453810
  0.8831811454873275  0.5567866278533700  0.8130378053773910
  0.7665308399704216  0.4185030505214016  0.5875980129261862
  0.5322436150151759  0.5548207600587673  0.3131474251910120
  0.4410980195068674  0.4273674790188693  0.1089444340242878
  0.2376360635483223  0.5382577523621208  0.8553731903795594
  0.1349896994246436  0.4145004096618763  0.5929289462959773
  0.8900338543703938  0.5363852566231557  0.3298500384629293
  0.7766079190385184  0.4284020474203487  0.0913771136042882
  0.5385089964983081  0.5484053982027035  0.8169227927774969
  0.4431929410120858  0.4285468386312701  0.6128579657984830
  0.2227024276411953  0.8719493116467802  0.3432738005075464
  0.1223499303527049  0.7423229708133903  0.0586234513051735
  0.8825729940238958  0.8739118171209626  0.8333982797896127
  0.7645086689126401  0.7891726360466507  0.5662114594990797
  0.5417134432868735  0.8593243969473434  0.3038987788028606
  0.4633582351265986  0.7466810895463638  0.0581525679041448
  0.2342108031897538  0.8540963938919148  0.8290020870474706
  0.0964075521496781  0.7555174169351844  0.5824846077666663
  0.9141994407982423  0.8606705657437956  0.3080413086410942
  0.7707829411561775  0.7487030902611735  0.0724791103016145
  0.5651877678641384  0.8502382105860207  0.8182965386300722
  0.4674808359651053  0.7501400896923016  0.5655732638692825
  0.2247790081426473  0.2037656922808253  0.8853112209631746
 
  0.00000000E+00  0.00000000E+00  0.00000000E+00
  0.00000000E+00  0.00000000E+00  0.00000000E+00
  0.00000000E+00  0.00000000E+00  0.00000000E+00
  0.00000000E+00  0.00000000E+00  0.00000000E+00
  0.00000000E+00  0.00000000E+00  0.00000000E+00
  0.00000000E+00  0.00000000E+00  0.00000000E+00
  0.00000000E+00  0.00000000E+00  0.00000000E+00
  0.00000000E+00  0.00000000E+00  0.00000000E+00
  0.00000000E+00  0.00000000E+00  0.00000000E+00
  0.00000000E+00  0.00000000E+00  0.00000000E+00
  0.00000000E+00  0.00000000E+00  0.00000000E+00
  0.00000000E+00  0.00000000E+00  0.00000000E+00
  0.00000000E+00  0.00000000E+00  0.00000000E+00
  0.00000000E+00  0.00000000E+00  0.00000000E+00
  0.00000000E+00  0.00000000E+00  0.00000000E+00
  0.00000000E+00  0.00000000E+00  0.00000000E+00
  0.00000000E+00  0.00000000E+00  0.00000000E+00
  0.00000000E+00  0.00000000E+00  0.00000000E+00
  0.00000000E+00  0.00000000E+00  0.00000000E+00
  0.00000000E+00  0.00000000E+00  0.00000000E+00
  0.00000000E+00  0.00000000E+00  0.00000000E+00
  0.00000000E+00  0.00000000E+00  0.00000000E+00
  0.00000000E+00  0.00000000E+00  0.00000000E+00
  0.00000000E+00  0.00000000E+00  0.00000000E+00
  0.00000000E+00  0.00000000E+00  0.00000000E+00
  0.00000000E+00  0.00000000E+00  0.00000000E+00
  0.00000000E+00  0.00000000E+00  0.00000000E+00
  0.00000000E+00  0.00000000E+00  0.00000000E+00
  0.00000000E+00  0.00000000E+00  0.00000000E+00
  0.00000000E+00  0.00000000E+00  0.00000000E+00
  0.00000000E+00  0.00000000E+00  0.00000000E+00
  0.00000000E+00  0.00000000E+00  0.00000000E+00
  0.00000000E+00  0.00000000E+00  0.00000000E+00
  0.00000000E+00  0.00000000E+00  0.00000000E+00
  0.00000000E+00  0.00000000E+00  0.00000000E+00
  0.00000000E+00  0.00000000E+00  0.00000000E+00
  0.00000000E+00  0.00000000E+00  0.00000000E+00
  0.00000000E+00  0.00000000E+00  0.00000000E+00
  0.00000000E+00  0.00000000E+00  0.00000000E+00
  0.00000000E+00  0.00000000E+00  0.00000000E+00
  0.00000000E+00  0.00000000E+00  0.00000000E+00
  0.00000000E+00  0.00000000E+00  0.00000000E+00
  0.00000000E+00  0.00000000E+00  0.00000000E+00
  0.00000000E+00  0.00000000E+00  0.00000000E+00
  0.00000000E+00  0.00000000E+00  0.00000000E+00
  0.00000000E+00  0.00000000E+00  0.00000000E+00
  0.00000000E+00  0.00000000E+00  0.00000000E+00
  0.00000000E+00  0.00000000E+00  0.00000000E+00
  0.00000000E+00  0.00000000E+00  0.00000000E+00
  0.00000000E+00  0.00000000E+00  0.00000000E+00
  0.00000000E+00  0.00000000E+00  0.00000000E+00
  0.00000000E+00  0.00000000E+00  0.00000000E+00
  0.00000000E+00  0.00000000E+00  0.00000000E+00
  0.00000000E+00  0.00000000E+00  0.00000000E+00
  0.00000000E+00  0.00000000E+00  0.00000000E+00
  0.00000000E+00  0.00000000E+00  0.00000000E+00
  0.00000000E+00  0.00000000E+00  0.00000000E+00
  0.00000000E+00  0.00000000E+00  0.00000000E+00
  0.00000000E+00  0.00000000E+00  0.00000000E+00
  0.00000000E+00  0.00000000E+00  0.00000000E+00
  0.00000000E+00  0.00000000E+00  0.00000000E+00
  0.00000000E+00  0.00000000E+00  0.00000000E+00
  0.00000000E+00  0.00000000E+00  0.00000000E+00
  0.00000000E+00  0.00000000E+00  0.00000000E+00
  0.00000000E+00  0.00000000E+00  0.00000000E+00
  0.00000000E+00  0.00000000E+00  0.00000000E+00
  0.00000000E+00  0.00000000E+00  0.00000000E+00
  0.00000000E+00  0.00000000E+00  0.00000000E+00
  0.00000000E+00  0.00000000E+00  0.00000000E+00
  0.00000000E+00  0.00000000E+00  0.00000000E+00
  0.00000000E+00  0.00000000E+00  0.00000000E+00
  0.00000000E+00  0.00000000E+00  0.00000000E+00
