Al   Sc   N    O                        
   1.00000000000000     
   -10.1239980546099257    0.0101698149835086   -0.0033286197618908
    -5.0647021037353497    8.7991249620984373   -0.0016438301531942
    -0.0068108177175344    0.0792531596158431   -9.6249980327340356
   Al   Sc   N    O 
    23    13    35     1
Direct
  0.1108934962045893  0.0913972279139017  0.3085812970418758
  0.2222672037498583  0.2087121441858102  0.0812403626711244
  0.7701015899310590  0.1003384505852196  0.8107046195829568
  0.8929719438884263  0.2043635492649116  0.5694790480429077
  0.5569311660410321  0.2163402424834260  0.0626966735065082
  0.2220428791821334  0.2032254579177533  0.5566866478133221
  0.8782626407484315  0.2106491870096079  0.0681584229925747
  0.5450585478366392  0.2175768500752397  0.5674121457131633
  0.2342571477733131  0.5332368204072537  0.0608675242818109
  0.4381065399920416  0.4363957772788041  0.3135324261861996
  0.5542238065582836  0.5400922803040942  0.1149100128649820
  0.2277759390321066  0.5388371026626970  0.5628774074869796
  0.8889973204388255  0.5356294535075179  0.0613718331574447
  0.4414684579856996  0.4329220420997189  0.8117036200959475
  0.5490456397150609  0.5400986521488704  0.6133153059586078
  0.1222198377942760  0.7546432350763226  0.3085311104931634
  0.7704360955727481  0.7640738434058747  0.8667454778478003
  0.8828020570410189  0.8719618096996484  0.6208745587406810
  0.4446230500795423  0.7563574470357892  0.3665419796464207
  0.5570006085853052  0.8603235694339659  0.1124241127452947
  0.1177305067376651  0.7531719667787726  0.8192206295728397
  0.4500023629873624  0.7513349055669210  0.8630282311669433
  0.5564217129103994  0.8684456531390552  0.6167714627487229
  0.4467696493047271  0.0916653325642045  0.3306751669782670
  0.1066434850450477  0.0924701391087694  0.8383316190955412
  0.7796154601053473  0.0948801204038787  0.3407677157048354
  0.4552607665191459  0.0880483657701419  0.8375245422950854
  0.1175494774699501  0.4313297453320217  0.3252254330583213
  0.7658028950385258  0.4268541053552894  0.8379407313959391
  0.8877080325556932  0.5421533133880558  0.5920866966967324
  0.1221077452279147  0.4298004067088570  0.8273014342475733
  0.7744142719932583  0.4251112441444178  0.3395822448621786
  0.2339556450316280  0.8644395779561833  0.0884463224405536
  0.2178508969302797  0.8731661322235098  0.5830641023906509
  0.7771516400827707  0.7648237246108991  0.3488025913333388
  0.8901161369719119  0.8769343298950432  0.0863976153497674
  0.2142362633716388  0.1943456463418372  0.3553052087872572
  0.0995326668559215  0.1133584944988399  0.1029502873615584
  0.8770003940368696  0.1921254697358137  0.8702262603752544
  0.7760320847832105  0.0959325718670598  0.6064353006270125
  0.5395798013670259  0.2324548201520074  0.3719256784658143
  0.4482146817509616  0.0936164695881061  0.0894879411675689
  0.1046423984336826  0.1151998101567031  0.6193870398675401
  0.9134728288434246  0.1912536206209623  0.3725732901867502
  0.7628584082110663  0.1187630724837092  0.1163980296774625
  0.5605503438132402  0.2204595735722208  0.8603284340647903
  0.4413447051774213  0.0934665254735023  0.5982853725820760
  0.2333140630860484  0.5524745699035094  0.3672982009282748
  0.1131080120578147  0.4286168706088418  0.0920269846470561
  0.8853654876989907  0.5512623460479986  0.8449281882213739
  0.7653613529062255  0.4177712059970773  0.5967540604347121
  0.5352265088232357  0.5522286681930666  0.3162483602342405
  0.4439360170441446  0.4252800038801396  0.1101626833264078
  0.2359566371970701  0.5449214570152066  0.8656444204984339
  0.1374195273098877  0.4135973598848466  0.6009032124627467
  0.8927786779001892  0.5353637865841065  0.3681892185424545
  0.7775214059326672  0.4286027784891857  0.0903976261561112
  0.5347632420439581  0.5499933026457740  0.8168117423759043
  0.4391702895865635  0.4298804778341108  0.6126207875364287
  0.2232605087140982  0.8727161857119299  0.3389644625198613
  0.1291254940296582  0.7368882212306502  0.1066322993586439
  0.8805960323137967  0.8761931310765121  0.8389098598311122
  0.7641781610233878  0.7857040489914411  0.5761971189258261
  0.5434507501269508  0.8590111009746479  0.3077105084210174
  0.4680150014656306  0.7449135421824593  0.0591801064932156
  0.2309372157460601  0.8560112273868512  0.8421369665392220
  0.0999442428866999  0.7484409564449237  0.6198487799832364
  0.9116582987381250  0.8620806920875879  0.3193996599588544
  0.7706007227390970  0.7523757341405286  0.0739756774938343
  0.5624919243049291  0.8513407592918796  0.8172334893233568
  0.4615941079495443  0.7516158660970973  0.5656681927301008
  0.2260482298053503  0.2033741038698906  0.8837059292645506
 
  0.00000000E+00  0.00000000E+00  0.00000000E+00
  0.00000000E+00  0.00000000E+00  0.00000000E+00
  0.00000000E+00  0.00000000E+00  0.00000000E+00
  0.00000000E+00  0.00000000E+00  0.00000000E+00
  0.00000000E+00  0.00000000E+00  0.00000000E+00
  0.00000000E+00  0.00000000E+00  0.00000000E+00
  0.00000000E+00  0.00000000E+00  0.00000000E+00
  0.00000000E+00  0.00000000E+00  0.00000000E+00
  0.00000000E+00  0.00000000E+00  0.00000000E+00
  0.00000000E+00  0.00000000E+00  0.00000000E+00
  0.00000000E+00  0.00000000E+00  0.00000000E+00
  0.00000000E+00  0.00000000E+00  0.00000000E+00
  0.00000000E+00  0.00000000E+00  0.00000000E+00
  0.00000000E+00  0.00000000E+00  0.00000000E+00
  0.00000000E+00  0.00000000E+00  0.00000000E+00
  0.00000000E+00  0.00000000E+00  0.00000000E+00
  0.00000000E+00  0.00000000E+00  0.00000000E+00
  0.00000000E+00  0.00000000E+00  0.00000000E+00
  0.00000000E+00  0.00000000E+00  0.00000000E+00
  0.00000000E+00  0.00000000E+00  0.00000000E+00
  0.00000000E+00  0.00000000E+00  0.00000000E+00
  0.00000000E+00  0.00000000E+00  0.00000000E+00
  0.00000000E+00  0.00000000E+00  0.00000000E+00
  0.00000000E+00  0.00000000E+00  0.00000000E+00
  0.00000000E+00  0.00000000E+00  0.00000000E+00
  0.00000000E+00  0.00000000E+00  0.00000000E+00
  0.00000000E+00  0.00000000E+00  0.00000000E+00
  0.00000000E+00  0.00000000E+00  0.00000000E+00
  0.00000000E+00  0.00000000E+00  0.00000000E+00
  0.00000000E+00  0.00000000E+00  0.00000000E+00
  0.00000000E+00  0.00000000E+00  0.00000000E+00
  0.00000000E+00  0.00000000E+00  0.00000000E+00
  0.00000000E+00  0.00000000E+00  0.00000000E+00
  0.00000000E+00  0.00000000E+00  0.00000000E+00
  0.00000000E+00  0.00000000E+00  0.00000000E+00
  0.00000000E+00  0.00000000E+00  0.00000000E+00
  0.00000000E+00  0.00000000E+00  0.00000000E+00
  0.00000000E+00  0.00000000E+00  0.00000000E+00
  0.00000000E+00  0.00000000E+00  0.00000000E+00
  0.00000000E+00  0.00000000E+00  0.00000000E+00
  0.00000000E+00  0.00000000E+00  0.00000000E+00
  0.00000000E+00  0.00000000E+00  0.00000000E+00
  0.00000000E+00  0.00000000E+00  0.00000000E+00
  0.00000000E+00  0.00000000E+00  0.00000000E+00
  0.00000000E+00  0.00000000E+00  0.00000000E+00
  0.00000000E+00  0.00000000E+00  0.00000000E+00
  0.00000000E+00  0.00000000E+00  0.00000000E+00
  0.00000000E+00  0.00000000E+00  0.00000000E+00
  0.00000000E+00  0.00000000E+00  0.00000000E+00
  0.00000000E+00  0.00000000E+00  0.00000000E+00
  0.00000000E+00  0.00000000E+00  0.00000000E+00
  0.00000000E+00  0.00000000E+00  0.00000000E+00
  0.00000000E+00  0.00000000E+00  0.00000000E+00
  0.00000000E+00  0.00000000E+00  0.00000000E+00
  0.00000000E+00  0.00000000E+00  0.00000000E+00
  0.00000000E+00  0.00000000E+00  0.00000000E+00
  0.00000000E+00  0.00000000E+00  0.00000000E+00
  0.00000000E+00  0.00000000E+00  0.00000000E+00
  0.00000000E+00  0.00000000E+00  0.00000000E+00
  0.00000000E+00  0.00000000E+00  0.00000000E+00
  0.00000000E+00  0.00000000E+00  0.00000000E+00
  0.00000000E+00  0.00000000E+00  0.00000000E+00
  0.00000000E+00  0.00000000E+00  0.00000000E+00
  0.00000000E+00  0.00000000E+00  0.00000000E+00
  0.00000000E+00  0.00000000E+00  0.00000000E+00
  0.00000000E+00  0.00000000E+00  0.00000000E+00
  0.00000000E+00  0.00000000E+00  0.00000000E+00
  0.00000000E+00  0.00000000E+00  0.00000000E+00
  0.00000000E+00  0.00000000E+00  0.00000000E+00
  0.00000000E+00  0.00000000E+00  0.00000000E+00
  0.00000000E+00  0.00000000E+00  0.00000000E+00
  0.00000000E+00  0.00000000E+00  0.00000000E+00
