Al   Sc   N    O                        
   1.00000000000000     
   -10.1765696689750929    0.0106284574695898    0.0007190377024784
    -5.0852116630664899    8.8386922870247577    0.0013893042206032
    -0.0017904428905154    0.0783571662879527   -9.4626907607492310
   Al   Sc   N    O 
    23    13    35     1
Direct
  0.1109069845897039  0.0885169333616460  0.3273932921344027
  0.2224551198573153  0.2070357652618497  0.1064583750263708
  0.7709597584163106  0.1002867888471144  0.8259916303761230
  0.8946712731433237  0.2032404876949414  0.5885849816401745
  0.5558713271074254  0.2173188717938928  0.0777896933699793
  0.2237360263408092  0.1999711311223464  0.5731657734354556
  0.8778189213926382  0.2101836914391555  0.0847086332102620
  0.5471788991078128  0.2174738376528467  0.5838431600913836
  0.2273259598762891  0.5396437410352775  0.1286507016981702
  0.4407699813221697  0.4366043915183013  0.3355665156796022
  0.5533421665433735  0.5399360683260639  0.1268688394346853
  0.2273041173608092  0.5366917526895065  0.6268971240455699
  0.8875728142479318  0.5357223904581190  0.1337402236745575
  0.4446420550838468  0.4323361733737201  0.8345014900895933
  0.5522666062584491  0.5389273816138740  0.6285242361615389
  0.1128708901005666  0.7598526127347185  0.3861508869129722
  0.7734254342049098  0.7584836830795538  0.8838223169395505
  0.8846038993449383  0.8709706177169423  0.6369180733396007
  0.4447229960682151  0.7563237960880258  0.3830179624990109
  0.5550899052687086  0.8608372033276481  0.1241098619239267
  0.1201305943702380  0.7523519318997245  0.8713887439178407
  0.4498345175227172  0.7519554694853454  0.8769377517372590
  0.5596581704335435  0.8676886099920225  0.6317059911877365
  0.4491365526761300  0.0894534270978937  0.3479741272782064
  0.1076261444220137  0.0921458477812962  0.8601013032818301
  0.7804903827386127  0.0937357050475427  0.3562614119997320
  0.4533459525872345  0.0891778168535922  0.8545804630046376
  0.1231117564958524  0.4274018910256743  0.3593898462035625
  0.7695933582013339  0.4317290243094831  0.8602700728626189
  0.8873257553518599  0.5441710017325434  0.6084141855419674
  0.1134332491506314  0.4350146862407556  0.8652451858464900
  0.7702633435001118  0.4222993401188546  0.3609305869452584
  0.2314894007113324  0.8585082080391899  0.1162238668866564
  0.2240954773671220  0.8724126520578892  0.6113430293769540
  0.7749210196129894  0.7689127297111114  0.3591746274369072
  0.8893228566671283  0.8770815326362609  0.1000820831163551
  0.2168407329523561  0.1900634001918675  0.3641095555046263
  0.1002176370541150  0.1084027360526747  0.1175726213958299
  0.8766499916991108  0.1951556339376666  0.8811901990326092
  0.7771969070644360  0.0952753430726645  0.6184725237163704
  0.5409333201775368  0.2313606591205044  0.3829930772171650
  0.4491281446860356  0.0937289835072050  0.1046836511372078
  0.1061339700496049  0.1150668670928994  0.6349392086450436
  0.9136455579953591  0.1897297320828955  0.3867875235132203
  0.7620232063260985  0.1187991598361151  0.1273343732606946
  0.5611953723922980  0.2184283943513563  0.8701133003949622
  0.4421084236980946  0.0927925561601270  0.6112654425827486
  0.2300441313315176  0.5559386413408518  0.3356599943036045
  0.1132156950558638  0.4283217150994147  0.1097847262728706
  0.8833719719954587  0.5556539139368084  0.8362317928789196
  0.7674522555957850  0.4187071604945345  0.6059214320295965
  0.5343876574064907  0.5527466157418033  0.3325179520845154
  0.4439744480503407  0.4281336430877332  0.1131422327112617
  0.2315816083442925  0.5453149103411761  0.8325680766956438
  0.1352055833813921  0.4131569958829502  0.6022223842432126
  0.8900452454048846  0.5365352740615137  0.3480104294517830
  0.7769563503922186  0.4276620487783021  0.1074339765103645
  0.5383033835075466  0.5483029201809515  0.8351776723430362
  0.4438362537573468  0.4305439121863870  0.6184144242090639
  0.2231649762993158  0.8701953773407283  0.3570976568087403
  0.1225827445089891  0.7392559608868581  0.0704368608814150
  0.8824613095213394  0.8742986474665457  0.8474023934527395
  0.7653823828515343  0.7864345802064108  0.5852128412546023
  0.5425564277773773  0.8589570054000149  0.3235601909654164
  0.4636611389901262  0.7465830277027905  0.0764575288976630
  0.2329151217049628  0.8559072139060433  0.8481370451556884
  0.0981687019831341  0.7526078905652938  0.5920586267771100
  0.9134070048318108  0.8618651341105803  0.3261464845317477
  0.7708256503678754  0.7500746846681210  0.0913931917487290
  0.5639398986850424  0.8520870258665170  0.8361630200785513
  0.4658069521179371  0.7504188181658691  0.5844085566790440
  0.2249989929117433  0.2044762016382649  0.9010495262517040
 
  0.00000000E+00  0.00000000E+00  0.00000000E+00
  0.00000000E+00  0.00000000E+00  0.00000000E+00
  0.00000000E+00  0.00000000E+00  0.00000000E+00
  0.00000000E+00  0.00000000E+00  0.00000000E+00
  0.00000000E+00  0.00000000E+00  0.00000000E+00
  0.00000000E+00  0.00000000E+00  0.00000000E+00
  0.00000000E+00  0.00000000E+00  0.00000000E+00
  0.00000000E+00  0.00000000E+00  0.00000000E+00
  0.00000000E+00  0.00000000E+00  0.00000000E+00
  0.00000000E+00  0.00000000E+00  0.00000000E+00
  0.00000000E+00  0.00000000E+00  0.00000000E+00
  0.00000000E+00  0.00000000E+00  0.00000000E+00
  0.00000000E+00  0.00000000E+00  0.00000000E+00
  0.00000000E+00  0.00000000E+00  0.00000000E+00
  0.00000000E+00  0.00000000E+00  0.00000000E+00
  0.00000000E+00  0.00000000E+00  0.00000000E+00
  0.00000000E+00  0.00000000E+00  0.00000000E+00
  0.00000000E+00  0.00000000E+00  0.00000000E+00
  0.00000000E+00  0.00000000E+00  0.00000000E+00
  0.00000000E+00  0.00000000E+00  0.00000000E+00
  0.00000000E+00  0.00000000E+00  0.00000000E+00
  0.00000000E+00  0.00000000E+00  0.00000000E+00
  0.00000000E+00  0.00000000E+00  0.00000000E+00
  0.00000000E+00  0.00000000E+00  0.00000000E+00
  0.00000000E+00  0.00000000E+00  0.00000000E+00
  0.00000000E+00  0.00000000E+00  0.00000000E+00
  0.00000000E+00  0.00000000E+00  0.00000000E+00
  0.00000000E+00  0.00000000E+00  0.00000000E+00
  0.00000000E+00  0.00000000E+00  0.00000000E+00
  0.00000000E+00  0.00000000E+00  0.00000000E+00
  0.00000000E+00  0.00000000E+00  0.00000000E+00
  0.00000000E+00  0.00000000E+00  0.00000000E+00
  0.00000000E+00  0.00000000E+00  0.00000000E+00
  0.00000000E+00  0.00000000E+00  0.00000000E+00
  0.00000000E+00  0.00000000E+00  0.00000000E+00
  0.00000000E+00  0.00000000E+00  0.00000000E+00
  0.00000000E+00  0.00000000E+00  0.00000000E+00
  0.00000000E+00  0.00000000E+00  0.00000000E+00
  0.00000000E+00  0.00000000E+00  0.00000000E+00
  0.00000000E+00  0.00000000E+00  0.00000000E+00
  0.00000000E+00  0.00000000E+00  0.00000000E+00
  0.00000000E+00  0.00000000E+00  0.00000000E+00
  0.00000000E+00  0.00000000E+00  0.00000000E+00
  0.00000000E+00  0.00000000E+00  0.00000000E+00
  0.00000000E+00  0.00000000E+00  0.00000000E+00
  0.00000000E+00  0.00000000E+00  0.00000000E+00
  0.00000000E+00  0.00000000E+00  0.00000000E+00
  0.00000000E+00  0.00000000E+00  0.00000000E+00
  0.00000000E+00  0.00000000E+00  0.00000000E+00
  0.00000000E+00  0.00000000E+00  0.00000000E+00
  0.00000000E+00  0.00000000E+00  0.00000000E+00
  0.00000000E+00  0.00000000E+00  0.00000000E+00
  0.00000000E+00  0.00000000E+00  0.00000000E+00
  0.00000000E+00  0.00000000E+00  0.00000000E+00
  0.00000000E+00  0.00000000E+00  0.00000000E+00
  0.00000000E+00  0.00000000E+00  0.00000000E+00
  0.00000000E+00  0.00000000E+00  0.00000000E+00
  0.00000000E+00  0.00000000E+00  0.00000000E+00
  0.00000000E+00  0.00000000E+00  0.00000000E+00
  0.00000000E+00  0.00000000E+00  0.00000000E+00
  0.00000000E+00  0.00000000E+00  0.00000000E+00
  0.00000000E+00  0.00000000E+00  0.00000000E+00
  0.00000000E+00  0.00000000E+00  0.00000000E+00
  0.00000000E+00  0.00000000E+00  0.00000000E+00
  0.00000000E+00  0.00000000E+00  0.00000000E+00
  0.00000000E+00  0.00000000E+00  0.00000000E+00
  0.00000000E+00  0.00000000E+00  0.00000000E+00
  0.00000000E+00  0.00000000E+00  0.00000000E+00
  0.00000000E+00  0.00000000E+00  0.00000000E+00
  0.00000000E+00  0.00000000E+00  0.00000000E+00
  0.00000000E+00  0.00000000E+00  0.00000000E+00
  0.00000000E+00  0.00000000E+00  0.00000000E+00
