Al   Sc   N    O                        
   1.00000000000000     
   -10.0746191120100974    0.0097452023743723   -0.0088417364827152
    -5.0757701697815047    8.7394129206020619   -0.0058184114724193
     0.0073879664939626    0.0997863100236204   -9.7705524142890141
   Al   Sc   N    O 
    23    13    35     1
Direct
  0.1103384048271323  0.0941061176880282  0.3076780432441737
  0.2225768172521185  0.2083755137028902  0.0769149478841129
  0.7757178933946633  0.0932422764897538  0.8033501552263758
  0.8908862332868210  0.2071276695819151  0.5639721326203002
  0.5576518715958017  0.2160291125092257  0.0611517254119747
  0.2233510422437490  0.2043499597935039  0.5571625227058590
  0.8796035643353761  0.2087602622774583  0.0624471360959262
  0.5473423384990639  0.2168611227177522  0.5676885531505462
  0.2307549253023566  0.5372639355162221  0.0614067942355092
  0.4389785043951520  0.4382555211375774  0.3117301886943551
  0.5527794051783133  0.5350772837750384  0.0603156865995373
  0.2301430331409406  0.5364713110032042  0.5625506531147053
  0.8833887885803833  0.5442854900559766  0.0504615008186988
  0.4431380807316430  0.4344845753733750  0.8102133666881812
  0.5518810393111195  0.5323304222802747  0.5594619725804435
  0.1191401839548902  0.7559768584648978  0.3153372661810323
  0.7788583511176768  0.7666359277671049  0.8035925442079517
  0.8929083034611196  0.8712277415697685  0.5649613688165687
  0.4398114902562043  0.7596686619883002  0.3670743655049833
  0.5575280637340185  0.8597775106818091  0.1202176935557091
  0.1111423402639602  0.7564944563176468  0.8115728364575574
  0.4479583650373584  0.7542108344897471  0.8621197659917428
  0.5517686426794981  0.8705119585014742  0.6145171466015000
  0.4456357437252763  0.0955262959881864  0.3298886586547169
  0.1069518400938421  0.0930267384729788  0.8335166384209103
  0.7770581766182474  0.1008861127206231  0.3353010925125730
  0.4582510297693574  0.0860735219295847  0.8378745624092403
  0.1173827198826558  0.4315122486092733  0.3179267771783216
  0.7658312754317649  0.4256151462400197  0.8265886811287046
  0.8928746731145978  0.5315772341825991  0.5864919106284603
  0.1232755839900221  0.4310569922539571  0.8282582204716462
  0.7740868628181801  0.4281827810786538  0.3149173591125276
  0.2272958878500972  0.8650506069599686  0.0870947396177755
  0.2174297675043348  0.8747107314418301  0.5817805223313641
  0.7788519784101595  0.7584640470642512  0.3391406191520758
  0.8830049900945056  0.8742156478305034  0.0710726897920750
  0.2133856854298415  0.1962754291386375  0.3595950756254993
  0.0998854965892306  0.1141913349933645  0.1049136723431090
  0.8775815556735722  0.1898164072635709  0.8699465626231557
  0.7783518027857284  0.0947642457417004  0.6037482505901721
  0.5392806138350466  0.2344603241037717  0.3752893245411926
  0.4492474295142728  0.0938069136850075  0.0927337455052921
  0.1028888148027747  0.1181010456252238  0.6184023515921737
  0.9105379123948723  0.1975477449949992  0.3706058188702315
  0.7656192640773938  0.1150020490509007  0.1182720741459562
  0.5635003986073102  0.2186947066464029  0.8619485614850930
  0.4431520948826488  0.0943184491781821  0.6000025614690472
  0.2333438706564479  0.5503519042433851  0.3698618835220699
  0.1123882447430447  0.4289758149663925  0.0895805212448977
  0.8837766872357946  0.5549388057913305  0.8461718162865139
  0.7632581900408368  0.4168366495558402  0.6052101638423935
  0.5374334466547452  0.5455061830322165  0.3605073404617514
  0.4441663079709883  0.4278334432547410  0.1154442074821205
  0.2347930534413862  0.5490297392523615  0.8689929229821303
  0.1407197466565151  0.4125274804915691  0.6070719721774225
  0.8944740239668931  0.5303929345974083  0.3736884369025546
  0.7774900196805916  0.4288586060025708  0.0869232029948463
  0.5356118964082626  0.5428734236625985  0.8644442860037671
  0.4424385973831235  0.4311738824435807  0.6178671191286895
  0.2201642000943025  0.8746750377693715  0.3411160979875447
  0.1181391574361541  0.7393212013395782  0.1203109248135092
  0.8842226359919820  0.8747453117936104  0.8498441024475198
  0.7698837245889294  0.7798314593595990  0.5980441961588454
  0.5411968234156674  0.8616318153005835  0.3179468888984047
  0.4629188015237560  0.7506971433608385  0.0678875921812363
  0.2281646995806241  0.8557552148034588  0.8444863327757872
  0.1032756551355121  0.7470729969000232  0.6181440967772076
  0.9114859867727745  0.8637099255457201  0.3668228002075082
  0.7740820705938205  0.7480015947187653  0.1095628781922002
  0.5628921515363814  0.8499884297941520  0.8155232149671505
  0.4587690641216753  0.7526701718307223  0.5723305083388368
  0.2275927950279168  0.2019286761251564  0.8842182981561564
 
  0.00000000E+00  0.00000000E+00  0.00000000E+00
  0.00000000E+00  0.00000000E+00  0.00000000E+00
  0.00000000E+00  0.00000000E+00  0.00000000E+00
  0.00000000E+00  0.00000000E+00  0.00000000E+00
  0.00000000E+00  0.00000000E+00  0.00000000E+00
  0.00000000E+00  0.00000000E+00  0.00000000E+00
  0.00000000E+00  0.00000000E+00  0.00000000E+00
  0.00000000E+00  0.00000000E+00  0.00000000E+00
  0.00000000E+00  0.00000000E+00  0.00000000E+00
  0.00000000E+00  0.00000000E+00  0.00000000E+00
  0.00000000E+00  0.00000000E+00  0.00000000E+00
  0.00000000E+00  0.00000000E+00  0.00000000E+00
  0.00000000E+00  0.00000000E+00  0.00000000E+00
  0.00000000E+00  0.00000000E+00  0.00000000E+00
  0.00000000E+00  0.00000000E+00  0.00000000E+00
  0.00000000E+00  0.00000000E+00  0.00000000E+00
  0.00000000E+00  0.00000000E+00  0.00000000E+00
  0.00000000E+00  0.00000000E+00  0.00000000E+00
  0.00000000E+00  0.00000000E+00  0.00000000E+00
  0.00000000E+00  0.00000000E+00  0.00000000E+00
  0.00000000E+00  0.00000000E+00  0.00000000E+00
  0.00000000E+00  0.00000000E+00  0.00000000E+00
  0.00000000E+00  0.00000000E+00  0.00000000E+00
  0.00000000E+00  0.00000000E+00  0.00000000E+00
  0.00000000E+00  0.00000000E+00  0.00000000E+00
  0.00000000E+00  0.00000000E+00  0.00000000E+00
  0.00000000E+00  0.00000000E+00  0.00000000E+00
  0.00000000E+00  0.00000000E+00  0.00000000E+00
  0.00000000E+00  0.00000000E+00  0.00000000E+00
  0.00000000E+00  0.00000000E+00  0.00000000E+00
  0.00000000E+00  0.00000000E+00  0.00000000E+00
  0.00000000E+00  0.00000000E+00  0.00000000E+00
  0.00000000E+00  0.00000000E+00  0.00000000E+00
  0.00000000E+00  0.00000000E+00  0.00000000E+00
  0.00000000E+00  0.00000000E+00  0.00000000E+00
  0.00000000E+00  0.00000000E+00  0.00000000E+00
  0.00000000E+00  0.00000000E+00  0.00000000E+00
  0.00000000E+00  0.00000000E+00  0.00000000E+00
  0.00000000E+00  0.00000000E+00  0.00000000E+00
  0.00000000E+00  0.00000000E+00  0.00000000E+00
  0.00000000E+00  0.00000000E+00  0.00000000E+00
  0.00000000E+00  0.00000000E+00  0.00000000E+00
  0.00000000E+00  0.00000000E+00  0.00000000E+00
  0.00000000E+00  0.00000000E+00  0.00000000E+00
  0.00000000E+00  0.00000000E+00  0.00000000E+00
  0.00000000E+00  0.00000000E+00  0.00000000E+00
  0.00000000E+00  0.00000000E+00  0.00000000E+00
  0.00000000E+00  0.00000000E+00  0.00000000E+00
  0.00000000E+00  0.00000000E+00  0.00000000E+00
  0.00000000E+00  0.00000000E+00  0.00000000E+00
  0.00000000E+00  0.00000000E+00  0.00000000E+00
  0.00000000E+00  0.00000000E+00  0.00000000E+00
  0.00000000E+00  0.00000000E+00  0.00000000E+00
  0.00000000E+00  0.00000000E+00  0.00000000E+00
  0.00000000E+00  0.00000000E+00  0.00000000E+00
  0.00000000E+00  0.00000000E+00  0.00000000E+00
  0.00000000E+00  0.00000000E+00  0.00000000E+00
  0.00000000E+00  0.00000000E+00  0.00000000E+00
  0.00000000E+00  0.00000000E+00  0.00000000E+00
  0.00000000E+00  0.00000000E+00  0.00000000E+00
  0.00000000E+00  0.00000000E+00  0.00000000E+00
  0.00000000E+00  0.00000000E+00  0.00000000E+00
  0.00000000E+00  0.00000000E+00  0.00000000E+00
  0.00000000E+00  0.00000000E+00  0.00000000E+00
  0.00000000E+00  0.00000000E+00  0.00000000E+00
  0.00000000E+00  0.00000000E+00  0.00000000E+00
  0.00000000E+00  0.00000000E+00  0.00000000E+00
  0.00000000E+00  0.00000000E+00  0.00000000E+00
  0.00000000E+00  0.00000000E+00  0.00000000E+00
  0.00000000E+00  0.00000000E+00  0.00000000E+00
  0.00000000E+00  0.00000000E+00  0.00000000E+00
  0.00000000E+00  0.00000000E+00  0.00000000E+00
