Al   Sc   N    O                        
   1.00000000000000     
   -10.0160722224769660    0.0107581079585400   -0.0003631800569649
    -5.0033847378612180    8.7019771681844631    0.0005237465296734
    -0.0379013656723139    0.1015765203524628   -9.9522737608431342
   Al   Sc   N    O 
    23    13    35     1
Direct
  0.1173686921461510  0.0865549921970228  0.3898209459078075
  0.2215442154371914  0.1995787694285838  0.1401975119262531
  0.7700040435224622  0.1018878673572559  0.8222527538831770
  0.8871402791719518  0.2046801614052285  0.5848340420997502
  0.5543260001319581  0.2132911610759365  0.0723408471371059
  0.2258537751617169  0.2093549860513448  0.6312800579772428
  0.8810363228716582  0.2097572472033846  0.0756642587582093
  0.5522437213555733  0.2149249598713965  0.5835819493123253
  0.2326970295682074  0.5389570172320433  0.1393169318278495
  0.4354249853830794  0.4451163930672877  0.3911722605135992
  0.5500145243867962  0.5391686141696255  0.1348402956420287
  0.2262485419298486  0.5375461543521354  0.6359301914241087
  0.8870066360152506  0.5353874114061696  0.1409831042805010
  0.4398693730613061  0.4404432554128732  0.8836617978024321
  0.5518256333292584  0.5392464948468643  0.6371927770266907
  0.1112096747001630  0.7585486663255736  0.3896353963560770
  0.7751305986956680  0.7564706747169652  0.8876679188359091
  0.8854933589738891  0.8702955518138324  0.6423311058818371
  0.4476549545844293  0.7543077199592148  0.3860988740143014
  0.5531246339945000  0.8631960512622285  0.1273477253644373
  0.1217518866828158  0.7525422723704693  0.8790510967796052
  0.4465788179543821  0.7522920969225737  0.8841038079007504
  0.5627316341354600  0.8632379625863180  0.6386404573496023
  0.4451979271143287  0.0849048552359548  0.3783950941792185
  0.1084583121512992  0.0902686114147002  0.8609925424285052
  0.7774291903279433  0.0964942980747736  0.3401382352218221
  0.4563687443493833  0.0854273984742235  0.8616591599037164
  0.1260556001043796  0.4230928204959170  0.3678657641755763
  0.7663755411941295  0.4375563078949511  0.8698570012469276
  0.8912127231037701  0.5428369091045653  0.6188586699181826
  0.1146148126438931  0.4374951911795506  0.8912651755110090
  0.7682630792764158  0.4257709623578592  0.3671407980016284
  0.2261479580401939  0.8679281188312871  0.1344878745088778
  0.2294200269477784  0.8613915856214618  0.6171164208566964
  0.7763116759127158  0.7685662287584307  0.3678224382823885
  0.8900956344236235  0.8735166602889350  0.1012720428638474
  0.2169273786605999  0.1876637292449814  0.3301950820651030
  0.1040681060561823  0.1086114962625544  0.0832568263324802
  0.8738183143762299  0.1989421592415184  0.8792819900405178
  0.7755825958090341  0.0963683802886308  0.6259135827276410
  0.5404717451103735  0.2277503977578235  0.3875557812954895
  0.4431714592033771  0.0931476559568054  0.0879457799411654
  0.1085999496297845  0.1092432922762328  0.6104285504336247
  0.9082949875999589  0.1911505758924861  0.3918954710417211
  0.7614988297474241  0.1199442286941661  0.1255289991011068
  0.5606547361308429  0.2190405316223263  0.8703830981757505
  0.4459874882796555  0.0901975227738916  0.6100711061011452
  0.2326408236225888  0.5552398516356618  0.3278475391200786
  0.1166803113925070  0.4250567811569113  0.1089840551328365
  0.8890459521654037  0.5536611365531598  0.8315406889124830
  0.7667826101806554  0.4211005204463163  0.6016041676780546
  0.5306067343205640  0.5516920580495608  0.3243967953429134
  0.4414326944047957  0.4331722740010946  0.0785082292185209
  0.2322852001263698  0.5453420770456177  0.8249965455528141
  0.1361659534025250  0.4168126991350078  0.5869811754038778
  0.8911216260574832  0.5366546971912882  0.3370246482396340
  0.7751863077216541  0.4286538056179054  0.1035226912095411
  0.5340781850980960  0.5497946926146113  0.8264135916610584
  0.4386796596332090  0.4412456549784025  0.5857956596602918
  0.2237705116684339  0.8698835501354267  0.3627483350019460
  0.1275248596300429  0.7384315833999864  0.0669574793814434
  0.8854251004643103  0.8722107602286329  0.8450409986830607
  0.7666601492160225  0.7866613500822695  0.5814876529342285
  0.5438813584291537  0.8584271674968917  0.3158885930368172
  0.4592592157892668  0.7483027335303021  0.0732247462156863
  0.2332541303611464  0.8539548882223542  0.8350341241460626
  0.0949508161478363  0.7506772728656586  0.5829403999432046
  0.9149171721353966  0.8603003028478398  0.3156881126546054
  0.7697066586825017  0.7482913478360445  0.0827233571960448
  0.5664056308113956  0.8460214913174724  0.8300510214965229
  0.4716372057799205  0.7477173833076378  0.5760045790329258
  0.2223986203415507  0.2137029607064420  0.8216101696807030
 
  0.00000000E+00  0.00000000E+00  0.00000000E+00
  0.00000000E+00  0.00000000E+00  0.00000000E+00
  0.00000000E+00  0.00000000E+00  0.00000000E+00
  0.00000000E+00  0.00000000E+00  0.00000000E+00
  0.00000000E+00  0.00000000E+00  0.00000000E+00
  0.00000000E+00  0.00000000E+00  0.00000000E+00
  0.00000000E+00  0.00000000E+00  0.00000000E+00
  0.00000000E+00  0.00000000E+00  0.00000000E+00
  0.00000000E+00  0.00000000E+00  0.00000000E+00
  0.00000000E+00  0.00000000E+00  0.00000000E+00
  0.00000000E+00  0.00000000E+00  0.00000000E+00
  0.00000000E+00  0.00000000E+00  0.00000000E+00
  0.00000000E+00  0.00000000E+00  0.00000000E+00
  0.00000000E+00  0.00000000E+00  0.00000000E+00
  0.00000000E+00  0.00000000E+00  0.00000000E+00
  0.00000000E+00  0.00000000E+00  0.00000000E+00
  0.00000000E+00  0.00000000E+00  0.00000000E+00
  0.00000000E+00  0.00000000E+00  0.00000000E+00
  0.00000000E+00  0.00000000E+00  0.00000000E+00
  0.00000000E+00  0.00000000E+00  0.00000000E+00
  0.00000000E+00  0.00000000E+00  0.00000000E+00
  0.00000000E+00  0.00000000E+00  0.00000000E+00
  0.00000000E+00  0.00000000E+00  0.00000000E+00
  0.00000000E+00  0.00000000E+00  0.00000000E+00
  0.00000000E+00  0.00000000E+00  0.00000000E+00
  0.00000000E+00  0.00000000E+00  0.00000000E+00
  0.00000000E+00  0.00000000E+00  0.00000000E+00
  0.00000000E+00  0.00000000E+00  0.00000000E+00
  0.00000000E+00  0.00000000E+00  0.00000000E+00
  0.00000000E+00  0.00000000E+00  0.00000000E+00
  0.00000000E+00  0.00000000E+00  0.00000000E+00
  0.00000000E+00  0.00000000E+00  0.00000000E+00
  0.00000000E+00  0.00000000E+00  0.00000000E+00
  0.00000000E+00  0.00000000E+00  0.00000000E+00
  0.00000000E+00  0.00000000E+00  0.00000000E+00
  0.00000000E+00  0.00000000E+00  0.00000000E+00
  0.00000000E+00  0.00000000E+00  0.00000000E+00
  0.00000000E+00  0.00000000E+00  0.00000000E+00
  0.00000000E+00  0.00000000E+00  0.00000000E+00
  0.00000000E+00  0.00000000E+00  0.00000000E+00
  0.00000000E+00  0.00000000E+00  0.00000000E+00
  0.00000000E+00  0.00000000E+00  0.00000000E+00
  0.00000000E+00  0.00000000E+00  0.00000000E+00
  0.00000000E+00  0.00000000E+00  0.00000000E+00
  0.00000000E+00  0.00000000E+00  0.00000000E+00
  0.00000000E+00  0.00000000E+00  0.00000000E+00
  0.00000000E+00  0.00000000E+00  0.00000000E+00
  0.00000000E+00  0.00000000E+00  0.00000000E+00
  0.00000000E+00  0.00000000E+00  0.00000000E+00
  0.00000000E+00  0.00000000E+00  0.00000000E+00
  0.00000000E+00  0.00000000E+00  0.00000000E+00
  0.00000000E+00  0.00000000E+00  0.00000000E+00
  0.00000000E+00  0.00000000E+00  0.00000000E+00
  0.00000000E+00  0.00000000E+00  0.00000000E+00
  0.00000000E+00  0.00000000E+00  0.00000000E+00
  0.00000000E+00  0.00000000E+00  0.00000000E+00
  0.00000000E+00  0.00000000E+00  0.00000000E+00
  0.00000000E+00  0.00000000E+00  0.00000000E+00
  0.00000000E+00  0.00000000E+00  0.00000000E+00
  0.00000000E+00  0.00000000E+00  0.00000000E+00
  0.00000000E+00  0.00000000E+00  0.00000000E+00
  0.00000000E+00  0.00000000E+00  0.00000000E+00
  0.00000000E+00  0.00000000E+00  0.00000000E+00
  0.00000000E+00  0.00000000E+00  0.00000000E+00
  0.00000000E+00  0.00000000E+00  0.00000000E+00
  0.00000000E+00  0.00000000E+00  0.00000000E+00
  0.00000000E+00  0.00000000E+00  0.00000000E+00
  0.00000000E+00  0.00000000E+00  0.00000000E+00
  0.00000000E+00  0.00000000E+00  0.00000000E+00
  0.00000000E+00  0.00000000E+00  0.00000000E+00
  0.00000000E+00  0.00000000E+00  0.00000000E+00
  0.00000000E+00  0.00000000E+00  0.00000000E+00
