Al   Sc   N    O                        
   1.00000000000000     
   -10.0052736721211257    0.0108042986776820   -0.0004602226278283
    -4.9986250157153664    8.6909539188664624    0.0002369558517186
    -0.0489494297410582    0.0784948978280261   -9.9866088436358158
   Al   Sc   N    O 
    23    13    35     1
Direct
  0.1181622141165235  0.0876010060373318  0.4099412450538651
  0.2194975954185523  0.2000698855011578  0.1490765372766560
  0.7690147434122849  0.1017157030337899  0.8309667881669327
  0.8852404455711493  0.2046774225391061  0.5947347747916893
  0.5545206041452531  0.2136464299574499  0.0810324836441438
  0.2281661819390592  0.2085414493534827  0.6381155123357445
  0.8812977318381883  0.2105949165087679  0.0802334225326220
  0.5530618205014761  0.2134032229984584  0.5894621809368559
  0.2326230690618161  0.5403632738754851  0.1480009238468512
  0.4355950107880417  0.4453775079537650  0.3992557082449508
  0.5494178440341173  0.5402275253547728  0.1431730831025604
  0.2264546364609572  0.5359784240136563  0.6447372873974118
  0.8858188431149188  0.5360626639107267  0.1492531306497966
  0.4394766257106326  0.4401544624419031  0.8929511528146676
  0.5519815877140388  0.5385736036252666  0.6464564381666165
  0.1109556036138812  0.7584137130478013  0.3990945969270285
  0.7748235939470476  0.7565801048677372  0.8957173489061958
  0.8857138050719726  0.8696545307917916  0.6518224103916310
  0.4483565926122495  0.7540047523905073  0.3954331988126469
  0.5529665003301290  0.8628651401554421  0.1362127316770270
  0.1224104302302322  0.7522164749905755  0.8881005146477889
  0.4449502980904327  0.7529934126058038  0.8933517882800714
  0.5627563156903079  0.8635088517689908  0.6468666683086184
  0.4450996264615057  0.0858290440109357  0.3827322265749800
  0.1088983538894368  0.0893409285220770  0.8669187628454935
  0.7789928042259149  0.0970792814668542  0.3454007991170087
  0.4555414070657946  0.0852857025276634  0.8720465432003337
  0.1254492851864768  0.4233550552560956  0.3749600210859683
  0.7657717141352549  0.4387093845441044  0.8769655796363125
  0.8924015442377922  0.5424097176203801  0.6278625272781824
  0.1147954963925457  0.4360345431457375  0.9010109563073740
  0.7683297306061974  0.4257551403231119  0.3769930918708582
  0.2237210763672479  0.8721046635103633  0.1477273432845578
  0.2314396264535503  0.8573402641018220  0.6251642237751938
  0.7765130440484995  0.7690957920543511  0.3777458246568131
  0.8905100857979846  0.8726490873461969  0.1090038858614619
  0.2154685517340553  0.1869255074912388  0.3382744203548214
  0.1042204118336372  0.1100631850188236  0.0860183784396185
  0.8735507866190559  0.1997171009237064  0.8841404676874731
  0.7748633488452228  0.0956748191815748  0.6354993022953224
  0.5421371096243703  0.2276040829099983  0.3943030510534271
  0.4426936930428127  0.0936449350709552  0.0980775354112637
  0.1108059176406471  0.1074939508586468  0.6150545770772169
  0.9081860412760747  0.1913402642455253  0.4025552771372176
  0.7630960530944222  0.1196851191493593  0.1316121112481454
  0.5600094098945263  0.2185130505916746  0.8805596291898965
  0.4473978432738690  0.0894251317324901  0.6156669601774851
  0.2327834268574307  0.5554440528106994  0.3358828626609807
  0.1162112062898046  0.4258622320113332  0.1179835887595857
  0.8900635367536225  0.5535513581485674  0.8394949790279966
  0.7671734991636612  0.4211506032141230  0.6114711572964708
  0.5310074645521183  0.5517625454337320  0.3322439655347083
  0.4413023339985926  0.4337164379333487  0.0870273733172340
  0.2318824708937939  0.5443100154469533  0.8336685361978766
  0.1369212078371902  0.4157366170011016  0.5931958158544361
  0.8901989083567017  0.5373511475287316  0.3443569900181984
  0.7746170340689318  0.4293358755075829  0.1096954712880347
  0.5329571112077858  0.5500957772485791  0.8350682836857715
  0.4390369570132577  0.4405517484894403  0.5935208729128760
  0.2236452782151872  0.8704747910475490  0.3751589389527368
  0.1288068778831288  0.7402247566527009  0.0756094215616869
  0.8856782320366676  0.8719118414934854  0.8539592091660353
  0.7673187851679160  0.7858677505417049  0.5905771482658722
  0.5445140480108108  0.8578935100273313  0.3242103931951590
  0.4563391199812870  0.7504229262081523  0.0821507504862709
  0.2331459728857581  0.8531334825469941  0.8406072136567531
  0.0946381413155493  0.7488803854221757  0.5914210675213809
  0.9154691359090918  0.8601028094428784  0.3230421554327023
  0.7689800941991933  0.7483845114839838  0.0898898329657527
  0.5656685783779736  0.8462144473070836  0.8381780454590384
  0.4735812629318374  0.7460915050612797  0.5843038250274901
  0.2226621636650137  0.2131743362174490  0.8270485238784744
 
  0.00000000E+00  0.00000000E+00  0.00000000E+00
  0.00000000E+00  0.00000000E+00  0.00000000E+00
  0.00000000E+00  0.00000000E+00  0.00000000E+00
  0.00000000E+00  0.00000000E+00  0.00000000E+00
  0.00000000E+00  0.00000000E+00  0.00000000E+00
  0.00000000E+00  0.00000000E+00  0.00000000E+00
  0.00000000E+00  0.00000000E+00  0.00000000E+00
  0.00000000E+00  0.00000000E+00  0.00000000E+00
  0.00000000E+00  0.00000000E+00  0.00000000E+00
  0.00000000E+00  0.00000000E+00  0.00000000E+00
  0.00000000E+00  0.00000000E+00  0.00000000E+00
  0.00000000E+00  0.00000000E+00  0.00000000E+00
  0.00000000E+00  0.00000000E+00  0.00000000E+00
  0.00000000E+00  0.00000000E+00  0.00000000E+00
  0.00000000E+00  0.00000000E+00  0.00000000E+00
  0.00000000E+00  0.00000000E+00  0.00000000E+00
  0.00000000E+00  0.00000000E+00  0.00000000E+00
  0.00000000E+00  0.00000000E+00  0.00000000E+00
  0.00000000E+00  0.00000000E+00  0.00000000E+00
  0.00000000E+00  0.00000000E+00  0.00000000E+00
  0.00000000E+00  0.00000000E+00  0.00000000E+00
  0.00000000E+00  0.00000000E+00  0.00000000E+00
  0.00000000E+00  0.00000000E+00  0.00000000E+00
  0.00000000E+00  0.00000000E+00  0.00000000E+00
  0.00000000E+00  0.00000000E+00  0.00000000E+00
  0.00000000E+00  0.00000000E+00  0.00000000E+00
  0.00000000E+00  0.00000000E+00  0.00000000E+00
  0.00000000E+00  0.00000000E+00  0.00000000E+00
  0.00000000E+00  0.00000000E+00  0.00000000E+00
  0.00000000E+00  0.00000000E+00  0.00000000E+00
  0.00000000E+00  0.00000000E+00  0.00000000E+00
  0.00000000E+00  0.00000000E+00  0.00000000E+00
  0.00000000E+00  0.00000000E+00  0.00000000E+00
  0.00000000E+00  0.00000000E+00  0.00000000E+00
  0.00000000E+00  0.00000000E+00  0.00000000E+00
  0.00000000E+00  0.00000000E+00  0.00000000E+00
  0.00000000E+00  0.00000000E+00  0.00000000E+00
  0.00000000E+00  0.00000000E+00  0.00000000E+00
  0.00000000E+00  0.00000000E+00  0.00000000E+00
  0.00000000E+00  0.00000000E+00  0.00000000E+00
  0.00000000E+00  0.00000000E+00  0.00000000E+00
  0.00000000E+00  0.00000000E+00  0.00000000E+00
  0.00000000E+00  0.00000000E+00  0.00000000E+00
  0.00000000E+00  0.00000000E+00  0.00000000E+00
  0.00000000E+00  0.00000000E+00  0.00000000E+00
  0.00000000E+00  0.00000000E+00  0.00000000E+00
  0.00000000E+00  0.00000000E+00  0.00000000E+00
  0.00000000E+00  0.00000000E+00  0.00000000E+00
  0.00000000E+00  0.00000000E+00  0.00000000E+00
  0.00000000E+00  0.00000000E+00  0.00000000E+00
  0.00000000E+00  0.00000000E+00  0.00000000E+00
  0.00000000E+00  0.00000000E+00  0.00000000E+00
  0.00000000E+00  0.00000000E+00  0.00000000E+00
  0.00000000E+00  0.00000000E+00  0.00000000E+00
  0.00000000E+00  0.00000000E+00  0.00000000E+00
  0.00000000E+00  0.00000000E+00  0.00000000E+00
  0.00000000E+00  0.00000000E+00  0.00000000E+00
  0.00000000E+00  0.00000000E+00  0.00000000E+00
  0.00000000E+00  0.00000000E+00  0.00000000E+00
  0.00000000E+00  0.00000000E+00  0.00000000E+00
  0.00000000E+00  0.00000000E+00  0.00000000E+00
  0.00000000E+00  0.00000000E+00  0.00000000E+00
  0.00000000E+00  0.00000000E+00  0.00000000E+00
  0.00000000E+00  0.00000000E+00  0.00000000E+00
  0.00000000E+00  0.00000000E+00  0.00000000E+00
  0.00000000E+00  0.00000000E+00  0.00000000E+00
  0.00000000E+00  0.00000000E+00  0.00000000E+00
  0.00000000E+00  0.00000000E+00  0.00000000E+00
  0.00000000E+00  0.00000000E+00  0.00000000E+00
  0.00000000E+00  0.00000000E+00  0.00000000E+00
  0.00000000E+00  0.00000000E+00  0.00000000E+00
  0.00000000E+00  0.00000000E+00  0.00000000E+00
