Al   Sc   N    O                        
   1.00000000000000     
   -10.1508090395620449    0.0103728905791825   -0.0006919117649748
    -5.0649765149426118    8.8275517274466555    0.0003527087386091
    -0.0268479925706040    0.0965882200598067   -9.5236918947440419
   Al   Sc   N    O 
    23    13    35     1
Direct
  0.1104025760258978  0.0904910681456101  0.3104975112239075
  0.2220818412495547  0.2084058350491489  0.0847370593064056
  0.7692497615982674  0.1018143463068881  0.8121993567066141
  0.8938646139026218  0.2033265408672094  0.5728034067161119
  0.5558437865062302  0.2171284804457656  0.0641114860829575
  0.2227277685508184  0.2010643328954345  0.5575419083505651
  0.8771649655371618  0.2109986850373105  0.0698835294768543
  0.5459856359733024  0.2173394476472055  0.5684357377751894
  0.2329193631083868  0.5319488889048358  0.0572316039831904
  0.4369124030732507  0.4380600441680826  0.3142512459356510
  0.5535287428081261  0.5403150172321247  0.1140881347068259
  0.2303168617830735  0.5370832726959662  0.5698166057485210
  0.8887195802821566  0.5351201842494362  0.1173012906774815
  0.4449206837100164  0.4304545797604931  0.8123396551010913
  0.5519275145708846  0.5391749283416445  0.6140950025140626
  0.1158531501678297  0.7622309902933964  0.3523082281002985
  0.7733510124840350  0.7577572475364747  0.8708460590664444
  0.8826905059560062  0.8713986524347064  0.6262243243257615
  0.4443233311732939  0.7563576530597018  0.3684668815895904
  0.5555622650419991  0.8602886100099738  0.1102987087025014
  0.1185829760765316  0.7531731768312042  0.8431387443006031
  0.4511781254985863  0.7509766434618683  0.8626237728984307
  0.5591827685590758  0.8677888684761470  0.6173372792726042
  0.4476397842319955  0.0902651847496259  0.3320846281535950
  0.1063418734954098  0.0929403771286701  0.8437175170740119
  0.7791722554030684  0.0942852849905478  0.3423517180099367
  0.4551942872054013  0.0878742562402053  0.8395656732306520
  0.1251598299022305  0.4279152383041662  0.3325851039068084
  0.7693662332847566  0.4325109717326256  0.8452937129802365
  0.8863026722492933  0.5450369707131841  0.5899699256093243
  0.1157482555320541  0.4305296430315337  0.8291753258157186
  0.7697874675409011  0.4222630670162957  0.3459164628139035
  0.2325257390978450  0.8609833841454915  0.0955081668913920
  0.2226105542630847  0.8727735841873425  0.5970269573973681
  0.7747858050718506  0.7687089905913140  0.3443079558082616
  0.8897210434178504  0.8774756701644151  0.0849878761690022
  0.2156287821019518  0.1915417682640808  0.3533068491253175
  0.0994355401924381  0.1112513267654194  0.1027404936670564
  0.8755144858885515  0.1957650980216528  0.8684628854938197
  0.7756183211895404  0.0961022081082703  0.6058206023726456
  0.5387263979197883  0.2332324433485766  0.3701373031376463
  0.4482372829041879  0.0935152294090074  0.0897529144663949
  0.1046132884496345  0.1159204050826901  0.6212259109394083
  0.9135217945935565  0.1892783807708298  0.3727091240599876
  0.7614485252755756  0.1196058008612439  0.1157906954323664
  0.5608195556621141  0.2194524070597623  0.8597780171961773
  0.4416394685751115  0.0929877507458698  0.5980492006120244
  0.2336456851746149  0.5546085819218476  0.3674124781400820
  0.1144017971280817  0.4278820592344488  0.0943059238338222
  0.8835020480112732  0.5563911357185205  0.8180647036792266
  0.7667555638229615  0.4188498134716454  0.5897404413463079
  0.5335255145707620  0.5531177456439735  0.3174380325276189
  0.4418559697615763  0.4273074983018006  0.1083280022304294
  0.2379872638935154  0.5379533790093305  0.8549254203970662
  0.1354839604345912  0.4135707526842580  0.5917858209942892
  0.8915344871291850  0.5357126813636270  0.3324567270285925
  0.7766474597746154  0.4281684423006737  0.0925261025043014
  0.5381437502269080  0.5479843328767444  0.8193778588677247
  0.4427062814694054  0.4291964326206426  0.6110576052476091
  0.2230515570706331  0.8719066377525451  0.3409600410845925
  0.1231556717511921  0.7411107939154320  0.0661019442556494
  0.8775271888314364  0.8770393478453826  0.8367814004978626
  0.7645602001815988  0.7873773995178368  0.5685436154053676
  0.5421118635930355  0.8592542424458145  0.3079345699901381
  0.4657786787143152  0.7452457547959170  0.0606223231104011
  0.2340699485048532  0.8567748643911699  0.8366179205876634
  0.0989654011798748  0.7521526919736345  0.6068590248895305
  0.9131428447618006  0.8620699903643043  0.3138162185512599
  0.7713693443757492  0.7492818419099834  0.0767367351040633
  0.5647374529595695  0.8509946066561724  0.8202098625036172
  0.4648152316197169  0.7506001605279238  0.5684875330314938
  0.2257036922101889  0.2037311941870783  0.8843351818469429
 
  0.00000000E+00  0.00000000E+00  0.00000000E+00
  0.00000000E+00  0.00000000E+00  0.00000000E+00
  0.00000000E+00  0.00000000E+00  0.00000000E+00
  0.00000000E+00  0.00000000E+00  0.00000000E+00
  0.00000000E+00  0.00000000E+00  0.00000000E+00
  0.00000000E+00  0.00000000E+00  0.00000000E+00
  0.00000000E+00  0.00000000E+00  0.00000000E+00
  0.00000000E+00  0.00000000E+00  0.00000000E+00
  0.00000000E+00  0.00000000E+00  0.00000000E+00
  0.00000000E+00  0.00000000E+00  0.00000000E+00
  0.00000000E+00  0.00000000E+00  0.00000000E+00
  0.00000000E+00  0.00000000E+00  0.00000000E+00
  0.00000000E+00  0.00000000E+00  0.00000000E+00
  0.00000000E+00  0.00000000E+00  0.00000000E+00
  0.00000000E+00  0.00000000E+00  0.00000000E+00
  0.00000000E+00  0.00000000E+00  0.00000000E+00
  0.00000000E+00  0.00000000E+00  0.00000000E+00
  0.00000000E+00  0.00000000E+00  0.00000000E+00
  0.00000000E+00  0.00000000E+00  0.00000000E+00
  0.00000000E+00  0.00000000E+00  0.00000000E+00
  0.00000000E+00  0.00000000E+00  0.00000000E+00
  0.00000000E+00  0.00000000E+00  0.00000000E+00
  0.00000000E+00  0.00000000E+00  0.00000000E+00
  0.00000000E+00  0.00000000E+00  0.00000000E+00
  0.00000000E+00  0.00000000E+00  0.00000000E+00
  0.00000000E+00  0.00000000E+00  0.00000000E+00
  0.00000000E+00  0.00000000E+00  0.00000000E+00
  0.00000000E+00  0.00000000E+00  0.00000000E+00
  0.00000000E+00  0.00000000E+00  0.00000000E+00
  0.00000000E+00  0.00000000E+00  0.00000000E+00
  0.00000000E+00  0.00000000E+00  0.00000000E+00
  0.00000000E+00  0.00000000E+00  0.00000000E+00
  0.00000000E+00  0.00000000E+00  0.00000000E+00
  0.00000000E+00  0.00000000E+00  0.00000000E+00
  0.00000000E+00  0.00000000E+00  0.00000000E+00
  0.00000000E+00  0.00000000E+00  0.00000000E+00
  0.00000000E+00  0.00000000E+00  0.00000000E+00
  0.00000000E+00  0.00000000E+00  0.00000000E+00
  0.00000000E+00  0.00000000E+00  0.00000000E+00
  0.00000000E+00  0.00000000E+00  0.00000000E+00
  0.00000000E+00  0.00000000E+00  0.00000000E+00
  0.00000000E+00  0.00000000E+00  0.00000000E+00
  0.00000000E+00  0.00000000E+00  0.00000000E+00
  0.00000000E+00  0.00000000E+00  0.00000000E+00
  0.00000000E+00  0.00000000E+00  0.00000000E+00
  0.00000000E+00  0.00000000E+00  0.00000000E+00
  0.00000000E+00  0.00000000E+00  0.00000000E+00
  0.00000000E+00  0.00000000E+00  0.00000000E+00
  0.00000000E+00  0.00000000E+00  0.00000000E+00
  0.00000000E+00  0.00000000E+00  0.00000000E+00
  0.00000000E+00  0.00000000E+00  0.00000000E+00
  0.00000000E+00  0.00000000E+00  0.00000000E+00
  0.00000000E+00  0.00000000E+00  0.00000000E+00
  0.00000000E+00  0.00000000E+00  0.00000000E+00
  0.00000000E+00  0.00000000E+00  0.00000000E+00
  0.00000000E+00  0.00000000E+00  0.00000000E+00
  0.00000000E+00  0.00000000E+00  0.00000000E+00
  0.00000000E+00  0.00000000E+00  0.00000000E+00
  0.00000000E+00  0.00000000E+00  0.00000000E+00
  0.00000000E+00  0.00000000E+00  0.00000000E+00
  0.00000000E+00  0.00000000E+00  0.00000000E+00
  0.00000000E+00  0.00000000E+00  0.00000000E+00
  0.00000000E+00  0.00000000E+00  0.00000000E+00
  0.00000000E+00  0.00000000E+00  0.00000000E+00
  0.00000000E+00  0.00000000E+00  0.00000000E+00
  0.00000000E+00  0.00000000E+00  0.00000000E+00
  0.00000000E+00  0.00000000E+00  0.00000000E+00
  0.00000000E+00  0.00000000E+00  0.00000000E+00
  0.00000000E+00  0.00000000E+00  0.00000000E+00
  0.00000000E+00  0.00000000E+00  0.00000000E+00
  0.00000000E+00  0.00000000E+00  0.00000000E+00
  0.00000000E+00  0.00000000E+00  0.00000000E+00
