Al   Sc   N    O                        
   1.00000000000000     
   -10.0590644779773175    0.0107178715999003   -0.0000273193729997
    -5.0257155074186128    8.7433773052575923    0.0007923678820309
    -0.0244934299198183    0.1201068378641689   -9.8141194928919440
   Al   Sc   N    O 
    23    13    35     1
Direct
  0.1098229068690415  0.0872883793962060  0.3275651494443963
  0.2249518633326630  0.2041514666757749  0.1393378240516370
  0.7716777235242205  0.1016356254153408  0.8222040316462227
  0.8941874177597882  0.2026322988485276  0.5835926295568470
  0.5546599956172003  0.2137839651085827  0.0753423876395658
  0.2233480687166463  0.2082639167471996  0.6314566819772622
  0.8768099158960183  0.2104893190425656  0.0810314085362336
  0.5510873771122675  0.2158719900137385  0.5852394336158397
  0.2323703167124265  0.5370733801330090  0.1381719314482410
  0.4358989219202414  0.4443298708905346  0.3899585516401771
  0.5515790488342418  0.5377314054685485  0.1342179421979424
  0.2270204233907549  0.5390998571402363  0.6345255779134646
  0.8876927104294552  0.5347785244321486  0.1402042393399370
  0.4408400886036219  0.4398836473818832  0.8821350984980256
  0.5505794559915316  0.5398966337528961  0.6349429504031434
  0.1124033141881640  0.7588773306393435  0.3871187784660464
  0.7748278658139682  0.7564106448237240  0.8872466760648194
  0.8855719382980141  0.8704600734811194  0.6402247234045433
  0.4454917989341212  0.7555108670880202  0.3840271618093496
  0.5539200461217177  0.8621999212986537  0.1268431469942115
  0.1209543619747251  0.7525163275132414  0.8763963154296093
  0.4493681438198820  0.7510997529278924  0.8809305454842828
  0.5618095604927760  0.8641542977766505  0.6367882564303287
  0.4452349311742765  0.0855870753250798  0.3752945639007805
  0.1082249696520563  0.0918308507854704  0.8614003003263875
  0.7780952770679477  0.0945063619678166  0.3481960628397971
  0.4583951940594773  0.0857813263752902  0.8603194295346270
  0.1260363801561297  0.4232733485853259  0.3704357022347935
  0.7677980393996862  0.4341206986625537  0.8661424980956554
  0.8890811996364079  0.5433078250120857  0.6158021792183206
  0.1137508027890917  0.4396590914034419  0.8848324871497724
  0.7686782763513094  0.4242547085458170  0.3653356007836521
  0.2320667704811541  0.8568110487951301  0.1221950979252142
  0.2238096280471424  0.8722477175309962  0.6130561235178149
  0.7759530918218331  0.7681209353002032  0.3644338326376939
  0.8894669100931054  0.8751450108766079  0.1013621514317364
  0.2174497165922489  0.1906987403168188  0.3328310358749462
  0.1005084325921146  0.1067331306875019  0.1105111004709016
  0.8755349399817476  0.1962006154737068  0.8857228501809473
  0.7772304653942328  0.0963584416966015  0.6223610174352174
  0.5399267585147598  0.2283877657370681  0.3861419831848991
  0.4441962262953112  0.0933869873934299  0.0907380526394874
  0.1026030737431682  0.1140820409456467  0.6355636204208608
  0.9130150173514124  0.1891953525601622  0.3891611426601571
  0.7597999227455077  0.1197019275654299  0.1295774014657596
  0.5622607570490175  0.2192772211055072  0.8687079284555708
  0.4443443180289322  0.0910078648898036  0.6109201365251167
  0.2324493417527265  0.5544354710521517  0.3293152133866641
  0.1161205354618318  0.4251415994555146  0.1068364419964212
  0.8861994953685155  0.5542743162174162  0.8321631095887909
  0.7664313871279589  0.4195499190970864  0.6022137864392008
  0.5307534340179387  0.5516958677094976  0.3262153858029109
  0.4416759838900788  0.4326893145440920  0.0797500986907522
  0.2336011237298194  0.5462475208640853  0.8254814661778340
  0.1351682801025049  0.4175977733725063  0.5929788444520980
  0.8915574241835529  0.5355843358159120  0.3406725122473020
  0.7755693904330201  0.4281436209947174  0.1061914901893459
  0.5354941579849211  0.5488418106163735  0.8269631476623047
  0.4388891209227310  0.4403278936993829  0.5868370995890402
  0.2234452399744669  0.8696896549673738  0.3546004627843331
  0.1249846007366173  0.7352372853757885  0.0668910189171044
  0.8847231773694375  0.8726321662080991  0.8450833548744754
  0.7660410391149668  0.7870861786365637  0.5812586778852520
  0.5432272870138846  0.8584958669637288  0.3173786477015099
  0.4644918594089731  0.7446981364079264  0.0725970558270603
  0.2334588847781731  0.8550780028720908  0.8426668391669025
  0.0965118935660314  0.7529771696995695  0.5841872919144961
  0.9146102831876988  0.8603017637917389  0.3181434179268621
  0.7705513800136430  0.7485685920367686  0.0857589019889318
  0.5665473687262121  0.8471113231482903  0.8310018600451201
  0.4676180495655444  0.7501527905026819  0.5774615071875928
  0.2253137456768854  0.2127879032362756  0.8308584535371466
 
  0.00000000E+00  0.00000000E+00  0.00000000E+00
  0.00000000E+00  0.00000000E+00  0.00000000E+00
  0.00000000E+00  0.00000000E+00  0.00000000E+00
  0.00000000E+00  0.00000000E+00  0.00000000E+00
  0.00000000E+00  0.00000000E+00  0.00000000E+00
  0.00000000E+00  0.00000000E+00  0.00000000E+00
  0.00000000E+00  0.00000000E+00  0.00000000E+00
  0.00000000E+00  0.00000000E+00  0.00000000E+00
  0.00000000E+00  0.00000000E+00  0.00000000E+00
  0.00000000E+00  0.00000000E+00  0.00000000E+00
  0.00000000E+00  0.00000000E+00  0.00000000E+00
  0.00000000E+00  0.00000000E+00  0.00000000E+00
  0.00000000E+00  0.00000000E+00  0.00000000E+00
  0.00000000E+00  0.00000000E+00  0.00000000E+00
  0.00000000E+00  0.00000000E+00  0.00000000E+00
  0.00000000E+00  0.00000000E+00  0.00000000E+00
  0.00000000E+00  0.00000000E+00  0.00000000E+00
  0.00000000E+00  0.00000000E+00  0.00000000E+00
  0.00000000E+00  0.00000000E+00  0.00000000E+00
  0.00000000E+00  0.00000000E+00  0.00000000E+00
  0.00000000E+00  0.00000000E+00  0.00000000E+00
  0.00000000E+00  0.00000000E+00  0.00000000E+00
  0.00000000E+00  0.00000000E+00  0.00000000E+00
  0.00000000E+00  0.00000000E+00  0.00000000E+00
  0.00000000E+00  0.00000000E+00  0.00000000E+00
  0.00000000E+00  0.00000000E+00  0.00000000E+00
  0.00000000E+00  0.00000000E+00  0.00000000E+00
  0.00000000E+00  0.00000000E+00  0.00000000E+00
  0.00000000E+00  0.00000000E+00  0.00000000E+00
  0.00000000E+00  0.00000000E+00  0.00000000E+00
  0.00000000E+00  0.00000000E+00  0.00000000E+00
  0.00000000E+00  0.00000000E+00  0.00000000E+00
  0.00000000E+00  0.00000000E+00  0.00000000E+00
  0.00000000E+00  0.00000000E+00  0.00000000E+00
  0.00000000E+00  0.00000000E+00  0.00000000E+00
  0.00000000E+00  0.00000000E+00  0.00000000E+00
  0.00000000E+00  0.00000000E+00  0.00000000E+00
  0.00000000E+00  0.00000000E+00  0.00000000E+00
  0.00000000E+00  0.00000000E+00  0.00000000E+00
  0.00000000E+00  0.00000000E+00  0.00000000E+00
  0.00000000E+00  0.00000000E+00  0.00000000E+00
  0.00000000E+00  0.00000000E+00  0.00000000E+00
  0.00000000E+00  0.00000000E+00  0.00000000E+00
  0.00000000E+00  0.00000000E+00  0.00000000E+00
  0.00000000E+00  0.00000000E+00  0.00000000E+00
  0.00000000E+00  0.00000000E+00  0.00000000E+00
  0.00000000E+00  0.00000000E+00  0.00000000E+00
  0.00000000E+00  0.00000000E+00  0.00000000E+00
  0.00000000E+00  0.00000000E+00  0.00000000E+00
  0.00000000E+00  0.00000000E+00  0.00000000E+00
  0.00000000E+00  0.00000000E+00  0.00000000E+00
  0.00000000E+00  0.00000000E+00  0.00000000E+00
  0.00000000E+00  0.00000000E+00  0.00000000E+00
  0.00000000E+00  0.00000000E+00  0.00000000E+00
  0.00000000E+00  0.00000000E+00  0.00000000E+00
  0.00000000E+00  0.00000000E+00  0.00000000E+00
  0.00000000E+00  0.00000000E+00  0.00000000E+00
  0.00000000E+00  0.00000000E+00  0.00000000E+00
  0.00000000E+00  0.00000000E+00  0.00000000E+00
  0.00000000E+00  0.00000000E+00  0.00000000E+00
  0.00000000E+00  0.00000000E+00  0.00000000E+00
  0.00000000E+00  0.00000000E+00  0.00000000E+00
  0.00000000E+00  0.00000000E+00  0.00000000E+00
  0.00000000E+00  0.00000000E+00  0.00000000E+00
  0.00000000E+00  0.00000000E+00  0.00000000E+00
  0.00000000E+00  0.00000000E+00  0.00000000E+00
  0.00000000E+00  0.00000000E+00  0.00000000E+00
  0.00000000E+00  0.00000000E+00  0.00000000E+00
  0.00000000E+00  0.00000000E+00  0.00000000E+00
  0.00000000E+00  0.00000000E+00  0.00000000E+00
  0.00000000E+00  0.00000000E+00  0.00000000E+00
  0.00000000E+00  0.00000000E+00  0.00000000E+00
