Al   Sc   N    O                        
   1.00000000000000     
   -10.1306837434465660    0.0102990449080283   -0.0016507146729442
    -5.0591807147392061    8.8151891894744043   -0.0003733054038648
    -0.0095317244373863    0.0754854232780733   -9.5778305143430984
   Al   Sc   N    O 
    23    13    35     1
Direct
  0.1108308483061435  0.0900563460581907  0.3092433890773165
  0.2216902545307065  0.2092362071213927  0.0829770581495310
  0.7692928759452045  0.1020401846243928  0.8126865579373259
  0.8933779245024880  0.2034783757926135  0.5720147205489994
  0.5562980458338700  0.2167572512717371  0.0636592433194068
  0.2229511238292261  0.2009641776308015  0.5577220150182995
  0.8774764495688459  0.2112805069999055  0.0693198565801083
  0.5449563478434172  0.2178396232089099  0.5689688035659870
  0.2336827958601191  0.5321563205419579  0.0611383795165992
  0.4374046876946593  0.4373211538657316  0.3144995269566593
  0.5537225990845940  0.5401000009247099  0.1155119752010449
  0.2281919251463052  0.5402919032668123  0.5655260738328920
  0.8888684151361588  0.5349152209061288  0.1188501859697411
  0.4427473370007249  0.4323250804135341  0.8133577890006123
  0.5506843192367867  0.5396044921277365  0.6147081626123665
  0.1217986597371876  0.7555089824423717  0.3083812017717520
  0.7735230022215163  0.7574319301520589  0.8713506647312315
  0.8822350349859533  0.8715297238854305  0.6244238567892850
  0.4437891719498310  0.7569459083895538  0.3675533389166432
  0.5567223484631967  0.8599282783029807  0.1111760994635063
  0.1179741536916197  0.7524349665326540  0.8231548071064765
  0.4510246337243231  0.7508476266877011  0.8623059275066680
  0.5579673605762849  0.8680096513633941  0.6177154359027739
  0.4475101502771537  0.0905173318592034  0.3314695512575980
  0.1060922899293146  0.0929129708253313  0.8407447606319209
  0.7795359308619254  0.0940212486381284  0.3419385640951589
  0.4551183100724359  0.0878597203365601  0.8393159861847792
  0.1253621704232231  0.4269863758593928  0.3330669878635462
  0.7690809283235325  0.4330162032941161  0.8460170734745844
  0.8863968219560903  0.5446337297230031  0.5908773466369439
  0.1165446815132469  0.4321443651005339  0.8292287912684344
  0.7698183738608364  0.4221919297467736  0.3464822402781067
  0.2346793200294215  0.8639801081850464  0.0889145469113899
  0.2184626809463879  0.8723980629771972  0.5868282598679357
  0.7753206654839104  0.7688202966558393  0.3464490591395943
  0.8897533276191325  0.8774119948772778  0.0850177601589905
  0.2157750177974123  0.1911146453627310  0.3552524634149705
  0.0991026502515879  0.1128833877564261  0.1027290515452535
  0.8754908789607825  0.1962169562819227  0.8691385433729906
  0.7756740445136217  0.0958580619259877  0.6074055725851224
  0.5388584609403537  0.2332027888930597  0.3720038946006241
  0.4481782528592859  0.0932882738667900  0.0896500898024044
  0.1048799120087054  0.1145929103910390  0.6206226165651216
  0.9139729028833017  0.1891806265541476  0.3733288873837282
  0.7622707683814340  0.1189695878398638  0.1159508405584262
  0.5600512019921595  0.2203815611629238  0.8605654587115481
  0.4416539815673346  0.0930496931288971  0.5991286137427920
  0.2335065145585489  0.5549157231638162  0.3683304799334337
  0.1145364675444540  0.4277967009902852  0.0955803596372675
  0.8841506234635048  0.5560663385826885  0.8176315862847616
  0.7660169536283590  0.4190418913605640  0.5895531687864377
  0.5334708875277769  0.5533385145230056  0.3172576038993355
  0.4433786953541556  0.4257004584304340  0.1101071023816047
  0.2360505029142530  0.5429089901711492  0.8642045122252497
  0.1357264044215114  0.4141165053937570  0.5927618437686704
  0.8915128147847753  0.5356351099363437  0.3323013739896297
  0.7765486552514105  0.4282985897664986  0.0925987680652369
  0.5377863426592526  0.5484018535108177  0.8182546871768821
  0.4399318730734549  0.4301896918116412  0.6131809432601756
  0.2232548504127081  0.8722484383009075  0.3392737906050556
  0.1287788725672669  0.7371537039668752  0.1028085971912915
  0.8789401331884648  0.8766674866772277  0.8401802474964839
  0.7639651188761718  0.7869651065576519  0.5695778869019605
  0.5425961899276643  0.8591772526917509  0.3074766069984989
  0.4680047031521752  0.7442803451981206  0.0594993773187866
  0.2318571943669809  0.8559042318688412  0.8416896286900695
  0.0991661233405665  0.7490492210774349  0.6218148144131419
  0.9118979232325870  0.8628303127059240  0.3168411141588834
  0.7722405224491666  0.7488740004707921  0.0761084447744196
  0.5645626282554090  0.8507937854900760  0.8193740937317386
  0.4623593455573101  0.7515426945255115  0.5676667282105683
  0.2249939554070934  0.2046616257891074  0.8838222511535889
 
  0.00000000E+00  0.00000000E+00  0.00000000E+00
  0.00000000E+00  0.00000000E+00  0.00000000E+00
  0.00000000E+00  0.00000000E+00  0.00000000E+00
  0.00000000E+00  0.00000000E+00  0.00000000E+00
  0.00000000E+00  0.00000000E+00  0.00000000E+00
  0.00000000E+00  0.00000000E+00  0.00000000E+00
  0.00000000E+00  0.00000000E+00  0.00000000E+00
  0.00000000E+00  0.00000000E+00  0.00000000E+00
  0.00000000E+00  0.00000000E+00  0.00000000E+00
  0.00000000E+00  0.00000000E+00  0.00000000E+00
  0.00000000E+00  0.00000000E+00  0.00000000E+00
  0.00000000E+00  0.00000000E+00  0.00000000E+00
  0.00000000E+00  0.00000000E+00  0.00000000E+00
  0.00000000E+00  0.00000000E+00  0.00000000E+00
  0.00000000E+00  0.00000000E+00  0.00000000E+00
  0.00000000E+00  0.00000000E+00  0.00000000E+00
  0.00000000E+00  0.00000000E+00  0.00000000E+00
  0.00000000E+00  0.00000000E+00  0.00000000E+00
  0.00000000E+00  0.00000000E+00  0.00000000E+00
  0.00000000E+00  0.00000000E+00  0.00000000E+00
  0.00000000E+00  0.00000000E+00  0.00000000E+00
  0.00000000E+00  0.00000000E+00  0.00000000E+00
  0.00000000E+00  0.00000000E+00  0.00000000E+00
  0.00000000E+00  0.00000000E+00  0.00000000E+00
  0.00000000E+00  0.00000000E+00  0.00000000E+00
  0.00000000E+00  0.00000000E+00  0.00000000E+00
  0.00000000E+00  0.00000000E+00  0.00000000E+00
  0.00000000E+00  0.00000000E+00  0.00000000E+00
  0.00000000E+00  0.00000000E+00  0.00000000E+00
  0.00000000E+00  0.00000000E+00  0.00000000E+00
  0.00000000E+00  0.00000000E+00  0.00000000E+00
  0.00000000E+00  0.00000000E+00  0.00000000E+00
  0.00000000E+00  0.00000000E+00  0.00000000E+00
  0.00000000E+00  0.00000000E+00  0.00000000E+00
  0.00000000E+00  0.00000000E+00  0.00000000E+00
  0.00000000E+00  0.00000000E+00  0.00000000E+00
  0.00000000E+00  0.00000000E+00  0.00000000E+00
  0.00000000E+00  0.00000000E+00  0.00000000E+00
  0.00000000E+00  0.00000000E+00  0.00000000E+00
  0.00000000E+00  0.00000000E+00  0.00000000E+00
  0.00000000E+00  0.00000000E+00  0.00000000E+00
  0.00000000E+00  0.00000000E+00  0.00000000E+00
  0.00000000E+00  0.00000000E+00  0.00000000E+00
  0.00000000E+00  0.00000000E+00  0.00000000E+00
  0.00000000E+00  0.00000000E+00  0.00000000E+00
  0.00000000E+00  0.00000000E+00  0.00000000E+00
  0.00000000E+00  0.00000000E+00  0.00000000E+00
  0.00000000E+00  0.00000000E+00  0.00000000E+00
  0.00000000E+00  0.00000000E+00  0.00000000E+00
  0.00000000E+00  0.00000000E+00  0.00000000E+00
  0.00000000E+00  0.00000000E+00  0.00000000E+00
  0.00000000E+00  0.00000000E+00  0.00000000E+00
  0.00000000E+00  0.00000000E+00  0.00000000E+00
  0.00000000E+00  0.00000000E+00  0.00000000E+00
  0.00000000E+00  0.00000000E+00  0.00000000E+00
  0.00000000E+00  0.00000000E+00  0.00000000E+00
  0.00000000E+00  0.00000000E+00  0.00000000E+00
  0.00000000E+00  0.00000000E+00  0.00000000E+00
  0.00000000E+00  0.00000000E+00  0.00000000E+00
  0.00000000E+00  0.00000000E+00  0.00000000E+00
  0.00000000E+00  0.00000000E+00  0.00000000E+00
  0.00000000E+00  0.00000000E+00  0.00000000E+00
  0.00000000E+00  0.00000000E+00  0.00000000E+00
  0.00000000E+00  0.00000000E+00  0.00000000E+00
  0.00000000E+00  0.00000000E+00  0.00000000E+00
  0.00000000E+00  0.00000000E+00  0.00000000E+00
  0.00000000E+00  0.00000000E+00  0.00000000E+00
  0.00000000E+00  0.00000000E+00  0.00000000E+00
  0.00000000E+00  0.00000000E+00  0.00000000E+00
  0.00000000E+00  0.00000000E+00  0.00000000E+00
  0.00000000E+00  0.00000000E+00  0.00000000E+00
  0.00000000E+00  0.00000000E+00  0.00000000E+00
