Al   Sc   N    O                        
   1.00000000000000     
   -10.0381692495450974    0.0109592305180730    0.0005546937864118
    -5.0098952990121264    8.7218730105437228   -0.0006247223593462
    -0.0235829628633163    0.0347534082010647   -9.8472325995797103
   Al   Sc   N    O 
    23    13    35     1
Direct
  0.1187182338513608  0.0874653402201346  0.4112860307415644
  0.2186588246752450  0.2006622681553978  0.1530571417416340
  0.7716749239143681  0.0994630504418197  0.8332926278124262
  0.8873352389747140  0.2053133901867668  0.5981343389140363
  0.5456906680049443  0.2206392530884145  0.1514697568546879
  0.2294866826061579  0.2072597544446211  0.6411943790506101
  0.8795724169087862  0.2100047162157779  0.0861146673018212
  0.5493827497678012  0.2169388521148576  0.6381661980377231
  0.2316308906217230  0.5408472753180433  0.1484973982861604
  0.4359937193328065  0.4433783915983227  0.3980671860463971
  0.5488861732640729  0.5406819308132427  0.1439411340392596
  0.2280898025421791  0.5350892186197811  0.6464078098767843
  0.8872400180148077  0.5354290032563114  0.1510683709319167
  0.4435392434454428  0.4334419775029019  0.8954466411312083
  0.5516096619203523  0.5374510602129945  0.6477073267512310
  0.1120736915778622  0.7578572056225994  0.4009919151726962
  0.7741046464265509  0.7571923588530467  0.8989289669539104
  0.8871526943303749  0.8674341412153268  0.6516719583910131
  0.4480820826361551  0.7540551868991159  0.3981000277196216
  0.5528029702621424  0.8629059024336954  0.1400800728992166
  0.1233422722982027  0.7515195625753037  0.8901322068154442
  0.4456276921288875  0.7530681736462270  0.8951024481988554
  0.5623315978732037  0.8646472778979160  0.6499678098458119
  0.4454188470916378  0.0868766284130515  0.3897378257712205
  0.1091612816687046  0.0900457011486395  0.8701298127451551
  0.7806879981846819  0.0933217100689703  0.3642804885720494
  0.4588035492949203  0.0884928169584782  0.8845006649024327
  0.1268464618650711  0.4232818858083363  0.3780631395295657
  0.7661025596923423  0.4370821582744000  0.8767279897309663
  0.8909396291873222  0.5424945851557936  0.6270824408373983
  0.1146102738712642  0.4362001377514915  0.8988360416111618
  0.7686624004573872  0.4243446092814267  0.3740217350513859
  0.2238012705562795  0.8724077673894257  0.1477163771806005
  0.2312116516945366  0.8579595984161301  0.6279976820371047
  0.7760204302240865  0.7681913040281358  0.3771637731541020
  0.8889575035152859  0.8764365965148215  0.1132061972349518
  0.2161989858686653  0.1874495420990314  0.3446565798005352
  0.1027833840723531  0.1111140401128239  0.0914691345175882
  0.8736684607274725  0.1986208348475600  0.8861739231664174
  0.7799545568149213  0.0912613651670142  0.6273114430328590
  0.5332925904266261  0.2339024398205538  0.3504462237106978
  0.4431770834267539  0.0955690430585037  0.1056511314749855
  0.1112482590239665  0.1075322577612852  0.6195591075018783
  0.9097949758298469  0.1921385678926413  0.4027822011131050
  0.7623766125835445  0.1195349105340924  0.1365226324629560
  0.5554176623940350  0.2244334070190135  0.8350127414207975
  0.4477137116528240  0.0898890491472173  0.6154520511816344
  0.2320958435398310  0.5562085186389893  0.3388576790674733
  0.1162037274939607  0.4253898755361618  0.1199540775645147
  0.8880615982768560  0.5544653237085768  0.8430649850293506
  0.7667369379039499  0.4202298532935629  0.6162533281083853
  0.5305475954674037  0.5522467229151218  0.3357050727414759
  0.4430522755160240  0.4292255724593375  0.0891868788581007
  0.2342548561367934  0.5435086496129244  0.8377713365672648
  0.1368614571336906  0.4152306886550576  0.6004615003383620
  0.8915936456739075  0.5357588494471344  0.3510136498219296
  0.7746731963493900  0.4291937144029703  0.1146776065520854
  0.5326235526877099  0.5493075309678517  0.8395386212242641
  0.4414705800755598  0.4352312226820487  0.5912652337431723
  0.2236659798747382  0.8705496161292459  0.3779348986087712
  0.1273275692181528  0.7409470718242019  0.0798334103349418
  0.8843157953158283  0.8729279704251312  0.8564069965348935
  0.7666571202746368  0.7852586403392081  0.5934525670936779
  0.5431450087880023  0.8591865600966671  0.3300302636023318
  0.4569371475420354  0.7502866897388714  0.0861933731053171
  0.2328658274293929  0.8540961730990730  0.8465812993566644
  0.0971055630303752  0.7471726103406695  0.5960084620912269
  0.9151868910177470  0.8601611479719367  0.3298508350822189
  0.7693595528031736  0.7491303002782956  0.0966918214456598
  0.5640326095428065  0.8500563440581530  0.8439838008488181
  0.4728134885635029  0.7457472704915631  0.5899051670526987
  0.2271183379030006  0.2097863437492862  0.8331930663470715
 
  0.00000000E+00  0.00000000E+00  0.00000000E+00
  0.00000000E+00  0.00000000E+00  0.00000000E+00
  0.00000000E+00  0.00000000E+00  0.00000000E+00
  0.00000000E+00  0.00000000E+00  0.00000000E+00
  0.00000000E+00  0.00000000E+00  0.00000000E+00
  0.00000000E+00  0.00000000E+00  0.00000000E+00
  0.00000000E+00  0.00000000E+00  0.00000000E+00
  0.00000000E+00  0.00000000E+00  0.00000000E+00
  0.00000000E+00  0.00000000E+00  0.00000000E+00
  0.00000000E+00  0.00000000E+00  0.00000000E+00
  0.00000000E+00  0.00000000E+00  0.00000000E+00
  0.00000000E+00  0.00000000E+00  0.00000000E+00
  0.00000000E+00  0.00000000E+00  0.00000000E+00
  0.00000000E+00  0.00000000E+00  0.00000000E+00
  0.00000000E+00  0.00000000E+00  0.00000000E+00
  0.00000000E+00  0.00000000E+00  0.00000000E+00
  0.00000000E+00  0.00000000E+00  0.00000000E+00
  0.00000000E+00  0.00000000E+00  0.00000000E+00
  0.00000000E+00  0.00000000E+00  0.00000000E+00
  0.00000000E+00  0.00000000E+00  0.00000000E+00
  0.00000000E+00  0.00000000E+00  0.00000000E+00
  0.00000000E+00  0.00000000E+00  0.00000000E+00
  0.00000000E+00  0.00000000E+00  0.00000000E+00
  0.00000000E+00  0.00000000E+00  0.00000000E+00
  0.00000000E+00  0.00000000E+00  0.00000000E+00
  0.00000000E+00  0.00000000E+00  0.00000000E+00
  0.00000000E+00  0.00000000E+00  0.00000000E+00
  0.00000000E+00  0.00000000E+00  0.00000000E+00
  0.00000000E+00  0.00000000E+00  0.00000000E+00
  0.00000000E+00  0.00000000E+00  0.00000000E+00
  0.00000000E+00  0.00000000E+00  0.00000000E+00
  0.00000000E+00  0.00000000E+00  0.00000000E+00
  0.00000000E+00  0.00000000E+00  0.00000000E+00
  0.00000000E+00  0.00000000E+00  0.00000000E+00
  0.00000000E+00  0.00000000E+00  0.00000000E+00
  0.00000000E+00  0.00000000E+00  0.00000000E+00
  0.00000000E+00  0.00000000E+00  0.00000000E+00
  0.00000000E+00  0.00000000E+00  0.00000000E+00
  0.00000000E+00  0.00000000E+00  0.00000000E+00
  0.00000000E+00  0.00000000E+00  0.00000000E+00
  0.00000000E+00  0.00000000E+00  0.00000000E+00
  0.00000000E+00  0.00000000E+00  0.00000000E+00
  0.00000000E+00  0.00000000E+00  0.00000000E+00
  0.00000000E+00  0.00000000E+00  0.00000000E+00
  0.00000000E+00  0.00000000E+00  0.00000000E+00
  0.00000000E+00  0.00000000E+00  0.00000000E+00
  0.00000000E+00  0.00000000E+00  0.00000000E+00
  0.00000000E+00  0.00000000E+00  0.00000000E+00
  0.00000000E+00  0.00000000E+00  0.00000000E+00
  0.00000000E+00  0.00000000E+00  0.00000000E+00
  0.00000000E+00  0.00000000E+00  0.00000000E+00
  0.00000000E+00  0.00000000E+00  0.00000000E+00
  0.00000000E+00  0.00000000E+00  0.00000000E+00
  0.00000000E+00  0.00000000E+00  0.00000000E+00
  0.00000000E+00  0.00000000E+00  0.00000000E+00
  0.00000000E+00  0.00000000E+00  0.00000000E+00
  0.00000000E+00  0.00000000E+00  0.00000000E+00
  0.00000000E+00  0.00000000E+00  0.00000000E+00
  0.00000000E+00  0.00000000E+00  0.00000000E+00
  0.00000000E+00  0.00000000E+00  0.00000000E+00
  0.00000000E+00  0.00000000E+00  0.00000000E+00
  0.00000000E+00  0.00000000E+00  0.00000000E+00
  0.00000000E+00  0.00000000E+00  0.00000000E+00
  0.00000000E+00  0.00000000E+00  0.00000000E+00
  0.00000000E+00  0.00000000E+00  0.00000000E+00
  0.00000000E+00  0.00000000E+00  0.00000000E+00
  0.00000000E+00  0.00000000E+00  0.00000000E+00
  0.00000000E+00  0.00000000E+00  0.00000000E+00
  0.00000000E+00  0.00000000E+00  0.00000000E+00
  0.00000000E+00  0.00000000E+00  0.00000000E+00
  0.00000000E+00  0.00000000E+00  0.00000000E+00
  0.00000000E+00  0.00000000E+00  0.00000000E+00
