Al   Sc   N    O                        
   1.00000000000000     
   -10.1341531709578572    0.0104098134147595   -0.0002125103109900
    -5.0572278887697362    8.8134924513327650    0.0007157158098461
    -0.0413928189805896    0.1148582369791893   -9.5782705663601995
   Al   Sc   N    O 
    23    13    35     1
Direct
  0.1106867344957791  0.0905817648536242  0.3116475574467543
  0.2221088971156604  0.2081094590788268  0.0836319447487597
  0.7699681243929177  0.1015349916781787  0.8112294768140131
  0.8941651020577481  0.2032430470498525  0.5722515712177270
  0.5558183123427867  0.2171506712687048  0.0632641087099231
  0.2228069653362468  0.2013707852985434  0.5575721333695043
  0.8773198837840113  0.2107304977262388  0.0698174042573143
  0.5465810507182880  0.2171024311061771  0.5672625844822790
  0.2323478686117326  0.5317232159774079  0.0559857348708306
  0.4361742159000457  0.4384794289728617  0.3125718173843453
  0.5535746527806893  0.5406846159839134  0.1141032856249282
  0.2320173096772962  0.5346663351722825  0.5686194862967895
  0.8883291018734454  0.5353438646033695  0.1179919480212988
  0.4451395820286308  0.4301367972806247  0.8115170266030702
  0.5524895378212520  0.5392516677148151  0.6152477293296741
  0.1117377264820902  0.7641383644172990  0.3742739729251312
  0.7739531217365112  0.7574164185294521  0.8708221559286642
  0.8829377193697994  0.8717491050879076  0.6260430160504669
  0.4443691420806672  0.7562668830534491  0.3694834946597467
  0.5550295637886720  0.8604889767281207  0.1104101491940881
  0.1186581114963232  0.7541492048064384  0.8534331196227569
  0.4503299132995338  0.7511671248298626  0.8637321823770918
  0.5597705888961215  0.8678425092804218  0.6180305956042105
  0.4475116106300945  0.0905228378632330  0.3312282036799772
  0.1069078239788013  0.0915012771298152  0.8446179980388209
  0.7794087262580334  0.0941288953655359  0.3413464836750606
  0.4551653419664845  0.0879796790481535  0.8390566096722551
  0.1252179472195465  0.4283684278439281  0.3313990714555786
  0.7696886271916057  0.4322668595591637  0.8457131726708553
  0.8860931148993672  0.5450604906446017  0.5897375891023131
  0.1154875341107342  0.4302291086326804  0.8277231054676406
  0.7692124330898551  0.4224804504852386  0.3463243460602072
  0.2315375178044690  0.8589901552825978  0.1037392771278149
  0.2243559776997017  0.8736765214948718  0.5988894834076248
  0.7745963380774512  0.7691253533174276  0.3447958680746694
  0.8896778759990553  0.8771449019441491  0.0867703970353801
  0.2156395721828801  0.1917916634390266  0.3548865816139539
  0.1001104199885177  0.1099911024601852  0.1039974682654687
  0.8758720244523062  0.1951751542763844  0.8697172628131042
  0.7755668939363929  0.0964620036071366  0.6060834131245230
  0.5388835807821408  0.2334485331128420  0.3701670665535914
  0.4480044947464563  0.0938211571726342  0.0897015550534448
  0.1043117586299189  0.1168950055664837  0.6228198366370634
  0.9136128590479373  0.1892522239610344  0.3735432180571934
  0.7611720734468292  0.1197390963971401  0.1163330377770890
  0.5615263160379840  0.2189380570756398  0.8603698905045363
  0.4418915562679047  0.0931970610779160  0.5986041920829877
  0.2339214662002291  0.5539543045744253  0.3667841975215538
  0.1141571165727484  0.4278719653885972  0.0939523237456541
  0.8832201598916924  0.5565844236534829  0.8164100344250400
  0.7668444024329304  0.4186861205900883  0.5893990895958083
  0.5330897757080209  0.5535995839228889  0.3157863154800040
  0.4412905548473560  0.4277349055418824  0.1074701612898181
  0.2373411550560576  0.5384098106248558  0.8522722207661602
  0.1352194938145033  0.4137995376350148  0.5921673405751662
  0.8910671232720659  0.5359777789345728  0.3316074305289831
  0.7767312932173880  0.4281777456145548  0.0921197951476387
  0.5382486862220830  0.5481066697575727  0.8190902915396308
  0.4437083230253975  0.4286025929896695  0.6115190769149663
  0.2226504530364934  0.8718327441418339  0.3430732044195537
  0.1220918024292317  0.7417574741396891  0.0586039449202715
  0.8805521812479782  0.8752345839723858  0.8342699286258011
  0.7647790116590940  0.7879355602661278  0.5675775937485454
  0.5419606945531115  0.8591812444899176  0.3067698508227750
  0.4640244768860882  0.7463020533353841  0.0601383561546243
  0.2339949130158132  0.8555943459514168  0.8328210908704392
  0.0974110490592892  0.7550906483590865  0.5886295565055377
  0.9140920228459919  0.8615136916048129  0.3114024543145817
  0.7710058615970183  0.7493379834923743  0.0753855846801414
  0.5648844987767774  0.8508805379549713  0.8197839602080421
  0.4664605462800040  0.7501063724651118  0.5678143300772902
  0.2255156280586164  0.2034084600572825  0.8849122842118078
 
  0.00000000E+00  0.00000000E+00  0.00000000E+00
  0.00000000E+00  0.00000000E+00  0.00000000E+00
  0.00000000E+00  0.00000000E+00  0.00000000E+00
  0.00000000E+00  0.00000000E+00  0.00000000E+00
  0.00000000E+00  0.00000000E+00  0.00000000E+00
  0.00000000E+00  0.00000000E+00  0.00000000E+00
  0.00000000E+00  0.00000000E+00  0.00000000E+00
  0.00000000E+00  0.00000000E+00  0.00000000E+00
  0.00000000E+00  0.00000000E+00  0.00000000E+00
  0.00000000E+00  0.00000000E+00  0.00000000E+00
  0.00000000E+00  0.00000000E+00  0.00000000E+00
  0.00000000E+00  0.00000000E+00  0.00000000E+00
  0.00000000E+00  0.00000000E+00  0.00000000E+00
  0.00000000E+00  0.00000000E+00  0.00000000E+00
  0.00000000E+00  0.00000000E+00  0.00000000E+00
  0.00000000E+00  0.00000000E+00  0.00000000E+00
  0.00000000E+00  0.00000000E+00  0.00000000E+00
  0.00000000E+00  0.00000000E+00  0.00000000E+00
  0.00000000E+00  0.00000000E+00  0.00000000E+00
  0.00000000E+00  0.00000000E+00  0.00000000E+00
  0.00000000E+00  0.00000000E+00  0.00000000E+00
  0.00000000E+00  0.00000000E+00  0.00000000E+00
  0.00000000E+00  0.00000000E+00  0.00000000E+00
  0.00000000E+00  0.00000000E+00  0.00000000E+00
  0.00000000E+00  0.00000000E+00  0.00000000E+00
  0.00000000E+00  0.00000000E+00  0.00000000E+00
  0.00000000E+00  0.00000000E+00  0.00000000E+00
  0.00000000E+00  0.00000000E+00  0.00000000E+00
  0.00000000E+00  0.00000000E+00  0.00000000E+00
  0.00000000E+00  0.00000000E+00  0.00000000E+00
  0.00000000E+00  0.00000000E+00  0.00000000E+00
  0.00000000E+00  0.00000000E+00  0.00000000E+00
  0.00000000E+00  0.00000000E+00  0.00000000E+00
  0.00000000E+00  0.00000000E+00  0.00000000E+00
  0.00000000E+00  0.00000000E+00  0.00000000E+00
  0.00000000E+00  0.00000000E+00  0.00000000E+00
  0.00000000E+00  0.00000000E+00  0.00000000E+00
  0.00000000E+00  0.00000000E+00  0.00000000E+00
  0.00000000E+00  0.00000000E+00  0.00000000E+00
  0.00000000E+00  0.00000000E+00  0.00000000E+00
  0.00000000E+00  0.00000000E+00  0.00000000E+00
  0.00000000E+00  0.00000000E+00  0.00000000E+00
  0.00000000E+00  0.00000000E+00  0.00000000E+00
  0.00000000E+00  0.00000000E+00  0.00000000E+00
  0.00000000E+00  0.00000000E+00  0.00000000E+00
  0.00000000E+00  0.00000000E+00  0.00000000E+00
  0.00000000E+00  0.00000000E+00  0.00000000E+00
  0.00000000E+00  0.00000000E+00  0.00000000E+00
  0.00000000E+00  0.00000000E+00  0.00000000E+00
  0.00000000E+00  0.00000000E+00  0.00000000E+00
  0.00000000E+00  0.00000000E+00  0.00000000E+00
  0.00000000E+00  0.00000000E+00  0.00000000E+00
  0.00000000E+00  0.00000000E+00  0.00000000E+00
  0.00000000E+00  0.00000000E+00  0.00000000E+00
  0.00000000E+00  0.00000000E+00  0.00000000E+00
  0.00000000E+00  0.00000000E+00  0.00000000E+00
  0.00000000E+00  0.00000000E+00  0.00000000E+00
  0.00000000E+00  0.00000000E+00  0.00000000E+00
  0.00000000E+00  0.00000000E+00  0.00000000E+00
  0.00000000E+00  0.00000000E+00  0.00000000E+00
  0.00000000E+00  0.00000000E+00  0.00000000E+00
  0.00000000E+00  0.00000000E+00  0.00000000E+00
  0.00000000E+00  0.00000000E+00  0.00000000E+00
  0.00000000E+00  0.00000000E+00  0.00000000E+00
  0.00000000E+00  0.00000000E+00  0.00000000E+00
  0.00000000E+00  0.00000000E+00  0.00000000E+00
  0.00000000E+00  0.00000000E+00  0.00000000E+00
  0.00000000E+00  0.00000000E+00  0.00000000E+00
  0.00000000E+00  0.00000000E+00  0.00000000E+00
  0.00000000E+00  0.00000000E+00  0.00000000E+00
  0.00000000E+00  0.00000000E+00  0.00000000E+00
  0.00000000E+00  0.00000000E+00  0.00000000E+00
