Al   Sc   N    O                        
   1.00000000000000     
   -10.0452457867935010    0.0109301807979997    0.0003643969587418
    -5.0133672098294610    8.7318429839935217   -0.0004631576947715
    -0.0292732862725857    0.0497114668114170   -9.8236736362133446
   Al   Sc   N    O 
    23    13    35     1
Direct
  0.1186646294207065  0.0874518616298303  0.4110074333258282
  0.2183310020534037  0.2011303278559993  0.1527747004711557
  0.7702955465472030  0.1006085558617613  0.8319333771531632
  0.8872608127113324  0.2051734023099385  0.5980983279908685
  0.5476429019341893  0.2175877662215768  0.1353512858706978
  0.2285773195310767  0.2073864877722826  0.6407789337160779
  0.8799677048062833  0.2103603194645274  0.0863302759033431
  0.5499837490961070  0.2164158014814035  0.6245673552866577
  0.2316286108353793  0.5406934026485004  0.1487636594038833
  0.4358009575982820  0.4446787866094084  0.4005110120955209
  0.5491293610514703  0.5406586073212623  0.1441088261632260
  0.2271747994596822  0.5360745742423134  0.6471646479234039
  0.8872144435101106  0.5353722959439011  0.1513773173710007
  0.4428440666799531  0.4343333603722428  0.8936677955409564
  0.5515531868790760  0.5383291674007893  0.6485232121926003
  0.1120435171699015  0.7576899015919665  0.4009012667872156
  0.7743953669713477  0.7569537455373805  0.8987331331543444
  0.8869951746250351  0.8677888257107895  0.6520876959558564
  0.4482368575887463  0.7539874304392953  0.3978053635190761
  0.5533083360591604  0.8624880123707044  0.1393999579982932
  0.1228839623582161  0.7519408618394792  0.8902413852169744
  0.4457560820467208  0.7531428366450257  0.8952840929921280
  0.5625659236822074  0.8637645666509073  0.6497004958482293
  0.4457219664167695  0.0861827018744066  0.3892277874198413
  0.1085972198106759  0.0898704086620370  0.8697496904569419
  0.7810417797690832  0.0933773883828835  0.3628290141613277
  0.4579704633892092  0.0881418311437869  0.8786764361297372
  0.1268894624308246  0.4231893658719201  0.3783231577772241
  0.7664209258819668  0.4367294388608229  0.8765613299005750
  0.8908711863498411  0.5426810947224467  0.6268142063791728
  0.1143793772248571  0.4361727722123163  0.8987437621048429
  0.7684763764548705  0.4242920235854797  0.3746320452376892
  0.2239222853741580  0.8723337980588255  0.1475726741726646
  0.2313394151422798  0.8577222922189804  0.6278296078674401
  0.7761736303418658  0.7683250525792644  0.3769093129521508
  0.8894656122776468  0.8757595729757881  0.1125593776571634
  0.2163288430139332  0.1875927491607925  0.3446631621519032
  0.1028733826145967  0.1111203295879122  0.0917707939539625
  0.8734532224272158  0.1983852485545796  0.8865860250512227
  0.7804794562872246  0.0912674133429690  0.6284735161687891
  0.5372370194839746  0.2315200134885416  0.3717513750561565
  0.4435090780152890  0.0961230863762452  0.1045561296472997
  0.1109231682769050  0.1073128447959419  0.6194994379704397
  0.9099661962944907  0.1922586989606074  0.4023488617743283
  0.7619185115792746  0.1201027165827355  0.1369304637502182
  0.5553979647801697  0.2238848154145572  0.8393744957459930
  0.4466876107767703  0.0885935443364119  0.6172216212056654
  0.2326034952190170  0.5556482253691257  0.3394004296083040
  0.1161555762876176  0.4254933336026667  0.1202771071236981
  0.8880236876355667  0.5543956895451743  0.8432310783421997
  0.7667137508771447  0.4201623539570249  0.6165794340672193
  0.5305368793351164  0.5522580806842967  0.3359971458254947
  0.4429273065504873  0.4294393613267218  0.0896080397574579
  0.2331994756710358  0.5443360136393807  0.8387643229015183
  0.1368051338331782  0.4154505855377053  0.6008788310386350
  0.8915116318179983  0.5357857058248499  0.3517348601935097
  0.7747704194512650  0.4291341161902409  0.1150258381043514
  0.5330338862196840  0.5497286818465241  0.8406585570392622
  0.4394502821121620  0.4392846592072104  0.5944995413873855
  0.2237560960901703  0.8704661616816125  0.3779261564756737
  0.1275358382915357  0.7408333995681602  0.0804046046084537
  0.8843411526061189  0.8729986906576102  0.8570197620991706
  0.7667150331193469  0.7855272565605205  0.5935948605433907
  0.5434802677697945  0.8588218824742100  0.3296069498558296
  0.4569447658409018  0.7503520321797410  0.0866477318766030
  0.2329974667641821  0.8540261566594012  0.8469354700187353
  0.0965079979681747  0.7477349351593432  0.5962965815028056
  0.9155704835199145  0.8597693492220202  0.3292343268738662
  0.7697533050581171  0.7489053904216050  0.0969317145005633
  0.5648088558874207  0.8488376204031240  0.8441145005950546
  0.4729136079241698  0.7458278326368273  0.5899044319014024
  0.2252283301814870  0.2104618948368397  0.8331555695624004
 
  0.00000000E+00  0.00000000E+00  0.00000000E+00
  0.00000000E+00  0.00000000E+00  0.00000000E+00
  0.00000000E+00  0.00000000E+00  0.00000000E+00
  0.00000000E+00  0.00000000E+00  0.00000000E+00
  0.00000000E+00  0.00000000E+00  0.00000000E+00
  0.00000000E+00  0.00000000E+00  0.00000000E+00
  0.00000000E+00  0.00000000E+00  0.00000000E+00
  0.00000000E+00  0.00000000E+00  0.00000000E+00
  0.00000000E+00  0.00000000E+00  0.00000000E+00
  0.00000000E+00  0.00000000E+00  0.00000000E+00
  0.00000000E+00  0.00000000E+00  0.00000000E+00
  0.00000000E+00  0.00000000E+00  0.00000000E+00
  0.00000000E+00  0.00000000E+00  0.00000000E+00
  0.00000000E+00  0.00000000E+00  0.00000000E+00
  0.00000000E+00  0.00000000E+00  0.00000000E+00
  0.00000000E+00  0.00000000E+00  0.00000000E+00
  0.00000000E+00  0.00000000E+00  0.00000000E+00
  0.00000000E+00  0.00000000E+00  0.00000000E+00
  0.00000000E+00  0.00000000E+00  0.00000000E+00
  0.00000000E+00  0.00000000E+00  0.00000000E+00
  0.00000000E+00  0.00000000E+00  0.00000000E+00
  0.00000000E+00  0.00000000E+00  0.00000000E+00
  0.00000000E+00  0.00000000E+00  0.00000000E+00
  0.00000000E+00  0.00000000E+00  0.00000000E+00
  0.00000000E+00  0.00000000E+00  0.00000000E+00
  0.00000000E+00  0.00000000E+00  0.00000000E+00
  0.00000000E+00  0.00000000E+00  0.00000000E+00
  0.00000000E+00  0.00000000E+00  0.00000000E+00
  0.00000000E+00  0.00000000E+00  0.00000000E+00
  0.00000000E+00  0.00000000E+00  0.00000000E+00
  0.00000000E+00  0.00000000E+00  0.00000000E+00
  0.00000000E+00  0.00000000E+00  0.00000000E+00
  0.00000000E+00  0.00000000E+00  0.00000000E+00
  0.00000000E+00  0.00000000E+00  0.00000000E+00
  0.00000000E+00  0.00000000E+00  0.00000000E+00
  0.00000000E+00  0.00000000E+00  0.00000000E+00
  0.00000000E+00  0.00000000E+00  0.00000000E+00
  0.00000000E+00  0.00000000E+00  0.00000000E+00
  0.00000000E+00  0.00000000E+00  0.00000000E+00
  0.00000000E+00  0.00000000E+00  0.00000000E+00
  0.00000000E+00  0.00000000E+00  0.00000000E+00
  0.00000000E+00  0.00000000E+00  0.00000000E+00
  0.00000000E+00  0.00000000E+00  0.00000000E+00
  0.00000000E+00  0.00000000E+00  0.00000000E+00
  0.00000000E+00  0.00000000E+00  0.00000000E+00
  0.00000000E+00  0.00000000E+00  0.00000000E+00
  0.00000000E+00  0.00000000E+00  0.00000000E+00
  0.00000000E+00  0.00000000E+00  0.00000000E+00
  0.00000000E+00  0.00000000E+00  0.00000000E+00
  0.00000000E+00  0.00000000E+00  0.00000000E+00
  0.00000000E+00  0.00000000E+00  0.00000000E+00
  0.00000000E+00  0.00000000E+00  0.00000000E+00
  0.00000000E+00  0.00000000E+00  0.00000000E+00
  0.00000000E+00  0.00000000E+00  0.00000000E+00
  0.00000000E+00  0.00000000E+00  0.00000000E+00
  0.00000000E+00  0.00000000E+00  0.00000000E+00
  0.00000000E+00  0.00000000E+00  0.00000000E+00
  0.00000000E+00  0.00000000E+00  0.00000000E+00
  0.00000000E+00  0.00000000E+00  0.00000000E+00
  0.00000000E+00  0.00000000E+00  0.00000000E+00
  0.00000000E+00  0.00000000E+00  0.00000000E+00
  0.00000000E+00  0.00000000E+00  0.00000000E+00
  0.00000000E+00  0.00000000E+00  0.00000000E+00
  0.00000000E+00  0.00000000E+00  0.00000000E+00
  0.00000000E+00  0.00000000E+00  0.00000000E+00
  0.00000000E+00  0.00000000E+00  0.00000000E+00
  0.00000000E+00  0.00000000E+00  0.00000000E+00
  0.00000000E+00  0.00000000E+00  0.00000000E+00
  0.00000000E+00  0.00000000E+00  0.00000000E+00
  0.00000000E+00  0.00000000E+00  0.00000000E+00
  0.00000000E+00  0.00000000E+00  0.00000000E+00
  0.00000000E+00  0.00000000E+00  0.00000000E+00
