Al   Sc   N    O                        
   1.00000000000000     
   -10.1450552815392179    0.0100405850589889   -0.0050065248508374
    -5.0808858503739183    8.8144920774131936   -0.0029143549025236
     0.0200545914557263    0.0996753224754708   -9.5484139828843482
   Al   Sc   N    O 
    23    13    35     1
Direct
  0.1099603098490078  0.0918725455344926  0.3090606291199478
  0.2224464710204757  0.2084813790057467  0.0841526317438266
  0.7700353534934052  0.1000978652508095  0.8112194879820080
  0.8926606819119272  0.2055937878021297  0.5685370397394607
  0.5563470635195102  0.2164404286083865  0.0640546615891537
  0.2220922668713570  0.2030132526070503  0.5566958024839082
  0.8781699098757585  0.2106648583978981  0.0667204870412519
  0.5451769996699412  0.2181301068866830  0.5702004251574238
  0.2340854274425226  0.5333222248888703  0.0620779728508012
  0.4392621654202671  0.4373385687144875  0.3135075386176851
  0.5538736228778802  0.5346276714843157  0.0672607383991917
  0.2281408778165428  0.5395686545458247  0.5642863990023343
  0.8890228098832651  0.5356450677663815  0.0603297585434461
  0.4437027913836644  0.4342786736245472  0.8115682013876793
  0.5507985541259046  0.5343288354722517  0.5609300482371395
  0.1214359594299239  0.7549803136786366  0.3100123736159830
  0.7710130057910476  0.7637064370448456  0.8653861722378977
  0.8832699529543220  0.8719506962166292  0.6190101365780620
  0.4423773115717182  0.7595931369874904  0.3653967744722451
  0.5569772515849039  0.8611323871902457  0.1138823417261179
  0.1173055638800662  0.7527341183226213  0.8209486932995063
  0.4490661666844602  0.7521331580428168  0.8621692635167761
  0.5566079429362674  0.8678685130587311  0.6174364652157465
  0.4474410835406246  0.0919079715452114  0.3336417930800195
  0.1066080815260690  0.0928944294121763  0.8394039719427440
  0.7786638384988791  0.0962063994644780  0.3419848066013316
  0.4551506405522971  0.0878222383621292  0.8390790444159322
  0.1181151066394364  0.4314960731383337  0.3265953248158340
  0.7656147146705408  0.4263595868288377  0.8281595832381825
  0.8878345879019207  0.5415618080078133  0.5904166476836608
  0.1225126811612967  0.4293629550303564  0.8283725244605762
  0.7748593884826676  0.4259945809740984  0.3259751033037972
  0.2325794857284293  0.8650076710287351  0.0894446774155782
  0.2183669464232523  0.8727796649888546  0.5860722431385739
  0.7780591672134918  0.7645506436789660  0.3479207645221436
  0.8892981103747886  0.8774777502547977  0.0862824293780307
  0.2144677095029195  0.1941152251787912  0.3528324597510704
  0.0990747029297978  0.1134825081897759  0.1018216661175444
  0.8768617274029751  0.1927731673636544  0.8679816432342164
  0.7762292757260596  0.0960810185131891  0.6054488769186861
  0.5387757632583074  0.2333477180591004  0.3730403576409316
  0.4488132520928403  0.0941183985685043  0.0908904674960596
  0.1044341322601525  0.1159040520714356  0.6184158689361752
  0.9120095030955326  0.1935695792363958  0.3705311805009046
  0.7626962865294047  0.1191987675018353  0.1153256044263955
  0.5600188429398614  0.2201809538576782  0.8592595660852709
  0.4413385391139713  0.0934821902667267  0.5983959843354896
  0.2335423914212882  0.5525176876576054  0.3666950228307897
  0.1136496129723881  0.4284540219122519  0.0916687528663189
  0.8854869598842328  0.5509528850129684  0.8444548805205798
  0.7641698265766408  0.4183417167850223  0.5985619024385329
  0.5364247024124325  0.5472109130466620  0.3550018976039908
  0.4447443053438320  0.4264696486259965  0.1135218380563714
  0.2367547753764327  0.5439215589422872  0.8647554788764396
  0.1381783042080258  0.4134348904029821  0.5993230018596805
  0.8926185672406319  0.5351672101365921  0.3658603402840512
  0.7780207193363537  0.4283150407913965  0.0907557009323270
  0.5369105752839189  0.5422216568017859  0.8628351017969251
  0.4412490373882108  0.4329608542222942  0.6147955496546942
  0.2224411427495596  0.8731631510328839  0.3393841971700198
  0.1276662467626366  0.7372500060442064  0.1057230340679638
  0.8805660611012271  0.8763512002858960  0.8393677131168928
  0.7646260012004475  0.7846745287797461  0.5782651217248898
  0.5444048356303242  0.8595007496026170  0.3117359491768923
  0.4649281743976417  0.7486711656509044  0.0676083888171206
  0.2308888977451673  0.8557434071934225  0.8416139507170044
  0.0997068990536718  0.7486149612308779  0.6196456323219266
  0.9113785860764310  0.8633634417194642  0.3222186544793360
  0.7707666816796177  0.7521961524097378  0.0756539851643794
  0.5624176659132871  0.8509964969927850  0.8201378694194545
  0.4602414988760870  0.7528222344466045  0.5729424002899819
  0.2264386449476277  0.2029450641222326  0.8840095096018388
 
  0.00000000E+00  0.00000000E+00  0.00000000E+00
  0.00000000E+00  0.00000000E+00  0.00000000E+00
  0.00000000E+00  0.00000000E+00  0.00000000E+00
  0.00000000E+00  0.00000000E+00  0.00000000E+00
  0.00000000E+00  0.00000000E+00  0.00000000E+00
  0.00000000E+00  0.00000000E+00  0.00000000E+00
  0.00000000E+00  0.00000000E+00  0.00000000E+00
  0.00000000E+00  0.00000000E+00  0.00000000E+00
  0.00000000E+00  0.00000000E+00  0.00000000E+00
  0.00000000E+00  0.00000000E+00  0.00000000E+00
  0.00000000E+00  0.00000000E+00  0.00000000E+00
  0.00000000E+00  0.00000000E+00  0.00000000E+00
  0.00000000E+00  0.00000000E+00  0.00000000E+00
  0.00000000E+00  0.00000000E+00  0.00000000E+00
  0.00000000E+00  0.00000000E+00  0.00000000E+00
  0.00000000E+00  0.00000000E+00  0.00000000E+00
  0.00000000E+00  0.00000000E+00  0.00000000E+00
  0.00000000E+00  0.00000000E+00  0.00000000E+00
  0.00000000E+00  0.00000000E+00  0.00000000E+00
  0.00000000E+00  0.00000000E+00  0.00000000E+00
  0.00000000E+00  0.00000000E+00  0.00000000E+00
  0.00000000E+00  0.00000000E+00  0.00000000E+00
  0.00000000E+00  0.00000000E+00  0.00000000E+00
  0.00000000E+00  0.00000000E+00  0.00000000E+00
  0.00000000E+00  0.00000000E+00  0.00000000E+00
  0.00000000E+00  0.00000000E+00  0.00000000E+00
  0.00000000E+00  0.00000000E+00  0.00000000E+00
  0.00000000E+00  0.00000000E+00  0.00000000E+00
  0.00000000E+00  0.00000000E+00  0.00000000E+00
  0.00000000E+00  0.00000000E+00  0.00000000E+00
  0.00000000E+00  0.00000000E+00  0.00000000E+00
  0.00000000E+00  0.00000000E+00  0.00000000E+00
  0.00000000E+00  0.00000000E+00  0.00000000E+00
  0.00000000E+00  0.00000000E+00  0.00000000E+00
  0.00000000E+00  0.00000000E+00  0.00000000E+00
  0.00000000E+00  0.00000000E+00  0.00000000E+00
  0.00000000E+00  0.00000000E+00  0.00000000E+00
  0.00000000E+00  0.00000000E+00  0.00000000E+00
  0.00000000E+00  0.00000000E+00  0.00000000E+00
  0.00000000E+00  0.00000000E+00  0.00000000E+00
  0.00000000E+00  0.00000000E+00  0.00000000E+00
  0.00000000E+00  0.00000000E+00  0.00000000E+00
  0.00000000E+00  0.00000000E+00  0.00000000E+00
  0.00000000E+00  0.00000000E+00  0.00000000E+00
  0.00000000E+00  0.00000000E+00  0.00000000E+00
  0.00000000E+00  0.00000000E+00  0.00000000E+00
  0.00000000E+00  0.00000000E+00  0.00000000E+00
  0.00000000E+00  0.00000000E+00  0.00000000E+00
  0.00000000E+00  0.00000000E+00  0.00000000E+00
  0.00000000E+00  0.00000000E+00  0.00000000E+00
  0.00000000E+00  0.00000000E+00  0.00000000E+00
  0.00000000E+00  0.00000000E+00  0.00000000E+00
  0.00000000E+00  0.00000000E+00  0.00000000E+00
  0.00000000E+00  0.00000000E+00  0.00000000E+00
  0.00000000E+00  0.00000000E+00  0.00000000E+00
  0.00000000E+00  0.00000000E+00  0.00000000E+00
  0.00000000E+00  0.00000000E+00  0.00000000E+00
  0.00000000E+00  0.00000000E+00  0.00000000E+00
  0.00000000E+00  0.00000000E+00  0.00000000E+00
  0.00000000E+00  0.00000000E+00  0.00000000E+00
  0.00000000E+00  0.00000000E+00  0.00000000E+00
  0.00000000E+00  0.00000000E+00  0.00000000E+00
  0.00000000E+00  0.00000000E+00  0.00000000E+00
  0.00000000E+00  0.00000000E+00  0.00000000E+00
  0.00000000E+00  0.00000000E+00  0.00000000E+00
  0.00000000E+00  0.00000000E+00  0.00000000E+00
  0.00000000E+00  0.00000000E+00  0.00000000E+00
  0.00000000E+00  0.00000000E+00  0.00000000E+00
  0.00000000E+00  0.00000000E+00  0.00000000E+00
  0.00000000E+00  0.00000000E+00  0.00000000E+00
  0.00000000E+00  0.00000000E+00  0.00000000E+00
  0.00000000E+00  0.00000000E+00  0.00000000E+00
