Al   Sc   N    O                        
   1.00000000000000     
   -10.1595795624081067    0.0100590464767774   -0.0047668241238450
    -5.0867500009866840    8.8270003353716042   -0.0027328513669051
     0.0130052647386589    0.0916254820374538   -9.4989323201877962
   Al   Sc   N    O 
    23    13    35     1
Direct
  0.1101201662773832  0.0914832105211616  0.3093916887968220
  0.2223534364755082  0.2083898627035907  0.0854352229875346
  0.7700601068327160  0.0999005695205213  0.8115838119824375
  0.8928900285862866  0.2051137569574450  0.5694849848799564
  0.5562982493513573  0.2162901677935807  0.0640895888477431
  0.2219894606672739  0.2029322406435696  0.5564934438170042
  0.8782740563339715  0.2104434286047265  0.0675995076326643
  0.5451387117153885  0.2181388360694640  0.5706241011184687
  0.2338165189261758  0.5334478744133904  0.0623799390096309
  0.4390422624284369  0.4371170617198032  0.3137704923543865
  0.5539861214494763  0.5355504899625814  0.0740936597217328
  0.2280167642566369  0.5396767316230182  0.5647703908948145
  0.8890370159015433  0.5359736590956956  0.0618378385894474
  0.4435642405018996  0.4343116177670794  0.8126058030974121
  0.5507784358656735  0.5350062262611601  0.5660893772942188
  0.1211842198947721  0.7551814932762255  0.3105328880092415
  0.7709544408069107  0.7637926509305046  0.8645036378707331
  0.8835165445901865  0.8719101226025785  0.6178858095577411
  0.4426973816201212  0.7590565966713712  0.3643511085404469
  0.5567616287507420  0.8615211288102316  0.1131412804519414
  0.1171956897145847  0.7529383603595932  0.8214498060286672
  0.4492719123394622  0.7518958283888253  0.8619400970322957
  0.5565461064822941  0.8678376486157688  0.6165011391195492
  0.4476123618567982  0.0917805449469924  0.3338820153331170
  0.1066212659350185  0.0929915741279004  0.8400122032745827
  0.7786130749093374  0.0960649355307766  0.3425135051582586
  0.4549060411137873  0.0877851335217841  0.8391488049115594
  0.1182549882179416  0.4315632486676790  0.3273814623717897
  0.7657052999242708  0.4265847226234811  0.8306919828346011
  0.8878863687275214  0.5419192003215798  0.5912060695790231
  0.1224055602625072  0.4292360054771791  0.8292253000255982
  0.7753735658502592  0.4254787220669698  0.3289426283515482
  0.2324957671252648  0.8649144359439944  0.0892542914408025
  0.2185319355021846  0.8726284028070452  0.5861284722537690
  0.7778935400101901  0.7644923718266128  0.3470316083446008
  0.8892607539839830  0.8775226879373434  0.0859276762659107
  0.2145120200936219  0.1941329956357265  0.3512016514976040
  0.0991350012189613  0.1130641231200684  0.1012859075052717
  0.8769260069895708  0.1926710784342589  0.8673550069024856
  0.7761875481013831  0.0959497731390897  0.6049235152773065
  0.5388430981848984  0.2332516358261358  0.3723484543853388
  0.4488819774166188  0.0939879752469324  0.0905026142514842
  0.1047679027170858  0.1155852396509687  0.6177457239593025
  0.9122549404788813  0.1928472001548229  0.3701702209102962
  0.7626118034253295  0.1188863831966387  0.1146461568419852
  0.5598935139421926  0.2199963308110782  0.8581604739392645
  0.4410836124961293  0.0933046758955953  0.5975015533627754
  0.2334890492483410  0.5526512098816241  0.3660906180772585
  0.1136322421547860  0.4285135846564572  0.0915038174847709
  0.8855457981641592  0.5512065077250412  0.8443876239263446
  0.7646026663052155  0.4183159375568053  0.5976401208520628
  0.5365715517041991  0.5478097349031614  0.3488687739334395
  0.4443057290862313  0.4261789651515571  0.1122299739403019
  0.2363499513454883  0.5440664743737571  0.8639379405271868
  0.1381435878254749  0.4133003130884703  0.5986229011536892
  0.8927652408723787  0.5355138136509225  0.3651063552299760
  0.7784645486087101  0.4280849518841947  0.0909921458452132
  0.5370040026241085  0.5430113158097782  0.8594525060638958
  0.4409735879159840  0.4329202993803563  0.6140739988225334
  0.2225676190593191  0.8730304547880579  0.3392416271196126
  0.1273405680697692  0.7375530669823505  0.1049302684435176
  0.8805211159481559  0.8764160232324159  0.8392618809521508
  0.7646463268895829  0.7845716814768764  0.5788054614139497
  0.5442238299181525  0.8598042334695037  0.3121782774911068
  0.4647576116623853  0.7489445074506378  0.0675306908572182
  0.2309130373488415  0.8559181124402571  0.8412561920819783
  0.0996909243257988  0.7488623251465611  0.6189885562032558
  0.9113835873323879  0.8633360856633843  0.3232691064339548
  0.7706728340710214  0.7524133659532524  0.0762226850273535
  0.5622089953953733  0.8512445003323421  0.8203103796735434
  0.4605165388147583  0.7522828591494815  0.5722500909698240
  0.2264307481945806  0.2029393921331533  0.8837775966478318
 
  0.00000000E+00  0.00000000E+00  0.00000000E+00
  0.00000000E+00  0.00000000E+00  0.00000000E+00
  0.00000000E+00  0.00000000E+00  0.00000000E+00
  0.00000000E+00  0.00000000E+00  0.00000000E+00
  0.00000000E+00  0.00000000E+00  0.00000000E+00
  0.00000000E+00  0.00000000E+00  0.00000000E+00
  0.00000000E+00  0.00000000E+00  0.00000000E+00
  0.00000000E+00  0.00000000E+00  0.00000000E+00
  0.00000000E+00  0.00000000E+00  0.00000000E+00
  0.00000000E+00  0.00000000E+00  0.00000000E+00
  0.00000000E+00  0.00000000E+00  0.00000000E+00
  0.00000000E+00  0.00000000E+00  0.00000000E+00
  0.00000000E+00  0.00000000E+00  0.00000000E+00
  0.00000000E+00  0.00000000E+00  0.00000000E+00
  0.00000000E+00  0.00000000E+00  0.00000000E+00
  0.00000000E+00  0.00000000E+00  0.00000000E+00
  0.00000000E+00  0.00000000E+00  0.00000000E+00
  0.00000000E+00  0.00000000E+00  0.00000000E+00
  0.00000000E+00  0.00000000E+00  0.00000000E+00
  0.00000000E+00  0.00000000E+00  0.00000000E+00
  0.00000000E+00  0.00000000E+00  0.00000000E+00
  0.00000000E+00  0.00000000E+00  0.00000000E+00
  0.00000000E+00  0.00000000E+00  0.00000000E+00
  0.00000000E+00  0.00000000E+00  0.00000000E+00
  0.00000000E+00  0.00000000E+00  0.00000000E+00
  0.00000000E+00  0.00000000E+00  0.00000000E+00
  0.00000000E+00  0.00000000E+00  0.00000000E+00
  0.00000000E+00  0.00000000E+00  0.00000000E+00
  0.00000000E+00  0.00000000E+00  0.00000000E+00
  0.00000000E+00  0.00000000E+00  0.00000000E+00
  0.00000000E+00  0.00000000E+00  0.00000000E+00
  0.00000000E+00  0.00000000E+00  0.00000000E+00
  0.00000000E+00  0.00000000E+00  0.00000000E+00
  0.00000000E+00  0.00000000E+00  0.00000000E+00
  0.00000000E+00  0.00000000E+00  0.00000000E+00
  0.00000000E+00  0.00000000E+00  0.00000000E+00
  0.00000000E+00  0.00000000E+00  0.00000000E+00
  0.00000000E+00  0.00000000E+00  0.00000000E+00
  0.00000000E+00  0.00000000E+00  0.00000000E+00
  0.00000000E+00  0.00000000E+00  0.00000000E+00
  0.00000000E+00  0.00000000E+00  0.00000000E+00
  0.00000000E+00  0.00000000E+00  0.00000000E+00
  0.00000000E+00  0.00000000E+00  0.00000000E+00
  0.00000000E+00  0.00000000E+00  0.00000000E+00
  0.00000000E+00  0.00000000E+00  0.00000000E+00
  0.00000000E+00  0.00000000E+00  0.00000000E+00
  0.00000000E+00  0.00000000E+00  0.00000000E+00
  0.00000000E+00  0.00000000E+00  0.00000000E+00
  0.00000000E+00  0.00000000E+00  0.00000000E+00
  0.00000000E+00  0.00000000E+00  0.00000000E+00
  0.00000000E+00  0.00000000E+00  0.00000000E+00
  0.00000000E+00  0.00000000E+00  0.00000000E+00
  0.00000000E+00  0.00000000E+00  0.00000000E+00
  0.00000000E+00  0.00000000E+00  0.00000000E+00
  0.00000000E+00  0.00000000E+00  0.00000000E+00
  0.00000000E+00  0.00000000E+00  0.00000000E+00
  0.00000000E+00  0.00000000E+00  0.00000000E+00
  0.00000000E+00  0.00000000E+00  0.00000000E+00
  0.00000000E+00  0.00000000E+00  0.00000000E+00
  0.00000000E+00  0.00000000E+00  0.00000000E+00
  0.00000000E+00  0.00000000E+00  0.00000000E+00
  0.00000000E+00  0.00000000E+00  0.00000000E+00
  0.00000000E+00  0.00000000E+00  0.00000000E+00
  0.00000000E+00  0.00000000E+00  0.00000000E+00
  0.00000000E+00  0.00000000E+00  0.00000000E+00
  0.00000000E+00  0.00000000E+00  0.00000000E+00
  0.00000000E+00  0.00000000E+00  0.00000000E+00
  0.00000000E+00  0.00000000E+00  0.00000000E+00
  0.00000000E+00  0.00000000E+00  0.00000000E+00
  0.00000000E+00  0.00000000E+00  0.00000000E+00
  0.00000000E+00  0.00000000E+00  0.00000000E+00
  0.00000000E+00  0.00000000E+00  0.00000000E+00
