Al   Sc   N    O                        
   1.00000000000000     
   -10.0982113300246148    0.0105613968718569    0.0012788055090870
    -5.0383794050930772    8.7837567644725425    0.0018370064745324
    -0.0531469567584520    0.1331879306499613   -9.6957765164995031
   Al   Sc   N    O 
    23    13    35     1
Direct
  0.1110417127664647  0.0912115553833885  0.3273359637204010
  0.2216934420776298  0.2085590078622346  0.0953818113415679
  0.7706389510462373  0.1014870464281117  0.8254942278042989
  0.8943331893833317  0.2027713279214183  0.5863229015501759
  0.5560012148909976  0.2173810195521924  0.0768693990281051
  0.2234722550075645  0.2011677970129355  0.5734710723778349
  0.8777831248133339  0.2104784572614236  0.0848367001218975
  0.5468969075149204  0.2167661467193085  0.5815151606758846
  0.2323094600920044  0.5307662580136423  0.0705948028874417
  0.4360945941867556  0.4381276899637783  0.3258889433062748
  0.5538090615773399  0.5409301874328634  0.1305168383291146
  0.2323817966830291  0.5343591883879313  0.5805570876296784
  0.8878757548004117  0.5354559365077094  0.1351833690508712
  0.4447787211160232  0.4300723946209857  0.8252125570170037
  0.5528341495870350  0.5395444589267200  0.6322210008031064
  0.1108239128393791  0.7644670220673078  0.3911529428045881
  0.7744926001128647  0.7567176339961250  0.8866038086500438
  0.8836780778704281  0.8713429832317274  0.6425443990817854
  0.4446693142849654  0.7563500223081121  0.3858273084299597
  0.5551560603708978  0.8602008114050008  0.1259306301064811
  0.1189301224258870  0.7543815329790320  0.8734612805985051
  0.4497922829043688  0.7510478743840210  0.8801402772239229
  0.5598794384205092  0.8681869178646409  0.6346168695941969
  0.4469436565319214  0.0913554371557197  0.3436075951866187
  0.1073861000850727  0.0901330541482466  0.8586384701846441
  0.7795929254401770  0.0938665221801642  0.3549215050535182
  0.4555234051035626  0.0878943670832015  0.8533429410129472
  0.1251095125157349  0.4277139403086849  0.3454445329813467
  0.7700039316266327  0.4322468063931950  0.8627831781178088
  0.8856295910573238  0.5451536060434208  0.6055154707751171
  0.1159959802288029  0.4302709406818792  0.8394307773236989
  0.7683531049563044  0.4225644647234006  0.3631206437565027
  0.2317920651642922  0.8586314177978380  0.1241375844501675
  0.2243714601815796  0.8730783434401559  0.6145031580346227
  0.7741207127504737  0.7695419547246587  0.3621623136479997
  0.8890503253294781  0.8770242155519981  0.1029590242239422
  0.2160104514201180  0.1913330956682842  0.3746388263703011
  0.1006520525883445  0.1100021070106791  0.1213788475940518
  0.8763443477093560  0.1943822602221630  0.8876187292461424
  0.7756975810742901  0.0966574883258744  0.6230081658197903
  0.5391313438505065  0.2334659884797290  0.3870490605417416
  0.4474632221048935  0.0942594361188682  0.1047449598426837
  0.1038737929518661  0.1172036418940650  0.6398704081157121
  0.9140570587190027  0.1885932100426828  0.3904017559809319
  0.7607804488579006  0.1202599978869969  0.1332473990236807
  0.5622306114653952  0.2189231414121267  0.8771117464406686
  0.4422891072042390  0.0936898238077148  0.6163502951561100
  0.2342615259770255  0.5531853774731204  0.3820023258853311
  0.1138884329908691  0.4275825552659356  0.1106445998239352
  0.8831889153413996  0.5567212761992835  0.8287965968513475
  0.7666549337707522  0.4184430257828495  0.6032492511029801
  0.5324220833168525  0.5545401537324821  0.3287600048949102
  0.4411665501929818  0.4273686732350086  0.1238304882690997
  0.2375848553791684  0.5382261735714664  0.8699802049582317
  0.1350846621344743  0.4143018225536395  0.6080401647510953
  0.8902813761010080  0.5362156358172356  0.3454156333879652
  0.7766970314065844  0.4282756675658561  0.1067533091420572
  0.5385054535654703  0.5482668056905453  0.8326084829880642
  0.4433671335408675  0.4284749777682890  0.6278847219690888
  0.2227386939030893  0.8718529698602921  0.3585438318254006
  0.1223249565171471  0.7421099993221745  0.0738101954222898
  0.8823004674964565  0.8740393840178484  0.8487551588747451
  0.7646232028886004  0.7889008937430404  0.5815791004469020
  0.5417846079183875  0.8592249273601169  0.3196571398025938
  0.4634853626607551  0.7465973022677090  0.0737396667474997
  0.2342201769504797  0.8542355538618054  0.8448929944757282
  0.0966227275906348  0.7553911673779368  0.5986057189054321
  0.9142637325070240  0.8607517712997819  0.3237964694807616
  0.7708397831950933  0.7487624800873007  0.0882659231119973
  0.5651771226566353  0.8502913062377715  0.8337540253134037
  0.4673928595143479  0.7500225832112548  0.5812079037403990
  0.2249869520033130  0.2035792424244178  0.9004666749599437
 
  0.00000000E+00  0.00000000E+00  0.00000000E+00
  0.00000000E+00  0.00000000E+00  0.00000000E+00
  0.00000000E+00  0.00000000E+00  0.00000000E+00
  0.00000000E+00  0.00000000E+00  0.00000000E+00
  0.00000000E+00  0.00000000E+00  0.00000000E+00
  0.00000000E+00  0.00000000E+00  0.00000000E+00
  0.00000000E+00  0.00000000E+00  0.00000000E+00
  0.00000000E+00  0.00000000E+00  0.00000000E+00
  0.00000000E+00  0.00000000E+00  0.00000000E+00
  0.00000000E+00  0.00000000E+00  0.00000000E+00
  0.00000000E+00  0.00000000E+00  0.00000000E+00
  0.00000000E+00  0.00000000E+00  0.00000000E+00
  0.00000000E+00  0.00000000E+00  0.00000000E+00
  0.00000000E+00  0.00000000E+00  0.00000000E+00
  0.00000000E+00  0.00000000E+00  0.00000000E+00
  0.00000000E+00  0.00000000E+00  0.00000000E+00
  0.00000000E+00  0.00000000E+00  0.00000000E+00
  0.00000000E+00  0.00000000E+00  0.00000000E+00
  0.00000000E+00  0.00000000E+00  0.00000000E+00
  0.00000000E+00  0.00000000E+00  0.00000000E+00
  0.00000000E+00  0.00000000E+00  0.00000000E+00
  0.00000000E+00  0.00000000E+00  0.00000000E+00
  0.00000000E+00  0.00000000E+00  0.00000000E+00
  0.00000000E+00  0.00000000E+00  0.00000000E+00
  0.00000000E+00  0.00000000E+00  0.00000000E+00
  0.00000000E+00  0.00000000E+00  0.00000000E+00
  0.00000000E+00  0.00000000E+00  0.00000000E+00
  0.00000000E+00  0.00000000E+00  0.00000000E+00
  0.00000000E+00  0.00000000E+00  0.00000000E+00
  0.00000000E+00  0.00000000E+00  0.00000000E+00
  0.00000000E+00  0.00000000E+00  0.00000000E+00
  0.00000000E+00  0.00000000E+00  0.00000000E+00
  0.00000000E+00  0.00000000E+00  0.00000000E+00
  0.00000000E+00  0.00000000E+00  0.00000000E+00
  0.00000000E+00  0.00000000E+00  0.00000000E+00
  0.00000000E+00  0.00000000E+00  0.00000000E+00
  0.00000000E+00  0.00000000E+00  0.00000000E+00
  0.00000000E+00  0.00000000E+00  0.00000000E+00
  0.00000000E+00  0.00000000E+00  0.00000000E+00
  0.00000000E+00  0.00000000E+00  0.00000000E+00
  0.00000000E+00  0.00000000E+00  0.00000000E+00
  0.00000000E+00  0.00000000E+00  0.00000000E+00
  0.00000000E+00  0.00000000E+00  0.00000000E+00
  0.00000000E+00  0.00000000E+00  0.00000000E+00
  0.00000000E+00  0.00000000E+00  0.00000000E+00
  0.00000000E+00  0.00000000E+00  0.00000000E+00
  0.00000000E+00  0.00000000E+00  0.00000000E+00
  0.00000000E+00  0.00000000E+00  0.00000000E+00
  0.00000000E+00  0.00000000E+00  0.00000000E+00
  0.00000000E+00  0.00000000E+00  0.00000000E+00
  0.00000000E+00  0.00000000E+00  0.00000000E+00
  0.00000000E+00  0.00000000E+00  0.00000000E+00
  0.00000000E+00  0.00000000E+00  0.00000000E+00
  0.00000000E+00  0.00000000E+00  0.00000000E+00
  0.00000000E+00  0.00000000E+00  0.00000000E+00
  0.00000000E+00  0.00000000E+00  0.00000000E+00
  0.00000000E+00  0.00000000E+00  0.00000000E+00
  0.00000000E+00  0.00000000E+00  0.00000000E+00
  0.00000000E+00  0.00000000E+00  0.00000000E+00
  0.00000000E+00  0.00000000E+00  0.00000000E+00
  0.00000000E+00  0.00000000E+00  0.00000000E+00
  0.00000000E+00  0.00000000E+00  0.00000000E+00
  0.00000000E+00  0.00000000E+00  0.00000000E+00
  0.00000000E+00  0.00000000E+00  0.00000000E+00
  0.00000000E+00  0.00000000E+00  0.00000000E+00
  0.00000000E+00  0.00000000E+00  0.00000000E+00
  0.00000000E+00  0.00000000E+00  0.00000000E+00
  0.00000000E+00  0.00000000E+00  0.00000000E+00
  0.00000000E+00  0.00000000E+00  0.00000000E+00
  0.00000000E+00  0.00000000E+00  0.00000000E+00
  0.00000000E+00  0.00000000E+00  0.00000000E+00
  0.00000000E+00  0.00000000E+00  0.00000000E+00
