supercell of icsd_608626.cif            
   1.00000000000000     
    10.3679087486981558    0.0081514636257258    0.0030291694144383
    -5.1769351923466873    8.9727167482160191    0.0038096654872805
     0.0047972540759198    0.0048340152330443    9.2960802223593042
   Sc   Al   N 
    20    16    36
Direct
  0.2217562604850585  0.1148628336055921  0.2255234974466518
  0.8819878729064570  0.1153438416785804  0.7254768647245697
  0.5636365451675118  0.1108528101999227  0.2257543651831142
  0.4494443256086242  0.2237543714748114  0.4821257365823328
  0.1121159683871937  0.2237033618923689  0.9682053280375200
  0.8851034360511676  0.1133648113975170  0.2336370279271733
  0.2164360025205454  0.4428309374902710  0.2275420854439929
  0.1015812244628975  0.5547928327272587  0.4831657733626997
  0.5655203528848460  0.4478880853338438  0.2180528196867684
  0.4500664362423308  0.5526425351878288  0.4681646610981502
  0.2306301180300210  0.4470055306236773  0.7239888368331719
  0.0987060913619686  0.5500761703710140  0.9716116054564523
  0.2324870540719601  0.7783233519577308  0.2287861341642810
  0.1167996668411462  0.8944518128983105  0.4824094740925631
  0.8855148979002365  0.7654440032059711  0.7250043249858180
  0.7693300823397706  0.8814188082523984  0.9774609274087638
  0.1116257966667433  0.8877252888383467  0.9754205503326716
  0.8817852556532486  0.7671757443054261  0.2340071823012764
  0.5518956313060741  0.7694597298462469  0.7179398912245603
  0.4534516641892665  0.8904582821620650  0.9685405096278714
  0.1090133638628075  0.2173101553069969  0.5016137041852673
  0.7769746223346559  0.2328693676373490  0.9909942209176492
  0.2360638896628373  0.1147019702507706  0.7463919680527979
  0.7703409359104398  0.2232681787585520  0.4938719190082566
  0.5574043826996871  0.1239580231379449  0.7469783524246623
  0.4515587041605116  0.2271800448034114  0.9902150521805240
  0.8710405149712344  0.4375619612446897  0.7377455438203384
  0.7762099362305079  0.5464974841623089  0.9864931439424467
  0.8837504365105247  0.4424307445664155  0.2472302731871707
  0.7673526022768655  0.5434061788318516  0.4971364679762615
  0.5532962041866654  0.4373250136130338  0.7505007964449177
  0.4476835824618490  0.5591800313835122  0.9969309026673585
  0.5592557487834924  0.7850594090312981  0.2504148421807457
  0.4540645720647731  0.9010304681539907  0.5004850106969201
  0.2253848687290656  0.7851676195373116  0.7387295866157615
  0.7790691141985207  0.8912358909100604  0.4923399268461708
  0.2168159051513499  0.1215678874285189  0.4556862040915348
  0.1058008434445625  0.2212259078009282  0.1915851962385418
  0.8738421627507336  0.1184651970211235  0.9553427228946489
  0.7638108314647383  0.2303148876210770  0.6963744915749288
  0.5644043046966161  0.1046137875810942  0.4536109756695339
  0.4470311607102957  0.2213315128286553  0.2018114057616387
  0.2428077240512465  0.1202931789692272  0.9572435982329850
  0.1200906313099139  0.2129143493869421  0.7156494175551984
  0.8902861928310983  0.1135612668701427  0.4719716797039197
  0.7893884959621360  0.2422626124800118  0.1971689085742767
  0.5664559586714475  0.1318013665512865  0.9559315647901130
  0.4473926316934325  0.2253093256963226  0.7129235223253616
  0.2087896268239078  0.4280411058963622  0.4698841381459786
  0.0925363967209236  0.5478413338691155  0.2161380975583640
  0.8679729746496818  0.4343534992557423  0.9396508958521395
  0.7590499252268970  0.5320897243831979  0.7016412273141839
  0.5704560822645703  0.4477646927301109  0.4413629830605643
  0.4529081685734795  0.5743479373860509  0.2132434070130955
  0.2385425066735962  0.4558493982533705  0.9623177480802596
  0.0989018591555251  0.5647558011866423  0.7152811263630454
  0.8677152828415444  0.4347999792524462  0.4538312001209945
  0.7892589336202462  0.5455099426169951  0.1901204948897401
  0.5544048939774981  0.4455525749390290  0.9620393363740831
  0.4539979266002661  0.5399729312447690  0.6936817736627390
  0.2456069738853728  0.7897862865014105  0.4604202563572883
  0.1099383645897589  0.8862006952321480  0.2140403547031582
  0.8792512077934092  0.7578424322319108  0.9568036757274641
  0.7793961119928952  0.8881753459706374  0.7063613823722363
  0.5646883197665460  0.7963173418448548  0.4648086845506825
  0.4596937479848506  0.8833741970483189  0.1935543099123649
  0.2249064549188944  0.7770426254080505  0.9554131037122744
  0.1278250458249843  0.8998318807081915  0.7175504834005437
  0.8743828730408580  0.7651939814003867  0.4713498862488237
  0.7634959228955367  0.8806968483276520  0.2093731335554025
  0.5476236705938007  0.7569359415366250  0.9405983739241819
  0.4421917247259017  0.9043045377620516  0.7123449326200912
 
  0.00000000E+00  0.00000000E+00  0.00000000E+00
  0.00000000E+00  0.00000000E+00  0.00000000E+00
  0.00000000E+00  0.00000000E+00  0.00000000E+00
  0.00000000E+00  0.00000000E+00  0.00000000E+00
  0.00000000E+00  0.00000000E+00  0.00000000E+00
  0.00000000E+00  0.00000000E+00  0.00000000E+00
  0.00000000E+00  0.00000000E+00  0.00000000E+00
  0.00000000E+00  0.00000000E+00  0.00000000E+00
  0.00000000E+00  0.00000000E+00  0.00000000E+00
  0.00000000E+00  0.00000000E+00  0.00000000E+00
  0.00000000E+00  0.00000000E+00  0.00000000E+00
  0.00000000E+00  0.00000000E+00  0.00000000E+00
  0.00000000E+00  0.00000000E+00  0.00000000E+00
  0.00000000E+00  0.00000000E+00  0.00000000E+00
  0.00000000E+00  0.00000000E+00  0.00000000E+00
  0.00000000E+00  0.00000000E+00  0.00000000E+00
  0.00000000E+00  0.00000000E+00  0.00000000E+00
  0.00000000E+00  0.00000000E+00  0.00000000E+00
  0.00000000E+00  0.00000000E+00  0.00000000E+00
  0.00000000E+00  0.00000000E+00  0.00000000E+00
  0.00000000E+00  0.00000000E+00  0.00000000E+00
  0.00000000E+00  0.00000000E+00  0.00000000E+00
  0.00000000E+00  0.00000000E+00  0.00000000E+00
  0.00000000E+00  0.00000000E+00  0.00000000E+00
  0.00000000E+00  0.00000000E+00  0.00000000E+00
  0.00000000E+00  0.00000000E+00  0.00000000E+00
  0.00000000E+00  0.00000000E+00  0.00000000E+00
  0.00000000E+00  0.00000000E+00  0.00000000E+00
  0.00000000E+00  0.00000000E+00  0.00000000E+00
  0.00000000E+00  0.00000000E+00  0.00000000E+00
  0.00000000E+00  0.00000000E+00  0.00000000E+00
  0.00000000E+00  0.00000000E+00  0.00000000E+00
  0.00000000E+00  0.00000000E+00  0.00000000E+00
  0.00000000E+00  0.00000000E+00  0.00000000E+00
  0.00000000E+00  0.00000000E+00  0.00000000E+00
  0.00000000E+00  0.00000000E+00  0.00000000E+00
  0.00000000E+00  0.00000000E+00  0.00000000E+00
  0.00000000E+00  0.00000000E+00  0.00000000E+00
  0.00000000E+00  0.00000000E+00  0.00000000E+00
  0.00000000E+00  0.00000000E+00  0.00000000E+00
  0.00000000E+00  0.00000000E+00  0.00000000E+00
  0.00000000E+00  0.00000000E+00  0.00000000E+00
  0.00000000E+00  0.00000000E+00  0.00000000E+00
  0.00000000E+00  0.00000000E+00  0.00000000E+00
  0.00000000E+00  0.00000000E+00  0.00000000E+00
  0.00000000E+00  0.00000000E+00  0.00000000E+00
  0.00000000E+00  0.00000000E+00  0.00000000E+00
  0.00000000E+00  0.00000000E+00  0.00000000E+00
  0.00000000E+00  0.00000000E+00  0.00000000E+00
  0.00000000E+00  0.00000000E+00  0.00000000E+00
  0.00000000E+00  0.00000000E+00  0.00000000E+00
  0.00000000E+00  0.00000000E+00  0.00000000E+00
  0.00000000E+00  0.00000000E+00  0.00000000E+00
  0.00000000E+00  0.00000000E+00  0.00000000E+00
  0.00000000E+00  0.00000000E+00  0.00000000E+00
  0.00000000E+00  0.00000000E+00  0.00000000E+00
  0.00000000E+00  0.00000000E+00  0.00000000E+00
  0.00000000E+00  0.00000000E+00  0.00000000E+00
  0.00000000E+00  0.00000000E+00  0.00000000E+00
  0.00000000E+00  0.00000000E+00  0.00000000E+00
  0.00000000E+00  0.00000000E+00  0.00000000E+00
  0.00000000E+00  0.00000000E+00  0.00000000E+00
  0.00000000E+00  0.00000000E+00  0.00000000E+00
  0.00000000E+00  0.00000000E+00  0.00000000E+00
  0.00000000E+00  0.00000000E+00  0.00000000E+00
  0.00000000E+00  0.00000000E+00  0.00000000E+00
  0.00000000E+00  0.00000000E+00  0.00000000E+00
  0.00000000E+00  0.00000000E+00  0.00000000E+00
  0.00000000E+00  0.00000000E+00  0.00000000E+00
  0.00000000E+00  0.00000000E+00  0.00000000E+00
  0.00000000E+00  0.00000000E+00  0.00000000E+00
  0.00000000E+00  0.00000000E+00  0.00000000E+00
