Al   B    N                             
   1.00000000000000     
    -9.3225415127284883   -0.0036270986743678   -0.0088431687309025
    -4.6446490160344140    8.0914834176858967   -0.0072377299973883
     0.0143503200494862   -0.0221042771799807  -10.1301773381925315
   Al   B    N 
    34     2    36
Direct
  0.1010242812829816  0.1004869085061060  0.3955760831082529
  0.2232359382167530  0.2002176273464613  0.1376971033895131
  0.7785139185908179  0.0966849546966273  0.8119231993955509
  0.4372604621818041  0.0963143568825089  0.3920696223563027
  0.5587290721372682  0.2077557184718515  0.0668254083877713
  0.1133950817284202  0.0958113550822901  0.8780365041864826
  0.2155624289712534  0.2102896912548147  0.6401199621286153
  0.7735301219199258  0.0895473354538368  0.3166853366213545
  0.8914817801401469  0.2069081779235447  0.1348725234159431
  0.4388738346293550  0.0944188162007009  0.8795728314589013
  0.5632811197850103  0.2117231112182196  0.5708858768693972
  0.1090691589025781  0.4234844241464444  0.3844113066521757
  0.2241334070062635  0.5414015496229538  0.0741684892234531
  0.7785315153504300  0.4308523195236944  0.8788894319156455
  0.8945872330292417  0.5289272777774841  0.6391016560925351
  0.4471085682585070  0.4287784578961364  0.3193093968482899
  0.5476042876303708  0.5463035029547783  0.0635949183191826
  0.1081482583329745  0.4259266071867600  0.8923479614982099
  0.2245713554707010  0.5421063679472837  0.5667779209947952
  0.7839626353434710  0.4161639051724038  0.3960900544418990
  0.8864096917411786  0.5354019946924637  0.1375096133785902
  0.4412474026696032  0.4353682504768912  0.8185517960940771
  0.5540030310823951  0.5392234127439437  0.5817120930352289
  0.1128394245892110  0.7633187708568414  0.3193585527772669
  0.2293295500104477  0.8648546140860915  0.0634766058303669
  0.7731548926339684  0.7648919765664601  0.8291377875625514
  0.8924133496928732  0.8790046512216918  0.5717543251454984
  0.4438306158226055  0.7597192796248251  0.3232759937326932
  0.5557741356298607  0.8625722336193178  0.0644896488315112
  0.1183352859319413  0.7584092243557592  0.8187592357394990
  0.2215059068727996  0.8717053319167363  0.5820528034825898
  0.7768309201995294  0.7591579558999442  0.3520968035527332
  0.8887266422065636  0.8718473753569356  0.0655683263211699
  0.5535068180636173  0.8685672091388028  0.5840740434864600
  0.8933939083480169  0.2099693238837403  0.6466076782160002
  0.4436540611793589  0.7603978239837090  0.8153519188918068
  0.2209962094293303  0.2006317873238288  0.3272081141381591
  0.1071874016947874  0.0968140721793631  0.0688444213954469
  0.8956797101179959  0.2127129346187147  0.8081489337927295
  0.7887797580882534  0.1055902585270871  0.6236285195060915
  0.5570570583686418  0.2087883681332272  0.3796377931395654
  0.4398255281388472  0.0942461674461299  0.0745510924390445
  0.2208177864971859  0.2102301134809537  0.8250909248014935
  0.0831547144296678  0.1112737149524534  0.5888370737277384
  0.8908564344765324  0.2058819086967958  0.3232605421182555
  0.7749022179428877  0.0896817999315189  0.1272730820778705
  0.5606106432166627  0.2112933656900111  0.8751816467739459
  0.4382506086410061  0.1002008037085318  0.5870371502506586
  0.2248417633747835  0.5414159729044954  0.3751269448313295
  0.1087238102870387  0.4231942064225009  0.0830963855428308
  0.8941770782398351  0.5353597460938104  0.8263641032950986
  0.7934648485526878  0.3998723519599068  0.5887240556100224
  0.5517378434168378  0.5419250667615572  0.3891901069265202
  0.4470484033000659  0.4282162300906762  0.1302725958748425
  0.2244317424131523  0.5419711100526499  0.8832653366623973
  0.1089299084404800  0.4256161637335865  0.5741204001102673
  0.8875003012098972  0.5317062350944397  0.3297098858783514
  0.7797449191903354  0.4229718416370361  0.0693093594365806
  0.5391410399774941  0.5673318611033480  0.8697554781065406
  0.4415232168844696  0.4295204611521157  0.6323620167869493
  0.2257166580788947  0.8683003485339995  0.3894409845281714
  0.1109241804441794  0.7643517354173568  0.1299995208864075
  0.8918210705857135  0.8770343871230892  0.8754817824222343
  0.7789157471557431  0.7641108974512107  0.6211421312689396
  0.5542606460995998  0.8653809941923143  0.3886000634002471
  0.4433075601075558  0.7603115192858851  0.1356031997092941
  0.2501531925380647  0.8565331019852636  0.8696203418820048
  0.1117729123866340  0.7590806852909111  0.6324220552645556
  0.8916144483258037  0.8719173930274380  0.3824375884077256
  0.7769432347081846  0.7599180810343071  0.1069032468615845
  0.5425439376496541  0.8568768855622935  0.8678627777652608
  0.4431610368603813  0.7605889869031159  0.6531673228619397
 
  0.00000000E+00  0.00000000E+00  0.00000000E+00
  0.00000000E+00  0.00000000E+00  0.00000000E+00
  0.00000000E+00  0.00000000E+00  0.00000000E+00
  0.00000000E+00  0.00000000E+00  0.00000000E+00
  0.00000000E+00  0.00000000E+00  0.00000000E+00
  0.00000000E+00  0.00000000E+00  0.00000000E+00
  0.00000000E+00  0.00000000E+00  0.00000000E+00
  0.00000000E+00  0.00000000E+00  0.00000000E+00
  0.00000000E+00  0.00000000E+00  0.00000000E+00
  0.00000000E+00  0.00000000E+00  0.00000000E+00
  0.00000000E+00  0.00000000E+00  0.00000000E+00
  0.00000000E+00  0.00000000E+00  0.00000000E+00
  0.00000000E+00  0.00000000E+00  0.00000000E+00
  0.00000000E+00  0.00000000E+00  0.00000000E+00
  0.00000000E+00  0.00000000E+00  0.00000000E+00
  0.00000000E+00  0.00000000E+00  0.00000000E+00
  0.00000000E+00  0.00000000E+00  0.00000000E+00
  0.00000000E+00  0.00000000E+00  0.00000000E+00
  0.00000000E+00  0.00000000E+00  0.00000000E+00
  0.00000000E+00  0.00000000E+00  0.00000000E+00
  0.00000000E+00  0.00000000E+00  0.00000000E+00
  0.00000000E+00  0.00000000E+00  0.00000000E+00
  0.00000000E+00  0.00000000E+00  0.00000000E+00
  0.00000000E+00  0.00000000E+00  0.00000000E+00
  0.00000000E+00  0.00000000E+00  0.00000000E+00
  0.00000000E+00  0.00000000E+00  0.00000000E+00
  0.00000000E+00  0.00000000E+00  0.00000000E+00
  0.00000000E+00  0.00000000E+00  0.00000000E+00
  0.00000000E+00  0.00000000E+00  0.00000000E+00
  0.00000000E+00  0.00000000E+00  0.00000000E+00
  0.00000000E+00  0.00000000E+00  0.00000000E+00
  0.00000000E+00  0.00000000E+00  0.00000000E+00
  0.00000000E+00  0.00000000E+00  0.00000000E+00
  0.00000000E+00  0.00000000E+00  0.00000000E+00
  0.00000000E+00  0.00000000E+00  0.00000000E+00
  0.00000000E+00  0.00000000E+00  0.00000000E+00
  0.00000000E+00  0.00000000E+00  0.00000000E+00
  0.00000000E+00  0.00000000E+00  0.00000000E+00
  0.00000000E+00  0.00000000E+00  0.00000000E+00
  0.00000000E+00  0.00000000E+00  0.00000000E+00
  0.00000000E+00  0.00000000E+00  0.00000000E+00
  0.00000000E+00  0.00000000E+00  0.00000000E+00
  0.00000000E+00  0.00000000E+00  0.00000000E+00
  0.00000000E+00  0.00000000E+00  0.00000000E+00
  0.00000000E+00  0.00000000E+00  0.00000000E+00
  0.00000000E+00  0.00000000E+00  0.00000000E+00
  0.00000000E+00  0.00000000E+00  0.00000000E+00
  0.00000000E+00  0.00000000E+00  0.00000000E+00
  0.00000000E+00  0.00000000E+00  0.00000000E+00
  0.00000000E+00  0.00000000E+00  0.00000000E+00
  0.00000000E+00  0.00000000E+00  0.00000000E+00
  0.00000000E+00  0.00000000E+00  0.00000000E+00
  0.00000000E+00  0.00000000E+00  0.00000000E+00
  0.00000000E+00  0.00000000E+00  0.00000000E+00
  0.00000000E+00  0.00000000E+00  0.00000000E+00
  0.00000000E+00  0.00000000E+00  0.00000000E+00
  0.00000000E+00  0.00000000E+00  0.00000000E+00
  0.00000000E+00  0.00000000E+00  0.00000000E+00
  0.00000000E+00  0.00000000E+00  0.00000000E+00
  0.00000000E+00  0.00000000E+00  0.00000000E+00
  0.00000000E+00  0.00000000E+00  0.00000000E+00
  0.00000000E+00  0.00000000E+00  0.00000000E+00
  0.00000000E+00  0.00000000E+00  0.00000000E+00
  0.00000000E+00  0.00000000E+00  0.00000000E+00
  0.00000000E+00  0.00000000E+00  0.00000000E+00
  0.00000000E+00  0.00000000E+00  0.00000000E+00
  0.00000000E+00  0.00000000E+00  0.00000000E+00
  0.00000000E+00  0.00000000E+00  0.00000000E+00
  0.00000000E+00  0.00000000E+00  0.00000000E+00
  0.00000000E+00  0.00000000E+00  0.00000000E+00
  0.00000000E+00  0.00000000E+00  0.00000000E+00
  0.00000000E+00  0.00000000E+00  0.00000000E+00
