supercell of 100% icsd_608626.cif, 0% i 
   1.00000000000000     
    -9.5895003678596140    0.0106249653259219   -0.0038738870953621
    -4.8039483715491480    8.3247233198895891   -0.0055884659303170
    -0.0041619772600944    0.0045304319889733  -10.1354659942839405
   Al   Zr   Mg   N 
    30     3     3    36
Direct
  0.1082322882904947  0.0987531740328009  0.2913865738841821
  0.2159427476577704  0.2059215505658969  0.0461381131041847
  0.7822701234695870  0.0995266962544505  0.7901664375982804
  0.8819695572142052  0.2146423744084416  0.5455192723351843
  0.4409892269200242  0.0914442303406986  0.3019943922877317
  0.1090392114446814  0.1015890312525087  0.7997973952124298
  0.2183051307030439  0.2134919170208178  0.5427700226841523
  0.7837451704352389  0.0918983320202500  0.3003675524839764
  0.8928891220897412  0.2089832412423362  0.0461436791976411
  0.4361744325642434  0.0955578600169318  0.7907551741040635
  0.5559457592558772  0.2065167927595439  0.5451249477877553
  0.1122959193072361  0.4273150644842616  0.2963497275944391
  0.2177341304864058  0.5442192196417963  0.0462687001939059
  0.7773157400395121  0.4236887344051681  0.7953435451962889
  0.8903333107420579  0.5348911105198155  0.5390118301219502
  0.4415391860037019  0.4340061975851768  0.3019838540566226
  0.5575029067736494  0.5425829513196447  0.0458743297571758
  0.2205540684303244  0.5334818105414030  0.5433968417787298
  0.7766154964740011  0.4271457936529259  0.2952137343929806
  0.8909718243249642  0.5324486077784201  0.0526659984317916
  0.4412526178631992  0.4328792871182827  0.7909032495310129
  0.5618236619786927  0.5330513784952799  0.5457677390525930
  0.1093703434638940  0.7588601859735746  0.2896537206082357
  0.4475787616175637  0.7577130991013448  0.2916442509723822
  0.5512850620453946  0.8683283951675733  0.0506995045896304
  0.1183870768253641  0.7567032572188594  0.8005420684233968
  0.7784627258028678  0.7613368661047701  0.2907857656933572
  0.8974469042324174  0.8703076494034647  0.0534440559481979
  0.4457682781998997  0.7570986910619411  0.7984483100673287
  0.5597502077385883  0.8688824337178644  0.5405511419668301
  0.5534117717866067  0.2065962791119702  0.0523703891020659
  0.7810831125671811  0.7587540281637075  0.8036394848477144
  0.2199856649997969  0.8733559680288465  0.5594725288817557
  0.1173245393589042  0.4227508425286288  0.7960478002604390
  0.2221885040193072  0.8740015461469213  0.0433024095802850
  0.8847963552839744  0.8728889828830688  0.5402162798680124
  0.2212349075099951  0.2047614781133973  0.3544059078424056
  0.1025420402257637  0.1092726367429862  0.1069641508272525
  0.8873797847744029  0.2074656060449769  0.8564212366237882
  0.7718912737448065  0.1089629039390303  0.6042394977884484
  0.5548692944993405  0.2056078656815998  0.3484565640938655
  0.4349478080401710  0.0847115806751972  0.1129133437963503
  0.2299497542026856  0.1923063246072729  0.8603982474792673
  0.0976878002830475  0.1197370007051717  0.6090705331986896
  0.8885197353199032  0.2071116304027854  0.3564959537990617
  0.7941188727067612  0.0901621890212141  0.1095441379863900
  0.5548257190649366  0.2042037974520170  0.8427843942055659
  0.4440460178613321  0.0920098415868367  0.5996916377966670
  0.2217349467045153  0.5398413453922757  0.3541025938841003
  0.1146509374593023  0.4261697257925974  0.1054474471766440
  0.8844310247684746  0.5247698362518207  0.8661730158166634
  0.7778840875830610  0.4294232462916554  0.6046714628842196
  0.5563192288498229  0.5388905240059572  0.3572333854042924
  0.4370350833145338  0.4459569443621589  0.1121197547740920
  0.2318986025651810  0.5434506974084456  0.8606247151238477
  0.1088207474901637  0.4287482022795146  0.5907528428127193
  0.8871139004147324  0.5390796698841456  0.3473450190925149
  0.7753988956314046  0.4262313198367380  0.1069297705562917
  0.5566698420067908  0.5359351208035505  0.8543511412303886
  0.4435476096865330  0.4280348078826819  0.6005056642264037
  0.2218417850332770  0.8724757809869956  0.3460298340525867
  0.1084724593343793  0.7535209980934496  0.1056775827597818
  0.8993469082874270  0.8852974107513703  0.8615272755333336
  0.7725320588865898  0.7510364421072353  0.5984799547785258
  0.5562293438704486  0.8700468569090063  0.3524593922298749
  0.4581524879192784  0.7519932438637369  0.1068766201618914
  0.2227108277790251  0.8754752669640524  0.8273679278480017
  0.1135611617933847  0.7420223866085038  0.6131160999904637
  0.8883447991655800  0.8712383323199617  0.3388747164702792
  0.7769274999465736  0.7626984141099129  0.0955047436292205
  0.5381993501764128  0.8808488514263502  0.8604923268175497
  0.4658824626895566  0.7488881406260859  0.6081902857118138
 
  0.00000000E+00  0.00000000E+00  0.00000000E+00
  0.00000000E+00  0.00000000E+00  0.00000000E+00
  0.00000000E+00  0.00000000E+00  0.00000000E+00
  0.00000000E+00  0.00000000E+00  0.00000000E+00
  0.00000000E+00  0.00000000E+00  0.00000000E+00
  0.00000000E+00  0.00000000E+00  0.00000000E+00
  0.00000000E+00  0.00000000E+00  0.00000000E+00
  0.00000000E+00  0.00000000E+00  0.00000000E+00
  0.00000000E+00  0.00000000E+00  0.00000000E+00
  0.00000000E+00  0.00000000E+00  0.00000000E+00
  0.00000000E+00  0.00000000E+00  0.00000000E+00
  0.00000000E+00  0.00000000E+00  0.00000000E+00
  0.00000000E+00  0.00000000E+00  0.00000000E+00
  0.00000000E+00  0.00000000E+00  0.00000000E+00
  0.00000000E+00  0.00000000E+00  0.00000000E+00
  0.00000000E+00  0.00000000E+00  0.00000000E+00
  0.00000000E+00  0.00000000E+00  0.00000000E+00
  0.00000000E+00  0.00000000E+00  0.00000000E+00
  0.00000000E+00  0.00000000E+00  0.00000000E+00
  0.00000000E+00  0.00000000E+00  0.00000000E+00
  0.00000000E+00  0.00000000E+00  0.00000000E+00
  0.00000000E+00  0.00000000E+00  0.00000000E+00
  0.00000000E+00  0.00000000E+00  0.00000000E+00
  0.00000000E+00  0.00000000E+00  0.00000000E+00
  0.00000000E+00  0.00000000E+00  0.00000000E+00
  0.00000000E+00  0.00000000E+00  0.00000000E+00
  0.00000000E+00  0.00000000E+00  0.00000000E+00
  0.00000000E+00  0.00000000E+00  0.00000000E+00
  0.00000000E+00  0.00000000E+00  0.00000000E+00
  0.00000000E+00  0.00000000E+00  0.00000000E+00
  0.00000000E+00  0.00000000E+00  0.00000000E+00
  0.00000000E+00  0.00000000E+00  0.00000000E+00
  0.00000000E+00  0.00000000E+00  0.00000000E+00
  0.00000000E+00  0.00000000E+00  0.00000000E+00
  0.00000000E+00  0.00000000E+00  0.00000000E+00
  0.00000000E+00  0.00000000E+00  0.00000000E+00
  0.00000000E+00  0.00000000E+00  0.00000000E+00
  0.00000000E+00  0.00000000E+00  0.00000000E+00
  0.00000000E+00  0.00000000E+00  0.00000000E+00
  0.00000000E+00  0.00000000E+00  0.00000000E+00
  0.00000000E+00  0.00000000E+00  0.00000000E+00
  0.00000000E+00  0.00000000E+00  0.00000000E+00
  0.00000000E+00  0.00000000E+00  0.00000000E+00
  0.00000000E+00  0.00000000E+00  0.00000000E+00
  0.00000000E+00  0.00000000E+00  0.00000000E+00
  0.00000000E+00  0.00000000E+00  0.00000000E+00
  0.00000000E+00  0.00000000E+00  0.00000000E+00
  0.00000000E+00  0.00000000E+00  0.00000000E+00
  0.00000000E+00  0.00000000E+00  0.00000000E+00
  0.00000000E+00  0.00000000E+00  0.00000000E+00
  0.00000000E+00  0.00000000E+00  0.00000000E+00
  0.00000000E+00  0.00000000E+00  0.00000000E+00
  0.00000000E+00  0.00000000E+00  0.00000000E+00
  0.00000000E+00  0.00000000E+00  0.00000000E+00
  0.00000000E+00  0.00000000E+00  0.00000000E+00
  0.00000000E+00  0.00000000E+00  0.00000000E+00
  0.00000000E+00  0.00000000E+00  0.00000000E+00
  0.00000000E+00  0.00000000E+00  0.00000000E+00
  0.00000000E+00  0.00000000E+00  0.00000000E+00
  0.00000000E+00  0.00000000E+00  0.00000000E+00
  0.00000000E+00  0.00000000E+00  0.00000000E+00
  0.00000000E+00  0.00000000E+00  0.00000000E+00
  0.00000000E+00  0.00000000E+00  0.00000000E+00
  0.00000000E+00  0.00000000E+00  0.00000000E+00
  0.00000000E+00  0.00000000E+00  0.00000000E+00
  0.00000000E+00  0.00000000E+00  0.00000000E+00
  0.00000000E+00  0.00000000E+00  0.00000000E+00
  0.00000000E+00  0.00000000E+00  0.00000000E+00
  0.00000000E+00  0.00000000E+00  0.00000000E+00
  0.00000000E+00  0.00000000E+00  0.00000000E+00
  0.00000000E+00  0.00000000E+00  0.00000000E+00
  0.00000000E+00  0.00000000E+00  0.00000000E+00
