supercell of 100% icsd_608626.cif, 0% i 
   1.00000000000000     
    -9.6138517469713829   -0.0116663420440591   -0.0007028108234987
    -4.7968301032050515    8.3073715339032734   -0.0022793851254299
    -0.0006775527100640    0.0023905212288844  -10.1189895323913071
   Al   Zr   Mg   N 
    30     3     3    36
Direct
  0.1173913683912602  0.0883720166909967  0.2955741643874248
  0.2165785080290874  0.2106116062442638  0.0456744240322848
  0.8955105252124014  0.1991980042533541  0.5466842838476254
  0.4403228653953803  0.0996898874948542  0.3004709715292933
  0.5454942653934509  0.2154164279044508  0.0512388974666962
  0.1183125398373193  0.0933766401720888  0.7941863566229941
  0.2197889552951864  0.2087434219762159  0.5472011309595217
  0.7772966033039879  0.0891894784003213  0.2942308947273133
  0.8949231013124290  0.2063336575974262  0.0472726121200324
  0.4355764731576315  0.0996214269126199  0.7889079911840398
  0.5503333191946496  0.2098279152881943  0.5420642536108176
  0.1175378084208134  0.4289460159266483  0.2934797189034839
  0.2234818199347473  0.5380517933875382  0.0472937790035033
  0.7773399726887078  0.4340609710640706  0.7884290294464193
  0.8975901764215877  0.5394769447738383  0.5520240895512245
  0.4345514464236189  0.4307272588772051  0.2940662728755115
  0.1127122256907427  0.4258545173095882  0.7950459682298501
  0.8992212678385343  0.5321906380465933  0.0414450476303685
  0.4402363376848797  0.4325264505907143  0.7921710924053755
  0.5469111121230341  0.5409210210694440  0.5541432782989801
  0.1138401669582194  0.7590759058880323  0.2958251632585558
  0.2160969759767539  0.8733970189275340  0.0448677629560805
  0.7825425959251007  0.7536476968217443  0.7901214124685083
  0.8940954044171932  0.8679114284862237  0.5429903997778496
  0.4331538249204812  0.7656683578920749  0.3001181388439988
  0.1161154144974290  0.7569859114190294  0.7938349796625630
  0.2189847699305361  0.8729584443278711  0.5478378107659196
  0.7853618316417084  0.7620999053913167  0.2996353223585615
  0.8991457307246264  0.8642241705355787  0.0505756985020795
  0.4419375655659294  0.7589386722407525  0.7882960537027088
  0.7756848041321902  0.0938750409727263  0.8024377735221364
  0.7766957445298246  0.4303830380223559  0.3086683717999108
  0.5556229531863934  0.8710957742006968  0.0584442840420678
  0.5532498254408154  0.5345020751549683  0.0404855592273989
  0.2212429201387209  0.5394010121161372  0.5489175489116320
  0.5559673838979080  0.8718934616388196  0.5447520098238314
  0.2190879326223794  0.2070874897340431  0.3544725918046510
  0.1118955087072777  0.0937538952808481  0.1049978780945295
  0.8987008858824623  0.2151445869890907  0.8556923289497291
  0.7763630741652889  0.0936505221579154  0.5946241054826586
  0.5568647939640243  0.2059656479134162  0.3512680633361143
  0.4309135674859235  0.1141487392114087  0.1104491865231338
  0.2224822482698343  0.2042921092907122  0.8570072410340543
  0.1123128024994955  0.0943643466856088  0.6052546263014733
  0.8993399055374312  0.1844653322764742  0.3563777716137793
  0.7771448167296100  0.0941870602120005  0.0965039762112170
  0.5353404461873339  0.2142787192369369  0.8617457328400491
  0.4364653181572749  0.1095268454595626  0.6030804222225896
  0.2197568963276595  0.5410440709939479  0.3440840337285636
  0.1119910317026722  0.4269923410840306  0.1021714846767736
  0.8893076162281659  0.5379420194390576  0.8527138449511895
  0.7795842841277576  0.4269390595143605  0.5913475343792527
  0.5336041772725224  0.5487584595300348  0.3602813318948606
  0.4364156838585771  0.4243035153601582  0.1083662496448596
  0.2223527139705865  0.5390306448582294  0.8542986784205198
  0.1060695660371991  0.4184283450268040  0.6111999489176796
  0.9022841847582086  0.5474874001636749  0.3613444534260495
  0.7928148455623472  0.4225483436315187  0.1026349151140167
  0.5586538514155492  0.5377328591150743  0.8379389702648012
  0.4583508177525815  0.4171880025256343  0.6079606371685600
  0.2180250511770723  0.8744101357210212  0.3569161499464428
  0.1127838072268688  0.7612244703214088  0.1048794533748776
  0.8981909209524304  0.8526857338350879  0.8622413393273973
  0.7929246225934747  0.7555558811539314  0.6054314845707154
  0.5580607205779060  0.8705645639081538  0.3288833103410980
  0.4249041985174316  0.7650777905835184  0.1121176340514509
  0.2215374723026002  0.8734297462026959  0.8555198821851562
  0.1016091863855308  0.7785499960321900  0.6094928508844504
  0.8911006467857305  0.8730609666975937  0.3519491988554506
  0.8020990458212154  0.7460882376628888  0.1100011992871970
  0.5561109797404669  0.8728816476438297  0.8439410816489783
  0.4337077750638372  0.7580164665309113  0.6033978620690164
 
  0.00000000E+00  0.00000000E+00  0.00000000E+00
  0.00000000E+00  0.00000000E+00  0.00000000E+00
  0.00000000E+00  0.00000000E+00  0.00000000E+00
  0.00000000E+00  0.00000000E+00  0.00000000E+00
  0.00000000E+00  0.00000000E+00  0.00000000E+00
  0.00000000E+00  0.00000000E+00  0.00000000E+00
  0.00000000E+00  0.00000000E+00  0.00000000E+00
  0.00000000E+00  0.00000000E+00  0.00000000E+00
  0.00000000E+00  0.00000000E+00  0.00000000E+00
  0.00000000E+00  0.00000000E+00  0.00000000E+00
  0.00000000E+00  0.00000000E+00  0.00000000E+00
  0.00000000E+00  0.00000000E+00  0.00000000E+00
  0.00000000E+00  0.00000000E+00  0.00000000E+00
  0.00000000E+00  0.00000000E+00  0.00000000E+00
  0.00000000E+00  0.00000000E+00  0.00000000E+00
  0.00000000E+00  0.00000000E+00  0.00000000E+00
  0.00000000E+00  0.00000000E+00  0.00000000E+00
  0.00000000E+00  0.00000000E+00  0.00000000E+00
  0.00000000E+00  0.00000000E+00  0.00000000E+00
  0.00000000E+00  0.00000000E+00  0.00000000E+00
  0.00000000E+00  0.00000000E+00  0.00000000E+00
  0.00000000E+00  0.00000000E+00  0.00000000E+00
  0.00000000E+00  0.00000000E+00  0.00000000E+00
  0.00000000E+00  0.00000000E+00  0.00000000E+00
  0.00000000E+00  0.00000000E+00  0.00000000E+00
  0.00000000E+00  0.00000000E+00  0.00000000E+00
  0.00000000E+00  0.00000000E+00  0.00000000E+00
  0.00000000E+00  0.00000000E+00  0.00000000E+00
  0.00000000E+00  0.00000000E+00  0.00000000E+00
  0.00000000E+00  0.00000000E+00  0.00000000E+00
  0.00000000E+00  0.00000000E+00  0.00000000E+00
  0.00000000E+00  0.00000000E+00  0.00000000E+00
  0.00000000E+00  0.00000000E+00  0.00000000E+00
  0.00000000E+00  0.00000000E+00  0.00000000E+00
  0.00000000E+00  0.00000000E+00  0.00000000E+00
  0.00000000E+00  0.00000000E+00  0.00000000E+00
  0.00000000E+00  0.00000000E+00  0.00000000E+00
  0.00000000E+00  0.00000000E+00  0.00000000E+00
  0.00000000E+00  0.00000000E+00  0.00000000E+00
  0.00000000E+00  0.00000000E+00  0.00000000E+00
  0.00000000E+00  0.00000000E+00  0.00000000E+00
  0.00000000E+00  0.00000000E+00  0.00000000E+00
  0.00000000E+00  0.00000000E+00  0.00000000E+00
  0.00000000E+00  0.00000000E+00  0.00000000E+00
  0.00000000E+00  0.00000000E+00  0.00000000E+00
  0.00000000E+00  0.00000000E+00  0.00000000E+00
  0.00000000E+00  0.00000000E+00  0.00000000E+00
  0.00000000E+00  0.00000000E+00  0.00000000E+00
  0.00000000E+00  0.00000000E+00  0.00000000E+00
  0.00000000E+00  0.00000000E+00  0.00000000E+00
  0.00000000E+00  0.00000000E+00  0.00000000E+00
  0.00000000E+00  0.00000000E+00  0.00000000E+00
  0.00000000E+00  0.00000000E+00  0.00000000E+00
  0.00000000E+00  0.00000000E+00  0.00000000E+00
  0.00000000E+00  0.00000000E+00  0.00000000E+00
  0.00000000E+00  0.00000000E+00  0.00000000E+00
  0.00000000E+00  0.00000000E+00  0.00000000E+00
  0.00000000E+00  0.00000000E+00  0.00000000E+00
  0.00000000E+00  0.00000000E+00  0.00000000E+00
  0.00000000E+00  0.00000000E+00  0.00000000E+00
  0.00000000E+00  0.00000000E+00  0.00000000E+00
  0.00000000E+00  0.00000000E+00  0.00000000E+00
  0.00000000E+00  0.00000000E+00  0.00000000E+00
  0.00000000E+00  0.00000000E+00  0.00000000E+00
  0.00000000E+00  0.00000000E+00  0.00000000E+00
  0.00000000E+00  0.00000000E+00  0.00000000E+00
  0.00000000E+00  0.00000000E+00  0.00000000E+00
  0.00000000E+00  0.00000000E+00  0.00000000E+00
  0.00000000E+00  0.00000000E+00  0.00000000E+00
  0.00000000E+00  0.00000000E+00  0.00000000E+00
  0.00000000E+00  0.00000000E+00  0.00000000E+00
  0.00000000E+00  0.00000000E+00  0.00000000E+00
