supercell of icsd_608626.cif            
   1.12951035736429     
     9.4851572385001965    0.2355189038441100   -0.1153512741910694
    -4.5431796295011990    7.8343230107367487    0.0383102832835643
    -0.1222442358328026   -0.0226529534581708    9.4351812934474655
   Al   La   N 
    22    14    36
Direct
  0.2720491014554725  0.1398064810174446  0.2399109426841903
  0.8164242872872975  0.2553460983572293  0.9852238442385186
  0.4619737652853004  0.2351981758548050  0.5163754198011716
  0.2578489439525953  0.1563912236074358  0.7596477007629687
  0.1236951806272373  0.2611994341568717  0.0269473191534289
  0.8149123640381006  0.1096834068370995  0.2508094091008104
  0.7720958536123916  0.2463267051315867  0.4880381378515040
  0.6157360627634603  0.1802194469593275  0.7008443709158527
  0.2823821226092136  0.4329528658718047  0.2655303786926453
  0.8916608229199099  0.4793435939494017  0.7557410825218369
  0.7724006843321334  0.5470146687718866  0.9980735581711428
  0.5609506466833309  0.4295371789460347  0.2626617617422724
  0.4475559256130737  0.5341145429499790  0.4979207889100152
  0.0728277100467380  0.5553946344717815  0.0194656656788865
  0.8521897215103138  0.4326207704184597  0.2233439882115391
  0.5713662491027662  0.4471066651061122  0.7498795679747232
  0.2169684615080811  0.7649368160195067  0.2312297084400399
  0.5250617631646648  0.7459397782949964  0.2605167389198613
  0.3961942612554168  0.7882476366995519  0.5131763906124078
  0.2184519122683710  0.7751293977636209  0.7662462009831046
  0.5295303587312645  0.7441641337479652  0.7454189814173446
  0.3433266487921500  0.7073826766961488  0.0108872135877291
  0.1126587213163148  0.1925253759951673  0.4591394076561244
  0.8954384975042160  0.1456369227842629  0.7522939013736405
  0.4855124967028885  0.0494962292654151  0.2923812432809143
  0.4892431448972445  0.1761346351720263  0.9715750173278153
  0.0815872792414751  0.5281553569527730  0.4594084935199234
  0.2375161291947165  0.4808081790958170  0.7562292271351652
  0.7755786427873659  0.5594749732705111  0.5027295226560966
  0.4357220567971893  0.4714671700187907  0.0128618710848301
  0.1604425978898902  0.9020977234417487  0.5224794610743899
  0.8930531759586628  0.7959139131831066  0.7694545098609638
  0.6951003167963137  0.9129842886215798  0.9926413720070499
  0.1274472256353292  0.9265353631681990  0.9841180819328983
  0.8931412506677532  0.7832499328518736  0.2222589137410722
  0.7483558079357948  0.9050930666773525  0.4946471383147113
  0.2972306544854959  0.1252832596722371  0.4178264857885736
  0.1707104007824967  0.2443511558917919  0.2001937348348548
  0.9353539851141974  0.1652205729576508  0.9683421706439717
  0.8114210323708306  0.3034287857616036  0.6572468165052570
  0.5726068866402656  0.1260236554724372  0.5139539224130019
  0.4609138644946427  0.2415062038849172  0.1885301602603136
  0.2522138477719906  0.2037509234267318  0.9326043473141397
  0.1366841420130172  0.2195938048459922  0.6769280944793152
  0.8683522251334921  0.1524690730181248  0.4168408508004546
  0.7674418306528707  0.2301616630541758  0.1559626959741180
  0.6601369738251464  0.1310639257110893  0.8689424278658606
  0.4648035757866893  0.2411855281137463  0.6977719791802386
  0.2562596130731549  0.4503059948130854  0.4327164509218377
  0.0484395727862577  0.5861022177887705  0.1915432346668027
  0.8931998915116566  0.4597715589401474  0.9395210190327603
  0.7668785053566296  0.5564245155404208  0.7196960044463339
  0.5391585501417140  0.4269884810577693  0.4410618806949529
  0.4690031332042892  0.5472564613484607  0.2233007998010663
  0.2016547717121071  0.4764955453405548  0.0014698494779921
  0.0682773248852584  0.6050260682811910  0.6821390696747613
  0.8451261497034182  0.4164111216904089  0.3935844261993466
  0.7418985774425977  0.5265096809072247  0.1820311954425335
  0.5966325540860495  0.4225603718302722  0.9205926349597249
  0.4739925656554007  0.5472264746602491  0.6786639170361752
  0.2594700135167258  0.7826171640919952  0.4065481605452135
  0.2028075020829903  0.9390970798466753  0.1913626229746939
  0.8566334709002845  0.7613283188830593  0.9877424244346358
  0.7269924607631850  0.8814141598345842  0.7294073640483418
  0.5174157846502325  0.7376250203573491  0.4382889400678565
  0.4005211373282762  0.7988001425849092  0.1695409951279316
  0.2030422411997961  0.7418069361617228  0.9406002477873940
  0.1896999558877965  0.9454712159058758  0.7517814025459160
  0.9189956522783547  0.8266924927090571  0.4558311988976982
  0.7213369122049045  0.9022563117764477  0.2294633847764302
  0.4854604280759176  0.7109387870049915  0.9155691093612148
  0.3728336215974295  0.7692058647067199  0.6802926496807302
 
  0.00000000E+00  0.00000000E+00  0.00000000E+00
  0.00000000E+00  0.00000000E+00  0.00000000E+00
  0.00000000E+00  0.00000000E+00  0.00000000E+00
  0.00000000E+00  0.00000000E+00  0.00000000E+00
  0.00000000E+00  0.00000000E+00  0.00000000E+00
  0.00000000E+00  0.00000000E+00  0.00000000E+00
  0.00000000E+00  0.00000000E+00  0.00000000E+00
  0.00000000E+00  0.00000000E+00  0.00000000E+00
  0.00000000E+00  0.00000000E+00  0.00000000E+00
  0.00000000E+00  0.00000000E+00  0.00000000E+00
  0.00000000E+00  0.00000000E+00  0.00000000E+00
  0.00000000E+00  0.00000000E+00  0.00000000E+00
  0.00000000E+00  0.00000000E+00  0.00000000E+00
  0.00000000E+00  0.00000000E+00  0.00000000E+00
  0.00000000E+00  0.00000000E+00  0.00000000E+00
  0.00000000E+00  0.00000000E+00  0.00000000E+00
  0.00000000E+00  0.00000000E+00  0.00000000E+00
  0.00000000E+00  0.00000000E+00  0.00000000E+00
  0.00000000E+00  0.00000000E+00  0.00000000E+00
  0.00000000E+00  0.00000000E+00  0.00000000E+00
  0.00000000E+00  0.00000000E+00  0.00000000E+00
  0.00000000E+00  0.00000000E+00  0.00000000E+00
  0.00000000E+00  0.00000000E+00  0.00000000E+00
  0.00000000E+00  0.00000000E+00  0.00000000E+00
  0.00000000E+00  0.00000000E+00  0.00000000E+00
  0.00000000E+00  0.00000000E+00  0.00000000E+00
  0.00000000E+00  0.00000000E+00  0.00000000E+00
  0.00000000E+00  0.00000000E+00  0.00000000E+00
  0.00000000E+00  0.00000000E+00  0.00000000E+00
  0.00000000E+00  0.00000000E+00  0.00000000E+00
  0.00000000E+00  0.00000000E+00  0.00000000E+00
  0.00000000E+00  0.00000000E+00  0.00000000E+00
  0.00000000E+00  0.00000000E+00  0.00000000E+00
  0.00000000E+00  0.00000000E+00  0.00000000E+00
  0.00000000E+00  0.00000000E+00  0.00000000E+00
  0.00000000E+00  0.00000000E+00  0.00000000E+00
  0.00000000E+00  0.00000000E+00  0.00000000E+00
  0.00000000E+00  0.00000000E+00  0.00000000E+00
  0.00000000E+00  0.00000000E+00  0.00000000E+00
  0.00000000E+00  0.00000000E+00  0.00000000E+00
  0.00000000E+00  0.00000000E+00  0.00000000E+00
  0.00000000E+00  0.00000000E+00  0.00000000E+00
  0.00000000E+00  0.00000000E+00  0.00000000E+00
  0.00000000E+00  0.00000000E+00  0.00000000E+00
  0.00000000E+00  0.00000000E+00  0.00000000E+00
  0.00000000E+00  0.00000000E+00  0.00000000E+00
  0.00000000E+00  0.00000000E+00  0.00000000E+00
  0.00000000E+00  0.00000000E+00  0.00000000E+00
  0.00000000E+00  0.00000000E+00  0.00000000E+00
  0.00000000E+00  0.00000000E+00  0.00000000E+00
  0.00000000E+00  0.00000000E+00  0.00000000E+00
  0.00000000E+00  0.00000000E+00  0.00000000E+00
  0.00000000E+00  0.00000000E+00  0.00000000E+00
  0.00000000E+00  0.00000000E+00  0.00000000E+00
  0.00000000E+00  0.00000000E+00  0.00000000E+00
  0.00000000E+00  0.00000000E+00  0.00000000E+00
  0.00000000E+00  0.00000000E+00  0.00000000E+00
  0.00000000E+00  0.00000000E+00  0.00000000E+00
  0.00000000E+00  0.00000000E+00  0.00000000E+00
  0.00000000E+00  0.00000000E+00  0.00000000E+00
  0.00000000E+00  0.00000000E+00  0.00000000E+00
  0.00000000E+00  0.00000000E+00  0.00000000E+00
  0.00000000E+00  0.00000000E+00  0.00000000E+00
  0.00000000E+00  0.00000000E+00  0.00000000E+00
  0.00000000E+00  0.00000000E+00  0.00000000E+00
  0.00000000E+00  0.00000000E+00  0.00000000E+00
  0.00000000E+00  0.00000000E+00  0.00000000E+00
  0.00000000E+00  0.00000000E+00  0.00000000E+00
  0.00000000E+00  0.00000000E+00  0.00000000E+00
  0.00000000E+00  0.00000000E+00  0.00000000E+00
  0.00000000E+00  0.00000000E+00  0.00000000E+00
  0.00000000E+00  0.00000000E+00  0.00000000E+00
