supercell of icsd_191774.cif            
   1.00000000000000     
    10.6192140586520534   -0.0064714634582743    0.0024655178611991
    -5.3152138907705764    9.2198406181902328   -0.0060391567243450
     0.0025871647960569   -0.0061802850621628   10.9570659159611061
   N    Sc   In
    36    16    20
Direct
  0.2280198420630342  0.1139050753799680  0.4378065813530299
  0.1138762956867083  0.2211779004208339  0.1939623419136325
  0.8889540441294201  0.1107054014908257  0.9430314350253965
  0.7762767616763711  0.2240466588760910  0.6951521381807240
  0.5505595041027505  0.1093908282105929  0.4375521802106093
  0.4433098168377683  0.2219728616980845  0.1933259927232100
  0.2266470726009047  0.1091678776638858  0.9411002512785061
  0.1145415651899526  0.2234560663445677  0.6980754144175165
  0.8880473731838734  0.1087047554024565  0.4466720500094965
  0.7740015303957648  0.2203180510983742  0.1947225448477710
  0.5513134775956416  0.1120684538903447  0.9468758394206489
  0.4389040782955504  0.2198140063943939  0.6865555000867758
  0.2273731061687059  0.4475388429488518  0.4486157589887725
  0.1130596172144820  0.5580852301482011  0.1937783447405295
  0.8864745425080685  0.4457287989059111  0.9373568282489089
  0.7813231498302358  0.5572387100741452  0.7000893974524089
  0.5528635411916198  0.4420329062701143  0.4370120042960153
  0.4489893339756463  0.5572968161176632  0.2003025197330928
  0.2244265646693506  0.4449290466619829  0.9359116412620381
  0.1098434700788147  0.5528109967858796  0.6976871000858225
  0.8885009646562807  0.4452005028972152  0.4448291548546237
  0.7745919877193188  0.5540593949747503  0.1843602673839086
  0.5566056148166254  0.4410152716785660  0.9491812521143856
  0.4415962263613196  0.5531529543430835  0.6852636446239302
  0.2252539611787583  0.7795755508230826  0.4364178360729909
  0.1155406878920502  0.8921567120295251  0.1871783472687056
  0.8906691707048466  0.7764139896200817  0.9374641138443209
  0.7779387798176245  0.8858936205489130  0.6861137685927403
  0.5554667204542767  0.7779679303707567  0.4397999451611057
  0.4442215840673640  0.8888897846184349  0.2040836028588373
  0.2204397476054396  0.7801279224979396  0.9483912877712584
  0.1096940639306681  0.8923573826662974  0.6984560918952738
  0.8877947497062237  0.7796273972004926  0.4458813459181741
  0.7741106781132885  0.8868630691467914  0.1963749290853158
  0.5543524153691948  0.7776275438587845  0.9423824300257237
  0.4420722304332543  0.8882117081722001  0.6831052647529745
  0.2226807379020244  0.1103873718476365  0.2453716306931852
  0.5543730359782373  0.1117427891615890  0.2460201946076737
  0.4459510448393758  0.2233786740164234  0.4930019408819177
  0.2232706876945656  0.1126264084372650  0.7484029662253917
  0.4434507044774563  0.2217487230670230  0.9996361498024768
  0.8892779114071487  0.4433994543863946  0.7462559951517278
  0.7795242852728208  0.5568796509512808  0.9920206747947091
  0.5571175811220499  0.4438712514490391  0.2438990297171060
  0.4485268839364736  0.5571529293865893  0.4927740323188985
  0.2242541482948113  0.4451259955789268  0.7441842678817423
  0.2207290697084758  0.7782082455462600  0.2447316577805907
  0.8882404800732857  0.7793852348219090  0.7453608188552749
  0.5552154945175118  0.7773888514435470  0.2484050848855901
  0.4448318344478963  0.8893596775903561  0.4901683978979818
  0.1098907870432768  0.8895970278037453  0.9941209569426803
  0.7761409501211958  0.8885912634175455  0.4943592836900095
  0.1129624360299388  0.2220734091336638  0.5001290403517658
  0.8874808260859979  0.1091911771830638  0.7461656055319139
  0.7779084959564244  0.2232341489206178  0.9977549624115767
  0.1140136969745242  0.2221114930403658  0.9961836870211371
  0.8896892049503435  0.1120317557228745  0.2490403630824147
  0.7739984067154708  0.2201671507843059  0.4976107890189425
  0.5515206141956241  0.1091577635787289  0.7472077442242551
  0.2226988992912453  0.4445926525251451  0.2508725690234712
  0.1128381797046885  0.5583921952375306  0.4999447864791975
  0.1103170557411488  0.5533463468831243  0.9965442639582704
  0.8879474737509199  0.4452912490882142  0.2472176061908868
  0.7747698139881649  0.5552887633548949  0.5006334025983179
  0.5536463472205142  0.4430304556039388  0.7489657377779366
  0.4447844820649109  0.5545864663088338  0.0010638761108694
  0.1138492297740470  0.8907524065606154  0.4988308255625498
  0.7791677962084194  0.8873645213373536  0.9983055081699135
  0.2219586348919407  0.7780994678427504  0.7497186425743152
  0.8909926299412660  0.7769490318381216  0.2466349561964520
  0.5540413187579531  0.7769791710915825  0.7433015459890200
  0.4442845506986899  0.8889868048286615  0.0040918591006687
 
  0.00000000E+00  0.00000000E+00  0.00000000E+00
  0.00000000E+00  0.00000000E+00  0.00000000E+00
  0.00000000E+00  0.00000000E+00  0.00000000E+00
  0.00000000E+00  0.00000000E+00  0.00000000E+00
  0.00000000E+00  0.00000000E+00  0.00000000E+00
  0.00000000E+00  0.00000000E+00  0.00000000E+00
  0.00000000E+00  0.00000000E+00  0.00000000E+00
  0.00000000E+00  0.00000000E+00  0.00000000E+00
  0.00000000E+00  0.00000000E+00  0.00000000E+00
  0.00000000E+00  0.00000000E+00  0.00000000E+00
  0.00000000E+00  0.00000000E+00  0.00000000E+00
  0.00000000E+00  0.00000000E+00  0.00000000E+00
  0.00000000E+00  0.00000000E+00  0.00000000E+00
  0.00000000E+00  0.00000000E+00  0.00000000E+00
  0.00000000E+00  0.00000000E+00  0.00000000E+00
  0.00000000E+00  0.00000000E+00  0.00000000E+00
  0.00000000E+00  0.00000000E+00  0.00000000E+00
  0.00000000E+00  0.00000000E+00  0.00000000E+00
  0.00000000E+00  0.00000000E+00  0.00000000E+00
  0.00000000E+00  0.00000000E+00  0.00000000E+00
  0.00000000E+00  0.00000000E+00  0.00000000E+00
  0.00000000E+00  0.00000000E+00  0.00000000E+00
  0.00000000E+00  0.00000000E+00  0.00000000E+00
  0.00000000E+00  0.00000000E+00  0.00000000E+00
  0.00000000E+00  0.00000000E+00  0.00000000E+00
  0.00000000E+00  0.00000000E+00  0.00000000E+00
  0.00000000E+00  0.00000000E+00  0.00000000E+00
  0.00000000E+00  0.00000000E+00  0.00000000E+00
  0.00000000E+00  0.00000000E+00  0.00000000E+00
  0.00000000E+00  0.00000000E+00  0.00000000E+00
  0.00000000E+00  0.00000000E+00  0.00000000E+00
  0.00000000E+00  0.00000000E+00  0.00000000E+00
  0.00000000E+00  0.00000000E+00  0.00000000E+00
  0.00000000E+00  0.00000000E+00  0.00000000E+00
  0.00000000E+00  0.00000000E+00  0.00000000E+00
  0.00000000E+00  0.00000000E+00  0.00000000E+00
  0.00000000E+00  0.00000000E+00  0.00000000E+00
  0.00000000E+00  0.00000000E+00  0.00000000E+00
  0.00000000E+00  0.00000000E+00  0.00000000E+00
  0.00000000E+00  0.00000000E+00  0.00000000E+00
  0.00000000E+00  0.00000000E+00  0.00000000E+00
  0.00000000E+00  0.00000000E+00  0.00000000E+00
  0.00000000E+00  0.00000000E+00  0.00000000E+00
  0.00000000E+00  0.00000000E+00  0.00000000E+00
  0.00000000E+00  0.00000000E+00  0.00000000E+00
  0.00000000E+00  0.00000000E+00  0.00000000E+00
  0.00000000E+00  0.00000000E+00  0.00000000E+00
  0.00000000E+00  0.00000000E+00  0.00000000E+00
  0.00000000E+00  0.00000000E+00  0.00000000E+00
  0.00000000E+00  0.00000000E+00  0.00000000E+00
  0.00000000E+00  0.00000000E+00  0.00000000E+00
  0.00000000E+00  0.00000000E+00  0.00000000E+00
  0.00000000E+00  0.00000000E+00  0.00000000E+00
  0.00000000E+00  0.00000000E+00  0.00000000E+00
  0.00000000E+00  0.00000000E+00  0.00000000E+00
  0.00000000E+00  0.00000000E+00  0.00000000E+00
  0.00000000E+00  0.00000000E+00  0.00000000E+00
  0.00000000E+00  0.00000000E+00  0.00000000E+00
  0.00000000E+00  0.00000000E+00  0.00000000E+00
  0.00000000E+00  0.00000000E+00  0.00000000E+00
  0.00000000E+00  0.00000000E+00  0.00000000E+00
  0.00000000E+00  0.00000000E+00  0.00000000E+00
  0.00000000E+00  0.00000000E+00  0.00000000E+00
  0.00000000E+00  0.00000000E+00  0.00000000E+00
  0.00000000E+00  0.00000000E+00  0.00000000E+00
  0.00000000E+00  0.00000000E+00  0.00000000E+00
  0.00000000E+00  0.00000000E+00  0.00000000E+00
  0.00000000E+00  0.00000000E+00  0.00000000E+00
  0.00000000E+00  0.00000000E+00  0.00000000E+00
  0.00000000E+00  0.00000000E+00  0.00000000E+00
  0.00000000E+00  0.00000000E+00  0.00000000E+00
  0.00000000E+00  0.00000000E+00  0.00000000E+00
