POSCAR                                  
   1.04099700000000     
    -0.0070747700254200    5.5850494659500001   -4.8701509640899996
    -4.8448403322900004    2.8099609454599999    4.8794318353600001
     9.6563240683099991   -0.0193575402193000    4.8626494748100004
   Sc   Al   N 
    10    14    24
Direct
  0.0448609264936763  0.2365843849759344  0.2720713278938831
  0.4604246949440594  0.4185683281745227  0.5362368555534971
  0.5615979292551074  0.2358903887291035  0.8006618280020348
  0.1307252658705025  0.0672154471701774  0.5333106357842183
  0.6727352864938823  0.3334484422945536  0.3240645700891633
  0.7606654782745110  0.1591421374434674  0.5790929653707408
  0.1784363088057574  0.3346333584921197  0.8373308847909513
  0.3375027515025764  0.9724116846921902  0.3169018031450150
  0.5058108709974007  0.6597434498055037  0.8334943251243061
  0.8504667405633413  0.9797868234516898  0.8357983282109842
  0.3694469811447192  0.5867092937042884  0.2887794708267677
  0.7010317768986596  0.9058965844335134  0.2849367856638167
  0.7792887821977601  0.7480692574456214  0.5372712168775706
  0.8854390164029766  0.5843807285406228  0.7972641357677261
  0.9654902957641980  0.4272169718867787  0.0489251957542152
  0.2123239808168407  0.9066064873521285  0.7924333397545240
  0.2813030818555546  0.7575629015620393  0.0381070798403584
  0.6205065748744403  0.0785414402048445  0.0422674887923762
  0.2554275919227749  0.1696852900931702  0.0745802169752352
  0.5846256766208455  0.5060787639081354  0.0906082018785170
  0.9102404605159151  0.8241739313113072  0.0836656196365837
  0.9934914808390047  0.6654059775241379  0.3361179612587222
  0.0801650166805032  0.5119939331313077  0.5803692249856169
  0.4045035644683495  0.8213503427204500  0.5802233025607677
  0.9618741402652518  0.4592762271525785  0.3930109605022309
  0.2607807584234507  0.7627237897158423  0.3935178482929373
  0.3410253083021431  0.6171054496825406  0.6327504413173060
  0.4664362226113283  0.4481544315971178  0.9089085298306969
  0.6195719301761784  0.1043834566548867  0.3805830740432086
  0.6705248214033261  0.9267873634507140  0.6336555925452956
  0.7944202072445137  0.7616873362536509  0.9007413619642861
  0.8622250235481772  0.6134895441799486  0.1473470804064760
  0.0453118453270349  0.2993445167611952  0.6339636498883792
  0.1325392578605360  0.1007485691354120  0.8903064221244392
  0.1722413084284824  0.9525574235863559  0.1227315946310554
  0.5199460191618925  0.2754940640655619  0.1223510421638281
  0.1714570140722316  0.3753080066096857  0.1670540950728068
  0.4715561795291947  0.7059343024375693  0.1823158664968645
  0.5663295947977005  0.5475370430462405  0.4208624484582870
  0.6716469278041899  0.3795639448712507  0.6916729670627433
  0.7939071196528147  0.0042927722232022  0.1715582998894689
  0.8766548352473791  0.8478851724604013  0.4235504702037645
  0.9773923893979912  0.7014278036465527  0.6822747861680796
  0.0675938499543989  0.5421192962730501  0.9401385296534457
  0.2419613187194471  0.1834666726159142  0.4192672674111080
  0.3188638319896668  0.0077962927080790  0.6872832856947610
  0.3967736959759165  0.8678617861690370  0.9373430845864874
  0.7664558659033460  0.1959583856555867  0.9582985370544463
 
  0.00000000E+00  0.00000000E+00  0.00000000E+00
  0.00000000E+00  0.00000000E+00  0.00000000E+00
  0.00000000E+00  0.00000000E+00  0.00000000E+00
  0.00000000E+00  0.00000000E+00  0.00000000E+00
  0.00000000E+00  0.00000000E+00  0.00000000E+00
  0.00000000E+00  0.00000000E+00  0.00000000E+00
  0.00000000E+00  0.00000000E+00  0.00000000E+00
  0.00000000E+00  0.00000000E+00  0.00000000E+00
  0.00000000E+00  0.00000000E+00  0.00000000E+00
  0.00000000E+00  0.00000000E+00  0.00000000E+00
  0.00000000E+00  0.00000000E+00  0.00000000E+00
  0.00000000E+00  0.00000000E+00  0.00000000E+00
  0.00000000E+00  0.00000000E+00  0.00000000E+00
  0.00000000E+00  0.00000000E+00  0.00000000E+00
  0.00000000E+00  0.00000000E+00  0.00000000E+00
  0.00000000E+00  0.00000000E+00  0.00000000E+00
  0.00000000E+00  0.00000000E+00  0.00000000E+00
  0.00000000E+00  0.00000000E+00  0.00000000E+00
  0.00000000E+00  0.00000000E+00  0.00000000E+00
  0.00000000E+00  0.00000000E+00  0.00000000E+00
  0.00000000E+00  0.00000000E+00  0.00000000E+00
  0.00000000E+00  0.00000000E+00  0.00000000E+00
  0.00000000E+00  0.00000000E+00  0.00000000E+00
  0.00000000E+00  0.00000000E+00  0.00000000E+00
  0.00000000E+00  0.00000000E+00  0.00000000E+00
  0.00000000E+00  0.00000000E+00  0.00000000E+00
  0.00000000E+00  0.00000000E+00  0.00000000E+00
  0.00000000E+00  0.00000000E+00  0.00000000E+00
  0.00000000E+00  0.00000000E+00  0.00000000E+00
  0.00000000E+00  0.00000000E+00  0.00000000E+00
  0.00000000E+00  0.00000000E+00  0.00000000E+00
  0.00000000E+00  0.00000000E+00  0.00000000E+00
  0.00000000E+00  0.00000000E+00  0.00000000E+00
  0.00000000E+00  0.00000000E+00  0.00000000E+00
  0.00000000E+00  0.00000000E+00  0.00000000E+00
  0.00000000E+00  0.00000000E+00  0.00000000E+00
  0.00000000E+00  0.00000000E+00  0.00000000E+00
  0.00000000E+00  0.00000000E+00  0.00000000E+00
  0.00000000E+00  0.00000000E+00  0.00000000E+00
  0.00000000E+00  0.00000000E+00  0.00000000E+00
  0.00000000E+00  0.00000000E+00  0.00000000E+00
  0.00000000E+00  0.00000000E+00  0.00000000E+00
  0.00000000E+00  0.00000000E+00  0.00000000E+00
  0.00000000E+00  0.00000000E+00  0.00000000E+00
  0.00000000E+00  0.00000000E+00  0.00000000E+00
  0.00000000E+00  0.00000000E+00  0.00000000E+00
  0.00000000E+00  0.00000000E+00  0.00000000E+00
  0.00000000E+00  0.00000000E+00  0.00000000E+00
