generated by phonopy                    
   1.00000000000000     
    10.0351470768999995   -0.0000022330999784   -0.0000001056124209
    -5.0175765436399997    8.6906901959899994    0.0000001395531216
    -0.0000001735893656    0.0000001431815548   14.9533752540999991
   Pb   P    O 
    19    13    50
Direct
  0.0071785985068331  0.7837636056649657  0.1312253793463896
  0.0070056784164692  0.7835835393438515  0.6167649102994801
  0.9999267220303452  0.2641627746821129  0.8736897846676897
  0.2292469945894027  0.2363379926169813  0.1333295714352758
  0.2298489841776217  0.2365464272293778  0.6141634861891063
  0.7572282116417099  0.7581359378663919  0.3743072938506202
  0.7350836738472424  0.7425488177083892  0.8738155141152362
  0.7710053010804074  0.0000445736659458  0.1344724623162676
  0.7715214376635018  0.0006827859241341  0.6132150331961626
  0.2804552286321425  0.0179741391406907  0.3739207298388294
  0.2573889346539957  0.9991654816041233  0.8738074494364838
  0.6642390649206220  0.3378728256257801  0.0011910377322053
  0.6852959348036549  0.3301373394717828  0.4967899224060162
  0.3349005780043655  0.6708488783029836  0.0062817580872334
  0.3200260597595772  0.6423535551660180  0.4949568599291609
  0.3198740385357723  0.6414624490859211  0.2521729397654511
  0.3351099768677699  0.6705711112552777  0.7410671507302098
  0.6848878121002997  0.3305406653902736  0.2510722758184372
  0.6639632903058228  0.3377469101278976  0.7465301723603233
  0.0232025587258775  0.0569946027077961  0.3766295231524950
  0.6258859047509020  0.5954461652901486  0.1202315507650766
  0.6260816029639287  0.5957750032608757  0.6274151055365778
  0.3727076973476997  0.4045130873392608  0.3737146315263402
  0.3662417327750802  0.3987756495466996  0.8737200695966649
  0.4039906731211218  0.0318889950657919  0.1188660450157357
  0.4041203058636995  0.0320626653325320  0.6288521137810363
  0.5988635517827774  0.9575754199680446  0.3738423934146340
  0.5993771133930252  0.9719135249738926  0.8737211216714371
  0.9629436389380857  0.3773766494619224  0.1152111865022860
  0.9629919578563744  0.3774237551925879  0.6322387747158373
  0.0345415747191282  0.6457687352184323  0.3739646193643793
  0.0275102815703931  0.6342592324035436  0.8738114101355450
  0.4995146352861823  0.6421634353848447  0.1194657259380136
  0.4997562423338735  0.6425568075165913  0.6278882371870509
  0.4775471643841200  0.3311033585593179  0.3738240087148483
  0.4700786543623749  0.3245115643561363  0.8738039580762091
  0.3496886688949346  0.8572764344436763  0.1186431090695592
  0.3494375626978155  0.8573893171993490  0.6289417332487517
  0.6418189660464577  0.1287864081004457  0.3742072140268533
  0.6750476669831258  0.1496068058396531  0.8737551251682163
  0.1398553237416422  0.4901918835711356  0.1171476808860348
  0.1399021125159692  0.4900960863738533  0.6299754764337209
  0.8574095058543563  0.5313311858267227  0.3743303759843926
  0.8491773582737636  0.5314783070445372  0.8739677780087831
  0.7165909409333366  0.6362058951115515  0.0296299772430473
  0.7447549170781400  0.6826692192896289  0.5505477788904187
  0.2752521011678297  0.3663314378532121  0.4608783068960136
  0.2601493086431788  0.3530557152867928  0.9577632468263815
  0.3625743575573992  0.0855460729954274  0.0299029131958761
  0.3256839361027630  0.0705552090379840  0.5500829822347981
  0.6586364680278436  0.9110922403272994  0.4583808570717096
  0.6434391437332891  0.9092697364713160  0.9577225310513242
  0.9110617741098750  0.2847228692541037  0.0255700895693636
  0.9111078694077932  0.2623490848835957  0.5522786502738413
  0.0839879733132207  0.7524356290901650  0.4584342279313489
  0.0888223833765736  0.7411593945574424  0.9577156392781276
  0.2746260732887436  0.3652261808699393  0.2867666716796293
  0.2600528627011656  0.3527299924202367  0.7896994771786154
  0.7449946029523531  0.6834619337509196  0.1966962770568372
  0.7176181792847345  0.6379927881469172  0.7177507594649128
  0.6616608371508335  0.9129953669466317  0.2899148467835175
  0.6441655456823909  0.9094643837013194  0.7899185473772903
  0.3239420287242254  0.0695027051154185  0.1971306128812458
  0.3614422818990377  0.0854282135252333  0.7174961351205908
  0.0822970460182262  0.7533227969913696  0.2899539709376882
  0.0880506621401764  0.7420350310499586  0.7902330503427564
  0.9121191014357777  0.2614604378110101  0.1946340715302739
  0.9117248825555038  0.2833825559229552  0.7214142805341766
  0.5513243025193120  0.4175415212753748  0.1347365496178767
  0.5514045589469418  0.4176955760155039  0.6137944590087372
  0.4728485180909772  0.5879489264067885  0.3733951731990999
  0.4722154400556917  0.5806644778299841  0.8735384925471124
  0.5831438600431369  0.1296844346143402  0.1306424147048446
  0.5834794406849042  0.1297002711787840  0.6180322276688059
  0.4190078921149833  0.8523307781857028  0.3729491409388572
  0.4175224517745235  0.8964423670569985  0.8734248430637948
  0.8734999439156113  0.4683100061471919  0.1241523292943469
  0.8736043222522341  0.4685471841046933  0.6244660947287528
  0.1230448585899424  0.5542566259642783  0.3732835012362941
  0.1032708471682042  0.5284751572944941  0.8732211058482733
  0.0023962458955822  0.0094867613881178  0.1212032644300862
  0.0028167556076895  0.0097351880846190  0.6259679161700973
 
  0.00000000E+00  0.00000000E+00  0.00000000E+00
  0.00000000E+00  0.00000000E+00  0.00000000E+00
  0.00000000E+00  0.00000000E+00  0.00000000E+00
  0.00000000E+00  0.00000000E+00  0.00000000E+00
  0.00000000E+00  0.00000000E+00  0.00000000E+00
  0.00000000E+00  0.00000000E+00  0.00000000E+00
  0.00000000E+00  0.00000000E+00  0.00000000E+00
  0.00000000E+00  0.00000000E+00  0.00000000E+00
  0.00000000E+00  0.00000000E+00  0.00000000E+00
  0.00000000E+00  0.00000000E+00  0.00000000E+00
  0.00000000E+00  0.00000000E+00  0.00000000E+00
  0.00000000E+00  0.00000000E+00  0.00000000E+00
  0.00000000E+00  0.00000000E+00  0.00000000E+00
  0.00000000E+00  0.00000000E+00  0.00000000E+00
  0.00000000E+00  0.00000000E+00  0.00000000E+00
  0.00000000E+00  0.00000000E+00  0.00000000E+00
  0.00000000E+00  0.00000000E+00  0.00000000E+00
  0.00000000E+00  0.00000000E+00  0.00000000E+00
  0.00000000E+00  0.00000000E+00  0.00000000E+00
  0.00000000E+00  0.00000000E+00  0.00000000E+00
  0.00000000E+00  0.00000000E+00  0.00000000E+00
  0.00000000E+00  0.00000000E+00  0.00000000E+00
  0.00000000E+00  0.00000000E+00  0.00000000E+00
  0.00000000E+00  0.00000000E+00  0.00000000E+00
  0.00000000E+00  0.00000000E+00  0.00000000E+00
  0.00000000E+00  0.00000000E+00  0.00000000E+00
  0.00000000E+00  0.00000000E+00  0.00000000E+00
  0.00000000E+00  0.00000000E+00  0.00000000E+00
  0.00000000E+00  0.00000000E+00  0.00000000E+00
  0.00000000E+00  0.00000000E+00  0.00000000E+00
  0.00000000E+00  0.00000000E+00  0.00000000E+00
  0.00000000E+00  0.00000000E+00  0.00000000E+00
  0.00000000E+00  0.00000000E+00  0.00000000E+00
  0.00000000E+00  0.00000000E+00  0.00000000E+00
  0.00000000E+00  0.00000000E+00  0.00000000E+00
  0.00000000E+00  0.00000000E+00  0.00000000E+00
  0.00000000E+00  0.00000000E+00  0.00000000E+00
  0.00000000E+00  0.00000000E+00  0.00000000E+00
  0.00000000E+00  0.00000000E+00  0.00000000E+00
  0.00000000E+00  0.00000000E+00  0.00000000E+00
  0.00000000E+00  0.00000000E+00  0.00000000E+00
  0.00000000E+00  0.00000000E+00  0.00000000E+00
  0.00000000E+00  0.00000000E+00  0.00000000E+00
  0.00000000E+00  0.00000000E+00  0.00000000E+00
  0.00000000E+00  0.00000000E+00  0.00000000E+00
  0.00000000E+00  0.00000000E+00  0.00000000E+00
  0.00000000E+00  0.00000000E+00  0.00000000E+00
  0.00000000E+00  0.00000000E+00  0.00000000E+00
  0.00000000E+00  0.00000000E+00  0.00000000E+00
  0.00000000E+00  0.00000000E+00  0.00000000E+00
  0.00000000E+00  0.00000000E+00  0.00000000E+00
  0.00000000E+00  0.00000000E+00  0.00000000E+00
  0.00000000E+00  0.00000000E+00  0.00000000E+00
  0.00000000E+00  0.00000000E+00  0.00000000E+00
  0.00000000E+00  0.00000000E+00  0.00000000E+00
  0.00000000E+00  0.00000000E+00  0.00000000E+00
  0.00000000E+00  0.00000000E+00  0.00000000E+00
  0.00000000E+00  0.00000000E+00  0.00000000E+00
  0.00000000E+00  0.00000000E+00  0.00000000E+00
  0.00000000E+00  0.00000000E+00  0.00000000E+00
  0.00000000E+00  0.00000000E+00  0.00000000E+00
  0.00000000E+00  0.00000000E+00  0.00000000E+00
  0.00000000E+00  0.00000000E+00  0.00000000E+00
  0.00000000E+00  0.00000000E+00  0.00000000E+00
  0.00000000E+00  0.00000000E+00  0.00000000E+00
  0.00000000E+00  0.00000000E+00  0.00000000E+00
  0.00000000E+00  0.00000000E+00  0.00000000E+00
  0.00000000E+00  0.00000000E+00  0.00000000E+00
  0.00000000E+00  0.00000000E+00  0.00000000E+00
  0.00000000E+00  0.00000000E+00  0.00000000E+00
  0.00000000E+00  0.00000000E+00  0.00000000E+00
  0.00000000E+00  0.00000000E+00  0.00000000E+00
  0.00000000E+00  0.00000000E+00  0.00000000E+00
  0.00000000E+00  0.00000000E+00  0.00000000E+00
  0.00000000E+00  0.00000000E+00  0.00000000E+00
  0.00000000E+00  0.00000000E+00  0.00000000E+00
  0.00000000E+00  0.00000000E+00  0.00000000E+00
  0.00000000E+00  0.00000000E+00  0.00000000E+00
  0.00000000E+00  0.00000000E+00  0.00000000E+00
  0.00000000E+00  0.00000000E+00  0.00000000E+00
  0.00000000E+00  0.00000000E+00  0.00000000E+00
  0.00000000E+00  0.00000000E+00  0.00000000E+00
