supercell of icsd_181358.cif            
   1.00000000000000     
    10.6609836988515720    0.0440565624654987    0.0828794671284609
    -5.2870540491618536    9.2073314026576139   -0.2666834857516382
     0.0901447768114700   -0.2660840712126952   11.1363508426158386
   N    La   Ga
    36    16    20
Direct
  0.2170498301159824  0.0762471082936997  0.4641707641305572
  0.0837345044543198  0.2168193613751797  0.1655594492081249
  0.8866980172815886  0.1189159938123794  0.9238529513804465
  0.8259836119652704  0.2616640732899995  0.7352417520078376
  0.5401052033172533  0.1207418666512226  0.4745473324382417
  0.5054126031569197  0.2287213511461132  0.2115467345778228
  0.2237667142212061  0.1591478276147669  0.9251269679524583
  0.0749721954762279  0.1684426922873925  0.6738036306394193
  0.9071570524396364  0.0288512464522341  0.4034863237298794
  0.7552170471807713  0.1474012000035998  0.2651794606101205
  0.5795249621285876  0.1255970478462416  0.9196412992318983
  0.4223897180338128  0.2502796604245034  0.6888131322858229
  0.2636490321125748  0.5354434646674022  0.4757774029794533
  0.1237592857991174  0.5810369967559623  0.1845612119565985
  0.8297613823420775  0.4153066330067361  0.0102035723537739
  0.7763639394055275  0.5429854717470093  0.7030870497625088
  0.4820367056602848  0.3992964635205567  0.4347857851131209
  0.4586786970632559  0.5121736374058159  0.1709435734705096
  0.1779273716802052  0.4157000152934529  0.9075858299469672
  0.0982212780121472  0.5885701861625563  0.6937717995488057
  0.9059263233100765  0.4319279023577209  0.4862634775690893
  0.7629112161792477  0.5683257776499033  0.2600209116359053
  0.5655603224416978  0.4660738312877939  0.9090267778301353
  0.4851698984600219  0.5816451913406127  0.6872572136010007
  0.1649783107341776  0.7607954441389850  0.4338295977846158
  0.1522040858075613  0.9048602068850613  0.1912347778388934
  0.8736701576972337  0.8065478271308990  0.8771826808449106
  0.7253689439324020  0.9545510641267114  0.6593421450381030
  0.5968921700313246  0.7365751717184068  0.4386164791524720
  0.4359164984262378  0.8812809779112314  0.2504566505225014
  0.2336785455451462  0.8040941760141536  0.9307141412598767
  0.1468825355402501  0.9093178447085890  0.7112227215579310
  0.9101759605674715  0.8050149447741077  0.5462054486756287
  0.8252134451539916  0.8897234944056294  0.1348771402316018
  0.5826167768342572  0.8046014865871101  0.9233929600871136
  0.4186272392986439  0.8488036446350620  0.6967536799048233
  0.2562694458271011  0.1442364018170039  0.2611066338800043
  0.7960543234957171  0.1778215289163541  0.4849529432046182
  0.4726613552319137  0.2506101415537643  0.9979952867176678
  0.5522426210582907  0.1073395411700346  0.7128940480149737
  0.2240246345230119  0.4565219353657781  0.2633282724963948
  0.0799709010531728  0.5564999019566770  0.9647967384114082
  0.7468513083680506  0.5349045664962233  0.4903517810544855
  0.4189468080882079  0.5529341521718365  0.9640606795575763
  0.2100940964463049  0.4360044405064372  0.6923276439508612
  0.8527557024925159  0.3987850176382892  0.2180724507752458
  0.7686275391593540  0.6060980774592224  0.0082405249762303
  0.0988419391063502  0.9222480750431146  0.9803507457821397
  0.5971737934585661  0.7689109912997623  0.2351657992652321
  0.4607027980465546  0.9170221179601583  0.0194271045728485
  0.9407439016396069  0.8178601630427522  0.3005859490670204
  0.4190232694298004  0.8304757077332425  0.4833446605468268
  0.0914362998731733  0.2304913178917971  0.9842466057201023
  0.8881151656488839  0.1126227113749891  0.7476742319188361
  0.5502449696091176  0.0947070485716992  0.2940615967317513
  0.2223574808465614  0.1269562357950988  0.7513773306061111
  0.0592484348101863  0.0948189144380436  0.5168490974854123
  0.8925462112000346  0.0833712430988882  0.2220836736004586
  0.7850829196470599  0.2394795811763828  0.9171810906351539
  0.4200405717968110  0.2154196906837740  0.5149066233506190
  0.8931284679703779  0.4527856770881584  0.6851578930937947
  0.5542717701235844  0.4325938387769597  0.2657974820885585
  0.1045096810868316  0.5791854095338280  0.5089589786028412
  0.5642769571315540  0.4597009751020593  0.7401835757557436
  0.4556954883941629  0.5560310172439884  0.5090932940479718
  0.2193929615675501  0.7803906217268803  0.2538539148080332
  0.9084247003502881  0.7646287114643187  0.7192636123758760
  0.7694848407122947  0.8684446145441740  0.5241539107788284
  0.2303306051421359  0.7892766379633898  0.7583833892282428
  0.1308238348001467  0.8865591182868329  0.5392625896507113
  0.7874103532850398  0.9132691086864853  0.9614685442979720
  0.5599922667731221  0.7935134829928217  0.7449584760904528
 
  0.00000000E+00  0.00000000E+00  0.00000000E+00
  0.00000000E+00  0.00000000E+00  0.00000000E+00
  0.00000000E+00  0.00000000E+00  0.00000000E+00
  0.00000000E+00  0.00000000E+00  0.00000000E+00
  0.00000000E+00  0.00000000E+00  0.00000000E+00
  0.00000000E+00  0.00000000E+00  0.00000000E+00
  0.00000000E+00  0.00000000E+00  0.00000000E+00
  0.00000000E+00  0.00000000E+00  0.00000000E+00
  0.00000000E+00  0.00000000E+00  0.00000000E+00
  0.00000000E+00  0.00000000E+00  0.00000000E+00
  0.00000000E+00  0.00000000E+00  0.00000000E+00
  0.00000000E+00  0.00000000E+00  0.00000000E+00
  0.00000000E+00  0.00000000E+00  0.00000000E+00
  0.00000000E+00  0.00000000E+00  0.00000000E+00
  0.00000000E+00  0.00000000E+00  0.00000000E+00
  0.00000000E+00  0.00000000E+00  0.00000000E+00
  0.00000000E+00  0.00000000E+00  0.00000000E+00
  0.00000000E+00  0.00000000E+00  0.00000000E+00
  0.00000000E+00  0.00000000E+00  0.00000000E+00
  0.00000000E+00  0.00000000E+00  0.00000000E+00
  0.00000000E+00  0.00000000E+00  0.00000000E+00
  0.00000000E+00  0.00000000E+00  0.00000000E+00
  0.00000000E+00  0.00000000E+00  0.00000000E+00
  0.00000000E+00  0.00000000E+00  0.00000000E+00
  0.00000000E+00  0.00000000E+00  0.00000000E+00
  0.00000000E+00  0.00000000E+00  0.00000000E+00
  0.00000000E+00  0.00000000E+00  0.00000000E+00
  0.00000000E+00  0.00000000E+00  0.00000000E+00
  0.00000000E+00  0.00000000E+00  0.00000000E+00
  0.00000000E+00  0.00000000E+00  0.00000000E+00
  0.00000000E+00  0.00000000E+00  0.00000000E+00
  0.00000000E+00  0.00000000E+00  0.00000000E+00
  0.00000000E+00  0.00000000E+00  0.00000000E+00
  0.00000000E+00  0.00000000E+00  0.00000000E+00
  0.00000000E+00  0.00000000E+00  0.00000000E+00
  0.00000000E+00  0.00000000E+00  0.00000000E+00
  0.00000000E+00  0.00000000E+00  0.00000000E+00
  0.00000000E+00  0.00000000E+00  0.00000000E+00
  0.00000000E+00  0.00000000E+00  0.00000000E+00
  0.00000000E+00  0.00000000E+00  0.00000000E+00
  0.00000000E+00  0.00000000E+00  0.00000000E+00
  0.00000000E+00  0.00000000E+00  0.00000000E+00
  0.00000000E+00  0.00000000E+00  0.00000000E+00
  0.00000000E+00  0.00000000E+00  0.00000000E+00
  0.00000000E+00  0.00000000E+00  0.00000000E+00
  0.00000000E+00  0.00000000E+00  0.00000000E+00
  0.00000000E+00  0.00000000E+00  0.00000000E+00
  0.00000000E+00  0.00000000E+00  0.00000000E+00
  0.00000000E+00  0.00000000E+00  0.00000000E+00
  0.00000000E+00  0.00000000E+00  0.00000000E+00
  0.00000000E+00  0.00000000E+00  0.00000000E+00
  0.00000000E+00  0.00000000E+00  0.00000000E+00
  0.00000000E+00  0.00000000E+00  0.00000000E+00
  0.00000000E+00  0.00000000E+00  0.00000000E+00
  0.00000000E+00  0.00000000E+00  0.00000000E+00
  0.00000000E+00  0.00000000E+00  0.00000000E+00
  0.00000000E+00  0.00000000E+00  0.00000000E+00
  0.00000000E+00  0.00000000E+00  0.00000000E+00
  0.00000000E+00  0.00000000E+00  0.00000000E+00
  0.00000000E+00  0.00000000E+00  0.00000000E+00
  0.00000000E+00  0.00000000E+00  0.00000000E+00
  0.00000000E+00  0.00000000E+00  0.00000000E+00
  0.00000000E+00  0.00000000E+00  0.00000000E+00
  0.00000000E+00  0.00000000E+00  0.00000000E+00
  0.00000000E+00  0.00000000E+00  0.00000000E+00
  0.00000000E+00  0.00000000E+00  0.00000000E+00
  0.00000000E+00  0.00000000E+00  0.00000000E+00
  0.00000000E+00  0.00000000E+00  0.00000000E+00
  0.00000000E+00  0.00000000E+00  0.00000000E+00
  0.00000000E+00  0.00000000E+00  0.00000000E+00
  0.00000000E+00  0.00000000E+00  0.00000000E+00
  0.00000000E+00  0.00000000E+00  0.00000000E+00
