generated by phonopy                    
   1.00000000000000     
    11.7777700938999992   -0.0000006592896312    0.0000118211769744
    -0.0000006477562692   11.7777479613999994   -0.0000130806483528
     0.0000177256125076   -0.0000204342245446   17.8544012557999991
   Bi   Cu   Se   O 
    36    36    35    36
Direct
  0.9955266025049525  0.1623054310806893  0.4317500902850213
  0.3376270459928961  0.1623062927065604  0.4317430952035011
  0.6665764899324245  0.1655160634255139  0.4310526438319542
  0.9955383583884725  0.5044021402746708  0.4317474420440846
  0.3376325168567220  0.5043932733162606  0.4317415052327007
  0.6665794326714689  0.5012106458176007  0.4310476316502516
  0.9987310440820281  0.8333526257710488  0.4310540698435901
  0.3344225041097673  0.8333537407005736  0.4310500865223617
  0.6665842662994166  0.8333511051821034  0.4319816808294945
  0.0002304985666228  0.1670515992991213  0.9283013876773367
  0.3328539210511750  0.1670561322977164  0.9283040466183650
  0.6665406814407788  0.1654869583596223  0.9270861130731092
  0.0002208973858018  0.4996903668431187  0.9282934232220015
  0.3328572556813327  0.4996889386286583  0.9282976275999317
  0.6665389317265493  0.5012485742015613  0.9270817197959644
  0.9986678005809537  0.8333750296688507  0.9270847036991583
  0.3344196614649917  0.8333746711408736  0.9270910031000525
  0.6665401279794594  0.8333772194390860  0.9275859086742244
  0.1665423456983248  0.9981787965047744  0.0679980804549558
  0.5003720925907658  0.9995442979506066  0.0696676889988481
  0.8327182647022582  0.9995428163734132  0.0696643140066300
  0.1665368612327853  0.3333817461434805  0.0705538202829885
  0.5017345570113676  0.3333757770544565  0.0679922079060020
  0.8313501384973563  0.3333750785098957  0.0679865586510573
  0.1665385766426297  0.6685567118815143  0.0679914765864780
  0.5003752612970516  0.6672020656137505  0.0696615788831636
  0.8327137612042819  0.6672044632568372  0.0696587457223288
  0.1665824316629667  0.0007898186806230  0.5725515934682690
  0.5007720089169965  0.9991617392421190  0.5744369568536101
  0.8323816645296915  0.9991650663056433  0.5744424225185867
  0.1665821842347697  0.3333541230489772  0.5702439533265533
  0.4991451649580796  0.3333599902013376  0.5725490925589014
  0.8340101774236857  0.3333646614006511  0.5725494210986071
  0.1665883942131146  0.6659186332790412  0.5725476733938635
  0.5007738750123636  0.6675532610755397  0.5744396421982003
  0.8323895772710941  0.6675513808847882  0.5744418518272880
  0.9936656291717085  0.9925171878755847  0.2512710541379946
  0.3394721315208997  0.9924906517739416  0.2512789851759081
  0.6665537571949329  0.9987788205246559  0.2497307933267123
  0.9577681636851239  0.3333633128586087  0.2360634506127610
  0.3753239237441335  0.3333713674877075  0.2361079795209520
  0.6665914946467169  0.3333637752748757  0.2503275117673525
  0.9937306846602425  0.6742447910336580  0.2512900856099733
  0.3394088212334196  0.6742581644375392  0.2512865569173073
  0.6665494826956362  0.6679663702890437  0.2497209767714352
  0.0005128077722318  0.0007578317078654  0.7500227768783319
  0.3325628275815333  0.0007618069284305  0.7500220134605513
  0.6665433016385407  0.0012843292758973  0.7503981916906639
  0.0004645974860651  0.3333679746742959  0.7502100510047356
  0.3326086049631058  0.3333737203044222  0.7502132983824410
  0.6665486413885091  0.3333619743606988  0.7508751384663981
  0.0005095300044218  0.6659534848010651  0.7500296101072053
  0.3325736256625831  0.6659553213060363  0.7500301663174724
  0.6665434279667863  0.6654208627697926  0.7504032665059412
  0.1665616123332754  0.1246129280352761  0.2361016701017817
  0.5074421905893303  0.1604504242671254  0.2512711528261633
  0.8256529082781512  0.1604980306117838  0.2513000786113437
  0.1665470371016795  0.5420205429262950  0.2361008482700981
  0.5074410905222067  0.5062572334521391  0.2512713936467748
  0.8256514563637296  0.5062185051028862  0.2512951372291781
  0.1665404154063168  0.8333809575040902  0.2503403682343972
  0.5011208452428662  0.8333673306602520  0.2497149132773089
  0.8320055664473998  0.8333730477473082  0.2497055130946606
  0.1665499940798369  0.1672985327178296  0.7502095740138657
  0.4991662247501196  0.1673459992022828  0.7500196768497744
  0.8339548437870903  0.1673358466181512  0.7500278281602704
  0.1665451833475515  0.4994403307092554  0.7502076389112489
  0.4991648067585146  0.4993767427262341  0.7500232416763453
  0.8339547410821382  0.4993828110123957  0.7500314535696972
  0.1665464658274942  0.8333610859148237  0.7508728196347150
  0.4986269692907896  0.8333630822231299  0.7504045575961129
  0.8344894818982880  0.8333606802140068  0.7504065561084303
  0.5007571269097113  0.3333542742652753  0.3398632925233045
  0.8324230650338507  0.3333659123177100  0.3398757498948797
  0.1665674685481804  0.6674923928894998  0.3398562593500429
  0.5012332208466574  0.6680391084434447  0.3395109933842662
  0.8318908419980460  0.6680468187701152  0.3394978290809263
  0.1665638941277976  0.9991880223268979  0.3398677783745114
  0.5012441868487159  0.9986781184649303  0.3395253507673672
  0.8318883058852933  0.9986816406921619  0.3395139645447500
  0.1665449860745341  0.3333697412806629  0.8376298353588538
  0.4995011897229631  0.3333631413096469  0.8372620256024916
  0.8335952859806355  0.3333607599734520  0.8372646525151737
  0.1665485480270448  0.6663188856262536  0.8372612884000503
  0.4996041215452394  0.6664160859775663  0.8367872027344276
  0.8334912894489221  0.6664181697686971  0.8367903745584755
  0.1665484508470811  0.0004144794636289  0.8372598539071916
  0.4996002191253552  0.0003151378305262  0.8367831854379801
  0.8334951000246846  0.0003109671018038  0.8367879647004841
  0.3344313519517712  0.1654994668120722  0.1657376869885141
  0.6665635516994115  0.1666901551251669  0.1617033483615344
  0.9986782969845933  0.1654830041783484  0.1657239542562934
  0.3344345480268487  0.5012383934440479  0.1657322391705591
  0.6665574497227666  0.5000538753590504  0.1617016216358635
  0.9986555364019836  0.5012539793752993  0.1657172052592415
  0.3332151507510162  0.8333665222327866  0.1617035287929696
  0.6665476925467857  0.8333788862595952  0.1628442677477011
  0.9998811011834547  0.8333655083974350  0.1617017470034696
  0.3328806654828966  0.1670500293081147  0.6626283986184021
  0.6665696367138949  0.1676468850499262  0.6628000921192339
  0.0002465358683494  0.1670485624384384  0.6626261983865831
  0.3328797268698338  0.4996776069446014  0.6626261235567625
  0.6665677033170923  0.4990745236691723  0.6627997803884043
  0.0002442150873634  0.4996762940422599  0.6626236334650741
  0.3322777366151684  0.8333569504502805  0.6628028634435310
  0.6665657642748215  0.8333549070675090  0.6638512031337171
  0.0008479792926366  0.8333555399230974  0.6628015995530276
  0.1665766279359246  0.1675330114551628  0.4986988229069240
  0.4990914643039162  0.1657981858940971  0.5013028742224179
  0.8340591778675019  0.1658019220909708  0.5013060939979397
  0.1665811757491085  0.4991703942549535  0.4986979717143498
  0.4990908731014372  0.5009204539615837  0.5013021477618125
  0.8340632820090335  0.5009234744861288  0.5013007384025769
  0.1665748483161096  0.8333564241714697  0.5011936131373176
  0.4994378791557921  0.8333568562709459  0.5025820090410420
  0.8337096798551045  0.8333564924084556  0.5025866641414325
  0.1665483440934779  0.1670319317680224  0.0002219097817857
  0.5000872280513420  0.1665504416246506  0.9991161085096394
  0.8330069956276063  0.1665445032765689  0.9991132133804328
  0.1665429276827339  0.4997117226793861  0.0002131614002039
  0.5000916041211383  0.5001908433075286  0.9991127581052837
  0.8330008173063490  0.5001939242248312  0.9991115994516306
  0.1665458804078455  0.8333681658242469  0.9981905532725293
  0.5002199487676506  0.8333742518110583  0.9990306151552630
  0.8328730866441347  0.8333763641813690  0.9990223351538319
  0.9997343776374663  0.9998283867903766  0.9991158370370883
  0.3333644708804826  0.9998289046352227  0.9991189481599676
  0.6665436559710614  0.9996959660600666  0.9990310866445213
  0.0002029974079889  0.3333714872546452  0.0002157826730240
  0.3328890768872554  0.3333746905454902  0.0002181133246495
  0.6665442856218959  0.3333686140572780  0.9981810143811813
  0.9997267507510443  0.6669112930400516  0.9991110016355549
  0.3333651751864224  0.6669086501074446  0.9991171177432747
  0.6665431703905256  0.6670496804725303  0.9990235084839583
  0.9990121153234881  0.0008407642272701  0.5013068200697148
  0.3341335850466507  0.0008427300907954  0.5013007366108155
  0.6665759148669252  0.0004874550797425  0.5025832878173304
  0.0007490928328053  0.3333585780050754  0.4987032525155755
  0.3324074953734026  0.3333536035579812  0.4987014786979245
  0.6665733738420485  0.3333669155467121  0.5011885976523232
  0.9990209828888297  0.6658694714241733  0.5013042898284610
  0.3341329911186790  0.6658660789509909  0.5012984124269835
  0.6665755430396842  0.6662252100604320  0.5025865977001516
 
  0.00000000E+00  0.00000000E+00  0.00000000E+00
  0.00000000E+00  0.00000000E+00  0.00000000E+00
  0.00000000E+00  0.00000000E+00  0.00000000E+00
  0.00000000E+00  0.00000000E+00  0.00000000E+00
  0.00000000E+00  0.00000000E+00  0.00000000E+00
  0.00000000E+00  0.00000000E+00  0.00000000E+00
  0.00000000E+00  0.00000000E+00  0.00000000E+00
  0.00000000E+00  0.00000000E+00  0.00000000E+00
  0.00000000E+00  0.00000000E+00  0.00000000E+00
  0.00000000E+00  0.00000000E+00  0.00000000E+00
  0.00000000E+00  0.00000000E+00  0.00000000E+00
  0.00000000E+00  0.00000000E+00  0.00000000E+00
  0.00000000E+00  0.00000000E+00  0.00000000E+00
  0.00000000E+00  0.00000000E+00  0.00000000E+00
  0.00000000E+00  0.00000000E+00  0.00000000E+00
  0.00000000E+00  0.00000000E+00  0.00000000E+00
  0.00000000E+00  0.00000000E+00  0.00000000E+00
  0.00000000E+00  0.00000000E+00  0.00000000E+00
  0.00000000E+00  0.00000000E+00  0.00000000E+00
  0.00000000E+00  0.00000000E+00  0.00000000E+00
  0.00000000E+00  0.00000000E+00  0.00000000E+00
  0.00000000E+00  0.00000000E+00  0.00000000E+00
  0.00000000E+00  0.00000000E+00  0.00000000E+00
  0.00000000E+00  0.00000000E+00  0.00000000E+00
  0.00000000E+00  0.00000000E+00  0.00000000E+00
  0.00000000E+00  0.00000000E+00  0.00000000E+00
  0.00000000E+00  0.00000000E+00  0.00000000E+00
  0.00000000E+00  0.00000000E+00  0.00000000E+00
  0.00000000E+00  0.00000000E+00  0.00000000E+00
  0.00000000E+00  0.00000000E+00  0.00000000E+00
  0.00000000E+00  0.00000000E+00  0.00000000E+00
  0.00000000E+00  0.00000000E+00  0.00000000E+00
  0.00000000E+00  0.00000000E+00  0.00000000E+00
  0.00000000E+00  0.00000000E+00  0.00000000E+00
  0.00000000E+00  0.00000000E+00  0.00000000E+00
  0.00000000E+00  0.00000000E+00  0.00000000E+00
  0.00000000E+00  0.00000000E+00  0.00000000E+00
  0.00000000E+00  0.00000000E+00  0.00000000E+00
  0.00000000E+00  0.00000000E+00  0.00000000E+00
  0.00000000E+00  0.00000000E+00  0.00000000E+00
  0.00000000E+00  0.00000000E+00  0.00000000E+00
  0.00000000E+00  0.00000000E+00  0.00000000E+00
  0.00000000E+00  0.00000000E+00  0.00000000E+00
  0.00000000E+00  0.00000000E+00  0.00000000E+00
  0.00000000E+00  0.00000000E+00  0.00000000E+00
  0.00000000E+00  0.00000000E+00  0.00000000E+00
  0.00000000E+00  0.00000000E+00  0.00000000E+00
  0.00000000E+00  0.00000000E+00  0.00000000E+00
  0.00000000E+00  0.00000000E+00  0.00000000E+00
  0.00000000E+00  0.00000000E+00  0.00000000E+00
  0.00000000E+00  0.00000000E+00  0.00000000E+00
  0.00000000E+00  0.00000000E+00  0.00000000E+00
  0.00000000E+00  0.00000000E+00  0.00000000E+00
  0.00000000E+00  0.00000000E+00  0.00000000E+00
  0.00000000E+00  0.00000000E+00  0.00000000E+00
  0.00000000E+00  0.00000000E+00  0.00000000E+00
  0.00000000E+00  0.00000000E+00  0.00000000E+00
  0.00000000E+00  0.00000000E+00  0.00000000E+00
  0.00000000E+00  0.00000000E+00  0.00000000E+00
  0.00000000E+00  0.00000000E+00  0.00000000E+00
  0.00000000E+00  0.00000000E+00  0.00000000E+00
  0.00000000E+00  0.00000000E+00  0.00000000E+00
  0.00000000E+00  0.00000000E+00  0.00000000E+00
  0.00000000E+00  0.00000000E+00  0.00000000E+00
  0.00000000E+00  0.00000000E+00  0.00000000E+00
  0.00000000E+00  0.00000000E+00  0.00000000E+00
  0.00000000E+00  0.00000000E+00  0.00000000E+00
  0.00000000E+00  0.00000000E+00  0.00000000E+00
  0.00000000E+00  0.00000000E+00  0.00000000E+00
  0.00000000E+00  0.00000000E+00  0.00000000E+00
  0.00000000E+00  0.00000000E+00  0.00000000E+00
  0.00000000E+00  0.00000000E+00  0.00000000E+00
  0.00000000E+00  0.00000000E+00  0.00000000E+00
  0.00000000E+00  0.00000000E+00  0.00000000E+00
  0.00000000E+00  0.00000000E+00  0.00000000E+00
  0.00000000E+00  0.00000000E+00  0.00000000E+00
  0.00000000E+00  0.00000000E+00  0.00000000E+00
  0.00000000E+00  0.00000000E+00  0.00000000E+00
  0.00000000E+00  0.00000000E+00  0.00000000E+00
  0.00000000E+00  0.00000000E+00  0.00000000E+00
  0.00000000E+00  0.00000000E+00  0.00000000E+00
  0.00000000E+00  0.00000000E+00  0.00000000E+00
  0.00000000E+00  0.00000000E+00  0.00000000E+00
  0.00000000E+00  0.00000000E+00  0.00000000E+00
  0.00000000E+00  0.00000000E+00  0.00000000E+00
  0.00000000E+00  0.00000000E+00  0.00000000E+00
  0.00000000E+00  0.00000000E+00  0.00000000E+00
  0.00000000E+00  0.00000000E+00  0.00000000E+00
  0.00000000E+00  0.00000000E+00  0.00000000E+00
  0.00000000E+00  0.00000000E+00  0.00000000E+00
  0.00000000E+00  0.00000000E+00  0.00000000E+00
  0.00000000E+00  0.00000000E+00  0.00000000E+00
  0.00000000E+00  0.00000000E+00  0.00000000E+00
  0.00000000E+00  0.00000000E+00  0.00000000E+00
  0.00000000E+00  0.00000000E+00  0.00000000E+00
  0.00000000E+00  0.00000000E+00  0.00000000E+00
  0.00000000E+00  0.00000000E+00  0.00000000E+00
  0.00000000E+00  0.00000000E+00  0.00000000E+00
  0.00000000E+00  0.00000000E+00  0.00000000E+00
  0.00000000E+00  0.00000000E+00  0.00000000E+00
  0.00000000E+00  0.00000000E+00  0.00000000E+00
  0.00000000E+00  0.00000000E+00  0.00000000E+00
  0.00000000E+00  0.00000000E+00  0.00000000E+00
  0.00000000E+00  0.00000000E+00  0.00000000E+00
  0.00000000E+00  0.00000000E+00  0.00000000E+00
  0.00000000E+00  0.00000000E+00  0.00000000E+00
  0.00000000E+00  0.00000000E+00  0.00000000E+00
  0.00000000E+00  0.00000000E+00  0.00000000E+00
  0.00000000E+00  0.00000000E+00  0.00000000E+00
  0.00000000E+00  0.00000000E+00  0.00000000E+00
  0.00000000E+00  0.00000000E+00  0.00000000E+00
  0.00000000E+00  0.00000000E+00  0.00000000E+00
  0.00000000E+00  0.00000000E+00  0.00000000E+00
  0.00000000E+00  0.00000000E+00  0.00000000E+00
  0.00000000E+00  0.00000000E+00  0.00000000E+00
  0.00000000E+00  0.00000000E+00  0.00000000E+00
  0.00000000E+00  0.00000000E+00  0.00000000E+00
  0.00000000E+00  0.00000000E+00  0.00000000E+00
  0.00000000E+00  0.00000000E+00  0.00000000E+00
  0.00000000E+00  0.00000000E+00  0.00000000E+00
  0.00000000E+00  0.00000000E+00  0.00000000E+00
  0.00000000E+00  0.00000000E+00  0.00000000E+00
  0.00000000E+00  0.00000000E+00  0.00000000E+00
  0.00000000E+00  0.00000000E+00  0.00000000E+00
  0.00000000E+00  0.00000000E+00  0.00000000E+00
  0.00000000E+00  0.00000000E+00  0.00000000E+00
  0.00000000E+00  0.00000000E+00  0.00000000E+00
  0.00000000E+00  0.00000000E+00  0.00000000E+00
  0.00000000E+00  0.00000000E+00  0.00000000E+00
  0.00000000E+00  0.00000000E+00  0.00000000E+00
  0.00000000E+00  0.00000000E+00  0.00000000E+00
  0.00000000E+00  0.00000000E+00  0.00000000E+00
  0.00000000E+00  0.00000000E+00  0.00000000E+00
  0.00000000E+00  0.00000000E+00  0.00000000E+00
  0.00000000E+00  0.00000000E+00  0.00000000E+00
  0.00000000E+00  0.00000000E+00  0.00000000E+00
  0.00000000E+00  0.00000000E+00  0.00000000E+00
  0.00000000E+00  0.00000000E+00  0.00000000E+00
  0.00000000E+00  0.00000000E+00  0.00000000E+00
  0.00000000E+00  0.00000000E+00  0.00000000E+00
  0.00000000E+00  0.00000000E+00  0.00000000E+00
  0.00000000E+00  0.00000000E+00  0.00000000E+00
  0.00000000E+00  0.00000000E+00  0.00000000E+00
