Sc   Al   N                             
   1.00000000000000     
   -10.1232478603823584    0.0172374932854750   -0.0013923383120831
    -5.0854852569833442    8.7566141042487793   -0.0028160513291025
    -0.0033480525904552    0.0043337110325842   -9.3559444392693969
   Sc   Al   N 
    10    26    36
Direct
  0.1105508241145543  0.0935121267147778  0.3507372702134717
  0.2251773568632558  0.2145384458246511  0.0954670268196338
  0.7701703428903528  0.0996655219586700  0.8541277365720887
  0.1135254915878150  0.0948167247772957  0.8392852585176769
  0.5587566072534358  0.5303978904527327  0.0892613424139483
  0.7827727843075891  0.4317920353924123  0.3492249918353920
  0.5490089016470492  0.5369411024064235  0.5986360133405242
  0.2180934726591985  0.8635937752298304  0.0952256716111251
  0.8872276260049290  0.8733601487482048  0.5950881780727642
  0.5609878367330339  0.8738118575503648  0.0954065487703133
  0.8840116610165296  0.2052610374532122  0.5821200988080477
  0.4499626745267733  0.0989107461848207  0.3430469023044012
  0.5471007981157925  0.2102918738612161  0.0842765358226458
  0.2241441409947882  0.2134693820283218  0.5821336045758727
  0.7730151185082761  0.0931701937543892  0.3240013538411048
  0.8862614414694860  0.2142780617766249  0.0813193788295550
  0.4441249262464027  0.0975220013041209  0.8196898714337024
  0.5538591062387610  0.2079957014201952  0.5767005309314968
  0.1118293828125942  0.4398305596456709  0.3316442754158402
  0.2150819779955810  0.5393177476190871  0.0787872474186386
  0.7824594807444711  0.4335328243538257  0.8256938972920409
  0.8956626040305622  0.5404959270898289  0.5839641186714957
  0.4366103349981714  0.4265594100344714  0.3291957946838764
  0.1126712451653589  0.4319932192027096  0.8270907549052353
  0.2237990926536213  0.5327251086611753  0.5785221989080185
  0.8953576481283392  0.5396587667112769  0.0760338948616024
  0.4331535219827671  0.4241015908847103  0.8312066375639944
  0.1098293361474489  0.7520415658293587  0.3350438545668410
  0.7763961139454736  0.7559032975313755  0.8298344923976302
  0.4446779298199957  0.7568496705398431  0.3375921757729472
  0.1203134479763293  0.7476160833732877  0.8259552828064116
  0.2250936709521056  0.8663169871260621  0.5804693496630691
  0.7858418075870190  0.7601052552657279  0.3305591518244526
  0.8951945002375510  0.8601646168270420  0.0815966756610536
  0.4438508404266202  0.7650337175512192  0.8248531581837071
  0.5547004490622598  0.8728023950619530  0.5785933651439024
  0.2289403789745919  0.2211096744137180  0.3712447156265881
  0.0975472513739746  0.1019024106749811  0.1113498102543105
  0.8782012958288092  0.2279578954751997  0.8744107214685428
  0.7645039575753216  0.1139884662410608  0.6257654554041636
  0.5578253144696603  0.2082113077835288  0.3729167295443503
  0.4561062668669464  0.1021771978667800  0.1406602107060522
  0.2313689563712131  0.2157178407472458  0.8596754565549247
  0.1114596905020875  0.0935192029597829  0.6026618907629597
  0.8754588238439993  0.1962034279431180  0.3756054337247718
  0.7759353181463240  0.0962241184750710  0.1113620274816185
  0.5326038373114841  0.2144173099530278  0.8801294541659459
  0.4480890671499225  0.0938878608832923  0.6118982198697509
  0.2237936139157597  0.5374288862071950  0.3766493510070177
  0.1011334469560836  0.4478589483530939  0.1269361097381534
  0.8915207342419436  0.5391814361446094  0.8691627232187500
  0.7974339933682870  0.4213406748947008  0.6138267890109077
  0.5403974136218750  0.5396695258871205  0.3633612556946630
  0.4284366830691937  0.4220117939241064  0.1240732467601546
  0.2199030572062028  0.5379138804889010  0.8746183797776368
  0.1113254030488733  0.4313282566518808  0.6240302077867028
  0.9027960858008299  0.5520679929455596  0.3818693905610218
  0.7972818506519985  0.4256767623523388  0.1203294813251290
  0.5558062752075443  0.5391909353608781  0.8503924066867370
  0.4315035527937212  0.4149810170469621  0.6278584333653825
  0.2277310855407890  0.8519515396512887  0.3686637352462157
  0.1019517200609386  0.7468877347057372  0.1301740731341212
  0.9007510828764183  0.8507754430642507  0.8660828651706680
  0.7668733877685767  0.7531707010336177  0.6261057027099781
  0.5594942492549038  0.8693274080129996  0.3692704860105778
  0.4475472886177414  0.7580299982055720  0.1325152366252169
  0.2306044985557989  0.8511960077377339  0.8638207285887560
  0.1308138553425380  0.7470283521919256  0.6204798891800465
  0.8857816294164067  0.8760999501137832  0.3647271769069533
  0.7967689760638947  0.7498308934773803  0.1239139056927314
  0.5525815963149796  0.8767715367546245  0.8627191274353621
  0.4358093956024689  0.7803502812045409  0.6174048327441426
 
  0.00000000E+00  0.00000000E+00  0.00000000E+00
  0.00000000E+00  0.00000000E+00  0.00000000E+00
  0.00000000E+00  0.00000000E+00  0.00000000E+00
  0.00000000E+00  0.00000000E+00  0.00000000E+00
  0.00000000E+00  0.00000000E+00  0.00000000E+00
  0.00000000E+00  0.00000000E+00  0.00000000E+00
  0.00000000E+00  0.00000000E+00  0.00000000E+00
  0.00000000E+00  0.00000000E+00  0.00000000E+00
  0.00000000E+00  0.00000000E+00  0.00000000E+00
  0.00000000E+00  0.00000000E+00  0.00000000E+00
  0.00000000E+00  0.00000000E+00  0.00000000E+00
  0.00000000E+00  0.00000000E+00  0.00000000E+00
  0.00000000E+00  0.00000000E+00  0.00000000E+00
  0.00000000E+00  0.00000000E+00  0.00000000E+00
  0.00000000E+00  0.00000000E+00  0.00000000E+00
  0.00000000E+00  0.00000000E+00  0.00000000E+00
  0.00000000E+00  0.00000000E+00  0.00000000E+00
  0.00000000E+00  0.00000000E+00  0.00000000E+00
  0.00000000E+00  0.00000000E+00  0.00000000E+00
  0.00000000E+00  0.00000000E+00  0.00000000E+00
  0.00000000E+00  0.00000000E+00  0.00000000E+00
  0.00000000E+00  0.00000000E+00  0.00000000E+00
  0.00000000E+00  0.00000000E+00  0.00000000E+00
  0.00000000E+00  0.00000000E+00  0.00000000E+00
  0.00000000E+00  0.00000000E+00  0.00000000E+00
  0.00000000E+00  0.00000000E+00  0.00000000E+00
  0.00000000E+00  0.00000000E+00  0.00000000E+00
  0.00000000E+00  0.00000000E+00  0.00000000E+00
  0.00000000E+00  0.00000000E+00  0.00000000E+00
  0.00000000E+00  0.00000000E+00  0.00000000E+00
  0.00000000E+00  0.00000000E+00  0.00000000E+00
  0.00000000E+00  0.00000000E+00  0.00000000E+00
  0.00000000E+00  0.00000000E+00  0.00000000E+00
  0.00000000E+00  0.00000000E+00  0.00000000E+00
  0.00000000E+00  0.00000000E+00  0.00000000E+00
  0.00000000E+00  0.00000000E+00  0.00000000E+00
  0.00000000E+00  0.00000000E+00  0.00000000E+00
  0.00000000E+00  0.00000000E+00  0.00000000E+00
  0.00000000E+00  0.00000000E+00  0.00000000E+00
  0.00000000E+00  0.00000000E+00  0.00000000E+00
  0.00000000E+00  0.00000000E+00  0.00000000E+00
  0.00000000E+00  0.00000000E+00  0.00000000E+00
  0.00000000E+00  0.00000000E+00  0.00000000E+00
  0.00000000E+00  0.00000000E+00  0.00000000E+00
  0.00000000E+00  0.00000000E+00  0.00000000E+00
  0.00000000E+00  0.00000000E+00  0.00000000E+00
  0.00000000E+00  0.00000000E+00  0.00000000E+00
  0.00000000E+00  0.00000000E+00  0.00000000E+00
  0.00000000E+00  0.00000000E+00  0.00000000E+00
  0.00000000E+00  0.00000000E+00  0.00000000E+00
  0.00000000E+00  0.00000000E+00  0.00000000E+00
  0.00000000E+00  0.00000000E+00  0.00000000E+00
  0.00000000E+00  0.00000000E+00  0.00000000E+00
  0.00000000E+00  0.00000000E+00  0.00000000E+00
  0.00000000E+00  0.00000000E+00  0.00000000E+00
  0.00000000E+00  0.00000000E+00  0.00000000E+00
  0.00000000E+00  0.00000000E+00  0.00000000E+00
  0.00000000E+00  0.00000000E+00  0.00000000E+00
  0.00000000E+00  0.00000000E+00  0.00000000E+00
  0.00000000E+00  0.00000000E+00  0.00000000E+00
  0.00000000E+00  0.00000000E+00  0.00000000E+00
  0.00000000E+00  0.00000000E+00  0.00000000E+00
  0.00000000E+00  0.00000000E+00  0.00000000E+00
  0.00000000E+00  0.00000000E+00  0.00000000E+00
  0.00000000E+00  0.00000000E+00  0.00000000E+00
  0.00000000E+00  0.00000000E+00  0.00000000E+00
  0.00000000E+00  0.00000000E+00  0.00000000E+00
  0.00000000E+00  0.00000000E+00  0.00000000E+00
  0.00000000E+00  0.00000000E+00  0.00000000E+00
  0.00000000E+00  0.00000000E+00  0.00000000E+00
  0.00000000E+00  0.00000000E+00  0.00000000E+00
  0.00000000E+00  0.00000000E+00  0.00000000E+00
