POSCAR                                  
   1.03600000000000     
     4.8025503645600001   -2.8339326803899998   -4.9953637737600003
     4.7775888744100001    2.7891755054099998    4.9964290865900001
    -1.5573508785200001   -8.3719044994900003    4.9655686364999996
   Al   Gd   N 
    18     6    24
Direct
  0.6023428518369371  0.5768263408233594  0.5384944363642319
  0.2871656781222711  0.4867857257845216  0.3113087488480915
  0.6173469407200827  0.8182927362614052  0.3101058443503746
  0.9256213233135568  0.6504095443181512  0.7890193299545629
  0.2838563701189116  0.9960847548353442  0.7839907241659176
  0.5905884467599378  0.3299225113025770  0.7791859985646497
  0.9392936898475170  0.8921739099127066  0.5327108157459577
  0.2868774754606775  0.2383052985208565  0.5381072231883053
  0.9574361826141526  0.1438174608552387  0.2982123637878686
  0.5534059346417308  0.2170918068515775  0.3357571036325027
  0.2309732030682099  0.1407612218033663  0.1022023681652868
  0.2295536178139201  0.3915152752750899  0.8163936601038131
  0.5489829268734852  0.7104161122129895  0.8119827232799821
  0.2238111522536954  0.6485152403489778  0.5886583793482743
  0.5416789872237970  0.9697018839753184  0.5763329439161708
  0.8973570566264968  0.5591615724052446  0.3362262911407896
  0.2236970579926592  0.8905262285136359  0.3398526460997573
  0.8971793163087867  0.8089920068982011  0.1043192142480791
  0.9653602917716384  0.3897851432417028  0.0394251776755752
  0.2714379152533226  0.7299287119325726  0.0320483490414887
  0.6158039267596394  0.0423346197161294  0.0394426688188645
  0.5685429064008858  0.4671120719194946  0.0826503702626979
  0.8969410333866961  0.0391092782949656  0.8188852018172881
  0.8866347484060810  0.3106087287063133  0.5728809019364789
  0.4747619185152345  0.7355320186930427  0.6261771906850058
  0.1505957619831548  0.6497851436099609  0.3998468019701562
  0.4781160925816437  0.9797062746937897  0.3904741625072958
  0.8554394805129562  0.5849002773699254  0.1564514419767349
  0.1400564800537865  0.9134944119427999  0.1518690714333388
  0.4704287863368464  0.2061793690316733  0.1558206966314302
  0.7998711372590037  0.7869996673987103  0.9086736188635456
  0.1865992173569069  0.1659599359352057  0.9016873747728056
  0.4667193802756557  0.4884470709560631  0.8671314304118525
  0.7903571519240060  0.0318201690133932  0.6088064318193886
  0.1799325348790575  0.4061743791182124  0.6313702295481747
  0.8091835856196568  0.3109106783337481  0.3553056494140350
  0.4389311118450436  0.3813117576486817  0.4347839134168723
  0.1238245822022961  0.2910966688287786  0.2089876484569047
  0.4319259846172514  0.6400363697474987  0.2100846584475278
  0.7310408088711853  0.2344898587268389  0.9086078507544499
  0.0826883027963774  0.5365319461180960  0.8850912308022956
  0.4197394780025334  0.8701825774787793  0.8885853760275566
  0.7332800608583554  0.4930658247267274  0.6821015994185231
  0.0790455879038774  0.8131988874998228  0.6831111872426661
  0.4240942434303747  0.1358677858427342  0.6706675376521218
  0.7638844399788738  0.7045959566298592  0.4329245849282799
  0.0979122779868433  0.0512597847955405  0.4395818460245096
  0.7816825606340245  0.9502750011504091  0.2096649823374932
