supercell of POSCAR                     
   1.01800000000000     
     3.1310994802600001   -5.4896946145000003   10.0244832682999991
    -9.4821132118399998   -5.5089477087900001    0.0170740616273000
     6.3359946057599998  -11.0114127993000004  -10.0652216442999993
   Al   Gd   N    O 
    84    12    95     1
Direct
  0.0891092834862590  0.5840663942043065  0.3346038716046991
  0.5011025204820214  0.3217826114481568  0.2556659018330407
  0.0862476027116585  0.0848412849980633  0.3342697815957720
  0.2525050010916914  0.5781652349584618  0.4941109723667481
  0.3327476825222604  0.3181898324199750  0.0788352167154045
  0.4175432255312472  0.0870341596416679  0.1705523807747227
  0.0072913032381621  0.8435438562345396  0.2547517924738401
  0.1682829312720813  0.3314621711063808  0.4122037425957217
  0.2478353514804894  0.0872815071689033  0.4960258737339061
  0.1628974330174415  0.8369403988304001  0.4157072670555735
  0.3380913952568605  0.6743207771548683  0.3408942362616116
  0.1485845506229069  0.6735862393099410  0.1686814897258131
  0.2504253401122725  0.3997294228639063  0.2522201131424779
  0.3347762176316351  0.1634904626003433  0.3341729265841735
  0.0074621908732837  0.6734436288831844  0.4938953598317113
  0.1673510937578868  0.1580370750989815  0.1694858634267433
  0.2537126352553756  0.9198989100330479  0.2555278056803161
  0.4135698978503299  0.4143064600880209  0.4152088194188792
  0.4988827899981985  0.1612388534830416  0.4969297957687218
  0.0830224431070548  0.9239731002628702  0.0795559564564101
  0.4204752575908230  0.9202363471815360  0.4118740409910160
  0.0894315108086445  0.5853456714665484  0.8351573167826700
  0.5002055854843164  0.3225053204619286  0.7553526373071477
  0.0861459997371696  0.0857583648922429  0.8346066428379331
  0.2490544411435849  0.5753715709310754  0.9919901931957327
  0.3324538119874418  0.3178872782137887  0.5784757430343461
  0.4172281690293218  0.0873425294940660  0.6709548768085369
  0.0075776151057454  0.8441537796887744  0.7552690620269615
  0.1679695140934641  0.3319479480642613  0.9129946891320273
  0.2483720544113126  0.0873843790942033  0.9964243927143031
  0.1627167535309439  0.8381874060396584  0.9159754838679817
  0.3367197918540583  0.6750352781056677  0.8405480227116158
  0.1546794477389781  0.6761759178930404  0.6672107568335051
  0.2498617414495783  0.4018524934312708  0.7527671689164137
  0.3344743025148205  0.1648167343801532  0.8343271211063126
  0.0053249777937978  0.6730671311222949  0.9944604213391059
  0.1670815418691234  0.1592891209326268  0.6695932587488898
  0.2529249555231061  0.9212365182506588  0.7558930285181731
  0.4136293045441661  0.4150803635033995  0.9155062306982842
  0.4989532742702565  0.1625308859380894  0.9969855527088640
  0.0832203295190013  0.9243046280981986  0.5802819970454891
  0.4198664494957853  0.9216928731069132  0.9117307640277730
  0.5903590566239600  0.5842261998674232  0.3346265812021443
  0.0000552702914618  0.3218966863662942  0.2556323693793701
  0.5862763778433688  0.0848600296059985  0.3342854104395840
  0.7527946464593072  0.5786337438612321  0.4937716670433687
  0.8304469815543243  0.3174769294566886  0.0778498157380128
  0.9172001837661981  0.0868143806517239  0.1706924061651875
  0.5079168386499759  0.8433770987756617  0.2545825543569435
  0.6686656342813677  0.3317208742935733  0.4119792415732562
  0.7477875236587650  0.0874080279643863  0.4958869042107850
  0.6628087777007963  0.8368404962986276  0.4155723982637554
  0.8373298769708555  0.6736601296136016  0.3396658711011398
  0.6520516669615901  0.6763159568751647  0.1660536511646526
  0.7506517275524018  0.4012643448625113  0.2518304499627178
  0.8346958702313287  0.1636935155877879  0.3340053688970741
  0.5074961421071436  0.6734835948597748  0.4941453005024954
  0.6670708045049452  0.1591319976653054  0.1691853432592012
  0.7533138618666442  0.9205043069603249  0.2555781201673994
  0.9133765422508802  0.4145095852057707  0.4151063062234925
  0.9988272044777204  0.1610906528754157  0.4968458747376587
  0.5826908771077655  0.9251974009455211  0.0798822920241662
  0.9203724403707199  0.9200159075510257  0.4115478369671308
  0.5898370712885352  0.5850360397838941  0.8344771667125457
  0.0001988053870221  0.3224674119753033  0.7557281819639385
  0.5860181042542862  0.0857450234672896  0.8343305360100643
  0.7511065371885621  0.5781095647413679  0.9936735509483725
  0.8326994653020137  0.3179311357266812  0.5783816254526357
  0.9173654118108985  0.0872719323145006  0.6710796205931402
  0.5073479642837242  0.8443907843622753  0.7550187108853024
  0.6677158957931439  0.3321682042037608  0.9122375035662387
  0.7474478104376843  0.0872887684709909  0.9957404176896176
  0.6624093082745190  0.8378097282149568  0.9154778772403560
  0.8372320704907352  0.6742101947881451  0.8402117992973857
  0.6548561224367830  0.6762763860959922  0.6667753849457583
  0.7501708643729756  0.4016230713855862  0.7519570898881156
  0.8342711195532431  0.1641047449807118  0.8341070577353946
  0.5067016601710321  0.6753636285975233  0.9942574391968932
  0.6670608913743337  0.1591625140829009  0.6693496822750049
  0.7530107577096885  0.9208386593059714  0.7558448820188417
  0.9123620528082270  0.4144371043408768  0.9149725828839266
  0.9979392802751264  0.1606282401013317  0.9966445138645739
  0.5830108102617899  0.9242870395900340  0.5802208037047336
  0.9200544377724000  0.9199850624743604  0.9118166125938387
  0.3943356204827424  0.5796282928136165  0.1801815209255935
  0.3321048350066889  0.8327601091737904  0.0833125262854679
  0.0783152250284829  0.4150262416945125  0.0852347677650513
  0.3976987589865999  0.5786933255798701  0.6797902162365403
  0.3313084104044108  0.8358879610549721  0.5834901030136734
  0.0822929608319640  0.4187364391263273  0.5846449194924830
  0.8949230881078805  0.5797600578024316  0.1775935796892298
  0.8302099690168276  0.8361176492686369  0.0828531255544291
  0.5811078129744658  0.4222767578559186  0.0853521386751055
  0.8977515571242023  0.5792781427068903  0.6792149638181684
  0.8313928354693303  0.8367415254981765  0.5831136029753310
  0.5825305566859456  0.4191769751820758  0.5842132638548634
  0.2192069759233561  0.5816456701320689  0.2642492535309273
  0.0336833466797515  0.6091313980755046  0.1003366722637011
  0.1303308057176480  0.3161492097709555  0.2005736658619810
  0.2129009294824158  0.0816279274926188  0.2720780254657171
  0.3829352818011245  0.5836199905117425  0.4372702852996682
  0.4493856292336034  0.3206748831681736  0.0109750843484235
  0.0408965821968295  0.0852874797193408  0.1036152650215456
  0.1342029687073563  0.8407132135382440  0.1848210944424835
  0.2967610799833480  0.3293516825813185  0.3524028861071002
  0.3769247589459184  0.0805140361952184  0.4352452931289648
  0.4744338200486382  0.8397612679447093  0.0084308971638762
  0.2936479554398090  0.8351419502881967  0.3560450752627773
  0.4719288364576215  0.6836331518647611  0.2859291206701684
  0.3758621045280961  0.3837158202154356  0.1858619249872646
  0.4619729169586080  0.1621533579930414  0.2737655611575533
  0.1353644992592251  0.6653304958849233  0.4325544474121372
  0.2235566284692183  0.4127788302747177  0.0113877886150746
  0.2903220586980453  0.1580269189329115  0.1023724149566476
  0.3845570866712791  0.9263265632901394  0.1997863264619610
  0.0437828006501135  0.4193986530289280  0.3518296870915805
  0.1269694049529164  0.1706663411421587  0.4344043426748883
  0.1990509984134619  0.9307349071007494  0.0114808648144873
  0.0491226798962927  0.9233027532532958  0.3521944312636691
  0.2190793708067602  0.5820715551780538  0.7671901319636731
  0.0339655078695955  0.6116149964806539  0.6006267898064124
  0.1298850741434947  0.3179572199617198  0.7003076587877146
  0.2124838186638129  0.0834389451096840  0.7724881105093644
  0.3810764267530402  0.5853885552599252  0.9389120246933160
  0.4491932404294658  0.3192217159854849  0.5105348777614012
  0.0406979487357262  0.0859587424523625  0.6037953659959214
  0.1325971589917216  0.8432214846518420  0.6860659380605227
  0.2961630024683615  0.3306297640864102  0.8531797440703031
  0.3767635392048021  0.0819423819647156  0.9353848114373946
  0.4760268519191300  0.8377040743421063  0.5082628725362710
  0.2928906174515902  0.8360844166362327  0.8565251672579848
  0.4716633336761831  0.6854905649244216  0.7871818626790912
  0.2630600396384466  0.6536171992963276  0.5952802587138422
  0.3740694669084164  0.3821360526879118  0.6855751228328444
  0.4617198002907443  0.1631352958044161  0.7740548248045798
  0.1349012429637213  0.6665729830346052  0.9345831182891615
  0.2252798546906689  0.4118050709066381  0.5091374385234957
  0.2899637589586703  0.1574880968736565  0.6021462669383624
  0.3843645551709898  0.9279501818944524  0.7015346776502369
  0.0434421348994007  0.4200842996303322  0.8525806456355980
  0.1270152463558745  0.1709122550760611  0.9353062034285813
  0.1965234559048312  0.9317841079085838  0.5101866155624109
  0.0489536926366654  0.9244603463250129  0.8529776560008315
  0.7185444615975314  0.5813047170532357  0.2659669838397249
  0.5267225241507418  0.6155477540205183  0.1015317049719542
  0.6300804615469389  0.3179014475299411  0.1994321923233073
  0.7126132610419660  0.0826896358695635  0.2720682438717645
  0.8832932847677100  0.5839694717853234  0.4368118501969391
  0.9467445089525199  0.3178754622829061  0.0095578328725026
  0.5405047830821559  0.0864853663398293  0.1036133832982102
  0.6324053554527609  0.8435353183279730  0.1856849923318222
  0.7969175879747041  0.3295429679750512  0.3519581981626700
  0.8769374737754845  0.0803593264417444  0.4351294680228719
  0.9758953135806010  0.8376998426060851  0.0083931576304224
  0.7935553813603562  0.8349368747020804  0.3560070745936557
  0.9726368772260798  0.6841044300532673  0.2852039646492770
  0.7596336142315252  0.6543139611735143  0.0941304213986811
  0.8751862400847017  0.3824687647191070  0.1846809397787439
  0.9620723401800149  0.1621655008155471  0.2738675055494610
  0.6350260988023280  0.6655231030450821  0.4328861237447299
  0.7231384571007737  0.4121635374279577  0.0092871038780586
  0.7898930361817307  0.1568051696697736  0.1020368879179401
  0.8849859782013212  0.9271516378133100  0.2011463390934978
  0.5435897649007373  0.4193486895277090  0.3519120937235556
  0.6269156867080810  0.1710040855427764  0.4344103039690097
  0.6957326855811417  0.9321523118708228  0.0099055474484828
  0.5485710104408312  0.9234236512372433  0.3522266046526568
  0.7190386873042982  0.5818463299545513  0.7664211804724701
  0.5335073413799520  0.6117450157062052  0.6008698682329623
  0.6297063403230467  0.3179862586275846  0.6997097234118783
  0.7123058458047353  0.0830305279204495  0.7721398883549639
  0.8819633451834576  0.5836897087445649  0.9372979502072454
  0.9493643304016999  0.3191583160513929  0.5103105977533247
  0.5405615867389173  0.0859195997336641  0.6037291639362934
  0.6323669799444360  0.8431542133418759  0.6859787451554382
  0.7958082018918020  0.3298395785891231  0.8520414525418687
  0.8763977833293808  0.0801656727300326  0.9350209440096791
  0.9764985889691715  0.8377073946421874  0.5080821649264635
  0.7929566268563875  0.8352499002882752  0.8563240354515003
  0.9723033276409865  0.6853011729929221  0.7870112630225279
  0.7631362639308250  0.6545434190179336  0.5947678623039039
  0.8748306883712047  0.3824513064683686  0.6853665187241162
  0.9619730323630833  0.1628927740958943  0.7742550710669960
  0.6337481500903408  0.6663443360938430  0.9330776259797560
  0.7256566788208261  0.4120752358803372  0.5089381303434450
  0.7901388316764795  0.1574420667691641  0.6020741280095692
  0.8846385121834714  0.9277352590604551  0.7016684825045729
  0.5426550951268467  0.4205295583834072  0.8518201441344360
  0.6266367415903389  0.1713745868297778  0.9344755531058624
  0.6960787269521234  0.9320370210652698  0.5099664400807313
  0.5483378009404092  0.9245848035873792  0.8525226147579161
  0.2572620691899772  0.6512934251105236  0.0939466959981274
 
  0.00000000E+00  0.00000000E+00  0.00000000E+00
  0.00000000E+00  0.00000000E+00  0.00000000E+00
  0.00000000E+00  0.00000000E+00  0.00000000E+00
  0.00000000E+00  0.00000000E+00  0.00000000E+00
  0.00000000E+00  0.00000000E+00  0.00000000E+00
  0.00000000E+00  0.00000000E+00  0.00000000E+00
  0.00000000E+00  0.00000000E+00  0.00000000E+00
  0.00000000E+00  0.00000000E+00  0.00000000E+00
  0.00000000E+00  0.00000000E+00  0.00000000E+00
  0.00000000E+00  0.00000000E+00  0.00000000E+00
  0.00000000E+00  0.00000000E+00  0.00000000E+00
  0.00000000E+00  0.00000000E+00  0.00000000E+00
  0.00000000E+00  0.00000000E+00  0.00000000E+00
  0.00000000E+00  0.00000000E+00  0.00000000E+00
  0.00000000E+00  0.00000000E+00  0.00000000E+00
  0.00000000E+00  0.00000000E+00  0.00000000E+00
  0.00000000E+00  0.00000000E+00  0.00000000E+00
  0.00000000E+00  0.00000000E+00  0.00000000E+00
  0.00000000E+00  0.00000000E+00  0.00000000E+00
  0.00000000E+00  0.00000000E+00  0.00000000E+00
  0.00000000E+00  0.00000000E+00  0.00000000E+00
  0.00000000E+00  0.00000000E+00  0.00000000E+00
  0.00000000E+00  0.00000000E+00  0.00000000E+00
  0.00000000E+00  0.00000000E+00  0.00000000E+00
  0.00000000E+00  0.00000000E+00  0.00000000E+00
  0.00000000E+00  0.00000000E+00  0.00000000E+00
  0.00000000E+00  0.00000000E+00  0.00000000E+00
  0.00000000E+00  0.00000000E+00  0.00000000E+00
  0.00000000E+00  0.00000000E+00  0.00000000E+00
  0.00000000E+00  0.00000000E+00  0.00000000E+00
  0.00000000E+00  0.00000000E+00  0.00000000E+00
  0.00000000E+00  0.00000000E+00  0.00000000E+00
  0.00000000E+00  0.00000000E+00  0.00000000E+00
  0.00000000E+00  0.00000000E+00  0.00000000E+00
  0.00000000E+00  0.00000000E+00  0.00000000E+00
  0.00000000E+00  0.00000000E+00  0.00000000E+00
  0.00000000E+00  0.00000000E+00  0.00000000E+00
  0.00000000E+00  0.00000000E+00  0.00000000E+00
  0.00000000E+00  0.00000000E+00  0.00000000E+00
  0.00000000E+00  0.00000000E+00  0.00000000E+00
  0.00000000E+00  0.00000000E+00  0.00000000E+00
  0.00000000E+00  0.00000000E+00  0.00000000E+00
  0.00000000E+00  0.00000000E+00  0.00000000E+00
  0.00000000E+00  0.00000000E+00  0.00000000E+00
  0.00000000E+00  0.00000000E+00  0.00000000E+00
  0.00000000E+00  0.00000000E+00  0.00000000E+00
  0.00000000E+00  0.00000000E+00  0.00000000E+00
  0.00000000E+00  0.00000000E+00  0.00000000E+00
  0.00000000E+00  0.00000000E+00  0.00000000E+00
  0.00000000E+00  0.00000000E+00  0.00000000E+00
  0.00000000E+00  0.00000000E+00  0.00000000E+00
  0.00000000E+00  0.00000000E+00  0.00000000E+00
  0.00000000E+00  0.00000000E+00  0.00000000E+00
  0.00000000E+00  0.00000000E+00  0.00000000E+00
  0.00000000E+00  0.00000000E+00  0.00000000E+00
  0.00000000E+00  0.00000000E+00  0.00000000E+00
  0.00000000E+00  0.00000000E+00  0.00000000E+00
  0.00000000E+00  0.00000000E+00  0.00000000E+00
  0.00000000E+00  0.00000000E+00  0.00000000E+00
  0.00000000E+00  0.00000000E+00  0.00000000E+00
  0.00000000E+00  0.00000000E+00  0.00000000E+00
  0.00000000E+00  0.00000000E+00  0.00000000E+00
  0.00000000E+00  0.00000000E+00  0.00000000E+00
  0.00000000E+00  0.00000000E+00  0.00000000E+00
  0.00000000E+00  0.00000000E+00  0.00000000E+00
  0.00000000E+00  0.00000000E+00  0.00000000E+00
  0.00000000E+00  0.00000000E+00  0.00000000E+00
  0.00000000E+00  0.00000000E+00  0.00000000E+00
  0.00000000E+00  0.00000000E+00  0.00000000E+00
  0.00000000E+00  0.00000000E+00  0.00000000E+00
  0.00000000E+00  0.00000000E+00  0.00000000E+00
  0.00000000E+00  0.00000000E+00  0.00000000E+00
  0.00000000E+00  0.00000000E+00  0.00000000E+00
  0.00000000E+00  0.00000000E+00  0.00000000E+00
  0.00000000E+00  0.00000000E+00  0.00000000E+00
  0.00000000E+00  0.00000000E+00  0.00000000E+00
  0.00000000E+00  0.00000000E+00  0.00000000E+00
  0.00000000E+00  0.00000000E+00  0.00000000E+00
  0.00000000E+00  0.00000000E+00  0.00000000E+00
  0.00000000E+00  0.00000000E+00  0.00000000E+00
  0.00000000E+00  0.00000000E+00  0.00000000E+00
  0.00000000E+00  0.00000000E+00  0.00000000E+00
  0.00000000E+00  0.00000000E+00  0.00000000E+00
  0.00000000E+00  0.00000000E+00  0.00000000E+00
  0.00000000E+00  0.00000000E+00  0.00000000E+00
  0.00000000E+00  0.00000000E+00  0.00000000E+00
  0.00000000E+00  0.00000000E+00  0.00000000E+00
  0.00000000E+00  0.00000000E+00  0.00000000E+00
  0.00000000E+00  0.00000000E+00  0.00000000E+00
  0.00000000E+00  0.00000000E+00  0.00000000E+00
  0.00000000E+00  0.00000000E+00  0.00000000E+00
  0.00000000E+00  0.00000000E+00  0.00000000E+00
  0.00000000E+00  0.00000000E+00  0.00000000E+00
  0.00000000E+00  0.00000000E+00  0.00000000E+00
  0.00000000E+00  0.00000000E+00  0.00000000E+00
  0.00000000E+00  0.00000000E+00  0.00000000E+00
  0.00000000E+00  0.00000000E+00  0.00000000E+00
  0.00000000E+00  0.00000000E+00  0.00000000E+00
  0.00000000E+00  0.00000000E+00  0.00000000E+00
  0.00000000E+00  0.00000000E+00  0.00000000E+00
  0.00000000E+00  0.00000000E+00  0.00000000E+00
  0.00000000E+00  0.00000000E+00  0.00000000E+00
  0.00000000E+00  0.00000000E+00  0.00000000E+00
  0.00000000E+00  0.00000000E+00  0.00000000E+00
  0.00000000E+00  0.00000000E+00  0.00000000E+00
  0.00000000E+00  0.00000000E+00  0.00000000E+00
  0.00000000E+00  0.00000000E+00  0.00000000E+00
  0.00000000E+00  0.00000000E+00  0.00000000E+00
  0.00000000E+00  0.00000000E+00  0.00000000E+00
  0.00000000E+00  0.00000000E+00  0.00000000E+00
  0.00000000E+00  0.00000000E+00  0.00000000E+00
  0.00000000E+00  0.00000000E+00  0.00000000E+00
  0.00000000E+00  0.00000000E+00  0.00000000E+00
  0.00000000E+00  0.00000000E+00  0.00000000E+00
  0.00000000E+00  0.00000000E+00  0.00000000E+00
  0.00000000E+00  0.00000000E+00  0.00000000E+00
  0.00000000E+00  0.00000000E+00  0.00000000E+00
  0.00000000E+00  0.00000000E+00  0.00000000E+00
  0.00000000E+00  0.00000000E+00  0.00000000E+00
  0.00000000E+00  0.00000000E+00  0.00000000E+00
  0.00000000E+00  0.00000000E+00  0.00000000E+00
  0.00000000E+00  0.00000000E+00  0.00000000E+00
  0.00000000E+00  0.00000000E+00  0.00000000E+00
  0.00000000E+00  0.00000000E+00  0.00000000E+00
  0.00000000E+00  0.00000000E+00  0.00000000E+00
  0.00000000E+00  0.00000000E+00  0.00000000E+00
  0.00000000E+00  0.00000000E+00  0.00000000E+00
  0.00000000E+00  0.00000000E+00  0.00000000E+00
  0.00000000E+00  0.00000000E+00  0.00000000E+00
  0.00000000E+00  0.00000000E+00  0.00000000E+00
  0.00000000E+00  0.00000000E+00  0.00000000E+00
  0.00000000E+00  0.00000000E+00  0.00000000E+00
  0.00000000E+00  0.00000000E+00  0.00000000E+00
  0.00000000E+00  0.00000000E+00  0.00000000E+00
  0.00000000E+00  0.00000000E+00  0.00000000E+00
  0.00000000E+00  0.00000000E+00  0.00000000E+00
  0.00000000E+00  0.00000000E+00  0.00000000E+00
  0.00000000E+00  0.00000000E+00  0.00000000E+00
  0.00000000E+00  0.00000000E+00  0.00000000E+00
  0.00000000E+00  0.00000000E+00  0.00000000E+00
  0.00000000E+00  0.00000000E+00  0.00000000E+00
  0.00000000E+00  0.00000000E+00  0.00000000E+00
  0.00000000E+00  0.00000000E+00  0.00000000E+00
  0.00000000E+00  0.00000000E+00  0.00000000E+00
  0.00000000E+00  0.00000000E+00  0.00000000E+00
  0.00000000E+00  0.00000000E+00  0.00000000E+00
  0.00000000E+00  0.00000000E+00  0.00000000E+00
  0.00000000E+00  0.00000000E+00  0.00000000E+00
  0.00000000E+00  0.00000000E+00  0.00000000E+00
  0.00000000E+00  0.00000000E+00  0.00000000E+00
  0.00000000E+00  0.00000000E+00  0.00000000E+00
  0.00000000E+00  0.00000000E+00  0.00000000E+00
  0.00000000E+00  0.00000000E+00  0.00000000E+00
  0.00000000E+00  0.00000000E+00  0.00000000E+00
  0.00000000E+00  0.00000000E+00  0.00000000E+00
  0.00000000E+00  0.00000000E+00  0.00000000E+00
  0.00000000E+00  0.00000000E+00  0.00000000E+00
  0.00000000E+00  0.00000000E+00  0.00000000E+00
  0.00000000E+00  0.00000000E+00  0.00000000E+00
  0.00000000E+00  0.00000000E+00  0.00000000E+00
  0.00000000E+00  0.00000000E+00  0.00000000E+00
  0.00000000E+00  0.00000000E+00  0.00000000E+00
  0.00000000E+00  0.00000000E+00  0.00000000E+00
  0.00000000E+00  0.00000000E+00  0.00000000E+00
  0.00000000E+00  0.00000000E+00  0.00000000E+00
  0.00000000E+00  0.00000000E+00  0.00000000E+00
  0.00000000E+00  0.00000000E+00  0.00000000E+00
  0.00000000E+00  0.00000000E+00  0.00000000E+00
  0.00000000E+00  0.00000000E+00  0.00000000E+00
  0.00000000E+00  0.00000000E+00  0.00000000E+00
  0.00000000E+00  0.00000000E+00  0.00000000E+00
  0.00000000E+00  0.00000000E+00  0.00000000E+00
  0.00000000E+00  0.00000000E+00  0.00000000E+00
  0.00000000E+00  0.00000000E+00  0.00000000E+00
  0.00000000E+00  0.00000000E+00  0.00000000E+00
  0.00000000E+00  0.00000000E+00  0.00000000E+00
  0.00000000E+00  0.00000000E+00  0.00000000E+00
  0.00000000E+00  0.00000000E+00  0.00000000E+00
  0.00000000E+00  0.00000000E+00  0.00000000E+00
  0.00000000E+00  0.00000000E+00  0.00000000E+00
  0.00000000E+00  0.00000000E+00  0.00000000E+00
  0.00000000E+00  0.00000000E+00  0.00000000E+00
  0.00000000E+00  0.00000000E+00  0.00000000E+00
  0.00000000E+00  0.00000000E+00  0.00000000E+00
  0.00000000E+00  0.00000000E+00  0.00000000E+00
  0.00000000E+00  0.00000000E+00  0.00000000E+00
  0.00000000E+00  0.00000000E+00  0.00000000E+00
  0.00000000E+00  0.00000000E+00  0.00000000E+00
  0.00000000E+00  0.00000000E+00  0.00000000E+00
  0.00000000E+00  0.00000000E+00  0.00000000E+00
  0.00000000E+00  0.00000000E+00  0.00000000E+00
  0.00000000E+00  0.00000000E+00  0.00000000E+00
