generated by phonopy                    
   1.00000000000000     
    10.0351470768999995   -0.0000022330999784   -0.0000001056124209
    -5.0175765436399997    8.6906901959899994    0.0000001395531216
    -0.0000001735893656    0.0000001431815548   14.9533752540999991
   Pb   P    O 
    20    13    49
Direct
  0.9857635324239737  0.7629743112031093  0.1574770674488306
  0.9951833511298389  0.7782716280523516  0.6173784988632747
  0.9994557685079641  0.2567664603945516  0.3746534462345608
  0.9873790729165179  0.2365503164818961  0.8822737856309644
  0.2214043576475717  0.2148669849940887  0.1240775713308722
  0.2220713775756238  0.2288714474796905  0.6183249333100918
  0.7372396596717294  0.7436200793166847  0.3791392010673249
  0.7020130645414895  0.7401554486414881  0.8553004257418948
  0.7680857186433130  0.9947705776474223  0.1250858551096599
  0.7744814731770973  0.0082013077805456  0.6140331824350866
  0.2653938411488355  0.0013040807491436  0.3741509598408044
  0.2624187021140614  0.0223330522099872  0.8642314443107395
  0.6417410999554107  0.3194181696118576  0.0116013753499260
  0.6609624431149541  0.3301732556097221  0.5016279321759356
  0.3705585570270173  0.6778809526714085  0.0060990993156551
  0.3287868762550659  0.6698746942241200  0.5004713777087559
  0.3349792843228414  0.6390968407744353  0.2451694865789449
  0.3245443513869901  0.6718683509354406  0.7361991350072614
  0.6829334750083405  0.3408091613148372  0.2497632340151483
  0.6765572240298852  0.3422329059449467  0.7459455517593341
  0.5674205961747987  0.5825831904642342  0.1539485674576397
  0.6192526102950566  0.5960296403381804  0.6251242467021640
  0.3670643489060978  0.3913942905733876  0.3760168347230319
  0.3457140230339633  0.3777743035904919  0.8724070733981222
  0.4054820682511462  0.0230742176328391  0.1262568024819686
  0.4023019165403525  0.0322720983970086  0.6265592084518516
  0.6045188971217144  0.9732845458725308  0.3736315267243100
  0.5922115218236783  0.9793876734565572  0.8678822846860612
  0.9740433061993556  0.3717833939323327  0.1250202379290997
  0.9667295470633519  0.3767514704317065  0.6244225103243863
  0.0250982079753967  0.6265321531966777  0.3884161449342258
  0.0426822842473769  0.6333067162127861  0.8725521399060625
  0.9439939971642204  0.7623429972031133  0.9717191759668964
  0.5988783095025312  0.6765840486244699  0.0633961907218819
  0.4960114221427219  0.6459048909599261  0.6232956480161675
  0.4695879309772266  0.3158937066511243  0.3720109345811480
  0.4616998256052582  0.3165685389337938  0.8747263916679131
  0.3688046060078918  0.8536096799911235  0.1215710960623539
  0.3577596071974369  0.8597129754326858  0.6218486655765290
  0.6807769504316070  0.1517278497333194  0.3733613192673531
  0.6749861586247690  0.1571399276941960  0.8710478428409161
  0.1500525295697273  0.4890478884685692  0.1250367695022518
  0.1426523675573179  0.4954897395746869  0.6209549147681699
  0.8469544721438567  0.5273285417070639  0.3883229808003037
  0.8691082978355382  0.5861788783244464  0.9005826551920180
  0.7241463579033152  0.6507591786677125  0.5399881940870301
  0.2582510409467176  0.3394226102519440  0.4586884843120913
  0.2491520851887543  0.3389898090296342  0.9603725346752370
  0.3587150947330571  0.0787816456655577  0.0390412505326765
  0.3616170781463808  0.0854287656477126  0.5376138964441566
  0.6529986022977567  0.9143407617336194  0.4580313055031908
  0.6237696121463188  0.9109610434739963  0.9541994136943970
  0.9272959019490301  0.2587603111244619  0.0433540213226422
  0.9151349264833968  0.2716846239486657  0.5384694285942899
  0.0940652197827916  0.7223411480339266  0.4756402588882054
  0.1158434464624918  0.7483619586159449  0.9583302682551604
  0.2596755301181588  0.3524100313314307  0.2918542712991226
  0.2278285475970989  0.3011458045490158  0.7945704039278922
  0.7235360462348908  0.6607735414288953  0.2126895368101529
  0.7309750949678957  0.6706516837791838  0.7074855935541962
  0.6505874111679617  0.9095421560483175  0.2910253823684741
  0.6497814825624602  0.9194992802349020  0.7872547034771102
  0.3223892955288576  0.0501344227547875  0.2069204191246570
  0.3135201460159323  0.0602311385571639  0.7036978266722826
  0.0813218350487404  0.7461793570398640  0.3108575030007756
  0.0947164231252060  0.7266278982493262  0.7866067007494379
  0.9237327383162395  0.2694762192559281  0.2119924907330315
  0.9237841878881525  0.2696510218038810  0.7078831409417319
  0.5429318388357487  0.4162316303851696  0.1296027046137311
  0.5429700787506562  0.4167329869509828  0.6323819356919174
  0.4725395251214337  0.5732065322867470  0.3793202747759494
  0.4361116841646151  0.5583204921435012  0.8598980269110115
  0.5854361747491907  0.1343573494995098  0.1352835828356262
  0.5804214470743290  0.1354733292296757  0.6426428087585236
  0.4236616068867036  0.8971464241613845  0.3762051436792362
  0.4136513788616867  0.9057703600742570  0.8575319415642966
  0.8766255319091201  0.4553857665175656  0.1211153846343365
  0.8703076284560041  0.4612568440947840  0.6269106848964299
  0.0988613339621409  0.5202595400822574  0.3762704858632375
  0.0768405701772465  0.5024472640816811  0.8774998916692098
  0.9929119600079019  0.9900866795686980  0.1247977075093019
  0.9971850587212217  0.0041599694154257  0.5935470188699625
 
  0.00000000E+00  0.00000000E+00  0.00000000E+00
  0.00000000E+00  0.00000000E+00  0.00000000E+00
  0.00000000E+00  0.00000000E+00  0.00000000E+00
  0.00000000E+00  0.00000000E+00  0.00000000E+00
  0.00000000E+00  0.00000000E+00  0.00000000E+00
  0.00000000E+00  0.00000000E+00  0.00000000E+00
  0.00000000E+00  0.00000000E+00  0.00000000E+00
  0.00000000E+00  0.00000000E+00  0.00000000E+00
  0.00000000E+00  0.00000000E+00  0.00000000E+00
  0.00000000E+00  0.00000000E+00  0.00000000E+00
  0.00000000E+00  0.00000000E+00  0.00000000E+00
  0.00000000E+00  0.00000000E+00  0.00000000E+00
  0.00000000E+00  0.00000000E+00  0.00000000E+00
  0.00000000E+00  0.00000000E+00  0.00000000E+00
  0.00000000E+00  0.00000000E+00  0.00000000E+00
  0.00000000E+00  0.00000000E+00  0.00000000E+00
  0.00000000E+00  0.00000000E+00  0.00000000E+00
  0.00000000E+00  0.00000000E+00  0.00000000E+00
  0.00000000E+00  0.00000000E+00  0.00000000E+00
  0.00000000E+00  0.00000000E+00  0.00000000E+00
  0.00000000E+00  0.00000000E+00  0.00000000E+00
  0.00000000E+00  0.00000000E+00  0.00000000E+00
  0.00000000E+00  0.00000000E+00  0.00000000E+00
  0.00000000E+00  0.00000000E+00  0.00000000E+00
  0.00000000E+00  0.00000000E+00  0.00000000E+00
  0.00000000E+00  0.00000000E+00  0.00000000E+00
  0.00000000E+00  0.00000000E+00  0.00000000E+00
  0.00000000E+00  0.00000000E+00  0.00000000E+00
  0.00000000E+00  0.00000000E+00  0.00000000E+00
  0.00000000E+00  0.00000000E+00  0.00000000E+00
  0.00000000E+00  0.00000000E+00  0.00000000E+00
  0.00000000E+00  0.00000000E+00  0.00000000E+00
  0.00000000E+00  0.00000000E+00  0.00000000E+00
  0.00000000E+00  0.00000000E+00  0.00000000E+00
  0.00000000E+00  0.00000000E+00  0.00000000E+00
  0.00000000E+00  0.00000000E+00  0.00000000E+00
  0.00000000E+00  0.00000000E+00  0.00000000E+00
  0.00000000E+00  0.00000000E+00  0.00000000E+00
  0.00000000E+00  0.00000000E+00  0.00000000E+00
  0.00000000E+00  0.00000000E+00  0.00000000E+00
  0.00000000E+00  0.00000000E+00  0.00000000E+00
  0.00000000E+00  0.00000000E+00  0.00000000E+00
  0.00000000E+00  0.00000000E+00  0.00000000E+00
  0.00000000E+00  0.00000000E+00  0.00000000E+00
  0.00000000E+00  0.00000000E+00  0.00000000E+00
  0.00000000E+00  0.00000000E+00  0.00000000E+00
  0.00000000E+00  0.00000000E+00  0.00000000E+00
  0.00000000E+00  0.00000000E+00  0.00000000E+00
  0.00000000E+00  0.00000000E+00  0.00000000E+00
  0.00000000E+00  0.00000000E+00  0.00000000E+00
  0.00000000E+00  0.00000000E+00  0.00000000E+00
  0.00000000E+00  0.00000000E+00  0.00000000E+00
  0.00000000E+00  0.00000000E+00  0.00000000E+00
  0.00000000E+00  0.00000000E+00  0.00000000E+00
  0.00000000E+00  0.00000000E+00  0.00000000E+00
  0.00000000E+00  0.00000000E+00  0.00000000E+00
  0.00000000E+00  0.00000000E+00  0.00000000E+00
  0.00000000E+00  0.00000000E+00  0.00000000E+00
  0.00000000E+00  0.00000000E+00  0.00000000E+00
  0.00000000E+00  0.00000000E+00  0.00000000E+00
  0.00000000E+00  0.00000000E+00  0.00000000E+00
  0.00000000E+00  0.00000000E+00  0.00000000E+00
  0.00000000E+00  0.00000000E+00  0.00000000E+00
  0.00000000E+00  0.00000000E+00  0.00000000E+00
  0.00000000E+00  0.00000000E+00  0.00000000E+00
  0.00000000E+00  0.00000000E+00  0.00000000E+00
  0.00000000E+00  0.00000000E+00  0.00000000E+00
  0.00000000E+00  0.00000000E+00  0.00000000E+00
  0.00000000E+00  0.00000000E+00  0.00000000E+00
  0.00000000E+00  0.00000000E+00  0.00000000E+00
  0.00000000E+00  0.00000000E+00  0.00000000E+00
  0.00000000E+00  0.00000000E+00  0.00000000E+00
  0.00000000E+00  0.00000000E+00  0.00000000E+00
  0.00000000E+00  0.00000000E+00  0.00000000E+00
  0.00000000E+00  0.00000000E+00  0.00000000E+00
  0.00000000E+00  0.00000000E+00  0.00000000E+00
  0.00000000E+00  0.00000000E+00  0.00000000E+00
  0.00000000E+00  0.00000000E+00  0.00000000E+00
  0.00000000E+00  0.00000000E+00  0.00000000E+00
  0.00000000E+00  0.00000000E+00  0.00000000E+00
  0.00000000E+00  0.00000000E+00  0.00000000E+00
  0.00000000E+00  0.00000000E+00  0.00000000E+00
