generated by phonopy                    
   1.00000000000000     
    10.0351470768999995   -0.0000022330999784   -0.0000001056124209
    -5.0175765436399997    8.6906901959899994    0.0000001395531216
    -0.0000001735893656    0.0000001431815548   14.9533752540999991
   Pb   P    O 
    20    13    49
Direct
  0.0009584333919079  0.7765212231330807  0.1288686517628079
  0.9932084408165309  0.7645657407107151  0.6348316242906407
  0.9799513301710263  0.2700135873624987  0.3664906791936673
  0.0003898706059786  0.2583884398675309  0.8766361658509254
  0.2307030834858494  0.2259708455908225  0.1244583431784960
  0.2226046152167456  0.2070878210214175  0.6496665085444207
  0.7468484576249779  0.7484637752825307  0.3782732959459167
  0.7417526077097776  0.7424678427741469  0.8758885566754344
  0.7728727607824553  0.0016328569996418  0.1236911481458947
  0.7721392391133151  0.9982893037670806  0.6351826163108143
  0.2623996947867369  0.9985037262649570  0.3807076548540707
  0.2566707773688321  0.9932690108674009  0.8798673128044143
  0.6689735774642998  0.3350109744463410  0.9994784466066093
  0.6722352921809644  0.3302868637701835  0.5019967467448083
  0.3318267003464257  0.6665681775762948  0.0031866901184969
  0.3214214062754408  0.6493679477434995  0.5025952730192387
  0.3450521799279969  0.6672880687994294  0.2431381272071107
  0.3331315461719058  0.6664308555334699  0.7439530946063257
  0.6716118765320545  0.3373654808492219  0.2434157814072151
  0.6557441544081115  0.3325984618082316  0.7478556158050012
  0.6275648338807400  0.5965281111665632  0.1200050346812489
  0.6194269162212294  0.5920022022447640  0.6232118330868701
  0.3833408941487590  0.3979649601816746  0.3631534446724132
  0.3683843873788604  0.3976686739513156  0.8768367873089602
  0.4057819782150389  0.0283260600349635  0.1217811146485275
  0.4103253001289602  0.0242519662334786  0.6262546580952062
  0.6051486930466581  0.9696441886566660  0.3715793257947055
  0.6068631407183602  0.9750413195711758  0.8713238715658065
  0.9744454751323701  0.3794366476360196  0.1177941448391380
  0.9655370164809014  0.3807386500526775  0.6226894900606794
  0.0255297993951302  0.6395549020125557  0.3718986229371737
  0.0250752107644701  0.6292486115986051  0.8722567870803246
  0.2242897787446978  0.3098447674735851  0.4709991202337065
  0.5047420901130479  0.6487965542926659  0.1200639339121778
  0.4978334794750126  0.6456957733196376  0.6247824029833708
  0.4876777534283079  0.3246665532482353  0.3599528166374810
  0.4646933110384950  0.3158882106675378  0.8771143854252799
  0.3561254718694187  0.8539545176607461  0.1222626379389240
  0.3571700786957734  0.8501138248754501  0.6297072028047737
  0.6765215894404832  0.1485550941470208  0.3717142965031499
  0.6855932939709177  0.1533546989213832  0.8702192991373963
  0.1498242610036016  0.4985028000238003  0.1205128836684537
  0.1388356151388948  0.5071426606736651  0.6250459013676561
  0.8482405078804263  0.5294860509403350  0.3768985469853448
  0.8466924053781000  0.5323158119502267  0.8729268142992836
  0.7311690790490744  0.6557284516127666  0.0344332757197066
  0.7286017868284418  0.6598114126649364  0.5402591374227796
  0.2566022201917590  0.3514785126835349  0.9584156891950073
  0.3444994350635682  0.0708743172824100  0.0359038500802384
  0.3440542775193123  0.0642871711742572  0.5428969640724546
  0.6592621959112890  0.9139268285244952  0.4540912047804255
  0.6587970336995070  0.9148561860226465  0.9530062505539973
  0.9282633571671255  0.2733996611218714  0.0330537340567787
  0.9145483980625784  0.2918336194925502  0.5316931718613986
  0.0932291712566524  0.7387869051006248  0.4581884860014398
  0.0911460793514252  0.7390620356240092  0.9550023493491224
  0.2773124912133369  0.3650779117754936  0.2802028889987156
  0.2640844152237847  0.3566434209597986  0.7914174460632495
  0.7355802348775171  0.6609750711851916  0.2036035208079170
  0.7241243571991021  0.6488410628700976  0.7089621103553441
  0.6530191630456557  0.9120282970519256  0.2865078796906104
  0.6452272477782373  0.9102527829552614  0.7856048738232460
  0.3401814426784497  0.0716638436617885  0.2045673352545094
  0.3535063316736711  0.0738549489257565  0.7121478255121332
  0.0722692558153497  0.7554427409405093  0.2923664561476542
  0.0884823119977938  0.7349444486448107  0.7876471081362837
  0.9258378123529951  0.2691053951895128  0.2009127965669961
  0.9295608190364462  0.2622176904360032  0.6999870397407335
  0.5471609407286238  0.4160020776374012  0.1216482282693008
  0.5381121569603096  0.4117129520956411  0.6208346370698550
  0.4863038510029227  0.5797395172722304  0.3712144091304097
  0.4774960248661202  0.5780590553413489  0.8780330740295952
  0.5860470591368738  0.1301842088549563  0.1220623303144919
  0.5906367957327561  0.1256300929999909  0.6251092915473251
  0.4241477168036880  0.8913724632892084  0.3717218694189341
  0.4259427765052166  0.9006106527405251  0.8756635420180956
  0.8775382628793054  0.4624871521822485  0.1177991357131205
  0.8634586624325351  0.4582131992760310  0.6346337676693850
  0.1051459831759516  0.5383819002588339  0.3589733742656023
  0.0962219064965240  0.5198951709222541  0.8731879556174533
  0.9996712929113230  0.0027604608343097  0.1256690466170980
  0.9949482871277127  0.9909516735502493  0.6678349712066023
 
  0.00000000E+00  0.00000000E+00  0.00000000E+00
  0.00000000E+00  0.00000000E+00  0.00000000E+00
  0.00000000E+00  0.00000000E+00  0.00000000E+00
  0.00000000E+00  0.00000000E+00  0.00000000E+00
  0.00000000E+00  0.00000000E+00  0.00000000E+00
  0.00000000E+00  0.00000000E+00  0.00000000E+00
  0.00000000E+00  0.00000000E+00  0.00000000E+00
  0.00000000E+00  0.00000000E+00  0.00000000E+00
  0.00000000E+00  0.00000000E+00  0.00000000E+00
  0.00000000E+00  0.00000000E+00  0.00000000E+00
  0.00000000E+00  0.00000000E+00  0.00000000E+00
  0.00000000E+00  0.00000000E+00  0.00000000E+00
  0.00000000E+00  0.00000000E+00  0.00000000E+00
  0.00000000E+00  0.00000000E+00  0.00000000E+00
  0.00000000E+00  0.00000000E+00  0.00000000E+00
  0.00000000E+00  0.00000000E+00  0.00000000E+00
  0.00000000E+00  0.00000000E+00  0.00000000E+00
  0.00000000E+00  0.00000000E+00  0.00000000E+00
  0.00000000E+00  0.00000000E+00  0.00000000E+00
  0.00000000E+00  0.00000000E+00  0.00000000E+00
  0.00000000E+00  0.00000000E+00  0.00000000E+00
  0.00000000E+00  0.00000000E+00  0.00000000E+00
  0.00000000E+00  0.00000000E+00  0.00000000E+00
  0.00000000E+00  0.00000000E+00  0.00000000E+00
  0.00000000E+00  0.00000000E+00  0.00000000E+00
  0.00000000E+00  0.00000000E+00  0.00000000E+00
  0.00000000E+00  0.00000000E+00  0.00000000E+00
  0.00000000E+00  0.00000000E+00  0.00000000E+00
  0.00000000E+00  0.00000000E+00  0.00000000E+00
  0.00000000E+00  0.00000000E+00  0.00000000E+00
  0.00000000E+00  0.00000000E+00  0.00000000E+00
  0.00000000E+00  0.00000000E+00  0.00000000E+00
  0.00000000E+00  0.00000000E+00  0.00000000E+00
  0.00000000E+00  0.00000000E+00  0.00000000E+00
  0.00000000E+00  0.00000000E+00  0.00000000E+00
  0.00000000E+00  0.00000000E+00  0.00000000E+00
  0.00000000E+00  0.00000000E+00  0.00000000E+00
  0.00000000E+00  0.00000000E+00  0.00000000E+00
  0.00000000E+00  0.00000000E+00  0.00000000E+00
  0.00000000E+00  0.00000000E+00  0.00000000E+00
  0.00000000E+00  0.00000000E+00  0.00000000E+00
  0.00000000E+00  0.00000000E+00  0.00000000E+00
  0.00000000E+00  0.00000000E+00  0.00000000E+00
  0.00000000E+00  0.00000000E+00  0.00000000E+00
  0.00000000E+00  0.00000000E+00  0.00000000E+00
  0.00000000E+00  0.00000000E+00  0.00000000E+00
  0.00000000E+00  0.00000000E+00  0.00000000E+00
  0.00000000E+00  0.00000000E+00  0.00000000E+00
  0.00000000E+00  0.00000000E+00  0.00000000E+00
  0.00000000E+00  0.00000000E+00  0.00000000E+00
  0.00000000E+00  0.00000000E+00  0.00000000E+00
  0.00000000E+00  0.00000000E+00  0.00000000E+00
  0.00000000E+00  0.00000000E+00  0.00000000E+00
  0.00000000E+00  0.00000000E+00  0.00000000E+00
  0.00000000E+00  0.00000000E+00  0.00000000E+00
  0.00000000E+00  0.00000000E+00  0.00000000E+00
  0.00000000E+00  0.00000000E+00  0.00000000E+00
  0.00000000E+00  0.00000000E+00  0.00000000E+00
  0.00000000E+00  0.00000000E+00  0.00000000E+00
  0.00000000E+00  0.00000000E+00  0.00000000E+00
  0.00000000E+00  0.00000000E+00  0.00000000E+00
  0.00000000E+00  0.00000000E+00  0.00000000E+00
  0.00000000E+00  0.00000000E+00  0.00000000E+00
  0.00000000E+00  0.00000000E+00  0.00000000E+00
  0.00000000E+00  0.00000000E+00  0.00000000E+00
  0.00000000E+00  0.00000000E+00  0.00000000E+00
  0.00000000E+00  0.00000000E+00  0.00000000E+00
  0.00000000E+00  0.00000000E+00  0.00000000E+00
  0.00000000E+00  0.00000000E+00  0.00000000E+00
  0.00000000E+00  0.00000000E+00  0.00000000E+00
  0.00000000E+00  0.00000000E+00  0.00000000E+00
  0.00000000E+00  0.00000000E+00  0.00000000E+00
  0.00000000E+00  0.00000000E+00  0.00000000E+00
  0.00000000E+00  0.00000000E+00  0.00000000E+00
  0.00000000E+00  0.00000000E+00  0.00000000E+00
  0.00000000E+00  0.00000000E+00  0.00000000E+00
  0.00000000E+00  0.00000000E+00  0.00000000E+00
  0.00000000E+00  0.00000000E+00  0.00000000E+00
  0.00000000E+00  0.00000000E+00  0.00000000E+00
  0.00000000E+00  0.00000000E+00  0.00000000E+00
  0.00000000E+00  0.00000000E+00  0.00000000E+00
  0.00000000E+00  0.00000000E+00  0.00000000E+00
