POSCAR
1.00
  3.12840000 -5.41860000  5.01530000
  3.12840000 -5.41860000 -5.01530000
  4.69260000  8.12790000  0.00000000
  Al  Gd   N
  20   4  24
Direct
  0.08350000  0.58350000  0.22233333
  0.83350000  0.33350000  0.22233333
  0.58350000  0.08350000  0.22233333
  0.83350000  0.33350000  0.55566667
  0.08350000  0.58350000  0.88900000
  0.33350000  0.83350000  0.22233333
  0.58350000  0.08350000  0.55566667
  0.83350000  0.33350000  0.88900000
  0.33350000  0.83350000  0.55566667
  0.58350000  0.08350000  0.88900000
  0.66650000  0.66650000  0.11100000
  0.41650000  0.41650000  0.11100000
  0.66650000  0.66650000  0.44433333
  0.16650000  0.16650000  0.11100000
  0.41650000  0.41650000  0.44433333
  0.66650000  0.66650000  0.77766667
  0.91650000  0.91650000  0.11100000
  0.41650000  0.41650000  0.77766667
  0.91650000  0.91650000  0.44433333
  0.91650000  0.91650000  0.77766667
  0.08350000  0.58350000  0.55566667
  0.33350000  0.83350000  0.88900000
  0.16650000  0.16650000  0.44433333
  0.16650000  0.16650000  0.77766667
  0.27400000  0.39300000  0.22233333
  0.02400000  0.14300000  0.22233333
  0.27400000  0.39300000  0.55566667
  0.77400000  0.89300000  0.22233333
  0.02400000  0.14300000  0.55566667
  0.27400000  0.39300000  0.88900000
  0.52400000  0.64300000  0.22233333
  0.77400000  0.89300000  0.55566667
  0.02400000  0.14300000  0.88900000
  0.52400000  0.64300000  0.55566667
  0.77400000  0.89300000  0.88900000
  0.52400000  0.64300000  0.88900000
  0.85700000  0.47600000  0.11100000
  0.60700000  0.22600000  0.11100000
  0.85700000  0.47600000  0.44433333
  0.35700000  0.97600000  0.11100000
  0.60700000  0.22600000  0.44433333
  0.85700000  0.47600000  0.77766667
  0.10700000  0.72600000  0.11100000
  0.35700000  0.97600000  0.44433333
  0.60700000  0.22600000  0.77766667
  0.10700000  0.72600000  0.44433333
  0.35700000  0.97600000  0.77766667
  0.10700000  0.72600000  0.77766667
