POSCAR
1.00
  0.00000000 -5.41860000 -10.03060000
  0.00000000  5.41860000 -10.03060000
  4.69260000 -2.70930000 10.03060000
  Gd  Al   N
  12  12  24
Direct
  0.62516667  0.95850000  0.33366667
  0.79183333  0.45850000  0.00033333
  0.45850000  0.45850000  0.66700000
  0.12516667  0.45850000  0.33366667
  0.29183333  0.95850000  0.00033333
  0.20850000  0.20850000  0.66700000
  0.66650000  0.66650000  0.33300000
  0.74983333  0.41650000  0.66633333
  0.24983333  0.91650000  0.66633333
  0.49983333  0.16650000  0.66633333
  0.16650000  0.16650000  0.33300000
  0.99983333  0.66650000  0.66633333
  0.70850000  0.70850000  0.66700000
  0.37516667  0.70850000  0.33366667
  0.95850000  0.95850000  0.66700000
  0.54183333  0.20850000  0.00033333
  0.87516667  0.20850000  0.33366667
  0.04183333  0.70850000  0.00033333
  0.58316667  0.91650000  0.99966667
  0.33316667  0.66650000  0.99966667
  0.41650000  0.41650000  0.33300000
  0.08316667  0.41650000  0.99966667
  0.91650000  0.91650000  0.33300000
  0.83316667  0.16650000  0.99966667
  0.52991667  0.86325000  0.33366667
  0.61325000  0.61325000  0.66700000
  0.27991667  0.61325000  0.33366667
  0.69658333  0.36325000  0.00033333
  0.36325000  0.36325000  0.66700000
  0.02991667  0.36325000  0.33366667
  0.19658333  0.86325000  0.00033333
  0.86325000  0.86325000  0.66700000
  0.44658333  0.11325000  0.00033333
  0.11325000  0.11325000  0.66700000
  0.77991667  0.11325000  0.33366667
  0.94658333  0.61325000  0.00033333
  0.48791667  0.82125000  0.99966667
  0.57125000  0.57125000  0.33300000
  0.23791667  0.57125000  0.99966667
  0.65458333  0.32125000  0.66633333
  0.32125000  0.32125000  0.33300000
  0.98791667  0.32125000  0.99966667
  0.15458333  0.82125000  0.66633333
  0.82125000  0.82125000  0.33300000
  0.40458333  0.07125000  0.66633333
  0.07125000  0.07125000  0.33300000
  0.73791667  0.07125000  0.99966667
  0.90458333  0.57125000  0.66633333
