generated by phonopy                    
   1.00000000000000     
    10.0351470768999995   -0.0000022330999784   -0.0000001056124209
    -5.0175765436399997    8.6906901959899994    0.0000001395531216
    -0.0000001735893656    0.0000001431815548   14.9533752540999991
   Pb   Cu   P    O 
    19     1    12    50
Direct
  0.9976875894943547  0.7757787529387059  0.1240863471033862
  0.9983693713575477  0.7699859839989500  0.6239474944269574
  0.0113202758992585  0.2687342587760710  0.3689479679723746
  0.0141448227316658  0.2853323865632689  0.8816575573318346
  0.2254246855795401  0.2254891353514950  0.1181454826622144
  0.2316599536154555  0.2251175053328609  0.6189005238480974
  0.7414474433173908  0.7425718880507119  0.3787085666798475
  0.7250985102112821  0.7327807703752853  0.8830053784449987
  0.7729281438532070  0.0052329674360649  0.1208094820638692
  0.7786203372826819  0.0031309294293393  0.6185167993452438
  0.2595592614978415  0.9925092037232730  0.3725066667337842
  0.2867347178628918  0.0083723602368337  0.8761849882530441
  0.6635424816383235  0.3314273917276438  0.9989354810372149
  0.6649031221967618  0.3259433451761211  0.4975502970037979
  0.3313772490133502  0.6673858514827486  0.5064424781913033
  0.3481083847851991  0.6668148200181889  0.2347389018366357
  0.3349190637021522  0.6584992166955459  0.7498005572465232
  0.6732010961887553  0.3475917981146708  0.2457608742142483
  0.6704238183956335  0.3312665098946894  0.7424570594868811
  0.2694745014529758  0.6951046468723092  0.0101310969308770
  0.6259604563410051  0.5941210126356111  0.1252719433045542
  0.6250074900654070  0.5939734719172947  0.6250627234109345
  0.3735611824702261  0.3984242099604529  0.3706195459152752
  0.3644034511459608  0.3898094148497790  0.8751574976132730
  0.4030060317252619  0.0238868495769538  0.1183470215433076
  0.4062505492058506  0.0269696654092186  0.6220824146258934
  0.6088953881217449  0.9740473025072092  0.3717983761870656
  0.5793763037848407  0.9481678383029717  0.8894485672958581
  0.9859461341685289  0.3964270632550750  0.1151858380372914
  0.9696325295355379  0.3730448052274511  0.6202411261796072
  0.0279030339910733  0.6328141444002213  0.3769638495607310
  0.0342283618951313  0.6391000198339256  0.8792688122582959
  0.5134275662504493  0.6566406933126459  0.1275248854948785
  0.4990197954223419  0.6417267688466453  0.6266225726056902
  0.4743494833242607  0.3210075970463393  0.3650585274017217
  0.4689520066387587  0.3166453749724241  0.8671345525026268
  0.3519444096197546  0.8477084822072243  0.1099820354862047
  0.3529468033408918  0.8521647211924162  0.6235959995408251
  0.6887803304284859  0.1521227818726345  0.3647465927826659
  0.6071447937084571  0.1139903809204768  0.8768115693875984
  0.1571463047942530  0.5319965414103933  0.1023042762261213
  0.1445650418179127  0.4939457460546990  0.6205567636677713
  0.8492319714481482  0.5298901310181492  0.3756865374826930
  0.8634150985079430  0.5104811000948288  0.8721778550301735
  0.7377644723477417  0.6623043914034028  0.0428731758589862
  0.7357617359545543  0.6690453478275842  0.5429213858926545
  0.2587701539980074  0.3354958527974077  0.4512358799608762
  0.2400253298501553  0.3040145920416961  0.9504351825774293
  0.3397239009575515  0.0754635536221286  0.0372614628087504
  0.3418472596917397  0.0713636581402355  0.5383568441583222
  0.6694742864083949  0.9224960968673273  0.4541876128379272
  0.6899824091698292  0.9377454397597305  0.9587797962799129
  0.9340952100304563  0.2774535473893707  0.0360879882289566
  0.9268695463454222  0.2597414481612290  0.5384523715404228
  0.0868024159633265  0.7435386111480327  0.4598944070482460
  0.0628265350968107  0.7614248010041820  0.9525177891380565
  0.2738691538873610  0.3709875999949972  0.2846512904543772
  0.2667202478412989  0.3695704191755382  0.7887955534491766
  0.7303552722725541  0.6395804462984529  0.2114356251999112
  0.7262838812678609  0.6467947542133103  0.7116837789423158
  0.6374350337683978  0.8988334591246385  0.2874678411964737
  0.6002433756667003  0.8781399861251202  0.8008271105713547
  0.3364796407025565  0.0537319750213001  0.2050065388404363
  0.3489112872460183  0.0748872450162281  0.7069793564352267
  0.0901221038313764  0.7379691706164238  0.2926638501642600
  0.1035523125961930  0.7233693404165322  0.7896980982272623
  0.9705699415534212  0.3070002952998792  0.2026746593988307
  0.9204971459961797  0.2733467796039548  0.7075234415315421
  0.5407004567884997  0.4133549627175626  0.1185750182594489
  0.5487906579507111  0.4139345807541375  0.6178769662771302
  0.4797743350504362  0.5785199616835683  0.3819709391658037
  0.4649328231479259  0.5658094241345779  0.8946270406847106
  0.5825715938596261  0.1255644252105981  0.1185517886371414
  0.5869703213771302  0.1263727549718539  0.6192983640208780
  0.4290736245785780  0.9016718724285511  0.3826521133085592
  0.4029351461271560  0.8485553942037143  0.9189646740680715
  0.8734697890168448  0.4620094816451754  0.1170826425959319
  0.8703991693093869  0.4543443199412778  0.6135316315716324
  0.1037502852665284  0.5277107035018673  0.3823756007730239
  0.1321871160796064  0.5584732171746154  0.9104798074838598
  0.9967469066835193  0.0014690344330717  0.1209707430809672
  0.0031065758760676  0.0004333944164543  0.6180096314753314
 
  0.00000000E+00  0.00000000E+00  0.00000000E+00
  0.00000000E+00  0.00000000E+00  0.00000000E+00
  0.00000000E+00  0.00000000E+00  0.00000000E+00
  0.00000000E+00  0.00000000E+00  0.00000000E+00
  0.00000000E+00  0.00000000E+00  0.00000000E+00
  0.00000000E+00  0.00000000E+00  0.00000000E+00
  0.00000000E+00  0.00000000E+00  0.00000000E+00
  0.00000000E+00  0.00000000E+00  0.00000000E+00
  0.00000000E+00  0.00000000E+00  0.00000000E+00
  0.00000000E+00  0.00000000E+00  0.00000000E+00
  0.00000000E+00  0.00000000E+00  0.00000000E+00
  0.00000000E+00  0.00000000E+00  0.00000000E+00
  0.00000000E+00  0.00000000E+00  0.00000000E+00
  0.00000000E+00  0.00000000E+00  0.00000000E+00
  0.00000000E+00  0.00000000E+00  0.00000000E+00
  0.00000000E+00  0.00000000E+00  0.00000000E+00
  0.00000000E+00  0.00000000E+00  0.00000000E+00
  0.00000000E+00  0.00000000E+00  0.00000000E+00
  0.00000000E+00  0.00000000E+00  0.00000000E+00
  0.00000000E+00  0.00000000E+00  0.00000000E+00
  0.00000000E+00  0.00000000E+00  0.00000000E+00
  0.00000000E+00  0.00000000E+00  0.00000000E+00
  0.00000000E+00  0.00000000E+00  0.00000000E+00
  0.00000000E+00  0.00000000E+00  0.00000000E+00
  0.00000000E+00  0.00000000E+00  0.00000000E+00
  0.00000000E+00  0.00000000E+00  0.00000000E+00
  0.00000000E+00  0.00000000E+00  0.00000000E+00
  0.00000000E+00  0.00000000E+00  0.00000000E+00
  0.00000000E+00  0.00000000E+00  0.00000000E+00
  0.00000000E+00  0.00000000E+00  0.00000000E+00
  0.00000000E+00  0.00000000E+00  0.00000000E+00
  0.00000000E+00  0.00000000E+00  0.00000000E+00
  0.00000000E+00  0.00000000E+00  0.00000000E+00
  0.00000000E+00  0.00000000E+00  0.00000000E+00
  0.00000000E+00  0.00000000E+00  0.00000000E+00
  0.00000000E+00  0.00000000E+00  0.00000000E+00
  0.00000000E+00  0.00000000E+00  0.00000000E+00
  0.00000000E+00  0.00000000E+00  0.00000000E+00
  0.00000000E+00  0.00000000E+00  0.00000000E+00
  0.00000000E+00  0.00000000E+00  0.00000000E+00
  0.00000000E+00  0.00000000E+00  0.00000000E+00
  0.00000000E+00  0.00000000E+00  0.00000000E+00
  0.00000000E+00  0.00000000E+00  0.00000000E+00
  0.00000000E+00  0.00000000E+00  0.00000000E+00
  0.00000000E+00  0.00000000E+00  0.00000000E+00
  0.00000000E+00  0.00000000E+00  0.00000000E+00
  0.00000000E+00  0.00000000E+00  0.00000000E+00
  0.00000000E+00  0.00000000E+00  0.00000000E+00
  0.00000000E+00  0.00000000E+00  0.00000000E+00
  0.00000000E+00  0.00000000E+00  0.00000000E+00
  0.00000000E+00  0.00000000E+00  0.00000000E+00
  0.00000000E+00  0.00000000E+00  0.00000000E+00
  0.00000000E+00  0.00000000E+00  0.00000000E+00
  0.00000000E+00  0.00000000E+00  0.00000000E+00
  0.00000000E+00  0.00000000E+00  0.00000000E+00
  0.00000000E+00  0.00000000E+00  0.00000000E+00
  0.00000000E+00  0.00000000E+00  0.00000000E+00
  0.00000000E+00  0.00000000E+00  0.00000000E+00
  0.00000000E+00  0.00000000E+00  0.00000000E+00
  0.00000000E+00  0.00000000E+00  0.00000000E+00
  0.00000000E+00  0.00000000E+00  0.00000000E+00
  0.00000000E+00  0.00000000E+00  0.00000000E+00
  0.00000000E+00  0.00000000E+00  0.00000000E+00
  0.00000000E+00  0.00000000E+00  0.00000000E+00
  0.00000000E+00  0.00000000E+00  0.00000000E+00
  0.00000000E+00  0.00000000E+00  0.00000000E+00
  0.00000000E+00  0.00000000E+00  0.00000000E+00
  0.00000000E+00  0.00000000E+00  0.00000000E+00
  0.00000000E+00  0.00000000E+00  0.00000000E+00
  0.00000000E+00  0.00000000E+00  0.00000000E+00
  0.00000000E+00  0.00000000E+00  0.00000000E+00
  0.00000000E+00  0.00000000E+00  0.00000000E+00
  0.00000000E+00  0.00000000E+00  0.00000000E+00
  0.00000000E+00  0.00000000E+00  0.00000000E+00
  0.00000000E+00  0.00000000E+00  0.00000000E+00
  0.00000000E+00  0.00000000E+00  0.00000000E+00
  0.00000000E+00  0.00000000E+00  0.00000000E+00
  0.00000000E+00  0.00000000E+00  0.00000000E+00
  0.00000000E+00  0.00000000E+00  0.00000000E+00
  0.00000000E+00  0.00000000E+00  0.00000000E+00
  0.00000000E+00  0.00000000E+00  0.00000000E+00
  0.00000000E+00  0.00000000E+00  0.00000000E+00
