supercell of POSCAR                     
   1.03600000000000     
     9.6051007291200001   -5.6678653607799996   -9.9907275475200006
     9.5551777488200003    5.5783510108199996    9.9928581731800001
    -1.5573508785200001   -8.3719044994900003    4.9655686364999996
   Al   Gd   N 
    72    23    96
Direct
  0.3019290989431767  0.2876690858910322  0.5346161866286891
  0.1455538746942935  0.2427828224864541  0.3083523158410131
  0.3089817441401195  0.4071336367531728  0.3071597780975068
  0.4607742703843485  0.3255597341364762  0.7882402428484312
  0.1423692652654793  0.4996678968186359  0.7824024039692503
  0.2899030509885634  0.1696839338675389  0.7795623093292221
  0.4696343969870256  0.4465864978245335  0.5308846811243981
  0.1435839122365294  0.1192094378865818  0.5358597368183169
  0.4775272884789459  0.0729048356874316  0.3044659762936490
  0.2794338732424677  0.1054746348428424  0.3338311930143050
  0.1197513305862401  0.0693124803888736  0.1023071607720070
  0.1122058075262800  0.1964672536302956  0.8149199389872948
  0.2744455598746072  0.3571861933033631  0.8092135138942780
  0.1120169642554671  0.3246274767279829  0.5864166711114223
  0.2716529277893116  0.4859390236953516  0.5737798364936424
  0.4505587733772956  0.2756305538038148  0.3343430424027076
  0.1125795274306967  0.4442563739414922  0.3378816504768594
  0.4492015732777830  0.4000929271920910  0.1046851718829842
  0.8006081468022330  0.2873429791799396  0.5390969573477449
  0.6418846556311806  0.2413194392031102  0.3099893487692142
  0.8084894073351450  0.4076139603065272  0.3110183444673496
  0.9616083349492612  0.3250525812797207  0.7875390978413890
  0.6423978887607760  0.4985129895509459  0.7851796543724916
  0.7946567911154432  0.1641466041552704  0.7788685700494966
  0.9693220889250895  0.4465309024381483  0.5349467774633112
  0.6427613896832796  0.1184004524330362  0.5390346468657583
  0.9795154194589983  0.0708572874727196  0.2956540564203181
  0.7767155604861884  0.1077939578256135  0.3368493489752495
  0.6152455625016060  0.0694586415097831  0.1029959923904897
  0.6158734094215035  0.1936221420057365  0.8161663508327877
  0.7739791126235360  0.3561344989430353  0.8125471064077061
  0.6114239044952541  0.3227448989337276  0.5887437096995427
  0.7710943164676110  0.4848645274754020  0.5772205092092122
  0.9485362387769882  0.2798511058388868  0.3350712489689585
  0.6121324912751334  0.4437655660881177  0.3392192259367164
  0.9500311526078420  0.4063429821754454  0.1030388411673613
  0.3009927535559598  0.7910988566544503  0.5399043297029280
  0.1449844734561907  0.7443377322403038  0.3124009607920115
  0.3106744708706515  0.9116511707779651  0.3125631725946079
  0.4615988191840188  0.8382428291956501  0.7956687432250291
  0.1416934704476702  0.9995989782804457  0.7837007650528989
  0.2951853876468959  0.6675540075390032  0.7800829505838891
  0.4677760571860645  0.9484416571913243  0.5469746630098911
  0.1437013107691172  0.6197227171605633  0.5373547739117157
  0.4786835353721699  0.5712879399532156  0.2979873817896319
  0.2770781570137686  0.6092243059300344  0.3345264652215292
  0.1140915325785770  0.5695197810153871  0.1016203974142442
  0.1146025775914410  0.6967483341129395  0.8161644709954672
  0.2786628624704832  0.8564280522320047  0.8112025391146815
  0.1113279187813774  0.8247885962552814  0.5893451569039598
  0.2734959055737534  0.9859937883629897  0.5821462514703768
  0.4494961584750996  0.7805165602514208  0.3388946512936784
  0.1126782505193660  0.9449044476372137  0.3405290004763017
  0.4490399885175265  0.9050256521795035  0.1051002843908861
  0.8007479159068254  0.7883528442183874  0.5381150894765980
  0.6437545487525682  0.7430726905899689  0.3104386080502479
  0.8079562485245333  0.9081039959290251  0.3094450434434535
  0.9617572802398016  0.8242377865781734  0.7899791571536170
  0.6327286291420435  0.0004331626826612  0.7899037364196388
  0.7924383029605622  0.6669006075996649  0.7764896771884082
  0.9687164714436065  0.9458628588433413  0.5327718531257091
  0.6419877285886528  0.6184086761155640  0.5370276539005090
  0.9790266247747468  0.5712746918616531  0.2973208896873771
  0.7768942646449659  0.6079297805603119  0.3355080109476631
  0.6162058696119459  0.5699621349195283  0.1018729774263605
  0.6121181427620357  0.6981204210823080  0.8153949131573697
  0.7715568364106389  0.8576225070214818  0.8118283329160079
  0.6107198965016991  0.8254177650177041  0.5900692621620891
  0.7690695415725912  0.9849825106209593  0.5785098004674438
  0.9482277826734986  0.7787438555186483  0.3359213559433698
  0.6102048299111189  0.9454533595019967  0.3427309722789929
  0.9480200739156146  0.9028163033489989  0.1043122411672144
  0.4853705027660169  0.1787308737162903  0.0155807423865895
  0.1402842639571489  0.3618496094847004  0.0282230297215804
  0.3202415680685959  0.0158275411149731  0.0165378033659991
  0.2907976845750113  0.2255685372601164  0.0759762613082415
  0.4432860123642755  0.1499407109996582  0.5914290433961966
  0.9828026589473069  0.1950304399339444  0.0404099771865631
  0.6334335470228183  0.3622483022741108  0.0322207342569243
  0.8069290525801236  0.0213286554866130  0.0393690207018054
  0.7827400247183078  0.2322122922529957  0.0813038795283347
  0.9479956387181616  0.0189467033621966  0.8195165577366694
  0.9433962619162060  0.1543070290928057  0.5702869622289839
  0.4826039831695184  0.6962059533059204  0.0383883473158946
  0.1380672933595903  0.8669427670911247  0.0325636932584530
  0.3091811265721489  0.5225492716056479  0.0395051757720353
  0.2859210233137404  0.7369591722046138  0.0824686227501203
  0.4492028537697124  0.5200382640291181  0.8176677463297821
  0.4411602634033116  0.6602732451414965  0.5767492969585959
  0.9827076909634229  0.6913902724667338  0.0401474471342596
  0.6356758848215662  0.8650340381091297  0.0332576246604646
  0.8120700910103693  0.5214226361525007  0.0406164945152057
  0.7842582123425927  0.7315533331301509  0.0764951406732521
  0.9490247028829089  0.5215631674483632  0.8284308548111383
  0.9430805348750866  0.6543086201175257  0.5738399429575054
  0.2374561429711477  0.3688088478575366  0.6225343186167791
  0.0754983904978914  0.3241517124157625  0.3975030662021339
  0.2396561656921889  0.4897981791758994  0.3879514726671189
  0.4358582747748869  0.2864703542750533  0.1518620733358560
  0.0729219234030865  0.4541603667091039  0.1507747308442760
  0.2398473919391009  0.0940861692984996  0.1518805518367401
  0.3998762745543090  0.3949133688522011  0.9080198484997055
  0.0919829841928603  0.0836339014930658  0.9006078336496515
  0.2276725475364216  0.2502359347879661  0.8676031582360650
  0.3936460311383954  0.0146859306490370  0.6163118455553658
  0.0892454332814268  0.2035739969752797  0.6292113715609275
  0.4056355942014562  0.1556488881495071  0.3681928756977797
  0.2194850336039735  0.1897791145989132  0.4320031150757657
  0.0638599297677871  0.1443179200442799  0.2072050978757787
  0.2180165265608167  0.3179851838026906  0.2080589852110535
  0.3509068911551054  0.1365888335202143  0.9239817659906464
  0.0392443219873257  0.2684200443466125  0.8848999201709020
  0.2114783778305522  0.4384427970596576  0.8869943525041322
  0.3630895631340252  0.2488530321359761  0.6827871340227816
  0.0401498765589139  0.4061255729379170  0.6821752410323114
  0.2100644512986420  0.0698772322416303  0.6707370361500935
  0.3830964070710579  0.3522986674661510  0.4302928865575524
  0.0479726465373744  0.0254697448681966  0.4391167753913834
  0.3916932957247212  0.4732000020871965  0.2080634347810175
  0.7374209647036167  0.3676983026705116  0.6264809618829119
  0.5766162634446204  0.3245732439815754  0.4005500956785184
  0.7393585698379397  0.4891804226938845  0.3910305794985902
  0.9264862725246559  0.2928966416071432  0.1554020630214836
  0.5706685130693785  0.4564760050238590  0.1511832992364717
  0.7357652219851545  0.1023911175316812  0.1585737872128590
  0.8989702643660991  0.3915125218872220  0.9055345522673406
  0.5971710810553645  0.0887006723592236  0.9119655864160023
  0.7344467074951808  0.2451756905737881  0.8661448430200096
  0.8942277627218047  0.0157587823803667  0.6095282037484679
  0.5920815769418226  0.2031225121186822  0.6318234292418055
  0.9053122323863363  0.1549179623096819  0.3529451865601843
  0.7197859187741642  0.1898801143961464  0.4350519579075041
  0.5603163290544515  0.1441050451049577  0.2112393482833355
  0.7157900470189134  0.3189184164966150  0.2103707684606562
  0.8657803171275020  0.1173001767352417  0.9091874693628981
  0.5409409613267044  0.2685685886963327  0.8777001098710215
  0.7097864561494731  0.4354779580453254  0.8908541796818241
  0.8668756078621769  0.2443593165064684  0.6801543545134763
  0.5388766668765186  0.4079133359785487  0.6828425364834487
  0.7104017598933723  0.0674298662593102  0.6733103197446866
  0.8821615462083940  0.3514738672817828  0.4349314578337200
  0.5490261261610669  0.0249531738733992  0.4439940519321723
  0.8912516898309519  0.4729555262223712  0.2145974525257728
  0.2350466451832531  0.8676745694852386  0.6258552955613723
  0.0744992165822467  0.8248560312569992  0.4002399194199313
  0.2383321462279895  0.9892343341955794  0.3938016410973049
  0.4293922232906766  0.7924128135419295  0.1599909115006213
  0.0689425917586988  0.9559663270591017  0.1518631965114281
  0.2354185364013190  0.6048497549958256  0.1542062789014551
  0.3963071950282497  0.8928693181937888  0.9194694582739658
  0.0949212969448894  0.5836150652702443  0.8982965003074312
  0.2322957314130960  0.7452374221793647  0.8674228069123231
  0.3960231633822318  0.5182210430235799  0.6071568215141454
  0.0892949835582399  0.7030661157701417  0.6307609183332303
  0.4051522896104700  0.6547564724642783  0.3567081018181355
  0.2208012005801834  0.6911906298400226  0.4358911113374759
  0.0644347450511020  0.6462937418667849  0.2137249431426440
  0.2169970349212633  0.8210676401483568  0.2118218969539925
  0.3659912250331701  0.6178099082089119  0.9066590702381134
  0.0413147233202054  0.7685844126716859  0.8864020406665247
  0.2083533263261685  0.9349699519104462  0.8842111169419553
  0.3655601426491231  0.7521917825113817  0.6868881443057759
  0.0377555345555933  0.9066458301860933  0.6832432289983572
  0.2132675697322597  0.5691719993501678  0.6689327893291903
  0.3830293790555359  0.8522775654837602  0.4355099946490952
  0.0493410516341726  0.5250452136949164  0.4399758627253405
  0.3916870065756015  0.9767379020186766  0.2121354608838004
  0.7373291377092528  0.8672858238980652  0.6257737924224926
  0.5765802284729062  0.8236109662384550  0.3998412359357175
  0.7391235757008587  0.9890756849283093  0.3918943734631242
  0.9267644136393329  0.7906186737508918  0.1563526219841762
  0.5715392890450630  0.9554988708893930  0.1554096987311055
  0.7361769615356337  0.6025848057503538  0.1557749619963573
  0.8982065530733294  0.8928738354558021  0.9087302367111576
  0.5934318174339239  0.5844838000370629  0.9020015061438755
  0.7304059685066733  0.7464377079382984  0.8634973841110067
  0.8953044614927919  0.5158829622493286  0.6131434375402876
  0.5883830993946688  0.7020875832144782  0.6298699539910402
  0.9046231438616488  0.6546457726073456  0.3560919743160227
  0.7192744385459449  0.6899105039185613  0.4346700480932881
  0.5619517707900457  0.6450686829030374  0.2077231555020731
  0.7171921311867564  0.8182145677073436  0.2089472148229632
  0.8595818961390123  0.6232722681231806  0.9081856077343886
  0.5396149896468643  0.7711861706181367  0.8845814386359052
  0.7077048309031895  0.9370723205091096  0.8891939173023076
  0.8664294970573181  0.7462558276512183  0.6800873533643710
  0.5424232166897909  0.9033519816279636  0.6820001288618158
  0.7108979153808264  0.5676838041250321  0.6693203685172264
  0.8816442722079785  0.8520230198465057  0.4325784495281155
  0.5494927710543820  0.5246077551935713  0.4373195815323214
  0.8903159948959924  0.9740905584048747  0.2090193719688500
 
  0.00000000E+00  0.00000000E+00  0.00000000E+00
  0.00000000E+00  0.00000000E+00  0.00000000E+00
  0.00000000E+00  0.00000000E+00  0.00000000E+00
  0.00000000E+00  0.00000000E+00  0.00000000E+00
  0.00000000E+00  0.00000000E+00  0.00000000E+00
  0.00000000E+00  0.00000000E+00  0.00000000E+00
  0.00000000E+00  0.00000000E+00  0.00000000E+00
  0.00000000E+00  0.00000000E+00  0.00000000E+00
  0.00000000E+00  0.00000000E+00  0.00000000E+00
  0.00000000E+00  0.00000000E+00  0.00000000E+00
  0.00000000E+00  0.00000000E+00  0.00000000E+00
  0.00000000E+00  0.00000000E+00  0.00000000E+00
  0.00000000E+00  0.00000000E+00  0.00000000E+00
  0.00000000E+00  0.00000000E+00  0.00000000E+00
  0.00000000E+00  0.00000000E+00  0.00000000E+00
  0.00000000E+00  0.00000000E+00  0.00000000E+00
  0.00000000E+00  0.00000000E+00  0.00000000E+00
  0.00000000E+00  0.00000000E+00  0.00000000E+00
  0.00000000E+00  0.00000000E+00  0.00000000E+00
  0.00000000E+00  0.00000000E+00  0.00000000E+00
  0.00000000E+00  0.00000000E+00  0.00000000E+00
  0.00000000E+00  0.00000000E+00  0.00000000E+00
  0.00000000E+00  0.00000000E+00  0.00000000E+00
  0.00000000E+00  0.00000000E+00  0.00000000E+00
  0.00000000E+00  0.00000000E+00  0.00000000E+00
  0.00000000E+00  0.00000000E+00  0.00000000E+00
  0.00000000E+00  0.00000000E+00  0.00000000E+00
  0.00000000E+00  0.00000000E+00  0.00000000E+00
  0.00000000E+00  0.00000000E+00  0.00000000E+00
  0.00000000E+00  0.00000000E+00  0.00000000E+00
  0.00000000E+00  0.00000000E+00  0.00000000E+00
  0.00000000E+00  0.00000000E+00  0.00000000E+00
  0.00000000E+00  0.00000000E+00  0.00000000E+00
  0.00000000E+00  0.00000000E+00  0.00000000E+00
  0.00000000E+00  0.00000000E+00  0.00000000E+00
  0.00000000E+00  0.00000000E+00  0.00000000E+00
  0.00000000E+00  0.00000000E+00  0.00000000E+00
  0.00000000E+00  0.00000000E+00  0.00000000E+00
  0.00000000E+00  0.00000000E+00  0.00000000E+00
  0.00000000E+00  0.00000000E+00  0.00000000E+00
  0.00000000E+00  0.00000000E+00  0.00000000E+00
  0.00000000E+00  0.00000000E+00  0.00000000E+00
  0.00000000E+00  0.00000000E+00  0.00000000E+00
  0.00000000E+00  0.00000000E+00  0.00000000E+00
  0.00000000E+00  0.00000000E+00  0.00000000E+00
  0.00000000E+00  0.00000000E+00  0.00000000E+00
  0.00000000E+00  0.00000000E+00  0.00000000E+00
  0.00000000E+00  0.00000000E+00  0.00000000E+00
  0.00000000E+00  0.00000000E+00  0.00000000E+00
  0.00000000E+00  0.00000000E+00  0.00000000E+00
  0.00000000E+00  0.00000000E+00  0.00000000E+00
  0.00000000E+00  0.00000000E+00  0.00000000E+00
  0.00000000E+00  0.00000000E+00  0.00000000E+00
  0.00000000E+00  0.00000000E+00  0.00000000E+00
  0.00000000E+00  0.00000000E+00  0.00000000E+00
  0.00000000E+00  0.00000000E+00  0.00000000E+00
  0.00000000E+00  0.00000000E+00  0.00000000E+00
  0.00000000E+00  0.00000000E+00  0.00000000E+00
  0.00000000E+00  0.00000000E+00  0.00000000E+00
  0.00000000E+00  0.00000000E+00  0.00000000E+00
  0.00000000E+00  0.00000000E+00  0.00000000E+00
  0.00000000E+00  0.00000000E+00  0.00000000E+00
  0.00000000E+00  0.00000000E+00  0.00000000E+00
  0.00000000E+00  0.00000000E+00  0.00000000E+00
  0.00000000E+00  0.00000000E+00  0.00000000E+00
  0.00000000E+00  0.00000000E+00  0.00000000E+00
  0.00000000E+00  0.00000000E+00  0.00000000E+00
  0.00000000E+00  0.00000000E+00  0.00000000E+00
  0.00000000E+00  0.00000000E+00  0.00000000E+00
  0.00000000E+00  0.00000000E+00  0.00000000E+00
  0.00000000E+00  0.00000000E+00  0.00000000E+00
  0.00000000E+00  0.00000000E+00  0.00000000E+00
  0.00000000E+00  0.00000000E+00  0.00000000E+00
  0.00000000E+00  0.00000000E+00  0.00000000E+00
  0.00000000E+00  0.00000000E+00  0.00000000E+00
  0.00000000E+00  0.00000000E+00  0.00000000E+00
  0.00000000E+00  0.00000000E+00  0.00000000E+00
  0.00000000E+00  0.00000000E+00  0.00000000E+00
  0.00000000E+00  0.00000000E+00  0.00000000E+00
  0.00000000E+00  0.00000000E+00  0.00000000E+00
  0.00000000E+00  0.00000000E+00  0.00000000E+00
  0.00000000E+00  0.00000000E+00  0.00000000E+00
  0.00000000E+00  0.00000000E+00  0.00000000E+00
  0.00000000E+00  0.00000000E+00  0.00000000E+00
  0.00000000E+00  0.00000000E+00  0.00000000E+00
  0.00000000E+00  0.00000000E+00  0.00000000E+00
  0.00000000E+00  0.00000000E+00  0.00000000E+00
  0.00000000E+00  0.00000000E+00  0.00000000E+00
  0.00000000E+00  0.00000000E+00  0.00000000E+00
  0.00000000E+00  0.00000000E+00  0.00000000E+00
  0.00000000E+00  0.00000000E+00  0.00000000E+00
  0.00000000E+00  0.00000000E+00  0.00000000E+00
  0.00000000E+00  0.00000000E+00  0.00000000E+00
  0.00000000E+00  0.00000000E+00  0.00000000E+00
  0.00000000E+00  0.00000000E+00  0.00000000E+00
  0.00000000E+00  0.00000000E+00  0.00000000E+00
  0.00000000E+00  0.00000000E+00  0.00000000E+00
  0.00000000E+00  0.00000000E+00  0.00000000E+00
  0.00000000E+00  0.00000000E+00  0.00000000E+00
  0.00000000E+00  0.00000000E+00  0.00000000E+00
  0.00000000E+00  0.00000000E+00  0.00000000E+00
  0.00000000E+00  0.00000000E+00  0.00000000E+00
  0.00000000E+00  0.00000000E+00  0.00000000E+00
  0.00000000E+00  0.00000000E+00  0.00000000E+00
  0.00000000E+00  0.00000000E+00  0.00000000E+00
  0.00000000E+00  0.00000000E+00  0.00000000E+00
  0.00000000E+00  0.00000000E+00  0.00000000E+00
  0.00000000E+00  0.00000000E+00  0.00000000E+00
  0.00000000E+00  0.00000000E+00  0.00000000E+00
  0.00000000E+00  0.00000000E+00  0.00000000E+00
  0.00000000E+00  0.00000000E+00  0.00000000E+00
  0.00000000E+00  0.00000000E+00  0.00000000E+00
  0.00000000E+00  0.00000000E+00  0.00000000E+00
  0.00000000E+00  0.00000000E+00  0.00000000E+00
  0.00000000E+00  0.00000000E+00  0.00000000E+00
  0.00000000E+00  0.00000000E+00  0.00000000E+00
  0.00000000E+00  0.00000000E+00  0.00000000E+00
  0.00000000E+00  0.00000000E+00  0.00000000E+00
  0.00000000E+00  0.00000000E+00  0.00000000E+00
  0.00000000E+00  0.00000000E+00  0.00000000E+00
  0.00000000E+00  0.00000000E+00  0.00000000E+00
  0.00000000E+00  0.00000000E+00  0.00000000E+00
  0.00000000E+00  0.00000000E+00  0.00000000E+00
  0.00000000E+00  0.00000000E+00  0.00000000E+00
  0.00000000E+00  0.00000000E+00  0.00000000E+00
  0.00000000E+00  0.00000000E+00  0.00000000E+00
  0.00000000E+00  0.00000000E+00  0.00000000E+00
  0.00000000E+00  0.00000000E+00  0.00000000E+00
  0.00000000E+00  0.00000000E+00  0.00000000E+00
  0.00000000E+00  0.00000000E+00  0.00000000E+00
  0.00000000E+00  0.00000000E+00  0.00000000E+00
  0.00000000E+00  0.00000000E+00  0.00000000E+00
  0.00000000E+00  0.00000000E+00  0.00000000E+00
  0.00000000E+00  0.00000000E+00  0.00000000E+00
  0.00000000E+00  0.00000000E+00  0.00000000E+00
  0.00000000E+00  0.00000000E+00  0.00000000E+00
  0.00000000E+00  0.00000000E+00  0.00000000E+00
  0.00000000E+00  0.00000000E+00  0.00000000E+00
  0.00000000E+00  0.00000000E+00  0.00000000E+00
  0.00000000E+00  0.00000000E+00  0.00000000E+00
  0.00000000E+00  0.00000000E+00  0.00000000E+00
  0.00000000E+00  0.00000000E+00  0.00000000E+00
  0.00000000E+00  0.00000000E+00  0.00000000E+00
  0.00000000E+00  0.00000000E+00  0.00000000E+00
  0.00000000E+00  0.00000000E+00  0.00000000E+00
  0.00000000E+00  0.00000000E+00  0.00000000E+00
  0.00000000E+00  0.00000000E+00  0.00000000E+00
  0.00000000E+00  0.00000000E+00  0.00000000E+00
  0.00000000E+00  0.00000000E+00  0.00000000E+00
  0.00000000E+00  0.00000000E+00  0.00000000E+00
  0.00000000E+00  0.00000000E+00  0.00000000E+00
  0.00000000E+00  0.00000000E+00  0.00000000E+00
  0.00000000E+00  0.00000000E+00  0.00000000E+00
  0.00000000E+00  0.00000000E+00  0.00000000E+00
  0.00000000E+00  0.00000000E+00  0.00000000E+00
  0.00000000E+00  0.00000000E+00  0.00000000E+00
  0.00000000E+00  0.00000000E+00  0.00000000E+00
  0.00000000E+00  0.00000000E+00  0.00000000E+00
  0.00000000E+00  0.00000000E+00  0.00000000E+00
  0.00000000E+00  0.00000000E+00  0.00000000E+00
  0.00000000E+00  0.00000000E+00  0.00000000E+00
  0.00000000E+00  0.00000000E+00  0.00000000E+00
  0.00000000E+00  0.00000000E+00  0.00000000E+00
  0.00000000E+00  0.00000000E+00  0.00000000E+00
  0.00000000E+00  0.00000000E+00  0.00000000E+00
  0.00000000E+00  0.00000000E+00  0.00000000E+00
  0.00000000E+00  0.00000000E+00  0.00000000E+00
  0.00000000E+00  0.00000000E+00  0.00000000E+00
  0.00000000E+00  0.00000000E+00  0.00000000E+00
  0.00000000E+00  0.00000000E+00  0.00000000E+00
  0.00000000E+00  0.00000000E+00  0.00000000E+00
  0.00000000E+00  0.00000000E+00  0.00000000E+00
  0.00000000E+00  0.00000000E+00  0.00000000E+00
  0.00000000E+00  0.00000000E+00  0.00000000E+00
  0.00000000E+00  0.00000000E+00  0.00000000E+00
  0.00000000E+00  0.00000000E+00  0.00000000E+00
  0.00000000E+00  0.00000000E+00  0.00000000E+00
  0.00000000E+00  0.00000000E+00  0.00000000E+00
  0.00000000E+00  0.00000000E+00  0.00000000E+00
  0.00000000E+00  0.00000000E+00  0.00000000E+00
  0.00000000E+00  0.00000000E+00  0.00000000E+00
  0.00000000E+00  0.00000000E+00  0.00000000E+00
  0.00000000E+00  0.00000000E+00  0.00000000E+00
  0.00000000E+00  0.00000000E+00  0.00000000E+00
  0.00000000E+00  0.00000000E+00  0.00000000E+00
  0.00000000E+00  0.00000000E+00  0.00000000E+00
  0.00000000E+00  0.00000000E+00  0.00000000E+00
  0.00000000E+00  0.00000000E+00  0.00000000E+00
  0.00000000E+00  0.00000000E+00  0.00000000E+00
  0.00000000E+00  0.00000000E+00  0.00000000E+00
  0.00000000E+00  0.00000000E+00  0.00000000E+00
