supercell of 100% icsd_608626.cif, 0% i 
   1.00000000000000     
    -9.5300682438568423   -0.0208980021130613   -0.0022522753446090
    -4.7469411714172782    8.2234750679017168   -0.0060966959476171
    -0.0024063591347763    0.0061424257018625  -10.2230699226573059
   Al   Ge   Sr   N 
    32     2     2    36
Direct
  0.1113802056842772  0.0938389519033862  0.2981332097056253
  0.2183589614670183  0.2076368588596011  0.0471250790619209
  0.7798504776402666  0.0935055163610912  0.7948772383329938
  0.8928479236379232  0.2046081477535040  0.5487162139022104
  0.4410399842881461  0.1015362489297758  0.2837762374152817
  0.5558548461374642  0.2058625833339889  0.0441968122531335
  0.1090460785115752  0.0916156069345249  0.7929458769850015
  0.2168841465917666  0.2095038263153910  0.5497048879909769
  0.7742920137532820  0.0981975620212694  0.2972606342724191
  0.8913175088207552  0.2022025490087813  0.0447986923475696
  0.5478526776877430  0.2119080251240177  0.5510581499390810
  0.1147725649145599  0.4262064007237782  0.2974915025288425
  0.2191835234338200  0.5401681899924853  0.0444821721960906
  0.7844967727680654  0.4240697862624003  0.8011700108667341
  0.9019482614264973  0.5323229049983240  0.5554400977809095
  0.4416192972595283  0.4267616606613203  0.2846779676402278
  0.5569597249032654  0.5350425255333136  0.0495664288703281
  0.1107039124045244  0.4308858819672139  0.7923053846183095
  0.2211603954171935  0.5377764675579826  0.5493164316798627
  0.7791815352819782  0.4244463890300381  0.2830502220510027
  0.8961963946096176  0.5323531938436616  0.0427572345730169
  0.4400052697214178  0.4309591931464070  0.7987073240731206
  0.1148554382898439  0.7588428044958206  0.2974856738198710
  0.2141306518510575  0.8763360937033653  0.0448226014821316
  0.7872264654319849  0.7567547374785022  0.8003066315361167
  0.8932224330923262  0.8689216132738693  0.5515494072230283
  0.4392127341880894  0.7599648845190501  0.2702947542850396
  0.5531870438889115  0.8762868001612745  0.0529460164648086
  0.1107642233388901  0.7624738027036386  0.7937959393151885
  0.2165579286011905  0.8751713945750694  0.5511214154726645
  0.8932358777990430  0.8747944998732891  0.0435131080531690
  0.4352470279772973  0.7634328611875745  0.8106542896457256
  0.4418476732463716  0.0978372147540796  0.7987839615112478
  0.7822721482525523  0.7581387373320467  0.2839811911111383
  0.5581425977813765  0.5406035805208589  0.5388072660798926
  0.5575494600656796  0.8699476518948188  0.5351564922769327
  0.2251562493952051  0.2031256547827169  0.3571211676888879
  0.1101083765309596  0.0956220976917166  0.1093400398253550
  0.8904631935560232  0.2010313829200427  0.8583049575391328
  0.7749534930209308  0.0951925693301590  0.6043921162042878
  0.5527799545529319  0.2058226965379575  0.3564523883424258
  0.4390970007903618  0.1027603904329695  0.0979501425950886
  0.2198159334349654  0.2059579128396294  0.8576416602012600
  0.1091921027873113  0.0946944852285796  0.6038665201609206
  0.8875657439212077  0.2069514098586680  0.3561440269149898
  0.7762733630842575  0.0948342844565317  0.1080131436774963
  0.5577157536037518  0.2032541430875128  0.8577365981617930
  0.4248018596323959  0.1253998681108897  0.6207345096272263
  0.2239249695631571  0.5381026244416205  0.3560126559081382
  0.1117990720576216  0.4271915499807832  0.1090885140477056
  0.8942552025875301  0.5365206330784460  0.8602596440321406
  0.8201500768857031  0.4072037596355358  0.6212844952536187
  0.5552185416583910  0.5388501734023379  0.3044011038921823
  0.4397468493656902  0.4245605546747910  0.0975825763746627
  0.2177433734116150  0.5422417463258782  0.8576289303768121
  0.1159957877793616  0.4255820275426956  0.6046594610138101
  0.8861340020408051  0.5409727567053650  0.3548757287896578
  0.7857065359828681  0.4233164859905827  0.0976702651648012
  0.5597896550686343  0.5338515292169816  0.8583911950889700
  0.4255623000141568  0.4162060802427376  0.6193745554087755
  0.2267662695084383  0.8700718359614044  0.3547769993070276
  0.1099535530911027  0.7609994421300996  0.1096087672406298
  0.8901751828667912  0.8748630086158258  0.8579017921132959
  0.8174793777760172  0.7401700163992260  0.6207858695719892
  0.5569351103332210  0.8707998348868884  0.3001780900295898
  0.4370181246296099  0.7647153370442652  0.0858242508654072
  0.2098129855036888  0.8781106474590601  0.8626973807665976
  0.1097340442770260  0.7621971194114820  0.6034237931391289
  0.8862013422701835  0.8709992772362511  0.3555533403269706
  0.7866655595700678  0.7568126776194930  0.0982071161816052
  0.5587022323440891  0.8756552048135191  0.8597633148337920
  0.4042026469386215  0.7844436351719040  0.6375763319721699
 
  0.00000000E+00  0.00000000E+00  0.00000000E+00
  0.00000000E+00  0.00000000E+00  0.00000000E+00
  0.00000000E+00  0.00000000E+00  0.00000000E+00
  0.00000000E+00  0.00000000E+00  0.00000000E+00
  0.00000000E+00  0.00000000E+00  0.00000000E+00
  0.00000000E+00  0.00000000E+00  0.00000000E+00
  0.00000000E+00  0.00000000E+00  0.00000000E+00
  0.00000000E+00  0.00000000E+00  0.00000000E+00
  0.00000000E+00  0.00000000E+00  0.00000000E+00
  0.00000000E+00  0.00000000E+00  0.00000000E+00
  0.00000000E+00  0.00000000E+00  0.00000000E+00
  0.00000000E+00  0.00000000E+00  0.00000000E+00
  0.00000000E+00  0.00000000E+00  0.00000000E+00
  0.00000000E+00  0.00000000E+00  0.00000000E+00
  0.00000000E+00  0.00000000E+00  0.00000000E+00
  0.00000000E+00  0.00000000E+00  0.00000000E+00
  0.00000000E+00  0.00000000E+00  0.00000000E+00
  0.00000000E+00  0.00000000E+00  0.00000000E+00
  0.00000000E+00  0.00000000E+00  0.00000000E+00
  0.00000000E+00  0.00000000E+00  0.00000000E+00
  0.00000000E+00  0.00000000E+00  0.00000000E+00
  0.00000000E+00  0.00000000E+00  0.00000000E+00
  0.00000000E+00  0.00000000E+00  0.00000000E+00
  0.00000000E+00  0.00000000E+00  0.00000000E+00
  0.00000000E+00  0.00000000E+00  0.00000000E+00
  0.00000000E+00  0.00000000E+00  0.00000000E+00
  0.00000000E+00  0.00000000E+00  0.00000000E+00
  0.00000000E+00  0.00000000E+00  0.00000000E+00
  0.00000000E+00  0.00000000E+00  0.00000000E+00
  0.00000000E+00  0.00000000E+00  0.00000000E+00
  0.00000000E+00  0.00000000E+00  0.00000000E+00
  0.00000000E+00  0.00000000E+00  0.00000000E+00
  0.00000000E+00  0.00000000E+00  0.00000000E+00
  0.00000000E+00  0.00000000E+00  0.00000000E+00
  0.00000000E+00  0.00000000E+00  0.00000000E+00
  0.00000000E+00  0.00000000E+00  0.00000000E+00
  0.00000000E+00  0.00000000E+00  0.00000000E+00
  0.00000000E+00  0.00000000E+00  0.00000000E+00
  0.00000000E+00  0.00000000E+00  0.00000000E+00
  0.00000000E+00  0.00000000E+00  0.00000000E+00
  0.00000000E+00  0.00000000E+00  0.00000000E+00
  0.00000000E+00  0.00000000E+00  0.00000000E+00
  0.00000000E+00  0.00000000E+00  0.00000000E+00
  0.00000000E+00  0.00000000E+00  0.00000000E+00
  0.00000000E+00  0.00000000E+00  0.00000000E+00
  0.00000000E+00  0.00000000E+00  0.00000000E+00
  0.00000000E+00  0.00000000E+00  0.00000000E+00
  0.00000000E+00  0.00000000E+00  0.00000000E+00
  0.00000000E+00  0.00000000E+00  0.00000000E+00
  0.00000000E+00  0.00000000E+00  0.00000000E+00
  0.00000000E+00  0.00000000E+00  0.00000000E+00
  0.00000000E+00  0.00000000E+00  0.00000000E+00
  0.00000000E+00  0.00000000E+00  0.00000000E+00
  0.00000000E+00  0.00000000E+00  0.00000000E+00
  0.00000000E+00  0.00000000E+00  0.00000000E+00
  0.00000000E+00  0.00000000E+00  0.00000000E+00
  0.00000000E+00  0.00000000E+00  0.00000000E+00
  0.00000000E+00  0.00000000E+00  0.00000000E+00
  0.00000000E+00  0.00000000E+00  0.00000000E+00
  0.00000000E+00  0.00000000E+00  0.00000000E+00
  0.00000000E+00  0.00000000E+00  0.00000000E+00
  0.00000000E+00  0.00000000E+00  0.00000000E+00
  0.00000000E+00  0.00000000E+00  0.00000000E+00
  0.00000000E+00  0.00000000E+00  0.00000000E+00
  0.00000000E+00  0.00000000E+00  0.00000000E+00
  0.00000000E+00  0.00000000E+00  0.00000000E+00
  0.00000000E+00  0.00000000E+00  0.00000000E+00
  0.00000000E+00  0.00000000E+00  0.00000000E+00
  0.00000000E+00  0.00000000E+00  0.00000000E+00
  0.00000000E+00  0.00000000E+00  0.00000000E+00
  0.00000000E+00  0.00000000E+00  0.00000000E+00
  0.00000000E+00  0.00000000E+00  0.00000000E+00
