supercell of 100% icsd_608626.cif, 0% i 
   1.00000000000000     
    -9.5411296526923479   -0.0126281001129882   -0.0064833386139605
    -4.7596243764810904    8.2471061725127015    0.0016855330642972
    -0.0069044978554312   -0.0060643816937035  -10.1804618640110682
   Al   Sr   Ge   N 
    32     2     2    36
Direct
  0.1139172114972808  0.0927474147658458  0.2956721292919440
  0.2273982908359571  0.2027043240880175  0.0518580362535488
  0.8891608735221297  0.2038158244366741  0.5337447690404176
  0.4427387168212036  0.0930660718354446  0.2937580355635205
  0.5478965860760638  0.2088880331088703  0.0557681860558077
  0.1091118823054344  0.1022006244061657  0.7978122667373881
  0.2216022327588689  0.2031288991560274  0.5427513892995321
  0.7788950809153476  0.0945333983175018  0.2948037498482492
  0.8886114931945741  0.2101919066404037  0.0558021677848473
  0.5560466056994642  0.2078420011259965  0.5349516679162747
  0.1152931299968145  0.4254431926506683  0.3012948611727353
  0.2280654042534564  0.5346798078626023  0.0516540789338578
  0.7793942663574569  0.4284364338690096  0.7824756310210716
  0.8893518484305289  0.5382890761735695  0.5567103525894552
  0.4433481679092779  0.4310712024838779  0.2935718511940948
  0.5545673523950967  0.5354838742103922  0.0499042327885846
  0.1144731841684461  0.4256000552194763  0.7808651734227254
  0.2268608817843685  0.5359967407119086  0.5424161805549872
  0.7745957044242076  0.4285766563532079  0.3017307581694908
  0.4410861379259572  0.4314871981674955  0.7957118376594892
  0.5528895810984054  0.5390755944587369  0.5443000904078090
  0.1143702625023124  0.7589658640898236  0.2952678329336962
  0.2217354527126218  0.8719376427548227  0.0506179050836977
  0.7796288065411119  0.7594203039453760  0.7803978847024666
  0.8861804763746193  0.8757843037792270  0.5326051163683019
  0.4438851920204527  0.7608200108717824  0.2964964046884191
  0.5535176744416219  0.8766258826484687  0.0529563538001341
  0.2224146518917749  0.8739152197486959  0.5463919270103332
  0.7751280939315635  0.7626367910807588  0.3007453461466554
  0.8890557608713294  0.8691506842528369  0.0582630698014910
  0.4449798945570933  0.7586150047941089  0.7961228072592519
  0.5531078869742672  0.8724068550596513  0.5432910673482283
  0.7827264618689611  0.0956622342740872  0.8026633029936789
  0.8903239702360537  0.5364115127135989  0.0296372467288677
  0.4398375916291357  0.0987530316958853  0.7966936644961820
  0.1110969674434443  0.7538348783175337  0.7987585022935164
  0.2248478809954477  0.2005853713262695  0.3580530775259660
  0.1154043378955336  0.0917287499965127  0.1075883380847173
  0.9099162994687333  0.2370585216999928  0.8736808062031542
  0.7762882182987454  0.0953432998405361  0.5697971798697736
  0.5510294702265242  0.2076993423956921  0.3467972740380674
  0.4425179685101313  0.0920219509227564  0.1070780677304768
  0.2240502087774914  0.2049824390636985  0.8545216581238506
  0.1088417497125178  0.0949533046840756  0.6074433218660360
  0.8946936577721232  0.2029062998542770  0.3489617907699483
  0.7779455664260624  0.0944285973611159  0.0984127680722153
  0.5128987417410187  0.2269729024931166  0.8697333502596862
  0.4444647322939446  0.0954262939122614  0.6069646103658357
  0.2244381339065740  0.5411673792753575  0.3577054613566304
  0.1489679345702370  0.4082597493809743  0.1193553467179882
  0.8905825113900008  0.5394718660470801  0.7923713134055888
  0.7732652264541784  0.4218266530551560  0.5947675263819221
  0.5500844074470663  0.5426509795487036  0.3587798446797450
  0.4429523783550096  0.4313826374451182  0.1064346923771637
  0.2229150144895016  0.5374376531174718  0.8545177488155460
  0.1218993700342210  0.4219504097623954  0.5954764663552794
  0.8899682704238998  0.5385064903634884  0.3586582910451170
  0.7553675038840808  0.4144526212498434  0.1234222122858171
  0.5579156649939492  0.5378434312502520  0.8545570248049330
  0.4450431475106740  0.4263126667212092  0.6063732489323783
  0.2224673215965893  0.8713927819327338  0.3576710979752420
  0.1151039588051859  0.7583582014641976  0.1071509761470182
  0.9092930619750064  0.8241014732698275  0.8723151001704608
  0.7725670588618527  0.7725101736433970  0.5943613179786595
  0.5501651106139178  0.8742148197926412  0.3582566397521063
  0.4436586103526849  0.7613802977190645  0.1040937275390519
  0.2179185082939057  0.8721829172330615  0.8558846700307541
  0.1090359709709219  0.7614101112386322  0.6081750756172895
  0.8947680373093618  0.8689347133466470  0.3483241995521027
  0.7564811963462361  0.7955787903852425  0.1214087790326346
  0.5558998152690222  0.8744641123406822  0.8542839643864539
  0.4430491776609244  0.7619034467979660  0.6081571543895663
 
  0.00000000E+00  0.00000000E+00  0.00000000E+00
  0.00000000E+00  0.00000000E+00  0.00000000E+00
  0.00000000E+00  0.00000000E+00  0.00000000E+00
  0.00000000E+00  0.00000000E+00  0.00000000E+00
  0.00000000E+00  0.00000000E+00  0.00000000E+00
  0.00000000E+00  0.00000000E+00  0.00000000E+00
  0.00000000E+00  0.00000000E+00  0.00000000E+00
  0.00000000E+00  0.00000000E+00  0.00000000E+00
  0.00000000E+00  0.00000000E+00  0.00000000E+00
  0.00000000E+00  0.00000000E+00  0.00000000E+00
  0.00000000E+00  0.00000000E+00  0.00000000E+00
  0.00000000E+00  0.00000000E+00  0.00000000E+00
  0.00000000E+00  0.00000000E+00  0.00000000E+00
  0.00000000E+00  0.00000000E+00  0.00000000E+00
  0.00000000E+00  0.00000000E+00  0.00000000E+00
  0.00000000E+00  0.00000000E+00  0.00000000E+00
  0.00000000E+00  0.00000000E+00  0.00000000E+00
  0.00000000E+00  0.00000000E+00  0.00000000E+00
  0.00000000E+00  0.00000000E+00  0.00000000E+00
  0.00000000E+00  0.00000000E+00  0.00000000E+00
  0.00000000E+00  0.00000000E+00  0.00000000E+00
  0.00000000E+00  0.00000000E+00  0.00000000E+00
  0.00000000E+00  0.00000000E+00  0.00000000E+00
  0.00000000E+00  0.00000000E+00  0.00000000E+00
  0.00000000E+00  0.00000000E+00  0.00000000E+00
  0.00000000E+00  0.00000000E+00  0.00000000E+00
  0.00000000E+00  0.00000000E+00  0.00000000E+00
  0.00000000E+00  0.00000000E+00  0.00000000E+00
  0.00000000E+00  0.00000000E+00  0.00000000E+00
  0.00000000E+00  0.00000000E+00  0.00000000E+00
  0.00000000E+00  0.00000000E+00  0.00000000E+00
  0.00000000E+00  0.00000000E+00  0.00000000E+00
  0.00000000E+00  0.00000000E+00  0.00000000E+00
  0.00000000E+00  0.00000000E+00  0.00000000E+00
  0.00000000E+00  0.00000000E+00  0.00000000E+00
  0.00000000E+00  0.00000000E+00  0.00000000E+00
  0.00000000E+00  0.00000000E+00  0.00000000E+00
  0.00000000E+00  0.00000000E+00  0.00000000E+00
  0.00000000E+00  0.00000000E+00  0.00000000E+00
  0.00000000E+00  0.00000000E+00  0.00000000E+00
  0.00000000E+00  0.00000000E+00  0.00000000E+00
  0.00000000E+00  0.00000000E+00  0.00000000E+00
  0.00000000E+00  0.00000000E+00  0.00000000E+00
  0.00000000E+00  0.00000000E+00  0.00000000E+00
  0.00000000E+00  0.00000000E+00  0.00000000E+00
  0.00000000E+00  0.00000000E+00  0.00000000E+00
  0.00000000E+00  0.00000000E+00  0.00000000E+00
  0.00000000E+00  0.00000000E+00  0.00000000E+00
  0.00000000E+00  0.00000000E+00  0.00000000E+00
  0.00000000E+00  0.00000000E+00  0.00000000E+00
  0.00000000E+00  0.00000000E+00  0.00000000E+00
  0.00000000E+00  0.00000000E+00  0.00000000E+00
  0.00000000E+00  0.00000000E+00  0.00000000E+00
  0.00000000E+00  0.00000000E+00  0.00000000E+00
  0.00000000E+00  0.00000000E+00  0.00000000E+00
  0.00000000E+00  0.00000000E+00  0.00000000E+00
  0.00000000E+00  0.00000000E+00  0.00000000E+00
  0.00000000E+00  0.00000000E+00  0.00000000E+00
  0.00000000E+00  0.00000000E+00  0.00000000E+00
  0.00000000E+00  0.00000000E+00  0.00000000E+00
  0.00000000E+00  0.00000000E+00  0.00000000E+00
  0.00000000E+00  0.00000000E+00  0.00000000E+00
  0.00000000E+00  0.00000000E+00  0.00000000E+00
  0.00000000E+00  0.00000000E+00  0.00000000E+00
  0.00000000E+00  0.00000000E+00  0.00000000E+00
  0.00000000E+00  0.00000000E+00  0.00000000E+00
  0.00000000E+00  0.00000000E+00  0.00000000E+00
  0.00000000E+00  0.00000000E+00  0.00000000E+00
  0.00000000E+00  0.00000000E+00  0.00000000E+00
  0.00000000E+00  0.00000000E+00  0.00000000E+00
  0.00000000E+00  0.00000000E+00  0.00000000E+00
  0.00000000E+00  0.00000000E+00  0.00000000E+00
