supercell of 100% icsd_608626.cif, 0% i 
   1.00000000000000     
    -9.5278090395355388    0.0063424899862350   -0.0085096589162001
    -4.7693972755629739    8.2481565579196054   -0.0085101057690315
    -0.0090841463633875    0.0052452800265549  -10.1962929728972576
   Al   Ge   Sr   N 
    32     2     2    36
Direct
  0.1114749686951910  0.1017910842643559  0.2967025143134094
  0.2188413388350128  0.2058923384584688  0.0481728777525987
  0.8921162334693449  0.2087836555601470  0.5515019180687233
  0.4385828626718933  0.0998918435238210  0.2980369149563415
  0.5545138176236719  0.2053961242700808  0.0347426404710447
  0.1176560426325111  0.0921300388170394  0.7934207740314108
  0.2232810749722276  0.2031580099691013  0.5432756585620382
  0.8937009773047606  0.2103677200886338  0.0336840148576556
  0.4396494483152154  0.0921629525719467  0.7941173030478197
  0.5520127679402407  0.2046403402115544  0.5515292528209059
  0.1079427153753727  0.4246086179147994  0.3009967599503796
  0.7754633521359438  0.4343212167774837  0.7934208362294513
  0.8864923397025493  0.5399469095902987  0.5432756434539598
  0.4466364640563114  0.4214584933554875  0.3052230647384135
  0.5659104222581135  0.5274339925235552  0.0493631016006830
  0.1101408489184053  0.4268060372735860  0.7861346710542563
  0.2221854977321414  0.5388527480013181  0.5455788403590631
  0.7851224784042401  0.4281433516400384  0.2967023681296155
  0.8892261991933808  0.5355073547799378  0.0481727984921818
  0.4417912047470338  0.4323757216947186  0.7826974390623462
  0.5573888386975980  0.5404611319794057  0.5476429605091866
  0.1047909495029131  0.7633027715424703  0.3052229935335689
  0.2107661120738200  0.8825777177052316  0.0493633226285155
  0.7754967789198730  0.7563139733501956  0.7941172585065743
  0.8879741479702332  0.8686791449517131  0.5515287401694593
  0.5563313152717413  0.8729973653094660  0.0467347717629991
  0.1157093707578056  0.7584577649262485  0.7826977522099412
  0.2237941184185388  0.8740555833871753  0.5476431847732428
  0.7832243111517982  0.7552491303162796  0.2980369710394370
  0.8887276550901220  0.8711821735210208  0.0347437166541837
  0.4432879458145607  0.7599553114395690  0.7985405276951454
  0.5548105536890660  0.8714768515368476  0.5491529615767021
  0.7781315756987865  0.0947925943037760  0.8119661183936984
  0.4438705127266189  0.7605407156202517  0.2964241137981176
  0.7791518790615015  0.0958186439986903  0.2717293706354127
  0.2270244834475292  0.5436924436312793  0.0503501550939376
  0.2246224495330793  0.2017989962773328  0.3570497361133746
  0.1089935886817415  0.0978510203723246  0.1053560213566413
  0.8944513327403101  0.2111162756424747  0.8446639126006446
  0.7781909502858397  0.0948563819830355  0.6129709747060232
  0.5246734939942073  0.2153602821969898  0.3732442063503356
  0.4459425127175436  0.0944912487874490  0.1048958938424533
  0.2212508059284701  0.2068771967436263  0.8565206844308477
  0.1156335402823387  0.0919334087502364  0.6080075085871925
  0.9064444631282811  0.2231127816221914  0.3701729790667798
  0.7789715769112036  0.0956394494816237  0.0332131622655112
  0.5443759945735422  0.2114009637351444  0.8442078261276009
  0.4427127492419061  0.0903307495720327  0.6087105028172459
  0.2226599681951456  0.5393266275284105  0.3508343900477655
  0.0934060779198873  0.4100721365895978  0.1188748043347232
  0.8902114438220465  0.5379155834148293  0.8565206031947667
  0.7752666030422688  0.4323003146149844  0.6080076421077720
  0.5570082844762823  0.5426493046900731  0.3576908299078383
  0.4955658177227491  0.3954334008906031  0.1250004605749879
  0.2212973879204370  0.5379638653229293  0.8173057204385543
  0.1086005738680811  0.4252663711370630  0.5971554715819565
  0.8851325957722480  0.5412887592212741  0.3570497320726176
  0.7811839259334761  0.4256606645382419  0.1053558500278271
  0.5540796591699149  0.5372560268679223  0.8580021474277402
  0.4483447665408349  0.4295965257349650  0.5982575889448256
  0.2259800963333944  0.8736766700883436  0.3576911799221349
  0.0787654916207998  0.8122334974993208  0.1250008289260052
  0.8947357434163052  0.8610397320889831  0.8442092529222123
  0.7736647271052917  0.7593787802576699  0.6087105404696729
  0.5538566880748732  0.8705243079185152  0.3547296886764855
  0.4420740550376152  0.7587420717728293  0.1070044268259522
  0.2205889121877078  0.8707466712602496  0.8580022794853406
  0.1129297524361945  0.7650115129496129  0.5982579626286721
  0.8986927962439708  0.8413400094267303  0.3732439855322198
  0.7778247162906453  0.7626086373090288  0.1048961088406628
  0.5543726219073122  0.8710386448115273  0.8581820749626274
  0.4442722336680092  0.7609392600959026  0.6083587109494957
 
  0.00000000E+00  0.00000000E+00  0.00000000E+00
  0.00000000E+00  0.00000000E+00  0.00000000E+00
  0.00000000E+00  0.00000000E+00  0.00000000E+00
  0.00000000E+00  0.00000000E+00  0.00000000E+00
  0.00000000E+00  0.00000000E+00  0.00000000E+00
  0.00000000E+00  0.00000000E+00  0.00000000E+00
  0.00000000E+00  0.00000000E+00  0.00000000E+00
  0.00000000E+00  0.00000000E+00  0.00000000E+00
  0.00000000E+00  0.00000000E+00  0.00000000E+00
  0.00000000E+00  0.00000000E+00  0.00000000E+00
  0.00000000E+00  0.00000000E+00  0.00000000E+00
  0.00000000E+00  0.00000000E+00  0.00000000E+00
  0.00000000E+00  0.00000000E+00  0.00000000E+00
  0.00000000E+00  0.00000000E+00  0.00000000E+00
  0.00000000E+00  0.00000000E+00  0.00000000E+00
  0.00000000E+00  0.00000000E+00  0.00000000E+00
  0.00000000E+00  0.00000000E+00  0.00000000E+00
  0.00000000E+00  0.00000000E+00  0.00000000E+00
  0.00000000E+00  0.00000000E+00  0.00000000E+00
  0.00000000E+00  0.00000000E+00  0.00000000E+00
  0.00000000E+00  0.00000000E+00  0.00000000E+00
  0.00000000E+00  0.00000000E+00  0.00000000E+00
  0.00000000E+00  0.00000000E+00  0.00000000E+00
  0.00000000E+00  0.00000000E+00  0.00000000E+00
  0.00000000E+00  0.00000000E+00  0.00000000E+00
  0.00000000E+00  0.00000000E+00  0.00000000E+00
  0.00000000E+00  0.00000000E+00  0.00000000E+00
  0.00000000E+00  0.00000000E+00  0.00000000E+00
  0.00000000E+00  0.00000000E+00  0.00000000E+00
  0.00000000E+00  0.00000000E+00  0.00000000E+00
  0.00000000E+00  0.00000000E+00  0.00000000E+00
  0.00000000E+00  0.00000000E+00  0.00000000E+00
  0.00000000E+00  0.00000000E+00  0.00000000E+00
  0.00000000E+00  0.00000000E+00  0.00000000E+00
  0.00000000E+00  0.00000000E+00  0.00000000E+00
  0.00000000E+00  0.00000000E+00  0.00000000E+00
  0.00000000E+00  0.00000000E+00  0.00000000E+00
  0.00000000E+00  0.00000000E+00  0.00000000E+00
  0.00000000E+00  0.00000000E+00  0.00000000E+00
  0.00000000E+00  0.00000000E+00  0.00000000E+00
  0.00000000E+00  0.00000000E+00  0.00000000E+00
  0.00000000E+00  0.00000000E+00  0.00000000E+00
  0.00000000E+00  0.00000000E+00  0.00000000E+00
  0.00000000E+00  0.00000000E+00  0.00000000E+00
  0.00000000E+00  0.00000000E+00  0.00000000E+00
  0.00000000E+00  0.00000000E+00  0.00000000E+00
  0.00000000E+00  0.00000000E+00  0.00000000E+00
  0.00000000E+00  0.00000000E+00  0.00000000E+00
  0.00000000E+00  0.00000000E+00  0.00000000E+00
  0.00000000E+00  0.00000000E+00  0.00000000E+00
  0.00000000E+00  0.00000000E+00  0.00000000E+00
  0.00000000E+00  0.00000000E+00  0.00000000E+00
  0.00000000E+00  0.00000000E+00  0.00000000E+00
  0.00000000E+00  0.00000000E+00  0.00000000E+00
  0.00000000E+00  0.00000000E+00  0.00000000E+00
  0.00000000E+00  0.00000000E+00  0.00000000E+00
  0.00000000E+00  0.00000000E+00  0.00000000E+00
  0.00000000E+00  0.00000000E+00  0.00000000E+00
  0.00000000E+00  0.00000000E+00  0.00000000E+00
  0.00000000E+00  0.00000000E+00  0.00000000E+00
  0.00000000E+00  0.00000000E+00  0.00000000E+00
  0.00000000E+00  0.00000000E+00  0.00000000E+00
  0.00000000E+00  0.00000000E+00  0.00000000E+00
  0.00000000E+00  0.00000000E+00  0.00000000E+00
  0.00000000E+00  0.00000000E+00  0.00000000E+00
  0.00000000E+00  0.00000000E+00  0.00000000E+00
  0.00000000E+00  0.00000000E+00  0.00000000E+00
  0.00000000E+00  0.00000000E+00  0.00000000E+00
  0.00000000E+00  0.00000000E+00  0.00000000E+00
  0.00000000E+00  0.00000000E+00  0.00000000E+00
  0.00000000E+00  0.00000000E+00  0.00000000E+00
  0.00000000E+00  0.00000000E+00  0.00000000E+00
