supercell of 100% icsd_608626.cif, 0% i 
   1.00000000000000     
    -9.4971643564127355   -0.0000001057217988   -0.0000022974068169
    -4.7485820897068551    8.2612644019934756   -0.0028279237906154
    -0.0000024670843201    0.0035092560026394  -10.2122092046062853
   Sr   Al   Ge   N 
     2    32     2    36
Direct
  0.1126417134462727  0.0897214581584862  0.2813117156417277
  0.7809691158467587  0.0897223939360714  0.2813121877318707
  0.2240269991972070  0.2095524835913665  0.0333856642481223
  0.7755864589519135  0.0939334291646432  0.8095975476545050
  0.4377041762114047  0.1079244046884966  0.3002388000343714
  0.5497541269389146  0.2095523226877489  0.0333855842736668
  0.1138144142066082  0.0939332258469605  0.8095982216323421
  0.2198939170363516  0.2110235058763053  0.5489004676367415
  0.8861975431531732  0.2109385531221619  0.0205520688337941
  0.4448144805407210  0.0937049774856646  0.7950347411078127
  0.5524169590511718  0.2110237857150636  0.5489005995524465
  0.1133446516306336  0.4285456385021504  0.2988495718279083
  0.2220971047762959  0.5391380640938905  0.0485125087244782
  0.7737278125915523  0.4358770747295111  0.7973432200702746
  0.8903556584061718  0.5384953590265411  0.5423890797272293
  0.4414415336288968  0.4285457406983326  0.2988495395145563
  0.5556323554181901  0.5381115505355325  0.0490013261217683
  0.1099391498795654  0.4321124009775659  0.7955136115109696
  0.2222491196017842  0.5388349836673072  0.5421880252742781
  0.7741260462240618  0.4350804926332046  0.3002278990724960
  0.8895883721080224  0.5381117602298247  0.0490013186878642
  0.4412810364614614  0.4321124304981367  0.7955136298210661
  0.5544828043121512  0.5384949367966385  0.5423889561245616
  0.1179754000978974  0.7473816283986991  0.3017782736086545
  0.2238906299708177  0.8674641566518488  0.0331299821414248
  0.7762631368072874  0.7590060212160381  0.7987376881089858
  0.8949764728285601  0.8654736220382375  0.5510638366016707
  0.4440150671223364  0.7545441027013737  0.2972343755216471
  0.5543780569616175  0.8745768805857281  0.0486422469501235
  0.1142612761121740  0.7548106738967135  0.7938071977044103
  0.2228849204955665  0.8654729275007256  0.5510638875228508
  0.7847735015889299  0.7545444553861884  0.2972341521743473
  0.8919782195961687  0.8674645576532640  0.0331300615929138
  0.4480643608503314  0.7590059567269378  0.7987372361692806
  0.8857772154914443  0.2117811841053481  0.5592980889906514
  0.5552868829222248  0.8727612473214705  0.5442151921563863
  0.2323199931825073  0.2232032147683398  0.3695844992519000
  0.1112669271221591  0.0947181251241247  0.0467382348013317
  0.8840795867834359  0.2151749450151641  0.8361907150586845
  0.7777578382446322  0.0923042243033052  0.6106637059360267
  0.5278089648357991  0.2232035485201607  0.3695848170870590
  0.4431409977433418  0.0970512969250663  0.1065128289640995
  0.2260763821621978  0.2113310132803505  0.8461580363199914
  0.1132736891502333  0.0923035223217639  0.6106641264779000
  0.8698236372349086  0.2436864987802139  0.3869020934837053
  0.7773485520322367  0.0947183794223676  0.0467386789095485
  0.5459266516676990  0.2113309035801052  0.8461579622233302
  0.4473764006383760  0.0885819324052832  0.6077526575094154
  0.2247418754868420  0.5338480384132751  0.3546017158748711
  0.1116146160973059  0.4259943081346407  0.1062433579399524
  0.8884018903003223  0.5401874360133121  0.8593608818458236
  0.7724207450158147  0.4384924894616233  0.6120903888138827
  0.5559273169942855  0.5392259843470057  0.3544682396450440
  0.4457233304835739  0.4259942231998224  0.1062433053378342
  0.2223327429819548  0.5386669600004907  0.8592320785502849
  0.1075746531590482  0.4330253429217166  0.6077557640053186
  0.8881787087261799  0.5392265475956677  0.3544683961143278
  0.7803587092299580  0.4226151059032546  0.1068706485820954
  0.5547432641826688  0.5401874155658817  0.8593608039552336
  0.4427331984494955  0.4330255122786610  0.6077558045232934
  0.2419466556638525  0.8313633897477715  0.3719840518269351
  0.1096565176115476  0.7640198639023836  0.1061084010610074
  0.8930744809470355  0.8628322018992094  0.8465109215868623
  0.7724539760703379  0.7608047210464903  0.6084701783848487
  0.5545627295733055  0.8742078244054881  0.3557153165841882
  0.4426117168152146  0.7629968296558545  0.1067198014283832
  0.2274268479813344  0.8628319248594565  0.8465108257665293
  0.1140340596172678  0.7552659524924152  0.6101568591514379
  0.9100223352620418  0.8313639550459442  0.3719839755281740
  0.7777243576050026  0.7629970125562338  0.1067196736645855
  0.5548484701728924  0.8736363164331422  0.8584820521210546
  0.4500764903104866  0.7608046528299042  0.6084696976167976
 
  0.00000000E+00  0.00000000E+00  0.00000000E+00
  0.00000000E+00  0.00000000E+00  0.00000000E+00
  0.00000000E+00  0.00000000E+00  0.00000000E+00
  0.00000000E+00  0.00000000E+00  0.00000000E+00
  0.00000000E+00  0.00000000E+00  0.00000000E+00
  0.00000000E+00  0.00000000E+00  0.00000000E+00
  0.00000000E+00  0.00000000E+00  0.00000000E+00
  0.00000000E+00  0.00000000E+00  0.00000000E+00
  0.00000000E+00  0.00000000E+00  0.00000000E+00
  0.00000000E+00  0.00000000E+00  0.00000000E+00
  0.00000000E+00  0.00000000E+00  0.00000000E+00
  0.00000000E+00  0.00000000E+00  0.00000000E+00
  0.00000000E+00  0.00000000E+00  0.00000000E+00
  0.00000000E+00  0.00000000E+00  0.00000000E+00
  0.00000000E+00  0.00000000E+00  0.00000000E+00
  0.00000000E+00  0.00000000E+00  0.00000000E+00
  0.00000000E+00  0.00000000E+00  0.00000000E+00
  0.00000000E+00  0.00000000E+00  0.00000000E+00
  0.00000000E+00  0.00000000E+00  0.00000000E+00
  0.00000000E+00  0.00000000E+00  0.00000000E+00
  0.00000000E+00  0.00000000E+00  0.00000000E+00
  0.00000000E+00  0.00000000E+00  0.00000000E+00
  0.00000000E+00  0.00000000E+00  0.00000000E+00
  0.00000000E+00  0.00000000E+00  0.00000000E+00
  0.00000000E+00  0.00000000E+00  0.00000000E+00
  0.00000000E+00  0.00000000E+00  0.00000000E+00
  0.00000000E+00  0.00000000E+00  0.00000000E+00
  0.00000000E+00  0.00000000E+00  0.00000000E+00
  0.00000000E+00  0.00000000E+00  0.00000000E+00
  0.00000000E+00  0.00000000E+00  0.00000000E+00
  0.00000000E+00  0.00000000E+00  0.00000000E+00
  0.00000000E+00  0.00000000E+00  0.00000000E+00
  0.00000000E+00  0.00000000E+00  0.00000000E+00
  0.00000000E+00  0.00000000E+00  0.00000000E+00
  0.00000000E+00  0.00000000E+00  0.00000000E+00
  0.00000000E+00  0.00000000E+00  0.00000000E+00
  0.00000000E+00  0.00000000E+00  0.00000000E+00
  0.00000000E+00  0.00000000E+00  0.00000000E+00
  0.00000000E+00  0.00000000E+00  0.00000000E+00
  0.00000000E+00  0.00000000E+00  0.00000000E+00
  0.00000000E+00  0.00000000E+00  0.00000000E+00
  0.00000000E+00  0.00000000E+00  0.00000000E+00
  0.00000000E+00  0.00000000E+00  0.00000000E+00
  0.00000000E+00  0.00000000E+00  0.00000000E+00
  0.00000000E+00  0.00000000E+00  0.00000000E+00
  0.00000000E+00  0.00000000E+00  0.00000000E+00
  0.00000000E+00  0.00000000E+00  0.00000000E+00
  0.00000000E+00  0.00000000E+00  0.00000000E+00
  0.00000000E+00  0.00000000E+00  0.00000000E+00
  0.00000000E+00  0.00000000E+00  0.00000000E+00
  0.00000000E+00  0.00000000E+00  0.00000000E+00
  0.00000000E+00  0.00000000E+00  0.00000000E+00
  0.00000000E+00  0.00000000E+00  0.00000000E+00
  0.00000000E+00  0.00000000E+00  0.00000000E+00
  0.00000000E+00  0.00000000E+00  0.00000000E+00
  0.00000000E+00  0.00000000E+00  0.00000000E+00
  0.00000000E+00  0.00000000E+00  0.00000000E+00
  0.00000000E+00  0.00000000E+00  0.00000000E+00
  0.00000000E+00  0.00000000E+00  0.00000000E+00
  0.00000000E+00  0.00000000E+00  0.00000000E+00
  0.00000000E+00  0.00000000E+00  0.00000000E+00
  0.00000000E+00  0.00000000E+00  0.00000000E+00
  0.00000000E+00  0.00000000E+00  0.00000000E+00
  0.00000000E+00  0.00000000E+00  0.00000000E+00
  0.00000000E+00  0.00000000E+00  0.00000000E+00
  0.00000000E+00  0.00000000E+00  0.00000000E+00
  0.00000000E+00  0.00000000E+00  0.00000000E+00
  0.00000000E+00  0.00000000E+00  0.00000000E+00
  0.00000000E+00  0.00000000E+00  0.00000000E+00
  0.00000000E+00  0.00000000E+00  0.00000000E+00
  0.00000000E+00  0.00000000E+00  0.00000000E+00
  0.00000000E+00  0.00000000E+00  0.00000000E+00
