supercell of icsd_608626.cif            
   1.11267248002495     
     8.9722651134127336   -0.2119071533463915    0.0431030186711429
    -4.6731671837642033    8.1825115271317443   -0.0870941276844435
     0.0419869565502263   -0.0723560200986794    9.6597938546714150
   Al   La   N 
    24    12    36
Direct
  0.2018268280063324  0.0938290132353004  0.2485340061962305
  0.0984149421332106  0.2050933816893874  0.4918319900612929
  0.8949252666122760  0.1252780707282710  0.7433476136768675
  0.5672526982512025  0.1307322648257312  0.2291554693822633
  0.1299196243320395  0.2052974588689551  0.0210848742554859
  0.8784050305283841  0.0918746929908281  0.2544935462712203
  0.4457050695106233  0.2222661334833091  0.0524007549458076
  0.1178734343882013  0.5706325891794108  0.4957557924882039
  0.8972271302080443  0.4379188957278615  0.7467747557366025
  0.5556684011286706  0.4550086516538840  0.2776043897485181
  0.4530455342648025  0.5812466307695203  0.4936476367887934
  0.2187383047225779  0.4580759438787894  0.6544420006463412
  0.8859187946532927  0.4462127618139746  0.2669447498458055
  0.1959985817037406  0.7553759476611148  0.2383362130635902
  0.1020537532695300  0.8878104958881181  0.4769475022020018
  0.8049042481197404  0.9174862375659316  0.9945785694772127
  0.5473546569147274  0.7711048070389452  0.2534884771654120
  0.4259674161318330  0.8699279951939403  0.4723995838918000
  0.2174807006131587  0.7825315662332244  0.7156093705696875
  0.1346243076294016  0.9097592944008142  0.0126891184279856
  0.8851105884896171  0.7907737551634071  0.2532975558296968
  0.7741135977202092  0.9000762926565002  0.4854934936743760
  0.5494795315709737  0.8054873953202843  0.7233663747259342
  0.4509958268819219  0.8937321130177409  0.0196627695354081
  0.8229087647122242  0.2301790910646844  0.0067419352896962
  0.4376596698994959  0.2056133985830328  0.4772568721223038
  0.1694698545997326  0.0784242251653211  0.7675942140785068
  0.7649220510140893  0.1996805651213052  0.4975881844249699
  0.5285461612225433  0.0830529915700282  0.7975092167395559
  0.2004245080627030  0.4403620732322295  0.2396032728633770
  0.8336695715568396  0.5708232270154454  0.0271769515343792
  0.1789898681763162  0.5896538038147909  0.9527801837649292
  0.8034001862744304  0.5788581663432666  0.4939316865304946
  0.5162711632051824  0.4215448364136236  0.7629368442984443
  0.4989275696797719  0.5855889294771259  0.0163965292064958
  0.8523777134386137  0.7665923248722919  0.7459775358841583
  0.1834842385908644  0.0902942548440393  0.4285797571898016
  0.0790689460436269  0.1716666336505810  0.1909110768342259
  0.9435779396745687  0.1033655089494516  0.9148051915138211
  0.7924953379844837  0.2288030986316514  0.7277011410160057
  0.5228425671888886  0.0490407186857098  0.3862533691918770
  0.4406325930481358  0.2381845027312863  0.2303273762507061
  0.2433855713581963  0.1142887411705118  0.9883161719415980
  0.1006153025434315  0.2442458873810907  0.6641563269436830
  0.8971455740680341  0.0955229529783210  0.4247419916719153
  0.7940262110392240  0.2335696842034025  0.2300135958607612
  0.5336755489105087  0.0955931060593613  0.0514819550683185
  0.4135182350750028  0.1866191498838816  0.6942378499316177
  0.2261389323824474  0.4587043867404148  0.4759245496793483
  0.0589598437753835  0.5611271278225658  0.1684780402480897
  0.9280554828132850  0.4505832216485501  0.9142371800003772
  0.7720194236681834  0.5164042293175015  0.7121520681707594
  0.5369555981107368  0.4635195739077602  0.4539002581608713
  0.4762875721058748  0.5686066095183762  0.2232444632688910
  0.2389623549459827  0.4101963044888919  0.0077257108060635
  0.1133645027846271  0.5660492403356798  0.6807651328857531
  0.9222778112788461  0.4472755660584085  0.4338522134205434
  0.7759373053676768  0.5582986421902802  0.2485868219388223
  0.5691792064927128  0.4034454948950810  0.9768520409901313
  0.4429983069317913  0.5967518350995533  0.6784912571974999
  0.2047829314717475  0.7650582789514999  0.4207150291758239
  0.1096758454259685  0.8814790071718193  0.1924958955951297
  0.9176556729486975  0.8197501647287879  0.9565154528473911
  0.7641138171326389  0.9270857736003322  0.6614378163498955
  0.5536323454792367  0.7835439075631712  0.4313185810816407
  0.3862906606845016  0.7805632241659239  0.1628070084149158
  0.2568653692419431  0.8480736716382182  0.9029129103062346
  0.0920131264766937  0.8490045321179949  0.6480895509342020
  0.8928486640264950  0.8186852757960281  0.4243619517827355
  0.7622653535319159  0.8883506893245681  0.1789390322422619
  0.5890903490733521  0.8522860823055041  0.9127151936257718
  0.4245901086978989  0.8760568997854747  0.6525760021186571
 
  0.00000000E+00  0.00000000E+00  0.00000000E+00
  0.00000000E+00  0.00000000E+00  0.00000000E+00
  0.00000000E+00  0.00000000E+00  0.00000000E+00
  0.00000000E+00  0.00000000E+00  0.00000000E+00
  0.00000000E+00  0.00000000E+00  0.00000000E+00
  0.00000000E+00  0.00000000E+00  0.00000000E+00
  0.00000000E+00  0.00000000E+00  0.00000000E+00
  0.00000000E+00  0.00000000E+00  0.00000000E+00
  0.00000000E+00  0.00000000E+00  0.00000000E+00
  0.00000000E+00  0.00000000E+00  0.00000000E+00
  0.00000000E+00  0.00000000E+00  0.00000000E+00
  0.00000000E+00  0.00000000E+00  0.00000000E+00
  0.00000000E+00  0.00000000E+00  0.00000000E+00
  0.00000000E+00  0.00000000E+00  0.00000000E+00
  0.00000000E+00  0.00000000E+00  0.00000000E+00
  0.00000000E+00  0.00000000E+00  0.00000000E+00
  0.00000000E+00  0.00000000E+00  0.00000000E+00
  0.00000000E+00  0.00000000E+00  0.00000000E+00
  0.00000000E+00  0.00000000E+00  0.00000000E+00
  0.00000000E+00  0.00000000E+00  0.00000000E+00
  0.00000000E+00  0.00000000E+00  0.00000000E+00
  0.00000000E+00  0.00000000E+00  0.00000000E+00
  0.00000000E+00  0.00000000E+00  0.00000000E+00
  0.00000000E+00  0.00000000E+00  0.00000000E+00
  0.00000000E+00  0.00000000E+00  0.00000000E+00
  0.00000000E+00  0.00000000E+00  0.00000000E+00
  0.00000000E+00  0.00000000E+00  0.00000000E+00
  0.00000000E+00  0.00000000E+00  0.00000000E+00
  0.00000000E+00  0.00000000E+00  0.00000000E+00
  0.00000000E+00  0.00000000E+00  0.00000000E+00
  0.00000000E+00  0.00000000E+00  0.00000000E+00
  0.00000000E+00  0.00000000E+00  0.00000000E+00
  0.00000000E+00  0.00000000E+00  0.00000000E+00
  0.00000000E+00  0.00000000E+00  0.00000000E+00
  0.00000000E+00  0.00000000E+00  0.00000000E+00
  0.00000000E+00  0.00000000E+00  0.00000000E+00
  0.00000000E+00  0.00000000E+00  0.00000000E+00
  0.00000000E+00  0.00000000E+00  0.00000000E+00
  0.00000000E+00  0.00000000E+00  0.00000000E+00
  0.00000000E+00  0.00000000E+00  0.00000000E+00
  0.00000000E+00  0.00000000E+00  0.00000000E+00
  0.00000000E+00  0.00000000E+00  0.00000000E+00
  0.00000000E+00  0.00000000E+00  0.00000000E+00
  0.00000000E+00  0.00000000E+00  0.00000000E+00
  0.00000000E+00  0.00000000E+00  0.00000000E+00
  0.00000000E+00  0.00000000E+00  0.00000000E+00
  0.00000000E+00  0.00000000E+00  0.00000000E+00
  0.00000000E+00  0.00000000E+00  0.00000000E+00
  0.00000000E+00  0.00000000E+00  0.00000000E+00
  0.00000000E+00  0.00000000E+00  0.00000000E+00
  0.00000000E+00  0.00000000E+00  0.00000000E+00
  0.00000000E+00  0.00000000E+00  0.00000000E+00
  0.00000000E+00  0.00000000E+00  0.00000000E+00
  0.00000000E+00  0.00000000E+00  0.00000000E+00
  0.00000000E+00  0.00000000E+00  0.00000000E+00
  0.00000000E+00  0.00000000E+00  0.00000000E+00
  0.00000000E+00  0.00000000E+00  0.00000000E+00
  0.00000000E+00  0.00000000E+00  0.00000000E+00
  0.00000000E+00  0.00000000E+00  0.00000000E+00
  0.00000000E+00  0.00000000E+00  0.00000000E+00
  0.00000000E+00  0.00000000E+00  0.00000000E+00
  0.00000000E+00  0.00000000E+00  0.00000000E+00
  0.00000000E+00  0.00000000E+00  0.00000000E+00
  0.00000000E+00  0.00000000E+00  0.00000000E+00
  0.00000000E+00  0.00000000E+00  0.00000000E+00
  0.00000000E+00  0.00000000E+00  0.00000000E+00
  0.00000000E+00  0.00000000E+00  0.00000000E+00
  0.00000000E+00  0.00000000E+00  0.00000000E+00
  0.00000000E+00  0.00000000E+00  0.00000000E+00
  0.00000000E+00  0.00000000E+00  0.00000000E+00
  0.00000000E+00  0.00000000E+00  0.00000000E+00
  0.00000000E+00  0.00000000E+00  0.00000000E+00
