generated by phonopy                    
   1.00000000000000     
    10.0351470768999995   -0.0000022330999784   -0.0000001056124209
    -5.0175765436399997    8.6906901959899994    0.0000001395531216
    -0.0000001735893656    0.0000001431815548   14.9533752540999991
   Pb   P    O 
    19    12    50
Direct
  0.0035406781337244  0.7671501376770706  0.1197741769813661
  0.9959326555730001  0.7705930663144400  0.6264377131112440
  0.0044981130843382  0.2631834756165290  0.3730604173106116
  0.0060632354797860  0.2680357782287075  0.8796016366818975
  0.2363664407502881  0.2413786259570116  0.1193794106128934
  0.2291758143454956  0.2247084976113527  0.6269529325688197
  0.7345878906312038  0.7394825423426425  0.3724217779831918
  0.7295507715583653  0.7366486631648357  0.8800277821435785
  0.7598339185868639  0.0008878799648713  0.1198053500270504
  0.7738333680211440  0.0031419393484526  0.6268976956925130
  0.2594110244625654  0.9931107906519401  0.3715522043792703
  0.2628397657444026  0.9920344598194077  0.8809298005382402
  0.6713475444221331  0.3355150547581758  0.9987952605582748
  0.6661223619386831  0.3330835330710897  0.5016492829626813
  0.3319979923558307  0.6663621737713825  0.5073689196776527
  0.3328542484205812  0.6647176924445120  0.2230177014178381
  0.3309233441073616  0.6662709499952442  0.7589414897647586
  0.6679855377868265  0.3341731376103496  0.2492406426303404
  0.6657091677688953  0.3330858395222904  0.7465327333973235
  0.6295838003550145  0.5988502694261655  0.1257866089552664
  0.6230909478890965  0.5963631140014058  0.6232053922717711
  0.3688311607531176  0.3947982276677280  0.3709888995133497
  0.3673119787210979  0.3894107978927508  0.8762592125039390
  0.4023562931184301  0.0291551597861428  0.1256909812494911
  0.4034669047614798  0.0269167943866222  0.6232026907259893
  0.6044170082780198  0.9733175241845373  0.3711854951305895
  0.6106686521120466  0.9782097563217889  0.8756724119428867
  0.9660358557428381  0.3690978676548795  0.1256410571156792
  0.9721369082961004  0.3759913687573686  0.6232980947764943
  0.0266706393716092  0.6297493372790299  0.3723947216908527
  0.0228876437463654  0.6316514592511595  0.8744449903750677
  0.5292279966301763  0.6752196327695330  0.1276326100968745
  0.5000960420925651  0.6476181315184988  0.6253348916857746
  0.4726757302844291  0.3200698591443825  0.3730692227255048
  0.4738063831907269  0.3172550318713760  0.8739817523837488
  0.3309218704747394  0.8533416615763727  0.1275167362674949
  0.3522430715218121  0.8525626873322594  0.6255285457485797
  0.6790411905263483  0.1519233656427943  0.3730961165748710
  0.6820294633365975  0.1568235041269261  0.8732568612390210
  0.1438548600844456  0.4601641366571840  0.1278247220255011
  0.1467449667373231  0.4985507799226099  0.6255334608004901
  0.8477932514288185  0.5274400259095344  0.3740944069634438
  0.8439818081878272  0.5261023871104058  0.8714959326227500
  0.7389290353127294  0.6534136533189780  0.0416620191610022
  0.7283260832748653  0.6581216307823610  0.5380283547016305
  0.2606639557101218  0.3499551739544486  0.4545701680011476
  0.2543991993944417  0.3251031166004879  0.9578083996737021
  0.3443618271410998  0.0811551208821726  0.0420481439293141
  0.3415213512992068  0.0699237236837931  0.5379928970403185
  0.6499674936132678  0.9106423659575640  0.4547126577603677
  0.6752918716951726  0.9304316266174411  0.9572581322952800
  0.9064310307103867  0.2625382228603570  0.0402733163961244
  0.9287951913418198  0.2709051701603471  0.5380522251945123
  0.0906460339417876  0.7360813250990503  0.4567117581569420
  0.0700714785953096  0.7444569630977185  0.9555421651705345
  0.2603784476448538  0.3431042161520494  0.2872167737190381
  0.2597735816397559  0.3469717393676106  0.7921627999429504
  0.7366767658697313  0.6423069567592208  0.2103468736566327
  0.7315519216652291  0.6582402526778637  0.7070166706446557
  0.6554776278603072  0.9162927727391548  0.2872716277467688
  0.6535740549900382  0.9135736967237307  0.7916262331867614
  0.3595228657588834  0.0918543568860670  0.2107599608391979
  0.3416887089561698  0.0736038673319115  0.7070032329028351
  0.0844045744921615  0.7388343761388541  0.2891409362978266
  0.0904549746757795  0.7370459195151540  0.7896799358835835
  0.8984613957025260  0.2608833004826607  0.2096544157513875
  0.9253184553427189  0.2675867733735018  0.7071003560690201
  0.5306748408337825  0.4177497612567791  0.1216137892922831
  0.5433301739183563  0.4155597996158065  0.6228918635074123
  0.4736289326104242  0.5758319308939761  0.3695486934647079
  0.4692677599914745  0.5696752230481792  0.8776741720791463
  0.5843407218818584  0.1156567969712370  0.1202401179083310
  0.5842340500987930  0.1278065240601336  0.6228896927901459
  0.4233446009451285  0.8965214352292037  0.3701925710718683
  0.4302894497629097  0.8993084880204734  0.8769578040933013
  0.8910193202153494  0.4739503082645484  0.1230334063554324
  0.8716570137220927  0.4562451179577707  0.6229456855235327
  0.1011036267408087  0.5233519307978156  0.3703171723842473
  0.0996657559323353  0.5281560221480177  0.8774530952417194
  0.9955589842621251  0.0173792678955067  0.1201988284751678
  0.9994831772631443  0.0004030608438583  0.6278028805977627
 
  0.00000000E+00  0.00000000E+00  0.00000000E+00
  0.00000000E+00  0.00000000E+00  0.00000000E+00
  0.00000000E+00  0.00000000E+00  0.00000000E+00
  0.00000000E+00  0.00000000E+00  0.00000000E+00
  0.00000000E+00  0.00000000E+00  0.00000000E+00
  0.00000000E+00  0.00000000E+00  0.00000000E+00
  0.00000000E+00  0.00000000E+00  0.00000000E+00
  0.00000000E+00  0.00000000E+00  0.00000000E+00
  0.00000000E+00  0.00000000E+00  0.00000000E+00
  0.00000000E+00  0.00000000E+00  0.00000000E+00
  0.00000000E+00  0.00000000E+00  0.00000000E+00
  0.00000000E+00  0.00000000E+00  0.00000000E+00
  0.00000000E+00  0.00000000E+00  0.00000000E+00
  0.00000000E+00  0.00000000E+00  0.00000000E+00
  0.00000000E+00  0.00000000E+00  0.00000000E+00
  0.00000000E+00  0.00000000E+00  0.00000000E+00
  0.00000000E+00  0.00000000E+00  0.00000000E+00
  0.00000000E+00  0.00000000E+00  0.00000000E+00
  0.00000000E+00  0.00000000E+00  0.00000000E+00
  0.00000000E+00  0.00000000E+00  0.00000000E+00
  0.00000000E+00  0.00000000E+00  0.00000000E+00
  0.00000000E+00  0.00000000E+00  0.00000000E+00
  0.00000000E+00  0.00000000E+00  0.00000000E+00
  0.00000000E+00  0.00000000E+00  0.00000000E+00
  0.00000000E+00  0.00000000E+00  0.00000000E+00
  0.00000000E+00  0.00000000E+00  0.00000000E+00
  0.00000000E+00  0.00000000E+00  0.00000000E+00
  0.00000000E+00  0.00000000E+00  0.00000000E+00
  0.00000000E+00  0.00000000E+00  0.00000000E+00
  0.00000000E+00  0.00000000E+00  0.00000000E+00
  0.00000000E+00  0.00000000E+00  0.00000000E+00
  0.00000000E+00  0.00000000E+00  0.00000000E+00
  0.00000000E+00  0.00000000E+00  0.00000000E+00
  0.00000000E+00  0.00000000E+00  0.00000000E+00
  0.00000000E+00  0.00000000E+00  0.00000000E+00
  0.00000000E+00  0.00000000E+00  0.00000000E+00
  0.00000000E+00  0.00000000E+00  0.00000000E+00
  0.00000000E+00  0.00000000E+00  0.00000000E+00
  0.00000000E+00  0.00000000E+00  0.00000000E+00
  0.00000000E+00  0.00000000E+00  0.00000000E+00
  0.00000000E+00  0.00000000E+00  0.00000000E+00
  0.00000000E+00  0.00000000E+00  0.00000000E+00
  0.00000000E+00  0.00000000E+00  0.00000000E+00
  0.00000000E+00  0.00000000E+00  0.00000000E+00
  0.00000000E+00  0.00000000E+00  0.00000000E+00
  0.00000000E+00  0.00000000E+00  0.00000000E+00
  0.00000000E+00  0.00000000E+00  0.00000000E+00
  0.00000000E+00  0.00000000E+00  0.00000000E+00
  0.00000000E+00  0.00000000E+00  0.00000000E+00
  0.00000000E+00  0.00000000E+00  0.00000000E+00
  0.00000000E+00  0.00000000E+00  0.00000000E+00
  0.00000000E+00  0.00000000E+00  0.00000000E+00
  0.00000000E+00  0.00000000E+00  0.00000000E+00
  0.00000000E+00  0.00000000E+00  0.00000000E+00
  0.00000000E+00  0.00000000E+00  0.00000000E+00
  0.00000000E+00  0.00000000E+00  0.00000000E+00
  0.00000000E+00  0.00000000E+00  0.00000000E+00
  0.00000000E+00  0.00000000E+00  0.00000000E+00
  0.00000000E+00  0.00000000E+00  0.00000000E+00
  0.00000000E+00  0.00000000E+00  0.00000000E+00
  0.00000000E+00  0.00000000E+00  0.00000000E+00
  0.00000000E+00  0.00000000E+00  0.00000000E+00
  0.00000000E+00  0.00000000E+00  0.00000000E+00
  0.00000000E+00  0.00000000E+00  0.00000000E+00
  0.00000000E+00  0.00000000E+00  0.00000000E+00
  0.00000000E+00  0.00000000E+00  0.00000000E+00
  0.00000000E+00  0.00000000E+00  0.00000000E+00
  0.00000000E+00  0.00000000E+00  0.00000000E+00
  0.00000000E+00  0.00000000E+00  0.00000000E+00
  0.00000000E+00  0.00000000E+00  0.00000000E+00
  0.00000000E+00  0.00000000E+00  0.00000000E+00
  0.00000000E+00  0.00000000E+00  0.00000000E+00
  0.00000000E+00  0.00000000E+00  0.00000000E+00
  0.00000000E+00  0.00000000E+00  0.00000000E+00
  0.00000000E+00  0.00000000E+00  0.00000000E+00
  0.00000000E+00  0.00000000E+00  0.00000000E+00
  0.00000000E+00  0.00000000E+00  0.00000000E+00
  0.00000000E+00  0.00000000E+00  0.00000000E+00
  0.00000000E+00  0.00000000E+00  0.00000000E+00
  0.00000000E+00  0.00000000E+00  0.00000000E+00
  0.00000000E+00  0.00000000E+00  0.00000000E+00
