Al   Hf   Mg   N 
   1.00000000000000     
  -9.6033267698729095  -0.0006346652806374  -0.0022295067262868
  -4.7998885642417601   8.3377792229359109  -0.0001984798933271
  -0.0596264584801371  -0.0342043887418881 -10.1952650669538993
Al   Hf   Mg   N 
30  3  3  36  
Direct
  0.1148541978124342  0.0955709473865554  0.3937061538120901  
  0.2161445417203822  0.2074668986474748  0.1523072359093831  
  0.7839739212430530  0.1022030248273325  0.8259961830874261  
  0.8777672849196350  0.2129211589287152  0.5765093030418313  
  0.4439532697809909  0.0943330698260141  0.4005272183356325  
  0.1181608991983651  0.0939726895629107  0.9045696224099800  
  0.2188145350551878  0.2113175351323591  0.6485387794297708  
  0.7846611710171061  0.0934785234917968  0.3356532360844255  
  0.8923278806551167  0.2046160418192216  0.0836304918364803  
  0.4338578129703521  0.0932981988586477  0.8929685380335997  
  0.5460095316272486  0.2124283193339593  0.6497623071059593  
  0.1129013751108587  0.4270480621180326  0.3974705245422427  
  0.2172006479074966  0.5410797598439814  0.1505189595956509  
  0.7734885843809707  0.4305976889624006  0.8978518334809920  
  0.8872267832928600  0.5351073205363690  0.6429497309222043  
  0.4434129958024897  0.4291721463566276  0.4001115469228935  
  0.5570163860714814  0.5444823040897617  0.1482702441004662  
  0.2214587326372737  0.5357085202928360  0.6488775341587925  
  0.7720153090648836  0.4362383687546085  0.3949152130460050  
  0.8942520161835574  0.5320431737710294  0.1546933368269947  
  0.4373003290351392  0.4395675577828086  0.8931191204484676  
  0.5603394420746710  0.5337236976585160  0.6479810150681047  
  0.1154952674226166  0.7546489126473119  0.3970039975038304  
  0.4466494247301043  0.7590149216523798  0.3968442497371640  
  0.5541823471641507  0.8664469404313664  0.1537288865989765  
  0.1139458109696676  0.7591940281481229  0.9052445987284656  
  0.7768801605341338  0.7582348058139345  0.4018225030406981  
  0.9010165737469435  0.8572724019431917  0.1555546905576151  
  0.4449590404050596  0.7580549300131381  0.9027975697268360  
  0.5564168409025427  0.8716215214242879  0.6424186512069028  
  0.5527510048413760  0.2069990516060827  0.1271257072729881  
  0.7784602744424873  0.7624105451325320  0.8950264805123069  
  0.2199603490280495  0.8734499178068802  0.6428010466089376  
  0.1159935364318372  0.4228429624027115  0.8983975842253713  
  0.2234755939707824  0.8710797760119959  0.1500114424464627  
  0.8866408103675028  0.8705684396470161  0.6324742427726875  
  0.2256220752091522  0.2046403334030771  0.3412505260112155  
  0.1122570568246388  0.1042108692340662  0.0918192487644873  
  0.8880172307533272  0.2049166586313120  0.8904572096704015  
  0.7682587095352531  0.1155740419050133  0.6388665082576992  
  0.5508522875758644  0.2076805023936643  0.3387908036421905  
  0.4361994785827932  0.0808210550184185  0.0841129516839416  
  0.2264212806285713  0.1919118009320115  0.8315233075205413  
  0.1044615483294677  0.1120233889818536  0.5854164820441028  
  0.8855676080572721  0.2069624575440088  0.3831006690577823  
  0.7988704137313647  0.0845025928801775  0.1414992957093801  
  0.5485731365454498  0.2084797059918344  0.8551198797580213  
  0.4441294877463093  0.0954921545849245  0.5893340436860299  
  0.2261779872307486  0.5354745667063483  0.3394013156402451  
  0.1139600882619618  0.4254075103024562  0.1036388983692689  
  0.8822855846242206  0.5306229911987685  0.8299455557620163  
  0.7717245071923031  0.4357031654592163  0.5843560566030561  
  0.5534938524584305  0.5393363015774639  0.3374929868665788  
  0.4356825453188691  0.4491424505835013  0.0834674317968123  
  0.2264642965279648  0.5490088338797392  0.8334858995334642  
  0.1109711460097103  0.4277176572712804  0.5880081155213617  
  0.8895413803196419  0.5380195484992996  0.3422061194425368  
  0.7753612725535177  0.4334803506556710  0.0919715368031362  
  0.5561294043445955  0.5390861186748381  0.8364867344767930  
  0.4439594648707725  0.4275930312948475  0.5894363070847319  
  0.2233918239369288  0.8722204813691690  0.3599051462900889  
  0.1071455872769249  0.7506700750006630  0.0902935980616633  
  0.8997351342388100  0.8784400233350311  0.8446167620394291  
  0.7698702514597144  0.7524146593885703  0.5882561675260902  
  0.5549010149799187  0.8732475787150875  0.3417595839714949  
  0.4614640914548289  0.7531587872905590  0.0865663825505294  
  0.2236760618856266  0.8714092549858776  0.8511301050397932  
  0.1196603886834779  0.7430459036163128  0.5805407179849666  
  0.8923571085868787  0.8646074176871750  0.3472911286830751  
  0.7785903341578617  0.7596499772220966  0.1024208444338015  
  0.5408243079885722  0.8779364044882669  0.8313041476581731  
  0.4592104557845147  0.7511984648680894  0.5857010574091888  
