Al   Hf   Mg   N                        
   1.00000000000000     
    -9.6124703039259778    0.0086394965852784   -0.0031886585044362
    -4.8078184605008740    8.3482611546854280   -0.0038791165296843
    -0.0165903075663866    0.0090567612191902  -10.1643595170046357
   Al   Hf   Mg   N 
    30     3     3    36
Direct
  0.1090180549610571  0.0976812627749832  0.3252730310807869
  0.2159507801515124  0.2047609511425756  0.0774227476466982
  0.7805674481387209  0.1003172561712350  0.8189914180323583
  0.8815035421517224  0.2157610986556838  0.5751409799728187
  0.4418474822408867  0.0911174693698721  0.3316373930818938
  0.1066987659808288  0.1021681850555475  0.8285873640576422
  0.2183430665141081  0.2144122083000862  0.5730827235117689
  0.7846206913933487  0.0918751513481168  0.3276904192449589
  0.8926851183973068  0.2089861880580086  0.0764828705343219
  0.4356733117142049  0.0952553935379740  0.8213095182908039
  0.5556605719938155  0.2071567976598609  0.5733649221308820
  0.1084916871519665  0.4234664545918390  0.3296697621656270
  0.2154835223494488  0.5462247327639612  0.1446660497689694
  0.7770895822089103  0.4242798049583603  0.8248545026747578
  0.8905591140197269  0.5357982483001363  0.5699679677250897
  0.4479904635154626  0.4297938295752799  0.3330156773513090
  0.5591759084139439  0.5418916952296599  0.0760494053111206
  0.2188398189929839  0.5383222572914919  0.6402534608490572
  0.7769500093088667  0.4270709328636212  0.3248441241374051
  0.8899917565926988  0.5324467011294575  0.0814816878412875
  0.4486788702249520  0.4297997381150774  0.8186271757967291
  0.5631541850225792  0.5328386202278631  0.5743807640504842
  0.1128047971685180  0.7544633385251063  0.3884868063372363
  0.4484971076506241  0.7585668905165283  0.3251690042275328
  0.5523813266963288  0.8681963990582152  0.0808866680806275
  0.1204406068312250  0.7550361593897373  0.8925890523400284
  0.7790380064738495  0.7607249017782158  0.3201643464937861
  0.8930904396597401  0.8716865661632310  0.0843292480518213
  0.4468137432605148  0.7557773443314810  0.8277021573586156
  0.5600131338610387  0.8686725059653924  0.5710498745226129
  0.5538265487944658  0.2055410748945403  0.0801448372749834
  0.7789695054955263  0.7592045777696395  0.8326499995380318
  0.2224837367595253  0.8749726230389606  0.6015299650146155
  0.1123169232058226  0.4187797060957340  0.8321749114023045
  0.2263287082051988  0.8768415273701298  0.0898208275796224
  0.8749003441502932  0.8799465549535715  0.5709816676282599
  0.2226243481771596  0.2038219126924045  0.3854133103682501
  0.1012209200609682  0.1102513453380465  0.1401715780871186
  0.8865121104485433  0.2077972595705472  0.8866503853132225
  0.7701723324201343  0.1117224885498811  0.6340759145051282
  0.5564285861210744  0.2038699565452020  0.3780821518148378
  0.4360647938369367  0.0854674384918855  0.1423045150645855
  0.2299751634955125  0.1886034464899732  0.8921184295624263
  0.0959294495873605  0.1219469043501537  0.6382205853862797
  0.8879470558822070  0.2074567519517021  0.3862555889140406
  0.7919597786869242  0.0911675894240604  0.1375234116746171
  0.5530319359575946  0.2055558894600541  0.8742809126123989
  0.4440713899153269  0.0920209170242310  0.6305712310899538
  0.2210107900072453  0.5398648685704107  0.3362328839277273
  0.1103711308308850  0.4228689460434559  0.1350718518629506
  0.8806129167492405  0.5279433251281207  0.8961419189370694
  0.7780881250768416  0.4300878413885310  0.6348099811598470
  0.5574629821280439  0.5388306854059284  0.3866356440724223
  0.4454415153345349  0.4397352166484542  0.1384962951330617
  0.2264635800726957  0.5484071070745824  0.8297832241193946
  0.1075600568463671  0.4280331999445952  0.6197984583444525
  0.8855082176180807  0.5397330220472517  0.3789270187404148
  0.7760657438756855  0.4258540557396011  0.1370000646630143
  0.5566460823374467  0.5365779840016627  0.8854584302553407
  0.4511113824170124  0.4245240585786296  0.6268667177826025
  0.2263794671364510  0.8759733302570819  0.3811801428439124
  0.1135414665880156  0.7494186448034428  0.0805651972570088
  0.8887295626541073  0.8889324496230653  0.8867737470507164
  0.7722144806663800  0.7516511137386309  0.6305396339408785
  0.5582210877981840  0.8703684167179714  0.3832930343588153
  0.4613608122979631  0.7506856048374073  0.1395554797050237
  0.2205697190941180  0.8739826307806986  0.8441611570488095
  0.1151166528257688  0.7433567016171964  0.5771296938988949
  0.8876049638511898  0.8720026540758544  0.3629950841931158
  0.7773520260353944  0.7614921802638763  0.1264173614625502
  0.5390572960023137  0.8796370522815571  0.8905907891264929
  0.4681568977696119  0.7472401479744709  0.6379686839562104
 
             NaN             NaN             NaN
             NaN             NaN             NaN
             NaN             NaN             NaN
             NaN             NaN             NaN
             NaN             NaN             NaN
             NaN             NaN             NaN
             NaN             NaN             NaN
             NaN             NaN             NaN
             NaN             NaN             NaN
             NaN             NaN             NaN
             NaN             NaN             NaN
             NaN             NaN             NaN
             NaN             NaN             NaN
             NaN             NaN             NaN
             NaN             NaN             NaN
             NaN             NaN             NaN
             NaN             NaN             NaN
             NaN             NaN             NaN
             NaN             NaN             NaN
             NaN             NaN             NaN
             NaN             NaN             NaN
             NaN             NaN             NaN
             NaN             NaN             NaN
             NaN             NaN             NaN
             NaN             NaN             NaN
             NaN             NaN             NaN
             NaN             NaN             NaN
             NaN             NaN             NaN
             NaN             NaN             NaN
             NaN             NaN             NaN
             NaN             NaN             NaN
             NaN             NaN             NaN
             NaN             NaN             NaN
             NaN             NaN             NaN
             NaN             NaN             NaN
             NaN             NaN             NaN
             NaN             NaN             NaN
             NaN             NaN             NaN
             NaN             NaN             NaN
             NaN             NaN             NaN
             NaN             NaN             NaN
             NaN             NaN             NaN
             NaN             NaN             NaN
             NaN             NaN             NaN
             NaN             NaN             NaN
             NaN             NaN             NaN
             NaN             NaN             NaN
             NaN             NaN             NaN
             NaN             NaN             NaN
             NaN             NaN             NaN
             NaN             NaN             NaN
             NaN             NaN             NaN
             NaN             NaN             NaN
             NaN             NaN             NaN
             NaN             NaN             NaN
             NaN             NaN             NaN
             NaN             NaN             NaN
             NaN             NaN             NaN
             NaN             NaN             NaN
             NaN             NaN             NaN
             NaN             NaN             NaN
             NaN             NaN             NaN
             NaN             NaN             NaN
             NaN             NaN             NaN
             NaN             NaN             NaN
             NaN             NaN             NaN
             NaN             NaN             NaN
             NaN             NaN             NaN
             NaN             NaN             NaN
             NaN             NaN             NaN
             NaN             NaN             NaN
             NaN             NaN             NaN
