Al   Hf   Mg   N                        
   1.00000000000000     
    -9.6065702952503340    0.0092528238824553   -0.0023814610655551
    -4.8032023194199081    8.3320929041752390    0.0004728358956159
    -0.0147659033273198   -0.0009477373906906  -10.2867232190749380
   Al   Hf   Mg   N 
    30     3     3    36
Direct
  0.1079654599205866  0.1016643286181744  0.3333345440410262
  0.2188866866287787  0.1993590620771237  0.0846280940236816
  0.7762250894232974  0.1051601957173819  0.8252148273173510
  0.8826476701138476  0.2129433216498968  0.5811235430491506
  0.4383963648945639  0.0945748154168028  0.3392756789576398
  0.1078652215086659  0.1028354150130327  0.8378531808865112
  0.2205861105489746  0.2092873195023835  0.5826442022715441
  0.7835076508017874  0.0939882910429678  0.3388320916842555
  0.8958506145537531  0.2054325724408919  0.0864318047598036
  0.4348075208398622  0.1025750795991680  0.8261510758856530
  0.5568003862056011  0.2038729534363832  0.5783933290729387
  0.1104881558124909  0.4333925030430186  0.3988023892770581
  0.2161817797495918  0.5402633660349099  0.1499355513112277
  0.7761482393605446  0.4258412174319653  0.8719300866234684
  0.8884104943790341  0.5375681074698626  0.6421246104151873
  0.4390116658808405  0.4359816779507866  0.3986609981388396
  0.5575561353248421  0.5429425349655661  0.1496658404591499
  0.2237422344648594  0.5342872245795924  0.6504323782986643
  0.7750038759619656  0.4305892172570890  0.3836913127019750
  0.8971845169980567  0.5288761684253298  0.1584095628994600
  0.4367453196792211  0.4422030362152495  0.8954729275685708
  0.5584159810437556  0.5322342381355657  0.6462470959292733
  0.1127825418333724  0.7553158659308360  0.3991234541847679
  0.4485161077939332  0.7574141604971517  0.4006877232023272
  0.5584065351697605  0.8583736846387151  0.1597189302026694
  0.1130937397232489  0.7622388714828826  0.9026577331076887
  0.7780874338565867  0.7578178386386774  0.4046427643473451
  0.9006940899827069  0.8592396585714583  0.1583613631872878
  0.4418357207218854  0.7622217018771024  0.9011159541543399
  0.5604985162189149  0.8658647817108682  0.6441179307740227
  0.5581900392067837  0.2001323431891520  0.0941042840902537
  0.7781158074099109  0.7620180946103637  0.9002272330915995
  0.2206771913213075  0.8716162045367732  0.6297428480287816
  0.1152233083165557  0.4286171845949917  0.8967199211377485
  0.2261686633842598  0.8652667330806461  0.1470435321440947
  0.8862640825326397  0.8713289528971825  0.6379525154751364
  0.2238361737172311  0.2011442005747270  0.3965638006401115
  0.1026329458768723  0.1098644350072953  0.1504054126465019
  0.8896286197018644  0.2026455188446196  0.8959444984197968
  0.7651552883739731  0.1193226403128076  0.6416252306561783
  0.5579657768514521  0.2003268365864514  0.3827903834064041
  0.4337702497048342  0.0878393841551909  0.1509983130110414
  0.2339698984537733  0.1836393069791393  0.8993935968700233
  0.0949443562611029  0.1234002209981019  0.6483631350033672
  0.8911893116382418  0.2013499121036997  0.3947903987906287
  0.7955125362203452  0.0893373672349427  0.1498247763523560
  0.5557560972742390  0.2017105928901055  0.8884633900648370
  0.4406646185927375  0.1012656411896855  0.6373643395086864
  0.2243696911677087  0.5372710250480034  0.3370643202911748
  0.1127145148524967  0.4265537416729130  0.1036359662678348
  0.8849656204443478  0.5316695606727644  0.8287408737289030
  0.7728527821613264  0.4347481646488762  0.5938968776174002
  0.5511548230636030  0.5403873174640615  0.3383672976800769
  0.4346146321842637  0.4492052421412384  0.0876590327257298
  0.2281608526049855  0.5487106691772250  0.8335740806766648
  0.1084896950743280  0.4353355915956232  0.5894129681404194
  0.8911055672955902  0.5380757626296792  0.3451229523495115
  0.7778189784979164  0.4283194695821430  0.1134056812990217
  0.5542991056907854  0.5390711464921082  0.8352197349414461
  0.4406393694116217  0.4327437605018288  0.5860398819892136
  0.2220712883333432  0.8742751908488650  0.3718993107684981
  0.1053597015754819  0.7519598618464995  0.0877765721499347
  0.8959648193243751  0.8803759692534406  0.8460982324865131
  0.7708133648986695  0.7547280368826110  0.5881217972738608
  0.5592921566542461  0.8635735264660617  0.3464092653775648
  0.4611414122492007  0.7534194780481624  0.0844694788124518
  0.2236739385769818  0.8694675004370210  0.8417278002404449
  0.1161749185223081  0.7418491457246464  0.5810872619483517
  0.8927482681140059  0.8636626338175794  0.3473174691129630
  0.7783942585846635  0.7606628655203247  0.1055379385067694
  0.5444840407863419  0.8732697235779308  0.8324871423313834
  0.4624370325091630  0.7494283940665666  0.5865678898153761
 
             NaN             NaN             NaN
             NaN             NaN             NaN
             NaN             NaN             NaN
             NaN             NaN             NaN
             NaN             NaN             NaN
             NaN             NaN             NaN
             NaN             NaN             NaN
             NaN             NaN             NaN
             NaN             NaN             NaN
             NaN             NaN             NaN
             NaN             NaN             NaN
             NaN             NaN             NaN
             NaN             NaN             NaN
             NaN             NaN             NaN
             NaN             NaN             NaN
             NaN             NaN             NaN
             NaN             NaN             NaN
             NaN             NaN             NaN
             NaN             NaN             NaN
             NaN             NaN             NaN
             NaN             NaN             NaN
             NaN             NaN             NaN
             NaN             NaN             NaN
             NaN             NaN             NaN
             NaN             NaN             NaN
             NaN             NaN             NaN
             NaN             NaN             NaN
             NaN             NaN             NaN
             NaN             NaN             NaN
             NaN             NaN             NaN
             NaN             NaN             NaN
             NaN             NaN             NaN
             NaN             NaN             NaN
             NaN             NaN             NaN
             NaN             NaN             NaN
             NaN             NaN             NaN
             NaN             NaN             NaN
             NaN             NaN             NaN
             NaN             NaN             NaN
             NaN             NaN             NaN
             NaN             NaN             NaN
             NaN             NaN             NaN
             NaN             NaN             NaN
             NaN             NaN             NaN
             NaN             NaN             NaN
             NaN             NaN             NaN
             NaN             NaN             NaN
             NaN             NaN             NaN
             NaN             NaN             NaN
             NaN             NaN             NaN
             NaN             NaN             NaN
             NaN             NaN             NaN
             NaN             NaN             NaN
             NaN             NaN             NaN
             NaN             NaN             NaN
             NaN             NaN             NaN
             NaN             NaN             NaN
             NaN             NaN             NaN
             NaN             NaN             NaN
             NaN             NaN             NaN
             NaN             NaN             NaN
             NaN             NaN             NaN
             NaN             NaN             NaN
             NaN             NaN             NaN
             NaN             NaN             NaN
             NaN             NaN             NaN
             NaN             NaN             NaN
             NaN             NaN             NaN
             NaN             NaN             NaN
             NaN             NaN             NaN
             NaN             NaN             NaN
             NaN             NaN             NaN
