Al   Hf   Mg   N                        
   1.00000000000000     
    -9.6261673767182678    0.0029568774513294   -0.0120682990131449
    -4.8222266957766831    8.3668197183144724   -0.0032409520919839
     0.0435882480040245   -0.0621794555133659  -10.2291251216118066
   Al   Hf   Mg   N 
    30     3     3    36
Direct
  0.1079850746158510  0.1001523611693037  0.3290298730951567
  0.2159584412041231  0.2019648365099398  0.0791524529876053
  0.7769964647140469  0.1058360424869888  0.8184402696268469
  0.8827486222376409  0.2176347908890533  0.5775380241940882
  0.4385557640132458  0.0957350648428722  0.3357092641216509
  0.1071801961509043  0.1031454026948510  0.8344387476969976
  0.2165695589670296  0.2165335578611015  0.5752354440790486
  0.7823104867856950  0.0969412207571015  0.3347432262233414
  0.8945388165629765  0.2055958248582810  0.0789505285883992
  0.4324411632213964  0.1030952348470806  0.8201095398803931
  0.5559688049568391  0.2064088342101442  0.5734725334736321
  0.1112171553303133  0.4225515689979473  0.3283046893626206
  0.2184873051228192  0.5422451445621365  0.1422222843369408
  0.7822998077213947  0.4226692471774176  0.8291625097018948
  0.8932676682837442  0.5341419187079512  0.5746253571489077
  0.4394467085136501  0.4362242906255862  0.3939206026857475
  0.5531920989506687  0.5424878721245401  0.1444342494710454
  0.2247013571480472  0.5363462160788968  0.6455852707467260
  0.7826895314080825  0.4226944025801304  0.3274672976487859
  0.8902530775453582  0.5299150091043457  0.0831071232565718
  0.4365507385739985  0.4436157561738834  0.8891847789217128
  0.5580102710999798  0.5340132192183361  0.6446836065658149
  0.1164450239246640  0.7533513862556134  0.3925619481268574
  0.4490081597363765  0.7549836845125362  0.3935140546586231
  0.5534440450081216  0.8613847063863423  0.1498017831765528
  0.1116254849186751  0.7644054968470400  0.8978374037828272
  0.7835710938615310  0.7515998322711445  0.3344128698259349
  0.9009471845592025  0.8624213411965048  0.1469205634780265
  0.4426224877131774  0.7617660705528783  0.8983601262775064
  0.5560094489541436  0.8708522040200215  0.6251055398374626
  0.5580338417491463  0.1974714756706659  0.0848689875952227
  0.7798397472857869  0.7595458046372316  0.8396548646048377
  0.2240523374552288  0.8697965026717860  0.6281935578386794
  0.1127773482871649  0.4213705393357297  0.8353009577289360
  0.2247156616509114  0.8662526537228518  0.1418527189282858
  0.8857960648175531  0.8776852755310048  0.6109395767148874
  0.2210695654951843  0.2058790628471770  0.3889533797589017
  0.1015764695096849  0.1094188215705661  0.1438009218109084
  0.8866102990817454  0.2078183853444038  0.8903635539420824
  0.7656924185816976  0.1207587186475722  0.6328215613234420
  0.5573280958806808  0.2019217049963326  0.3770976211948033
  0.4322810359529197  0.0879473693807478  0.1454823039250462
  0.2299011656141173  0.1907883499926665  0.8950351614499350
  0.0985777645811747  0.1194250230356908  0.6406463849687234
  0.8886677379361251  0.2080525214323202  0.3909804292230815
  0.7943004260493340  0.0902988423310817  0.1439209867752852
  0.5538455113128465  0.2042984559814756  0.8786463964852964
  0.4406134362470838  0.1012675456671923  0.6277130030713084
  0.2265260231499323  0.5382619762588551  0.3307979750549997
  0.1105364962599248  0.4210730522666611  0.1371262658060152
  0.8824512968205372  0.5268171078572590  0.9004490047619946
  0.7841849225347469  0.4285148027899908  0.6378996471069375
  0.5509415754597459  0.5394693926560468  0.3342261696394473
  0.4354033633812562  0.4452782828673389  0.0820162295871765
  0.2275914252557474  0.5529213742268634  0.8314043925801863
  0.1097864114645537  0.4287742448000721  0.6253369336634106
  0.8901471213901831  0.5345014488451147  0.3850773144131798
  0.7812769457919945  0.4213623653814756  0.1396942685924949
  0.5518392037236156  0.5423718943085443  0.8339501949189910
  0.4422400336033110  0.4336405120471362  0.5820402734675657
  0.2227911340294777  0.8744198781202628  0.3645350881241794
  0.1062406536629834  0.7510528972340399  0.0830622912223880
  0.8967399285429706  0.8870557795732557  0.8463621468880393
  0.7764503662312453  0.7483816133902158  0.6308604767855003
  0.5567055760843355  0.8671660940741901  0.3482783979435297
  0.4596573943037098  0.7508820038412677  0.0827480065543850
  0.2231287123576926  0.8716258175122897  0.8398594432815674
  0.1194755028165334  0.7411441149922308  0.5750153066428138
  0.8947391273600798  0.8677272105318898  0.3459901815039026
  0.7804541524363332  0.7549237122591481  0.1338978199308334
  0.5341950485051823  0.8809298678433445  0.8340096671520817
  0.4655531067471751  0.7459395794782036  0.5793030208413720
 
             NaN             NaN             NaN
             NaN             NaN             NaN
             NaN             NaN             NaN
             NaN             NaN             NaN
             NaN             NaN             NaN
             NaN             NaN             NaN
             NaN             NaN             NaN
             NaN             NaN             NaN
             NaN             NaN             NaN
             NaN             NaN             NaN
             NaN             NaN             NaN
             NaN             NaN             NaN
             NaN             NaN             NaN
             NaN             NaN             NaN
             NaN             NaN             NaN
             NaN             NaN             NaN
             NaN             NaN             NaN
             NaN             NaN             NaN
             NaN             NaN             NaN
             NaN             NaN             NaN
             NaN             NaN             NaN
             NaN             NaN             NaN
             NaN             NaN             NaN
             NaN             NaN             NaN
             NaN             NaN             NaN
             NaN             NaN             NaN
             NaN             NaN             NaN
             NaN             NaN             NaN
             NaN             NaN             NaN
             NaN             NaN             NaN
             NaN             NaN             NaN
             NaN             NaN             NaN
             NaN             NaN             NaN
             NaN             NaN             NaN
             NaN             NaN             NaN
             NaN             NaN             NaN
             NaN             NaN             NaN
             NaN             NaN             NaN
             NaN             NaN             NaN
             NaN             NaN             NaN
             NaN             NaN             NaN
             NaN             NaN             NaN
             NaN             NaN             NaN
             NaN             NaN             NaN
             NaN             NaN             NaN
             NaN             NaN             NaN
             NaN             NaN             NaN
             NaN             NaN             NaN
             NaN             NaN             NaN
             NaN             NaN             NaN
             NaN             NaN             NaN
             NaN             NaN             NaN
             NaN             NaN             NaN
             NaN             NaN             NaN
             NaN             NaN             NaN
             NaN             NaN             NaN
             NaN             NaN             NaN
             NaN             NaN             NaN
             NaN             NaN             NaN
             NaN             NaN             NaN
             NaN             NaN             NaN
             NaN             NaN             NaN
             NaN             NaN             NaN
             NaN             NaN             NaN
             NaN             NaN             NaN
             NaN             NaN             NaN
             NaN             NaN             NaN
             NaN             NaN             NaN
             NaN             NaN             NaN
             NaN             NaN             NaN
             NaN             NaN             NaN
             NaN             NaN             NaN
