Al   Hf   Mg   N                        
   1.00000000000000     
    -9.6408301689060512    0.0043991674003477   -0.0098622550881325
    -4.8228842288065108    8.3258488668244155   -0.0022997554896336
    -0.0097518793366707    0.0074273236521639  -10.2992235844654267
   Al   Hf   Mg   N 
    30     3     3    36
Direct
  0.1077770531901920  0.1001640641515676  0.3347620523545864
  0.2183492768019648  0.1999478491218966  0.0860095487189774
  0.7766776422632099  0.1055464474361184  0.8244966587276213
  0.8809302243970006  0.2167576188855707  0.5814846696649238
  0.4404305070318847  0.0926080122662483  0.3409490487461391
  0.1068976762803785  0.1042916195272232  0.8378720949246098
  0.2170032451084480  0.2162024981260995  0.5806971264265285
  0.7831930342625313  0.0934357280648130  0.3411588242854183
  0.8949214982576468  0.2064479590009998  0.0844706327127077
  0.4333812173896104  0.1030137859633378  0.8252483391703026
  0.5568817032322827  0.2030747154253577  0.5792057122983704
  0.1159265059929094  0.4229182556314575  0.3463168222503106
  0.2201655797777446  0.5433262139355742  0.1490428187197406
  0.7773951864137850  0.4209883042816428  0.8309144966426407
  0.8909903664618273  0.5388820778854210  0.6467531096575609
  0.4399211742232292  0.4355690905357839  0.4001222477368962
  0.5523989721362388  0.5448690961321828  0.1486913488476981
  0.2251881875437121  0.5350145513929842  0.6510996927632104
  0.7788789629858941  0.4211400491702333  0.3346054421322545
  0.8918251453555101  0.5364239656268152  0.1542499591209336
  0.4375566929143702  0.4425578592962906  0.8963822861052904
  0.5537595279144067  0.5342619002488216  0.6487969397977896
  0.1134297291156368  0.7542156121512044  0.4008514882889021
  0.4496276562584602  0.7556124486090214  0.4012240574204389
  0.5575264000750179  0.8587504745910044  0.1612662426610560
  0.1127631720719948  0.7638585441068464  0.9025975158243258
  0.7798561836244374  0.7540880681464837  0.4066447024608360
  0.9010354507801954  0.8599526292524300  0.1600678520786561
  0.4415080059111006  0.7620452176883538  0.9012622442415598
  0.5598250498390114  0.8659308466959889  0.6440471440070341
  0.5591235427066474  0.1980661574821585  0.0938324323394435
  0.7745580227838913  0.7676921069209157  0.9009520310514537
  0.2214591970040735  0.8721632804548817  0.6307766150752059
  0.1188396306127687  0.4231131320798842  0.8619967600150338
  0.2255352391791941  0.8665024654963225  0.1472779982303328
  0.8871028696971311  0.8705875107048678  0.6380038154640627
  0.2236688532637427  0.2020496252567545  0.3951190425481683
  0.1010541235517715  0.1108246289079583  0.1510764371164496
  0.8870931485234366  0.2072267267753673  0.8966637240951021
  0.7656209469946696  0.1186440327362654  0.6404129899039928
  0.5581066079085814  0.1996499366988685  0.3835775097285060
  0.4338398710694693  0.0875124964371414  0.1519815426661507
  0.2326308092524173  0.1860303687309096  0.9022684095870604
  0.0956554454250825  0.1230026953582293  0.6466508410470510
  0.8884562629134571  0.2056311388556943  0.3964885296857835
  0.7954837977254574  0.0898043789415987  0.1511712869393528
  0.5559657132914577  0.2005692123860609  0.8883023138486175
  0.4397103070915502  0.1011566130188905  0.6359856552988972
  0.2278847372744205  0.5390821911731062  0.3364539611750348
  0.1170076247026014  0.4208972654387341  0.1352736027164771
  0.8812928007784168  0.5375922143082510  0.8414731542326028
  0.7768660755187529  0.4267109812896872  0.6385049776023578
  0.5491925094678066  0.5404040344980455  0.3386363353238622
  0.4357752419666520  0.4473244966425921  0.0873403170494098
  0.2303612260736810  0.5515915302532610  0.8361752794261378
  0.1111595161921319  0.4311863674783845  0.6184509373161868
  0.8888209200911589  0.5385610885286464  0.3450006158684121
  0.7786888453709746  0.4226038426358366  0.1412541254672717
  0.5498740275367662  0.5421995199810036  0.8385254553909487
  0.4415392629200298  0.4322755701556704  0.5865461510122127
  0.2224134020093634  0.8739204110134730  0.3722008282706633
  0.1045391040943561  0.7532271522102933  0.0876826811549373
  0.8969314675300376  0.8814380528499584  0.8459126587607845
  0.7708935936584584  0.7535178035655177  0.5898466563908150
  0.5604122280274750  0.8620843610115709  0.3475174796252577
  0.4610395341346425  0.7540263584214784  0.0849772714229820
  0.2227974468443560  0.8719475105426268  0.8428160017554074
  0.1170207071837696  0.7426075855141316  0.5820596897143070
  0.8932777587623003  0.8625641369523226  0.3486559722454221
  0.7770611901182013  0.7631765922222808  0.1061014380578667
  0.5415358760941328  0.8746805821689327  0.8320446334524495
  0.4634376046145489  0.7482073169254404  0.5862956869158968
 
             NaN             NaN             NaN
             NaN             NaN             NaN
             NaN             NaN             NaN
             NaN             NaN             NaN
             NaN             NaN             NaN
             NaN             NaN             NaN
             NaN             NaN             NaN
             NaN             NaN             NaN
             NaN             NaN             NaN
             NaN             NaN             NaN
             NaN             NaN             NaN
             NaN             NaN             NaN
             NaN             NaN             NaN
             NaN             NaN             NaN
             NaN             NaN             NaN
             NaN             NaN             NaN
             NaN             NaN             NaN
             NaN             NaN             NaN
             NaN             NaN             NaN
             NaN             NaN             NaN
             NaN             NaN             NaN
             NaN             NaN             NaN
             NaN             NaN             NaN
             NaN             NaN             NaN
             NaN             NaN             NaN
             NaN             NaN             NaN
             NaN             NaN             NaN
             NaN             NaN             NaN
             NaN             NaN             NaN
             NaN             NaN             NaN
             NaN             NaN             NaN
             NaN             NaN             NaN
             NaN             NaN             NaN
             NaN             NaN             NaN
             NaN             NaN             NaN
             NaN             NaN             NaN
             NaN             NaN             NaN
             NaN             NaN             NaN
             NaN             NaN             NaN
             NaN             NaN             NaN
             NaN             NaN             NaN
             NaN             NaN             NaN
             NaN             NaN             NaN
             NaN             NaN             NaN
             NaN             NaN             NaN
             NaN             NaN             NaN
             NaN             NaN             NaN
             NaN             NaN             NaN
             NaN             NaN             NaN
             NaN             NaN             NaN
             NaN             NaN             NaN
             NaN             NaN             NaN
             NaN             NaN             NaN
             NaN             NaN             NaN
             NaN             NaN             NaN
             NaN             NaN             NaN
             NaN             NaN             NaN
             NaN             NaN             NaN
             NaN             NaN             NaN
             NaN             NaN             NaN
             NaN             NaN             NaN
             NaN             NaN             NaN
             NaN             NaN             NaN
             NaN             NaN             NaN
             NaN             NaN             NaN
             NaN             NaN             NaN
             NaN             NaN             NaN
             NaN             NaN             NaN
             NaN             NaN             NaN
             NaN             NaN             NaN
             NaN             NaN             NaN
             NaN             NaN             NaN
