Al   Hf   Mg   N                        
   1.00000000000000     
    -9.5992684796524976    0.0104445815639730    0.0000254101373166
    -4.7926974569493099    8.3382780319748999    0.0013379366236575
    -0.0230391295246640   -0.0174428729476850  -10.2684892702695461
   Al   Hf   Mg   N 
    30     3     3    36
Direct
  0.1074456169220331  0.1023077665894822  0.3337453849479406
  0.2181392093719156  0.2003440489915487  0.0840658894645677
  0.7755877188237940  0.1056809781919648  0.8260321974378032
  0.8834894258490477  0.2114326398318102  0.5823484988203064
  0.4384454802496984  0.0940481564442561  0.3413405133679355
  0.1065219131237443  0.1032804019352068  0.8369171541860517
  0.2200601819614378  0.2101152799465546  0.5822641678392626
  0.7849593141551425  0.0936756877276450  0.3390871799196837
  0.8980078592803991  0.1998733323053139  0.0845659600199908
  0.4347714447275778  0.1027001323147802  0.8269226260533528
  0.5568047103698645  0.2047402506297140  0.5771658973694914
  0.1092562449197087  0.4337853045837842  0.3973430333927362
  0.2151570392709787  0.5414276985383999  0.1493006532551281
  0.7737766667048556  0.4299920744468579  0.9009047699843474
  0.8873498666038969  0.5357957126378778  0.6453221423735330
  0.4402940732306358  0.4367887405983364  0.3970307073034761
  0.5582715311355603  0.5436999475740318  0.1480665270509631
  0.2244029306507911  0.5341428393401561  0.6495912432768798
  0.7739939905558570  0.4336342417233564  0.3990239258605012
  0.8955135657607822  0.5289937978856509  0.1558194728494321
  0.4371012845466782  0.4415366243901139  0.8962350306820124
  0.5620820310236889  0.5300711969260475  0.6501196416211423
  0.1132914668365990  0.7552400174838347  0.3987181989226561
  0.4502652286525030  0.7558813676282581  0.3998748301293771
  0.5577986902034510  0.8596678171968424  0.1593261507295217
  0.1131127624803878  0.7622717367685798  0.9014771252188056
  0.7790730151177786  0.7563277172901495  0.4042274929878394
  0.9003451467866244  0.8587815699926182  0.1577129841381837
  0.4416626149854148  0.7618994108453085  0.9000850106780405
  0.5608324377336501  0.8657190614997290  0.6428440838110369
  0.5567116382606876  0.2015882613725721  0.0979807948577587
  0.7772908548842848  0.7625698374282405  0.8984798198423485
  0.2222899166933375  0.8709802983492400  0.6285375970167375
  0.1135624589029548  0.4292726736338755  0.8948464492355863
  0.2262777963050374  0.8658461827976478  0.1465393755157114
  0.8865628244158849  0.8711818616753936  0.6373745878868043
  0.2230911471025126  0.2021348395147157  0.3960084884297312
  0.1019765194607384  0.1108037580283449  0.1507756011712075
  0.8903366444499726  0.2005263188766070  0.8960258618056562
  0.7643498426499441  0.1196242151113286  0.6417270976493675
  0.5581993115077518  0.2013734618527378  0.3799173102915701
  0.4324735754524681  0.0879779300880985  0.1511840059951862
  0.2326943834890738  0.1844946959033091  0.8984421027608215
  0.0952508131958392  0.1230758344988985  0.6475988493868543
  0.8912980005379757  0.2017148678618761  0.3949511946801882
  0.7955880617618728  0.0888060340936702  0.1501320278514745
  0.5554230226534690  0.2013229426963530  0.8911024511329345
  0.4412768627299834  0.1007884153907446  0.6347265146150209
  0.2245156405545829  0.5375098417402727  0.3367801007511130
  0.1116920679034677  0.4273718490476219  0.1030386878741753
  0.8810263065122499  0.5304713074158910  0.8308480653915579
  0.7725500451531762  0.4357419784990815  0.5861945775491427
  0.5561550799512435  0.5384030618519197  0.3358097596774628
  0.4340194807530139  0.4504749995959296  0.0887203396828677
  0.2287150114196950  0.5481302059107064  0.8332040137408647
  0.1071339623813783  0.4360311913232660  0.5894025012106259
  0.8892158073020244  0.5364564969280966  0.3420825277033553
  0.7759048699231241  0.4319296247081451  0.0913531403345119
  0.5570274992829231  0.5370654206652421  0.8379540190170605
  0.4421444132522192  0.4331356608295583  0.5852190309060148
  0.2233573115309187  0.8739434822578798  0.3717338216776686
  0.1050480213321373  0.7527797670581567  0.0871998032775343
  0.8960995753198872  0.8801549698930277  0.8451435135013814
  0.7721580968008023  0.7526136115239085  0.5884702577324052
  0.5599999957385360  0.8636607435240389  0.3467598646836508
  0.4609847054177075  0.7542348695179374  0.0841856314273021
  0.2239277380801943  0.8693184954347219  0.8407247516333601
  0.1168681367661734  0.7418000322497993  0.5808475657422667
  0.8931498656442135  0.8630560190047554  0.3472469820444432
  0.7777351918608374  0.7608035195942343  0.1044672798079082
  0.5433159664198423  0.8742498446915942  0.8314354898684303
  0.4645708736062616  0.7467332493166619  0.5864085736188819
 
             NaN             NaN             NaN
             NaN             NaN             NaN
             NaN             NaN             NaN
             NaN             NaN             NaN
             NaN             NaN             NaN
             NaN             NaN             NaN
             NaN             NaN             NaN
             NaN             NaN             NaN
             NaN             NaN             NaN
             NaN             NaN             NaN
             NaN             NaN             NaN
             NaN             NaN             NaN
             NaN             NaN             NaN
             NaN             NaN             NaN
             NaN             NaN             NaN
             NaN             NaN             NaN
             NaN             NaN             NaN
             NaN             NaN             NaN
             NaN             NaN             NaN
             NaN             NaN             NaN
             NaN             NaN             NaN
             NaN             NaN             NaN
             NaN             NaN             NaN
             NaN             NaN             NaN
             NaN             NaN             NaN
             NaN             NaN             NaN
             NaN             NaN             NaN
             NaN             NaN             NaN
             NaN             NaN             NaN
             NaN             NaN             NaN
             NaN             NaN             NaN
             NaN             NaN             NaN
             NaN             NaN             NaN
             NaN             NaN             NaN
             NaN             NaN             NaN
             NaN             NaN             NaN
             NaN             NaN             NaN
             NaN             NaN             NaN
             NaN             NaN             NaN
             NaN             NaN             NaN
             NaN             NaN             NaN
             NaN             NaN             NaN
             NaN             NaN             NaN
             NaN             NaN             NaN
             NaN             NaN             NaN
             NaN             NaN             NaN
             NaN             NaN             NaN
             NaN             NaN             NaN
             NaN             NaN             NaN
             NaN             NaN             NaN
             NaN             NaN             NaN
             NaN             NaN             NaN
             NaN             NaN             NaN
             NaN             NaN             NaN
             NaN             NaN             NaN
             NaN             NaN             NaN
             NaN             NaN             NaN
             NaN             NaN             NaN
             NaN             NaN             NaN
             NaN             NaN             NaN
             NaN             NaN             NaN
             NaN             NaN             NaN
             NaN             NaN             NaN
             NaN             NaN             NaN
             NaN             NaN             NaN
             NaN             NaN             NaN
             NaN             NaN             NaN
             NaN             NaN             NaN
             NaN             NaN             NaN
             NaN             NaN             NaN
             NaN             NaN             NaN
             NaN             NaN             NaN
