Al   Hf   Mg   N                        
   1.00000000000000     
    -9.6165177090517524    0.0042097504344879   -0.0101302362649435
    -4.8247320344107765    8.3648159516813809   -0.0025741414666527
     0.0529242187964374   -0.0618918193210176  -10.2329445087180293
   Al   Hf   Mg   N 
    30     3     3    36
Direct
  0.1080574150544023  0.1006314923783038  0.3292487862317555
  0.2156474829135563  0.2019202676847079  0.0791592293666463
  0.7768438201942056  0.1057331763178076  0.8186220870480271
  0.8828661266834139  0.2176901820732423  0.5777214180117680
  0.4400416489598513  0.0932145027577274  0.3343585355836477
  0.1072401285758451  0.1036661075211193  0.8344038478431612
  0.2173626052555187  0.2158363638296423  0.5761686740312808
  0.7819379035834827  0.0971105990856669  0.3351020125275367
  0.8943839591928456  0.2056327244320249  0.0789725547662686
  0.4358647241692021  0.0973151461695495  0.8219233570910759
  0.5557133364148970  0.2061126683136438  0.5749481021132361
  0.1111888248461994  0.4227382723953317  0.3288307630460061
  0.2183408653888099  0.5423160341341065  0.1423950985334724
  0.7827165766149921  0.4227813484157176  0.8295195497899456
  0.8929181038238917  0.5342474358904939  0.5740912654504381
  0.4395614537807350  0.4354976325673914  0.3947048170989537
  0.5532816223495175  0.5409374231130650  0.1461154063639419
  0.2247726047849542  0.5366111845509500  0.6457665273490329
  0.7833286568870078  0.4224486698468239  0.3277078386224250
  0.8898775752866847  0.5301458460034761  0.0834995282074138
  0.4368796722825999  0.4430125302280826  0.8889920007903098
  0.5578865413024886  0.5347964545046215  0.6449940591847144
  0.1158059336056207  0.7534736925044827  0.3928332531019422
  0.4472518955537368  0.7538567706139510  0.3917556576050307
  0.5551044053160078  0.8662330098648442  0.0999674127637183
  0.1108855143461510  0.7644149208395757  0.8977688398496666
  0.7793658403362321  0.7538630264069064  0.3317695168259244
  0.9003024397814364  0.8625767820644752  0.1477908146248801
  0.4408792222024793  0.7591835887583791  0.9009151329924896
  0.5622749310165420  0.8731660877835001  0.5732906017299715
  0.5576744920511618  0.1974570411666418  0.0844001825768135
  0.7774114794367142  0.7598710747195042  0.8342052961447805
  0.2251635449552661  0.8697398072014211  0.6285376414060300
  0.1129354471201173  0.4217270717492844  0.8355465655256981
  0.2232661577643826  0.8664567607915201  0.1434094199149347
  0.8863131127052118  0.8777053990839392  0.6114980642059391
  0.2218914669549140  0.2057153939390090  0.3894532642387142
  0.1014686889831985  0.1095572584206633  0.1439958487671321
  0.8867647490571831  0.2078034554711265  0.8904818576461738
  0.7660367625263861  0.1206710745211718  0.6329936954370567
  0.5568644483163593  0.2019736079290177  0.3776970252357317
  0.4338244499298797  0.0846821987153358  0.1474224787133422
  0.2300649032221624  0.1912225302945010  0.8947590039397839
  0.0987087098699455  0.1195974539767806  0.6408566259503941
  0.8887915856614695  0.2080295574816182  0.3911801467570080
  0.7937234309722092  0.0906906522059060  0.1438009207776949
  0.5537691498246630  0.2051303691665408  0.8783612053672515
  0.4434604679863811  0.0953908853870858  0.6309909396768018
  0.2265768835216432  0.5384757134561736  0.3308913524573940
  0.1106415138342729  0.4208612888198154  0.1373862602234148
  0.8817498692062348  0.5287125643972354  0.9008246988749008
  0.7844169467151105  0.4285852851687488  0.6383479425445777
  0.5516802860187586  0.5383999884983260  0.3351345159181529
  0.4353228501998422  0.4443988441228986  0.0822615350051738
  0.2276991122418696  0.5532936926105377  0.8314438504240558
  0.1097604120306999  0.4289583662768361  0.6253840957557109
  0.8893758229330578  0.5355981550476856  0.3848658058957257
  0.7813817020320165  0.4210820638416259  0.1398837239564715
  0.5521598324831331  0.5425362459038625  0.8343240734970996
  0.4423527156760311  0.4331354811871007  0.5827616664934882
  0.2221412122291498  0.8747840769262699  0.3639784841123574
  0.1050932980640571  0.7510732677661918  0.0828422115006502
  0.8959550070663840  0.8862218811304453  0.8455933245498638
  0.7720337160778205  0.7507069176699086  0.6296269907798802
  0.5589090408649261  0.8726277571848207  0.3802704203021066
  0.4559706056107726  0.7474568967236500  0.0866915947385296
  0.2235821148885179  0.8719644049732823  0.8399475185989128
  0.1197238933030906  0.7412485418195544  0.5751127793945303
  0.8943916770719477  0.8678559922042430  0.3454880798527917
  0.7775158332605920  0.7554224952720193  0.1381688834444463
  0.5394646691465472  0.8856505080328022  0.8833645082987480
  0.4651625988879323  0.7453086521673896  0.5807236593354220
 
             NaN             NaN             NaN
             NaN             NaN             NaN
             NaN             NaN             NaN
             NaN             NaN             NaN
             NaN             NaN             NaN
             NaN             NaN             NaN
             NaN             NaN             NaN
             NaN             NaN             NaN
             NaN             NaN             NaN
             NaN             NaN             NaN
             NaN             NaN             NaN
             NaN             NaN             NaN
             NaN             NaN             NaN
             NaN             NaN             NaN
             NaN             NaN             NaN
             NaN             NaN             NaN
             NaN             NaN             NaN
             NaN             NaN             NaN
             NaN             NaN             NaN
             NaN             NaN             NaN
             NaN             NaN             NaN
             NaN             NaN             NaN
             NaN             NaN             NaN
             NaN             NaN             NaN
             NaN             NaN             NaN
             NaN             NaN             NaN
             NaN             NaN             NaN
             NaN             NaN             NaN
             NaN             NaN             NaN
             NaN             NaN             NaN
             NaN             NaN             NaN
             NaN             NaN             NaN
             NaN             NaN             NaN
             NaN             NaN             NaN
             NaN             NaN             NaN
             NaN             NaN             NaN
             NaN             NaN             NaN
             NaN             NaN             NaN
             NaN             NaN             NaN
             NaN             NaN             NaN
             NaN             NaN             NaN
             NaN             NaN             NaN
             NaN             NaN             NaN
             NaN             NaN             NaN
             NaN             NaN             NaN
             NaN             NaN             NaN
             NaN             NaN             NaN
             NaN             NaN             NaN
             NaN             NaN             NaN
             NaN             NaN             NaN
             NaN             NaN             NaN
             NaN             NaN             NaN
             NaN             NaN             NaN
             NaN             NaN             NaN
             NaN             NaN             NaN
             NaN             NaN             NaN
             NaN             NaN             NaN
             NaN             NaN             NaN
             NaN             NaN             NaN
             NaN             NaN             NaN
             NaN             NaN             NaN
             NaN             NaN             NaN
             NaN             NaN             NaN
             NaN             NaN             NaN
             NaN             NaN             NaN
             NaN             NaN             NaN
             NaN             NaN             NaN
             NaN             NaN             NaN
             NaN             NaN             NaN
             NaN             NaN             NaN
             NaN             NaN             NaN
             NaN             NaN             NaN
