Al   Hf   Mg   N                        
   1.00000000000000     
    -9.6247104172572211    0.0034580266445928   -0.0112930739138643
    -4.8245397070409330    8.3685966668361225   -0.0029742278418514
     0.0505283347571282   -0.0653481212180790  -10.2229907926050689
   Al   Hf   Mg   N 
    30     3     3    36
Direct
  0.1078916964630288  0.1003464349291386  0.3290033981565196
  0.2158277396721039  0.2018152837843669  0.0788809819823644
  0.7768000077449217  0.1057842221153817  0.8185313815973360
  0.8828458878259776  0.2176961669812505  0.5777195158669716
  0.4382343561740741  0.0966839131533785  0.3360131364241714
  0.1072797962348715  0.1034102568368259  0.8348182523880785
  0.2164611158819168  0.2165279170591829  0.5755852986665171
  0.7821129113801997  0.0971846980368351  0.3349549617728566
  0.8943456242683431  0.2056125815222673  0.0788821131743290
  0.4342741087219248  0.0993114499671429  0.8198862952804737
  0.5559937946357240  0.2068755225311219  0.5741663695014079
  0.1111959327399487  0.4225834606185593  0.3283321026422908
  0.2184317782058024  0.5421274439357049  0.1421361042914463
  0.7822744961461048  0.4228973513009631  0.8296971268504770
  0.8936286163551470  0.5335747499085446  0.5742257299530668
  0.4394376731348557  0.4359419044368921  0.3942648307088291
  0.5533286020625912  0.5411906633865400  0.1449838830376879
  0.2247467988913602  0.5365641041682481  0.6458203873235971
  0.7830549423827129  0.4223955271915467  0.3275101114230904
  0.8899183739011068  0.5301086070377942  0.0830941238218793
  0.4366086674458500  0.4434323615083897  0.8889175283993479
  0.5580362411184981  0.5345174091281090  0.6452224750114370
  0.1163932954032956  0.7535237521673429  0.3927796593613980
  0.4472470521132542  0.7536427449178604  0.3923719704459744
  0.5540049910760232  0.8619665315904871  0.1417185598999864
  0.1107399411906886  0.7645224455847972  0.8976814346457948
  0.7840587790471502  0.7515459136635806  0.3347062279489802
  0.9005842200743606  0.8624680690060816  0.1474252704048861
  0.4428170199467866  0.7618095296692649  0.9000974793514880
  0.5598606049338116  0.8723514835511154  0.5942826018012386
  0.5578540105214906  0.1967214485768378  0.0838163308493559
  0.7772648921424659  0.7601241544398837  0.8355412175668333
  0.2250242928420352  0.8696541334262057  0.6294731696746023
  0.1125644624894750  0.4218786834410522  0.8357251122237869
  0.2235430577888131  0.8664481366124148  0.1421086282347389
  0.8867793918054412  0.8779746812841631  0.6113859372782420
  0.2208666670039252  0.2061149862428987  0.3891747546419982
  0.1014548023278582  0.1094992104916536  0.1436938032473727
  0.8865915263045782  0.2078604949418177  0.8903760643750678
  0.7658710863605337  0.1208955880488278  0.6327418741664829
  0.5572322139496135  0.2022199832817248  0.3775434046071976
  0.4325933304167907  0.0867204476233234  0.1473390449882937
  0.2300124468628338  0.1912979476035796  0.8946672233597970
  0.0987657441505536  0.1193182701126773  0.6407302021585396
  0.8887634865402125  0.2080541487228549  0.3910238016364527
  0.7937622527958387  0.0904581509056602  0.1437998248188889
  0.5534367344607517  0.2049208420115460  0.8778070246545638
  0.4417471357028902  0.0991230666238348  0.6273024530165883
  0.2264843585237580  0.5383702497673996  0.3308926847543924
  0.1106116907188550  0.4208704980523669  0.1370977329535699
  0.8816699056784311  0.5280385618023198  0.9005837661564753
  0.7842843335169178  0.4286840711140460  0.6381576860061557
  0.5513889648153676  0.5385828144488136  0.3344960811985060
  0.4355212478074985  0.4443425492399044  0.0821551758976038
  0.2275177037947899  0.5531782352246198  0.8315317601231724
  0.1098952014065313  0.4288885528393314  0.6254376693116457
  0.8902687860663225  0.5342309248607297  0.3850363422412694
  0.7813002011437925  0.4211777244832969  0.1397228239249887
  0.5517845920792201  0.5426855775000594  0.8345525619883263
  0.4422692072460271  0.4337327244475200  0.5824727023860392
  0.2223422525217743  0.8746401010656311  0.3637495060117714
  0.1054887229665047  0.7509235891832242  0.0830319655834510
  0.8958399944685050  0.8868851868917553  0.8457279344104550
  0.7753773437967643  0.7494988374553462  0.6275453050876960
  0.5575382601800950  0.8694373026505580  0.3618217200288342
  0.4582729776598071  0.7496264885635909  0.0858080778575361
  0.2231131086257392  0.8717288607576817  0.8406815535622768
  0.1201672493187548  0.7412868336463717  0.5752209300420471
  0.8949070098201964  0.8681255074289790  0.3462030652337527
  0.7798521897490592  0.7543858488057491  0.1378042915307237
  0.5359830959667919  0.8825869831275253  0.8515008952402910
  0.4653354936953192  0.7453397170356780  0.5790534316166821
 
             NaN             NaN             NaN
             NaN             NaN             NaN
             NaN             NaN             NaN
             NaN             NaN             NaN
             NaN             NaN             NaN
             NaN             NaN             NaN
             NaN             NaN             NaN
             NaN             NaN             NaN
             NaN             NaN             NaN
             NaN             NaN             NaN
             NaN             NaN             NaN
             NaN             NaN             NaN
             NaN             NaN             NaN
             NaN             NaN             NaN
             NaN             NaN             NaN
             NaN             NaN             NaN
             NaN             NaN             NaN
             NaN             NaN             NaN
             NaN             NaN             NaN
             NaN             NaN             NaN
             NaN             NaN             NaN
             NaN             NaN             NaN
             NaN             NaN             NaN
             NaN             NaN             NaN
             NaN             NaN             NaN
             NaN             NaN             NaN
             NaN             NaN             NaN
             NaN             NaN             NaN
             NaN             NaN             NaN
             NaN             NaN             NaN
             NaN             NaN             NaN
             NaN             NaN             NaN
             NaN             NaN             NaN
             NaN             NaN             NaN
             NaN             NaN             NaN
             NaN             NaN             NaN
             NaN             NaN             NaN
             NaN             NaN             NaN
             NaN             NaN             NaN
             NaN             NaN             NaN
             NaN             NaN             NaN
             NaN             NaN             NaN
             NaN             NaN             NaN
             NaN             NaN             NaN
             NaN             NaN             NaN
             NaN             NaN             NaN
             NaN             NaN             NaN
             NaN             NaN             NaN
             NaN             NaN             NaN
             NaN             NaN             NaN
             NaN             NaN             NaN
             NaN             NaN             NaN
             NaN             NaN             NaN
             NaN             NaN             NaN
             NaN             NaN             NaN
             NaN             NaN             NaN
             NaN             NaN             NaN
             NaN             NaN             NaN
             NaN             NaN             NaN
             NaN             NaN             NaN
             NaN             NaN             NaN
             NaN             NaN             NaN
             NaN             NaN             NaN
             NaN             NaN             NaN
             NaN             NaN             NaN
             NaN             NaN             NaN
             NaN             NaN             NaN
             NaN             NaN             NaN
             NaN             NaN             NaN
             NaN             NaN             NaN
             NaN             NaN             NaN
             NaN             NaN             NaN
