Al   Hf   Mg   N                        
   1.00000000000000     
    -9.6392585250403382    0.0039946960268388   -0.0104856545900140
    -4.8223025987339483    8.3203936255640567   -0.0025308047717377
    -0.0102583757833447    0.0091555036322997  -10.3185227069470926
   Al   Hf   Mg   N 
    30     3     3    36
Direct
  0.1078338924124405  0.1002492641981237  0.3348405954899694
  0.2179481016345632  0.2007813974110518  0.0854482498203663
  0.7766559846600143  0.1055195974686124  0.8245231691826735
  0.8809198034928766  0.2165452414659753  0.5814399355812077
  0.4404819378501888  0.0926645696824197  0.3410483391432083
  0.1067623856610324  0.1044893596936891  0.8380333711705050
  0.2168020138200126  0.2167607750971303  0.5807571020361799
  0.7831751294753306  0.0932992744332965  0.3410625226132687
  0.8949093046489679  0.2065333685193589  0.0845638958091204
  0.4334129066172895  0.1029436273886387  0.8253032907632276
  0.5569899935369043  0.2028764919934772  0.5792602617970518
  0.1168330896447618  0.4215441758520950  0.3402274400857714
  0.2205550799199487  0.5436496786961909  0.1488936350754957
  0.7770391983147907  0.4209968689517700  0.8307795667051927
  0.8901614685989755  0.5392887835843811  0.6469279340844925
  0.4399730321117496  0.4354214814642667  0.4002066769910259
  0.5523492294187060  0.5449136342832652  0.1490778178288793
  0.2258405770213124  0.5355687085145998  0.6512346453731815
  0.7789604434394490  0.4210121774522054  0.3348690386707370
  0.8910613732500708  0.5367933926346954  0.1544227088289153
  0.4374182812645949  0.4427480576698756  0.8965569541059497
  0.5535934568752626  0.5343807784969552  0.6487971210356841
  0.1135619544196126  0.7541048887847831  0.4007986588300529
  0.4494888137966471  0.7557339779064135  0.4013896943521649
  0.5573250563772595  0.8588886919996552  0.1614738735727213
  0.1127346359260405  0.7638409168735358  0.9028211021938151
  0.7801273497562429  0.7537755053787774  0.4066138295345195
  0.9011326592927151  0.8598564238454424  0.1603057006038829
  0.4415719907115712  0.7620118645309041  0.9013647610273355
  0.5598653023955643  0.8659706033570236  0.6442550168664203
  0.5592579504519382  0.1978420449748634  0.0934135894829576
  0.7745926481897291  0.7675985003863910  0.9015182469282049
  0.2213729420414710  0.8721760703782833  0.6314170133574061
  0.1194335661253224  0.4213892502435670  0.8517709952137470
  0.2255441550598772  0.8667452573783160  0.1474177866025861
  0.8871216813976759  0.8703899440985154  0.6384162725809012
  0.2234294087799538  0.2028480764036027  0.3956344738705075
  0.1010561041459471  0.1113032303532685  0.1512588898840805
  0.8869329574223843  0.2072960386658142  0.8969092070297288
  0.7655974599856504  0.1186133061124930  0.6407805304563576
  0.5583170612872400  0.1993484952448094  0.3840946491188832
  0.4335358278374512  0.0879117145285082  0.1522174799094671
  0.2323449415422309  0.1866888700453444  0.9023581877706822
  0.0956046060457729  0.1230313395315948  0.6467621743701176
  0.8885003808856954  0.2053542290365630  0.3967004586173826
  0.7954166042622929  0.0898721977458154  0.1513526159445583
  0.5559668742748138  0.2005147996159640  0.8883595801425257
  0.4396608157768526  0.1011936209012902  0.6362546700741704
  0.2281657288307086  0.5389981256806623  0.3363690785883164
  0.1172044275008296  0.4205259544572946  0.1386343448040138
  0.8802801292506515  0.5379696150709161  0.8418194673801820
  0.7767295130788815  0.4266220451759057  0.6384930542501794
  0.5491859281027479  0.5403951201860203  0.3387120806596918
  0.4359729051949081  0.4472521056766129  0.0872298722441483
  0.2306275922620495  0.5521406225837120  0.8362330900725390
  0.1119565205330155  0.4298489408637833  0.6256634363500736
  0.8892148947175793  0.5381083604293143  0.3453562157612599
  0.7785939709278298  0.4225612356684623  0.1417062906231677
  0.5496478411907393  0.5422834119981451  0.8382300871527437
  0.4416076598042839  0.4323101422369787  0.5863051659774314
  0.2224747604043096  0.8739122299806477  0.3718013385691396
  0.1044845368582638  0.7534237682124421  0.0875908926117042
  0.8969700071962391  0.8812711203396275  0.8459052321862829
  0.7708639970656502  0.7535590529347379  0.5894995180294846
  0.5604701834062434  0.8619749822177507  0.3473819027443583
  0.4611235404595145  0.7540124120715413  0.0848530481435155
  0.2227233578282975  0.8721881889273455  0.8429655905882607
  0.1169144650350808  0.7427083248577634  0.5817183607715670
  0.8934407822090694  0.8623209506113099  0.3484412494464532
  0.7770044297161119  0.7632188732759079  0.1063518970754839
  0.5416852387206376  0.8745777971497070  0.8320249790309585
  0.4632360680540694  0.7484858147156708  0.5862417090635528
 
             NaN             NaN             NaN
             NaN             NaN             NaN
             NaN             NaN             NaN
             NaN             NaN             NaN
             NaN             NaN             NaN
             NaN             NaN             NaN
             NaN             NaN             NaN
             NaN             NaN             NaN
             NaN             NaN             NaN
             NaN             NaN             NaN
             NaN             NaN             NaN
             NaN             NaN             NaN
             NaN             NaN             NaN
             NaN             NaN             NaN
             NaN             NaN             NaN
             NaN             NaN             NaN
             NaN             NaN             NaN
             NaN             NaN             NaN
             NaN             NaN             NaN
             NaN             NaN             NaN
             NaN             NaN             NaN
             NaN             NaN             NaN
             NaN             NaN             NaN
             NaN             NaN             NaN
             NaN             NaN             NaN
             NaN             NaN             NaN
             NaN             NaN             NaN
             NaN             NaN             NaN
             NaN             NaN             NaN
             NaN             NaN             NaN
             NaN             NaN             NaN
             NaN             NaN             NaN
             NaN             NaN             NaN
             NaN             NaN             NaN
             NaN             NaN             NaN
             NaN             NaN             NaN
             NaN             NaN             NaN
             NaN             NaN             NaN
             NaN             NaN             NaN
             NaN             NaN             NaN
             NaN             NaN             NaN
             NaN             NaN             NaN
             NaN             NaN             NaN
             NaN             NaN             NaN
             NaN             NaN             NaN
             NaN             NaN             NaN
             NaN             NaN             NaN
             NaN             NaN             NaN
             NaN             NaN             NaN
             NaN             NaN             NaN
             NaN             NaN             NaN
             NaN             NaN             NaN
             NaN             NaN             NaN
             NaN             NaN             NaN
             NaN             NaN             NaN
             NaN             NaN             NaN
             NaN             NaN             NaN
             NaN             NaN             NaN
             NaN             NaN             NaN
             NaN             NaN             NaN
             NaN             NaN             NaN
             NaN             NaN             NaN
             NaN             NaN             NaN
             NaN             NaN             NaN
             NaN             NaN             NaN
             NaN             NaN             NaN
             NaN             NaN             NaN
             NaN             NaN             NaN
             NaN             NaN             NaN
             NaN             NaN             NaN
             NaN             NaN             NaN
             NaN             NaN             NaN
