Al   Hf   Mg   N                        
   1.00000000000000     
    -9.6101493473084805    0.0007017060816443   -0.0155568119599076
    -4.8106468320505433    8.3113150640275233   -0.0044412112175802
     0.0240529915292382   -0.0303680781617299  -10.3376037560305640
   Al   Hf   Mg   N 
    30     3     3    36
Direct
  0.1076467370621330  0.1004710641448426  0.3295215882619486
  0.2167371803669645  0.2015944954528045  0.0790724358038440
  0.7774150733041245  0.1067061880069772  0.8184691090606278
  0.8819858589455142  0.2175084178751590  0.5770648180956127
  0.4383322048441458  0.0951245431530641  0.3341254769005548
  0.1076066891852900  0.1028528825647207  0.8328706550542053
  0.2175099532163346  0.2164307484366927  0.5746318106951745
  0.7829305117393437  0.0954257770141069  0.3349305312829336
  0.8954287763496835  0.2047675515144501  0.0795024092119165
  0.4317321934734664  0.1042960553190788  0.8191577193320939
  0.5572826928046292  0.2034614977591077  0.5729995090728979
  0.1092018992772836  0.4239394783164264  0.3272272510470017
  0.2188118640682734  0.5433078103517249  0.1429182466225528
  0.7823127636144971  0.4232790040704701  0.8274422375098455
  0.8943200584014795  0.5313954656461506  0.5751201823393247
  0.4396800114455778  0.4356485989865115  0.3940214436618049
  0.5525750631752272  0.5442470521212234  0.1444465945383464
  0.2260879849030056  0.5353812009003464  0.6454427440358078
  0.7828536123260909  0.4241188095636708  0.3267251070813245
  0.8923476476870537  0.5266034549916984  0.0828336718730713
  0.4377104093643445  0.4418312491736704  0.8902831350490938
  0.5570922261657195  0.5335724359942866  0.6446560145537304
  0.1137981522660184  0.7533416086060662  0.3939176631569601
  0.4497709235758807  0.7553071404849868  0.3948739126495349
  0.5575194750742267  0.8593305363728486  0.1540688529573670
  0.1139895244748265  0.7624024102066521  0.8969560665332571
  0.7754054373050774  0.7629932941070678  0.4001221141084515
  0.9001062761016219  0.8597448290264019  0.1533811214571551
  0.4423771005302954  0.7602159238692945  0.8960545219745736
  0.5586268329556215  0.8672731969648575  0.6384715316596598
  0.5595498417740637  0.1967374301500747  0.0862843090810532
  0.7727884113536335  0.7721394916070231  0.8905324154598957
  0.2229855246401264  0.8701073714757926  0.6258718025641332
  0.1118622769289391  0.4221694218068243  0.8324911433131861
  0.2259041643200133  0.8657058173323007  0.1421145500532760
  0.8886303791262454  0.8718706070894788  0.6330410059435730
  0.2215969276085886  0.2056482703830615  0.3897246872023455
  0.1017922008505777  0.1101670809120982  0.1457139835345339
  0.8875423370718172  0.2070292529266581  0.8918409782625735
  0.7657547852069014  0.1208468913212024  0.6353213096567336
  0.5583227592135177  0.1993419781636984  0.3787750734241398
  0.4315668602632302  0.0895933719453150  0.1462314086285722
  0.2306777223389475  0.1893547674657553  0.8962737497923666
  0.0976464734322274  0.1209035549001928  0.6410451053141430
  0.8878734455851320  0.2078032620000366  0.3919827699150593
  0.7953182855246742  0.0905766582236981  0.1461518157279746
  0.5569308682115585  0.1991023483640124  0.8819896585525985
  0.4393686203351160  0.1023074601199845  0.6305917671589153
  0.2269488337106464  0.5380278675728298  0.3296404159681033
  0.1098123128929467  0.4225854300387543  0.1371910487429725
  0.8826610076357347  0.5273605665384714  0.8980391763072997
  0.7837778153273479  0.4292016038410041  0.6394458976500725
  0.5502256111775049  0.5399037855856286  0.3325337451635154
  0.4355230443265084  0.4462591793874452  0.0810509404261172
  0.2302457099442910  0.5505795219689377  0.8300148257603965
  0.1094391280301214  0.4291408582353994  0.6268074199943444
  0.8914917134824822  0.5318341324634381  0.3847808708084557
  0.7812472719994813  0.4225801376908094  0.1399149890371024
  0.5520220417707402  0.5404318104807528  0.8325392693179999
  0.4426862670869550  0.4329994929371507  0.5802629256100642
  0.2224117825678266  0.8737899404259538  0.3656752733519665
  0.1042369151074451  0.7526309190586804  0.0811854951429182
  0.8995201130637634  0.8821512671983556  0.8384500079010536
  0.7693718193895444  0.7586896366468475  0.5862121290186419
  0.5590284025432615  0.8635473143137440  0.3399474597118354
  0.4615397506154804  0.7526112138114723  0.0789923601725061
  0.2239558151869626  0.8705924660483917  0.8369248219848505
  0.1174064101070579  0.7412736924511972  0.5743726347296981
  0.8930936702675676  0.8634854835150647  0.3412333799037827
  0.7736681144583610  0.7691956300437995  0.0960912658752879
  0.5389234125057358  0.8751411051738388  0.8251620127539512
  0.4652274197702417  0.7468797134979451  0.5793782217300963
 
             NaN             NaN             NaN
             NaN             NaN             NaN
             NaN             NaN             NaN
             NaN             NaN             NaN
             NaN             NaN             NaN
             NaN             NaN             NaN
             NaN             NaN             NaN
             NaN             NaN             NaN
             NaN             NaN             NaN
             NaN             NaN             NaN
             NaN             NaN             NaN
             NaN             NaN             NaN
             NaN             NaN             NaN
             NaN             NaN             NaN
             NaN             NaN             NaN
             NaN             NaN             NaN
             NaN             NaN             NaN
             NaN             NaN             NaN
             NaN             NaN             NaN
             NaN             NaN             NaN
             NaN             NaN             NaN
             NaN             NaN             NaN
             NaN             NaN             NaN
             NaN             NaN             NaN
             NaN             NaN             NaN
             NaN             NaN             NaN
             NaN             NaN             NaN
             NaN             NaN             NaN
             NaN             NaN             NaN
             NaN             NaN             NaN
             NaN             NaN             NaN
             NaN             NaN             NaN
             NaN             NaN             NaN
             NaN             NaN             NaN
             NaN             NaN             NaN
             NaN             NaN             NaN
             NaN             NaN             NaN
             NaN             NaN             NaN
             NaN             NaN             NaN
             NaN             NaN             NaN
             NaN             NaN             NaN
             NaN             NaN             NaN
             NaN             NaN             NaN
             NaN             NaN             NaN
             NaN             NaN             NaN
             NaN             NaN             NaN
             NaN             NaN             NaN
             NaN             NaN             NaN
             NaN             NaN             NaN
             NaN             NaN             NaN
             NaN             NaN             NaN
             NaN             NaN             NaN
             NaN             NaN             NaN
             NaN             NaN             NaN
             NaN             NaN             NaN
             NaN             NaN             NaN
             NaN             NaN             NaN
             NaN             NaN             NaN
             NaN             NaN             NaN
             NaN             NaN             NaN
             NaN             NaN             NaN
             NaN             NaN             NaN
             NaN             NaN             NaN
             NaN             NaN             NaN
             NaN             NaN             NaN
             NaN             NaN             NaN
             NaN             NaN             NaN
             NaN             NaN             NaN
             NaN             NaN             NaN
             NaN             NaN             NaN
             NaN             NaN             NaN
             NaN             NaN             NaN
