Al   Hf   Mg   N                        
   1.00000000000000     
    -9.6332871527664956    0.0056125815208746   -0.0079920565824882
    -4.8187652735379887    8.3270855767005809   -0.0016066076433212
    -0.0123448414721582    0.0059711414161216  -10.2945999410468065
   Al   Hf   Mg   N 
    30     3     3    36
Direct
  0.1078609080732092  0.1003355297297975  0.3342320315457077
  0.2186094042419847  0.1995069303170440  0.0862496635682528
  0.7765531094885796  0.1056820513167820  0.8246386001907888
  0.8807702359541477  0.2167982004019018  0.5812796318852522
  0.4401043584795843  0.0928606713338536  0.3402490888476876
  0.1069549591826902  0.1041767336257956  0.8379750467403777
  0.2185556522716752  0.2130198610671622  0.5809181404524340
  0.7832115875206328  0.0934865010309316  0.3408999264047857
  0.8948407302496175  0.2067576447015129  0.0844777879311943
  0.4335383115648118  0.1029622121586171  0.8254257660478772
  0.5569570219423970  0.2031593423010280  0.5790447219433125
  0.1130690344393554  0.4281677509296684  0.3746960072952890
  0.2185629433360952  0.5418123584450213  0.1497262908763819
  0.7781263270083736  0.4209777562023023  0.8302139870730038
  0.8916145381878626  0.5387211286092712  0.6458645547278448
  0.4399739761195176  0.4355375780320602  0.3997848749540784
  0.5525321256845380  0.5448265918959918  0.1484027255982023
  0.2242492431318873  0.5344547766553320  0.6503677917302505
  0.7789515918376714  0.4211209682930930  0.3342484734456854
  0.8956555663595209  0.5344742527194695  0.1554610129033923
  0.4372277156447000  0.4425204937464977  0.8960444625054171
  0.5536657957484760  0.5342702670274644  0.6485994711264025
  0.1133601983430836  0.7547617376493633  0.4005373483786046
  0.4495755473825408  0.7556891383731279  0.4010592167615171
  0.5580039693611467  0.8584103014170251  0.1609724889016421
  0.1127551947509181  0.7634086746491919  0.9024998276027397
  0.7791287640079323  0.7549298605950093  0.4062511357636929
  0.9010771235613793  0.8598401767278475  0.1596615727339116
  0.4414908061320966  0.7621275843277495  0.9012799829929671
  0.5599730681218429  0.8657466241020597  0.6441263994672265
  0.5588667020170207  0.1984517097864907  0.0937724380594849
  0.7752811756206549  0.7665808365004548  0.9007398332404534
  0.2213522400945857  0.8721231880896907  0.6306514277005648
  0.1174542115074531  0.4263210234105060  0.8833792748650344
  0.2255852011881671  0.8661898217990129  0.1470889746517340
  0.8868701139829656  0.8708142367518062  0.6379381689977277
  0.2244023711604723  0.2002333045097663  0.3949671165503224
  0.1011300736883169  0.1104644284060158  0.1508188089867251
  0.8870298188837111  0.2075013673432216  0.8965392604099541
  0.7656616908051416  0.1186169467838827  0.6404432055385439
  0.5580303632695754  0.1996975096659453  0.3835168549546993
  0.4341441578678706  0.0872009973875573  0.1516861527417457
  0.2332414817585391  0.1847523001619804  0.9012172036897693
  0.0954903662516474  0.1233050469234412  0.6470404049753068
  0.8885364897388182  0.2056782730934551  0.3963803214905612
  0.7954429633823988  0.0898507054275887  0.1510135681511092
  0.5558874925614941  0.2007879878241124  0.8881762036700673
  0.4397504261026207  0.1013267938827514  0.6363283775497405
  0.2268906880347808  0.5384874822943014  0.3366420158477804
  0.1158818097452965  0.4232029392656102  0.1196976419222825
  0.8843028474480221  0.5365279846432819  0.8378349571011848
  0.7768560200800796  0.4267660437236629  0.6378771252184704
  0.5490872571587834  0.5405065570707038  0.3385924625513932
  0.4352984381287594  0.4476909804271245  0.0873237134138645
  0.2293346254738245  0.5500970932951429  0.8345183880388959
  0.1094280818954051  0.4343408047960193  0.5980036107529638
  0.8893968894972557  0.5386004852951692  0.3448414180319521
  0.7791162016903926  0.4228403030328687  0.1414231582700416
  0.5500364802402359  0.5422005285939189  0.8384370523122839
  0.4412234413933416  0.4322681387293577  0.5864684250418456
  0.2223594124513227  0.8739415449258487  0.3721649526840232
  0.1049401003429685  0.7527407096873202  0.0877248057242558
  0.8965779986666599  0.8814846649923916  0.8460269469270137
  0.7708155689275057  0.7536792993293705  0.5894972206776893
  0.5602457930216506  0.8622126686421002  0.3473381261772417
  0.4610757434273126  0.7540090692430655  0.0848518012823106
  0.2227638197821528  0.8714253237959031  0.8426047281875837
  0.1168817203509412  0.7426534584822536  0.5820414446077448
  0.8931942284793538  0.8627498585914161  0.3485404697929316
  0.7774732525482443  0.7625293934726515  0.1059756705846312
  0.5421160084568668  0.8743058115893489  0.8319957932505591
  0.4633445986968585  0.7482477117264806  0.5862597452120238
 
             NaN             NaN             NaN
             NaN             NaN             NaN
             NaN             NaN             NaN
             NaN             NaN             NaN
             NaN             NaN             NaN
             NaN             NaN             NaN
             NaN             NaN             NaN
             NaN             NaN             NaN
             NaN             NaN             NaN
             NaN             NaN             NaN
             NaN             NaN             NaN
             NaN             NaN             NaN
             NaN             NaN             NaN
             NaN             NaN             NaN
             NaN             NaN             NaN
             NaN             NaN             NaN
             NaN             NaN             NaN
             NaN             NaN             NaN
             NaN             NaN             NaN
             NaN             NaN             NaN
             NaN             NaN             NaN
             NaN             NaN             NaN
             NaN             NaN             NaN
             NaN             NaN             NaN
             NaN             NaN             NaN
             NaN             NaN             NaN
             NaN             NaN             NaN
             NaN             NaN             NaN
             NaN             NaN             NaN
             NaN             NaN             NaN
             NaN             NaN             NaN
             NaN             NaN             NaN
             NaN             NaN             NaN
             NaN             NaN             NaN
             NaN             NaN             NaN
             NaN             NaN             NaN
             NaN             NaN             NaN
             NaN             NaN             NaN
             NaN             NaN             NaN
             NaN             NaN             NaN
             NaN             NaN             NaN
             NaN             NaN             NaN
             NaN             NaN             NaN
             NaN             NaN             NaN
             NaN             NaN             NaN
             NaN             NaN             NaN
             NaN             NaN             NaN
             NaN             NaN             NaN
             NaN             NaN             NaN
             NaN             NaN             NaN
             NaN             NaN             NaN
             NaN             NaN             NaN
             NaN             NaN             NaN
             NaN             NaN             NaN
             NaN             NaN             NaN
             NaN             NaN             NaN
             NaN             NaN             NaN
             NaN             NaN             NaN
             NaN             NaN             NaN
             NaN             NaN             NaN
             NaN             NaN             NaN
             NaN             NaN             NaN
             NaN             NaN             NaN
             NaN             NaN             NaN
             NaN             NaN             NaN
             NaN             NaN             NaN
             NaN             NaN             NaN
             NaN             NaN             NaN
             NaN             NaN             NaN
             NaN             NaN             NaN
             NaN             NaN             NaN
             NaN             NaN             NaN
