Al   Sc   N                             
   1.00000000000000     
   -10.0579566052291547    0.0002268011752944    0.0030085464454210
    -5.0306042917285883    8.6402242615021674   -0.0001348398131007
     0.0177534430034831    0.0023560343952767   -9.6335622680748756
   Al   Sc   N 
    26    10    36
Direct
  0.1244577368412294  0.0884801853966906  0.3287278955755539
  0.2150458878434094  0.2049629896060807  0.0793874484217696
  0.7893149901551268  0.0970568068298192  0.8196916678147801
  0.9037671395963969  0.2051200534122728  0.5726567200621417
  0.4330949758038543  0.1028581343775627  0.3195169874547332
  0.5596196688770405  0.2087293011029274  0.0732890194272642
  0.1083968973395315  0.0942893675841816  0.8232935847700276
  0.2188116189210874  0.2003819981795161  0.5749665331379674
  0.1087974255469604  0.4191906295572920  0.3268148330472371
  0.7851296499522675  0.4188669294315517  0.8272779096335015
  0.8946108044978658  0.5252379676512220  0.5773197141044619
  0.4459740307237041  0.4279238458440062  0.3207095511468410
  0.5574875841605333  0.5433451655563744  0.0740736214935467
  0.1043731702997022  0.4211114581357478  0.8267639195860355
  0.7776660490007856  0.4315590715161832  0.3250678993177729
  0.8838245993271769  0.5348311826834049  0.0754006457910492
  0.4457135056309269  0.4323254902608369  0.8345448362493499
  0.1238006582896531  0.7612937234324804  0.3261840187296769
  0.2326312492869533  0.8718057251446822  0.0741332250745259
  0.8993702808040993  0.8713131889948826  0.5767100580272029
  0.4380129301868791  0.7621465576082187  0.3244451676456706
  0.5514973081211849  0.8653348802139078  0.0834698398759031
  0.1125009930225289  0.7690924159410315  0.8265544601273760
  0.2204706460908383  0.8793584376530603  0.5777588024719265
  0.4373100814325994  0.7648410674007593  0.8272592971220050
  0.5375486365321933  0.8820849173683953  0.5712513103413883
  0.7737775325364353  0.1020144671761329  0.3502819607695855
  0.8958878609484202  0.2063547279705062  0.0926320582851972
  0.4351744597969116  0.0957173616379663  0.8511452783982989
  0.5499168345981147  0.2025982976413374  0.5961335370929817
  0.2215760453745759  0.5349408178567643  0.0902987401782127
  0.2141379484941481  0.5413062982598049  0.5877082132726272
  0.5591644557802411  0.5430193799546004  0.5906890958222633
  0.7761285407285143  0.7595723178196891  0.8339262348365182
  0.7750480273044644  0.7565645531897687  0.3466244189538799
  0.8910008033450367  0.8739331414494131  0.0901519884065110
  0.2230296732252341  0.2045438432299065  0.3758539625754409
  0.1376790356617690  0.0782918341301340  0.1335408813834746
  0.8933181236627661  0.2023090314868909  0.8695342388483027
  0.7973751633472901  0.0908295690647520  0.6103625736009874
  0.5296334441858974  0.2169941970320224  0.3736551449093426
  0.4414117112848217  0.1006922403056834  0.1128960546854643
  0.1974799000348284  0.2128315210009006  0.8835599554177733
  0.1133191808409535  0.0934405627217600  0.6241309161153481
  0.9052822483924174  0.2138510333984982  0.3679687412021764
  0.7614416403596920  0.1060959626585216  0.1315197861587976
  0.5706994736115476  0.2104862553486910  0.8671317821317217
  0.4276769543463672  0.0880325819985686  0.6302701146267964
  0.2232065271565205  0.5362319462010987  0.3550281234235939
  0.0954240823763897  0.4173573152112979  0.1302172762190210
  0.8942794921957429  0.5212989192359387  0.8773151327122477
  0.7974793822747088  0.4144015220604729  0.6299556504216497
  0.5559177961457422  0.5383969565021118  0.3686588719371287
  0.4627439973029510  0.4224290975530707  0.1183565874463000
  0.2158151704753735  0.5395197020037159  0.8618676386786106
  0.1036736439376114  0.4130763512232605  0.6290044811272537
  0.8989018465059786  0.5181495711455284  0.3815981098079462
  0.7655389395437595  0.4468678662575201  0.1278843415186941
  0.5576164445759915  0.5412037601245174  0.8691338480001107
  0.4409447327228193  0.4331415111679178  0.6386949255644510
  0.2260452198443090  0.8707373775101459  0.3807915912829358
  0.1274204018841516  0.7709555962869672  0.1291915560860417
  0.8969457357027437  0.8830046611778499  0.8659566901307301
  0.7738564666916190  0.7628509276382403  0.6032245389310162
  0.5289636355591654  0.8868226433486939  0.3707926443639806
  0.4439657013167491  0.7580762963851271  0.1269989892989614
  0.2224883873443417  0.8741959320328192  0.8758824784021613
  0.1075805095253060  0.7803419114738048  0.6286916730032885
  0.9127623651620453  0.8591709153100453  0.3727627387132770
  0.7699997458915746  0.7521508377005546  0.1156422645308268
  0.5448811694649507  0.8600537459929782  0.8871305421955071
  0.4315093758120128  0.7818887089531330  0.6303735873983030
 
  0.00000000E+00  0.00000000E+00  0.00000000E+00
  0.00000000E+00  0.00000000E+00  0.00000000E+00
  0.00000000E+00  0.00000000E+00  0.00000000E+00
  0.00000000E+00  0.00000000E+00  0.00000000E+00
  0.00000000E+00  0.00000000E+00  0.00000000E+00
  0.00000000E+00  0.00000000E+00  0.00000000E+00
  0.00000000E+00  0.00000000E+00  0.00000000E+00
  0.00000000E+00  0.00000000E+00  0.00000000E+00
  0.00000000E+00  0.00000000E+00  0.00000000E+00
  0.00000000E+00  0.00000000E+00  0.00000000E+00
  0.00000000E+00  0.00000000E+00  0.00000000E+00
  0.00000000E+00  0.00000000E+00  0.00000000E+00
  0.00000000E+00  0.00000000E+00  0.00000000E+00
  0.00000000E+00  0.00000000E+00  0.00000000E+00
  0.00000000E+00  0.00000000E+00  0.00000000E+00
  0.00000000E+00  0.00000000E+00  0.00000000E+00
  0.00000000E+00  0.00000000E+00  0.00000000E+00
  0.00000000E+00  0.00000000E+00  0.00000000E+00
  0.00000000E+00  0.00000000E+00  0.00000000E+00
  0.00000000E+00  0.00000000E+00  0.00000000E+00
  0.00000000E+00  0.00000000E+00  0.00000000E+00
  0.00000000E+00  0.00000000E+00  0.00000000E+00
  0.00000000E+00  0.00000000E+00  0.00000000E+00
  0.00000000E+00  0.00000000E+00  0.00000000E+00
  0.00000000E+00  0.00000000E+00  0.00000000E+00
  0.00000000E+00  0.00000000E+00  0.00000000E+00
  0.00000000E+00  0.00000000E+00  0.00000000E+00
  0.00000000E+00  0.00000000E+00  0.00000000E+00
  0.00000000E+00  0.00000000E+00  0.00000000E+00
  0.00000000E+00  0.00000000E+00  0.00000000E+00
  0.00000000E+00  0.00000000E+00  0.00000000E+00
  0.00000000E+00  0.00000000E+00  0.00000000E+00
  0.00000000E+00  0.00000000E+00  0.00000000E+00
  0.00000000E+00  0.00000000E+00  0.00000000E+00
  0.00000000E+00  0.00000000E+00  0.00000000E+00
  0.00000000E+00  0.00000000E+00  0.00000000E+00
  0.00000000E+00  0.00000000E+00  0.00000000E+00
  0.00000000E+00  0.00000000E+00  0.00000000E+00
  0.00000000E+00  0.00000000E+00  0.00000000E+00
  0.00000000E+00  0.00000000E+00  0.00000000E+00
  0.00000000E+00  0.00000000E+00  0.00000000E+00
  0.00000000E+00  0.00000000E+00  0.00000000E+00
  0.00000000E+00  0.00000000E+00  0.00000000E+00
  0.00000000E+00  0.00000000E+00  0.00000000E+00
  0.00000000E+00  0.00000000E+00  0.00000000E+00
  0.00000000E+00  0.00000000E+00  0.00000000E+00
  0.00000000E+00  0.00000000E+00  0.00000000E+00
  0.00000000E+00  0.00000000E+00  0.00000000E+00
  0.00000000E+00  0.00000000E+00  0.00000000E+00
  0.00000000E+00  0.00000000E+00  0.00000000E+00
  0.00000000E+00  0.00000000E+00  0.00000000E+00
  0.00000000E+00  0.00000000E+00  0.00000000E+00
  0.00000000E+00  0.00000000E+00  0.00000000E+00
  0.00000000E+00  0.00000000E+00  0.00000000E+00
  0.00000000E+00  0.00000000E+00  0.00000000E+00
  0.00000000E+00  0.00000000E+00  0.00000000E+00
  0.00000000E+00  0.00000000E+00  0.00000000E+00
  0.00000000E+00  0.00000000E+00  0.00000000E+00
  0.00000000E+00  0.00000000E+00  0.00000000E+00
  0.00000000E+00  0.00000000E+00  0.00000000E+00
  0.00000000E+00  0.00000000E+00  0.00000000E+00
  0.00000000E+00  0.00000000E+00  0.00000000E+00
  0.00000000E+00  0.00000000E+00  0.00000000E+00
  0.00000000E+00  0.00000000E+00  0.00000000E+00
  0.00000000E+00  0.00000000E+00  0.00000000E+00
  0.00000000E+00  0.00000000E+00  0.00000000E+00
  0.00000000E+00  0.00000000E+00  0.00000000E+00
  0.00000000E+00  0.00000000E+00  0.00000000E+00
  0.00000000E+00  0.00000000E+00  0.00000000E+00
  0.00000000E+00  0.00000000E+00  0.00000000E+00
  0.00000000E+00  0.00000000E+00  0.00000000E+00
  0.00000000E+00  0.00000000E+00  0.00000000E+00
