Al   Sc   N                             
   1.00000000000000     
   -10.1076833412892668    0.0002224393543861    0.0025909008458411
    -5.0578687694891320    8.6839653844681024   -0.0003714553193851
     0.0189869688300675    0.0018382631461734   -9.4903996874814247
   Al   Sc   N 
    26    10    36
Direct
  0.1241978737547527  0.0883825490855727  0.3301661437235879
  0.2149977345615923  0.2049851910984088  0.0812444735315552
  0.7888040668049001  0.0973510271369520  0.8226227140659148
  0.9035235168298499  0.2049524005450039  0.5748665709877798
  0.4331450329290973  0.1028339862565417  0.3212481739169988
  0.5591374911428346  0.2085873439554504  0.0760835603250456
  0.1087960399480608  0.0942134004101902  0.8245773549953768
  0.2187882415667133  0.2003778532078258  0.5758214256323200
  0.1085788934857064  0.4194205875405217  0.3286240768640667
  0.7848916650899085  0.4190120993615167  0.8287539958812644
  0.8944361293102716  0.5251849223810865  0.5794537289366986
  0.4457251701061793  0.4282423888567450  0.3223893756337475
  0.5574396857520654  0.5434321303449465  0.0760823432762052
  0.1044712031414292  0.4206436198497556  0.8280362434116668
  0.7777420313347960  0.4314970979909987  0.3267644836883292
  0.8840884800310249  0.5346092461437735  0.0764236650916246
  0.4462543160088330  0.4319217745839055  0.8367826907619929
  0.1237243103255423  0.7613262635465361  0.3279508030569218
  0.2325646127427987  0.8718623677048356  0.0751341779503747
  0.8990550840791087  0.8717076165542608  0.5803355057459854
  0.4377331123588775  0.7622093041100086  0.3259813370836042
  0.5511240201147629  0.8655377326722942  0.0859562065270723
  0.1127192326107149  0.7692755470391006  0.8282736369290546
  0.2206144974463982  0.8793190540190707  0.5791860144101904
  0.4374528344152182  0.7649459490493413  0.8285879444890369
  0.5378216916263767  0.8819775020544185  0.5722735614116914
  0.7742682945078272  0.1017042947427598  0.3515829601402771
  0.8961249636112143  0.2065216912644416  0.0946002685614999
  0.4351973243294438  0.0956170546875157  0.8526309121080544
  0.5501809779937048  0.2027557867439072  0.5979271537072890
  0.2213628313272622  0.5349871801246948  0.0917474434045005
  0.2141251823759518  0.5412539986182523  0.5909663367885258
  0.5589735871146146  0.5430884029545240  0.5927547502487585
  0.7756150466771956  0.7596883179641836  0.8371882917272444
  0.7754377545184070  0.7564035763536907  0.3482587436942808
  0.8915834802495937  0.8735743979482464  0.0923464835598224
  0.2228266182461383  0.2045404524427781  0.3737619673377068
  0.1373812254579363  0.0782770448444623  0.1317532233168421
  0.8936315166853817  0.2023925472194321  0.8677512681756028
  0.7970526001017291  0.0910971923234243  0.6095362436877139
  0.5305481230117550  0.2167299530801543  0.3707929164759349
  0.4411083954221340  0.1008093874169873  0.1122638558206219
  0.1980384074707686  0.2125228830211370  0.8820221947680693
  0.1134967172795953  0.0934055790882908  0.6223281025088738
  0.9050396601132249  0.2137459406346593  0.3661946829300646
  0.7621808715864447  0.1057999366167834  0.1283619595251508
  0.5702274219765116  0.2102540896690712  0.8658407550976293
  0.4279200393392273  0.0883346513916692  0.6275588885379051
  0.2231731189609221  0.5363013852882759  0.3544602842387050
  0.0955017055630378  0.4176234762691067  0.1285720117630120
  0.8943451432293301  0.5211912363756355  0.8748673844856896
  0.7969501574117928  0.4144659783270015  0.6280263615540704
  0.5557881299023109  0.5384914473507507  0.3668366702579533
  0.4622154300524102  0.4227612036408814  0.1159945468055597
  0.2156761292557121  0.5394524046484008  0.8600314621512055
  0.1038387829553358  0.4127920070418298  0.6269242941721487
  0.8985299921330778  0.5186191558192093  0.3802335486742550
  0.7657621864674624  0.4467402713364024  0.1259873395232134
  0.5576576754672544  0.5413856191724236  0.8676425642478520
  0.4412354763597506  0.4328742070298475  0.6367226522546900
  0.2258809824954611  0.8708999719779271  0.3793147903902820
  0.1277163621708297  0.7705480853746565  0.1268789000402322
  0.8970226156930039  0.8826918628557152  0.8633881576722970
  0.7734172567445725  0.7631121192965935  0.6030730171657623
  0.5296228874669566  0.8863653117013328  0.3680383901798692
  0.4436758155466620  0.7580508628510074  0.1255534182382689
  0.2226538507078999  0.8743331844832625  0.8739581799929255
  0.1079823800131408  0.7801926550264113  0.6268596258339159
  0.9123097231106101  0.8593834360721999  0.3705884377676085
  0.7702769109676240  0.7520747556601393  0.1130639224930050
  0.5442193039251535  0.8608071423641519  0.8858369249143934
  0.4317477266079024  0.7818145759708912  0.6282900272100846
 
  0.00000000E+00  0.00000000E+00  0.00000000E+00
  0.00000000E+00  0.00000000E+00  0.00000000E+00
  0.00000000E+00  0.00000000E+00  0.00000000E+00
  0.00000000E+00  0.00000000E+00  0.00000000E+00
  0.00000000E+00  0.00000000E+00  0.00000000E+00
  0.00000000E+00  0.00000000E+00  0.00000000E+00
  0.00000000E+00  0.00000000E+00  0.00000000E+00
  0.00000000E+00  0.00000000E+00  0.00000000E+00
  0.00000000E+00  0.00000000E+00  0.00000000E+00
  0.00000000E+00  0.00000000E+00  0.00000000E+00
  0.00000000E+00  0.00000000E+00  0.00000000E+00
  0.00000000E+00  0.00000000E+00  0.00000000E+00
  0.00000000E+00  0.00000000E+00  0.00000000E+00
  0.00000000E+00  0.00000000E+00  0.00000000E+00
  0.00000000E+00  0.00000000E+00  0.00000000E+00
  0.00000000E+00  0.00000000E+00  0.00000000E+00
  0.00000000E+00  0.00000000E+00  0.00000000E+00
  0.00000000E+00  0.00000000E+00  0.00000000E+00
  0.00000000E+00  0.00000000E+00  0.00000000E+00
  0.00000000E+00  0.00000000E+00  0.00000000E+00
  0.00000000E+00  0.00000000E+00  0.00000000E+00
  0.00000000E+00  0.00000000E+00  0.00000000E+00
  0.00000000E+00  0.00000000E+00  0.00000000E+00
  0.00000000E+00  0.00000000E+00  0.00000000E+00
  0.00000000E+00  0.00000000E+00  0.00000000E+00
  0.00000000E+00  0.00000000E+00  0.00000000E+00
  0.00000000E+00  0.00000000E+00  0.00000000E+00
  0.00000000E+00  0.00000000E+00  0.00000000E+00
  0.00000000E+00  0.00000000E+00  0.00000000E+00
  0.00000000E+00  0.00000000E+00  0.00000000E+00
  0.00000000E+00  0.00000000E+00  0.00000000E+00
  0.00000000E+00  0.00000000E+00  0.00000000E+00
  0.00000000E+00  0.00000000E+00  0.00000000E+00
  0.00000000E+00  0.00000000E+00  0.00000000E+00
  0.00000000E+00  0.00000000E+00  0.00000000E+00
  0.00000000E+00  0.00000000E+00  0.00000000E+00
  0.00000000E+00  0.00000000E+00  0.00000000E+00
  0.00000000E+00  0.00000000E+00  0.00000000E+00
  0.00000000E+00  0.00000000E+00  0.00000000E+00
  0.00000000E+00  0.00000000E+00  0.00000000E+00
  0.00000000E+00  0.00000000E+00  0.00000000E+00
  0.00000000E+00  0.00000000E+00  0.00000000E+00
  0.00000000E+00  0.00000000E+00  0.00000000E+00
  0.00000000E+00  0.00000000E+00  0.00000000E+00
  0.00000000E+00  0.00000000E+00  0.00000000E+00
  0.00000000E+00  0.00000000E+00  0.00000000E+00
  0.00000000E+00  0.00000000E+00  0.00000000E+00
  0.00000000E+00  0.00000000E+00  0.00000000E+00
  0.00000000E+00  0.00000000E+00  0.00000000E+00
  0.00000000E+00  0.00000000E+00  0.00000000E+00
  0.00000000E+00  0.00000000E+00  0.00000000E+00
  0.00000000E+00  0.00000000E+00  0.00000000E+00
  0.00000000E+00  0.00000000E+00  0.00000000E+00
  0.00000000E+00  0.00000000E+00  0.00000000E+00
  0.00000000E+00  0.00000000E+00  0.00000000E+00
  0.00000000E+00  0.00000000E+00  0.00000000E+00
  0.00000000E+00  0.00000000E+00  0.00000000E+00
  0.00000000E+00  0.00000000E+00  0.00000000E+00
  0.00000000E+00  0.00000000E+00  0.00000000E+00
  0.00000000E+00  0.00000000E+00  0.00000000E+00
  0.00000000E+00  0.00000000E+00  0.00000000E+00
  0.00000000E+00  0.00000000E+00  0.00000000E+00
  0.00000000E+00  0.00000000E+00  0.00000000E+00
  0.00000000E+00  0.00000000E+00  0.00000000E+00
  0.00000000E+00  0.00000000E+00  0.00000000E+00
  0.00000000E+00  0.00000000E+00  0.00000000E+00
  0.00000000E+00  0.00000000E+00  0.00000000E+00
  0.00000000E+00  0.00000000E+00  0.00000000E+00
  0.00000000E+00  0.00000000E+00  0.00000000E+00
  0.00000000E+00  0.00000000E+00  0.00000000E+00
  0.00000000E+00  0.00000000E+00  0.00000000E+00
  0.00000000E+00  0.00000000E+00  0.00000000E+00
