Al   Sc   N                             
   1.00000000000000     
    -9.8710393954175935    0.0002442484589277    0.0046791288437409
    -4.9343338954265707    8.4907192849245749    0.0008116222120366
     0.0108338663135771    0.0019113119612601  -10.1245103960195308
   Al   Sc   N 
    26    10    36
Direct
  0.1223001088603510  0.0901974527506511  0.3223937380806277
  0.2174635946111252  0.2035721277765177  0.0717923076547820
  0.7862407440620629  0.0976957885743843  0.8100999906518993
  0.9019102988598959  0.2054501762127927  0.5682983195534774
  0.4332355459827824  0.1013010014359779  0.3130661349882118
  0.5590445465614451  0.2083256685858643  0.0658558364132773
  0.1087576045574892  0.0937838247403420  0.8152585637745204
  0.2179261852411756  0.2014904977935004  0.5680685109872812
  0.1098615719634068  0.4188452010501749  0.3171624349624480
  0.7827862287951532  0.4214367403346486  0.8189848893979672
  0.8947830602296278  0.5261213557439532  0.5674362378866178
  0.4464182999751287  0.4279150992517131  0.3103404722366889
  0.5579329302706881  0.5428047541506658  0.0680849755292456
  0.1050213315876078  0.4229068977029300  0.8204132429631628
  0.7799713774802655  0.4292254500985280  0.3170918600896471
  0.8835063441255926  0.5358501508095230  0.0691907705553589
  0.4447261025856761  0.4326793401216165  0.8255333565929917
  0.1217491252590577  0.7626611137028760  0.3179822176063070
  0.2312991091508962  0.8725994145865883  0.0685113156813273
  0.8986911232636245  0.8720914568511944  0.5686178313560220
  0.4385037460455266  0.7628484375503461  0.3153938837359291
  0.5523622365902199  0.8665147429659328  0.0734521356716442
  0.1136982078654825  0.7662682555898286  0.8168680787340605
  0.2206751794053403  0.8789204987508299  0.5703828920794223
  0.4379465967313223  0.7631530930563102  0.8217122815009077
  0.5389130850451878  0.8802598844210863  0.5638894246177131
  0.7764217102531390  0.1005078544072333  0.3353421735159117
  0.8959614036096539  0.2065154263406441  0.0747161642383958
  0.4358534356133958  0.0964759711150336  0.8370849771947206
  0.5501086107599846  0.2031724938884238  0.5797063741768653
  0.2219625245965418  0.5357208166691549  0.0811094721808416
  0.2146981841829074  0.5413211568209846  0.5703371079345061
  0.5584510453447891  0.5432615624660571  0.5760714779322029
  0.7762910083630459  0.7574474655226098  0.8161576810948858
  0.7757422774740661  0.7572488192116396  0.3366683215859183
  0.8890621214656207  0.8733796480854394  0.0720276085697833
  0.2228510438625761  0.2052644135336052  0.3771677314761632
  0.1358497650758039  0.0801030562255107  0.1352301796608941
  0.8918791308451119  0.2029522690457668  0.8642890813859765
  0.7958294049607559  0.0908427962967266  0.6142419288149270
  0.5307396935227331  0.2167341465747796  0.3709314185779391
  0.4426773753782172  0.0987231029511904  0.1149912140812006
  0.1976394450250609  0.2129709325698812  0.8844789763192153
  0.1134465788041013  0.0933233793262858  0.6250735543115340
  0.9048277917246068  0.2140397583546800  0.3750986419148106
  0.7631164781620186  0.1046833838346330  0.1291007467392475
  0.5694549449766697  0.2120904203582015  0.8715263312461445
  0.4288427814229578  0.0875694338180182  0.6282089383579788
  0.2234354976112201  0.5363985313429680  0.3513551369492021
  0.0964501104460069  0.4165015958477483  0.1301975042223660
  0.8939565467792079  0.5220651013860405  0.8802669974772215
  0.7960002206106438  0.4174366545212536  0.6310812574609770
  0.5563748773164789  0.5384363001060493  0.3653029488223609
  0.4636508133837438  0.4215215511335870  0.1208336300762483
  0.2167812948994978  0.5395954720984690  0.8648856260526898
  0.1035496524381969  0.4152294417179050  0.6310712882636693
  0.9007369430696457  0.5169355860260652  0.3813332564405982
  0.7672413164722443  0.4448642629659503  0.1294590802339215
  0.5571415243027502  0.5405994684215685  0.8728354053922089
  0.4403615201097821  0.4333719883150948  0.6399299788103932
  0.2262977644172253  0.8704529069734761  0.3807507170104998
  0.1232081265439291  0.7738768322820064  0.1315859637599459
  0.8957483898685226  0.8815843122408680  0.8618326918688481
  0.7741515408341328  0.7617141185657132  0.5991635741917634
  0.5286403489519174  0.8863149216658570  0.3741931215672594
  0.4441088484575957  0.7593783302751973  0.1263743362954060
  0.2215385711664126  0.8737930019390348  0.8775439969660752
  0.1081950075325793  0.7785606705983881  0.6291894647148624
  0.9139077803367002  0.8597057512312460  0.3796502700646585
  0.7696387741035551  0.7524235178251004  0.1204579208190495
  0.5469909547955183  0.8595028494034906  0.8869496414903608
  0.4322087387282494  0.7807138417087813  0.6331432503223198
 
  0.00000000E+00  0.00000000E+00  0.00000000E+00
  0.00000000E+00  0.00000000E+00  0.00000000E+00
  0.00000000E+00  0.00000000E+00  0.00000000E+00
  0.00000000E+00  0.00000000E+00  0.00000000E+00
  0.00000000E+00  0.00000000E+00  0.00000000E+00
  0.00000000E+00  0.00000000E+00  0.00000000E+00
  0.00000000E+00  0.00000000E+00  0.00000000E+00
  0.00000000E+00  0.00000000E+00  0.00000000E+00
  0.00000000E+00  0.00000000E+00  0.00000000E+00
  0.00000000E+00  0.00000000E+00  0.00000000E+00
  0.00000000E+00  0.00000000E+00  0.00000000E+00
  0.00000000E+00  0.00000000E+00  0.00000000E+00
  0.00000000E+00  0.00000000E+00  0.00000000E+00
  0.00000000E+00  0.00000000E+00  0.00000000E+00
  0.00000000E+00  0.00000000E+00  0.00000000E+00
  0.00000000E+00  0.00000000E+00  0.00000000E+00
  0.00000000E+00  0.00000000E+00  0.00000000E+00
  0.00000000E+00  0.00000000E+00  0.00000000E+00
  0.00000000E+00  0.00000000E+00  0.00000000E+00
  0.00000000E+00  0.00000000E+00  0.00000000E+00
  0.00000000E+00  0.00000000E+00  0.00000000E+00
  0.00000000E+00  0.00000000E+00  0.00000000E+00
  0.00000000E+00  0.00000000E+00  0.00000000E+00
  0.00000000E+00  0.00000000E+00  0.00000000E+00
  0.00000000E+00  0.00000000E+00  0.00000000E+00
  0.00000000E+00  0.00000000E+00  0.00000000E+00
  0.00000000E+00  0.00000000E+00  0.00000000E+00
  0.00000000E+00  0.00000000E+00  0.00000000E+00
  0.00000000E+00  0.00000000E+00  0.00000000E+00
  0.00000000E+00  0.00000000E+00  0.00000000E+00
  0.00000000E+00  0.00000000E+00  0.00000000E+00
  0.00000000E+00  0.00000000E+00  0.00000000E+00
  0.00000000E+00  0.00000000E+00  0.00000000E+00
  0.00000000E+00  0.00000000E+00  0.00000000E+00
  0.00000000E+00  0.00000000E+00  0.00000000E+00
  0.00000000E+00  0.00000000E+00  0.00000000E+00
  0.00000000E+00  0.00000000E+00  0.00000000E+00
  0.00000000E+00  0.00000000E+00  0.00000000E+00
  0.00000000E+00  0.00000000E+00  0.00000000E+00
  0.00000000E+00  0.00000000E+00  0.00000000E+00
  0.00000000E+00  0.00000000E+00  0.00000000E+00
  0.00000000E+00  0.00000000E+00  0.00000000E+00
  0.00000000E+00  0.00000000E+00  0.00000000E+00
  0.00000000E+00  0.00000000E+00  0.00000000E+00
  0.00000000E+00  0.00000000E+00  0.00000000E+00
  0.00000000E+00  0.00000000E+00  0.00000000E+00
  0.00000000E+00  0.00000000E+00  0.00000000E+00
  0.00000000E+00  0.00000000E+00  0.00000000E+00
  0.00000000E+00  0.00000000E+00  0.00000000E+00
  0.00000000E+00  0.00000000E+00  0.00000000E+00
  0.00000000E+00  0.00000000E+00  0.00000000E+00
  0.00000000E+00  0.00000000E+00  0.00000000E+00
  0.00000000E+00  0.00000000E+00  0.00000000E+00
  0.00000000E+00  0.00000000E+00  0.00000000E+00
  0.00000000E+00  0.00000000E+00  0.00000000E+00
  0.00000000E+00  0.00000000E+00  0.00000000E+00
  0.00000000E+00  0.00000000E+00  0.00000000E+00
  0.00000000E+00  0.00000000E+00  0.00000000E+00
  0.00000000E+00  0.00000000E+00  0.00000000E+00
  0.00000000E+00  0.00000000E+00  0.00000000E+00
  0.00000000E+00  0.00000000E+00  0.00000000E+00
  0.00000000E+00  0.00000000E+00  0.00000000E+00
  0.00000000E+00  0.00000000E+00  0.00000000E+00
  0.00000000E+00  0.00000000E+00  0.00000000E+00
  0.00000000E+00  0.00000000E+00  0.00000000E+00
  0.00000000E+00  0.00000000E+00  0.00000000E+00
  0.00000000E+00  0.00000000E+00  0.00000000E+00
  0.00000000E+00  0.00000000E+00  0.00000000E+00
  0.00000000E+00  0.00000000E+00  0.00000000E+00
  0.00000000E+00  0.00000000E+00  0.00000000E+00
  0.00000000E+00  0.00000000E+00  0.00000000E+00
  0.00000000E+00  0.00000000E+00  0.00000000E+00
