supercell of 100% icsd_608626.cif, 0% i 
   1.00000000000000     
    -9.4523446699223399    0.0083247148084456   -0.0022359694001411
    -4.7333805397022362    8.1835060663167685   -0.0023668756188509
    -0.0023878245211005    0.0015412233216744  -10.0719459115456118
   Al   Mg   Hf   N 
    34     1     1    36
Direct
  0.1047847254929337  0.0984681426215843  0.2957994283366432
  0.2213162731359120  0.2060613421370476  0.0460524209679676
  0.7776762390474374  0.0941278417529787  0.7955188267001745
  0.8891211439376221  0.2043015482579875  0.5453592964285221
  0.4445977068610603  0.0996997790077003  0.2953789283855812
  0.5562658984408273  0.2052917191467500  0.0457856816818207
  0.1104396737033468  0.0958786251190986  0.7952415402127571
  0.2216964251277815  0.2059759477035144  0.5456700896951077
  0.7792948498104053  0.0942514290070662  0.2965224216957338
  0.8875948525359334  0.2066257886042493  0.0436980445471349
  0.4433402378790845  0.0965615529957873  0.7957052327229874
  0.5556530284101626  0.2057214032145254  0.5457500905479833
  0.1096397730150542  0.4293401540352377  0.2962372897092393
  0.2217009907045409  0.5383864146523649  0.0457700725097112
  0.7797426478429514  0.4268732334172824  0.7964309728235150
  0.8900013689276420  0.5396889538801517  0.5452645170110770
  0.4433791646133400  0.4237760315676837  0.2953494122672708
  0.5582810715493665  0.5341825182864284  0.0377016465252424
  0.1114322086562041  0.4276963149946695  0.7953220801615473
  0.2220596787092788  0.5379726472366784  0.5450259053307249
  0.8884522687658389  0.5382485555613385  0.0438039909459960
  0.4428879250685611  0.4267457606018610  0.7954134084392734
  0.5571723412522829  0.5334155462283334  0.5515538557857198
  0.1063590959211211  0.7603389451132543  0.2958336204928216
  0.2179563887793137  0.8741640221914579  0.0402256600034292
  0.7799240296904770  0.7606566791305411  0.7955248783711468
  0.8884755010029224  0.8728476808300414  0.5452265007275514
  0.5577492323410524  0.8738946338972227  0.0401528946583838
  0.1101333873760098  0.7601019200433257  0.7954193065171680
  0.2166752387963840  0.8750242394069474  0.5505426764693979
  0.7852664377378389  0.7607933899351238  0.2958808855821289
  0.8883523331286156  0.8730976919589466  0.0457061067563131
  0.4440632188523566  0.7616836099887152  0.7930045811975859
  0.5592120371075637  0.8755388819994465  0.5515001615442969
  0.7836297630094151  0.4227316243326129  0.2953066163330647
  0.4461585852887211  0.7605954661732355  0.3003367287312457
  0.2225495476832080  0.2041982619821638  0.3540348899369334
  0.1112477277284682  0.0935618853605718  0.1041770448089920
  0.8895691502942569  0.2035323334890080  0.8530537040732398
  0.7768174337031724  0.0941045038637256  0.6058063831354872
  0.5559285914075787  0.2053105065957297  0.3549048027852351
  0.4446029057329142  0.0937343682229539  0.1045490403559413
  0.2220034836573532  0.2056117969816995  0.8556312327902518
  0.1114409621353403  0.0956270440274807  0.6063035839120445
  0.8945877324109404  0.1915316483712317  0.3596761774088861
  0.7777014700094043  0.0945309611407410  0.1047532218005855
  0.5555058020919574  0.2052973736685857  0.8557226626297236
  0.4432796227294915  0.0968182241487696  0.6059406968390988
  0.2225663703057279  0.5382620502050699  0.3539606746507857
  0.1108704426404472  0.4277449343255455  0.1048694062350108
  0.8900618132373879  0.5396678960631576  0.8530604049312700
  0.7797615073863824  0.4270730683435104  0.6054215943869110
  0.5495233765888869  0.5283382699466372  0.3645827087425246
  0.4444288508350454  0.4281254159553498  0.1038384787176909
  0.2216804856459262  0.5388818612777442  0.8555087873846219
  0.1123754099415706  0.4268953408590619  0.6053360125765010
  0.8950744134788380  0.5471493818083886  0.3585636205007035
  0.7767392110242142  0.4285029930266973  0.0903400761862301
  0.5537585752465475  0.5391752054712455  0.8481128503134272
  0.4426823100177373  0.4261751856805134  0.6066923814276564
  0.2067533670280213  0.8786210068197278  0.3597654261003385
  0.1113920667353270  0.7612283025635804  0.1046648900907527
  0.8890359013183584  0.8723833932741414  0.8556631488587030
  0.7795238571692664  0.7615569367350687  0.6069423968422498
  0.5658537019052829  0.8819537993358608  0.3609776459188154
  0.4443060634029266  0.7607858733164008  0.0924603865645537
  0.2214144223508114  0.8722386237338853  0.8509693180170004
  0.1103988999926031  0.7599691899272969  0.6054278119165843
  0.8888623981051111  0.8735274687698862  0.3549899076159022
  0.7771764666752503  0.7616984444646420  0.1040752028220311
  0.5556889958707742  0.8727309059063870  0.8510572060564030
  0.4443509209941112  0.7626955093064680  0.5991504518506048
 
  0.00000000E+00  0.00000000E+00  0.00000000E+00
  0.00000000E+00  0.00000000E+00  0.00000000E+00
  0.00000000E+00  0.00000000E+00  0.00000000E+00
  0.00000000E+00  0.00000000E+00  0.00000000E+00
  0.00000000E+00  0.00000000E+00  0.00000000E+00
  0.00000000E+00  0.00000000E+00  0.00000000E+00
  0.00000000E+00  0.00000000E+00  0.00000000E+00
  0.00000000E+00  0.00000000E+00  0.00000000E+00
  0.00000000E+00  0.00000000E+00  0.00000000E+00
  0.00000000E+00  0.00000000E+00  0.00000000E+00
  0.00000000E+00  0.00000000E+00  0.00000000E+00
  0.00000000E+00  0.00000000E+00  0.00000000E+00
  0.00000000E+00  0.00000000E+00  0.00000000E+00
  0.00000000E+00  0.00000000E+00  0.00000000E+00
  0.00000000E+00  0.00000000E+00  0.00000000E+00
  0.00000000E+00  0.00000000E+00  0.00000000E+00
  0.00000000E+00  0.00000000E+00  0.00000000E+00
  0.00000000E+00  0.00000000E+00  0.00000000E+00
  0.00000000E+00  0.00000000E+00  0.00000000E+00
  0.00000000E+00  0.00000000E+00  0.00000000E+00
  0.00000000E+00  0.00000000E+00  0.00000000E+00
  0.00000000E+00  0.00000000E+00  0.00000000E+00
  0.00000000E+00  0.00000000E+00  0.00000000E+00
  0.00000000E+00  0.00000000E+00  0.00000000E+00
  0.00000000E+00  0.00000000E+00  0.00000000E+00
  0.00000000E+00  0.00000000E+00  0.00000000E+00
  0.00000000E+00  0.00000000E+00  0.00000000E+00
  0.00000000E+00  0.00000000E+00  0.00000000E+00
  0.00000000E+00  0.00000000E+00  0.00000000E+00
  0.00000000E+00  0.00000000E+00  0.00000000E+00
  0.00000000E+00  0.00000000E+00  0.00000000E+00
  0.00000000E+00  0.00000000E+00  0.00000000E+00
  0.00000000E+00  0.00000000E+00  0.00000000E+00
  0.00000000E+00  0.00000000E+00  0.00000000E+00
  0.00000000E+00  0.00000000E+00  0.00000000E+00
  0.00000000E+00  0.00000000E+00  0.00000000E+00
  0.00000000E+00  0.00000000E+00  0.00000000E+00
  0.00000000E+00  0.00000000E+00  0.00000000E+00
  0.00000000E+00  0.00000000E+00  0.00000000E+00
  0.00000000E+00  0.00000000E+00  0.00000000E+00
  0.00000000E+00  0.00000000E+00  0.00000000E+00
  0.00000000E+00  0.00000000E+00  0.00000000E+00
  0.00000000E+00  0.00000000E+00  0.00000000E+00
  0.00000000E+00  0.00000000E+00  0.00000000E+00
  0.00000000E+00  0.00000000E+00  0.00000000E+00
  0.00000000E+00  0.00000000E+00  0.00000000E+00
  0.00000000E+00  0.00000000E+00  0.00000000E+00
  0.00000000E+00  0.00000000E+00  0.00000000E+00
  0.00000000E+00  0.00000000E+00  0.00000000E+00
  0.00000000E+00  0.00000000E+00  0.00000000E+00
  0.00000000E+00  0.00000000E+00  0.00000000E+00
  0.00000000E+00  0.00000000E+00  0.00000000E+00
  0.00000000E+00  0.00000000E+00  0.00000000E+00
  0.00000000E+00  0.00000000E+00  0.00000000E+00
  0.00000000E+00  0.00000000E+00  0.00000000E+00
  0.00000000E+00  0.00000000E+00  0.00000000E+00
  0.00000000E+00  0.00000000E+00  0.00000000E+00
  0.00000000E+00  0.00000000E+00  0.00000000E+00
  0.00000000E+00  0.00000000E+00  0.00000000E+00
  0.00000000E+00  0.00000000E+00  0.00000000E+00
  0.00000000E+00  0.00000000E+00  0.00000000E+00
  0.00000000E+00  0.00000000E+00  0.00000000E+00
  0.00000000E+00  0.00000000E+00  0.00000000E+00
  0.00000000E+00  0.00000000E+00  0.00000000E+00
  0.00000000E+00  0.00000000E+00  0.00000000E+00
  0.00000000E+00  0.00000000E+00  0.00000000E+00
  0.00000000E+00  0.00000000E+00  0.00000000E+00
  0.00000000E+00  0.00000000E+00  0.00000000E+00
  0.00000000E+00  0.00000000E+00  0.00000000E+00
  0.00000000E+00  0.00000000E+00  0.00000000E+00
  0.00000000E+00  0.00000000E+00  0.00000000E+00
  0.00000000E+00  0.00000000E+00  0.00000000E+00
