POSCAR
1.00
 -4.69260000  2.70930000 -5.01530000
  4.69260000 -2.70930000 -5.01530000
 -4.69260000 -8.12790000  0.00000000
  Gd  Al   N
  18   6  24
Direct
  0.91650000  0.58350000  0.66666667
  0.41650000  0.08350000  0.66666667
  0.16650000  0.33350000  0.50000000
  0.91650000  0.58350000  0.33333333
  0.91650000  0.58350000  1.00000000
  0.41650000  0.08350000  1.00000000
  0.66650000  0.83350000  0.50000000
  0.66650000  0.83350000  0.16666667
  0.66650000  0.83350000  0.83333333
  0.33350000  0.66650000  0.66666667
  0.83350000  0.16650000  0.66666667
  0.58350000  0.41650000  0.50000000
  0.33350000  0.66650000  0.33333333
  0.33350000  0.66650000  1.00000000
  0.83350000  0.16650000  1.00000000
  0.58350000  0.41650000  0.83333333
  0.08350000  0.91650000  0.16666667
  0.08350000  0.91650000  0.83333333
  0.41650000  0.08350000  0.33333333
  0.16650000  0.33350000  0.16666667
  0.16650000  0.33350000  0.83333333
  0.83350000  0.16650000  0.33333333
  0.58350000  0.41650000  0.16666667
  0.08350000  0.91650000  0.50000000
  0.72600000  0.39300000  0.66666667
  0.22600000  0.89300000  0.66666667
  0.97600000  0.14300000  0.50000000
  0.72600000  0.39300000  0.33333333
  0.22600000  0.89300000  0.33333333
  0.97600000  0.14300000  0.16666667
  0.72600000  0.39300000  1.00000000
  0.22600000  0.89300000  1.00000000
  0.97600000  0.14300000  0.83333333
  0.47600000  0.64300000  0.50000000
  0.47600000  0.64300000  0.16666667
  0.47600000  0.64300000  0.83333333
  0.14300000  0.47600000  0.66666667
  0.64300000  0.97600000  0.66666667
  0.39300000  0.22600000  0.50000000
  0.14300000  0.47600000  0.33333333
  0.64300000  0.97600000  0.33333333
  0.39300000  0.22600000  0.16666667
  0.14300000  0.47600000  1.00000000
  0.64300000  0.97600000  1.00000000
  0.39300000  0.22600000  0.83333333
  0.89300000  0.72600000  0.50000000
  0.89300000  0.72600000  0.16666667
  0.89300000  0.72600000  0.83333333
