Mg   Ge   N
1.0
  -5.58095272749097 7.83750778605e-05 1.331517178e-07
  0.0001469578478937 6.726610693818131 -0.0869412475945557
  0.0317870828156056 -2.3644812138e-06 -5.2188111184085
 Mg  Ge  N 
4 4 8 
direct
   -0.4249186835268926   0.1090866127516760  -0.1090331645457278
   -0.9113543297921738   0.3697863927451734  -0.1075731968115405
   -0.5839700616661134   0.8614314346487687  -0.6293248076868436
   -0.0874873758600604   0.6127950560467772  -0.6300742796375819
   -0.9229012919379270   0.8548404045423657  -0.1371593702086570
   -0.0757102632246352   0.1199782557043352  -0.5105772762557760
   -0.4242294544703917   0.6126305865445416  -0.1327965559153370
   -0.5720426674720657   0.3637522489617450  -0.6306961209098626
   -0.0624924471224379   0.0979412373004841  -0.0871317121259759
   -0.9326943723209534   0.8712264889654672  -0.5074459945212714
   -0.5991244226952362   0.8390775206165481  -0.0309751189154661
   -0.1002121094941481   0.6299908040681552  -0.0308781690038579
   -0.4103849843129285   0.1285603639242870  -0.5311687076646932
   -0.8974748685431275   0.3535673761497757  -0.5329178087381923
   -0.5577121626102156   0.3820733100765605  -0.9896957247281866
   -0.4372771475549233   0.5932639414128362  -0.4926354127488702
