Mg   Ge   N
1.0
  -5.594716598996017 -0.0023140675657896 -9.1077867e-08
  0.0027055338028256 6.746577389209505 -0.0568486227659782
  -0.0207121142344984 -2.167954681e-07 -5.21872683162841
 Mg  Ge  N 
4 4 8 
direct
   -0.4101499464213619   0.1034611956605477  -0.0264517904977498
   -0.9280561268923848   0.3632139206717009  -0.0226527240553220
   -0.5902903727636635   0.8702264453495270  -0.5227481933507375
   -0.0731799260740623   0.6108856469447125  -0.5203581906207947
   -0.9273508096330461   0.8623648271727915  -0.0049284628880976
   -0.0731234887456222   0.1128192891851730  -0.5075733063993548
   -0.4296610031431944   0.6126401025028974  -0.1334339577495105
   -0.5689812557418954   0.3637529104266027  -0.6385740233057978
   -0.0593249239647806   0.0925062016343347  -0.1475545964175247
   -0.9398921147122399   0.8824804471029829  -0.6458765823079408
   -0.6027322728828295   0.8498065135009061  -0.1010693034050379
   -0.0932650048376014   0.6328180610320323  -0.1027866021801296
   -0.3976861676621867   0.1245546565213826  -0.6013505248639962
   -0.9068036185868896   0.3433971443244595  -0.6046026218231166
   -0.5592492065619438   0.3838132693363802  -0.0036122484768916
   -0.4402404039805843   0.5912614030928848  -0.5065102920762022
