Mg   Ge   N
1.0
  -5.559271174467087 -0.0014060040129441 -2.229776228e-07
  0.0015808226001213 6.690156491231977 -0.0621872390121369
  -0.0223063790239755 1.0465490883e-06 -5.21867725116954
 Mg  Ge  N 
4 4 8 
direct
   -0.4141071091302506   0.1092302014905507  -0.0185002173011065
   -0.9183150646305180   0.3652293622577225  -0.0189029052447328
   -0.5861098227347946   0.8624813744207988  -0.5098398644794986
   -0.0846600035654911   0.6124626838799184  -0.5099625354999998
   -0.9251605832016343   0.8623415082067319  -0.0044565472568035
   -0.0732804438414625   0.1124152744884174  -0.5066112245534641
   -0.4262695400928622   0.6135167147969620  -0.0044052921600587
   -0.5742494359430173   0.3597205783911472  -0.5155035749930141
   -0.0588475196841893   0.0943764871067345  -0.1465700671068457
   -0.9383285744138744   0.8810400006990433  -0.6443902017633356
   -0.5995857452948569   0.8444874747361075  -0.1064568205603882
   -0.0998255728840645   0.6337039575016196  -0.1065634606789960
   -0.3997254120673557   0.1275394379830007  -0.6087322475037448
   -0.9030932319961924   0.3456367058542722  -0.6093613707577338
   -0.5606710484503928   0.3796066466283349  -0.1376349629522349
   -0.4377575346733990   0.5962136260179649  -0.6421921276062238
