Mg   Ge   N
1.0
  -5.580971584481466 -7.96169406555e-05 -1.702177205e-07
  -0.0001544263155612 6.726653923985151 -0.086980773093949
  -0.0318044970428602 5.412112657e-07 -5.21869708335309
 Mg  Ge  N 
4 4 8 
direct
   -0.4113558256909712   0.1052142599076072  -0.0286987908169864
   -0.9249177870582640   0.3659146823690582  -0.0272372007500697
   -0.5874864064759808   0.8622040211083649  -0.5061914958422529
   -0.0839708709205345   0.6135672160446795  -0.5069415116625080
   -0.9242292419623012   0.8623699510107680  -0.0034523366310786
   -0.0720437275731508   0.1112491642750196  -0.5055613794542045
   -0.4229006894913309   0.6201606117487337  -0.9991106008193924
   -0.5757098165257597   0.3550217879165137  -0.6256898157035127
   -0.0577103929967395   0.0929266279327518  -0.1465556346275441
   -0.9372778933755194   0.8817358460066146  -0.6436120899890213
   -0.6002140691134052   0.8450098647914381  -0.1053802921490477
   -0.0991219973909344   0.6359250874317218  -0.1052840625671794
   -0.3974753520309621   0.1214325002819348  -0.6033394460176770
   -0.9103852478874446   0.3464387793952046  -0.6050909891060976
   -0.5624917544220973   0.3770592216230382  -0.0491239069137360
   -0.4326955696889664   0.6037724126158580  -0.6288138673678747
