Mg   Ge   N
1.0
  -5.5713623754347426 -0.0058460623643393 -2.51279891e-08
  -0.0187437011896469 6.751664072134595 0.0060150691415763
  0.0054285108200736 -8.484677462e-07 -5.21875162185785
 Mg  Ge  N 
4 4 8 
direct
   -0.4223523613027454   0.1106665524021799  -0.1018884557521286
   -0.9278568563760095   0.3641963557543381  -0.0155207291212857
   -0.5751885560882944   0.8632907252248827  -0.6146721477030457
   -0.0722446521248244   0.6110501593222427  -0.5150519656261394
   -0.9321677724510690   0.8612502780521453  -0.0030404921840753
   -0.0685931222424629   0.1137075272541887  -0.5034663768066256
   -0.4327047644104113   0.6140406127810986  -0.1347948372541533
   -0.5679958113982937   0.3616290967804536  -0.6344903976729002
   -0.0518882353051600   0.0935091461231480  -0.1433924031813417
   -0.9487012664252572   0.8814212012671173  -0.6430565028941027
   -0.5935416124887483   0.8444359793822129  -0.0372907987137608
   -0.0927630601774994   0.6314269525320425  -0.1035081610175945
   -0.4054442090756085   0.1296600801388669  -0.5468805215896663
   -0.9075759563217338   0.3436058846755843  -0.6033585854170910
   -0.5531935118898276   0.3835864733010173  -0.9951066854274266
   -0.4477748945266520   0.5925250094703671  -0.4945643600577705
