Mg   Ge   N
1.0
  -5.5775208469802005 -0.0005457669930535 -1.834076961e-07
  0.0004331584893451 6.720854464556203 -0.0830718472888333
  -0.0302159479425154 6.675457214e-07 -5.2186921253072
 Mg  Ge  N 
4 4 8 
direct
   -0.4122294675363246   0.1068238717836381  -0.0266670115895492
   -0.9228204128699784   0.3660826703859846  -0.0258816340000905
   -0.5875341275328193   0.8619922768651958  -0.5063473919881557
   -0.0841222719750993   0.6136056457997067  -0.5068921601527487
   -0.9241327908950837   0.8622762241321348  -0.0039767835637103
   -0.0720130907587548   0.1109573456417990  -0.5051052758184877
   -0.4242472883946904   0.6177172596217344  -0.0012159836327028
   -0.5758259991722228   0.3554188160022290  -0.5977822058162305
   -0.0579234778617171   0.0932858974245318  -0.1465632978250887
   -0.9375363079928859   0.8816853363848965  -0.6436965098896000
   -0.5998100551109866   0.8454317168615899  -0.1051913609344652
   -0.0991274555155760   0.6358608046580756  -0.1052264711819358
   -0.3975294161138737   0.1220069039183344  -0.6054066553356863
   -0.9098169937825353   0.3463170217184831  -0.6068059412709056
   -0.5618116927695164   0.3781043539781291  -0.0715678859221368
   -0.4335057943222916   0.6024358892828485  -0.6317568514966876
