Mg   Ge   N
1.0
  -5.595892262535357 -0.0002349338567584 -1.306477938e-07
  5.15680222432e-05 6.755575280567947 -0.0868028912911458
  -0.0310282566721477 1.622078988e-07 -5.21871195749075
 Mg  Ge  N 
4 4 8 
direct
   -0.4099763277356376   0.1038096384552530  -0.0285571154883709
   -0.9282838838895955   0.3625580866240200  -0.0247373451615463
   -0.5883722058252041   0.8651873026979746  -0.5159521124320277
   -0.0789844153832547   0.6105337344539257  -0.5155633251519988
   -0.9270313201063116   0.8636005038474857  -0.0020909951568085
   -0.0736081375776092   0.1124341974745836  -0.5089157680724776
   -0.4236087915897094   0.6209784350589010  -0.0506860494304421
   -0.5706910174856519   0.3610790129331920  -0.6401817082410195
   -0.0589240970271426   0.0916787937279103  -0.1479703303707510
   -0.9389277120492332   0.8821150503662398  -0.6445028545382999
   -0.6031542880238411   0.8487282658965146  -0.1047881359797572
   -0.0938573608289703   0.6338898710861306  -0.1041987950963220
   -0.3984134830736476   0.1224808829416541  -0.6023597134878862
   -0.9081406164472066   0.3435281922545166  -0.6051375574653187
   -0.5625898378627603   0.3782004251880336  -0.0189724452324327
   -0.4354231476985012   0.5991996414529628  -0.5754691691127520
