Mg   Ge   N
1.0
  -5.596902284411626 -0.0012089359107585 -1.174578182e-07
  0.0012545852960681 6.754668431060042 -0.0824342721101621
  -0.0293612581926696 3.58734432e-08 -5.21871691553664
 Mg  Ge  N 
4 4 8 
direct
   -0.4098231138729939   0.1037585639010700  -0.0278527935320964
   -0.9283319328392635   0.3625412429608664  -0.0241077147973776
   -0.5887827180709259   0.8659711017385554  -0.5174575353553840
   -0.0779292514389024   0.6104234133645827  -0.5167319121869158
   -0.9272493894202984   0.8636514708708556  -0.0018354248294704
   -0.0736605463256305   0.1125853398997572  -0.5088743505627573
   -0.4250508737174388   0.6189030352405779  -0.0799818427601050
   -0.5698948821353993   0.3623066434928315  -0.6393107777202440
   -0.0589711577515001   0.0917766447798328  -0.1478671737538664
   -0.9390652094633147   0.8822137350710195  -0.6443681086219365
   -0.6033489218770666   0.8495669676958950  -0.1031159894449340
   -0.0929435432516770   0.6337733174237085  -0.1028700939384495
   -0.3984215823358633   0.1227288994521798  -0.6022578350827967
   -0.9078997846997245   0.3434024822147427  -0.6051410697468482
   -0.5618923378906620   0.3794518721065764  -0.0148447427342274
   -0.4367213975136064   0.5969473042462605  -0.5534660553507941
