Mg   Ge   N
1.0
  -5.573899555346682 0.0009114391199361 1.59531669e-07
  -0.0009089653112867 6.714925138215086 -0.0787966068946654
  0.0285055892060858 -2.6171501251e-06 -5.21882103450028
 Mg  Ge  N 
4 4 8 
direct
   -0.4215677263654287   0.1089782665143261  -0.1117272206592533
   -0.9127807436859401   0.3673375336309140  -0.1113671236331027
   -0.5842200069279356   0.8615189984979850  -0.6289646337729597
   -0.0873942858391402   0.6130322247716071  -0.6293617005043035
   -0.9250525489518528   0.8588137362043630  -0.1337177906124056
   -0.0755329923202462   0.1186236310446806  -0.5672652116074519
   -0.4241908755790174   0.6127209489213463  -0.1320141719748787
   -0.5721925162531051   0.3639472909222878  -0.6308885477293659
   -0.0613776987554681   0.0962990621032008  -0.0431915497144354
   -0.9345196419091854   0.8741401742801405  -0.5011617512017160
   -0.5992278375545788   0.8393629633610945  -0.0308115787654943
   -0.0996319264499489   0.6295521411784498  -0.0308936108975895
   -0.4085491819977399   0.1288161453430843  -0.5278040882992553
   -0.8979409283618194   0.3519541434531062  -0.5289801070821666
   -0.5580919252553077   0.3814609917602970  -0.9895199086544687
   -0.4377158063975216   0.5934437824726003  -0.4924144253089812
