Mg   Ge   N                             
   1.00000000000000     
     0.0302159479425154   -0.0000006675457214    5.2186921253072001
     5.5775208469802005    0.0005457669930535    0.0000001834076961
     0.0004331584893451    6.7208544645562034   -0.0830718472888333
   Mg   Ge   N 
     4     4     8
Direct
  0.0266670115895492  0.4122294675363245  0.1068238717836381
  0.0258816340000905  0.9228204128699782  0.3660826703859845
  0.5063473919881557  0.5875341275328191  0.8619922768651959
  0.5068921601527487  0.0841222719750993  0.6136056457997068
  0.0039767835637103  0.9241327908950835  0.8622762241321348
  0.5051052758184877  0.0720130907587548  0.1109573456417990
  0.0012159836327028  0.4242472883946902  0.6177172596217345
  0.5977822058162305  0.5758259991722225  0.3554188160022290
  0.1465632978250887  0.0579234778617171  0.0932858974245318
  0.6436965098896000  0.9375363079928857  0.8816853363848965
  0.1051913609344652  0.5998100551109865  0.8454317168615900
  0.1052264711819358  0.0991274555155759  0.6358608046580758
  0.6054066553356863  0.3975294161138736  0.1220069039183344
  0.6068059412709056  0.9098169937825351  0.3463170217184831
  0.0715678859221368  0.5618116927695163  0.3781043539781292
  0.6317568514966876  0.4335057943222915  0.6024358892828485
 
             NaN             NaN             NaN
             NaN             NaN             NaN
             NaN             NaN             NaN
             NaN             NaN             NaN
             NaN             NaN             NaN
             NaN             NaN             NaN
             NaN             NaN             NaN
             NaN             NaN             NaN
             NaN             NaN             NaN
             NaN             NaN             NaN
             NaN             NaN             NaN
             NaN             NaN             NaN
             NaN             NaN             NaN
             NaN             NaN             NaN
             NaN             NaN             NaN
             NaN             NaN             NaN
