Mg   Ge   N                             
   1.00000000000000     
     0.0054303230486709    0.0000013538055688    5.2187714540414003
     5.5863465941514594   -0.0059526170158928   -0.0000000276319132
     0.0201680512575152    6.7592757715545302    0.0043227794028299
   Mg   Ge   N 
     4     4     8
Direct
  0.1162316378341086  0.4277708884832184  0.1108955795600667
  0.0976519930893811  0.9117314095364417  0.3681873645541500
  0.6171441459968038  0.5724732638185230  0.8642157750059103
  0.5804478447844380  0.0851557714111228  0.6076207908291285
  0.0000801523328123  0.9319521754491509  0.8621663077562535
  0.4997255110842186  0.0691585700686737  0.1119173767258742
  0.1299825020341444  0.4291551517600262  0.6134879923943490
  0.6302888542360668  0.5715396505959967  0.3618315770356217
  0.1373842158116337  0.0576312820096598  0.0889203282601365
  0.6382505714555584  0.9434667562431868  0.8853330575500069
  0.0324248380704357  0.5936595404799953  0.8430075098191855
  0.0552802934690697  0.0998646613168188  0.6264853853301977
  0.5327281517815482  0.4068104737280758  0.1322227470091037
  0.5422560675005105  0.8980735017187017  0.3484853604717111
  0.9899181137662842  0.5572752441964652  0.3817441935978652
  0.4902885271728079  0.4442683017883330  0.5934806885606677
 
             NaN             NaN             NaN
             NaN             NaN             NaN
             NaN             NaN             NaN
             NaN             NaN             NaN
             NaN             NaN             NaN
             NaN             NaN             NaN
             NaN             NaN             NaN
             NaN             NaN             NaN
             NaN             NaN             NaN
             NaN             NaN             NaN
             NaN             NaN             NaN
             NaN             NaN             NaN
             NaN             NaN             NaN
             NaN             NaN             NaN
             NaN             NaN             NaN
             NaN             NaN             NaN
