Mg   Ge   N
1.0
  -5.588221647112573 -0.0025610722570127 1.199617422e-07
  0.0034177679240544 6.750964813132071 -0.1000160512677179
  0.0368516141915362 -2.2381467582e-06 -5.21880616036261
 Mg  Ge  N 
4 4 8 
direct
   -0.4284351642264344   0.1109526941397154  -0.1071610826441133
   -0.9112811428654273   0.3716358502699373  -0.1012614221891765
   -0.5818562193625029   0.8626518278470624  -0.6270428633026308
   -0.0876964422666871   0.6114047660908740  -0.6274984510799185
   -0.9209135783832866   0.8507641046414931  -0.1390287609485126
   -0.0742533439273147   0.1191129214590895  -0.4896925970555925
   -0.4251167274370409   0.6127707404824482  -0.1329313080049134
   -0.5724999153199679   0.3633123303601133  -0.6280813036558969
   -0.0627173940855819   0.0978687227895606  -0.1121353257832703
   -0.9320704770797352   0.8701158972944610  -0.5151092683615767
   -0.5982329759338979   0.8397074326741666  -0.0309932376840310
   -0.1014420544133883   0.6303059085109569  -0.0298662504885114
   -0.4096561428328058   0.1295344290529151  -0.5328084285455394
   -0.8982767441422702   0.3531584146086993  -0.5362951507286559
   -0.5578116165604557   0.3834508451275094  -0.9883030987909994
   -0.4377267037674024   0.5932551491104138  -0.4918748711544889
