Mg   Ge   N
1.0
  -5.5718899770622725 0.0078128765989959 -1.19380136e-08
  0.0209090662992286 6.751941374039412 0.0061753078377302
  -0.005325322127753 -9.748022019e-07 -5.21875657990374
 Mg  Ge  N 
4 4 8 
direct
   -0.4277703077261436   0.1107967510856198  -0.1204840787269615
   -0.9221703136923775   0.3643794110565419  -0.0352770594603763
   -0.5723031021368031   0.8639409496216331  -0.6210800710066642
   -0.0752899963621501   0.6117051530210231  -0.5218862261495278
   -0.9327068349204349   0.8609606269298713  -0.0014469467329977
   -0.0680257750918649   0.1133442522350393  -0.5017652942769846
   -0.4321579318487284   0.6137626040024245  -0.1331902278273934
   -0.5686433550624530   0.3612897809128586  -0.6327544436554099
   -0.0532597872893026   0.0913671995415688  -0.1411089053686720
   -0.9477434139302368   0.8824812740639052  -0.6416713381209447
   -0.5928045369910970   0.8435777236611502  -0.0327830600244774
   -0.0936023084519384   0.6305742177517583  -0.0988245405806500
   -0.4075358998362612   0.1313790496334086  -0.5330166056529348
   -0.9053344437741324   0.3453621951425820  -0.5887591294929760
   -0.5519637631837503   0.3815178320643176  -0.9928457350131533
   -0.4486748723067353   0.5935630137365030  -0.4931897583297146
