Mg   Ge   N                             
   1.00000000000000     
     0.0366951214688451   -0.0000004148768101    5.2187020413989700
     5.5882769721670851   -0.0025385481358058    0.0000001570277449
    -0.0033987810213026    6.7511229934020527   -0.0998508060363083
   Mg   Ge   N 
     4     4     8
Direct
  0.0349282139231141  0.4112819253296092  0.1033666600198436
  0.0290587839757073  0.9284451084416868  0.3640170015936363
  0.5088123785356097  0.5876935044773929  0.8636273939854193
  0.5092636135938338  0.0818192009071253  0.6123250661478634
  0.0033314876434466  0.9251351098337368  0.8622265985218751
  0.5081770908721689  0.0725063320175957  0.1116866532858458
  0.9973258008201623  0.4209265297451493  0.6242330218978096
  0.6465372393409262  0.5742289290632130  0.3559220718547217
  0.1479544113611916  0.0578392390167642  0.0915358978009281
  0.6443863312953306  0.9377417042792723  0.8817440857507499
  0.1064036525569056  0.6014558290902271  0.8447149354107379
  0.1052699311195635  0.0982177559785834  0.6352669488911888
  0.5999949284822416  0.3982675733804705  0.1218632436224942
  0.6034505339813270  0.9096338273376492  0.3454410410056830
  0.0240939398289614  0.5627292910887121  0.3771332362859702
  0.6210950830877032  0.4320647826170538  0.6048981783845154
 
             NaN             NaN             NaN
             NaN             NaN             NaN
             NaN             NaN             NaN
             NaN             NaN             NaN
             NaN             NaN             NaN
             NaN             NaN             NaN
             NaN             NaN             NaN
             NaN             NaN             NaN
             NaN             NaN             NaN
             NaN             NaN             NaN
             NaN             NaN             NaN
             NaN             NaN             NaN
             NaN             NaN             NaN
             NaN             NaN             NaN
             NaN             NaN             NaN
             NaN             NaN             NaN
