Mg   Ge   N                             
   1.00000000000000     
    -0.0263874526676760    0.0000027434845807    5.2188259925461704
     5.5690515261940261   -0.0012253193144473   -0.0000001727216445
    -0.0013181206536799    6.7069268519647336   -0.0733448363883726
   Mg   Ge   N 
     4     4     8
Direct
  0.1136137728701277  0.4203770901752910  0.1092002740242645
  0.1136509068523485  0.9132813346426691  0.3666897898415763
  0.6281515555371956  0.5843606841471017  0.8617861437771753
  0.6284202461011397  0.0870245578930232  0.6129249369426235
  0.1327898642473229  0.9256722240086575  0.8600759008308075
  0.5950686322994443  0.0749775175430650  0.1172181317995376
  0.1319406734445006  0.4244355261415403  0.6126523956380818
  0.6303341570503849  0.5725805620619882  0.3635484274485234
  0.0209104308642958  0.0611085147406921  0.0959574158047851
  0.4978590355132196  0.9358109437797106  0.8760737271268967
  0.0304647462678439  0.5994496595029295  0.8398816354050884
  0.0305762329035480  0.0995362532419202  0.6298346421644077
  0.5268271306213365  0.4065498296883757  0.1289968529067557
  0.5277757161477498  0.8986378876388647  0.3503387266531544
  0.9894625074903891  0.5582919458892800  0.3811782978519634
  0.4922378122069707  0.4378921115091330  0.5936447362438497
 
             NaN             NaN             NaN
             NaN             NaN             NaN
             NaN             NaN             NaN
             NaN             NaN             NaN
             NaN             NaN             NaN
             NaN             NaN             NaN
             NaN             NaN             NaN
             NaN             NaN             NaN
             NaN             NaN             NaN
             NaN             NaN             NaN
             NaN             NaN             NaN
             NaN             NaN             NaN
             NaN             NaN             NaN
             NaN             NaN             NaN
             NaN             NaN             NaN
             NaN             NaN             NaN
