Mg   Ge   N
1.0
  -5.5938673454089 0.0007889189332044 -1.438377693e-07
  -0.0012078806339527 6.7548961335277315 -0.0901655984368661
  -0.0323978998154097 2.885423545e-07 -5.21870699944486
 Mg  Ge  N 
4 4 8 
direct
   -0.4103454674805623   0.1037274741583757  -0.0297640493464751
   -0.9282207071213686   0.3628842611372055  -0.0257829002480611
   -0.5881446343192559   0.8647756924561550  -0.5136225560946077
   -0.0798063700461464   0.6109925700547297  -0.5136339845948051
   -0.9264552517083899   0.8631530178780118  -0.0028147008758788
   -0.0733229408470499   0.1121138961939075  -0.5085330982852746
   -0.4224936824200247   0.6224549350815604  -0.0226851398906201
   -0.5720681740579046   0.3590636735092298  -0.6418636132986788
   -0.0587990060484304   0.0916642460914268  -0.1479692065134638
   -0.9387078486154574   0.8820112923938251  -0.6446257390980692
   -0.6025653445468505   0.8473376045552307  -0.1060047933194670
   -0.0955097019817156   0.6341539105841963  -0.1051691828089988
   -0.3982487550786595   0.1223583582083178  -0.6020564014108410
   -0.9085297676177068   0.3439699870304448  -0.6047397462814020
   -0.5629624338205513   0.3773623468986373  -0.0221774136417910
   -0.4338065568942210   0.6019787682280526  -0.5986408947097702
