Mg   Ge   N
1.0
  -5.577504005388991 0.0005450224005517 1.463416934e-07
  -0.0004411737560681 6.7208130312928045 -0.0830368468969198
  0.0302005973452748 -2.4908156695e-06 -5.21881607645439
 Mg  Ge  N 
4 4 8 
direct
   -0.4228220280991740   0.1089195366919236  -0.1103892467046395
   -0.9122282345668652   0.3681774680145325  -0.1096043846135385
   -0.5841214110716935   0.8613924875540652  -0.6293714086470759
   -0.0875347096385181   0.6130063292346023  -0.6299157053620555
   -0.9242488717510495   0.8572843613031622  -0.1350448911367753
   -0.0758250268554715   0.1195778004701375  -0.5385027541549924
   -0.4241338716634864   0.6127256860904258  -0.1322727108446680
   -0.5720110333787005   0.3640449660279645  -0.6311501983510366
   -0.0618135489134098   0.0968978344699697  -0.0646936599438405
   -0.9335039392896601   0.8725614639315546  -0.5044993994991226
   -0.5991292717306587   0.8391421318865857  -0.0310299226991216
   -0.0998093818919998   0.6295691756023484  -0.0310638351275763
   -0.4098158432280806   0.1286816524562427  -0.5294560253958387
   -0.8975293018292787   0.3529917458082427  -0.5308530093045747
   -0.5579251480094265   0.3817151206853914  -0.9896868542136376
   -0.4375350206867549   0.5933142742323334  -0.4925494144193347
