Mg   Ge   N                             
   1.00000000000000     
     0.0270346162214613    0.0000000904610124    5.2187218735825196
     5.5971336767303281    0.0021622980165636    0.0000001042678426
     0.0024409633358243    6.7525590382098706   -0.0759211510331403
   Mg   Ge   N 
     4     4     8
Direct
  0.0272697205017028  0.4098510705640477  0.1036158508910388
  0.0235713933887441  0.9283199647336035  0.3626939775310535
  0.5192008700083129  0.5894821589307744  0.8674863185881578
  0.5180319265794801  0.0761203541412702  0.6105065983050291
  0.0024244385418485  0.9273104936664720  0.8633357858393238
  0.5084841285596337  0.0735594713206978  0.1126520722597868
  0.1082479081570986  0.4269373124308962  0.6162090770257751
  0.6390229288839273  0.5693794503320277  0.3631171610037280
  0.1477472693655622  0.0590972318782693  0.0920041620487787
  0.6445355264114260  0.9392915267700738  0.8823214032462748
  0.1018156297434106  0.6032492923261481  0.8499610743685827
  0.1021182585698203  0.0926639191204028  0.6335416165911981
  0.6020187602452223  0.3982597111847077  0.1232989337840994
  0.6050305065446335  0.9075383466646965  0.3433973091038857
  0.0101798308531540  0.5608999499382454  0.3811193815831659
  0.5303843240642359  0.4380263886019417  0.5947413122894256
 
             NaN             NaN             NaN
             NaN             NaN             NaN
             NaN             NaN             NaN
             NaN             NaN             NaN
             NaN             NaN             NaN
             NaN             NaN             NaN
             NaN             NaN             NaN
             NaN             NaN             NaN
             NaN             NaN             NaN
             NaN             NaN             NaN
             NaN             NaN             NaN
             NaN             NaN             NaN
             NaN             NaN             NaN
             NaN             NaN             NaN
             NaN             NaN             NaN
             NaN             NaN             NaN
