Mg   Ge   N
1.0
  -5.580120554649794 -0.0036794434205469 -3.83179647e-08
  -0.0192238457530621 6.75839630405631 0.0078328225934282
  0.0068354220950673 -7.221332906e-07 -5.21874666381196
 Mg  Ge  N 
4 4 8 
direct
   -0.4170874803820844   0.1095183358111621  -0.0734114486991295
   -0.9275701741949877   0.3643398330165368  -0.0175492508697320
   -0.5781963506527503   0.8634949207018431  -0.6034376537513875
   -0.0725668503955590   0.6109355770361831  -0.5164588058701581
   -0.9316740209751700   0.8611651831632320  -0.0040725562841469
   -0.0699240731471328   0.1136226323293315  -0.5044882493837791
   -0.4328035625906203   0.6140558933569654  -0.1353643500396280
   -0.5686479620710383   0.3624358437022049  -0.6350536742056547
   -0.0537492972145444   0.0934856592442335  -0.1444697765392768
   -0.9480524976513749   0.8814203146060064  -0.6437103001948720
   -0.5953270076364388   0.8449785107102548  -0.0447551822763188
   -0.0933871152102012   0.6316521112428866  -0.1037052071907815
   -0.4020164832087333   0.1285815059303159  -0.5681566109504156
   -0.9072073477782480   0.3433305928406933  -0.6032817290827907
   -0.5552023260043072   0.3851551648239889  -0.9967328161686420
   -0.4465740934914143   0.5918299559459704  -0.4954358089124308
