Mg   Ge   N
1.0
  -5.594610494192236 0.0022558147683259 5.40118643e-08
  -0.002647282671307 6.7463914758762344 -0.0559316296195043
  0.0204534860072076 -1.60647448e-06 -5.21878137013318
 Mg  Ge  N 
4 4 8 
direct
   -0.4280399954194452   0.1117706374693912  -0.1136411529422417
   -0.9101555718765322   0.3715332166712693  -0.1098368151820251
   -0.5731313586567267   0.8641009318221119  -0.6158420618316961
   -0.0902970431160938   0.6047233653832997  -0.6134085403254560
   -0.9297089701462952   0.8624179926692032  -0.0025627844533612
   -0.0689838432504831   0.1112499773378247  -0.4977349019700458
   -0.4273527656106020   0.6126587058548976  -0.1312427624994904
   -0.5731103557191931   0.3621792163669571  -0.6287088516351902
   -0.0592138237283713   0.0911284543167427  -0.1328044579238752
   -0.9402914639748825   0.8838097782822550  -0.6300556446567555
   -0.5932789692020902   0.8422047866731363  -0.0334227615567367
   -0.1027194648990060   0.6251945796962401  -0.0351857616283956
   -0.4067918086256327   0.1316097581776751  -0.5316791234357997
   -0.8976711323409052   0.3504225416119777  -0.5349350658373975
   -0.5593286814413689   0.3824805157774137  -0.9887052824383865
   -0.4399113945966172   0.5925175763489878  -0.4903174521009818
