Mg   Ge   N
1.0
  -5.584757064029258 -0.0028558191135997 -5.15079403e-08
  -0.0186925354143518 6.761096401813985 0.0072587778919879
  0.0072516443692183 -5.95798835e-07 -5.21874170576608
 Mg  Ge  N 
4 4 8 
direct
   -0.4131471678912751   0.1082251148781448  -0.0495142842096111
   -0.9276149328140115   0.3642645867490694  -0.0190658516131502
   -0.5813415659972889   0.8648156539126031  -0.5847292523099417
   -0.0726299920180220   0.6108107023203364  -0.5176945423771465
   -0.9306882282988788   0.8612171984062181  -0.0052928256508998
   -0.0709906580429771   0.1133875308786003  -0.5052070485470315
   -0.4326610440358363   0.6136992915696333  -0.1357260810398830
   -0.5691644489011917   0.3630275557125900  -0.6358620061502167
   -0.0558410964585951   0.0934021147088783  -0.1455345376794966
   -0.9467439934973859   0.8814415861180602  -0.6446854600116405
   -0.5972895683969413   0.8464669288112527  -0.0587543657362814
   -0.0937308726046601   0.6318078343532366  -0.1038347589112332
   -0.3991652219823186   0.1276201102291277  -0.5861794538735625
   -0.9070208061290281   0.3430068192907936  -0.6033303979088553
   -0.5567973401090238   0.3859892751602173  -0.9981389414648446
   -0.4451597054271630   0.5908197313630260  -0.4965336129353463
