Mg   Ge   N
1.0
  -5.597134888664886 0.0021646835260611 6.72018399e-08
  -0.0024532156416035 6.752495907679775 -0.0758052823041998
  0.0270379541117294 -1.7328089357e-06 -5.21878632817906
 Mg  Ge  N 
4 4 8 
direct
   -0.4283152514762714   0.1123040751397641  -0.1127004366790425
   -0.9098517040052995   0.3713836984165425  -0.1090059177727312
   -0.5761023730885411   0.8644884106984765  -0.6182120993467287
   -0.0894917653899943   0.6074961924531131  -0.6170391704726726
   -0.9269555671967252   0.8588158887753493  -0.0278048193907017
   -0.0693783556939445   0.1118798624203556  -0.4972596585449457
   -0.4273095637507587   0.6116719264443706  -0.1338048116292241
   -0.5735578615037467   0.3623523525685414  -0.6277808171245549
   -0.0608896693894800   0.0938634979716906  -0.1261407241114224
   -0.9380376928814453   0.8802760268486344  -0.6060634467722628
   -0.5926656541674679   0.8414646303037890  -0.0341332533819663
   -0.1032453617977003   0.6250366251612379  -0.0344420537567187
   -0.4075371032028937   0.1316030713215059  -0.5312383330310486
   -0.8982560093079045   0.3516956847209216  -0.5342484347575064
   -0.5590994635468935   0.3829933953358613  -0.9885087115387500
   -0.4392932462051544   0.5926766958792340  -0.4917007321075580
