Mg   Ge   N
1.0
  -5.54546209458485 5.40739551e-08 1.991015957e-07
  -1.356422705e-07 6.65177994379315 3.8278168495e-06
  1.725502549e-07 -2.996153492e-06 -5.21883590863795
 Mg  Ge  N 
4 4 8 
direct
   -0.4150585282099967   0.1109613434834529  -0.1290896391924434
   -0.9150583613169516   0.3640400795913123  -0.1290896340962320
   -0.5849382180057036   0.8640396673513350  -0.6290896101129421
   -0.0849380120472105   0.6109614211863105  -0.6290895692940168
   -0.9262119165156335   0.8617419607989306  -0.1361473089876455
   -0.0737867485191330   0.1132580557886698  -0.6361468611966358
   -0.4262100751350175   0.6132579381955168  -0.1361468320469896
   -0.5737847262796621   0.3617415650261862  -0.6361471489421647
   -0.0606868721724965   0.0948627491389331  -0.9962825750043152
   -0.9393094108801207   0.8801380762710949  -0.4962821777394383
   -0.6000058663455903   0.8445008172751614  -0.0335255174485241
   -0.1000061686864413   0.6304999401942625  -0.0335249131608464
   -0.3999906486331710   0.1304995343798510  -0.5335250263865490
   -0.8999908533201335   0.3445007592409298  -0.5335255269523741
   -0.5606872270952293   0.3801379349074879  -0.9962820071287833
   -0.4393096509957388   0.5948622261840627  -0.4962823344983818
