Mg   Ge   N
1.0
  -5.584874301578238 0.0061027747820669 1.44419376e-08
  0.0225819414904544 6.761021741829674 0.0073370379077787
  -0.0073265102651218 -1.2274711131e-06 -5.21876649599551
 Mg  Ge  N 
4 4 8 
direct
   -0.4276194888956971   0.1107399125994542  -0.1171511850760807
   -0.9130422626943206   0.3668232263443303  -0.0873732942852380
   -0.5726301860405966   0.8641906994993415  -0.6185281994944454
   -0.0814440030193237   0.6101184935224655  -0.5522512673749295
   -0.9326545966743875   0.8613207092396425  -0.0005179258700638
   -0.0691796825087217   0.1119632100188444  -0.5003616587270945
   -0.4306481269956599   0.6137794931340519  -0.1309301182451667
   -0.5710181308335699   0.3616209526699506  -0.6310338863459134
   -0.0568418252057007   0.0889975815613554  -0.1380783737410999
   -0.9451142604584352   0.8842107665251121  -0.6396826782677006
   -0.5937392550063610   0.8431898687111687  -0.0324195435638976
   -0.0973534907751007   0.6284746987155168  -0.0769677962557613
   -0.4070155849715221   0.1320031595199705  -0.5329264567552969
   -0.8990917564508004   0.3474075893616997  -0.5496291149179268
   -0.5559062347067524   0.3816039203569363  -0.9906944930920651
   -0.4466877573674539   0.5935577526803683  -0.4915374284071716
