Mg   Ge   N
1.0
  -5.586268136512521 -0.0011191665029126 -6.46979159e-08
  -0.0144368773311945 6.759559174376394 0.0040075407418598
  0.0053093712729499 -4.694643793e-07 -5.21873674772019
 Mg  Ge  N 
4 4 8 
direct
   -0.4117938104099739   0.1068759284919922  -0.0390255941305573
   -0.9277703437944365   0.3641091344984145  -0.0199840374816590
   -0.5850319016141331   0.8672880468184699  -0.5567030027285267
   -0.0724730601516161   0.6107775087670202  -0.5190571608669403
   -0.9292127893292836   0.8615025732239374  -0.0062472979435920
   -0.0715121153202396   0.1131801456077247  -0.5059451284657561
   -0.4319795388560503   0.6128636063804557  -0.1361558770379033
   -0.5691498049083793   0.3630732531657979  -0.6365119247138176
   -0.0572183439386498   0.0932658030907366  -0.1463081616455254
   -0.9443560648505741   0.8815151049666120  -0.6459229799389777
   -0.5997914284704485   0.8484540944725512  -0.0803345072977894
   -0.0936666411122389   0.6319887511044117  -0.1038229158686231
   -0.3981018783070397   0.1265579156751080  -0.5937347915325066
   -0.9068106434545340   0.3427858147045864  -0.6035169523104568
   -0.5576050495361186   0.3860775761806590  -0.9988480368299901
   -0.4435132285508818   0.5896867773132446  -0.4979650516265039
