Mg   Ge   N                             
   1.00000000000000     
    -0.0068354220950673    0.0000007221332906    5.2187466638119604
     5.5801205546497936    0.0036794434205469    0.0000000383179647
    -0.0192238457530621    6.7583963040563102    0.0078328225934282
   Mg   Ge   N 
     4     4     8
Direct
  0.0734114486991295  0.4170874803820844  0.1095183358111621
  0.0175492508697320  0.9275701741949877  0.3643398330165368
  0.6034376537513875  0.5781963506527503  0.8634949207018431
  0.5164588058701581  0.0725668503955590  0.6109355770361832
  0.0040725562841469  0.9316740209751700  0.8611651831632321
  0.5044882493837791  0.0699240731471328  0.1136226323293315
  0.1353643500396280  0.4328035625906203  0.6140558933569655
  0.6350536742056546  0.5686479620710383  0.3624358437022050
  0.1444697765392768  0.0537492972145444  0.0934856592442335
  0.6437103001948720  0.9480524976513750  0.8814203146060066
  0.0447551822763188  0.5953270076364385  0.8449785107102549
  0.1037052071907815  0.0933871152102012  0.6316521112428866
  0.5681566109504155  0.4020164832087333  0.1285815059303159
  0.6032817290827905  0.9072073477782477  0.3433305928406932
  0.9967328161686420  0.5552023260043072  0.3851551648239890
  0.4954358089124308  0.4465740934914144  0.5918299559459705
 
             NaN             NaN             NaN
             NaN             NaN             NaN
             NaN             NaN             NaN
             NaN             NaN             NaN
             NaN             NaN             NaN
             NaN             NaN             NaN
             NaN             NaN             NaN
             NaN             NaN             NaN
             NaN             NaN             NaN
             NaN             NaN             NaN
             NaN             NaN             NaN
             NaN             NaN             NaN
             NaN             NaN             NaN
             NaN             NaN             NaN
             NaN             NaN             NaN
             NaN             NaN             NaN
