Mg   Ge   N
1.0
  -5.595903606892035 0.0002345121965445 9.35817911e-08
  -6.02068143129e-05 6.755536425486831 -0.0867469056757615
  0.031051325710275 -1.9854778469e-06 -5.21879624427084
 Mg  Ge  N 
4 4 8 
direct
   -0.4282804308491627   0.1124418927302821  -0.1115276797580907
   -0.9099756780685949   0.3711901485948347  -0.1077116137933967
   -0.5789836812927799   0.8644609526478851  -0.6206929897797068
   -0.0883747729011432   0.6098090937284815  -0.6203046903908618
   -0.9236083513878179   0.8540241419205233  -0.0856106618178658
   -0.0706948084201530   0.1139214360164400  -0.4960985244643099
   -0.4270296039953660   0.6114036777821629  -0.1341474357328630
   -0.5736077141085949   0.3625697767958109  -0.6273412532305856
   -0.0625919351005853   0.0968032840685618  -0.1173063194519675
   -0.9354213953768844   0.8757961959308123  -0.5607794844131923
   -0.5938610113926484   0.8411147088113875  -0.0320502596467775
   -0.1031507096917387   0.6262742623739342  -0.0314611451293664
   -0.4081432449743348   0.1314704413255333  -0.5311290323883424
   -0.8984121402211684   0.3525187694300296  -0.5339040414756686
   -0.5589249753703873   0.3833205192826759  -0.9882827886019789
   -0.4389261894528602   0.5928827330200332  -0.4917355003428485
