supercell of 100% icsd_608626.cif, 0% i 
   1.00000000000000     
    -9.2414776158855307   -0.0019780723428280   -0.0012776893452419
    -4.6190270916495946    8.0101534574604756   -0.0037101491921742
    -0.0013831917191998    0.0038034827291802   -9.9013862229282577
   Al   Si   Be   N 
    28     4     4    36
Direct
  0.1146637867218487  0.0926411013484554  0.2987466362033331
  0.7892210860047584  0.0940456170272199  0.7978519011619127
  0.4451433673259402  0.0924077418884011  0.3021060339914996
  0.2241010403019175  0.2005332416256920  0.5494931107920138
  0.7767952462011394  0.0937024369586013  0.2978513972615957
  0.8901157309789767  0.2106917008801119  0.0347333884771004
  0.4441205732447386  0.0894278288520738  0.7948812988809593
  0.5542130680522774  0.2044942747478231  0.5460238505392212
  0.1135354209455670  0.4257158818018709  0.2975404131412205
  0.2201611564175607  0.5424356838506696  0.0369675242227814
  0.4443348929989099  0.4277579048959552  0.2966482406098407
  0.5602154939391113  0.5383592166231423  0.0387444274887372
  0.1049910731169561  0.4303969676973551  0.7979605793983353
  0.2200670026696869  0.5435433895003214  0.5501790601506968
  0.7758919641320574  0.4282857727723055  0.2999212518325152
  0.8857819372915401  0.5373318516601984  0.0401462937472772
  0.4430714949327168  0.4341528462657180  0.7963100410956088
  0.5553242884598717  0.5435782510438969  0.5496747040459340
  0.1110207326957138  0.7628105003739378  0.2969733255160634
  0.2217211890196111  0.8721605896961862  0.0318838443765941
  0.7782472290595877  0.7562842567742578  0.7925707119382608
  0.8917510223891227  0.8685299668879978  0.5501511651247313
  0.4430183705139115  0.7629201220690547  0.2995612415707427
  0.5574237929192662  0.8676881608677931  0.0449723260200088
  0.2220774041377211  0.8726786042108756  0.5549382882921066
  0.7747561838937926  0.7639284363116587  0.3010149471226597
  0.8906740442384802  0.8682679832612479  0.0364522262750384
  0.4408086849173785  0.7633818773452248  0.7918041199120367
  0.2202606026218064  0.2071080181439839  0.0387143667908205
  0.8928805799043573  0.2064927336471243  0.5502113100446664
  0.5547942428418366  0.2076983380330759  0.0414320165102779
  0.8876517937243946  0.5385126800655300  0.5472630387272801
  0.1019175629931439  0.0910511622432324  0.7958057861932772
  0.7832758097872201  0.4233474358263081  0.8015461340702430
  0.1104727311721092  0.7663415518685781  0.7903393618949011
  0.5517481479705495  0.8695786692527960  0.5416651221583280
  0.2225199511544460  0.2057245105176477  0.3574091064970020
  0.1181737404223213  0.1007663135231525  0.1038080372798618
  0.8933924789313679  0.2116590735631902  0.8492527500658724
  0.7823756522063334  0.1034348248803738  0.6022736996444493
  0.5554942852664908  0.2057531014411396  0.3546108241683825
  0.4383442793565209  0.1067815259804732  0.0999040179886634
  0.2210753174912767  0.2040301911165656  0.8622317256097105
  0.0988571109328618  0.1022331018018505  0.6071659722402458
  0.8901124803156222  0.2043456353075257  0.3657022147393008
  0.7662376883955488  0.1004871773072296  0.1014479548813227
  0.5572491044384265  0.2044632679648828  0.8633154521656508
  0.4486997880282573  0.0880273831707612  0.6050733038058667
  0.2219164741254076  0.5387160682240975  0.3546696827684528
  0.1164602811801743  0.4163225139932081  0.1020431636565604
  0.8831792663656373  0.5343772416190049  0.8526672572511984
  0.7898354082336425  0.4218015933777295  0.5983347157267431
  0.5546887415373192  0.5382730501697139  0.3561748513701275
  0.4497906987084548  0.4166217483561141  0.1002710565545755
  0.2179572993816450  0.5444235888849889  0.8494908587106167
  0.0996077998967309  0.4315310223240729  0.6022454134110475
  0.8907067086574258  0.5373891264375814  0.3650993948202128
  0.7796195973844320  0.4254748322212620  0.1106423308240423
  0.5655115020996817  0.5351626495868018  0.8495675858379457
  0.4457343622262258  0.4261077358355720  0.6050836552427157
  0.2204188008669945  0.8738179690738193  0.3583017275458502
  0.1104118360539204  0.7630251282473068  0.1052027816520038
  0.8923527221168612  0.8688953778623656  0.8472223559330629
  0.7781394105506934  0.7490027728670867  0.5979571321136277
  0.5545235935724051  0.8728970852591758  0.3579350234909242
  0.4422032088100494  0.7604432036237796  0.1051945355763806
  0.2131803678951982  0.8784713662611026  0.8445304641651745
  0.1103439382088212  0.7615736467374603  0.6092065080914182
  0.8883624566535602  0.8735766968704866  0.3569000238802928
  0.7803564958365570  0.7584411324279259  0.1079997350973372
  0.5568016164799943  0.8710956638018459  0.8571781910410863
  0.4491167876831454  0.7665698830440846  0.6008070105735968
 
  0.00000000E+00  0.00000000E+00  0.00000000E+00
  0.00000000E+00  0.00000000E+00  0.00000000E+00
  0.00000000E+00  0.00000000E+00  0.00000000E+00
  0.00000000E+00  0.00000000E+00  0.00000000E+00
  0.00000000E+00  0.00000000E+00  0.00000000E+00
  0.00000000E+00  0.00000000E+00  0.00000000E+00
  0.00000000E+00  0.00000000E+00  0.00000000E+00
  0.00000000E+00  0.00000000E+00  0.00000000E+00
  0.00000000E+00  0.00000000E+00  0.00000000E+00
  0.00000000E+00  0.00000000E+00  0.00000000E+00
  0.00000000E+00  0.00000000E+00  0.00000000E+00
  0.00000000E+00  0.00000000E+00  0.00000000E+00
  0.00000000E+00  0.00000000E+00  0.00000000E+00
  0.00000000E+00  0.00000000E+00  0.00000000E+00
  0.00000000E+00  0.00000000E+00  0.00000000E+00
  0.00000000E+00  0.00000000E+00  0.00000000E+00
  0.00000000E+00  0.00000000E+00  0.00000000E+00
  0.00000000E+00  0.00000000E+00  0.00000000E+00
  0.00000000E+00  0.00000000E+00  0.00000000E+00
  0.00000000E+00  0.00000000E+00  0.00000000E+00
  0.00000000E+00  0.00000000E+00  0.00000000E+00
  0.00000000E+00  0.00000000E+00  0.00000000E+00
  0.00000000E+00  0.00000000E+00  0.00000000E+00
  0.00000000E+00  0.00000000E+00  0.00000000E+00
  0.00000000E+00  0.00000000E+00  0.00000000E+00
  0.00000000E+00  0.00000000E+00  0.00000000E+00
  0.00000000E+00  0.00000000E+00  0.00000000E+00
  0.00000000E+00  0.00000000E+00  0.00000000E+00
  0.00000000E+00  0.00000000E+00  0.00000000E+00
  0.00000000E+00  0.00000000E+00  0.00000000E+00
  0.00000000E+00  0.00000000E+00  0.00000000E+00
  0.00000000E+00  0.00000000E+00  0.00000000E+00
  0.00000000E+00  0.00000000E+00  0.00000000E+00
  0.00000000E+00  0.00000000E+00  0.00000000E+00
  0.00000000E+00  0.00000000E+00  0.00000000E+00
  0.00000000E+00  0.00000000E+00  0.00000000E+00
  0.00000000E+00  0.00000000E+00  0.00000000E+00
  0.00000000E+00  0.00000000E+00  0.00000000E+00
  0.00000000E+00  0.00000000E+00  0.00000000E+00
  0.00000000E+00  0.00000000E+00  0.00000000E+00
  0.00000000E+00  0.00000000E+00  0.00000000E+00
  0.00000000E+00  0.00000000E+00  0.00000000E+00
  0.00000000E+00  0.00000000E+00  0.00000000E+00
  0.00000000E+00  0.00000000E+00  0.00000000E+00
  0.00000000E+00  0.00000000E+00  0.00000000E+00
  0.00000000E+00  0.00000000E+00  0.00000000E+00
  0.00000000E+00  0.00000000E+00  0.00000000E+00
  0.00000000E+00  0.00000000E+00  0.00000000E+00
  0.00000000E+00  0.00000000E+00  0.00000000E+00
  0.00000000E+00  0.00000000E+00  0.00000000E+00
  0.00000000E+00  0.00000000E+00  0.00000000E+00
  0.00000000E+00  0.00000000E+00  0.00000000E+00
  0.00000000E+00  0.00000000E+00  0.00000000E+00
  0.00000000E+00  0.00000000E+00  0.00000000E+00
  0.00000000E+00  0.00000000E+00  0.00000000E+00
  0.00000000E+00  0.00000000E+00  0.00000000E+00
  0.00000000E+00  0.00000000E+00  0.00000000E+00
  0.00000000E+00  0.00000000E+00  0.00000000E+00
  0.00000000E+00  0.00000000E+00  0.00000000E+00
  0.00000000E+00  0.00000000E+00  0.00000000E+00
  0.00000000E+00  0.00000000E+00  0.00000000E+00
  0.00000000E+00  0.00000000E+00  0.00000000E+00
  0.00000000E+00  0.00000000E+00  0.00000000E+00
  0.00000000E+00  0.00000000E+00  0.00000000E+00
  0.00000000E+00  0.00000000E+00  0.00000000E+00
  0.00000000E+00  0.00000000E+00  0.00000000E+00
  0.00000000E+00  0.00000000E+00  0.00000000E+00
  0.00000000E+00  0.00000000E+00  0.00000000E+00
  0.00000000E+00  0.00000000E+00  0.00000000E+00
  0.00000000E+00  0.00000000E+00  0.00000000E+00
  0.00000000E+00  0.00000000E+00  0.00000000E+00
  0.00000000E+00  0.00000000E+00  0.00000000E+00
