supercell of 100% icsd_608626.cif, 0% i 
   1.00000000000000     
    -9.2728144254126050   -0.0203307911022841    0.0100462726873437
    -4.6188232965901790    8.0066871222637204   -0.0028340261647467
     0.0107584472754168    0.0097264288955520   -9.8948759762099616
   Al   Si   Be   N 
    28     4     4    36
Direct
  0.1126146607932412  0.0893966597137776  0.2960057241795155
  0.2196128027675428  0.2098445165854841  0.0453321662619786
  0.8915441236974004  0.2097109881873678  0.5454772053219443
  0.4430411908907601  0.0941200297524745  0.2976595193043821
  0.5543881914782816  0.2075464095371231  0.0475415900759941
  0.1145883064566604  0.0881196125129620  0.7924516221457480
  0.2154508147282925  0.2170683352116782  0.5432738979556007
  0.7852292560016565  0.0861436444732533  0.3009934555875020
  0.8886586172825091  0.2048217847023821  0.0471311086569273
  0.4417137667948268  0.0961873837882621  0.7942237488540798
  0.1090401721834056  0.4364976717587439  0.3039805045707809
  0.2165470163364986  0.5443288837217608  0.0455216209263014
  0.7799163009873240  0.4316502669195330  0.7888250269434067
  0.4330335582638867  0.4379802064761691  0.3039339446207592
  0.5538420225432930  0.5399283895258975  0.0469547661023455
  0.1093529620427205  0.4378646789072107  0.7836798367099576
  0.7784751297348862  0.4302569855217584  0.2997631623039894
  0.8922504359546295  0.5379909577168718  0.0476963679030149
  0.4373197564525881  0.4335968192318802  0.7892243890245680
  0.5616872250844196  0.5342549490173170  0.5454765438261902
  0.2189275011256200  0.8693930013811766  0.0446127720337586
  0.7808136579046021  0.7573200356098369  0.7912544914379467
  0.9036543882060073  0.8527228052152012  0.5474015806151158
  0.4391276533294288  0.7616084077789864  0.2963911747738521
  0.5539488178181742  0.8726874951202817  0.0465315341611188
  0.2183191940712987  0.8640147807747809  0.5430163522288112
  0.7848518345565694  0.7591169333377223  0.3024789742978555
  0.5634073739822156  0.8668624845968864  0.5445928837160352
  0.7750330211215015  0.0938689296672521  0.7963271891879344
  0.5545866674735365  0.2074748825641564  0.5468041710467872
  0.8888057879036992  0.8739443585627669  0.0451802216887103
  0.4413789438514257  0.7612882326494343  0.7932764492021107
  0.8943623420394857  0.5377495981905724  0.5412738579845282
  0.1994642730803307  0.5501469207867373  0.5357637437814304
  0.1099473684411763  0.7593731512796893  0.3041094984222994
  0.1410503528183540  0.7401199398431260  0.7815844007542552
  0.2223360869439617  0.2052027459843586  0.3525529577872533
  0.1105398236781951  0.0937697290636450  0.1005987363170249
  0.8817591685371866  0.1988050282221252  0.8506853813095674
  0.7693043322887689  0.0952013287438831  0.6135964354319512
  0.5589719863608167  0.2038634322980997  0.3662945732073482
  0.4449388756719301  0.0953913451170010  0.1038817594314594
  0.2202158235256988  0.2084123417221022  0.8516051693608304
  0.1142286337180138  0.0910432724429384  0.6031196035674569
  0.8886940615974339  0.2047202219821216  0.3546090799768393
  0.7808424910421010  0.0848181109271380  0.1055082228264794
  0.5646498957566521  0.2033586915876739  0.8532122717259512
  0.4511781592378412  0.0993855625137314  0.6015633957273607
  0.2149649790914623  0.5520265979525334  0.3585454088660711
  0.1111208752078170  0.4289941918944820  0.1078467382253407
  0.8903728539176257  0.5388029144157400  0.8576610846064838
  0.7835805322122056  0.4303449420365553  0.6016810436548781
  0.5555701995314166  0.5400116017012238  0.3557871952041864
  0.4433066079084682  0.4283668593159717  0.1073275917265519
  0.2213269599833083  0.5453446723643296  0.8541221941181831
  0.1055766730886205  0.4381583603623440  0.5955146116145684
  0.8873637687827127  0.5397254586993370  0.3577783427574204
  0.7763999477238812  0.4277331693416784  0.1035413016699565
  0.5507766691914284  0.5499141870824147  0.8500489642233049
  0.4560869994045618  0.4128185741540307  0.6007197861095364
  0.2187025265299667  0.8672207670077015  0.3522963347084982
  0.0941948398905339  0.7705426501000332  0.1021316561979262
  0.8709765681349495  0.8901112178016746  0.8635602490444043
  0.7815140074504896  0.7537879743775946  0.6041220430520724
  0.5560983986289472  0.8709200914705661  0.3536633491739636
  0.4427988059335206  0.7616081304668896  0.1042564441652232
  0.2337506513519827  0.8603354331045168  0.8494277950521862
  0.1190504271298281  0.7491789896386294  0.6133126085858009
  0.8977263678798550  0.8683341111642733  0.3581910951778227
  0.7818505524450856  0.7693526584767625  0.1013373667765052
  0.5481478052053319  0.8668615856036297  0.8505156948514454
  0.4450971568191449  0.7605319202418030  0.6136380171605040
 
  0.00000000E+00  0.00000000E+00  0.00000000E+00
  0.00000000E+00  0.00000000E+00  0.00000000E+00
  0.00000000E+00  0.00000000E+00  0.00000000E+00
  0.00000000E+00  0.00000000E+00  0.00000000E+00
  0.00000000E+00  0.00000000E+00  0.00000000E+00
  0.00000000E+00  0.00000000E+00  0.00000000E+00
  0.00000000E+00  0.00000000E+00  0.00000000E+00
  0.00000000E+00  0.00000000E+00  0.00000000E+00
  0.00000000E+00  0.00000000E+00  0.00000000E+00
  0.00000000E+00  0.00000000E+00  0.00000000E+00
  0.00000000E+00  0.00000000E+00  0.00000000E+00
  0.00000000E+00  0.00000000E+00  0.00000000E+00
  0.00000000E+00  0.00000000E+00  0.00000000E+00
  0.00000000E+00  0.00000000E+00  0.00000000E+00
  0.00000000E+00  0.00000000E+00  0.00000000E+00
  0.00000000E+00  0.00000000E+00  0.00000000E+00
  0.00000000E+00  0.00000000E+00  0.00000000E+00
  0.00000000E+00  0.00000000E+00  0.00000000E+00
  0.00000000E+00  0.00000000E+00  0.00000000E+00
  0.00000000E+00  0.00000000E+00  0.00000000E+00
  0.00000000E+00  0.00000000E+00  0.00000000E+00
  0.00000000E+00  0.00000000E+00  0.00000000E+00
  0.00000000E+00  0.00000000E+00  0.00000000E+00
  0.00000000E+00  0.00000000E+00  0.00000000E+00
  0.00000000E+00  0.00000000E+00  0.00000000E+00
  0.00000000E+00  0.00000000E+00  0.00000000E+00
  0.00000000E+00  0.00000000E+00  0.00000000E+00
  0.00000000E+00  0.00000000E+00  0.00000000E+00
  0.00000000E+00  0.00000000E+00  0.00000000E+00
  0.00000000E+00  0.00000000E+00  0.00000000E+00
  0.00000000E+00  0.00000000E+00  0.00000000E+00
  0.00000000E+00  0.00000000E+00  0.00000000E+00
  0.00000000E+00  0.00000000E+00  0.00000000E+00
  0.00000000E+00  0.00000000E+00  0.00000000E+00
  0.00000000E+00  0.00000000E+00  0.00000000E+00
  0.00000000E+00  0.00000000E+00  0.00000000E+00
  0.00000000E+00  0.00000000E+00  0.00000000E+00
  0.00000000E+00  0.00000000E+00  0.00000000E+00
  0.00000000E+00  0.00000000E+00  0.00000000E+00
  0.00000000E+00  0.00000000E+00  0.00000000E+00
  0.00000000E+00  0.00000000E+00  0.00000000E+00
  0.00000000E+00  0.00000000E+00  0.00000000E+00
  0.00000000E+00  0.00000000E+00  0.00000000E+00
  0.00000000E+00  0.00000000E+00  0.00000000E+00
  0.00000000E+00  0.00000000E+00  0.00000000E+00
  0.00000000E+00  0.00000000E+00  0.00000000E+00
  0.00000000E+00  0.00000000E+00  0.00000000E+00
  0.00000000E+00  0.00000000E+00  0.00000000E+00
  0.00000000E+00  0.00000000E+00  0.00000000E+00
  0.00000000E+00  0.00000000E+00  0.00000000E+00
  0.00000000E+00  0.00000000E+00  0.00000000E+00
  0.00000000E+00  0.00000000E+00  0.00000000E+00
  0.00000000E+00  0.00000000E+00  0.00000000E+00
  0.00000000E+00  0.00000000E+00  0.00000000E+00
  0.00000000E+00  0.00000000E+00  0.00000000E+00
  0.00000000E+00  0.00000000E+00  0.00000000E+00
  0.00000000E+00  0.00000000E+00  0.00000000E+00
  0.00000000E+00  0.00000000E+00  0.00000000E+00
  0.00000000E+00  0.00000000E+00  0.00000000E+00
  0.00000000E+00  0.00000000E+00  0.00000000E+00
  0.00000000E+00  0.00000000E+00  0.00000000E+00
  0.00000000E+00  0.00000000E+00  0.00000000E+00
  0.00000000E+00  0.00000000E+00  0.00000000E+00
  0.00000000E+00  0.00000000E+00  0.00000000E+00
  0.00000000E+00  0.00000000E+00  0.00000000E+00
  0.00000000E+00  0.00000000E+00  0.00000000E+00
  0.00000000E+00  0.00000000E+00  0.00000000E+00
  0.00000000E+00  0.00000000E+00  0.00000000E+00
  0.00000000E+00  0.00000000E+00  0.00000000E+00
  0.00000000E+00  0.00000000E+00  0.00000000E+00
  0.00000000E+00  0.00000000E+00  0.00000000E+00
  0.00000000E+00  0.00000000E+00  0.00000000E+00
