supercell of 100% icsd_608626.cif, 0% i 
   1.00000000000000     
    -9.2531332957007351    0.0044423506837143    0.0086795246253038
    -4.6304169708166469    8.0040547394221662    0.0071729565185026
     0.0093252453880203   -0.0035132078491700   -9.8942885142878811
   Al   Be   Si   N 
    28     4     4    36
Direct
  0.1146588921692029  0.0932974230523982  0.2975092140531288
  0.2244250374139298  0.2042595165104473  0.0374643682881270
  0.7788192279910220  0.0849158386688416  0.7994894839046367
  0.8954724211150307  0.1989167988958229  0.5463400197634058
  0.4428844430866690  0.0946111663020872  0.2958393071113292
  0.5522017541414712  0.2038379034710189  0.0371827252212142
  0.1170240623527334  0.0865758093699114  0.7915597010594695
  0.2268775507067957  0.1995012535972833  0.5509289528864301
  0.7779337690729591  0.0931673471537309  0.2957874450433451
  0.8919004099347490  0.2039391797965564  0.0412129495633877
  0.5540227218688401  0.2019402476772214  0.5507394862996549
  0.1105829590868055  0.4264211102900148  0.2957342349098937
  0.2188279066289027  0.5416892029862339  0.0398967906984495
  0.7770839728189998  0.4303853287013979  0.7953172270759552
  0.8878520933747822  0.5425775670895376  0.5501589170092842
  0.4439858848082849  0.4274541390029896  0.2959750962254191
  0.5550347595617851  0.5391205105550370  0.0432716480704229
  0.1116296453338421  0.4313633515213269  0.7970135731892185
  0.7792595964788802  0.4282684184877823  0.2946513662928041
  0.8895592494075757  0.5409785597431949  0.0374277924217168
  0.4387365628666302  0.4299289649265532  0.7973695532363934
  0.5487899853797416  0.5479081714015450  0.5469382286707898
  0.1120713260734405  0.7636838158799932  0.3031715152666266
  0.2185108532647888  0.8736220490918285  0.0423757465135139
  0.5564758339038391  0.8766552705107529  0.0337267930818257
  0.7774089487552018  0.7607744062823372  0.2978393734057008
  0.4402037992079215  0.7674739801609576  0.7933445149231204
  0.5527021949906654  0.8742395477542075  0.5586403508225146
  0.4473862387895409  0.0905191353890302  0.7920345442891943
  0.7759843192473994  0.7636508725958535  0.7988895394351516
  0.1119681087350770  0.7593225491275462  0.8020873210323813
  0.2278418944934018  0.8736449592304183  0.5468913478229993
  0.2175452831379729  0.5453045166269135  0.5480294278901212
  0.8934428320573673  0.8665226035943761  0.5513260700042579
  0.4428866906149196  0.7638159134628850  0.2964609740363784
  0.8905927714904394  0.8688433529326574  0.0381890951772661
  0.2227869405161940  0.2064486469578526  0.3572772278598109
  0.1120643596028330  0.0946464901389845  0.1057181532937648
  0.8886910453828918  0.2037649765835496  0.8510442101996318
  0.7868025055440100  0.0790527888152965  0.6036006108431238
  0.5571429000753270  0.2051017167964417  0.3567504788728328
  0.4449747675059683  0.0938569901872270  0.1060433321927121
  0.2272883113501649  0.2031426340610025  0.8477836552915790
  0.1166618341686174  0.0839620760358670  0.5993897357822817
  0.8883210122171548  0.2043607199240824  0.3532616094696905
  0.7839275781516619  0.0806303288660430  0.1012123937079608
  0.5524518933415408  0.2036832932171748  0.8480363071851968
  0.4453536787474022  0.0950808358456712  0.6092967217406056
  0.2217502571323493  0.5397668442930410  0.3652782678892095
  0.1111289013978762  0.4288393920040221  0.1045900452655033
  0.8847266558576976  0.5469386924005519  0.8481436050609119
  0.7754771529051894  0.4267651338923315  0.6013715958076418
  0.5493267758100586  0.5511047971186827  0.3509327074188207
  0.4426205213798298  0.4285434747083343  0.1055822694947395
  0.2169701062281888  0.5492772988058263  0.8523145165577972
  0.1173742207676440  0.4343445109202690  0.6005166572027179
  0.8885189839031611  0.5398823351300592  0.3565501716825850
  0.7779962411730779  0.4286417555017721  0.1035404173406178
  0.5534554610860383  0.5403425483696864  0.8535780509528195
  0.4310314755983384  0.4363921950026111  0.5996458073244142
  0.2354733836353304  0.8658448655227247  0.3546199356376505
  0.0974793654139461  0.7673009770194597  0.1094249554707361
  0.8948691517605170  0.8623916319519580  0.8625455987874133
  0.7842794974604388  0.7678556076091425  0.6058044288766382
  0.5509078200221467  0.8657218290119815  0.3546754969270296
  0.4450734529568479  0.7624984843479297  0.1147976118531133
  0.2179705668419132  0.8653685793222010  0.8552199589885845
  0.1074986840572691  0.7581788006807955  0.5989275768200244
  0.8884046671153527  0.8723727649723401  0.3678517425255663
  0.7837389007196975  0.7682137714133646  0.1047195280095181
  0.5601378464068389  0.8740937991636244  0.8465551171076058
  0.4347390834048781  0.7664576315674196  0.6025848058635574
 
  0.00000000E+00  0.00000000E+00  0.00000000E+00
  0.00000000E+00  0.00000000E+00  0.00000000E+00
  0.00000000E+00  0.00000000E+00  0.00000000E+00
  0.00000000E+00  0.00000000E+00  0.00000000E+00
  0.00000000E+00  0.00000000E+00  0.00000000E+00
  0.00000000E+00  0.00000000E+00  0.00000000E+00
  0.00000000E+00  0.00000000E+00  0.00000000E+00
  0.00000000E+00  0.00000000E+00  0.00000000E+00
  0.00000000E+00  0.00000000E+00  0.00000000E+00
  0.00000000E+00  0.00000000E+00  0.00000000E+00
  0.00000000E+00  0.00000000E+00  0.00000000E+00
  0.00000000E+00  0.00000000E+00  0.00000000E+00
  0.00000000E+00  0.00000000E+00  0.00000000E+00
  0.00000000E+00  0.00000000E+00  0.00000000E+00
  0.00000000E+00  0.00000000E+00  0.00000000E+00
  0.00000000E+00  0.00000000E+00  0.00000000E+00
  0.00000000E+00  0.00000000E+00  0.00000000E+00
  0.00000000E+00  0.00000000E+00  0.00000000E+00
  0.00000000E+00  0.00000000E+00  0.00000000E+00
  0.00000000E+00  0.00000000E+00  0.00000000E+00
  0.00000000E+00  0.00000000E+00  0.00000000E+00
  0.00000000E+00  0.00000000E+00  0.00000000E+00
  0.00000000E+00  0.00000000E+00  0.00000000E+00
  0.00000000E+00  0.00000000E+00  0.00000000E+00
  0.00000000E+00  0.00000000E+00  0.00000000E+00
  0.00000000E+00  0.00000000E+00  0.00000000E+00
  0.00000000E+00  0.00000000E+00  0.00000000E+00
  0.00000000E+00  0.00000000E+00  0.00000000E+00
  0.00000000E+00  0.00000000E+00  0.00000000E+00
  0.00000000E+00  0.00000000E+00  0.00000000E+00
  0.00000000E+00  0.00000000E+00  0.00000000E+00
  0.00000000E+00  0.00000000E+00  0.00000000E+00
  0.00000000E+00  0.00000000E+00  0.00000000E+00
  0.00000000E+00  0.00000000E+00  0.00000000E+00
  0.00000000E+00  0.00000000E+00  0.00000000E+00
  0.00000000E+00  0.00000000E+00  0.00000000E+00
  0.00000000E+00  0.00000000E+00  0.00000000E+00
  0.00000000E+00  0.00000000E+00  0.00000000E+00
  0.00000000E+00  0.00000000E+00  0.00000000E+00
  0.00000000E+00  0.00000000E+00  0.00000000E+00
  0.00000000E+00  0.00000000E+00  0.00000000E+00
  0.00000000E+00  0.00000000E+00  0.00000000E+00
  0.00000000E+00  0.00000000E+00  0.00000000E+00
  0.00000000E+00  0.00000000E+00  0.00000000E+00
  0.00000000E+00  0.00000000E+00  0.00000000E+00
  0.00000000E+00  0.00000000E+00  0.00000000E+00
  0.00000000E+00  0.00000000E+00  0.00000000E+00
  0.00000000E+00  0.00000000E+00  0.00000000E+00
  0.00000000E+00  0.00000000E+00  0.00000000E+00
  0.00000000E+00  0.00000000E+00  0.00000000E+00
  0.00000000E+00  0.00000000E+00  0.00000000E+00
  0.00000000E+00  0.00000000E+00  0.00000000E+00
  0.00000000E+00  0.00000000E+00  0.00000000E+00
  0.00000000E+00  0.00000000E+00  0.00000000E+00
  0.00000000E+00  0.00000000E+00  0.00000000E+00
  0.00000000E+00  0.00000000E+00  0.00000000E+00
  0.00000000E+00  0.00000000E+00  0.00000000E+00
  0.00000000E+00  0.00000000E+00  0.00000000E+00
  0.00000000E+00  0.00000000E+00  0.00000000E+00
  0.00000000E+00  0.00000000E+00  0.00000000E+00
  0.00000000E+00  0.00000000E+00  0.00000000E+00
  0.00000000E+00  0.00000000E+00  0.00000000E+00
  0.00000000E+00  0.00000000E+00  0.00000000E+00
  0.00000000E+00  0.00000000E+00  0.00000000E+00
  0.00000000E+00  0.00000000E+00  0.00000000E+00
  0.00000000E+00  0.00000000E+00  0.00000000E+00
  0.00000000E+00  0.00000000E+00  0.00000000E+00
  0.00000000E+00  0.00000000E+00  0.00000000E+00
  0.00000000E+00  0.00000000E+00  0.00000000E+00
  0.00000000E+00  0.00000000E+00  0.00000000E+00
  0.00000000E+00  0.00000000E+00  0.00000000E+00
  0.00000000E+00  0.00000000E+00  0.00000000E+00
