supercell of supercell of icsd_608626.c 
   1.00600000000000     
    18.8433725412000008    0.0042597715995000    0.0111656436851000
    -6.2786657403800001   10.8752831735999997   -0.0012954496991100
     0.0059525623905900    0.0022414031449000   10.0498800689000003
   Al   Gd   N    O 
    92     4    95     1
Direct
  0.1109338885372182  0.0827444869753791  0.2459478572272005
  0.0510337902152571  0.1605073754752908  0.9917229281619697
  0.4457517466018359  0.3344821964692315  0.7519171514150003
  0.3896868170903360  0.4180637625809638  0.5013753073414051
  0.2786810234684083  0.0862903406929121  0.2601524613582100
  0.2249227622891112  0.1670320951705406  0.0001036760582878
  0.1114480528559270  0.3351464662272932  0.7334384335358166
  0.0624851604849042  0.4151248382516073  0.4997214288683622
  0.4439601276180554  0.0831683355138466  0.2499936418413711
  0.3918014537757770  0.1713735317214002  0.9992927707805705
  0.2826351811176622  0.3321359649240918  0.7500755542575348
  0.2218146031359112  0.4245924104007415  0.5177645490629459
  0.1115374417525814  0.0842345773401050  0.7470000663210357
  0.0501880731240902  0.1593994793842555  0.4952959970069628
  0.4440147625785258  0.3335430735727059  0.2510859767451876
  0.3903190989052518  0.4144622177409190  0.0031582658434814
  0.2795449792434823  0.0872522940538047  0.7452144202715303
  0.2210805244282597  0.1695871148719945  0.5019529042937663
  0.1040879382471331  0.3264849087608610  0.2395484166893809
  0.0533582489127085  0.4165427257597756  0.9926416994673701
  0.4442130206300945  0.0824929648104700  0.7508323886489521
  0.3899767724943999  0.1684870589981315  0.5017172918177764
  0.2765848878358881  0.3337773795928740  0.2616254850877766
  0.6122374847328445  0.0847423328011061  0.2485903659053719
  0.5515633703300580  0.1620825086025519  0.9991048029474783
  0.9448807750840800  0.3349679455235020  0.7477511479982510
  0.8907337871750372  0.4174264392066718  0.4996181452739847
  0.7798580798513584  0.0867258901042831  0.2582891583187248
  0.7256960577329252  0.1695239606640655  0.9980325540487840
  0.6072974752277105  0.3303048019469941  0.7437979012295841
  0.5545550082536295  0.4172920221463485  0.5007848999462041
  0.9439949281744831  0.0821596752029237  0.2491607995088785
  0.8926671490545175  0.1727235891806060  0.9972698952266370
  0.7796260583876418  0.3323773269797812  0.7439575934432270
  0.7221550895651916  0.4166407790353688  0.4993172569083910
  0.6120008139808135  0.0845551386043581  0.7500873078615058
  0.5544191166342856  0.1646002431732114  0.5004335980391730
  0.9459964136596142  0.3344273396581130  0.2517443819307132
  0.8899678729870999  0.4144496849182886  0.9990722287815217
  0.7803217836748502  0.0884492228486096  0.7438454609586174
  0.7222904492298028  0.1673453346883989  0.5009899251963148
  0.6092085029966370  0.3319207917862883  0.2593462867789285
  0.5535800931297246  0.4161767751299834  0.0002451691102294
  0.9438209804149267  0.0826766276700681  0.7466856631064829
  0.8912098605036007  0.1692913831470264  0.4981369076632518
  0.7794006421546058  0.3332630672040366  0.2586565821213469
  0.1115557700367873  0.5831215584615279  0.2466346257997358
  0.0509391093508924  0.6613783508038509  0.9973712269442956
  0.4465492391272932  0.8367696151487181  0.7515560267952210
  0.3902366704679991  0.9175895159092491  0.5006754731288865
  0.2782704193613554  0.5845523116432432  0.2595287798415171
  0.2249916141716710  0.6701906439108711  0.9999406499493801
  0.1066101326066686  0.8298400483789834  0.7416254136111959
  0.0543940994251599  0.9171838167855952  0.4983726663797938
  0.4444097634322901  0.5836982008163147  0.2512967720850128
  0.3933562676829183  0.6738394313063836  0.0012985930791771
  0.2792937933903943  0.8322970939191023  0.7442339180359667
  0.2219104350342960  0.9170028121055296  0.4992572189656812
  0.1115265868506086  0.5835799418159695  0.7483253027984134
  0.0548236432092963  0.6622176741845962  0.4986404763895464
  0.4451763893810892  0.8342708217302643  0.2504647002284983
  0.3895011161248689  0.9148524811294294  0.0001887860501739
  0.2837588809032425  0.5938865884041036  0.7513685534895416
  0.2221368331236278  0.6640689001987710  0.5016405044713963
  0.1091197652947358  0.8310667725216092  0.2591676607121443
  0.0533080130818675  0.9160913807361339  0.9973055836933113
  0.4447076829541743  0.5828877129168220  0.7515000976424915
  0.3930834218706281  0.6716092602146517  0.5016005627284343
  0.2787250557287635  0.8324850815786249  0.2603472412489580
  0.6113295296624344  0.5834219645427794  0.2489931549233262
  0.5512747728882701  0.6617735230662163  0.9994087933760412
  0.9451836217105338  0.8347853997777293  0.7493283164044868
  0.8873954273848170  0.9123344484984770  0.4999341316830979
  0.7790927443849824  0.5858841412202622  0.2583150981808515
  0.7248519438545031  0.6686459547356378  0.9982396475626274
  0.6073743879138647  0.8304203792793317  0.7439120082982100
  0.5564031943220655  0.9198004402564735  0.5005033586271708
  0.9443138378803653  0.5828820723295891  0.2482710781010056
  0.8920605143864293  0.6720851725030386  0.9974401422177550
  0.7789953048831890  0.8313529005083566  0.7445216072745424
  0.7226054033295028  0.9170423381549995  0.4995244017782667
  0.6112839885027270  0.5830912952737606  0.7503072152956918
  0.5553183480718005  0.6648598119763207  0.5012120900560149
  0.9443373087848244  0.8331566100784471  0.2479345227454033
  0.8894917530985680  0.9150083192982095  0.9980935117861947
  0.7801080336090536  0.5879898807110848  0.7441959145687065
  0.7207004757143523  0.6645004378117108  0.5014131488349847
  0.6096572743738307  0.8322151325491589  0.2595073264385519
  0.5541482576586390  0.9175085521612374  0.9997800028159887
  0.9442862857547709  0.5823933471923084  0.7491341107786766
  0.8907805415931733  0.6675781919050578  0.4997506657526500
  0.7785168197595880  0.8321477102207240  0.2582709007853694
  0.2214555306456489  0.4163784532452297  0.9909033780567782
  0.7202210275956844  0.4157707068809913  0.9992983968934794
  0.2181964382361130  0.9136111104728286  0.0006525197125811
  0.7198633305766151  0.9159082431462906  0.9992640194838103
  0.1105553173895828  0.0839285962026395  0.4365134562968009
  0.0538635889093726  0.1606726230103916  0.1803074985781592
  0.4463982057846181  0.3366385855024205  0.9422458455382099
  0.3920616092508951  0.4180403353644238  0.6898445105399134
  0.2784493513076214  0.0872306221555235  0.4485737962777634
  0.2230766501348640  0.1674537050920222  0.1925783187338084
  0.0937005078854227  0.3188137802695223  0.9243472107944726
  0.0540774263126877  0.4191615659097678  0.6896829907460500
  0.4439651055553284  0.0834790365026592  0.4398995904037690
  0.3884922605699259  0.1667784797953260  0.1915342906184847
  0.2868177551863340  0.3228203531548459  0.9351127667305761
  0.2306009594301983  0.4237302416295847  0.7178833085461491
  0.1129082215740240  0.0835607300880596  0.9385655306733796
  0.0542830371588110  0.1639451418524445  0.6844015157074068
  0.4445321764204095  0.3338525008337001  0.4402823855071745
  0.3876823242628049  0.4165178153466442  0.1943548975301255
  0.2863579680369170  0.1009999771529664  0.9313357294844309
  0.2217732298923991  0.1670904546189433  0.6889814444313132
  0.0552761713132099  0.4187293473611220  0.1821578228179916
  0.4418670761158552  0.0794843934265757  0.9417854171951134
  0.3912978665192881  0.1685993633550993  0.6905895491387710
  0.2784483961713917  0.3363221415433344  0.4501693356887913
  0.2181108082542167  0.4146638681178985  0.2182919420415104
  0.6120533764291451  0.0852533958751422  0.4385720183427040
  0.5557473020016275  0.1673860498407862  0.1907783732611179
  0.9453454066861227  0.3364549941335611  0.9376204069347907
  0.8896962740017216  0.4181193403073067  0.6876797907603134
  0.7789088745349844  0.0861859280320871  0.4466603879380528
  0.7238360005720637  0.1681111696994293  0.1906205969130852
  0.5934929389272270  0.3192671099182292  0.9292349268421063
  0.5553611002319343  0.4183199758043799  0.6890432562702600
  0.9384749297430233  0.0734914343843442  0.4390017292948727
  0.8894644317474558  0.1672247877276760  0.1899218671707530
  0.7851394874591904  0.3262560260643497  0.9297295028299715
  0.7217537355219790  0.4166650920261787  0.6949981407120589
  0.6130929602328337  0.0853745518228521  0.9419978043449078
  0.5546205734303840  0.1636316323266769  0.6891763381146561
  0.9452194897935513  0.3362313162871189  0.4410240211024927
  0.8885438374046402  0.4161402470909010  0.1906318328333825
  0.7868465100975541  0.1036676593865877  0.9298049121929779
  0.7212736273607661  0.1663004909554644  0.6880759947633948
  0.6089708766793152  0.3317448502642506  0.4478176120729103
  0.5558267457800241  0.4162922558682567  0.1915517581115935
  0.9406138609819692  0.0785741370911950  0.9370473250437499
  0.8910181420529355  0.1688235942405925  0.6871797218708267
  0.7788471084816209  0.3332248482411231  0.4467915422623889
  0.7220280359545441  0.4166516085741634  0.2209999604984745
  0.1122961906410751  0.5831040053110641  0.4361102139487869
  0.0559084180341287  0.6677084146633021  0.1889789395527117
  0.4470245327468874  0.8387397513856953  0.9417432026450641
  0.3906083539161926  0.9179162037638093  0.6890785525468672
  0.2842890195302346  0.5922135096384196  0.4470133742263513
  0.2235917548633921  0.6685452505560008  0.1917491307271675
  0.0921972336670223  0.8181951019246156  0.9266292888543717
  0.0549707760943363  0.9188813709968997  0.6863628113624216
  0.4455324491866719  0.5843772779805931  0.4408688213317262
  0.3893340938820913  0.6672336115720086  0.1922983884623690
  0.2850384476584651  0.8275946843608040  0.9302292930101430
  0.2214560815285509  0.9164868799989350  0.6946366953193888
  0.1129169703906854  0.5859362987960068  0.9400176655204362
  0.0545556385265300  0.6633803123526221  0.6871889882267013
  0.4468943140958714  0.8371463884989367  0.4397522103930882
  0.3884021860928542  0.9163308918497748  0.1920153475741415
  0.2887584563818848  0.6089899267016392  0.9359081198411801
  0.2220563216754243  0.6661509891029667  0.6891806430309941
  0.1087389450928313  0.8309006228350242  0.4471746809229842
  0.0562313657315130  0.9152650488326657  0.1892469439871789
  0.4412741886790457  0.5788277909735982  0.9427754940834348
  0.3938343533076747  0.6720124429111962  0.6909552680432967
  0.2789152973174396  0.8329260245904422  0.4485096050398809
  0.2222974646583680  0.9170072074922118  0.2227520939123764
  0.6109239540476779  0.5827087127995227  0.4389813545820545
  0.5559944432857264  0.6676022926794758  0.1909681223154607
  0.9458710142549194  0.8371852244685698  0.9394516884825777
  0.8894195170127333  0.9159352157021772  0.6879179358875476
  0.7790344491070158  0.5856868051826751  0.4470356083413876
  0.7229622852146704  0.6668760795743651  0.1909619121923711
  0.5930827311846301  0.8190963206964810  0.9292628978993562
  0.5563279007394399  0.9201699766521259  0.6888820646221774
  0.9443831578760111  0.5830237064391355  0.4379688323726256
  0.8885673356064601  0.6662602082663795  0.1894155519128873
  0.7844920136757310  0.8257208677563384  0.9300882187659454
  0.7219829408743337  0.9167829741704381  0.6952565732172999
  0.6122122736568869  0.5840827712774157  0.9421819151184536
  0.5552370313932045  0.6639477836799301  0.6897683209138989
  0.9441414229259451  0.8323629360973541  0.4375594336075608
  0.8875987752237222  0.9149425722147342  0.1893799609674005
  0.7866152301284615  0.6036339242414854  0.9298152675426294
  0.7207928134593544  0.6651779644695139  0.6883807132579989
  0.6096393194283962  0.8322949588475694  0.4480655513201626
  0.5570471063503675  0.9174980068273584  0.1910905113080901
  0.9411332612634595  0.5789399053510564  0.9401976208251384
  0.8914071842269138  0.6688534945066991  0.6885637135473743
  0.7766405435521975  0.8293713065160446  0.4465394019310196
  0.7224108168019043  0.9170861302583262  0.2208890426945231
  0.0651242454888035  0.2915385389936489  0.4023111447690439
 
  0.00000000E+00  0.00000000E+00  0.00000000E+00
  0.00000000E+00  0.00000000E+00  0.00000000E+00
  0.00000000E+00  0.00000000E+00  0.00000000E+00
  0.00000000E+00  0.00000000E+00  0.00000000E+00
  0.00000000E+00  0.00000000E+00  0.00000000E+00
  0.00000000E+00  0.00000000E+00  0.00000000E+00
  0.00000000E+00  0.00000000E+00  0.00000000E+00
  0.00000000E+00  0.00000000E+00  0.00000000E+00
  0.00000000E+00  0.00000000E+00  0.00000000E+00
  0.00000000E+00  0.00000000E+00  0.00000000E+00
  0.00000000E+00  0.00000000E+00  0.00000000E+00
  0.00000000E+00  0.00000000E+00  0.00000000E+00
  0.00000000E+00  0.00000000E+00  0.00000000E+00
  0.00000000E+00  0.00000000E+00  0.00000000E+00
  0.00000000E+00  0.00000000E+00  0.00000000E+00
  0.00000000E+00  0.00000000E+00  0.00000000E+00
  0.00000000E+00  0.00000000E+00  0.00000000E+00
  0.00000000E+00  0.00000000E+00  0.00000000E+00
  0.00000000E+00  0.00000000E+00  0.00000000E+00
  0.00000000E+00  0.00000000E+00  0.00000000E+00
  0.00000000E+00  0.00000000E+00  0.00000000E+00
  0.00000000E+00  0.00000000E+00  0.00000000E+00
  0.00000000E+00  0.00000000E+00  0.00000000E+00
  0.00000000E+00  0.00000000E+00  0.00000000E+00
  0.00000000E+00  0.00000000E+00  0.00000000E+00
  0.00000000E+00  0.00000000E+00  0.00000000E+00
  0.00000000E+00  0.00000000E+00  0.00000000E+00
  0.00000000E+00  0.00000000E+00  0.00000000E+00
  0.00000000E+00  0.00000000E+00  0.00000000E+00
  0.00000000E+00  0.00000000E+00  0.00000000E+00
  0.00000000E+00  0.00000000E+00  0.00000000E+00
  0.00000000E+00  0.00000000E+00  0.00000000E+00
  0.00000000E+00  0.00000000E+00  0.00000000E+00
  0.00000000E+00  0.00000000E+00  0.00000000E+00
  0.00000000E+00  0.00000000E+00  0.00000000E+00
  0.00000000E+00  0.00000000E+00  0.00000000E+00
  0.00000000E+00  0.00000000E+00  0.00000000E+00
  0.00000000E+00  0.00000000E+00  0.00000000E+00
  0.00000000E+00  0.00000000E+00  0.00000000E+00
  0.00000000E+00  0.00000000E+00  0.00000000E+00
  0.00000000E+00  0.00000000E+00  0.00000000E+00
  0.00000000E+00  0.00000000E+00  0.00000000E+00
  0.00000000E+00  0.00000000E+00  0.00000000E+00
  0.00000000E+00  0.00000000E+00  0.00000000E+00
  0.00000000E+00  0.00000000E+00  0.00000000E+00
  0.00000000E+00  0.00000000E+00  0.00000000E+00
  0.00000000E+00  0.00000000E+00  0.00000000E+00
  0.00000000E+00  0.00000000E+00  0.00000000E+00
  0.00000000E+00  0.00000000E+00  0.00000000E+00
  0.00000000E+00  0.00000000E+00  0.00000000E+00
  0.00000000E+00  0.00000000E+00  0.00000000E+00
  0.00000000E+00  0.00000000E+00  0.00000000E+00
  0.00000000E+00  0.00000000E+00  0.00000000E+00
  0.00000000E+00  0.00000000E+00  0.00000000E+00
  0.00000000E+00  0.00000000E+00  0.00000000E+00
  0.00000000E+00  0.00000000E+00  0.00000000E+00
  0.00000000E+00  0.00000000E+00  0.00000000E+00
  0.00000000E+00  0.00000000E+00  0.00000000E+00
  0.00000000E+00  0.00000000E+00  0.00000000E+00
  0.00000000E+00  0.00000000E+00  0.00000000E+00
  0.00000000E+00  0.00000000E+00  0.00000000E+00
  0.00000000E+00  0.00000000E+00  0.00000000E+00
  0.00000000E+00  0.00000000E+00  0.00000000E+00
  0.00000000E+00  0.00000000E+00  0.00000000E+00
  0.00000000E+00  0.00000000E+00  0.00000000E+00
  0.00000000E+00  0.00000000E+00  0.00000000E+00
  0.00000000E+00  0.00000000E+00  0.00000000E+00
  0.00000000E+00  0.00000000E+00  0.00000000E+00
  0.00000000E+00  0.00000000E+00  0.00000000E+00
  0.00000000E+00  0.00000000E+00  0.00000000E+00
  0.00000000E+00  0.00000000E+00  0.00000000E+00
  0.00000000E+00  0.00000000E+00  0.00000000E+00
  0.00000000E+00  0.00000000E+00  0.00000000E+00
  0.00000000E+00  0.00000000E+00  0.00000000E+00
  0.00000000E+00  0.00000000E+00  0.00000000E+00
  0.00000000E+00  0.00000000E+00  0.00000000E+00
  0.00000000E+00  0.00000000E+00  0.00000000E+00
  0.00000000E+00  0.00000000E+00  0.00000000E+00
  0.00000000E+00  0.00000000E+00  0.00000000E+00
  0.00000000E+00  0.00000000E+00  0.00000000E+00
  0.00000000E+00  0.00000000E+00  0.00000000E+00
  0.00000000E+00  0.00000000E+00  0.00000000E+00
  0.00000000E+00  0.00000000E+00  0.00000000E+00
  0.00000000E+00  0.00000000E+00  0.00000000E+00
  0.00000000E+00  0.00000000E+00  0.00000000E+00
  0.00000000E+00  0.00000000E+00  0.00000000E+00
  0.00000000E+00  0.00000000E+00  0.00000000E+00
  0.00000000E+00  0.00000000E+00  0.00000000E+00
  0.00000000E+00  0.00000000E+00  0.00000000E+00
  0.00000000E+00  0.00000000E+00  0.00000000E+00
  0.00000000E+00  0.00000000E+00  0.00000000E+00
  0.00000000E+00  0.00000000E+00  0.00000000E+00
  0.00000000E+00  0.00000000E+00  0.00000000E+00
  0.00000000E+00  0.00000000E+00  0.00000000E+00
  0.00000000E+00  0.00000000E+00  0.00000000E+00
  0.00000000E+00  0.00000000E+00  0.00000000E+00
  0.00000000E+00  0.00000000E+00  0.00000000E+00
  0.00000000E+00  0.00000000E+00  0.00000000E+00
  0.00000000E+00  0.00000000E+00  0.00000000E+00
  0.00000000E+00  0.00000000E+00  0.00000000E+00
  0.00000000E+00  0.00000000E+00  0.00000000E+00
  0.00000000E+00  0.00000000E+00  0.00000000E+00
  0.00000000E+00  0.00000000E+00  0.00000000E+00
  0.00000000E+00  0.00000000E+00  0.00000000E+00
  0.00000000E+00  0.00000000E+00  0.00000000E+00
  0.00000000E+00  0.00000000E+00  0.00000000E+00
  0.00000000E+00  0.00000000E+00  0.00000000E+00
  0.00000000E+00  0.00000000E+00  0.00000000E+00
  0.00000000E+00  0.00000000E+00  0.00000000E+00
  0.00000000E+00  0.00000000E+00  0.00000000E+00
  0.00000000E+00  0.00000000E+00  0.00000000E+00
  0.00000000E+00  0.00000000E+00  0.00000000E+00
  0.00000000E+00  0.00000000E+00  0.00000000E+00
  0.00000000E+00  0.00000000E+00  0.00000000E+00
  0.00000000E+00  0.00000000E+00  0.00000000E+00
  0.00000000E+00  0.00000000E+00  0.00000000E+00
  0.00000000E+00  0.00000000E+00  0.00000000E+00
  0.00000000E+00  0.00000000E+00  0.00000000E+00
  0.00000000E+00  0.00000000E+00  0.00000000E+00
  0.00000000E+00  0.00000000E+00  0.00000000E+00
  0.00000000E+00  0.00000000E+00  0.00000000E+00
  0.00000000E+00  0.00000000E+00  0.00000000E+00
  0.00000000E+00  0.00000000E+00  0.00000000E+00
  0.00000000E+00  0.00000000E+00  0.00000000E+00
  0.00000000E+00  0.00000000E+00  0.00000000E+00
  0.00000000E+00  0.00000000E+00  0.00000000E+00
  0.00000000E+00  0.00000000E+00  0.00000000E+00
  0.00000000E+00  0.00000000E+00  0.00000000E+00
  0.00000000E+00  0.00000000E+00  0.00000000E+00
  0.00000000E+00  0.00000000E+00  0.00000000E+00
  0.00000000E+00  0.00000000E+00  0.00000000E+00
  0.00000000E+00  0.00000000E+00  0.00000000E+00
  0.00000000E+00  0.00000000E+00  0.00000000E+00
  0.00000000E+00  0.00000000E+00  0.00000000E+00
  0.00000000E+00  0.00000000E+00  0.00000000E+00
  0.00000000E+00  0.00000000E+00  0.00000000E+00
  0.00000000E+00  0.00000000E+00  0.00000000E+00
  0.00000000E+00  0.00000000E+00  0.00000000E+00
  0.00000000E+00  0.00000000E+00  0.00000000E+00
  0.00000000E+00  0.00000000E+00  0.00000000E+00
  0.00000000E+00  0.00000000E+00  0.00000000E+00
  0.00000000E+00  0.00000000E+00  0.00000000E+00
  0.00000000E+00  0.00000000E+00  0.00000000E+00
  0.00000000E+00  0.00000000E+00  0.00000000E+00
  0.00000000E+00  0.00000000E+00  0.00000000E+00
  0.00000000E+00  0.00000000E+00  0.00000000E+00
  0.00000000E+00  0.00000000E+00  0.00000000E+00
  0.00000000E+00  0.00000000E+00  0.00000000E+00
  0.00000000E+00  0.00000000E+00  0.00000000E+00
  0.00000000E+00  0.00000000E+00  0.00000000E+00
  0.00000000E+00  0.00000000E+00  0.00000000E+00
  0.00000000E+00  0.00000000E+00  0.00000000E+00
  0.00000000E+00  0.00000000E+00  0.00000000E+00
  0.00000000E+00  0.00000000E+00  0.00000000E+00
  0.00000000E+00  0.00000000E+00  0.00000000E+00
  0.00000000E+00  0.00000000E+00  0.00000000E+00
  0.00000000E+00  0.00000000E+00  0.00000000E+00
  0.00000000E+00  0.00000000E+00  0.00000000E+00
  0.00000000E+00  0.00000000E+00  0.00000000E+00
  0.00000000E+00  0.00000000E+00  0.00000000E+00
  0.00000000E+00  0.00000000E+00  0.00000000E+00
  0.00000000E+00  0.00000000E+00  0.00000000E+00
  0.00000000E+00  0.00000000E+00  0.00000000E+00
  0.00000000E+00  0.00000000E+00  0.00000000E+00
  0.00000000E+00  0.00000000E+00  0.00000000E+00
  0.00000000E+00  0.00000000E+00  0.00000000E+00
  0.00000000E+00  0.00000000E+00  0.00000000E+00
  0.00000000E+00  0.00000000E+00  0.00000000E+00
  0.00000000E+00  0.00000000E+00  0.00000000E+00
  0.00000000E+00  0.00000000E+00  0.00000000E+00
  0.00000000E+00  0.00000000E+00  0.00000000E+00
  0.00000000E+00  0.00000000E+00  0.00000000E+00
  0.00000000E+00  0.00000000E+00  0.00000000E+00
  0.00000000E+00  0.00000000E+00  0.00000000E+00
  0.00000000E+00  0.00000000E+00  0.00000000E+00
  0.00000000E+00  0.00000000E+00  0.00000000E+00
  0.00000000E+00  0.00000000E+00  0.00000000E+00
  0.00000000E+00  0.00000000E+00  0.00000000E+00
  0.00000000E+00  0.00000000E+00  0.00000000E+00
  0.00000000E+00  0.00000000E+00  0.00000000E+00
  0.00000000E+00  0.00000000E+00  0.00000000E+00
  0.00000000E+00  0.00000000E+00  0.00000000E+00
  0.00000000E+00  0.00000000E+00  0.00000000E+00
  0.00000000E+00  0.00000000E+00  0.00000000E+00
  0.00000000E+00  0.00000000E+00  0.00000000E+00
  0.00000000E+00  0.00000000E+00  0.00000000E+00
  0.00000000E+00  0.00000000E+00  0.00000000E+00
  0.00000000E+00  0.00000000E+00  0.00000000E+00
  0.00000000E+00  0.00000000E+00  0.00000000E+00
  0.00000000E+00  0.00000000E+00  0.00000000E+00
  0.00000000E+00  0.00000000E+00  0.00000000E+00
  0.00000000E+00  0.00000000E+00  0.00000000E+00
