supercell of icsd_608626.cif            
   1.00000000000000     
     9.4935324627167930   -0.0001027001517994   -0.0000318296152446
    -4.7468549538547915    8.2174253321477089    0.0003999596610704
    -0.0000124984794359    0.0005256869232133    9.9038602680215249
   Al   Sc   N 
    32     4    36
Direct
  0.2183344511844822  0.1075713907506355  0.2488730533598300
  0.1108172090132484  0.2218571684101249  0.4993672190430374
  0.8925810210079845  0.1119348938059943  0.7497411189077354
  0.7815144004675219  0.2223814886867075  0.0023378830574643
  0.5549942958195970  0.1088962301758372  0.2551992363452129
  0.4397547112000666  0.2241445677081728  0.4990562226400641
  0.2181974095882637  0.1110220035090208  0.7495404788112126
  0.1114861559618561  0.2227744852363074  0.9980501719592780
  0.8903718513250567  0.1110807473235127  0.2482160915345091
  0.7850448375556169  0.2248676530405973  0.4952558120821635
  0.4390172415908822  0.2178194350887139  0.9996740724870747
  0.2194175844950834  0.4452285919522438  0.2493781434777063
  0.1115234352763181  0.5552325691928317  0.4982997176689494
  0.8969832093710508  0.4430683368375341  0.7470924200245079
  0.4433145843178394  0.5554017128672584  0.5016031978930826
  0.2210053705742823  0.4439820455856491  0.7479275206045912
  0.1103674944359696  0.5512355037609780  0.0001383721703405
  0.8927951270727092  0.4467268752510662  0.2509329989361646
  0.7790379598557209  0.5561752491208978  0.5042681624586010
  0.5477170202946695  0.4437149036083454  0.7492485278794589
  0.4390275919511240  0.5544452009125891  0.9969050383243925
  0.2200840762604201  0.7770041627719095  0.2513154589669426
  0.1116233411749974  0.8898467072648018  0.4982119355604340
  0.8927857718429735  0.7856829018090181  0.7459415651387928
  0.7813554774244835  0.8916892352070960  0.9995199875030494
  0.5554164176695053  0.7796884296503066  0.2523584681109412
  0.4408440177731165  0.8825793511615316  0.4980500258241491
  0.2145632064665861  0.7718690315217032  0.7467409997198331
  0.1099904446825306  0.8918112609682893  0.9998694381723396
  0.8921455291342113  0.7802078517353408  0.2515966665091156
  0.7787394436785817  0.8901536159530039  0.4978239405466880
  0.5576625776392845  0.7731510943164324  0.7461504278296474
  0.5588153934327096  0.1153166669511663  0.7340142213167695
  0.7834018726749719  0.5583997311443056  0.9822072607619816
  0.5552734537199484  0.4458178131175785  0.2423957205676501
  0.4433318361403877  0.8869062068484368  0.9944085959865419
  0.2202034977825917  0.1108176442845519  0.4404156906070966
  0.1121162056285812  0.2232606673100079  0.1910644910314829
  0.8886762677066926  0.1109793611764331  0.9434837057932413
  0.7993086038653345  0.2308221215800188  0.6837187823003177
  0.5558111601911975  0.1117196672181819  0.4530072629976374
  0.4349745198216368  0.2037668525317571  0.1914848271571969
  0.2210434581652692  0.1103428693182877  0.9419018913740658
  0.1107700982225737  0.2218775621001470  0.6921125598230589
  0.8908747065972875  0.1105564750769759  0.4390735851686287
  0.7780402339386683  0.2227301286812988  0.1968091680067445
  0.5653104418907660  0.1276107918124012  0.9442346039727454
  0.4319066949983323  0.2298549422925973  0.6878691422997321
  0.2221292335476548  0.4437277330712988  0.4420985019044110
  0.1112493048625183  0.5557250718758198  0.1929874122788320
  0.8995868180781699  0.4326114873422355  0.9366533048246097
  0.7783064119249161  0.5550997222630301  0.7034130740386644
  0.5573933099798154  0.4468192586526953  0.4527701968287801
  0.4344436776717657  0.5659219080923776  0.1876395368892005
  0.2209860394259522  0.4440753882962554  0.9402123278137253
  0.1126332788123818  0.5551891971050296  0.6884512654083679
  0.8899031608013104  0.4464671270078711  0.4430406808385854
  0.7955046424564642  0.5648838836911949  0.1928044477190625
  0.5363901227543266  0.4346053801848839  0.9440994460554180
  0.4418770074426845  0.5549573507005903  0.6919730965132942
  0.2196555376982730  0.7765352734631961  0.4427651546221867
  0.1105208355256693  0.8886676920928949  0.1929132244208063
  0.8999399390741800  0.8001899901344345  0.9349535560888640
  0.7784659259205711  0.8914372345825754  0.6888247948610768
  0.5566233829993266  0.7764286294918037  0.4439820075041894
  0.4441942743828591  0.8892043125987783  0.2059522767856095
  0.2016564710300699  0.7673905840685364  0.9386106446949185
  0.1127759940120470  0.8906873779326858  0.6890858783101095
  0.8890393771208878  0.7778166222712528  0.4450581527279880
  0.7775750818011531  0.8881969596910650  0.1934086129596224
  0.5664005924809885  0.7697005779781847  0.9366577738513371
  0.4343778693130957  0.8696370407827700  0.6927587493481155
 
  0.00000000E+00  0.00000000E+00  0.00000000E+00
  0.00000000E+00  0.00000000E+00  0.00000000E+00
  0.00000000E+00  0.00000000E+00  0.00000000E+00
  0.00000000E+00  0.00000000E+00  0.00000000E+00
  0.00000000E+00  0.00000000E+00  0.00000000E+00
  0.00000000E+00  0.00000000E+00  0.00000000E+00
  0.00000000E+00  0.00000000E+00  0.00000000E+00
  0.00000000E+00  0.00000000E+00  0.00000000E+00
  0.00000000E+00  0.00000000E+00  0.00000000E+00
  0.00000000E+00  0.00000000E+00  0.00000000E+00
  0.00000000E+00  0.00000000E+00  0.00000000E+00
  0.00000000E+00  0.00000000E+00  0.00000000E+00
  0.00000000E+00  0.00000000E+00  0.00000000E+00
  0.00000000E+00  0.00000000E+00  0.00000000E+00
  0.00000000E+00  0.00000000E+00  0.00000000E+00
  0.00000000E+00  0.00000000E+00  0.00000000E+00
  0.00000000E+00  0.00000000E+00  0.00000000E+00
  0.00000000E+00  0.00000000E+00  0.00000000E+00
  0.00000000E+00  0.00000000E+00  0.00000000E+00
  0.00000000E+00  0.00000000E+00  0.00000000E+00
  0.00000000E+00  0.00000000E+00  0.00000000E+00
  0.00000000E+00  0.00000000E+00  0.00000000E+00
  0.00000000E+00  0.00000000E+00  0.00000000E+00
  0.00000000E+00  0.00000000E+00  0.00000000E+00
  0.00000000E+00  0.00000000E+00  0.00000000E+00
  0.00000000E+00  0.00000000E+00  0.00000000E+00
  0.00000000E+00  0.00000000E+00  0.00000000E+00
  0.00000000E+00  0.00000000E+00  0.00000000E+00
  0.00000000E+00  0.00000000E+00  0.00000000E+00
  0.00000000E+00  0.00000000E+00  0.00000000E+00
  0.00000000E+00  0.00000000E+00  0.00000000E+00
  0.00000000E+00  0.00000000E+00  0.00000000E+00
  0.00000000E+00  0.00000000E+00  0.00000000E+00
  0.00000000E+00  0.00000000E+00  0.00000000E+00
  0.00000000E+00  0.00000000E+00  0.00000000E+00
  0.00000000E+00  0.00000000E+00  0.00000000E+00
  0.00000000E+00  0.00000000E+00  0.00000000E+00
  0.00000000E+00  0.00000000E+00  0.00000000E+00
  0.00000000E+00  0.00000000E+00  0.00000000E+00
  0.00000000E+00  0.00000000E+00  0.00000000E+00
  0.00000000E+00  0.00000000E+00  0.00000000E+00
  0.00000000E+00  0.00000000E+00  0.00000000E+00
  0.00000000E+00  0.00000000E+00  0.00000000E+00
  0.00000000E+00  0.00000000E+00  0.00000000E+00
  0.00000000E+00  0.00000000E+00  0.00000000E+00
  0.00000000E+00  0.00000000E+00  0.00000000E+00
  0.00000000E+00  0.00000000E+00  0.00000000E+00
  0.00000000E+00  0.00000000E+00  0.00000000E+00
  0.00000000E+00  0.00000000E+00  0.00000000E+00
  0.00000000E+00  0.00000000E+00  0.00000000E+00
  0.00000000E+00  0.00000000E+00  0.00000000E+00
  0.00000000E+00  0.00000000E+00  0.00000000E+00
  0.00000000E+00  0.00000000E+00  0.00000000E+00
  0.00000000E+00  0.00000000E+00  0.00000000E+00
  0.00000000E+00  0.00000000E+00  0.00000000E+00
  0.00000000E+00  0.00000000E+00  0.00000000E+00
  0.00000000E+00  0.00000000E+00  0.00000000E+00
  0.00000000E+00  0.00000000E+00  0.00000000E+00
  0.00000000E+00  0.00000000E+00  0.00000000E+00
  0.00000000E+00  0.00000000E+00  0.00000000E+00
  0.00000000E+00  0.00000000E+00  0.00000000E+00
  0.00000000E+00  0.00000000E+00  0.00000000E+00
  0.00000000E+00  0.00000000E+00  0.00000000E+00
  0.00000000E+00  0.00000000E+00  0.00000000E+00
  0.00000000E+00  0.00000000E+00  0.00000000E+00
  0.00000000E+00  0.00000000E+00  0.00000000E+00
  0.00000000E+00  0.00000000E+00  0.00000000E+00
  0.00000000E+00  0.00000000E+00  0.00000000E+00
  0.00000000E+00  0.00000000E+00  0.00000000E+00
  0.00000000E+00  0.00000000E+00  0.00000000E+00
  0.00000000E+00  0.00000000E+00  0.00000000E+00
  0.00000000E+00  0.00000000E+00  0.00000000E+00
