generated by phonopy                    
   1.00000000000000     
    10.0351470768999995   -0.0000022330999784   -0.0000001056124209
    -5.0175765436399997    8.6906901959899994    0.0000001395531216
    -0.0000001735893656    0.0000001431815548   14.9533752540999991
   Pb   P    O 
    20    13    49
Direct
  0.9938636264486149  0.7751873663301083  0.1175789119564854
  0.0007167079790236  0.7748538140428636  0.6282771481535008
  0.9926312150241330  0.2453391323268690  0.3682711079015633
  0.0063071414274845  0.2662809181436145  0.8722516610328839
  0.2182066820986179  0.2227619516562385  0.1184695981826351
  0.2288630940326826  0.2243051748479701  0.6268828196943019
  0.7322182618287485  0.7472688897829372  0.3757919674245116
  0.7415033425017512  0.7436901082509024  0.8739882611115988
  0.7658435833114510  0.9992198819564990  0.1190924789035179
  0.7775672508644504  0.0042950844110194  0.6285244146466269
  0.2326256567103897  0.9776708863509498  0.3720973981827953
  0.2593326065458825  0.9963714948167564  0.8710226157398822
  0.6599267173509276  0.3271070781579013  0.9959869282350695
  0.7205010643651022  0.3580531735361134  0.5075578990830465
  0.3296967218054547  0.6683127418462647  0.0012660792233916
  0.3351053818546319  0.6775005574327295  0.5054872705100735
  0.3282394808040081  0.6740012895662275  0.2411174661727813
  0.3455696582331740  0.6697266973045188  0.7439990323293202
  0.6617087166608329  0.3479900623344108  0.2444704458655593
  0.6567780358103050  0.3333370547600225  0.7452794315068587
  0.6221982695897097  0.5972907931724265  0.1241432618471663
  0.6283488780305291  0.5979166275751879  0.6218130791296446
  0.3593765853848012  0.4032592453448487  0.3664558989563815
  0.3712194832889395  0.3986871748208998  0.8773268283340556
  0.4015478563818675  0.0312327869046811  0.1264424336943222
  0.4050879739449371  0.0301724203283271  0.6218205387322584
  0.6043705303472038  0.9775030777228295  0.3719570366104747
  0.6047097783477255  0.9749966516537611  0.8743419227688776
  0.9653827456462736  0.3728796659857352  0.1301170614740883
  0.9869908950771986  0.3775657402431634  0.6331888084210462
  0.0268638356786965  0.6150317077142518  0.3664002732035812
  0.0236084263430172  0.6332230068785449  0.8737406890170263
  0.4824617557410704  0.2821446431413648  0.3805527544418084
  0.4989261004247325  0.6471490659449515  0.1197285721590688
  0.5052782789432726  0.6498497294951875  0.6211991895488467
  0.4735770023454506  0.3225731189818006  0.8796787487728110
  0.3658412045544708  0.8618159881178897  0.1190947097612067
  0.3605594533478111  0.8566720922381847  0.6259426767445788
  0.6943195059170861  0.1573411565082026  0.3719143033121526
  0.6784591418054120  0.1532794004358919  0.8752427986752309
  0.1342650258357239  0.5058850859502542  0.1224440816829073
  0.1621348473951869  0.4978849993526282  0.6283398253367949
  0.8477686200126797  0.5186256651826540  0.3588303573587055
  0.8452679788892894  0.5306624905975994  0.8760639531001573
  0.7248018443452864  0.6448851762338705  0.0378275592373996
  0.7366984914118291  0.6620556281164198  0.5380794994851215
  0.2590865700042855  0.3412752184663930  0.4520317812726873
  0.2670966810766231  0.3621077484184028  0.9619939176169439
  0.3755272815253292  0.0915910584666264  0.0350962973308810
  0.3209863590648681  0.0565627965756335  0.5416849334628111
  0.6408924291983737  0.9093292192501963  0.4571581611662623
  0.6482735314137429  0.9123407903812932  0.9584940021114150
  0.9043586717883727  0.2829923225755948  0.0404044411468831
  0.9331525579661033  0.2799889829274207  0.5447409021850191
  0.0776670925851164  0.7103315793371863  0.4546605877009497
  0.0901309782985251  0.7351831854081681  0.9598639053838838
  0.2563634512036117  0.3601304066356477  0.2821063555703631
  0.2611305653358755  0.3437754626545626  0.7947183294575666
  0.7320696443053478  0.6685584887058198  0.2065948129139272
  0.7332824776908851  0.6602911224815955  0.7072778151120218
  0.6516001657166228  0.9123608609549620  0.2900968744947150
  0.6555121292631583  0.9169609927088729  0.7909406524555749
  0.2966405787374171  0.0465754062799633  0.1980374903733590
  0.3523479435723758  0.0781858675227483  0.7097125273809866
  0.0995601228767100  0.7269991388645352  0.2851849694888600
  0.0801603867440193  0.7490769038570022  0.7933579213374315
  0.9433918700725528  0.2544518287012139  0.2045138008527232
  0.9490567480997427  0.2601246347796717  0.7115799845540565
  0.5424955517891092  0.4158268494897825  0.1335591805996401
  0.5507213350318452  0.4179835447025013  0.6214380439787206
  0.4664100877497575  0.5829345084384840  0.3709286396426421
  0.4777147778927642  0.5798624760454061  0.8713613413167280
  0.5775973991304610  0.1366281141702643  0.1518896869193185
  0.5841787943069860  0.1354372761809941  0.6150747459706736
  0.4241274558213561  0.9095082804597965  0.3690734205189798
  0.4227941319342605  0.8964438450655621  0.8719934876697408
  0.8609495280235109  0.4474544080561387  0.1537712588426174
  0.8913955431154150  0.4603555132563102  0.6476233716638475
  0.0971048519205056  0.5053358140258268  0.3665516256990955
  0.1008140583939792  0.5292652364174444  0.8658603469982893
  0.9909974410448825  0.9977689919675967  0.0973082568779020
  0.0007329910860321  0.9997907953474368  0.6340030777532206
 
  0.00000000E+00  0.00000000E+00  0.00000000E+00
  0.00000000E+00  0.00000000E+00  0.00000000E+00
  0.00000000E+00  0.00000000E+00  0.00000000E+00
  0.00000000E+00  0.00000000E+00  0.00000000E+00
  0.00000000E+00  0.00000000E+00  0.00000000E+00
  0.00000000E+00  0.00000000E+00  0.00000000E+00
  0.00000000E+00  0.00000000E+00  0.00000000E+00
  0.00000000E+00  0.00000000E+00  0.00000000E+00
  0.00000000E+00  0.00000000E+00  0.00000000E+00
  0.00000000E+00  0.00000000E+00  0.00000000E+00
  0.00000000E+00  0.00000000E+00  0.00000000E+00
  0.00000000E+00  0.00000000E+00  0.00000000E+00
  0.00000000E+00  0.00000000E+00  0.00000000E+00
  0.00000000E+00  0.00000000E+00  0.00000000E+00
  0.00000000E+00  0.00000000E+00  0.00000000E+00
  0.00000000E+00  0.00000000E+00  0.00000000E+00
  0.00000000E+00  0.00000000E+00  0.00000000E+00
  0.00000000E+00  0.00000000E+00  0.00000000E+00
  0.00000000E+00  0.00000000E+00  0.00000000E+00
  0.00000000E+00  0.00000000E+00  0.00000000E+00
  0.00000000E+00  0.00000000E+00  0.00000000E+00
  0.00000000E+00  0.00000000E+00  0.00000000E+00
  0.00000000E+00  0.00000000E+00  0.00000000E+00
  0.00000000E+00  0.00000000E+00  0.00000000E+00
  0.00000000E+00  0.00000000E+00  0.00000000E+00
  0.00000000E+00  0.00000000E+00  0.00000000E+00
  0.00000000E+00  0.00000000E+00  0.00000000E+00
  0.00000000E+00  0.00000000E+00  0.00000000E+00
  0.00000000E+00  0.00000000E+00  0.00000000E+00
  0.00000000E+00  0.00000000E+00  0.00000000E+00
  0.00000000E+00  0.00000000E+00  0.00000000E+00
  0.00000000E+00  0.00000000E+00  0.00000000E+00
  0.00000000E+00  0.00000000E+00  0.00000000E+00
  0.00000000E+00  0.00000000E+00  0.00000000E+00
  0.00000000E+00  0.00000000E+00  0.00000000E+00
  0.00000000E+00  0.00000000E+00  0.00000000E+00
  0.00000000E+00  0.00000000E+00  0.00000000E+00
  0.00000000E+00  0.00000000E+00  0.00000000E+00
  0.00000000E+00  0.00000000E+00  0.00000000E+00
  0.00000000E+00  0.00000000E+00  0.00000000E+00
  0.00000000E+00  0.00000000E+00  0.00000000E+00
  0.00000000E+00  0.00000000E+00  0.00000000E+00
  0.00000000E+00  0.00000000E+00  0.00000000E+00
  0.00000000E+00  0.00000000E+00  0.00000000E+00
  0.00000000E+00  0.00000000E+00  0.00000000E+00
  0.00000000E+00  0.00000000E+00  0.00000000E+00
  0.00000000E+00  0.00000000E+00  0.00000000E+00
  0.00000000E+00  0.00000000E+00  0.00000000E+00
  0.00000000E+00  0.00000000E+00  0.00000000E+00
  0.00000000E+00  0.00000000E+00  0.00000000E+00
  0.00000000E+00  0.00000000E+00  0.00000000E+00
  0.00000000E+00  0.00000000E+00  0.00000000E+00
  0.00000000E+00  0.00000000E+00  0.00000000E+00
  0.00000000E+00  0.00000000E+00  0.00000000E+00
  0.00000000E+00  0.00000000E+00  0.00000000E+00
  0.00000000E+00  0.00000000E+00  0.00000000E+00
  0.00000000E+00  0.00000000E+00  0.00000000E+00
  0.00000000E+00  0.00000000E+00  0.00000000E+00
  0.00000000E+00  0.00000000E+00  0.00000000E+00
  0.00000000E+00  0.00000000E+00  0.00000000E+00
  0.00000000E+00  0.00000000E+00  0.00000000E+00
  0.00000000E+00  0.00000000E+00  0.00000000E+00
  0.00000000E+00  0.00000000E+00  0.00000000E+00
  0.00000000E+00  0.00000000E+00  0.00000000E+00
  0.00000000E+00  0.00000000E+00  0.00000000E+00
  0.00000000E+00  0.00000000E+00  0.00000000E+00
  0.00000000E+00  0.00000000E+00  0.00000000E+00
  0.00000000E+00  0.00000000E+00  0.00000000E+00
  0.00000000E+00  0.00000000E+00  0.00000000E+00
  0.00000000E+00  0.00000000E+00  0.00000000E+00
  0.00000000E+00  0.00000000E+00  0.00000000E+00
  0.00000000E+00  0.00000000E+00  0.00000000E+00
  0.00000000E+00  0.00000000E+00  0.00000000E+00
  0.00000000E+00  0.00000000E+00  0.00000000E+00
  0.00000000E+00  0.00000000E+00  0.00000000E+00
  0.00000000E+00  0.00000000E+00  0.00000000E+00
  0.00000000E+00  0.00000000E+00  0.00000000E+00
  0.00000000E+00  0.00000000E+00  0.00000000E+00
  0.00000000E+00  0.00000000E+00  0.00000000E+00
  0.00000000E+00  0.00000000E+00  0.00000000E+00
  0.00000000E+00  0.00000000E+00  0.00000000E+00
  0.00000000E+00  0.00000000E+00  0.00000000E+00
