POSCAR                                  
   1.09300000000000     
    -5.1795928148900003    3.0123857835300001    0.0366663792821000
     1.6803078865900001    2.9957001266500001    5.2122488685199997
    18.6786183132000012   26.3096715952000011  -20.5510749881999999
   Al   Pr   N 
    18    36    54
Direct
  0.7097917713055253  0.6823965754716781  0.7837400470492781
  0.7510799270363790  0.9454354743197158  0.8564894539400996
  0.2756490891284500  0.3842101939753348  0.9776746983396905
  0.0685512092368086  0.5614262613448844  0.5115944247415456
  0.5614310200266033  0.0990260623588384  0.4021278339148395
  0.8324843195288096  0.4615631640773259  0.0217601840060340
  0.8811348503867009  0.8218638904871227  0.0729298076122902
  0.2539523780426549  0.9588787359291970  0.1045897353768055
  0.9319840749483603  0.0642881578477486  0.1462484922331271
  0.1643267102711050  0.9097597722649482  0.9745892524146953
  0.9226328600392435  0.3263711784450791  0.5784900886628677
  0.3695736445757234  0.3072815149531749  0.3292258612928975
  0.8882711799907526  0.7752390379939271  0.4451456200760262
  0.5307432822081708  0.9524546129655249  0.4680154190080970
  0.9066046772227878  0.0558230665912944  0.5131346228605693
  0.1496852399893456  0.1392784819497024  0.0395753616328705
  0.2725280608312346  0.7244117100213145  0.1784511183025330
  0.8345534840140587  0.8457403272607564  0.2151449144060180
  0.2183225615007700  0.8132466821593596  0.8260785993850703
  0.3601054668592809  0.1149735726343977  0.8968759059162394
  0.8854902173195072  0.1220679040065846  0.9215743402775871
  0.6011324176553714  0.7156209147803523  0.5415219006305279
  0.0932098742035166  0.7985621337635322  0.5835779115364588
  0.6420238323704055  0.0031541443177332  0.6237410962146015
  0.1394725033922057  0.1310442932705769  0.6611877625636495
  0.6549125914293512  0.3113200942754020  0.7092783863014915
  0.1820308742556591  0.4752758332038240  0.7495721173035008
  0.5005717656936142  0.4854489180422874  0.2515756463136753
  0.0184164662169124  0.6169991216326522  0.2918730524077588
  0.5167268221240207  0.8192816782093928  0.3320983485528899
  0.0545791861111127  0.9735245439479883  0.3729648936893142
  0.0781428592219555  0.2410870409475336  0.4460743670329848
  0.6055359798044222  0.3970053969036655  0.4807061267976920
  0.3611869843076505  0.6448182857441722  0.0373565893573442
  0.4770060767844342  0.1797973798180053  0.1737825068815084
  0.9847740642550207  0.3348660204795948  0.2092592512188602
  0.0309759501157316  0.3178390059058742  0.8291208147202056
  0.5908420605704379  0.5202572906133582  0.8652080507240569
  0.0704388239750813  0.6371613028838041  0.9083820707461570
  0.6298406850539351  0.6570163248849994  0.9494839835443329
  0.6449948769574476  0.0579974002374044  0.0014670061026720
  0.3742856735560167  0.2026473248160414  0.5466812818770705
  0.4682848467683627  0.4938314493724505  0.6215507612741433
  0.9933649039514236  0.6025873095570518  0.6644017453573596
  0.5134384624411723  0.8043594110620447  0.7068978991024366
  0.0290341667290051  0.9711008849915927  0.7460655682096728
  0.5550264484852150  0.1468343173075510  0.7915925235734420
  0.8490913060507239  0.1271890084584868  0.2933254608672655
  0.8690651925218162  0.4655005975166446  0.3691763431484816
  0.3904957659051078  0.5876941629694343  0.4082929781686957
  0.6736241179837137  0.2337410385805043  0.0862595377069795
  0.1542104865191263  0.4538582714892314  0.1114738248175016
  0.7161988241913875  0.6584567834513635  0.1506189178994788
  0.3271006683983870  0.9688180184985242  0.2501554721299968
  0.6883157655945453  0.9178258862991484  0.7555076173867548
  0.1978302311228219  0.1075161042497470  0.7943940646222885
  0.7021571950580281  0.2118105466206401  0.8448195823085172
  0.2470269440947988  0.4459580600157338  0.8719301728231130
  0.7726570424938473  0.4415306414574189  0.9152179656986164
  0.2616575902756679  0.6519886595126039  0.9589904986243170
  0.9977464906550750  0.8208741580632832  0.4895621124458529
  0.6010420653794171  0.0367857207851543  0.5096970939009751
  0.0211231003422228  0.0969529121715667  0.5560330196039516
  0.6405763769706709  0.2866427289015050  0.5886100197400310
  0.1100596080416949  0.3904565882514248  0.6187763948717233
  0.6454082136683823  0.5710370721436817  0.6723155108246885
  0.1676595638604255  0.7379796622239638  0.7121617772965863
  0.5176563593960637  0.7762409371544194  0.2108306551041537
  0.9656618057113135  0.9007763346555535  0.2563231048983994
  0.4788210555980115  0.1104695195960090  0.3001598026447070
  0.0790107012348003  0.2682066407110000  0.3374329970851591
  0.5350454509776483  0.3248700569609966  0.3715094883537802
  0.0303002953768399  0.5774233711984849  0.4203794522119111
  0.6030584631855476  0.7129218797045667  0.4517271280159463
  0.8732300172305472  0.9048305675012571  0.9665471958746323
  0.2995364226317889  0.9585349247053472  0.0150058214328936
  0.8725304306577826  0.0705529094955963  0.0475471807320602
  0.3011716470288235  0.1870382743652215  0.0813799522573007
  0.8560027845266234  0.3376830632712498  0.1353917074727491
  0.3844479433816375  0.5188036383887606  0.1539876679334640
  0.0112771074046307  0.6701305073729742  0.1933733270713560
  0.0020490321467506  0.6141452892405681  0.7926961909015589
  0.6167680609246844  0.7842372678157119  0.8237480507978745
  0.0560113292236011  0.9513343823561442  0.8718211154639235
  0.6326419321332111  0.8726106906082336  0.8955076283092822
  0.2459969194220193  0.1537513864378610  0.9495428897436184
  0.5869893792207108  0.4027937048828676  0.9956726364090471
  0.3591838653273882  0.4995325418898489  0.5174609917239579
  0.9275348007264199  0.5540966849432039  0.5505047510440093
  0.4576597147611210  0.7915605038439182  0.5895019580486078
  0.9741155447533032  0.8817961447104139  0.6335511286377482
  0.4913556797369267  0.0889272586880949  0.6727110990571035
  0.0114389734062783  0.2563358361574046  0.7112182645444776
  0.5551230810662986  0.4698379000331627  0.7618559484795355
  0.8384406100885613  0.3938150916982224  0.2584566878411465
  0.3731678673896752  0.5520482875139336  0.3033848002892583
  0.8756051609879520  0.7615639127085032  0.3372199565718148
  0.4042110600708853  0.8876855985576810  0.3826426765661424
  0.8471013240133303  0.0240981605247939  0.4171864611842651
  0.4457026331254994  0.1701931703395303  0.4418434885906990
  0.9546106766920346  0.3106005658366797  0.4933173037981362
  0.1070347703472976  0.3878920195213666  0.0145109975212421
  0.7419232201419916  0.5971454008815513  0.0563362433739982
  0.1667856172444999  0.7499138720183325  0.0806426273970828
  0.7849032554554825  0.9189303777009741  0.1123180599859168
  0.2203787154901065  0.9684001363392483  0.1482036260080832
  0.8152828355443731  0.0502453604045243  0.1850029353474767
  0.3260416861979181  0.2482350095788775  0.2213501929066908
 
  0.00000000E+00  0.00000000E+00  0.00000000E+00
  0.00000000E+00  0.00000000E+00  0.00000000E+00
  0.00000000E+00  0.00000000E+00  0.00000000E+00
  0.00000000E+00  0.00000000E+00  0.00000000E+00
  0.00000000E+00  0.00000000E+00  0.00000000E+00
  0.00000000E+00  0.00000000E+00  0.00000000E+00
  0.00000000E+00  0.00000000E+00  0.00000000E+00
  0.00000000E+00  0.00000000E+00  0.00000000E+00
  0.00000000E+00  0.00000000E+00  0.00000000E+00
  0.00000000E+00  0.00000000E+00  0.00000000E+00
  0.00000000E+00  0.00000000E+00  0.00000000E+00
  0.00000000E+00  0.00000000E+00  0.00000000E+00
  0.00000000E+00  0.00000000E+00  0.00000000E+00
  0.00000000E+00  0.00000000E+00  0.00000000E+00
  0.00000000E+00  0.00000000E+00  0.00000000E+00
  0.00000000E+00  0.00000000E+00  0.00000000E+00
  0.00000000E+00  0.00000000E+00  0.00000000E+00
  0.00000000E+00  0.00000000E+00  0.00000000E+00
  0.00000000E+00  0.00000000E+00  0.00000000E+00
  0.00000000E+00  0.00000000E+00  0.00000000E+00
  0.00000000E+00  0.00000000E+00  0.00000000E+00
  0.00000000E+00  0.00000000E+00  0.00000000E+00
  0.00000000E+00  0.00000000E+00  0.00000000E+00
  0.00000000E+00  0.00000000E+00  0.00000000E+00
  0.00000000E+00  0.00000000E+00  0.00000000E+00
  0.00000000E+00  0.00000000E+00  0.00000000E+00
  0.00000000E+00  0.00000000E+00  0.00000000E+00
  0.00000000E+00  0.00000000E+00  0.00000000E+00
  0.00000000E+00  0.00000000E+00  0.00000000E+00
  0.00000000E+00  0.00000000E+00  0.00000000E+00
  0.00000000E+00  0.00000000E+00  0.00000000E+00
  0.00000000E+00  0.00000000E+00  0.00000000E+00
  0.00000000E+00  0.00000000E+00  0.00000000E+00
  0.00000000E+00  0.00000000E+00  0.00000000E+00
  0.00000000E+00  0.00000000E+00  0.00000000E+00
  0.00000000E+00  0.00000000E+00  0.00000000E+00
  0.00000000E+00  0.00000000E+00  0.00000000E+00
  0.00000000E+00  0.00000000E+00  0.00000000E+00
  0.00000000E+00  0.00000000E+00  0.00000000E+00
  0.00000000E+00  0.00000000E+00  0.00000000E+00
  0.00000000E+00  0.00000000E+00  0.00000000E+00
  0.00000000E+00  0.00000000E+00  0.00000000E+00
  0.00000000E+00  0.00000000E+00  0.00000000E+00
  0.00000000E+00  0.00000000E+00  0.00000000E+00
  0.00000000E+00  0.00000000E+00  0.00000000E+00
  0.00000000E+00  0.00000000E+00  0.00000000E+00
  0.00000000E+00  0.00000000E+00  0.00000000E+00
  0.00000000E+00  0.00000000E+00  0.00000000E+00
  0.00000000E+00  0.00000000E+00  0.00000000E+00
  0.00000000E+00  0.00000000E+00  0.00000000E+00
  0.00000000E+00  0.00000000E+00  0.00000000E+00
  0.00000000E+00  0.00000000E+00  0.00000000E+00
  0.00000000E+00  0.00000000E+00  0.00000000E+00
  0.00000000E+00  0.00000000E+00  0.00000000E+00
  0.00000000E+00  0.00000000E+00  0.00000000E+00
  0.00000000E+00  0.00000000E+00  0.00000000E+00
  0.00000000E+00  0.00000000E+00  0.00000000E+00
  0.00000000E+00  0.00000000E+00  0.00000000E+00
  0.00000000E+00  0.00000000E+00  0.00000000E+00
  0.00000000E+00  0.00000000E+00  0.00000000E+00
  0.00000000E+00  0.00000000E+00  0.00000000E+00
  0.00000000E+00  0.00000000E+00  0.00000000E+00
  0.00000000E+00  0.00000000E+00  0.00000000E+00
  0.00000000E+00  0.00000000E+00  0.00000000E+00
  0.00000000E+00  0.00000000E+00  0.00000000E+00
  0.00000000E+00  0.00000000E+00  0.00000000E+00
  0.00000000E+00  0.00000000E+00  0.00000000E+00
  0.00000000E+00  0.00000000E+00  0.00000000E+00
  0.00000000E+00  0.00000000E+00  0.00000000E+00
  0.00000000E+00  0.00000000E+00  0.00000000E+00
  0.00000000E+00  0.00000000E+00  0.00000000E+00
  0.00000000E+00  0.00000000E+00  0.00000000E+00
  0.00000000E+00  0.00000000E+00  0.00000000E+00
  0.00000000E+00  0.00000000E+00  0.00000000E+00
  0.00000000E+00  0.00000000E+00  0.00000000E+00
  0.00000000E+00  0.00000000E+00  0.00000000E+00
  0.00000000E+00  0.00000000E+00  0.00000000E+00
  0.00000000E+00  0.00000000E+00  0.00000000E+00
  0.00000000E+00  0.00000000E+00  0.00000000E+00
  0.00000000E+00  0.00000000E+00  0.00000000E+00
  0.00000000E+00  0.00000000E+00  0.00000000E+00
  0.00000000E+00  0.00000000E+00  0.00000000E+00
  0.00000000E+00  0.00000000E+00  0.00000000E+00
  0.00000000E+00  0.00000000E+00  0.00000000E+00
  0.00000000E+00  0.00000000E+00  0.00000000E+00
  0.00000000E+00  0.00000000E+00  0.00000000E+00
  0.00000000E+00  0.00000000E+00  0.00000000E+00
  0.00000000E+00  0.00000000E+00  0.00000000E+00
  0.00000000E+00  0.00000000E+00  0.00000000E+00
  0.00000000E+00  0.00000000E+00  0.00000000E+00
  0.00000000E+00  0.00000000E+00  0.00000000E+00
  0.00000000E+00  0.00000000E+00  0.00000000E+00
  0.00000000E+00  0.00000000E+00  0.00000000E+00
  0.00000000E+00  0.00000000E+00  0.00000000E+00
  0.00000000E+00  0.00000000E+00  0.00000000E+00
  0.00000000E+00  0.00000000E+00  0.00000000E+00
  0.00000000E+00  0.00000000E+00  0.00000000E+00
  0.00000000E+00  0.00000000E+00  0.00000000E+00
  0.00000000E+00  0.00000000E+00  0.00000000E+00
  0.00000000E+00  0.00000000E+00  0.00000000E+00
  0.00000000E+00  0.00000000E+00  0.00000000E+00
  0.00000000E+00  0.00000000E+00  0.00000000E+00
  0.00000000E+00  0.00000000E+00  0.00000000E+00
  0.00000000E+00  0.00000000E+00  0.00000000E+00
  0.00000000E+00  0.00000000E+00  0.00000000E+00
  0.00000000E+00  0.00000000E+00  0.00000000E+00
  0.00000000E+00  0.00000000E+00  0.00000000E+00
  0.00000000E+00  0.00000000E+00  0.00000000E+00
