supercell of 100% icsd_608626.cif, 0% i 
   1.00000000000000     
    -9.4694357981475950    0.0000236133075042   -0.0001445914877062
    -4.7347370389122601    8.1875971732280810    0.0002069859238306
    -0.0001583550725502   -0.0003410974813204  -10.1031140758247027
   Al   Ge   Sr   N 
    34     1     1    36
Direct
  0.1148719268198661  0.0926391752585758  0.2954294506698076
  0.2188237589082576  0.2073936090015280  0.0448949016007560
  0.7833707929663092  0.0921738194537411  0.8049175948192158
  0.4428707976908228  0.0928098094037040  0.2834717584577575
  0.5548762309017121  0.2059993365275687  0.0510435295858542
  0.1118730101199574  0.0951539089843507  0.7973204577434174
  0.2206362519309693  0.2042595359303192  0.5466294079665985
  0.7793387531604026  0.0914760671722235  0.2826953723377059
  0.8914424729954860  0.2066630717337787  0.0443383032267306
  0.4405248448258519  0.0908891861416450  0.8022385990554355
  0.1118290396015382  0.4282089219731517  0.2963148763226400
  0.2190268231790427  0.5413714339780924  0.0443035256903954
  0.7778820569883464  0.4284465814538052  0.7989700596015794
  0.8903413088461463  0.5406981632448549  0.5453323456372843
  0.4424954172567226  0.4311356238362549  0.2838030014952011
  0.5560122344040721  0.5412858123239204  0.0444843891533324
  0.1108391011383461  0.4284912040020430  0.7959068847188249
  0.2209087847846618  0.5438090575213508  0.5473491970842019
  0.7760016113946975  0.4308861129243482  0.2955464650913271
  0.8891693171611053  0.5394209024123526  0.0460519362108514
  0.4411143583636914  0.4338415605798929  0.8010922184928759
  0.5494346856283485  0.5437046395443232  0.5462879952806432
  0.1115884296856038  0.7610882501280045  0.2961155776113173
  0.2225946576800553  0.8718156034331344  0.0457322572552172
  0.7773579723339097  0.7614961499679964  0.7961698056350457
  0.8959705256634507  0.8675185455176830  0.5463348235495644
  0.4445407203840190  0.7613516630655326  0.2963505575733620
  0.5565046939746097  0.8689639443167678  0.0445484687926054
  0.1112214424760367  0.7606867138415510  0.7942275847295974
  0.2247152379570423  0.8686552842831219  0.5467833659112955
  0.7769375790876225  0.7624445329680754  0.2964689433811643
  0.8915892450458358  0.8686558270394471  0.0441333678657614
  0.4455357000510176  0.7606342435897417  0.7944500902625009
  0.5510868679875287  0.8702171120422335  0.5472674426429123
  0.8937113513104933  0.2016982263305565  0.5472882886649444
  0.5539429463494159  0.2023361417687397  0.5413552622517344
  0.2237206189291570  0.2052693206310110  0.3547443995158375
  0.1109586509906464  0.0943202658896638  0.1067307795453729
  0.8913527326208950  0.2082018351479604  0.8568594580070226
  0.8195598333947700  0.0744750769843634  0.6203913016518214
  0.5554779715609826  0.2056308337412034  0.3071531075753100
  0.4406442048350740  0.0912106100183081  0.0954706483116254
  0.2168636325765476  0.2090302907551234  0.8577005340608608
  0.1098866503043041  0.0959542679972856  0.6040725155057984
  0.8884043598919149  0.2048304781130099  0.3559321885898754
  0.7850483622209694  0.0914036786079535  0.0952697461357701
  0.5556537530956405  0.2050299218049787  0.8528091889730547
  0.4208947527824023  0.0729897630568956  0.6210425047516210
  0.2238807083872700  0.5382199894785913  0.3547389053698566
  0.1103857690527761  0.4286631634535851  0.1064714990819553
  0.8887019077829876  0.5392958339001481  0.8547226976371860
  0.7788300682680500  0.4254074917047674  0.6043654693366349
  0.5552300459505304  0.5375744616002365  0.3546677848199167
  0.4407983925927823  0.4349805682682231  0.0955199659214117
  0.2175024793970266  0.5411533787574001  0.8569142332856927
  0.1112121945824072  0.4280211213457221  0.6041596828461522
  0.8887398628684338  0.5391933323993143  0.3558437742352396
  0.7783452007856866  0.4277503532082108  0.1064583481301256
  0.5584471055081579  0.5405220109366198  0.8569123828574376
  0.4250239197962813  0.4656711727045746  0.6191488850299081
  0.2223936442571528  0.8723491416771125  0.3562674663180729
  0.1112782316991456  0.7618011107409828  0.1063263060865580
  0.8908254291312190  0.8681283139102121  0.8562784002843316
  0.7766895393133808  0.7629970448798673  0.6042812727587403
  0.5546706377952404  0.8742239280698101  0.3547831024076160
  0.4439244685744583  0.7614047925372418  0.1066447475443297
  0.2224791448793155  0.8724576567364792  0.8541944120297558
  0.1112993434614111  0.7613928949421407  0.6042566326714294
  0.8879281359198217  0.8745039220874276  0.3549375685256493
  0.7780519376674775  0.7611255314890855  0.1064397930239096
  0.5583661574079883  0.8671157852482736  0.8573843166839055
  0.4455492026647079  0.7593808854818533  0.6044578741207047
 
  0.00000000E+00  0.00000000E+00  0.00000000E+00
  0.00000000E+00  0.00000000E+00  0.00000000E+00
  0.00000000E+00  0.00000000E+00  0.00000000E+00
  0.00000000E+00  0.00000000E+00  0.00000000E+00
  0.00000000E+00  0.00000000E+00  0.00000000E+00
  0.00000000E+00  0.00000000E+00  0.00000000E+00
  0.00000000E+00  0.00000000E+00  0.00000000E+00
  0.00000000E+00  0.00000000E+00  0.00000000E+00
  0.00000000E+00  0.00000000E+00  0.00000000E+00
  0.00000000E+00  0.00000000E+00  0.00000000E+00
  0.00000000E+00  0.00000000E+00  0.00000000E+00
  0.00000000E+00  0.00000000E+00  0.00000000E+00
  0.00000000E+00  0.00000000E+00  0.00000000E+00
  0.00000000E+00  0.00000000E+00  0.00000000E+00
  0.00000000E+00  0.00000000E+00  0.00000000E+00
  0.00000000E+00  0.00000000E+00  0.00000000E+00
  0.00000000E+00  0.00000000E+00  0.00000000E+00
  0.00000000E+00  0.00000000E+00  0.00000000E+00
  0.00000000E+00  0.00000000E+00  0.00000000E+00
  0.00000000E+00  0.00000000E+00  0.00000000E+00
  0.00000000E+00  0.00000000E+00  0.00000000E+00
  0.00000000E+00  0.00000000E+00  0.00000000E+00
  0.00000000E+00  0.00000000E+00  0.00000000E+00
  0.00000000E+00  0.00000000E+00  0.00000000E+00
  0.00000000E+00  0.00000000E+00  0.00000000E+00
  0.00000000E+00  0.00000000E+00  0.00000000E+00
  0.00000000E+00  0.00000000E+00  0.00000000E+00
  0.00000000E+00  0.00000000E+00  0.00000000E+00
  0.00000000E+00  0.00000000E+00  0.00000000E+00
  0.00000000E+00  0.00000000E+00  0.00000000E+00
  0.00000000E+00  0.00000000E+00  0.00000000E+00
  0.00000000E+00  0.00000000E+00  0.00000000E+00
  0.00000000E+00  0.00000000E+00  0.00000000E+00
  0.00000000E+00  0.00000000E+00  0.00000000E+00
  0.00000000E+00  0.00000000E+00  0.00000000E+00
  0.00000000E+00  0.00000000E+00  0.00000000E+00
  0.00000000E+00  0.00000000E+00  0.00000000E+00
  0.00000000E+00  0.00000000E+00  0.00000000E+00
  0.00000000E+00  0.00000000E+00  0.00000000E+00
  0.00000000E+00  0.00000000E+00  0.00000000E+00
  0.00000000E+00  0.00000000E+00  0.00000000E+00
  0.00000000E+00  0.00000000E+00  0.00000000E+00
  0.00000000E+00  0.00000000E+00  0.00000000E+00
  0.00000000E+00  0.00000000E+00  0.00000000E+00
  0.00000000E+00  0.00000000E+00  0.00000000E+00
  0.00000000E+00  0.00000000E+00  0.00000000E+00
  0.00000000E+00  0.00000000E+00  0.00000000E+00
  0.00000000E+00  0.00000000E+00  0.00000000E+00
  0.00000000E+00  0.00000000E+00  0.00000000E+00
  0.00000000E+00  0.00000000E+00  0.00000000E+00
  0.00000000E+00  0.00000000E+00  0.00000000E+00
  0.00000000E+00  0.00000000E+00  0.00000000E+00
  0.00000000E+00  0.00000000E+00  0.00000000E+00
  0.00000000E+00  0.00000000E+00  0.00000000E+00
  0.00000000E+00  0.00000000E+00  0.00000000E+00
  0.00000000E+00  0.00000000E+00  0.00000000E+00
  0.00000000E+00  0.00000000E+00  0.00000000E+00
  0.00000000E+00  0.00000000E+00  0.00000000E+00
  0.00000000E+00  0.00000000E+00  0.00000000E+00
  0.00000000E+00  0.00000000E+00  0.00000000E+00
  0.00000000E+00  0.00000000E+00  0.00000000E+00
  0.00000000E+00  0.00000000E+00  0.00000000E+00
  0.00000000E+00  0.00000000E+00  0.00000000E+00
  0.00000000E+00  0.00000000E+00  0.00000000E+00
  0.00000000E+00  0.00000000E+00  0.00000000E+00
  0.00000000E+00  0.00000000E+00  0.00000000E+00
  0.00000000E+00  0.00000000E+00  0.00000000E+00
  0.00000000E+00  0.00000000E+00  0.00000000E+00
  0.00000000E+00  0.00000000E+00  0.00000000E+00
  0.00000000E+00  0.00000000E+00  0.00000000E+00
  0.00000000E+00  0.00000000E+00  0.00000000E+00
  0.00000000E+00  0.00000000E+00  0.00000000E+00
