supercell of 100% icsd_608626.cif, 0% i 
   1.00000000000000     
    -9.4577911267178543    0.0026037140250791    0.0018992267921799
    -4.7311504441755181    8.1945909525146003    0.0000028577579461
     0.0020282748571717    0.0011674965646875  -10.1051197572543110
   Ge   Al   Sr   N 
     1    34     1    36
Direct
  0.1120286584274339  0.0939812563722953  0.2933347444708119
  0.2204011339410172  0.2052335051157499  0.0464652260175740
  0.7777729004387197  0.0941390421559518  0.7970514572469654
  0.8887001075509531  0.2056499630918083  0.5494026813783321
  0.4478201931358541  0.0923962499369537  0.2944074764464943
  0.5600732739672694  0.2046161028272095  0.0471678994130968
  0.1109549851284370  0.0945223010115583  0.7967593694312072
  0.2234006934095305  0.2020768712338423  0.5475830388091296
  0.7761377637487286  0.0923212672770006  0.2928180853295430
  0.8850281466147649  0.2074866898773564  0.0460960173296101
  0.4447299762603620  0.0947274516983896  0.7969530188376552
  0.5578932085088297  0.2024544739995591  0.5449342793239538
  0.1063431815317770  0.4281600877405154  0.3010898680031744
  0.7777730485213610  0.4280886689431895  0.7970512985033977
  0.8852851972995026  0.5401549761463613  0.5447659736299855
  0.4498673685260144  0.4250664486969100  0.3007765806993987
  0.5600732787474172  0.5353108130871718  0.0471678367310631
  0.1089322970437863  0.4262314384711487  0.7835709083606019
  0.2226345994490231  0.5386831115101245  0.5542688126965984
  0.7761384902742350  0.4315418479969964  0.2928180908598250
  0.8873420072499272  0.5352944540055304  0.0473887802071218
  0.4484238971841705  0.4257883649432301  0.7836603641734783
  0.5578935613750531  0.5396532547044330  0.5449342759481581
  0.1063434929458396  0.7654929230284466  0.3010897958118548
  0.2204016427204394  0.8743636396088661  0.0464646441089300
  0.7787785642673981  0.7606115436654974  0.7970049093212737
  0.8852853388138229  0.8745606260663408  0.5447660044264637
  0.4478217254234238  0.7597833220969079  0.2944073268650556
  0.5563821037168140  0.8718091924199740  0.0453390387938484
  0.1089325929545595  0.7648351852598054  0.7835712238487957
  0.2234015616284921  0.8745215060443883  0.5475840521572763
  0.7774501454416338  0.7612758412507219  0.2952631142075148
  0.8873419912731819  0.8773646020781385  0.0473889162893855
  0.4447301364952949  0.7605434312451891  0.7969532521486329
  0.5559679059804239  0.8720164736572826  0.5464352458760899
  0.2207418288949228  0.5396283083079894  0.0384349222566485
  0.2241432634107596  0.1996657231620702  0.3573899642031577
  0.1112794701819908  0.0943592490560121  0.1054109904310110
  0.8894227195480511  0.2052890537046395  0.8560836529381035
  0.7781754079204148  0.0947343199200716  0.6065881596472380
  0.5574699753719230  0.2010393532686621  0.3573119638310089
  0.4441595345112290  0.0947102672592450  0.1042590617619794
  0.2213603947406284  0.2069467470045439  0.8549489682586753
  0.1106917789219608  0.0946538918034889  0.6067186478475364
  0.8910590990766423  0.2044701859459295  0.3546148078400506
  0.7774933289473864  0.0945984393960231  0.1042809592184426
  0.5545626210077472  0.2072305240787102  0.8546855359237711
  0.4446135499447550  0.0940383772489142  0.6062135358803644
  0.2222472028036222  0.5388750868752084  0.3548425562003459
  0.0911974902183061  0.4066434712357676  0.1207985141896444
  0.8909797142666278  0.5379508535328554  0.8548371696748376
  0.7781758173748159  0.4270906611616709  0.6065879882007081
  0.5574706348465455  0.5414908046239688  0.3573119676256269
  0.4833377632743421  0.4083313725638931  0.1196120078040153
  0.2221888491105730  0.5389051152580393  0.8034783465285855
  0.1074315012095823  0.4234872585123242  0.5950240685259516
  0.8836791913844237  0.5418539730828655  0.3573482973776763
  0.7774932443471130  0.4279095659332270  0.1042809790461163
  0.5545626744179302  0.5382075313317571  0.8546854821325951
  0.4524961094988811  0.4237526724690071  0.5954436078591456
  0.2241449415317902  0.8761854693627242  0.3573909108678706
  0.0911979849119149  0.8021578276299053  0.1207986900554019
  0.8909799097080082  0.8710704142179182  0.8548373966658502
  0.7775119412838478  0.7612445930040579  0.6065762438255007
  0.5553538894960042  0.8723235452539910  0.3550795261836228
  0.4441598396276945  0.7611305260373200  0.1042590214128438
  0.2213605925277875  0.8716923275708268  0.8549487026968947
  0.1074314067285940  0.7690815469561798  0.5950246171880949
  0.8836794505993595  0.8744679279639982  0.3573482813939819
  0.7788944382280363  0.7605533513417626  0.1042357223753498
  0.5557531318722582  0.8721239586515210  0.8553612471879930
  0.4446141382580038  0.7613487780081059  0.6062138772409753
 
  0.00000000E+00  0.00000000E+00  0.00000000E+00
  0.00000000E+00  0.00000000E+00  0.00000000E+00
  0.00000000E+00  0.00000000E+00  0.00000000E+00
  0.00000000E+00  0.00000000E+00  0.00000000E+00
  0.00000000E+00  0.00000000E+00  0.00000000E+00
  0.00000000E+00  0.00000000E+00  0.00000000E+00
  0.00000000E+00  0.00000000E+00  0.00000000E+00
  0.00000000E+00  0.00000000E+00  0.00000000E+00
  0.00000000E+00  0.00000000E+00  0.00000000E+00
  0.00000000E+00  0.00000000E+00  0.00000000E+00
  0.00000000E+00  0.00000000E+00  0.00000000E+00
  0.00000000E+00  0.00000000E+00  0.00000000E+00
  0.00000000E+00  0.00000000E+00  0.00000000E+00
  0.00000000E+00  0.00000000E+00  0.00000000E+00
  0.00000000E+00  0.00000000E+00  0.00000000E+00
  0.00000000E+00  0.00000000E+00  0.00000000E+00
  0.00000000E+00  0.00000000E+00  0.00000000E+00
  0.00000000E+00  0.00000000E+00  0.00000000E+00
  0.00000000E+00  0.00000000E+00  0.00000000E+00
  0.00000000E+00  0.00000000E+00  0.00000000E+00
  0.00000000E+00  0.00000000E+00  0.00000000E+00
  0.00000000E+00  0.00000000E+00  0.00000000E+00
  0.00000000E+00  0.00000000E+00  0.00000000E+00
  0.00000000E+00  0.00000000E+00  0.00000000E+00
  0.00000000E+00  0.00000000E+00  0.00000000E+00
  0.00000000E+00  0.00000000E+00  0.00000000E+00
  0.00000000E+00  0.00000000E+00  0.00000000E+00
  0.00000000E+00  0.00000000E+00  0.00000000E+00
  0.00000000E+00  0.00000000E+00  0.00000000E+00
  0.00000000E+00  0.00000000E+00  0.00000000E+00
  0.00000000E+00  0.00000000E+00  0.00000000E+00
  0.00000000E+00  0.00000000E+00  0.00000000E+00
  0.00000000E+00  0.00000000E+00  0.00000000E+00
  0.00000000E+00  0.00000000E+00  0.00000000E+00
  0.00000000E+00  0.00000000E+00  0.00000000E+00
  0.00000000E+00  0.00000000E+00  0.00000000E+00
  0.00000000E+00  0.00000000E+00  0.00000000E+00
  0.00000000E+00  0.00000000E+00  0.00000000E+00
  0.00000000E+00  0.00000000E+00  0.00000000E+00
  0.00000000E+00  0.00000000E+00  0.00000000E+00
  0.00000000E+00  0.00000000E+00  0.00000000E+00
  0.00000000E+00  0.00000000E+00  0.00000000E+00
  0.00000000E+00  0.00000000E+00  0.00000000E+00
  0.00000000E+00  0.00000000E+00  0.00000000E+00
  0.00000000E+00  0.00000000E+00  0.00000000E+00
  0.00000000E+00  0.00000000E+00  0.00000000E+00
  0.00000000E+00  0.00000000E+00  0.00000000E+00
  0.00000000E+00  0.00000000E+00  0.00000000E+00
  0.00000000E+00  0.00000000E+00  0.00000000E+00
  0.00000000E+00  0.00000000E+00  0.00000000E+00
  0.00000000E+00  0.00000000E+00  0.00000000E+00
  0.00000000E+00  0.00000000E+00  0.00000000E+00
  0.00000000E+00  0.00000000E+00  0.00000000E+00
  0.00000000E+00  0.00000000E+00  0.00000000E+00
  0.00000000E+00  0.00000000E+00  0.00000000E+00
  0.00000000E+00  0.00000000E+00  0.00000000E+00
  0.00000000E+00  0.00000000E+00  0.00000000E+00
  0.00000000E+00  0.00000000E+00  0.00000000E+00
  0.00000000E+00  0.00000000E+00  0.00000000E+00
  0.00000000E+00  0.00000000E+00  0.00000000E+00
  0.00000000E+00  0.00000000E+00  0.00000000E+00
  0.00000000E+00  0.00000000E+00  0.00000000E+00
  0.00000000E+00  0.00000000E+00  0.00000000E+00
  0.00000000E+00  0.00000000E+00  0.00000000E+00
  0.00000000E+00  0.00000000E+00  0.00000000E+00
  0.00000000E+00  0.00000000E+00  0.00000000E+00
  0.00000000E+00  0.00000000E+00  0.00000000E+00
  0.00000000E+00  0.00000000E+00  0.00000000E+00
  0.00000000E+00  0.00000000E+00  0.00000000E+00
  0.00000000E+00  0.00000000E+00  0.00000000E+00
  0.00000000E+00  0.00000000E+00  0.00000000E+00
  0.00000000E+00  0.00000000E+00  0.00000000E+00
