generated by phonopy                    
   1.00000000000000     
    10.0351470768999995   -0.0000022330999784   -0.0000001056124209
    -5.0175765436399997    8.6906901959899994    0.0000001395531216
    -0.0000001735893656    0.0000001431815548   14.9533752540999991
   Pb   P    O 
    20    12    49
Direct
  0.9944307903171961  0.7704202916283407  0.1188734887431764
  0.9958248167830206  0.7711092332816136  0.6321162474414024
  0.9806430717202801  0.2536712220655701  0.3663596118468178
  0.0007425550500457  0.2607755129634910  0.8739743255890957
  0.2240755211402927  0.2210886502318772  0.1183862842854992
  0.2249199539023437  0.2210389848564986  0.6355758586998945
  0.7372882500465820  0.7418160404362624  0.3748458831430952
  0.7370831687818082  0.7406332731692444  0.8735880092075092
  0.7707326257684599  0.9998903036293569  0.1178208120489401
  0.7772980552929809  0.0059444722257709  0.6317263422436739
  0.2550326451525891  0.9931894766133311  0.3702050618312001
  0.2570476792514285  0.9950710344589950  0.8749008191725878
  0.6639455936090215  0.3331717724407355  0.9998795198102854
  0.6720942670616594  0.3341650084155674  0.5023315387359588
  0.3343450980571916  0.6655567751001996  0.0029222518000580
  0.3354732603266370  0.6882339922009422  0.5058619015701566
  0.3292573477624217  0.6738594459480396  0.2423717774824681
  0.3345591322543982  0.6652764474005934  0.7444267900997019
  0.6703748816227346  0.3391216094821630  0.2441543797615253
  0.6689765831602799  0.3394629128760442  0.7461322395574541
  0.6217789804279974  0.5942330729706455  0.1239896641893310
  0.6234159631940202  0.5966016924768951  0.6231521335920576
  0.3743703447130713  0.3912761180111275  0.3755426381434006
  0.3675860548836880  0.3922569935901095  0.8732547111409303
  0.4035693784419507  0.0289542837281118  0.1239367768936148
  0.4063282334587228  0.0328660782441474  0.6225702170315515
  0.6060396021608838  0.9727458952249393  0.3722477129507382
  0.6053424165789565  0.9744086260086036  0.8731932510614087
  0.9716535605320473  0.3768978710392688  0.1238640397667652
  0.9764602153975304  0.3791999634943153  0.6229068946101322
  0.0316375072984272  0.6298678606329062  0.3738999634821099
  0.0262402699416739  0.6310776382364764  0.8741130339262142
  0.4997160884689933  0.6471533115897472  0.1228918962812173
  0.5010937701995459  0.6490216138297527  0.6257066634539257
  0.4781359351658736  0.3174868761400020  0.3741536953538116
  0.4696325610423955  0.3163945273159072  0.8736692424904220
  0.3536063929832949  0.8542583989724193  0.1222347707559521
  0.3540525841322832  0.8572335630214241  0.6261217182344510
  0.6867572015588692  0.1520669158693266  0.3725847963487396
  0.6839865203540754  0.1527233568038753  0.8735796278140526
  0.1463390733058318  0.4997776937966165  0.1240778439198991
  0.1507746865870985  0.5043056174061178  0.6234820090219202
  0.8532729876440612  0.5347295951725073  0.3750150816811413
  0.8479977084649732  0.5305030381716094  0.8747534148173131
  0.7285313002860860  0.6546102660286905  0.0391977950556921
  0.7324054618610418  0.6653677386413719  0.5402817419811043
  0.2589207313784954  0.3465606125544483  0.9565056851287892
  0.3429191417682986  0.0742945028383275  0.0388539587798320
  0.3458300899124751  0.0728071283416440  0.5365018307018303
  0.6421760508808276  0.9072802308244192  0.4579046724070963
  0.6489680058759433  0.9100678499145616  0.9569477132573496
  0.9278055734705930  0.2685645911388832  0.0404980027445632
  0.9350580056590658  0.2734637208118329  0.5384584057952324
  0.1009347751847613  0.7364875742233892  0.4578489519825553
  0.0897926707792038  0.7399923592023470  0.9574551863525613
  0.2453117875383768  0.3253548872628755  0.3038397640188535
  0.2602512050360914  0.3451693613149516  0.7888217665812078
  0.7283241304812123  0.6562037378707117  0.2084777909971791
  0.7286650042281337  0.6514828582070535  0.7091158925219432
  0.6557209726830635  0.9117026117057279  0.2900352056150268
  0.6515087009713341  0.9120481357591572  0.7895601273852861
  0.3360154118768435  0.0687341279046620  0.2074704049211391
  0.3410898833897988  0.0779288812084431  0.7058832418225052
  0.0957396915147584  0.7379052221832865  0.2898869415988372
  0.0876004321197854  0.7382688914147479  0.7899833744100988
  0.9265260273434208  0.2712358079035084  0.2092005751406631
  0.9327462254879677  0.2722964132621399  0.7075110075704316
  0.5412081774324022  0.4135595008783852  0.1244903388734286
  0.5437211900447352  0.4161523920164996  0.6197464370456416
  0.4706826904624677  0.5720830948849169  0.3724279424514307
  0.4724234133463199  0.5739364243975800  0.8727542960086794
  0.5836389389453061  0.1303298749948638  0.1255601594029088
  0.5865586067237416  0.1315353527225085  0.6253274124918349
  0.4250929456574823  0.9020449967932649  0.3681297794094931
  0.4240445740664356  0.8996292756407342  0.8726333987420745
  0.8707644199528062  0.4561793233521527  0.1230159106149742
  0.8739430944035291  0.4571832142683974  0.6237067415532778
  0.1006551666674795  0.5179949938684061  0.3712663850962912
  0.1012343868275778  0.5246256239897207  0.8741964226449213
  0.9971560606826984  0.9985132843407811  0.1084250360308090
  0.0008287618327500  0.0002159275180063  0.6522534836492184
 
  0.00000000E+00  0.00000000E+00  0.00000000E+00
  0.00000000E+00  0.00000000E+00  0.00000000E+00
  0.00000000E+00  0.00000000E+00  0.00000000E+00
  0.00000000E+00  0.00000000E+00  0.00000000E+00
  0.00000000E+00  0.00000000E+00  0.00000000E+00
  0.00000000E+00  0.00000000E+00  0.00000000E+00
  0.00000000E+00  0.00000000E+00  0.00000000E+00
  0.00000000E+00  0.00000000E+00  0.00000000E+00
  0.00000000E+00  0.00000000E+00  0.00000000E+00
  0.00000000E+00  0.00000000E+00  0.00000000E+00
  0.00000000E+00  0.00000000E+00  0.00000000E+00
  0.00000000E+00  0.00000000E+00  0.00000000E+00
  0.00000000E+00  0.00000000E+00  0.00000000E+00
  0.00000000E+00  0.00000000E+00  0.00000000E+00
  0.00000000E+00  0.00000000E+00  0.00000000E+00
  0.00000000E+00  0.00000000E+00  0.00000000E+00
  0.00000000E+00  0.00000000E+00  0.00000000E+00
  0.00000000E+00  0.00000000E+00  0.00000000E+00
  0.00000000E+00  0.00000000E+00  0.00000000E+00
  0.00000000E+00  0.00000000E+00  0.00000000E+00
  0.00000000E+00  0.00000000E+00  0.00000000E+00
  0.00000000E+00  0.00000000E+00  0.00000000E+00
  0.00000000E+00  0.00000000E+00  0.00000000E+00
  0.00000000E+00  0.00000000E+00  0.00000000E+00
  0.00000000E+00  0.00000000E+00  0.00000000E+00
  0.00000000E+00  0.00000000E+00  0.00000000E+00
  0.00000000E+00  0.00000000E+00  0.00000000E+00
  0.00000000E+00  0.00000000E+00  0.00000000E+00
  0.00000000E+00  0.00000000E+00  0.00000000E+00
  0.00000000E+00  0.00000000E+00  0.00000000E+00
  0.00000000E+00  0.00000000E+00  0.00000000E+00
  0.00000000E+00  0.00000000E+00  0.00000000E+00
  0.00000000E+00  0.00000000E+00  0.00000000E+00
  0.00000000E+00  0.00000000E+00  0.00000000E+00
  0.00000000E+00  0.00000000E+00  0.00000000E+00
  0.00000000E+00  0.00000000E+00  0.00000000E+00
  0.00000000E+00  0.00000000E+00  0.00000000E+00
  0.00000000E+00  0.00000000E+00  0.00000000E+00
  0.00000000E+00  0.00000000E+00  0.00000000E+00
  0.00000000E+00  0.00000000E+00  0.00000000E+00
  0.00000000E+00  0.00000000E+00  0.00000000E+00
  0.00000000E+00  0.00000000E+00  0.00000000E+00
  0.00000000E+00  0.00000000E+00  0.00000000E+00
  0.00000000E+00  0.00000000E+00  0.00000000E+00
  0.00000000E+00  0.00000000E+00  0.00000000E+00
  0.00000000E+00  0.00000000E+00  0.00000000E+00
  0.00000000E+00  0.00000000E+00  0.00000000E+00
  0.00000000E+00  0.00000000E+00  0.00000000E+00
  0.00000000E+00  0.00000000E+00  0.00000000E+00
  0.00000000E+00  0.00000000E+00  0.00000000E+00
  0.00000000E+00  0.00000000E+00  0.00000000E+00
  0.00000000E+00  0.00000000E+00  0.00000000E+00
  0.00000000E+00  0.00000000E+00  0.00000000E+00
  0.00000000E+00  0.00000000E+00  0.00000000E+00
  0.00000000E+00  0.00000000E+00  0.00000000E+00
  0.00000000E+00  0.00000000E+00  0.00000000E+00
  0.00000000E+00  0.00000000E+00  0.00000000E+00
  0.00000000E+00  0.00000000E+00  0.00000000E+00
  0.00000000E+00  0.00000000E+00  0.00000000E+00
  0.00000000E+00  0.00000000E+00  0.00000000E+00
  0.00000000E+00  0.00000000E+00  0.00000000E+00
  0.00000000E+00  0.00000000E+00  0.00000000E+00
  0.00000000E+00  0.00000000E+00  0.00000000E+00
  0.00000000E+00  0.00000000E+00  0.00000000E+00
  0.00000000E+00  0.00000000E+00  0.00000000E+00
  0.00000000E+00  0.00000000E+00  0.00000000E+00
  0.00000000E+00  0.00000000E+00  0.00000000E+00
  0.00000000E+00  0.00000000E+00  0.00000000E+00
  0.00000000E+00  0.00000000E+00  0.00000000E+00
  0.00000000E+00  0.00000000E+00  0.00000000E+00
  0.00000000E+00  0.00000000E+00  0.00000000E+00
  0.00000000E+00  0.00000000E+00  0.00000000E+00
  0.00000000E+00  0.00000000E+00  0.00000000E+00
  0.00000000E+00  0.00000000E+00  0.00000000E+00
  0.00000000E+00  0.00000000E+00  0.00000000E+00
  0.00000000E+00  0.00000000E+00  0.00000000E+00
  0.00000000E+00  0.00000000E+00  0.00000000E+00
  0.00000000E+00  0.00000000E+00  0.00000000E+00
  0.00000000E+00  0.00000000E+00  0.00000000E+00
  0.00000000E+00  0.00000000E+00  0.00000000E+00
  0.00000000E+00  0.00000000E+00  0.00000000E+00
