Al   B    N                             
   1.00000000000000     
    -9.2662138795931028    0.0062973820093889    0.0086937837887308
    -4.6471830702524732    8.0817570758163306    0.0032870406945579
    -0.0687455483126546   -0.0840773672876720   -9.9723043332021035
   Al   B    N 
    33     3    36
Direct
  0.1005737432949090  0.1036944851101467  0.4010590628148236
  0.2215739394872642  0.2028539459638452  0.1449726794501203
  0.7803772653479371  0.0915088453168522  0.8793201801523267
  0.4457166518854692  0.0959232302022031  0.3981039981839913
  0.5586797389650755  0.2041952449366917  0.1431803286974542
  0.1107009089096636  0.0973979880171285  0.8797478489739774
  0.2180725501233738  0.2078702795300131  0.6455796336913551
  0.7810603469790465  0.0991010549145557  0.4037846010763104
  0.8899117654290762  0.2035908359392806  0.1400740607268602
  0.4426918146886720  0.0903114302216750  0.8953934207483201
  0.5627105740478555  0.2082362832880520  0.6450346207373414
  0.1105978294754237  0.4272757300039061  0.3937501501964888
  0.2215697005555342  0.5417288308093688  0.1452470233031846
  0.7733430189959947  0.4315554951845684  0.8895530173730108
  0.8927730965242162  0.5330364439256172  0.6472496999689525
  0.4442081801960711  0.4275699586312740  0.3975829823433585
  0.5587066701815075  0.5343545922645561  0.1501617599128622
  0.1113816199253890  0.4261025646328491  0.8990745312441106
  0.2190567492108215  0.5365952729262844  0.6471721688329026
  0.7797742525587239  0.4232940661588316  0.4019405086695897
  0.8863131092239485  0.5397487235570608  0.1465225626052558
  0.4437247757836644  0.4324590618643498  0.8954965706568530
  0.5559281786968455  0.5400078661052916  0.6419296701474195
  0.0995218419981754  0.7615508600357757  0.4007447416261556
  0.2352208932010385  0.8668534787669557  0.0743002850230923
  0.7720759940045525  0.7568753547190781  0.8936732314367362
  0.4397174507207353  0.7633610758954035  0.3545177780260218
  0.5588188321645120  0.8744787282322690  0.1516327307395713
  0.1145920637041513  0.7545113479911265  0.8844033900725705
  0.2128449889086355  0.8773206956448973  0.5921269702351424
  0.7811448167882702  0.7650171999857349  0.4020472115007294
  0.8896748505158101  0.8748753312434729  0.1436670163382985
  0.5569252444553925  0.8742480087473794  0.6444039144364737
  0.8849617651505497  0.2065085483992490  0.6484447242749667
  0.9076416705883759  0.8311034618720043  0.6618866414538189
  0.4442871785477323  0.7604312373878557  0.8401222254870149
  0.2220258875359988  0.2030385352470887  0.3368948264184581
  0.1090105557203316  0.0976850636849420  0.0741074292339405
  0.8857188872345532  0.2081935377452453  0.8147010168398126
  0.7868485906940350  0.1210333098134555  0.5922127530945431
  0.5575181169988142  0.2056270468688552  0.3362044044548114
  0.4457781884519463  0.0925875600186359  0.0857277532416560
  0.2235477963474324  0.2075010539096311  0.8342689857733490
  0.0814837473221033  0.1148071136160027  0.5986260955988385
  0.8885812169134724  0.2076695288975969  0.3291271106948841
  0.7809899252414141  0.0916244856177713  0.0740157195689051
  0.5539331561343204  0.2058006018088179  0.8357377091965859
  0.4459721148953477  0.0966410432297522  0.5889172514325978
  0.2201666508818363  0.5419460311687487  0.3367493087646878
  0.1114923246812154  0.4269124364420520  0.0893583062826835
  0.8910509458424585  0.5367165888903145  0.8363783573737535
  0.7872647249763389  0.4112806616013245  0.5950597518051524
  0.5612378476945352  0.5303090954369125  0.3422955045116183
  0.4454721136235449  0.4277116203544651  0.0855365666902088
  0.2235790283945391  0.5336342373465044  0.8356025346044689
  0.1119676949031003  0.4260353952017013  0.5835712242310578
  0.8855396239502369  0.5419872299385702  0.3399049510948444
  0.7778594891035056  0.4265463421983142  0.0807330345626553
  0.5410805331919590  0.5669239664340182  0.8380994445115419
  0.4394084684086863  0.4328011327946442  0.5880444094454305
  0.2138306674861568  0.8750000441494663  0.3936337037539275
  0.1091200541125374  0.7600895053977723  0.0771110064556666
  0.8893998406733701  0.8640080868556481  0.8151352408198562
  0.7938571146159248  0.7696471318714799  0.5985680062202405
  0.5621127801689028  0.8755159077827628  0.3446030284056647
  0.4406912908941862  0.7633498027462906  0.1454027491746501
  0.2557166333532095  0.8546026449639115  0.8667881668373312
  0.0815072382384869  0.7657965271893801  0.6007777222414887
  0.8853394149882945  0.8780623650229344  0.3343431121912488
  0.7787541927626407  0.7615919823305362  0.0834774240987599
  0.5418866742376238  0.8580103545963809  0.8389194343421806
  0.4462693894384273  0.7623352688945815  0.5990501176278400
 
  0.00000000E+00  0.00000000E+00  0.00000000E+00
  0.00000000E+00  0.00000000E+00  0.00000000E+00
  0.00000000E+00  0.00000000E+00  0.00000000E+00
  0.00000000E+00  0.00000000E+00  0.00000000E+00
  0.00000000E+00  0.00000000E+00  0.00000000E+00
  0.00000000E+00  0.00000000E+00  0.00000000E+00
  0.00000000E+00  0.00000000E+00  0.00000000E+00
  0.00000000E+00  0.00000000E+00  0.00000000E+00
  0.00000000E+00  0.00000000E+00  0.00000000E+00
  0.00000000E+00  0.00000000E+00  0.00000000E+00
  0.00000000E+00  0.00000000E+00  0.00000000E+00
  0.00000000E+00  0.00000000E+00  0.00000000E+00
  0.00000000E+00  0.00000000E+00  0.00000000E+00
  0.00000000E+00  0.00000000E+00  0.00000000E+00
  0.00000000E+00  0.00000000E+00  0.00000000E+00
  0.00000000E+00  0.00000000E+00  0.00000000E+00
  0.00000000E+00  0.00000000E+00  0.00000000E+00
  0.00000000E+00  0.00000000E+00  0.00000000E+00
  0.00000000E+00  0.00000000E+00  0.00000000E+00
  0.00000000E+00  0.00000000E+00  0.00000000E+00
  0.00000000E+00  0.00000000E+00  0.00000000E+00
  0.00000000E+00  0.00000000E+00  0.00000000E+00
  0.00000000E+00  0.00000000E+00  0.00000000E+00
  0.00000000E+00  0.00000000E+00  0.00000000E+00
  0.00000000E+00  0.00000000E+00  0.00000000E+00
  0.00000000E+00  0.00000000E+00  0.00000000E+00
  0.00000000E+00  0.00000000E+00  0.00000000E+00
  0.00000000E+00  0.00000000E+00  0.00000000E+00
  0.00000000E+00  0.00000000E+00  0.00000000E+00
  0.00000000E+00  0.00000000E+00  0.00000000E+00
  0.00000000E+00  0.00000000E+00  0.00000000E+00
  0.00000000E+00  0.00000000E+00  0.00000000E+00
  0.00000000E+00  0.00000000E+00  0.00000000E+00
  0.00000000E+00  0.00000000E+00  0.00000000E+00
  0.00000000E+00  0.00000000E+00  0.00000000E+00
  0.00000000E+00  0.00000000E+00  0.00000000E+00
  0.00000000E+00  0.00000000E+00  0.00000000E+00
  0.00000000E+00  0.00000000E+00  0.00000000E+00
  0.00000000E+00  0.00000000E+00  0.00000000E+00
  0.00000000E+00  0.00000000E+00  0.00000000E+00
  0.00000000E+00  0.00000000E+00  0.00000000E+00
  0.00000000E+00  0.00000000E+00  0.00000000E+00
  0.00000000E+00  0.00000000E+00  0.00000000E+00
  0.00000000E+00  0.00000000E+00  0.00000000E+00
  0.00000000E+00  0.00000000E+00  0.00000000E+00
  0.00000000E+00  0.00000000E+00  0.00000000E+00
  0.00000000E+00  0.00000000E+00  0.00000000E+00
  0.00000000E+00  0.00000000E+00  0.00000000E+00
  0.00000000E+00  0.00000000E+00  0.00000000E+00
  0.00000000E+00  0.00000000E+00  0.00000000E+00
  0.00000000E+00  0.00000000E+00  0.00000000E+00
  0.00000000E+00  0.00000000E+00  0.00000000E+00
  0.00000000E+00  0.00000000E+00  0.00000000E+00
  0.00000000E+00  0.00000000E+00  0.00000000E+00
  0.00000000E+00  0.00000000E+00  0.00000000E+00
  0.00000000E+00  0.00000000E+00  0.00000000E+00
  0.00000000E+00  0.00000000E+00  0.00000000E+00
  0.00000000E+00  0.00000000E+00  0.00000000E+00
  0.00000000E+00  0.00000000E+00  0.00000000E+00
  0.00000000E+00  0.00000000E+00  0.00000000E+00
  0.00000000E+00  0.00000000E+00  0.00000000E+00
  0.00000000E+00  0.00000000E+00  0.00000000E+00
  0.00000000E+00  0.00000000E+00  0.00000000E+00
  0.00000000E+00  0.00000000E+00  0.00000000E+00
  0.00000000E+00  0.00000000E+00  0.00000000E+00
  0.00000000E+00  0.00000000E+00  0.00000000E+00
  0.00000000E+00  0.00000000E+00  0.00000000E+00
  0.00000000E+00  0.00000000E+00  0.00000000E+00
  0.00000000E+00  0.00000000E+00  0.00000000E+00
  0.00000000E+00  0.00000000E+00  0.00000000E+00
  0.00000000E+00  0.00000000E+00  0.00000000E+00
  0.00000000E+00  0.00000000E+00  0.00000000E+00
