Al   B    N                             
   1.00000000000000     
    -9.2644115710364847   -0.0242325308702701   -0.0165212016010362
    -4.6649248393081066    8.0671787395125474   -0.0213591334857271
     0.0765853140352320    0.1029439524981666  -10.0614835455604315
   Al   B    N 
    33     3    36
Direct
  0.1131325006887494  0.0919107321208941  0.3236429166299573
  0.2203736950612765  0.2057737321406492  0.0716736579961363
  0.7802739374331225  0.0996370931966410  0.8134575083494084
  0.4470161372403965  0.0929288289147507  0.3237648894264069
  0.5576148615803262  0.2041637178133158  0.0738817532534028
  0.1088109350576332  0.0947189308963132  0.8200378378857422
  0.2176469900367692  0.2063394059386425  0.5715357381741484
  0.7826201290127770  0.0914616096230603  0.3341375539237177
  0.8903908460367944  0.1992978112857884  0.0792485127555906
  0.4440329201006818  0.0915435041767196  0.8223325126596706
  0.5630998204814617  0.2098102965137869  0.5745057290710278
  0.1198186882770855  0.4222468310473317  0.3214624175795251
  0.2191021444103853  0.5400313248228343  0.0720516516974286
  0.7759621165762809  0.4331331467093662  0.8883156237930763
  0.8884991340621440  0.5363738348213687  0.6432760907955100
  0.4498095030383524  0.4264581791410720  0.3229607055923722
  0.5430724374765248  0.5492076564603252  0.0699006758327414
  0.1199611818424913  0.4230472565139891  0.8234590659515106
  0.2207506715970950  0.5371385965519337  0.5688501707122242
  0.7855252355224565  0.4214269792337788  0.3977818936438240
  0.8779967459246265  0.5429907705060870  0.1430179073472146
  0.4417791572189458  0.4348329604156547  0.8230004121237542
  0.5518851702163801  0.5417392052049621  0.5841273216852585
  0.1169154052761456  0.7600029950643332  0.3231244793244272
  0.2235412003968236  0.8708994894092754  0.0656876352812574
  0.7744220447222148  0.7573397283412291  0.8855540461599176
  0.4452909374860639  0.7601936604677562  0.3259383404814074
  0.5430940327349703  0.8745871395927054  0.0698841094286777
  0.1058559639853840  0.7630389541875715  0.8157347918422957
  0.2073914305227689  0.8811653755228477  0.5756475237075307
  0.7804343900342587  0.7552604378827610  0.3912478547059663
  0.8895372828354482  0.8772032934642766  0.0705037590302595
  0.5537827824835801  0.8768127830299619  0.5827648775959844
  0.8873214597048857  0.2062089386060109  0.5856862707255672
  0.9186887323237087  0.8271490471795389  0.5525236768846113
  0.4395656459644997  0.7638898856657264  0.8182271463036841
  0.2244788004381917  0.2034127299221495  0.3831039923494401
  0.1150600321266637  0.0894272459227636  0.1327864829791778
  0.8930547254513641  0.1993522855265297  0.8886374745299435
  0.7852890325359994  0.1276396001389273  0.6287883976574520
  0.5573438714050312  0.2044902340599819  0.3847316064319131
  0.4447168181713224  0.0929581754153617  0.1327012315319678
  0.2221797278084949  0.2036562451946082  0.8824293855831797
  0.0834745925172840  0.1099697826487898  0.6286965525519008
  0.8968130761870654  0.1970327045798541  0.3845267568181541
  0.7785094664634400  0.0897794137714385  0.1422090153796205
  0.5564805310362146  0.2065766071796844  0.8825362956556546
  0.4466084760202662  0.0973574915883475  0.6341424733715755
  0.2251584885063593  0.5372293279743729  0.3807594786932853
  0.1136180268287106  0.4249175465804527  0.1306397851717307
  0.8861109979241064  0.5407064615142261  0.8311662444768331
  0.7925862332352338  0.4087138733288853  0.5918043212160242
  0.5513931372587422  0.5427170479390568  0.3904654062061397
  0.4443949043240920  0.4277591054600052  0.1320484720859980
  0.2190265382798344  0.5431064876143452  0.8827045486704463
  0.1196670212199749  0.4222356442539947  0.6319325226464869
  0.8849786323409390  0.5399471173335257  0.3340802030787415
  0.7738379848855672  0.4308090829666327  0.0836660665228237
  0.5355393618313400  0.5697600268918990  0.8742876964613657
  0.4386177724512805  0.4331487363820301  0.6352641007915949
  0.2253665911946712  0.8708557729802990  0.3878072308604033
  0.1108372016075734  0.7619516733936109  0.1331149459141230
  0.8876111017369652  0.8794860072775421  0.8791745041296721
  0.7989126650944698  0.7616690437170206  0.5871725777252976
  0.5501181844457221  0.8741329838009761  0.3892835724038619
  0.4404075894718886  0.7622797271674813  0.1378504358795496
  0.2408096160064943  0.8611676430406661  0.8693787272354427
  0.0864891782521937  0.7667335463331710  0.6220661606744642
  0.9018849886422586  0.8672083991297015  0.4013788689935396
  0.7750389505560733  0.7600579657267303  0.0824747187485997
  0.5350311960107419  0.8627497736076748  0.8739443162201255
  0.4401397580531849  0.7657145116653084  0.6532666445578030
 
  0.00000000E+00  0.00000000E+00  0.00000000E+00
  0.00000000E+00  0.00000000E+00  0.00000000E+00
  0.00000000E+00  0.00000000E+00  0.00000000E+00
  0.00000000E+00  0.00000000E+00  0.00000000E+00
  0.00000000E+00  0.00000000E+00  0.00000000E+00
  0.00000000E+00  0.00000000E+00  0.00000000E+00
  0.00000000E+00  0.00000000E+00  0.00000000E+00
  0.00000000E+00  0.00000000E+00  0.00000000E+00
  0.00000000E+00  0.00000000E+00  0.00000000E+00
  0.00000000E+00  0.00000000E+00  0.00000000E+00
  0.00000000E+00  0.00000000E+00  0.00000000E+00
  0.00000000E+00  0.00000000E+00  0.00000000E+00
  0.00000000E+00  0.00000000E+00  0.00000000E+00
  0.00000000E+00  0.00000000E+00  0.00000000E+00
  0.00000000E+00  0.00000000E+00  0.00000000E+00
  0.00000000E+00  0.00000000E+00  0.00000000E+00
  0.00000000E+00  0.00000000E+00  0.00000000E+00
  0.00000000E+00  0.00000000E+00  0.00000000E+00
  0.00000000E+00  0.00000000E+00  0.00000000E+00
  0.00000000E+00  0.00000000E+00  0.00000000E+00
  0.00000000E+00  0.00000000E+00  0.00000000E+00
  0.00000000E+00  0.00000000E+00  0.00000000E+00
  0.00000000E+00  0.00000000E+00  0.00000000E+00
  0.00000000E+00  0.00000000E+00  0.00000000E+00
  0.00000000E+00  0.00000000E+00  0.00000000E+00
  0.00000000E+00  0.00000000E+00  0.00000000E+00
  0.00000000E+00  0.00000000E+00  0.00000000E+00
  0.00000000E+00  0.00000000E+00  0.00000000E+00
  0.00000000E+00  0.00000000E+00  0.00000000E+00
  0.00000000E+00  0.00000000E+00  0.00000000E+00
  0.00000000E+00  0.00000000E+00  0.00000000E+00
  0.00000000E+00  0.00000000E+00  0.00000000E+00
  0.00000000E+00  0.00000000E+00  0.00000000E+00
  0.00000000E+00  0.00000000E+00  0.00000000E+00
  0.00000000E+00  0.00000000E+00  0.00000000E+00
  0.00000000E+00  0.00000000E+00  0.00000000E+00
  0.00000000E+00  0.00000000E+00  0.00000000E+00
  0.00000000E+00  0.00000000E+00  0.00000000E+00
  0.00000000E+00  0.00000000E+00  0.00000000E+00
  0.00000000E+00  0.00000000E+00  0.00000000E+00
  0.00000000E+00  0.00000000E+00  0.00000000E+00
  0.00000000E+00  0.00000000E+00  0.00000000E+00
  0.00000000E+00  0.00000000E+00  0.00000000E+00
  0.00000000E+00  0.00000000E+00  0.00000000E+00
  0.00000000E+00  0.00000000E+00  0.00000000E+00
  0.00000000E+00  0.00000000E+00  0.00000000E+00
  0.00000000E+00  0.00000000E+00  0.00000000E+00
  0.00000000E+00  0.00000000E+00  0.00000000E+00
  0.00000000E+00  0.00000000E+00  0.00000000E+00
  0.00000000E+00  0.00000000E+00  0.00000000E+00
  0.00000000E+00  0.00000000E+00  0.00000000E+00
  0.00000000E+00  0.00000000E+00  0.00000000E+00
  0.00000000E+00  0.00000000E+00  0.00000000E+00
  0.00000000E+00  0.00000000E+00  0.00000000E+00
  0.00000000E+00  0.00000000E+00  0.00000000E+00
  0.00000000E+00  0.00000000E+00  0.00000000E+00
  0.00000000E+00  0.00000000E+00  0.00000000E+00
  0.00000000E+00  0.00000000E+00  0.00000000E+00
  0.00000000E+00  0.00000000E+00  0.00000000E+00
  0.00000000E+00  0.00000000E+00  0.00000000E+00
  0.00000000E+00  0.00000000E+00  0.00000000E+00
  0.00000000E+00  0.00000000E+00  0.00000000E+00
  0.00000000E+00  0.00000000E+00  0.00000000E+00
  0.00000000E+00  0.00000000E+00  0.00000000E+00
  0.00000000E+00  0.00000000E+00  0.00000000E+00
  0.00000000E+00  0.00000000E+00  0.00000000E+00
  0.00000000E+00  0.00000000E+00  0.00000000E+00
  0.00000000E+00  0.00000000E+00  0.00000000E+00
  0.00000000E+00  0.00000000E+00  0.00000000E+00
  0.00000000E+00  0.00000000E+00  0.00000000E+00
  0.00000000E+00  0.00000000E+00  0.00000000E+00
  0.00000000E+00  0.00000000E+00  0.00000000E+00
