Al   B    N                             
   1.00000000000000     
    -9.3120891152500942   -0.0045005677286655   -0.0044211659130163
    -4.6573322428657873    8.0621375932902986    0.0005025446369434
     0.0762642241991883    0.0344744057670092  -10.0139520736302376
   Al   B    N 
    33     3    36
Direct
  0.1059100451509210  0.1003400310756533  0.3995156993798830
  0.2168934572269237  0.2051885234385722  0.1410865726785175
  0.7819349069183588  0.0925133537673801  0.8752945756615347
  0.4548923475938977  0.0885007083203675  0.3264593528237540
  0.5541500709307741  0.2055912571005649  0.0692117356258350
  0.1096904321220151  0.0973985405427626  0.8780673909912835
  0.2085847784083299  0.2114960444045551  0.6422513230341167
  0.7910654811551581  0.0885655038364632  0.3989861913490955
  0.8894470814094078  0.2036780200533173  0.1371970685000079
  0.4465074021802522  0.0880077113909437  0.8214798405431267
  0.5582965974956267  0.2037132855893802  0.5795543793770506
  0.1119323076131025  0.4258440692294414  0.3895823071426463
  0.2236578710236472  0.5393618495388282  0.0914407899962271
  0.7760156357203272  0.4295464115534102  0.8784212568554111
  0.8883081072372718  0.5387560740979893  0.6404000978470350
  0.4475618797808067  0.4277559109920617  0.3260931515237502
  0.5493490469233677  0.5462597267817699  0.0683860062644541
  0.1062545676385156  0.4254427606267228  0.8906410654521650
  0.2146280992439742  0.5418181874679107  0.6118740961889273
  0.7851783415139195  0.4196960957026050  0.3950897536196720
  0.8842446550185628  0.5414018086076027  0.1395808059184063
  0.4440479422843779  0.4328053488667294  0.8212660625587063
  0.5546337611082350  0.5375332835670577  0.5816209995553194
  0.1056330365244307  0.7639710909202435  0.3984743845677627
  0.2323233364506549  0.8682240554465466  0.0639530811276003
  0.7772472975535862  0.7596637449532508  0.8790244276921868
  0.4429966579285818  0.7618816078490980  0.3281664391078678
  0.5490449577319367  0.8724001336008484  0.0682427156177781
  0.1090485028338293  0.7624393949818113  0.8710104341977143
  0.2175586911033349  0.8757082417698001  0.5992056497055671
  0.7867679218305881  0.7608843264173188  0.3955197274569358
  0.8897506323318396  0.8735578313333505  0.1375433782950992
  0.5549917488840563  0.8742613097278067  0.5818940100151835
  0.8926982527437701  0.1997718634331989  0.6478492968937530
  0.8925929752847708  0.8743219933379791  0.6487835730521283
  0.4440777844444881  0.7614836059065837  0.8162603246302140
  0.2186902356651856  0.2042113679361464  0.3335784411191725
  0.1085736441945500  0.0979986336510805  0.0718986428509751
  0.8863354758163524  0.2066996544013122  0.8085846651635151
  0.8031113498069615  0.0818380884775394  0.5952999186879140
  0.5573596185003566  0.2057316810662826  0.3870631773559126
  0.4522668839386554  0.0897129201305802  0.1322520804433793
  0.2157254538516540  0.2100823128182796  0.8312448880862817
  0.0813160941189963  0.1117217117864797  0.5948775823575900
  0.8901883318154233  0.2036382400585879  0.3266386867519842
  0.7873614530184341  0.0898474524978994  0.0700968092765208
  0.5479299222401295  0.2092247707599668  0.8776836415968248
  0.4442621702720828  0.0945398101908523  0.6313360233055150
  0.2236498306322048  0.5407595138881049  0.3661454516395324
  0.1081094562340752  0.4258117097484586  0.0822324992493293
  0.8870947219201781  0.5391596192267585  0.8268146317980793
  0.7928505084549329  0.3988479486641410  0.5902564485400248
  0.5530323131097816  0.5423279227489672  0.3889321811435025
  0.4498964362964628  0.4260404044655033  0.1318007122740141
  0.2193172685394984  0.5363075600508083  0.8532357152750549
  0.1056279770976829  0.4259964207158902  0.5798152157555307
  0.8858322912382022  0.5402081701226393  0.3316980497457251
  0.7819826794814588  0.4237623595431259  0.0731852391123979
  0.5367262711416387  0.5678740581995285  0.8740190783126778
  0.4453219003850393  0.4267808430460036  0.6336865393400899
  0.2292292118161896  0.8702807136907751  0.3982500187511135
  0.1062666358002673  0.7657999320218210  0.0706116792021660
  0.8842996343045257  0.8743139704800384  0.8084421672561461
  0.7943502765578998  0.7735726107309802  0.5901838610285068
  0.5539498221212540  0.8706979900324541  0.3895378321430982
  0.4440763891554340  0.7617543472019435  0.1384603927052197
  0.2482517419619725  0.8602373384084316  0.8617718340285450
  0.0819167306795947  0.7751740362429445  0.5995750550096872
  0.8898404710917873  0.8738552214365924  0.3269582123064723
  0.7826708223426948  0.7605094371949193  0.0732183641718223
  0.5374129381819657  0.8616460433448694  0.8739816639565063
  0.4491324834104660  0.7587516272734547  0.6546910588126380
 
  0.00000000E+00  0.00000000E+00  0.00000000E+00
  0.00000000E+00  0.00000000E+00  0.00000000E+00
  0.00000000E+00  0.00000000E+00  0.00000000E+00
  0.00000000E+00  0.00000000E+00  0.00000000E+00
  0.00000000E+00  0.00000000E+00  0.00000000E+00
  0.00000000E+00  0.00000000E+00  0.00000000E+00
  0.00000000E+00  0.00000000E+00  0.00000000E+00
  0.00000000E+00  0.00000000E+00  0.00000000E+00
  0.00000000E+00  0.00000000E+00  0.00000000E+00
  0.00000000E+00  0.00000000E+00  0.00000000E+00
  0.00000000E+00  0.00000000E+00  0.00000000E+00
  0.00000000E+00  0.00000000E+00  0.00000000E+00
  0.00000000E+00  0.00000000E+00  0.00000000E+00
  0.00000000E+00  0.00000000E+00  0.00000000E+00
  0.00000000E+00  0.00000000E+00  0.00000000E+00
  0.00000000E+00  0.00000000E+00  0.00000000E+00
  0.00000000E+00  0.00000000E+00  0.00000000E+00
  0.00000000E+00  0.00000000E+00  0.00000000E+00
  0.00000000E+00  0.00000000E+00  0.00000000E+00
  0.00000000E+00  0.00000000E+00  0.00000000E+00
  0.00000000E+00  0.00000000E+00  0.00000000E+00
  0.00000000E+00  0.00000000E+00  0.00000000E+00
  0.00000000E+00  0.00000000E+00  0.00000000E+00
  0.00000000E+00  0.00000000E+00  0.00000000E+00
  0.00000000E+00  0.00000000E+00  0.00000000E+00
  0.00000000E+00  0.00000000E+00  0.00000000E+00
  0.00000000E+00  0.00000000E+00  0.00000000E+00
  0.00000000E+00  0.00000000E+00  0.00000000E+00
  0.00000000E+00  0.00000000E+00  0.00000000E+00
  0.00000000E+00  0.00000000E+00  0.00000000E+00
  0.00000000E+00  0.00000000E+00  0.00000000E+00
  0.00000000E+00  0.00000000E+00  0.00000000E+00
  0.00000000E+00  0.00000000E+00  0.00000000E+00
  0.00000000E+00  0.00000000E+00  0.00000000E+00
  0.00000000E+00  0.00000000E+00  0.00000000E+00
  0.00000000E+00  0.00000000E+00  0.00000000E+00
  0.00000000E+00  0.00000000E+00  0.00000000E+00
  0.00000000E+00  0.00000000E+00  0.00000000E+00
  0.00000000E+00  0.00000000E+00  0.00000000E+00
  0.00000000E+00  0.00000000E+00  0.00000000E+00
  0.00000000E+00  0.00000000E+00  0.00000000E+00
  0.00000000E+00  0.00000000E+00  0.00000000E+00
  0.00000000E+00  0.00000000E+00  0.00000000E+00
  0.00000000E+00  0.00000000E+00  0.00000000E+00
  0.00000000E+00  0.00000000E+00  0.00000000E+00
  0.00000000E+00  0.00000000E+00  0.00000000E+00
  0.00000000E+00  0.00000000E+00  0.00000000E+00
  0.00000000E+00  0.00000000E+00  0.00000000E+00
  0.00000000E+00  0.00000000E+00  0.00000000E+00
  0.00000000E+00  0.00000000E+00  0.00000000E+00
  0.00000000E+00  0.00000000E+00  0.00000000E+00
  0.00000000E+00  0.00000000E+00  0.00000000E+00
  0.00000000E+00  0.00000000E+00  0.00000000E+00
  0.00000000E+00  0.00000000E+00  0.00000000E+00
  0.00000000E+00  0.00000000E+00  0.00000000E+00
  0.00000000E+00  0.00000000E+00  0.00000000E+00
  0.00000000E+00  0.00000000E+00  0.00000000E+00
  0.00000000E+00  0.00000000E+00  0.00000000E+00
  0.00000000E+00  0.00000000E+00  0.00000000E+00
  0.00000000E+00  0.00000000E+00  0.00000000E+00
  0.00000000E+00  0.00000000E+00  0.00000000E+00
  0.00000000E+00  0.00000000E+00  0.00000000E+00
  0.00000000E+00  0.00000000E+00  0.00000000E+00
  0.00000000E+00  0.00000000E+00  0.00000000E+00
  0.00000000E+00  0.00000000E+00  0.00000000E+00
  0.00000000E+00  0.00000000E+00  0.00000000E+00
  0.00000000E+00  0.00000000E+00  0.00000000E+00
  0.00000000E+00  0.00000000E+00  0.00000000E+00
  0.00000000E+00  0.00000000E+00  0.00000000E+00
  0.00000000E+00  0.00000000E+00  0.00000000E+00
  0.00000000E+00  0.00000000E+00  0.00000000E+00
  0.00000000E+00  0.00000000E+00  0.00000000E+00
