Al   B    N                             
   1.00000000000000     
    -9.3108477893473278   -0.0172285063808526   -0.0098405513003033
    -4.7377701983868521    8.0252972060107872   -0.0150720023878045
     0.0698356145686654    0.0275396071409935  -10.1167331245211223
   Al   B    N 
    33     3    36
Direct
  0.1204364746526494  0.0888008719615883  0.3217987893480583
  0.2196077387177198  0.2071203109142488  0.0711158536747405
  0.7775345573609087  0.0854960438406636  0.8019613730285897
  0.4469168963524126  0.0916102383073820  0.3209669454805919
  0.5572569876096836  0.2028299732181864  0.0709399010191731
  0.1222940758466748  0.0875682544595335  0.8222040524968364
  0.2178942569167006  0.2107495591156265  0.5684149096747930
  0.7771337998950258  0.0894708978017320  0.3326662572611525
  0.8827298559290924  0.2106679952380333  0.1427101378792912
  0.4432640975698661  0.0907592822571530  0.8209946610449634
  0.5600038506551712  0.1955611211427168  0.5709555086148086
  0.1185305886461805  0.4259349747005743  0.3208930294364549
  0.2204678008611509  0.5403116362157050  0.0728168165231935
  0.7764428194990955  0.4338394421818421  0.8839043072801829
  0.8880097448272508  0.5457740944061626  0.6437077782370864
  0.4494665235626343  0.4276656805929591  0.3241625636544754
  0.5451597386038642  0.5462409098970227  0.0666420660665068
  0.1202249421742678  0.4250915046260957  0.8225986915154309
  0.2185820591384342  0.5436272645184204  0.5702817995507843
  0.7916033824489261  0.4162500873458796  0.4019687027130132
  0.8777660073159055  0.5433053633508038  0.1416106046938665
  0.4440114870464242  0.4316334041737662  0.8215105811968542
  0.5527932949764818  0.5381757497939574  0.5862901781543286
  0.1120638714853115  0.7630152276387889  0.3268487128667417
  0.2248271626166840  0.8684131215149264  0.0677189297096845
  0.7752222541885416  0.7590030497831961  0.8857027782377287
  0.4486679877301611  0.7573014515103509  0.3273515173146535
  0.5433302440382377  0.8731514971742982  0.0696561005590510
  0.1092952879131062  0.7624434566911162  0.8158754689762020
  0.2061105723289671  0.8816550058088808  0.5766995819263698
  0.7831866893558725  0.7560540224941832  0.3988380375090728
  0.8910724776837853  0.8758802734995896  0.0718790656441399
  0.5498861283613294  0.8744439588089747  0.5829203299457504
  0.9104772382607678  0.2351291656173586  0.6615054698312548
  0.8878934760816435  0.8772154918668065  0.5670410588689876
  0.4406802944498835  0.7620043013562565  0.8186198704244703
  0.2230939471091631  0.2056282295959306  0.3812451217916291
  0.1168551676437772  0.0889212763471932  0.1269496476937206
  0.8821210394478456  0.2183071049811929  0.8090545776257798
  0.7820146022164920  0.0543359205127061  0.6200191098460834
  0.5530172636839907  0.2055318728952571  0.3829231624326894
  0.4436896042898937  0.0934738897202863  0.1310494165128020
  0.2214077323322527  0.2060490201989964  0.8838591974424475
  0.0932817765053002  0.1127209381658218  0.6305185010595338
  0.8892476747940208  0.2086061170778848  0.3317900952845676
  0.7736001513308466  0.0889918537108230  0.1384586215232204
  0.5588066679286356  0.2034162325616435  0.8802813336323254
  0.4368475213254612  0.0963877240723576  0.6342924459672261
  0.2249122444988032  0.5387949612471346  0.3823368684157273
  0.1139074978785004  0.4270543119675949  0.1311175826784279
  0.8865785144107790  0.5417555971566372  0.8303840183542732
  0.8014874257237850  0.4024675760722971  0.5939002676905645
  0.5557498850632356  0.5393048475560747  0.3951015617686622
  0.4466951736438460  0.4275580794745863  0.1323502005443160
  0.2219989749347917  0.5414761083535140  0.8833799049659561
  0.1194545860541893  0.4266283636463228  0.6317876711932442
  0.8828525005693777  0.5402758760753841  0.3331420919880799
  0.7806524097052758  0.4234091074572888  0.0720834359339122
  0.5361616418569213  0.5685748862695945  0.8727305641165799
  0.4460467336768730  0.4230293227635045  0.6345239369788160
  0.2255099772134272  0.8713030089383764  0.3889703602948700
  0.1116770382092298  0.7623572430031587  0.1360728201420400
  0.8932414357956873  0.8774322903603746  0.8839163649647119
  0.7882058067624769  0.7645132927182701  0.5890852130129502
  0.5494385912421507  0.8741129708874169  0.3888641937337951
  0.4437397857232455  0.7587378844339341  0.1389937874475535
  0.2426570030384383  0.8595409907470781  0.8733813144490838
  0.0855707172977489  0.7737256922253621  0.6258907744872388
  0.8972521359530958  0.8730166354174429  0.4006920876281512
  0.7753377381982816  0.7593956441194791  0.0800265963552391
  0.5346818049056523  0.8622846130961861  0.8743791165351311
  0.4379631385367588  0.7633600687217665  0.6546638219926564
 
  0.00000000E+00  0.00000000E+00  0.00000000E+00
  0.00000000E+00  0.00000000E+00  0.00000000E+00
  0.00000000E+00  0.00000000E+00  0.00000000E+00
  0.00000000E+00  0.00000000E+00  0.00000000E+00
  0.00000000E+00  0.00000000E+00  0.00000000E+00
  0.00000000E+00  0.00000000E+00  0.00000000E+00
  0.00000000E+00  0.00000000E+00  0.00000000E+00
  0.00000000E+00  0.00000000E+00  0.00000000E+00
  0.00000000E+00  0.00000000E+00  0.00000000E+00
  0.00000000E+00  0.00000000E+00  0.00000000E+00
  0.00000000E+00  0.00000000E+00  0.00000000E+00
  0.00000000E+00  0.00000000E+00  0.00000000E+00
  0.00000000E+00  0.00000000E+00  0.00000000E+00
  0.00000000E+00  0.00000000E+00  0.00000000E+00
  0.00000000E+00  0.00000000E+00  0.00000000E+00
  0.00000000E+00  0.00000000E+00  0.00000000E+00
  0.00000000E+00  0.00000000E+00  0.00000000E+00
  0.00000000E+00  0.00000000E+00  0.00000000E+00
  0.00000000E+00  0.00000000E+00  0.00000000E+00
  0.00000000E+00  0.00000000E+00  0.00000000E+00
  0.00000000E+00  0.00000000E+00  0.00000000E+00
  0.00000000E+00  0.00000000E+00  0.00000000E+00
  0.00000000E+00  0.00000000E+00  0.00000000E+00
  0.00000000E+00  0.00000000E+00  0.00000000E+00
  0.00000000E+00  0.00000000E+00  0.00000000E+00
  0.00000000E+00  0.00000000E+00  0.00000000E+00
  0.00000000E+00  0.00000000E+00  0.00000000E+00
  0.00000000E+00  0.00000000E+00  0.00000000E+00
  0.00000000E+00  0.00000000E+00  0.00000000E+00
  0.00000000E+00  0.00000000E+00  0.00000000E+00
  0.00000000E+00  0.00000000E+00  0.00000000E+00
  0.00000000E+00  0.00000000E+00  0.00000000E+00
  0.00000000E+00  0.00000000E+00  0.00000000E+00
  0.00000000E+00  0.00000000E+00  0.00000000E+00
  0.00000000E+00  0.00000000E+00  0.00000000E+00
  0.00000000E+00  0.00000000E+00  0.00000000E+00
  0.00000000E+00  0.00000000E+00  0.00000000E+00
  0.00000000E+00  0.00000000E+00  0.00000000E+00
  0.00000000E+00  0.00000000E+00  0.00000000E+00
  0.00000000E+00  0.00000000E+00  0.00000000E+00
  0.00000000E+00  0.00000000E+00  0.00000000E+00
  0.00000000E+00  0.00000000E+00  0.00000000E+00
  0.00000000E+00  0.00000000E+00  0.00000000E+00
  0.00000000E+00  0.00000000E+00  0.00000000E+00
  0.00000000E+00  0.00000000E+00  0.00000000E+00
  0.00000000E+00  0.00000000E+00  0.00000000E+00
  0.00000000E+00  0.00000000E+00  0.00000000E+00
  0.00000000E+00  0.00000000E+00  0.00000000E+00
  0.00000000E+00  0.00000000E+00  0.00000000E+00
  0.00000000E+00  0.00000000E+00  0.00000000E+00
  0.00000000E+00  0.00000000E+00  0.00000000E+00
  0.00000000E+00  0.00000000E+00  0.00000000E+00
  0.00000000E+00  0.00000000E+00  0.00000000E+00
  0.00000000E+00  0.00000000E+00  0.00000000E+00
  0.00000000E+00  0.00000000E+00  0.00000000E+00
  0.00000000E+00  0.00000000E+00  0.00000000E+00
  0.00000000E+00  0.00000000E+00  0.00000000E+00
  0.00000000E+00  0.00000000E+00  0.00000000E+00
  0.00000000E+00  0.00000000E+00  0.00000000E+00
  0.00000000E+00  0.00000000E+00  0.00000000E+00
  0.00000000E+00  0.00000000E+00  0.00000000E+00
  0.00000000E+00  0.00000000E+00  0.00000000E+00
  0.00000000E+00  0.00000000E+00  0.00000000E+00
  0.00000000E+00  0.00000000E+00  0.00000000E+00
  0.00000000E+00  0.00000000E+00  0.00000000E+00
  0.00000000E+00  0.00000000E+00  0.00000000E+00
  0.00000000E+00  0.00000000E+00  0.00000000E+00
  0.00000000E+00  0.00000000E+00  0.00000000E+00
  0.00000000E+00  0.00000000E+00  0.00000000E+00
  0.00000000E+00  0.00000000E+00  0.00000000E+00
  0.00000000E+00  0.00000000E+00  0.00000000E+00
  0.00000000E+00  0.00000000E+00  0.00000000E+00
