generated by phonopy                    
   1.00000000000000     
    10.0351470768999995   -0.0000022330999784   -0.0000001056124209
    -5.0175765436399997    8.6906901959899994    0.0000001395531216
    -0.0000001735893656    0.0000001431815548   14.9533752540999991
   Pb   P    Cu   O 
    20    11     1    50
Direct
  0.0000112378198338  0.7633924222115880  0.1328736570934339
  0.0062694737088052  0.7625948851579309  0.6191184471391296
  0.0345442973459669  0.2671508228796071  0.3830842878643494
  0.9974863653935131  0.2590513723013714  0.8764896880066644
  0.2332345461886192  0.2350103852767944  0.1437038757924967
  0.2482334175478087  0.2586898885456108  0.6142829280463289
  0.7356187861151895  0.7452198420640528  0.3754820491546766
  0.7276583786854047  0.7344248336463721  0.8725389415119480
  0.7712823849738868  0.0065981123919414  0.1296296878942940
  0.7773490721231795  0.0162214827685077  0.6261625930951595
  0.2828419067579375  0.0134751789449226  0.3725098021816677
  0.2533836076001705  0.9971001289892953  0.8758606365386399
  0.6570742324577594  0.3319101616223961  0.0023771820465797
  0.6706494610905338  0.3251046758724954  0.4935670177107454
  0.3312997382509195  0.6713390667710968  0.0045667185934732
  0.3405259690496081  0.6452343449345861  0.4958324630089592
  0.3302742159521586  0.6347738207596336  0.2507099983598238
  0.3282952786841520  0.6741785340707906  0.7433707004796162
  0.6763791609733900  0.3260851368152302  0.2537207027573984
  0.6588260241722708  0.3237070191651270  0.7510051673764124
  0.6186058274277642  0.5915266089823987  0.1221299330780852
  0.6133695499373815  0.5930938282324476  0.6254379910714718
  0.3660541488112159  0.3915651971924206  0.8620422698193053
  0.4006738649623713  0.0258170259417128  0.1186092446269740
  0.3976225604613290  0.0294405829939635  0.6306594064738107
  0.6284557112244116  0.9877461140423165  0.3758740370643139
  0.5964987958039529  0.9712078984616710  0.8725515738265344
  0.9698136466424074  0.3727246297194071  0.1153572443504558
  0.9719430435264087  0.3771646135865936  0.6288800958813496
  0.0227646356353404  0.6260975216717668  0.3763485239591589
  0.0207938163094994  0.6284799350680004  0.8718871637751633
  0.4068023007642623  0.3979407940173019  0.3723620768677804
  0.5027311887623043  0.6526093048215813  0.1244078989585446
  0.5070635921366815  0.6650342024665505  0.6244187854972481
  0.4878986481642542  0.2663664078125052  0.3733844208455182
  0.4768316148439808  0.3251760302469364  0.8684354072782838
  0.3313938083992056  0.8482411561681502  0.1167651239605334
  0.3086995479816252  0.8497041394814104  0.6295976654628319
  0.7112425704205734  0.1674189951195260  0.3763633980272232
  0.6691694284764722  0.1495008959826407  0.8734842458858907
  0.1487689832151915  0.4769306152556680  0.1149525552485002
  0.1516877666634144  0.4617993419350697  0.6335083083226323
  0.8448854577051748  0.5148055948347334  0.3765524844506700
  0.8423876602279279  0.5248063876558575  0.8725174538678857
  0.7154396208770208  0.6387533288227516  0.0340403477748055
  0.7150534015862178  0.6356511918987025  0.5398566056984677
  0.2634366890047630  0.3603110942417516  0.4831960707948681
  0.2509986646340749  0.3365620912405447  0.9421401489723706
  0.3639845330468745  0.0872490126414576  0.0311729238606304
  0.3322167507204483  0.0898075965155982  0.5539598148133251
  0.6768428557192863  0.9273388529579165  0.4592803837260817
  0.6435646525877701  0.9094046170042205  0.9555715239195521
  0.9130058804584991  0.2628477192272456  0.0316180104586650
  0.9129530755621005  0.2719539454704716  0.5435496885814572
  0.0771457960829736  0.7315976298064584  0.4601272173885533
  0.0831654473893906  0.7366083561998593  0.9554813087691301
  0.2528079020787999  0.3532405704611818  0.2790235226399034
  0.2670226944945000  0.3437855098068283  0.7742551601412089
  0.7329261249474754  0.6569996474470230  0.2031066605460552
  0.7199897807860438  0.6430160087781900  0.7090011637854019
  0.6782348911054328  0.9300154007793893  0.2919427538623722
  0.6426882148998132  0.9127874321553762  0.7874048326831939
  0.3292894578714325  0.0695424835523326  0.2000740187862391
  0.3765174674426319  0.0942604383714425  0.7213926251470610
  0.0762569604204018  0.7272327749562777  0.2906188638281009
  0.0813900788308501  0.7357002077427381  0.7875360470192305
  0.9162835173961881  0.2667141174697605  0.2003352412231436
  0.8972493008621285  0.2680717093692024  0.7116852412009749
  0.5276453885668460  0.4099512731391286  0.1278437065484468
  0.5081064938004545  0.4092869562560537  0.6290281533803963
  0.4767860830894861  0.6104003784210121  0.3743637810561751
  0.4646845356336655  0.5739242743466733  0.8652641334502960
  0.5801552419704379  0.1137250392134419  0.1300675267550773
  0.5742729770579587  0.0985908856505162  0.6144479949109893
  0.4486872536826425  0.9163197733072650  0.3757737044759821
  0.4142545455728310  0.8925164909913192  0.8731759226045170
  0.8884181741670218  0.4709748359660821  0.1140220382642312
  0.9113786077636306  0.4925380697133122  0.6267616725728189
  0.1062351625480673  0.5256364381450211  0.3771518004585204
  0.0982566460729615  0.5236768885995744  0.8713770618045231
  0.0108543689512999  0.0165338178427561  0.1325900032213170
  0.0379339911608909  0.0625340446954112  0.6369832536189364
 
  0.00000000E+00  0.00000000E+00  0.00000000E+00
  0.00000000E+00  0.00000000E+00  0.00000000E+00
  0.00000000E+00  0.00000000E+00  0.00000000E+00
  0.00000000E+00  0.00000000E+00  0.00000000E+00
  0.00000000E+00  0.00000000E+00  0.00000000E+00
  0.00000000E+00  0.00000000E+00  0.00000000E+00
  0.00000000E+00  0.00000000E+00  0.00000000E+00
  0.00000000E+00  0.00000000E+00  0.00000000E+00
  0.00000000E+00  0.00000000E+00  0.00000000E+00
  0.00000000E+00  0.00000000E+00  0.00000000E+00
  0.00000000E+00  0.00000000E+00  0.00000000E+00
  0.00000000E+00  0.00000000E+00  0.00000000E+00
  0.00000000E+00  0.00000000E+00  0.00000000E+00
  0.00000000E+00  0.00000000E+00  0.00000000E+00
  0.00000000E+00  0.00000000E+00  0.00000000E+00
  0.00000000E+00  0.00000000E+00  0.00000000E+00
  0.00000000E+00  0.00000000E+00  0.00000000E+00
  0.00000000E+00  0.00000000E+00  0.00000000E+00
  0.00000000E+00  0.00000000E+00  0.00000000E+00
  0.00000000E+00  0.00000000E+00  0.00000000E+00
  0.00000000E+00  0.00000000E+00  0.00000000E+00
  0.00000000E+00  0.00000000E+00  0.00000000E+00
  0.00000000E+00  0.00000000E+00  0.00000000E+00
  0.00000000E+00  0.00000000E+00  0.00000000E+00
  0.00000000E+00  0.00000000E+00  0.00000000E+00
  0.00000000E+00  0.00000000E+00  0.00000000E+00
  0.00000000E+00  0.00000000E+00  0.00000000E+00
  0.00000000E+00  0.00000000E+00  0.00000000E+00
  0.00000000E+00  0.00000000E+00  0.00000000E+00
  0.00000000E+00  0.00000000E+00  0.00000000E+00
  0.00000000E+00  0.00000000E+00  0.00000000E+00
  0.00000000E+00  0.00000000E+00  0.00000000E+00
  0.00000000E+00  0.00000000E+00  0.00000000E+00
  0.00000000E+00  0.00000000E+00  0.00000000E+00
  0.00000000E+00  0.00000000E+00  0.00000000E+00
  0.00000000E+00  0.00000000E+00  0.00000000E+00
  0.00000000E+00  0.00000000E+00  0.00000000E+00
  0.00000000E+00  0.00000000E+00  0.00000000E+00
  0.00000000E+00  0.00000000E+00  0.00000000E+00
  0.00000000E+00  0.00000000E+00  0.00000000E+00
  0.00000000E+00  0.00000000E+00  0.00000000E+00
  0.00000000E+00  0.00000000E+00  0.00000000E+00
  0.00000000E+00  0.00000000E+00  0.00000000E+00
  0.00000000E+00  0.00000000E+00  0.00000000E+00
  0.00000000E+00  0.00000000E+00  0.00000000E+00
  0.00000000E+00  0.00000000E+00  0.00000000E+00
  0.00000000E+00  0.00000000E+00  0.00000000E+00
  0.00000000E+00  0.00000000E+00  0.00000000E+00
  0.00000000E+00  0.00000000E+00  0.00000000E+00
  0.00000000E+00  0.00000000E+00  0.00000000E+00
  0.00000000E+00  0.00000000E+00  0.00000000E+00
  0.00000000E+00  0.00000000E+00  0.00000000E+00
  0.00000000E+00  0.00000000E+00  0.00000000E+00
  0.00000000E+00  0.00000000E+00  0.00000000E+00
  0.00000000E+00  0.00000000E+00  0.00000000E+00
  0.00000000E+00  0.00000000E+00  0.00000000E+00
  0.00000000E+00  0.00000000E+00  0.00000000E+00
  0.00000000E+00  0.00000000E+00  0.00000000E+00
  0.00000000E+00  0.00000000E+00  0.00000000E+00
  0.00000000E+00  0.00000000E+00  0.00000000E+00
  0.00000000E+00  0.00000000E+00  0.00000000E+00
  0.00000000E+00  0.00000000E+00  0.00000000E+00
  0.00000000E+00  0.00000000E+00  0.00000000E+00
  0.00000000E+00  0.00000000E+00  0.00000000E+00
  0.00000000E+00  0.00000000E+00  0.00000000E+00
  0.00000000E+00  0.00000000E+00  0.00000000E+00
  0.00000000E+00  0.00000000E+00  0.00000000E+00
  0.00000000E+00  0.00000000E+00  0.00000000E+00
  0.00000000E+00  0.00000000E+00  0.00000000E+00
  0.00000000E+00  0.00000000E+00  0.00000000E+00
  0.00000000E+00  0.00000000E+00  0.00000000E+00
  0.00000000E+00  0.00000000E+00  0.00000000E+00
  0.00000000E+00  0.00000000E+00  0.00000000E+00
  0.00000000E+00  0.00000000E+00  0.00000000E+00
  0.00000000E+00  0.00000000E+00  0.00000000E+00
  0.00000000E+00  0.00000000E+00  0.00000000E+00
  0.00000000E+00  0.00000000E+00  0.00000000E+00
  0.00000000E+00  0.00000000E+00  0.00000000E+00
  0.00000000E+00  0.00000000E+00  0.00000000E+00
  0.00000000E+00  0.00000000E+00  0.00000000E+00
  0.00000000E+00  0.00000000E+00  0.00000000E+00
  0.00000000E+00  0.00000000E+00  0.00000000E+00
