supercell of icsd_191774.cif            
   1.00000000000000     
    10.7780475105788902   -0.0074783183191625   -0.0002772902000955
    -5.3954918786608523    9.3397243778518408   -0.0034292971909445
    -0.0002824374495185   -0.0044549041845811   11.3577697735405128
   N    In   Y 
    36    30     6
Direct
  0.2221488078806217  0.1110073399723248  0.4443461268103803
  0.1104331953699429  0.2209515263657309  0.1919822145037529
  0.8896702684332709  0.1123561442266521  0.9390069020115490
  0.7776354211047050  0.2226297061111921  0.6901679832190624
  0.5562431426893752  0.1104340220848670  0.4386488496837657
  0.4446475967287782  0.2213477215708011  0.1911305873374758
  0.2228735265474953  0.1129858340073113  0.9417632462003809
  0.1064344978041376  0.2259538566684469  0.6872710066623426
  0.8875767042268947  0.1102662034726833  0.4390546847091841
  0.7770619407702668  0.2214008047664393  0.1879932391997983
  0.5554456693228573  0.1110190067545247  0.9399494887030002
  0.4540036568408894  0.2250947277170710  0.6875781112617574
  0.2153190514339585  0.4400709894280794  0.4381679563470442
  0.1115175936907988  0.5565304559201891  0.1892412186429624
  0.8892351732420636  0.4434454579893554  0.9406091648785804
  0.7784865218479737  0.5521723236860794  0.6924856885371824
  0.5501554489766036  0.4370341167515974  0.4391941763677352
  0.4450436622786853  0.5571092238183226  0.1942558066512348
  0.2130537974431448  0.4396133585851203  0.9412236178563518
  0.1107429404879454  0.5559460053831202  0.6895801347659187
  0.8921195758718738  0.4363132766618136  0.4376494147784484
  0.7750100189571683  0.5475895070958643  0.1956274613947002
  0.5590614916541909  0.4392168538654104  0.9420618031725851
  0.4445261915710148  0.5546862501467800  0.7015192314290388
  0.2216321618280617  0.7755011765920585  0.4401087264178045
  0.1230932362931512  0.8950217290629610  0.1913190072240880
  0.8883757060221740  0.7775279579502197  0.9568632328408313
  0.7755488002293589  0.8930895463199491  0.6901473237290645
  0.5579105389813677  0.7844224832739570  0.4409483567812131
  0.4440940276975596  0.8895954837492326  0.1894219462224882
  0.2225981986074856  0.7774795558999443  0.9391610955958427
  0.1128052975118123  0.8844438541812707  0.6893409422931853
  0.8905831176786307  0.7833840405161041  0.4397282061301055
  0.7724622980481683  0.8954232434329938  0.1896582724248645
  0.5585320865292474  0.7864023550321804  0.9390450956517356
  0.4435777594386181  0.8898328891306022  0.6892551094538035
  0.2253957044792685  0.1135712373500155  0.2511385680033555
  0.1068535850072649  0.2216764352646834  0.4962512047318768
  0.8873545401487064  0.1139620367407659  0.7480483590138363
  0.7775083633984110  0.2215830581799736  0.9978573753343767
  0.5561521018385349  0.1109843463220201  0.2480416746952088
  0.4463898091323557  0.2200966611225539  0.4970689701401909
  0.1084832642777727  0.2202690832153209  0.0009679441216619
  0.8874152094560301  0.1135164629602130  0.2490301205791212
  0.7776424367486356  0.2189929604141980  0.4990126595571809
  0.5578433166490981  0.1115309736501402  0.7487390510534482
  0.4449849214762267  0.2196910316546763  0.0008124998120991
  0.2202290324140961  0.4437808174641376  0.2481938047956191
  0.1098919616198160  0.5527385072730837  0.4980894947552343
  0.8888309756686752  0.4426587960319779  0.7496792742603375
  0.7775315717772600  0.5495133812345614  0.0030197888856165
  0.5523782028360884  0.4404216944546562  0.2490911062263166
  0.2166151586249470  0.4433639642282188  0.7505840210097858
  0.1091976837320630  0.5555785670807225  0.9986347597582608
  0.8899965053522010  0.4396686525821423  0.2478321841117790
  0.5596029465649082  0.4418189193758835  0.7510672127841787
  0.2250568714035523  0.7781110206157109  0.2490503349052489
  0.1113822995407787  0.8875720424526961  0.4978752614336628
  0.7761437717107214  0.8947044019974442  0.0003272455430618
  0.5545063973935100  0.7816272664286927  0.2500070440665709
  0.4444585177967042  0.8912666437738039  0.4983732760778423
  0.2229572131940927  0.7765875147352901  0.7474823937902926
  0.1174439663083433  0.8923772499182050  0.0014680613843154
  0.7788209622319258  0.8927185901647618  0.4984785784969077
  0.5556254095721869  0.7830048068343061  0.7488205696347094
  0.4447171923243687  0.8914115935173612  0.9986391293876196
  0.2252847059346195  0.1148244718365845  0.7432755842493819
  0.4416648110002797  0.5553567996616025  0.4998753869686752
  0.7798418322898897  0.5522047941349157  0.4938780989239930
  0.4443428022103575  0.5559907333962570  0.9937910790086661
  0.8870599719620671  0.7772519301008529  0.7548125252611726
  0.8907368598839724  0.7822735256402993  0.2389799273491349
 
  0.00000000E+00  0.00000000E+00  0.00000000E+00
  0.00000000E+00  0.00000000E+00  0.00000000E+00
  0.00000000E+00  0.00000000E+00  0.00000000E+00
  0.00000000E+00  0.00000000E+00  0.00000000E+00
  0.00000000E+00  0.00000000E+00  0.00000000E+00
  0.00000000E+00  0.00000000E+00  0.00000000E+00
  0.00000000E+00  0.00000000E+00  0.00000000E+00
  0.00000000E+00  0.00000000E+00  0.00000000E+00
  0.00000000E+00  0.00000000E+00  0.00000000E+00
  0.00000000E+00  0.00000000E+00  0.00000000E+00
  0.00000000E+00  0.00000000E+00  0.00000000E+00
  0.00000000E+00  0.00000000E+00  0.00000000E+00
  0.00000000E+00  0.00000000E+00  0.00000000E+00
  0.00000000E+00  0.00000000E+00  0.00000000E+00
  0.00000000E+00  0.00000000E+00  0.00000000E+00
  0.00000000E+00  0.00000000E+00  0.00000000E+00
  0.00000000E+00  0.00000000E+00  0.00000000E+00
  0.00000000E+00  0.00000000E+00  0.00000000E+00
  0.00000000E+00  0.00000000E+00  0.00000000E+00
  0.00000000E+00  0.00000000E+00  0.00000000E+00
  0.00000000E+00  0.00000000E+00  0.00000000E+00
  0.00000000E+00  0.00000000E+00  0.00000000E+00
  0.00000000E+00  0.00000000E+00  0.00000000E+00
  0.00000000E+00  0.00000000E+00  0.00000000E+00
  0.00000000E+00  0.00000000E+00  0.00000000E+00
  0.00000000E+00  0.00000000E+00  0.00000000E+00
  0.00000000E+00  0.00000000E+00  0.00000000E+00
  0.00000000E+00  0.00000000E+00  0.00000000E+00
  0.00000000E+00  0.00000000E+00  0.00000000E+00
  0.00000000E+00  0.00000000E+00  0.00000000E+00
  0.00000000E+00  0.00000000E+00  0.00000000E+00
  0.00000000E+00  0.00000000E+00  0.00000000E+00
  0.00000000E+00  0.00000000E+00  0.00000000E+00
  0.00000000E+00  0.00000000E+00  0.00000000E+00
  0.00000000E+00  0.00000000E+00  0.00000000E+00
  0.00000000E+00  0.00000000E+00  0.00000000E+00
  0.00000000E+00  0.00000000E+00  0.00000000E+00
  0.00000000E+00  0.00000000E+00  0.00000000E+00
  0.00000000E+00  0.00000000E+00  0.00000000E+00
  0.00000000E+00  0.00000000E+00  0.00000000E+00
  0.00000000E+00  0.00000000E+00  0.00000000E+00
  0.00000000E+00  0.00000000E+00  0.00000000E+00
  0.00000000E+00  0.00000000E+00  0.00000000E+00
  0.00000000E+00  0.00000000E+00  0.00000000E+00
  0.00000000E+00  0.00000000E+00  0.00000000E+00
  0.00000000E+00  0.00000000E+00  0.00000000E+00
  0.00000000E+00  0.00000000E+00  0.00000000E+00
  0.00000000E+00  0.00000000E+00  0.00000000E+00
  0.00000000E+00  0.00000000E+00  0.00000000E+00
  0.00000000E+00  0.00000000E+00  0.00000000E+00
  0.00000000E+00  0.00000000E+00  0.00000000E+00
  0.00000000E+00  0.00000000E+00  0.00000000E+00
  0.00000000E+00  0.00000000E+00  0.00000000E+00
  0.00000000E+00  0.00000000E+00  0.00000000E+00
  0.00000000E+00  0.00000000E+00  0.00000000E+00
  0.00000000E+00  0.00000000E+00  0.00000000E+00
  0.00000000E+00  0.00000000E+00  0.00000000E+00
  0.00000000E+00  0.00000000E+00  0.00000000E+00
  0.00000000E+00  0.00000000E+00  0.00000000E+00
  0.00000000E+00  0.00000000E+00  0.00000000E+00
  0.00000000E+00  0.00000000E+00  0.00000000E+00
  0.00000000E+00  0.00000000E+00  0.00000000E+00
  0.00000000E+00  0.00000000E+00  0.00000000E+00
  0.00000000E+00  0.00000000E+00  0.00000000E+00
  0.00000000E+00  0.00000000E+00  0.00000000E+00
  0.00000000E+00  0.00000000E+00  0.00000000E+00
  0.00000000E+00  0.00000000E+00  0.00000000E+00
  0.00000000E+00  0.00000000E+00  0.00000000E+00
  0.00000000E+00  0.00000000E+00  0.00000000E+00
  0.00000000E+00  0.00000000E+00  0.00000000E+00
  0.00000000E+00  0.00000000E+00  0.00000000E+00
  0.00000000E+00  0.00000000E+00  0.00000000E+00
