Mg   Sb   N                             
   1.00000000000000     
     0.0099420645991189    0.0002392292378121    5.4263334484882400
    -5.9839006708000628   -0.0234811651714280    0.0006771099918298
     0.0408803678315552  -10.4176626275880047    0.0004139861572885
   Mg   Sb   N 
     8     4    12
Direct
  0.0000921150647190  0.1562044374565075  0.8276042056711955
  0.0000919989477188  0.1562043652806092  0.1723957267915219
  0.4945894315292857  0.8311242968422744  0.1768998109649727
  0.4945895493691174  0.8311241897063665  0.8231002158567376
  0.0045348759376952  0.6532865841086017  0.3306388495626792
  0.0045348064255539  0.6532865735657449  0.6693610702472202
  0.5060247404891175  0.3324938896225295  0.6681864667241489
  0.5060248226342513  0.3324938512526392  0.3318134899384147
  0.8839052950876458  0.6661039602433183  0.9999997548892507
  0.4556333529364963  0.3104532546656096  0.9999997425343010
  0.9972143816989538  0.1678273180746676  0.5000000917535278
  0.4976466363643747  0.8175834832873279  0.5000001129448801
  0.8959738787745445  0.8236882576251642  0.1671572807749866
  0.8959739377759246  0.8236882567079969  0.8328428771356404
  0.9237270772794435  0.3298081402601938  0.0000000220602244
  0.3932109809971376  0.1647932176960474  0.8335128495363856
  0.3932108204901054  0.1647930957883977  0.1664874286908959
  0.4837856966531964  0.6482034660577174  0.0000000421855749
  0.8919192303088553  0.3195692785147238  0.6596764906111564
  0.8919191699769752  0.3195693702056874  0.3403234984934617
  0.3903403667696519  0.6641743811132577  0.6586169019533386
  0.3903402810935969  0.6641742394073465  0.3413830720142818
  0.8793011424774766  0.8382798099963832  0.4999999933521323
  0.3794723300631367  0.1464568773561542  0.4999999980245949
 
             NaN             NaN             NaN
             NaN             NaN             NaN
             NaN             NaN             NaN
             NaN             NaN             NaN
             NaN             NaN             NaN
             NaN             NaN             NaN
             NaN             NaN             NaN
             NaN             NaN             NaN
             NaN             NaN             NaN
             NaN             NaN             NaN
             NaN             NaN             NaN
             NaN             NaN             NaN
             NaN             NaN             NaN
             NaN             NaN             NaN
             NaN             NaN             NaN
             NaN             NaN             NaN
             NaN             NaN             NaN
             NaN             NaN             NaN
             NaN             NaN             NaN
             NaN             NaN             NaN
             NaN             NaN             NaN
             NaN             NaN             NaN
             NaN             NaN             NaN
             NaN             NaN             NaN
