Mg   Sb   N                             
   1.00000000000000     
     0.0016454738028560    0.0006379565472642    5.4493659924620896
    -5.9675795125249511   -0.0390138842153112    0.0018055275568935
     0.0680135520624042  -10.4033306106139722    0.0011973470770967
   Mg   Sb   N 
     8     4    12
Direct
  0.9042966181102200  0.1504970368480263  0.8331377452055869
  0.9042966172525779  0.1504970339349889  0.1668622432374520
  0.4042966042332277  0.8341183242567181  0.1668622626298618
  0.4042966050801381  0.8341183245859478  0.8331377250569297
  0.0238919258949343  0.6504970037694312  0.3331377587972547
  0.0238919230252592  0.6504970064657385  0.6668622311210045
  0.5238919682202913  0.3341183225241831  0.6668622517345920
  0.5238919723913227  0.3341183229950999  0.3331377368262110
  0.9073127471567457  0.6665076333584941  0.9999999938412911
  0.4073127213652506  0.3181077215600844  0.9999999934931795
  0.0208756855906988  0.1665075546203857  0.4999999952566213
  0.5208756390153674  0.8181077245023737  0.4999999948073099
  0.0142555896581435  0.8194654022003295  0.1586004371611947
  0.0142555916222024  0.8194654054141525  0.8413995516821854
  0.0272411650668284  0.3377308416535167  0.9999999936026457
  0.5142556018504776  0.1651498788881592  0.8413995948277204
  0.5142555999077164  0.1651498792231767  0.1586003937994136
  0.5272412274413432  0.6468845666617611  0.9999999935628807
  0.9139329637766119  0.3194653899083585  0.6586004232599422
  0.9139329686059698  0.3194653869268823  0.3413995646662195
  0.4139329143029366  0.6651498013090563  0.6586004109160879
  0.4139329178864055  0.6651498014779720  0.3413995782887554
  0.9009470804870841  0.8377307516124799  0.4999999947416756
  0.4009471567528711  0.1468845482835128  0.4999999949919207
 
             NaN             NaN             NaN
             NaN             NaN             NaN
             NaN             NaN             NaN
             NaN             NaN             NaN
             NaN             NaN             NaN
             NaN             NaN             NaN
             NaN             NaN             NaN
             NaN             NaN             NaN
             NaN             NaN             NaN
             NaN             NaN             NaN
             NaN             NaN             NaN
             NaN             NaN             NaN
             NaN             NaN             NaN
             NaN             NaN             NaN
             NaN             NaN             NaN
             NaN             NaN             NaN
             NaN             NaN             NaN
             NaN             NaN             NaN
             NaN             NaN             NaN
             NaN             NaN             NaN
             NaN             NaN             NaN
             NaN             NaN             NaN
             NaN             NaN             NaN
             NaN             NaN             NaN
