Mg   Sb   N                             
   1.00000000000000     
    -0.0088061537352868    0.0001329019552916    5.4201914367618800
    -5.9655171586902593   -0.0234064672383823    0.0003761986411462
     0.0407063746834424  -10.3725719226079356    0.0003909937063007
   Mg   Sb   N 
     8     4    12
Direct
  0.0062108942470248  0.1571523440831530  0.8287983608648897
  0.0062106763469637  0.1571523457167330  0.1712013700561831
  0.4947027834306363  0.8295346924908097  0.1725968980359702
  0.4947028994669410  0.8295345775283373  0.8274030139458969
  0.0044292977788944  0.6527931424136036  0.3315567844659532
  0.0044290402732314  0.6527931768086612  0.6684430188496124
  0.5046476024198439  0.3303089142038086  0.6702269620868540
  0.5046478160780167  0.3303087930862822  0.3297729884131070
  0.9605115850339817  0.6701274068417747  1.0000005063222557
  0.4935534851627337  0.3140648296219515  0.9999994423482799
  0.9973135435111814  0.1676332689234948  0.5000006159535803
  0.4971019141254959  0.8167456183186937  0.5000006992160467
  0.8915849933838784  0.8223879943874084  0.1655602011149589
  0.8915848644740214  0.8223886186260733  0.8344394457481756
  0.8804787782657509  0.3309874172670853 -0.0000000145209538
  0.3916457613243921  0.1657200000779284  0.8372982603726702
  0.3916454307347690  0.1657198720497940  0.1627023371531366
  0.4149926015495281  0.6488449990997374 -0.0000000345466141
  0.8919537033383486  0.3189292252767502  0.6607379129792165
  0.8919533524382294  0.3189298058767791  0.3392617702316974
  0.3905465619196244  0.6643684415297855  0.6597811732241536
  0.3905462117420945  0.6643676923328456  0.3402183205249907
  0.8791107289289544  0.8378593103277524  0.5000000083614701
  0.3795523931698681  0.1467321079460029  0.4999999515100939
 
             NaN             NaN             NaN
             NaN             NaN             NaN
             NaN             NaN             NaN
             NaN             NaN             NaN
             NaN             NaN             NaN
             NaN             NaN             NaN
             NaN             NaN             NaN
             NaN             NaN             NaN
             NaN             NaN             NaN
             NaN             NaN             NaN
             NaN             NaN             NaN
             NaN             NaN             NaN
             NaN             NaN             NaN
             NaN             NaN             NaN
             NaN             NaN             NaN
             NaN             NaN             NaN
             NaN             NaN             NaN
             NaN             NaN             NaN
             NaN             NaN             NaN
             NaN             NaN             NaN
             NaN             NaN             NaN
             NaN             NaN             NaN
             NaN             NaN             NaN
             NaN             NaN             NaN
