Mg   Sb   N                             
   1.00000000000000     
    -0.0087461927334858    0.0001063201346615    5.4186559338302898
    -5.9583778220358630   -0.0233805023704515    0.0003009708034752
     0.0406532245612608  -10.3599347452585580    0.0003773609289395
   Mg   Sb   N 
     8     4    12
Direct
  0.0047925905578470  0.1561046923097243  0.8289856197270270
  0.0047921189438955  0.1561045209218013  0.1710140772927895
  0.4981660817331995  0.8296254132546389  0.1717855437782636
  0.4981665013824115  0.8296252609266369  0.8282142877272285
  0.0039284425391495  0.6533549587437635  0.3309414429432682
  0.0039279772041636  0.6533548878897749  0.6690582693083107
  0.5044776014920886  0.3302259667418111  0.6701941317219740
  0.5044780568629059  0.3302258188092131  0.3298056423849406
  0.9867845454675833  0.6693969455305711  0.9999993109086209
  0.4949164045175145  0.3153978776683672  0.9999996628786537
  0.9972280197359771  0.1676613373648503  0.4999997933476241
  0.4970568245148759  0.8165691021411285  0.4999998609803719
  0.8907584323174456  0.8203217899496621  0.1634758710833699
  0.8907588300838986  0.8203216181811607  0.8365249969517933
  0.8791812566354446  0.3348933363971294  0.0000000724145884
  0.3913730268132842  0.1660564994945329  0.8378063999516161
  0.3913727663627746  0.1660564628081138  0.1621941791155554
  0.3884853515979828  0.6484346965394002  0.0000000766655232
  0.8917529388721090  0.3188870863353402  0.6608863258909755
  0.8917530931880351  0.3188871842712556  0.3391140789230354
  0.3906511274218481  0.6646958360164876  0.6602922944478163
  0.3906512486892925  0.6646956511272619  0.3397080553171075
  0.8790911943083617  0.8376431112615599  0.4999999952879779
  0.3795124879023284  0.1468445401510666  0.5000000036631386
 
             NaN             NaN             NaN
             NaN             NaN             NaN
             NaN             NaN             NaN
             NaN             NaN             NaN
             NaN             NaN             NaN
             NaN             NaN             NaN
             NaN             NaN             NaN
             NaN             NaN             NaN
             NaN             NaN             NaN
             NaN             NaN             NaN
             NaN             NaN             NaN
             NaN             NaN             NaN
             NaN             NaN             NaN
             NaN             NaN             NaN
             NaN             NaN             NaN
             NaN             NaN             NaN
             NaN             NaN             NaN
             NaN             NaN             NaN
             NaN             NaN             NaN
             NaN             NaN             NaN
             NaN             NaN             NaN
             NaN             NaN             NaN
             NaN             NaN             NaN
             NaN             NaN             NaN
