Mg   Sb   N                             
   1.00000000000000     
     0.0015779981466708    0.0006113747266341    5.4478304895305003
    -5.9680388975346190   -0.0294795458401023    0.0017302997192225
     0.0513924855733535  -10.4041710205555109    0.0011547556043580
   Mg   Sb   N 
     8     4    12
Direct
  0.8925242541563995  0.1505047535865800  0.8331299103893565
  0.8925243249734219  0.1505047192145601  0.1668700586868002
  0.3925242562443180  0.8341100066998693  0.1668700779992850
  0.3925242383117029  0.8341100364472779  0.8331299042283480
  0.0120239013053252  0.6505046871648188  0.3331299531024327
  0.0120238691005755  0.6505047305392092  0.6668700444509043
  0.5120238982915682  0.3341101021196679  0.6668700587559253
  0.5120239449798666  0.3341100874264368  0.3331299166528162
  0.8955041885507049  0.6665186468320879  0.9999999950561361
  0.3955041912986847  0.3180960622619760  0.9999999945579950
  0.0090439998026357  0.1665186900276877  0.4999999852468492
  0.5090439784992556  0.8180961131272568  0.4999999870255686
  0.0023860273217020  0.8194611768290266  0.1586047019242752
  0.0023860260471038  0.8194612412811391  0.8413952924779952
  0.0153565445451723  0.3377408810729538  0.9999999762986255
  0.5023860631510415  0.1651534783683115  0.8413953074094509
  0.5023860435453892  0.1651534702319860  0.1586046697881503
  0.5153564996703750  0.6468738966943431  0.9999999847785558
  0.9021618657446663  0.3194612204806778  0.6586046473961891
  0.9021619040264356  0.3194611746422684  0.3413953189952246
  0.4021618579863749  0.6651534771030694  0.6586046301632982
  0.4021618926254296  0.6651534633464464  0.3413953569463835
  0.8891916612807065  0.8377408908022717  0.4999999954371578
  0.3891916443179297  0.1468739277907530  0.4999999899865958
 
             NaN             NaN             NaN
             NaN             NaN             NaN
             NaN             NaN             NaN
             NaN             NaN             NaN
             NaN             NaN             NaN
             NaN             NaN             NaN
             NaN             NaN             NaN
             NaN             NaN             NaN
             NaN             NaN             NaN
             NaN             NaN             NaN
             NaN             NaN             NaN
             NaN             NaN             NaN
             NaN             NaN             NaN
             NaN             NaN             NaN
             NaN             NaN             NaN
             NaN             NaN             NaN
             NaN             NaN             NaN
             NaN             NaN             NaN
             NaN             NaN             NaN
             NaN             NaN             NaN
             NaN             NaN             NaN
             NaN             NaN             NaN
             NaN             NaN             NaN
             NaN             NaN             NaN
