Mg   Sb   N                             
   1.00000000000000     
     0.0023421535734295    0.0003322656100176    5.4317077087488101
    -5.9970103673018444   -0.0194941664411837    0.0009404074236780
     0.0487901424403855  -10.4336959237670488   -0.0089681030107189
   Mg   Sb   N 
     8     4    12
Direct
  0.9545343759811949  0.1553888062213082  0.8265127955053173
  0.9987728560127858  0.1505016950660202  0.1770245343207451
  0.4969206349480274  0.8330229449554913  0.1770302083956589
  0.4908083834575800  0.8289805275308874  0.8244743720783329
  0.0057371347530440  0.6521815819596248  0.3311840675580392
  0.0056080650441729  0.6539697431920839  0.6683569640629120
  0.5031264675736807  0.3341378313375163  0.6668820757432344
  0.5057408021392056  0.3322736713875269  0.3303124395969068
  0.8808268627341949  0.6635284537485093  0.0005474566834782
  0.3821521147102792  0.3179638478274556  0.9994736878291712
  0.9979194013963333  0.1678339875851180  0.4995303828948166
  0.4976695347814256  0.8182160855928420  0.4997425829435655
  0.8979053271291051  0.8205187247659903  0.1672594297537215
  0.9008953374887657  0.8182323665661856  0.8337358217522260
  0.9966989836678144  0.3411396799449177  0.9992544176902952
  0.4294056109332293  0.1650411728499600  0.8344677362711093
  0.3969641055872741  0.1628770379881145  0.1668433441528064
  0.4950735013724082  0.6408770195668441  0.0010888185398279
  0.8910414990826396  0.3226739842642483  0.6573550005559223
  0.8912646857518072  0.3200095538943440  0.3406411662506342
  0.3904251169410961  0.6654873070940044  0.6580924846588979
  0.3912862020497641  0.6644877787607831  0.3411377415773131
  0.8793541816969304  0.8393669528532255  0.4998997191131953
  0.3794362286179035  0.1466771096367586  0.4991527185251450
 
             NaN             NaN             NaN
             NaN             NaN             NaN
             NaN             NaN             NaN
             NaN             NaN             NaN
             NaN             NaN             NaN
             NaN             NaN             NaN
             NaN             NaN             NaN
             NaN             NaN             NaN
             NaN             NaN             NaN
             NaN             NaN             NaN
             NaN             NaN             NaN
             NaN             NaN             NaN
             NaN             NaN             NaN
             NaN             NaN             NaN
             NaN             NaN             NaN
             NaN             NaN             NaN
             NaN             NaN             NaN
             NaN             NaN             NaN
             NaN             NaN             NaN
             NaN             NaN             NaN
             NaN             NaN             NaN
             NaN             NaN             NaN
             NaN             NaN             NaN
             NaN             NaN             NaN
