Mg   Sb   N                             
   1.00000000000000     
     0.0021950934200696    0.0003189746997026    5.4309399572830097
    -5.9948142106962390   -0.0204631500513213    0.0009027935048425
     0.0470836463157774  -10.4327434666684731   -0.0084056006750106
   Mg   Sb   N 
     8     4    12
Direct
  0.9725352322692090  0.1541894657928483  0.8253028139253142
  0.9982891743679101  0.1507379652309198  0.1770281796243641
  0.4969582534800304  0.8329332625166819  0.1770607846101993
  0.4924966882573956  0.8301611298772149  0.8241307641603236
  0.0056544826051070  0.6523028687216177  0.3311640423718454
  0.0053235860231188  0.6537517748991808  0.6685310529808749
  0.5036223920641711  0.3334822207120391  0.6675273479752637
  0.5056763974513039  0.3322771727157983  0.3304767334753211
  0.8808100350582925  0.6638594838860632  0.0004631393623785
  0.3817861508001172  0.3183750776883896  0.9996894988730501
  0.9976679564734497  0.1678596135624805  0.4996738062198024
  0.4975233594850097  0.8180492763105909  0.4998285473933065
  0.8977589940933836  0.8207127619809572  0.1672472734516921
  0.8991931807378843  0.8192190269280397  0.8335928890296759
  0.9959351052356821  0.3415612244329043  0.9996878086957210
  0.4141979343436495  0.1641637610790315  0.8335952266447426
  0.3971354832851818  0.1628683812357792  0.1669027203785205
  0.4950012578744872  0.6410981822982945  0.0008454384676709
  0.8906432993668881  0.3220405667501188  0.6578407723754132
  0.8911948464192012  0.3200946002513836  0.3407562484382767
  0.3903875770508029  0.6652662960483892  0.6582732570442984
  0.3911993257531126  0.6644888329241936  0.3411534720956000
  0.8792733832388760  0.8392240584622270  0.4999211514196190
  0.3793033181163976  0.1466708602846205  0.4993069974400165
 
             NaN             NaN             NaN
             NaN             NaN             NaN
             NaN             NaN             NaN
             NaN             NaN             NaN
             NaN             NaN             NaN
             NaN             NaN             NaN
             NaN             NaN             NaN
             NaN             NaN             NaN
             NaN             NaN             NaN
             NaN             NaN             NaN
             NaN             NaN             NaN
             NaN             NaN             NaN
             NaN             NaN             NaN
             NaN             NaN             NaN
             NaN             NaN             NaN
             NaN             NaN             NaN
             NaN             NaN             NaN
             NaN             NaN             NaN
             NaN             NaN             NaN
             NaN             NaN             NaN
             NaN             NaN             NaN
             NaN             NaN             NaN
             NaN             NaN             NaN
             NaN             NaN             NaN
