Mg   Sb   N                             
   1.00000000000000     
     0.0000691362754660    0.0000265746727710    5.4140494250355200
    -5.9446383290332188   -0.0086501084319768    0.0000752872904625
     0.0150390545948338  -10.3353358169579703    0.0000507833280513
   Mg   Sb   N 
     8     4    12
Direct
  0.9844190568812244  0.1542120598164816  0.8296349510616766
  0.9844190543125436  0.1542120599216341  0.1703650408729754
  0.4844190556348500  0.8304033263402470  0.1703650572383543
  0.4844190573858717  0.8304033268937516  0.8296349351692570
  0.9844190572728814  0.6542120580202907  0.3296349515393460
  0.9844190535085796  0.6542120585728239  0.6703650412045069
  0.4844190546034033  0.3304033252251042  0.6703650566990101
  0.4844190576673635  0.3304033259316085  0.3296349353107531
  0.9774595700452162  0.6680857602376625  0.9999999966434806
  0.4774595869172089  0.3165296435887348  0.9999999962293761
  0.9774595684321478  0.1680857575075975  0.4999999964068116
  0.4774595854515141  0.8165296414417432  0.4999999967316783
  0.8719787894316582  0.8186371368951934  0.1615648088367618
  0.8719787895806010  0.8186371376485816  0.8384351864651561
  0.8599326909575683  0.3370902580378604  0.9999999966174301
  0.3719787970397654  0.1659781202051970  0.8384352135511374
  0.3719787967329911  0.1659781201286801  0.1615647808876040
  0.3599326811310532  0.6475251387318424  0.9999999967720650
  0.8719787876175998  0.3186371360294441  0.6615648081537928
  0.8719787896549900  0.3186371360543717  0.3384351863221435
  0.3719787956434788  0.6659781185724902  0.6615647816268603
  0.3719787975646705  0.6659781190076574  0.3384352136157096
  0.8599326904234637  0.8370902556407155  0.4999999970485970
  0.3599326803610267  0.1475251363986273  0.4999999968288091
 
             NaN             NaN             NaN
             NaN             NaN             NaN
             NaN             NaN             NaN
             NaN             NaN             NaN
             NaN             NaN             NaN
             NaN             NaN             NaN
             NaN             NaN             NaN
             NaN             NaN             NaN
             NaN             NaN             NaN
             NaN             NaN             NaN
             NaN             NaN             NaN
             NaN             NaN             NaN
             NaN             NaN             NaN
             NaN             NaN             NaN
             NaN             NaN             NaN
             NaN             NaN             NaN
             NaN             NaN             NaN
             NaN             NaN             NaN
             NaN             NaN             NaN
             NaN             NaN             NaN
             NaN             NaN             NaN
             NaN             NaN             NaN
             NaN             NaN             NaN
             NaN             NaN             NaN
