Mg   Al   Hf   N 
   1.00000000000000     
  -9.7469566004690300  -0.0023489260107860  -0.0160735412984861
  -4.8530184385610697   8.4699712142403705   0.0042979803348392
  -0.0994231246495194   0.0522698477310586 -10.3144625592666994
Mg   Al   Hf   N 
5  26  5  36  
Direct
  0.1197228561437740  0.0888712840542283  0.3671264776163596  
  0.5584328264066585  0.5403167919009988  0.0706616081474820  
  0.2268601588794681  0.8651571839766135  0.0777521868074160  
  0.7648156326533240  0.7543747503806486  0.8973628850418791  
  0.5445634037948466  0.8837312326121634  0.1318226655478298  
  0.2244148605916578  0.2102430926403400  0.1378919086910244  
  0.8924425118276389  0.2085968837794994  0.5672858644213434  
  0.4286682627612421  0.0946526480504275  0.3911767281537308  
  0.5390894063483316  0.2206469837713030  0.0610405297366512  
  0.1236404115063579  0.0898962242641019  0.8905892350582292  
  0.2137060343344714  0.1953326094478811  0.6364298861228121  
  0.8931224664540451  0.2234351125126182  0.0663037596966589  
  0.4367761251351681  0.0873354851251520  0.8838698966633274  
  0.1173693293966593  0.4161402111583641  0.3937820209471639  
  0.2276490270625118  0.5439864303557371  0.0776738715660699  
  0.7673130785673408  0.4317544279482632  0.8099418064370170  
  0.8862023790788882  0.5424250021983283  0.6311718318241830  
  0.4359752143535616  0.4342922533426261  0.3197754220616105  
  0.2185486189454622  0.5488319185639341  0.5707254747952675  
  0.7706152654502816  0.4246215594917402  0.3193600275646631  
  0.9010733993401630  0.5308205838653706  0.1455029276380770  
  0.4417105591390893  0.4473585069172188  0.8189474058237280  
  0.5531619500127363  0.5475297674073829  0.5656636284606549  
  0.1246230393606567  0.7518202361730744  0.3225104953400262  
  0.9010171460895080  0.8658982910536039  0.5742995097810635  
  0.4361594058266363  0.7552528082932000  0.3147044743503216  
  0.1212460254790528  0.7623800201028814  0.8204543157943789  
  0.2266207266589362  0.8670169200244899  0.5694862667111522  
  0.9069379360718202  0.8531607912387926  0.0743516436999485  
  0.4386664688436497  0.7615023545683002  0.8179544358055892  
  0.5560045509237597  0.8694772251219405  0.6362442105416335  
  0.7899666690384564  0.0872077016518134  0.8426988200671843  
  0.7725641283864277  0.1003189014517929  0.3070239936335923  
  0.5504170398351249  0.2106645728055128  0.5937937592094471  
  0.1095346037970302  0.4287838328713320  0.8740638172777864  
  0.7749412401248676  0.7583479585702975  0.3600550759985026  
  0.2304834654558476  0.2161615722702237  0.3217628415481570  
  0.1113584627300881  0.1114563350621509  0.0796856224928959  
  0.8943158144009473  0.2225881091352946  0.8776230257895037  
  0.7955900403691771  0.0820769635591745  0.6336964897924631  
  0.5441799802091367  0.2141298963645397  0.3865067358298973  
  0.4308280391980261  0.1109605030134730  0.0650483803008299  
  0.2283531489845885  0.1922379014034874  0.8200968964111084  
  0.1096261669493970  0.0915890750762927  0.5849769997040539  
  0.8725124063593057  0.2177010536489092  0.3822299023664115  
  0.7741080380904179  0.0992585824013332  0.0968187264282392  
  0.5397234477741719  0.2204081181265920  0.8558762830708631  
  0.4296586354990524  0.0870518853763969  0.5804156827250750  
  0.2227704619521447  0.5385202480562228  0.3854202084015270  
  0.1093463277432747  0.4295407248896268  0.0779242401256042  
  0.8804084959219267  0.5394917704754647  0.8167265655792093  
  0.7717182894921919  0.4242282911289976  0.6215014948988298  
  0.5554004338680727  0.5351009078621800  0.3802135731014644  
  0.4373825700481433  0.4183675505917819  0.1363757067413189  
  0.2354759376152273  0.5518391979408861  0.8844459909144149  
  0.1116125342525791  0.4220620852790589  0.5890960223721393  
  0.9051015148152004  0.5150941503793049  0.3379220873557855  
  0.7884023060502230  0.4208033490159480  0.1358523278446739  
  0.5578201579063560  0.5418520293720235  0.8666758336416223  
  0.4302317697631963  0.4507468101993695  0.6320988948702606  
  0.2325295124590028  0.8474501873396107  0.3861644206908323  
  0.1080861333495022  0.7495873282496390  0.1421509180240221  
  0.9138688506063346  0.8522023068688114  0.8906976741311752  
  0.7766099260292023  0.7602523118512892  0.5768522912593497  
  0.5358448497750388  0.8849656703602236  0.3450242227551641  
  0.4432847664142514  0.7539753548610335  0.1387350634961990  
  0.2232079999507661  0.8723551382133934  0.8673809563174117  
  0.1105685911445420  0.7584539309873293  0.6338568574881762  
  0.9066733437395200  0.8759889893826696  0.3856345290688807  
  0.7916033182936175  0.7539245422577636  0.1231516078448678  
  0.5458427378518138  0.8824323525290083  0.8230265872013049  
  0.4432612254489143  0.7573391078774776  0.6270146138036736  
