Mg   Al   Hf   N                        
   1.00000000000000     
    -9.8468739356796426    0.0026722858227722   -0.0152276608441235
    -4.9379659952753885    8.5459982134115577    0.0020781524781264
    -0.0497778541693481   -0.0003361503989648  -10.0417321288867285
   Mg   Al   Hf   N 
     5    26     5    36
Direct
  0.1208754376209035  0.0905380575709521  0.3715559366907007
  0.5614806097494123  0.5319880726895535  0.1040787323872616
  0.2202597905522463  0.8693330182942876  0.0767722184963197
  0.7696923393439270  0.7587457970840656  0.8871523755339076
  0.5452850275745825  0.8803034514839213  0.1170219487866192
  0.2202519268541522  0.2127289119401178  0.1330664274510783
  0.9005298584576651  0.2042911496586074  0.6325082985024484
  0.4281262896640717  0.0920324572963346  0.3834036220904292
  0.5342418112351250  0.2092075263827655  0.1417622240455052
  0.1152433014514014  0.0934954759148895  0.8851862625149370
  0.2173657795068260  0.1931769549740064  0.6318773707631976
  0.9010545146568589  0.2227184742628796  0.1337369065777260
  0.4380604204152279  0.0936772012919504  0.8850537571054734
  0.1160369421482669  0.4180386616973514  0.3892609015977037
  0.2267768681314871  0.5416768264329208  0.0733167044826657
  0.7783513497581823  0.4316708768741559  0.8815061937825456
  0.8817353308995795  0.5409641236990186  0.6296467147211930
  0.4338999868848775  0.4420099422315764  0.3229380115013373
  0.2178262470522443  0.5506268913320136  0.5706065924557990
  0.7737389308045318  0.4279166731619327  0.3876167897720681
  0.8990936262224222  0.5269353107049872  0.1337128541246073
  0.4403188586955827  0.4427578262289625  0.8206176066543176
  0.5579564131839938  0.5464521189919468  0.6170794203624218
  0.1279603059431844  0.7471499581133620  0.3199121117415422
  0.9005626567456358  0.8617684120814753  0.5707896448206697
  0.4365190030625158  0.7563210933031721  0.3075058310299735
  0.1171068968650324  0.7693122665891317  0.8201629305934515
  0.2280048118140730  0.8661465218453482  0.5693179573263425
  0.9069186418696559  0.8492250399359367  0.0823395079558603
  0.4363348944147227  0.7675404327288107  0.8305913617827215
  0.5532665304849015  0.8711322817166746  0.6367122289367727
  0.7729289575679457  0.1035266185558137  0.8929406885877375
  0.7851843765444330  0.0954247324342635  0.3498459645666430
  0.5478744473828797  0.2090311472404375  0.6063235130200644
  0.1119323384900885  0.4292573197534716  0.8610756598322378
  0.7721132454798424  0.7555659215192435  0.3507500868515804
  0.2273112050797457  0.2169700044000831  0.3215160561837750
  0.1060079743699146  0.1148908320297208  0.0754121998608101
  0.8954688922967718  0.2112667709328793  0.8254522790944344
  0.7926779483771665  0.0902550266038992  0.5796368511515180
  0.5385758907778726  0.2103245031772835  0.3531427819745470
  0.4320134216318743  0.1143020672762878  0.0710049383753946
  0.2287318816472107  0.1907587298903106  0.8211501994768426
  0.1103356728177246  0.0918825186651406  0.5830209699063473
  0.8877958586542996  0.2241309621435768  0.3198936474802372
  0.7714645251473108  0.0968010411413498  0.1107393081865998
  0.5393899429192484  0.2126091648741034  0.8230538834288794
  0.4307490696721240  0.0861925025288031  0.5747663854431174
  0.2218850786405532  0.5369999499317073  0.3825654354125864
  0.1106787874767382  0.4291307556449525  0.0721640707226651
  0.8783053935606306  0.5371037566021697  0.8166965426685455
  0.7815897269217174  0.4232475030166904  0.5787570950987320
  0.5570907366186486  0.5359497822081115  0.3578714375335480
  0.4322435985796290  0.4224861597048387  0.1329707827181228
  0.2327719724372108  0.5549282090289689  0.8776454427303096
  0.1112894317892884  0.4242021412462147  0.5930485133502961
  0.9028389893424139  0.5125642355758019  0.3296717392124668
  0.7965612580314644  0.4236207654277639  0.0677018247596955
  0.5636282867537085  0.5359763603765385  0.8355222202696256
  0.4294619328783880  0.4504395221226251  0.6248832069074853
  0.2323359672218973  0.8477827093914512  0.3799547457930141
  0.1109947681284959  0.7464681027700737  0.1356491269366408
  0.9069989146190400  0.8658598320299151  0.8879937033800772
  0.7744920791388572  0.7607173901740535  0.5784746756935092
  0.5338093339734992  0.8834234814868681  0.3378124410961015
  0.4410541005784215  0.7572388898455972  0.1217970383297961
  0.2191755052312296  0.8763558310494908  0.8648817806843588
  0.1083964348067916  0.7614377568882650  0.6304597591009891
  0.9146179744546834  0.8560556238527514  0.3764750639046152
  0.7922773887599768  0.7499924800569409  0.1178751185186904
  0.5440948007821942  0.8854388848579662  0.8307320857959267
  0.4403386166565538  0.7638854098712616  0.6301594302512246
 
             NaN             NaN             NaN
             NaN             NaN             NaN
             NaN             NaN             NaN
             NaN             NaN             NaN
             NaN             NaN             NaN
             NaN             NaN             NaN
             NaN             NaN             NaN
             NaN             NaN             NaN
             NaN             NaN             NaN
             NaN             NaN             NaN
             NaN             NaN             NaN
             NaN             NaN             NaN
             NaN             NaN             NaN
             NaN             NaN             NaN
             NaN             NaN             NaN
             NaN             NaN             NaN
             NaN             NaN             NaN
             NaN             NaN             NaN
             NaN             NaN             NaN
             NaN             NaN             NaN
             NaN             NaN             NaN
             NaN             NaN             NaN
             NaN             NaN             NaN
             NaN             NaN             NaN
             NaN             NaN             NaN
             NaN             NaN             NaN
             NaN             NaN             NaN
             NaN             NaN             NaN
             NaN             NaN             NaN
             NaN             NaN             NaN
             NaN             NaN             NaN
             NaN             NaN             NaN
             NaN             NaN             NaN
             NaN             NaN             NaN
             NaN             NaN             NaN
             NaN             NaN             NaN
             NaN             NaN             NaN
             NaN             NaN             NaN
             NaN             NaN             NaN
             NaN             NaN             NaN
             NaN             NaN             NaN
             NaN             NaN             NaN
             NaN             NaN             NaN
             NaN             NaN             NaN
             NaN             NaN             NaN
             NaN             NaN             NaN
             NaN             NaN             NaN
             NaN             NaN             NaN
             NaN             NaN             NaN
             NaN             NaN             NaN
             NaN             NaN             NaN
             NaN             NaN             NaN
             NaN             NaN             NaN
             NaN             NaN             NaN
             NaN             NaN             NaN
             NaN             NaN             NaN
             NaN             NaN             NaN
             NaN             NaN             NaN
             NaN             NaN             NaN
             NaN             NaN             NaN
             NaN             NaN             NaN
             NaN             NaN             NaN
             NaN             NaN             NaN
             NaN             NaN             NaN
             NaN             NaN             NaN
             NaN             NaN             NaN
             NaN             NaN             NaN
             NaN             NaN             NaN
             NaN             NaN             NaN
             NaN             NaN             NaN
             NaN             NaN             NaN
             NaN             NaN             NaN
