Mg   Al   Hf   N                        
   1.00000000000000     
    -9.7707701882880720   -0.0039326623577967   -0.0030126264581766
    -4.8718541982851225    8.4706806692032508    0.0107777959516632
    -0.0602585200308415   -0.0074153767205699  -10.1201574159182712
   Mg   Al   Hf   N 
     5    26     5    36
Direct
  0.1181276661785972  0.0883258513297313  0.3160619268411093
  0.5558521733452949  0.5417234621535313  0.0679121007834556
  0.2249745968220201  0.8727975719548111  0.0644643511366930
  0.7731025132083543  0.7587015935156747  0.8080563181271772
  0.5562295227491580  0.8626953552412385  0.0657451554489291
  0.2161851877206409  0.2045186716392945  0.0717242602909456
  0.8935080436635831  0.2077045583501531  0.5682418474235700
  0.4347621464003079  0.0975577627757840  0.3431725734512834
  0.5378183159283767  0.2211054584618154  0.0615275953668505
  0.1198305206352610  0.0876398761533840  0.8099791334640086
  0.2129350663175419  0.2077472687013602  0.5581451671525615
  0.9021595025504185  0.2184760278402401  0.0593651884755891
  0.4391653750031546  0.0883709682011033  0.8712919518415668
  0.1169684628098688  0.4232666940085221  0.3071963358314203
  0.2252635972469988  0.5428915217704634  0.0733990592905474
  0.7711687814542171  0.4354139606790585  0.8127528463532020
  0.8901111847732964  0.5317849008808946  0.5628455903929899
  0.4391707567881983  0.4357723241252613  0.3138686209977059
  0.2156515124528877  0.5464335581075241  0.5587175657310154
  0.7765894485749105  0.4253523894007067  0.3141968797558548
  0.8871046001383521  0.5359395254586181  0.0695538342144586
  0.4397958597184944  0.4479971473999971  0.8153618633235238
  0.5539856808124156  0.5451291096355939  0.5646152946009639
  0.1241017599516157  0.7555742346981448  0.3140207844729352
  0.8998326994632300  0.8650307724538842  0.5693264347267840
  0.4360454925196268  0.7589885551719500  0.3128118421614854
  0.1229672811865320  0.7604067721264834  0.8133074707446978
  0.2244044839049024  0.8681365919078267  0.5667783228325562
  0.9055358480043364  0.8477141056253110  0.0616210547673950
  0.4431894663241066  0.7633361039510876  0.8113164089098239
  0.5467080094832951  0.8703575888179010  0.5732756728106795
  0.7861458255215511  0.0896160076173341  0.8440579368216703
  0.7800382908289671  0.0990399493161045  0.3005501511298674
  0.5502885107859899  0.2075687079721935  0.5880927344268372
  0.1120528394757186  0.4310804199897355  0.8272406988317406
  0.7770288479957402  0.7562984596591208  0.3318741603708243
  0.2221791502126881  0.2180445531309849  0.3714749206977533
  0.1037165193589768  0.1062924502359187  0.1163421423132621
  0.9001308083371797  0.2172251350983926  0.8683002322134347
  0.7961468018326499  0.0826364300598746  0.6290810059796558
  0.5477577177981708  0.2104180627035946  0.3738824830946392
  0.4375540744572733  0.1070312351522345  0.0888972251975105
  0.2205403259543755  0.1962590524301416  0.8738430924519910
  0.1096185586185633  0.0960216598304281  0.6180624029916880
  0.8777302247401358  0.2171188868468953  0.3822643253140482
  0.7744202986893176  0.0981389953013145  0.0862999018581500
  0.5349729501051720  0.2217402898929434  0.8546489273894613
  0.4295399229153755  0.0911902116898955  0.5995741335226854
  0.2201826398415983  0.5377019363311325  0.3708877816413174
  0.1116935944203802  0.4296787328365579  0.1128505169113489
  0.8796176066327317  0.5332996921929617  0.8799185129809194
  0.7772622405396123  0.4278153021991987  0.6221563607644909
  0.5581577510951619  0.5343549363469741  0.3754666727107279
  0.4376237605077752  0.4225467880175141  0.1289613791684258
  0.2327669371950714  0.5503956602300237  0.8813654732099254
  0.1091643632864238  0.4301026159510999  0.6183119928261991
  0.9012902740165611  0.5160966013320805  0.3740761488316691
  0.7904227271983572  0.4212859871877255  0.1291642409799836
  0.5571468890542159  0.5413457835100596  0.8591771673046328
  0.4283387386911752  0.4500323062175686  0.6239143651681648
  0.2279625793476230  0.8554336423850396  0.3819701680940030
  0.1067723981097602  0.7537092336183415  0.1304098743177348
  0.9127029659332279  0.8504167228974762  0.8752999489323383
  0.7790735425579658  0.7585751928604620  0.5920028442360301
  0.5368388334853772  0.8794199419138049  0.3777775127745031
  0.4431499654179675  0.7592345676272080  0.1353741639133089
  0.2231597283775145  0.8733778026285771  0.8537461104596198
  0.1116129437105696  0.7568770638068917  0.6237116146361761
  0.9044480468775851  0.8727006113329157  0.3786764354798947
  0.7939215820194174  0.7515923150128246  0.1268416823177904
  0.5449413728691335  0.8760281548975136  0.8543747669555293
  0.4435141793257431  0.7583110309828627  0.6197519260732428
 
             NaN             NaN             NaN
             NaN             NaN             NaN
             NaN             NaN             NaN
             NaN             NaN             NaN
             NaN             NaN             NaN
             NaN             NaN             NaN
             NaN             NaN             NaN
             NaN             NaN             NaN
             NaN             NaN             NaN
             NaN             NaN             NaN
             NaN             NaN             NaN
             NaN             NaN             NaN
             NaN             NaN             NaN
             NaN             NaN             NaN
             NaN             NaN             NaN
             NaN             NaN             NaN
             NaN             NaN             NaN
             NaN             NaN             NaN
             NaN             NaN             NaN
             NaN             NaN             NaN
             NaN             NaN             NaN
             NaN             NaN             NaN
             NaN             NaN             NaN
             NaN             NaN             NaN
             NaN             NaN             NaN
             NaN             NaN             NaN
             NaN             NaN             NaN
             NaN             NaN             NaN
             NaN             NaN             NaN
             NaN             NaN             NaN
             NaN             NaN             NaN
             NaN             NaN             NaN
             NaN             NaN             NaN
             NaN             NaN             NaN
             NaN             NaN             NaN
             NaN             NaN             NaN
             NaN             NaN             NaN
             NaN             NaN             NaN
             NaN             NaN             NaN
             NaN             NaN             NaN
             NaN             NaN             NaN
             NaN             NaN             NaN
             NaN             NaN             NaN
             NaN             NaN             NaN
             NaN             NaN             NaN
             NaN             NaN             NaN
             NaN             NaN             NaN
             NaN             NaN             NaN
             NaN             NaN             NaN
             NaN             NaN             NaN
             NaN             NaN             NaN
             NaN             NaN             NaN
             NaN             NaN             NaN
             NaN             NaN             NaN
             NaN             NaN             NaN
             NaN             NaN             NaN
             NaN             NaN             NaN
             NaN             NaN             NaN
             NaN             NaN             NaN
             NaN             NaN             NaN
             NaN             NaN             NaN
             NaN             NaN             NaN
             NaN             NaN             NaN
             NaN             NaN             NaN
             NaN             NaN             NaN
             NaN             NaN             NaN
             NaN             NaN             NaN
             NaN             NaN             NaN
             NaN             NaN             NaN
             NaN             NaN             NaN
             NaN             NaN             NaN
             NaN             NaN             NaN
