Mg   Al   Hf   N                        
   1.00000000000000     
    -9.8512752569030901   -0.0020017610696541   -0.0302817877477013
    -4.9182488558437889    8.5501090293772108    0.0004481561230205
    -0.0744747535914118   -0.0296851540404325   -9.9686178267134071
   Mg   Al   Hf   N 
     5    26     5    36
Direct
  0.1171308697470033  0.0947632693711363  0.3688661595481385
  0.5673792767942359  0.5248862496043833  0.1207350040017985
  0.2117185388471881  0.8749430801106893  0.0875211392841166
  0.7721829238052575  0.7583264147976287  0.8816967139427777
  0.5512189421902938  0.8839969868402279  0.1138269705550945
  0.2206785215475027  0.2124102492184339  0.1343152066799990
  0.9000494783151687  0.2047032070964517  0.6302398029511737
  0.4283661862787553  0.0941421350089925  0.3811209762640747
  0.5300822293394313  0.2179367942000771  0.1409336578548998
  0.1179514943838356  0.0902062456921383  0.8853709377896760
  0.2185886948523078  0.1909356311833807  0.6297365197583835
  0.9001811216902330  0.2229050991068316  0.1333009292125659
  0.4368822558526900  0.0932891802271510  0.8865188114356035
  0.1148574642741104  0.4193151273536915  0.3904182590990353
  0.2224248417255958  0.5365554786027470  0.0945923457901633
  0.7784871024938462  0.4300502369579946  0.8815874190533798
  0.8786200621567449  0.5412217555301182  0.6285231353529711
  0.4405831312738207  0.4460271717241313  0.3832833652507038
  0.2158537064641613  0.5498874512076491  0.5824237243022014
  0.7701859515915995  0.4311688226600237  0.3876849948230028
  0.8983374504750385  0.5271967346676718  0.1335649305561391
  0.4438812731525841  0.4352743649344993  0.8865672092080823
  0.5524449094537469  0.5496031687656759  0.6406214115029398
  0.1244770362700507  0.7483322571533819  0.3212262399289907
  0.8986997011899313  0.8638641703535198  0.5706701107209842
  0.4381573354454506  0.7594809278760903  0.3009572598225572
  0.1223257666164630  0.7684467637699317  0.8144956931805006
  0.2333157136439906  0.8646580208365027  0.5610704978028268
  0.9080152538552293  0.8472679108969965  0.0796241310960121
  0.4414136455451322  0.7625231136528201  0.8948849307096574
  0.5466978795197646  0.8668332703317904  0.6429650031489994
  0.7764918365360746  0.1005576061584345  0.8913894456359664
  0.7809605935108621  0.0976259204901388  0.3473335915972366
  0.5475456450198138  0.2092358793945071  0.6163883634472199
  0.1117300357731714  0.4289503804063438  0.8588958278541944
  0.7698765186604404  0.7563333610575858  0.3529507976993576
  0.2264244304275719  0.2182774151799575  0.3231599566501880
  0.1059246628225821  0.1161582859112611  0.0778697457534792
  0.8981101573118895  0.2095274720091031  0.8250800231525850
  0.7897513594409536  0.0914580213920928  0.5800104435148563
  0.5339162862932622  0.2187256801081857  0.3415480752767755
  0.4309406871710663  0.1170637191607060  0.0728426278534943
  0.2298398464622859  0.1892447930497057  0.8203620918595607
  0.1104621418430851  0.0907772500084410  0.5799979002461754
  0.8841609484154626  0.2261943091955619  0.3210978693664461
  0.7741693275063487  0.0961854025845705  0.1094515494598364
  0.5398772788315458  0.2131516534250352  0.8265866371594205
  0.4335924900749202  0.0844318112410583  0.5740927171946122
  0.2192804654382363  0.5379490095769647  0.3760394925550591
  0.1112052061987121  0.4286251931969020  0.0742018200383182
  0.8774047321612956  0.5360170246101988  0.8163349030937280
  0.7753055052522309  0.4254258403027290  0.5796985434855597
  0.5602218422789979  0.5371707857991206  0.3309039473141831
  0.4386357586728627  0.4191441046402473  0.0771498325472622
  0.2316856193071485  0.5501730345619908  0.8454077439393006
  0.1096177594152942  0.4235386736467979  0.5921903055607853
  0.9016658519286850  0.5138078827975191  0.3307081632281582
  0.7975955957367914  0.4229626858637267  0.0675824008607008
  0.5606318982015249  0.5333712783485521  0.8371024294318995
  0.4398793007186418  0.4463865323077849  0.5791816827805678
  0.2312537844042092  0.8520723680320673  0.3649075354119166
  0.1103289139255685  0.7447892637431099  0.1350828421983239
  0.9101972190831223  0.8637545114086115  0.8840970858343835
  0.7723238689401793  0.7623344654557047  0.5805468218423627
  0.5324754015529174  0.8866903057315265  0.3267674256344273
  0.4459591784624514  0.7569952512934620  0.0955233253986690
  0.2213239358696832  0.8734698130194601  0.8712918794894591
  0.1085674764677790  0.7668721129129052  0.6224561713039060
  0.9109423786286281  0.8582921777595592  0.3748225590263906
  0.7944998494358183  0.7482093051347338  0.1163064102161048
  0.5421384264582959  0.8817872589511644  0.8381247014672167
  0.4442504077539444  0.7594929897774270  0.6060691100504535
 
             NaN             NaN             NaN
             NaN             NaN             NaN
             NaN             NaN             NaN
             NaN             NaN             NaN
             NaN             NaN             NaN
             NaN             NaN             NaN
             NaN             NaN             NaN
             NaN             NaN             NaN
             NaN             NaN             NaN
             NaN             NaN             NaN
             NaN             NaN             NaN
             NaN             NaN             NaN
             NaN             NaN             NaN
             NaN             NaN             NaN
             NaN             NaN             NaN
             NaN             NaN             NaN
             NaN             NaN             NaN
             NaN             NaN             NaN
             NaN             NaN             NaN
             NaN             NaN             NaN
             NaN             NaN             NaN
             NaN             NaN             NaN
             NaN             NaN             NaN
             NaN             NaN             NaN
             NaN             NaN             NaN
             NaN             NaN             NaN
             NaN             NaN             NaN
             NaN             NaN             NaN
             NaN             NaN             NaN
             NaN             NaN             NaN
             NaN             NaN             NaN
             NaN             NaN             NaN
             NaN             NaN             NaN
             NaN             NaN             NaN
             NaN             NaN             NaN
             NaN             NaN             NaN
             NaN             NaN             NaN
             NaN             NaN             NaN
             NaN             NaN             NaN
             NaN             NaN             NaN
             NaN             NaN             NaN
             NaN             NaN             NaN
             NaN             NaN             NaN
             NaN             NaN             NaN
             NaN             NaN             NaN
             NaN             NaN             NaN
             NaN             NaN             NaN
             NaN             NaN             NaN
             NaN             NaN             NaN
             NaN             NaN             NaN
             NaN             NaN             NaN
             NaN             NaN             NaN
             NaN             NaN             NaN
             NaN             NaN             NaN
             NaN             NaN             NaN
             NaN             NaN             NaN
             NaN             NaN             NaN
             NaN             NaN             NaN
             NaN             NaN             NaN
             NaN             NaN             NaN
             NaN             NaN             NaN
             NaN             NaN             NaN
             NaN             NaN             NaN
             NaN             NaN             NaN
             NaN             NaN             NaN
             NaN             NaN             NaN
             NaN             NaN             NaN
             NaN             NaN             NaN
             NaN             NaN             NaN
             NaN             NaN             NaN
             NaN             NaN             NaN
             NaN             NaN             NaN
