Mg   Al   Hf   N                        
   1.00000000000000     
    -9.8009991348075474   -0.0017379560633759   -0.0089831620042628
    -4.9154494512506908    8.5084438587052187    0.0085939554252902
    -0.0752959689909699    0.0175699443769096  -10.1648265933104227
   Mg   Al   Hf   N 
     5    26     5    36
Direct
  0.1186335545792317  0.0887185420683487  0.3592546863896426
  0.5585067345452275  0.5395331904089127  0.0741640706544018
  0.2272114061664359  0.8645025663384838  0.0822476212086382
  0.7765538990500344  0.7652996998543548  0.8213118357625945
  0.5516711443930873  0.8777130926479030  0.1232088009823465
  0.2226858220938927  0.2145716859550654  0.1366999844723609
  0.8919933872903048  0.2061032182755223  0.5670700264963748
  0.4286047127864446  0.0948889655755978  0.3896488937669202
  0.5361772623946776  0.2218014802842867  0.0624970716569740
  0.1231330688324180  0.0904351189523858  0.8950983018599535
  0.2152932699342391  0.1904339377308789  0.6378302897668009
  0.8944322683450513  0.2245510274862624  0.0727938580416445
  0.4361359937812461  0.0865462951963322  0.8846870498329533
  0.1193017698781457  0.4146780162364625  0.3994001356833930
  0.2258629108780670  0.5434124535848899  0.0745095117251861
  0.7681062316240894  0.4327717486246856  0.8124425114651966
  0.8855819104620823  0.5325144438799709  0.5977156800033149
  0.4354132144269344  0.4336306363366090  0.3214353659849509
  0.2201442522210151  0.5505166065137608  0.5746099766039677
  0.7737700064704002  0.4267014386469534  0.3257377277381215
  0.8922134892538605  0.5379540788515337  0.0961667067281038
  0.4422482819409499  0.4493962530181757  0.8205253908548351
  0.5519251490212239  0.5461843728289784  0.5670672490412989
  0.1229048814030258  0.7506739437709977  0.3227992717292129
  0.9011779392326035  0.8678840829948481  0.5770136550094366
  0.4375456328140329  0.7548430616317395  0.3157411897014468
  0.1236202713653636  0.7653530015160385  0.8217771609675277
  0.2250422153157001  0.8680052577022797  0.5679814375383858
  0.9061721613072530  0.8470003660305852  0.0723802724705283
  0.4396037543746959  0.7619027120065972  0.8214001680401694
  0.5472165858683897  0.8725764906897177  0.6291032643137315
  0.7887273208921726  0.0920558823446995  0.8486539061672449
  0.7712299387951898  0.0970678984827844  0.3085444674889856
  0.5490344297752604  0.2099804949424051  0.5984153244708567
  0.1142844295813785  0.4293615115227927  0.8561355463380258
  0.7779082762449770  0.7535214779451059  0.3575692772817821
  0.2286911036126309  0.2185101217987377  0.3232798980558684
  0.1113489542851335  0.1107083133550736  0.0877350406141544
  0.8948071833713045  0.2233042906980633  0.8819086621140105
  0.7947908803373491  0.0841294926381525  0.6351556199840339
  0.5429117635487379  0.2137229767783139  0.3866639321370082
  0.4324176334296790  0.1096170765317142  0.0686180825657490
  0.2282110584468857  0.1884549138016388  0.8234898220349404
  0.1087018566149451  0.0919123942287918  0.5834500128872001
  0.8713545329703976  0.2156572430200704  0.3785854124013826
  0.7718354397616111  0.1007166387093112  0.0958605622628657
  0.5373411254427617  0.2214318027520421  0.8544658690046797
  0.4273507082278663  0.0890078785956374  0.5806936875933814
  0.2206762245895297  0.5380391102109255  0.3871657547576871
  0.1111281206076086  0.4291003564612281  0.0705964136024520
  0.8795243826472652  0.5354319672333033  0.8361151868504685
  0.7706510724561484  0.4209690502398878  0.6241949216177789
  0.5548040184015562  0.5339568058814800  0.3794260150997751
  0.4354843712693987  0.4200473770547279  0.1355439235236782
  0.2358617533116033  0.5555049071771450  0.8817617496547266
  0.1191789654661716  0.4205553048920405  0.6045258619145505
  0.8966710345904140  0.5124894273310353  0.3946243131132138
  0.7929160066061058  0.4256689130895444  0.1400466855427262
  0.5583196103933423  0.5416203376559422  0.8681390062463645
  0.4319377124775387  0.4502119235304994  0.6315787116284657
  0.2312155423532317  0.8473126590466525  0.3823395606819990
  0.1075119014694250  0.7489210744060678  0.1397346666704666
  0.9134356871879411  0.8544110844986947  0.8871602134355359
  0.7773062874278713  0.7644348427851062  0.5963301132225708
  0.5376170501320480  0.8815306792454721  0.3537380713410183
  0.4461879066339497  0.7547827886950803  0.1373599064307846
  0.2236671967289107  0.8743293501480662  0.8700385787163083
  0.1114575080902434  0.7608075450851723  0.6336936875286301
  0.9059200400513013  0.8729154360581115  0.3881585490143022
  0.7982414360992761  0.7500739690769549  0.1412937785407134
  0.5418126251011470  0.8844456997882638  0.8217219117344424
  0.4410164445749163  0.7565521582089653  0.6262737466856332
 
             NaN             NaN             NaN
             NaN             NaN             NaN
             NaN             NaN             NaN
             NaN             NaN             NaN
             NaN             NaN             NaN
             NaN             NaN             NaN
             NaN             NaN             NaN
             NaN             NaN             NaN
             NaN             NaN             NaN
             NaN             NaN             NaN
             NaN             NaN             NaN
             NaN             NaN             NaN
             NaN             NaN             NaN
             NaN             NaN             NaN
             NaN             NaN             NaN
             NaN             NaN             NaN
             NaN             NaN             NaN
             NaN             NaN             NaN
             NaN             NaN             NaN
             NaN             NaN             NaN
             NaN             NaN             NaN
             NaN             NaN             NaN
             NaN             NaN             NaN
             NaN             NaN             NaN
             NaN             NaN             NaN
             NaN             NaN             NaN
             NaN             NaN             NaN
             NaN             NaN             NaN
             NaN             NaN             NaN
             NaN             NaN             NaN
             NaN             NaN             NaN
             NaN             NaN             NaN
             NaN             NaN             NaN
             NaN             NaN             NaN
             NaN             NaN             NaN
             NaN             NaN             NaN
             NaN             NaN             NaN
             NaN             NaN             NaN
             NaN             NaN             NaN
             NaN             NaN             NaN
             NaN             NaN             NaN
             NaN             NaN             NaN
             NaN             NaN             NaN
             NaN             NaN             NaN
             NaN             NaN             NaN
             NaN             NaN             NaN
             NaN             NaN             NaN
             NaN             NaN             NaN
             NaN             NaN             NaN
             NaN             NaN             NaN
             NaN             NaN             NaN
             NaN             NaN             NaN
             NaN             NaN             NaN
             NaN             NaN             NaN
             NaN             NaN             NaN
             NaN             NaN             NaN
             NaN             NaN             NaN
             NaN             NaN             NaN
             NaN             NaN             NaN
             NaN             NaN             NaN
             NaN             NaN             NaN
             NaN             NaN             NaN
             NaN             NaN             NaN
             NaN             NaN             NaN
             NaN             NaN             NaN
             NaN             NaN             NaN
             NaN             NaN             NaN
             NaN             NaN             NaN
             NaN             NaN             NaN
             NaN             NaN             NaN
             NaN             NaN             NaN
             NaN             NaN             NaN
