Mg   Al   Hf   N                        
   1.00000000000000     
    -9.8340025505756881    0.0036720191146148   -0.0111742044944954
    -4.9298096621225111    8.5300525113783365    0.0024752044524922
    -0.0447000660261895    0.0045073866023218  -10.0835325718214435
   Mg   Al   Hf   N 
     5    26     5    36
Direct
  0.1212506083170651  0.0905239991340039  0.3721945910074456
  0.5551771288032528  0.5354072151367844  0.0795661780756652
  0.2227169832350178  0.8678879768094006  0.0766883304743678
  0.7690627309995585  0.7590536472927717  0.8876900368927476
  0.5443606488844166  0.8792912078461238  0.1185948769960499
  0.2206905081110377  0.2124509326093705  0.1329956213911075
  0.8999676029744887  0.2047739963935060  0.6333414281653235
  0.4281113162463324  0.0921166108266561  0.3846150494670350
  0.5341622727180882  0.2098827376006598  0.1433241965346633
  0.1159048480085664  0.0926244384756366  0.8855588063456449
  0.2172299734277427  0.1934677063482524  0.6328299331290659
  0.9010637707228442  0.2226374741531430  0.1333058989408234
  0.4386220592373847  0.0930585669017131  0.8845471062276030
  0.1166200314009503  0.4177610806060876  0.3896116424334274
  0.2281721430526927  0.5414168346136565  0.0736561507069531
  0.7782005908093499  0.4318784886477200  0.8813388880359514
  0.8812671585596450  0.5408122578179886  0.6308598907030682
  0.4335800101739506  0.4427175236880924  0.3249440988412481
  0.2164248964374821  0.5509140730811467  0.5713010795912900
  0.7795706793323435  0.4251523590399440  0.3876595079055765
  0.8989846010315962  0.5269572284772215  0.1334503856707647
  0.4415327203269349  0.4461175656473053  0.8158583080997871
  0.5513759740632628  0.5499172789101973  0.5769681135299336
  0.1280426152070638  0.7471753306631332  0.3196224775601824
  0.9004465451264709  0.8617177986532139  0.5706261893019519
  0.4362133679905926  0.7563643812101374  0.3111901232329962
  0.1169765403176484  0.7693693596777068  0.8209988270170556
  0.2262113018413315  0.8671845426297116  0.5704257299848650
  0.9067142014671605  0.8496887650492375  0.0823917974996090
  0.4383661160904793  0.7627213523786232  0.8246414954188576
  0.5538395837684215  0.8704521935336987  0.6364703118650035
  0.7713857069941187  0.1050275893889298  0.8942070009550399
  0.7856031095950086  0.0950428212223757  0.3502770299599325
  0.5483493567807332  0.2086916339332719  0.6062932949547625
  0.1125805545728583  0.4290647704975336  0.8624215652979447
  0.7727058978985928  0.7554828498620185  0.3505867166547865
  0.2278183885897793  0.2167931929452878  0.3209534891114050
  0.1066860060842852  0.1140726280559357  0.0751209829862555
  0.8954600212208458  0.2108167223571146  0.8255097355862606
  0.7930973331372658  0.0902589534426436  0.5783589202217092
  0.5388813654846972  0.2105733918034073  0.3548428566306369
  0.4329318468285484  0.1142143213256766  0.0704739567034424
  0.2287773500686380  0.1905635995391352  0.8213004038325650
  0.1099330891133629  0.0924828209553053  0.5832396805582809
  0.8882840471467993  0.2237602793751953  0.3187559321565908
  0.7710102347654922  0.0972635067088226  0.1114368255412581
  0.5390305508069662  0.2131645582679423  0.8211530693387902
  0.4305114642884914  0.0860258895208809  0.5749643022565846
  0.2215139996560714  0.5375849380258829  0.3838775438881646
  0.1113787955683312  0.4292622264798743  0.0724116965857964
  0.8787384258062853  0.5371496116908456  0.8169851000540866
  0.7827501871638894  0.4227928231768332  0.5783668881610023
  0.5542601918195436  0.5379647370383944  0.3800371632945763
  0.4330056811838266  0.4241431053749729  0.1380079860289198
  0.2341104371671514  0.5542096155300742  0.8777141859490933
  0.1112134536377545  0.4239778693552338  0.5928074633070940
  0.9037410618913622  0.5123479147172579  0.3287274398900608
  0.7968931455292914  0.4236285056111878  0.0684451306812400
  0.5599615709220713  0.5374205743271705  0.8560041550532517
  0.4299097153676639  0.4516932667520465  0.6234596669888910
  0.2315719008072352  0.8478179434047711  0.3820932119781281
  0.1111672258872599  0.7466303804038747  0.1359316942728916
  0.9065005506316149  0.8668316998036308  0.8889523369716208
  0.7747121773156072  0.7602798381431187  0.5779840425703091
  0.5342598048804964  0.8833568878083212  0.3395009648091505
  0.4416638319619982  0.7542070138495182  0.1299345514152478
  0.2214276401555772  0.8748928216001857  0.8648918414845651
  0.1077008868522687  0.7617443559245564  0.6317834073027947
  0.9151360242789827  0.8556135220864519  0.3768345887184831
  0.7917938705282678  0.7504974133368332  0.1182822689328498
  0.5435685379138006  0.8844053643390473  0.8294691921967640
  0.4414771593157787  0.7611303210063886  0.6286327845501316
 
             NaN             NaN             NaN
             NaN             NaN             NaN
             NaN             NaN             NaN
             NaN             NaN             NaN
             NaN             NaN             NaN
             NaN             NaN             NaN
             NaN             NaN             NaN
             NaN             NaN             NaN
             NaN             NaN             NaN
             NaN             NaN             NaN
             NaN             NaN             NaN
             NaN             NaN             NaN
             NaN             NaN             NaN
             NaN             NaN             NaN
             NaN             NaN             NaN
             NaN             NaN             NaN
             NaN             NaN             NaN
             NaN             NaN             NaN
             NaN             NaN             NaN
             NaN             NaN             NaN
             NaN             NaN             NaN
             NaN             NaN             NaN
             NaN             NaN             NaN
             NaN             NaN             NaN
             NaN             NaN             NaN
             NaN             NaN             NaN
             NaN             NaN             NaN
             NaN             NaN             NaN
             NaN             NaN             NaN
             NaN             NaN             NaN
             NaN             NaN             NaN
             NaN             NaN             NaN
             NaN             NaN             NaN
             NaN             NaN             NaN
             NaN             NaN             NaN
             NaN             NaN             NaN
             NaN             NaN             NaN
             NaN             NaN             NaN
             NaN             NaN             NaN
             NaN             NaN             NaN
             NaN             NaN             NaN
             NaN             NaN             NaN
             NaN             NaN             NaN
             NaN             NaN             NaN
             NaN             NaN             NaN
             NaN             NaN             NaN
             NaN             NaN             NaN
             NaN             NaN             NaN
             NaN             NaN             NaN
             NaN             NaN             NaN
             NaN             NaN             NaN
             NaN             NaN             NaN
             NaN             NaN             NaN
             NaN             NaN             NaN
             NaN             NaN             NaN
             NaN             NaN             NaN
             NaN             NaN             NaN
             NaN             NaN             NaN
             NaN             NaN             NaN
             NaN             NaN             NaN
             NaN             NaN             NaN
             NaN             NaN             NaN
             NaN             NaN             NaN
             NaN             NaN             NaN
             NaN             NaN             NaN
             NaN             NaN             NaN
             NaN             NaN             NaN
             NaN             NaN             NaN
             NaN             NaN             NaN
             NaN             NaN             NaN
             NaN             NaN             NaN
             NaN             NaN             NaN
