Mg   Al   Hf   N                        
   1.00000000000000     
    -9.7800391757595158    0.0005936454778606   -0.0128151356588743
    -4.8731379766268210    8.5095738048058909    0.0035937378615393
    -0.0490342641529122    0.0026772584528375  -10.2186550915043117
   Mg   Al   Hf   N 
     5    26     5    36
Direct
  0.1102156937526946  0.0934381678317801  0.3761470244316470
  0.5498112666360639  0.5454103031996193  0.0731305227458704
  0.2255921910797860  0.8683774295449065  0.0770594634711587
  0.7659918407015464  0.7564823918387436  0.8941170778775909
  0.5459596673492206  0.8841193072273027  0.1303998742959791
  0.2235480785357809  0.2111018152349273  0.1374541002510869
  0.9000180241166272  0.2062653558023496  0.6406204142957744
  0.4277229267247188  0.0956408776897738  0.3914932195591641
  0.5325639766547698  0.2248302839233386  0.0585339168973892
  0.1202673442590318  0.0922150766650932  0.8887997049008257
  0.2154489009465444  0.1948851312086444  0.6346721501236227
  0.9011672613608145  0.2140768789963538  0.1179791183875984
  0.4347548599757215  0.0871724610720964  0.8833379487915636
  0.1153896384632386  0.4162187361085562  0.3929368055428969
  0.2278234110917491  0.5452389177090159  0.0774223125152996
  0.7708862291865942  0.4347691972017253  0.8496687741534442
  0.8820483591409839  0.5380853967488860  0.6348118528076035
  0.4348226644677201  0.4341799266082093  0.3214548061546554
  0.2188640209174900  0.5486091143761773  0.5711041411342960
  0.7672076746394534  0.4287455800805868  0.3117636484641040
  0.9026105431738310  0.5330474405505323  0.1363522909518202
  0.4420604120715834  0.4497652618714604  0.8177948670056037
  0.5584004513737324  0.5444459507364250  0.5653328815739974
  0.1239573455856632  0.7528849643255066  0.3242749772759077
  0.9005114661636435  0.8651010907868044  0.5772208986412648
  0.4343868593024471  0.7590722847110316  0.3153501001630518
  0.1231030519318109  0.7633076880839058  0.8197349907729389
  0.2272193167432297  0.8659377383119549  0.5710137017174731
  0.9103951095546045  0.8481142973487924  0.0725885988594594
  0.4391835493503006  0.7622971730659763  0.8183680817690686
  0.5565333825218928  0.8683459293635433  0.6349421767020795
  0.7865198598210564  0.0860879903617908  0.8557436577509003
  0.7647031262706528  0.0923988242330882  0.3023113851932314
  0.5517556927041732  0.2098172728956444  0.5983357123044183
  0.1148459541297586  0.4288105093189424  0.8692264167714862
  0.7768355793654655  0.7540178879984278  0.3615426367659696
  0.2281851036310830  0.2147474136151238  0.3236909485845482
  0.1100963570278564  0.1142718613405601  0.0739413883141836
  0.9024651393998467  0.2128177049728828  0.8376140491230862
  0.7942094985024231  0.0786712033546129  0.6387727546358395
  0.5416029371892122  0.2172343961200945  0.3884435414963216
  0.4298176381421197  0.1114875993376676  0.0664475905806392
  0.2282113005198950  0.1918029812899552  0.8197018982476805
  0.1070894062837901  0.0928663076581020  0.5847241131109487
  0.8802557814791462  0.2101705140800247  0.3106111270008720
  0.7704868124901567  0.0972349085481996  0.0886439001792762
  0.5348666344234700  0.2237071350223123  0.8553786013052478
  0.4306369724695999  0.0862987691968600  0.5812660690605143
  0.2206322979760067  0.5387286172863697  0.3844796416838195
  0.1134951838167549  0.4293872711141539  0.0755633980755000
  0.8822925116974841  0.5382015565432953  0.8228186022319155
  0.7737296419049283  0.4236108036372976  0.6134099075437605
  0.5554838932189384  0.5356258965018669  0.3757779339379986
  0.4365265048499111  0.4197020989164654  0.1366410155326385
  0.2371261269195990  0.5541908735454069  0.8833956606881873
  0.1107423335653647  0.4228125683434217  0.5919200696538738
  0.9050592481276094  0.5118897067103032  0.3299054158354168
  0.7880047213868310  0.4300497395438226  0.1065219017800170
  0.5549967203879081  0.5446809574360049  0.8691410620189008
  0.4316538070177685  0.4511379188643118  0.6302583241679225
  0.2317003337231666  0.8494920270761600  0.3865277377327346
  0.1093597502259420  0.7508407098644796  0.1417600691229334
  0.9169043932556998  0.8490942868796134  0.8882741629765929
  0.7784184343729289  0.7561792724621456  0.5794451317516620
  0.5387076985036283  0.8857686580952125  0.3458552128641139
  0.4410905858042227  0.7592082256227966  0.1382184875332868
  0.2239121438488078  0.8741095912401048  0.8654401170758582
  0.1115300715297450  0.7582560680812955  0.6328025719971935
  0.9066444074099453  0.8728666892054830  0.3866745714105091
  0.7921498526329658  0.7553324326498820  0.1215149371241112
  0.5462474845371952  0.8826426497950549  0.8237665068030068
  0.4449049531821822  0.7559430053717910  0.6258262841413653
 
             NaN             NaN             NaN
             NaN             NaN             NaN
             NaN             NaN             NaN
             NaN             NaN             NaN
             NaN             NaN             NaN
             NaN             NaN             NaN
             NaN             NaN             NaN
             NaN             NaN             NaN
             NaN             NaN             NaN
             NaN             NaN             NaN
             NaN             NaN             NaN
             NaN             NaN             NaN
             NaN             NaN             NaN
             NaN             NaN             NaN
             NaN             NaN             NaN
             NaN             NaN             NaN
             NaN             NaN             NaN
             NaN             NaN             NaN
             NaN             NaN             NaN
             NaN             NaN             NaN
             NaN             NaN             NaN
             NaN             NaN             NaN
             NaN             NaN             NaN
             NaN             NaN             NaN
             NaN             NaN             NaN
             NaN             NaN             NaN
             NaN             NaN             NaN
             NaN             NaN             NaN
             NaN             NaN             NaN
             NaN             NaN             NaN
             NaN             NaN             NaN
             NaN             NaN             NaN
             NaN             NaN             NaN
             NaN             NaN             NaN
             NaN             NaN             NaN
             NaN             NaN             NaN
             NaN             NaN             NaN
             NaN             NaN             NaN
             NaN             NaN             NaN
             NaN             NaN             NaN
             NaN             NaN             NaN
             NaN             NaN             NaN
             NaN             NaN             NaN
             NaN             NaN             NaN
             NaN             NaN             NaN
             NaN             NaN             NaN
             NaN             NaN             NaN
             NaN             NaN             NaN
             NaN             NaN             NaN
             NaN             NaN             NaN
             NaN             NaN             NaN
             NaN             NaN             NaN
             NaN             NaN             NaN
             NaN             NaN             NaN
             NaN             NaN             NaN
             NaN             NaN             NaN
             NaN             NaN             NaN
             NaN             NaN             NaN
             NaN             NaN             NaN
             NaN             NaN             NaN
             NaN             NaN             NaN
             NaN             NaN             NaN
             NaN             NaN             NaN
             NaN             NaN             NaN
             NaN             NaN             NaN
             NaN             NaN             NaN
             NaN             NaN             NaN
             NaN             NaN             NaN
             NaN             NaN             NaN
             NaN             NaN             NaN
             NaN             NaN             NaN
             NaN             NaN             NaN
