generated by phonopy                    
   1.00000000000000     
    10.0351470768999995   -0.0000022330999784   -0.0000001056124209
    -5.0175765436399997    8.6906901959899994    0.0000001395531216
    -0.0000001735893656    0.0000001431815548   14.9533752540999991
   Pb   P    O 
    20    12    49
Direct
  0.9960979838146287  0.7777664366421391  0.1229807169947250
  0.9978209954314110  0.7715696722848833  0.6217998226125516
  0.0042172892278245  0.2454380529347304  0.3712970920394767
  0.0043232716102182  0.2603091292862061  0.8740582006529394
  0.2214979204399512  0.2173314465269840  0.1230487143689061
  0.2280240317368012  0.2257602035173250  0.6217869389348749
  0.7539771925437577  0.7580518980323916  0.3711873464991484
  0.7392598218231399  0.7433108638479098  0.8740551417772338
  0.7819807719469338  0.0033243874787487  0.1230440877073775
  0.7739860318176994  0.0019344552379010  0.6218077893159091
  0.2414985467072128  0.9953782747475728  0.3712034253570380
  0.2562911612553478  0.9954144096187392  0.8740670926275769
  0.6667223050911133  0.3330754366392128  0.0027513490999098
  0.6663784535471748  0.3330014880447720  0.4987490732027311
  0.3333024437935919  0.6664547767676794  0.0049842927810175
  0.3333457188734386  0.6663514283212066  0.4996989481730054
  0.3332343133627376  0.6664024597221143  0.2468333225776149
  0.3332059883179568  0.6662960229338921  0.7427432297867540
  0.6667562913528613  0.3330851993921442  0.2503119140368142
  0.6665029585039619  0.3329080966268307  0.7464231397787700
  0.6269659978921922  0.5976313705114507  0.1229483029092719
  0.6258324279638003  0.5956433055918851  0.6256706088022455
  0.3663327761867521  0.3983784646701736  0.3727832038349206
  0.3683510468699538  0.3954442003241496  0.8754149465250336
  0.4019775728985522  0.0288292804109531  0.1229418598262271
  0.4039921011296386  0.0296983930485197  0.6256607936538074
  0.6012089940947760  0.9674365476719657  0.3728085924519391
  0.6041558267109863  0.9723771349888750  0.8754079320712478
  0.9707197649764652  0.3726132006022951  0.1229545913543646
  0.9699050378930920  0.3738234668829179  0.6256761707903209
  0.0321880671171186  0.6332496076233127  0.3728247457269589
  0.0271924937189709  0.6311477825335530  0.8753607450592966
  0.5068027989329948  0.6523280787040804  0.1215686792307267
  0.5028397256666182  0.6472283815811295  0.6259068600016136
  0.4724685836781433  0.3269834152539630  0.3727090139389375
  0.4704641517637285  0.3194534691641664  0.8753639379068829
  0.3473194619684676  0.8540125410115564  0.1215049597023068
  0.3524330158946825  0.8550969184043211  0.6258819713794779
  0.6725908780522829  0.1449569335456360  0.3727421806713451
  0.6801164076275370  0.1504683725270013  0.8754000811965454
  0.1456315724063302  0.4928043301032616  0.1215889400483405
  0.1445370058768560  0.4967529827941846  0.6258856652804496
  0.8546440741245860  0.5271532350909709  0.3726694538518132
  0.8490852100245405  0.5290363217711231  0.8753720325572942
  0.7310908298454706  0.6508718905063873  0.0368287102008651
  0.7375149866557891  0.6660346465429470  0.5439580449547208
  0.2582220738388301  0.3473775099238807  0.4569294972022604
  0.2611571355794737  0.3502380211652252  0.9594867247853287
  0.3486978405331698  0.0797340763676502  0.0368569662383038
  0.3336263377003661  0.0710138111558436  0.5439501189354061
  0.6521798605717777  0.9102949704640082  0.4569505565425871
  0.6492762397903533  0.9103211450942723  0.9595247998431731
  0.9200469657208288  0.2684958400609929  0.0368801467490982
  0.9286474230048114  0.2620939042677009  0.5439626584400656
  0.0892248935061914  0.7414104298933282  0.4569638209148081
  0.0891810714831678  0.7385917563535997  0.9594114445425461
  0.2575442012279154  0.3477388535371944  0.2888268825658784
  0.2604867016992358  0.3490740969902504  0.7917160360380677
  0.7391913667948558  0.6691394648360429  0.2047354433609030
  0.7269315897744022  0.6487075991063946  0.7126428453321694
  0.6518989471508476  0.9093152334399903  0.2888415470956645
  0.6506132302709986  0.9109237497907756  0.7917380036006492
  0.3304351207454133  0.0694284734410004  0.2047615789223158
  0.3508274065876336  0.0776374560074515  0.7126333065568815
  0.0903882195235255  0.7420569047813430  0.2888614021120901
  0.0886104882396808  0.7388637581796900  0.7916177850079933
  0.9300206802799735  0.2604081203925901  0.2047239400842926
  0.9218986861911205  0.2726915102776672  0.7126306883972475
  0.5458514319032659  0.4177432710576952  0.1283643681757951
  0.5455853583098644  0.4152265151487384  0.6205058956315668
  0.4651295967244451  0.5798680213591183  0.3727971847733400
  0.4740081612604428  0.5771609624296374  0.8750804535988763
  0.5819016180556957  0.1275966242602493  0.1283476501062211
  0.5843757533312299  0.1298917321581712  0.6205393816831801
  0.4197276507571033  0.8847354253945312  0.3727918241311556
  0.4224476606191416  0.8963072593063330  0.8750499480919061
  0.8719576081664613  0.4538380151525203  0.1282780389205840
  0.8697431837943910  0.4540077507363804  0.6205015308628390
  0.1148458714636007  0.5344517838519138  0.3728268997904962
  0.1032898164534757  0.5255582785001636  0.8751800937093961
  0.9999564467034361  0.9997536442009505  0.6279690701199243
 
  0.00000000E+00  0.00000000E+00  0.00000000E+00
  0.00000000E+00  0.00000000E+00  0.00000000E+00
  0.00000000E+00  0.00000000E+00  0.00000000E+00
  0.00000000E+00  0.00000000E+00  0.00000000E+00
  0.00000000E+00  0.00000000E+00  0.00000000E+00
  0.00000000E+00  0.00000000E+00  0.00000000E+00
  0.00000000E+00  0.00000000E+00  0.00000000E+00
  0.00000000E+00  0.00000000E+00  0.00000000E+00
  0.00000000E+00  0.00000000E+00  0.00000000E+00
  0.00000000E+00  0.00000000E+00  0.00000000E+00
  0.00000000E+00  0.00000000E+00  0.00000000E+00
  0.00000000E+00  0.00000000E+00  0.00000000E+00
  0.00000000E+00  0.00000000E+00  0.00000000E+00
  0.00000000E+00  0.00000000E+00  0.00000000E+00
  0.00000000E+00  0.00000000E+00  0.00000000E+00
  0.00000000E+00  0.00000000E+00  0.00000000E+00
  0.00000000E+00  0.00000000E+00  0.00000000E+00
  0.00000000E+00  0.00000000E+00  0.00000000E+00
  0.00000000E+00  0.00000000E+00  0.00000000E+00
  0.00000000E+00  0.00000000E+00  0.00000000E+00
  0.00000000E+00  0.00000000E+00  0.00000000E+00
  0.00000000E+00  0.00000000E+00  0.00000000E+00
  0.00000000E+00  0.00000000E+00  0.00000000E+00
  0.00000000E+00  0.00000000E+00  0.00000000E+00
  0.00000000E+00  0.00000000E+00  0.00000000E+00
  0.00000000E+00  0.00000000E+00  0.00000000E+00
  0.00000000E+00  0.00000000E+00  0.00000000E+00
  0.00000000E+00  0.00000000E+00  0.00000000E+00
  0.00000000E+00  0.00000000E+00  0.00000000E+00
  0.00000000E+00  0.00000000E+00  0.00000000E+00
  0.00000000E+00  0.00000000E+00  0.00000000E+00
  0.00000000E+00  0.00000000E+00  0.00000000E+00
  0.00000000E+00  0.00000000E+00  0.00000000E+00
  0.00000000E+00  0.00000000E+00  0.00000000E+00
  0.00000000E+00  0.00000000E+00  0.00000000E+00
  0.00000000E+00  0.00000000E+00  0.00000000E+00
  0.00000000E+00  0.00000000E+00  0.00000000E+00
  0.00000000E+00  0.00000000E+00  0.00000000E+00
  0.00000000E+00  0.00000000E+00  0.00000000E+00
  0.00000000E+00  0.00000000E+00  0.00000000E+00
  0.00000000E+00  0.00000000E+00  0.00000000E+00
  0.00000000E+00  0.00000000E+00  0.00000000E+00
  0.00000000E+00  0.00000000E+00  0.00000000E+00
  0.00000000E+00  0.00000000E+00  0.00000000E+00
  0.00000000E+00  0.00000000E+00  0.00000000E+00
  0.00000000E+00  0.00000000E+00  0.00000000E+00
  0.00000000E+00  0.00000000E+00  0.00000000E+00
  0.00000000E+00  0.00000000E+00  0.00000000E+00
  0.00000000E+00  0.00000000E+00  0.00000000E+00
  0.00000000E+00  0.00000000E+00  0.00000000E+00
  0.00000000E+00  0.00000000E+00  0.00000000E+00
  0.00000000E+00  0.00000000E+00  0.00000000E+00
  0.00000000E+00  0.00000000E+00  0.00000000E+00
  0.00000000E+00  0.00000000E+00  0.00000000E+00
  0.00000000E+00  0.00000000E+00  0.00000000E+00
  0.00000000E+00  0.00000000E+00  0.00000000E+00
  0.00000000E+00  0.00000000E+00  0.00000000E+00
  0.00000000E+00  0.00000000E+00  0.00000000E+00
  0.00000000E+00  0.00000000E+00  0.00000000E+00
  0.00000000E+00  0.00000000E+00  0.00000000E+00
  0.00000000E+00  0.00000000E+00  0.00000000E+00
  0.00000000E+00  0.00000000E+00  0.00000000E+00
  0.00000000E+00  0.00000000E+00  0.00000000E+00
  0.00000000E+00  0.00000000E+00  0.00000000E+00
  0.00000000E+00  0.00000000E+00  0.00000000E+00
  0.00000000E+00  0.00000000E+00  0.00000000E+00
  0.00000000E+00  0.00000000E+00  0.00000000E+00
  0.00000000E+00  0.00000000E+00  0.00000000E+00
  0.00000000E+00  0.00000000E+00  0.00000000E+00
  0.00000000E+00  0.00000000E+00  0.00000000E+00
  0.00000000E+00  0.00000000E+00  0.00000000E+00
  0.00000000E+00  0.00000000E+00  0.00000000E+00
  0.00000000E+00  0.00000000E+00  0.00000000E+00
  0.00000000E+00  0.00000000E+00  0.00000000E+00
  0.00000000E+00  0.00000000E+00  0.00000000E+00
  0.00000000E+00  0.00000000E+00  0.00000000E+00
  0.00000000E+00  0.00000000E+00  0.00000000E+00
  0.00000000E+00  0.00000000E+00  0.00000000E+00
  0.00000000E+00  0.00000000E+00  0.00000000E+00
  0.00000000E+00  0.00000000E+00  0.00000000E+00
  0.00000000E+00  0.00000000E+00  0.00000000E+00
