supercell of 100% icsd_608626.cif, 0% i 
   1.00000000000000     
    -9.3894622831629242   -0.0042708052183831   -0.0007540556470559
    -4.6910321686663439    8.1334109637025716   -0.0009225972649501
    -0.0008066190327432    0.0006729670575357  -10.0289121323518735
   Al   Mg   Si   N 
    34     1     1    36
Direct
  0.1107934303521958  0.0957006314208542  0.2949799287242669
  0.2217991859318005  0.2063219347336442  0.0453028557536328
  0.7778156115487675  0.0939870332741748  0.7952808065799459
  0.8899920134046724  0.2032401903972954  0.5453148053684984
  0.4425222797254236  0.0961987949844669  0.2949145798564388
  0.5560263403508330  0.2057430248844483  0.0454665423079987
  0.1118577438982413  0.0939866412357020  0.7956026810717702
  0.2219938115607931  0.2060482555174019  0.5454772267806050
  0.7799619453411495  0.0932190191718689  0.2950657740122367
  0.8882850898760779  0.2066951942139923  0.0435698680037362
  0.4444580102839097  0.0942930436208371  0.7955106836681836
  0.5563171177042108  0.2054624935573202  0.5455706363995887
  0.1100327730611852  0.4296172542884946  0.2958526251251712
  0.2220806898914063  0.5388037634248377  0.0451616810611029
  0.7776505835932781  0.4278713697913332  0.7962090314465371
  0.8899858082164087  0.5393922151057140  0.5450437571536639
  0.4420821739197649  0.4302020354730800  0.2950563884521955
  0.5579056806775640  0.5362270536908724  0.0449443356810377
  0.1115397410601560  0.4278256043392474  0.7952513420356553
  0.2222364488783768  0.5385181701565926  0.5447960135058878
  0.8886759134506761  0.5378502241117928  0.0435783378544485
  0.4440566378886075  0.4280900092383604  0.7950251977200011
  0.5535816879272701  0.5414304719583640  0.5461102865221648
  0.1107336184622199  0.7596043712108411  0.2956522008371323
  0.2200973613362578  0.8734078325637711  0.0469164884284794
  0.7774778641692350  0.7613726964005920  0.7954450895122420
  0.8878790207072456  0.8728449058804557  0.5449259868709007
  0.5565637000063859  0.8728466300398523  0.0471698013998818
  0.1112018298479782  0.7612005938041619  0.7952326135489542
  0.2234911215978101  0.8723336845710961  0.5460518130815473
  0.7808540856365056  0.7572729888675624  0.2950772382556792
  0.8886022153372224  0.8723398707890411  0.0453874589066885
  0.4438965441051010  0.7615641345481663  0.7956935156396554
  0.5547734938940039  0.8713150087370423  0.5467053836322862
  0.7794272838226703  0.4267441540943722  0.2965384402402336
  0.4427907567002549  0.7603921336593089  0.2955598196711833
  0.2225863591135493  0.2057948693776623  0.3545933182811254
  0.1114385280250190  0.0944731910518541  0.1043063742940831
  0.8899908403636161  0.2038722021879877  0.8522027525962201
  0.7770453597278149  0.0937428620569563  0.6056260014695809
  0.5559355383865849  0.2058338783552500  0.3541865384091878
  0.4444457012704390  0.0944542397990062  0.1050779049049240
  0.2227176304671161  0.2054251764657451  0.8546884848268164
  0.1131343005958527  0.0930618858762813  0.6051461745385254
  0.8978908126004725  0.1888648530121344  0.3589275178165678
  0.7779211410057769  0.0941962719795555  0.1037332296176388
  0.5552019612299688  0.2057686628760962  0.8545911325107340
  0.4451042971160959  0.0934840492940765  0.6036125319872667
  0.2227742179660410  0.5388732438046517  0.3544986042890912
  0.1112350124313934  0.4279778719428506  0.1041059958791521
  0.8896561961105576  0.5397548450335563  0.8521981093756352
  0.7767407162338245  0.4279840553679648  0.6029897528620722
  0.5350538584260747  0.5588535459348591  0.3553345536677668
  0.4442569795598814  0.4281243976785802  0.1045725236947632
  0.2222878723051380  0.5394073084771875  0.8544328144202353
  0.1125336947234956  0.4270733731317051  0.6055897783613631
  0.8963138609377168  0.5454335140433741  0.3590993351399092
  0.7778171588969940  0.4276444478884969  0.0921265303404866
  0.5531972281181794  0.5409673871045086  0.8541977174703135
  0.4446149285188312  0.4277719464683827  0.6040826574150557
  0.2338655935689289  0.8675969890146433  0.3510032826238287
  0.1110363734997932  0.7611083828092191  0.1053761105924522
  0.8892800833219994  0.8717721096256810  0.8546412265809664
  0.7757641210051389  0.7628377333485190  0.6048147014589134
  0.5484793091064972  0.8659373653233047  0.3512278400232276
  0.4439539795565395  0.7612308407277411  0.1154777863583760
  0.2231911707048653  0.8715418667031116  0.8567962488122660
  0.1113340911427301  0.7618921420030489  0.6032098370683130
  0.8877693701046141  0.8721034025792065  0.3541682353278262
  0.7776625277899143  0.7608571403070314  0.1044995599633154
  0.5547187371698215  0.8719081349739568  0.8569017316187697
  0.4436108347330787  0.7624123796188655  0.6065218702935482
 
  0.00000000E+00  0.00000000E+00  0.00000000E+00
  0.00000000E+00  0.00000000E+00  0.00000000E+00
  0.00000000E+00  0.00000000E+00  0.00000000E+00
  0.00000000E+00  0.00000000E+00  0.00000000E+00
  0.00000000E+00  0.00000000E+00  0.00000000E+00
  0.00000000E+00  0.00000000E+00  0.00000000E+00
  0.00000000E+00  0.00000000E+00  0.00000000E+00
  0.00000000E+00  0.00000000E+00  0.00000000E+00
  0.00000000E+00  0.00000000E+00  0.00000000E+00
  0.00000000E+00  0.00000000E+00  0.00000000E+00
  0.00000000E+00  0.00000000E+00  0.00000000E+00
  0.00000000E+00  0.00000000E+00  0.00000000E+00
  0.00000000E+00  0.00000000E+00  0.00000000E+00
  0.00000000E+00  0.00000000E+00  0.00000000E+00
  0.00000000E+00  0.00000000E+00  0.00000000E+00
  0.00000000E+00  0.00000000E+00  0.00000000E+00
  0.00000000E+00  0.00000000E+00  0.00000000E+00
  0.00000000E+00  0.00000000E+00  0.00000000E+00
  0.00000000E+00  0.00000000E+00  0.00000000E+00
  0.00000000E+00  0.00000000E+00  0.00000000E+00
  0.00000000E+00  0.00000000E+00  0.00000000E+00
  0.00000000E+00  0.00000000E+00  0.00000000E+00
  0.00000000E+00  0.00000000E+00  0.00000000E+00
  0.00000000E+00  0.00000000E+00  0.00000000E+00
  0.00000000E+00  0.00000000E+00  0.00000000E+00
  0.00000000E+00  0.00000000E+00  0.00000000E+00
  0.00000000E+00  0.00000000E+00  0.00000000E+00
  0.00000000E+00  0.00000000E+00  0.00000000E+00
  0.00000000E+00  0.00000000E+00  0.00000000E+00
  0.00000000E+00  0.00000000E+00  0.00000000E+00
  0.00000000E+00  0.00000000E+00  0.00000000E+00
  0.00000000E+00  0.00000000E+00  0.00000000E+00
  0.00000000E+00  0.00000000E+00  0.00000000E+00
  0.00000000E+00  0.00000000E+00  0.00000000E+00
  0.00000000E+00  0.00000000E+00  0.00000000E+00
  0.00000000E+00  0.00000000E+00  0.00000000E+00
  0.00000000E+00  0.00000000E+00  0.00000000E+00
  0.00000000E+00  0.00000000E+00  0.00000000E+00
  0.00000000E+00  0.00000000E+00  0.00000000E+00
  0.00000000E+00  0.00000000E+00  0.00000000E+00
  0.00000000E+00  0.00000000E+00  0.00000000E+00
  0.00000000E+00  0.00000000E+00  0.00000000E+00
  0.00000000E+00  0.00000000E+00  0.00000000E+00
  0.00000000E+00  0.00000000E+00  0.00000000E+00
  0.00000000E+00  0.00000000E+00  0.00000000E+00
  0.00000000E+00  0.00000000E+00  0.00000000E+00
  0.00000000E+00  0.00000000E+00  0.00000000E+00
  0.00000000E+00  0.00000000E+00  0.00000000E+00
  0.00000000E+00  0.00000000E+00  0.00000000E+00
  0.00000000E+00  0.00000000E+00  0.00000000E+00
  0.00000000E+00  0.00000000E+00  0.00000000E+00
  0.00000000E+00  0.00000000E+00  0.00000000E+00
  0.00000000E+00  0.00000000E+00  0.00000000E+00
  0.00000000E+00  0.00000000E+00  0.00000000E+00
  0.00000000E+00  0.00000000E+00  0.00000000E+00
  0.00000000E+00  0.00000000E+00  0.00000000E+00
  0.00000000E+00  0.00000000E+00  0.00000000E+00
  0.00000000E+00  0.00000000E+00  0.00000000E+00
  0.00000000E+00  0.00000000E+00  0.00000000E+00
  0.00000000E+00  0.00000000E+00  0.00000000E+00
  0.00000000E+00  0.00000000E+00  0.00000000E+00
  0.00000000E+00  0.00000000E+00  0.00000000E+00
  0.00000000E+00  0.00000000E+00  0.00000000E+00
  0.00000000E+00  0.00000000E+00  0.00000000E+00
  0.00000000E+00  0.00000000E+00  0.00000000E+00
  0.00000000E+00  0.00000000E+00  0.00000000E+00
  0.00000000E+00  0.00000000E+00  0.00000000E+00
  0.00000000E+00  0.00000000E+00  0.00000000E+00
  0.00000000E+00  0.00000000E+00  0.00000000E+00
  0.00000000E+00  0.00000000E+00  0.00000000E+00
  0.00000000E+00  0.00000000E+00  0.00000000E+00
  0.00000000E+00  0.00000000E+00  0.00000000E+00
