supercell of 100% icsd_608626.cif, 0% i 
   1.00000000000000     
    -9.3966533819478979   -0.0001200000910092   -0.0001684465827166
    -4.6982231327559862    8.1292586333810579   -0.0009226545629271
    -0.0001794017231891    0.0010351505770127  -10.0289122662123926
   Al   Si   Mg   N 
    34     1     1    36
Direct
  0.1132358434496155  0.0935053428993413  0.2969164200044858
  0.2214752688949915  0.2058443228554623  0.0456027188444565
  0.7797522031942350  0.0950124421485512  0.7961101363915120
  0.4450481213810420  0.0949804739793336  0.2935696858834191
  0.5556827701298772  0.2055221144387787  0.0462089935577481
  0.1098432242735541  0.0958246439212829  0.7960517994742133
  0.2225403773572623  0.2064941954804880  0.5449799733689389
  0.7754277703088377  0.0941325718152868  0.2949445794075203
  0.8894363490094577  0.2054605056807262  0.0456935081666856
  0.4433417460030071  0.0932327502422083  0.7953148760537658
  0.1115335763201557  0.4281210956985859  0.2953027394786218
  0.2217931616837987  0.5393653837384065  0.0452513966951642
  0.7785602891648367  0.4260883535674225  0.7967054346487785
  0.8908110748038851  0.5387212143941937  0.5449147061417108
  0.4446568613413575  0.4265261560256874  0.2935784580767944
  0.5558550559714632  0.5388502048183028  0.0454450220153504
  0.1113392231852117  0.4280421320684908  0.7954773102686232
  0.2233006198113543  0.5396499702475595  0.5458526194756175
  0.7767697265100253  0.4294102947191192  0.2971698142422525
  0.8888746654085864  0.5387510518320724  0.0455106455461234
  0.4433472756544674  0.4293783242046842  0.7950436166548371
  0.5524801275335562  0.5381268277623192  0.5450771989085865
  0.1112522084835987  0.7608844516159010  0.2951617622887355
  0.2221312352125580  0.8724020143365010  0.0452325577364192
  0.7770164752202291  0.7617797408010247  0.7955707547218793
  0.8912509349583715  0.8722842799544779  0.5450564779117144
  0.4447309091328577  0.7609422690296697  0.2953873414029502
  0.5555175880109715  0.8718025237788964  0.0452808127607085
  0.1110967496287714  0.7607546062714121  0.7947958892535780
  0.2225999673109342  0.8703376387943607  0.5456521707886353
  0.7773070564682172  0.7617692458678178  0.2954665200652613
  0.8892762107909107  0.8721468254739762  0.0450251778629678
  0.4454547130739783  0.7607241130095019  0.7949260690236102
  0.5533715635282235  0.8731807424319626  0.5450657088119613
  0.8905430451600509  0.2031826861798081  0.5455597866950797
  0.5539062162753083  0.2061715245711326  0.5465384530729978
  0.2218947887819809  0.2059118587489550  0.3543063702604314
  0.1101417654177581  0.0947327974399315  0.1067962144742722
  0.8897233189172766  0.2060230711340552  0.8565218803463210
  0.7982796510207280  0.0939074285294339  0.6053344403053842
  0.5555162114192669  0.2054616470484731  0.3421265514505691
  0.4433423384531565  0.0938631224508413  0.1022025844142149
  0.2201994545464032  0.2061963871749839  0.8551462559761163
  0.0994682040856034  0.1014624151023469  0.6010032320254268
  0.8893794651675648  0.2051848059495924  0.3654778119928821
  0.7801358345675808  0.0941644799558574  0.1041979454243105
  0.5565931626669993  0.2047251586160570  0.8529897311648682
  0.4354428492006761  0.0867555831638995  0.6089275699384586
  0.2220978932779474  0.5392128622025680  0.3541060045898945
  0.1106151000571742  0.4281428102113338  0.1046884069726559
  0.8882290185612689  0.5385885714532748  0.8536125724496202
  0.7848545891205987  0.4144164067123128  0.6012279019321127
  0.5556707703981729  0.5385196200587643  0.3544994243674466
  0.4436766143158763  0.4294109960834405  0.1021982126956473
  0.2207994864536005  0.5396071437854104  0.8555898072121053
  0.1107469737151447  0.4283812833954173  0.6045933950603768
  0.8888875444592657  0.5389000376418167  0.3550780314575306
  0.7786142470292319  0.4266266010475945  0.1069017589601700
  0.5575694317522348  0.5386018183603980  0.8548145788209069
  0.4370196311206200  0.4417475261834056  0.6090991779849659
  0.2222966970915294  0.8721447545849301  0.3553760583549419
  0.1110448783038791  0.7616951956420408  0.1044329214277511
  0.8887185028315088  0.8723871510186854  0.8540826749905435
  0.7773977964307690  0.7617694015553624  0.6041866605112745
  0.5554122007232678  0.8721174919030048  0.3537331416625094
  0.4440530723645395  0.7610519616330720  0.1046411201253292
  0.2219994552830826  0.8732259963865090  0.8532097744862881
  0.1105589826721030  0.7616475116563848  0.6044985331161783
  0.8890761777581559  0.8723813352567831  0.3545726569495429
  0.7781312127860573  0.7609705326492247  0.1045911412092480
  0.5562882404272571  0.8707886055405041  0.8556260278941252
  0.4455642341761319  0.7598725950686713  0.6041682932938244
 
  0.00000000E+00  0.00000000E+00  0.00000000E+00
  0.00000000E+00  0.00000000E+00  0.00000000E+00
  0.00000000E+00  0.00000000E+00  0.00000000E+00
  0.00000000E+00  0.00000000E+00  0.00000000E+00
  0.00000000E+00  0.00000000E+00  0.00000000E+00
  0.00000000E+00  0.00000000E+00  0.00000000E+00
  0.00000000E+00  0.00000000E+00  0.00000000E+00
  0.00000000E+00  0.00000000E+00  0.00000000E+00
  0.00000000E+00  0.00000000E+00  0.00000000E+00
  0.00000000E+00  0.00000000E+00  0.00000000E+00
  0.00000000E+00  0.00000000E+00  0.00000000E+00
  0.00000000E+00  0.00000000E+00  0.00000000E+00
  0.00000000E+00  0.00000000E+00  0.00000000E+00
  0.00000000E+00  0.00000000E+00  0.00000000E+00
  0.00000000E+00  0.00000000E+00  0.00000000E+00
  0.00000000E+00  0.00000000E+00  0.00000000E+00
  0.00000000E+00  0.00000000E+00  0.00000000E+00
  0.00000000E+00  0.00000000E+00  0.00000000E+00
  0.00000000E+00  0.00000000E+00  0.00000000E+00
  0.00000000E+00  0.00000000E+00  0.00000000E+00
  0.00000000E+00  0.00000000E+00  0.00000000E+00
  0.00000000E+00  0.00000000E+00  0.00000000E+00
  0.00000000E+00  0.00000000E+00  0.00000000E+00
  0.00000000E+00  0.00000000E+00  0.00000000E+00
  0.00000000E+00  0.00000000E+00  0.00000000E+00
  0.00000000E+00  0.00000000E+00  0.00000000E+00
  0.00000000E+00  0.00000000E+00  0.00000000E+00
  0.00000000E+00  0.00000000E+00  0.00000000E+00
  0.00000000E+00  0.00000000E+00  0.00000000E+00
  0.00000000E+00  0.00000000E+00  0.00000000E+00
  0.00000000E+00  0.00000000E+00  0.00000000E+00
  0.00000000E+00  0.00000000E+00  0.00000000E+00
  0.00000000E+00  0.00000000E+00  0.00000000E+00
  0.00000000E+00  0.00000000E+00  0.00000000E+00
  0.00000000E+00  0.00000000E+00  0.00000000E+00
  0.00000000E+00  0.00000000E+00  0.00000000E+00
  0.00000000E+00  0.00000000E+00  0.00000000E+00
  0.00000000E+00  0.00000000E+00  0.00000000E+00
  0.00000000E+00  0.00000000E+00  0.00000000E+00
  0.00000000E+00  0.00000000E+00  0.00000000E+00
  0.00000000E+00  0.00000000E+00  0.00000000E+00
  0.00000000E+00  0.00000000E+00  0.00000000E+00
  0.00000000E+00  0.00000000E+00  0.00000000E+00
  0.00000000E+00  0.00000000E+00  0.00000000E+00
  0.00000000E+00  0.00000000E+00  0.00000000E+00
  0.00000000E+00  0.00000000E+00  0.00000000E+00
  0.00000000E+00  0.00000000E+00  0.00000000E+00
  0.00000000E+00  0.00000000E+00  0.00000000E+00
  0.00000000E+00  0.00000000E+00  0.00000000E+00
  0.00000000E+00  0.00000000E+00  0.00000000E+00
  0.00000000E+00  0.00000000E+00  0.00000000E+00
  0.00000000E+00  0.00000000E+00  0.00000000E+00
  0.00000000E+00  0.00000000E+00  0.00000000E+00
  0.00000000E+00  0.00000000E+00  0.00000000E+00
  0.00000000E+00  0.00000000E+00  0.00000000E+00
  0.00000000E+00  0.00000000E+00  0.00000000E+00
  0.00000000E+00  0.00000000E+00  0.00000000E+00
  0.00000000E+00  0.00000000E+00  0.00000000E+00
  0.00000000E+00  0.00000000E+00  0.00000000E+00
  0.00000000E+00  0.00000000E+00  0.00000000E+00
  0.00000000E+00  0.00000000E+00  0.00000000E+00
  0.00000000E+00  0.00000000E+00  0.00000000E+00
  0.00000000E+00  0.00000000E+00  0.00000000E+00
  0.00000000E+00  0.00000000E+00  0.00000000E+00
  0.00000000E+00  0.00000000E+00  0.00000000E+00
  0.00000000E+00  0.00000000E+00  0.00000000E+00
  0.00000000E+00  0.00000000E+00  0.00000000E+00
  0.00000000E+00  0.00000000E+00  0.00000000E+00
  0.00000000E+00  0.00000000E+00  0.00000000E+00
  0.00000000E+00  0.00000000E+00  0.00000000E+00
  0.00000000E+00  0.00000000E+00  0.00000000E+00
  0.00000000E+00  0.00000000E+00  0.00000000E+00
