supercell of icsd_608626.cif            
  0.957728948274742     
     9.3278139578758896    0.0463325832084611   -0.0483743270504158
    -4.6232935102774544    8.0807089455023888   -0.0345731909388010
    -0.0525962026650944   -0.0733263481771454    9.8721801100109072
   Al   B    N 
    26    10    36
Direct
  0.2200645243179693  0.1067440711323258  0.2517535554450632
  0.1108376361079308  0.2165248900137158  0.4993256259869483
  0.8910727301995180  0.1059912768371234  0.7574429871062520
  0.7796112730499090  0.2233124787589489  0.0048583835570568
  0.5468890055444362  0.1062053352688821  0.2502703172970158
  0.4321813364517837  0.2095142444365408  0.5014340211513115
  0.1115737829588781  0.2168211561725712  0.9985475860434079
  0.8951237315322516  0.1232051800925262  0.2450055493717045
  0.7714630152894557  0.2162357018343428  0.5020219231647260
  0.5439134255138072  0.1025386732054301  0.7490444168766430
  0.4434485313271495  0.2205920772273373  0.9987513291044010
  0.1130887661318596  0.5678709458569742  0.4874679519181129
  0.9071000431685547  0.4605737505640448  0.7581164476559508
  0.7825713294563528  0.5591887750135243  0.0112945739125934
  0.4366025419368853  0.5594293315096337  0.4873285185491341
  0.2199750435519050  0.4508483875448519  0.7500218502172160
  0.7772963054954758  0.5593454048320936  0.4940607955294283
  0.5515031704136888  0.4434013535260348  0.7502831294611880
  0.4419032657847666  0.5600196587468247  0.0081042085523606
  0.2268554502089017  0.7717354043197489  0.2380058905510651
  0.8964581536043070  0.7847798084150313  0.7454313344843086
  0.5506193275733864  0.7768358056820830  0.2396688068041328
  0.1218799329412477  0.8852454585323883  0.9798177938853883
  0.8952049533461945  0.7766559332926732  0.2499691239686115
  0.7740756844590138  0.8896536142475568  0.4967214118025964
  0.5494714246337011  0.7810749824835597  0.7516477324016151
  0.2274657333140624  0.1118350020713379  0.7492321642747228
  0.2266388299816455  0.4388365377195171  0.2492036958064716
  0.5375113371487430  0.4317592629403038  0.2602902875213502
  0.1025679078932811  0.5088911769702449  0.0264918259060138
  0.8262779486682703  0.4157900400521584  0.2705375345432657
  0.1256141361905208  0.8961546596490493  0.5068601114796039
  0.7759308394840403  0.8900689611848094  0.0064821811969864
  0.4322931543832169  0.8884052523670647  0.5020002164030046
  0.2443600162864925  0.7971547528607204  0.7456263507890668
  0.4518387239604635  0.8958854369435727  0.9907955248322509
  0.2058278213216980  0.0820596197616368  0.4463348779657323
  0.1260301345955668  0.2424058212059208  0.1961896141927397
  0.8769481270929020  0.0869502231492305  0.9583336850514073
  0.7821466937030763  0.2289319437805233  0.7004867459417881
  0.5396036732876581  0.0847454448493892  0.4500156445151191
  0.4490159174795210  0.2409771250228658  0.2009174758164676
  0.2239591780185748  0.1125607041888870  0.9182206910495339
  0.1212442177135955  0.2115908938953552  0.6992497564094293
  0.8875141739282881  0.1109219610335686  0.4392157646345254
  0.7787316669186097  0.2466055320572309  0.2032655082835717
  0.5535283582252362  0.0974967070401931  0.9469280021429753
  0.4210617106375310  0.2127100955377941  0.6982984818390676
  0.2138198898098480  0.4402089301357179  0.4192793665057977
  0.1461309213785427  0.5444368219312423  0.1778532615973347
  0.9245527689979625  0.4615515668864205  0.9598532067797834
  0.7771562189984493  0.5533556895096510  0.6910371054758286
  0.5475132522878923  0.4379155279474602  0.4277087037304810
  0.4407136435594197  0.5321189238016686  0.2079297882800333
  0.2071895892672870  0.4475237333939432  0.9469686396862329
  0.1246435658935781  0.5846253554547332  0.6861919545663326
  0.8784270086580293  0.4385215773099205  0.4223626304971830
  0.7602801954423555  0.5312835180433098  0.2120230212240131
  0.5586077277029915  0.4467815929475520  0.9445592661178353
  0.4408062115298463  0.5563408173877136  0.6871732357145888
  0.2338550533809354  0.8027077025141693  0.4422425245219728
  0.1135642798406238  0.8845370334567875  0.1766558719131055
  0.8765893228313715  0.7865150907289120  0.9474525060259253
  0.7722395129371193  0.8875949714983449  0.6893727822928142
  0.5379880027471557  0.7913667086673328  0.4390738848945475
  0.4448404387186358  0.8931668949801335  0.1610936735213855
  0.2692304068379627  0.8100521986251081  0.9098127820749724
  0.1358316001458277  0.9035171921944212  0.6858866488467541
  0.9158789180361779  0.7907926347078345  0.4500098324402586
  0.7796629477493724  0.8895462675193500  0.1775458037762547
  0.5680655928948966  0.7979589539964209  0.9538852972837404
  0.4255182451214594  0.8804994425338251  0.6706568068394958
 
  0.00000000E+00  0.00000000E+00  0.00000000E+00
  0.00000000E+00  0.00000000E+00  0.00000000E+00
  0.00000000E+00  0.00000000E+00  0.00000000E+00
  0.00000000E+00  0.00000000E+00  0.00000000E+00
  0.00000000E+00  0.00000000E+00  0.00000000E+00
  0.00000000E+00  0.00000000E+00  0.00000000E+00
  0.00000000E+00  0.00000000E+00  0.00000000E+00
  0.00000000E+00  0.00000000E+00  0.00000000E+00
  0.00000000E+00  0.00000000E+00  0.00000000E+00
  0.00000000E+00  0.00000000E+00  0.00000000E+00
  0.00000000E+00  0.00000000E+00  0.00000000E+00
  0.00000000E+00  0.00000000E+00  0.00000000E+00
  0.00000000E+00  0.00000000E+00  0.00000000E+00
  0.00000000E+00  0.00000000E+00  0.00000000E+00
  0.00000000E+00  0.00000000E+00  0.00000000E+00
  0.00000000E+00  0.00000000E+00  0.00000000E+00
  0.00000000E+00  0.00000000E+00  0.00000000E+00
  0.00000000E+00  0.00000000E+00  0.00000000E+00
  0.00000000E+00  0.00000000E+00  0.00000000E+00
  0.00000000E+00  0.00000000E+00  0.00000000E+00
  0.00000000E+00  0.00000000E+00  0.00000000E+00
  0.00000000E+00  0.00000000E+00  0.00000000E+00
  0.00000000E+00  0.00000000E+00  0.00000000E+00
  0.00000000E+00  0.00000000E+00  0.00000000E+00
  0.00000000E+00  0.00000000E+00  0.00000000E+00
  0.00000000E+00  0.00000000E+00  0.00000000E+00
  0.00000000E+00  0.00000000E+00  0.00000000E+00
  0.00000000E+00  0.00000000E+00  0.00000000E+00
  0.00000000E+00  0.00000000E+00  0.00000000E+00
  0.00000000E+00  0.00000000E+00  0.00000000E+00
  0.00000000E+00  0.00000000E+00  0.00000000E+00
  0.00000000E+00  0.00000000E+00  0.00000000E+00
  0.00000000E+00  0.00000000E+00  0.00000000E+00
  0.00000000E+00  0.00000000E+00  0.00000000E+00
  0.00000000E+00  0.00000000E+00  0.00000000E+00
  0.00000000E+00  0.00000000E+00  0.00000000E+00
  0.00000000E+00  0.00000000E+00  0.00000000E+00
  0.00000000E+00  0.00000000E+00  0.00000000E+00
  0.00000000E+00  0.00000000E+00  0.00000000E+00
  0.00000000E+00  0.00000000E+00  0.00000000E+00
  0.00000000E+00  0.00000000E+00  0.00000000E+00
  0.00000000E+00  0.00000000E+00  0.00000000E+00
  0.00000000E+00  0.00000000E+00  0.00000000E+00
  0.00000000E+00  0.00000000E+00  0.00000000E+00
  0.00000000E+00  0.00000000E+00  0.00000000E+00
  0.00000000E+00  0.00000000E+00  0.00000000E+00
  0.00000000E+00  0.00000000E+00  0.00000000E+00
  0.00000000E+00  0.00000000E+00  0.00000000E+00
  0.00000000E+00  0.00000000E+00  0.00000000E+00
  0.00000000E+00  0.00000000E+00  0.00000000E+00
  0.00000000E+00  0.00000000E+00  0.00000000E+00
  0.00000000E+00  0.00000000E+00  0.00000000E+00
  0.00000000E+00  0.00000000E+00  0.00000000E+00
  0.00000000E+00  0.00000000E+00  0.00000000E+00
  0.00000000E+00  0.00000000E+00  0.00000000E+00
  0.00000000E+00  0.00000000E+00  0.00000000E+00
  0.00000000E+00  0.00000000E+00  0.00000000E+00
  0.00000000E+00  0.00000000E+00  0.00000000E+00
  0.00000000E+00  0.00000000E+00  0.00000000E+00
  0.00000000E+00  0.00000000E+00  0.00000000E+00
  0.00000000E+00  0.00000000E+00  0.00000000E+00
  0.00000000E+00  0.00000000E+00  0.00000000E+00
  0.00000000E+00  0.00000000E+00  0.00000000E+00
  0.00000000E+00  0.00000000E+00  0.00000000E+00
  0.00000000E+00  0.00000000E+00  0.00000000E+00
  0.00000000E+00  0.00000000E+00  0.00000000E+00
  0.00000000E+00  0.00000000E+00  0.00000000E+00
  0.00000000E+00  0.00000000E+00  0.00000000E+00
  0.00000000E+00  0.00000000E+00  0.00000000E+00
  0.00000000E+00  0.00000000E+00  0.00000000E+00
  0.00000000E+00  0.00000000E+00  0.00000000E+00
  0.00000000E+00  0.00000000E+00  0.00000000E+00
