Al   Gd   N                             
   1.00000000000000     
    -9.4932312017091007    0.0000001500921365   -0.0000000005234907
    -4.7466153577150392    8.2420487668095710    0.0049563695594650
     0.0000000327828553   -0.0122230660863209  -10.1433276787250186
   Al   Gd   N 
    34     2    36
Direct
  0.1112119395039741  0.0942427841542539  0.3910162664927981
  0.2218764793791834  0.2011258504916071  0.1403353521301298
  0.7773599714054811  0.0938904094859652  0.8923132451359095
  0.8906576677595055  0.2024183166858577  0.6424083155535669
  0.4444930474138005  0.0938578763231703  0.3911511639570264
  0.5593215864078900  0.1980234898400539  0.1413276350078405
  0.1109799244950551  0.0947068345678446  0.8927944236224334
  0.2235906774273388  0.2024183277037537  0.6424083118458626
  0.7783157286483089  0.0938578741497977  0.3911511631350777
  0.8936643485080182  0.2011258508249725  0.1403353505610099
  0.4454162871738987  0.0938904175382405  0.8923132419030253
  0.5582439979409983  0.2001786681078670  0.6428816250202658
  0.1105649955258201  0.4245675214868072  0.4012722107893438
  0.7835449829093335  0.4241263786981193  0.8861687683417330
  0.8882740598234804  0.5401185828301678  0.6436280904349800
  0.4462824527733673  0.4241017694823057  0.4099681058795426
  0.1089953329624507  0.4241263873985162  0.8861687660819726
  0.2196669162786193  0.5399726546951342  0.6430426705101979
  0.7815341812650516  0.4245675022901949  0.4012722162143803
  0.8920599166144569  0.5325468394850006  0.1398237622041236
  0.4474207599941380  0.4218251664671016  0.8800122661573724
  0.5570271296305904  0.5399726505621203  0.6430426716014352
  0.1100254329639014  0.7635395573112476  0.4011248517346644
  0.2160580701665467  0.8845505454950953  0.1396532756450029
  0.7778508913946354  0.7609648869358310  0.8915035521819163
  0.8861365179854559  0.8736219730562809  0.6423257960770599
  0.4431016976625060  0.7635395480182865  0.4011248500495128
  0.5534651191819222  0.8780659304273684  0.1407832047492548
  0.1066173327479021  0.7695176317229695  0.8858296704587474
  0.2204471656323861  0.8757723629096574  0.6429355595318071
  0.7785078535023686  0.7596509581734310  0.3905299100313400
  0.8851356458607995  0.8780659347590145  0.1407832116310672
  0.4405317203591110  0.7695176318285917  0.8858296719576089
  0.5569081836258505  0.8736219747962650  0.6423257953338677
  0.2167195992094761  0.5415729687844788  0.1419612129785719
  0.5583741104371498  0.5415729802113063  0.1419612141183677
  0.2222702734049804  0.2059463554179857  0.3323328307205529
  0.1097424283461592  0.0971818229859949  0.0823182275042313
  0.8902287772483248  0.2018747348683476  0.8308503858395326
  0.7784005435150050  0.0935978388364376  0.5804702028688880
  0.5547843728293955  0.2070979130784067  0.3338597880287253
  0.4446821319106320  0.0949327451088777  0.0833462083734133
  0.2245631683785021  0.2018747492464357  0.8308503825468705
  0.1110505116510012  0.0945656418822409  0.5802001110204031
  0.8884500453152242  0.2059463417577021  0.3323328308036224
  0.7770517974713371  0.0949327392288026  0.0833462106772558
  0.5589365473811725  0.1987935882463390  0.8289486764260161
  0.4446682729637033  0.0935978442159708  0.5804702038915508
  0.2233893862820224  0.5375537351791735  0.3643418050100493
  0.1009297149541126  0.4108700881554270  0.0715709254210282
  0.8875535305301767  0.5415596320937297  0.8302329056754658
  0.7817749437450914  0.4249337894334175  0.5891813498318825
  0.5557235705228081  0.5375537237161438  0.3643418084576311
  0.4590300517502826  0.3986065850773315  0.0626191674511247
  0.2185155627879425  0.5417144434947829  0.8357634545959485
  0.1099579595590470  0.4249337993065510  0.5891813425024992
  0.8902389728810292  0.5361887492877315  0.3327848422096977
  0.8048668795951031  0.4108700885426373  0.0715709342195794
  0.5564366957174300  0.5417144487568422  0.8357634596027665
  0.4462308188452937  0.4242050551651886  0.5973090439302666
  0.2232518691022349  0.8701629608934951  0.3330037909529935
  0.0949870819467549  0.7944232229917318  0.0712351742612682
  0.8849170427842452  0.8739158928199302  0.8307132992274191
  0.7781789946306645  0.7603086795818612  0.5805300452999305
  0.5555015842333120  0.8704849087554152  0.3321774295125124
  0.4272563792542954  0.7944232267961411  0.0712351735227088
  0.2200639489592433  0.8765387836388072  0.8287421671795059
  0.1089100673056009  0.7647044033535906  0.5889303556708683
  0.8906801964641957  0.8704849011593652  0.3321774356040450
  0.7791091233536918  0.7584484373135822  0.0838143891435976
  0.5578337375081119  0.8739158992578098  0.8307133002041382
  0.4430522150314928  0.7647043972112186  0.5889303531446259
 
  0.00000000E+00  0.00000000E+00  0.00000000E+00
  0.00000000E+00  0.00000000E+00  0.00000000E+00
  0.00000000E+00  0.00000000E+00  0.00000000E+00
  0.00000000E+00  0.00000000E+00  0.00000000E+00
  0.00000000E+00  0.00000000E+00  0.00000000E+00
  0.00000000E+00  0.00000000E+00  0.00000000E+00
  0.00000000E+00  0.00000000E+00  0.00000000E+00
  0.00000000E+00  0.00000000E+00  0.00000000E+00
  0.00000000E+00  0.00000000E+00  0.00000000E+00
  0.00000000E+00  0.00000000E+00  0.00000000E+00
  0.00000000E+00  0.00000000E+00  0.00000000E+00
  0.00000000E+00  0.00000000E+00  0.00000000E+00
  0.00000000E+00  0.00000000E+00  0.00000000E+00
  0.00000000E+00  0.00000000E+00  0.00000000E+00
  0.00000000E+00  0.00000000E+00  0.00000000E+00
  0.00000000E+00  0.00000000E+00  0.00000000E+00
  0.00000000E+00  0.00000000E+00  0.00000000E+00
  0.00000000E+00  0.00000000E+00  0.00000000E+00
  0.00000000E+00  0.00000000E+00  0.00000000E+00
  0.00000000E+00  0.00000000E+00  0.00000000E+00
  0.00000000E+00  0.00000000E+00  0.00000000E+00
  0.00000000E+00  0.00000000E+00  0.00000000E+00
  0.00000000E+00  0.00000000E+00  0.00000000E+00
  0.00000000E+00  0.00000000E+00  0.00000000E+00
  0.00000000E+00  0.00000000E+00  0.00000000E+00
  0.00000000E+00  0.00000000E+00  0.00000000E+00
  0.00000000E+00  0.00000000E+00  0.00000000E+00
  0.00000000E+00  0.00000000E+00  0.00000000E+00
  0.00000000E+00  0.00000000E+00  0.00000000E+00
  0.00000000E+00  0.00000000E+00  0.00000000E+00
  0.00000000E+00  0.00000000E+00  0.00000000E+00
  0.00000000E+00  0.00000000E+00  0.00000000E+00
  0.00000000E+00  0.00000000E+00  0.00000000E+00
  0.00000000E+00  0.00000000E+00  0.00000000E+00
  0.00000000E+00  0.00000000E+00  0.00000000E+00
  0.00000000E+00  0.00000000E+00  0.00000000E+00
  0.00000000E+00  0.00000000E+00  0.00000000E+00
  0.00000000E+00  0.00000000E+00  0.00000000E+00
  0.00000000E+00  0.00000000E+00  0.00000000E+00
  0.00000000E+00  0.00000000E+00  0.00000000E+00
  0.00000000E+00  0.00000000E+00  0.00000000E+00
  0.00000000E+00  0.00000000E+00  0.00000000E+00
  0.00000000E+00  0.00000000E+00  0.00000000E+00
  0.00000000E+00  0.00000000E+00  0.00000000E+00
  0.00000000E+00  0.00000000E+00  0.00000000E+00
  0.00000000E+00  0.00000000E+00  0.00000000E+00
  0.00000000E+00  0.00000000E+00  0.00000000E+00
  0.00000000E+00  0.00000000E+00  0.00000000E+00
  0.00000000E+00  0.00000000E+00  0.00000000E+00
  0.00000000E+00  0.00000000E+00  0.00000000E+00
  0.00000000E+00  0.00000000E+00  0.00000000E+00
  0.00000000E+00  0.00000000E+00  0.00000000E+00
  0.00000000E+00  0.00000000E+00  0.00000000E+00
  0.00000000E+00  0.00000000E+00  0.00000000E+00
  0.00000000E+00  0.00000000E+00  0.00000000E+00
  0.00000000E+00  0.00000000E+00  0.00000000E+00
  0.00000000E+00  0.00000000E+00  0.00000000E+00
  0.00000000E+00  0.00000000E+00  0.00000000E+00
  0.00000000E+00  0.00000000E+00  0.00000000E+00
  0.00000000E+00  0.00000000E+00  0.00000000E+00
  0.00000000E+00  0.00000000E+00  0.00000000E+00
  0.00000000E+00  0.00000000E+00  0.00000000E+00
  0.00000000E+00  0.00000000E+00  0.00000000E+00
  0.00000000E+00  0.00000000E+00  0.00000000E+00
  0.00000000E+00  0.00000000E+00  0.00000000E+00
  0.00000000E+00  0.00000000E+00  0.00000000E+00
  0.00000000E+00  0.00000000E+00  0.00000000E+00
  0.00000000E+00  0.00000000E+00  0.00000000E+00
  0.00000000E+00  0.00000000E+00  0.00000000E+00
  0.00000000E+00  0.00000000E+00  0.00000000E+00
  0.00000000E+00  0.00000000E+00  0.00000000E+00
  0.00000000E+00  0.00000000E+00  0.00000000E+00
