Al   Gd   N                             
   1.00000000000000     
    -9.6662192596503882    0.0000005585990604    0.0000002597562809
    -4.8331073988493358    8.4146878881339795   -0.0029836881624292
    -0.0000001115496632    0.0046621574198572   -9.6513194192590728
   Al   Gd   N 
    34     2    36
Direct
  0.1111046983872797  0.0944573190531912  0.3269155999509366
  0.2220710259984671  0.2012003801144218  0.0798073120796374
  0.7789641525701896  0.0935729472486955  0.8299608645781973
  0.8908564782021671  0.2014378629421003  0.5782204029337450
  0.4463744252433983  0.0931991429811063  0.3273326797912475
  0.5599545779590969  0.1967575708758744  0.0772869992460770
  0.1102678407398159  0.0961310503484043  0.8295278179040224
  0.2243724320698490  0.2014378279597224  0.5782203949913196
  0.7770931255202740  0.0931991482283649  0.3273327331688449
  0.8933953497603397  0.2012003087338243  0.0798072957397409
  0.4441295990004193  0.0935729116714228  0.8299609294130619
  0.5595570697114383  0.1975525464235588  0.5800935300759988
  0.1083414295843852  0.4231864513594701  0.3370993583074551
  0.7815174485509786  0.4242676798865617  0.8197577349082010
  0.8878038119995821  0.5410590691147164  0.5783121522754371
  0.4487289395300209  0.4192088138691901  0.3477174457411465
  0.1108815695480203  0.4242677121139380  0.8197576538310827
  0.2184312332276335  0.5411353681865521  0.5807284427878656
  0.7851388445754637  0.4231864274754997  0.3370992564725483
  0.8925422348513692  0.5315822644355350  0.0792995474944505
  0.4461619554066729  0.4243427680834984  0.8112367063077173
  0.5571001801612923  0.5411352737696120  0.5807284473505874
  0.1055184332133834  0.7721322602645628  0.3370973394722796
  0.2155777458724728  0.8855111372054907  0.0785064283462233
  0.7784696936031494  0.7597271985751348  0.8313239419640510
  0.8851052312689305  0.8737984528544516  0.5785329729445436
  0.4390159168133465  0.7721322185154804  0.3370974145908789
  0.5532394061029819  0.8775307954965541  0.0793752314014284
  0.1090662053739351  0.7647046641788720  0.8203520286110333
  0.2196132610765176  0.8774400968219851  0.5800264414116256
  0.7780665388793011  0.7605335230185730  0.3276515751805320
  0.8858963372170905  0.8775308435813827  0.0793751982215056
  0.4428957597648235  0.7647046273110547  0.8203519750053303
  0.5577629579694303  0.8737984378433339  0.5785329529963406
  0.2179519996975614  0.5413243045882652  0.0887601101677120
  0.5573904282940987  0.5413242948675148  0.0887601106801625
  0.2255130943762822  0.2007197998594847  0.3818323195581144
  0.1097058529912047  0.0972550142205577  0.1291157531358067
  0.8880787620805251  0.2063053279519309  0.8800170547038491
  0.7794590713525551  0.0926060843002503  0.6332416893094859
  0.5604103938684233  0.1958459177537009  0.3862445655803768
  0.4453710938988209  0.0940673084771788  0.1281541691154686
  0.2222826156962654  0.2063053974658757  0.8800170653535559
  0.1103325678684044  0.0960015832470802  0.6330278080498104
  0.8904338717918705  0.2007198152516878  0.3818323225845788
  0.7772282663934647  0.0940673193935808  0.1281542234407951
  0.5548708850181043  0.2069249678414380  0.8768824692578505
  0.4446015584296887  0.0926060448208474  0.6332417429877069
  0.2172954805719343  0.5429798672988539  0.3770078617780044
  0.1004791529819187  0.4097757823892110  0.1412673347012543
  0.8902904097426898  0.5360859607675579  0.8785821616629121
  0.7820968048721824  0.4242683192552192  0.6229156586383269
  0.5563914504112617  0.5429798106839385  0.3770078660725886
  0.4613298579283551  0.3940069684436054  0.1535075034997462
  0.2229401247892184  0.5385638275706484  0.8510120980194174
  0.1103015779703611  0.4242683326615051  0.6229155648179514
  0.8870898724644576  0.5424869416031726  0.3835579907944009
  0.8064117996584983  0.4097757303776675  0.1412672354111706
  0.5551627772601080  0.5385638034532931  0.8510121069774144
  0.4464838134959663  0.4236990301081818  0.6134331405890805
  0.2191486550423676  0.8783692936782046  0.3862101208871564
  0.0946019332042667  0.7969506937925246  0.1414801566323476
  0.8899890649096349  0.8710598445111231  0.8803906237695003
  0.7781241099894132  0.7604183754910423  0.6335426744438877
  0.5587291202274756  0.8741678108869522  0.3820358918332118
  0.4251139323938276  0.7969506479132207  0.1414802319948336
  0.2221523197588624  0.8723620497863536  0.8773972964932142
  0.1079223532907321  0.7656205275990970  0.6238248536196522
  0.8837697115072345  0.8741678024154567  0.3820359076879640
  0.7796018889534437  0.7574627673188346  0.1276085646834844
  0.5556177233651312  0.8710597944298186  0.8803906501325827
  0.4431237359380020  0.7656204751611995  0.6238247912367996
 
  0.00000000E+00  0.00000000E+00  0.00000000E+00
  0.00000000E+00  0.00000000E+00  0.00000000E+00
  0.00000000E+00  0.00000000E+00  0.00000000E+00
  0.00000000E+00  0.00000000E+00  0.00000000E+00
  0.00000000E+00  0.00000000E+00  0.00000000E+00
  0.00000000E+00  0.00000000E+00  0.00000000E+00
  0.00000000E+00  0.00000000E+00  0.00000000E+00
  0.00000000E+00  0.00000000E+00  0.00000000E+00
  0.00000000E+00  0.00000000E+00  0.00000000E+00
  0.00000000E+00  0.00000000E+00  0.00000000E+00
  0.00000000E+00  0.00000000E+00  0.00000000E+00
  0.00000000E+00  0.00000000E+00  0.00000000E+00
  0.00000000E+00  0.00000000E+00  0.00000000E+00
  0.00000000E+00  0.00000000E+00  0.00000000E+00
  0.00000000E+00  0.00000000E+00  0.00000000E+00
  0.00000000E+00  0.00000000E+00  0.00000000E+00
  0.00000000E+00  0.00000000E+00  0.00000000E+00
  0.00000000E+00  0.00000000E+00  0.00000000E+00
  0.00000000E+00  0.00000000E+00  0.00000000E+00
  0.00000000E+00  0.00000000E+00  0.00000000E+00
  0.00000000E+00  0.00000000E+00  0.00000000E+00
  0.00000000E+00  0.00000000E+00  0.00000000E+00
  0.00000000E+00  0.00000000E+00  0.00000000E+00
  0.00000000E+00  0.00000000E+00  0.00000000E+00
  0.00000000E+00  0.00000000E+00  0.00000000E+00
  0.00000000E+00  0.00000000E+00  0.00000000E+00
  0.00000000E+00  0.00000000E+00  0.00000000E+00
  0.00000000E+00  0.00000000E+00  0.00000000E+00
  0.00000000E+00  0.00000000E+00  0.00000000E+00
  0.00000000E+00  0.00000000E+00  0.00000000E+00
  0.00000000E+00  0.00000000E+00  0.00000000E+00
  0.00000000E+00  0.00000000E+00  0.00000000E+00
  0.00000000E+00  0.00000000E+00  0.00000000E+00
  0.00000000E+00  0.00000000E+00  0.00000000E+00
  0.00000000E+00  0.00000000E+00  0.00000000E+00
  0.00000000E+00  0.00000000E+00  0.00000000E+00
  0.00000000E+00  0.00000000E+00  0.00000000E+00
  0.00000000E+00  0.00000000E+00  0.00000000E+00
  0.00000000E+00  0.00000000E+00  0.00000000E+00
  0.00000000E+00  0.00000000E+00  0.00000000E+00
  0.00000000E+00  0.00000000E+00  0.00000000E+00
  0.00000000E+00  0.00000000E+00  0.00000000E+00
  0.00000000E+00  0.00000000E+00  0.00000000E+00
  0.00000000E+00  0.00000000E+00  0.00000000E+00
  0.00000000E+00  0.00000000E+00  0.00000000E+00
  0.00000000E+00  0.00000000E+00  0.00000000E+00
  0.00000000E+00  0.00000000E+00  0.00000000E+00
  0.00000000E+00  0.00000000E+00  0.00000000E+00
  0.00000000E+00  0.00000000E+00  0.00000000E+00
  0.00000000E+00  0.00000000E+00  0.00000000E+00
  0.00000000E+00  0.00000000E+00  0.00000000E+00
  0.00000000E+00  0.00000000E+00  0.00000000E+00
  0.00000000E+00  0.00000000E+00  0.00000000E+00
  0.00000000E+00  0.00000000E+00  0.00000000E+00
  0.00000000E+00  0.00000000E+00  0.00000000E+00
  0.00000000E+00  0.00000000E+00  0.00000000E+00
  0.00000000E+00  0.00000000E+00  0.00000000E+00
  0.00000000E+00  0.00000000E+00  0.00000000E+00
  0.00000000E+00  0.00000000E+00  0.00000000E+00
  0.00000000E+00  0.00000000E+00  0.00000000E+00
  0.00000000E+00  0.00000000E+00  0.00000000E+00
  0.00000000E+00  0.00000000E+00  0.00000000E+00
  0.00000000E+00  0.00000000E+00  0.00000000E+00
  0.00000000E+00  0.00000000E+00  0.00000000E+00
  0.00000000E+00  0.00000000E+00  0.00000000E+00
  0.00000000E+00  0.00000000E+00  0.00000000E+00
  0.00000000E+00  0.00000000E+00  0.00000000E+00
  0.00000000E+00  0.00000000E+00  0.00000000E+00
  0.00000000E+00  0.00000000E+00  0.00000000E+00
  0.00000000E+00  0.00000000E+00  0.00000000E+00
  0.00000000E+00  0.00000000E+00  0.00000000E+00
  0.00000000E+00  0.00000000E+00  0.00000000E+00
