Al   Gd   N                             
   1.00000000000000     
    -9.4932352059815042    0.0000000417127485   -0.0000000695773076
    -4.7466174570978827    8.2420507566228540    0.0070629154856819
     0.0000001019202377   -0.0096319911165966  -10.1433261122406364
   Al   Gd   N 
    34     2    36
Direct
  0.1112355149033561  0.0941956401371726  0.4088228624981056
  0.2218999298381803  0.2010787345175160  0.1581410733295741
  0.7773835062075491  0.0938436140907015  0.9101166259895237
  0.8906809771091133  0.2023715922890403  0.6602120997899164
  0.4445168433989792  0.0938106652116062  0.4089572054844837
  0.5593452570076209  0.1979761550034240  0.1591315922212715
  0.1110034420556900  0.0946598058489414  0.9105977447896478
  0.2236140993146520  0.2023716031548162  0.6602120963122573
  0.7783391505611164  0.0938106629757698  0.4089572045285763
  0.8936880207172138  0.2010787342815661  0.1581410714542670
  0.4454395538640341  0.0938436221088068  0.9101166228158988
  0.5582672575418499  0.2001321554902518  0.6606854605303525
  0.1105888322614845  0.4245201905600027  0.4190750760611266
  0.7835687221909922  0.4240794699934654  0.9039720113906426
  0.8882978089423119  0.5400710915733526  0.6614305756323375
  0.4463061925975893  0.4240542961107607  0.4277704951998658
  0.1090185095357370  0.4240794789972639  0.9039720093398813
  0.2196906400867249  0.5399254560324920  0.6608451765679888
  0.7815576821566594  0.4245201711877371  0.4190750805200736
  0.8920833476983248  0.5324999844571110  0.1576300274174258
  0.4474441473918631  0.4217783978463103  0.8978166260364731
  0.5570506115245237  0.5399254519448462  0.6608451778570625
  0.1100488662458119  0.7634923511759411  0.4189277619945599
  0.2160813073115690  0.8845040789802994  0.1574592281149805
  0.7778745336454804  0.7609176092745713  0.9093077491801935
  0.8861604644371894  0.8735746891351042  0.6601300269946790
  0.4431254780763183  0.7634923415156223  0.4189277601278150
  0.5534885715744267  0.8780192239170859  0.1585885034352046
  0.1066408393958866  0.7694708831200501  0.9036329696811407
  0.2204710378242254  0.8757246258961331  0.6607386447617785
  0.7785312409362604  0.7596041906640778  0.4083368197543180
  0.8851589070638326  0.8780192277869077  0.1585885098368749
  0.4405549700153486  0.7694708828983892  0.9036329711395652
  0.5569315282482705  0.8735746907762376  0.6601300264392407
  0.2167428200692072  0.5415263173202760  0.1597647222938079
  0.5583975480742041  0.5415263285119494  0.1597647226690029
  0.2222941035619428  0.2058985883061837  0.3501386981528469
  0.1097658609919989  0.0971349646734438  0.1001229525337379
  0.8902522541663060  0.2018279387217277  0.8486543211085404
  0.7784240549337369  0.0935506669497457  0.5982756669849110
  0.5548083053607158  0.2070500547230054  0.3516647238562527
  0.4447053872937516  0.0948858542035396  0.1011507122888844
  0.2245864939386450  0.2018279532819918  0.8486543179692703
  0.1110741016211918  0.0945184687345559  0.5980056440387287
  0.8884739892998610  0.2058985742663495  0.3501386978502268
  0.7770754395327373  0.0948858480948616  0.1011507144665273
  0.5589598185179128  0.1987470521311607  0.8467526834212933
  0.4446919403345149  0.0935506722485471  0.5982756680762762
  0.2234129210633142  0.5375065762922304  0.3821455242063152
  0.1009529373641911  0.4108230465569491  0.0893755811241377
  0.8875770649904027  0.5415125701691963  0.8480361055628194
  0.7817984116296728  0.4248866023908349  0.6069846883241610
  0.5557472012191482  0.5375065645599193  0.3821455268957550
  0.4590535697582325  0.3985595555798866  0.0804238864157583
  0.2185390835767720  0.5416674528740515  0.8535674274638367
  0.1099816858503075  0.4248866120986463  0.6069846815590196
  0.8902623090155188  0.5361420837061317  0.3505906139875918
  0.8048907062292585  0.4108230465463762  0.0893755898126400
  0.5564601727182605  0.5416674577837597  0.8535674325943106
  0.4462543755512485  0.4241579489126863  0.6151120605251279
  0.2232751983043926  0.8701163098210287  0.3508093166019464
  0.0950103872570622  0.7943768339289008  0.0890396932220838
  0.8849405500862346  0.8738688930026441  0.8485176428835501
  0.7782024202223710  0.7602618357014492  0.5983357518084915
  0.5555253929894164  0.8704380054411445  0.3499831024748730
  0.4272794706388012  0.7943768377369977  0.0890396924283436
  0.2200874863343074  0.8764917164027963  0.8465455198881813
  0.1089335518450909  0.7646571628571053  0.6067338236820916
  0.8907032981306102  0.8704379978054675  0.3499831083797531
  0.7791326462065911  0.7584013983688180  0.1016195366484567
  0.5578572370403805  0.8738688995585875  0.8485176437482309
  0.4430759784398859  0.7646571565550175  0.6067338210810647
 
  0.00000000E+00  0.00000000E+00  0.00000000E+00
  0.00000000E+00  0.00000000E+00  0.00000000E+00
  0.00000000E+00  0.00000000E+00  0.00000000E+00
  0.00000000E+00  0.00000000E+00  0.00000000E+00
  0.00000000E+00  0.00000000E+00  0.00000000E+00
  0.00000000E+00  0.00000000E+00  0.00000000E+00
  0.00000000E+00  0.00000000E+00  0.00000000E+00
  0.00000000E+00  0.00000000E+00  0.00000000E+00
  0.00000000E+00  0.00000000E+00  0.00000000E+00
  0.00000000E+00  0.00000000E+00  0.00000000E+00
  0.00000000E+00  0.00000000E+00  0.00000000E+00
  0.00000000E+00  0.00000000E+00  0.00000000E+00
  0.00000000E+00  0.00000000E+00  0.00000000E+00
  0.00000000E+00  0.00000000E+00  0.00000000E+00
  0.00000000E+00  0.00000000E+00  0.00000000E+00
  0.00000000E+00  0.00000000E+00  0.00000000E+00
  0.00000000E+00  0.00000000E+00  0.00000000E+00
  0.00000000E+00  0.00000000E+00  0.00000000E+00
  0.00000000E+00  0.00000000E+00  0.00000000E+00
  0.00000000E+00  0.00000000E+00  0.00000000E+00
  0.00000000E+00  0.00000000E+00  0.00000000E+00
  0.00000000E+00  0.00000000E+00  0.00000000E+00
  0.00000000E+00  0.00000000E+00  0.00000000E+00
  0.00000000E+00  0.00000000E+00  0.00000000E+00
  0.00000000E+00  0.00000000E+00  0.00000000E+00
  0.00000000E+00  0.00000000E+00  0.00000000E+00
  0.00000000E+00  0.00000000E+00  0.00000000E+00
  0.00000000E+00  0.00000000E+00  0.00000000E+00
  0.00000000E+00  0.00000000E+00  0.00000000E+00
  0.00000000E+00  0.00000000E+00  0.00000000E+00
  0.00000000E+00  0.00000000E+00  0.00000000E+00
  0.00000000E+00  0.00000000E+00  0.00000000E+00
  0.00000000E+00  0.00000000E+00  0.00000000E+00
  0.00000000E+00  0.00000000E+00  0.00000000E+00
  0.00000000E+00  0.00000000E+00  0.00000000E+00
  0.00000000E+00  0.00000000E+00  0.00000000E+00
  0.00000000E+00  0.00000000E+00  0.00000000E+00
  0.00000000E+00  0.00000000E+00  0.00000000E+00
  0.00000000E+00  0.00000000E+00  0.00000000E+00
  0.00000000E+00  0.00000000E+00  0.00000000E+00
  0.00000000E+00  0.00000000E+00  0.00000000E+00
  0.00000000E+00  0.00000000E+00  0.00000000E+00
  0.00000000E+00  0.00000000E+00  0.00000000E+00
  0.00000000E+00  0.00000000E+00  0.00000000E+00
  0.00000000E+00  0.00000000E+00  0.00000000E+00
  0.00000000E+00  0.00000000E+00  0.00000000E+00
  0.00000000E+00  0.00000000E+00  0.00000000E+00
  0.00000000E+00  0.00000000E+00  0.00000000E+00
  0.00000000E+00  0.00000000E+00  0.00000000E+00
  0.00000000E+00  0.00000000E+00  0.00000000E+00
  0.00000000E+00  0.00000000E+00  0.00000000E+00
  0.00000000E+00  0.00000000E+00  0.00000000E+00
  0.00000000E+00  0.00000000E+00  0.00000000E+00
  0.00000000E+00  0.00000000E+00  0.00000000E+00
  0.00000000E+00  0.00000000E+00  0.00000000E+00
  0.00000000E+00  0.00000000E+00  0.00000000E+00
  0.00000000E+00  0.00000000E+00  0.00000000E+00
  0.00000000E+00  0.00000000E+00  0.00000000E+00
  0.00000000E+00  0.00000000E+00  0.00000000E+00
  0.00000000E+00  0.00000000E+00  0.00000000E+00
  0.00000000E+00  0.00000000E+00  0.00000000E+00
  0.00000000E+00  0.00000000E+00  0.00000000E+00
  0.00000000E+00  0.00000000E+00  0.00000000E+00
  0.00000000E+00  0.00000000E+00  0.00000000E+00
  0.00000000E+00  0.00000000E+00  0.00000000E+00
  0.00000000E+00  0.00000000E+00  0.00000000E+00
  0.00000000E+00  0.00000000E+00  0.00000000E+00
  0.00000000E+00  0.00000000E+00  0.00000000E+00
  0.00000000E+00  0.00000000E+00  0.00000000E+00
  0.00000000E+00  0.00000000E+00  0.00000000E+00
  0.00000000E+00  0.00000000E+00  0.00000000E+00
  0.00000000E+00  0.00000000E+00  0.00000000E+00
