POSCAR                                  
  0.974000000000000     
     2.4805673781899999   -7.5762095577200004   -5.0360731666199996
     5.0323010477599999    5.0935871810000002  -10.0994770350999996
    14.8921501987999996    0.0541707553355000   -0.0764467925439000
   Gd   Al   N 
    36    12    48
Direct
  0.2436583693532768  0.8572332455397245  0.1709741146586978
  0.3593736036556052  0.0511473756239198  0.2497256113604749
  0.9778255491308485  0.9931066349125288  0.3423748325235323
  0.6284798069055810  0.9387327073931147  0.4027722195057919
  0.2411884759971983  0.8635415565936455  0.5070564559152402
  0.2486804362893409  0.3749420310034068  0.1499447241125438
  0.8710545886267482  0.3079072769901643  0.2359430708385162
  0.5013483879159182  0.2469702065426702  0.3268872644347596
  0.1173343832037759  0.1834193015016865  0.4158228972303490
  0.3898407398511310  0.0580445683226998  0.5812064791199134
  0.0055672127175725  0.0014352431736810  0.6774059674498787
  0.2725487070188919  0.8703062215031494  0.8340068093589394
  0.9847209701073609  0.5076799881808327  0.3211084644176125
  0.6195849265789803  0.4290798355132566  0.4123562663301854
  0.2449431376550990  0.3717826617665878  0.4991997729894138
  0.8723026851335760  0.3083997790536444  0.5835924958234173
  0.4977811948303241  0.2494748082171085  0.6706646532139899
  0.1164575777763872  0.1935700556215707  0.7608617409928726
  0.7433442744973178  0.1385782794248129  0.8578711790073541
  0.3770211868065516  0.0631669870642142  0.9214666423147406
  0.6171633698416343  0.9401779740289200  0.0845619139014673
  0.5007040147477611  0.7351740213006082  0.3291745156043362
  0.1172838751561258  0.6845133681933646  0.4108289822945039
  0.7527460193872599  0.6298616458815829  0.4913102357546109
  0.3776367461544581  0.5565984796593355  0.5847331544748542
  0.0034471340599467  0.5100100944292123  0.6627277299717846
  0.6372180555460005  0.4350947247412478  0.7474474825156605
  0.2638051323739319  0.3710700597496555  0.8532061625610865
  0.8811166839958418  0.3329389596229007  0.9291787446994064
  0.1090941861994068  0.1621680008185820  0.0890162954602403
  0.5123439499369056  0.7461881849221541  0.6679228017345054
  0.1368364951254648  0.6721842927792281  0.7665996150238712
  0.7534011071919267  0.6321142466023559  0.8303435843067746
  0.8667178066052799  0.8184610728988773  0.9331737830493836
  0.4959106849148753  0.7298871961101980  0.0105129826256984
  0.1250887403193488  0.6746684230211955  0.0846353499483854
  0.6941314747412619  0.1334486479540757  0.1625785224184568
  0.7208783431135402  0.1449814903784272  0.5201859366064454
  0.6430053046736219  0.9770703300541044  0.7632149288948895
  0.6846118704894479  0.6082077205036569  0.1865471381023909
  0.3303607070351475  0.5353172493528575  0.2641519651183586
  0.0342465267529590  0.9552807542593413  0.0096643510065277
  0.8586662988869875  0.8736332547376335  0.2165410075654322
  0.5422360382484825  0.3031912804324861  0.0061430778416494
  0.8330636071289206  0.8940915607467090  0.5989356748412362
  0.4322088391027492  0.5395994756914178  0.8946128661996937
  0.9493664973972074  0.5244192405216950  0.0314885264321845
  0.5809342829836197  0.4570357120808666  0.1156344951305996
  0.6369854398076313  0.9606895129139232  0.2294835171976501
  0.1264451998328013  0.1765717152984081  0.2508507885845646
  0.7614478114883170  0.1289313803944196  0.2798056737038053
  0.3811755576376115  0.0585669144646559  0.4124116382605081
  0.9970271376183959  0.9819989790134045  0.5127775346828116
  0.6631018968519911  0.9772636851857541  0.5440402444228241
  0.6236344319610510  0.4379723140334164  0.2437419250187816
  0.2523855121999361  0.3682763775876055  0.3318230950803880
  0.8554847284011515  0.2788309982680488  0.4268903226347973
  0.5123366026174097  0.2380241430913301  0.4995088533607941
  0.1294027453542199  0.1784641370774338  0.5867896615393988
  0.7443028658660680  0.1215829301133269  0.6616570528172829
  0.4234815464815540  0.0311950436255799  0.7528134830265145
  0.0084320081717664  0.9928885588161194  0.8557641185373512
  0.6321951360332676  0.9503584195235391  0.9082560011606944
  0.1531422743458322  0.6532397789614848  0.2528325991324962
  0.7307679234458746  0.6081099089072310  0.3141803174840661
  0.3716624894339802  0.5552298126817377  0.4038058634444610
  0.9941550888031969  0.4977087278366881  0.4946982258912485
  0.6317857775650140  0.4344897489808162  0.5787922588054002
  0.2547421467054534  0.3709262368120179  0.6635559112785998
  0.8820118321253787  0.3064444465818923  0.7524936561217999
  0.5072279864890987  0.2505145500639756  0.8266623760854586
  0.1432491858075267  0.1954613842841937  0.9139740782278238
  0.7088906327571820  0.1671603789734846  0.0151942355458843
  0.3605775666841282  0.0371409382160266  0.0922489619846942
  0.0086521402960429  0.9851085656355067  0.1410547108322007
  0.2435340440335665  0.8712418561994468  0.3334767581528553
  0.8771495576785924  0.8157317262019177  0.3620285421460778
  0.5088297401867905  0.7499328168240851  0.4968724541912906
  0.1482286504834605  0.6736164548211150  0.5819391734618335
  0.7424076609409198  0.6244106433881598  0.6635266762390586
  0.3854870575601481  0.5610700085822842  0.7555890444420470
  0.9883809581579683  0.5156439397716213  0.8193952087440763
  0.6372150703568948  0.4485312580739063  0.9098635492830809
  0.3450125700268245  0.3886140815487522  0.9832628033483317
  0.9573132869083878  0.3531770410081805  0.0585719520791557
  0.5312173342547553  0.2832971573251371  0.1477403253120642
  0.2475597388489774  0.8707421573100191  0.6726226608772521
  0.8120403703853682  0.8479920758339858  0.7431287867671656
  0.4692574404118801  0.7041480937606863  0.8569797946714672
  0.0629107170417171  0.6647367065395855  0.9364775678006154
  0.7328603875775315  0.6006408081384720  0.0381467827610749
  0.3834020963317570  0.5499256566165229  0.1174807449743227
  0.0077898130938365  0.4961414382147495  0.1620441091297167
  0.2456315459479939  0.8659369572154247  0.0014477355774005
  0.8884120515617582  0.8353197670696844  0.0862819771648802
  0.5233762372673638  0.7500935427990711  0.1607027623312618
 
  0.00000000E+00  0.00000000E+00  0.00000000E+00
  0.00000000E+00  0.00000000E+00  0.00000000E+00
  0.00000000E+00  0.00000000E+00  0.00000000E+00
  0.00000000E+00  0.00000000E+00  0.00000000E+00
  0.00000000E+00  0.00000000E+00  0.00000000E+00
  0.00000000E+00  0.00000000E+00  0.00000000E+00
  0.00000000E+00  0.00000000E+00  0.00000000E+00
  0.00000000E+00  0.00000000E+00  0.00000000E+00
  0.00000000E+00  0.00000000E+00  0.00000000E+00
  0.00000000E+00  0.00000000E+00  0.00000000E+00
  0.00000000E+00  0.00000000E+00  0.00000000E+00
  0.00000000E+00  0.00000000E+00  0.00000000E+00
  0.00000000E+00  0.00000000E+00  0.00000000E+00
  0.00000000E+00  0.00000000E+00  0.00000000E+00
  0.00000000E+00  0.00000000E+00  0.00000000E+00
  0.00000000E+00  0.00000000E+00  0.00000000E+00
  0.00000000E+00  0.00000000E+00  0.00000000E+00
  0.00000000E+00  0.00000000E+00  0.00000000E+00
  0.00000000E+00  0.00000000E+00  0.00000000E+00
  0.00000000E+00  0.00000000E+00  0.00000000E+00
  0.00000000E+00  0.00000000E+00  0.00000000E+00
  0.00000000E+00  0.00000000E+00  0.00000000E+00
  0.00000000E+00  0.00000000E+00  0.00000000E+00
  0.00000000E+00  0.00000000E+00  0.00000000E+00
  0.00000000E+00  0.00000000E+00  0.00000000E+00
  0.00000000E+00  0.00000000E+00  0.00000000E+00
  0.00000000E+00  0.00000000E+00  0.00000000E+00
  0.00000000E+00  0.00000000E+00  0.00000000E+00
  0.00000000E+00  0.00000000E+00  0.00000000E+00
  0.00000000E+00  0.00000000E+00  0.00000000E+00
  0.00000000E+00  0.00000000E+00  0.00000000E+00
  0.00000000E+00  0.00000000E+00  0.00000000E+00
  0.00000000E+00  0.00000000E+00  0.00000000E+00
  0.00000000E+00  0.00000000E+00  0.00000000E+00
  0.00000000E+00  0.00000000E+00  0.00000000E+00
  0.00000000E+00  0.00000000E+00  0.00000000E+00
  0.00000000E+00  0.00000000E+00  0.00000000E+00
  0.00000000E+00  0.00000000E+00  0.00000000E+00
  0.00000000E+00  0.00000000E+00  0.00000000E+00
  0.00000000E+00  0.00000000E+00  0.00000000E+00
  0.00000000E+00  0.00000000E+00  0.00000000E+00
  0.00000000E+00  0.00000000E+00  0.00000000E+00
  0.00000000E+00  0.00000000E+00  0.00000000E+00
  0.00000000E+00  0.00000000E+00  0.00000000E+00
  0.00000000E+00  0.00000000E+00  0.00000000E+00
  0.00000000E+00  0.00000000E+00  0.00000000E+00
  0.00000000E+00  0.00000000E+00  0.00000000E+00
  0.00000000E+00  0.00000000E+00  0.00000000E+00
  0.00000000E+00  0.00000000E+00  0.00000000E+00
  0.00000000E+00  0.00000000E+00  0.00000000E+00
  0.00000000E+00  0.00000000E+00  0.00000000E+00
  0.00000000E+00  0.00000000E+00  0.00000000E+00
  0.00000000E+00  0.00000000E+00  0.00000000E+00
  0.00000000E+00  0.00000000E+00  0.00000000E+00
  0.00000000E+00  0.00000000E+00  0.00000000E+00
  0.00000000E+00  0.00000000E+00  0.00000000E+00
  0.00000000E+00  0.00000000E+00  0.00000000E+00
  0.00000000E+00  0.00000000E+00  0.00000000E+00
  0.00000000E+00  0.00000000E+00  0.00000000E+00
  0.00000000E+00  0.00000000E+00  0.00000000E+00
  0.00000000E+00  0.00000000E+00  0.00000000E+00
  0.00000000E+00  0.00000000E+00  0.00000000E+00
  0.00000000E+00  0.00000000E+00  0.00000000E+00
  0.00000000E+00  0.00000000E+00  0.00000000E+00
  0.00000000E+00  0.00000000E+00  0.00000000E+00
  0.00000000E+00  0.00000000E+00  0.00000000E+00
  0.00000000E+00  0.00000000E+00  0.00000000E+00
  0.00000000E+00  0.00000000E+00  0.00000000E+00
  0.00000000E+00  0.00000000E+00  0.00000000E+00
  0.00000000E+00  0.00000000E+00  0.00000000E+00
  0.00000000E+00  0.00000000E+00  0.00000000E+00
  0.00000000E+00  0.00000000E+00  0.00000000E+00
  0.00000000E+00  0.00000000E+00  0.00000000E+00
  0.00000000E+00  0.00000000E+00  0.00000000E+00
  0.00000000E+00  0.00000000E+00  0.00000000E+00
  0.00000000E+00  0.00000000E+00  0.00000000E+00
  0.00000000E+00  0.00000000E+00  0.00000000E+00
  0.00000000E+00  0.00000000E+00  0.00000000E+00
  0.00000000E+00  0.00000000E+00  0.00000000E+00
  0.00000000E+00  0.00000000E+00  0.00000000E+00
  0.00000000E+00  0.00000000E+00  0.00000000E+00
  0.00000000E+00  0.00000000E+00  0.00000000E+00
  0.00000000E+00  0.00000000E+00  0.00000000E+00
  0.00000000E+00  0.00000000E+00  0.00000000E+00
  0.00000000E+00  0.00000000E+00  0.00000000E+00
  0.00000000E+00  0.00000000E+00  0.00000000E+00
  0.00000000E+00  0.00000000E+00  0.00000000E+00
  0.00000000E+00  0.00000000E+00  0.00000000E+00
  0.00000000E+00  0.00000000E+00  0.00000000E+00
  0.00000000E+00  0.00000000E+00  0.00000000E+00
  0.00000000E+00  0.00000000E+00  0.00000000E+00
  0.00000000E+00  0.00000000E+00  0.00000000E+00
  0.00000000E+00  0.00000000E+00  0.00000000E+00
  0.00000000E+00  0.00000000E+00  0.00000000E+00
  0.00000000E+00  0.00000000E+00  0.00000000E+00
  0.00000000E+00  0.00000000E+00  0.00000000E+00
