supercell of icsd_608626.cif            
  0.930596088758449     
     9.3608656968877622   -0.0509457342629358   -0.0401177641818617
    -4.7244766347082816    8.0625090681901508    0.0150151197010536
    -0.0446313128703227   -0.0062110222576206    9.8368522542377548
   B    Al   N 
    16    20    36
Direct
  0.2254151720244195  0.1129003164530360  0.2655678615621540
  0.7717484521126323  0.2292478685191597  0.0090535574281034
  0.4582119448880917  0.2070569352911988  0.5033478958519950
  0.5581966304119135  0.1078646703254620  0.7451358154123398
  0.2261938572072779  0.4570746055228554  0.2633930373059954
  0.1109434619633873  0.5642175295847167  0.5011205045730733
  0.7834511858529538  0.5532354266787038  0.0067549217646388
  0.3990086136044368  0.5919915688904851  0.5079735032869905
  0.2166022510732617  0.4449387847359176  0.7373809173540948
  0.9011315615002786  0.4539990405165781  0.2512918101859682
  0.7920576270749962  0.5444024274616908  0.4931702553654631
  0.1149499545907844  0.8790959141261965  0.4991771035963453
  0.5373774448563182  0.7632014658982129  0.2577490567049452
  0.4307450277808584  0.8952753871819112  0.5084262605794976
  0.8935944498365700  0.7684069317269220  0.2615426343818328
  0.4567705232442236  0.8907182090064865  0.0030578998595701
  0.1212966369647432  0.2317043391936622  0.4835797367303840
  0.8883927528853022  0.1161633196851355  0.7564083966978785
  0.5478936072800735  0.1066571338872109  0.2462667865265118
  0.2257333975847757  0.1161095379824815  0.7315721263386621
  0.1217010641319547  0.2355165646272965  0.0086495780255120
  0.8879910504321060  0.1137591332674788  0.2397966421065760
  0.7690082997627385  0.2236446331285649  0.4956120470397209
  0.4497052604625082  0.2214590197210171  0.9917329600508467
  0.8820134755619122  0.4378160222797618  0.7495584822958392
  0.5589799377145042  0.4433093025045096  0.2597619739840269
  0.1091350799097270  0.5536183305965636  0.9998817134610860
  0.5565720593976380  0.4468146152533023  0.7147530926493744
  0.4451968954047558  0.5605489416910316  0.0026079114964190
  0.2216109619875652  0.7764304408179967  0.2555760106549840
  0.8898374745703279  0.7714529882956072  0.7435748151477455
  0.7712850944619376  0.8771445667322624  0.0129064648947619
  0.2281172115307086  0.7817323230509459  0.7429481757332681
  0.1143881520410659  0.8920577877265785  0.0091247235353080
  0.7715677551372337  0.8732441268104765  0.4815051168736417
  0.5513751332678112  0.7850253224515811  0.7444079208795458
  0.2363873505938017  0.1003574789051811  0.4408372079343295
  0.1401803044519951  0.2435653712707335  0.2179127218806585
  0.8796487520913132  0.1257979012229384  0.9707711986038845
  0.7521333791506137  0.2070523080510895  0.6967933456325071
  0.5266552361909262  0.0842147754253375  0.4463223195295782
  0.4133491436085137  0.2042487648660440  0.1930095690936966
  0.2163693683653278  0.1120267736657183  0.9305248211731083
  0.1213171288408788  0.2487196389191269  0.6876674189124614
  0.8843618238884972  0.1102738257600393  0.4382440453197844
  0.7821276909235522  0.2511947325754775  0.1864293062677689
  0.5668843856385024  0.1002272947986498  0.9414663872022757
  0.4588676244617389  0.2060384279578713  0.6816873317630296
  0.2254582626791901  0.4766562207194696  0.4352936348150322
  0.1040108268305602  0.5334609226605522  0.2010828811239094
  0.8652232253663428  0.4343259719847055  0.9516235385589056
  0.7882828020753934  0.5557587967926807  0.6610416974408011
  0.5858236372253742  0.4087996093635198  0.4520709267840246
  0.4285201409814974  0.5624879792814426  0.2097431798735343
  0.2248772640413321  0.4509464361872020  0.9118618323386158
  0.1156171897913296  0.5430631407958302  0.6778745786071880
  0.9122556179890751  0.4659848757634890  0.4327900936903646
  0.8083811844822790  0.5681790074045523  0.1884830565322133
  0.5811369633219456  0.4628474019953899  0.9425043861301106
  0.4150457180225260  0.5538539695902998  0.6653537909897338
  0.2210011598370585  0.7780580179828576  0.4608959759174738
  0.0974680635535563  0.9051361115633512  0.2091159674272376
  0.8828681338091116  0.7512052612845395  0.9459138790122381
  0.7791817528378076  0.8870363252411408  0.6882667870327950
  0.5214092548325695  0.7677130818705109  0.4385818013676470
  0.4591846960083714  0.8759564821687178  0.1806471972206722
  0.2498120334952318  0.7954547904716875  0.9512849280142959
  0.1101521580449116  0.8879848758993560  0.6665389819743197
  0.9001899688224668  0.7576342965018341  0.4319886620646471
  0.7562893398758348  0.8515685190036919  0.2179419554158102
  0.5459421460714253  0.7907269080716972  0.9432394932223005
  0.4553868132873973  0.9136081723602842  0.6778273907979155
 
  0.00000000E+00  0.00000000E+00  0.00000000E+00
  0.00000000E+00  0.00000000E+00  0.00000000E+00
  0.00000000E+00  0.00000000E+00  0.00000000E+00
  0.00000000E+00  0.00000000E+00  0.00000000E+00
  0.00000000E+00  0.00000000E+00  0.00000000E+00
  0.00000000E+00  0.00000000E+00  0.00000000E+00
  0.00000000E+00  0.00000000E+00  0.00000000E+00
  0.00000000E+00  0.00000000E+00  0.00000000E+00
  0.00000000E+00  0.00000000E+00  0.00000000E+00
  0.00000000E+00  0.00000000E+00  0.00000000E+00
  0.00000000E+00  0.00000000E+00  0.00000000E+00
  0.00000000E+00  0.00000000E+00  0.00000000E+00
  0.00000000E+00  0.00000000E+00  0.00000000E+00
  0.00000000E+00  0.00000000E+00  0.00000000E+00
  0.00000000E+00  0.00000000E+00  0.00000000E+00
  0.00000000E+00  0.00000000E+00  0.00000000E+00
  0.00000000E+00  0.00000000E+00  0.00000000E+00
  0.00000000E+00  0.00000000E+00  0.00000000E+00
  0.00000000E+00  0.00000000E+00  0.00000000E+00
  0.00000000E+00  0.00000000E+00  0.00000000E+00
  0.00000000E+00  0.00000000E+00  0.00000000E+00
  0.00000000E+00  0.00000000E+00  0.00000000E+00
  0.00000000E+00  0.00000000E+00  0.00000000E+00
  0.00000000E+00  0.00000000E+00  0.00000000E+00
  0.00000000E+00  0.00000000E+00  0.00000000E+00
  0.00000000E+00  0.00000000E+00  0.00000000E+00
  0.00000000E+00  0.00000000E+00  0.00000000E+00
  0.00000000E+00  0.00000000E+00  0.00000000E+00
  0.00000000E+00  0.00000000E+00  0.00000000E+00
  0.00000000E+00  0.00000000E+00  0.00000000E+00
  0.00000000E+00  0.00000000E+00  0.00000000E+00
  0.00000000E+00  0.00000000E+00  0.00000000E+00
  0.00000000E+00  0.00000000E+00  0.00000000E+00
  0.00000000E+00  0.00000000E+00  0.00000000E+00
  0.00000000E+00  0.00000000E+00  0.00000000E+00
  0.00000000E+00  0.00000000E+00  0.00000000E+00
  0.00000000E+00  0.00000000E+00  0.00000000E+00
  0.00000000E+00  0.00000000E+00  0.00000000E+00
  0.00000000E+00  0.00000000E+00  0.00000000E+00
  0.00000000E+00  0.00000000E+00  0.00000000E+00
  0.00000000E+00  0.00000000E+00  0.00000000E+00
  0.00000000E+00  0.00000000E+00  0.00000000E+00
  0.00000000E+00  0.00000000E+00  0.00000000E+00
  0.00000000E+00  0.00000000E+00  0.00000000E+00
  0.00000000E+00  0.00000000E+00  0.00000000E+00
  0.00000000E+00  0.00000000E+00  0.00000000E+00
  0.00000000E+00  0.00000000E+00  0.00000000E+00
  0.00000000E+00  0.00000000E+00  0.00000000E+00
  0.00000000E+00  0.00000000E+00  0.00000000E+00
  0.00000000E+00  0.00000000E+00  0.00000000E+00
  0.00000000E+00  0.00000000E+00  0.00000000E+00
  0.00000000E+00  0.00000000E+00  0.00000000E+00
  0.00000000E+00  0.00000000E+00  0.00000000E+00
  0.00000000E+00  0.00000000E+00  0.00000000E+00
  0.00000000E+00  0.00000000E+00  0.00000000E+00
  0.00000000E+00  0.00000000E+00  0.00000000E+00
  0.00000000E+00  0.00000000E+00  0.00000000E+00
  0.00000000E+00  0.00000000E+00  0.00000000E+00
  0.00000000E+00  0.00000000E+00  0.00000000E+00
  0.00000000E+00  0.00000000E+00  0.00000000E+00
  0.00000000E+00  0.00000000E+00  0.00000000E+00
  0.00000000E+00  0.00000000E+00  0.00000000E+00
  0.00000000E+00  0.00000000E+00  0.00000000E+00
  0.00000000E+00  0.00000000E+00  0.00000000E+00
  0.00000000E+00  0.00000000E+00  0.00000000E+00
  0.00000000E+00  0.00000000E+00  0.00000000E+00
  0.00000000E+00  0.00000000E+00  0.00000000E+00
  0.00000000E+00  0.00000000E+00  0.00000000E+00
  0.00000000E+00  0.00000000E+00  0.00000000E+00
  0.00000000E+00  0.00000000E+00  0.00000000E+00
  0.00000000E+00  0.00000000E+00  0.00000000E+00
  0.00000000E+00  0.00000000E+00  0.00000000E+00
