generated by phonopy                    
   1.00000000000000     
    10.0351470768999995   -0.0000022330999784   -0.0000001056124209
    -5.0175765436399997    8.6906901959899994    0.0000001395531216
    -0.0000001735893656    0.0000001431815548   14.9533752540999991
   Pb   P    O    Cu
    20    12    49     1
Direct
  0.9890131733275922  0.7701958814688155  0.1166143211292976
  0.0063718956667600  0.7702343744260887  0.6303115474154595
  0.0042645811297177  0.2643813935184767  0.3721801515359218
  0.0059221378586898  0.2649254665441134  0.8772189928853962
  0.2254857850054677  0.2256933681113438  0.1231351221942774
  0.2287910078138395  0.2244466188445102  0.6266349424343360
  0.7921660144502027  0.7729317178360731  0.4095692110246958
  0.7384667614958005  0.7407464667031149  0.8738184780695661
  0.7715912922660664  0.9981371476303025  0.1193041948436075
  0.7788075978837625  0.0074512274179952  0.6289016580716691
  0.2694271038676774  0.0111295083609875  0.3777967662127253
  0.2587780823993882  0.9978168812002082  0.8764014057379867
  0.6618458440268569  0.3284331018405524  0.0021909254866301
  0.6585334097457860  0.3262833803273395  0.5039060474436923
  0.3363861127989551  0.6604390960489965  0.0029932453391979
  0.3302349005040384  0.6517841389010215  0.5052166929829482
  0.2941206621223529  0.6776119149069615  0.2428562512978800
  0.3334702510811880  0.6725381881570200  0.7457217623402457
  0.6636864879047124  0.3300024518356963  0.2491310190182148
  0.6738681871671091  0.3333521664043460  0.7508394761632005
  0.6157817724947421  0.5882890061866988  0.1213825305144951
  0.6209947589268410  0.5901244136609520  0.6286341880120148
  0.3857174735647106  0.4095147074258492  0.3627797240731496
  0.3686911759248730  0.3946327902990845  0.8717874006861734
  0.4022704881089894  0.0291347139739528  0.1237445599934475
  0.4049118510937291  0.0288689600720815  0.6248984990338329
  0.6023360641476501  0.9577796848328006  0.3741932494180205
  0.6047352625237608  0.9725928590039956  0.8761692275540440
  0.9672253452390933  0.3750357609202979  0.1261665220100880
  0.9721565558450465  0.3765881354697385  0.6238109816165718
  0.0175553907376482  0.6337785773977131  0.3768502811911247
  0.0257267216930614  0.6327845595127002  0.8756576684555384
  0.4891687986763600  0.6347871817438104  0.1218470020799458
  0.4990323836923736  0.6420877102650806  0.6277548178281265
  0.4684493198432307  0.3106817516301419  0.3756563214576332
  0.4694691788549790  0.3173202414955583  0.8730170559815846
  0.3447308605059192  0.8521375889706988  0.1227391242818499
  0.3470725269599768  0.8533599515460963  0.6260990808083520
  0.6897769580210493  0.1358126575501544  0.3672807113024490
  0.6827369254840434  0.1507418123401933  0.8765664688946515
  0.1411083710375678  0.5023903381916881  0.1234223649205433
  0.1468525578811182  0.5017101015506142  0.6237896398358771
  0.8386636292275895  0.5367849327922727  0.3735443840952826
  0.8477174586380514  0.5303056051959558  0.8739618295373361
  0.7240454594586438  0.6509414704817615  0.0377213677779125
  0.7267193081941485  0.6498608013679785  0.5426560714826678
  0.3024448671818263  0.4051080015615796  0.4538062714064921
  0.2628765719695778  0.3539742100882890  0.9565450304574981
  0.3465093797583094  0.0758049557890601  0.0375953918816521
  0.3540253229762698  0.0782110037243697  0.5369761614317952
  0.6503900442357775  0.9023479270808394  0.4607048928927426
  0.6461255142153846  0.9086021204458063  0.9609722588476117
  0.9244809653528492  0.2674862146079349  0.0424399741471220
  0.9315223031520148  0.2655368221226624  0.5420193877699191
  0.0678136197055039  0.7513048455059632  0.4557164134093910
  0.0828090537034640  0.7441798656483769  0.9578320770436406
  0.2486735618251643  0.3219981053604073  0.2933782014559085
  0.2589594236076209  0.3461011439961368  0.7888303421143732
  0.7187998737897985  0.6570924984098312  0.2070181710340719
  0.7310479849759588  0.6547597305685571  0.7107386269121818
  0.6346986837577973  0.8768694949212161  0.2932847222028983
  0.6524247470258402  0.9105490922608723  0.7932103970032500
  0.3367934169545848  0.0716914251683676  0.2071107325949129
  0.3359484766478147  0.0748167730675391  0.7055477541659840
  0.0874566831556081  0.7297033425774870  0.2889499649434129
  0.0914416457463929  0.7374371165446334  0.7908142496714561
  0.9311713832486248  0.2724566195335640  0.2117934268474428
  0.9283250907983742  0.2749757270690054  0.7106898484404738
  0.5413775705087716  0.4083710582375346  0.1239089138207703
  0.5442724133786072  0.4105307295890555  0.6264289187173375
  0.4752000496868689  0.5764044158326200  0.8704131201623042
  0.5824492477745622  0.1242940765567440  0.1264360349763436
  0.5852444328368662  0.1261035942378754  0.6290433624194236
  0.4229760404414407  0.8954259069829860  0.3761530023421287
  0.4233230747788141  0.8983899521773608  0.8734603983637257
  0.8643670775064010  0.4518865673565102  0.1268284822299748
  0.8706446448306764  0.4552202293083738  0.6207307822587040
  0.0901270109005665  0.5267257963412817  0.3880417639813842
  0.1022814301760064  0.5278180450735803  0.8796645000160552
  0.9972848096622329  0.9990671525219668  0.1061903503585881
  0.0011427874865859  0.9957593136558671  0.6186186412703165
  0.5462517892825360  0.6364929510589192  0.2990387491690285
 
  0.00000000E+00  0.00000000E+00  0.00000000E+00
  0.00000000E+00  0.00000000E+00  0.00000000E+00
  0.00000000E+00  0.00000000E+00  0.00000000E+00
  0.00000000E+00  0.00000000E+00  0.00000000E+00
  0.00000000E+00  0.00000000E+00  0.00000000E+00
  0.00000000E+00  0.00000000E+00  0.00000000E+00
  0.00000000E+00  0.00000000E+00  0.00000000E+00
  0.00000000E+00  0.00000000E+00  0.00000000E+00
  0.00000000E+00  0.00000000E+00  0.00000000E+00
  0.00000000E+00  0.00000000E+00  0.00000000E+00
  0.00000000E+00  0.00000000E+00  0.00000000E+00
  0.00000000E+00  0.00000000E+00  0.00000000E+00
  0.00000000E+00  0.00000000E+00  0.00000000E+00
  0.00000000E+00  0.00000000E+00  0.00000000E+00
  0.00000000E+00  0.00000000E+00  0.00000000E+00
  0.00000000E+00  0.00000000E+00  0.00000000E+00
  0.00000000E+00  0.00000000E+00  0.00000000E+00
  0.00000000E+00  0.00000000E+00  0.00000000E+00
  0.00000000E+00  0.00000000E+00  0.00000000E+00
  0.00000000E+00  0.00000000E+00  0.00000000E+00
  0.00000000E+00  0.00000000E+00  0.00000000E+00
  0.00000000E+00  0.00000000E+00  0.00000000E+00
  0.00000000E+00  0.00000000E+00  0.00000000E+00
  0.00000000E+00  0.00000000E+00  0.00000000E+00
  0.00000000E+00  0.00000000E+00  0.00000000E+00
  0.00000000E+00  0.00000000E+00  0.00000000E+00
  0.00000000E+00  0.00000000E+00  0.00000000E+00
  0.00000000E+00  0.00000000E+00  0.00000000E+00
  0.00000000E+00  0.00000000E+00  0.00000000E+00
  0.00000000E+00  0.00000000E+00  0.00000000E+00
  0.00000000E+00  0.00000000E+00  0.00000000E+00
  0.00000000E+00  0.00000000E+00  0.00000000E+00
  0.00000000E+00  0.00000000E+00  0.00000000E+00
  0.00000000E+00  0.00000000E+00  0.00000000E+00
  0.00000000E+00  0.00000000E+00  0.00000000E+00
  0.00000000E+00  0.00000000E+00  0.00000000E+00
  0.00000000E+00  0.00000000E+00  0.00000000E+00
  0.00000000E+00  0.00000000E+00  0.00000000E+00
  0.00000000E+00  0.00000000E+00  0.00000000E+00
  0.00000000E+00  0.00000000E+00  0.00000000E+00
  0.00000000E+00  0.00000000E+00  0.00000000E+00
  0.00000000E+00  0.00000000E+00  0.00000000E+00
  0.00000000E+00  0.00000000E+00  0.00000000E+00
  0.00000000E+00  0.00000000E+00  0.00000000E+00
  0.00000000E+00  0.00000000E+00  0.00000000E+00
  0.00000000E+00  0.00000000E+00  0.00000000E+00
  0.00000000E+00  0.00000000E+00  0.00000000E+00
  0.00000000E+00  0.00000000E+00  0.00000000E+00
  0.00000000E+00  0.00000000E+00  0.00000000E+00
  0.00000000E+00  0.00000000E+00  0.00000000E+00
  0.00000000E+00  0.00000000E+00  0.00000000E+00
  0.00000000E+00  0.00000000E+00  0.00000000E+00
  0.00000000E+00  0.00000000E+00  0.00000000E+00
  0.00000000E+00  0.00000000E+00  0.00000000E+00
  0.00000000E+00  0.00000000E+00  0.00000000E+00
  0.00000000E+00  0.00000000E+00  0.00000000E+00
  0.00000000E+00  0.00000000E+00  0.00000000E+00
  0.00000000E+00  0.00000000E+00  0.00000000E+00
  0.00000000E+00  0.00000000E+00  0.00000000E+00
  0.00000000E+00  0.00000000E+00  0.00000000E+00
  0.00000000E+00  0.00000000E+00  0.00000000E+00
  0.00000000E+00  0.00000000E+00  0.00000000E+00
  0.00000000E+00  0.00000000E+00  0.00000000E+00
  0.00000000E+00  0.00000000E+00  0.00000000E+00
  0.00000000E+00  0.00000000E+00  0.00000000E+00
  0.00000000E+00  0.00000000E+00  0.00000000E+00
  0.00000000E+00  0.00000000E+00  0.00000000E+00
  0.00000000E+00  0.00000000E+00  0.00000000E+00
  0.00000000E+00  0.00000000E+00  0.00000000E+00
  0.00000000E+00  0.00000000E+00  0.00000000E+00
  0.00000000E+00  0.00000000E+00  0.00000000E+00
  0.00000000E+00  0.00000000E+00  0.00000000E+00
  0.00000000E+00  0.00000000E+00  0.00000000E+00
  0.00000000E+00  0.00000000E+00  0.00000000E+00
  0.00000000E+00  0.00000000E+00  0.00000000E+00
  0.00000000E+00  0.00000000E+00  0.00000000E+00
  0.00000000E+00  0.00000000E+00  0.00000000E+00
  0.00000000E+00  0.00000000E+00  0.00000000E+00
  0.00000000E+00  0.00000000E+00  0.00000000E+00
  0.00000000E+00  0.00000000E+00  0.00000000E+00
  0.00000000E+00  0.00000000E+00  0.00000000E+00
  0.00000000E+00  0.00000000E+00  0.00000000E+00
