Al  N                                   
   1.00000000000000     
    -3.1284200301400000   -0.0000003213060881   -0.0000000204113364
    -1.5642097368700001    2.7093251941199998   -0.0000000671063374
    -0.0000000324584359    0.0000001050751238   -5.0152582418599998
   Al   N 
     2     2
Direct
  0.3333337396516418  0.2833334436411805  0.6347611489760192
  0.6666663947531775  0.6166681230567477  0.1347611493220116
  0.6666655812764103  0.6166698427660999  0.7532603844061063
  0.3333345572355817  0.2833317098084638  0.2532603843545431
 
             NaN             NaN             NaN
             NaN             NaN             NaN
             NaN             NaN             NaN
             NaN             NaN             NaN
