Al  N                                   
   1.00000000000000     
    -3.1284200301400000   -0.0000003213060883   -0.0000000204113361
    -1.5642097368700001    2.7093251941199998   -0.0000000671063373
    -0.0000000324584356    0.0000001050751238   -5.0152582418599998
   Al   N 
     2     2
Direct
  0.3333338025015819  0.2833339554133376  0.7836816336000739
  0.6666664291663197  0.6166686762881911  0.2836816339354575
  0.6666656153362680  0.6166703986090617  0.6651670479512762
  0.3333346145113983  0.2833322445303950  0.1651670479204061
 
             NaN             NaN             NaN
             NaN             NaN             NaN
             NaN             NaN             NaN
             NaN             NaN             NaN
