Al  N                                   
   1.00000000000000     
    -3.1284200301400000   -0.0000003213060883   -0.0000000204113361
    -1.5642097368700001    2.7093251941199998   -0.0000000671063373
    -0.0000000324584357    0.0000001050751238   -5.0152582418599998
   Al   N 
     2     2
Direct
  0.3333338441964491  0.2833334878687746  0.7526858196945801
  0.6666663411771606  0.6166686064681377  0.2526858275119659
  0.6666654737646788  0.6166703342588636  0.6657363826718830
  0.3333347080379032  0.2833317680038629  0.1657363886788470
 
             NaN             NaN             NaN
             NaN             NaN             NaN
             NaN             NaN             NaN
             NaN             NaN             NaN
