Al  N                                   
   1.00000000000000     
    -3.1284200301400000   -0.0000003213060882   -0.0000000204113363
    -1.5642097368700001    2.7093251941199998   -0.0000000671063374
    -0.0000000324584358    0.0000001050751238   -5.0152582418599998
   Al   N 
     2     2
Direct
  0.3333308347817126  0.2833361581838825  0.6875130676835401
  0.6666690960662960  0.6166662574038464  0.1875130860770577
  0.6666681928128072  0.6166671980784160  0.7309151128013294
  0.3333322435327519  0.2833345831463548  0.2309151234321366
 
             NaN             NaN             NaN
             NaN             NaN             NaN
             NaN             NaN             NaN
             NaN             NaN             NaN
