Al  N                                   
   1.00000000000000     
    -3.1284200301400000   -0.0000003213060880   -0.0000000204113364
    -1.5642097368700001    2.7093251941199998   -0.0000000671063374
    -0.0000000324584359    0.0000001050751238   -5.0152582418599998
   Al   N 
     2     2
Direct
  0.3333337302561524  0.2833329975309141  0.6128482715600103
  0.6666663372556473  0.6166677907731798  0.1128482716250967
  0.6666655160389893  0.6166695253562492  0.7313091085133762
  0.3333345533622037  0.2833312511715148  0.2313091081617261
 
             NaN             NaN             NaN
             NaN             NaN             NaN
             NaN             NaN             NaN
             NaN             NaN             NaN
