Al  N                                   
   1.00000000000000     
    -3.1284200301400000   -0.0000003213060881   -0.0000000204113363
    -1.5642097368700001    2.7093251941199998   -0.0000000671063374
    -0.0000000324584358    0.0000001050751238   -5.0152582418599998
   Al   N 
     2     2
Direct
  0.3333342053108597  0.2833327702688214  0.6657700647711463
  0.6666659647044121  0.6166693470122039  0.1657700723439379
  0.6666655833197889  0.6166698594488396  0.7526560571626387
  0.3333346138522812  0.2833322200093356  0.2526560648720116
 
             NaN             NaN             NaN
             NaN             NaN             NaN
             NaN             NaN             NaN
             NaN             NaN             NaN
