generated by phonopy                    
   1.00000000000000     
    11.7766717401999994    0.0000001554515406   -0.0000000066307821
     0.0000001547684238   11.7766718890999993   -0.0000001188749358
     0.0000000082086546   -0.0000001787909814   17.8473238844999997
   Bi   Cu   Se   O    Zn
    36    36    36    36     1
Direct
  0.3349665940758726  0.1678461891047220  0.4307036592439673
  0.6686016366766054  0.1685499434369504  0.4304419879062067
  0.0038284096911738  0.1681186688803322  0.4297332354413186
  0.3349675338002172  0.4988467211379373  0.4307065610115615
  0.6686045435770183  0.4981492886522503  0.4304508111438423
  0.0038330661602757  0.4985839159229357  0.4297394165667825
  0.3327100251370894  0.8333438870499918  0.4379836353123423
  0.6708508456251892  0.8333464206074197  0.4350499177862019
  0.0042333322070434  0.8333473925327866  0.4323673598578495
  0.3359573700489733  0.1669039005726276  0.9255475540675491
  0.6691654386513619  0.1663228914280950  0.9255446074967892
  0.0031352246179281  0.1664486758815471  0.9247888491181655
  0.3359548124585174  0.4997873090930511  0.9255394082273156
  0.6691691913428670  0.5003649280113081  0.9255401371254806
  0.0031381015129028  0.5002336926314186  0.9247860190667154
  0.3366010177140097  0.8333495230667083  0.9269883077132732
  0.6692006352374449  0.8333422464817346  0.9272377397991463
  0.0028227767146944  0.8333473541424112  0.9262600442158160
  0.1700074300974066  0.0012778809981526  0.0672536854507300
  0.5021736000065786  0.0018183867665087  0.0683696289822677
  0.8370327540727658  0.0022714011824405  0.0664433830839144
  0.1681455821117552  0.3333426765298881  0.0666013336306577
  0.5030589352209915  0.3333472852335504  0.0664159326859917
  0.8368868416711663  0.3333476392895847  0.0665072198353585
  0.1700082089430808  0.6654202903369466  0.0672504222968726
  0.5021693668414500  0.6648786514395510  0.0683634840712912
  0.8370378136864787  0.6644287505317052  0.0664443454776062
  0.1675765306009325  0.0027261168611261  0.5743383308745393
  0.5032223400100762  0.0018167989812596  0.5734557756308902
  0.8368655723829974  0.0018979094259706  0.5725297753925886
  0.1690442984049412  0.3333470057392418  0.5726786201532832
  0.5022079018968313  0.3333452442747173  0.5724846754975133
  0.8363614682560083  0.3333468669693431  0.5715664332699504
  0.1675802026228723  0.6639691303230748  0.5743485839142011
  0.5032208267852312  0.6648753736503537  0.5734640047896704
  0.8368679530259229  0.6647993454301755  0.5725380633416677
  0.3234989244632374  0.0204881093982578  0.2461951791297565
  0.6713113850548353  0.0226253027237746  0.2500427210008453
  0.0106220602154607  0.0078036972833075  0.2480904439235232
  0.3349293350006022  0.3333539749712244  0.2493122612114220
  0.6695631769114243  0.3333644073370436  0.2491423140988331
  0.0022942985955936  0.3333539729122350  0.2492709098117842
  0.3235160483773853  0.6461841892947930  0.2462073679036294
  0.6713208013171794  0.6440486098634182  0.2500554755212221
  0.0106476549045809  0.6589115810620569  0.2480751681381221
  0.3366306403493553  0.9992113567900702  0.7488729910545118
  0.6692165772229401  0.9993557100018222  0.7487766254261601
  0.0024439820103339  0.9996105695544628  0.7495360317245243
  0.3366916273386664  0.3333279321159566  0.7490754938324713
  0.6691633847401306  0.3333291519040102  0.7488706901929447
  0.0024102194714359  0.3333346672199724  0.7494473653699245
  0.3366297154509823  0.6674787672102909  0.7488688141222255
  0.6692178270836564  0.6673357380305163  0.7487727836528180
  0.0024496903590077  0.6670926461859352  0.7495337245491243
  0.1663033410339665  0.1728120298373810  0.2482976782071660
  0.5009945061528214  0.1730500804700341  0.2454670677853201
  0.8379703215785668  0.1723697935546511  0.2471117035315231
  0.1663077096571044  0.4938888403031925  0.2483016267430216
  0.5010014993058078  0.4936391368562951  0.2454554930369142
  0.8379800672002347  0.4943505723206982  0.2471128804960898
  0.1731279315829681  0.8333567125116801  0.2507961279327162
  0.3860990692442172  0.8333434097266377  0.2822965145506870
  0.5878728003844031  0.8333449515344995  0.2740612064268291
  0.1695710646508175  0.1660088176209911  0.7492353829619560
  0.5033046220537827  0.1659928645029112  0.7494954277199781
  0.8351997649359930  0.1660245513806160  0.7494613413303810
  0.1695731179596081  0.5006643934468755  0.7492441053112842
  0.5033120737274217  0.5006763175260147  0.7495044124815138
  0.8352020482997204  0.5006528225629978  0.7494681952598654
  0.1694404296002503  0.8333466988677714  0.7483780863359399
  0.5031181470369575  0.8333427707751397  0.7482792709150772
  0.8355660705183894  0.8333488060430696  0.7486916737540312
  0.1696822937744926  0.3333468216873996  0.3381190597097543
  0.5022153099818993  0.3333571177720671  0.3365771211330539
  0.8355149731671787  0.3333622617475314  0.3372672946849775
  0.1691340791425873  0.6652865017256673  0.3380228993602117
  0.4987380466409022  0.6649844307945258  0.3311959979723440
  0.8377098292032130  0.6656716716187816  0.3337807219912463
  0.1691348623257198  0.0014020585091998  0.3380244078526786
  0.4987314427229848  0.0017103410330677  0.3311933316342248
  0.8376987055256251  0.0010496134406495  0.3337831831087428
  0.1695962357701930  0.3333367409972681  0.8349423976855661
  0.5029498633060996  0.3333319462451243  0.8354458365165911
  0.8356100499747967  0.3333390596782948  0.8351377109445437
  0.1699312701677584  0.6673093951172717  0.8353528501767684
  0.5028520540811243  0.6675193678198355  0.8357061892433890
  0.8354414117412574  0.6671578941807468  0.8355605366061170
  0.1699318893704174  0.9993833431078087  0.8353574689689651
  0.5028515140954752  0.9991646219914330  0.8357078452779447
  0.8354393071175892  0.9995350229428865  0.8355640414319154
  0.0028302747067244  0.1688216820743662  0.1599688149647278
  0.3342804354970141  0.1717337740345641  0.1578637187384047
  0.6697733768802934  0.1709319722363531  0.1582854559248830
  0.0028332605228982  0.4978836850275030  0.1599675622163872
  0.3342838051570780  0.4949627361355269  0.1578583688271493
  0.6697773662975806  0.4957764666687652  0.1582788306449103
  0.0059824529602110  0.8333540163697890  0.1641961181510041
  0.3315164740176257  0.8333419848984605  0.1549757438528516
  0.6764893783511710  0.8333473058425369  0.1574432281118376
  0.0021331700951635  0.1668916764926891  0.6620550520173936
  0.3364339874629962  0.1668011281053765  0.6619502713281094
  0.6693237498384619  0.1668209226808983  0.6615367652573454
  0.0021335835645289  0.4997937303461129  0.6620624060864131
  0.3364367779560808  0.4998761951304971  0.6619588794113369
  0.6693217772307847  0.4998548005487748  0.6615463851904622
  0.0022106261466064  0.8333512853533875  0.6617398522027855
  0.3360717432930542  0.8333468571193876  0.6611047128773464
  0.6696336883926008  0.8333458799739333  0.6609917540099985
  0.1693361901371233  0.1665504791218595  0.9960491436986985
  0.5025791598963636  0.1661300231795551  0.9969197445892846
  0.8363293829250935  0.1668016358200575  0.9962320782224552
  0.1693323315713329  0.5001440334075369  0.9960458746659029
  0.5025819607293656  0.5005660080906438  0.9969132834348997
  0.8363330933022013  0.4998910569873090  0.9962275580933309
  0.1688051580706897  0.8333473787614452  0.9975637918485845
  0.5031729080838900  0.8333433086195328  0.9990414684096436
  0.8365073533687593  0.8333490850642633  0.9980599311471750
  0.1689294344805319  0.1676497634339214  0.5006051897887005
  0.5031711243769692  0.1669516639027933  0.5003032648208006
  0.8353732269577065  0.1670905343297093  0.4995783215889560
  0.1689258153758217  0.4990451188474339  0.5006116189799030
  0.5031746394872698  0.4997473677535211  0.5003078142294086
  0.8353739422657682  0.4996096492570672  0.4995827572332345
  0.1664723795753105  0.8333436524748024  0.5036210689132972
  0.5032314801914666  0.8333422723151358  0.5013430408930617
  0.8375166269057885  0.8333447810683978  0.5013251609570801
  0.3363261914430922  0.0005014077660590  0.9978497456750617
  0.6695951832514808  0.0003972751192620  0.9979944471847872
  0.0027265016321536  0.0001934140556514  0.9966912022416849
  0.3360252271684345  0.3333466997943191  0.9962039918187457
  0.6694492304173991  0.3333475886387163  0.9963978787475014
  0.0024977413263869  0.3333490413975824  0.9955071330837626
  0.3363284394026564  0.6661920075300145  0.9978455673813542
  0.6695937705037593  0.6662925039568535  0.9979925484872467
  0.0027281359123137  0.6664984523870814  0.9966861641449967
  0.3353251431909143  0.0017404909277303  0.5023215472448257
  0.6696366439873103  0.0007055493094086  0.5003296305320006
  0.0026193135957442  0.0011117309742374  0.5003433393851751
  0.3357820139309382  0.3333448988442811  0.5008538517417733
  0.6689856374187144  0.3333517909698571  0.4996718153008501
  0.0028080379469699  0.3333491216353153  0.5005373735910013
  0.3353237128242483  0.6649532233879896  0.5023318431311665
  0.6696353060384013  0.6659894214925401  0.5003371222653712
  0.0026221605147825  0.6655861516115493  0.5003527312761378
  0.8386211274040889  0.8333650564561239  0.2483616719790405
 
  0.00000000E+00  0.00000000E+00  0.00000000E+00
  0.00000000E+00  0.00000000E+00  0.00000000E+00
  0.00000000E+00  0.00000000E+00  0.00000000E+00
  0.00000000E+00  0.00000000E+00  0.00000000E+00
  0.00000000E+00  0.00000000E+00  0.00000000E+00
  0.00000000E+00  0.00000000E+00  0.00000000E+00
  0.00000000E+00  0.00000000E+00  0.00000000E+00
  0.00000000E+00  0.00000000E+00  0.00000000E+00
  0.00000000E+00  0.00000000E+00  0.00000000E+00
  0.00000000E+00  0.00000000E+00  0.00000000E+00
  0.00000000E+00  0.00000000E+00  0.00000000E+00
  0.00000000E+00  0.00000000E+00  0.00000000E+00
  0.00000000E+00  0.00000000E+00  0.00000000E+00
  0.00000000E+00  0.00000000E+00  0.00000000E+00
  0.00000000E+00  0.00000000E+00  0.00000000E+00
  0.00000000E+00  0.00000000E+00  0.00000000E+00
  0.00000000E+00  0.00000000E+00  0.00000000E+00
  0.00000000E+00  0.00000000E+00  0.00000000E+00
  0.00000000E+00  0.00000000E+00  0.00000000E+00
  0.00000000E+00  0.00000000E+00  0.00000000E+00
  0.00000000E+00  0.00000000E+00  0.00000000E+00
  0.00000000E+00  0.00000000E+00  0.00000000E+00
  0.00000000E+00  0.00000000E+00  0.00000000E+00
  0.00000000E+00  0.00000000E+00  0.00000000E+00
  0.00000000E+00  0.00000000E+00  0.00000000E+00
  0.00000000E+00  0.00000000E+00  0.00000000E+00
  0.00000000E+00  0.00000000E+00  0.00000000E+00
  0.00000000E+00  0.00000000E+00  0.00000000E+00
  0.00000000E+00  0.00000000E+00  0.00000000E+00
  0.00000000E+00  0.00000000E+00  0.00000000E+00
  0.00000000E+00  0.00000000E+00  0.00000000E+00
  0.00000000E+00  0.00000000E+00  0.00000000E+00
  0.00000000E+00  0.00000000E+00  0.00000000E+00
  0.00000000E+00  0.00000000E+00  0.00000000E+00
  0.00000000E+00  0.00000000E+00  0.00000000E+00
  0.00000000E+00  0.00000000E+00  0.00000000E+00
  0.00000000E+00  0.00000000E+00  0.00000000E+00
  0.00000000E+00  0.00000000E+00  0.00000000E+00
  0.00000000E+00  0.00000000E+00  0.00000000E+00
  0.00000000E+00  0.00000000E+00  0.00000000E+00
  0.00000000E+00  0.00000000E+00  0.00000000E+00
  0.00000000E+00  0.00000000E+00  0.00000000E+00
  0.00000000E+00  0.00000000E+00  0.00000000E+00
  0.00000000E+00  0.00000000E+00  0.00000000E+00
  0.00000000E+00  0.00000000E+00  0.00000000E+00
  0.00000000E+00  0.00000000E+00  0.00000000E+00
  0.00000000E+00  0.00000000E+00  0.00000000E+00
  0.00000000E+00  0.00000000E+00  0.00000000E+00
  0.00000000E+00  0.00000000E+00  0.00000000E+00
  0.00000000E+00  0.00000000E+00  0.00000000E+00
  0.00000000E+00  0.00000000E+00  0.00000000E+00
  0.00000000E+00  0.00000000E+00  0.00000000E+00
  0.00000000E+00  0.00000000E+00  0.00000000E+00
  0.00000000E+00  0.00000000E+00  0.00000000E+00
  0.00000000E+00  0.00000000E+00  0.00000000E+00
  0.00000000E+00  0.00000000E+00  0.00000000E+00
  0.00000000E+00  0.00000000E+00  0.00000000E+00
  0.00000000E+00  0.00000000E+00  0.00000000E+00
  0.00000000E+00  0.00000000E+00  0.00000000E+00
  0.00000000E+00  0.00000000E+00  0.00000000E+00
  0.00000000E+00  0.00000000E+00  0.00000000E+00
  0.00000000E+00  0.00000000E+00  0.00000000E+00
  0.00000000E+00  0.00000000E+00  0.00000000E+00
  0.00000000E+00  0.00000000E+00  0.00000000E+00
  0.00000000E+00  0.00000000E+00  0.00000000E+00
  0.00000000E+00  0.00000000E+00  0.00000000E+00
  0.00000000E+00  0.00000000E+00  0.00000000E+00
  0.00000000E+00  0.00000000E+00  0.00000000E+00
  0.00000000E+00  0.00000000E+00  0.00000000E+00
  0.00000000E+00  0.00000000E+00  0.00000000E+00
  0.00000000E+00  0.00000000E+00  0.00000000E+00
  0.00000000E+00  0.00000000E+00  0.00000000E+00
  0.00000000E+00  0.00000000E+00  0.00000000E+00
  0.00000000E+00  0.00000000E+00  0.00000000E+00
  0.00000000E+00  0.00000000E+00  0.00000000E+00
  0.00000000E+00  0.00000000E+00  0.00000000E+00
  0.00000000E+00  0.00000000E+00  0.00000000E+00
  0.00000000E+00  0.00000000E+00  0.00000000E+00
  0.00000000E+00  0.00000000E+00  0.00000000E+00
  0.00000000E+00  0.00000000E+00  0.00000000E+00
  0.00000000E+00  0.00000000E+00  0.00000000E+00
  0.00000000E+00  0.00000000E+00  0.00000000E+00
  0.00000000E+00  0.00000000E+00  0.00000000E+00
  0.00000000E+00  0.00000000E+00  0.00000000E+00
  0.00000000E+00  0.00000000E+00  0.00000000E+00
  0.00000000E+00  0.00000000E+00  0.00000000E+00
  0.00000000E+00  0.00000000E+00  0.00000000E+00
  0.00000000E+00  0.00000000E+00  0.00000000E+00
  0.00000000E+00  0.00000000E+00  0.00000000E+00
  0.00000000E+00  0.00000000E+00  0.00000000E+00
  0.00000000E+00  0.00000000E+00  0.00000000E+00
  0.00000000E+00  0.00000000E+00  0.00000000E+00
  0.00000000E+00  0.00000000E+00  0.00000000E+00
  0.00000000E+00  0.00000000E+00  0.00000000E+00
  0.00000000E+00  0.00000000E+00  0.00000000E+00
  0.00000000E+00  0.00000000E+00  0.00000000E+00
  0.00000000E+00  0.00000000E+00  0.00000000E+00
  0.00000000E+00  0.00000000E+00  0.00000000E+00
  0.00000000E+00  0.00000000E+00  0.00000000E+00
  0.00000000E+00  0.00000000E+00  0.00000000E+00
  0.00000000E+00  0.00000000E+00  0.00000000E+00
  0.00000000E+00  0.00000000E+00  0.00000000E+00
  0.00000000E+00  0.00000000E+00  0.00000000E+00
  0.00000000E+00  0.00000000E+00  0.00000000E+00
  0.00000000E+00  0.00000000E+00  0.00000000E+00
  0.00000000E+00  0.00000000E+00  0.00000000E+00
  0.00000000E+00  0.00000000E+00  0.00000000E+00
  0.00000000E+00  0.00000000E+00  0.00000000E+00
  0.00000000E+00  0.00000000E+00  0.00000000E+00
  0.00000000E+00  0.00000000E+00  0.00000000E+00
  0.00000000E+00  0.00000000E+00  0.00000000E+00
  0.00000000E+00  0.00000000E+00  0.00000000E+00
  0.00000000E+00  0.00000000E+00  0.00000000E+00
  0.00000000E+00  0.00000000E+00  0.00000000E+00
  0.00000000E+00  0.00000000E+00  0.00000000E+00
  0.00000000E+00  0.00000000E+00  0.00000000E+00
  0.00000000E+00  0.00000000E+00  0.00000000E+00
  0.00000000E+00  0.00000000E+00  0.00000000E+00
  0.00000000E+00  0.00000000E+00  0.00000000E+00
  0.00000000E+00  0.00000000E+00  0.00000000E+00
  0.00000000E+00  0.00000000E+00  0.00000000E+00
  0.00000000E+00  0.00000000E+00  0.00000000E+00
  0.00000000E+00  0.00000000E+00  0.00000000E+00
  0.00000000E+00  0.00000000E+00  0.00000000E+00
  0.00000000E+00  0.00000000E+00  0.00000000E+00
  0.00000000E+00  0.00000000E+00  0.00000000E+00
  0.00000000E+00  0.00000000E+00  0.00000000E+00
  0.00000000E+00  0.00000000E+00  0.00000000E+00
  0.00000000E+00  0.00000000E+00  0.00000000E+00
  0.00000000E+00  0.00000000E+00  0.00000000E+00
  0.00000000E+00  0.00000000E+00  0.00000000E+00
  0.00000000E+00  0.00000000E+00  0.00000000E+00
  0.00000000E+00  0.00000000E+00  0.00000000E+00
  0.00000000E+00  0.00000000E+00  0.00000000E+00
  0.00000000E+00  0.00000000E+00  0.00000000E+00
  0.00000000E+00  0.00000000E+00  0.00000000E+00
  0.00000000E+00  0.00000000E+00  0.00000000E+00
  0.00000000E+00  0.00000000E+00  0.00000000E+00
  0.00000000E+00  0.00000000E+00  0.00000000E+00
  0.00000000E+00  0.00000000E+00  0.00000000E+00
  0.00000000E+00  0.00000000E+00  0.00000000E+00
  0.00000000E+00  0.00000000E+00  0.00000000E+00
  0.00000000E+00  0.00000000E+00  0.00000000E+00
  0.00000000E+00  0.00000000E+00  0.00000000E+00
  0.00000000E+00  0.00000000E+00  0.00000000E+00
