supercell of POSCAR                     
   1.03228000000000     
     6.3970863126299999    5.5387332920799999    4.9397337979799998
   -15.9736979067999982   -5.5365852353599996    9.8547656895600007
     6.4026568282999996  -11.0930079636999999    0.0094448205590600
   Sc   Al   N 
    32    63    96
Direct
  0.4009235210469910  0.0798548609785925  0.3165201829304323
  0.8185401217351043  0.3029555617381732  0.4302796024891578
  0.0022146463310619  0.2200070039169617  0.3001730260475099
  0.2017140297923703  0.1495646324846973  0.4379966334326184
  0.0236207505017987  0.2314415616575687  0.0685712030385162
  0.0312348085319414  0.4615375939656801  0.3683758415283620
  0.2269772036697333  0.3923001923097473  0.0031871756879696
  0.6919696104333966  0.1291035948338504  0.1184484001935218
  0.3756792677761638  0.0707958224178782  0.8117120182871247
  0.8320803980366733  0.3074925501909362  0.9333511465589623
  0.0244290814223334  0.2313529661998857  0.8025887228081601
  0.1913922884720094  0.1484047250678984  0.9375760668464537
  0.9973241530527517  0.2174718604824619  0.5584405311917777
  0.0348919728361992  0.4634614999345956  0.8693012587248603
  0.1859529282116981  0.3694999133129357  0.4940681080907581
  0.6906498252645221  0.1286884911108785  0.6190222631428739
  0.3612456928176684  0.5669294006343293  0.3092360509464243
  0.8339601868044255  0.8092652240395992  0.4335075556530725
  0.0222756043022159  0.7325599973865522  0.3050637121322026
  0.1854189765003937  0.6474724694704435  0.4377431763925372
  0.0223935953129271  0.7338986146699185  0.0679103969465800
  0.0527245840273594  0.9656392861764971  0.3698079979749522
  0.2403228434258651  0.8944738960528440  0.0066951217353193
  0.6876773958706934  0.6281213737819868  0.1179735874618686
  0.3619753041574469  0.5672916246638664  0.8084033460629314
  0.8343415000666283  0.8090350705777070  0.9336803380042724
  0.0212189036158392  0.7319846653560660  0.8049587096473303
  0.1872454024804711  0.6486461747406409  0.9376941980468487
  0.0199621351566037  0.7329954670607535  0.5671306850267968
  0.0449652756485435  0.9639576126426803  0.8703340411895439
  0.2398761691659601  0.8944589759088259  0.5048258676503465
  0.6848061244494303  0.6271185046897969  0.6177379937656156
  0.3619314013271691  0.0727916620698181  0.0656003426161718
  0.5240816316944716  0.4820476738224215  0.4355907605769147
  0.5323219930862919  0.4854341006377254  0.1918685757904797
  0.6883216989717482  0.4083045030674555  0.3111054466210632
  0.6862849374659703  0.4029883076542120  0.0636975164796567
  0.8540879879976657  0.3228932937254996  0.1826054402007742
  0.2015092862608299  0.1491352718248891  0.1867073154197101
  0.0462950920932812  0.4705522047405282  0.1222988566383449
  0.2255583641510341  0.3859899154022060  0.2472494528583340
  0.3938207814915131  0.3082391469681411  0.1272252329639159
  0.5540093757563440  0.2340670627787276  0.2474936494815339
  0.3886346558675342  0.3072346287649168  0.3714135814239796
  0.5513323661147638  0.2282040745679126  0.0060502589554758
  0.8940260556844706  0.0501989215910328  0.2458675339229330
  0.8869927063847030  0.0504792566169812  0.0021735851587579
  0.3622318263091273  0.0724409801310841  0.5644559962533222
  0.5299877766342220  0.4839504572332416  0.9334663039420548
  0.5264572703739532  0.4834918341695769  0.6884765931890655
  0.6874265007346736  0.4072933689577170  0.8108537660254456
  0.6828177131244786  0.4024068582353451  0.5645481901939675
  0.8542798122468795  0.3227756655651532  0.6842571175147043
  0.1997003880657289  0.1484595305426737  0.6851801834795879
  0.0424067325254072  0.4702414234147057  0.6220309105787223
  0.2245827679576990  0.3857877811656110  0.7471949425697844
  0.3884414761209385  0.3066323500218076  0.6302872851609393
  0.5578973333203976  0.2306687528376443  0.7473692673395647
  0.3936053888647066  0.3078813202657216  0.8740704698831863
  0.5493068162965997  0.2325089152444022  0.5063459091308431
  0.8880667503254571  0.0513916981486702  0.7460063508951720
  0.7338539730314366  0.1366484716709522  0.8759656640690494
  0.8920548782311002  0.0482199142329094  0.5021422619227991
  0.3539737491783796  0.5709800254151673  0.0634062831147659
  0.5564234660669953  0.9912132538748892  0.4380159977520108
  0.5578865296752227  0.9922799854503097  0.1969730814434669
  0.6949926841656122  0.9060293315313501  0.3109105969841295
  0.6931509215999725  0.9025893558264144  0.0648982056343286
  0.8549100072238502  0.8212823101105968  0.1837131135487766
  0.1933322245269764  0.6496001941122174  0.1853316608809124
  0.0585723397621862  0.9704880073342181  0.1244711069831368
  0.2424510273485438  0.8920072041180163  0.2508775767728011
  0.3993545421376439  0.8082404373948151  0.1295684672716817
  0.5533479698149293  0.7276512334654512  0.2472279245795050
  0.3967388332819297  0.8084171009184331  0.3742649580204258
  0.5488511785563617  0.7262227523069313  0.0039656380086370
  0.8820704111088276  0.5527675624964061  0.2469568537520246
  0.7219370515131089  0.6346788479196590  0.3745976863464904
  0.8800928389497571  0.5516784926988763  0.0005620336372516
  0.3480630050525804  0.5656143144336738  0.5615993280869986
  0.5407738563314979  0.9862419365111847  0.9362429572402817
  0.5419767647555460  0.9869357556740965  0.6930956731882887
  0.6930269774618054  0.9068375095161869  0.8112551727130111
  0.6913151986446806  0.9018771801091816  0.5644650533907338
  0.8527519816606812  0.8208011373822401  0.6835605439925345
  0.1918366612685176  0.6488380046982627  0.6851857292818764
  0.0544651199391950  0.9690956058740596  0.6239247972553059
  0.2341778225296167  0.8885249418942962  0.7492851757591197
  0.3967594797487024  0.8070035130758981  0.6286082756172320
  0.5522797709595721  0.7272567748461114  0.7464608980401763
  0.3959467517366306  0.8079311218525689  0.8742715881378516
  0.5467060550340861  0.7249536766191014  0.5038913803623402
  0.8796400389896775  0.5523491817012527  0.7469050346563222
  0.7225319614698833  0.6349048504237302  0.8740995905297808
  0.8776189573698687  0.5511300249361142  0.5008193357035822
  0.5680575571358801  0.1973070146322158  0.3694199160845955
  0.5292926604593120  0.1729987496211365  0.1111618420372196
  0.7452107347911792  0.0788680109003579  0.4971616244625707
  0.7467030519172724  0.0802352338669863  0.2298913201083792
  0.8815461183679645  0.9989555889200901  0.3592085315527171
  0.0336530399238484  0.4155097445974363  0.4933109231723378
  0.8770300334106267  0.4961713587873717  0.1102167093430637
  0.0589890944775675  0.4123737223801598  0.2220618306909188
  0.2264287642155765  0.3301416077627195  0.3467242400800288
  0.3918152430878905  0.2615878349906708  0.4907197441503754
  0.2356468438795218  0.3340673073138234  0.1174304249843416
  0.3827573260567263  0.2514403741613975  0.2325856182263379
  0.2482680520148222  0.0653286731091924  0.1673685056768690
  0.2679005309563109  0.0631053947922240  0.4260677817889800
  0.4216839382857387  0.4791223611413713  0.2969771477020231
  0.4520093924526094  0.0023233847627040  0.0577796741072447
  0.5800731459416397  0.4044103170208615  0.1726015694009533
  0.7466726903956911  0.3310547670581059  0.2861086201139216
  0.5817261786895287  0.4022647641224069  0.4231190783234169
  0.7322002114944510  0.3221094855459512  0.0568243136995221
  0.8887010671482045  0.2391424674246920  0.1681059792082138
  0.0870959063788632  0.1391216253439183  0.2864136321488999
  0.9693328864558737  0.2606176798539721  0.4361276932880997
  0.0772342371910284  0.1410705360035962  0.0567774608876803
  0.5846315131762694  0.1814397226036206  0.8676038662029129
  0.5283473886991032  0.1730748055518418  0.6096901418423926
  0.7284804866910051  0.0790441659759011  0.9760019860604103
  0.7300428916283437  0.0798121822706648  0.7463130450807540
  0.8794298436150711  0.0015728670042918  0.8602131742678054
  0.0403637145295264  0.4131422735374315  0.9930468737813598
  0.8734414913969815  0.4964663882462261  0.6112173437366835
  0.0584193619485589  0.4127867304924848  0.7249222424590300
  0.2353885816972081  0.3361015121594448  0.8578495499518155
  0.3935382742740003  0.2575335598944051  0.9867634569007890
  0.2236833598609991  0.3252790143754325  0.6253278492478884
  0.3873186176492709  0.2488485292883951  0.7394293490389572
  0.2437795906254294  0.0640395508879124  0.6650372783836360
  0.2590128054752299  0.0634370178096049  0.9282058251115970
  0.4206880031808637  0.4789356299418372  0.7970850329486012
  0.4520265850964122  0.0021156041893065  0.5601044250248108
  0.5766669546645886  0.4031784123258788  0.6748041946377299
  0.7447761291128216  0.3287415097077542  0.7907160784173968
  0.5832121928782499  0.4029588580360013  0.9240883767649848
  0.7340654216027573  0.3241407125535218  0.5630417924772431
  0.8879640538237012  0.2387015382982085  0.6736955268765712
  0.0808221411662373  0.1409298487839052  0.7837116438545237
  0.9169465683444997  0.2291621974072129  0.9214458601742308
  0.0833020524688237  0.1381273436065626  0.5535215767523738
  0.5738502352225439  0.6780492275357233  0.3653656270430048
  0.5266175204279548  0.6701357815372901  0.1091719894788312
  0.7156190910880298  0.5772964023044906  0.4757977606807486
  0.7212860470461138  0.5794151023536358  0.2436761176951663
  0.8732829851150328  0.5046150875400883  0.3604578824265303
  0.0482849005133730  0.9118259679590253  0.4931121329408796
  0.8876552744700845  0.9924337679466433  0.1081753834336681
  0.0612219966745400  0.9087793464965230  0.2224938392581919
  0.2371975287373687  0.8357939709799425  0.3554050189839728
  0.3917249876029842  0.7563471615809476  0.4869502429885557
  0.2401869498514415  0.8335330389693354  0.1213572789680697
  0.3851727654103172  0.7486951108049880  0.2368184561768345
  0.2359167167969929  0.5657626764493315  0.1625853333451772
  0.2495594982799716  0.5624553616245720  0.4270850116663851
  0.4403796733825160  0.9826167334892446  0.2999945730137412
  0.4433186751639653  0.5005909295838293  0.0572259492379743
  0.5862784060395256  0.9032074839995730  0.1736772224567318
  0.7413597681062214  0.8237087408710480  0.2868999472575737
  0.5892042934978434  0.9016074999153574  0.4242029412309876
  0.7324194399410118  0.8190063806433230  0.0573785514215217
  0.8876237848822157  0.7362723656946457  0.1707637280069747
  0.0761694544236491  0.6421590709043983  0.2845091797640151
  0.9069573175989945  0.7268476324054447  0.4199544685757459
  0.0712624673514668  0.6427886399374927  0.0560834910665093
  0.5748850384114164  0.6786376506418037  0.8656360535016532
  0.5227934097480542  0.6682094906299483  0.6087138346004721
  0.7185451451878464  0.5779571400591621  0.9758360683057390
  0.7183847284618352  0.5784351970425945  0.7434855457435461
  0.8730435332914652  0.5034424913756581  0.8603482887630847
  0.0488587805644443  0.9116013470015716  0.9930984850271471
  0.8859597717890679  0.9918147810223772  0.6129594759332520
  0.0602282731141202  0.9090661389055867  0.7238717836685566
  0.2365275335114987  0.8353851507765526  0.8562186980552440
  0.3930982873681685  0.7568422843267228  0.9871195189244588
  0.2382994411259531  0.8331270066592253  0.6202883220506124
  0.3844692900753870  0.7486746217016176  0.7369375383631436
  0.2341474530399594  0.5653768756007693  0.6636017790978670
  0.2515606936712942  0.5631929522071886  0.9279523050122620
  0.4295399520599474  0.9799964600456050  0.7985209868442240
  0.4358366016787159  0.4960931059374190  0.5556486819674262
  0.5836892422944828  0.9030503457467418  0.6736510084998955
  0.7415101195771285  0.8251522225490220  0.7877889883715454
  0.5876068878994900  0.9022764031192594  0.9244201260142049
  0.7306551111239941  0.8182787504285614  0.5574673968716866
  0.8864374102747519  0.7362355932069207  0.6711135894898277
  0.0750579603121579  0.6417598089733261  0.7850737977307389
  0.9076463177284424  0.7268151549977091  0.9204239095580178
  0.0697284999990870  0.6425254919924299  0.5565118778301965
 
  0.00000000E+00  0.00000000E+00  0.00000000E+00
  0.00000000E+00  0.00000000E+00  0.00000000E+00
  0.00000000E+00  0.00000000E+00  0.00000000E+00
  0.00000000E+00  0.00000000E+00  0.00000000E+00
  0.00000000E+00  0.00000000E+00  0.00000000E+00
  0.00000000E+00  0.00000000E+00  0.00000000E+00
  0.00000000E+00  0.00000000E+00  0.00000000E+00
  0.00000000E+00  0.00000000E+00  0.00000000E+00
  0.00000000E+00  0.00000000E+00  0.00000000E+00
  0.00000000E+00  0.00000000E+00  0.00000000E+00
  0.00000000E+00  0.00000000E+00  0.00000000E+00
  0.00000000E+00  0.00000000E+00  0.00000000E+00
  0.00000000E+00  0.00000000E+00  0.00000000E+00
  0.00000000E+00  0.00000000E+00  0.00000000E+00
  0.00000000E+00  0.00000000E+00  0.00000000E+00
  0.00000000E+00  0.00000000E+00  0.00000000E+00
  0.00000000E+00  0.00000000E+00  0.00000000E+00
  0.00000000E+00  0.00000000E+00  0.00000000E+00
  0.00000000E+00  0.00000000E+00  0.00000000E+00
  0.00000000E+00  0.00000000E+00  0.00000000E+00
  0.00000000E+00  0.00000000E+00  0.00000000E+00
  0.00000000E+00  0.00000000E+00  0.00000000E+00
  0.00000000E+00  0.00000000E+00  0.00000000E+00
  0.00000000E+00  0.00000000E+00  0.00000000E+00
  0.00000000E+00  0.00000000E+00  0.00000000E+00
  0.00000000E+00  0.00000000E+00  0.00000000E+00
  0.00000000E+00  0.00000000E+00  0.00000000E+00
  0.00000000E+00  0.00000000E+00  0.00000000E+00
  0.00000000E+00  0.00000000E+00  0.00000000E+00
  0.00000000E+00  0.00000000E+00  0.00000000E+00
  0.00000000E+00  0.00000000E+00  0.00000000E+00
  0.00000000E+00  0.00000000E+00  0.00000000E+00
  0.00000000E+00  0.00000000E+00  0.00000000E+00
  0.00000000E+00  0.00000000E+00  0.00000000E+00
  0.00000000E+00  0.00000000E+00  0.00000000E+00
  0.00000000E+00  0.00000000E+00  0.00000000E+00
  0.00000000E+00  0.00000000E+00  0.00000000E+00
  0.00000000E+00  0.00000000E+00  0.00000000E+00
  0.00000000E+00  0.00000000E+00  0.00000000E+00
  0.00000000E+00  0.00000000E+00  0.00000000E+00
  0.00000000E+00  0.00000000E+00  0.00000000E+00
  0.00000000E+00  0.00000000E+00  0.00000000E+00
  0.00000000E+00  0.00000000E+00  0.00000000E+00
  0.00000000E+00  0.00000000E+00  0.00000000E+00
  0.00000000E+00  0.00000000E+00  0.00000000E+00
  0.00000000E+00  0.00000000E+00  0.00000000E+00
  0.00000000E+00  0.00000000E+00  0.00000000E+00
  0.00000000E+00  0.00000000E+00  0.00000000E+00
  0.00000000E+00  0.00000000E+00  0.00000000E+00
  0.00000000E+00  0.00000000E+00  0.00000000E+00
  0.00000000E+00  0.00000000E+00  0.00000000E+00
  0.00000000E+00  0.00000000E+00  0.00000000E+00
  0.00000000E+00  0.00000000E+00  0.00000000E+00
  0.00000000E+00  0.00000000E+00  0.00000000E+00
  0.00000000E+00  0.00000000E+00  0.00000000E+00
  0.00000000E+00  0.00000000E+00  0.00000000E+00
  0.00000000E+00  0.00000000E+00  0.00000000E+00
  0.00000000E+00  0.00000000E+00  0.00000000E+00
  0.00000000E+00  0.00000000E+00  0.00000000E+00
  0.00000000E+00  0.00000000E+00  0.00000000E+00
  0.00000000E+00  0.00000000E+00  0.00000000E+00
  0.00000000E+00  0.00000000E+00  0.00000000E+00
  0.00000000E+00  0.00000000E+00  0.00000000E+00
  0.00000000E+00  0.00000000E+00  0.00000000E+00
  0.00000000E+00  0.00000000E+00  0.00000000E+00
  0.00000000E+00  0.00000000E+00  0.00000000E+00
  0.00000000E+00  0.00000000E+00  0.00000000E+00
  0.00000000E+00  0.00000000E+00  0.00000000E+00
  0.00000000E+00  0.00000000E+00  0.00000000E+00
  0.00000000E+00  0.00000000E+00  0.00000000E+00
  0.00000000E+00  0.00000000E+00  0.00000000E+00
  0.00000000E+00  0.00000000E+00  0.00000000E+00
  0.00000000E+00  0.00000000E+00  0.00000000E+00
  0.00000000E+00  0.00000000E+00  0.00000000E+00
  0.00000000E+00  0.00000000E+00  0.00000000E+00
  0.00000000E+00  0.00000000E+00  0.00000000E+00
  0.00000000E+00  0.00000000E+00  0.00000000E+00
  0.00000000E+00  0.00000000E+00  0.00000000E+00
  0.00000000E+00  0.00000000E+00  0.00000000E+00
  0.00000000E+00  0.00000000E+00  0.00000000E+00
  0.00000000E+00  0.00000000E+00  0.00000000E+00
  0.00000000E+00  0.00000000E+00  0.00000000E+00
  0.00000000E+00  0.00000000E+00  0.00000000E+00
  0.00000000E+00  0.00000000E+00  0.00000000E+00
  0.00000000E+00  0.00000000E+00  0.00000000E+00
  0.00000000E+00  0.00000000E+00  0.00000000E+00
  0.00000000E+00  0.00000000E+00  0.00000000E+00
  0.00000000E+00  0.00000000E+00  0.00000000E+00
  0.00000000E+00  0.00000000E+00  0.00000000E+00
  0.00000000E+00  0.00000000E+00  0.00000000E+00
  0.00000000E+00  0.00000000E+00  0.00000000E+00
  0.00000000E+00  0.00000000E+00  0.00000000E+00
  0.00000000E+00  0.00000000E+00  0.00000000E+00
  0.00000000E+00  0.00000000E+00  0.00000000E+00
  0.00000000E+00  0.00000000E+00  0.00000000E+00
  0.00000000E+00  0.00000000E+00  0.00000000E+00
  0.00000000E+00  0.00000000E+00  0.00000000E+00
  0.00000000E+00  0.00000000E+00  0.00000000E+00
  0.00000000E+00  0.00000000E+00  0.00000000E+00
  0.00000000E+00  0.00000000E+00  0.00000000E+00
  0.00000000E+00  0.00000000E+00  0.00000000E+00
  0.00000000E+00  0.00000000E+00  0.00000000E+00
  0.00000000E+00  0.00000000E+00  0.00000000E+00
  0.00000000E+00  0.00000000E+00  0.00000000E+00
  0.00000000E+00  0.00000000E+00  0.00000000E+00
  0.00000000E+00  0.00000000E+00  0.00000000E+00
  0.00000000E+00  0.00000000E+00  0.00000000E+00
  0.00000000E+00  0.00000000E+00  0.00000000E+00
  0.00000000E+00  0.00000000E+00  0.00000000E+00
  0.00000000E+00  0.00000000E+00  0.00000000E+00
  0.00000000E+00  0.00000000E+00  0.00000000E+00
  0.00000000E+00  0.00000000E+00  0.00000000E+00
  0.00000000E+00  0.00000000E+00  0.00000000E+00
  0.00000000E+00  0.00000000E+00  0.00000000E+00
  0.00000000E+00  0.00000000E+00  0.00000000E+00
  0.00000000E+00  0.00000000E+00  0.00000000E+00
  0.00000000E+00  0.00000000E+00  0.00000000E+00
  0.00000000E+00  0.00000000E+00  0.00000000E+00
  0.00000000E+00  0.00000000E+00  0.00000000E+00
  0.00000000E+00  0.00000000E+00  0.00000000E+00
  0.00000000E+00  0.00000000E+00  0.00000000E+00
  0.00000000E+00  0.00000000E+00  0.00000000E+00
  0.00000000E+00  0.00000000E+00  0.00000000E+00
  0.00000000E+00  0.00000000E+00  0.00000000E+00
  0.00000000E+00  0.00000000E+00  0.00000000E+00
  0.00000000E+00  0.00000000E+00  0.00000000E+00
  0.00000000E+00  0.00000000E+00  0.00000000E+00
  0.00000000E+00  0.00000000E+00  0.00000000E+00
  0.00000000E+00  0.00000000E+00  0.00000000E+00
  0.00000000E+00  0.00000000E+00  0.00000000E+00
  0.00000000E+00  0.00000000E+00  0.00000000E+00
  0.00000000E+00  0.00000000E+00  0.00000000E+00
  0.00000000E+00  0.00000000E+00  0.00000000E+00
  0.00000000E+00  0.00000000E+00  0.00000000E+00
  0.00000000E+00  0.00000000E+00  0.00000000E+00
  0.00000000E+00  0.00000000E+00  0.00000000E+00
  0.00000000E+00  0.00000000E+00  0.00000000E+00
  0.00000000E+00  0.00000000E+00  0.00000000E+00
  0.00000000E+00  0.00000000E+00  0.00000000E+00
  0.00000000E+00  0.00000000E+00  0.00000000E+00
  0.00000000E+00  0.00000000E+00  0.00000000E+00
  0.00000000E+00  0.00000000E+00  0.00000000E+00
  0.00000000E+00  0.00000000E+00  0.00000000E+00
  0.00000000E+00  0.00000000E+00  0.00000000E+00
  0.00000000E+00  0.00000000E+00  0.00000000E+00
  0.00000000E+00  0.00000000E+00  0.00000000E+00
  0.00000000E+00  0.00000000E+00  0.00000000E+00
  0.00000000E+00  0.00000000E+00  0.00000000E+00
  0.00000000E+00  0.00000000E+00  0.00000000E+00
  0.00000000E+00  0.00000000E+00  0.00000000E+00
  0.00000000E+00  0.00000000E+00  0.00000000E+00
  0.00000000E+00  0.00000000E+00  0.00000000E+00
  0.00000000E+00  0.00000000E+00  0.00000000E+00
  0.00000000E+00  0.00000000E+00  0.00000000E+00
  0.00000000E+00  0.00000000E+00  0.00000000E+00
  0.00000000E+00  0.00000000E+00  0.00000000E+00
  0.00000000E+00  0.00000000E+00  0.00000000E+00
  0.00000000E+00  0.00000000E+00  0.00000000E+00
  0.00000000E+00  0.00000000E+00  0.00000000E+00
  0.00000000E+00  0.00000000E+00  0.00000000E+00
  0.00000000E+00  0.00000000E+00  0.00000000E+00
  0.00000000E+00  0.00000000E+00  0.00000000E+00
  0.00000000E+00  0.00000000E+00  0.00000000E+00
  0.00000000E+00  0.00000000E+00  0.00000000E+00
  0.00000000E+00  0.00000000E+00  0.00000000E+00
  0.00000000E+00  0.00000000E+00  0.00000000E+00
  0.00000000E+00  0.00000000E+00  0.00000000E+00
  0.00000000E+00  0.00000000E+00  0.00000000E+00
  0.00000000E+00  0.00000000E+00  0.00000000E+00
  0.00000000E+00  0.00000000E+00  0.00000000E+00
  0.00000000E+00  0.00000000E+00  0.00000000E+00
  0.00000000E+00  0.00000000E+00  0.00000000E+00
  0.00000000E+00  0.00000000E+00  0.00000000E+00
  0.00000000E+00  0.00000000E+00  0.00000000E+00
  0.00000000E+00  0.00000000E+00  0.00000000E+00
  0.00000000E+00  0.00000000E+00  0.00000000E+00
  0.00000000E+00  0.00000000E+00  0.00000000E+00
  0.00000000E+00  0.00000000E+00  0.00000000E+00
  0.00000000E+00  0.00000000E+00  0.00000000E+00
  0.00000000E+00  0.00000000E+00  0.00000000E+00
  0.00000000E+00  0.00000000E+00  0.00000000E+00
  0.00000000E+00  0.00000000E+00  0.00000000E+00
  0.00000000E+00  0.00000000E+00  0.00000000E+00
  0.00000000E+00  0.00000000E+00  0.00000000E+00
  0.00000000E+00  0.00000000E+00  0.00000000E+00
  0.00000000E+00  0.00000000E+00  0.00000000E+00
  0.00000000E+00  0.00000000E+00  0.00000000E+00
  0.00000000E+00  0.00000000E+00  0.00000000E+00
  0.00000000E+00  0.00000000E+00  0.00000000E+00
  0.00000000E+00  0.00000000E+00  0.00000000E+00
  0.00000000E+00  0.00000000E+00  0.00000000E+00
