supercell of POSCAR                     
   1.03228000000000     
     6.3970863126299999    5.5387332920799999    4.9397337979799998
   -15.9736979067999982   -5.5365852353599996    9.8547656895600007
     6.4026568282999996  -11.0930079636999999    0.0094448205590600
   Sc   Al   N 
    32    63    96
Direct
  0.3797301521197767  0.0744427593396466  0.3072902278003298
  0.8336134342130705  0.3080421024230020  0.4354157236254821
  0.0261146975032460  0.2316301536728034  0.3049652174597739
  0.1954496957861309  0.1492030444956072  0.4381270787537375
  0.0280349364541053  0.2313124369057249  0.0690192104267879
  0.0373537727623656  0.4641188099119518  0.3721479577011237
  0.2298558924127860  0.3866734448396443  0.0035740813795115
  0.6936415533577787  0.1308168101932949  0.1188628763734769
  0.3877842998917060  0.0765349666783024  0.8143532854656925
  0.8184034736074111  0.2999413725765905  0.9336873272027475
  0.0314394819331980  0.2308289568589288  0.8057695257748634
  0.2113925153895195  0.1545608235511935  0.9436805070121466
  0.0237967564230601  0.2309665612864293  0.5681633171975520
  0.0356498642309617  0.4601352468545628  0.8711659450044635
  0.2304792418604080  0.3923443358556469  0.5051986878867822
  0.6937834857125580  0.1309245337359428  0.6233074547809778
  0.3547738843684058  0.5650926426480751  0.3055003148677216
  0.8318422685109965  0.8095130344929515  0.4327551826133629
  0.0184033529032064  0.7316805535175703  0.3039681703645556
  0.1859325322859391  0.6485573412728556  0.4371244538947749
  0.0173312207254881  0.7326017571357823  0.0669068911652317
  0.0448256829130642  0.9650512729330529  0.3688122289376423
  0.2309273854061331  0.8915136653623961  0.0030330739412179
  0.6836778772234808  0.6269999096663881  0.1174624080732940
  0.3635268634123534  0.5684748146512888  0.8095661903522924
  0.8299603967935809  0.8090881296010224  0.9323227245601444
  0.0192443360587333  0.7311259149689988  0.8037181591668698
  0.1846716502613575  0.6465599624908904  0.9373761251469972
  0.0186205079580120  0.7328764811568078  0.5664324766664208
  0.0511196269216256  0.9675375279214435  0.8718230169594960
  0.2347507113749927  0.8937152961260608  0.5044471392447250
  0.6881271506748448  0.6291076534845885  0.6185461280776039
  0.3612366227230766  0.0702020905372720  0.0680976086317031
  0.5345344954484261  0.4854946205793809  0.4357382166527373
  0.5340315582954318  0.4852503365734577  0.1929522136953139
  0.6915222168330359  0.4078950629609253  0.3118449801248531
  0.6863095822781844  0.4031252638469880  0.0646858900850944
  0.8576765812085867  0.3228290329865615  0.1872513224864321
  0.1972495648251993  0.1476501162953738  0.1853216213392344
  0.0140553646330233  0.4533717417222078  0.1146333111200661
  0.2314180709982381  0.3895524564317228  0.2534347411163935
  0.3952412520032453  0.3086769181169871  0.1302676215040464
  0.5594037417255606  0.2306740854904987  0.2521276343311811
  0.3965308011156594  0.3086997893376946  0.3752567919895640
  0.8859810495014315  0.0517796824396584  0.2469534871720001
  0.7316415199274644  0.1372822478219504  0.3764284935828783
  0.8862356544696510  0.0508080818299703  0.9991665881071015
  0.3618992121829621  0.0724833174714306  0.5627347427313794
  0.5314528737170434  0.4841456905928254  0.9337571281742854
  0.5368923319420134  0.4865679939631207  0.6924085644259819
  0.6921601598836276  0.4078197611316483  0.8123097568865845
  0.6891206913598467  0.4035010055415427  0.5651814751848931
  0.8574368969773403  0.3229977581437709  0.6854457740495263
  0.2019312397001158  0.1488658658429287  0.6864161539869329
  0.0475495504067069  0.4708467720251761  0.6232299783896096
  0.2298827850221699  0.3891812224556048  0.7465402228638283
  0.3983558088716066  0.3077493246855170  0.6298964495552895
  0.5618245813443608  0.2290527581504804  0.7433177504671420
  0.3949983244449058  0.3092696556237158  0.8747359686115175
  0.5551749010900053  0.2293975480561059  0.5055006028459417
  0.8944122957186238  0.0510662478504642  0.7474072085402810
  0.7378468238739799  0.1350111182036784  0.8696434113606131
  0.8862174662178361  0.0509100004176517  0.5011390412350636
  0.3472506255818857  0.5672677189266508  0.0632698176578614
  0.5387030696206878  0.9868035626906746  0.4352920353075120
  0.5386280151717457  0.9862538545680906  0.1911303844233103
  0.6897114934205959  0.9061891800836719  0.3103907405419193
  0.6852523407803233  0.9015189469595200  0.0633071443464814
  0.8488059428933639  0.8203163623279721  0.1830475201485910
  0.1875773895332173  0.6457530675834988  0.1833574058997840
  0.0454233858506115  0.9683595605571824  0.1220027304352769
  0.2309323546674662  0.8894682600684547  0.2484071922123405
  0.3926943056767698  0.8062004970397894  0.1285450037030600
  0.5489538193208645  0.7267568033415799  0.2465063737256585
  0.3921808116888315  0.8074716468862562  0.3727381960500793
  0.5452717906360718  0.7256274514079664  0.0041302587427197
  0.8814498912244559  0.5532035253468024  0.2465064321818318
  0.7203098720261352  0.6355041305973188  0.3743463425190043
  0.8796258206079344  0.5523867347236830  0.0007463871286859
  0.3547304275649026  0.5713829953051714  0.5637919783933825
  0.5372925327841429  0.9848846526770387  0.9340713361289019
  0.5425696950622694  0.9866204194906771  0.6924074766386497
  0.6913665141983856  0.9060538881722522  0.8102418997659768
  0.6887292962801723  0.9021724553321064  0.5634648682668839
  0.8521284528389046  0.8221058185084118  0.6833998537281403
  0.1929215724892615  0.6494969713351040  0.6850254874717194
  0.0543699321876687  0.9708612705901700  0.6230890310086892
  0.2325327142452309  0.8897837054379139  0.7481492402131948
  0.3948487237157323  0.8071218938117894  0.6278947506301762
  0.5518346551695359  0.7282657825847778  0.7462965997483124
  0.3922034027142871  0.8071631505632624  0.8728287936924275
  0.5463412754740204  0.7258072798837816  0.5025939030577149
  0.8845276187964188  0.5525015374021010  0.7477061785106471
  0.7232155570989534  0.6360973904423872  0.8741446507819219
  0.8815042382289562  0.5522069998172512  0.5009254848631457
  0.5896061038921374  0.1849077522852696  0.3759293910722263
  0.5304281187744238  0.1598352375928940  0.1372769319296978
  0.7280665524863963  0.0802873807374098  0.4792549685308884
  0.7281104286764730  0.0796347645833677  0.2456311300463483
  0.8764753663136062  0.0010952287422938  0.3597873783915659
  0.0440704586483491  0.4130475162904617  0.4954287188633089
  0.8731050158740246  0.5002584015505889  0.1099870925441948
  0.0671410070077627  0.4139665044984113  0.2328201927525413
  0.2380669706778704  0.3362994831786281  0.3596297727735163
  0.3969064364487309  0.2586666177022963  0.4884466767549966
  0.2366677368391237  0.3347237814816566  0.1291906521289974
  0.3869095187133738  0.2492567401783390  0.2399697507692338
  0.2318358794259652  0.0609074909179625  0.1633665002499072
  0.2604978995839033  0.0632559189264015  0.4249240831585794
  0.4275206733185897  0.4815841022762228  0.3004751242024142
  0.4465663322486009  0.9956462455819732  0.0549478466751410
  0.5825894195524981  0.4045116968317899  0.1766332888366478
  0.7464822258279540  0.3285532015866082  0.2919670112552382
  0.5867087408409830  0.4038308986662216  0.4255038272848282
  0.7869097371775666  0.3470738504287425  0.0710883169337961
  0.8951637155324050  0.2391980654687131  0.1730174266982445
  0.0801025178287986  0.1406417665116848  0.2854256730249816
  0.9167304005697261  0.2291058712156016  0.4222021355074475
  0.0779528122988111  0.1400022980861095  0.0553416327902170
  0.6012758923146393  0.1749244292388141  0.8379865125893176
  0.5306643561636264  0.1719016897023096  0.6046218348765251
  0.7255657439810435  0.0779097446756793  0.9734866564377072
  0.7362435250592156  0.0769402304806235  0.7407314185261100
  0.8775507706620544  0.9995620428263763  0.8591710377734856
  0.0473518680189784  0.4087597726145091  0.9905049301087132
  0.8791036320382162  0.4967032746490645  0.6106134035288235
  0.0609052169679458  0.4129668595147606  0.7231432909964681
  0.2358064489113829  0.3374890136535811  0.8499890332924096
  0.3707973547722645  0.2674670440602753  0.9887622851220854
  0.2382705777697112  0.3329556433774883  0.6197456362952352
  0.3904873573922742  0.2492674444054757  0.7369859036025304
  0.2453049010151886  0.0648703508637709  0.6636504230293099
  0.2671868794364514  0.0638132925091526  0.9305205058049424
  0.4258743598540775  0.4813985844902575  0.7964455728893611
  0.4505258972512962  0.0012156088465076  0.5577366958212764
  0.5831876401110421  0.4047781957342238  0.6744792152257588
  0.7482281600711929  0.3294976332952047  0.7895273393870426
  0.5858840562956118  0.4038485191039527  0.9228052531875761
  0.7367416506712061  0.3234533067825467  0.5607697416419555
  0.8943512198837240  0.2389494125286191  0.6732912342572135
  0.0873634044230442  0.1396515576673565  0.7866500168771680
  0.9231197971595932  0.2282331529703470  0.9225827479139284
  0.0782516821255683  0.1411911907878576  0.5562988804519904
  0.5713190284343099  0.6778592700891863  0.3649205109023157
  0.5220258656241512  0.6686734821547091  0.1086179470635571
  0.7219896009746094  0.5797817745433136  0.4776113509609274
  0.7213009406248574  0.5802490220763517  0.2449136680464150
  0.8755223292297529  0.5044474882579166  0.3608579516266772
  0.0453519832974862  0.9125177616768454  0.4920561647400206
  0.8763034786184107  0.9936859988986058  0.1095028412323131
  0.0536018145399595  0.9082293304534019  0.2219860833629070
  0.2335091880853852  0.8358360341138891  0.3549961647634063
  0.3910266396336723  0.7569421238758451  0.4863358266207101
  0.2348030321504950  0.8328170324103183  0.1205301957295646
  0.3810523391624514  0.7477514739661544  0.2362003208245227
  0.2270785380839584  0.5615044191292995  0.1602471153720302
  0.2524530899180135  0.5641970777041720  0.4293807714155662
  0.4277236201347279  0.9812342767559414  0.2975756187822256
  0.4436531242015747  0.4989152819208442  0.0574174574878370
  0.5799265734578398  0.9022067433889021  0.1735274436767895
  0.7374585447011128  0.8244663241342138  0.2870435722347509
  0.5843026160532148  0.9023695454920073  0.4234156346910396
  0.7282044264390706  0.8191605661336183  0.0571274296411062
  0.8833845842826733  0.7360454987074547  0.1704203304880494
  0.0754169883716216  0.6428117215968854  0.2853344874354917
  0.9057824569716146  0.7277899842319826  0.4199671393752240
  0.0705481856489243  0.6437101863274250  0.0555689568130049
  0.5745961093652241  0.6793696795146928  0.8651966450062361
  0.5265586764151351  0.6706744064562074  0.6091420173014228
  0.7184891708671017  0.5793351946413878  0.9750926908987694
  0.7254566515788028  0.5806456162972893  0.7441626904921392
  0.8775858011474043  0.5041714467856622  0.8613736038035213
  0.0420386630774985  0.9114325061253794  0.9920253559576295
  0.8825132422132285  0.9936492803758270  0.6087321285525960
  0.0574994310027535  0.9103206230079621  0.7226299675710237
  0.2327963950607952  0.8347739128869236  0.8534097585701517
  0.3892364809452289  0.7561465830897944  0.9862932714393295
  0.2360315248467089  0.8331543717163896  0.6193392542200939
  0.3829535327667628  0.7485645505342617  0.7357889076170636
  0.2367833192884490  0.5660811345204877  0.6630953901667311
  0.2510911855190585  0.5618980141088130  0.9269893193036935
  0.4288203087549647  0.9802823787645494  0.7963164128426925
  0.4460019564604778  0.5011941639022481  0.5583881838807585
  0.5816851151902540  0.9022554612635858  0.6724006879566957
  0.7383421527057763  0.8243159301884049  0.7859868156776102
  0.5839057557751488  0.9007476306910078  0.9222160344217869
  0.7298276605944309  0.8193821196440538  0.5565063034967821
  0.8869722675731992  0.7376916445881960  0.6707763925953145
  0.0770974648234457  0.6421263675316808  0.7846807357814711
  0.9074249366631051  0.7284457470904968  0.9198156893799236
  0.0716896747145128  0.6433474664615488  0.5564538464091555
 
  0.00000000E+00  0.00000000E+00  0.00000000E+00
  0.00000000E+00  0.00000000E+00  0.00000000E+00
  0.00000000E+00  0.00000000E+00  0.00000000E+00
  0.00000000E+00  0.00000000E+00  0.00000000E+00
  0.00000000E+00  0.00000000E+00  0.00000000E+00
  0.00000000E+00  0.00000000E+00  0.00000000E+00
  0.00000000E+00  0.00000000E+00  0.00000000E+00
  0.00000000E+00  0.00000000E+00  0.00000000E+00
  0.00000000E+00  0.00000000E+00  0.00000000E+00
  0.00000000E+00  0.00000000E+00  0.00000000E+00
  0.00000000E+00  0.00000000E+00  0.00000000E+00
  0.00000000E+00  0.00000000E+00  0.00000000E+00
  0.00000000E+00  0.00000000E+00  0.00000000E+00
  0.00000000E+00  0.00000000E+00  0.00000000E+00
  0.00000000E+00  0.00000000E+00  0.00000000E+00
  0.00000000E+00  0.00000000E+00  0.00000000E+00
  0.00000000E+00  0.00000000E+00  0.00000000E+00
  0.00000000E+00  0.00000000E+00  0.00000000E+00
  0.00000000E+00  0.00000000E+00  0.00000000E+00
  0.00000000E+00  0.00000000E+00  0.00000000E+00
  0.00000000E+00  0.00000000E+00  0.00000000E+00
  0.00000000E+00  0.00000000E+00  0.00000000E+00
  0.00000000E+00  0.00000000E+00  0.00000000E+00
  0.00000000E+00  0.00000000E+00  0.00000000E+00
  0.00000000E+00  0.00000000E+00  0.00000000E+00
  0.00000000E+00  0.00000000E+00  0.00000000E+00
  0.00000000E+00  0.00000000E+00  0.00000000E+00
  0.00000000E+00  0.00000000E+00  0.00000000E+00
  0.00000000E+00  0.00000000E+00  0.00000000E+00
  0.00000000E+00  0.00000000E+00  0.00000000E+00
  0.00000000E+00  0.00000000E+00  0.00000000E+00
  0.00000000E+00  0.00000000E+00  0.00000000E+00
  0.00000000E+00  0.00000000E+00  0.00000000E+00
  0.00000000E+00  0.00000000E+00  0.00000000E+00
  0.00000000E+00  0.00000000E+00  0.00000000E+00
  0.00000000E+00  0.00000000E+00  0.00000000E+00
  0.00000000E+00  0.00000000E+00  0.00000000E+00
  0.00000000E+00  0.00000000E+00  0.00000000E+00
  0.00000000E+00  0.00000000E+00  0.00000000E+00
  0.00000000E+00  0.00000000E+00  0.00000000E+00
  0.00000000E+00  0.00000000E+00  0.00000000E+00
  0.00000000E+00  0.00000000E+00  0.00000000E+00
  0.00000000E+00  0.00000000E+00  0.00000000E+00
  0.00000000E+00  0.00000000E+00  0.00000000E+00
  0.00000000E+00  0.00000000E+00  0.00000000E+00
  0.00000000E+00  0.00000000E+00  0.00000000E+00
  0.00000000E+00  0.00000000E+00  0.00000000E+00
  0.00000000E+00  0.00000000E+00  0.00000000E+00
  0.00000000E+00  0.00000000E+00  0.00000000E+00
  0.00000000E+00  0.00000000E+00  0.00000000E+00
  0.00000000E+00  0.00000000E+00  0.00000000E+00
  0.00000000E+00  0.00000000E+00  0.00000000E+00
  0.00000000E+00  0.00000000E+00  0.00000000E+00
  0.00000000E+00  0.00000000E+00  0.00000000E+00
  0.00000000E+00  0.00000000E+00  0.00000000E+00
  0.00000000E+00  0.00000000E+00  0.00000000E+00
  0.00000000E+00  0.00000000E+00  0.00000000E+00
  0.00000000E+00  0.00000000E+00  0.00000000E+00
  0.00000000E+00  0.00000000E+00  0.00000000E+00
  0.00000000E+00  0.00000000E+00  0.00000000E+00
  0.00000000E+00  0.00000000E+00  0.00000000E+00
  0.00000000E+00  0.00000000E+00  0.00000000E+00
  0.00000000E+00  0.00000000E+00  0.00000000E+00
  0.00000000E+00  0.00000000E+00  0.00000000E+00
  0.00000000E+00  0.00000000E+00  0.00000000E+00
  0.00000000E+00  0.00000000E+00  0.00000000E+00
  0.00000000E+00  0.00000000E+00  0.00000000E+00
  0.00000000E+00  0.00000000E+00  0.00000000E+00
  0.00000000E+00  0.00000000E+00  0.00000000E+00
  0.00000000E+00  0.00000000E+00  0.00000000E+00
  0.00000000E+00  0.00000000E+00  0.00000000E+00
  0.00000000E+00  0.00000000E+00  0.00000000E+00
  0.00000000E+00  0.00000000E+00  0.00000000E+00
  0.00000000E+00  0.00000000E+00  0.00000000E+00
  0.00000000E+00  0.00000000E+00  0.00000000E+00
  0.00000000E+00  0.00000000E+00  0.00000000E+00
  0.00000000E+00  0.00000000E+00  0.00000000E+00
  0.00000000E+00  0.00000000E+00  0.00000000E+00
  0.00000000E+00  0.00000000E+00  0.00000000E+00
  0.00000000E+00  0.00000000E+00  0.00000000E+00
  0.00000000E+00  0.00000000E+00  0.00000000E+00
  0.00000000E+00  0.00000000E+00  0.00000000E+00
  0.00000000E+00  0.00000000E+00  0.00000000E+00
  0.00000000E+00  0.00000000E+00  0.00000000E+00
  0.00000000E+00  0.00000000E+00  0.00000000E+00
  0.00000000E+00  0.00000000E+00  0.00000000E+00
  0.00000000E+00  0.00000000E+00  0.00000000E+00
  0.00000000E+00  0.00000000E+00  0.00000000E+00
  0.00000000E+00  0.00000000E+00  0.00000000E+00
  0.00000000E+00  0.00000000E+00  0.00000000E+00
  0.00000000E+00  0.00000000E+00  0.00000000E+00
  0.00000000E+00  0.00000000E+00  0.00000000E+00
  0.00000000E+00  0.00000000E+00  0.00000000E+00
  0.00000000E+00  0.00000000E+00  0.00000000E+00
  0.00000000E+00  0.00000000E+00  0.00000000E+00
  0.00000000E+00  0.00000000E+00  0.00000000E+00
  0.00000000E+00  0.00000000E+00  0.00000000E+00
  0.00000000E+00  0.00000000E+00  0.00000000E+00
  0.00000000E+00  0.00000000E+00  0.00000000E+00
  0.00000000E+00  0.00000000E+00  0.00000000E+00
  0.00000000E+00  0.00000000E+00  0.00000000E+00
  0.00000000E+00  0.00000000E+00  0.00000000E+00
  0.00000000E+00  0.00000000E+00  0.00000000E+00
  0.00000000E+00  0.00000000E+00  0.00000000E+00
  0.00000000E+00  0.00000000E+00  0.00000000E+00
  0.00000000E+00  0.00000000E+00  0.00000000E+00
  0.00000000E+00  0.00000000E+00  0.00000000E+00
  0.00000000E+00  0.00000000E+00  0.00000000E+00
  0.00000000E+00  0.00000000E+00  0.00000000E+00
  0.00000000E+00  0.00000000E+00  0.00000000E+00
  0.00000000E+00  0.00000000E+00  0.00000000E+00
  0.00000000E+00  0.00000000E+00  0.00000000E+00
  0.00000000E+00  0.00000000E+00  0.00000000E+00
  0.00000000E+00  0.00000000E+00  0.00000000E+00
  0.00000000E+00  0.00000000E+00  0.00000000E+00
  0.00000000E+00  0.00000000E+00  0.00000000E+00
  0.00000000E+00  0.00000000E+00  0.00000000E+00
  0.00000000E+00  0.00000000E+00  0.00000000E+00
  0.00000000E+00  0.00000000E+00  0.00000000E+00
  0.00000000E+00  0.00000000E+00  0.00000000E+00
  0.00000000E+00  0.00000000E+00  0.00000000E+00
  0.00000000E+00  0.00000000E+00  0.00000000E+00
  0.00000000E+00  0.00000000E+00  0.00000000E+00
  0.00000000E+00  0.00000000E+00  0.00000000E+00
  0.00000000E+00  0.00000000E+00  0.00000000E+00
  0.00000000E+00  0.00000000E+00  0.00000000E+00
  0.00000000E+00  0.00000000E+00  0.00000000E+00
  0.00000000E+00  0.00000000E+00  0.00000000E+00
  0.00000000E+00  0.00000000E+00  0.00000000E+00
  0.00000000E+00  0.00000000E+00  0.00000000E+00
  0.00000000E+00  0.00000000E+00  0.00000000E+00
  0.00000000E+00  0.00000000E+00  0.00000000E+00
  0.00000000E+00  0.00000000E+00  0.00000000E+00
  0.00000000E+00  0.00000000E+00  0.00000000E+00
  0.00000000E+00  0.00000000E+00  0.00000000E+00
  0.00000000E+00  0.00000000E+00  0.00000000E+00
  0.00000000E+00  0.00000000E+00  0.00000000E+00
  0.00000000E+00  0.00000000E+00  0.00000000E+00
  0.00000000E+00  0.00000000E+00  0.00000000E+00
  0.00000000E+00  0.00000000E+00  0.00000000E+00
  0.00000000E+00  0.00000000E+00  0.00000000E+00
  0.00000000E+00  0.00000000E+00  0.00000000E+00
  0.00000000E+00  0.00000000E+00  0.00000000E+00
  0.00000000E+00  0.00000000E+00  0.00000000E+00
  0.00000000E+00  0.00000000E+00  0.00000000E+00
  0.00000000E+00  0.00000000E+00  0.00000000E+00
  0.00000000E+00  0.00000000E+00  0.00000000E+00
  0.00000000E+00  0.00000000E+00  0.00000000E+00
  0.00000000E+00  0.00000000E+00  0.00000000E+00
  0.00000000E+00  0.00000000E+00  0.00000000E+00
  0.00000000E+00  0.00000000E+00  0.00000000E+00
  0.00000000E+00  0.00000000E+00  0.00000000E+00
  0.00000000E+00  0.00000000E+00  0.00000000E+00
  0.00000000E+00  0.00000000E+00  0.00000000E+00
  0.00000000E+00  0.00000000E+00  0.00000000E+00
  0.00000000E+00  0.00000000E+00  0.00000000E+00
  0.00000000E+00  0.00000000E+00  0.00000000E+00
  0.00000000E+00  0.00000000E+00  0.00000000E+00
  0.00000000E+00  0.00000000E+00  0.00000000E+00
  0.00000000E+00  0.00000000E+00  0.00000000E+00
  0.00000000E+00  0.00000000E+00  0.00000000E+00
  0.00000000E+00  0.00000000E+00  0.00000000E+00
  0.00000000E+00  0.00000000E+00  0.00000000E+00
  0.00000000E+00  0.00000000E+00  0.00000000E+00
  0.00000000E+00  0.00000000E+00  0.00000000E+00
  0.00000000E+00  0.00000000E+00  0.00000000E+00
  0.00000000E+00  0.00000000E+00  0.00000000E+00
  0.00000000E+00  0.00000000E+00  0.00000000E+00
  0.00000000E+00  0.00000000E+00  0.00000000E+00
  0.00000000E+00  0.00000000E+00  0.00000000E+00
  0.00000000E+00  0.00000000E+00  0.00000000E+00
  0.00000000E+00  0.00000000E+00  0.00000000E+00
  0.00000000E+00  0.00000000E+00  0.00000000E+00
  0.00000000E+00  0.00000000E+00  0.00000000E+00
  0.00000000E+00  0.00000000E+00  0.00000000E+00
  0.00000000E+00  0.00000000E+00  0.00000000E+00
  0.00000000E+00  0.00000000E+00  0.00000000E+00
  0.00000000E+00  0.00000000E+00  0.00000000E+00
  0.00000000E+00  0.00000000E+00  0.00000000E+00
  0.00000000E+00  0.00000000E+00  0.00000000E+00
  0.00000000E+00  0.00000000E+00  0.00000000E+00
  0.00000000E+00  0.00000000E+00  0.00000000E+00
  0.00000000E+00  0.00000000E+00  0.00000000E+00
  0.00000000E+00  0.00000000E+00  0.00000000E+00
  0.00000000E+00  0.00000000E+00  0.00000000E+00
  0.00000000E+00  0.00000000E+00  0.00000000E+00
  0.00000000E+00  0.00000000E+00  0.00000000E+00
  0.00000000E+00  0.00000000E+00  0.00000000E+00
  0.00000000E+00  0.00000000E+00  0.00000000E+00
  0.00000000E+00  0.00000000E+00  0.00000000E+00
  0.00000000E+00  0.00000000E+00  0.00000000E+00
