supercell of POSCAR                     
   1.03228000000000     
     6.3970863126299999    5.5387332920799999    4.9397337979799998
   -15.9736979067999982   -5.5365852353599996    9.8547656895600007
     6.4026568282999996  -11.0930079636999999    0.0094448205590600
   Sc   Al   N 
    32    64    95
Direct
  0.3038570943726597  0.0353846222862018  0.2916636685590532
  0.8374327757480629  0.3130181634974250  0.4348512051832927
  0.0192099919745488  0.2325931721836270  0.3048746688371082
  0.1839228546485003  0.1459462736477093  0.4367078093622681
  0.0182559570873053  0.2329122555902003  0.0660060312825692
  0.0466065159110371  0.4671908812757977  0.3707327749017466
  0.2321170575993676  0.3951113666983943  0.0039940607712339
  0.6888021744252342  0.1286188804937254  0.1178433501691458
  0.3635248146126813  0.0669679189307786  0.8086047071105327
  0.8328536903529695  0.3105825216531457  0.9336479643105164
  0.0197354700318328  0.2318858815659510  0.8044068044933681
  0.1856596413380913  0.1476924558567205  0.9365985834306016
  0.0165271485026395  0.2333129831360097  0.5663194585555331
  0.0443401519586999  0.4665613539063500  0.8709736404605337
  0.2373992473770699  0.3963110788957422  0.5058368211396314
  0.6868513214003684  0.1280797169267700  0.6191115463718759
  0.3758297020863139  0.5723762070378058  0.3112094672667141
  0.8329894564783089  0.8064976359410849  0.4359146475495592
  0.0252583844197218  0.7300660375959964  0.3047993330901448
  0.1943167955936147  0.6496174054042996  0.4391693045733263
  0.0234745441329309  0.7299193778889972  0.0661967358966891
  0.0253168297714339  0.9580811192624310  0.3727794112368414
  0.2300804274945421  0.8900474551664317  0.0029504824185693
  0.6962469786444316  0.6307633783511406  0.1196903313366775
  0.3752539787785523  0.5720979669988822  0.8113294096869836
  0.8339455154881961  0.8072330515711172  0.9322503116906518
  0.0255084871786551  0.7305625528970410  0.8040366766552438
  0.1956412531604812  0.6497330601974696  0.9385394045491466
  0.0242866610336279  0.7313164752597174  0.5685065604734092
  0.0375408444907492  0.9627528832433114  0.8687746221746266
  0.2295678679925004  0.8899081061899921  0.5048305374553053
  0.6943738691057959  0.6298448063474282  0.6196230226612940
  0.3533825984986834  0.0697674711370908  0.0613274390372354
  0.5379351862007766  0.4869433553755798  0.4354021548235423
  0.5397704601786728  0.4877881213005111  0.1925871842734850
  0.6907566233414002  0.4096728924339033  0.3123967890875434
  0.6882507995429492  0.4030625616118186  0.0640232360821642
  0.8574868305332330  0.3234372432634629  0.1824990392304144
  0.1921421253731381  0.1498364334540625  0.1835773818951978
  0.0514091064450852  0.4719545559950760  0.1231275798710953
  0.2312351334528344  0.3903026095797344  0.2491171966394745
  0.3899666246185518  0.3106679096492186  0.1240666161891397
  0.5515978112820648  0.2438356027903481  0.2162244827049733
  0.3926450466215243  0.3093522903836430  0.3742864613095165
  0.5463442750200755  0.2263855382964124  0.9975148362115220
  0.8891100541164150  0.0501310530136223  0.2422714211381916
  0.7582418154352766  0.1185388049743707  0.3752982305904524
  0.8813397830004490  0.0519611210022433  0.9991072431900605
  0.3503775586440412  0.0682189014078531  0.5637628392556024
  0.5381121767104986  0.4864924139823188  0.9357165592349332
  0.5401999842252323  0.4876831967892201  0.6937410087552252
  0.6899116146500859  0.4070174799009649  0.8112585980176874
  0.6873415269732703  0.4048005341108194  0.5639837936252405
  0.8544291996801476  0.3224649752395834  0.6855197916318119
  0.1920550213136636  0.1493138351362475  0.6858414454324802
  0.0514334000258714  0.4718189727211950  0.6240998482127651
  0.2295870726618432  0.3904696525071074  0.7498762593431039
  0.3881645218504133  0.3100290760839712  0.6335250375702444
  0.5505085735511557  0.2283009170394408  0.7533352143519210
  0.3920315754457633  0.3092275711027668  0.8743968054405684
  0.5410460724293742  0.2398511422190097  0.5409408924381154
  0.8836130460745082  0.0522974234949416  0.7478355673650654
  0.7244205670739845  0.1358743744514967  0.8744704961957623
  0.8863301058081277  0.0491686819445576  0.5070422453781163
  0.3630608167826850  0.5732645221169719  0.0654124883035436
  0.5312742098330787  0.9809905083336545  0.4367763893403662
  0.5341766421237608  0.9825878860862716  0.1885903231691586
  0.6902076737889047  0.9076707725981592  0.3116663983884393
  0.6876406101743981  0.9014485240575141  0.0625023463107510
  0.8594960080894012  0.8233111404658189  0.1835880495076267
  0.1999657461869404  0.6491123865698114  0.1859031239459199
  0.0431782989276641  0.9697690872881708  0.1147373090935986
  0.2354550466475160  0.8820051904855930  0.2478430564553946
  0.3998703287854610  0.8058880975369576  0.1283388285872675
  0.5631358873672028  0.7313543939366198  0.2486732119377990
  0.3983771680983352  0.8064318067046798  0.3751518464511818
  0.5561981441371557  0.7283378169657055  0.0057954276737462
  0.8884480898397129  0.5524829547321630  0.2469939478989787
  0.7330126038838287  0.6369217613808758  0.3759617846898422
  0.8857114938170270  0.5510156734342715  0.0007808904288424
  0.3621696282071056  0.5731989162748263  0.5656301204076684
  0.5339311109940681  0.9842815742847151  0.9342409162256473
  0.5358106101623505  0.9850883622771605  0.6926350665967931
  0.6918204477902066  0.9074911131388603  0.8115809756007408
  0.6887436251709786  0.9013524037580822  0.5657157749136204
  0.8568784290321716  0.8220134219081032  0.6849599232111530
  0.1990504542700080  0.6492507167658133  0.6862153573512870
  0.0488975233400311  0.9692748768369484  0.6253532394230064
  0.2318886712291715  0.8875654376627011  0.7491765042475578
  0.3984073406748578  0.8072038874373462  0.6300867303646527
  0.5598793126776087  0.7307422782521087  0.7483414577653562
  0.3972978181181546  0.8078190313500713  0.8738763102228688
  0.5537176360350884  0.7278270103779221  0.5071108923954526
  0.8878571170703609  0.5523795846397306  0.7480005362517375
  0.7322933262927691  0.6369199667343821  0.8756213405695519
  0.8863879819903318  0.5519097148546450  0.5013918171863025
  0.5255477434106410  0.1698727561689992  0.1042129242278307
  0.7218528563139586  0.0732915320352134  0.4818738252633707
  0.7255617719804732  0.0746555085773224  0.2372609748006766
  0.8763380734023585  0.0054365963501013  0.3617160158129238
  0.0441106939292553  0.4126330399264262  0.4930735566854523
  0.8799739328234182  0.4950621514681970  0.1103674021677747
  0.0583689207237654  0.4120533796882597  0.2239398494718188
  0.2319847449842953  0.3359313793653413  0.3561115750969961
  0.3841404477409682  0.2581533891893102  0.4895098213325753
  0.2327756159774808  0.3348994912731555  0.1195768273878812
  0.3812437784987921  0.2506558803528876  0.2350302451160644
  0.2351224992907177  0.0667276735293072  0.1590665081605351
  0.2476391468208377  0.0603497549570022  0.4285468818251630
  0.4282162986500637  0.4811318865106387  0.2982222921835884
  0.4445552288913888  0.0000979837135304  0.0579979760443479
  0.5811493758343076  0.4036524175235030  0.1737202863815313
  0.7399938317892847  0.3261254137107912  0.2881402030627100
  0.5838137694285521  0.4026154353931588  0.4239731569203258
  0.7286990604021994  0.3196329895134866  0.0585514411976575
  0.8874339322867897  0.2378962500088235  0.1721943223584219
  0.0768994949865132  0.1429018440033119  0.2844828556505092
  0.8854286214394520  0.2213179355005295  0.4155798525658270
  0.0708872346563751  0.1433966798757922  0.0555397001944300
  0.5740056947418708  0.1790105822593304  0.8658054760753870
  0.5222232509068121  0.1689657893517520  0.6143872161362580
  0.7210548420165566  0.0793371905892286  0.9768691045853402
  0.7235634440070839  0.0799803206175227  0.7439559994824307
  0.8764737511897636  0.0035281460477137  0.8606631515056051
  0.0426097124958957  0.4134552892145962  0.9931335371083918
  0.8796995982651907  0.4947890579653276  0.6100178881367881
  0.0557618145307401  0.4113018697132560  0.7231122407545811
  0.2326823582452278  0.3365722140017624  0.8554570173366756
  0.3904348599577503  0.2574923285538375  0.9867343158699882
  0.2300525376187323  0.3343711103868117  0.6199625362874315
  0.3822459265373936  0.2496717976351874  0.7373341429505373
  0.2350954130594900  0.0653382531241178  0.6636094641981742
  0.2524309310008093  0.0628300301067952  0.9266845925623528
  0.4276323539381579  0.4809843934116103  0.7981701676902588
  0.4440002384071562  0.9996540679663468  0.5576834585808186
  0.5794706970015895  0.4030072107123672  0.6731185327122944
  0.7373858593796569  0.3248641870350824  0.7859774793692935
  0.5846230307992997  0.4026692217697914  0.9241006171844859
  0.7276479256130486  0.3191787583318302  0.5553837881323815
  0.8852897969945630  0.2371730183419558  0.6698069667270659
  0.0755036895498478  0.1422509531406035  0.7846103542790530
  0.9064968489618508  0.2287446333972767  0.9198714276980766
  0.0703473219270450  0.1436099105661057  0.5563223399140114
  0.5874779279585738  0.6830158421423960  0.3678059723638398
  0.5360276466466374  0.6730011558855296  0.1117742078847073
  0.7268307996803500  0.5795617001850530  0.4771679800810062
  0.7301935893652640  0.5810121624974300  0.2448738391390393
  0.8775320580267518  0.5022502233018926  0.3602719612940035
  0.0439903752014388  0.9112769174104614  0.4968960790469623
  0.8790030646037650  0.9946254831982628  0.1071607452447481
  0.0799738369706375  0.9206818915154926  0.2283642057189041
  0.2387976505452087  0.8339098714429198  0.3571580369168288
  0.3973247099636552  0.7574101897900434  0.4890259311465144
  0.2397187861269074  0.8307663390320599  0.1190731152450439
  0.3916667017818796  0.7493218336047747  0.2380095695335172
  0.2433502166316899  0.5654370333791405  0.1641671066760111
  0.2614380986289717  0.5645263337136797  0.4289617959152281
  0.4308792290094061  0.9777856656679162  0.2982067854021722
  0.4507179327390887  0.5020343983978393  0.0584902163142971
  0.5839507555533388  0.9023948917944153  0.1731215851344174
  0.7570718726402745  0.8321265088383782  0.2916373530421836
  0.5872363444438093  0.9011927467478955  0.4250316972687855
  0.7395657997512401  0.8225321691774354  0.0594776845024327
  0.8977820953562841  0.7410247486159989  0.1729033570563274
  0.0828074764237243  0.6408905065673594  0.2852363273114449
  0.9173466982698528  0.7288167662634706  0.4220678682700409
  0.0779477222139917  0.6409855261837905  0.0560721834739226
  0.5863577430395495  0.6823419844609546  0.8680510792425764
  0.5334651878796777  0.6718712818339725  0.6118515357998575
  0.7276567694673375  0.5801879695163734  0.9777677691607707
  0.7291331021623364  0.5803802724121994  0.7450263563964086
  0.8756424621552128  0.5015777941444739  0.8597109788747517
  0.0447006920028770  0.9114818014151211  0.9920427934577987
  0.8803421390352710  0.9941519708838698  0.6130339670074108
  0.0623260014078326  0.9113102523798347  0.7252691617304521
  0.2376484748498910  0.8349671276324457  0.8558813212974243
  0.3997575808065363  0.7579076189124976  0.9876911308886989
  0.2390400833501047  0.8324704928236173  0.6215527677157837
  0.3887717369245394  0.7489870817701885  0.7377657964812059
  0.2417955292559526  0.5649772959230219  0.6637901864017834
  0.2612806533658869  0.5643658648561996  0.9289513738296122
  0.4262597376304100  0.9798605663319719  0.7980577519664820
  0.4512124509873985  0.5021432097124645  0.5586713680852355
  0.5831065945339446  0.9037086039016771  0.6744181214144049
  0.7473278341303740  0.8284172742737042  0.7895110155773821
  0.5865383476831596  0.9029103292471845  0.9241962662444649
  0.7353688510474186  0.8209037393998315  0.5601920004903462
  0.8927735671537818  0.7381988800088806  0.6722135756111740
  0.0818045122019129  0.6406142412477891  0.7853492799587372
  0.9167348502322596  0.7288127478932438  0.9211457888931065
  0.0771484667172757  0.6415024965231950  0.5567148143357201
 
  0.00000000E+00  0.00000000E+00  0.00000000E+00
  0.00000000E+00  0.00000000E+00  0.00000000E+00
  0.00000000E+00  0.00000000E+00  0.00000000E+00
  0.00000000E+00  0.00000000E+00  0.00000000E+00
  0.00000000E+00  0.00000000E+00  0.00000000E+00
  0.00000000E+00  0.00000000E+00  0.00000000E+00
  0.00000000E+00  0.00000000E+00  0.00000000E+00
  0.00000000E+00  0.00000000E+00  0.00000000E+00
  0.00000000E+00  0.00000000E+00  0.00000000E+00
  0.00000000E+00  0.00000000E+00  0.00000000E+00
  0.00000000E+00  0.00000000E+00  0.00000000E+00
  0.00000000E+00  0.00000000E+00  0.00000000E+00
  0.00000000E+00  0.00000000E+00  0.00000000E+00
  0.00000000E+00  0.00000000E+00  0.00000000E+00
  0.00000000E+00  0.00000000E+00  0.00000000E+00
  0.00000000E+00  0.00000000E+00  0.00000000E+00
  0.00000000E+00  0.00000000E+00  0.00000000E+00
  0.00000000E+00  0.00000000E+00  0.00000000E+00
  0.00000000E+00  0.00000000E+00  0.00000000E+00
  0.00000000E+00  0.00000000E+00  0.00000000E+00
  0.00000000E+00  0.00000000E+00  0.00000000E+00
  0.00000000E+00  0.00000000E+00  0.00000000E+00
  0.00000000E+00  0.00000000E+00  0.00000000E+00
  0.00000000E+00  0.00000000E+00  0.00000000E+00
  0.00000000E+00  0.00000000E+00  0.00000000E+00
  0.00000000E+00  0.00000000E+00  0.00000000E+00
  0.00000000E+00  0.00000000E+00  0.00000000E+00
  0.00000000E+00  0.00000000E+00  0.00000000E+00
  0.00000000E+00  0.00000000E+00  0.00000000E+00
  0.00000000E+00  0.00000000E+00  0.00000000E+00
  0.00000000E+00  0.00000000E+00  0.00000000E+00
  0.00000000E+00  0.00000000E+00  0.00000000E+00
  0.00000000E+00  0.00000000E+00  0.00000000E+00
  0.00000000E+00  0.00000000E+00  0.00000000E+00
  0.00000000E+00  0.00000000E+00  0.00000000E+00
  0.00000000E+00  0.00000000E+00  0.00000000E+00
  0.00000000E+00  0.00000000E+00  0.00000000E+00
  0.00000000E+00  0.00000000E+00  0.00000000E+00
  0.00000000E+00  0.00000000E+00  0.00000000E+00
  0.00000000E+00  0.00000000E+00  0.00000000E+00
  0.00000000E+00  0.00000000E+00  0.00000000E+00
  0.00000000E+00  0.00000000E+00  0.00000000E+00
  0.00000000E+00  0.00000000E+00  0.00000000E+00
  0.00000000E+00  0.00000000E+00  0.00000000E+00
  0.00000000E+00  0.00000000E+00  0.00000000E+00
  0.00000000E+00  0.00000000E+00  0.00000000E+00
  0.00000000E+00  0.00000000E+00  0.00000000E+00
  0.00000000E+00  0.00000000E+00  0.00000000E+00
  0.00000000E+00  0.00000000E+00  0.00000000E+00
  0.00000000E+00  0.00000000E+00  0.00000000E+00
  0.00000000E+00  0.00000000E+00  0.00000000E+00
  0.00000000E+00  0.00000000E+00  0.00000000E+00
  0.00000000E+00  0.00000000E+00  0.00000000E+00
  0.00000000E+00  0.00000000E+00  0.00000000E+00
  0.00000000E+00  0.00000000E+00  0.00000000E+00
  0.00000000E+00  0.00000000E+00  0.00000000E+00
  0.00000000E+00  0.00000000E+00  0.00000000E+00
  0.00000000E+00  0.00000000E+00  0.00000000E+00
  0.00000000E+00  0.00000000E+00  0.00000000E+00
  0.00000000E+00  0.00000000E+00  0.00000000E+00
  0.00000000E+00  0.00000000E+00  0.00000000E+00
  0.00000000E+00  0.00000000E+00  0.00000000E+00
  0.00000000E+00  0.00000000E+00  0.00000000E+00
  0.00000000E+00  0.00000000E+00  0.00000000E+00
  0.00000000E+00  0.00000000E+00  0.00000000E+00
  0.00000000E+00  0.00000000E+00  0.00000000E+00
  0.00000000E+00  0.00000000E+00  0.00000000E+00
  0.00000000E+00  0.00000000E+00  0.00000000E+00
  0.00000000E+00  0.00000000E+00  0.00000000E+00
  0.00000000E+00  0.00000000E+00  0.00000000E+00
  0.00000000E+00  0.00000000E+00  0.00000000E+00
  0.00000000E+00  0.00000000E+00  0.00000000E+00
  0.00000000E+00  0.00000000E+00  0.00000000E+00
  0.00000000E+00  0.00000000E+00  0.00000000E+00
  0.00000000E+00  0.00000000E+00  0.00000000E+00
  0.00000000E+00  0.00000000E+00  0.00000000E+00
  0.00000000E+00  0.00000000E+00  0.00000000E+00
  0.00000000E+00  0.00000000E+00  0.00000000E+00
  0.00000000E+00  0.00000000E+00  0.00000000E+00
  0.00000000E+00  0.00000000E+00  0.00000000E+00
  0.00000000E+00  0.00000000E+00  0.00000000E+00
  0.00000000E+00  0.00000000E+00  0.00000000E+00
  0.00000000E+00  0.00000000E+00  0.00000000E+00
  0.00000000E+00  0.00000000E+00  0.00000000E+00
  0.00000000E+00  0.00000000E+00  0.00000000E+00
  0.00000000E+00  0.00000000E+00  0.00000000E+00
  0.00000000E+00  0.00000000E+00  0.00000000E+00
  0.00000000E+00  0.00000000E+00  0.00000000E+00
  0.00000000E+00  0.00000000E+00  0.00000000E+00
  0.00000000E+00  0.00000000E+00  0.00000000E+00
  0.00000000E+00  0.00000000E+00  0.00000000E+00
  0.00000000E+00  0.00000000E+00  0.00000000E+00
  0.00000000E+00  0.00000000E+00  0.00000000E+00
  0.00000000E+00  0.00000000E+00  0.00000000E+00
  0.00000000E+00  0.00000000E+00  0.00000000E+00
  0.00000000E+00  0.00000000E+00  0.00000000E+00
  0.00000000E+00  0.00000000E+00  0.00000000E+00
  0.00000000E+00  0.00000000E+00  0.00000000E+00
  0.00000000E+00  0.00000000E+00  0.00000000E+00
  0.00000000E+00  0.00000000E+00  0.00000000E+00
  0.00000000E+00  0.00000000E+00  0.00000000E+00
  0.00000000E+00  0.00000000E+00  0.00000000E+00
  0.00000000E+00  0.00000000E+00  0.00000000E+00
  0.00000000E+00  0.00000000E+00  0.00000000E+00
  0.00000000E+00  0.00000000E+00  0.00000000E+00
  0.00000000E+00  0.00000000E+00  0.00000000E+00
  0.00000000E+00  0.00000000E+00  0.00000000E+00
  0.00000000E+00  0.00000000E+00  0.00000000E+00
  0.00000000E+00  0.00000000E+00  0.00000000E+00
  0.00000000E+00  0.00000000E+00  0.00000000E+00
  0.00000000E+00  0.00000000E+00  0.00000000E+00
  0.00000000E+00  0.00000000E+00  0.00000000E+00
  0.00000000E+00  0.00000000E+00  0.00000000E+00
  0.00000000E+00  0.00000000E+00  0.00000000E+00
  0.00000000E+00  0.00000000E+00  0.00000000E+00
  0.00000000E+00  0.00000000E+00  0.00000000E+00
  0.00000000E+00  0.00000000E+00  0.00000000E+00
  0.00000000E+00  0.00000000E+00  0.00000000E+00
  0.00000000E+00  0.00000000E+00  0.00000000E+00
  0.00000000E+00  0.00000000E+00  0.00000000E+00
  0.00000000E+00  0.00000000E+00  0.00000000E+00
  0.00000000E+00  0.00000000E+00  0.00000000E+00
  0.00000000E+00  0.00000000E+00  0.00000000E+00
  0.00000000E+00  0.00000000E+00  0.00000000E+00
  0.00000000E+00  0.00000000E+00  0.00000000E+00
  0.00000000E+00  0.00000000E+00  0.00000000E+00
  0.00000000E+00  0.00000000E+00  0.00000000E+00
  0.00000000E+00  0.00000000E+00  0.00000000E+00
  0.00000000E+00  0.00000000E+00  0.00000000E+00
  0.00000000E+00  0.00000000E+00  0.00000000E+00
  0.00000000E+00  0.00000000E+00  0.00000000E+00
  0.00000000E+00  0.00000000E+00  0.00000000E+00
  0.00000000E+00  0.00000000E+00  0.00000000E+00
  0.00000000E+00  0.00000000E+00  0.00000000E+00
  0.00000000E+00  0.00000000E+00  0.00000000E+00
  0.00000000E+00  0.00000000E+00  0.00000000E+00
  0.00000000E+00  0.00000000E+00  0.00000000E+00
  0.00000000E+00  0.00000000E+00  0.00000000E+00
  0.00000000E+00  0.00000000E+00  0.00000000E+00
  0.00000000E+00  0.00000000E+00  0.00000000E+00
  0.00000000E+00  0.00000000E+00  0.00000000E+00
  0.00000000E+00  0.00000000E+00  0.00000000E+00
  0.00000000E+00  0.00000000E+00  0.00000000E+00
  0.00000000E+00  0.00000000E+00  0.00000000E+00
  0.00000000E+00  0.00000000E+00  0.00000000E+00
  0.00000000E+00  0.00000000E+00  0.00000000E+00
  0.00000000E+00  0.00000000E+00  0.00000000E+00
  0.00000000E+00  0.00000000E+00  0.00000000E+00
  0.00000000E+00  0.00000000E+00  0.00000000E+00
  0.00000000E+00  0.00000000E+00  0.00000000E+00
  0.00000000E+00  0.00000000E+00  0.00000000E+00
  0.00000000E+00  0.00000000E+00  0.00000000E+00
  0.00000000E+00  0.00000000E+00  0.00000000E+00
  0.00000000E+00  0.00000000E+00  0.00000000E+00
  0.00000000E+00  0.00000000E+00  0.00000000E+00
  0.00000000E+00  0.00000000E+00  0.00000000E+00
  0.00000000E+00  0.00000000E+00  0.00000000E+00
  0.00000000E+00  0.00000000E+00  0.00000000E+00
  0.00000000E+00  0.00000000E+00  0.00000000E+00
  0.00000000E+00  0.00000000E+00  0.00000000E+00
  0.00000000E+00  0.00000000E+00  0.00000000E+00
  0.00000000E+00  0.00000000E+00  0.00000000E+00
  0.00000000E+00  0.00000000E+00  0.00000000E+00
  0.00000000E+00  0.00000000E+00  0.00000000E+00
  0.00000000E+00  0.00000000E+00  0.00000000E+00
  0.00000000E+00  0.00000000E+00  0.00000000E+00
  0.00000000E+00  0.00000000E+00  0.00000000E+00
  0.00000000E+00  0.00000000E+00  0.00000000E+00
  0.00000000E+00  0.00000000E+00  0.00000000E+00
  0.00000000E+00  0.00000000E+00  0.00000000E+00
  0.00000000E+00  0.00000000E+00  0.00000000E+00
  0.00000000E+00  0.00000000E+00  0.00000000E+00
  0.00000000E+00  0.00000000E+00  0.00000000E+00
  0.00000000E+00  0.00000000E+00  0.00000000E+00
  0.00000000E+00  0.00000000E+00  0.00000000E+00
  0.00000000E+00  0.00000000E+00  0.00000000E+00
  0.00000000E+00  0.00000000E+00  0.00000000E+00
  0.00000000E+00  0.00000000E+00  0.00000000E+00
  0.00000000E+00  0.00000000E+00  0.00000000E+00
  0.00000000E+00  0.00000000E+00  0.00000000E+00
  0.00000000E+00  0.00000000E+00  0.00000000E+00
  0.00000000E+00  0.00000000E+00  0.00000000E+00
  0.00000000E+00  0.00000000E+00  0.00000000E+00
  0.00000000E+00  0.00000000E+00  0.00000000E+00
  0.00000000E+00  0.00000000E+00  0.00000000E+00
  0.00000000E+00  0.00000000E+00  0.00000000E+00
  0.00000000E+00  0.00000000E+00  0.00000000E+00
  0.00000000E+00  0.00000000E+00  0.00000000E+00
  0.00000000E+00  0.00000000E+00  0.00000000E+00
  0.00000000E+00  0.00000000E+00  0.00000000E+00
  0.00000000E+00  0.00000000E+00  0.00000000E+00
