supercell of POSCAR                     
   1.03228000000000     
     6.3970863126299999    5.5387332920799999    4.9397337979799998
   -15.9736979067999982   -5.5365852353599996    9.8547656895600007
     6.4026568282999996  -11.0930079636999999    0.0094448205590600
   Sc   Al   N 
    32    63    96
Direct
  0.3720336660564314  0.0718812186194739  0.3101712484044157
  0.8331567612961450  0.3073675591067584  0.4336775550542313
  0.0391000422254919  0.2384398883646028  0.3079990954469665
  0.1978627355500535  0.1531427403414654  0.4387310934159601
  0.0280055422210950  0.2329481209279294  0.0682357688851454
  0.0437592071326591  0.4588966350287578  0.3693437197274250
  0.2341173331538045  0.3935203846012243  0.0052742539868404
  0.6998659035712507  0.1302050947651026  0.1200468818760356
  0.3716132858049050  0.0702889463235294  0.8101024427124912
  0.8354597255708782  0.3083023244206942  0.9337104519227992
  0.0278007445194390  0.2316722514486784  0.8056784159988126
  0.1971797644563580  0.1507306446715830  0.9413015435310257
  0.0250829262685173  0.2322601201777275  0.5671527208718246
  0.0403835465673268  0.4640900197490723  0.8693619363423792
  0.2334642882534794  0.3939767036855955  0.5089794838143789
  0.6961736945736874  0.1289943675834593  0.6194862056974415
  0.3673038547674565  0.5697131373188924  0.3090982748770372
  0.8301694588853010  0.8095323936901195  0.4329307243937066
  0.0197166289806816  0.7308556525536147  0.3029726612196626
  0.1756638065204328  0.6413176025071010  0.4358624998921741
  0.0190916169745492  0.7320932893071870  0.0667473313934011
  0.0433579994928195  0.9663979865887597  0.3702539309622850
  0.2282664137476687  0.8917055696325988  0.0034411703374957
  0.6894929082012453  0.6290520163391449  0.1185648938370605
  0.3691253089156916  0.5692604193206918  0.8101872296340531
  0.8294940851281183  0.8086281012173089  0.9320988984760632
  0.0191115879040851  0.7306290660628605  0.8034403249561208
  0.1894929314359288  0.6485063713753405  0.9381831041697879
  0.0094060415514008  0.7252394930408599  0.5636606574818472
  0.0412349400563983  0.9649834295386910  0.8697650525903100
  0.2256138473940936  0.8896859744636600  0.5036857759140076
  0.6871014798815622  0.6284893001381775  0.6188269501778763
  0.3619108962586068  0.0717305064034832  0.0643481172572393
  0.5370849410046219  0.4859454738437137  0.4353222591572248
  0.5405566503181518  0.4867189190522794  0.1931684703134735
  0.6974131168196394  0.4087389083470399  0.3133536843628946
  0.6893200674826474  0.4025523992150184  0.0644868392875466
  0.8584051813902178  0.3227536187932358  0.1827771653078472
  0.1996005500346882  0.1503177795982467  0.1830717490845757
  0.0483060699256015  0.4716521024895997  0.1199642252979345
  0.2311316067708447  0.3918510057149902  0.2474962371679084
  0.3998216367462959  0.3072443775891855  0.1308710772964190
  0.5554347554543853  0.2297313165025514  0.2444780388508079
  0.5535909653453288  0.2273560480020791  0.0056680507609954
  0.8882515296680680  0.0539215922834657  0.2471866879477105
  0.7298204918977618  0.1360726191211157  0.3742183140061286
  0.8810170878497416  0.0499696781631656  0.9986245112450405
  0.3599328067110790  0.0714585564546155  0.5644360109875990
  0.5370259758549665  0.4855439622011346  0.9353973149656198
  0.5399973595145298  0.4864230587329033  0.6936034768053148
  0.6927789080814932  0.4075287124257159  0.8121614652940181
  0.6900932706116336  0.4023100580240282  0.5659009021509007
  0.8570127579729245  0.3218369538029222  0.6844907321026028
  0.1976645915067436  0.1495004140214462  0.6858958931211134
  0.0496030748394247  0.4703543057621857  0.6263665882946157
  0.2334361374254854  0.3881478951156225  0.7505840840565057
  0.3983349735171871  0.3062021715992955  0.6324958723632648
  0.5579282038592837  0.2290483641837540  0.7485323144172469
  0.3987832556332691  0.3084440055212170  0.8756639744809647
  0.5508502826708224  0.2274614409582583  0.5092963618589366
  0.8857425008413244  0.0516960865601632  0.7475183820749294
  0.7294451223049876  0.1359115010817931  0.8753009354151189
  0.8836578118580150  0.0512680859370320  0.4998480583495564
  0.3576552181833463  0.5718202191534658  0.0636532087740775
  0.5324423533094773  0.9840449294835949  0.4341128181232534
  0.5355548385304303  0.9854950154665829  0.1914957858900550
  0.6891696970867613  0.9069624438348782  0.3103722676922658
  0.6860693171789691  0.9023010182046107  0.0635607252642103
  0.8522321123828362  0.8224899769670202  0.1834050914050707
  0.1953705067237763  0.6499706724689531  0.1847586182710259
  0.0487885206124972  0.9706115651677933  0.1219713190495000
  0.2291767504976860  0.8889073441451671  0.2483175952868422
  0.3940444010526605  0.8072952071294921  0.1283774878994066
  0.5537654111363750  0.7295017153926580  0.2466393659358488
  0.3899348353510561  0.8060988778278357  0.3733139721237819
  0.5487717416726170  0.7272749331841268  0.0043466866094377
  0.8880387697884800  0.5522476901555819  0.2454571746658374
  0.7260286352286940  0.6375363780915251  0.3736991610497284
  0.8832715239147220  0.5519180727768997  0.0009270422787466
  0.3569694882870635  0.5710147610617184  0.5646556423430198
  0.5320695939642519  0.9838632343728548  0.9338575049709732
  0.5347199224059125  0.9848200264969122  0.6910534600519540
  0.6865078535798972  0.9054970170816219  0.8092062710719432
  0.6849999556757638  0.9019265019935148  0.5633926021680224
  0.8501333551812635  0.8214923695039502  0.6826895208369024
  0.1890331790877013  0.6466749225717336  0.6837230565308445
  0.0484401338942462  0.9707714939407168  0.6224931862319920
  0.2258849136660572  0.8865206036806157  0.7464599901707203
  0.3887584555396515  0.8044870023138060  0.6264001531338224
  0.5513865465004955  0.7285246116480479  0.7460863942712876
  0.3907888108292497  0.8068286332404924  0.8725046564175543
  0.5445407693651063  0.7261686174227293  0.5033224062292518
  0.8868507232267149  0.5524105966601454  0.7496343931401199
  0.7272664757773981  0.6366776751518017  0.8751456454801314
  0.8591997015847994  0.5377781697246604  0.4952025758513088
  0.5832843297602537  0.1806654233442089  0.3666563895424773
  0.5382664247697804  0.1691733597097311  0.1074824734935262
  0.7213150923957343  0.0772084834969462  0.4752359230862950
  0.7234571084221457  0.0777362409191298  0.2437420729964188
  0.8743567071243419  0.0016413154966131  0.3590489726720705
  0.0413861812737721  0.4128193039735564  0.4990648330298839
  0.8793863683145275  0.4962346040516508  0.1079620583780141
  0.0587958171180460  0.4141185875905862  0.2168671304356380
  0.2100528364419745  0.3490627458870392  0.3578727326403381
  0.3955790000129014  0.2507726076467733  0.5074294829500303
  0.2414851212469316  0.3352513710043823  0.1206514035822863
  0.3830973284903720  0.2397521320409339  0.2126691523664093
  0.2391328516062003  0.0631766374855118  0.1614444344914574
  0.2589864210178021  0.0639080086920032  0.4285690152119841
  0.4308300076303411  0.4832418289685876  0.2971623619197246
  0.4441265091448443  0.9978440664275610  0.0560017765035425
  0.5866007260068571  0.4050320263772562  0.1749557659041017
  0.7487797008918022  0.3276663610340336  0.2880978873561659
  0.6406989572699544  0.4290104349558348  0.4395045253086920
  0.7351307397448466  0.3212514747198938  0.0574733268107011
  0.8957338787790405  0.2389189526862268  0.1709918238979853
  0.0802358201130957  0.1417517073213332  0.2822443939155406
  0.9141441063685321  0.2271570857169039  0.4201068903630798
  0.0692718141565010  0.1393722764163812  0.0520895428383241
  0.5832789611816409  0.1803408816882310  0.8673165898998718
  0.5363557073603999  0.1687915159710300  0.6148790200357013
  0.7202300690934820  0.0768432141755468  0.9744961855912990
  0.7245990117906942  0.0781505144545918  0.7443663152464453
  0.8719473123276131  0.9998776803672484  0.8579828044776932
  0.0454135319612732  0.4130832105292086  0.9917737539320584
  0.8856259418373682  0.4950085282562000  0.6206737565667027
  0.0634382286626050  0.4111133290667297  0.7268653727464525
  0.2393478427192051  0.3362851488088197  0.8584376273042551
  0.3993872830349972  0.2590161342124162  0.9864653211420418
  0.2389937950755794  0.3320695583616740  0.6251397442612827
  0.3885466168602179  0.2484204154563656  0.7426122299826758
  0.2395112625867597  0.0647302841391380  0.6634945413403628
  0.2580458555966700  0.0632300766759641  0.9279986744878954
  0.4288311171306205  0.4810448426659946  0.7992720730568905
  0.4430709791402876  0.9974873029504749  0.5565139101789498
  0.5841126227084246  0.4043152611030862  0.6768575564460164
  0.7461410201115584  0.3273454718611930  0.7895927494037949
  0.5879324046172769  0.4038549543800016  0.9249745863244385
  0.7357577534396711  0.3202336573332119  0.5598445745861227
  0.8940170069745221  0.2378927777610187  0.6731565188851008
  0.0801982769956098  0.1401804848858035  0.7865532297211644
  0.9142933394006008  0.2277744279273435  0.9210385962782439
  0.0733552990096626  0.1409258469509069  0.5566871605308350
  0.5771003666983887  0.6810608372047113  0.3645834167733284
  0.5287300281732996  0.6715029460882960  0.1095044627233577
  0.7255720160585639  0.5852453032865697  0.4779542370158012
  0.7294991038302712  0.5813716201923711  0.2443089791512207
  0.8910729945340066  0.5048835145800510  0.3570214055737324
  0.0417385592000130  0.9131082683966056  0.4926719217799658
  0.8770560638682028  0.9943723434581315  0.1090108341096325
  0.0565551913253586  0.9110270826144671  0.2229038223601023
  0.2324355619405836  0.8352054816194325  0.3544396689124127
  0.3844109635886710  0.7536265723845403  0.4849945302319156
  0.2347182961403789  0.8328663583040381  0.1201380266743257
  0.3842840580938400  0.7492363456640518  0.2359578896609946
  0.2390344275666223  0.5665812664466401  0.1617482062088058
  0.2566208795586249  0.5616976093979034  0.4281277462408326
  0.4242876046282120  0.9799240640301861  0.2970479130495534
  0.4497631527462431  0.5021321436901474  0.0582659899571993
  0.5793907691007476  0.9026161239972268  0.1728626603372163
  0.7404392941880005  0.8264513714032020  0.2870203454874272
  0.5815538185387226  0.9008716915112700  0.4228778666642157
  0.7304960882906641  0.8206225240753895  0.0573760919913440
  0.8873783572186085  0.7382514134858980  0.1704086506324742
  0.0791993145338452  0.6428634269948432  0.2831244377396587
  0.9103711796502552  0.7304436548567637  0.4192098533760102
  0.0735272888437137  0.6431654321242064  0.0558958099673816
  0.5785496192307136  0.6805539471077964  0.8663373374158780
  0.5268910379592739  0.6712539409400762  0.6094291263054714
  0.7244036833416772  0.5802954070586281  0.9772769270982025
  0.7286134329173564  0.5810930964350689  0.7461035720954854
  0.8777997897970096  0.5035050313506133  0.8628127637847101
  0.0404434527362696  0.9118699761840006  0.9917442009667141
  0.8768250770791610  0.9943948130199587  0.6097590384659810
  0.0556120399018454  0.9107876000892574  0.7225858374985918
  0.2320875706862040  0.8349489335435365  0.8549536597705938
  0.3921196213927516  0.7572580610558717  0.9870423161458106
  0.2277714535135829  0.8288577282998517  0.6186977656979309
  0.3812211620190453  0.7477026218746232  0.7359390294738617
  0.2405885678699349  0.5657244471122382  0.6651953454499520
  0.2563616127601307  0.5637436849951811  0.9279677918015921
  0.4223989634258061  0.9783958711796359  0.7958485625694038
  0.4520192444931013  0.5033652059573583  0.5615426543837927
  0.5760273766478576  0.9011794764176813  0.6716375169545330
  0.7384868419150195  0.8254870344037499  0.7866987515706398
  0.5818296299540577  0.9011226304637319  0.9225314288591235
  0.7277610383878113  0.8198180904010215  0.5569458802847223
  0.8868760883317677  0.7381621728190311  0.6719445223277845
  0.0793831177449320  0.6427073015222291  0.7871697040935501
  0.9101932768944394  0.7293400053905046  0.9209267685695650
  0.0628217292479647  0.6362389026422051  0.5550608223770723
 
  0.00000000E+00  0.00000000E+00  0.00000000E+00
  0.00000000E+00  0.00000000E+00  0.00000000E+00
  0.00000000E+00  0.00000000E+00  0.00000000E+00
  0.00000000E+00  0.00000000E+00  0.00000000E+00
  0.00000000E+00  0.00000000E+00  0.00000000E+00
  0.00000000E+00  0.00000000E+00  0.00000000E+00
  0.00000000E+00  0.00000000E+00  0.00000000E+00
  0.00000000E+00  0.00000000E+00  0.00000000E+00
  0.00000000E+00  0.00000000E+00  0.00000000E+00
  0.00000000E+00  0.00000000E+00  0.00000000E+00
  0.00000000E+00  0.00000000E+00  0.00000000E+00
  0.00000000E+00  0.00000000E+00  0.00000000E+00
  0.00000000E+00  0.00000000E+00  0.00000000E+00
  0.00000000E+00  0.00000000E+00  0.00000000E+00
  0.00000000E+00  0.00000000E+00  0.00000000E+00
  0.00000000E+00  0.00000000E+00  0.00000000E+00
  0.00000000E+00  0.00000000E+00  0.00000000E+00
  0.00000000E+00  0.00000000E+00  0.00000000E+00
  0.00000000E+00  0.00000000E+00  0.00000000E+00
  0.00000000E+00  0.00000000E+00  0.00000000E+00
  0.00000000E+00  0.00000000E+00  0.00000000E+00
  0.00000000E+00  0.00000000E+00  0.00000000E+00
  0.00000000E+00  0.00000000E+00  0.00000000E+00
  0.00000000E+00  0.00000000E+00  0.00000000E+00
  0.00000000E+00  0.00000000E+00  0.00000000E+00
  0.00000000E+00  0.00000000E+00  0.00000000E+00
  0.00000000E+00  0.00000000E+00  0.00000000E+00
  0.00000000E+00  0.00000000E+00  0.00000000E+00
  0.00000000E+00  0.00000000E+00  0.00000000E+00
  0.00000000E+00  0.00000000E+00  0.00000000E+00
  0.00000000E+00  0.00000000E+00  0.00000000E+00
  0.00000000E+00  0.00000000E+00  0.00000000E+00
  0.00000000E+00  0.00000000E+00  0.00000000E+00
  0.00000000E+00  0.00000000E+00  0.00000000E+00
  0.00000000E+00  0.00000000E+00  0.00000000E+00
  0.00000000E+00  0.00000000E+00  0.00000000E+00
  0.00000000E+00  0.00000000E+00  0.00000000E+00
  0.00000000E+00  0.00000000E+00  0.00000000E+00
  0.00000000E+00  0.00000000E+00  0.00000000E+00
  0.00000000E+00  0.00000000E+00  0.00000000E+00
  0.00000000E+00  0.00000000E+00  0.00000000E+00
  0.00000000E+00  0.00000000E+00  0.00000000E+00
  0.00000000E+00  0.00000000E+00  0.00000000E+00
  0.00000000E+00  0.00000000E+00  0.00000000E+00
  0.00000000E+00  0.00000000E+00  0.00000000E+00
  0.00000000E+00  0.00000000E+00  0.00000000E+00
  0.00000000E+00  0.00000000E+00  0.00000000E+00
  0.00000000E+00  0.00000000E+00  0.00000000E+00
  0.00000000E+00  0.00000000E+00  0.00000000E+00
  0.00000000E+00  0.00000000E+00  0.00000000E+00
  0.00000000E+00  0.00000000E+00  0.00000000E+00
  0.00000000E+00  0.00000000E+00  0.00000000E+00
  0.00000000E+00  0.00000000E+00  0.00000000E+00
  0.00000000E+00  0.00000000E+00  0.00000000E+00
  0.00000000E+00  0.00000000E+00  0.00000000E+00
  0.00000000E+00  0.00000000E+00  0.00000000E+00
  0.00000000E+00  0.00000000E+00  0.00000000E+00
  0.00000000E+00  0.00000000E+00  0.00000000E+00
  0.00000000E+00  0.00000000E+00  0.00000000E+00
  0.00000000E+00  0.00000000E+00  0.00000000E+00
  0.00000000E+00  0.00000000E+00  0.00000000E+00
  0.00000000E+00  0.00000000E+00  0.00000000E+00
  0.00000000E+00  0.00000000E+00  0.00000000E+00
  0.00000000E+00  0.00000000E+00  0.00000000E+00
  0.00000000E+00  0.00000000E+00  0.00000000E+00
  0.00000000E+00  0.00000000E+00  0.00000000E+00
  0.00000000E+00  0.00000000E+00  0.00000000E+00
  0.00000000E+00  0.00000000E+00  0.00000000E+00
  0.00000000E+00  0.00000000E+00  0.00000000E+00
  0.00000000E+00  0.00000000E+00  0.00000000E+00
  0.00000000E+00  0.00000000E+00  0.00000000E+00
  0.00000000E+00  0.00000000E+00  0.00000000E+00
  0.00000000E+00  0.00000000E+00  0.00000000E+00
  0.00000000E+00  0.00000000E+00  0.00000000E+00
  0.00000000E+00  0.00000000E+00  0.00000000E+00
  0.00000000E+00  0.00000000E+00  0.00000000E+00
  0.00000000E+00  0.00000000E+00  0.00000000E+00
  0.00000000E+00  0.00000000E+00  0.00000000E+00
  0.00000000E+00  0.00000000E+00  0.00000000E+00
  0.00000000E+00  0.00000000E+00  0.00000000E+00
  0.00000000E+00  0.00000000E+00  0.00000000E+00
  0.00000000E+00  0.00000000E+00  0.00000000E+00
  0.00000000E+00  0.00000000E+00  0.00000000E+00
  0.00000000E+00  0.00000000E+00  0.00000000E+00
  0.00000000E+00  0.00000000E+00  0.00000000E+00
  0.00000000E+00  0.00000000E+00  0.00000000E+00
  0.00000000E+00  0.00000000E+00  0.00000000E+00
  0.00000000E+00  0.00000000E+00  0.00000000E+00
  0.00000000E+00  0.00000000E+00  0.00000000E+00
  0.00000000E+00  0.00000000E+00  0.00000000E+00
  0.00000000E+00  0.00000000E+00  0.00000000E+00
  0.00000000E+00  0.00000000E+00  0.00000000E+00
  0.00000000E+00  0.00000000E+00  0.00000000E+00
  0.00000000E+00  0.00000000E+00  0.00000000E+00
  0.00000000E+00  0.00000000E+00  0.00000000E+00
  0.00000000E+00  0.00000000E+00  0.00000000E+00
  0.00000000E+00  0.00000000E+00  0.00000000E+00
  0.00000000E+00  0.00000000E+00  0.00000000E+00
  0.00000000E+00  0.00000000E+00  0.00000000E+00
  0.00000000E+00  0.00000000E+00  0.00000000E+00
  0.00000000E+00  0.00000000E+00  0.00000000E+00
  0.00000000E+00  0.00000000E+00  0.00000000E+00
  0.00000000E+00  0.00000000E+00  0.00000000E+00
  0.00000000E+00  0.00000000E+00  0.00000000E+00
  0.00000000E+00  0.00000000E+00  0.00000000E+00
  0.00000000E+00  0.00000000E+00  0.00000000E+00
  0.00000000E+00  0.00000000E+00  0.00000000E+00
  0.00000000E+00  0.00000000E+00  0.00000000E+00
  0.00000000E+00  0.00000000E+00  0.00000000E+00
  0.00000000E+00  0.00000000E+00  0.00000000E+00
  0.00000000E+00  0.00000000E+00  0.00000000E+00
  0.00000000E+00  0.00000000E+00  0.00000000E+00
  0.00000000E+00  0.00000000E+00  0.00000000E+00
  0.00000000E+00  0.00000000E+00  0.00000000E+00
  0.00000000E+00  0.00000000E+00  0.00000000E+00
  0.00000000E+00  0.00000000E+00  0.00000000E+00
  0.00000000E+00  0.00000000E+00  0.00000000E+00
  0.00000000E+00  0.00000000E+00  0.00000000E+00
  0.00000000E+00  0.00000000E+00  0.00000000E+00
  0.00000000E+00  0.00000000E+00  0.00000000E+00
  0.00000000E+00  0.00000000E+00  0.00000000E+00
  0.00000000E+00  0.00000000E+00  0.00000000E+00
  0.00000000E+00  0.00000000E+00  0.00000000E+00
  0.00000000E+00  0.00000000E+00  0.00000000E+00
  0.00000000E+00  0.00000000E+00  0.00000000E+00
  0.00000000E+00  0.00000000E+00  0.00000000E+00
  0.00000000E+00  0.00000000E+00  0.00000000E+00
  0.00000000E+00  0.00000000E+00  0.00000000E+00
  0.00000000E+00  0.00000000E+00  0.00000000E+00
  0.00000000E+00  0.00000000E+00  0.00000000E+00
  0.00000000E+00  0.00000000E+00  0.00000000E+00
  0.00000000E+00  0.00000000E+00  0.00000000E+00
  0.00000000E+00  0.00000000E+00  0.00000000E+00
  0.00000000E+00  0.00000000E+00  0.00000000E+00
  0.00000000E+00  0.00000000E+00  0.00000000E+00
  0.00000000E+00  0.00000000E+00  0.00000000E+00
  0.00000000E+00  0.00000000E+00  0.00000000E+00
  0.00000000E+00  0.00000000E+00  0.00000000E+00
  0.00000000E+00  0.00000000E+00  0.00000000E+00
  0.00000000E+00  0.00000000E+00  0.00000000E+00
  0.00000000E+00  0.00000000E+00  0.00000000E+00
  0.00000000E+00  0.00000000E+00  0.00000000E+00
  0.00000000E+00  0.00000000E+00  0.00000000E+00
  0.00000000E+00  0.00000000E+00  0.00000000E+00
  0.00000000E+00  0.00000000E+00  0.00000000E+00
  0.00000000E+00  0.00000000E+00  0.00000000E+00
  0.00000000E+00  0.00000000E+00  0.00000000E+00
  0.00000000E+00  0.00000000E+00  0.00000000E+00
  0.00000000E+00  0.00000000E+00  0.00000000E+00
  0.00000000E+00  0.00000000E+00  0.00000000E+00
  0.00000000E+00  0.00000000E+00  0.00000000E+00
  0.00000000E+00  0.00000000E+00  0.00000000E+00
  0.00000000E+00  0.00000000E+00  0.00000000E+00
  0.00000000E+00  0.00000000E+00  0.00000000E+00
  0.00000000E+00  0.00000000E+00  0.00000000E+00
  0.00000000E+00  0.00000000E+00  0.00000000E+00
  0.00000000E+00  0.00000000E+00  0.00000000E+00
  0.00000000E+00  0.00000000E+00  0.00000000E+00
  0.00000000E+00  0.00000000E+00  0.00000000E+00
  0.00000000E+00  0.00000000E+00  0.00000000E+00
  0.00000000E+00  0.00000000E+00  0.00000000E+00
  0.00000000E+00  0.00000000E+00  0.00000000E+00
  0.00000000E+00  0.00000000E+00  0.00000000E+00
  0.00000000E+00  0.00000000E+00  0.00000000E+00
  0.00000000E+00  0.00000000E+00  0.00000000E+00
  0.00000000E+00  0.00000000E+00  0.00000000E+00
  0.00000000E+00  0.00000000E+00  0.00000000E+00
  0.00000000E+00  0.00000000E+00  0.00000000E+00
  0.00000000E+00  0.00000000E+00  0.00000000E+00
  0.00000000E+00  0.00000000E+00  0.00000000E+00
  0.00000000E+00  0.00000000E+00  0.00000000E+00
  0.00000000E+00  0.00000000E+00  0.00000000E+00
  0.00000000E+00  0.00000000E+00  0.00000000E+00
  0.00000000E+00  0.00000000E+00  0.00000000E+00
  0.00000000E+00  0.00000000E+00  0.00000000E+00
  0.00000000E+00  0.00000000E+00  0.00000000E+00
  0.00000000E+00  0.00000000E+00  0.00000000E+00
  0.00000000E+00  0.00000000E+00  0.00000000E+00
  0.00000000E+00  0.00000000E+00  0.00000000E+00
  0.00000000E+00  0.00000000E+00  0.00000000E+00
  0.00000000E+00  0.00000000E+00  0.00000000E+00
  0.00000000E+00  0.00000000E+00  0.00000000E+00
  0.00000000E+00  0.00000000E+00  0.00000000E+00
  0.00000000E+00  0.00000000E+00  0.00000000E+00
  0.00000000E+00  0.00000000E+00  0.00000000E+00
  0.00000000E+00  0.00000000E+00  0.00000000E+00
  0.00000000E+00  0.00000000E+00  0.00000000E+00
  0.00000000E+00  0.00000000E+00  0.00000000E+00
  0.00000000E+00  0.00000000E+00  0.00000000E+00
  0.00000000E+00  0.00000000E+00  0.00000000E+00
  0.00000000E+00  0.00000000E+00  0.00000000E+00
