supercell of POSCAR                     
   1.03228000000000     
     6.3970863126299999    5.5387332920799999    4.9397337979799998
   -15.9736979067999982   -5.5365852353599996    9.8547656895600007
     6.4026568282999996  -11.0930079636999999    0.0094448205590600
   Sc   Al   N 
    31    64    96
Direct
  0.3760574050573950  0.0714215735256047  0.3104291638018211
  0.8319778472154979  0.3085719794584065  0.4332899024363641
  0.0011161822551955  0.2191431825877501  0.2983028913852905
  0.1936216393355892  0.1482274643567862  0.4380722891738671
  0.9976557671690642  0.2181259355953884  0.0619998767088248
  0.0351367056266696  0.4648680759625279  0.3726121349527105
  0.2238203171584772  0.3877081204885755  0.0055480724508286
  0.3767085188042429  0.0713437038558240  0.8118346905004330
  0.8329230388610611  0.3091543149099607  0.9344582658464162
  0.0239009325211015  0.2299306111130761  0.8046345970083308
  0.2010023779965735  0.1490017333460258  0.9412575162696726
  0.0219127369110552  0.2308561241155047  0.5677256294938999
  0.0383120715543157  0.4639847578681682  0.8700103857128383
  0.2251550963676863  0.3881639120667231  0.5007205253847502
  0.6937635027121232  0.1296446745575466  0.6193773821319510
  0.3519533769098260  0.5606886543047338  0.3058104809162714
  0.8317940838500562  0.8085107731267343  0.4328607469431134
  0.0206734834534217  0.7321156870609897  0.3045370789437811
  0.1870710457684552  0.6490719397208835  0.4375093905255127
  0.0201400251417638  0.7333053938887844  0.0670246599649076
  0.0457041866538930  0.9640964224663193  0.3700294577051721
  0.2365933213797788  0.8933727697239391  0.0048365741493797
  0.6872238291833597  0.6280666624082372  0.1181898846681477
  0.3655481431905585  0.5689650405265496  0.8092697910282638
  0.8324133131887734  0.8090432515175294  0.9330113960558180
  0.0206517748366721  0.7317015211243003  0.8040411727283399
  0.1888341803360802  0.6496693164924139  0.9380317965027842
  0.0197226619093414  0.7331929316956050  0.5668555249233265
  0.0495149886189807  0.9653485229246854  0.8721002747514532
  0.2361708783596228  0.8938783970112425  0.5052602142778113
  0.6870065155224552  0.6281221595041586  0.6178234526634228
  0.3829157096486355  0.0755156802344530  0.0674557649640235
  0.5282610512944856  0.4831063920677181  0.4320673443443042
  0.5300065035662413  0.4842520841391789  0.1930506478050660
  0.6864267831631210  0.4072031323623548  0.3111341929495453
  0.6841807866988390  0.4025737021569853  0.0635925018919608
  0.8562577077233371  0.3277378409653195  0.1855052812669271
  0.2037739136988748  0.1481346424823826  0.1854570087202774
  0.0463164591599394  0.4734889293062494  0.1213989778890507
  0.1742882075433698  0.3627350695058951  0.2355310416943581
  0.3920392755278641  0.3055000468538083  0.1285772038684243
  0.5596771040230735  0.2298030800340456  0.2454388791422772
  0.3901751998817460  0.3063557355584550  0.3731813245390256
  0.5558184495606397  0.2279157175556392  0.0088354970062525
  0.8888254045478376  0.0512450654394030  0.2464985447264212
  0.7305374699440819  0.1361240223450153  0.3741059826563671
  0.8874058530483779  0.0502510400355476  0.0008167869486115
  0.3613399503809305  0.0720146972788456  0.5650722976580909
  0.5297489512928948  0.4839535630430802  0.9344560046250905
  0.5326234888362720  0.4848862916038001  0.6908507199889300
  0.6896333307005875  0.4074674138649854  0.8110813044504326
  0.6857981157106821  0.4022239578565916  0.5635929035878036
  0.8548849002509016  0.3223602317265488  0.6842189935445404
  0.1980028729369465  0.1485914745080663  0.6864099680685740
  0.0472382382964938  0.4702541754279181  0.6230725856439960
  0.2290026626125936  0.3877161498340485  0.7484017150332249
  0.3956439732251908  0.3067175455346032  0.6287846313683687
  0.5581847079513409  0.2300486671546480  0.7484858022828647
  0.3943536587688357  0.3077469037421423  0.8739705250061647
  0.5526617478146534  0.2277487041963298  0.5052989125354301
  0.8899557198335657  0.0517358386724354  0.7485576921128114
  0.7310090740401023  0.1364200217808218  0.8763126289926433
  0.8862714196360457  0.0505980616924120  0.5006758981094208
  0.3536965112558832  0.5702379567651406  0.0625452773012753
  0.5400341694398136  0.9863037403415333  0.4341753462869704
  0.5553978220102280  0.9956853489627022  0.1905631368309386
  0.6926474883776166  0.9072595824066241  0.3104453320267808
  0.6911924804298266  0.9030709449086416  0.0644698070198473
  0.8531725788910833  0.8216562114267418  0.1834872695805174
  0.1938498650182510  0.6504710349694349  0.1846925870466478
  0.0557571036504640  0.9708423921298106  0.1226838370509284
  0.2367641296504246  0.8903739477200432  0.2484354062405316
  0.3994926277230348  0.8099482425243636  0.1295639761522622
  0.5514186534655892  0.7270959641647039  0.2471214610276462
  0.3951320426354314  0.8084209188473324  0.3736702038279063
  0.5486670600164132  0.7269857835072813  0.0044965839847393
  0.8811525187571689  0.5524539274767193  0.2463009429284995
  0.7184712186738906  0.6338015768958343  0.3733163783574724
  0.8795346335311578  0.5518904137412051  0.9998894574996768
  0.3530418697648940  0.5700098153207662  0.5638301419391922
  0.5535753925000577  0.9949515533810427  0.9454752325630906
  0.5426521378336489  0.9872586588246222  0.6944576074668660
  0.6932877032722899  0.9073581772857722  0.8120836387586507
  0.6892294538285171  0.9022400773357973  0.5640771183766802
  0.8529203047278671  0.8218704987321175  0.6836714791922986
  0.1934147467405367  0.6497514656342034  0.6855898320118996
  0.0517496951866789  0.9699892289400154  0.6233427027909073
  0.2364909238828261  0.8902168847759455  0.7506443204468880
  0.3969400585812579  0.8077487946868587  0.6290899744336613
  0.5535139821967903  0.7287113719497142  0.7467114146076597
  0.3972664154887866  0.8103296282895798  0.8747639686875814
  0.5465215398330017  0.7251257677826359  0.5024701029474983
  0.8826982976597009  0.5522008098072959  0.7467399956299872
  0.7235201357824650  0.6355239657308758  0.8740493651723256
  0.8794673338172814  0.5517621076722179  0.5008102401087768
  0.5837437085719372  0.1822849774394442  0.3694184951653980
  0.5311752794633904  0.1760027161691795  0.1114588982279869
  0.7282078048540654  0.0796782407163619  0.4791388712525944
  0.7442295481494909  0.0845604937828028  0.2509037792993638
  0.8804672355167682  0.0007175253826617  0.3616090310629332
  0.0431731361805348  0.4128168577927198  0.4950726892584711
  0.8746302295619017  0.4966568304493109  0.1087976783898910
  0.0618820325004066  0.4223348648246841  0.2270390618269715
  0.2271715666590168  0.3290148452051440  0.3567335776920260
  0.3957518545173215  0.2571985219417812  0.4888761956714376
  0.2264779604779434  0.3251657765554796  0.1146188158250183
  0.3888516773877058  0.2496008521729465  0.2392819781687407
  0.2480545331548356  0.0638699463989454  0.1627980521043426
  0.2604949542633648  0.0629396071105859  0.4287510007889068
  0.4230945744337973  0.4787287824210580  0.2976829536233083
  0.4470309178509382  0.9967175768861054  0.0561647056526127
  0.5785266416653627  0.4030679351086448  0.1731438993326506
  0.7462724367390265  0.3300476007526782  0.2904518260227817
  0.5823015611925939  0.4020032667385181  0.4245646035095092
  0.7351348913810796  0.3235461360588729  0.0585862042463603
  0.9538447548749573  0.2706056552854790  0.1879700843000833
  0.0860242750430302  0.1384715635033658  0.2845669335000451
  0.9123833185995451  0.2299870155811661  0.4246185642220439
  0.0816783925487172  0.1389436982179504  0.0560094927528780
  0.5842027506989282  0.1823365397732957  0.8658722949775424
  0.5321505506871986  0.1718053592366431  0.6111204565319852
  0.7423114025320103  0.0835728751110665  0.9762497396709833
  0.7318049646290561  0.0807461077443037  0.7435616955988209
  0.8808710792811141  0.0002446237125540  0.8586951613951541
  0.0431639706639899  0.4142186847367597  0.9941937566184862
  0.8771412138510328  0.4955376063920198  0.6101834899217806
  0.0592766478120268  0.4119531764737516  0.7243827652916650
  0.2347426314306418  0.3353914834886851  0.8552480586243760
  0.3983103806653219  0.2590914006063159  0.9866878623447377
  0.2367933745883803  0.3324514401857570  0.6213156499329813
  0.3872910331075587  0.2490384864128572  0.7371273543367849
  0.2419059068142531  0.0646923097551095  0.6638946461173063
  0.2655467404065277  0.0625852282502137  0.9295941105981740
  0.4236629356058970  0.4800383787362961  0.7972036488627836
  0.4510414088749570  0.0013642729766516  0.5588049275604945
  0.5806650037205330  0.4035673161327296  0.6738292653321949
  0.7450829762508349  0.3284208454869812  0.7889050226339407
  0.5837160883175088  0.4030879001046088  0.9228794806065892
  0.7338141206068300  0.3218534437664218  0.5594008891803171
  0.8921648439411172  0.2388316754010162  0.6725868083526834
  0.0835911993228322  0.1407315487176106  0.7872312319696846
  0.9131581718304247  0.2306168620151112  0.9188484029682940
  0.0767249987308318  0.1414081864731855  0.5567145532738493
  0.5709116982216997  0.6770529619568677  0.3645592169456222
  0.5265018360699898  0.6701680682443865  0.1087628007253869
  0.7187139236997027  0.5781641884514173  0.4768217725617845
  0.7210504698896543  0.5791246949396296  0.2430862125898727
  0.8719443112986269  0.5038600423157220  0.3603459930191235
  0.0451202203648791  0.9114446886666059  0.4934251660311801
  0.8841376521610655  0.9936292894663978  0.1101250716941138
  0.0601552669167802  0.9100282840551301  0.2230358594903166
  0.2361561517611790  0.8364211117893134  0.3556857222419936
  0.3923857858279121  0.7573964362239352  0.4870389757942206
  0.2369666029241131  0.8325169270307455  0.1206313175138689
  0.3852042535605094  0.7497986726338652  0.2365819803328364
  0.2365256192506706  0.5674606202748862  0.1605321655552601
  0.2512162156037405  0.5642355511446269  0.4302875483237543
  0.4335339360384367  0.9820999166796867  0.2969290497489112
  0.4408616113693427  0.4986675212982092  0.0565505111483233
  0.5861801332096022  0.9057598659231019  0.1740936763867751
  0.7403404440735173  0.8249430413572583  0.2873468328228768
  0.5865824208917658  0.9025186061937163  0.4239567259475976
  0.7315366619441903  0.8196994052256983  0.0576252839289211
  0.8867531104104103  0.7368925123906109  0.1709842114379541
  0.0759357615937049  0.6420702709462702  0.2840317501141740
  0.9055881880444616  0.7263855788732272  0.4194359923893458
  0.0706139266863843  0.6429403233622395  0.0551725526579929
  0.5760198477888281  0.6794897219724803  0.8655149514371274
  0.5258977813800527  0.6699658092964285  0.6094236693004973
  0.7181802947221527  0.5783699995938818  0.9753734800770744
  0.7220135274015931  0.5791125284058509  0.7435089516192477
  0.8746163379207204  0.5031969231202709  0.8600560998480447
  0.0441901366182975  0.9106109630468211  0.9928318332543142
  0.8815791788019283  0.9944268344639227  0.6103080939280119
  0.0597864040846048  0.9103596555153146  0.7233231561578677
  0.2338289911036497  0.8345619864968228  0.8542588205749340
  0.3936868641146916  0.7581715048789235  0.9873541893066431
  0.2381781835118701  0.8337415685447738  0.6207246596585634
  0.3849760149440655  0.7493939437583208  0.7371993404637394
  0.2360604045491712  0.5657878479397382  0.6639659208638236
  0.2532585144904971  0.5640279412575353  0.9269808897813832
  0.4334360847536729  0.9818627198871681  0.8005834308535142
  0.4413860693025455  0.4989447331419257  0.5571210476854276
  0.5836296649663879  0.9034336607746098  0.6737696280008834
  0.7404947300854232  0.8251671677357280  0.7870629725350398
  0.5890445191074036  0.9041761594868518  0.9250680639967968
  0.7303732708946740  0.8192354001225723  0.5570033767324460
  0.8865968569558547  0.7370880336102772  0.6705940846227989
  0.0760433671426384  0.6416876783969343  0.7848084647903093
  0.9075405945201283  0.7272952332599232  0.9196636523888415
  0.0712117076653129  0.6429923218908513  0.5565141826540909
 
  0.00000000E+00  0.00000000E+00  0.00000000E+00
  0.00000000E+00  0.00000000E+00  0.00000000E+00
  0.00000000E+00  0.00000000E+00  0.00000000E+00
  0.00000000E+00  0.00000000E+00  0.00000000E+00
  0.00000000E+00  0.00000000E+00  0.00000000E+00
  0.00000000E+00  0.00000000E+00  0.00000000E+00
  0.00000000E+00  0.00000000E+00  0.00000000E+00
  0.00000000E+00  0.00000000E+00  0.00000000E+00
  0.00000000E+00  0.00000000E+00  0.00000000E+00
  0.00000000E+00  0.00000000E+00  0.00000000E+00
  0.00000000E+00  0.00000000E+00  0.00000000E+00
  0.00000000E+00  0.00000000E+00  0.00000000E+00
  0.00000000E+00  0.00000000E+00  0.00000000E+00
  0.00000000E+00  0.00000000E+00  0.00000000E+00
  0.00000000E+00  0.00000000E+00  0.00000000E+00
  0.00000000E+00  0.00000000E+00  0.00000000E+00
  0.00000000E+00  0.00000000E+00  0.00000000E+00
  0.00000000E+00  0.00000000E+00  0.00000000E+00
  0.00000000E+00  0.00000000E+00  0.00000000E+00
  0.00000000E+00  0.00000000E+00  0.00000000E+00
  0.00000000E+00  0.00000000E+00  0.00000000E+00
  0.00000000E+00  0.00000000E+00  0.00000000E+00
  0.00000000E+00  0.00000000E+00  0.00000000E+00
  0.00000000E+00  0.00000000E+00  0.00000000E+00
  0.00000000E+00  0.00000000E+00  0.00000000E+00
  0.00000000E+00  0.00000000E+00  0.00000000E+00
  0.00000000E+00  0.00000000E+00  0.00000000E+00
  0.00000000E+00  0.00000000E+00  0.00000000E+00
  0.00000000E+00  0.00000000E+00  0.00000000E+00
  0.00000000E+00  0.00000000E+00  0.00000000E+00
  0.00000000E+00  0.00000000E+00  0.00000000E+00
  0.00000000E+00  0.00000000E+00  0.00000000E+00
  0.00000000E+00  0.00000000E+00  0.00000000E+00
  0.00000000E+00  0.00000000E+00  0.00000000E+00
  0.00000000E+00  0.00000000E+00  0.00000000E+00
  0.00000000E+00  0.00000000E+00  0.00000000E+00
  0.00000000E+00  0.00000000E+00  0.00000000E+00
  0.00000000E+00  0.00000000E+00  0.00000000E+00
  0.00000000E+00  0.00000000E+00  0.00000000E+00
  0.00000000E+00  0.00000000E+00  0.00000000E+00
  0.00000000E+00  0.00000000E+00  0.00000000E+00
  0.00000000E+00  0.00000000E+00  0.00000000E+00
  0.00000000E+00  0.00000000E+00  0.00000000E+00
  0.00000000E+00  0.00000000E+00  0.00000000E+00
  0.00000000E+00  0.00000000E+00  0.00000000E+00
  0.00000000E+00  0.00000000E+00  0.00000000E+00
  0.00000000E+00  0.00000000E+00  0.00000000E+00
  0.00000000E+00  0.00000000E+00  0.00000000E+00
  0.00000000E+00  0.00000000E+00  0.00000000E+00
  0.00000000E+00  0.00000000E+00  0.00000000E+00
  0.00000000E+00  0.00000000E+00  0.00000000E+00
  0.00000000E+00  0.00000000E+00  0.00000000E+00
  0.00000000E+00  0.00000000E+00  0.00000000E+00
  0.00000000E+00  0.00000000E+00  0.00000000E+00
  0.00000000E+00  0.00000000E+00  0.00000000E+00
  0.00000000E+00  0.00000000E+00  0.00000000E+00
  0.00000000E+00  0.00000000E+00  0.00000000E+00
  0.00000000E+00  0.00000000E+00  0.00000000E+00
  0.00000000E+00  0.00000000E+00  0.00000000E+00
  0.00000000E+00  0.00000000E+00  0.00000000E+00
  0.00000000E+00  0.00000000E+00  0.00000000E+00
  0.00000000E+00  0.00000000E+00  0.00000000E+00
  0.00000000E+00  0.00000000E+00  0.00000000E+00
  0.00000000E+00  0.00000000E+00  0.00000000E+00
  0.00000000E+00  0.00000000E+00  0.00000000E+00
  0.00000000E+00  0.00000000E+00  0.00000000E+00
  0.00000000E+00  0.00000000E+00  0.00000000E+00
  0.00000000E+00  0.00000000E+00  0.00000000E+00
  0.00000000E+00  0.00000000E+00  0.00000000E+00
  0.00000000E+00  0.00000000E+00  0.00000000E+00
  0.00000000E+00  0.00000000E+00  0.00000000E+00
  0.00000000E+00  0.00000000E+00  0.00000000E+00
  0.00000000E+00  0.00000000E+00  0.00000000E+00
  0.00000000E+00  0.00000000E+00  0.00000000E+00
  0.00000000E+00  0.00000000E+00  0.00000000E+00
  0.00000000E+00  0.00000000E+00  0.00000000E+00
  0.00000000E+00  0.00000000E+00  0.00000000E+00
  0.00000000E+00  0.00000000E+00  0.00000000E+00
  0.00000000E+00  0.00000000E+00  0.00000000E+00
  0.00000000E+00  0.00000000E+00  0.00000000E+00
  0.00000000E+00  0.00000000E+00  0.00000000E+00
  0.00000000E+00  0.00000000E+00  0.00000000E+00
  0.00000000E+00  0.00000000E+00  0.00000000E+00
  0.00000000E+00  0.00000000E+00  0.00000000E+00
  0.00000000E+00  0.00000000E+00  0.00000000E+00
  0.00000000E+00  0.00000000E+00  0.00000000E+00
  0.00000000E+00  0.00000000E+00  0.00000000E+00
  0.00000000E+00  0.00000000E+00  0.00000000E+00
  0.00000000E+00  0.00000000E+00  0.00000000E+00
  0.00000000E+00  0.00000000E+00  0.00000000E+00
  0.00000000E+00  0.00000000E+00  0.00000000E+00
  0.00000000E+00  0.00000000E+00  0.00000000E+00
  0.00000000E+00  0.00000000E+00  0.00000000E+00
  0.00000000E+00  0.00000000E+00  0.00000000E+00
  0.00000000E+00  0.00000000E+00  0.00000000E+00
  0.00000000E+00  0.00000000E+00  0.00000000E+00
  0.00000000E+00  0.00000000E+00  0.00000000E+00
  0.00000000E+00  0.00000000E+00  0.00000000E+00
  0.00000000E+00  0.00000000E+00  0.00000000E+00
  0.00000000E+00  0.00000000E+00  0.00000000E+00
  0.00000000E+00  0.00000000E+00  0.00000000E+00
  0.00000000E+00  0.00000000E+00  0.00000000E+00
  0.00000000E+00  0.00000000E+00  0.00000000E+00
  0.00000000E+00  0.00000000E+00  0.00000000E+00
  0.00000000E+00  0.00000000E+00  0.00000000E+00
  0.00000000E+00  0.00000000E+00  0.00000000E+00
  0.00000000E+00  0.00000000E+00  0.00000000E+00
  0.00000000E+00  0.00000000E+00  0.00000000E+00
  0.00000000E+00  0.00000000E+00  0.00000000E+00
  0.00000000E+00  0.00000000E+00  0.00000000E+00
  0.00000000E+00  0.00000000E+00  0.00000000E+00
  0.00000000E+00  0.00000000E+00  0.00000000E+00
  0.00000000E+00  0.00000000E+00  0.00000000E+00
  0.00000000E+00  0.00000000E+00  0.00000000E+00
  0.00000000E+00  0.00000000E+00  0.00000000E+00
  0.00000000E+00  0.00000000E+00  0.00000000E+00
  0.00000000E+00  0.00000000E+00  0.00000000E+00
  0.00000000E+00  0.00000000E+00  0.00000000E+00
  0.00000000E+00  0.00000000E+00  0.00000000E+00
  0.00000000E+00  0.00000000E+00  0.00000000E+00
  0.00000000E+00  0.00000000E+00  0.00000000E+00
  0.00000000E+00  0.00000000E+00  0.00000000E+00
  0.00000000E+00  0.00000000E+00  0.00000000E+00
  0.00000000E+00  0.00000000E+00  0.00000000E+00
  0.00000000E+00  0.00000000E+00  0.00000000E+00
  0.00000000E+00  0.00000000E+00  0.00000000E+00
  0.00000000E+00  0.00000000E+00  0.00000000E+00
  0.00000000E+00  0.00000000E+00  0.00000000E+00
  0.00000000E+00  0.00000000E+00  0.00000000E+00
  0.00000000E+00  0.00000000E+00  0.00000000E+00
  0.00000000E+00  0.00000000E+00  0.00000000E+00
  0.00000000E+00  0.00000000E+00  0.00000000E+00
  0.00000000E+00  0.00000000E+00  0.00000000E+00
  0.00000000E+00  0.00000000E+00  0.00000000E+00
  0.00000000E+00  0.00000000E+00  0.00000000E+00
  0.00000000E+00  0.00000000E+00  0.00000000E+00
  0.00000000E+00  0.00000000E+00  0.00000000E+00
  0.00000000E+00  0.00000000E+00  0.00000000E+00
  0.00000000E+00  0.00000000E+00  0.00000000E+00
  0.00000000E+00  0.00000000E+00  0.00000000E+00
  0.00000000E+00  0.00000000E+00  0.00000000E+00
  0.00000000E+00  0.00000000E+00  0.00000000E+00
  0.00000000E+00  0.00000000E+00  0.00000000E+00
  0.00000000E+00  0.00000000E+00  0.00000000E+00
  0.00000000E+00  0.00000000E+00  0.00000000E+00
  0.00000000E+00  0.00000000E+00  0.00000000E+00
  0.00000000E+00  0.00000000E+00  0.00000000E+00
  0.00000000E+00  0.00000000E+00  0.00000000E+00
  0.00000000E+00  0.00000000E+00  0.00000000E+00
  0.00000000E+00  0.00000000E+00  0.00000000E+00
  0.00000000E+00  0.00000000E+00  0.00000000E+00
  0.00000000E+00  0.00000000E+00  0.00000000E+00
  0.00000000E+00  0.00000000E+00  0.00000000E+00
  0.00000000E+00  0.00000000E+00  0.00000000E+00
  0.00000000E+00  0.00000000E+00  0.00000000E+00
  0.00000000E+00  0.00000000E+00  0.00000000E+00
  0.00000000E+00  0.00000000E+00  0.00000000E+00
  0.00000000E+00  0.00000000E+00  0.00000000E+00
  0.00000000E+00  0.00000000E+00  0.00000000E+00
  0.00000000E+00  0.00000000E+00  0.00000000E+00
  0.00000000E+00  0.00000000E+00  0.00000000E+00
  0.00000000E+00  0.00000000E+00  0.00000000E+00
  0.00000000E+00  0.00000000E+00  0.00000000E+00
  0.00000000E+00  0.00000000E+00  0.00000000E+00
  0.00000000E+00  0.00000000E+00  0.00000000E+00
  0.00000000E+00  0.00000000E+00  0.00000000E+00
  0.00000000E+00  0.00000000E+00  0.00000000E+00
  0.00000000E+00  0.00000000E+00  0.00000000E+00
  0.00000000E+00  0.00000000E+00  0.00000000E+00
  0.00000000E+00  0.00000000E+00  0.00000000E+00
  0.00000000E+00  0.00000000E+00  0.00000000E+00
  0.00000000E+00  0.00000000E+00  0.00000000E+00
  0.00000000E+00  0.00000000E+00  0.00000000E+00
  0.00000000E+00  0.00000000E+00  0.00000000E+00
  0.00000000E+00  0.00000000E+00  0.00000000E+00
  0.00000000E+00  0.00000000E+00  0.00000000E+00
  0.00000000E+00  0.00000000E+00  0.00000000E+00
  0.00000000E+00  0.00000000E+00  0.00000000E+00
  0.00000000E+00  0.00000000E+00  0.00000000E+00
  0.00000000E+00  0.00000000E+00  0.00000000E+00
  0.00000000E+00  0.00000000E+00  0.00000000E+00
  0.00000000E+00  0.00000000E+00  0.00000000E+00
  0.00000000E+00  0.00000000E+00  0.00000000E+00
  0.00000000E+00  0.00000000E+00  0.00000000E+00
  0.00000000E+00  0.00000000E+00  0.00000000E+00
  0.00000000E+00  0.00000000E+00  0.00000000E+00
  0.00000000E+00  0.00000000E+00  0.00000000E+00
  0.00000000E+00  0.00000000E+00  0.00000000E+00
  0.00000000E+00  0.00000000E+00  0.00000000E+00
  0.00000000E+00  0.00000000E+00  0.00000000E+00
  0.00000000E+00  0.00000000E+00  0.00000000E+00
