supercell of POSCAR                     
   1.03228000000000     
     6.3970863126299999    5.5387332920799999    4.9397337979799998
   -15.9736979067999982   -5.5365852353599996    9.8547656895600007
     6.4026568282999996  -11.0930079636999999    0.0094448205590600
   Sc   Al   N 
    31    64    96
Direct
  0.3729090108863531  0.0732333899298254  0.3125831643090962
  0.8326385372527056  0.3068910121430832  0.4336846258541485
  0.0305820395418763  0.2301109668907628  0.3086071636141270
  0.0248903148314312  0.2287880395333275  0.0696055991428892
  0.0369158691457159  0.4620101338503417  0.3696564532588837
  0.2288107959888492  0.3893168802815268  0.0033723479601449
  0.6971957725751281  0.1302739865522469  0.1211035255130781
  0.3760484950409761  0.0710749929423287  0.8100841634345599
  0.8362343523263220  0.3073033204409441  0.9342751390414747
  0.0265533089438179  0.2279770070785290  0.8022104391185465
  0.2006079042023217  0.1491440915638336  0.9392173533788721
  0.0288642516381472  0.2301411792104417  0.5647856095131445
  0.0365385741375448  0.4619741540256115  0.8694087214250814
  0.2316755879890167  0.3912538712974509  0.5044861222160577
  0.6971317946792084  0.1300251050120949  0.6190826401433043
  0.3630245729661539  0.5677434788038269  0.3087913485308960
  0.8328959866769665  0.8117001776665305  0.4320837086561369
  0.0201833605201784  0.7327465828628092  0.3049385818119106
  0.1841137075439363  0.6469215306844376  0.4370021173296621
  0.0179659587129066  0.7327149479205630  0.0673367787024759
  0.0539516260492192  0.9765053986633632  0.3752304880363866
  0.2315087262908122  0.8925622311878101  0.0041076118245726
  0.6883364488459591  0.6296738506438615  0.1187602862699535
  0.3624657052968416  0.5676128101842792  0.8087564810588574
  0.8305071189722071  0.8089996439386127  0.9336870002764783
  0.0176933036184295  0.7302874578555461  0.8032160243378712
  0.1836691425580312  0.6468236185856640  0.9365262986319323
  0.0183035632123634  0.7327579109205544  0.5656418844865811
  0.0437582780968384  0.9646178158180660  0.8699963864811409
  0.2329544079656500  0.8969992608242947  0.5040944482679848
  0.6866354461947921  0.6278922805112472  0.6174963919842966
  0.3614218325161218  0.0713186427394348  0.0649636063246035
  0.5331992889305255  0.4841316626835734  0.4330540158062206
  0.5357626260965134  0.4857923032216647  0.1914219341014487
  0.6922364652848003  0.4079813538443418  0.3108064694742012
  0.6887439289701476  0.4022939893542699  0.0641626060620553
  0.8580906738420850  0.3221796343318886  0.1846054886918651
  0.1957443932721787  0.1481149904473327  0.1861415884555626
  0.0481273289504998  0.4701452416763701  0.1226197144382866
  0.2313995181495869  0.3875971612241784  0.2485531597143336
  0.3991708161321341  0.3073655600739684  0.1300512614318805
  0.5592260878978621  0.2303934611824516  0.2483632330170948
  0.3968458814984928  0.3071423046897195  0.3754028662535305
  0.5564292918460509  0.2283258781073059  0.0065790629246649
  0.8906879163242536  0.0547710532751324  0.2498172217042480
  0.7297683756390754  0.1368296698889750  0.3751227963098245
  0.8867212467138756  0.0501420065157632  0.0006473894950076
  0.3634871808635012  0.0748302584425105  0.5652105551845210
  0.5336065426484922  0.4846568669729123  0.9352555442854324
  0.5357244776044041  0.4853771470647459  0.6930998694773933
  0.6925443682666952  0.4078356941143610  0.8123887458597707
  0.6729931961700970  0.3944434442624356  0.5603448197645662
  0.8588172126550475  0.3214873147524244  0.6840359306751651
  0.1973977578028681  0.1484018906804252  0.6828863188426553
  0.0438284351735589  0.4686651260209160  0.6214987733834789
  0.2313158384361813  0.3875396936770912  0.7485146974086661
  0.3976611116729671  0.3064333112852893  0.6271948612443552
  0.5614855781694459  0.2312597948117912  0.7486238343383960
  0.3980456041881553  0.3079488519793685  0.8737470723476193
  0.5485229405453040  0.2277640518466626  0.5057949119004093
  0.8896929926603292  0.0513582131183483  0.7473985747047749
  0.7352478476724613  0.1370029160190711  0.8765921820009055
  0.8887077240388308  0.0540310729293481  0.4996759644980386
  0.3530918832860621  0.5698874191014696  0.0630330523601756
  0.5351978991843183  0.9858628635811684  0.4345565986026259
  0.5375584750230118  0.9861202914127816  0.1929843072737185
  0.6886654878003071  0.9067607991996525  0.3106018800828423
  0.6865973971195771  0.9021729978135156  0.0642629769810199
  0.8519644383489933  0.8239359645150088  0.1859173934891487
  0.1921791374847786  0.6494346887340043  0.1851683119526868
  0.0494246311495559  0.9710053586464014  0.1235503026890541
  0.2290864716448198  0.8908536387426622  0.2498970613664113
  0.3921710685465385  0.8070375972186241  0.1284501946986367
  0.5499043948329074  0.7280035783070176  0.2466138061493481
  0.3910833318064206  0.8079820856556239  0.3738351005177094
  0.5458218253788800  0.7263184736412498  0.0043070482131995
  0.8836742756953484  0.5526582294921525  0.2467604607310747
  0.7229814338322811  0.6361160836687745  0.3741540167178314
  0.8815007385831990  0.5515526907603103  0.0010884596004885
  0.3532686351963008  0.5700711791813049  0.5632979103928974
  0.5376047321688873  0.9854315889768657  0.9355586702928562
  0.5410860763780221  0.9865255847912593  0.6926820730694487
  0.6891708610866800  0.9056334526487220  0.8103429025004232
  0.6870762323798019  0.9023430392410674  0.5633387409108792
  0.8511010070269052  0.8215538384532550  0.6824135225995462
  0.1911613654018112  0.6484908280793604  0.6843229343647081
  0.0499570480873075  0.9714499707756090  0.6222702441106733
  0.2307448964182441  0.8887598153608423  0.7477202143867672
  0.3930165707388582  0.8072043704385408  0.6273797911806085
  0.5514388860879293  0.7280127263336169  0.7463302980937172
  0.3913168338781219  0.8071568781048981  0.8730166547650597
  0.5462925770544373  0.7261179352139280  0.5031592978992876
  0.8804945344568438  0.5501386910923074  0.7447751501222513
  0.7233257623659526  0.6355322971156312  0.8745072653192238
  0.8782554342023516  0.5495796468519671  0.5006271511509723
  0.5855967491197234  0.1835781195480877  0.3669400124202014
  0.5336737461913970  0.1715038045191761  0.1106768444196788
  0.7217182383523451  0.0787794365574683  0.4752098911366147
  0.7238517074730453  0.0792877295029299  0.2443227036143867
  0.8685409018171129  0.0007308535580322  0.3582939115277739
  0.0454821984255247  0.4126951590529444  0.4938956555938319
  0.8790614857220476  0.4957176412174817  0.1103912440261539
  0.0624454811221256  0.4125433159049265  0.2239235383091724
  0.2406200757745083  0.3376137070166507  0.3566240997816266
  0.4254965985662977  0.2737600720079882  0.4958759030413802
  0.2386204098357823  0.3320904133293965  0.1209454734561248
  0.3893204438840812  0.2494636447760001  0.2363359915569987
  0.2402287115426134  0.0643654492951455  0.1613573933483465
  0.2722431731855366  0.0599176739748515  0.4292395754054183
  0.4255679886195480  0.4806209276075393  0.2963870738517116
  0.4480948380255754  0.9996600511679432  0.0567518193536500
  0.5836919846594100  0.4044894466597526  0.1734134864955337
  0.7482220139525566  0.3290816501795106  0.2885873462734949
  0.5881526688076590  0.4047963025826036  0.4205822562700163
  0.7377608045689286  0.3221432685749832  0.0591496457223215
  0.8948616408821550  0.2390440649008099  0.1730968773016954
  0.0729796714437896  0.1416383836092052  0.2743540103815079
  0.9123515738866885  0.2284052035296327  0.4210658618968921
  0.0786644353706336  0.1395380439027250  0.0510190900545169
  0.5879021312252135  0.1823141590691435  0.8688619670302486
  0.5379561062363081  0.1731620409359920  0.6138499585225361
  0.7274156621310865  0.0791192282064372  0.9776411086011265
  0.7316714463627108  0.0804669344847895  0.7460922272920385
  0.8745568766621474  0.9996764796735675  0.8592018579570606
  0.0456314510072033  0.4126797316120729  0.9945410341277920
  0.8727949431781354  0.4926985097341117  0.6086030829552556
  0.0631682287802136  0.4126537756413740  0.7250117480639062
  0.2375797056476827  0.3348078136408859  0.8555987133061294
  0.4013025555822551  0.2592696707162645  0.9888985939023627
  0.2419784134474057  0.3346749933611477  0.6221331249178803
  0.3907338747001603  0.2495396442771778  0.7388432581147200
  0.2433596856676843  0.0648165620679890  0.6647690720894062
  0.2618145915192329  0.0618309291374572  0.9274286669977272
  0.4260615448541998  0.4808345371296596  0.7991966669530868
  0.4532302291685895  0.0012184464612304  0.5613865479296152
  0.5848957260375371  0.4054776181289625  0.6787895078349564
  0.7508695676543837  0.3293625344646500  0.7913300238292393
  0.5873230113714456  0.4035417571827224  0.9251438559774527
  0.7406149970368645  0.3208611616484873  0.5603384216752545
  0.8969052534371045  0.2388002463113139  0.6731435603803675
  0.0853156183705437  0.1388058332069448  0.7887557069158859
  0.9204365975299993  0.2291457966260282  0.9226689011793425
  0.0689267651332344  0.1416085420206485  0.5642269485438192
  0.5723032887526216  0.6780442442297812  0.3647878380222593
  0.5242173016431408  0.6695872606535715  0.1089538940140713
  0.7204800616990923  0.5790697029591527  0.4756734965575973
  0.7236733371565833  0.5800907913787583  0.2435816639681505
  0.8780932492209246  0.5041107887422882  0.3600497347138756
  0.0413651235153765  0.9141589289902896  0.4916223926790835
  0.8770950019811323  0.9935188022231500  0.1086814129453515
  0.0552357322685921  0.9123579213527506  0.2253581836755316
  0.2324883788305527  0.8363595630370497  0.3560117961722469
  0.3885804013447469  0.7557315640072062  0.4861675014508364
  0.2331016008137965  0.8331402649975885  0.1207004956551216
  0.3806902188187209  0.7483336291367735  0.2363041431387600
  0.2357923610643340  0.5656148243537871  0.1627119597506379
  0.2518866131478958  0.5624525732094128  0.4276393305407993
  0.4259516513916566  0.9800276598057991  0.2966002676106712
  0.4434400206385902  0.4993185950088659  0.0570467462831772
  0.5778088469351061  0.9019694534058615  0.1719926727943744
  0.7336284134951612  0.8238774945955072  0.2860135313661587
  0.5814291745847981  0.9013436480713040  0.4236058890049534
  0.7284296085233848  0.8194062722275106  0.0575309730334794
  0.8863077539400450  0.7385667371891813  0.1716389689586322
  0.0756897360291617  0.6424466586420721  0.2845151358119722
  0.9057757431174807  0.7286318849992739  0.4196021961882934
  0.0707731287048006  0.6428353689462298  0.0563569778581083
  0.5739175218574886  0.6787069593841366  0.8655247517705433
  0.5252694464352814  0.6699218529230890  0.6088930284384091
  0.7212887770515479  0.5791280893271704  0.9772872713586196
  0.7240029191827233  0.5802136503225555  0.7443547249565086
  0.8778416526686783  0.5040239405644229  0.8616751630685471
  0.0426651334802983  0.9117875512937772  0.9930225418779273
  0.8778113936535235  0.9936986848742748  0.6102178350408849
  0.0569679710671593  0.9103359357802674  0.7223290277115382
  0.2314814844349229  0.8345855088122889  0.8540803497933425
  0.3879771995435277  0.7557622348421376  0.9860992707975598
  0.2346927364573048  0.8337120660591850  0.6183115104182093
  0.3819182955232421  0.7482661907322452  0.7358019883161404
  0.2347497196655439  0.5648503721286460  0.6623465394163333
  0.2514422430273555  0.5624089756239030  0.9276693064368828
  0.4285488087383271  0.9799274345775260  0.7979803688650406
  0.4460994440331874  0.5006090758307593  0.5579657486610188
  0.5804811581078155  0.9021694589513558  0.6733776019455036
  0.7391849377829871  0.8245949181050065  0.7869695214587438
  0.5826015208360715  0.9011107675398051  0.9230229159171444
  0.7286962909022421  0.8193116024342402  0.5563811003510537
  0.8859908724793542  0.7370629516519216  0.6701646352258521
  0.0742155835108278  0.6405390930458168  0.7834974808419517
  0.9071273595785598  0.7278407081158704  0.9202053652549225
  0.0689903355022636  0.6419805271432395  0.5557480548652336
 
  0.00000000E+00  0.00000000E+00  0.00000000E+00
  0.00000000E+00  0.00000000E+00  0.00000000E+00
  0.00000000E+00  0.00000000E+00  0.00000000E+00
  0.00000000E+00  0.00000000E+00  0.00000000E+00
  0.00000000E+00  0.00000000E+00  0.00000000E+00
  0.00000000E+00  0.00000000E+00  0.00000000E+00
  0.00000000E+00  0.00000000E+00  0.00000000E+00
  0.00000000E+00  0.00000000E+00  0.00000000E+00
  0.00000000E+00  0.00000000E+00  0.00000000E+00
  0.00000000E+00  0.00000000E+00  0.00000000E+00
  0.00000000E+00  0.00000000E+00  0.00000000E+00
  0.00000000E+00  0.00000000E+00  0.00000000E+00
  0.00000000E+00  0.00000000E+00  0.00000000E+00
  0.00000000E+00  0.00000000E+00  0.00000000E+00
  0.00000000E+00  0.00000000E+00  0.00000000E+00
  0.00000000E+00  0.00000000E+00  0.00000000E+00
  0.00000000E+00  0.00000000E+00  0.00000000E+00
  0.00000000E+00  0.00000000E+00  0.00000000E+00
  0.00000000E+00  0.00000000E+00  0.00000000E+00
  0.00000000E+00  0.00000000E+00  0.00000000E+00
  0.00000000E+00  0.00000000E+00  0.00000000E+00
  0.00000000E+00  0.00000000E+00  0.00000000E+00
  0.00000000E+00  0.00000000E+00  0.00000000E+00
  0.00000000E+00  0.00000000E+00  0.00000000E+00
  0.00000000E+00  0.00000000E+00  0.00000000E+00
  0.00000000E+00  0.00000000E+00  0.00000000E+00
  0.00000000E+00  0.00000000E+00  0.00000000E+00
  0.00000000E+00  0.00000000E+00  0.00000000E+00
  0.00000000E+00  0.00000000E+00  0.00000000E+00
  0.00000000E+00  0.00000000E+00  0.00000000E+00
  0.00000000E+00  0.00000000E+00  0.00000000E+00
  0.00000000E+00  0.00000000E+00  0.00000000E+00
  0.00000000E+00  0.00000000E+00  0.00000000E+00
  0.00000000E+00  0.00000000E+00  0.00000000E+00
  0.00000000E+00  0.00000000E+00  0.00000000E+00
  0.00000000E+00  0.00000000E+00  0.00000000E+00
  0.00000000E+00  0.00000000E+00  0.00000000E+00
  0.00000000E+00  0.00000000E+00  0.00000000E+00
  0.00000000E+00  0.00000000E+00  0.00000000E+00
  0.00000000E+00  0.00000000E+00  0.00000000E+00
  0.00000000E+00  0.00000000E+00  0.00000000E+00
  0.00000000E+00  0.00000000E+00  0.00000000E+00
  0.00000000E+00  0.00000000E+00  0.00000000E+00
  0.00000000E+00  0.00000000E+00  0.00000000E+00
  0.00000000E+00  0.00000000E+00  0.00000000E+00
  0.00000000E+00  0.00000000E+00  0.00000000E+00
  0.00000000E+00  0.00000000E+00  0.00000000E+00
  0.00000000E+00  0.00000000E+00  0.00000000E+00
  0.00000000E+00  0.00000000E+00  0.00000000E+00
  0.00000000E+00  0.00000000E+00  0.00000000E+00
  0.00000000E+00  0.00000000E+00  0.00000000E+00
  0.00000000E+00  0.00000000E+00  0.00000000E+00
  0.00000000E+00  0.00000000E+00  0.00000000E+00
  0.00000000E+00  0.00000000E+00  0.00000000E+00
  0.00000000E+00  0.00000000E+00  0.00000000E+00
  0.00000000E+00  0.00000000E+00  0.00000000E+00
  0.00000000E+00  0.00000000E+00  0.00000000E+00
  0.00000000E+00  0.00000000E+00  0.00000000E+00
  0.00000000E+00  0.00000000E+00  0.00000000E+00
  0.00000000E+00  0.00000000E+00  0.00000000E+00
  0.00000000E+00  0.00000000E+00  0.00000000E+00
  0.00000000E+00  0.00000000E+00  0.00000000E+00
  0.00000000E+00  0.00000000E+00  0.00000000E+00
  0.00000000E+00  0.00000000E+00  0.00000000E+00
  0.00000000E+00  0.00000000E+00  0.00000000E+00
  0.00000000E+00  0.00000000E+00  0.00000000E+00
  0.00000000E+00  0.00000000E+00  0.00000000E+00
  0.00000000E+00  0.00000000E+00  0.00000000E+00
  0.00000000E+00  0.00000000E+00  0.00000000E+00
  0.00000000E+00  0.00000000E+00  0.00000000E+00
  0.00000000E+00  0.00000000E+00  0.00000000E+00
  0.00000000E+00  0.00000000E+00  0.00000000E+00
  0.00000000E+00  0.00000000E+00  0.00000000E+00
  0.00000000E+00  0.00000000E+00  0.00000000E+00
  0.00000000E+00  0.00000000E+00  0.00000000E+00
  0.00000000E+00  0.00000000E+00  0.00000000E+00
  0.00000000E+00  0.00000000E+00  0.00000000E+00
  0.00000000E+00  0.00000000E+00  0.00000000E+00
  0.00000000E+00  0.00000000E+00  0.00000000E+00
  0.00000000E+00  0.00000000E+00  0.00000000E+00
  0.00000000E+00  0.00000000E+00  0.00000000E+00
  0.00000000E+00  0.00000000E+00  0.00000000E+00
  0.00000000E+00  0.00000000E+00  0.00000000E+00
  0.00000000E+00  0.00000000E+00  0.00000000E+00
  0.00000000E+00  0.00000000E+00  0.00000000E+00
  0.00000000E+00  0.00000000E+00  0.00000000E+00
  0.00000000E+00  0.00000000E+00  0.00000000E+00
  0.00000000E+00  0.00000000E+00  0.00000000E+00
  0.00000000E+00  0.00000000E+00  0.00000000E+00
  0.00000000E+00  0.00000000E+00  0.00000000E+00
  0.00000000E+00  0.00000000E+00  0.00000000E+00
  0.00000000E+00  0.00000000E+00  0.00000000E+00
  0.00000000E+00  0.00000000E+00  0.00000000E+00
  0.00000000E+00  0.00000000E+00  0.00000000E+00
  0.00000000E+00  0.00000000E+00  0.00000000E+00
  0.00000000E+00  0.00000000E+00  0.00000000E+00
  0.00000000E+00  0.00000000E+00  0.00000000E+00
  0.00000000E+00  0.00000000E+00  0.00000000E+00
  0.00000000E+00  0.00000000E+00  0.00000000E+00
  0.00000000E+00  0.00000000E+00  0.00000000E+00
  0.00000000E+00  0.00000000E+00  0.00000000E+00
  0.00000000E+00  0.00000000E+00  0.00000000E+00
  0.00000000E+00  0.00000000E+00  0.00000000E+00
  0.00000000E+00  0.00000000E+00  0.00000000E+00
  0.00000000E+00  0.00000000E+00  0.00000000E+00
  0.00000000E+00  0.00000000E+00  0.00000000E+00
  0.00000000E+00  0.00000000E+00  0.00000000E+00
  0.00000000E+00  0.00000000E+00  0.00000000E+00
  0.00000000E+00  0.00000000E+00  0.00000000E+00
  0.00000000E+00  0.00000000E+00  0.00000000E+00
  0.00000000E+00  0.00000000E+00  0.00000000E+00
  0.00000000E+00  0.00000000E+00  0.00000000E+00
  0.00000000E+00  0.00000000E+00  0.00000000E+00
  0.00000000E+00  0.00000000E+00  0.00000000E+00
  0.00000000E+00  0.00000000E+00  0.00000000E+00
  0.00000000E+00  0.00000000E+00  0.00000000E+00
  0.00000000E+00  0.00000000E+00  0.00000000E+00
  0.00000000E+00  0.00000000E+00  0.00000000E+00
  0.00000000E+00  0.00000000E+00  0.00000000E+00
  0.00000000E+00  0.00000000E+00  0.00000000E+00
  0.00000000E+00  0.00000000E+00  0.00000000E+00
  0.00000000E+00  0.00000000E+00  0.00000000E+00
  0.00000000E+00  0.00000000E+00  0.00000000E+00
  0.00000000E+00  0.00000000E+00  0.00000000E+00
  0.00000000E+00  0.00000000E+00  0.00000000E+00
  0.00000000E+00  0.00000000E+00  0.00000000E+00
  0.00000000E+00  0.00000000E+00  0.00000000E+00
  0.00000000E+00  0.00000000E+00  0.00000000E+00
  0.00000000E+00  0.00000000E+00  0.00000000E+00
  0.00000000E+00  0.00000000E+00  0.00000000E+00
  0.00000000E+00  0.00000000E+00  0.00000000E+00
  0.00000000E+00  0.00000000E+00  0.00000000E+00
  0.00000000E+00  0.00000000E+00  0.00000000E+00
  0.00000000E+00  0.00000000E+00  0.00000000E+00
  0.00000000E+00  0.00000000E+00  0.00000000E+00
  0.00000000E+00  0.00000000E+00  0.00000000E+00
  0.00000000E+00  0.00000000E+00  0.00000000E+00
  0.00000000E+00  0.00000000E+00  0.00000000E+00
  0.00000000E+00  0.00000000E+00  0.00000000E+00
  0.00000000E+00  0.00000000E+00  0.00000000E+00
  0.00000000E+00  0.00000000E+00  0.00000000E+00
  0.00000000E+00  0.00000000E+00  0.00000000E+00
  0.00000000E+00  0.00000000E+00  0.00000000E+00
  0.00000000E+00  0.00000000E+00  0.00000000E+00
  0.00000000E+00  0.00000000E+00  0.00000000E+00
  0.00000000E+00  0.00000000E+00  0.00000000E+00
  0.00000000E+00  0.00000000E+00  0.00000000E+00
  0.00000000E+00  0.00000000E+00  0.00000000E+00
  0.00000000E+00  0.00000000E+00  0.00000000E+00
  0.00000000E+00  0.00000000E+00  0.00000000E+00
  0.00000000E+00  0.00000000E+00  0.00000000E+00
  0.00000000E+00  0.00000000E+00  0.00000000E+00
  0.00000000E+00  0.00000000E+00  0.00000000E+00
  0.00000000E+00  0.00000000E+00  0.00000000E+00
  0.00000000E+00  0.00000000E+00  0.00000000E+00
  0.00000000E+00  0.00000000E+00  0.00000000E+00
  0.00000000E+00  0.00000000E+00  0.00000000E+00
  0.00000000E+00  0.00000000E+00  0.00000000E+00
  0.00000000E+00  0.00000000E+00  0.00000000E+00
  0.00000000E+00  0.00000000E+00  0.00000000E+00
  0.00000000E+00  0.00000000E+00  0.00000000E+00
  0.00000000E+00  0.00000000E+00  0.00000000E+00
  0.00000000E+00  0.00000000E+00  0.00000000E+00
  0.00000000E+00  0.00000000E+00  0.00000000E+00
  0.00000000E+00  0.00000000E+00  0.00000000E+00
  0.00000000E+00  0.00000000E+00  0.00000000E+00
  0.00000000E+00  0.00000000E+00  0.00000000E+00
  0.00000000E+00  0.00000000E+00  0.00000000E+00
  0.00000000E+00  0.00000000E+00  0.00000000E+00
  0.00000000E+00  0.00000000E+00  0.00000000E+00
  0.00000000E+00  0.00000000E+00  0.00000000E+00
  0.00000000E+00  0.00000000E+00  0.00000000E+00
  0.00000000E+00  0.00000000E+00  0.00000000E+00
  0.00000000E+00  0.00000000E+00  0.00000000E+00
  0.00000000E+00  0.00000000E+00  0.00000000E+00
  0.00000000E+00  0.00000000E+00  0.00000000E+00
  0.00000000E+00  0.00000000E+00  0.00000000E+00
  0.00000000E+00  0.00000000E+00  0.00000000E+00
  0.00000000E+00  0.00000000E+00  0.00000000E+00
  0.00000000E+00  0.00000000E+00  0.00000000E+00
  0.00000000E+00  0.00000000E+00  0.00000000E+00
  0.00000000E+00  0.00000000E+00  0.00000000E+00
  0.00000000E+00  0.00000000E+00  0.00000000E+00
  0.00000000E+00  0.00000000E+00  0.00000000E+00
  0.00000000E+00  0.00000000E+00  0.00000000E+00
  0.00000000E+00  0.00000000E+00  0.00000000E+00
  0.00000000E+00  0.00000000E+00  0.00000000E+00
  0.00000000E+00  0.00000000E+00  0.00000000E+00
  0.00000000E+00  0.00000000E+00  0.00000000E+00
  0.00000000E+00  0.00000000E+00  0.00000000E+00
  0.00000000E+00  0.00000000E+00  0.00000000E+00
