supercell of POSCAR                     
   1.03228000000000     
     6.3970863126299999    5.5387332920799999    4.9397337979799998
   -15.9736979067999982   -5.5365852353599996    9.8547656895600007
     6.4026568282999996  -11.0930079636999999    0.0094448205590600
   Sc   Al   N 
    31    64    96
Direct
  0.3750838277990312  0.0726794330472558  0.3113112075461615
  0.8366223803101036  0.3064396076016678  0.4307338188981120
  0.1915105734784746  0.1527476733775330  0.4356927919242324
  0.0277748626236018  0.2317213026348099  0.0819365418195304
  0.0392199449777166  0.4630668629863095  0.3695382836217931
  0.2309570241163783  0.3903231163000882  0.0053920827184228
  0.7037935668218580  0.1342349195891401  0.1255700743071770
  0.3761373091627576  0.0716204638604552  0.8116351054725541
  0.8376725691211320  0.3065150070359053  0.9371542614626094
  0.0273750575975527  0.2305103362577299  0.8074394807902863
  0.1951984176334207  0.1494062162828982  0.9404848107349864
  0.0220647059578170  0.2304732747627511  0.5675796353672808
  0.0380105661381407  0.4618047622958841  0.8691997231867745
  0.2185157800335915  0.3835201467493690  0.4993298974483054
  0.6952529520008142  0.1299747617564151  0.6201431647706954
  0.3642212721278213  0.5704481858129924  0.3088045211849675
  0.8298229225347669  0.8084540718559552  0.4320847520322886
  0.0162776016438002  0.7300288141344780  0.3037323535014451
  0.1834573244268825  0.6467751061365661  0.4377918910535072
  0.0177641239515012  0.7320105020401400  0.0662218463946687
  0.0451509617400774  0.9683842930379285  0.3704212403302733
  0.2289292473017781  0.8915442464240613  0.0034566592894834
  0.6884690583560698  0.6293248406407699  0.1171119183203828
  0.3649264499561582  0.5676003090839714  0.8082621486265964
  0.8293296907172234  0.8086473553601508  0.9327278721474102
  0.0161233129835026  0.7299436051464738  0.8021501566769231
  0.1859206392182529  0.6471244002857404  0.9364925619652738
  0.0165092017768274  0.7317027427413123  0.5660936671363004
  0.0423419869125397  0.9645338456160459  0.8697807901509620
  0.2317245688652037  0.8933948891168839  0.5037585446622614
  0.6816425711271350  0.6242274539662702  0.6141701433915685
  0.3622743436700446  0.0709967600747632  0.0638120685352490
  0.5064934569120112  0.4711952888247666  0.4277234258217675
  0.5392842968382823  0.4877456673921330  0.1905530211988591
  0.6957052104278745  0.4084926319423730  0.3116162468538732
  0.6893764133696791  0.4034852944855345  0.0639692227262287
  0.8579233248706117  0.3232592956171629  0.1834645687336689
  0.1975391274823650  0.1478398307555580  0.1871065412879318
  0.0496691292670661  0.4708878612328036  0.1222320985356689
  0.2365833809789777  0.3920049179009908  0.2494963023518864
  0.3999627469295177  0.3086242549972980  0.1311817938739992
  0.5606696140626823  0.2311088589420365  0.2472966102714764
  0.4020038892620192  0.3097962507481071  0.3742665730653769
  0.5563237521427311  0.2287811857285575  0.0077789026042154
  0.8907367337015302  0.0556258094543622  0.2487696731529638
  0.7470294653452569  0.1410039729435084  0.3753159476998960
  0.8850291795313439  0.0506241508984075  0.0018127285504050
  0.3611957828891619  0.0731123006392522  0.5650261269955124
  0.5344950028247482  0.4848205435080075  0.9343943837110089
  0.5332787254050118  0.4842120872832680  0.6908545534097854
  0.6931805695794040  0.4073035946335892  0.8118976405166336
  0.6915464828544913  0.4014972138815978  0.5639027176624012
  0.8577883590155579  0.3214765015269379  0.6843450987694126
  0.1978103949066110  0.1483626467308810  0.6855969097157271
  0.0480900133029749  0.4697781740757918  0.6221719659364524
  0.2326702850969369  0.3873607569606676  0.7488844245423465
  0.3997462227771535  0.3073270201284188  0.6295088895765275
  0.5625781778328260  0.2308699873804159  0.7495543653116030
  0.3980733917470403  0.3080974297024852  0.8748494200389985
  0.5553434987561872  0.2283766546237374  0.5051048782162511
  0.8871102243235569  0.0516249126503467  0.7479467697504489
  0.7374514870012092  0.1374103769875177  0.8802120355116756
  0.8850273640934603  0.0511269198244761  0.5006646256221146
  0.3548208605356038  0.5703614794803826  0.0623768383486478
  0.5377332438996874  0.9866360987336051  0.4345253586060380
  0.5368382110976739  0.9860179674986611  0.1926325121921195
  0.6888914289650216  0.9067632098414435  0.3105091606222103
  0.6861719669171933  0.9022162678560619  0.0641053304125023
  0.8514764485357560  0.8226394329510498  0.1837083507247144
  0.1937509429572017  0.6497652022035822  0.1844095398196473
  0.0500045125331994  0.9714410723582461  0.1231849856750173
  0.2285416479913778  0.8887050118281579  0.2487512481676362
  0.3928990732544406  0.8068699999355644  0.1280969773386786
  0.5521349948398679  0.7287329193062462  0.2464885178746670
  0.3906596508677183  0.8073256827367814  0.3734334010444229
  0.5463542476056205  0.7263668792590039  0.0036570129257001
  0.8860578508307242  0.5528059934570777  0.2459879900280129
  0.7193443093313689  0.6323838721583641  0.3739124504949771
  0.8826442312290865  0.5515899116173983  0.0003597651989367
  0.3519001454170336  0.5685000300054099  0.5636914180910111
  0.5363963445204263  0.9854623196688834  0.9369358774559302
  0.5386210466072825  0.9865570675892172  0.6932664280470959
  0.6885358865213718  0.9060764522611251  0.8107728822863010
  0.6862417204293862  0.9020782904482729  0.5635890493551940
  0.8494383278539175  0.8204964983059142  0.6823824059645887
  0.1905042981122378  0.6483744824852593  0.6844288437423245
  0.0494984110757244  0.9700665312253705  0.6224292485513345
  0.2296231653175838  0.8883656805735427  0.7481268785547996
  0.3929360673841060  0.8067989610910118  0.6278538679565813
  0.5510096601067715  0.7275438951732340  0.7454736987498833
  0.3907452191449963  0.8070018238068712  0.8726799877543883
  0.5456953011135397  0.7259050313203446  0.5036795850703086
  0.8831514855331690  0.5514861860236948  0.7464459924852989
  0.7240411597141261  0.6352745792118313  0.8732079595783659
  0.8745272207884369  0.5489887885661773  0.4991333555906508
  0.5853093659744317  0.1830665919925210  0.3663369528011771
  0.5308127875751296  0.1708468787947339  0.1100484038579594
  0.7265381656541408  0.0799749134124070  0.4773057364292583
  0.7232946877872948  0.0771495917867213  0.2450815988653972
  0.8726344646955653  0.0007953937899146  0.3602689478337737
  0.0440462244009581  0.4139709092128854  0.4936648394911032
  0.8802583973097882  0.4963696960013593  0.1094543910618171
  0.0641170783199030  0.4144187361124523  0.2238035338381010
  0.2923245032085831  0.3634402423489789  0.3687720271977923
  0.4009551862346257  0.2597782138836209  0.4887804164538139
  0.2419034206163317  0.3344834680439135  0.1235279646162510
  0.3892790618234372  0.2495940116828237  0.2369799804503998
  0.2435354616774461  0.0634662945044155  0.1616770117791546
  0.2619549681620867  0.0661242712844512  0.4301174898101223
  0.4310119006068192  0.4870166458464027  0.2924329692486509
  0.4439031056639635  0.9976170547097496  0.0561973878853266
  0.5851509172023270  0.4055684122512133  0.1742301173061591
  0.7479640015421722  0.3291673375876911  0.2870193605192597
  0.5983895702644517  0.4030678756691444  0.4250764947893941
  0.7352967879681671  0.3235054756718512  0.0578865918525935
  0.8836914863355716  0.2397338890740954  0.1643924940888226
  0.0864277852114910  0.1343057689280585  0.2841868037020205
  0.9241479317642316  0.2330095239035330  0.4263980513368253
  0.0771521825955901  0.1393032129837835  0.0557086685170489
  0.5881049159150180  0.1821597833436925  0.8689141415545123
  0.5344536342385737  0.1722367536264855  0.6120666718315704
  0.7247431217824456  0.0779723537188843  0.9787900662781013
  0.7283787618192932  0.0800246687490613  0.7464982863431615
  0.8746118709882111  0.0006377122942709  0.8596109105272802
  0.0464483013112584  0.4127812101258641  0.9942183849214885
  0.8801278222424926  0.4954275437839257  0.6116456838663709
  0.0628800811521018  0.4115499810596361  0.7240741315674697
  0.2388636240781565  0.3355919141719284  0.8570885962016845
  0.3982020769698451  0.2585018726395205  0.9889388169150948
  0.2406027415007657  0.3317736720724227  0.6234380945567821
  0.3904198607821954  0.2487871782940800  0.7387686205834640
  0.2418223332275531  0.0643646178355652  0.6646499029734230
  0.2590863851086809  0.0627363282979800  0.9271564748963570
  0.4268053306020008  0.4800323413828167  0.7985565121938691
  0.4489563608264433  0.0009850829092528  0.5585183927873700
  0.5852668054008419  0.4037462725749208  0.6747645270969116
  0.7506301971496185  0.3285840848699166  0.7919312838878412
  0.5871273714331267  0.4034997087295906  0.9239896605237163
  0.7385857482900064  0.3209437327441336  0.5599077841765734
  0.8931097726370751  0.2378234737393186  0.6769479580969175
  0.0820216366428497  0.1398004066025393  0.7861468962818492
  0.9239710215399128  0.2285255023380230  0.9275419761733943
  0.0757887509557591  0.1402073996053801  0.5571410622967718
  0.5753851086631130  0.6803882074890453  0.3653498286580401
  0.5259069407459478  0.6704205007439654  0.1088715958370230
  0.7114154315097565  0.5737159707131099  0.4733031901836853
  0.7288375297458387  0.5816540111559334  0.2422734633741186
  0.8801569979386343  0.5050304568459083  0.3596561412173003
  0.0427144209136969  0.9127524954496948  0.4917078790992520
  0.8767145645535308  0.9934751999915434  0.1089824924642073
  0.0562052732240588  0.9111507160579393  0.2234942445932262
  0.2302022886549366  0.8343710637929789  0.3548442402041303
  0.3889270573255033  0.7561999324757380  0.4865779688144869
  0.2334457825559184  0.8324642772723436  0.1201997641744441
  0.3829963388606927  0.7489649366363835  0.2362849774798832
  0.2370407251220144  0.5664106127693032  0.1609685363410023
  0.2533693314175025  0.5635842574044574  0.4285841978712313
  0.4238256799370603  0.9795436864840212  0.2980154786860965
  0.4465582449899159  0.5005837426256008  0.0556207312221986
  0.5781597554169053  0.9019762395332620  0.1728002769629668
  0.7384333127775591  0.8254201007915825  0.2869025326746666
  0.5819166384196137  0.9018010691433318  0.4236811716056010
  0.7285281153511747  0.8196217018579830  0.0571508202132733
  0.8866946419055282  0.7382466560496468  0.1705263889404378
  0.0786760262362094  0.6425082465779042  0.2842674371016685
  0.9038700647802145  0.7262310826168203  0.4196486146532266
  0.0720025832239415  0.6429571536556296  0.0555367879794488
  0.5751211311705688  0.6790302655258529  0.8653497395609193
  0.5246011805164983  0.6694831728283575  0.6084551658953359
  0.7229464435173227  0.5792984904929028  0.9761242264472116
  0.7238945440583961  0.5790244547543111  0.7435854376609399
  0.8780619776405629  0.5033607484337850  0.8609192168383544
  0.0410428245658281  0.9117804322853260  0.9924621377403469
  0.8784409554702535  0.9942112945644581  0.6105021070121524
  0.0555455672898262  0.9096199152618212  0.7222335708311221
  0.2303478064278366  0.8340644880690817  0.8537374324182636
  0.3892301374919924  0.7561372708718181  0.9860964189326324
  0.2341290934650715  0.8329081557070950  0.6192482253874374
  0.3819618797745861  0.7482548423257782  0.7357151639616148
  0.2358685439982580  0.5657877688870130  0.6639825224104783
  0.2530065663778061  0.5624209875858881  0.9266539693326195
  0.4261913537054269  0.9797172403510501  0.7981659378178705
  0.4400290224428645  0.4992405051952034  0.5615447887750946
  0.5797540564303674  0.9027840640977374  0.6732049845124521
  0.7383414466825755  0.8249942660051133  0.7866707070628962
  0.5817930425987754  0.9010149384628292  0.9229260370705106
  0.7286667172150132  0.8197146084108411  0.5567346582157882
  0.8824059284503960  0.7355819963120993  0.6690084869765442
  0.0756987938232285  0.6416098334299747  0.7847910000812348
  0.9071851372836122  0.7280830922209276  0.9196761811849967
  0.0671674140667946  0.6414894080437179  0.5560323188779108
 
  0.00000000E+00  0.00000000E+00  0.00000000E+00
  0.00000000E+00  0.00000000E+00  0.00000000E+00
  0.00000000E+00  0.00000000E+00  0.00000000E+00
  0.00000000E+00  0.00000000E+00  0.00000000E+00
  0.00000000E+00  0.00000000E+00  0.00000000E+00
  0.00000000E+00  0.00000000E+00  0.00000000E+00
  0.00000000E+00  0.00000000E+00  0.00000000E+00
  0.00000000E+00  0.00000000E+00  0.00000000E+00
  0.00000000E+00  0.00000000E+00  0.00000000E+00
  0.00000000E+00  0.00000000E+00  0.00000000E+00
  0.00000000E+00  0.00000000E+00  0.00000000E+00
  0.00000000E+00  0.00000000E+00  0.00000000E+00
  0.00000000E+00  0.00000000E+00  0.00000000E+00
  0.00000000E+00  0.00000000E+00  0.00000000E+00
  0.00000000E+00  0.00000000E+00  0.00000000E+00
  0.00000000E+00  0.00000000E+00  0.00000000E+00
  0.00000000E+00  0.00000000E+00  0.00000000E+00
  0.00000000E+00  0.00000000E+00  0.00000000E+00
  0.00000000E+00  0.00000000E+00  0.00000000E+00
  0.00000000E+00  0.00000000E+00  0.00000000E+00
  0.00000000E+00  0.00000000E+00  0.00000000E+00
  0.00000000E+00  0.00000000E+00  0.00000000E+00
  0.00000000E+00  0.00000000E+00  0.00000000E+00
  0.00000000E+00  0.00000000E+00  0.00000000E+00
  0.00000000E+00  0.00000000E+00  0.00000000E+00
  0.00000000E+00  0.00000000E+00  0.00000000E+00
  0.00000000E+00  0.00000000E+00  0.00000000E+00
  0.00000000E+00  0.00000000E+00  0.00000000E+00
  0.00000000E+00  0.00000000E+00  0.00000000E+00
  0.00000000E+00  0.00000000E+00  0.00000000E+00
  0.00000000E+00  0.00000000E+00  0.00000000E+00
  0.00000000E+00  0.00000000E+00  0.00000000E+00
  0.00000000E+00  0.00000000E+00  0.00000000E+00
  0.00000000E+00  0.00000000E+00  0.00000000E+00
  0.00000000E+00  0.00000000E+00  0.00000000E+00
  0.00000000E+00  0.00000000E+00  0.00000000E+00
  0.00000000E+00  0.00000000E+00  0.00000000E+00
  0.00000000E+00  0.00000000E+00  0.00000000E+00
  0.00000000E+00  0.00000000E+00  0.00000000E+00
  0.00000000E+00  0.00000000E+00  0.00000000E+00
  0.00000000E+00  0.00000000E+00  0.00000000E+00
  0.00000000E+00  0.00000000E+00  0.00000000E+00
  0.00000000E+00  0.00000000E+00  0.00000000E+00
  0.00000000E+00  0.00000000E+00  0.00000000E+00
  0.00000000E+00  0.00000000E+00  0.00000000E+00
  0.00000000E+00  0.00000000E+00  0.00000000E+00
  0.00000000E+00  0.00000000E+00  0.00000000E+00
  0.00000000E+00  0.00000000E+00  0.00000000E+00
  0.00000000E+00  0.00000000E+00  0.00000000E+00
  0.00000000E+00  0.00000000E+00  0.00000000E+00
  0.00000000E+00  0.00000000E+00  0.00000000E+00
  0.00000000E+00  0.00000000E+00  0.00000000E+00
  0.00000000E+00  0.00000000E+00  0.00000000E+00
  0.00000000E+00  0.00000000E+00  0.00000000E+00
  0.00000000E+00  0.00000000E+00  0.00000000E+00
  0.00000000E+00  0.00000000E+00  0.00000000E+00
  0.00000000E+00  0.00000000E+00  0.00000000E+00
  0.00000000E+00  0.00000000E+00  0.00000000E+00
  0.00000000E+00  0.00000000E+00  0.00000000E+00
  0.00000000E+00  0.00000000E+00  0.00000000E+00
  0.00000000E+00  0.00000000E+00  0.00000000E+00
  0.00000000E+00  0.00000000E+00  0.00000000E+00
  0.00000000E+00  0.00000000E+00  0.00000000E+00
  0.00000000E+00  0.00000000E+00  0.00000000E+00
  0.00000000E+00  0.00000000E+00  0.00000000E+00
  0.00000000E+00  0.00000000E+00  0.00000000E+00
  0.00000000E+00  0.00000000E+00  0.00000000E+00
  0.00000000E+00  0.00000000E+00  0.00000000E+00
  0.00000000E+00  0.00000000E+00  0.00000000E+00
  0.00000000E+00  0.00000000E+00  0.00000000E+00
  0.00000000E+00  0.00000000E+00  0.00000000E+00
  0.00000000E+00  0.00000000E+00  0.00000000E+00
  0.00000000E+00  0.00000000E+00  0.00000000E+00
  0.00000000E+00  0.00000000E+00  0.00000000E+00
  0.00000000E+00  0.00000000E+00  0.00000000E+00
  0.00000000E+00  0.00000000E+00  0.00000000E+00
  0.00000000E+00  0.00000000E+00  0.00000000E+00
  0.00000000E+00  0.00000000E+00  0.00000000E+00
  0.00000000E+00  0.00000000E+00  0.00000000E+00
  0.00000000E+00  0.00000000E+00  0.00000000E+00
  0.00000000E+00  0.00000000E+00  0.00000000E+00
  0.00000000E+00  0.00000000E+00  0.00000000E+00
  0.00000000E+00  0.00000000E+00  0.00000000E+00
  0.00000000E+00  0.00000000E+00  0.00000000E+00
  0.00000000E+00  0.00000000E+00  0.00000000E+00
  0.00000000E+00  0.00000000E+00  0.00000000E+00
  0.00000000E+00  0.00000000E+00  0.00000000E+00
  0.00000000E+00  0.00000000E+00  0.00000000E+00
  0.00000000E+00  0.00000000E+00  0.00000000E+00
  0.00000000E+00  0.00000000E+00  0.00000000E+00
  0.00000000E+00  0.00000000E+00  0.00000000E+00
  0.00000000E+00  0.00000000E+00  0.00000000E+00
  0.00000000E+00  0.00000000E+00  0.00000000E+00
  0.00000000E+00  0.00000000E+00  0.00000000E+00
  0.00000000E+00  0.00000000E+00  0.00000000E+00
  0.00000000E+00  0.00000000E+00  0.00000000E+00
  0.00000000E+00  0.00000000E+00  0.00000000E+00
  0.00000000E+00  0.00000000E+00  0.00000000E+00
  0.00000000E+00  0.00000000E+00  0.00000000E+00
  0.00000000E+00  0.00000000E+00  0.00000000E+00
  0.00000000E+00  0.00000000E+00  0.00000000E+00
  0.00000000E+00  0.00000000E+00  0.00000000E+00
  0.00000000E+00  0.00000000E+00  0.00000000E+00
  0.00000000E+00  0.00000000E+00  0.00000000E+00
  0.00000000E+00  0.00000000E+00  0.00000000E+00
  0.00000000E+00  0.00000000E+00  0.00000000E+00
  0.00000000E+00  0.00000000E+00  0.00000000E+00
  0.00000000E+00  0.00000000E+00  0.00000000E+00
  0.00000000E+00  0.00000000E+00  0.00000000E+00
  0.00000000E+00  0.00000000E+00  0.00000000E+00
  0.00000000E+00  0.00000000E+00  0.00000000E+00
  0.00000000E+00  0.00000000E+00  0.00000000E+00
  0.00000000E+00  0.00000000E+00  0.00000000E+00
  0.00000000E+00  0.00000000E+00  0.00000000E+00
  0.00000000E+00  0.00000000E+00  0.00000000E+00
  0.00000000E+00  0.00000000E+00  0.00000000E+00
  0.00000000E+00  0.00000000E+00  0.00000000E+00
  0.00000000E+00  0.00000000E+00  0.00000000E+00
  0.00000000E+00  0.00000000E+00  0.00000000E+00
  0.00000000E+00  0.00000000E+00  0.00000000E+00
  0.00000000E+00  0.00000000E+00  0.00000000E+00
  0.00000000E+00  0.00000000E+00  0.00000000E+00
  0.00000000E+00  0.00000000E+00  0.00000000E+00
  0.00000000E+00  0.00000000E+00  0.00000000E+00
  0.00000000E+00  0.00000000E+00  0.00000000E+00
  0.00000000E+00  0.00000000E+00  0.00000000E+00
  0.00000000E+00  0.00000000E+00  0.00000000E+00
  0.00000000E+00  0.00000000E+00  0.00000000E+00
  0.00000000E+00  0.00000000E+00  0.00000000E+00
  0.00000000E+00  0.00000000E+00  0.00000000E+00
  0.00000000E+00  0.00000000E+00  0.00000000E+00
  0.00000000E+00  0.00000000E+00  0.00000000E+00
  0.00000000E+00  0.00000000E+00  0.00000000E+00
  0.00000000E+00  0.00000000E+00  0.00000000E+00
  0.00000000E+00  0.00000000E+00  0.00000000E+00
  0.00000000E+00  0.00000000E+00  0.00000000E+00
  0.00000000E+00  0.00000000E+00  0.00000000E+00
  0.00000000E+00  0.00000000E+00  0.00000000E+00
  0.00000000E+00  0.00000000E+00  0.00000000E+00
  0.00000000E+00  0.00000000E+00  0.00000000E+00
  0.00000000E+00  0.00000000E+00  0.00000000E+00
  0.00000000E+00  0.00000000E+00  0.00000000E+00
  0.00000000E+00  0.00000000E+00  0.00000000E+00
  0.00000000E+00  0.00000000E+00  0.00000000E+00
  0.00000000E+00  0.00000000E+00  0.00000000E+00
  0.00000000E+00  0.00000000E+00  0.00000000E+00
  0.00000000E+00  0.00000000E+00  0.00000000E+00
  0.00000000E+00  0.00000000E+00  0.00000000E+00
  0.00000000E+00  0.00000000E+00  0.00000000E+00
  0.00000000E+00  0.00000000E+00  0.00000000E+00
  0.00000000E+00  0.00000000E+00  0.00000000E+00
  0.00000000E+00  0.00000000E+00  0.00000000E+00
  0.00000000E+00  0.00000000E+00  0.00000000E+00
  0.00000000E+00  0.00000000E+00  0.00000000E+00
  0.00000000E+00  0.00000000E+00  0.00000000E+00
  0.00000000E+00  0.00000000E+00  0.00000000E+00
  0.00000000E+00  0.00000000E+00  0.00000000E+00
  0.00000000E+00  0.00000000E+00  0.00000000E+00
  0.00000000E+00  0.00000000E+00  0.00000000E+00
  0.00000000E+00  0.00000000E+00  0.00000000E+00
  0.00000000E+00  0.00000000E+00  0.00000000E+00
  0.00000000E+00  0.00000000E+00  0.00000000E+00
  0.00000000E+00  0.00000000E+00  0.00000000E+00
  0.00000000E+00  0.00000000E+00  0.00000000E+00
  0.00000000E+00  0.00000000E+00  0.00000000E+00
  0.00000000E+00  0.00000000E+00  0.00000000E+00
  0.00000000E+00  0.00000000E+00  0.00000000E+00
  0.00000000E+00  0.00000000E+00  0.00000000E+00
  0.00000000E+00  0.00000000E+00  0.00000000E+00
  0.00000000E+00  0.00000000E+00  0.00000000E+00
  0.00000000E+00  0.00000000E+00  0.00000000E+00
  0.00000000E+00  0.00000000E+00  0.00000000E+00
  0.00000000E+00  0.00000000E+00  0.00000000E+00
  0.00000000E+00  0.00000000E+00  0.00000000E+00
  0.00000000E+00  0.00000000E+00  0.00000000E+00
  0.00000000E+00  0.00000000E+00  0.00000000E+00
  0.00000000E+00  0.00000000E+00  0.00000000E+00
  0.00000000E+00  0.00000000E+00  0.00000000E+00
  0.00000000E+00  0.00000000E+00  0.00000000E+00
  0.00000000E+00  0.00000000E+00  0.00000000E+00
  0.00000000E+00  0.00000000E+00  0.00000000E+00
  0.00000000E+00  0.00000000E+00  0.00000000E+00
  0.00000000E+00  0.00000000E+00  0.00000000E+00
  0.00000000E+00  0.00000000E+00  0.00000000E+00
  0.00000000E+00  0.00000000E+00  0.00000000E+00
  0.00000000E+00  0.00000000E+00  0.00000000E+00
  0.00000000E+00  0.00000000E+00  0.00000000E+00
  0.00000000E+00  0.00000000E+00  0.00000000E+00
  0.00000000E+00  0.00000000E+00  0.00000000E+00
  0.00000000E+00  0.00000000E+00  0.00000000E+00
  0.00000000E+00  0.00000000E+00  0.00000000E+00
