supercell of POSCAR                     
   1.03228000000000     
     6.3970863126299999    5.5387332920799999    4.9397337979799998
   -15.9736979067999982   -5.5365852353599996    9.8547656895600007
     6.4026568282999996  -11.0930079636999999    0.0094448205590600
   Sc   Al   N 
    32    64    95
Direct
  0.3544436691997674  0.0583972647402149  0.3141303384880914
  0.8174985425810490  0.3047969469134628  0.4270749646704957
  0.0197363953733571  0.2326051241144853  0.3083764533994824
  0.1842765244767222  0.1462385647578728  0.4384668944101122
  0.0209900892130008  0.2298194860066189  0.0662405617906359
  0.0502691587584465  0.4702238248668991  0.3702771661519932
  0.2267728014285382  0.3911030101993092  0.0029077402865241
  0.6890469060888691  0.1283648998289024  0.1191296556647714
  0.3704595136003874  0.0697691933322773  0.8097757001819517
  0.8250134505712623  0.3070608031708204  0.9269363348902360
  0.0198185629093857  0.2305528854321039  0.8043094861141924
  0.1900367048040650  0.1477347004348744  0.9367503355760221
  0.0150913132275505  0.2312172443458209  0.5667495852798581
  0.0394884101669746  0.4632138121698475  0.8674483826519293
  0.2239398172195948  0.3925181350925087  0.5050605141913778
  0.6877482230293168  0.1280391543121198  0.6194785788465467
  0.3752533131491873  0.5721051789352671  0.3094838782565432
  0.8347194479887676  0.8073308534384509  0.4350409431975848
  0.0267880236263878  0.7319097743926690  0.3054388896701212
  0.1973566207626902  0.6521371891830725  0.4396804754321764
  0.0246502919005849  0.7316562754648359  0.0670480177157060
  0.0341802879294875  0.9608448970065879  0.3722041766033399
  0.2333163334866413  0.8905644541280395  0.0042256735242745
  0.6963421985526708  0.6314047497602004  0.1190777225710917
  0.3702744105501026  0.5699016858069186  0.8090391928946374
  0.8390194899821282  0.8104212604522658  0.9354675779841415
  0.0262678805980983  0.7314105547301253  0.8045444171057312
  0.1933699488335492  0.6488619122920198  0.9376531576185485
  0.0266194365210737  0.7330256809723679  0.5683509188335236
  0.0400282143490003  0.9630845939922494  0.8688684015592187
  0.2339951085688696  0.8922732022240325  0.5055271807372534
  0.6956250321832584  0.6306230016163425  0.6199246034070711
  0.3546108324466601  0.0663284516970108  0.0575100583988402
  0.5293152497265510  0.4863860325561973  0.4395614016754337
  0.5338062152366163  0.4877009410865796  0.1871494142293102
  0.6732148038085839  0.4282833132564292  0.3162024695131791
  0.6891368897193644  0.4036451989123506  0.0639026490625980
  0.8884308758375781  0.3265415275876009  0.1601157509585036
  0.1810599300358717  0.1483489166815986  0.1847292422544129
  0.0534583419157215  0.4750462652343614  0.1196704312526151
  0.2371335661460705  0.3891381201757014  0.2500304964597504
  0.3936602482478904  0.3059858251101844  0.1278375631480344
  0.4767824510170655  0.1886652865299965  0.2316724386692783
  0.3890840231600166  0.3059180986121035  0.3744697010543518
  0.5490397394810600  0.2268902858993300  0.0056998969902438
  0.8830512227925595  0.0517636446723202  0.2482522692338094
  0.7208700229213392  0.1332859614757780  0.3741564416884344
  0.8816169218979795  0.0499206186434620  0.9993568855747128
  0.3550040807739805  0.0702020009905340  0.5661733656137926
  0.5353559457634489  0.4852746026610859  0.9341106541739777
  0.5366257320039267  0.4859947378736038  0.6923694300429517
  0.6889725430565932  0.4070167678118537  0.8098607810677336
  0.6861733286060243  0.4017520349058685  0.5649226775484308
  0.8514923131005929  0.3209565973128790  0.6808591887640318
  0.1938498813102427  0.1491639303927954  0.6859776170943590
  0.0447708455306710  0.4692832055734328  0.6193987479682406
  0.2290687434837224  0.3880873667902591  0.7477785319260164
  0.3914150658153019  0.3066464867881891  0.6281229312197496
  0.5517158996324767  0.2291350967017038  0.7453686466005038
  0.3930018050105417  0.3078578368362415  0.8736423830971418
  0.5420701166557791  0.2246922100393007  0.5041455020831336
  0.8858493582508515  0.0521719920090433  0.7475911786478875
  0.7278589431569245  0.1364822097394267  0.8759048144130759
  0.8828474918397120  0.0512216820956795  0.5025542958814384
  0.3608986560091765  0.5725666928506925  0.0626955374496418
  0.5377509255579795  0.9840265383689797  0.4371546565217201
  0.5379567932587221  0.9849327452968666  0.1924593358239051
  0.6930671860768669  0.9076558987830978  0.3124378168504549
  0.6921529672975097  0.9030211849325127  0.0650582793743126
  0.8599804673255846  0.8238021378829217  0.1845801658898409
  0.2004948817203811  0.6507776336881435  0.1855969634616201
  0.0531133422191701  0.9722693597120440  0.1248042266361225
  0.2343516997503698  0.8864264662582713  0.2491905497025257
  0.4006063122193808  0.8074708952806731  0.1291322806282267
  0.5617181792929742  0.7309873860697564  0.2477550404200457
  0.3994201637234696  0.8086222895255588  0.3750950871710614
  0.5551469641090065  0.7283228574207357  0.0050372886931171
  0.8891616248388274  0.5538828741916930  0.2443256144650405
  0.7306198673365785  0.6357758640581110  0.3753062978397921
  0.8842569404542502  0.5516949842048433  0.9990860978496627
  0.3615977366829100  0.5732906487237557  0.5654971592193050
  0.5367758020442395  0.9846279427501798  0.9348798933021740
  0.5392900432412802  0.9859986401283720  0.6937374969508596
  0.6936920176153691  0.9073377142212422  0.8117846632177432
  0.6909302592154845  0.9023484972681430  0.5655492147496020
  0.8578033410217145  0.8222441971099812  0.6845648241441182
  0.1980052265536258  0.6488626445635504  0.6854811542033730
  0.0499616862269221  0.9699893243164368  0.6241838723370563
  0.2338585510686997  0.8887868307281579  0.7494466994863274
  0.4005682228395671  0.8082234966995827  0.6307204666565127
  0.5606790313687640  0.7305177253971777  0.7494009804194022
  0.3985239660928315  0.8081717209723749  0.8745497160398656
  0.5543963076091387  0.7280646655080076  0.5067088554705421
  0.8857059990484117  0.5522012936723470  0.7473421555886546
  0.7298614434613100  0.6371899204434470  0.8750824234759520
  0.8862319140329831  0.5523999653617508  0.5045372814237084
  0.5667478291642709  0.1759341242964751  0.3621394776636890
  0.5254254613193581  0.1679833990016064  0.1060908536623302
  0.7230684872547499  0.0792882574790212  0.4777995922226452
  0.7248792586615309  0.0801184962668344  0.2442851153697490
  0.8775391653375166  0.0039063418383520  0.3619155247314865
  0.0261134360159829  0.4088586009406896  0.4829747367504211
  0.8800476780536215  0.4956535289081927  0.1095196014106463
  0.0680727240259884  0.4161651833513886  0.2241924244213394
  0.2336368587629423  0.3365749146727808  0.3577438678382237
  0.3886933750414627  0.2558601037979003  0.4865559092640552
  0.2353359957855758  0.3324053475107220  0.1208293742797224
  0.3787058532234369  0.2481524226817129  0.2363281364824985
  0.2587380142326765  0.0762244498731661  0.1706342989357381
  0.2487224979893483  0.0609333384876862  0.4317488652276182
  0.4305267580309362  0.4806987219602874  0.2981329205624448
  0.4475933024166210  0.9994677343129368  0.0579452131456648
  0.5792888453897405  0.4033201841735945  0.1728594145844795
  0.5799192114560725  0.4012172709423893  0.4240557243169363
  0.7328519097247437  0.3212735157680910  0.0625626077986396
  0.8910287315377232  0.2398809055914128  0.1737153595935936
  0.0734847041472193  0.1428535963516140  0.2865256839313659
  0.8998319812407374  0.2289781978034213  0.4207441819987139
  0.0715809875511439  0.1406934721555899  0.0537672329122003
  0.5811626562362164  0.1826009617758899  0.8678557973314796
  0.5260599758733377  0.1700817603733711  0.6092942578341294
  0.7249742294354320  0.0800750119160156  0.9787157601082725
  0.7274575987106715  0.0807579356673784  0.7460319089361960
  0.8780156419164911  0.0029173346628752  0.8606038436870875
  0.0375284863926169  0.4110214467943365  0.9927221117611182
  0.8765368908373006  0.4940825124994248  0.6094276516141264
  0.0558112355717739  0.4102334348905856  0.7189881981813855
  0.2328362813631486  0.3352925099612207  0.8551359688498295
  0.3944192689996697  0.2576404444212770  0.9883849596035645
  0.2318760947102447  0.3322675408549713  0.6183974566471306
  0.3834453103986348  0.2492508944991982  0.7366986631696832
  0.2383969110748367  0.0656430249461479  0.6653255743664630
  0.2546626454235650  0.0624681848310118  0.9258371607233116
  0.4252629836524804  0.4796597560373641  0.7971678632295465
  0.4485768516211550  0.0009147635064366  0.5592171382166171
  0.5788514266161684  0.4025775898914645  0.6721900722823051
  0.7400806557733048  0.3265684655983137  0.7840705734161091
  0.5851601482930420  0.4022059289836406  0.9242696779782733
  0.7279073033910066  0.3180278679309083  0.5530589803580170
  0.8864247277102635  0.2372301143734106  0.6722089020932458
  0.0784621663398113  0.1420090319844292  0.7858844296925369
  0.9112025970728013  0.2301329777032564  0.9231262215494311
  0.0718285394699620  0.1430691572180791  0.5573492480692295
  0.5849112637448712  0.6814094560429780  0.3670294987621645
  0.5336285043108049  0.6718651393569601  0.1101892799261392
  0.7222890646990336  0.5767404416252901  0.4759779641358364
  0.7264589908279433  0.5788190730154810  0.2433240890780013
  0.8741861796141279  0.5007681278806615  0.3586263424196900
  0.0452815187203441  0.9112142133793313  0.4960482177232066
  0.8848424704336111  0.9969845275029314  0.1123486664791926
  0.0711215751605749  0.9162649570634684  0.2268936139739424
  0.2386187456012649  0.8351934112268253  0.3571334628898981
  0.3991808943448234  0.7587932616987345  0.4890666736490772
  0.2403309315832658  0.8322750837367536  0.1210298386773232
  0.3910310652384439  0.7498807140062738  0.2380551507297071
  0.2436024108632111  0.5667461819515296  0.1628870563756948
  0.2633016435789628  0.5662531199013969  0.4285917613884180
  0.4302209223352662  0.9779147163661079  0.2992989690945436
  0.4443881476664799  0.4996196685638452  0.0556384191770505
  0.5863846030527640  0.9040726295737826  0.1743282396615484
  0.7516211470831848  0.8293109622045378  0.2903223735749663
  0.5892792609989499  0.9027476840761182  0.4255626209331851
  0.7383590105811706  0.8221101428296578  0.0593718144960675
  0.8956980513780621  0.7398978718721949  0.1727356281124273
  0.0825900368683108  0.6412439560665604  0.2854206683074665
  0.9146741231202213  0.7271205703783892  0.4212445949356294
  0.0763309099690659  0.6415496108851357  0.0558336084451909
  0.5825506441745247  0.6808738052824452  0.8672104105073259
  0.5335442610571306  0.6717490486493034  0.6118742738835508
  0.7243792425325424  0.5794047273650520  0.9766201158239980
  0.7258032514342005  0.5797315941643859  0.7440606209674172
  0.8755246242681309  0.5017554826214052  0.8591540650441942
  0.0527223867729063  0.9164523638525637  0.9974482547117134
  0.8808904611244159  0.9955422609433953  0.6113775702285835
  0.0622287538722475  0.9111478452347583  0.7244977845280687
  0.2387793267824776  0.8355408679712681  0.8558560077345163
  0.3977709157632745  0.7576291054422910  0.9878747581231124
  0.2412662822379232  0.8335439240558955  0.6217496516507666
  0.3890128526486052  0.7488159537062842  0.7376701427070742
  0.2370381638121941  0.5630645492109991  0.6604264762104961
  0.2558056884296533  0.5620697235048269  0.9266881905642492
  0.4291171611777500  0.9809699088495236  0.7990986736934289
  0.4426581692446021  0.4994677604173106  0.5578356883904831
  0.5854640237160211  0.9041126947503528  0.6751886532862841
  0.7492354289740106  0.8281116163386173  0.7904347175662139
  0.5896213010943043  0.9034143884628634  0.9253305830304228
  0.7361038615223308  0.8210111682430963  0.5596321369531481
  0.8934189167613624  0.7380179267956706  0.6715106681110541
  0.0800872654722511  0.6405807672572195  0.7842433250594851
  0.9154810580138104  0.7293662468148128  0.9211727386980328
  0.0761978678981023  0.6415275874311490  0.5554124367188322
 
  0.00000000E+00  0.00000000E+00  0.00000000E+00
  0.00000000E+00  0.00000000E+00  0.00000000E+00
  0.00000000E+00  0.00000000E+00  0.00000000E+00
  0.00000000E+00  0.00000000E+00  0.00000000E+00
  0.00000000E+00  0.00000000E+00  0.00000000E+00
  0.00000000E+00  0.00000000E+00  0.00000000E+00
  0.00000000E+00  0.00000000E+00  0.00000000E+00
  0.00000000E+00  0.00000000E+00  0.00000000E+00
  0.00000000E+00  0.00000000E+00  0.00000000E+00
  0.00000000E+00  0.00000000E+00  0.00000000E+00
  0.00000000E+00  0.00000000E+00  0.00000000E+00
  0.00000000E+00  0.00000000E+00  0.00000000E+00
  0.00000000E+00  0.00000000E+00  0.00000000E+00
  0.00000000E+00  0.00000000E+00  0.00000000E+00
  0.00000000E+00  0.00000000E+00  0.00000000E+00
  0.00000000E+00  0.00000000E+00  0.00000000E+00
  0.00000000E+00  0.00000000E+00  0.00000000E+00
  0.00000000E+00  0.00000000E+00  0.00000000E+00
  0.00000000E+00  0.00000000E+00  0.00000000E+00
  0.00000000E+00  0.00000000E+00  0.00000000E+00
  0.00000000E+00  0.00000000E+00  0.00000000E+00
  0.00000000E+00  0.00000000E+00  0.00000000E+00
  0.00000000E+00  0.00000000E+00  0.00000000E+00
  0.00000000E+00  0.00000000E+00  0.00000000E+00
  0.00000000E+00  0.00000000E+00  0.00000000E+00
  0.00000000E+00  0.00000000E+00  0.00000000E+00
  0.00000000E+00  0.00000000E+00  0.00000000E+00
  0.00000000E+00  0.00000000E+00  0.00000000E+00
  0.00000000E+00  0.00000000E+00  0.00000000E+00
  0.00000000E+00  0.00000000E+00  0.00000000E+00
  0.00000000E+00  0.00000000E+00  0.00000000E+00
  0.00000000E+00  0.00000000E+00  0.00000000E+00
  0.00000000E+00  0.00000000E+00  0.00000000E+00
  0.00000000E+00  0.00000000E+00  0.00000000E+00
  0.00000000E+00  0.00000000E+00  0.00000000E+00
  0.00000000E+00  0.00000000E+00  0.00000000E+00
  0.00000000E+00  0.00000000E+00  0.00000000E+00
  0.00000000E+00  0.00000000E+00  0.00000000E+00
  0.00000000E+00  0.00000000E+00  0.00000000E+00
  0.00000000E+00  0.00000000E+00  0.00000000E+00
  0.00000000E+00  0.00000000E+00  0.00000000E+00
  0.00000000E+00  0.00000000E+00  0.00000000E+00
  0.00000000E+00  0.00000000E+00  0.00000000E+00
  0.00000000E+00  0.00000000E+00  0.00000000E+00
  0.00000000E+00  0.00000000E+00  0.00000000E+00
  0.00000000E+00  0.00000000E+00  0.00000000E+00
  0.00000000E+00  0.00000000E+00  0.00000000E+00
  0.00000000E+00  0.00000000E+00  0.00000000E+00
  0.00000000E+00  0.00000000E+00  0.00000000E+00
  0.00000000E+00  0.00000000E+00  0.00000000E+00
  0.00000000E+00  0.00000000E+00  0.00000000E+00
  0.00000000E+00  0.00000000E+00  0.00000000E+00
  0.00000000E+00  0.00000000E+00  0.00000000E+00
  0.00000000E+00  0.00000000E+00  0.00000000E+00
  0.00000000E+00  0.00000000E+00  0.00000000E+00
  0.00000000E+00  0.00000000E+00  0.00000000E+00
  0.00000000E+00  0.00000000E+00  0.00000000E+00
  0.00000000E+00  0.00000000E+00  0.00000000E+00
  0.00000000E+00  0.00000000E+00  0.00000000E+00
  0.00000000E+00  0.00000000E+00  0.00000000E+00
  0.00000000E+00  0.00000000E+00  0.00000000E+00
  0.00000000E+00  0.00000000E+00  0.00000000E+00
  0.00000000E+00  0.00000000E+00  0.00000000E+00
  0.00000000E+00  0.00000000E+00  0.00000000E+00
  0.00000000E+00  0.00000000E+00  0.00000000E+00
  0.00000000E+00  0.00000000E+00  0.00000000E+00
  0.00000000E+00  0.00000000E+00  0.00000000E+00
  0.00000000E+00  0.00000000E+00  0.00000000E+00
  0.00000000E+00  0.00000000E+00  0.00000000E+00
  0.00000000E+00  0.00000000E+00  0.00000000E+00
  0.00000000E+00  0.00000000E+00  0.00000000E+00
  0.00000000E+00  0.00000000E+00  0.00000000E+00
  0.00000000E+00  0.00000000E+00  0.00000000E+00
  0.00000000E+00  0.00000000E+00  0.00000000E+00
  0.00000000E+00  0.00000000E+00  0.00000000E+00
  0.00000000E+00  0.00000000E+00  0.00000000E+00
  0.00000000E+00  0.00000000E+00  0.00000000E+00
  0.00000000E+00  0.00000000E+00  0.00000000E+00
  0.00000000E+00  0.00000000E+00  0.00000000E+00
  0.00000000E+00  0.00000000E+00  0.00000000E+00
  0.00000000E+00  0.00000000E+00  0.00000000E+00
  0.00000000E+00  0.00000000E+00  0.00000000E+00
  0.00000000E+00  0.00000000E+00  0.00000000E+00
  0.00000000E+00  0.00000000E+00  0.00000000E+00
  0.00000000E+00  0.00000000E+00  0.00000000E+00
  0.00000000E+00  0.00000000E+00  0.00000000E+00
  0.00000000E+00  0.00000000E+00  0.00000000E+00
  0.00000000E+00  0.00000000E+00  0.00000000E+00
  0.00000000E+00  0.00000000E+00  0.00000000E+00
  0.00000000E+00  0.00000000E+00  0.00000000E+00
  0.00000000E+00  0.00000000E+00  0.00000000E+00
  0.00000000E+00  0.00000000E+00  0.00000000E+00
  0.00000000E+00  0.00000000E+00  0.00000000E+00
  0.00000000E+00  0.00000000E+00  0.00000000E+00
  0.00000000E+00  0.00000000E+00  0.00000000E+00
  0.00000000E+00  0.00000000E+00  0.00000000E+00
  0.00000000E+00  0.00000000E+00  0.00000000E+00
  0.00000000E+00  0.00000000E+00  0.00000000E+00
  0.00000000E+00  0.00000000E+00  0.00000000E+00
  0.00000000E+00  0.00000000E+00  0.00000000E+00
  0.00000000E+00  0.00000000E+00  0.00000000E+00
  0.00000000E+00  0.00000000E+00  0.00000000E+00
  0.00000000E+00  0.00000000E+00  0.00000000E+00
  0.00000000E+00  0.00000000E+00  0.00000000E+00
  0.00000000E+00  0.00000000E+00  0.00000000E+00
  0.00000000E+00  0.00000000E+00  0.00000000E+00
  0.00000000E+00  0.00000000E+00  0.00000000E+00
  0.00000000E+00  0.00000000E+00  0.00000000E+00
  0.00000000E+00  0.00000000E+00  0.00000000E+00
  0.00000000E+00  0.00000000E+00  0.00000000E+00
  0.00000000E+00  0.00000000E+00  0.00000000E+00
  0.00000000E+00  0.00000000E+00  0.00000000E+00
  0.00000000E+00  0.00000000E+00  0.00000000E+00
  0.00000000E+00  0.00000000E+00  0.00000000E+00
  0.00000000E+00  0.00000000E+00  0.00000000E+00
  0.00000000E+00  0.00000000E+00  0.00000000E+00
  0.00000000E+00  0.00000000E+00  0.00000000E+00
  0.00000000E+00  0.00000000E+00  0.00000000E+00
  0.00000000E+00  0.00000000E+00  0.00000000E+00
  0.00000000E+00  0.00000000E+00  0.00000000E+00
  0.00000000E+00  0.00000000E+00  0.00000000E+00
  0.00000000E+00  0.00000000E+00  0.00000000E+00
  0.00000000E+00  0.00000000E+00  0.00000000E+00
  0.00000000E+00  0.00000000E+00  0.00000000E+00
  0.00000000E+00  0.00000000E+00  0.00000000E+00
  0.00000000E+00  0.00000000E+00  0.00000000E+00
  0.00000000E+00  0.00000000E+00  0.00000000E+00
  0.00000000E+00  0.00000000E+00  0.00000000E+00
  0.00000000E+00  0.00000000E+00  0.00000000E+00
  0.00000000E+00  0.00000000E+00  0.00000000E+00
  0.00000000E+00  0.00000000E+00  0.00000000E+00
  0.00000000E+00  0.00000000E+00  0.00000000E+00
  0.00000000E+00  0.00000000E+00  0.00000000E+00
  0.00000000E+00  0.00000000E+00  0.00000000E+00
  0.00000000E+00  0.00000000E+00  0.00000000E+00
  0.00000000E+00  0.00000000E+00  0.00000000E+00
  0.00000000E+00  0.00000000E+00  0.00000000E+00
  0.00000000E+00  0.00000000E+00  0.00000000E+00
  0.00000000E+00  0.00000000E+00  0.00000000E+00
  0.00000000E+00  0.00000000E+00  0.00000000E+00
  0.00000000E+00  0.00000000E+00  0.00000000E+00
  0.00000000E+00  0.00000000E+00  0.00000000E+00
  0.00000000E+00  0.00000000E+00  0.00000000E+00
  0.00000000E+00  0.00000000E+00  0.00000000E+00
  0.00000000E+00  0.00000000E+00  0.00000000E+00
  0.00000000E+00  0.00000000E+00  0.00000000E+00
  0.00000000E+00  0.00000000E+00  0.00000000E+00
  0.00000000E+00  0.00000000E+00  0.00000000E+00
  0.00000000E+00  0.00000000E+00  0.00000000E+00
  0.00000000E+00  0.00000000E+00  0.00000000E+00
  0.00000000E+00  0.00000000E+00  0.00000000E+00
  0.00000000E+00  0.00000000E+00  0.00000000E+00
  0.00000000E+00  0.00000000E+00  0.00000000E+00
  0.00000000E+00  0.00000000E+00  0.00000000E+00
  0.00000000E+00  0.00000000E+00  0.00000000E+00
  0.00000000E+00  0.00000000E+00  0.00000000E+00
  0.00000000E+00  0.00000000E+00  0.00000000E+00
  0.00000000E+00  0.00000000E+00  0.00000000E+00
  0.00000000E+00  0.00000000E+00  0.00000000E+00
  0.00000000E+00  0.00000000E+00  0.00000000E+00
  0.00000000E+00  0.00000000E+00  0.00000000E+00
  0.00000000E+00  0.00000000E+00  0.00000000E+00
  0.00000000E+00  0.00000000E+00  0.00000000E+00
  0.00000000E+00  0.00000000E+00  0.00000000E+00
  0.00000000E+00  0.00000000E+00  0.00000000E+00
  0.00000000E+00  0.00000000E+00  0.00000000E+00
  0.00000000E+00  0.00000000E+00  0.00000000E+00
  0.00000000E+00  0.00000000E+00  0.00000000E+00
  0.00000000E+00  0.00000000E+00  0.00000000E+00
  0.00000000E+00  0.00000000E+00  0.00000000E+00
  0.00000000E+00  0.00000000E+00  0.00000000E+00
  0.00000000E+00  0.00000000E+00  0.00000000E+00
  0.00000000E+00  0.00000000E+00  0.00000000E+00
  0.00000000E+00  0.00000000E+00  0.00000000E+00
  0.00000000E+00  0.00000000E+00  0.00000000E+00
  0.00000000E+00  0.00000000E+00  0.00000000E+00
  0.00000000E+00  0.00000000E+00  0.00000000E+00
  0.00000000E+00  0.00000000E+00  0.00000000E+00
  0.00000000E+00  0.00000000E+00  0.00000000E+00
  0.00000000E+00  0.00000000E+00  0.00000000E+00
  0.00000000E+00  0.00000000E+00  0.00000000E+00
  0.00000000E+00  0.00000000E+00  0.00000000E+00
  0.00000000E+00  0.00000000E+00  0.00000000E+00
  0.00000000E+00  0.00000000E+00  0.00000000E+00
  0.00000000E+00  0.00000000E+00  0.00000000E+00
  0.00000000E+00  0.00000000E+00  0.00000000E+00
  0.00000000E+00  0.00000000E+00  0.00000000E+00
  0.00000000E+00  0.00000000E+00  0.00000000E+00
  0.00000000E+00  0.00000000E+00  0.00000000E+00
  0.00000000E+00  0.00000000E+00  0.00000000E+00
  0.00000000E+00  0.00000000E+00  0.00000000E+00
