supercell of POSCAR                     
   1.03228000000000     
     6.3970863126299999    5.5387332920799999    4.9397337979799998
   -15.9736979067999982   -5.5365852353599996    9.8547656895600007
     6.4026568282999996  -11.0930079636999999    0.0094448205590600
   Sc   Al   N 
    32    64    95
Direct
  0.3603144377650409  0.0677637957195216  0.3093337022549179
  0.8372220387056259  0.3132490086093682  0.4345040949468526
  0.0284881951784044  0.2356128137518141  0.3076716830460953
  0.1917258723727429  0.1504150841261094  0.4410563789720214
  0.0187147765638684  0.2325286179454622  0.0682838434482989
  0.0458284918253469  0.4649446527427514  0.3692814417720953
  0.2350402691112166  0.3929449981952686  0.0052986083286797
  0.6816961402637745  0.1261531955230168  0.1175377967346733
  0.3640346366645346  0.0680193612800153  0.8093236430470583
  0.8337355945541702  0.3095742873898715  0.9336467603149998
  0.0215819973982363  0.2323643276714549  0.8050644787087222
  0.1880171273360745  0.1487690649935018  0.9368322177977433
  0.0248731909359350  0.2351065929193936  0.5683017283684748
  0.0449649373397847  0.4641308138779792  0.8702417890284124
  0.2411285656319961  0.3967405495960250  0.5070100133625246
  0.6868337091069208  0.1279052214191410  0.6236729355505162
  0.3746936884034824  0.5711503375726750  0.3102862648289744
  0.8313891157592650  0.8073371942840737  0.4341802428691111
  0.0207368913317438  0.7284403591410751  0.3032708019536869
  0.1932916360353687  0.6483504526794448  0.4382253248138497
  0.0348482307928819  0.7375448219763072  0.0703621545737789
  0.0351704187528981  0.9615978691501610  0.3727087898277262
  0.2190697090850620  0.8895452784236042  0.9911788943760342
  0.6958209915364364  0.6302060089349482  0.1180686773710491
  0.3751278167123786  0.5711034691334405  0.8107660888489860
  0.8289264193817303  0.8064478157873225  0.9318383395338756
  0.0197318227796330  0.7277061087629590  0.8011757168135389
  0.1898741006164002  0.6468129109990315  0.9369893521845825
  0.0212000759843676  0.7302648300942991  0.5665823687270475
  0.0335401400539794  0.9631682230032226  0.8673618264720204
  0.2274370823632594  0.8897860144565399  0.5038615721323936
  0.6922941283975348  0.6291252772906617  0.6181191971087827
  0.3519888621925418  0.0704892708245737  0.0637113294064022
  0.5406513872920158  0.4864922903940325  0.4349271783558706
  0.5422115658968139  0.4874171818624262  0.1922987789313098
  0.6928836517888328  0.4076427762663428  0.3108198427382831
  0.6904354714698613  0.4025631244743693  0.0642058160748817
  0.8526544439062533  0.3205341824407952  0.1841533281602779
  0.1968196229325088  0.1513307409440188  0.1832559401267488
  0.0511564480486868  0.4696800503248539  0.1225262537996485
  0.2353686877022767  0.3900578843233475  0.2489869416146959
  0.3971696155921620  0.3081457364606308  0.1283600783651764
  0.5550800550666324  0.2300880306697763  0.2468201301262667
  0.3982529248724376  0.3097177335229162  0.3748896615023938
  0.5490967132413545  0.2268908096672249  0.0031000478828105
  0.9180311352208506  0.0458730048177927  0.2459289801530744
  0.7159881924281706  0.1476700474506245  0.4052156148636428
  0.8818407287576022  0.0523739995009294  0.9986256203664183
  0.3532163412138871  0.0702013156602206  0.5639722217429153
  0.5386818035873375  0.4855207338872916  0.9353324039735043
  0.5439720073984589  0.4882281552968735  0.6944848179579566
  0.6942306598135630  0.4077731307120018  0.8122892294137216
  0.6906791549109101  0.4035269844477654  0.5647970617087168
  0.8542752115107390  0.3221279347953754  0.6838426011477168
  0.1939198983420098  0.1498813631395208  0.6858969148922043
  0.0529034094311598  0.4709384158554784  0.6235371881540388
  0.2341331015982320  0.3899228772644321  0.7495253702802032
  0.3986793112828551  0.3093614914283833  0.6309423502513667
  0.5539119156546448  0.2291868088832842  0.7479803115081580
  0.3954700135504439  0.3084039418613642  0.8740395326230512
  0.5484520724562358  0.2290941567209117  0.5087292682536741
  0.8824567471979279  0.0525769539395924  0.7466356616983987
  0.7234758484215220  0.1362646753203691  0.8757021496138222
  0.8819238480804543  0.0528397479836613  0.5017545313632041
  0.3615264700711194  0.5716238379255643  0.0646099277519241
  0.5295747475986872  0.9831677918654478  0.4358309719556814
  0.4623032470773225  0.9495158187236541  0.1729593357329549
  0.6875211349598302  0.9065381842362186  0.3107181096772180
  0.6847564897077305  0.9008141130849339  0.0615862357508732
  0.8528639081347578  0.8219466904583683  0.1831974399362366
  0.1969681412458826  0.6479348990935563  0.1856912054632787
  0.0497173507169819  0.9688611529483779  0.1198250283305100
  0.2226183175108858  0.8883122541549824  0.2530504903390209
  0.3994400657551154  0.8025401639238012  0.1269067838725277
  0.5588911966913770  0.7296464810580758  0.2482074748862004
  0.3940722734569206  0.8071369524076815  0.3733391068173262
  0.5518894370576533  0.7264985681380765  0.0043998904107383
  0.8887267446909775  0.5516848088877282  0.2469897995644743
  0.7315317606920004  0.6366450104784462  0.3751006765893763
  0.8871922009704747  0.5523133355468914  0.0017067368503447
  0.3617856521139942  0.5726751397510768  0.5645752067764747
  0.5329622701637646  0.9832594777235286  0.9333448242997093
  0.5330006809109449  0.9843443473684346  0.6925626149139177
  0.6886140883023018  0.9066232279581783  0.8099563050024798
  0.6864468207956733  0.9022918190413236  0.5638185031555381
  0.8543589966542626  0.8220447452651101  0.6830929556830654
  0.1986598228265066  0.6485953095032144  0.6850015488423296
  0.0471481763577586  0.9706173181975686  0.6231223607151009
  0.2278607238024648  0.8869433543124714  0.7460351881849761
  0.3958804067139781  0.8065922233489147  0.6281712600948453
  0.5584245439092825  0.7301983930425067  0.7465891353989207
  0.3932059654159232  0.8061565545903875  0.8716849645239364
  0.5519494528238411  0.7279926411067592  0.5052353472631452
  0.8892518600357207  0.5517226290418762  0.7470134256215246
  0.7351817153239466  0.6375915357493227  0.8772001045543050
  0.8869277642990738  0.5510269862514079  0.5005917057632772
  0.5704044026613460  0.1793070839112474  0.3666628491386277
  0.5282283832942554  0.1692390176538723  0.1092934685501064
  0.7164903077106217  0.0775758635036610  0.4761414203890197
  0.8716315359473725  0.0042689880477269  0.3574790020879135
  0.0481738206421554  0.4129228026916110  0.4932984497392070
  0.8824013979484135  0.4952066840497338  0.1099937846016203
  0.0582672265931876  0.4086194290476257  0.2225634281760520
  0.2390299282903854  0.3376038902273137  0.3574676236628846
  0.3930448322874653  0.2584137243643738  0.4881594651314813
  0.2362219902568086  0.3322150327320728  0.1211380647223166
  0.3856073275756344  0.2491054452947807  0.2370272949445607
  0.2348701351149600  0.0654684846894540  0.1631096006915911
  0.2489551265637289  0.0622753915993499  0.4279334449109413
  0.4309014766348653  0.4813594579090434  0.2978215455906081
  0.4459804834643251  0.9993960105896349  0.0618989922996036
  0.5839347810664677  0.4037910231127952  0.1735756920989644
  0.7416755499173462  0.3256527321613021  0.2881844364464925
  0.5882989963055181  0.4031541277421766  0.4241794767984715
  0.7324566544347988  0.3194475134376518  0.0585405947972220
  0.8809275807759605  0.2320457861924226  0.1745403697603223
  0.0770892053831460  0.1427463574945236  0.2842123840902318
  0.9024398868706882  0.2246932235770132  0.4167094261337638
  0.0713910262688415  0.1426866534930156  0.0556552369768255
  0.5755388679593736  0.1789665704201155  0.8659196816590224
  0.5263745366089907  0.1700967326498670  0.6095581297985291
  0.7184633753471914  0.0790089386784274  0.9793054000727608
  0.7212120489514575  0.0786868734678805  0.7463890247625073
  0.8724456815689408  0.0032331435414790  0.8597754409584439
  0.0461342505026607  0.4119815838228575  0.9933399763347595
  0.8824058189476602  0.4950410492186563  0.6100139893448144
  0.0597479325227539  0.4105174724826099  0.7227759388073167
  0.2354956280229388  0.3358185044776647  0.8554379208184457
  0.3928464711906372  0.2567868740377008  0.9872911456805582
  0.2390586940562827  0.3345311898576924  0.6202846889354205
  0.3847033692859441  0.2492212073391755  0.7366556546559337
  0.2359305686208089  0.0656618061375269  0.6632608303537566
  0.2515595676848434  0.0620125141875008  0.9282971455914648
  0.4302961419126206  0.4811389252741449  0.7982077547075122
  0.4428977085287684  0.9993713183043837  0.5577971507099377
  0.5857038060094979  0.4047388646205405  0.6747384173056972
  0.7427295457623231  0.3260425759430845  0.7876797054382507
  0.5871881874697280  0.4024013817784393  0.9242180376567006
  0.7327914278332202  0.3205488979274804  0.5573635203957465
  0.8863818427521366  0.2362192843539290  0.6687044105975559
  0.0757020346434061  0.1419073049754331  0.7843795858328875
  0.9084141657016431  0.2275052909254072  0.9213716503282399
  0.0713550691399050  0.1433794617563535  0.5557711329902162
  0.5844298968376975  0.6820966288732464  0.3670572609806726
  0.5336957814384178  0.6719442045122364  0.1110576775695833
  0.7286959640319282  0.5800314973389504  0.4768241560349651
  0.7319638591651483  0.5816208400307232  0.2442386910725816
  0.8793069475241495  0.5019083840068177  0.3598592296440302
  0.0429536510020156  0.9121330507488352  0.4950215958669375
  0.8772030188383937  0.9940453563345528  0.1064613365037701
  0.0579950539179421  0.9131019946900025  0.2244440955250013
  0.2329867190339883  0.8341148308796633  0.3538881344498321
  0.3950765629722426  0.7577474923227072  0.4867673713342597
  0.2614120955183523  0.8468015083055747  0.1240917725287787
  0.3874194576460397  0.7487277921106923  0.2367241239480080
  0.2415245476824310  0.5647399617101598  0.1633160669902480
  0.2606289101578625  0.5633541480411566  0.4277500493577477
  0.4228955438200757  0.9806024936502240  0.3001014274170615
  0.4510783220896997  0.5012497399402207  0.0582934550560950
  0.5830787146182175  0.9022878980814610  0.1730554361544776
  0.7469411599832299  0.8289712499396060  0.2897232919583743
  0.5839192653047789  0.9028584096148151  0.4230021876285193
  0.7328078628929688  0.8211326734209976  0.0580283538150397
  0.8970324922137110  0.7405747740365527  0.1702319953247127
  0.0821510470569606  0.6407578684515585  0.2854786115231960
  0.9147817187955880  0.7293309027151764  0.4210089797451815
  0.0780482140779881  0.6449681374956384  0.0579827380341627
  0.5871605804239692  0.6823675065612846  0.8675840936288850
  0.5322890656514048  0.6720939256461236  0.6100307497790780
  0.7268832356112895  0.5793008575884215  0.9768460205683596
  0.7338017978297060  0.5824312015837378  0.7459969547360714
  0.8813847375692916  0.5032219413660783  0.8614686439332289
  0.0394161113478901  0.9119530376180194  0.9911262105864367
  0.8767401187680122  0.9960106893479477  0.6089013738784672
  0.0594230643613827  0.9119530616908946  0.7237163611467423
  0.2326789929036863  0.8326997809252177  0.8509896961429106
  0.3940671321544684  0.7561675432366002  0.9861807027419758
  0.2364886675217122  0.8320414854005662  0.6196083684239255
  0.3879708559425197  0.7488025090246566  0.7365109256935227
  0.2431725543646266  0.5651140441626694  0.6636969426186425
  0.2606646872714080  0.5635624794058316  0.9283352019960347
  0.4232833381955743  0.9791675591914242  0.7986028797828126
  0.4549734722941920  0.5032126984449761  0.5594090300733754
  0.5805891290169640  0.9032487936773492  0.6732428853158581
  0.7457584477824000  0.8283116433287958  0.7885492293910445
  0.5834564084449951  0.9018928238495008  0.9236416689974121
  0.7332994297121544  0.8217758557762878  0.5584454034048818
  0.8905516709904333  0.7383537906665509  0.6708252488366568
  0.0825352781700062  0.6406443883481998  0.7844042380280456
  0.9214810648250875  0.7312673737606517  0.9245151189332006
  0.0772286909237536  0.6416682080962701  0.5560568641831480
 
  0.00000000E+00  0.00000000E+00  0.00000000E+00
  0.00000000E+00  0.00000000E+00  0.00000000E+00
  0.00000000E+00  0.00000000E+00  0.00000000E+00
  0.00000000E+00  0.00000000E+00  0.00000000E+00
  0.00000000E+00  0.00000000E+00  0.00000000E+00
  0.00000000E+00  0.00000000E+00  0.00000000E+00
  0.00000000E+00  0.00000000E+00  0.00000000E+00
  0.00000000E+00  0.00000000E+00  0.00000000E+00
  0.00000000E+00  0.00000000E+00  0.00000000E+00
  0.00000000E+00  0.00000000E+00  0.00000000E+00
  0.00000000E+00  0.00000000E+00  0.00000000E+00
  0.00000000E+00  0.00000000E+00  0.00000000E+00
  0.00000000E+00  0.00000000E+00  0.00000000E+00
  0.00000000E+00  0.00000000E+00  0.00000000E+00
  0.00000000E+00  0.00000000E+00  0.00000000E+00
  0.00000000E+00  0.00000000E+00  0.00000000E+00
  0.00000000E+00  0.00000000E+00  0.00000000E+00
  0.00000000E+00  0.00000000E+00  0.00000000E+00
  0.00000000E+00  0.00000000E+00  0.00000000E+00
  0.00000000E+00  0.00000000E+00  0.00000000E+00
  0.00000000E+00  0.00000000E+00  0.00000000E+00
  0.00000000E+00  0.00000000E+00  0.00000000E+00
  0.00000000E+00  0.00000000E+00  0.00000000E+00
  0.00000000E+00  0.00000000E+00  0.00000000E+00
  0.00000000E+00  0.00000000E+00  0.00000000E+00
  0.00000000E+00  0.00000000E+00  0.00000000E+00
  0.00000000E+00  0.00000000E+00  0.00000000E+00
  0.00000000E+00  0.00000000E+00  0.00000000E+00
  0.00000000E+00  0.00000000E+00  0.00000000E+00
  0.00000000E+00  0.00000000E+00  0.00000000E+00
  0.00000000E+00  0.00000000E+00  0.00000000E+00
  0.00000000E+00  0.00000000E+00  0.00000000E+00
  0.00000000E+00  0.00000000E+00  0.00000000E+00
  0.00000000E+00  0.00000000E+00  0.00000000E+00
  0.00000000E+00  0.00000000E+00  0.00000000E+00
  0.00000000E+00  0.00000000E+00  0.00000000E+00
  0.00000000E+00  0.00000000E+00  0.00000000E+00
  0.00000000E+00  0.00000000E+00  0.00000000E+00
  0.00000000E+00  0.00000000E+00  0.00000000E+00
  0.00000000E+00  0.00000000E+00  0.00000000E+00
  0.00000000E+00  0.00000000E+00  0.00000000E+00
  0.00000000E+00  0.00000000E+00  0.00000000E+00
  0.00000000E+00  0.00000000E+00  0.00000000E+00
  0.00000000E+00  0.00000000E+00  0.00000000E+00
  0.00000000E+00  0.00000000E+00  0.00000000E+00
  0.00000000E+00  0.00000000E+00  0.00000000E+00
  0.00000000E+00  0.00000000E+00  0.00000000E+00
  0.00000000E+00  0.00000000E+00  0.00000000E+00
  0.00000000E+00  0.00000000E+00  0.00000000E+00
  0.00000000E+00  0.00000000E+00  0.00000000E+00
  0.00000000E+00  0.00000000E+00  0.00000000E+00
  0.00000000E+00  0.00000000E+00  0.00000000E+00
  0.00000000E+00  0.00000000E+00  0.00000000E+00
  0.00000000E+00  0.00000000E+00  0.00000000E+00
  0.00000000E+00  0.00000000E+00  0.00000000E+00
  0.00000000E+00  0.00000000E+00  0.00000000E+00
  0.00000000E+00  0.00000000E+00  0.00000000E+00
  0.00000000E+00  0.00000000E+00  0.00000000E+00
  0.00000000E+00  0.00000000E+00  0.00000000E+00
  0.00000000E+00  0.00000000E+00  0.00000000E+00
  0.00000000E+00  0.00000000E+00  0.00000000E+00
  0.00000000E+00  0.00000000E+00  0.00000000E+00
  0.00000000E+00  0.00000000E+00  0.00000000E+00
  0.00000000E+00  0.00000000E+00  0.00000000E+00
  0.00000000E+00  0.00000000E+00  0.00000000E+00
  0.00000000E+00  0.00000000E+00  0.00000000E+00
  0.00000000E+00  0.00000000E+00  0.00000000E+00
  0.00000000E+00  0.00000000E+00  0.00000000E+00
  0.00000000E+00  0.00000000E+00  0.00000000E+00
  0.00000000E+00  0.00000000E+00  0.00000000E+00
  0.00000000E+00  0.00000000E+00  0.00000000E+00
  0.00000000E+00  0.00000000E+00  0.00000000E+00
  0.00000000E+00  0.00000000E+00  0.00000000E+00
  0.00000000E+00  0.00000000E+00  0.00000000E+00
  0.00000000E+00  0.00000000E+00  0.00000000E+00
  0.00000000E+00  0.00000000E+00  0.00000000E+00
  0.00000000E+00  0.00000000E+00  0.00000000E+00
  0.00000000E+00  0.00000000E+00  0.00000000E+00
  0.00000000E+00  0.00000000E+00  0.00000000E+00
  0.00000000E+00  0.00000000E+00  0.00000000E+00
  0.00000000E+00  0.00000000E+00  0.00000000E+00
  0.00000000E+00  0.00000000E+00  0.00000000E+00
  0.00000000E+00  0.00000000E+00  0.00000000E+00
  0.00000000E+00  0.00000000E+00  0.00000000E+00
  0.00000000E+00  0.00000000E+00  0.00000000E+00
  0.00000000E+00  0.00000000E+00  0.00000000E+00
  0.00000000E+00  0.00000000E+00  0.00000000E+00
  0.00000000E+00  0.00000000E+00  0.00000000E+00
  0.00000000E+00  0.00000000E+00  0.00000000E+00
  0.00000000E+00  0.00000000E+00  0.00000000E+00
  0.00000000E+00  0.00000000E+00  0.00000000E+00
  0.00000000E+00  0.00000000E+00  0.00000000E+00
  0.00000000E+00  0.00000000E+00  0.00000000E+00
  0.00000000E+00  0.00000000E+00  0.00000000E+00
  0.00000000E+00  0.00000000E+00  0.00000000E+00
  0.00000000E+00  0.00000000E+00  0.00000000E+00
  0.00000000E+00  0.00000000E+00  0.00000000E+00
  0.00000000E+00  0.00000000E+00  0.00000000E+00
  0.00000000E+00  0.00000000E+00  0.00000000E+00
  0.00000000E+00  0.00000000E+00  0.00000000E+00
  0.00000000E+00  0.00000000E+00  0.00000000E+00
  0.00000000E+00  0.00000000E+00  0.00000000E+00
  0.00000000E+00  0.00000000E+00  0.00000000E+00
  0.00000000E+00  0.00000000E+00  0.00000000E+00
  0.00000000E+00  0.00000000E+00  0.00000000E+00
  0.00000000E+00  0.00000000E+00  0.00000000E+00
  0.00000000E+00  0.00000000E+00  0.00000000E+00
  0.00000000E+00  0.00000000E+00  0.00000000E+00
  0.00000000E+00  0.00000000E+00  0.00000000E+00
  0.00000000E+00  0.00000000E+00  0.00000000E+00
  0.00000000E+00  0.00000000E+00  0.00000000E+00
  0.00000000E+00  0.00000000E+00  0.00000000E+00
  0.00000000E+00  0.00000000E+00  0.00000000E+00
  0.00000000E+00  0.00000000E+00  0.00000000E+00
  0.00000000E+00  0.00000000E+00  0.00000000E+00
  0.00000000E+00  0.00000000E+00  0.00000000E+00
  0.00000000E+00  0.00000000E+00  0.00000000E+00
  0.00000000E+00  0.00000000E+00  0.00000000E+00
  0.00000000E+00  0.00000000E+00  0.00000000E+00
  0.00000000E+00  0.00000000E+00  0.00000000E+00
  0.00000000E+00  0.00000000E+00  0.00000000E+00
  0.00000000E+00  0.00000000E+00  0.00000000E+00
  0.00000000E+00  0.00000000E+00  0.00000000E+00
  0.00000000E+00  0.00000000E+00  0.00000000E+00
  0.00000000E+00  0.00000000E+00  0.00000000E+00
  0.00000000E+00  0.00000000E+00  0.00000000E+00
  0.00000000E+00  0.00000000E+00  0.00000000E+00
  0.00000000E+00  0.00000000E+00  0.00000000E+00
  0.00000000E+00  0.00000000E+00  0.00000000E+00
  0.00000000E+00  0.00000000E+00  0.00000000E+00
  0.00000000E+00  0.00000000E+00  0.00000000E+00
  0.00000000E+00  0.00000000E+00  0.00000000E+00
  0.00000000E+00  0.00000000E+00  0.00000000E+00
  0.00000000E+00  0.00000000E+00  0.00000000E+00
  0.00000000E+00  0.00000000E+00  0.00000000E+00
  0.00000000E+00  0.00000000E+00  0.00000000E+00
  0.00000000E+00  0.00000000E+00  0.00000000E+00
  0.00000000E+00  0.00000000E+00  0.00000000E+00
  0.00000000E+00  0.00000000E+00  0.00000000E+00
  0.00000000E+00  0.00000000E+00  0.00000000E+00
  0.00000000E+00  0.00000000E+00  0.00000000E+00
  0.00000000E+00  0.00000000E+00  0.00000000E+00
  0.00000000E+00  0.00000000E+00  0.00000000E+00
  0.00000000E+00  0.00000000E+00  0.00000000E+00
  0.00000000E+00  0.00000000E+00  0.00000000E+00
  0.00000000E+00  0.00000000E+00  0.00000000E+00
  0.00000000E+00  0.00000000E+00  0.00000000E+00
  0.00000000E+00  0.00000000E+00  0.00000000E+00
  0.00000000E+00  0.00000000E+00  0.00000000E+00
  0.00000000E+00  0.00000000E+00  0.00000000E+00
  0.00000000E+00  0.00000000E+00  0.00000000E+00
  0.00000000E+00  0.00000000E+00  0.00000000E+00
  0.00000000E+00  0.00000000E+00  0.00000000E+00
  0.00000000E+00  0.00000000E+00  0.00000000E+00
  0.00000000E+00  0.00000000E+00  0.00000000E+00
  0.00000000E+00  0.00000000E+00  0.00000000E+00
  0.00000000E+00  0.00000000E+00  0.00000000E+00
  0.00000000E+00  0.00000000E+00  0.00000000E+00
  0.00000000E+00  0.00000000E+00  0.00000000E+00
  0.00000000E+00  0.00000000E+00  0.00000000E+00
  0.00000000E+00  0.00000000E+00  0.00000000E+00
  0.00000000E+00  0.00000000E+00  0.00000000E+00
  0.00000000E+00  0.00000000E+00  0.00000000E+00
  0.00000000E+00  0.00000000E+00  0.00000000E+00
  0.00000000E+00  0.00000000E+00  0.00000000E+00
  0.00000000E+00  0.00000000E+00  0.00000000E+00
  0.00000000E+00  0.00000000E+00  0.00000000E+00
  0.00000000E+00  0.00000000E+00  0.00000000E+00
  0.00000000E+00  0.00000000E+00  0.00000000E+00
  0.00000000E+00  0.00000000E+00  0.00000000E+00
  0.00000000E+00  0.00000000E+00  0.00000000E+00
  0.00000000E+00  0.00000000E+00  0.00000000E+00
  0.00000000E+00  0.00000000E+00  0.00000000E+00
  0.00000000E+00  0.00000000E+00  0.00000000E+00
  0.00000000E+00  0.00000000E+00  0.00000000E+00
  0.00000000E+00  0.00000000E+00  0.00000000E+00
  0.00000000E+00  0.00000000E+00  0.00000000E+00
  0.00000000E+00  0.00000000E+00  0.00000000E+00
  0.00000000E+00  0.00000000E+00  0.00000000E+00
  0.00000000E+00  0.00000000E+00  0.00000000E+00
  0.00000000E+00  0.00000000E+00  0.00000000E+00
  0.00000000E+00  0.00000000E+00  0.00000000E+00
  0.00000000E+00  0.00000000E+00  0.00000000E+00
  0.00000000E+00  0.00000000E+00  0.00000000E+00
  0.00000000E+00  0.00000000E+00  0.00000000E+00
  0.00000000E+00  0.00000000E+00  0.00000000E+00
  0.00000000E+00  0.00000000E+00  0.00000000E+00
  0.00000000E+00  0.00000000E+00  0.00000000E+00
  0.00000000E+00  0.00000000E+00  0.00000000E+00
  0.00000000E+00  0.00000000E+00  0.00000000E+00
  0.00000000E+00  0.00000000E+00  0.00000000E+00
