supercell of POSCAR                     
   1.03228000000000     
     6.3970863126299999    5.5387332920799999    4.9397337979799998
   -15.9736979067999982   -5.5365852353599996    9.8547656895600007
     6.4026568282999996  -11.0930079636999999    0.0094448205590600
   Sc   Al   N 
    32    64    95
Direct
  0.3647670570633395  0.0681835944486693  0.3113028551112649
  0.8353451662588753  0.3091036403996554  0.4340600761270466
  0.0278429096911879  0.2351070868783438  0.3070479167655904
  0.1963619057684340  0.1526482166007455  0.4411604953677681
  0.0217846550741427  0.2328653387473736  0.0679470727480620
  0.0435293265084198  0.4634909665230040  0.3705773527506153
  0.2358494379524174  0.3929757169506658  0.0053642783027144
  0.6870197938704834  0.1296633153034676  0.1179699571092101
  0.3675373488059321  0.0694948576592793  0.8107852412800582
  0.8348932002971523  0.3095142532227300  0.9342989926645160
  0.0224607494336126  0.2323474640980905  0.8048428825710943
  0.1899678054100562  0.1493538593779746  0.9389227050184559
  0.0257791136106960  0.2361642388572278  0.5687860400774341
  0.0439702977557985  0.4635506356026156  0.8700481071434112
  0.2381741154838366  0.3949352086097591  0.5060984908415875
  0.6850321533641193  0.1296026376323880  0.6190267236735423
  0.3718508813212935  0.5692766648792968  0.3111857216979246
  0.8312733391059481  0.8081376245393415  0.4347979540002740
  0.0193295283442225  0.7300136034182643  0.3036691147320099
  0.1897243330428253  0.6467325120041068  0.4385843401876599
  0.0178037275150729  0.7303841076816013  0.0662887184584662
  0.0272770706374317  0.9618635562128262  0.3660853325319167
  0.2281570588786366  0.8911529137221379  0.0024491152171393
  0.6913711045640198  0.6282396300827102  0.1179614749665205
  0.3721731224530060  0.5699149473605729  0.8100369911836722
  0.8307932231279125  0.8076546566721063  0.9326753673728589
  0.0215787098072582  0.7302937899075133  0.8034804042213395
  0.1888466361601786  0.6465417050881683  0.9354586079995286
  0.0214514089659801  0.7310394154914235  0.5675891238954947
  0.0384102356322416  0.9628256988136812  0.8692614196713677
  0.2254487912596943  0.8917072264448436  0.5035788658467339
  0.6921179481879420  0.6289510339291695  0.6189131621940902
  0.3555240463057388  0.0708017931102134  0.0637448622964740
  0.5397370574880043  0.4859951825784421  0.4354915745757211
  0.5422944522184778  0.4869784852756993  0.1932729258006489
  0.6949084088017941  0.4079484564727096  0.3116526160587370
  0.6915898985691840  0.4031414854548103  0.0648794673932258
  0.8554019116164540  0.3222202337696913  0.1843138738072625
  0.2002921644233879  0.1499538461085876  0.1854846513553454
  0.0522622208126649  0.4704773061847476  0.1234767117893369
  0.2350025379990086  0.3894993543279384  0.2489999156243030
  0.3989296116633056  0.3082471808504650  0.1295203224958570
  0.5568365513311591  0.2294103788517319  0.2480608812951033
  0.3998009234331690  0.3101627523954704  0.3747914265443484
  0.5506459000086892  0.2278555227278360  0.0048346587546035
  0.8855219770285743  0.0634026021568843  0.2172911116039984
  0.7285181991001508  0.1356218794997446  0.3755239984593288
  0.8810160566627303  0.0513226109641209  0.9956579249169835
  0.3511773794952830  0.0702104076007473  0.5625701884193717
  0.5399029273507381  0.4858043762495896  0.9354234948976625
  0.5418918608240944  0.4870131235863298  0.6934406343908393
  0.6950189079153191  0.4079449540406870  0.8122257207294723
  0.6915545631350568  0.4031010052742587  0.5646402473536796
  0.8555358209923298  0.3223831507679336  0.6838604993232309
  0.1995721183565990  0.1503776043583684  0.6888069123834271
  0.0516502555500509  0.4702411385422849  0.6230818821405109
  0.2352400100107843  0.3897703237954318  0.7499316600030426
  0.4013757853073869  0.3095205551801712  0.6308418250129932
  0.5560300097558795  0.2297505450691304  0.7478916690690482
  0.3968680705210161  0.3089658861842111  0.8749097628775147
  0.5527812035102357  0.2281674495797290  0.5052017699226212
  0.8827875756299264  0.0525494147158838  0.7530268898908545
  0.7253505583384126  0.1364989842043229  0.8749231192471356
  0.8831188601812343  0.0629135447334761  0.5381945944552129
  0.3594766257633069  0.5709275480864520  0.0637432979135255
  0.5308842195108596  0.9830078369910851  0.4345560441706695
  0.5326427279991179  0.9840868950491384  0.1908821043098925
  0.6174809988124537  0.8714862872077234  0.2931018865648909
  0.6829912947225623  0.9000171999540925  0.0611499307936114
  0.8533388601837260  0.8217996409926016  0.1820373326805722
  0.1954624323938035  0.6477186409542739  0.1848429088745291
  0.0506488235455649  0.9703451297984245  0.1220309798375396
  0.2292247476162643  0.8876422954736967  0.2487829196980869
  0.3853713874673090  0.8045785943765011  0.1189974551669408
  0.5580087870403290  0.7250452123653091  0.2470074205858310
  0.3851246326740920  0.8056515848874710  0.3792997480248985
  0.5497647871923235  0.7264163550243765  0.0035750428394437
  0.8899377747442756  0.5526720705290558  0.2474338009164683
  0.7314311613162232  0.6364045903036200  0.3758060459656676
  0.8875603706000845  0.5515334980626534  0.0013608381110970
  0.3602448017828408  0.5717333759731105  0.5649914224387445
  0.5325121394073946  0.9842210353251772  0.9343172529152852
  0.5333771643164411  0.9851429082183714  0.6915519631343017
  0.6875326006303624  0.9056942778106958  0.8104924479381737
  0.6835691114760323  0.9003946286296696  0.5653463148482629
  0.8534982083816374  0.8215444624719197  0.6837602686757904
  0.1967876978684870  0.6485765503486505  0.6853154585792112
  0.0493311652853237  0.9707083281402902  0.6239989606073877
  0.2295845541241945  0.8881793061309864  0.7480038532293989
  0.3935684136380004  0.8066299816356661  0.6295455887257333
  0.5561970434039338  0.7293985480940819  0.7472113154881157
  0.3921832923688484  0.8070037002581358  0.8715953749091341
  0.5500990069446132  0.7269091390177849  0.5060099318280038
  0.8878595080820091  0.5520089635991283  0.7468281765998483
  0.7299159505526802  0.6363278331788464  0.8748907360792657
  0.8859711727253625  0.5510772120281686  0.5013176800192554
  0.5785120022112551  0.1779226349764897  0.3665484311206839
  0.5272681238205692  0.1708218314714856  0.1097530601214984
  0.7226971421068740  0.0760684072681954  0.4764179708276046
  0.7253446131281294  0.0768104964929819  0.2444082065422464
  0.0465606217611594  0.4116894433577158  0.4939705152851559
  0.8837260083624869  0.4960197666187440  0.1109519520812867
  0.0617943102011154  0.4110965321002027  0.2238029458669430
  0.2394645132835649  0.3370437678461471  0.3570050959677076
  0.3971455162205615  0.2590061309641243  0.4880075515798836
  0.2385650650873075  0.3328006077054511  0.1211857306953092
  0.3866019118016624  0.2490060147409778  0.2382058463498709
  0.2387483586057257  0.0650663914844785  0.1644749071399758
  0.2414727022494105  0.0606347734171848  0.4262247314175625
  0.4308815060645088  0.4809434329754581  0.2982294144202271
  0.4453334268634208  0.0001812477389294  0.0581687769170713
  0.5854234364261757  0.4040340950982255  0.1743751528219732
  0.7446556780036389  0.3265391621232041  0.2890584005202754
  0.5896958958856189  0.4036066249601049  0.4244889160465988
  0.7341157034918808  0.3206714060265057  0.0586702280773821
  0.8892419053800182  0.2368072698285886  0.1733848127076953
  0.0776026899840616  0.1395956130749738  0.2863673532251809
  0.9117792353225838  0.2268873414564965  0.4206891178591121
  0.0715999303009340  0.1413425231116392  0.0581394261964192
  0.5784599952492826  0.1800675597780810  0.8661981227282638
  0.5234850609197537  0.1701548150038832  0.6082710678640950
  0.7214415165912982  0.0787905256015264  0.9771640801817227
  0.7229051964365141  0.0795999146329649  0.7432303856733853
  0.8738074372247979  0.0012856092643645  0.8601807844615692
  0.0477444783951029  0.4127807372806132  0.9945387007878992
  0.8822948354372500  0.4951719213105221  0.6103932529665457
  0.0612107114257157  0.4105429764655710  0.7232888711164591
  0.2363519950092368  0.3357166824965105  0.8557081300910028
  0.3937369565357756  0.2574169909624757  0.9875889992978060
  0.2414195690850462  0.3343434902721327  0.6211976378316848
  0.3861701776266742  0.2494220408871897  0.7373462319823147
  0.2369032244813951  0.0652584216823229  0.6637708305541636
  0.2528038852621250  0.0630277298093560  0.9282805469847020
  0.4308738477011644  0.4810834727921787  0.7987606962245621
  0.4428113124396660  0.0000586513590761  0.5557023948821538
  0.5866287365140437  0.4045231322135550  0.6748357503165394
  0.7446661685271465  0.3265552092191513  0.7882528709068168
  0.5885810021665421  0.4029742658002107  0.9246536391350659
  0.7344220896438571  0.3207082573552711  0.5579169270061541
  0.8872471160082256  0.2363462523131332  0.6694396240318738
  0.0762237856646948  0.1411099846565378  0.7844055267682393
  0.9106184434902360  0.2277293478201372  0.9209458240718931
  0.0727239911168809  0.1415108537475191  0.5562794930717203
  0.5826397850177045  0.6812687654226508  0.3665067767291603
  0.5306501062699027  0.6710715809828827  0.1096931076771810
  0.7275033451169577  0.5798842106311426  0.4772972902518759
  0.7320213641396478  0.5815043854800876  0.2451596383714829
  0.8813689177474586  0.5033938932641746  0.3605524966944742
  0.0397468299119836  0.9153202576248916  0.4903079677892492
  0.8761992663909908  0.9929216100678389  0.1053722082941064
  0.0590675458973990  0.9127822636759575  0.2267164620302964
  0.2319450563928172  0.8352266166042028  0.3560231234916671
  0.3924855068758148  0.7563072622997851  0.4889652889856038
  0.2325221535714519  0.8324779502099062  0.1198433326693333
  0.4075514302315995  0.7601458130249839  0.2422317999157286
  0.2438949166171014  0.5666665332172371  0.1648271238349253
  0.2587379128160947  0.5627483476117874  0.4285408350919298
  0.4256592802205788  0.9798150732080728  0.2980657512791183
  0.4518302306392314  0.5016115637168781  0.0588176012919490
  0.5757080567727826  0.9014800940058905  0.1699319150387524
  0.7498991446882783  0.8309056252742550  0.2902311716586610
  0.5809309005291823  0.9010408704395161  0.4250502792158599
  0.7313640089559712  0.8205951861270648  0.0580908939219711
  0.8887880765217560  0.7385090122795361  0.1716527682695173
  0.0847763498630627  0.6434466470571962  0.2856732510450044
  0.9135582792342802  0.7300397206255624  0.4221108360026307
  0.0796344818288688  0.6436813923774096  0.0573369199597806
  0.5818776537620352  0.6811033085422480  0.8669217165156979
  0.5310811258930599  0.6713360081050723  0.6104522233352512
  0.7289964625312351  0.5801423042648679  0.9776679288605763
  0.7300320933461961  0.5807533719236488  0.7449946951676765
  0.8815255643821018  0.5033287543122427  0.8612264443547488
  0.0427615264763048  0.9123513236028344  0.9939719963277938
  0.8758175115459039  0.9936617733757060  0.6154232412036293
  0.0586069908965214  0.9114259055811971  0.7222483365096721
  0.2341661485882796  0.8353911681642714  0.8546300227932946
  0.3919550958676012  0.7560346004057195  0.9844944475421755
  0.2360282195201364  0.8335187902024117  0.6195640278184769
  0.3862358666395380  0.7489478368805891  0.7365973572828892
  0.2412601600662612  0.5650795468293026  0.6636781013176005
  0.2589166632391766  0.5630202100244048  0.9280036027412351
  0.4249701359472766  0.9803762401826361  0.7977969560373879
  0.4522998189967211  0.5019939398223769  0.5588928997486136
  0.5792878780059851  0.9031096256302575  0.6737112059560175
  0.7441030670846516  0.8273838818723860  0.7883859310626491
  0.5829881271778916  0.9019741278644133  0.9233205323864269
  0.7319044206837475  0.8208059279508362  0.5583693340907843
  0.8902625101446162  0.7382372466129539  0.6712284642222102
  0.0801414582496704  0.6414750723960836  0.7841532889442746
  0.9128564384448623  0.7291445940900871  0.9207434413400790
  0.0757508991740110  0.6420154611948092  0.5565346301895957
 
  0.00000000E+00  0.00000000E+00  0.00000000E+00
  0.00000000E+00  0.00000000E+00  0.00000000E+00
  0.00000000E+00  0.00000000E+00  0.00000000E+00
  0.00000000E+00  0.00000000E+00  0.00000000E+00
  0.00000000E+00  0.00000000E+00  0.00000000E+00
  0.00000000E+00  0.00000000E+00  0.00000000E+00
  0.00000000E+00  0.00000000E+00  0.00000000E+00
  0.00000000E+00  0.00000000E+00  0.00000000E+00
  0.00000000E+00  0.00000000E+00  0.00000000E+00
  0.00000000E+00  0.00000000E+00  0.00000000E+00
  0.00000000E+00  0.00000000E+00  0.00000000E+00
  0.00000000E+00  0.00000000E+00  0.00000000E+00
  0.00000000E+00  0.00000000E+00  0.00000000E+00
  0.00000000E+00  0.00000000E+00  0.00000000E+00
  0.00000000E+00  0.00000000E+00  0.00000000E+00
  0.00000000E+00  0.00000000E+00  0.00000000E+00
  0.00000000E+00  0.00000000E+00  0.00000000E+00
  0.00000000E+00  0.00000000E+00  0.00000000E+00
  0.00000000E+00  0.00000000E+00  0.00000000E+00
  0.00000000E+00  0.00000000E+00  0.00000000E+00
  0.00000000E+00  0.00000000E+00  0.00000000E+00
  0.00000000E+00  0.00000000E+00  0.00000000E+00
  0.00000000E+00  0.00000000E+00  0.00000000E+00
  0.00000000E+00  0.00000000E+00  0.00000000E+00
  0.00000000E+00  0.00000000E+00  0.00000000E+00
  0.00000000E+00  0.00000000E+00  0.00000000E+00
  0.00000000E+00  0.00000000E+00  0.00000000E+00
  0.00000000E+00  0.00000000E+00  0.00000000E+00
  0.00000000E+00  0.00000000E+00  0.00000000E+00
  0.00000000E+00  0.00000000E+00  0.00000000E+00
  0.00000000E+00  0.00000000E+00  0.00000000E+00
  0.00000000E+00  0.00000000E+00  0.00000000E+00
  0.00000000E+00  0.00000000E+00  0.00000000E+00
  0.00000000E+00  0.00000000E+00  0.00000000E+00
  0.00000000E+00  0.00000000E+00  0.00000000E+00
  0.00000000E+00  0.00000000E+00  0.00000000E+00
  0.00000000E+00  0.00000000E+00  0.00000000E+00
  0.00000000E+00  0.00000000E+00  0.00000000E+00
  0.00000000E+00  0.00000000E+00  0.00000000E+00
  0.00000000E+00  0.00000000E+00  0.00000000E+00
  0.00000000E+00  0.00000000E+00  0.00000000E+00
  0.00000000E+00  0.00000000E+00  0.00000000E+00
  0.00000000E+00  0.00000000E+00  0.00000000E+00
  0.00000000E+00  0.00000000E+00  0.00000000E+00
  0.00000000E+00  0.00000000E+00  0.00000000E+00
  0.00000000E+00  0.00000000E+00  0.00000000E+00
  0.00000000E+00  0.00000000E+00  0.00000000E+00
  0.00000000E+00  0.00000000E+00  0.00000000E+00
  0.00000000E+00  0.00000000E+00  0.00000000E+00
  0.00000000E+00  0.00000000E+00  0.00000000E+00
  0.00000000E+00  0.00000000E+00  0.00000000E+00
  0.00000000E+00  0.00000000E+00  0.00000000E+00
  0.00000000E+00  0.00000000E+00  0.00000000E+00
  0.00000000E+00  0.00000000E+00  0.00000000E+00
  0.00000000E+00  0.00000000E+00  0.00000000E+00
  0.00000000E+00  0.00000000E+00  0.00000000E+00
  0.00000000E+00  0.00000000E+00  0.00000000E+00
  0.00000000E+00  0.00000000E+00  0.00000000E+00
  0.00000000E+00  0.00000000E+00  0.00000000E+00
  0.00000000E+00  0.00000000E+00  0.00000000E+00
  0.00000000E+00  0.00000000E+00  0.00000000E+00
  0.00000000E+00  0.00000000E+00  0.00000000E+00
  0.00000000E+00  0.00000000E+00  0.00000000E+00
  0.00000000E+00  0.00000000E+00  0.00000000E+00
  0.00000000E+00  0.00000000E+00  0.00000000E+00
  0.00000000E+00  0.00000000E+00  0.00000000E+00
  0.00000000E+00  0.00000000E+00  0.00000000E+00
  0.00000000E+00  0.00000000E+00  0.00000000E+00
  0.00000000E+00  0.00000000E+00  0.00000000E+00
  0.00000000E+00  0.00000000E+00  0.00000000E+00
  0.00000000E+00  0.00000000E+00  0.00000000E+00
  0.00000000E+00  0.00000000E+00  0.00000000E+00
  0.00000000E+00  0.00000000E+00  0.00000000E+00
  0.00000000E+00  0.00000000E+00  0.00000000E+00
  0.00000000E+00  0.00000000E+00  0.00000000E+00
  0.00000000E+00  0.00000000E+00  0.00000000E+00
  0.00000000E+00  0.00000000E+00  0.00000000E+00
  0.00000000E+00  0.00000000E+00  0.00000000E+00
  0.00000000E+00  0.00000000E+00  0.00000000E+00
  0.00000000E+00  0.00000000E+00  0.00000000E+00
  0.00000000E+00  0.00000000E+00  0.00000000E+00
  0.00000000E+00  0.00000000E+00  0.00000000E+00
  0.00000000E+00  0.00000000E+00  0.00000000E+00
  0.00000000E+00  0.00000000E+00  0.00000000E+00
  0.00000000E+00  0.00000000E+00  0.00000000E+00
  0.00000000E+00  0.00000000E+00  0.00000000E+00
  0.00000000E+00  0.00000000E+00  0.00000000E+00
  0.00000000E+00  0.00000000E+00  0.00000000E+00
  0.00000000E+00  0.00000000E+00  0.00000000E+00
  0.00000000E+00  0.00000000E+00  0.00000000E+00
  0.00000000E+00  0.00000000E+00  0.00000000E+00
  0.00000000E+00  0.00000000E+00  0.00000000E+00
  0.00000000E+00  0.00000000E+00  0.00000000E+00
  0.00000000E+00  0.00000000E+00  0.00000000E+00
  0.00000000E+00  0.00000000E+00  0.00000000E+00
  0.00000000E+00  0.00000000E+00  0.00000000E+00
  0.00000000E+00  0.00000000E+00  0.00000000E+00
  0.00000000E+00  0.00000000E+00  0.00000000E+00
  0.00000000E+00  0.00000000E+00  0.00000000E+00
  0.00000000E+00  0.00000000E+00  0.00000000E+00
  0.00000000E+00  0.00000000E+00  0.00000000E+00
  0.00000000E+00  0.00000000E+00  0.00000000E+00
  0.00000000E+00  0.00000000E+00  0.00000000E+00
  0.00000000E+00  0.00000000E+00  0.00000000E+00
  0.00000000E+00  0.00000000E+00  0.00000000E+00
  0.00000000E+00  0.00000000E+00  0.00000000E+00
  0.00000000E+00  0.00000000E+00  0.00000000E+00
  0.00000000E+00  0.00000000E+00  0.00000000E+00
  0.00000000E+00  0.00000000E+00  0.00000000E+00
  0.00000000E+00  0.00000000E+00  0.00000000E+00
  0.00000000E+00  0.00000000E+00  0.00000000E+00
  0.00000000E+00  0.00000000E+00  0.00000000E+00
  0.00000000E+00  0.00000000E+00  0.00000000E+00
  0.00000000E+00  0.00000000E+00  0.00000000E+00
  0.00000000E+00  0.00000000E+00  0.00000000E+00
  0.00000000E+00  0.00000000E+00  0.00000000E+00
  0.00000000E+00  0.00000000E+00  0.00000000E+00
  0.00000000E+00  0.00000000E+00  0.00000000E+00
  0.00000000E+00  0.00000000E+00  0.00000000E+00
  0.00000000E+00  0.00000000E+00  0.00000000E+00
  0.00000000E+00  0.00000000E+00  0.00000000E+00
  0.00000000E+00  0.00000000E+00  0.00000000E+00
  0.00000000E+00  0.00000000E+00  0.00000000E+00
  0.00000000E+00  0.00000000E+00  0.00000000E+00
  0.00000000E+00  0.00000000E+00  0.00000000E+00
  0.00000000E+00  0.00000000E+00  0.00000000E+00
  0.00000000E+00  0.00000000E+00  0.00000000E+00
  0.00000000E+00  0.00000000E+00  0.00000000E+00
  0.00000000E+00  0.00000000E+00  0.00000000E+00
  0.00000000E+00  0.00000000E+00  0.00000000E+00
  0.00000000E+00  0.00000000E+00  0.00000000E+00
  0.00000000E+00  0.00000000E+00  0.00000000E+00
  0.00000000E+00  0.00000000E+00  0.00000000E+00
  0.00000000E+00  0.00000000E+00  0.00000000E+00
  0.00000000E+00  0.00000000E+00  0.00000000E+00
  0.00000000E+00  0.00000000E+00  0.00000000E+00
  0.00000000E+00  0.00000000E+00  0.00000000E+00
  0.00000000E+00  0.00000000E+00  0.00000000E+00
  0.00000000E+00  0.00000000E+00  0.00000000E+00
  0.00000000E+00  0.00000000E+00  0.00000000E+00
  0.00000000E+00  0.00000000E+00  0.00000000E+00
  0.00000000E+00  0.00000000E+00  0.00000000E+00
  0.00000000E+00  0.00000000E+00  0.00000000E+00
  0.00000000E+00  0.00000000E+00  0.00000000E+00
  0.00000000E+00  0.00000000E+00  0.00000000E+00
  0.00000000E+00  0.00000000E+00  0.00000000E+00
  0.00000000E+00  0.00000000E+00  0.00000000E+00
  0.00000000E+00  0.00000000E+00  0.00000000E+00
  0.00000000E+00  0.00000000E+00  0.00000000E+00
  0.00000000E+00  0.00000000E+00  0.00000000E+00
  0.00000000E+00  0.00000000E+00  0.00000000E+00
  0.00000000E+00  0.00000000E+00  0.00000000E+00
  0.00000000E+00  0.00000000E+00  0.00000000E+00
  0.00000000E+00  0.00000000E+00  0.00000000E+00
  0.00000000E+00  0.00000000E+00  0.00000000E+00
  0.00000000E+00  0.00000000E+00  0.00000000E+00
  0.00000000E+00  0.00000000E+00  0.00000000E+00
  0.00000000E+00  0.00000000E+00  0.00000000E+00
  0.00000000E+00  0.00000000E+00  0.00000000E+00
  0.00000000E+00  0.00000000E+00  0.00000000E+00
  0.00000000E+00  0.00000000E+00  0.00000000E+00
  0.00000000E+00  0.00000000E+00  0.00000000E+00
  0.00000000E+00  0.00000000E+00  0.00000000E+00
  0.00000000E+00  0.00000000E+00  0.00000000E+00
  0.00000000E+00  0.00000000E+00  0.00000000E+00
  0.00000000E+00  0.00000000E+00  0.00000000E+00
  0.00000000E+00  0.00000000E+00  0.00000000E+00
  0.00000000E+00  0.00000000E+00  0.00000000E+00
  0.00000000E+00  0.00000000E+00  0.00000000E+00
  0.00000000E+00  0.00000000E+00  0.00000000E+00
  0.00000000E+00  0.00000000E+00  0.00000000E+00
  0.00000000E+00  0.00000000E+00  0.00000000E+00
  0.00000000E+00  0.00000000E+00  0.00000000E+00
  0.00000000E+00  0.00000000E+00  0.00000000E+00
  0.00000000E+00  0.00000000E+00  0.00000000E+00
  0.00000000E+00  0.00000000E+00  0.00000000E+00
  0.00000000E+00  0.00000000E+00  0.00000000E+00
  0.00000000E+00  0.00000000E+00  0.00000000E+00
  0.00000000E+00  0.00000000E+00  0.00000000E+00
  0.00000000E+00  0.00000000E+00  0.00000000E+00
  0.00000000E+00  0.00000000E+00  0.00000000E+00
  0.00000000E+00  0.00000000E+00  0.00000000E+00
  0.00000000E+00  0.00000000E+00  0.00000000E+00
  0.00000000E+00  0.00000000E+00  0.00000000E+00
  0.00000000E+00  0.00000000E+00  0.00000000E+00
  0.00000000E+00  0.00000000E+00  0.00000000E+00
  0.00000000E+00  0.00000000E+00  0.00000000E+00
  0.00000000E+00  0.00000000E+00  0.00000000E+00
  0.00000000E+00  0.00000000E+00  0.00000000E+00
  0.00000000E+00  0.00000000E+00  0.00000000E+00
  0.00000000E+00  0.00000000E+00  0.00000000E+00
