supercell of POSCAR                     
   1.03228000000000     
     6.3970863126299999    5.5387332920799999    4.9397337979799998
   -15.9736979067999982   -5.5365852353599996    9.8547656895600007
     6.4026568282999996  -11.0930079636999999    0.0094448205590600
   Sc   Al   N 
    32    63    96
Direct
  0.3655718499814995  0.0689243282681744  0.3096832963212037
  0.8364716233214722  0.3100758776175638  0.4342598846788164
  0.0240035406122345  0.2335083136476044  0.3036442020602479
  0.1881721354532857  0.1481304232198752  0.4371900416568124
  0.0200225513594177  0.2328769047921000  0.0667733166650919
  0.0421588379521225  0.4630768505610305  0.3688625640153376
  0.2403149486624301  0.3930331488699395  0.0074787555935032
  0.6879097006122521  0.1278425597842912  0.1173813737891294
  0.3651805496625187  0.0690721861973600  0.8094322205230924
  0.8415601786839630  0.3125570134993225  0.9374111704710657
  0.0237576800266837  0.2343140127284968  0.8071323242212216
  0.1894664641005832  0.1495330934183130  0.9378184847726416
  0.0230762957517356  0.2331216230334903  0.5676714187559142
  0.0475503556618335  0.4647099926065081  0.8757059329987129
  0.2328926214324483  0.3926087423025990  0.5029761762389313
  0.6913387339119339  0.1292678706142496  0.6190402174935699
  0.3650333020314207  0.5645411356110870  0.3099180719236188
  0.8221529452707514  0.8056890556471146  0.4283344407678342
  0.0211820873448403  0.7309399330826594  0.3047298454461256
  0.1888859628058199  0.6476711626200924  0.4366643155729264
  0.0223332376848688  0.7316432045688259  0.0658259908057914
  0.0327361529794175  0.9611551681452397  0.3673421669575490
  0.2275212333931904  0.8913800842712050  0.0022429840062586
  0.6985708246235163  0.6274729724340986  0.1182276508560633
  0.3732505124404213  0.5704158561339483  0.8113402963962955
  0.8328898471505468  0.8093850910058933  0.9316838079715026
  0.0217612117924375  0.7300879033768126  0.8026561515575139
  0.1926202343577188  0.6481735233858785  0.9394318065944987
  0.0193444316292926  0.7309216206043772  0.5667113033702478
  0.0369466756241152  0.9638639463527809  0.8681326657872432
  0.2248097680620162  0.8908377248024806  0.5028901864498607
  0.6897196835067589  0.6289282907873996  0.6184888567560876
  0.3541483538386885  0.0709127369330247  0.0631937934129780
  0.5395239765163211  0.4843967757630736  0.4360135200398503
  0.5445114122647183  0.4869133077871695  0.1948074997549583
  0.6932672462702598  0.4067744297955613  0.3112113132712793
  0.6916050047162372  0.4052044380560744  0.0660662823081921
  0.8632564330005152  0.3243536263467632  0.1860659460358605
  0.1937848093262247  0.1490780324414231  0.1854341980485827
  0.2369145012257903  0.3855512976848914  0.2531403537168870
  0.3977951342789510  0.3063479136661513  0.1304856890143853
  0.5575213571305326  0.2289277758891828  0.2475114864205494
  0.4003112077378717  0.3064389424057978  0.3764744002111584
  0.5541120312023153  0.2287904666505796  0.0064194666061255
  0.8821356569934125  0.0522336063155464  0.2466611487565373
  0.7264197319897505  0.1362051912841764  0.3746785833317432
  0.8816350690059807  0.0518630515736405  0.0000899086329795
  0.3546744358891658  0.0704999998509521  0.5631835526358273
  0.5412349844140394  0.4856949237509056  0.9351887148815479
  0.5396787611215856  0.4860821198780414  0.6926380625784745
  0.6934888836257187  0.4067775067039463  0.8122378635932535
  0.6917576563294716  0.4023074514357958  0.5655892804089930
  0.8568747360846842  0.3230579699311278  0.6865757379707063
  0.1934323976270775  0.1491460881907258  0.6849634630658841
  0.0520319852942137  0.4706265681393660  0.6252255277153438
  0.2333414151449631  0.3888046826251497  0.7500059349413419
  0.3979871395454424  0.3071838671285150  0.6294016852420299
  0.5562363135581947  0.2287345221216484  0.7486914048920923
  0.3965382836468478  0.3074985572838571  0.8733255845265973
  0.5526593976569387  0.2265274090753593  0.5062524174141672
  0.8832625177515609  0.0530113687612612  0.7466611613317795
  0.7231318502943509  0.1351590033664110  0.8743052087115686
  0.8802897405241481  0.0507853453853926  0.4993929003541240
  0.3725648011524072  0.5750932358115151  0.0647070942664101
  0.5318170614919282  0.9844952628753134  0.4340954248311988
  0.5335817284196196  0.9853828117057191  0.1913808402214556
  0.6869961864100489  0.9046429695567255  0.3090533690340678
  0.6870143341020238  0.9030786988335038  0.0629877213340890
  0.8474878026358823  0.8195211285181614  0.1824077431179134
  0.1967938569183119  0.6512769859867689  0.1864948236951065
  0.0459300316936364  0.9698849001992755  0.1219113178248250
  0.2267879671269100  0.8877822070752615  0.2471193612434988
  0.3966838907266705  0.8084472440238031  0.1287469369685752
  0.5174022075481801  0.7082403394045400  0.2379475080167666
  0.3937571549323877  0.8088343338697612  0.3733246225532270
  0.5548117252138169  0.7289487544038167  0.0028464219174182
  0.8829129464438239  0.5530118446824730  0.2462983437552708
  0.7267829420394492  0.6370884445689100  0.3790179373692055
  0.8813001945880217  0.5516533489025548  0.0012702832700029
  0.3576493930427063  0.5715867253427049  0.5647902081686027
  0.5315172670064499  0.9840468088935026  0.9333868348432901
  0.5328811559062530  0.9851148403658883  0.6905932566317219
  0.6887326366931461  0.9074655141144277  0.8098839377386682
  0.6857418747191062  0.9023783992358219  0.5634286688733283
  0.8523862534345952  0.8220845595983306  0.6817893481770767
  0.1965345608978808  0.6489641966607849  0.6858985939776261
  0.0456427906092429  0.9697531034146962  0.6209390082161121
  0.2280678909978562  0.8877710264093608  0.7472301604161160
  0.3939041202037501  0.8067908251136089  0.6273899796439508
  0.5559734881389531  0.7302032261494986  0.7465594060271883
  0.3933345413766105  0.8074744406692957  0.8730357208424522
  0.5482897537963467  0.7264072561953796  0.5043679942851469
  0.8877149420957977  0.5515943329847772  0.7485168167514118
  0.7293725844598811  0.6381997427116701  0.8724800520117810
  0.8853766219532346  0.5505626770451144  0.5010654779876091
  0.5784063945341700  0.1789451880310082  0.3670116803622108
  0.5268483857690853  0.1698210048375657  0.1093655832257170
  0.7203117658540563  0.0784481344291663  0.4761068549687479
  0.7214343977712545  0.0789084327781140  0.2438588960744710
  0.8725137234432765  0.0022384237938056  0.3591079629753438
  0.0460781846236955  0.4133183529734978  0.4967167590171968
  0.8465711703849834  0.5033473943246278  0.1077015121432296
  0.0682544146710171  0.4006116590872821  0.2450164522736173
  0.2438861826762633  0.3327272562503367  0.3606021129471841
  0.3959124529920430  0.2554614229729779  0.4891377697573418
  0.2381960690092484  0.3300784477061072  0.1228121039783048
  0.3865473863532145  0.2469544578137217  0.2382927370642705
  0.2359767256643792  0.0646662871174044  0.1627773640660521
  0.2511380601151600  0.0617358390956966  0.4271862887107574
  0.4317912830295754  0.4781531846403837  0.2995195718694532
  0.4423353176751519  0.9992642975057962  0.0560519120082361
  0.5808454128448801  0.4015801779833694  0.1756718857475121
  0.7430519468267391  0.3257263751440505  0.2890191798986379
  0.5898746848490291  0.4019472085552280  0.4262493555115086
  0.7354610150795651  0.3221168942515718  0.0608231482200665
  0.8837255553401562  0.2340318104636196  0.1686720924110361
  0.0758149343517687  0.1414239564779223  0.2844510302185412
  0.9115717723676156  0.2279635108693370  0.4204008355401356
  0.0725089154990215  0.1421504260519342  0.0557130471922633
  0.5746198670971765  0.1781741428885155  0.8661254327474097
  0.5284649318582026  0.1694669290887632  0.6105040445308632
  0.7186459963180951  0.0769552733564609  0.9749065833874013
  0.7208829757745292  0.0783736710237477  0.7431493892987930
  0.8738701390698367  0.0029302189553135  0.8592380041429379
  0.0528616955259693  0.4038753869263800  0.9791692341018887
  0.8821089011452869  0.4953281766295632  0.6117417432052150
  0.0620761486917658  0.4120440721739556  0.7252203291290016
  0.2392399048257801  0.3349300587518016  0.8549472992085185
  0.3944689997501527  0.2566351268058327  0.9873867248268411
  0.2394684853380866  0.3336332158762758  0.6204313397836003
  0.3848529957877744  0.2475045695766269  0.7359857305257762
  0.2355826681392585  0.0646714100798675  0.6624001187161284
  0.2517377169001023  0.0627391299972331  0.9272414202945995
  0.4289501986000204  0.4806082213186968  0.7977573587137101
  0.4418925214505904  0.9988979687871335  0.5563050555692257
  0.5841959415769153  0.4034477136136019  0.6738965919785258
  0.7415445762170805  0.3253020245877991  0.7882016481132013
  0.5842668392120700  0.4009080522780266  0.9210448312966619
  0.7348073981889698  0.3201365628663382  0.5592453874768708
  0.8899940103522184  0.2377994314733485  0.6712899756246387
  0.0764128941827735  0.1422857269455662  0.7844605947945951
  0.9057325179189277  0.2253030327500767  0.9196465759014885
  0.0715011135558825  0.1416385502890378  0.5552165186811351
  0.5808072429832833  0.6793327583531195  0.3728776206445019
  0.5490018936567722  0.6743159380749262  0.1039992508209338
  0.7272058249645497  0.5793830214112745  0.4801039041672013
  0.7262060937304966  0.5830321985931235  0.2512035733284392
  0.8764841239656178  0.5029007551206988  0.3602599181683033
  0.0382984641704454  0.9113856176112805  0.4923433065006719
  0.8772351172607600  0.9958875298061329  0.1093337164255743
  0.0566974337080879  0.9109568716499155  0.2215612563549172
  0.2334457688434242  0.8362079547332897  0.3554115550010550
  0.3922519249559784  0.7573668475181066  0.4866074789312194
  0.2365395890863624  0.8338978102481391  0.1190454361057647
  0.3858532443508693  0.7542745210806316  0.2372323091579389
  0.3109805561345809  0.6007739234496370  0.1823700813073259
  0.2565163043099830  0.5640634977207455  0.4302569094931954
  0.4230905662033564  0.9796836326772222  0.2969340923659374
  0.4570825307499007  0.5025936945535179  0.0598421128130298
  0.5812593180264116  0.9043124481725400  0.1720595538501684
  0.7438819123106626  0.8275253572063050  0.2871334174663431
  0.5840219677953229  0.9031752671399502  0.4242263448236727
  0.7349451936914733  0.8230164257434822  0.0557674034945350
  0.8951055431592465  0.7390336103867270  0.1710495867537958
  0.0793052128893805  0.6423946542556465  0.2852769147328829
  0.9122936977305898  0.7297725548784584  0.4222718489258455
  0.0755265384469368  0.6423617447712218  0.0558912435641830
  0.5826259353472665  0.6827035138321733  0.8634643369798098
  0.5291719222374454  0.6715273508638049  0.6106846104333030
  0.7238621483182186  0.5816477371499005  0.9706574908405017
  0.7292721861426230  0.5807085949386206  0.7431653420186635
  0.8780043022566915  0.5023023933492823  0.8608782864488660
  0.0427291687702436  0.9135343788049326  0.9920923567539504
  0.8767869775128361  0.9954124329682088  0.6100183760028557
  0.0575992869801354  0.9112871564109781  0.7224660109355554
  0.2336783148843367  0.8350079103657322  0.8540275216287228
  0.3951511446363440  0.7578343834537904  0.9870253785563534
  0.2348563007892679  0.8324417587694626  0.6198075697871559
  0.3856410765407077  0.7494584587669095  0.7363597232947683
  0.2416668208918864  0.5660009369350334  0.6655434018455608
  0.2638108282445302  0.5653655970911871  0.9304575596186027
  0.4226723603720828  0.9795542782406628  0.7965080712824530
  0.4491468084003714  0.5011295438409888  0.5585030114728013
  0.5790466311406632  0.9032060031651739  0.6727669133178225
  0.7436132196989789  0.8283115720818515  0.7871667274644452
  0.5829104721687983  0.9022284386280575  0.9223634177577082
  0.7298480173605100  0.8210019222714990  0.5575839061243926
  0.8888790468137415  0.7383476359027838  0.6713367897950775
  0.0811478819303346  0.6414710606362704  0.7861280567620952
  0.9142997101034211  0.7304827351778229  0.9197312389369969
  0.0754561403429648  0.6422181256503450  0.5569969842070392
 
  0.00000000E+00  0.00000000E+00  0.00000000E+00
  0.00000000E+00  0.00000000E+00  0.00000000E+00
  0.00000000E+00  0.00000000E+00  0.00000000E+00
  0.00000000E+00  0.00000000E+00  0.00000000E+00
  0.00000000E+00  0.00000000E+00  0.00000000E+00
  0.00000000E+00  0.00000000E+00  0.00000000E+00
  0.00000000E+00  0.00000000E+00  0.00000000E+00
  0.00000000E+00  0.00000000E+00  0.00000000E+00
  0.00000000E+00  0.00000000E+00  0.00000000E+00
  0.00000000E+00  0.00000000E+00  0.00000000E+00
  0.00000000E+00  0.00000000E+00  0.00000000E+00
  0.00000000E+00  0.00000000E+00  0.00000000E+00
  0.00000000E+00  0.00000000E+00  0.00000000E+00
  0.00000000E+00  0.00000000E+00  0.00000000E+00
  0.00000000E+00  0.00000000E+00  0.00000000E+00
  0.00000000E+00  0.00000000E+00  0.00000000E+00
  0.00000000E+00  0.00000000E+00  0.00000000E+00
  0.00000000E+00  0.00000000E+00  0.00000000E+00
  0.00000000E+00  0.00000000E+00  0.00000000E+00
  0.00000000E+00  0.00000000E+00  0.00000000E+00
  0.00000000E+00  0.00000000E+00  0.00000000E+00
  0.00000000E+00  0.00000000E+00  0.00000000E+00
  0.00000000E+00  0.00000000E+00  0.00000000E+00
  0.00000000E+00  0.00000000E+00  0.00000000E+00
  0.00000000E+00  0.00000000E+00  0.00000000E+00
  0.00000000E+00  0.00000000E+00  0.00000000E+00
  0.00000000E+00  0.00000000E+00  0.00000000E+00
  0.00000000E+00  0.00000000E+00  0.00000000E+00
  0.00000000E+00  0.00000000E+00  0.00000000E+00
  0.00000000E+00  0.00000000E+00  0.00000000E+00
  0.00000000E+00  0.00000000E+00  0.00000000E+00
  0.00000000E+00  0.00000000E+00  0.00000000E+00
  0.00000000E+00  0.00000000E+00  0.00000000E+00
  0.00000000E+00  0.00000000E+00  0.00000000E+00
  0.00000000E+00  0.00000000E+00  0.00000000E+00
  0.00000000E+00  0.00000000E+00  0.00000000E+00
  0.00000000E+00  0.00000000E+00  0.00000000E+00
  0.00000000E+00  0.00000000E+00  0.00000000E+00
  0.00000000E+00  0.00000000E+00  0.00000000E+00
  0.00000000E+00  0.00000000E+00  0.00000000E+00
  0.00000000E+00  0.00000000E+00  0.00000000E+00
  0.00000000E+00  0.00000000E+00  0.00000000E+00
  0.00000000E+00  0.00000000E+00  0.00000000E+00
  0.00000000E+00  0.00000000E+00  0.00000000E+00
  0.00000000E+00  0.00000000E+00  0.00000000E+00
  0.00000000E+00  0.00000000E+00  0.00000000E+00
  0.00000000E+00  0.00000000E+00  0.00000000E+00
  0.00000000E+00  0.00000000E+00  0.00000000E+00
  0.00000000E+00  0.00000000E+00  0.00000000E+00
  0.00000000E+00  0.00000000E+00  0.00000000E+00
  0.00000000E+00  0.00000000E+00  0.00000000E+00
  0.00000000E+00  0.00000000E+00  0.00000000E+00
  0.00000000E+00  0.00000000E+00  0.00000000E+00
  0.00000000E+00  0.00000000E+00  0.00000000E+00
  0.00000000E+00  0.00000000E+00  0.00000000E+00
  0.00000000E+00  0.00000000E+00  0.00000000E+00
  0.00000000E+00  0.00000000E+00  0.00000000E+00
  0.00000000E+00  0.00000000E+00  0.00000000E+00
  0.00000000E+00  0.00000000E+00  0.00000000E+00
  0.00000000E+00  0.00000000E+00  0.00000000E+00
  0.00000000E+00  0.00000000E+00  0.00000000E+00
  0.00000000E+00  0.00000000E+00  0.00000000E+00
  0.00000000E+00  0.00000000E+00  0.00000000E+00
  0.00000000E+00  0.00000000E+00  0.00000000E+00
  0.00000000E+00  0.00000000E+00  0.00000000E+00
  0.00000000E+00  0.00000000E+00  0.00000000E+00
  0.00000000E+00  0.00000000E+00  0.00000000E+00
  0.00000000E+00  0.00000000E+00  0.00000000E+00
  0.00000000E+00  0.00000000E+00  0.00000000E+00
  0.00000000E+00  0.00000000E+00  0.00000000E+00
  0.00000000E+00  0.00000000E+00  0.00000000E+00
  0.00000000E+00  0.00000000E+00  0.00000000E+00
  0.00000000E+00  0.00000000E+00  0.00000000E+00
  0.00000000E+00  0.00000000E+00  0.00000000E+00
  0.00000000E+00  0.00000000E+00  0.00000000E+00
  0.00000000E+00  0.00000000E+00  0.00000000E+00
  0.00000000E+00  0.00000000E+00  0.00000000E+00
  0.00000000E+00  0.00000000E+00  0.00000000E+00
  0.00000000E+00  0.00000000E+00  0.00000000E+00
  0.00000000E+00  0.00000000E+00  0.00000000E+00
  0.00000000E+00  0.00000000E+00  0.00000000E+00
  0.00000000E+00  0.00000000E+00  0.00000000E+00
  0.00000000E+00  0.00000000E+00  0.00000000E+00
  0.00000000E+00  0.00000000E+00  0.00000000E+00
  0.00000000E+00  0.00000000E+00  0.00000000E+00
  0.00000000E+00  0.00000000E+00  0.00000000E+00
  0.00000000E+00  0.00000000E+00  0.00000000E+00
  0.00000000E+00  0.00000000E+00  0.00000000E+00
  0.00000000E+00  0.00000000E+00  0.00000000E+00
  0.00000000E+00  0.00000000E+00  0.00000000E+00
  0.00000000E+00  0.00000000E+00  0.00000000E+00
  0.00000000E+00  0.00000000E+00  0.00000000E+00
  0.00000000E+00  0.00000000E+00  0.00000000E+00
  0.00000000E+00  0.00000000E+00  0.00000000E+00
  0.00000000E+00  0.00000000E+00  0.00000000E+00
  0.00000000E+00  0.00000000E+00  0.00000000E+00
  0.00000000E+00  0.00000000E+00  0.00000000E+00
  0.00000000E+00  0.00000000E+00  0.00000000E+00
  0.00000000E+00  0.00000000E+00  0.00000000E+00
  0.00000000E+00  0.00000000E+00  0.00000000E+00
  0.00000000E+00  0.00000000E+00  0.00000000E+00
  0.00000000E+00  0.00000000E+00  0.00000000E+00
  0.00000000E+00  0.00000000E+00  0.00000000E+00
  0.00000000E+00  0.00000000E+00  0.00000000E+00
  0.00000000E+00  0.00000000E+00  0.00000000E+00
  0.00000000E+00  0.00000000E+00  0.00000000E+00
  0.00000000E+00  0.00000000E+00  0.00000000E+00
  0.00000000E+00  0.00000000E+00  0.00000000E+00
  0.00000000E+00  0.00000000E+00  0.00000000E+00
  0.00000000E+00  0.00000000E+00  0.00000000E+00
  0.00000000E+00  0.00000000E+00  0.00000000E+00
  0.00000000E+00  0.00000000E+00  0.00000000E+00
  0.00000000E+00  0.00000000E+00  0.00000000E+00
  0.00000000E+00  0.00000000E+00  0.00000000E+00
  0.00000000E+00  0.00000000E+00  0.00000000E+00
  0.00000000E+00  0.00000000E+00  0.00000000E+00
  0.00000000E+00  0.00000000E+00  0.00000000E+00
  0.00000000E+00  0.00000000E+00  0.00000000E+00
  0.00000000E+00  0.00000000E+00  0.00000000E+00
  0.00000000E+00  0.00000000E+00  0.00000000E+00
  0.00000000E+00  0.00000000E+00  0.00000000E+00
  0.00000000E+00  0.00000000E+00  0.00000000E+00
  0.00000000E+00  0.00000000E+00  0.00000000E+00
  0.00000000E+00  0.00000000E+00  0.00000000E+00
  0.00000000E+00  0.00000000E+00  0.00000000E+00
  0.00000000E+00  0.00000000E+00  0.00000000E+00
  0.00000000E+00  0.00000000E+00  0.00000000E+00
  0.00000000E+00  0.00000000E+00  0.00000000E+00
  0.00000000E+00  0.00000000E+00  0.00000000E+00
  0.00000000E+00  0.00000000E+00  0.00000000E+00
  0.00000000E+00  0.00000000E+00  0.00000000E+00
  0.00000000E+00  0.00000000E+00  0.00000000E+00
  0.00000000E+00  0.00000000E+00  0.00000000E+00
  0.00000000E+00  0.00000000E+00  0.00000000E+00
  0.00000000E+00  0.00000000E+00  0.00000000E+00
  0.00000000E+00  0.00000000E+00  0.00000000E+00
  0.00000000E+00  0.00000000E+00  0.00000000E+00
  0.00000000E+00  0.00000000E+00  0.00000000E+00
  0.00000000E+00  0.00000000E+00  0.00000000E+00
  0.00000000E+00  0.00000000E+00  0.00000000E+00
  0.00000000E+00  0.00000000E+00  0.00000000E+00
  0.00000000E+00  0.00000000E+00  0.00000000E+00
  0.00000000E+00  0.00000000E+00  0.00000000E+00
  0.00000000E+00  0.00000000E+00  0.00000000E+00
  0.00000000E+00  0.00000000E+00  0.00000000E+00
  0.00000000E+00  0.00000000E+00  0.00000000E+00
  0.00000000E+00  0.00000000E+00  0.00000000E+00
  0.00000000E+00  0.00000000E+00  0.00000000E+00
  0.00000000E+00  0.00000000E+00  0.00000000E+00
  0.00000000E+00  0.00000000E+00  0.00000000E+00
  0.00000000E+00  0.00000000E+00  0.00000000E+00
  0.00000000E+00  0.00000000E+00  0.00000000E+00
  0.00000000E+00  0.00000000E+00  0.00000000E+00
  0.00000000E+00  0.00000000E+00  0.00000000E+00
  0.00000000E+00  0.00000000E+00  0.00000000E+00
  0.00000000E+00  0.00000000E+00  0.00000000E+00
  0.00000000E+00  0.00000000E+00  0.00000000E+00
  0.00000000E+00  0.00000000E+00  0.00000000E+00
  0.00000000E+00  0.00000000E+00  0.00000000E+00
  0.00000000E+00  0.00000000E+00  0.00000000E+00
  0.00000000E+00  0.00000000E+00  0.00000000E+00
  0.00000000E+00  0.00000000E+00  0.00000000E+00
  0.00000000E+00  0.00000000E+00  0.00000000E+00
  0.00000000E+00  0.00000000E+00  0.00000000E+00
  0.00000000E+00  0.00000000E+00  0.00000000E+00
  0.00000000E+00  0.00000000E+00  0.00000000E+00
  0.00000000E+00  0.00000000E+00  0.00000000E+00
  0.00000000E+00  0.00000000E+00  0.00000000E+00
  0.00000000E+00  0.00000000E+00  0.00000000E+00
  0.00000000E+00  0.00000000E+00  0.00000000E+00
  0.00000000E+00  0.00000000E+00  0.00000000E+00
  0.00000000E+00  0.00000000E+00  0.00000000E+00
  0.00000000E+00  0.00000000E+00  0.00000000E+00
  0.00000000E+00  0.00000000E+00  0.00000000E+00
  0.00000000E+00  0.00000000E+00  0.00000000E+00
  0.00000000E+00  0.00000000E+00  0.00000000E+00
  0.00000000E+00  0.00000000E+00  0.00000000E+00
  0.00000000E+00  0.00000000E+00  0.00000000E+00
  0.00000000E+00  0.00000000E+00  0.00000000E+00
  0.00000000E+00  0.00000000E+00  0.00000000E+00
  0.00000000E+00  0.00000000E+00  0.00000000E+00
  0.00000000E+00  0.00000000E+00  0.00000000E+00
  0.00000000E+00  0.00000000E+00  0.00000000E+00
  0.00000000E+00  0.00000000E+00  0.00000000E+00
  0.00000000E+00  0.00000000E+00  0.00000000E+00
  0.00000000E+00  0.00000000E+00  0.00000000E+00
  0.00000000E+00  0.00000000E+00  0.00000000E+00
  0.00000000E+00  0.00000000E+00  0.00000000E+00
  0.00000000E+00  0.00000000E+00  0.00000000E+00
  0.00000000E+00  0.00000000E+00  0.00000000E+00
  0.00000000E+00  0.00000000E+00  0.00000000E+00
