supercell of POSCAR                     
   1.03228000000000     
     6.3970863126299999    5.5387332920799999    4.9397337979799998
   -15.9736979067999982   -5.5365852353599996    9.8547656895600007
     6.4026568282999996  -11.0930079636999999    0.0094448205590600
   Sc   Al   N 
    32    63    96
Direct
  0.3644197214364695  0.0680065640883356  0.3092348894393666
  0.8369776919035701  0.3095231066881823  0.4347154719234396
  0.0188653566865469  0.2293416929975010  0.3040402755044624
  0.1895379014511036  0.1488302945149087  0.4382343007514748
  0.0241986737867776  0.2344879129892234  0.0679796014768712
  0.0461402651062173  0.4648829975640112  0.3696366994282840
  0.2575276771185173  0.4013035385156556  0.0149225001192832
  0.6894169607204148  0.1289982250559945  0.1182193254419701
  0.3654684106133885  0.0690773712810184  0.8097990225669065
  0.8398842909437292  0.3100724029713149  0.9339854367167035
  0.0279995113964944  0.2349870649812544  0.8078829725469348
  0.1883431916107838  0.1489382444432081  0.9382833309110623
  0.0237153834889270  0.2335429441987955  0.5679234206718320
  0.0472168358741811  0.4649503749244488  0.8714108374799778
  0.2397543621187808  0.3942737624300108  0.5029350153692391
  0.6916824744017376  0.1295183532409681  0.6195864204861650
  0.3732969044390728  0.5684304011088486  0.3094973616083507
  0.8303337947729261  0.8094365239170713  0.4341626820395419
  0.9986005618001741  0.7185979584992026  0.2972701519931533
  0.1927853692824328  0.6490734760005665  0.4379317681815706
  0.0164888084676846  0.7295265564102351  0.0676083265501717
  0.0358899325827835  0.9632668953994852  0.3686676908881452
  0.2266323185785737  0.8904770230272945  0.0039429890459246
  0.6780557309895556  0.6198598377308429  0.1177818606243051
  0.3739097404699407  0.5704913221687349  0.8120460378339729
  0.8304633936101027  0.8077037357541528  0.9339757907464019
  0.0210977588617780  0.7309493102203817  0.8037099916409005
  0.1887377611569931  0.6508514082496717  0.9370357332177619
  0.0205730948866290  0.7303594422418769  0.5696063624744809
  0.0369038246165445  0.9633615482922693  0.8697086890376298
  0.2179181734809674  0.8851479842924093  0.4990406442737836
  0.6906215007358796  0.6284142979250689  0.6185977483927303
  0.3548613449426909  0.0709270317848834  0.0636509721624634
  0.5398449987969158  0.4864839644169479  0.4347502461125075
  0.6902906810458376  0.4066039637257077  0.3075898850903016
  0.6884833177471208  0.4020079496554345  0.0665427897601631
  0.8534406386278377  0.3215515899593484  0.1834470279332052
  0.1942957599631825  0.1492294265794030  0.1860074471835205
  0.0525422603351728  0.4695261700564117  0.1221026233912355
  0.2357417838792841  0.3889282293475773  0.2522605682230221
  0.4025011427200411  0.3100434734986592  0.1317220322017434
  0.5560449253042847  0.2294522601362701  0.2478436940505375
  0.3954685575368444  0.3073565961846896  0.3740166557882105
  0.5507156111167433  0.2276766785345501  0.0042421606090741
  0.8817031748088553  0.0513582321442385  0.2469328528078307
  0.7235138489523578  0.1350222667456649  0.3753373130804221
  0.8811658087620700  0.0518271810674662  0.0010058962846955
  0.3538023722854788  0.0690875432690916  0.5631673643199164
  0.5386692711590086  0.4868412363334329  0.9316840844994303
  0.5422559421706978  0.4869788269643536  0.6920099472383185
  0.6936264645790615  0.4069378880188737  0.8116246467610679
  0.6902039814962464  0.4020897814461932  0.5633815524479502
  0.8557260290481423  0.3222806318626681  0.6844574956538665
  0.1942443313160283  0.1496635238529933  0.6855911434002664
  0.0535969668624574  0.4705841256722394  0.6231961433652913
  0.2361749009539835  0.3897493829577883  0.7494768577350186
  0.3987745887041427  0.3078547186655456  0.6291077636727138
  0.5553682790863803  0.2284843546298632  0.7477392297050258
  0.3975444861957342  0.3089508371790188  0.8746707965117153
  0.5505163674939837  0.2261943469081160  0.5047463925080677
  0.8825747311740528  0.0527171356355396  0.7469011251284172
  0.7242110923984981  0.1349876660020470  0.8740312339019809
  0.8802550558803262  0.0511617175582160  0.5006252051289977
  0.3575913817059444  0.5734246208767928  0.0587670496032260
  0.5291218071511778  0.9831936095143874  0.4348010029818781
  0.5328967022204765  0.9851653164576391  0.1920144931418122
  0.6870742895203747  0.9066289595847650  0.3110716125794539
  0.6849480830375612  0.9023755300913976  0.0636330469803426
  0.8516150251985763  0.8213334072792122  0.1825086706676231
  0.1990365686754174  0.6477129226995260  0.1850141686533533
  0.0462120524594738  0.9699987557663334  0.1223140490899723
  0.2247681877420433  0.8852459084733439  0.2479168532868954
  0.3940415918496427  0.8067165336592339  0.1288745375568467
  0.5572705527035353  0.7299654376720142  0.2475717911687099
  0.3881793207116644  0.8059033244165335  0.3720074293839986
  0.5505269937046933  0.7277888191621287  0.0062739743813864
  0.8867450639273926  0.5513169827037885  0.2465373986066126
  0.7348576700003449  0.6389822378732077  0.3764618028486311
  0.8868304050090856  0.5503961599482423  0.0012291388938053
  0.3601374940590603  0.5718455748310021  0.5644537452515834
  0.5311501298272177  0.9842481602296118  0.9342978115763998
  0.5307505306851681  0.9842577843682392  0.6901134086117509
  0.6892440165957581  0.9075548925538683  0.8112149329921579
  0.6843425575732596  0.9020142361311230  0.5637902070697365
  0.8528409167483701  0.8222585549679877  0.6838781805663388
  0.1968636023019457  0.6486366703226381  0.6851134199677347
  0.0468007865089817  0.9707917955669245  0.6225707771519069
  0.2286062554967003  0.8881148226747726  0.7481295768538843
  0.3951095309999531  0.8068166190303714  0.6288083553912784
  0.5569293745406299  0.7298155210248609  0.7478206524666291
  0.3936677770904140  0.8079641655961751  0.8734993670838733
  0.5506898593912979  0.7273629334467842  0.5046717986579097
  0.8884563633127271  0.5516772452276584  0.7466579865096534
  0.7321432314777425  0.6364045976398742  0.8760208124870985
  0.8862079763856556  0.5506028500055180  0.4993874081290173
  0.5760568708273084  0.1780274411825786  0.3666111093224131
  0.5274145952697893  0.1703198302791264  0.1093583170416892
  0.7180416721495249  0.0772443037641324  0.4766529409349047
  0.7219240118777890  0.0790493514547066  0.2440559036135568
  0.8722173405896569  0.0022910291933513  0.3602809231573332
  0.0498341525287316  0.4128780999432848  0.4941620026095208
  0.8824139948678891  0.4941888038734845  0.1088849091993680
  0.0567670003468237  0.4095137247274607  0.2223506067769634
  0.2305278762076739  0.3300836694029741  0.3560729497549886
  0.3949019109186196  0.2565883296696185  0.4883439228666049
  0.2385945535237965  0.3323334944957423  0.1232776394125850
  0.3841273755178918  0.2467930706029335  0.2385902529479935
  0.2359192676121538  0.0645480461941688  0.1624938381529120
  0.2525619272899959  0.0627183691444415  0.4278506616897459
  0.4103576653854404  0.4797762989343113  0.3165725754999613
  0.4423302316664177  0.9991533507022368  0.0570969168801341
  0.5893980278871354  0.3950271803087944  0.1724071188997982
  0.7459422806879275  0.3246807465167691  0.2904788876015232
  0.5869784526062602  0.4022005948338219  0.4250532602664805
  0.7357636402287397  0.3189948365116706  0.0548901364358088
  0.8877379853203422  0.2364204253168438  0.1706648881728796
  0.0756120731585810  0.1394700488611775  0.2849342425319463
  0.9080528208715251  0.2262305737248980  0.4213899045206730
  0.0715544001088730  0.1422173266846656  0.0568056599134934
  0.5759746697832426  0.1782227544058728  0.8647024696247101
  0.5276782685893124  0.1692498691220194  0.6098129863556210
  0.7186954863438260  0.0775301704387061  0.9757357842220529
  0.7197872207334939  0.0778245549428078  0.7428256542564213
  0.8745582944097166  0.0031698802403781  0.8602344632181769
  0.0535683749149314  0.4123017529926756  0.9935483882450171
  0.8824248048027101  0.4946631184756995  0.6099198223187585
  0.0615609654993108  0.4111378483814931  0.7236846554179266
  0.2404363889702523  0.3381877255248540  0.8584416640526271
  0.3916417068427904  0.2555985485118484  0.9845625958953050
  0.2397318562157764  0.3337026368885461  0.6200805010488821
  0.3857826756414866  0.2488404265850761  0.7364263538590592
  0.2365920226749338  0.0655051312168737  0.6633879915237628
  0.2521310101294389  0.0625878175401553  0.9278134858006126
  0.4303234063946348  0.4809059090758083  0.7936471685489010
  0.4376114929525698  0.9964100282813320  0.5554994983504926
  0.5855352404996950  0.4036936754122351  0.6736453144437036
  0.7435062652711935  0.3256609693544874  0.7879905726555521
  0.5878003113756876  0.4028478229190924  0.9227290371721111
  0.7334747954508813  0.3197632277297231  0.5583331548208932
  0.8913125330954088  0.2379114751432283  0.6726566321554515
  0.0762914353384332  0.1420483200508755  0.7845886132371902
  0.9081757693561485  0.2256867137702798  0.9195055197281761
  0.0716087389256117  0.1419381112999289  0.5558766031772038
  0.5856020476034942  0.6831385387369622  0.3684560854637198
  0.5294489853244642  0.6731290868776725  0.1108674728387271
  0.7300246438836098  0.5809773354372609  0.4781070473234834
  0.7757352790100427  0.6038514926621090  0.2544960411081618
  0.8788058723489698  0.5013867794748634  0.3603025271130065
  0.0418301975912598  0.9142310747410463  0.4935847229583814
  0.8760422359027729  0.9950841400532369  0.1097768351652135
  0.0575596427494460  0.9116181809854851  0.2230911486379483
  0.2260653436086102  0.8307299716011300  0.3516365939395456
  0.3954911535490666  0.7583798469987357  0.4883684273439641
  0.2341311966861213  0.8318153759412255  0.1194966594825360
  0.3874397012713473  0.7494877504083206  0.2368838646569529
  0.2414594855865602  0.5639871148864017  0.1601150834385336
  0.2590276621153649  0.5654461844288292  0.4301505992016530
  0.4215423663722717  0.9785004292878554  0.2972748390772963
  0.4460227486158601  0.5097595343878965  0.0349562557700906
  0.5794268097245947  0.9035117694202270  0.1734849490349788
  0.7442660026074535  0.8285903100697070  0.2884320665652211
  0.5808782805088910  0.9014975018156690  0.4234735155501497
  0.7313363276291938  0.8220456650027330  0.0577370764789222
  0.8835289988564483  0.7376177468424032  0.1663117799774838
  0.0878864183787584  0.6395876257711208  0.2852580996055707
  0.9204818942525250  0.7357208224781431  0.4290657232496287
  0.0764230913246777  0.6420338195997104  0.0569534632569670
  0.5835017950940582  0.6817946648335251  0.8671973702864761
  0.5316381824330705  0.6721116760158523  0.6110314547979030
  0.7317827978915190  0.5797108336818155  0.9758843113850375
  0.7318116785268387  0.5810013911634613  0.7450064338421925
  0.8800644849748451  0.5017809519131760  0.8593845575696761
  0.0412008236100476  0.9123689960978538  0.9932150836344391
  0.8760843458186542  0.9953249295953341  0.6102442380165556
  0.0580167309152557  0.9117972269894139  0.7234835920351657
  0.2341666903490207  0.8356187738654484  0.8553227117436535
  0.3946814192590935  0.7587692616332049  0.9873049994033281
  0.2360176392124060  0.8322443886795128  0.6218171159137569
  0.3867398945607192  0.7491766685410681  0.7374895626860081
  0.2428728015272839  0.5658294645971864  0.6651022844399606
  0.2530881015254849  0.5675280054157952  0.9238623929513068
  0.4230173903696297  0.9798292236240655  0.7973945481138003
  0.4545721754778924  0.5032032099317121  0.5622499986314295
  0.5798023185357266  0.9032891777796976  0.6740934122385696
  0.7440498872874599  0.8281724628604863  0.7894984966707739
  0.5831641300580657  0.9026992188228320  0.9233419867680297
  0.7318190998936842  0.8217808678458738  0.5596528075572706
  0.8883034669415508  0.7385361693903292  0.6728815727553652
  0.0789393570332066  0.6422164158274057  0.7829747731308601
  0.9142569842930897  0.7297205986613093  0.9209449880634324
  0.0759747024767137  0.6415178114496669  0.5562092616114782
 
  0.00000000E+00  0.00000000E+00  0.00000000E+00
  0.00000000E+00  0.00000000E+00  0.00000000E+00
  0.00000000E+00  0.00000000E+00  0.00000000E+00
  0.00000000E+00  0.00000000E+00  0.00000000E+00
  0.00000000E+00  0.00000000E+00  0.00000000E+00
  0.00000000E+00  0.00000000E+00  0.00000000E+00
  0.00000000E+00  0.00000000E+00  0.00000000E+00
  0.00000000E+00  0.00000000E+00  0.00000000E+00
  0.00000000E+00  0.00000000E+00  0.00000000E+00
  0.00000000E+00  0.00000000E+00  0.00000000E+00
  0.00000000E+00  0.00000000E+00  0.00000000E+00
  0.00000000E+00  0.00000000E+00  0.00000000E+00
  0.00000000E+00  0.00000000E+00  0.00000000E+00
  0.00000000E+00  0.00000000E+00  0.00000000E+00
  0.00000000E+00  0.00000000E+00  0.00000000E+00
  0.00000000E+00  0.00000000E+00  0.00000000E+00
  0.00000000E+00  0.00000000E+00  0.00000000E+00
  0.00000000E+00  0.00000000E+00  0.00000000E+00
  0.00000000E+00  0.00000000E+00  0.00000000E+00
  0.00000000E+00  0.00000000E+00  0.00000000E+00
  0.00000000E+00  0.00000000E+00  0.00000000E+00
  0.00000000E+00  0.00000000E+00  0.00000000E+00
  0.00000000E+00  0.00000000E+00  0.00000000E+00
  0.00000000E+00  0.00000000E+00  0.00000000E+00
  0.00000000E+00  0.00000000E+00  0.00000000E+00
  0.00000000E+00  0.00000000E+00  0.00000000E+00
  0.00000000E+00  0.00000000E+00  0.00000000E+00
  0.00000000E+00  0.00000000E+00  0.00000000E+00
  0.00000000E+00  0.00000000E+00  0.00000000E+00
  0.00000000E+00  0.00000000E+00  0.00000000E+00
  0.00000000E+00  0.00000000E+00  0.00000000E+00
  0.00000000E+00  0.00000000E+00  0.00000000E+00
  0.00000000E+00  0.00000000E+00  0.00000000E+00
  0.00000000E+00  0.00000000E+00  0.00000000E+00
  0.00000000E+00  0.00000000E+00  0.00000000E+00
  0.00000000E+00  0.00000000E+00  0.00000000E+00
  0.00000000E+00  0.00000000E+00  0.00000000E+00
  0.00000000E+00  0.00000000E+00  0.00000000E+00
  0.00000000E+00  0.00000000E+00  0.00000000E+00
  0.00000000E+00  0.00000000E+00  0.00000000E+00
  0.00000000E+00  0.00000000E+00  0.00000000E+00
  0.00000000E+00  0.00000000E+00  0.00000000E+00
  0.00000000E+00  0.00000000E+00  0.00000000E+00
  0.00000000E+00  0.00000000E+00  0.00000000E+00
  0.00000000E+00  0.00000000E+00  0.00000000E+00
  0.00000000E+00  0.00000000E+00  0.00000000E+00
  0.00000000E+00  0.00000000E+00  0.00000000E+00
  0.00000000E+00  0.00000000E+00  0.00000000E+00
  0.00000000E+00  0.00000000E+00  0.00000000E+00
  0.00000000E+00  0.00000000E+00  0.00000000E+00
  0.00000000E+00  0.00000000E+00  0.00000000E+00
  0.00000000E+00  0.00000000E+00  0.00000000E+00
  0.00000000E+00  0.00000000E+00  0.00000000E+00
  0.00000000E+00  0.00000000E+00  0.00000000E+00
  0.00000000E+00  0.00000000E+00  0.00000000E+00
  0.00000000E+00  0.00000000E+00  0.00000000E+00
  0.00000000E+00  0.00000000E+00  0.00000000E+00
  0.00000000E+00  0.00000000E+00  0.00000000E+00
  0.00000000E+00  0.00000000E+00  0.00000000E+00
  0.00000000E+00  0.00000000E+00  0.00000000E+00
  0.00000000E+00  0.00000000E+00  0.00000000E+00
  0.00000000E+00  0.00000000E+00  0.00000000E+00
  0.00000000E+00  0.00000000E+00  0.00000000E+00
  0.00000000E+00  0.00000000E+00  0.00000000E+00
  0.00000000E+00  0.00000000E+00  0.00000000E+00
  0.00000000E+00  0.00000000E+00  0.00000000E+00
  0.00000000E+00  0.00000000E+00  0.00000000E+00
  0.00000000E+00  0.00000000E+00  0.00000000E+00
  0.00000000E+00  0.00000000E+00  0.00000000E+00
  0.00000000E+00  0.00000000E+00  0.00000000E+00
  0.00000000E+00  0.00000000E+00  0.00000000E+00
  0.00000000E+00  0.00000000E+00  0.00000000E+00
  0.00000000E+00  0.00000000E+00  0.00000000E+00
  0.00000000E+00  0.00000000E+00  0.00000000E+00
  0.00000000E+00  0.00000000E+00  0.00000000E+00
  0.00000000E+00  0.00000000E+00  0.00000000E+00
  0.00000000E+00  0.00000000E+00  0.00000000E+00
  0.00000000E+00  0.00000000E+00  0.00000000E+00
  0.00000000E+00  0.00000000E+00  0.00000000E+00
  0.00000000E+00  0.00000000E+00  0.00000000E+00
  0.00000000E+00  0.00000000E+00  0.00000000E+00
  0.00000000E+00  0.00000000E+00  0.00000000E+00
  0.00000000E+00  0.00000000E+00  0.00000000E+00
  0.00000000E+00  0.00000000E+00  0.00000000E+00
  0.00000000E+00  0.00000000E+00  0.00000000E+00
  0.00000000E+00  0.00000000E+00  0.00000000E+00
  0.00000000E+00  0.00000000E+00  0.00000000E+00
  0.00000000E+00  0.00000000E+00  0.00000000E+00
  0.00000000E+00  0.00000000E+00  0.00000000E+00
  0.00000000E+00  0.00000000E+00  0.00000000E+00
  0.00000000E+00  0.00000000E+00  0.00000000E+00
  0.00000000E+00  0.00000000E+00  0.00000000E+00
  0.00000000E+00  0.00000000E+00  0.00000000E+00
  0.00000000E+00  0.00000000E+00  0.00000000E+00
  0.00000000E+00  0.00000000E+00  0.00000000E+00
  0.00000000E+00  0.00000000E+00  0.00000000E+00
  0.00000000E+00  0.00000000E+00  0.00000000E+00
  0.00000000E+00  0.00000000E+00  0.00000000E+00
  0.00000000E+00  0.00000000E+00  0.00000000E+00
  0.00000000E+00  0.00000000E+00  0.00000000E+00
  0.00000000E+00  0.00000000E+00  0.00000000E+00
  0.00000000E+00  0.00000000E+00  0.00000000E+00
  0.00000000E+00  0.00000000E+00  0.00000000E+00
  0.00000000E+00  0.00000000E+00  0.00000000E+00
  0.00000000E+00  0.00000000E+00  0.00000000E+00
  0.00000000E+00  0.00000000E+00  0.00000000E+00
  0.00000000E+00  0.00000000E+00  0.00000000E+00
  0.00000000E+00  0.00000000E+00  0.00000000E+00
  0.00000000E+00  0.00000000E+00  0.00000000E+00
  0.00000000E+00  0.00000000E+00  0.00000000E+00
  0.00000000E+00  0.00000000E+00  0.00000000E+00
  0.00000000E+00  0.00000000E+00  0.00000000E+00
  0.00000000E+00  0.00000000E+00  0.00000000E+00
  0.00000000E+00  0.00000000E+00  0.00000000E+00
  0.00000000E+00  0.00000000E+00  0.00000000E+00
  0.00000000E+00  0.00000000E+00  0.00000000E+00
  0.00000000E+00  0.00000000E+00  0.00000000E+00
  0.00000000E+00  0.00000000E+00  0.00000000E+00
  0.00000000E+00  0.00000000E+00  0.00000000E+00
  0.00000000E+00  0.00000000E+00  0.00000000E+00
  0.00000000E+00  0.00000000E+00  0.00000000E+00
  0.00000000E+00  0.00000000E+00  0.00000000E+00
  0.00000000E+00  0.00000000E+00  0.00000000E+00
  0.00000000E+00  0.00000000E+00  0.00000000E+00
  0.00000000E+00  0.00000000E+00  0.00000000E+00
  0.00000000E+00  0.00000000E+00  0.00000000E+00
  0.00000000E+00  0.00000000E+00  0.00000000E+00
  0.00000000E+00  0.00000000E+00  0.00000000E+00
  0.00000000E+00  0.00000000E+00  0.00000000E+00
  0.00000000E+00  0.00000000E+00  0.00000000E+00
  0.00000000E+00  0.00000000E+00  0.00000000E+00
  0.00000000E+00  0.00000000E+00  0.00000000E+00
  0.00000000E+00  0.00000000E+00  0.00000000E+00
  0.00000000E+00  0.00000000E+00  0.00000000E+00
  0.00000000E+00  0.00000000E+00  0.00000000E+00
  0.00000000E+00  0.00000000E+00  0.00000000E+00
  0.00000000E+00  0.00000000E+00  0.00000000E+00
  0.00000000E+00  0.00000000E+00  0.00000000E+00
  0.00000000E+00  0.00000000E+00  0.00000000E+00
  0.00000000E+00  0.00000000E+00  0.00000000E+00
  0.00000000E+00  0.00000000E+00  0.00000000E+00
  0.00000000E+00  0.00000000E+00  0.00000000E+00
  0.00000000E+00  0.00000000E+00  0.00000000E+00
  0.00000000E+00  0.00000000E+00  0.00000000E+00
  0.00000000E+00  0.00000000E+00  0.00000000E+00
  0.00000000E+00  0.00000000E+00  0.00000000E+00
  0.00000000E+00  0.00000000E+00  0.00000000E+00
  0.00000000E+00  0.00000000E+00  0.00000000E+00
  0.00000000E+00  0.00000000E+00  0.00000000E+00
  0.00000000E+00  0.00000000E+00  0.00000000E+00
  0.00000000E+00  0.00000000E+00  0.00000000E+00
  0.00000000E+00  0.00000000E+00  0.00000000E+00
  0.00000000E+00  0.00000000E+00  0.00000000E+00
  0.00000000E+00  0.00000000E+00  0.00000000E+00
  0.00000000E+00  0.00000000E+00  0.00000000E+00
  0.00000000E+00  0.00000000E+00  0.00000000E+00
  0.00000000E+00  0.00000000E+00  0.00000000E+00
  0.00000000E+00  0.00000000E+00  0.00000000E+00
  0.00000000E+00  0.00000000E+00  0.00000000E+00
  0.00000000E+00  0.00000000E+00  0.00000000E+00
  0.00000000E+00  0.00000000E+00  0.00000000E+00
  0.00000000E+00  0.00000000E+00  0.00000000E+00
  0.00000000E+00  0.00000000E+00  0.00000000E+00
  0.00000000E+00  0.00000000E+00  0.00000000E+00
  0.00000000E+00  0.00000000E+00  0.00000000E+00
  0.00000000E+00  0.00000000E+00  0.00000000E+00
  0.00000000E+00  0.00000000E+00  0.00000000E+00
  0.00000000E+00  0.00000000E+00  0.00000000E+00
  0.00000000E+00  0.00000000E+00  0.00000000E+00
  0.00000000E+00  0.00000000E+00  0.00000000E+00
  0.00000000E+00  0.00000000E+00  0.00000000E+00
  0.00000000E+00  0.00000000E+00  0.00000000E+00
  0.00000000E+00  0.00000000E+00  0.00000000E+00
  0.00000000E+00  0.00000000E+00  0.00000000E+00
  0.00000000E+00  0.00000000E+00  0.00000000E+00
  0.00000000E+00  0.00000000E+00  0.00000000E+00
  0.00000000E+00  0.00000000E+00  0.00000000E+00
  0.00000000E+00  0.00000000E+00  0.00000000E+00
  0.00000000E+00  0.00000000E+00  0.00000000E+00
  0.00000000E+00  0.00000000E+00  0.00000000E+00
  0.00000000E+00  0.00000000E+00  0.00000000E+00
  0.00000000E+00  0.00000000E+00  0.00000000E+00
  0.00000000E+00  0.00000000E+00  0.00000000E+00
  0.00000000E+00  0.00000000E+00  0.00000000E+00
  0.00000000E+00  0.00000000E+00  0.00000000E+00
  0.00000000E+00  0.00000000E+00  0.00000000E+00
  0.00000000E+00  0.00000000E+00  0.00000000E+00
  0.00000000E+00  0.00000000E+00  0.00000000E+00
  0.00000000E+00  0.00000000E+00  0.00000000E+00
  0.00000000E+00  0.00000000E+00  0.00000000E+00
  0.00000000E+00  0.00000000E+00  0.00000000E+00
