supercell of POSCAR                     
   1.03228000000000     
     6.3970863126299999    5.5387332920799999    4.9397337979799998
   -15.9736979067999982   -5.5365852353599996    9.8547656895600007
     6.4026568282999996  -11.0930079636999999    0.0094448205590600
   Sc   Al   N 
    32    64    95
Direct
  0.3645061619289010  0.0687832962420174  0.3112305987450910
  0.8356895533212096  0.3105072074874187  0.4357461513443752
  0.0272555932560934  0.2365974674527962  0.3083216834954499
  0.1893766032530664  0.1502998286277517  0.4385512825174445
  0.0266127769027378  0.2363178174318534  0.0681912807415230
  0.0452637693375024  0.4640967554493969  0.3709709905035510
  0.2400325918949733  0.3955467656964515  0.0056225266348022
  0.6985214533083379  0.1349067728755102  0.1207709591520612
  0.3642679579203190  0.0684798265668718  0.8087816725292640
  0.8354638730445245  0.3098491501842915  0.9341005167600755
  0.0226964494459665  0.2345220912216774  0.8044712915768031
  0.1821400449985546  0.1513910867469619  0.9324829762028131
  0.0232148741806455  0.2343239254465885  0.5674263322771651
  0.0465890898363881  0.4644567360886001  0.8705753750501017
  0.2402745463173090  0.3959051548969654  0.5075846267280255
  0.6897759551792930  0.1298004484413227  0.6181848497039653
  0.3740578019052734  0.5702622878508876  0.3113350728488840
  0.8324704365198698  0.8076634036773243  0.4340590807259872
  0.0215841574446358  0.7293050691033827  0.3049702074707170
  0.1915170868073659  0.6472069862911667  0.4373693594197618
  0.0117241376904147  0.7214360087685279  0.0699714834907326
  0.0363588822120278  0.9640872238737472  0.3700339134709978
  0.1663234961180962  0.8585957063643974  0.9880226855894705
  0.6904189732393533  0.6285899838677693  0.1205859809412289
  0.3781558034090011  0.5720360104913098  0.8113730275765434
  0.8215793612659965  0.8072347190237323  0.9322498803602244
  0.0154141819461344  0.7226499836254732  0.7945420308923445
  0.1946082280889811  0.6475945372796232  0.9378853990695504
  0.0212402069275370  0.7294928423523857  0.5647142004993242
  0.0357591049166359  0.9635081627794406  0.8688616651615817
  0.2237033891906108  0.8896258752882815  0.5026211158866616
  0.6915516490320854  0.6287952696944217  0.6164897625712342
  0.3346674652104937  0.0898518253297027  0.0681702937037869
  0.5410241891130028  0.4859003123778933  0.4353409479553250
  0.5429855011030753  0.4868260643303657  0.1936338557265458
  0.6944514767051331  0.4075866165926669  0.3118313745031003
  0.6907150294384081  0.4026251476801903  0.0647286622503884
  0.8553700201691257  0.3235268343583400  0.1844556902462173
  0.1893276686726111  0.1527027056949137  0.1891079513246154
  0.0530461923659544  0.4700948149667354  0.1233861428354714
  0.2363190687409045  0.3906617805258463  0.2499147712024765
  0.3990927580834622  0.3085219755656610  0.1295410596343842
  0.5562972625721656  0.2305676771322638  0.2518326380286524
  0.3980737063689617  0.3097593027962375  0.3757672942403616
  0.5491784927573704  0.2276071975440459  0.0019218528441840
  0.8832021228823947  0.0529408671487985  0.2466302010306549
  0.7226800446639601  0.1375278188979081  0.3763431165883731
  0.8831744892751914  0.0516258595259416  0.0019934154226249
  0.3534627815725955  0.0710600941318162  0.5636425612071250
  0.5446722289899526  0.4882539358206586  0.9361793028488066
  0.5469660574570980  0.4892801235997482  0.6950377263518277
  0.6936602598682100  0.4067600678472942  0.8113816675762422
  0.6909728324489350  0.4028038153367035  0.5646686994217944
  0.8545581307488135  0.3223678102835592  0.6841808140235770
  0.1933787151199553  0.1503368516873138  0.6840491065430498
  0.0534121897612394  0.4703291983052509  0.6238108092449721
  0.2364982807371376  0.3906449056226080  0.7498222979333349
  0.3991068072085824  0.3091633531914226  0.6299250254935984
  0.5541109351506819  0.2290534072149839  0.7469948120200556
  0.3971831094061216  0.3097435341436778  0.8739392878633652
  0.5494000497594200  0.2274936948150952  0.5058626850390127
  0.8802155335730859  0.0526874892117419  0.7448620837200508
  0.7227962965242014  0.1367897718327669  0.8731903362177746
  0.8796915771442926  0.0518029938817079  0.4998649682052232
  0.3615335241646491  0.5719573808906091  0.0649787046078032
  0.5288742138149445  0.9829409264673430  0.4393898604616027
  0.5556308747941330  0.9827607459020626  0.2265391870254874
  0.6908469645583963  0.9038011572391937  0.3144293484457634
  0.6848838139570219  0.9020390861173340  0.0644263306625277
  0.8537702046234585  0.8216366178993084  0.1846308665644543
  0.1993361761068186  0.6474703689491861  0.1864312966946429
  0.0420791974806463  0.9691384768142157  0.1231849502668254
  0.2222383786911877  0.8845897035342603  0.2476762504348002
  0.3905293544673398  0.8038769106829164  0.1288974778779206
  0.5568341150044347  0.7288900221234726  0.2487721853938183
  0.3915372050192616  0.8060997351850645  0.3736730464725326
  0.5515377467169031  0.7280641547201299  0.0079800264419774
  0.8888577377910991  0.5514546915973426  0.2471874934446703
  0.7307322605822151  0.6361128252022894  0.3753468653424790
  0.8881547746914364  0.5489239299496731  0.0006826996759486
  0.3618711117101014  0.5720697412732392  0.5647171551868908
  0.5546286896938284  0.9805850047811688  0.9031134189727794
  0.5312598016412338  0.9841773364170336  0.6846268600690095
  0.6924483181940033  0.9047119455902717  0.8049832207157692
  0.6867946516657071  0.9018166128578358  0.5629257360862567
  0.8558513674207830  0.8219422793327880  0.6816843670959472
  0.1994818211198961  0.6475373305615904  0.6845750292816390
  0.0463988220308948  0.9710838904281118  0.6222243872093145
  0.2239931648058402  0.8849648268828219  0.7453449617178123
  0.3936896502910159  0.8055960408206460  0.6269729560720023
  0.5579269801321729  0.7297361120408254  0.7449694210746927
  0.3907873626655416  0.8048126543584573  0.8713253711351072
  0.5513159696339685  0.7273473259646934  0.5045058045105648
  0.8904646145672785  0.5503900798414207  0.7471096659584049
  0.7394953549952774  0.6411881219024735  0.8775115203272890
  0.8869429277485708  0.5504293755497613  0.5009740127792313
  0.5746558337352781  0.1791376150141133  0.3662839894972052
  0.5283644568605652  0.1701073037020464  0.1112879215222691
  0.7156232819108723  0.0770681065680279  0.4737642614901105
  0.7127211104379825  0.0776089080947955  0.2400196184149337
  0.8692606482660423  0.0021513488580780  0.3579412877111068
  0.0479708454776713  0.4122895931851787  0.4944042833571416
  0.8823729866556462  0.4941911665651233  0.1105747975960227
  0.0610238858040049  0.4107730638713392  0.2237780169718420
  0.2404221408017264  0.3384192366100223  0.3578450732589147
  0.3940358095171277  0.2582255692609650  0.4880418240918445
  0.2418260605142777  0.3352071637994172  0.1213044032445225
  0.3846404854292160  0.2489990155466160  0.2373741810062100
  0.2293860584607188  0.0663355391227327  0.1670743972412936
  0.2517148266946165  0.0636878857312837  0.4278251985027666
  0.4320597796292631  0.4814196864737639  0.2986845521444152
  0.5854868415856558  0.4036519977360484  0.1743344427278544
  0.7435620241487584  0.3259901484740695  0.2886986958608730
  0.5892432420328433  0.4030403454620597  0.4244858236237974
  0.7320464286485091  0.3195740892779426  0.0578765722571717
  0.8919289260004888  0.2390365284360527  0.1719488613098434
  0.0718529563436690  0.1433405238638983  0.2861137533663722
  0.9073460957791823  0.2272240808620225  0.4196995218486848
  0.0718815609982428  0.1432566734807423  0.0558679722743491
  0.5746013500852456  0.1785090123660638  0.8661324712091414
  0.5268364427014731  0.1701009433788059  0.6097275789224099
  0.7116988553464765  0.0758745656601860  0.9767443046468642
  0.7177434404616605  0.0781750603667746  0.7435399674793217
  0.8718660058225112  0.0031643966939470  0.8596414645594095
  0.0477860666625602  0.4120854602602222  0.9938120828151682
  0.8828345508588384  0.4946124586655429  0.6101722041481992
  0.0613452029387531  0.4109200691950505  0.7239833895342045
  0.2379947637782465  0.3372145572319809  0.8565111910235572
  0.3923684920732526  0.2569942628704496  0.9869346152463265
  0.2400329973319728  0.3345618257506686  0.6214279089907322
  0.3856369688448780  0.2497292243373863  0.7371803057679358
  0.2365125285930674  0.0661513894126600  0.6640602297190696
  0.2505613973365115  0.0655675316944624  0.9280108794252584
  0.4348829561438592  0.4828197665683547  0.7994926469729222
  0.4394544242873124  0.9985818439254217  0.5556204475660991
  0.5866203072035603  0.4052713681403191  0.6748653085017366
  0.7427868794606312  0.3255490585330847  0.7885245386967910
  0.5894446948134942  0.4040361590201371  0.9250917527845033
  0.7324645734645756  0.3203020315382972  0.5585457278016150
  0.8881545875505097  0.2375367606438914  0.6702428355372945
  0.0721725958448332  0.1426156448745601  0.7809553756374399
  0.9082842903578836  0.2265062944035776  0.9209748205596284
  0.0706252396179252  0.1425210689562704  0.5545060169865152
  0.5833375494578164  0.6809220826057967  0.3673937535264855
  0.5312766265634394  0.6718028578823834  0.1113468911013058
  0.7291889333416890  0.5795549365041026  0.4770284131896574
  0.7314362096537010  0.5804874462602641  0.2454689398209595
  0.8806185976223730  0.5021806302459595  0.3604952037232323
  0.0410936491875518  0.9133542895129168  0.4934706241739732
  0.8741291154883370  0.9956908847625030  0.1103378963507780
  0.0576511459233089  0.9117380088977498  0.2238841125780340
  0.2326291148224442  0.8340401000378748  0.3558951440711482
  0.3936388558649142  0.7563934874504810  0.4869299960507476
  0.2288949264774089  0.8275129590822061  0.1217849637360402
  0.3867212825165467  0.7480511348885841  0.2378711887691836
  0.2434165884314794  0.5641592289360844  0.1642217778588630
  0.2598775050050435  0.5628593364568104  0.4286612370657039
  0.4171293381278218  0.9772990130650285  0.3008453526290609
  0.4564806329414992  0.5032682991606876  0.0587828880408949
  0.5778200677284531  0.9002433196611790  0.1745969379196310
  0.7446301490783966  0.8263167086205243  0.2894173170461727
  0.5819059780083151  0.9015137625271379  0.4235392403078038
  0.7320892257187239  0.8220879701230857  0.0606036162831174
  0.8888118600216259  0.7377681355204828  0.1733756824216712
  0.0813574171882507  0.6408763000137583  0.2843240126074562
  0.9134896386784561  0.7289073406586510  0.4210976697370086
  0.0795667734030019  0.6384082666833137  0.0555875362881224
  0.5923834372880208  0.6844209241604275  0.8689669727034754
  0.5321974763769504  0.6716034244323552  0.6096425607751712
  0.7378646472246260  0.5846333818227549  0.9796746661327305
  0.7402804659719777  0.5855759028298237  0.7476785858475665
  0.8794968572606408  0.5012771565436722  0.8600558553391764
  0.0363054544527657  0.9133726736004206  0.9932205928577318
  0.8758455247266923  0.9956330240580868  0.6093306007210160
  0.0599139082646474  0.9125158179886625  0.7240825151862396
  0.2306917661328498  0.8316641346516462  0.8510973353693814
  0.3950190172032464  0.7577973420296331  0.9876954441640322
  0.2348945861071812  0.8313478761034361  0.6186804110202786
  0.3874725693987884  0.7480707131562454  0.7361936494821890
  0.2446354607498691  0.5646482180084504  0.6643515832221709
  0.2630579216536901  0.5633878890254920  0.9280273020810768
  0.4192330857041640  0.9775722597619350  0.7905362068507813
  0.4567957047913467  0.5034773855674572  0.5605372094799748
  0.5794418619764485  0.9027646092054979  0.6719978894577352
  0.7462752991804180  0.8270744632991693  0.7861152573821428
  0.5846180297879968  0.8990088364316549  0.9197154199303341
  0.7328252008592955  0.8212476068216290  0.5579226606578516
  0.8906030682614272  0.7380005032820236  0.6684518615776796
  0.0843613391524016  0.6387572028431663  0.7847780518305143
  0.9354307122740195  0.7398052875221239  0.9266263638122041
  0.0773865980916426  0.6411392181751197  0.5566549843447035
 
  0.00000000E+00  0.00000000E+00  0.00000000E+00
  0.00000000E+00  0.00000000E+00  0.00000000E+00
  0.00000000E+00  0.00000000E+00  0.00000000E+00
  0.00000000E+00  0.00000000E+00  0.00000000E+00
  0.00000000E+00  0.00000000E+00  0.00000000E+00
  0.00000000E+00  0.00000000E+00  0.00000000E+00
  0.00000000E+00  0.00000000E+00  0.00000000E+00
  0.00000000E+00  0.00000000E+00  0.00000000E+00
  0.00000000E+00  0.00000000E+00  0.00000000E+00
  0.00000000E+00  0.00000000E+00  0.00000000E+00
  0.00000000E+00  0.00000000E+00  0.00000000E+00
  0.00000000E+00  0.00000000E+00  0.00000000E+00
  0.00000000E+00  0.00000000E+00  0.00000000E+00
  0.00000000E+00  0.00000000E+00  0.00000000E+00
  0.00000000E+00  0.00000000E+00  0.00000000E+00
  0.00000000E+00  0.00000000E+00  0.00000000E+00
  0.00000000E+00  0.00000000E+00  0.00000000E+00
  0.00000000E+00  0.00000000E+00  0.00000000E+00
  0.00000000E+00  0.00000000E+00  0.00000000E+00
  0.00000000E+00  0.00000000E+00  0.00000000E+00
  0.00000000E+00  0.00000000E+00  0.00000000E+00
  0.00000000E+00  0.00000000E+00  0.00000000E+00
  0.00000000E+00  0.00000000E+00  0.00000000E+00
  0.00000000E+00  0.00000000E+00  0.00000000E+00
  0.00000000E+00  0.00000000E+00  0.00000000E+00
  0.00000000E+00  0.00000000E+00  0.00000000E+00
  0.00000000E+00  0.00000000E+00  0.00000000E+00
  0.00000000E+00  0.00000000E+00  0.00000000E+00
  0.00000000E+00  0.00000000E+00  0.00000000E+00
  0.00000000E+00  0.00000000E+00  0.00000000E+00
  0.00000000E+00  0.00000000E+00  0.00000000E+00
  0.00000000E+00  0.00000000E+00  0.00000000E+00
  0.00000000E+00  0.00000000E+00  0.00000000E+00
  0.00000000E+00  0.00000000E+00  0.00000000E+00
  0.00000000E+00  0.00000000E+00  0.00000000E+00
  0.00000000E+00  0.00000000E+00  0.00000000E+00
  0.00000000E+00  0.00000000E+00  0.00000000E+00
  0.00000000E+00  0.00000000E+00  0.00000000E+00
  0.00000000E+00  0.00000000E+00  0.00000000E+00
  0.00000000E+00  0.00000000E+00  0.00000000E+00
  0.00000000E+00  0.00000000E+00  0.00000000E+00
  0.00000000E+00  0.00000000E+00  0.00000000E+00
  0.00000000E+00  0.00000000E+00  0.00000000E+00
  0.00000000E+00  0.00000000E+00  0.00000000E+00
  0.00000000E+00  0.00000000E+00  0.00000000E+00
  0.00000000E+00  0.00000000E+00  0.00000000E+00
  0.00000000E+00  0.00000000E+00  0.00000000E+00
  0.00000000E+00  0.00000000E+00  0.00000000E+00
  0.00000000E+00  0.00000000E+00  0.00000000E+00
  0.00000000E+00  0.00000000E+00  0.00000000E+00
  0.00000000E+00  0.00000000E+00  0.00000000E+00
  0.00000000E+00  0.00000000E+00  0.00000000E+00
  0.00000000E+00  0.00000000E+00  0.00000000E+00
  0.00000000E+00  0.00000000E+00  0.00000000E+00
  0.00000000E+00  0.00000000E+00  0.00000000E+00
  0.00000000E+00  0.00000000E+00  0.00000000E+00
  0.00000000E+00  0.00000000E+00  0.00000000E+00
  0.00000000E+00  0.00000000E+00  0.00000000E+00
  0.00000000E+00  0.00000000E+00  0.00000000E+00
  0.00000000E+00  0.00000000E+00  0.00000000E+00
  0.00000000E+00  0.00000000E+00  0.00000000E+00
  0.00000000E+00  0.00000000E+00  0.00000000E+00
  0.00000000E+00  0.00000000E+00  0.00000000E+00
  0.00000000E+00  0.00000000E+00  0.00000000E+00
  0.00000000E+00  0.00000000E+00  0.00000000E+00
  0.00000000E+00  0.00000000E+00  0.00000000E+00
  0.00000000E+00  0.00000000E+00  0.00000000E+00
  0.00000000E+00  0.00000000E+00  0.00000000E+00
  0.00000000E+00  0.00000000E+00  0.00000000E+00
  0.00000000E+00  0.00000000E+00  0.00000000E+00
  0.00000000E+00  0.00000000E+00  0.00000000E+00
  0.00000000E+00  0.00000000E+00  0.00000000E+00
  0.00000000E+00  0.00000000E+00  0.00000000E+00
  0.00000000E+00  0.00000000E+00  0.00000000E+00
  0.00000000E+00  0.00000000E+00  0.00000000E+00
  0.00000000E+00  0.00000000E+00  0.00000000E+00
  0.00000000E+00  0.00000000E+00  0.00000000E+00
  0.00000000E+00  0.00000000E+00  0.00000000E+00
  0.00000000E+00  0.00000000E+00  0.00000000E+00
  0.00000000E+00  0.00000000E+00  0.00000000E+00
  0.00000000E+00  0.00000000E+00  0.00000000E+00
  0.00000000E+00  0.00000000E+00  0.00000000E+00
  0.00000000E+00  0.00000000E+00  0.00000000E+00
  0.00000000E+00  0.00000000E+00  0.00000000E+00
  0.00000000E+00  0.00000000E+00  0.00000000E+00
  0.00000000E+00  0.00000000E+00  0.00000000E+00
  0.00000000E+00  0.00000000E+00  0.00000000E+00
  0.00000000E+00  0.00000000E+00  0.00000000E+00
  0.00000000E+00  0.00000000E+00  0.00000000E+00
  0.00000000E+00  0.00000000E+00  0.00000000E+00
  0.00000000E+00  0.00000000E+00  0.00000000E+00
  0.00000000E+00  0.00000000E+00  0.00000000E+00
  0.00000000E+00  0.00000000E+00  0.00000000E+00
  0.00000000E+00  0.00000000E+00  0.00000000E+00
  0.00000000E+00  0.00000000E+00  0.00000000E+00
  0.00000000E+00  0.00000000E+00  0.00000000E+00
  0.00000000E+00  0.00000000E+00  0.00000000E+00
  0.00000000E+00  0.00000000E+00  0.00000000E+00
  0.00000000E+00  0.00000000E+00  0.00000000E+00
  0.00000000E+00  0.00000000E+00  0.00000000E+00
  0.00000000E+00  0.00000000E+00  0.00000000E+00
  0.00000000E+00  0.00000000E+00  0.00000000E+00
  0.00000000E+00  0.00000000E+00  0.00000000E+00
  0.00000000E+00  0.00000000E+00  0.00000000E+00
  0.00000000E+00  0.00000000E+00  0.00000000E+00
  0.00000000E+00  0.00000000E+00  0.00000000E+00
  0.00000000E+00  0.00000000E+00  0.00000000E+00
  0.00000000E+00  0.00000000E+00  0.00000000E+00
  0.00000000E+00  0.00000000E+00  0.00000000E+00
  0.00000000E+00  0.00000000E+00  0.00000000E+00
  0.00000000E+00  0.00000000E+00  0.00000000E+00
  0.00000000E+00  0.00000000E+00  0.00000000E+00
  0.00000000E+00  0.00000000E+00  0.00000000E+00
  0.00000000E+00  0.00000000E+00  0.00000000E+00
  0.00000000E+00  0.00000000E+00  0.00000000E+00
  0.00000000E+00  0.00000000E+00  0.00000000E+00
  0.00000000E+00  0.00000000E+00  0.00000000E+00
  0.00000000E+00  0.00000000E+00  0.00000000E+00
  0.00000000E+00  0.00000000E+00  0.00000000E+00
  0.00000000E+00  0.00000000E+00  0.00000000E+00
  0.00000000E+00  0.00000000E+00  0.00000000E+00
  0.00000000E+00  0.00000000E+00  0.00000000E+00
  0.00000000E+00  0.00000000E+00  0.00000000E+00
  0.00000000E+00  0.00000000E+00  0.00000000E+00
  0.00000000E+00  0.00000000E+00  0.00000000E+00
  0.00000000E+00  0.00000000E+00  0.00000000E+00
  0.00000000E+00  0.00000000E+00  0.00000000E+00
  0.00000000E+00  0.00000000E+00  0.00000000E+00
  0.00000000E+00  0.00000000E+00  0.00000000E+00
  0.00000000E+00  0.00000000E+00  0.00000000E+00
  0.00000000E+00  0.00000000E+00  0.00000000E+00
  0.00000000E+00  0.00000000E+00  0.00000000E+00
  0.00000000E+00  0.00000000E+00  0.00000000E+00
  0.00000000E+00  0.00000000E+00  0.00000000E+00
  0.00000000E+00  0.00000000E+00  0.00000000E+00
  0.00000000E+00  0.00000000E+00  0.00000000E+00
  0.00000000E+00  0.00000000E+00  0.00000000E+00
  0.00000000E+00  0.00000000E+00  0.00000000E+00
  0.00000000E+00  0.00000000E+00  0.00000000E+00
  0.00000000E+00  0.00000000E+00  0.00000000E+00
  0.00000000E+00  0.00000000E+00  0.00000000E+00
  0.00000000E+00  0.00000000E+00  0.00000000E+00
  0.00000000E+00  0.00000000E+00  0.00000000E+00
  0.00000000E+00  0.00000000E+00  0.00000000E+00
  0.00000000E+00  0.00000000E+00  0.00000000E+00
  0.00000000E+00  0.00000000E+00  0.00000000E+00
  0.00000000E+00  0.00000000E+00  0.00000000E+00
  0.00000000E+00  0.00000000E+00  0.00000000E+00
  0.00000000E+00  0.00000000E+00  0.00000000E+00
  0.00000000E+00  0.00000000E+00  0.00000000E+00
  0.00000000E+00  0.00000000E+00  0.00000000E+00
  0.00000000E+00  0.00000000E+00  0.00000000E+00
  0.00000000E+00  0.00000000E+00  0.00000000E+00
  0.00000000E+00  0.00000000E+00  0.00000000E+00
  0.00000000E+00  0.00000000E+00  0.00000000E+00
  0.00000000E+00  0.00000000E+00  0.00000000E+00
  0.00000000E+00  0.00000000E+00  0.00000000E+00
  0.00000000E+00  0.00000000E+00  0.00000000E+00
  0.00000000E+00  0.00000000E+00  0.00000000E+00
  0.00000000E+00  0.00000000E+00  0.00000000E+00
  0.00000000E+00  0.00000000E+00  0.00000000E+00
  0.00000000E+00  0.00000000E+00  0.00000000E+00
  0.00000000E+00  0.00000000E+00  0.00000000E+00
  0.00000000E+00  0.00000000E+00  0.00000000E+00
  0.00000000E+00  0.00000000E+00  0.00000000E+00
  0.00000000E+00  0.00000000E+00  0.00000000E+00
  0.00000000E+00  0.00000000E+00  0.00000000E+00
  0.00000000E+00  0.00000000E+00  0.00000000E+00
  0.00000000E+00  0.00000000E+00  0.00000000E+00
  0.00000000E+00  0.00000000E+00  0.00000000E+00
  0.00000000E+00  0.00000000E+00  0.00000000E+00
  0.00000000E+00  0.00000000E+00  0.00000000E+00
  0.00000000E+00  0.00000000E+00  0.00000000E+00
  0.00000000E+00  0.00000000E+00  0.00000000E+00
  0.00000000E+00  0.00000000E+00  0.00000000E+00
  0.00000000E+00  0.00000000E+00  0.00000000E+00
  0.00000000E+00  0.00000000E+00  0.00000000E+00
  0.00000000E+00  0.00000000E+00  0.00000000E+00
  0.00000000E+00  0.00000000E+00  0.00000000E+00
  0.00000000E+00  0.00000000E+00  0.00000000E+00
  0.00000000E+00  0.00000000E+00  0.00000000E+00
  0.00000000E+00  0.00000000E+00  0.00000000E+00
  0.00000000E+00  0.00000000E+00  0.00000000E+00
  0.00000000E+00  0.00000000E+00  0.00000000E+00
  0.00000000E+00  0.00000000E+00  0.00000000E+00
  0.00000000E+00  0.00000000E+00  0.00000000E+00
  0.00000000E+00  0.00000000E+00  0.00000000E+00
  0.00000000E+00  0.00000000E+00  0.00000000E+00
  0.00000000E+00  0.00000000E+00  0.00000000E+00
  0.00000000E+00  0.00000000E+00  0.00000000E+00
  0.00000000E+00  0.00000000E+00  0.00000000E+00
