supercell of POSCAR                     
   1.03228000000000     
     6.3970863126299999    5.5387332920799999    4.9397337979799998
   -15.9736979067999982   -5.5365852353599996    9.8547656895600007
     6.4026568282999996  -11.0930079636999999    0.0094448205590600
   Sc   Al   N 
    32    64    95
Direct
  0.3652157707205603  0.0679782855660918  0.3103383702948648
  0.8322579049009775  0.3102007749937172  0.4349998646733866
  0.0202649591063775  0.2269249038796843  0.3061342083929404
  0.1900752055746366  0.1473363603455056  0.4406608744729041
  0.0211518324275772  0.2341756664138188  0.0668634578201051
  0.0476565493523324  0.4661533321551943  0.3728337565992774
  0.2329770462721541  0.3929491315871587  0.0026974123327577
  0.6537232609518355  0.1097655568059466  0.1086990339636102
  0.3647346738430670  0.0684160314129443  0.8083180998216974
  0.8299910721244075  0.3089416931085367  0.9302809421754930
  0.0187962851283672  0.2310944318611448  0.8038637203811021
  0.1827060748563696  0.1478542413412356  0.9368632159830526
  0.0187404988084694  0.2318800580454621  0.5664901717251780
  0.0420196495056686  0.4645668206512852  0.8689887504009377
  0.2316382859171782  0.3918077514394653  0.5036498458070042
  0.6887152691761713  0.1286417962178064  0.6181403949529951
  0.3783744800680893  0.5726566022222457  0.3116955686603191
  0.8349967267324985  0.8080797985063484  0.4345469241583473
  0.0262328357179129  0.7312902178508196  0.3047471509623989
  0.1954384923296573  0.6497770148688531  0.4387761902892322
  0.0244716162165659  0.7314449153197344  0.0681163758970484
  0.0388913944103280  0.9623700216495479  0.3704193187080023
  0.2298667520028062  0.8905246672278935  0.0043451966336931
  0.6939068625854858  0.6296350956665009  0.1195078274285208
  0.3725506018181832  0.5709771818274234  0.8106787039476302
  0.8349779798107519  0.8083840170118961  0.9343002788310457
  0.0266896417784181  0.7317936422124944  0.8046944460278240
  0.1930914014125378  0.6489352671885626  0.9384151614589697
  0.0253893887506251  0.7318429098025092  0.5677105407074521
  0.0386986082034753  0.9630248151134566  0.8693727712269421
  0.2322307607009293  0.8916631717951518  0.5045581500571785
  0.6952056004834759  0.6303037893707213  0.6193949898319175
  0.3473448567721178  0.0708668762320244  0.0631729510914383
  0.5369921485179887  0.4860491815848107  0.4361585899576212
  0.5380619194584213  0.4863232936728537  0.1920921747579243
  0.6866344586922324  0.4080451570335626  0.3129429900327736
  0.6818844113109108  0.4034362760112984  0.0602047721659318
  0.8362981292568250  0.3391892880296865  0.1845915988891065
  0.1945122988929242  0.1503007961422611  0.1871024181819436
  0.0497640844050125  0.4705973750875785  0.1185845648023687
  0.2338449663804454  0.3875308454609012  0.2488841733138258
  0.3946374766886862  0.3060507061541102  0.1276473747517386
  0.5502689808349004  0.2266516344395697  0.2478696571845163
  0.3926013589821906  0.3064309865925239  0.3737151922267969
  0.5427253287974310  0.2243026945987268  0.0002232045551409
  0.8859901734547577  0.0508346686406256  0.2478683766900787
  0.7236737056322511  0.1361023557389274  0.3753144448321848
  0.8822732145891266  0.0510863196858722  0.0019097617646722
  0.3564024843111326  0.0705354273159458  0.5640798437987655
  0.5360059846527392  0.4859354277004329  0.9338803758342493
  0.5381409245197020  0.4865104649145806  0.6922569947468915
  0.6897300319257695  0.4070642131573479  0.8098606375796464
  0.6871878500973168  0.4026809666554882  0.5646330864326004
  0.8527303533945272  0.3223124892910150  0.6831204790427847
  0.1942794648075363  0.1495055862493686  0.6854605702442385
  0.0503356518638185  0.4711023657074236  0.6233861995924315
  0.2299363658125912  0.3887524552379134  0.7476916456363369
  0.3946296307751425  0.3073240567708524  0.6285762652522919
  0.5526648326519634  0.2288339891394955  0.7455535474643753
  0.3909885357265850  0.3070944967254690  0.8719504099776003
  0.5483956110197070  0.2269189084499743  0.5050066085266351
  0.8848441431965526  0.0524478801514192  0.7466639843210743
  0.7230959764127931  0.1354502934256487  0.8736701974836336
  0.8829456568062781  0.0513432058073775  0.5013418595890329
  0.3599134243780142  0.5714565138404026  0.0645574984492185
  0.5360862717578527  0.9847808307964456  0.4361949930731583
  0.5353014840774435  0.9828366308598078  0.1953250492889893
  0.6933246694833528  0.9069877373899331  0.3130010603488813
  0.6898955758194845  0.9021308420458212  0.0647026300262681
  0.8572824037777451  0.8222765042120841  0.1843950056302219
  0.1978420628517412  0.6486531963571309  0.1865486532099681
  0.0486331885529552  0.9699499667642613  0.1232525295971527
  0.2320073277620907  0.8880176770516641  0.2493201333016088
  0.3984526554343830  0.8067195337454862  0.1297335590618189
  0.5603473971205730  0.7305239720339785  0.2484137879530905
  0.3977026996095105  0.8082714587165327  0.3747297417953419
  0.5536507198571812  0.7276490301163108  0.0059474619546478
  0.8870354756438985  0.5517343908304397  0.2477654548218808
  0.7332123538204343  0.6369606970016761  0.3758877250981172
  0.8847877019458323  0.5512096119274261  0.9999187303593757
  0.3610904940303286  0.5718028385763887  0.5647729760488502
  0.5315642321830936  0.9809279907109740  0.9291210433162789
  0.5381847305314764  0.9860181673435875  0.6915177035937177
  0.6940784300691760  0.9076678554659310  0.8112647080142779
  0.6900337374724757  0.9026163017061677  0.5647831495051179
  0.8579231293451315  0.8227037296136075  0.6842172836465537
  0.1984472755768820  0.6491402054012596  0.6855752969787119
  0.0493069506677415  0.9704938539788373  0.6225993609504101
  0.2318494053490312  0.8882889206770770  0.7480532469518906
  0.3994915696036756  0.8078703497904627  0.6299424213815072
  0.5598772443074935  0.7303166936011110  0.7482662298811391
  0.3972261753206467  0.8074354049428294  0.8741064758637194
  0.5545935574039405  0.7284389487344356  0.5066864916754312
  0.8867624718275238  0.5524182326095826  0.7470605865151967
  0.7315637639389081  0.6370123912173398  0.8755761436605241
  0.8858614313786433  0.5512237920752483  0.5012920729331967
  0.5772583627664005  0.1793992196005192  0.3655457954013244
  0.5324370765214326  0.1713312688421453  0.1100726639614038
  0.7235973573780115  0.0796785391526882  0.4761395058364144
  0.7316221534767990  0.0834888071612312  0.2438337962626136
  0.8773441025427289  0.0031556256059275  0.3609931976215108
  0.0442333705421589  0.4127285373859095  0.4929518422305961
  0.8784070165623632  0.4930784509141688  0.1101410397991245
  0.0470433238552985  0.4012922362718143  0.2198773426554013
  0.2261052655281546  0.3306249593243606  0.3511277848035448
  0.3914944850232871  0.2566573385276527  0.4868417520205028
  0.2333818555307730  0.3313542496774673  0.1188736419619474
  0.3837291856085727  0.2483412320376459  0.2363051710649771
  0.2366897888930239  0.0667470056924557  0.1642630884235103
  0.2543893949173892  0.0620753057195955  0.4282256372306819
  0.4245335909261456  0.4789185161916265  0.2974107361036928
  0.4478389443533928  0.0012119449589534  0.0592104571573557
  0.5800520615054836  0.4024709111602078  0.1729572187598620
  0.7353252514919077  0.3245368460158957  0.2881157923436390
  0.5813657257651315  0.4016987984690203  0.4237146294302718
  0.7235826973501105  0.3189749389000696  0.0525805615484813
  0.0783984849372317  0.1416747963992648  0.2874490041389635
  0.9092441946335654  0.2288718424238212  0.4170993672215531
  0.0694592556517719  0.1454549233265254  0.0598850482177369
  0.5774493010986816  0.1796041251731353  0.8656615105892840
  0.5275519297327378  0.1705189574379418  0.6091577762062172
  0.7234544444533526  0.0801864355595114  0.9781301520721186
  0.7264029615924770  0.0808027406784504  0.7450043701088589
  0.8791247648769556  0.0047969649663528  0.8622984091542847
  0.0425819537573346  0.4110847635055279  0.9920260355575508
  0.8792027967056555  0.4948699755923158  0.6098172176928998
  0.0576812145331189  0.4109939003903165  0.7225122902510037
  0.2317126487684860  0.3348289673234319  0.8542281794251565
  0.3888556495071569  0.2557710461230371  0.9860312763399577
  0.2344338668238350  0.3325486508225097  0.6191718150407226
  0.3839833531810868  0.2489076316287466  0.7362826842805319
  0.2381488559287703  0.0659130705662037  0.6630726769323871
  0.2539680799355608  0.0648475578941685  0.9281562960350698
  0.4260404860379836  0.4803067132258860  0.7971594478312696
  0.4480288212719543  0.0006910498079478  0.5581294967197863
  0.5805644620435118  0.4032760164261759  0.6731090096797629
  0.7406842060086944  0.3262101364183749  0.7868482568943591
  0.5820096253173546  0.4020501912998853  0.9221216668212122
  0.7305626967725019  0.3204368936677895  0.5572618894017580
  0.8877853100557687  0.2379032935732184  0.6709191209330712
  0.0773413395862192  0.1425427981274510  0.7847397787800929
  0.9089690586152983  0.2280985235462509  0.9243714703431891
  0.0723647718024623  0.1428843051818944  0.5566181129228553
  0.5861940223571835  0.6821105966237511  0.3679638797497873
  0.5314400147893039  0.6710511634558287  0.1112073205988580
  0.7255162616123769  0.5787664184352082  0.4764847398945591
  0.7271426254597912  0.5791396104649706  0.2447206434055857
  0.8765963433157467  0.5001430206901389  0.3596144002151718
  0.0456843627627705  0.9124414999791384  0.4946092968238389
  0.8804230897071790  0.9960883853473632  0.1110335498309283
  0.0629583091757695  0.9123851758196366  0.2242496130720824
  0.2382270546656784  0.8358571362702776  0.3560864100188041
  0.3977213497220760  0.7582223507520780  0.4884695200861202
  0.2407664550882629  0.8335049799856264  0.1216485529942659
  0.3885667718510177  0.7487093473213875  0.2379604333898442
  0.2395622419085512  0.5631091583522903  0.1648730979167183
  0.2607297698276270  0.5634350486357818  0.4271900902694554
  0.4285534870081449  0.9808464798516283  0.2991612868645390
  0.4478693126107984  0.5001726327594938  0.0577444469325954
  0.5853976374198311  0.9038062747712843  0.1750625107415402
  0.7482488040068134  0.8280317254143768  0.2896376022608393
  0.5877329403093299  0.9031064993632398  0.4247737829544747
  0.7360257204664578  0.8214675200615176  0.0592648644410190
  0.8929751991110351  0.7382431838231867  0.1720507931871822
  0.0804521187503511  0.6403161591740627  0.2855109682881150
  0.9165843701752294  0.7287784453861974  0.4214849123174247
  0.0763600211369706  0.6409897737166332  0.0568454566260286
  0.5846022847511989  0.6817281933971415  0.8678134800464505
  0.5326746149122741  0.6714516965963995  0.6109272973502442
  0.7254619523686898  0.5791977430764987  0.9770735269776267
  0.7273462592374145  0.5802483910250302  0.7444670086032374
  0.8761921290948109  0.5019049439420229  0.8597017198353072
  0.0472323596323179  0.9137914332223644  0.9946163777235384
  0.8801210795506407  0.9958931658756143  0.6108201432882581
  0.0633549884505200  0.9127802635411939  0.7245823037927295
  0.2404809693607035  0.8371778322796715  0.8568422784004142
  0.3972188008624329  0.7579263818242055  0.9883957443189573
  0.2400838253482149  0.8332212178236276  0.6213115078032985
  0.3892210759281411  0.7493267605956220  0.7377343568738297
  0.2412087020962304  0.5650424468531980  0.6631539053385040
  0.2578909671920755  0.5631264967996401  0.9286296847147142
  0.4277199342131652  0.9809789784104765  0.7971229692829667
  0.4467931289435825  0.4996587318472123  0.5567209521353789
  0.5851463792892844  0.9044409509962108  0.6749335703020165
  0.7491319572333168  0.8286243573512309  0.7898257690252350
  0.5887201939808975  0.9028656394214067  0.9244214833333544
  0.7363103180415820  0.8217357853589675  0.5594457133412618
  0.8941159589955632  0.7388026151374874  0.6720359982108874
  0.0813016518359362  0.6413337962268955  0.7850523684820772
  0.9170412860828279  0.7293251197707065  0.9218931438146001
  0.0768928154303552  0.6413510781669061  0.5554594171503524
 
  0.00000000E+00  0.00000000E+00  0.00000000E+00
  0.00000000E+00  0.00000000E+00  0.00000000E+00
  0.00000000E+00  0.00000000E+00  0.00000000E+00
  0.00000000E+00  0.00000000E+00  0.00000000E+00
  0.00000000E+00  0.00000000E+00  0.00000000E+00
  0.00000000E+00  0.00000000E+00  0.00000000E+00
  0.00000000E+00  0.00000000E+00  0.00000000E+00
  0.00000000E+00  0.00000000E+00  0.00000000E+00
  0.00000000E+00  0.00000000E+00  0.00000000E+00
  0.00000000E+00  0.00000000E+00  0.00000000E+00
  0.00000000E+00  0.00000000E+00  0.00000000E+00
  0.00000000E+00  0.00000000E+00  0.00000000E+00
  0.00000000E+00  0.00000000E+00  0.00000000E+00
  0.00000000E+00  0.00000000E+00  0.00000000E+00
  0.00000000E+00  0.00000000E+00  0.00000000E+00
  0.00000000E+00  0.00000000E+00  0.00000000E+00
  0.00000000E+00  0.00000000E+00  0.00000000E+00
  0.00000000E+00  0.00000000E+00  0.00000000E+00
  0.00000000E+00  0.00000000E+00  0.00000000E+00
  0.00000000E+00  0.00000000E+00  0.00000000E+00
  0.00000000E+00  0.00000000E+00  0.00000000E+00
  0.00000000E+00  0.00000000E+00  0.00000000E+00
  0.00000000E+00  0.00000000E+00  0.00000000E+00
  0.00000000E+00  0.00000000E+00  0.00000000E+00
  0.00000000E+00  0.00000000E+00  0.00000000E+00
  0.00000000E+00  0.00000000E+00  0.00000000E+00
  0.00000000E+00  0.00000000E+00  0.00000000E+00
  0.00000000E+00  0.00000000E+00  0.00000000E+00
  0.00000000E+00  0.00000000E+00  0.00000000E+00
  0.00000000E+00  0.00000000E+00  0.00000000E+00
  0.00000000E+00  0.00000000E+00  0.00000000E+00
  0.00000000E+00  0.00000000E+00  0.00000000E+00
  0.00000000E+00  0.00000000E+00  0.00000000E+00
  0.00000000E+00  0.00000000E+00  0.00000000E+00
  0.00000000E+00  0.00000000E+00  0.00000000E+00
  0.00000000E+00  0.00000000E+00  0.00000000E+00
  0.00000000E+00  0.00000000E+00  0.00000000E+00
  0.00000000E+00  0.00000000E+00  0.00000000E+00
  0.00000000E+00  0.00000000E+00  0.00000000E+00
  0.00000000E+00  0.00000000E+00  0.00000000E+00
  0.00000000E+00  0.00000000E+00  0.00000000E+00
  0.00000000E+00  0.00000000E+00  0.00000000E+00
  0.00000000E+00  0.00000000E+00  0.00000000E+00
  0.00000000E+00  0.00000000E+00  0.00000000E+00
  0.00000000E+00  0.00000000E+00  0.00000000E+00
  0.00000000E+00  0.00000000E+00  0.00000000E+00
  0.00000000E+00  0.00000000E+00  0.00000000E+00
  0.00000000E+00  0.00000000E+00  0.00000000E+00
  0.00000000E+00  0.00000000E+00  0.00000000E+00
  0.00000000E+00  0.00000000E+00  0.00000000E+00
  0.00000000E+00  0.00000000E+00  0.00000000E+00
  0.00000000E+00  0.00000000E+00  0.00000000E+00
  0.00000000E+00  0.00000000E+00  0.00000000E+00
  0.00000000E+00  0.00000000E+00  0.00000000E+00
  0.00000000E+00  0.00000000E+00  0.00000000E+00
  0.00000000E+00  0.00000000E+00  0.00000000E+00
  0.00000000E+00  0.00000000E+00  0.00000000E+00
  0.00000000E+00  0.00000000E+00  0.00000000E+00
  0.00000000E+00  0.00000000E+00  0.00000000E+00
  0.00000000E+00  0.00000000E+00  0.00000000E+00
  0.00000000E+00  0.00000000E+00  0.00000000E+00
  0.00000000E+00  0.00000000E+00  0.00000000E+00
  0.00000000E+00  0.00000000E+00  0.00000000E+00
  0.00000000E+00  0.00000000E+00  0.00000000E+00
  0.00000000E+00  0.00000000E+00  0.00000000E+00
  0.00000000E+00  0.00000000E+00  0.00000000E+00
  0.00000000E+00  0.00000000E+00  0.00000000E+00
  0.00000000E+00  0.00000000E+00  0.00000000E+00
  0.00000000E+00  0.00000000E+00  0.00000000E+00
  0.00000000E+00  0.00000000E+00  0.00000000E+00
  0.00000000E+00  0.00000000E+00  0.00000000E+00
  0.00000000E+00  0.00000000E+00  0.00000000E+00
  0.00000000E+00  0.00000000E+00  0.00000000E+00
  0.00000000E+00  0.00000000E+00  0.00000000E+00
  0.00000000E+00  0.00000000E+00  0.00000000E+00
  0.00000000E+00  0.00000000E+00  0.00000000E+00
  0.00000000E+00  0.00000000E+00  0.00000000E+00
  0.00000000E+00  0.00000000E+00  0.00000000E+00
  0.00000000E+00  0.00000000E+00  0.00000000E+00
  0.00000000E+00  0.00000000E+00  0.00000000E+00
  0.00000000E+00  0.00000000E+00  0.00000000E+00
  0.00000000E+00  0.00000000E+00  0.00000000E+00
  0.00000000E+00  0.00000000E+00  0.00000000E+00
  0.00000000E+00  0.00000000E+00  0.00000000E+00
  0.00000000E+00  0.00000000E+00  0.00000000E+00
  0.00000000E+00  0.00000000E+00  0.00000000E+00
  0.00000000E+00  0.00000000E+00  0.00000000E+00
  0.00000000E+00  0.00000000E+00  0.00000000E+00
  0.00000000E+00  0.00000000E+00  0.00000000E+00
  0.00000000E+00  0.00000000E+00  0.00000000E+00
  0.00000000E+00  0.00000000E+00  0.00000000E+00
  0.00000000E+00  0.00000000E+00  0.00000000E+00
  0.00000000E+00  0.00000000E+00  0.00000000E+00
  0.00000000E+00  0.00000000E+00  0.00000000E+00
  0.00000000E+00  0.00000000E+00  0.00000000E+00
  0.00000000E+00  0.00000000E+00  0.00000000E+00
  0.00000000E+00  0.00000000E+00  0.00000000E+00
  0.00000000E+00  0.00000000E+00  0.00000000E+00
  0.00000000E+00  0.00000000E+00  0.00000000E+00
  0.00000000E+00  0.00000000E+00  0.00000000E+00
  0.00000000E+00  0.00000000E+00  0.00000000E+00
  0.00000000E+00  0.00000000E+00  0.00000000E+00
  0.00000000E+00  0.00000000E+00  0.00000000E+00
  0.00000000E+00  0.00000000E+00  0.00000000E+00
  0.00000000E+00  0.00000000E+00  0.00000000E+00
  0.00000000E+00  0.00000000E+00  0.00000000E+00
  0.00000000E+00  0.00000000E+00  0.00000000E+00
  0.00000000E+00  0.00000000E+00  0.00000000E+00
  0.00000000E+00  0.00000000E+00  0.00000000E+00
  0.00000000E+00  0.00000000E+00  0.00000000E+00
  0.00000000E+00  0.00000000E+00  0.00000000E+00
  0.00000000E+00  0.00000000E+00  0.00000000E+00
  0.00000000E+00  0.00000000E+00  0.00000000E+00
  0.00000000E+00  0.00000000E+00  0.00000000E+00
  0.00000000E+00  0.00000000E+00  0.00000000E+00
  0.00000000E+00  0.00000000E+00  0.00000000E+00
  0.00000000E+00  0.00000000E+00  0.00000000E+00
  0.00000000E+00  0.00000000E+00  0.00000000E+00
  0.00000000E+00  0.00000000E+00  0.00000000E+00
  0.00000000E+00  0.00000000E+00  0.00000000E+00
  0.00000000E+00  0.00000000E+00  0.00000000E+00
  0.00000000E+00  0.00000000E+00  0.00000000E+00
  0.00000000E+00  0.00000000E+00  0.00000000E+00
  0.00000000E+00  0.00000000E+00  0.00000000E+00
  0.00000000E+00  0.00000000E+00  0.00000000E+00
  0.00000000E+00  0.00000000E+00  0.00000000E+00
  0.00000000E+00  0.00000000E+00  0.00000000E+00
  0.00000000E+00  0.00000000E+00  0.00000000E+00
  0.00000000E+00  0.00000000E+00  0.00000000E+00
  0.00000000E+00  0.00000000E+00  0.00000000E+00
  0.00000000E+00  0.00000000E+00  0.00000000E+00
  0.00000000E+00  0.00000000E+00  0.00000000E+00
  0.00000000E+00  0.00000000E+00  0.00000000E+00
  0.00000000E+00  0.00000000E+00  0.00000000E+00
  0.00000000E+00  0.00000000E+00  0.00000000E+00
  0.00000000E+00  0.00000000E+00  0.00000000E+00
  0.00000000E+00  0.00000000E+00  0.00000000E+00
  0.00000000E+00  0.00000000E+00  0.00000000E+00
  0.00000000E+00  0.00000000E+00  0.00000000E+00
  0.00000000E+00  0.00000000E+00  0.00000000E+00
  0.00000000E+00  0.00000000E+00  0.00000000E+00
  0.00000000E+00  0.00000000E+00  0.00000000E+00
  0.00000000E+00  0.00000000E+00  0.00000000E+00
  0.00000000E+00  0.00000000E+00  0.00000000E+00
  0.00000000E+00  0.00000000E+00  0.00000000E+00
  0.00000000E+00  0.00000000E+00  0.00000000E+00
  0.00000000E+00  0.00000000E+00  0.00000000E+00
  0.00000000E+00  0.00000000E+00  0.00000000E+00
  0.00000000E+00  0.00000000E+00  0.00000000E+00
  0.00000000E+00  0.00000000E+00  0.00000000E+00
  0.00000000E+00  0.00000000E+00  0.00000000E+00
  0.00000000E+00  0.00000000E+00  0.00000000E+00
  0.00000000E+00  0.00000000E+00  0.00000000E+00
  0.00000000E+00  0.00000000E+00  0.00000000E+00
  0.00000000E+00  0.00000000E+00  0.00000000E+00
  0.00000000E+00  0.00000000E+00  0.00000000E+00
  0.00000000E+00  0.00000000E+00  0.00000000E+00
  0.00000000E+00  0.00000000E+00  0.00000000E+00
  0.00000000E+00  0.00000000E+00  0.00000000E+00
  0.00000000E+00  0.00000000E+00  0.00000000E+00
  0.00000000E+00  0.00000000E+00  0.00000000E+00
  0.00000000E+00  0.00000000E+00  0.00000000E+00
  0.00000000E+00  0.00000000E+00  0.00000000E+00
  0.00000000E+00  0.00000000E+00  0.00000000E+00
  0.00000000E+00  0.00000000E+00  0.00000000E+00
  0.00000000E+00  0.00000000E+00  0.00000000E+00
  0.00000000E+00  0.00000000E+00  0.00000000E+00
  0.00000000E+00  0.00000000E+00  0.00000000E+00
  0.00000000E+00  0.00000000E+00  0.00000000E+00
  0.00000000E+00  0.00000000E+00  0.00000000E+00
  0.00000000E+00  0.00000000E+00  0.00000000E+00
  0.00000000E+00  0.00000000E+00  0.00000000E+00
  0.00000000E+00  0.00000000E+00  0.00000000E+00
  0.00000000E+00  0.00000000E+00  0.00000000E+00
  0.00000000E+00  0.00000000E+00  0.00000000E+00
  0.00000000E+00  0.00000000E+00  0.00000000E+00
  0.00000000E+00  0.00000000E+00  0.00000000E+00
  0.00000000E+00  0.00000000E+00  0.00000000E+00
  0.00000000E+00  0.00000000E+00  0.00000000E+00
  0.00000000E+00  0.00000000E+00  0.00000000E+00
  0.00000000E+00  0.00000000E+00  0.00000000E+00
  0.00000000E+00  0.00000000E+00  0.00000000E+00
  0.00000000E+00  0.00000000E+00  0.00000000E+00
  0.00000000E+00  0.00000000E+00  0.00000000E+00
  0.00000000E+00  0.00000000E+00  0.00000000E+00
  0.00000000E+00  0.00000000E+00  0.00000000E+00
  0.00000000E+00  0.00000000E+00  0.00000000E+00
  0.00000000E+00  0.00000000E+00  0.00000000E+00
  0.00000000E+00  0.00000000E+00  0.00000000E+00
  0.00000000E+00  0.00000000E+00  0.00000000E+00
  0.00000000E+00  0.00000000E+00  0.00000000E+00
