supercell of POSCAR                     
   1.03228000000000     
     6.3970863126299999    5.5387332920799999    4.9397337979799998
   -15.9736979067999982   -5.5365852353599996    9.8547656895600007
     6.4026568282999996  -11.0930079636999999    0.0094448205590600
   Sc   Al   N 
    32    64    95
Direct
  0.3600464451046363  0.0653519408046890  0.3076716249177096
  0.8370170760599009  0.3120870671159608  0.4318680187464921
  0.0172000597094666  0.2303372420344800  0.3027814061743328
  0.1317493692244014  0.1190385518277992  0.4249832156607027
  0.0190591085796967  0.2316974545697121  0.0660663505275707
  0.0454247439423767  0.4670479128536797  0.3699823839017782
  0.2295784721282814  0.3928239093284134  0.0035310724183262
  0.6887883712826621  0.1285717545148586  0.1175239976471971
  0.3666335778141132  0.0679451347629509  0.8096043173639202
  0.8315106195918673  0.3092114867279463  0.9329751193819718
  0.0165611318329510  0.2300713212289125  0.8024394286028169
  0.1862318113747961  0.1464985205624245  0.9372391465776033
  0.0124969171963443  0.2306901199844944  0.5661621767045872
  0.0434396046485261  0.4665206912485402  0.8710093265413548
  0.2322970798773270  0.3932694633761074  0.5044849355019494
  0.6841207883309934  0.1243288694984912  0.6208214394108040
  0.3750872870985731  0.5727178219096913  0.3104151553837298
  0.8333219483107683  0.8062348461441218  0.4361013434037844
  0.0276610162000495  0.7323379907956848  0.3048833668450968
  0.1943744926823427  0.6505817688080526  0.4387218064692888
  0.0261082872026321  0.7327599608999336  0.0677569930518871
  0.0306838272103107  0.9522643988893478  0.3660918434391149
  0.2331488004699551  0.8918933859925744  0.0043410401980992
  0.6941597030496496  0.6297433144609172  0.1191532379418021
  0.3735796760741010  0.5718484142017246  0.8109076476852053
  0.8348728937118040  0.8080994525819420  0.9335011703761893
  0.0258951655152373  0.7316663482216086  0.8049645572811315
  0.1944300982945109  0.6503560878492465  0.9387236542592561
  0.0249961309986020  0.7318696375257616  0.5685082039967781
  0.0404607789410321  0.9629252416108969  0.8703370849273000
  0.2336362158583754  0.8907967796695644  0.5060998303802222
  0.6946131001093505  0.6309170600789002  0.6197473432077700
  0.3566508396103174  0.0705791099035125  0.0633637654442225
  0.5357729481771685  0.4880128965126431  0.4358571122844168
  0.5371422618919510  0.4863501701107111  0.1916690400092804
  0.6946715526506750  0.4079500968428036  0.3086533014672384
  0.6892344457673616  0.4031918427763301  0.0639374963128034
  0.8520303395201125  0.3221587703894073  0.1820917785343426
  0.1925460538462573  0.1478738721091588  0.1828181704061862
  0.0495730282626710  0.4720027161744866  0.1220097862464371
  0.2248014992536795  0.3910885807767741  0.2446006203432489
  0.3949855620337175  0.3074927688188325  0.1221472079039785
  0.5550528031847435  0.2289954045383666  0.2453709288044266
  0.3911761767908430  0.3218738031706465  0.3400986464651510
  0.5487368783692332  0.2262341655359634  0.0037000008642920
  0.8815236435097020  0.0512318674537084  0.2405193078777117
  0.7260792596487278  0.1336113540283606  0.3734290052274503
  0.8825315660889004  0.0509654956373424  0.9998656313132841
  0.3495499408371998  0.0676402908976783  0.5625538514853972
  0.5349019550584586  0.4855709819703691  0.9351266138402394
  0.5376883539116335  0.4883785931975595  0.6925624278177978
  0.6939672400442802  0.4081360912041418  0.8145052394102095
  0.6841516460620340  0.4021298965519833  0.5632379455604664
  0.8494566470509355  0.3224067230074681  0.6845404399088153
  0.1907312962112897  0.1475990876279027  0.6871463547602872
  0.0496677729990083  0.4718389739904012  0.6228872183144745
  0.2239377353522798  0.3902762851146591  0.7504622244588859
  0.3928979538934882  0.3201108714794216  0.6686215189538487
  0.5531282168148195  0.2286954667334982  0.7481369553004882
  0.3918016769372841  0.3077668630588022  0.8800092956013756
  0.5808542501244958  0.2169667609618529  0.5047409740328632
  0.8847647638632523  0.0512961386130755  0.7491107292950403
  0.7260435704980139  0.1359503107799682  0.8755579047888702
  0.8765118191173968  0.0495710500478168  0.5069126169851188
  0.3607216491729375  0.5726213541463920  0.0648588137634647
  0.5329455205077167  0.9839033714388847  0.4347298290315962
  0.5371649772837159  0.9856190514617396  0.1914390683020812
  0.6968265291203366  0.9097136634170866  0.3129802214143638
  0.6896966780557889  0.9020037620657533  0.0634951413564764
  0.8577233294847204  0.8213621152822057  0.1813055626301789
  0.1993639067725610  0.6500479086786086  0.1859107184057649
  0.0497307556300157  0.9695944294100940  0.1212128621062476
  0.2351180793238328  0.8880796833861737  0.2480998476396437
  0.4017485177365501  0.8082800627328481  0.1301243873600271
  0.5627443626860895  0.7318287655308211  0.2485509305654716
  0.4000551287204743  0.8090234812575972  0.3745702727850784
  0.5536055522825052  0.7277673123004362  0.0054486092642279
  0.8872978033335670  0.5531930114977328  0.2469218550016663
  0.7322740033747763  0.6366697164560833  0.3750826794908306
  0.8850032648743209  0.5524236894517429  0.0012171113940909
  0.3592684366335348  0.5725032898481643  0.5646065242094735
  0.5358146780879025  0.9846715757978828  0.9352421555452466
  0.5368012571699552  0.9845789429494616  0.6942601567881681
  0.6928411821141935  0.9070245404110580  0.8123761747867349
  0.6889720263199379  0.9017162456586263  0.5659618863951010
  0.8569753090100960  0.8224115067734417  0.6852157609194549
  0.1982490962487518  0.6496041411697746  0.6862038425269361
  0.0489075152691285  0.9690885412006338  0.6240037803695060
  0.2323196886930887  0.8880160147358822  0.7497011651256713
  0.3991167938151676  0.8073878853003720  0.6306258654037009
  0.5590986408466136  0.7302557498170543  0.7484652562070480
  0.3976285626804597  0.8083427704229322  0.8746288234865816
  0.5531155844240487  0.7281076627831879  0.5065828624008404
  0.8865344393084698  0.5527553841694441  0.7473237630415284
  0.7308495691248567  0.6368723470783166  0.8758759342371363
  0.8850951312348982  0.5518412285663175  0.5007871445575560
  0.5752380184316692  0.1768232948657911  0.3640359828108544
  0.5279759906662633  0.1706538621500897  0.1095234786741699
  0.7214983225117706  0.0788091559694664  0.4779524108985385
  0.7267029812844896  0.0797610737111256  0.2434852953959705
  0.8934007538970334  0.0099299934275123  0.3651607756053821
  0.0456517000155969  0.4138592699188877  0.4932759819705552
  0.8790953554777730  0.4957670050035858  0.1097959840979428
  0.0553605629359026  0.4120101459722108  0.2220394742054168
  0.2282114743052617  0.3363811777511501  0.3522153434969368
  0.2369048109436704  0.3336513086250719  0.1207766845669767
  0.3838532478739651  0.2484571568147160  0.2320616410888476
  0.2381953366869567  0.0655082267083884  0.1625096040447858
  0.2470975952070376  0.0571702196394810  0.4260281811047264
  0.4250496753243524  0.4800084012395303  0.2975382364891246
  0.4480543604114686  0.0007874675415636  0.0583034063916443
  0.5807273139122131  0.4031083596290514  0.1731034532537237
  0.7407987630103108  0.3259539966177130  0.2873372510136392
  0.5793832090758926  0.4009705821846552  0.4221517888708419
  0.7298381555171574  0.3203815917227857  0.0568567216606510
  0.8878591607176460  0.2381847282222296  0.1706627318495606
  0.0787251065286654  0.1428216149586419  0.2830975292732347
  0.9061492851914323  0.2280957410781710  0.4194516368241850
  0.0720884065705008  0.1423203923633878  0.0556463371783167
  0.5771196839954769  0.1796090012781875  0.8648432636641132
  0.5205271110081995  0.1688836387095876  0.6075568771537760
  0.7236042748810689  0.0792404105628037  0.9770886536280372
  0.7258660992832091  0.0790907991558640  0.7460232157645805
  0.8780502208425744  0.0026236516685643  0.8613869215073393
  0.0425975436868526  0.4131698225197908  0.9925306773277853
  0.8749418428468871  0.4935599562324242  0.6089156225830905
  0.0522558603408925  0.4106010553282715  0.7219098566105160
  0.2320165306737749  0.3350194571998628  0.8539868400977610
  0.3908414129145612  0.2556017801567378  0.9868130445634336
  0.2291664913058398  0.3325039397599951  0.6211330868470810
  0.3822479618604788  0.2478895263962144  0.7421031177651756
  0.2366876968033722  0.0653468597844551  0.6635140968035032
  0.2555679472943027  0.0628964792877227  0.9279469084171552
  0.4235899485773018  0.4792009433322590  0.7964893179417629
  0.4475685560715306  0.0006943867676554  0.5594440688845310
  0.5769042222226517  0.4021199683019461  0.6734563330365688
  0.7377239238345368  0.3258274898672440  0.7867697294473714
  0.5824425642417594  0.4019370919014875  0.9234790477160146
  0.7212871463783728  0.3180608737721755  0.5537762579197576
  0.8782913971084625  0.2361981918688301  0.6687040902951438
  0.0757842566955702  0.1416022308504523  0.7860626586743109
  0.9094061897695198  0.2288197928429909  0.9201394350979086
  0.0690776636781365  0.1429810553461195  0.5604099727259850
  0.5869099878790465  0.6830644012188927  0.3676534468939536
  0.5338876755082680  0.6722986785372669  0.1116456161263173
  0.7245792636674864  0.5791115603836445  0.4769404134386050
  0.7262058932170845  0.5794680869438054  0.2442497230944056
  0.8765003223402204  0.5024046608101216  0.3599814765619627
  0.0458655855454495  0.9103605620092239  0.4966961972545931
  0.8807484874389999  0.9950407761899172  0.1090981492509826
  0.0642005206860361  0.9107619391915023  0.2211469415949665
  0.2410808027612177  0.8370138183211466  0.3567528300816107
  0.3981159548840765  0.7589354805984030  0.4883798537864408
  0.2426976466825579  0.8334966333832838  0.1210353440652270
  0.3920243134383909  0.7504271642123399  0.2383692436703129
  0.2414276865948608  0.5657159041897799  0.1637521307882537
  0.2605352977223632  0.5650572445777797  0.4279239089187925
  0.4290856482120589  0.9808313595994065  0.2979815418595990
  0.4463673446292944  0.5002009784852461  0.0572663511459410
  0.5889671930897507  0.9055019664426780  0.1761649556019123
  0.7574487416391662  0.8322303961984900  0.2919549004513442
  0.5920900499945887  0.9046984095688373  0.4250869101174004
  0.7356076818026267  0.8211215987953651  0.0584228201370323
  0.8933826448220543  0.7378619161089333  0.1717545172935786
  0.0816900505341067  0.6417139867834933  0.2851233582516102
  0.9168904335246424  0.7280212149211209  0.4214644008983015
  0.0768563364079498  0.6422516578728263  0.0562509550944412
  0.5838226794627985  0.6812892680506621  0.8673464563049222
  0.5315753554956189  0.6713823964566927  0.6110314524254079
  0.7233278840505690  0.5786392541351120  0.9761417330492606
  0.7262536547396721  0.5798046200574518  0.7442595531568443
  0.8757752487531221  0.5025284068248226  0.8599941124250492
  0.0458575246604838  0.9119782081513463  0.9934731577395652
  0.8795815163930385  0.9946856259967305  0.6126312174708488
  0.0620922920615001  0.9115241215927412  0.7250184117699163
  0.2379624115989358  0.8355052804778680  0.8564623799577475
  0.3983914889781772  0.7585260170662664  0.9887275046486863
  0.2399720945022565  0.8326383726785238  0.6223571831340422
  0.3883523532495445  0.7489360860375101  0.7380811638762381
  0.2400749617200404  0.5650475912313553  0.6637898356667691
  0.2595461474533138  0.5644692648112084  0.9283648229389740
  0.4271603561977813  0.9800751023798711  0.7988814915472418
  0.4462746401348880  0.5000959397597811  0.5572678542252092
  0.5840404582777481  0.9034950186866837  0.6751678242958192
  0.7466548707443934  0.8275097682212049  0.7894800192664988
  0.5875890421514853  0.9029934077789363  0.9247899368861638
  0.7353362465115652  0.8211400903618369  0.5600673727596330
  0.8927599064508485  0.7383774740950315  0.6720421315078369
  0.0800377952342828  0.6408114633145061  0.7848495161071014
  0.9151655017458253  0.7283388369421004  0.9213552253570469
  0.0760846116404892  0.6412960180183234  0.5562494550044264
 
  0.00000000E+00  0.00000000E+00  0.00000000E+00
  0.00000000E+00  0.00000000E+00  0.00000000E+00
  0.00000000E+00  0.00000000E+00  0.00000000E+00
  0.00000000E+00  0.00000000E+00  0.00000000E+00
  0.00000000E+00  0.00000000E+00  0.00000000E+00
  0.00000000E+00  0.00000000E+00  0.00000000E+00
  0.00000000E+00  0.00000000E+00  0.00000000E+00
  0.00000000E+00  0.00000000E+00  0.00000000E+00
  0.00000000E+00  0.00000000E+00  0.00000000E+00
  0.00000000E+00  0.00000000E+00  0.00000000E+00
  0.00000000E+00  0.00000000E+00  0.00000000E+00
  0.00000000E+00  0.00000000E+00  0.00000000E+00
  0.00000000E+00  0.00000000E+00  0.00000000E+00
  0.00000000E+00  0.00000000E+00  0.00000000E+00
  0.00000000E+00  0.00000000E+00  0.00000000E+00
  0.00000000E+00  0.00000000E+00  0.00000000E+00
  0.00000000E+00  0.00000000E+00  0.00000000E+00
  0.00000000E+00  0.00000000E+00  0.00000000E+00
  0.00000000E+00  0.00000000E+00  0.00000000E+00
  0.00000000E+00  0.00000000E+00  0.00000000E+00
  0.00000000E+00  0.00000000E+00  0.00000000E+00
  0.00000000E+00  0.00000000E+00  0.00000000E+00
  0.00000000E+00  0.00000000E+00  0.00000000E+00
  0.00000000E+00  0.00000000E+00  0.00000000E+00
  0.00000000E+00  0.00000000E+00  0.00000000E+00
  0.00000000E+00  0.00000000E+00  0.00000000E+00
  0.00000000E+00  0.00000000E+00  0.00000000E+00
  0.00000000E+00  0.00000000E+00  0.00000000E+00
  0.00000000E+00  0.00000000E+00  0.00000000E+00
  0.00000000E+00  0.00000000E+00  0.00000000E+00
  0.00000000E+00  0.00000000E+00  0.00000000E+00
  0.00000000E+00  0.00000000E+00  0.00000000E+00
  0.00000000E+00  0.00000000E+00  0.00000000E+00
  0.00000000E+00  0.00000000E+00  0.00000000E+00
  0.00000000E+00  0.00000000E+00  0.00000000E+00
  0.00000000E+00  0.00000000E+00  0.00000000E+00
  0.00000000E+00  0.00000000E+00  0.00000000E+00
  0.00000000E+00  0.00000000E+00  0.00000000E+00
  0.00000000E+00  0.00000000E+00  0.00000000E+00
  0.00000000E+00  0.00000000E+00  0.00000000E+00
  0.00000000E+00  0.00000000E+00  0.00000000E+00
  0.00000000E+00  0.00000000E+00  0.00000000E+00
  0.00000000E+00  0.00000000E+00  0.00000000E+00
  0.00000000E+00  0.00000000E+00  0.00000000E+00
  0.00000000E+00  0.00000000E+00  0.00000000E+00
  0.00000000E+00  0.00000000E+00  0.00000000E+00
  0.00000000E+00  0.00000000E+00  0.00000000E+00
  0.00000000E+00  0.00000000E+00  0.00000000E+00
  0.00000000E+00  0.00000000E+00  0.00000000E+00
  0.00000000E+00  0.00000000E+00  0.00000000E+00
  0.00000000E+00  0.00000000E+00  0.00000000E+00
  0.00000000E+00  0.00000000E+00  0.00000000E+00
  0.00000000E+00  0.00000000E+00  0.00000000E+00
  0.00000000E+00  0.00000000E+00  0.00000000E+00
  0.00000000E+00  0.00000000E+00  0.00000000E+00
  0.00000000E+00  0.00000000E+00  0.00000000E+00
  0.00000000E+00  0.00000000E+00  0.00000000E+00
  0.00000000E+00  0.00000000E+00  0.00000000E+00
  0.00000000E+00  0.00000000E+00  0.00000000E+00
  0.00000000E+00  0.00000000E+00  0.00000000E+00
  0.00000000E+00  0.00000000E+00  0.00000000E+00
  0.00000000E+00  0.00000000E+00  0.00000000E+00
  0.00000000E+00  0.00000000E+00  0.00000000E+00
  0.00000000E+00  0.00000000E+00  0.00000000E+00
  0.00000000E+00  0.00000000E+00  0.00000000E+00
  0.00000000E+00  0.00000000E+00  0.00000000E+00
  0.00000000E+00  0.00000000E+00  0.00000000E+00
  0.00000000E+00  0.00000000E+00  0.00000000E+00
  0.00000000E+00  0.00000000E+00  0.00000000E+00
  0.00000000E+00  0.00000000E+00  0.00000000E+00
  0.00000000E+00  0.00000000E+00  0.00000000E+00
  0.00000000E+00  0.00000000E+00  0.00000000E+00
  0.00000000E+00  0.00000000E+00  0.00000000E+00
  0.00000000E+00  0.00000000E+00  0.00000000E+00
  0.00000000E+00  0.00000000E+00  0.00000000E+00
  0.00000000E+00  0.00000000E+00  0.00000000E+00
  0.00000000E+00  0.00000000E+00  0.00000000E+00
  0.00000000E+00  0.00000000E+00  0.00000000E+00
  0.00000000E+00  0.00000000E+00  0.00000000E+00
  0.00000000E+00  0.00000000E+00  0.00000000E+00
  0.00000000E+00  0.00000000E+00  0.00000000E+00
  0.00000000E+00  0.00000000E+00  0.00000000E+00
  0.00000000E+00  0.00000000E+00  0.00000000E+00
  0.00000000E+00  0.00000000E+00  0.00000000E+00
  0.00000000E+00  0.00000000E+00  0.00000000E+00
  0.00000000E+00  0.00000000E+00  0.00000000E+00
  0.00000000E+00  0.00000000E+00  0.00000000E+00
  0.00000000E+00  0.00000000E+00  0.00000000E+00
  0.00000000E+00  0.00000000E+00  0.00000000E+00
  0.00000000E+00  0.00000000E+00  0.00000000E+00
  0.00000000E+00  0.00000000E+00  0.00000000E+00
  0.00000000E+00  0.00000000E+00  0.00000000E+00
  0.00000000E+00  0.00000000E+00  0.00000000E+00
  0.00000000E+00  0.00000000E+00  0.00000000E+00
  0.00000000E+00  0.00000000E+00  0.00000000E+00
  0.00000000E+00  0.00000000E+00  0.00000000E+00
  0.00000000E+00  0.00000000E+00  0.00000000E+00
  0.00000000E+00  0.00000000E+00  0.00000000E+00
  0.00000000E+00  0.00000000E+00  0.00000000E+00
  0.00000000E+00  0.00000000E+00  0.00000000E+00
  0.00000000E+00  0.00000000E+00  0.00000000E+00
  0.00000000E+00  0.00000000E+00  0.00000000E+00
  0.00000000E+00  0.00000000E+00  0.00000000E+00
  0.00000000E+00  0.00000000E+00  0.00000000E+00
  0.00000000E+00  0.00000000E+00  0.00000000E+00
  0.00000000E+00  0.00000000E+00  0.00000000E+00
  0.00000000E+00  0.00000000E+00  0.00000000E+00
  0.00000000E+00  0.00000000E+00  0.00000000E+00
  0.00000000E+00  0.00000000E+00  0.00000000E+00
  0.00000000E+00  0.00000000E+00  0.00000000E+00
  0.00000000E+00  0.00000000E+00  0.00000000E+00
  0.00000000E+00  0.00000000E+00  0.00000000E+00
  0.00000000E+00  0.00000000E+00  0.00000000E+00
  0.00000000E+00  0.00000000E+00  0.00000000E+00
  0.00000000E+00  0.00000000E+00  0.00000000E+00
  0.00000000E+00  0.00000000E+00  0.00000000E+00
  0.00000000E+00  0.00000000E+00  0.00000000E+00
  0.00000000E+00  0.00000000E+00  0.00000000E+00
  0.00000000E+00  0.00000000E+00  0.00000000E+00
  0.00000000E+00  0.00000000E+00  0.00000000E+00
  0.00000000E+00  0.00000000E+00  0.00000000E+00
  0.00000000E+00  0.00000000E+00  0.00000000E+00
  0.00000000E+00  0.00000000E+00  0.00000000E+00
  0.00000000E+00  0.00000000E+00  0.00000000E+00
  0.00000000E+00  0.00000000E+00  0.00000000E+00
  0.00000000E+00  0.00000000E+00  0.00000000E+00
  0.00000000E+00  0.00000000E+00  0.00000000E+00
  0.00000000E+00  0.00000000E+00  0.00000000E+00
  0.00000000E+00  0.00000000E+00  0.00000000E+00
  0.00000000E+00  0.00000000E+00  0.00000000E+00
  0.00000000E+00  0.00000000E+00  0.00000000E+00
  0.00000000E+00  0.00000000E+00  0.00000000E+00
  0.00000000E+00  0.00000000E+00  0.00000000E+00
  0.00000000E+00  0.00000000E+00  0.00000000E+00
  0.00000000E+00  0.00000000E+00  0.00000000E+00
  0.00000000E+00  0.00000000E+00  0.00000000E+00
  0.00000000E+00  0.00000000E+00  0.00000000E+00
  0.00000000E+00  0.00000000E+00  0.00000000E+00
  0.00000000E+00  0.00000000E+00  0.00000000E+00
  0.00000000E+00  0.00000000E+00  0.00000000E+00
  0.00000000E+00  0.00000000E+00  0.00000000E+00
  0.00000000E+00  0.00000000E+00  0.00000000E+00
  0.00000000E+00  0.00000000E+00  0.00000000E+00
  0.00000000E+00  0.00000000E+00  0.00000000E+00
  0.00000000E+00  0.00000000E+00  0.00000000E+00
  0.00000000E+00  0.00000000E+00  0.00000000E+00
  0.00000000E+00  0.00000000E+00  0.00000000E+00
  0.00000000E+00  0.00000000E+00  0.00000000E+00
  0.00000000E+00  0.00000000E+00  0.00000000E+00
  0.00000000E+00  0.00000000E+00  0.00000000E+00
  0.00000000E+00  0.00000000E+00  0.00000000E+00
  0.00000000E+00  0.00000000E+00  0.00000000E+00
  0.00000000E+00  0.00000000E+00  0.00000000E+00
  0.00000000E+00  0.00000000E+00  0.00000000E+00
  0.00000000E+00  0.00000000E+00  0.00000000E+00
  0.00000000E+00  0.00000000E+00  0.00000000E+00
  0.00000000E+00  0.00000000E+00  0.00000000E+00
  0.00000000E+00  0.00000000E+00  0.00000000E+00
  0.00000000E+00  0.00000000E+00  0.00000000E+00
  0.00000000E+00  0.00000000E+00  0.00000000E+00
  0.00000000E+00  0.00000000E+00  0.00000000E+00
  0.00000000E+00  0.00000000E+00  0.00000000E+00
  0.00000000E+00  0.00000000E+00  0.00000000E+00
  0.00000000E+00  0.00000000E+00  0.00000000E+00
  0.00000000E+00  0.00000000E+00  0.00000000E+00
  0.00000000E+00  0.00000000E+00  0.00000000E+00
  0.00000000E+00  0.00000000E+00  0.00000000E+00
  0.00000000E+00  0.00000000E+00  0.00000000E+00
  0.00000000E+00  0.00000000E+00  0.00000000E+00
  0.00000000E+00  0.00000000E+00  0.00000000E+00
  0.00000000E+00  0.00000000E+00  0.00000000E+00
  0.00000000E+00  0.00000000E+00  0.00000000E+00
  0.00000000E+00  0.00000000E+00  0.00000000E+00
  0.00000000E+00  0.00000000E+00  0.00000000E+00
  0.00000000E+00  0.00000000E+00  0.00000000E+00
  0.00000000E+00  0.00000000E+00  0.00000000E+00
  0.00000000E+00  0.00000000E+00  0.00000000E+00
  0.00000000E+00  0.00000000E+00  0.00000000E+00
  0.00000000E+00  0.00000000E+00  0.00000000E+00
  0.00000000E+00  0.00000000E+00  0.00000000E+00
  0.00000000E+00  0.00000000E+00  0.00000000E+00
  0.00000000E+00  0.00000000E+00  0.00000000E+00
  0.00000000E+00  0.00000000E+00  0.00000000E+00
  0.00000000E+00  0.00000000E+00  0.00000000E+00
  0.00000000E+00  0.00000000E+00  0.00000000E+00
  0.00000000E+00  0.00000000E+00  0.00000000E+00
  0.00000000E+00  0.00000000E+00  0.00000000E+00
  0.00000000E+00  0.00000000E+00  0.00000000E+00
  0.00000000E+00  0.00000000E+00  0.00000000E+00
  0.00000000E+00  0.00000000E+00  0.00000000E+00
  0.00000000E+00  0.00000000E+00  0.00000000E+00
