supercell of POSCAR                     
   1.03228000000000     
     6.3970863126299999    5.5387332920799999    4.9397337979799998
   -15.9736979067999982   -5.5365852353599996    9.8547656895600007
     6.4026568282999996  -11.0930079636999999    0.0094448205590600
   Sc   Al   N 
    32    63    96
Direct
  0.3767839703734239  0.0718203744714785  0.3101527827300075
  0.8286317178454183  0.3087407241905140  0.4357156223316778
  0.0071519099215251  0.2230919477422049  0.3013623458931818
  0.1789169292666628  0.1429890047741580  0.4352712229897975
  0.0253251889086670  0.2307310281342581  0.0682921175293387
  0.0335752536619580  0.4613159733125514  0.3685987784675930
  0.2290929777939539  0.3916569392075715  0.0043567072715334
  0.6924063527248023  0.1285673090969084  0.1167563179550015
  0.3730818438044352  0.0699450907168426  0.8095911941838523
  0.8333148533006636  0.3078164951489128  0.9340632969147578
  0.0242779217808646  0.2308740663029170  0.8050557355127594
  0.1953466372862991  0.1488587484112145  0.9382474735824289
  0.0213555362009714  0.2326016135732942  0.5700480368112366
  0.0373280265830260  0.4639417869991576  0.8702892152582251
  0.2241645649419581  0.3890030834877862  0.5019617620365437
  0.6916459740363194  0.1297968626308048  0.6206289887059953
  0.3642401920307279  0.5680276578539249  0.3095616876247789
  0.8345705513942718  0.8101938098456714  0.4337281126438555
  0.0206852607408265  0.7309714523846793  0.3044568654111544
  0.1870127349587989  0.6475712454899849  0.4376477594653991
  0.0219074498146199  0.7336467486400196  0.0673282402001192
  0.0428220057879045  0.9637975102450511  0.3688487775097755
  0.2437706549618071  0.8925250156699889  0.0049296330463449
  0.6892838313531939  0.6290347805909562  0.1185599039852292
  0.3642965124217170  0.5688536196115805  0.8094393487695442
  0.8370955884487117  0.8111796030101317  0.9357915432274808
  0.0194896209427569  0.7313185621161153  0.8042852089545818
  0.1879946008232736  0.6491987341252781  0.9381190947795019
  0.0198071620832323  0.7322634499565055  0.5667602876843389
  0.0447174691307595  0.9640364932544330  0.8720862747154428
  0.2353166682647654  0.8926926516150715  0.5041381362450039
  0.6868870841783448  0.6275134835618985  0.6171849017226450
  0.3636360991047169  0.0712129532393178  0.0636337459689571
  0.5289857502879158  0.4807302852228688  0.4331772490448600
  0.5349319481575847  0.4856920290624558  0.1920854990423635
  0.6839845012571715  0.4048204926202317  0.3119857416611893
  0.6878660543169346  0.4029696627903405  0.0638824250163950
  0.8563512215367552  0.3224999097016124  0.1826645634091051
  0.2061756729689037  0.1506708283561409  0.1828251743207758
  0.0477073129768328  0.4708870833614895  0.1223230784668488
  0.2274376014644730  0.3870667799493788  0.2481279958925811
  0.3995393456150751  0.3084481091943871  0.1277513058565347
  0.5617806344665581  0.2308435321845508  0.2466610456096632
  0.3539694703282805  0.2870061755571811  0.3627558622408102
  0.5527722987115595  0.2279333346668864  0.0051955529028618
  0.7277527342590915  0.1395229925450536  0.3798930607673938
  0.8892428500394729  0.0491179690356347  0.9988026822470175
  0.3588019887584863  0.0716026615209984  0.5637820619405431
  0.5325870100784371  0.4848421215972891  0.9348889666259979
  0.5323168138974381  0.4848088994571071  0.6913787569496463
  0.6890032650956428  0.4074176823834250  0.8112752847098150
  0.6801351750147617  0.4007827840790270  0.5618051017006991
  0.8529888175604086  0.3226606161798387  0.6852396492397190
  0.1974014685032799  0.1496282522027386  0.6868097466556762
  0.0451231806682486  0.4702360214163832  0.6227716221882247
  0.2293583735310989  0.3886703565578173  0.7492281009532249
  0.3935451200087599  0.3062277057916702  0.6294213863962881
  0.5570827461115400  0.2300224218222695  0.7487364203141951
  0.3952640201252180  0.3083314996053801  0.8742031353592310
  0.5468712763220509  0.2280147687430514  0.5072300951659443
  0.8885602673884634  0.0520990186709724  0.7476001247923847
  0.7327978105999478  0.1361493686101340  0.8760553475472577
  0.8860237665154429  0.0515494505064638  0.5051904783508903
  0.3552482575791274  0.5712269805825372  0.0639554553502890
  0.5385859802426936  0.9859790008722840  0.4350355723138222
  0.5525509691747956  0.9920176157845830  0.1972342329231935
  0.7038560033553480  0.9129653907814657  0.3138530612484587
  0.6993165867345255  0.9057595412687860  0.0648532328104636
  0.8544604607509996  0.8220144549271140  0.1831858154532000
  0.1946590289448551  0.6499010345772263  0.1854944391600810
  0.0538382041404830  0.9694047307546398  0.1190135873563065
  0.2332652938170270  0.8887568331183644  0.2481992595463964
  0.4032079085948936  0.8099804335158751  0.1307487794583224
  0.5560723499882627  0.7297732244450401  0.2475178087092402
  0.3958269387818731  0.8083985121535946  0.3736644085611047
  0.5488971377978586  0.7266747299076428  0.0043879880314321
  0.8822567152702518  0.5513861594779215  0.2470773709504499
  0.7235339388178872  0.6351582126781281  0.3747594928029727
  0.8813149139457863  0.5518519625859568  0.0007941397154028
  0.3529226718064464  0.5695812383382730  0.5630869379936740
  0.5409841500036805  0.9853402043649027  0.9343511220529663
  0.5399667692386387  0.9860872437339054  0.6924706759917001
  0.6930771533026814  0.9071257352620492  0.8114246990003551
  0.6894792735243769  0.9029415561258105  0.5642135841320624
  0.8536574727164634  0.8219812012864338  0.6838720539926939
  0.1925696543167135  0.6489191005847559  0.6849246376749605
  0.0499063163569176  0.9701526155834301  0.6225176180456842
  0.2319642192272937  0.8881596484990339  0.7483465119507571
  0.3962207497260124  0.8068539851974990  0.6285190774814780
  0.5547361788930516  0.7283648457873539  0.7473327835358745
  0.3953645873427405  0.8074261486934091  0.8729468810283691
  0.5490170100015916  0.7265990097076056  0.5041494393760999
  0.8815716158150764  0.5517431495127099  0.7463173939311076
  0.7234498527425401  0.6355235561600381  0.8743609073966780
  0.8783741713718243  0.5499731231465788  0.4999474213621866
  0.5810153502270410  0.1856882271129052  0.3720746591108437
  0.5326343121529717  0.1718693138533922  0.1085734206970699
  0.7250134483835993  0.0805352483365027  0.4801872664148874
  0.7126173116293799  0.0906708849352569  0.2479530252614381
  0.8883954413136408  0.0006064014852427  0.3786552275236232
  0.0412142427124991  0.4131613182652103  0.4948274567044066
  0.8782054427309802  0.4958385944520529  0.1097212613211056
  0.0597311990098603  0.4127977496659128  0.2223051634791773
  0.2240044809516561  0.3348651137126240  0.3534867147372296
  0.3898035747128716  0.2552512695834110  0.4935532754254481
  0.2389059533270910  0.3335423834643407  0.1199912031788983
  0.3974118353149976  0.2516358806470365  0.2299538609279850
  0.2456343669862164  0.0650123401336486  0.1625049196951593
  0.2610553851366575  0.0630432625350537  0.4272342088558432
  0.4237022234760843  0.4796616862733103  0.2968384464133251
  0.4535629117672642  0.0011823412708125  0.0552338535903445
  0.5834281348810748  0.4049784996272550  0.1730893307861123
  0.7501115610333926  0.3291204312434388  0.2888778666025900
  0.5775673199475051  0.3989424783887117  0.4227104457446984
  0.7338775430556268  0.3220545223003199  0.0578816572258134
  0.8916653145506501  0.2391045454775309  0.1678108354194165
  0.1497554326104407  0.1762947270609132  0.3009158556545444
  0.9130367532115429  0.2316289058193632  0.4265596249455115
  0.0790998265252654  0.1415881513731350  0.0545492657033364
  0.5838537714714249  0.1813094629088425  0.8673188559072642
  0.5306198631332109  0.1713658700935312  0.6126074522652374
  0.7294237084928312  0.0780225263896241  0.9743915503710170
  0.7289093702912908  0.0801999703169614  0.7446950165400636
  0.8789076479731932  0.0014774520614154  0.8556200238862957
  0.0429978546505083  0.4129709530308290  0.9934801604436032
  0.8746292528837287  0.4946776431330235  0.6100355490096945
  0.0586610994886385  0.4123311162061682  0.7248487390396505
  0.2358045591614228  0.3361115259792555  0.8562713085400020
  0.3969027425841531  0.2585046507125170  0.9864433812682876
  0.2366508175832465  0.3336426117012294  0.6227670634487694
  0.3874950303668925  0.2495145480650862  0.7393772210290237
  0.2402189279368727  0.0653576048566933  0.6636634819751137
  0.2606360629760189  0.0633296473998755  0.9273459995013127
  0.4242175454886095  0.4806427973181897  0.7984743267559793
  0.4492302619988777  0.0010011315305078  0.5592494039925029
  0.5793542561194869  0.4034628457633502  0.6749395917183136
  0.7443027911057101  0.3282325151634282  0.7908223867724686
  0.5845796780295416  0.4033634760399281  0.9242138240233686
  0.7311841176094802  0.3217125579432434  0.5616159620037635
  0.8902051169514351  0.2393527557942861  0.6751846230043625
  0.0817616090836282  0.1418256416775208  0.7868071078632539
  0.9158633142201111  0.2291309862301816  0.9221560158972864
  0.0739888526553329  0.1440202601652487  0.5614319140099084
  0.5757198709198050  0.6788928195636501  0.3658906451513531
  0.5272003036141655  0.6702299885076357  0.1098304394741092
  0.7176311739104619  0.5769722923572616  0.4753881059711986
  0.7235223873844774  0.5797077540425306  0.2439617214498355
  0.8725475592366791  0.5018915102873933  0.3599173308709211
  0.0479870410480956  0.9114779825594610  0.4949822405429742
  0.8888599999580720  0.9862036794887885  0.0846960284563139
  0.0597505803593776  0.9091397787808688  0.2201713011196347
  0.2337758717372793  0.8341828981761168  0.3547366556222684
  0.3918358040931267  0.7561696694586288  0.4866109541886203
  0.2397183094509217  0.8320196543098959  0.1211435097091353
  0.3859384441444362  0.7488917794347785  0.2369937852630812
  0.2369965806326633  0.5656808636145456  0.1629361720703741
  0.2506911075927931  0.5617003487143464  0.4273928577362369
  0.4279795206791519  0.9795588487345199  0.2982873303016547
  0.4441177053383569  0.5001969794075265  0.0573831243607117
  0.5894378512789018  0.9060883189841960  0.1747382951716858
  0.7434881732246481  0.8262859057904279  0.2877638595086580
  0.5851922448911679  0.9025004608958227  0.4247934868529342
  0.7303487374424265  0.8182723395142020  0.0576111443767857
  0.8881736630061994  0.7367891217148781  0.1711302112742814
  0.0764535319034252  0.6407997110498371  0.2846209399491215
  0.9075868580747652  0.7272336367362797  0.4202259756896538
  0.0716482326862007  0.6425707740074103  0.0563075617375759
  0.5747190069772685  0.6783633615767357  0.8651280288635306
  0.5260437339580477  0.6696262325042994  0.6089600291509925
  0.7201735640229430  0.5784631468361923  0.9762838969702941
  0.7216247072603466  0.5790482873446194  0.7436194339934303
  0.8743272748684134  0.5031597058191508  0.8603960027597850
  0.0561135687420773  0.9093339258761191  0.9910049380101000
  0.8807298576287650  0.9949230770388340  0.6138849731733629
  0.0596539645034255  0.9107304281543307  0.7239129317706201
  0.2340700858177129  0.8333833592090372  0.8528140430940212
  0.3925055216029065  0.7568024725078430  0.9870834479422115
  0.2367757975798170  0.8322691328570500  0.6198410419426779
  0.3842927016409803  0.7476921686453011  0.7358438281371136
  0.2353951294641732  0.5650787013620970  0.6630311140011571
  0.2527546444049236  0.5634603757463381  0.9283443711637176
  0.4279972549927749  0.9798804071895759  0.7970915541287837
  0.4414751529185139  0.4987525406243094  0.5571630682535229
  0.5818023054096670  0.9026233113259039  0.6733145144153028
  0.7425137922361742  0.8255379330570847  0.7882993578122495
  0.5834650813347793  0.9009162669687356  0.9214973677582776
  0.7316244824370415  0.8201446608747673  0.5578155938161800
  0.8863026058962973  0.7367086211397691  0.6702019536808024
  0.0755631610441512  0.6411796349950549  0.7844866111714239
  0.9069846605085701  0.7270161365832521  0.9201898916939655
  0.0698969856819929  0.6414575679526351  0.5556053298674684
 
  0.00000000E+00  0.00000000E+00  0.00000000E+00
  0.00000000E+00  0.00000000E+00  0.00000000E+00
  0.00000000E+00  0.00000000E+00  0.00000000E+00
  0.00000000E+00  0.00000000E+00  0.00000000E+00
  0.00000000E+00  0.00000000E+00  0.00000000E+00
  0.00000000E+00  0.00000000E+00  0.00000000E+00
  0.00000000E+00  0.00000000E+00  0.00000000E+00
  0.00000000E+00  0.00000000E+00  0.00000000E+00
  0.00000000E+00  0.00000000E+00  0.00000000E+00
  0.00000000E+00  0.00000000E+00  0.00000000E+00
  0.00000000E+00  0.00000000E+00  0.00000000E+00
  0.00000000E+00  0.00000000E+00  0.00000000E+00
  0.00000000E+00  0.00000000E+00  0.00000000E+00
  0.00000000E+00  0.00000000E+00  0.00000000E+00
  0.00000000E+00  0.00000000E+00  0.00000000E+00
  0.00000000E+00  0.00000000E+00  0.00000000E+00
  0.00000000E+00  0.00000000E+00  0.00000000E+00
  0.00000000E+00  0.00000000E+00  0.00000000E+00
  0.00000000E+00  0.00000000E+00  0.00000000E+00
  0.00000000E+00  0.00000000E+00  0.00000000E+00
  0.00000000E+00  0.00000000E+00  0.00000000E+00
  0.00000000E+00  0.00000000E+00  0.00000000E+00
  0.00000000E+00  0.00000000E+00  0.00000000E+00
  0.00000000E+00  0.00000000E+00  0.00000000E+00
  0.00000000E+00  0.00000000E+00  0.00000000E+00
  0.00000000E+00  0.00000000E+00  0.00000000E+00
  0.00000000E+00  0.00000000E+00  0.00000000E+00
  0.00000000E+00  0.00000000E+00  0.00000000E+00
  0.00000000E+00  0.00000000E+00  0.00000000E+00
  0.00000000E+00  0.00000000E+00  0.00000000E+00
  0.00000000E+00  0.00000000E+00  0.00000000E+00
  0.00000000E+00  0.00000000E+00  0.00000000E+00
  0.00000000E+00  0.00000000E+00  0.00000000E+00
  0.00000000E+00  0.00000000E+00  0.00000000E+00
  0.00000000E+00  0.00000000E+00  0.00000000E+00
  0.00000000E+00  0.00000000E+00  0.00000000E+00
  0.00000000E+00  0.00000000E+00  0.00000000E+00
  0.00000000E+00  0.00000000E+00  0.00000000E+00
  0.00000000E+00  0.00000000E+00  0.00000000E+00
  0.00000000E+00  0.00000000E+00  0.00000000E+00
  0.00000000E+00  0.00000000E+00  0.00000000E+00
  0.00000000E+00  0.00000000E+00  0.00000000E+00
  0.00000000E+00  0.00000000E+00  0.00000000E+00
  0.00000000E+00  0.00000000E+00  0.00000000E+00
  0.00000000E+00  0.00000000E+00  0.00000000E+00
  0.00000000E+00  0.00000000E+00  0.00000000E+00
  0.00000000E+00  0.00000000E+00  0.00000000E+00
  0.00000000E+00  0.00000000E+00  0.00000000E+00
  0.00000000E+00  0.00000000E+00  0.00000000E+00
  0.00000000E+00  0.00000000E+00  0.00000000E+00
  0.00000000E+00  0.00000000E+00  0.00000000E+00
  0.00000000E+00  0.00000000E+00  0.00000000E+00
  0.00000000E+00  0.00000000E+00  0.00000000E+00
  0.00000000E+00  0.00000000E+00  0.00000000E+00
  0.00000000E+00  0.00000000E+00  0.00000000E+00
  0.00000000E+00  0.00000000E+00  0.00000000E+00
  0.00000000E+00  0.00000000E+00  0.00000000E+00
  0.00000000E+00  0.00000000E+00  0.00000000E+00
  0.00000000E+00  0.00000000E+00  0.00000000E+00
  0.00000000E+00  0.00000000E+00  0.00000000E+00
  0.00000000E+00  0.00000000E+00  0.00000000E+00
  0.00000000E+00  0.00000000E+00  0.00000000E+00
  0.00000000E+00  0.00000000E+00  0.00000000E+00
  0.00000000E+00  0.00000000E+00  0.00000000E+00
  0.00000000E+00  0.00000000E+00  0.00000000E+00
  0.00000000E+00  0.00000000E+00  0.00000000E+00
  0.00000000E+00  0.00000000E+00  0.00000000E+00
  0.00000000E+00  0.00000000E+00  0.00000000E+00
  0.00000000E+00  0.00000000E+00  0.00000000E+00
  0.00000000E+00  0.00000000E+00  0.00000000E+00
  0.00000000E+00  0.00000000E+00  0.00000000E+00
  0.00000000E+00  0.00000000E+00  0.00000000E+00
  0.00000000E+00  0.00000000E+00  0.00000000E+00
  0.00000000E+00  0.00000000E+00  0.00000000E+00
  0.00000000E+00  0.00000000E+00  0.00000000E+00
  0.00000000E+00  0.00000000E+00  0.00000000E+00
  0.00000000E+00  0.00000000E+00  0.00000000E+00
  0.00000000E+00  0.00000000E+00  0.00000000E+00
  0.00000000E+00  0.00000000E+00  0.00000000E+00
  0.00000000E+00  0.00000000E+00  0.00000000E+00
  0.00000000E+00  0.00000000E+00  0.00000000E+00
  0.00000000E+00  0.00000000E+00  0.00000000E+00
  0.00000000E+00  0.00000000E+00  0.00000000E+00
  0.00000000E+00  0.00000000E+00  0.00000000E+00
  0.00000000E+00  0.00000000E+00  0.00000000E+00
  0.00000000E+00  0.00000000E+00  0.00000000E+00
  0.00000000E+00  0.00000000E+00  0.00000000E+00
  0.00000000E+00  0.00000000E+00  0.00000000E+00
  0.00000000E+00  0.00000000E+00  0.00000000E+00
  0.00000000E+00  0.00000000E+00  0.00000000E+00
  0.00000000E+00  0.00000000E+00  0.00000000E+00
  0.00000000E+00  0.00000000E+00  0.00000000E+00
  0.00000000E+00  0.00000000E+00  0.00000000E+00
  0.00000000E+00  0.00000000E+00  0.00000000E+00
  0.00000000E+00  0.00000000E+00  0.00000000E+00
  0.00000000E+00  0.00000000E+00  0.00000000E+00
  0.00000000E+00  0.00000000E+00  0.00000000E+00
  0.00000000E+00  0.00000000E+00  0.00000000E+00
  0.00000000E+00  0.00000000E+00  0.00000000E+00
  0.00000000E+00  0.00000000E+00  0.00000000E+00
  0.00000000E+00  0.00000000E+00  0.00000000E+00
  0.00000000E+00  0.00000000E+00  0.00000000E+00
  0.00000000E+00  0.00000000E+00  0.00000000E+00
  0.00000000E+00  0.00000000E+00  0.00000000E+00
  0.00000000E+00  0.00000000E+00  0.00000000E+00
  0.00000000E+00  0.00000000E+00  0.00000000E+00
  0.00000000E+00  0.00000000E+00  0.00000000E+00
  0.00000000E+00  0.00000000E+00  0.00000000E+00
  0.00000000E+00  0.00000000E+00  0.00000000E+00
  0.00000000E+00  0.00000000E+00  0.00000000E+00
  0.00000000E+00  0.00000000E+00  0.00000000E+00
  0.00000000E+00  0.00000000E+00  0.00000000E+00
  0.00000000E+00  0.00000000E+00  0.00000000E+00
  0.00000000E+00  0.00000000E+00  0.00000000E+00
  0.00000000E+00  0.00000000E+00  0.00000000E+00
  0.00000000E+00  0.00000000E+00  0.00000000E+00
  0.00000000E+00  0.00000000E+00  0.00000000E+00
  0.00000000E+00  0.00000000E+00  0.00000000E+00
  0.00000000E+00  0.00000000E+00  0.00000000E+00
  0.00000000E+00  0.00000000E+00  0.00000000E+00
  0.00000000E+00  0.00000000E+00  0.00000000E+00
  0.00000000E+00  0.00000000E+00  0.00000000E+00
  0.00000000E+00  0.00000000E+00  0.00000000E+00
  0.00000000E+00  0.00000000E+00  0.00000000E+00
  0.00000000E+00  0.00000000E+00  0.00000000E+00
  0.00000000E+00  0.00000000E+00  0.00000000E+00
  0.00000000E+00  0.00000000E+00  0.00000000E+00
  0.00000000E+00  0.00000000E+00  0.00000000E+00
  0.00000000E+00  0.00000000E+00  0.00000000E+00
  0.00000000E+00  0.00000000E+00  0.00000000E+00
  0.00000000E+00  0.00000000E+00  0.00000000E+00
  0.00000000E+00  0.00000000E+00  0.00000000E+00
  0.00000000E+00  0.00000000E+00  0.00000000E+00
  0.00000000E+00  0.00000000E+00  0.00000000E+00
  0.00000000E+00  0.00000000E+00  0.00000000E+00
  0.00000000E+00  0.00000000E+00  0.00000000E+00
  0.00000000E+00  0.00000000E+00  0.00000000E+00
  0.00000000E+00  0.00000000E+00  0.00000000E+00
  0.00000000E+00  0.00000000E+00  0.00000000E+00
  0.00000000E+00  0.00000000E+00  0.00000000E+00
  0.00000000E+00  0.00000000E+00  0.00000000E+00
  0.00000000E+00  0.00000000E+00  0.00000000E+00
  0.00000000E+00  0.00000000E+00  0.00000000E+00
  0.00000000E+00  0.00000000E+00  0.00000000E+00
  0.00000000E+00  0.00000000E+00  0.00000000E+00
  0.00000000E+00  0.00000000E+00  0.00000000E+00
  0.00000000E+00  0.00000000E+00  0.00000000E+00
  0.00000000E+00  0.00000000E+00  0.00000000E+00
  0.00000000E+00  0.00000000E+00  0.00000000E+00
  0.00000000E+00  0.00000000E+00  0.00000000E+00
  0.00000000E+00  0.00000000E+00  0.00000000E+00
  0.00000000E+00  0.00000000E+00  0.00000000E+00
  0.00000000E+00  0.00000000E+00  0.00000000E+00
  0.00000000E+00  0.00000000E+00  0.00000000E+00
  0.00000000E+00  0.00000000E+00  0.00000000E+00
  0.00000000E+00  0.00000000E+00  0.00000000E+00
  0.00000000E+00  0.00000000E+00  0.00000000E+00
  0.00000000E+00  0.00000000E+00  0.00000000E+00
  0.00000000E+00  0.00000000E+00  0.00000000E+00
  0.00000000E+00  0.00000000E+00  0.00000000E+00
  0.00000000E+00  0.00000000E+00  0.00000000E+00
  0.00000000E+00  0.00000000E+00  0.00000000E+00
  0.00000000E+00  0.00000000E+00  0.00000000E+00
  0.00000000E+00  0.00000000E+00  0.00000000E+00
  0.00000000E+00  0.00000000E+00  0.00000000E+00
  0.00000000E+00  0.00000000E+00  0.00000000E+00
  0.00000000E+00  0.00000000E+00  0.00000000E+00
  0.00000000E+00  0.00000000E+00  0.00000000E+00
  0.00000000E+00  0.00000000E+00  0.00000000E+00
  0.00000000E+00  0.00000000E+00  0.00000000E+00
  0.00000000E+00  0.00000000E+00  0.00000000E+00
  0.00000000E+00  0.00000000E+00  0.00000000E+00
  0.00000000E+00  0.00000000E+00  0.00000000E+00
  0.00000000E+00  0.00000000E+00  0.00000000E+00
  0.00000000E+00  0.00000000E+00  0.00000000E+00
  0.00000000E+00  0.00000000E+00  0.00000000E+00
  0.00000000E+00  0.00000000E+00  0.00000000E+00
  0.00000000E+00  0.00000000E+00  0.00000000E+00
  0.00000000E+00  0.00000000E+00  0.00000000E+00
  0.00000000E+00  0.00000000E+00  0.00000000E+00
  0.00000000E+00  0.00000000E+00  0.00000000E+00
  0.00000000E+00  0.00000000E+00  0.00000000E+00
  0.00000000E+00  0.00000000E+00  0.00000000E+00
  0.00000000E+00  0.00000000E+00  0.00000000E+00
  0.00000000E+00  0.00000000E+00  0.00000000E+00
  0.00000000E+00  0.00000000E+00  0.00000000E+00
  0.00000000E+00  0.00000000E+00  0.00000000E+00
  0.00000000E+00  0.00000000E+00  0.00000000E+00
  0.00000000E+00  0.00000000E+00  0.00000000E+00
  0.00000000E+00  0.00000000E+00  0.00000000E+00
  0.00000000E+00  0.00000000E+00  0.00000000E+00
