supercell of POSCAR                     
   1.03228000000000     
     6.3970863126299999    5.5387332920799999    4.9397337979799998
   -15.9736979067999982   -5.5365852353599996    9.8547656895600007
     6.4026568282999996  -11.0930079636999999    0.0094448205590600
   Sc   Al   N 
    32    63    96
Direct
  0.3866653243760254  0.0785000281383716  0.3122968569086808
  0.8162362158628937  0.2998796797535590  0.4226193875057547
  0.0343785233034808  0.2332253988638939  0.3040087359041692
  0.1948164235757233  0.1495814943182836  0.4374258028531415
  0.0314603753956888  0.2336161938644707  0.0689209419470984
  0.0250849938098554  0.4555849070587144  0.3680694167195071
  0.2313229350190014  0.3931229832836820  0.0029655421875034
  0.6955157422221632  0.1330633212949976  0.1214557037641910
  0.3758472129344383  0.0724071603876411  0.8150926003435046
  0.8341930400715540  0.3080815004296866  0.9336235906596215
  0.0237935006033680  0.2304240146214767  0.8042261057126368
  0.1955450500969462  0.1481806289624359  0.9402439373507150
  0.0243583992896106  0.2311379371588913  0.5666599099967584
  0.0376240247735069  0.4632359181622974  0.8689695141699829
  0.2287435845912071  0.3915184340652260  0.5058780626310551
  0.6915205635771358  0.1301941622195883  0.6153645148588751
  0.3573822721238571  0.5650144333726246  0.3085753678558945
  0.8311198387879912  0.8092867350072126  0.4332453473371558
  0.0192428466645467  0.7319492305601401  0.3046128906701426
  0.1779690766199025  0.6433244456707001  0.4356834796720079
  0.0191771401411458  0.7322055252312296  0.0674604809616355
  0.0471062099672608  0.9660591823278537  0.3696090840827608
  0.2281074564993304  0.8910951191643619  0.0034943789947803
  0.6879866531880765  0.6286026028991287  0.1182229534690933
  0.3659387363104898  0.5682937948158013  0.8090909421049517
  0.8294862430042045  0.8082135760166693  0.9333819472396101
  0.0184990044845676  0.7303285225520142  0.8032465816511589
  0.1878086783125426  0.6480296766479796  0.9377518459690677
  0.0178197614976696  0.7327786061434409  0.5668166356384603
  0.0343124886717305  0.9611776636189830  0.8675439588402583
  0.2333893651045713  0.8935598786255383  0.5045286807745413
  0.6854270527180759  0.6275680877346588  0.6180290502912271
  0.3587758169866717  0.0701561176689651  0.0606222944239860
  0.5334782698045899  0.4835814011186272  0.4348218274013789
  0.5374046357957170  0.4854675451516925  0.1921177010034611
  0.6996357973317870  0.4098420614257776  0.3127398338484682
  0.6899788736014685  0.4026025730907321  0.0657492018880959
  0.8629681939063190  0.3253384536426296  0.1850961658780790
  0.2006276659608091  0.1508709237795145  0.1857499605648201
  0.0507172389889305  0.4714128225267160  0.1221219463090719
  0.2353241782643209  0.3899364296501560  0.2482777780763215
  0.3988527342924755  0.3067496202394082  0.1328529878829556
  0.3973686502327922  0.3076801477306148  0.3708490597752032
  0.5555885719547575  0.2286123288286106  0.0065764576707110
  0.8842645631154085  0.0513725116583998  0.2474310789514931
  0.7351625097078127  0.1345217561787280  0.3807158274991949
  0.8822090892457979  0.0508170603707825  0.0000275033788526
  0.3600495563969019  0.0725686158213321  0.5655004840017170
  0.5353852108316062  0.4849512930883080  0.9350446647655133
  0.5365569190025568  0.4855611175718622  0.6922799597032139
  0.6916877863079236  0.4074987655466700  0.8115109618604990
  0.6890546782005345  0.4020792771715165  0.5634274483793504
  0.8567597801450901  0.3226620720438405  0.6824136175643005
  0.1993879128457010  0.1489539324090359  0.6871611349756037
  0.0472126023721913  0.4688910670622590  0.6219526365376282
  0.2313078066026790  0.3876808770588056  0.7487837061359315
  0.3983418503453962  0.3070827249131369  0.6290991679531643
  0.5597211436943610  0.2308822284469159  0.7503472204202382
  0.3962976044675983  0.3081418950241712  0.8754827580007358
  0.5556422649983759  0.2263347893912240  0.5099067133297410
  0.8865049496235216  0.0520752131898661  0.7475897780776819
  0.7309701265998001  0.1371568695686278  0.8762585065444810
  0.8890241766267550  0.0496039730045155  0.5022632031000995
  0.3560273875394913  0.5714139994229086  0.0633782258471172
  0.5380366516370216  0.9854542850558374  0.4347312871874749
  0.5363614684055875  0.9857753385440375  0.1921181051446297
  0.6900029015283025  0.9059307049540877  0.3111630092734288
  0.6867843495782964  0.9022939306441344  0.0641173697861745
  0.8513657084051687  0.8218590962524530  0.1835242078977899
  0.1942394359695498  0.6500401105582583  0.1847302462714353
  0.0517463504532714  0.9717657293759032  0.1231101159716133
  0.2314225491006994  0.8902016214372210  0.2490963044934418
  0.3947041939844240  0.8074129529728964  0.1291724723349148
  0.5513797971378196  0.7275001409218049  0.2473164728162942
  0.3907178914591682  0.8065567074200430  0.3736624731481228
  0.5472647333405405  0.7267461019731343  0.0044782400105774
  0.8854915823304097  0.5537461394146632  0.2471940636442582
  0.7211859377338143  0.6347017784991280  0.3741622597145593
  0.8825062693557157  0.5514422581931697  0.0010862285916957
  0.3526810331639325  0.5700114402809859  0.5632462646610108
  0.5351956361814700  0.9856031033716590  0.9367524676353582
  0.5388878612456267  0.9872148715586775  0.6925934973460883
  0.6869885534645306  0.9061846272856826  0.8101878990602316
  0.6867373056114232  0.9017927627206319  0.5639215284929691
  0.8491635505393162  0.8203394354905882  0.6819658744639696
  0.1937298944326287  0.6492471930111989  0.6862326275116146
  0.0511244674886129  0.9698394033059898  0.6239590869063179
  0.2300463171406903  0.8887357126351958  0.7483932078595430
  0.3921539798777616  0.8060430429627274  0.6270490252104750
  0.5525792186479492  0.7285665633928033  0.7465754925896491
  0.3921163759050259  0.8077055420628056  0.8735746592536699
  0.5431820431764365  0.7247679434654515  0.5023594361069357
  0.8841891451919324  0.5520657634451780  0.7471034113713912
  0.7256759475929186  0.6358846171837769  0.8748871921184573
  0.8824285117306658  0.5528224392830836  0.5027038346921557
  0.5990292290662822  0.1742421503173261  0.3976932324240607
  0.5288429443016582  0.1612121734248362  0.0856473005893932
  0.7316896153333730  0.0757831189407554  0.4804853403030123
  0.7243093824089541  0.0782631731658370  0.2460212350690796
  0.8767243003769352  0.0000475585079869  0.3600534906880242
  0.0425794418382992  0.4097991053657353  0.4973749219436527
  0.8801372798915708  0.4964015757697240  0.1106862284192829
  0.0731966668345692  0.4165999690756195  0.2223983507045588
  0.2415506411980743  0.3408093361016995  0.3592528824281729
  0.3979051554336550  0.2580093521211779  0.4886867411522715
  0.2430508127071036  0.3372632719583493  0.1186620005651804
  0.3608220367963497  0.2508620927824836  0.2340579895705517
  0.2414823492844462  0.0649145366277963  0.1621817456728039
  0.2617685379851125  0.0645793852397745  0.4279558759651252
  0.4310412309906084  0.4819254076056367  0.2986677282083079
  0.4424940980833583  0.9952432320502851  0.0563905357608547
  0.5862077361179487  0.4045890708774280  0.1754520883778810
  0.7970604471048759  0.3513230687999709  0.3003172544072470
  0.5894227831132426  0.4034480168275039  0.4241422566308586
  0.7379160117688954  0.3224849555851961  0.0590262173101550
  0.9006059423127155  0.2414915506515598  0.1726474769659703
  0.0775972443244441  0.1383472304755315  0.2846962381462177
  0.9213167818498675  0.2278379106812380  0.4192948807223829
  0.0725278646909118  0.1396614268757759  0.0534986104055193
  0.5871850890796395  0.1837287634196585  0.8648987558626260
  0.5297996018937710  0.1716133575386465  0.6164926360167229
  0.7231408766611978  0.0785654881931279  0.9764888271618233
  0.7281527603015903  0.0811047384180839  0.7435369023225817
  0.8714076119989684  0.0006513483242117  0.8584678159879928
  0.0438875282637525  0.4134994343699958  0.9925082668409360
  0.8793081645206016  0.4960279489619523  0.6112334173989140
  0.0623689309105018  0.4120501903142681  0.7254101716850769
  0.2362052573964490  0.3352751478970717  0.8555142886872602
  0.3973052040551011  0.2585842411429553  0.9879551972649026
  0.2391521078973469  0.3323167324863405  0.6223526603725134
  0.3886292301410492  0.2498297416225554  0.7390110988715080
  0.2414599781537703  0.0641973872200694  0.6658449684489440
  0.2460921136218204  0.0576149702857549  0.9232047670719723
  0.4269212142017977  0.4802850736685258  0.7982972147890806
  0.4487559549780400  0.0010629859040350  0.5576237295178288
  0.5834861229437749  0.4040695277149098  0.6743544786218791
  0.7484589023350594  0.3291623560443639  0.7892010975581343
  0.5870384345332624  0.4033727274939167  0.9247809547279999
  0.7354408065926492  0.3220785135781199  0.5587492424395037
  0.8925378115049512  0.2384444561621848  0.6712419435121362
  0.0812425175109865  0.1407937724465569  0.7862219351009330
  0.9166264773950488  0.2289865689711803  0.9224875363615084
  0.0790811663819895  0.1410069961760669  0.5570235177309897
  0.5717402698039464  0.6775645757159907  0.3648413798462684
  0.5271811753346469  0.6708083716420319  0.1092653735351448
  0.7206809036479314  0.5791078818135134  0.4775192304397038
  0.7248025035433301  0.5805936286037507  0.2436604993250597
  0.8840797354597356  0.5105165148528101  0.3643060066375128
  0.0441269399228119  0.9126768296780412  0.4927274585766241
  0.8774776717544910  0.9941773585626379  0.1095068985490997
  0.0556681521535012  0.9099446164865910  0.2222508794522184
  0.2331293701583164  0.8357761199489744  0.3554140542161477
  0.3858587602691088  0.7543823981959505  0.4856974197318422
  0.2350697502195729  0.8326691618441231  0.1211140386607426
  0.3837683454007177  0.7489243376163088  0.2365007591583250
  0.2383571169342602  0.5671066661216955  0.1616658120317567
  0.2500783783056733  0.5612672994335384  0.4285456787398729
  0.4265009650851113  0.9811375131580249  0.2986231680746627
  0.4476056084568469  0.5014078956191526  0.0574399546227085
  0.5808751763395890  0.9025976892084628  0.1741207737731685
  0.7387081154818347  0.8244746433884700  0.2873809442723854
  0.5826353809150220  0.9007370347787571  0.4236108002108168
  0.7290105770400999  0.8198175067735036  0.0576294923625937
  0.8864117505055304  0.7374863362824584  0.1707525137484041
  0.0777945479160422  0.6435943881329749  0.2831851138369217
  0.9055365857027908  0.7275198976074364  0.4199919085366943
  0.0721857840514986  0.6427005536083001  0.0554679451627393
  0.5767639709930776  0.6796282903340938  0.8659460069004439
  0.5252974282149765  0.6701487164903668  0.6095389656140142
  0.7228314649549432  0.5792805670247105  0.9768012329129192
  0.7252268245119637  0.5800505303815626  0.7447787413795552
  0.8761656698818356  0.5035858736323817  0.8608319397531261
  0.0396466319263951  0.9109403532951390  0.9929731458675022
  0.8804973585034617  0.9934414186581790  0.6114656768053024
  0.0544168147113524  0.9081583592793478  0.7211817965089296
  0.2314705403285444  0.8342754674150470  0.8538514689286956
  0.3908003554248083  0.7568885112407813  0.9869998816969812
  0.2350589372097005  0.8331470038685040  0.6197963202381018
  0.3839540256121055  0.7489203178456023  0.7370582842613160
  0.2366815417361536  0.5654540435310338  0.6640616058554656
  0.2543445718569401  0.5631227350314205  0.9274162153464687
  0.4263462224129029  0.9802944319600044  0.7978031472808595
  0.4466833362392393  0.5009043385731502  0.5593714977507034
  0.5788188309856110  0.9026530755627959  0.6723517324489947
  0.7400924526616492  0.8259251103413376  0.7873706793177035
  0.5827093268277466  0.9015927469096567  0.9234085064380295
  0.7267763622717425  0.8186006402209713  0.5563350849674080
  0.8846115756801112  0.7364331678991149  0.6708035294558030
  0.0772622513142167  0.6415828915803132  0.7857640971643605
  0.9091703031571967  0.7282809243191011  0.9206724152853454
  0.0723219826544721  0.6442878897810900  0.5595552731699627
 
  0.00000000E+00  0.00000000E+00  0.00000000E+00
  0.00000000E+00  0.00000000E+00  0.00000000E+00
  0.00000000E+00  0.00000000E+00  0.00000000E+00
  0.00000000E+00  0.00000000E+00  0.00000000E+00
  0.00000000E+00  0.00000000E+00  0.00000000E+00
  0.00000000E+00  0.00000000E+00  0.00000000E+00
  0.00000000E+00  0.00000000E+00  0.00000000E+00
  0.00000000E+00  0.00000000E+00  0.00000000E+00
  0.00000000E+00  0.00000000E+00  0.00000000E+00
  0.00000000E+00  0.00000000E+00  0.00000000E+00
  0.00000000E+00  0.00000000E+00  0.00000000E+00
  0.00000000E+00  0.00000000E+00  0.00000000E+00
  0.00000000E+00  0.00000000E+00  0.00000000E+00
  0.00000000E+00  0.00000000E+00  0.00000000E+00
  0.00000000E+00  0.00000000E+00  0.00000000E+00
  0.00000000E+00  0.00000000E+00  0.00000000E+00
  0.00000000E+00  0.00000000E+00  0.00000000E+00
  0.00000000E+00  0.00000000E+00  0.00000000E+00
  0.00000000E+00  0.00000000E+00  0.00000000E+00
  0.00000000E+00  0.00000000E+00  0.00000000E+00
  0.00000000E+00  0.00000000E+00  0.00000000E+00
  0.00000000E+00  0.00000000E+00  0.00000000E+00
  0.00000000E+00  0.00000000E+00  0.00000000E+00
  0.00000000E+00  0.00000000E+00  0.00000000E+00
  0.00000000E+00  0.00000000E+00  0.00000000E+00
  0.00000000E+00  0.00000000E+00  0.00000000E+00
  0.00000000E+00  0.00000000E+00  0.00000000E+00
  0.00000000E+00  0.00000000E+00  0.00000000E+00
  0.00000000E+00  0.00000000E+00  0.00000000E+00
  0.00000000E+00  0.00000000E+00  0.00000000E+00
  0.00000000E+00  0.00000000E+00  0.00000000E+00
  0.00000000E+00  0.00000000E+00  0.00000000E+00
  0.00000000E+00  0.00000000E+00  0.00000000E+00
  0.00000000E+00  0.00000000E+00  0.00000000E+00
  0.00000000E+00  0.00000000E+00  0.00000000E+00
  0.00000000E+00  0.00000000E+00  0.00000000E+00
  0.00000000E+00  0.00000000E+00  0.00000000E+00
  0.00000000E+00  0.00000000E+00  0.00000000E+00
  0.00000000E+00  0.00000000E+00  0.00000000E+00
  0.00000000E+00  0.00000000E+00  0.00000000E+00
  0.00000000E+00  0.00000000E+00  0.00000000E+00
  0.00000000E+00  0.00000000E+00  0.00000000E+00
  0.00000000E+00  0.00000000E+00  0.00000000E+00
  0.00000000E+00  0.00000000E+00  0.00000000E+00
  0.00000000E+00  0.00000000E+00  0.00000000E+00
  0.00000000E+00  0.00000000E+00  0.00000000E+00
  0.00000000E+00  0.00000000E+00  0.00000000E+00
  0.00000000E+00  0.00000000E+00  0.00000000E+00
  0.00000000E+00  0.00000000E+00  0.00000000E+00
  0.00000000E+00  0.00000000E+00  0.00000000E+00
  0.00000000E+00  0.00000000E+00  0.00000000E+00
  0.00000000E+00  0.00000000E+00  0.00000000E+00
  0.00000000E+00  0.00000000E+00  0.00000000E+00
  0.00000000E+00  0.00000000E+00  0.00000000E+00
  0.00000000E+00  0.00000000E+00  0.00000000E+00
  0.00000000E+00  0.00000000E+00  0.00000000E+00
  0.00000000E+00  0.00000000E+00  0.00000000E+00
  0.00000000E+00  0.00000000E+00  0.00000000E+00
  0.00000000E+00  0.00000000E+00  0.00000000E+00
  0.00000000E+00  0.00000000E+00  0.00000000E+00
  0.00000000E+00  0.00000000E+00  0.00000000E+00
  0.00000000E+00  0.00000000E+00  0.00000000E+00
  0.00000000E+00  0.00000000E+00  0.00000000E+00
  0.00000000E+00  0.00000000E+00  0.00000000E+00
  0.00000000E+00  0.00000000E+00  0.00000000E+00
  0.00000000E+00  0.00000000E+00  0.00000000E+00
  0.00000000E+00  0.00000000E+00  0.00000000E+00
  0.00000000E+00  0.00000000E+00  0.00000000E+00
  0.00000000E+00  0.00000000E+00  0.00000000E+00
  0.00000000E+00  0.00000000E+00  0.00000000E+00
  0.00000000E+00  0.00000000E+00  0.00000000E+00
  0.00000000E+00  0.00000000E+00  0.00000000E+00
  0.00000000E+00  0.00000000E+00  0.00000000E+00
  0.00000000E+00  0.00000000E+00  0.00000000E+00
  0.00000000E+00  0.00000000E+00  0.00000000E+00
  0.00000000E+00  0.00000000E+00  0.00000000E+00
  0.00000000E+00  0.00000000E+00  0.00000000E+00
  0.00000000E+00  0.00000000E+00  0.00000000E+00
  0.00000000E+00  0.00000000E+00  0.00000000E+00
  0.00000000E+00  0.00000000E+00  0.00000000E+00
  0.00000000E+00  0.00000000E+00  0.00000000E+00
  0.00000000E+00  0.00000000E+00  0.00000000E+00
  0.00000000E+00  0.00000000E+00  0.00000000E+00
  0.00000000E+00  0.00000000E+00  0.00000000E+00
  0.00000000E+00  0.00000000E+00  0.00000000E+00
  0.00000000E+00  0.00000000E+00  0.00000000E+00
  0.00000000E+00  0.00000000E+00  0.00000000E+00
  0.00000000E+00  0.00000000E+00  0.00000000E+00
  0.00000000E+00  0.00000000E+00  0.00000000E+00
  0.00000000E+00  0.00000000E+00  0.00000000E+00
  0.00000000E+00  0.00000000E+00  0.00000000E+00
  0.00000000E+00  0.00000000E+00  0.00000000E+00
  0.00000000E+00  0.00000000E+00  0.00000000E+00
  0.00000000E+00  0.00000000E+00  0.00000000E+00
  0.00000000E+00  0.00000000E+00  0.00000000E+00
  0.00000000E+00  0.00000000E+00  0.00000000E+00
  0.00000000E+00  0.00000000E+00  0.00000000E+00
  0.00000000E+00  0.00000000E+00  0.00000000E+00
  0.00000000E+00  0.00000000E+00  0.00000000E+00
  0.00000000E+00  0.00000000E+00  0.00000000E+00
  0.00000000E+00  0.00000000E+00  0.00000000E+00
  0.00000000E+00  0.00000000E+00  0.00000000E+00
  0.00000000E+00  0.00000000E+00  0.00000000E+00
  0.00000000E+00  0.00000000E+00  0.00000000E+00
  0.00000000E+00  0.00000000E+00  0.00000000E+00
  0.00000000E+00  0.00000000E+00  0.00000000E+00
  0.00000000E+00  0.00000000E+00  0.00000000E+00
  0.00000000E+00  0.00000000E+00  0.00000000E+00
  0.00000000E+00  0.00000000E+00  0.00000000E+00
  0.00000000E+00  0.00000000E+00  0.00000000E+00
  0.00000000E+00  0.00000000E+00  0.00000000E+00
  0.00000000E+00  0.00000000E+00  0.00000000E+00
  0.00000000E+00  0.00000000E+00  0.00000000E+00
  0.00000000E+00  0.00000000E+00  0.00000000E+00
  0.00000000E+00  0.00000000E+00  0.00000000E+00
  0.00000000E+00  0.00000000E+00  0.00000000E+00
  0.00000000E+00  0.00000000E+00  0.00000000E+00
  0.00000000E+00  0.00000000E+00  0.00000000E+00
  0.00000000E+00  0.00000000E+00  0.00000000E+00
  0.00000000E+00  0.00000000E+00  0.00000000E+00
  0.00000000E+00  0.00000000E+00  0.00000000E+00
  0.00000000E+00  0.00000000E+00  0.00000000E+00
  0.00000000E+00  0.00000000E+00  0.00000000E+00
  0.00000000E+00  0.00000000E+00  0.00000000E+00
  0.00000000E+00  0.00000000E+00  0.00000000E+00
  0.00000000E+00  0.00000000E+00  0.00000000E+00
  0.00000000E+00  0.00000000E+00  0.00000000E+00
  0.00000000E+00  0.00000000E+00  0.00000000E+00
  0.00000000E+00  0.00000000E+00  0.00000000E+00
  0.00000000E+00  0.00000000E+00  0.00000000E+00
  0.00000000E+00  0.00000000E+00  0.00000000E+00
  0.00000000E+00  0.00000000E+00  0.00000000E+00
  0.00000000E+00  0.00000000E+00  0.00000000E+00
  0.00000000E+00  0.00000000E+00  0.00000000E+00
  0.00000000E+00  0.00000000E+00  0.00000000E+00
  0.00000000E+00  0.00000000E+00  0.00000000E+00
  0.00000000E+00  0.00000000E+00  0.00000000E+00
  0.00000000E+00  0.00000000E+00  0.00000000E+00
  0.00000000E+00  0.00000000E+00  0.00000000E+00
  0.00000000E+00  0.00000000E+00  0.00000000E+00
  0.00000000E+00  0.00000000E+00  0.00000000E+00
  0.00000000E+00  0.00000000E+00  0.00000000E+00
  0.00000000E+00  0.00000000E+00  0.00000000E+00
  0.00000000E+00  0.00000000E+00  0.00000000E+00
  0.00000000E+00  0.00000000E+00  0.00000000E+00
  0.00000000E+00  0.00000000E+00  0.00000000E+00
  0.00000000E+00  0.00000000E+00  0.00000000E+00
  0.00000000E+00  0.00000000E+00  0.00000000E+00
  0.00000000E+00  0.00000000E+00  0.00000000E+00
  0.00000000E+00  0.00000000E+00  0.00000000E+00
  0.00000000E+00  0.00000000E+00  0.00000000E+00
  0.00000000E+00  0.00000000E+00  0.00000000E+00
  0.00000000E+00  0.00000000E+00  0.00000000E+00
  0.00000000E+00  0.00000000E+00  0.00000000E+00
  0.00000000E+00  0.00000000E+00  0.00000000E+00
  0.00000000E+00  0.00000000E+00  0.00000000E+00
  0.00000000E+00  0.00000000E+00  0.00000000E+00
  0.00000000E+00  0.00000000E+00  0.00000000E+00
  0.00000000E+00  0.00000000E+00  0.00000000E+00
  0.00000000E+00  0.00000000E+00  0.00000000E+00
  0.00000000E+00  0.00000000E+00  0.00000000E+00
  0.00000000E+00  0.00000000E+00  0.00000000E+00
  0.00000000E+00  0.00000000E+00  0.00000000E+00
  0.00000000E+00  0.00000000E+00  0.00000000E+00
  0.00000000E+00  0.00000000E+00  0.00000000E+00
  0.00000000E+00  0.00000000E+00  0.00000000E+00
  0.00000000E+00  0.00000000E+00  0.00000000E+00
  0.00000000E+00  0.00000000E+00  0.00000000E+00
  0.00000000E+00  0.00000000E+00  0.00000000E+00
  0.00000000E+00  0.00000000E+00  0.00000000E+00
  0.00000000E+00  0.00000000E+00  0.00000000E+00
  0.00000000E+00  0.00000000E+00  0.00000000E+00
  0.00000000E+00  0.00000000E+00  0.00000000E+00
  0.00000000E+00  0.00000000E+00  0.00000000E+00
  0.00000000E+00  0.00000000E+00  0.00000000E+00
  0.00000000E+00  0.00000000E+00  0.00000000E+00
  0.00000000E+00  0.00000000E+00  0.00000000E+00
  0.00000000E+00  0.00000000E+00  0.00000000E+00
  0.00000000E+00  0.00000000E+00  0.00000000E+00
  0.00000000E+00  0.00000000E+00  0.00000000E+00
  0.00000000E+00  0.00000000E+00  0.00000000E+00
  0.00000000E+00  0.00000000E+00  0.00000000E+00
  0.00000000E+00  0.00000000E+00  0.00000000E+00
  0.00000000E+00  0.00000000E+00  0.00000000E+00
  0.00000000E+00  0.00000000E+00  0.00000000E+00
  0.00000000E+00  0.00000000E+00  0.00000000E+00
  0.00000000E+00  0.00000000E+00  0.00000000E+00
  0.00000000E+00  0.00000000E+00  0.00000000E+00
  0.00000000E+00  0.00000000E+00  0.00000000E+00
  0.00000000E+00  0.00000000E+00  0.00000000E+00
  0.00000000E+00  0.00000000E+00  0.00000000E+00
