supercell of POSCAR                     
   1.03228000000000     
     6.3970863126299999    5.5387332920799999    4.9397337979799998
   -15.9736979067999982   -5.5365852353599996    9.8547656895600007
     6.4026568282999996  -11.0930079636999999    0.0094448205590600
   Sc   Al   N 
    32    63    96
Direct
  0.3670672957075922  0.0702839091936198  0.3100144240740264
  0.8311000026995217  0.3109071403943773  0.4345873475886890
  0.0269722834263462  0.2355196953213223  0.3066548227908044
  0.1875550779933590  0.1492997882711009  0.4377608511730315
  0.0199817301814136  0.2302030886286701  0.0654400896739276
  0.0425377395328539  0.4623712138975549  0.3699580716271385
  0.2422183345220361  0.3950200643898327  0.0098092223675437
  0.6905357310726075  0.1290214656961624  0.1186831104497159
  0.3634019346523587  0.0675448609314770  0.8082907089285598
  0.8380990186482791  0.3095338595338433  0.9343848014041285
  0.0258727772032614  0.2324532819887821  0.8059281500426252
  0.1904181417368633  0.1487283299264774  0.9379232692556343
  0.0257625826723427  0.2370274035081152  0.5666982443657034
  0.0493422689859386  0.4653867416197244  0.8716567845269054
  0.2539536423074722  0.4020345176114972  0.5061831411237065
  0.6918355068075712  0.1298770585827071  0.6187779484657270
  0.3734663083461101  0.5692832872782887  0.3115928029564614
  0.8299826577486442  0.8099918105996409  0.4329491598233162
  0.0222751242743442  0.7302244510600673  0.3014034804187915
  0.1924374800589987  0.6471364210270494  0.4373921874585847
  0.0208762135166864  0.7304627146008968  0.0663642444527994
  0.0378212562500693  0.9643226001203686  0.3689250764067538
  0.2260124182938625  0.8907125135937548  0.0030608768915954
  0.6922148506874208  0.6289527689723471  0.1182548715898619
  0.3750582181037174  0.5687335045548991  0.8067753976379635
  0.8298243087829675  0.8079800010139451  0.9323656031014949
  0.0169841296564073  0.7299779925213059  0.8024428403983990
  0.1925731603446224  0.6483715543424253  0.9365933926057579
  0.9962062468586765  0.7195007867096379  0.5616238982548154
  0.0353875984557419  0.9631031932511434  0.8687828002483755
  0.2169726190908676  0.8851066152648102  0.5023677496110253
  0.6765825281720268  0.6206747327780207  0.6130426873911361
  0.3551801902781619  0.0707435827640239  0.0635608257795752
  0.5435520000111609  0.4880588984669458  0.1928269586284017
  0.6933063704424853  0.4060550130890377  0.3128693461689167
  0.6918037994656245  0.4021480520916896  0.0648751630682156
  0.8563813376173854  0.3212621752188127  0.1820125711279061
  0.1942003818749711  0.1495318747102772  0.1847538590181443
  0.0551359323998355  0.4706871507916048  0.1243273485860641
  0.2370787892347082  0.3896737481323527  0.2466626705681918
  0.3981994307853540  0.3071298765388306  0.1290756269221589
  0.5569658548552709  0.2303034262855306  0.2472550011283090
  0.4033812856914238  0.3104365650020569  0.3748015306379529
  0.5509020921552832  0.2263525354937457  0.0036917539533832
  0.8831789187872872  0.0533576469917847  0.2467983381665633
  0.7249788161114594  0.1364758099681112  0.3747720475210272
  0.8794492989815339  0.0502017230566949  0.9993370436901188
  0.3534930378397618  0.0694017961955140  0.5628200809566835
  0.5432479322055102  0.4863684239175896  0.9379874465133895
  0.5409953899684581  0.4874943176963527  0.6991165736685829
  0.6948649893531496  0.4068154622860192  0.8115828064339539
  0.6907058285049885  0.4014832932580177  0.5626208396119807
  0.8576040612209823  0.3218502100513163  0.6866685473034977
  0.1936995503039327  0.1498463012138274  0.6849569580783879
  0.0517448726940231  0.4706170572387478  0.6236105232606093
  0.2372775743407445  0.3896394645306387  0.7507414491545603
  0.3988311063980134  0.3085552464232180  0.6293349617850765
  0.5548161301990149  0.2282655468147681  0.7477614178804473
  0.3979880879235580  0.3086267894850181  0.8749334539950908
  0.5501558090479293  0.2277716216617875  0.5064396980682275
  0.8817741002474477  0.0521678449120841  0.7465920488279565
  0.7231798655229511  0.1347101413887870  0.8733678065282078
  0.8801402143462624  0.0524829459102349  0.5006440994102377
  0.3619676558607594  0.5719060655161812  0.0645287310896308
  0.5283690483028849  0.9836102530010180  0.4343704591155273
  0.5331436315057942  0.9854803518417086  0.1914997207175588
  0.6892784799890279  0.9080057445434875  0.3107898307430332
  0.6853431980179323  0.9022649219159788  0.0637033989453855
  0.8531472219204161  0.8222516746447823  0.1827366217178650
  0.1981885305064779  0.6489061075237359  0.1852773428981820
  0.0467905280842800  0.9705113966483481  0.1221973096690974
  0.2283127153271849  0.8881328545610501  0.2476418549633905
  0.3949507330624513  0.8070453821353567  0.1285746172536193
  0.5570443755753729  0.7300318836704704  0.2476636421323093
  0.3930712059795596  0.8075753999559652  0.3729993284516269
  0.5502403520248862  0.7269794352449495  0.0042829444134043
  0.8891668662092940  0.5519101437814342  0.2480219608004504
  0.7344539358825273  0.6394198810723566  0.3764222063236460
  0.8887817783572416  0.5509923819357425  0.0012923257543207
  0.3547301805078646  0.5737514947150686  0.5704249212997112
  0.5300916151863717  0.9839321748717538  0.9337072697954270
  0.5302647299125738  0.9842258936722175  0.6896828383935230
  0.6856224179623709  0.9066114026959013  0.8097387176099460
  0.6839130713314745  0.9024384418209905  0.5637333055494196
  0.8510031143632233  0.8216226034806198  0.6835358980747159
  0.1960336723426366  0.6502472539773692  0.6872230463902156
  0.0453048222423291  0.9708181735353776  0.6221922295103539
  0.2239352876717078  0.8852990234841585  0.7459062980525673
  0.3881690722046400  0.8050431493215200  0.6274135794946218
  0.5560815758390021  0.7302868351323184  0.7464991720923493
  0.3920081730166416  0.8077219472127410  0.8737060972345176
  0.5508834698912324  0.7285096322059204  0.5051835573379080
  0.8884460767115741  0.5517116054349387  0.7470867518322351
  0.7324870482150558  0.6367832794620654  0.8755154407980683
  0.8843058114948690  0.5511668903520217  0.5005633712675177
  0.5769404090192722  0.1802405744553042  0.3664317021985468
  0.5281623957889110  0.1699152033519624  0.1090797266790275
  0.7168695344043314  0.0777021319965314  0.4754212279456098
  0.7210035912257240  0.0789113168778428  0.2438322847320222
  0.8746941134071946  0.0038515937973713  0.3602207400423652
  0.0490121036780025  0.4119908074021694  0.4953072213495773
  0.8832492739123623  0.4949315095370608  0.1103156800685454
  0.0578230803813042  0.4094576927563764  0.2219225627314145
  0.2406949334778048  0.3369258317107651  0.3550199195600214
  0.3909715049516791  0.2557728769340812  0.4892394921992249
  0.2340182898779801  0.3282150076001216  0.1169765584583544
  0.3838141691382120  0.2471074748918269  0.2341278197500856
  0.2365324025392539  0.0649427942849812  0.1629432422047685
  0.2529983996090479  0.0636660595883782  0.4274845369594757
  0.4102629785537033  0.4808210422434058  0.2713605648004460
  0.4421021714587283  0.9990279534517867  0.0566009711677751
  0.5850962248746754  0.4035286822784840  0.1729729672253129
  0.7474003510666805  0.3251734822420858  0.2838356343574588
  0.6013538933944957  0.3883236971445143  0.4218957404238068
  0.7336047399854664  0.3194003139543682  0.0558876612922461
  0.8898333312793270  0.2362492509112997  0.1699645541610195
  0.0761700057247126  0.1424802421210316  0.2839349118883803
  0.9070996932274085  0.2282539207306939  0.4197836164923245
  0.0707876131936302  0.1396908181360104  0.0539599978623713
  0.5751626538198806  0.1777288317730950  0.8651975666204166
  0.5272995309340729  0.1691357602566654  0.6102461974333124
  0.7188973409888106  0.0775987132948615  0.9754040707175520
  0.7196937123339566  0.0779849122812450  0.7423820700140098
  0.8714221716899502  0.0019007464406329  0.8586497051426889
  0.0506880570024180  0.4127933415861094  0.9943205788967688
  0.8821097276762586  0.4948600858108705  0.6113409349749190
  0.0630150103438396  0.4110428543921500  0.7254326449504234
  0.2381322753100577  0.3358921348455937  0.8580511654910765
  0.3952603740590135  0.2566095573931904  0.9865655005158871
  0.2427425201931541  0.3362267632285096  0.6206520621637139
  0.3858057608097667  0.2489585550422859  0.7374925871479689
  0.2354504618228290  0.0655426999281303  0.6624522900435252
  0.2523764345824446  0.0621451413061749  0.9274815762491073
  0.4323022885628873  0.4798002028749764  0.8054125597212050
  0.4368107873261522  0.9964209210932609  0.5553894686931926
  0.5856727352836160  0.4040066857656797  0.6755323221091558
  0.7438061367808615  0.3252470021078864  0.7900005227164826
  0.5901243422457441  0.4026238468235590  0.9251060765129822
  0.7354506433074519  0.3188871645667177  0.5636476781320496
  0.8925618987288360  0.2373871910819148  0.6725103760771134
  0.0767088354011847  0.1407650270341136  0.7849753568693245
  0.9076294655226320  0.2258724665350016  0.9186424746813984
  0.0706776572974945  0.1438396871450820  0.5564863626606638
  0.5852165763840702  0.6837126977142773  0.3671837286197572
  0.5323561213331445  0.6722614200350492  0.1106797005095999
  0.7704189846995959  0.6028707223848713  0.4909210811811349
  0.7337339754761558  0.5825649579221732  0.2455241690395908
  0.8798121757961681  0.5022527389935618  0.3599325337773251
  0.0412466104602061  0.9145750108159234  0.4931897134066645
  0.8762469403745570  0.9951584791390360  0.1100943932900833
  0.0577704574304150  0.9116872517804637  0.2227918953424748
  0.2343763604660580  0.8353170770546399  0.3535548303976981
  0.3932560219191004  0.7579507677432105  0.4861779746150390
  0.2356706330617442  0.8326753988806175  0.1200557411551699
  0.3870250542167071  0.7496280312919552  0.2366212625765343
  0.2421632449415583  0.5664176832142900  0.1626976728724685
  0.2562946371334931  0.5612507805741274  0.4303416949291474
  0.4226109265393347  0.9801317265149549  0.2968558121316178
  0.4578589886405879  0.5036577619449787  0.0554609009791349
  0.5797101758267829  0.9036576457724550  0.1733416810899868
  0.7437793054442068  0.8287652434234829  0.2872257507401770
  0.5830390118948827  0.9026402922124390  0.4229501856110360
  0.7313787456173984  0.8212832654442295  0.0575185729099559
  0.8900191295551565  0.7387853521015799  0.1695083633935894
  0.0815398535543110  0.6414161876391802  0.2843043263764642
  0.9198557365389277  0.7361946993940194  0.4182486212360175
  0.0782877897331460  0.6422632154845971  0.0556119104609039
  0.5831277909430028  0.6814602824064764  0.8667790481034459
  0.5271130176563616  0.6735126184780853  0.6093678902051067
  0.7326026473570195  0.5807759324811173  0.9784727045903452
  0.7336172694592520  0.5806587737176017  0.7477048142100315
  0.8820287833169544  0.5018901630551653  0.8611162831829731
  0.0406600301980689  0.9126934125428647  0.9930036499946269
  0.8752259264506534  0.9958428449036134  0.6096743545103607
  0.0569715547703211  0.9120695369749683  0.7229739098192809
  0.2323013057289671  0.8350917558076105  0.8557331816058422
  0.3943180194116991  0.7577860247056947  0.9876069292229630
  0.2254605540786230  0.8276109176226996  0.6194471900766061
  0.3866213681878747  0.7500697468202446  0.7388827857272631
  0.2355663627990694  0.5672095884493586  0.6688205329002557
  0.2635524684614907  0.5649149286297259  0.9274237451858625
  0.4208680900362083  0.9783284896442979  0.7961154786732862
  0.4424454546156866  0.5106914963337132  0.5891436450112408
  0.5757252873198766  0.9022232058917936  0.6722627355217270
  0.7425213388907679  0.8285806419598885  0.7890582567246227
  0.5823683945708069  0.9025532450806182  0.9239273609805920
  0.7320484107610739  0.8225780249188759  0.5588414299223956
  0.8824581055297784  0.7378632053684271  0.6749420318771584
  0.0793849168029936  0.6426575920083337  0.7861437154541591
  0.9138044617749941  0.7303151024997732  0.9226946390803974
  0.0829868991177705  0.6415652193504400  0.5561170596912106
 
  0.00000000E+00  0.00000000E+00  0.00000000E+00
  0.00000000E+00  0.00000000E+00  0.00000000E+00
  0.00000000E+00  0.00000000E+00  0.00000000E+00
  0.00000000E+00  0.00000000E+00  0.00000000E+00
  0.00000000E+00  0.00000000E+00  0.00000000E+00
  0.00000000E+00  0.00000000E+00  0.00000000E+00
  0.00000000E+00  0.00000000E+00  0.00000000E+00
  0.00000000E+00  0.00000000E+00  0.00000000E+00
  0.00000000E+00  0.00000000E+00  0.00000000E+00
  0.00000000E+00  0.00000000E+00  0.00000000E+00
  0.00000000E+00  0.00000000E+00  0.00000000E+00
  0.00000000E+00  0.00000000E+00  0.00000000E+00
  0.00000000E+00  0.00000000E+00  0.00000000E+00
  0.00000000E+00  0.00000000E+00  0.00000000E+00
  0.00000000E+00  0.00000000E+00  0.00000000E+00
  0.00000000E+00  0.00000000E+00  0.00000000E+00
  0.00000000E+00  0.00000000E+00  0.00000000E+00
  0.00000000E+00  0.00000000E+00  0.00000000E+00
  0.00000000E+00  0.00000000E+00  0.00000000E+00
  0.00000000E+00  0.00000000E+00  0.00000000E+00
  0.00000000E+00  0.00000000E+00  0.00000000E+00
  0.00000000E+00  0.00000000E+00  0.00000000E+00
  0.00000000E+00  0.00000000E+00  0.00000000E+00
  0.00000000E+00  0.00000000E+00  0.00000000E+00
  0.00000000E+00  0.00000000E+00  0.00000000E+00
  0.00000000E+00  0.00000000E+00  0.00000000E+00
  0.00000000E+00  0.00000000E+00  0.00000000E+00
  0.00000000E+00  0.00000000E+00  0.00000000E+00
  0.00000000E+00  0.00000000E+00  0.00000000E+00
  0.00000000E+00  0.00000000E+00  0.00000000E+00
  0.00000000E+00  0.00000000E+00  0.00000000E+00
  0.00000000E+00  0.00000000E+00  0.00000000E+00
  0.00000000E+00  0.00000000E+00  0.00000000E+00
  0.00000000E+00  0.00000000E+00  0.00000000E+00
  0.00000000E+00  0.00000000E+00  0.00000000E+00
  0.00000000E+00  0.00000000E+00  0.00000000E+00
  0.00000000E+00  0.00000000E+00  0.00000000E+00
  0.00000000E+00  0.00000000E+00  0.00000000E+00
  0.00000000E+00  0.00000000E+00  0.00000000E+00
  0.00000000E+00  0.00000000E+00  0.00000000E+00
  0.00000000E+00  0.00000000E+00  0.00000000E+00
  0.00000000E+00  0.00000000E+00  0.00000000E+00
  0.00000000E+00  0.00000000E+00  0.00000000E+00
  0.00000000E+00  0.00000000E+00  0.00000000E+00
  0.00000000E+00  0.00000000E+00  0.00000000E+00
  0.00000000E+00  0.00000000E+00  0.00000000E+00
  0.00000000E+00  0.00000000E+00  0.00000000E+00
  0.00000000E+00  0.00000000E+00  0.00000000E+00
  0.00000000E+00  0.00000000E+00  0.00000000E+00
  0.00000000E+00  0.00000000E+00  0.00000000E+00
  0.00000000E+00  0.00000000E+00  0.00000000E+00
  0.00000000E+00  0.00000000E+00  0.00000000E+00
  0.00000000E+00  0.00000000E+00  0.00000000E+00
  0.00000000E+00  0.00000000E+00  0.00000000E+00
  0.00000000E+00  0.00000000E+00  0.00000000E+00
  0.00000000E+00  0.00000000E+00  0.00000000E+00
  0.00000000E+00  0.00000000E+00  0.00000000E+00
  0.00000000E+00  0.00000000E+00  0.00000000E+00
  0.00000000E+00  0.00000000E+00  0.00000000E+00
  0.00000000E+00  0.00000000E+00  0.00000000E+00
  0.00000000E+00  0.00000000E+00  0.00000000E+00
  0.00000000E+00  0.00000000E+00  0.00000000E+00
  0.00000000E+00  0.00000000E+00  0.00000000E+00
  0.00000000E+00  0.00000000E+00  0.00000000E+00
  0.00000000E+00  0.00000000E+00  0.00000000E+00
  0.00000000E+00  0.00000000E+00  0.00000000E+00
  0.00000000E+00  0.00000000E+00  0.00000000E+00
  0.00000000E+00  0.00000000E+00  0.00000000E+00
  0.00000000E+00  0.00000000E+00  0.00000000E+00
  0.00000000E+00  0.00000000E+00  0.00000000E+00
  0.00000000E+00  0.00000000E+00  0.00000000E+00
  0.00000000E+00  0.00000000E+00  0.00000000E+00
  0.00000000E+00  0.00000000E+00  0.00000000E+00
  0.00000000E+00  0.00000000E+00  0.00000000E+00
  0.00000000E+00  0.00000000E+00  0.00000000E+00
  0.00000000E+00  0.00000000E+00  0.00000000E+00
  0.00000000E+00  0.00000000E+00  0.00000000E+00
  0.00000000E+00  0.00000000E+00  0.00000000E+00
  0.00000000E+00  0.00000000E+00  0.00000000E+00
  0.00000000E+00  0.00000000E+00  0.00000000E+00
  0.00000000E+00  0.00000000E+00  0.00000000E+00
  0.00000000E+00  0.00000000E+00  0.00000000E+00
  0.00000000E+00  0.00000000E+00  0.00000000E+00
  0.00000000E+00  0.00000000E+00  0.00000000E+00
  0.00000000E+00  0.00000000E+00  0.00000000E+00
  0.00000000E+00  0.00000000E+00  0.00000000E+00
  0.00000000E+00  0.00000000E+00  0.00000000E+00
  0.00000000E+00  0.00000000E+00  0.00000000E+00
  0.00000000E+00  0.00000000E+00  0.00000000E+00
  0.00000000E+00  0.00000000E+00  0.00000000E+00
  0.00000000E+00  0.00000000E+00  0.00000000E+00
  0.00000000E+00  0.00000000E+00  0.00000000E+00
  0.00000000E+00  0.00000000E+00  0.00000000E+00
  0.00000000E+00  0.00000000E+00  0.00000000E+00
  0.00000000E+00  0.00000000E+00  0.00000000E+00
  0.00000000E+00  0.00000000E+00  0.00000000E+00
  0.00000000E+00  0.00000000E+00  0.00000000E+00
  0.00000000E+00  0.00000000E+00  0.00000000E+00
  0.00000000E+00  0.00000000E+00  0.00000000E+00
  0.00000000E+00  0.00000000E+00  0.00000000E+00
  0.00000000E+00  0.00000000E+00  0.00000000E+00
  0.00000000E+00  0.00000000E+00  0.00000000E+00
  0.00000000E+00  0.00000000E+00  0.00000000E+00
  0.00000000E+00  0.00000000E+00  0.00000000E+00
  0.00000000E+00  0.00000000E+00  0.00000000E+00
  0.00000000E+00  0.00000000E+00  0.00000000E+00
  0.00000000E+00  0.00000000E+00  0.00000000E+00
  0.00000000E+00  0.00000000E+00  0.00000000E+00
  0.00000000E+00  0.00000000E+00  0.00000000E+00
  0.00000000E+00  0.00000000E+00  0.00000000E+00
  0.00000000E+00  0.00000000E+00  0.00000000E+00
  0.00000000E+00  0.00000000E+00  0.00000000E+00
  0.00000000E+00  0.00000000E+00  0.00000000E+00
  0.00000000E+00  0.00000000E+00  0.00000000E+00
  0.00000000E+00  0.00000000E+00  0.00000000E+00
  0.00000000E+00  0.00000000E+00  0.00000000E+00
  0.00000000E+00  0.00000000E+00  0.00000000E+00
  0.00000000E+00  0.00000000E+00  0.00000000E+00
  0.00000000E+00  0.00000000E+00  0.00000000E+00
  0.00000000E+00  0.00000000E+00  0.00000000E+00
  0.00000000E+00  0.00000000E+00  0.00000000E+00
  0.00000000E+00  0.00000000E+00  0.00000000E+00
  0.00000000E+00  0.00000000E+00  0.00000000E+00
  0.00000000E+00  0.00000000E+00  0.00000000E+00
  0.00000000E+00  0.00000000E+00  0.00000000E+00
  0.00000000E+00  0.00000000E+00  0.00000000E+00
  0.00000000E+00  0.00000000E+00  0.00000000E+00
  0.00000000E+00  0.00000000E+00  0.00000000E+00
  0.00000000E+00  0.00000000E+00  0.00000000E+00
  0.00000000E+00  0.00000000E+00  0.00000000E+00
  0.00000000E+00  0.00000000E+00  0.00000000E+00
  0.00000000E+00  0.00000000E+00  0.00000000E+00
  0.00000000E+00  0.00000000E+00  0.00000000E+00
  0.00000000E+00  0.00000000E+00  0.00000000E+00
  0.00000000E+00  0.00000000E+00  0.00000000E+00
  0.00000000E+00  0.00000000E+00  0.00000000E+00
  0.00000000E+00  0.00000000E+00  0.00000000E+00
  0.00000000E+00  0.00000000E+00  0.00000000E+00
  0.00000000E+00  0.00000000E+00  0.00000000E+00
  0.00000000E+00  0.00000000E+00  0.00000000E+00
  0.00000000E+00  0.00000000E+00  0.00000000E+00
  0.00000000E+00  0.00000000E+00  0.00000000E+00
  0.00000000E+00  0.00000000E+00  0.00000000E+00
  0.00000000E+00  0.00000000E+00  0.00000000E+00
  0.00000000E+00  0.00000000E+00  0.00000000E+00
  0.00000000E+00  0.00000000E+00  0.00000000E+00
  0.00000000E+00  0.00000000E+00  0.00000000E+00
  0.00000000E+00  0.00000000E+00  0.00000000E+00
  0.00000000E+00  0.00000000E+00  0.00000000E+00
  0.00000000E+00  0.00000000E+00  0.00000000E+00
  0.00000000E+00  0.00000000E+00  0.00000000E+00
  0.00000000E+00  0.00000000E+00  0.00000000E+00
  0.00000000E+00  0.00000000E+00  0.00000000E+00
  0.00000000E+00  0.00000000E+00  0.00000000E+00
  0.00000000E+00  0.00000000E+00  0.00000000E+00
  0.00000000E+00  0.00000000E+00  0.00000000E+00
  0.00000000E+00  0.00000000E+00  0.00000000E+00
  0.00000000E+00  0.00000000E+00  0.00000000E+00
  0.00000000E+00  0.00000000E+00  0.00000000E+00
  0.00000000E+00  0.00000000E+00  0.00000000E+00
  0.00000000E+00  0.00000000E+00  0.00000000E+00
  0.00000000E+00  0.00000000E+00  0.00000000E+00
  0.00000000E+00  0.00000000E+00  0.00000000E+00
  0.00000000E+00  0.00000000E+00  0.00000000E+00
  0.00000000E+00  0.00000000E+00  0.00000000E+00
  0.00000000E+00  0.00000000E+00  0.00000000E+00
  0.00000000E+00  0.00000000E+00  0.00000000E+00
  0.00000000E+00  0.00000000E+00  0.00000000E+00
  0.00000000E+00  0.00000000E+00  0.00000000E+00
  0.00000000E+00  0.00000000E+00  0.00000000E+00
  0.00000000E+00  0.00000000E+00  0.00000000E+00
  0.00000000E+00  0.00000000E+00  0.00000000E+00
  0.00000000E+00  0.00000000E+00  0.00000000E+00
  0.00000000E+00  0.00000000E+00  0.00000000E+00
  0.00000000E+00  0.00000000E+00  0.00000000E+00
  0.00000000E+00  0.00000000E+00  0.00000000E+00
  0.00000000E+00  0.00000000E+00  0.00000000E+00
  0.00000000E+00  0.00000000E+00  0.00000000E+00
  0.00000000E+00  0.00000000E+00  0.00000000E+00
  0.00000000E+00  0.00000000E+00  0.00000000E+00
  0.00000000E+00  0.00000000E+00  0.00000000E+00
  0.00000000E+00  0.00000000E+00  0.00000000E+00
  0.00000000E+00  0.00000000E+00  0.00000000E+00
  0.00000000E+00  0.00000000E+00  0.00000000E+00
  0.00000000E+00  0.00000000E+00  0.00000000E+00
  0.00000000E+00  0.00000000E+00  0.00000000E+00
  0.00000000E+00  0.00000000E+00  0.00000000E+00
  0.00000000E+00  0.00000000E+00  0.00000000E+00
  0.00000000E+00  0.00000000E+00  0.00000000E+00
  0.00000000E+00  0.00000000E+00  0.00000000E+00
  0.00000000E+00  0.00000000E+00  0.00000000E+00
