supercell of POSCAR                     
   1.03228000000000     
     6.3970863126299999    5.5387332920799999    4.9397337979799998
   -15.9736979067999982   -5.5365852353599996    9.8547656895600007
     6.4026568282999996  -11.0930079636999999    0.0094448205590600
   Sc   Al   N 
    32    63    96
Direct
  0.3761130516634452  0.0712774969424927  0.3065731213668954
  0.8294965370405265  0.3078947406067059  0.4344963391241095
  0.0164056586359820  0.2309224285075260  0.3029015518905922
  0.1918499423368019  0.1475491996252956  0.4343359335302708
  0.0166745853122876  0.2274319605239725  0.0669995793314939
  0.0298935476288307  0.4594442647333778  0.3665690695483974
  0.2260398490772531  0.3891481631918410  0.0038557423661132
  0.6660879614993078  0.1213923138437210  0.1132444764436968
  0.3774432130631808  0.0709961658327813  0.8123845273204466
  0.8321657413401695  0.3079020915348920  0.9330188460317217
  0.0247279726652039  0.2307696444261964  0.8043064644733775
  0.1975206252887460  0.1473410338001813  0.9399889983548206
  0.0221504383853031  0.2300902259455455  0.5672985649737967
  0.0365691690632204  0.4632402388837988  0.8693736317610217
  0.2261375917800237  0.3903157357753884  0.5035432571850649
  0.6935081992141079  0.1293065726824594  0.6190987230300848
  0.3613000482445301  0.5670013866617793  0.3086845191427727
  0.8361332985174954  0.8098888794170236  0.4340506378388582
  0.0215108820143968  0.7316154378277488  0.3040804964188268
  0.1858639462970899  0.6468188837541646  0.4370474054392304
  0.0234949150674524  0.7359228125557564  0.0664109463137521
  0.0499158511305211  0.9662582786135161  0.3684955004247783
  0.2479370512963825  0.9043409817632266  0.0092375446947699
  0.6882123082765119  0.6283016018215832  0.1176549993101617
  0.3636511808885388  0.5684077206173868  0.8090801088195931
  0.8357115584866008  0.8113085696664939  0.9344681019915342
  0.0242899040472508  0.7345614378102781  0.8070161569121197
  0.1874412704623367  0.6488723740553013  0.9377591132167140
  0.0214189943925120  0.7329400099641177  0.5673162646399135
  0.0505603480272754  0.9669208747903966  0.8717517707367151
  0.2361342193650131  0.8936317289801750  0.5046921409082046
  0.6888048590914480  0.6288150951293332  0.6186338548733303
  0.5302616993424181  0.4840400286350217  0.4343452065219466
  0.5329852840182596  0.4850920121059659  0.1915136617956179
  0.6890663426476777  0.4083067436326715  0.3118131447645993
  0.6862622138263816  0.4033144329972984  0.0633416554104116
  0.8411615867342093  0.3158811335757292  0.1802239238388168
  0.1945875373731596  0.1474290309115105  0.1874300569851641
  0.0438014950173340  0.4685624979849905  0.1218305706576288
  0.2254938686283907  0.3864160024975121  0.2470039212619284
  0.3948864607614269  0.3062754409577693  0.1289468462228243
  0.5574563015852902  0.2313856028713630  0.2475569256886843
  0.3921924696034225  0.3076531923754615  0.3736170176796634
  0.5536271422755306  0.2294360516542682  0.0068518251687095
  0.8855633522406663  0.0531000886255129  0.2467758215329852
  0.7307762150764958  0.1374129349565862  0.3763725980276220
  0.8856764091286493  0.0507197283245731  0.0006117741155478
  0.3622749775907508  0.0723690592420212  0.5648342533787556
  0.5303753517892389  0.4839210779714378  0.9337663061925454
  0.5332795427601766  0.4852276610784685  0.6914087173659169
  0.6900249308988506  0.4078674750726705  0.8112328377368954
  0.6860599504384766  0.4026827275445086  0.5643919552815149
  0.8545202939585366  0.3223865412423876  0.6837904836350432
  0.1983693898650856  0.1480636812051586  0.6858776480535980
  0.0466525360881249  0.4705100442881403  0.6223234454330608
  0.2288334225044508  0.3878183852150556  0.7479803053808283
  0.3953790752300606  0.3065714355079407  0.6287363747509289
  0.5591057113392068  0.2303671733744892  0.7483828466291840
  0.3946368919367131  0.3076732134407933  0.8738264510270355
  0.5509555428595405  0.2274206083696697  0.5050511661967789
  0.8910788207081879  0.0525355571834609  0.7482720398879223
  0.7329856775753498  0.1374484189746710  0.8751699823131673
  0.8879442128782244  0.0508263304017831  0.5005364400305510
  0.3527074758953788  0.5697624314243939  0.0631541821683470
  0.5394230084421565  0.9854663729511373  0.4342724088264092
  0.5440014591927209  0.9838670891423789  0.1925243616622936
  0.6949145237714234  0.9057878119518250  0.3121222103896883
  0.6876778096053684  0.9016153500391084  0.0641697292231598
  0.8528851682541401  0.8205109238152133  0.1838146310652959
  0.1922703851038321  0.6489829288531936  0.1846866494138055
  0.0510351014750441  0.9716120237003594  0.1256488866749024
  0.2336905210060820  0.8889010352832827  0.2483058690917446
  0.3967526763323548  0.8078341996338310  0.1289702732854181
  0.5528273256025216  0.7276825273959773  0.2472193876196940
  0.3950904596245266  0.8074645830276239  0.3737825287333365
  0.5484294731001782  0.7263456020664805  0.0040974163741438
  0.8823480820154757  0.5525143286620988  0.2466236179129027
  0.7231178799307614  0.6353482286408436  0.3743595638640471
  0.8808707544535466  0.5524849991155847  0.0006558863580750
  0.3525276058126892  0.5698449811422179  0.5625958849860524
  0.5443071627415392  0.9834318788954306  0.9349027042269142
  0.5424221788756469  0.9863686965442042  0.6931418624854686
  0.6948647882185028  0.9057863178379719  0.8097724217571667
  0.6911296028039899  0.9023592031783423  0.5641859416878532
  0.8550135987697516  0.8217104633126624  0.6835390320280794
  0.1931613327122790  0.6496637292421283  0.6853703091195129
  0.0547504421331340  0.9708266173817108  0.6239269374652707
  0.2350545875198762  0.8895926945563559  0.7495935141067065
  0.3969449222059254  0.8071024667013660  0.6283477332769820
  0.5533963938133155  0.7281671584888727  0.7468597664480328
  0.3953660729325605  0.8086183098989110  0.8740845504386598
  0.5487891765018560  0.7261648187240581  0.5037287151766350
  0.8831187988526565  0.5532105435950285  0.7471442368754140
  0.7228991811302166  0.6355805937647574  0.8741599703576881
  0.8804371587309987  0.5515919766875683  0.5006330078718406
  0.5867821638937798  0.1844962212252383  0.3698495026718547
  0.5575429256407674  0.1865997439638178  0.1174650995988245
  0.7288137216517967  0.0796776896984852  0.4781836737799523
  0.7272563513039003  0.0808803228456938  0.2477999651986309
  0.8800534424998716  0.0017648049098611  0.3600241569649185
  0.0421855690591570  0.4127329431752145  0.4945074979801660
  0.8769967415130822  0.4966298835432497  0.1098648734075098
  0.0562748361700258  0.4101912793376243  0.2219802410262943
  0.2335191505471741  0.3358095329697477  0.3559559132055625
  0.3941416624204876  0.2576320556866989  0.4877629342933716
  0.2341886382053957  0.3311032086273684  0.1204248750844812
  0.3862860059580342  0.2502933570287098  0.2389758162700986
  0.2235951308471797  0.0641299410342668  0.1840774076011016
  0.2643473624361263  0.0644602626361035  0.4294584205942584
  0.4225885338383435  0.4792431056533601  0.2969558197148174
  0.4745593097716636  0.9920196148870275  0.0572422607382350
  0.5805584501819112  0.4038619497995413  0.1738253830948437
  0.7503678351360463  0.3323085075306693  0.2932924564367099
  0.5833014179508211  0.4030152510666127  0.4246963853619405
  0.7368146048198980  0.3251253613218026  0.0560046890940882
  0.8878909294318476  0.2361357779529953  0.1695328449918776
  0.0749860267172338  0.1441026836151025  0.2864144176151697
  0.9138620627419485  0.2303594707550545  0.4241912237515351
  0.0764750657842015  0.1404160849275939  0.0563789343745569
  0.5886638691182000  0.1840690126907134  0.8667277239340407
  0.5340068549527430  0.1723820897052448  0.6114491319106392
  0.7290002269367335  0.0804116091854823  0.9746475243098942
  0.7312126114730333  0.0807238704648015  0.7440298595060781
  0.8777151785396882  0.0012605445019886  0.8589072190396010
  0.0439614393558401  0.4132292628241387  0.9928470465619483
  0.8770875002658798  0.4958794656539780  0.6105134330076254
  0.0594767043890343  0.4121897159252725  0.7236086842678660
  0.2360369753080462  0.3360327313999747  0.8550734238950426
  0.3967310870521175  0.2596378733133875  0.9876037061006286
  0.2363368805263377  0.3323740671983941  0.6208645098178707
  0.3882333938174440  0.2494071208076534  0.7372196870520611
  0.2437941276695739  0.0652071336524145  0.6629947055881331
  0.2525410156434731  0.0632502840134563  0.9139891899966486
  0.4231488040207836  0.4799601547184835  0.7968632531480182
  0.4524006496899986  0.0011236551104474  0.5582801017530912
  0.5802340748880610  0.4036361776261472  0.6738580108019434
  0.7465224728274293  0.3292745809127595  0.7889682084766818
  0.5839387866460584  0.4032192514184061  0.9229395238468570
  0.7322242897227085  0.3220394672253803  0.5599621617096346
  0.8919208188846639  0.2388855418750850  0.6718034183488228
  0.0820143292200513  0.1424409968150400  0.7846805588232328
  0.9170082940833240  0.2302555935088648  0.9210432759982083
  0.0787955457646916  0.1414426704731397  0.5552142945137319
  0.5737763241558511  0.6776408481860798  0.3655179586030357
  0.5256503962426109  0.6693737111402882  0.1091946523073233
  0.7188178559086396  0.5781185240913587  0.4761648483701251
  0.7214746229485201  0.5792017038742117  0.2436266495203725
  0.8746630651043787  0.5042232010687258  0.3605070767986760
  0.0473685907251209  0.9130927141363969  0.4924089644543912
  0.8748714531153183  0.9943531224841351  0.1100634070352555
  0.0559704941209134  0.9067031299044572  0.2232629538851612
  0.2356772357368300  0.8349042848043169  0.3556272408535079
  0.3915727308037091  0.7557046836146313  0.4863931325295781
  0.2400261426213035  0.8350811946231715  0.1189565083733228
  0.3833987266625698  0.7478604645715023  0.2366097488878580
  0.2341523812937822  0.5646304014631696  0.1622195579565116
  0.2484415086804432  0.5605392413672732  0.4267696981714479
  0.4298467700621984  0.9786862318691121  0.2976146689491159
  0.4416110845066541  0.4987456999695539  0.0566923492453029
  0.5862337056690805  0.9003831669598057  0.1770388118948105
  0.7412461835114428  0.8235705575387229  0.2884573264489276
  0.5875225983963119  0.9018285421597199  0.4244878714854181
  0.7310210409455635  0.8188791456598210  0.0581213373581946
  0.8872691100899175  0.7356858327036520  0.1700410862050532
  0.0761654125185487  0.6414383392038943  0.2845905709470600
  0.9082962409824233  0.7270584569721805  0.4200698422103528
  0.0712790233604466  0.6438096914043498  0.0560656964209940
  0.5732586620380786  0.6780985543543494  0.8649681519122794
  0.5254632520237337  0.6693982899569093  0.6085912563447309
  0.7178357246193485  0.5777373279670428  0.9751478846339765
  0.7211661650081069  0.5788686379832271  0.7435092477859513
  0.8753151058757282  0.5039152423284037  0.8603933580535070
  0.0435049475525631  0.9129670990480250  0.9952752275628143
  0.8827843567774281  0.9948289621767472  0.6102201543409294
  0.0589051671210825  0.9090709048946408  0.7213790788536159
  0.2371834722392805  0.8373828263390806  0.8577670148142786
  0.3921938294910277  0.7566507554255111  0.9868599536845792
  0.2381066586037335  0.8329363954482645  0.6198723679967131
  0.3835938981701545  0.7482743614220766  0.7360812886326613
  0.2356352887148532  0.5655105450816720  0.6628980938416404
  0.2518082672063144  0.5630843373159209  0.9276083986502641
  0.4319400733795575  0.9790218324456745  0.7973942625003261
  0.4419731468797750  0.4991715311208083  0.5570830878838962
  0.5841157440839027  0.9026284792262871  0.6724344517640333
  0.7410900191511161  0.8237382758380676  0.7855449712365825
  0.5901665847979700  0.8991840583317625  0.9203407143473754
  0.7320030913388464  0.8193384633231560  0.5569433476476036
  0.8883949096993291  0.7366229020101400  0.6710370965599495
  0.0762605782665773  0.6427354657251740  0.7848798109931892
  0.9053511095917131  0.7270867945918340  0.9194254576498864
  0.0711658242974096  0.6422257832030169  0.5560065458382368
 
  0.00000000E+00  0.00000000E+00  0.00000000E+00
  0.00000000E+00  0.00000000E+00  0.00000000E+00
  0.00000000E+00  0.00000000E+00  0.00000000E+00
  0.00000000E+00  0.00000000E+00  0.00000000E+00
  0.00000000E+00  0.00000000E+00  0.00000000E+00
  0.00000000E+00  0.00000000E+00  0.00000000E+00
  0.00000000E+00  0.00000000E+00  0.00000000E+00
  0.00000000E+00  0.00000000E+00  0.00000000E+00
  0.00000000E+00  0.00000000E+00  0.00000000E+00
  0.00000000E+00  0.00000000E+00  0.00000000E+00
  0.00000000E+00  0.00000000E+00  0.00000000E+00
  0.00000000E+00  0.00000000E+00  0.00000000E+00
  0.00000000E+00  0.00000000E+00  0.00000000E+00
  0.00000000E+00  0.00000000E+00  0.00000000E+00
  0.00000000E+00  0.00000000E+00  0.00000000E+00
  0.00000000E+00  0.00000000E+00  0.00000000E+00
  0.00000000E+00  0.00000000E+00  0.00000000E+00
  0.00000000E+00  0.00000000E+00  0.00000000E+00
  0.00000000E+00  0.00000000E+00  0.00000000E+00
  0.00000000E+00  0.00000000E+00  0.00000000E+00
  0.00000000E+00  0.00000000E+00  0.00000000E+00
  0.00000000E+00  0.00000000E+00  0.00000000E+00
  0.00000000E+00  0.00000000E+00  0.00000000E+00
  0.00000000E+00  0.00000000E+00  0.00000000E+00
  0.00000000E+00  0.00000000E+00  0.00000000E+00
  0.00000000E+00  0.00000000E+00  0.00000000E+00
  0.00000000E+00  0.00000000E+00  0.00000000E+00
  0.00000000E+00  0.00000000E+00  0.00000000E+00
  0.00000000E+00  0.00000000E+00  0.00000000E+00
  0.00000000E+00  0.00000000E+00  0.00000000E+00
  0.00000000E+00  0.00000000E+00  0.00000000E+00
  0.00000000E+00  0.00000000E+00  0.00000000E+00
  0.00000000E+00  0.00000000E+00  0.00000000E+00
  0.00000000E+00  0.00000000E+00  0.00000000E+00
  0.00000000E+00  0.00000000E+00  0.00000000E+00
  0.00000000E+00  0.00000000E+00  0.00000000E+00
  0.00000000E+00  0.00000000E+00  0.00000000E+00
  0.00000000E+00  0.00000000E+00  0.00000000E+00
  0.00000000E+00  0.00000000E+00  0.00000000E+00
  0.00000000E+00  0.00000000E+00  0.00000000E+00
  0.00000000E+00  0.00000000E+00  0.00000000E+00
  0.00000000E+00  0.00000000E+00  0.00000000E+00
  0.00000000E+00  0.00000000E+00  0.00000000E+00
  0.00000000E+00  0.00000000E+00  0.00000000E+00
  0.00000000E+00  0.00000000E+00  0.00000000E+00
  0.00000000E+00  0.00000000E+00  0.00000000E+00
  0.00000000E+00  0.00000000E+00  0.00000000E+00
  0.00000000E+00  0.00000000E+00  0.00000000E+00
  0.00000000E+00  0.00000000E+00  0.00000000E+00
  0.00000000E+00  0.00000000E+00  0.00000000E+00
  0.00000000E+00  0.00000000E+00  0.00000000E+00
  0.00000000E+00  0.00000000E+00  0.00000000E+00
  0.00000000E+00  0.00000000E+00  0.00000000E+00
  0.00000000E+00  0.00000000E+00  0.00000000E+00
  0.00000000E+00  0.00000000E+00  0.00000000E+00
  0.00000000E+00  0.00000000E+00  0.00000000E+00
  0.00000000E+00  0.00000000E+00  0.00000000E+00
  0.00000000E+00  0.00000000E+00  0.00000000E+00
  0.00000000E+00  0.00000000E+00  0.00000000E+00
  0.00000000E+00  0.00000000E+00  0.00000000E+00
  0.00000000E+00  0.00000000E+00  0.00000000E+00
  0.00000000E+00  0.00000000E+00  0.00000000E+00
  0.00000000E+00  0.00000000E+00  0.00000000E+00
  0.00000000E+00  0.00000000E+00  0.00000000E+00
  0.00000000E+00  0.00000000E+00  0.00000000E+00
  0.00000000E+00  0.00000000E+00  0.00000000E+00
  0.00000000E+00  0.00000000E+00  0.00000000E+00
  0.00000000E+00  0.00000000E+00  0.00000000E+00
  0.00000000E+00  0.00000000E+00  0.00000000E+00
  0.00000000E+00  0.00000000E+00  0.00000000E+00
  0.00000000E+00  0.00000000E+00  0.00000000E+00
  0.00000000E+00  0.00000000E+00  0.00000000E+00
  0.00000000E+00  0.00000000E+00  0.00000000E+00
  0.00000000E+00  0.00000000E+00  0.00000000E+00
  0.00000000E+00  0.00000000E+00  0.00000000E+00
  0.00000000E+00  0.00000000E+00  0.00000000E+00
  0.00000000E+00  0.00000000E+00  0.00000000E+00
  0.00000000E+00  0.00000000E+00  0.00000000E+00
  0.00000000E+00  0.00000000E+00  0.00000000E+00
  0.00000000E+00  0.00000000E+00  0.00000000E+00
  0.00000000E+00  0.00000000E+00  0.00000000E+00
  0.00000000E+00  0.00000000E+00  0.00000000E+00
  0.00000000E+00  0.00000000E+00  0.00000000E+00
  0.00000000E+00  0.00000000E+00  0.00000000E+00
  0.00000000E+00  0.00000000E+00  0.00000000E+00
  0.00000000E+00  0.00000000E+00  0.00000000E+00
  0.00000000E+00  0.00000000E+00  0.00000000E+00
  0.00000000E+00  0.00000000E+00  0.00000000E+00
  0.00000000E+00  0.00000000E+00  0.00000000E+00
  0.00000000E+00  0.00000000E+00  0.00000000E+00
  0.00000000E+00  0.00000000E+00  0.00000000E+00
  0.00000000E+00  0.00000000E+00  0.00000000E+00
  0.00000000E+00  0.00000000E+00  0.00000000E+00
  0.00000000E+00  0.00000000E+00  0.00000000E+00
  0.00000000E+00  0.00000000E+00  0.00000000E+00
  0.00000000E+00  0.00000000E+00  0.00000000E+00
  0.00000000E+00  0.00000000E+00  0.00000000E+00
  0.00000000E+00  0.00000000E+00  0.00000000E+00
  0.00000000E+00  0.00000000E+00  0.00000000E+00
  0.00000000E+00  0.00000000E+00  0.00000000E+00
  0.00000000E+00  0.00000000E+00  0.00000000E+00
  0.00000000E+00  0.00000000E+00  0.00000000E+00
  0.00000000E+00  0.00000000E+00  0.00000000E+00
  0.00000000E+00  0.00000000E+00  0.00000000E+00
  0.00000000E+00  0.00000000E+00  0.00000000E+00
  0.00000000E+00  0.00000000E+00  0.00000000E+00
  0.00000000E+00  0.00000000E+00  0.00000000E+00
  0.00000000E+00  0.00000000E+00  0.00000000E+00
  0.00000000E+00  0.00000000E+00  0.00000000E+00
  0.00000000E+00  0.00000000E+00  0.00000000E+00
  0.00000000E+00  0.00000000E+00  0.00000000E+00
  0.00000000E+00  0.00000000E+00  0.00000000E+00
  0.00000000E+00  0.00000000E+00  0.00000000E+00
  0.00000000E+00  0.00000000E+00  0.00000000E+00
  0.00000000E+00  0.00000000E+00  0.00000000E+00
  0.00000000E+00  0.00000000E+00  0.00000000E+00
  0.00000000E+00  0.00000000E+00  0.00000000E+00
  0.00000000E+00  0.00000000E+00  0.00000000E+00
  0.00000000E+00  0.00000000E+00  0.00000000E+00
  0.00000000E+00  0.00000000E+00  0.00000000E+00
  0.00000000E+00  0.00000000E+00  0.00000000E+00
  0.00000000E+00  0.00000000E+00  0.00000000E+00
  0.00000000E+00  0.00000000E+00  0.00000000E+00
  0.00000000E+00  0.00000000E+00  0.00000000E+00
  0.00000000E+00  0.00000000E+00  0.00000000E+00
  0.00000000E+00  0.00000000E+00  0.00000000E+00
  0.00000000E+00  0.00000000E+00  0.00000000E+00
  0.00000000E+00  0.00000000E+00  0.00000000E+00
  0.00000000E+00  0.00000000E+00  0.00000000E+00
  0.00000000E+00  0.00000000E+00  0.00000000E+00
  0.00000000E+00  0.00000000E+00  0.00000000E+00
  0.00000000E+00  0.00000000E+00  0.00000000E+00
  0.00000000E+00  0.00000000E+00  0.00000000E+00
  0.00000000E+00  0.00000000E+00  0.00000000E+00
  0.00000000E+00  0.00000000E+00  0.00000000E+00
  0.00000000E+00  0.00000000E+00  0.00000000E+00
  0.00000000E+00  0.00000000E+00  0.00000000E+00
  0.00000000E+00  0.00000000E+00  0.00000000E+00
  0.00000000E+00  0.00000000E+00  0.00000000E+00
  0.00000000E+00  0.00000000E+00  0.00000000E+00
  0.00000000E+00  0.00000000E+00  0.00000000E+00
  0.00000000E+00  0.00000000E+00  0.00000000E+00
  0.00000000E+00  0.00000000E+00  0.00000000E+00
  0.00000000E+00  0.00000000E+00  0.00000000E+00
  0.00000000E+00  0.00000000E+00  0.00000000E+00
  0.00000000E+00  0.00000000E+00  0.00000000E+00
  0.00000000E+00  0.00000000E+00  0.00000000E+00
  0.00000000E+00  0.00000000E+00  0.00000000E+00
  0.00000000E+00  0.00000000E+00  0.00000000E+00
  0.00000000E+00  0.00000000E+00  0.00000000E+00
  0.00000000E+00  0.00000000E+00  0.00000000E+00
  0.00000000E+00  0.00000000E+00  0.00000000E+00
  0.00000000E+00  0.00000000E+00  0.00000000E+00
  0.00000000E+00  0.00000000E+00  0.00000000E+00
  0.00000000E+00  0.00000000E+00  0.00000000E+00
  0.00000000E+00  0.00000000E+00  0.00000000E+00
  0.00000000E+00  0.00000000E+00  0.00000000E+00
  0.00000000E+00  0.00000000E+00  0.00000000E+00
  0.00000000E+00  0.00000000E+00  0.00000000E+00
  0.00000000E+00  0.00000000E+00  0.00000000E+00
  0.00000000E+00  0.00000000E+00  0.00000000E+00
  0.00000000E+00  0.00000000E+00  0.00000000E+00
  0.00000000E+00  0.00000000E+00  0.00000000E+00
  0.00000000E+00  0.00000000E+00  0.00000000E+00
  0.00000000E+00  0.00000000E+00  0.00000000E+00
  0.00000000E+00  0.00000000E+00  0.00000000E+00
  0.00000000E+00  0.00000000E+00  0.00000000E+00
  0.00000000E+00  0.00000000E+00  0.00000000E+00
  0.00000000E+00  0.00000000E+00  0.00000000E+00
  0.00000000E+00  0.00000000E+00  0.00000000E+00
  0.00000000E+00  0.00000000E+00  0.00000000E+00
  0.00000000E+00  0.00000000E+00  0.00000000E+00
  0.00000000E+00  0.00000000E+00  0.00000000E+00
  0.00000000E+00  0.00000000E+00  0.00000000E+00
  0.00000000E+00  0.00000000E+00  0.00000000E+00
  0.00000000E+00  0.00000000E+00  0.00000000E+00
  0.00000000E+00  0.00000000E+00  0.00000000E+00
  0.00000000E+00  0.00000000E+00  0.00000000E+00
  0.00000000E+00  0.00000000E+00  0.00000000E+00
  0.00000000E+00  0.00000000E+00  0.00000000E+00
  0.00000000E+00  0.00000000E+00  0.00000000E+00
  0.00000000E+00  0.00000000E+00  0.00000000E+00
  0.00000000E+00  0.00000000E+00  0.00000000E+00
  0.00000000E+00  0.00000000E+00  0.00000000E+00
  0.00000000E+00  0.00000000E+00  0.00000000E+00
  0.00000000E+00  0.00000000E+00  0.00000000E+00
  0.00000000E+00  0.00000000E+00  0.00000000E+00
  0.00000000E+00  0.00000000E+00  0.00000000E+00
  0.00000000E+00  0.00000000E+00  0.00000000E+00
  0.00000000E+00  0.00000000E+00  0.00000000E+00
  0.00000000E+00  0.00000000E+00  0.00000000E+00
