supercell of POSCAR                     
   1.03228000000000     
     6.3970863126299999    5.5387332920799999    4.9397337979799998
   -15.9736979067999982   -5.5365852353599996    9.8547656895600007
     6.4026568282999996  -11.0930079636999999    0.0094448205590600
   Sc   Al   N 
    31    64    96
Direct
  0.3625562260081949  0.0675716020262627  0.3095632019870038
  0.8525466430911735  0.3209075070723060  0.4337650900860552
  0.0231417495531900  0.2322732236653735  0.3056149519581197
  0.1902771841511210  0.1488974666420049  0.4387779331738457
  0.0246508175886504  0.2349026345766774  0.0692820048752267
  0.2333193949197536  0.3930679882287151  0.0054888159883077
  0.6929121979206769  0.1312065278495353  0.1201045349790704
  0.3664282131087262  0.0696565989719247  0.8101155923374463
  0.8359164564471655  0.3099497048914088  0.9340322498765872
  0.0239399046330107  0.2321024153013198  0.8045173815099105
  0.1897019910536244  0.1488854585662622  0.9388158069251844
  0.0219625351580035  0.2348594656204384  0.5659543314117315
  0.0438939795218332  0.4653588637281700  0.8692569953733909
  0.2342034283957588  0.3951435680257447  0.5007730828580890
  0.6903171348535437  0.1291219087320528  0.6185849253422830
  0.3634249901862674  0.5647533657507324  0.3062615661876720
  0.8197381683594216  0.8032485553230373  0.4335949302118536
  0.0201009227119044  0.7296429018285409  0.3042079832716027
  0.1622063575420540  0.6302336589653663  0.4293664305369305
  0.0204673876531558  0.7308553767946009  0.0677836567575270
  0.0334701454152864  0.9615048371660961  0.3707521786049739
  0.2285969901840090  0.8916007912578223  0.0047564252268586
  0.6901634049660856  0.6288916948019079  0.1188069348769574
  0.3742965191527787  0.5710509868154219  0.8106476213559972
  0.8324799443631505  0.8085664685054610  0.9353428805476653
  0.0230245882694859  0.7309446653829141  0.8045658731313452
  0.1936362371888762  0.6493782371623453  0.9384024860510394
  0.0202901671008533  0.7300823689549603  0.5663723244667622
  0.0345555870204706  0.9621558265137224  0.8687993116196253
  0.2243444819151676  0.8897753958130039  0.5034859365492466
  0.6941802368188377  0.6291802078909186  0.6202712774341279
  0.3554617372649034  0.0710041707358116  0.0637065617478996
  0.5410236479083466  0.4858241156594474  0.4352293588401324
  0.5415501695933074  0.4856991178926293  0.1933247282683013
  0.7116737348896578  0.4122371249642214  0.3141339160654226
  0.6920034741420125  0.4025730345174665  0.0643084819238382
  0.8691837412267134  0.3299475497469189  0.1910310566904130
  0.1950857092395140  0.1498352324638290  0.1861492307114787
  0.0524982270423706  0.4698545954372761  0.1243579464784830
  0.2319557323818913  0.3887854691120793  0.2480610571344855
  0.4026594555135432  0.3083305821797850  0.1305147726832132
  0.5578518111912132  0.2296600298675955  0.2482843916136162
  0.3990422226284451  0.3090044784754156  0.3731477123282048
  0.5543636585626714  0.2283201795102414  0.0065736008073856
  0.8831453500793884  0.0523771305110685  0.2481948152766336
  0.7242637675020660  0.1377674517371545  0.3752304535254041
  0.8815928866309122  0.0520889805000948  0.0012814580753968
  0.3550989621126064  0.0705496768665270  0.5635946092767270
  0.5372947110720148  0.4850406954938506  0.9350930590247799
  0.5394623987170633  0.4858976058833306  0.6920373034268650
  0.6922320194657559  0.4066751157814039  0.8107340901918221
  0.6914143501337051  0.4024699920150780  0.5641251697432637
  0.8562035698118962  0.3227802956736880  0.6826398048484563
  0.1934046697529936  0.1490260131848089  0.6848272640837934
  0.0545974767751289  0.4717116320556372  0.6217133729285109
  0.2326686565978164  0.3889784131273260  0.7476425175110677
  0.3972164533144280  0.3076627194182819  0.6277118533177273
  0.5557780594248811  0.2290819627781175  0.7465314703489412
  0.3960401265112523  0.3078933576298581  0.8740103409614548
  0.5539608328902688  0.2275253731896143  0.5022488030067862
  0.8824375241661073  0.0515205799712106  0.7465543354458646
  0.7268251341753640  0.1362878767874633  0.8750013577967266
  0.8798684985087775  0.0511121626156026  0.5007825389940024
  0.3586852295062002  0.5718208253729173  0.0632974992644080
  0.5311232056028459  0.9835668795432611  0.4346690001976228
  0.5355181582637201  0.9864511999996921  0.1927959975083695
  0.6865029284857016  0.9059896517819155  0.3118594943336603
  0.6861844931901899  0.9029705586840464  0.0648225917291327
  0.8525090793025285  0.8220870578991040  0.1846758621550535
  0.1959047860069987  0.6488505320266285  0.1839810040708656
  0.0467229716351767  0.9706123470663996  0.1230956265585945
  0.2280736434473525  0.8876319736029856  0.2487168828779858
  0.3952464963187410  0.8074341655841906  0.1299937633595789
  0.5540039724549075  0.7277576708079110  0.2466473886188680
  0.3877172703301071  0.8043275904235685  0.3752976318493566
  0.5514094650878221  0.7282475458905537  0.0059583623405786
  0.8870950625763641  0.5503897413194423  0.2462133620641040
  0.7265574825215353  0.6348104102513190  0.3728326479557182
  0.8852387973435185  0.5507265919762503  0.0005913621231173
  0.3657088115262042  0.5735274110434716  0.5689745237610353
  0.5323023920095835  0.9852650198286454  0.9353326269398039
  0.5328173539602759  0.9846323658151164  0.6914795376699843
  0.6878565411025193  0.9073004212163838  0.8112904189891808
  0.6811992296757552  0.8982762691863613  0.5629822759217049
  0.8445834387275752  0.8188018790068980  0.6808387093241990
  0.1977183895041676  0.6497039102796407  0.6870423700557211
  0.0447232571295046  0.9689975991438544  0.6221489600100654
  0.2262711043106620  0.8877462515421826  0.7481518683539221
  0.3903306894714618  0.8044871985568989  0.6258413065993409
  0.5586330373862864  0.7313702483482984  0.7522071639997421
  0.3939855177168141  0.8086766166138801  0.8744125122124089
  0.5159160019840741  0.7098890094775783  0.4975559468639474
  0.8874638366270347  0.5520468817045980  0.7476983328765385
  0.7302710975964715  0.6366687445075243  0.8763256687830321
  0.8844659837433611  0.5497380856133987  0.5001024099049474
  0.5713306156894262  0.1764032357970393  0.3643485656512837
  0.5274478160231908  0.1699537248797185  0.1091376038735348
  0.7191368056702743  0.0782147189494964  0.4758078143901514
  0.7237364485329891  0.0801633109664763  0.2448055392303488
  0.8719880079595654  0.0019012900111477  0.3605282950193924
  0.0581664379595566  0.4157287477589122  0.5004091636513337
  0.8813323900126733  0.4949126997054947  0.1080631706152957
  0.0708257056471524  0.4115931861795445  0.2167467345377645
  0.2373689042540121  0.3340025482894760  0.3530592452944674
  0.3956167603960523  0.2570614309786947  0.4867280737215012
  0.2434453087053683  0.3330701562060980  0.1194078436927484
  0.3859143828677958  0.2480161414613917  0.2365129931854071
  0.2361167178300292  0.0650347337096377  0.1625988617283838
  0.2496548566076271  0.0611969550348519  0.4283194348296178
  0.4317366409641679  0.4791519376716167  0.2984874540876277
  0.4434907730219351  0.9996039535059964  0.0577539056455620
  0.5888758188988348  0.4043021075049182  0.1744520964668368
  0.7399632597880483  0.3248085306938080  0.2855469636612824
  0.5915733784822237  0.4033160258667863  0.4245486552682465
  0.7371093995053428  0.3212327165132791  0.0591239523804958
  0.8909854976366347  0.2389465772183783  0.1727771074189803
  0.0773491775833648  0.1409101029595163  0.2858147986023809
  0.9078254664687719  0.2297957036398870  0.4200201358074978
  0.0723126147099791  0.1427086509720610  0.0567169889483878
  0.5788071024411039  0.1797634436781479  0.8658755714655655
  0.5279650835660448  0.1702743923300929  0.6085877318987940
  0.7204853392684996  0.0789373750728615  0.9767806451143883
  0.7223884823616089  0.0789047358495765  0.7438171432472132
  0.8736197065261209  0.0029722736780684  0.8606058868185045
  0.0455733260623248  0.4131785830848926  0.9901226338292233
  0.8813499158696132  0.4953134028570148  0.6122730138792818
  0.0612871830876216  0.4114050622314949  0.7253806105938878
  0.2372156443761071  0.3359602546906331  0.8557690942955105
  0.3958130031300442  0.2568723646545763  0.9870085291207786
  0.2396701254994653  0.3338747675920217  0.6197711560706338
  0.3851786050634161  0.2483905504076205  0.7363245380730561
  0.2357514421748235  0.0645584141096407  0.6627430582001566
  0.2515400443963856  0.0619888898728078  0.9274359134976464
  0.4293761867287458  0.4807060301957762  0.7981608476990019
  0.4418768186811235  0.9988163558318206  0.5571585101207859
  0.5840085647417794  0.4032027978635568  0.6737151674069040
  0.7427842390820985  0.3258870237014122  0.7870732270449707
  0.5865348790339766  0.4022237138699793  0.9235230390283604
  0.7359677151134107  0.3206684841133409  0.5560222532554420
  0.8895557160457273  0.2375918847095377  0.6716435195214032
  0.0770122344681212  0.1407915972071478  0.7848710061470641
  0.9118749506712192  0.2280151262330747  0.9208138274836841
  0.0708125314812307  0.1425957970665266  0.5559748654404046
  0.5823577071638510  0.6785076109286763  0.3587469467436364
  0.5298083592791230  0.6716170836596973  0.1087114358643788
  0.7261122929182235  0.5803404874735634  0.4775438334265800
  0.7282054580223019  0.5801613658157123  0.2422244002726330
  0.8868429026818418  0.5091941116923309  0.3629839263739854
  0.0361562886869251  0.9097159788136508  0.4935140812605212
  0.8770094133855721  0.9957572983245910  0.1106506929655779
  0.0578634155629842  0.9118769867543435  0.2241267777816915
  0.2315753015814366  0.8350076219044951  0.3548490481619453
  0.3774236941678311  0.7531909821259291  0.4858708028303411
  0.2351586785688937  0.8325368929235566  0.1207499867881765
  0.3855028543460364  0.7490127997155440  0.2366093808658292
  0.2394726007209087  0.5661815568192168  0.1599583923534169
  0.3220537923983713  0.5952170431259631  0.4435949606273155
  0.4233553384957318  0.9793967120914360  0.2974680339128781
  0.4490579084099053  0.5010050180603685  0.0576627694212135
  0.5801925493074478  0.9039268132077254  0.1743036869474963
  0.7421256555842319  0.8272039835764602  0.2887266276944587
  0.5797170574407744  0.9006267096693321  0.4237844959064603
  0.7327419082633000  0.8222509197286385  0.0595104156174528
  0.8888524732370087  0.7384017328376302  0.1711312268124701
  0.0773593745258978  0.6415756169017115  0.2798058611147809
  0.9112370084334316  0.7279120042640770  0.4210556650529185
  0.0750027518156884  0.6420952700329892  0.0538846548876890
  0.5837995981991000  0.6825881125223461  0.8710786981467322
  0.5419144472130171  0.6730195938556847  0.6235664776799723
  0.7258021314201031  0.5793219767834046  0.9774970527586717
  0.7289095152844354  0.5802559279495512  0.7465638055313235
  0.8765133610397271  0.5019883026305010  0.8599969400844785
  0.0426069813796630  0.9128119090778029  0.9944714763961784
  0.8740322828481837  0.9934119078014447  0.6094837314252004
  0.0539580408897606  0.9103607469195225  0.7227779488704371
  0.2343623090683096  0.8361251788627584  0.8564589804231062
  0.3951819752333279  0.7588555857714852  0.9884213003492590
  0.2343582217750892  0.8328928321789917  0.6216222470020938
  0.3868891783633899  0.7500031027324567  0.7393900340860995
  0.2435505223629804  0.5672772341663546  0.6662938428567813
  0.2598088558405678  0.5643996235992006  0.9270152097814162
  0.4230074665987900  0.9801247459029838  0.7979271203952010
  0.4532218322754531  0.5017421808501439  0.5594241645595517
  0.5777379782583125  0.9022583944137494  0.6737511900280353
  0.7460313875516320  0.8293154102451723  0.7920875523975397
  0.5837524797551978  0.9033630379845548  0.9248046608437335
  0.7156484223663568  0.8135257402594789  0.5556352015279771
  0.8932658114164127  0.7390014951589023  0.6730013106114114
  0.0806145702864498  0.6417283922736772  0.7869205209507939
  0.9135269092376248  0.7293132834674694  0.9218552178744730
  0.0735011672440251  0.6416126681842726  0.5605052981968015
 
  0.00000000E+00  0.00000000E+00  0.00000000E+00
  0.00000000E+00  0.00000000E+00  0.00000000E+00
  0.00000000E+00  0.00000000E+00  0.00000000E+00
  0.00000000E+00  0.00000000E+00  0.00000000E+00
  0.00000000E+00  0.00000000E+00  0.00000000E+00
  0.00000000E+00  0.00000000E+00  0.00000000E+00
  0.00000000E+00  0.00000000E+00  0.00000000E+00
  0.00000000E+00  0.00000000E+00  0.00000000E+00
  0.00000000E+00  0.00000000E+00  0.00000000E+00
  0.00000000E+00  0.00000000E+00  0.00000000E+00
  0.00000000E+00  0.00000000E+00  0.00000000E+00
  0.00000000E+00  0.00000000E+00  0.00000000E+00
  0.00000000E+00  0.00000000E+00  0.00000000E+00
  0.00000000E+00  0.00000000E+00  0.00000000E+00
  0.00000000E+00  0.00000000E+00  0.00000000E+00
  0.00000000E+00  0.00000000E+00  0.00000000E+00
  0.00000000E+00  0.00000000E+00  0.00000000E+00
  0.00000000E+00  0.00000000E+00  0.00000000E+00
  0.00000000E+00  0.00000000E+00  0.00000000E+00
  0.00000000E+00  0.00000000E+00  0.00000000E+00
  0.00000000E+00  0.00000000E+00  0.00000000E+00
  0.00000000E+00  0.00000000E+00  0.00000000E+00
  0.00000000E+00  0.00000000E+00  0.00000000E+00
  0.00000000E+00  0.00000000E+00  0.00000000E+00
  0.00000000E+00  0.00000000E+00  0.00000000E+00
  0.00000000E+00  0.00000000E+00  0.00000000E+00
  0.00000000E+00  0.00000000E+00  0.00000000E+00
  0.00000000E+00  0.00000000E+00  0.00000000E+00
  0.00000000E+00  0.00000000E+00  0.00000000E+00
  0.00000000E+00  0.00000000E+00  0.00000000E+00
  0.00000000E+00  0.00000000E+00  0.00000000E+00
  0.00000000E+00  0.00000000E+00  0.00000000E+00
  0.00000000E+00  0.00000000E+00  0.00000000E+00
  0.00000000E+00  0.00000000E+00  0.00000000E+00
  0.00000000E+00  0.00000000E+00  0.00000000E+00
  0.00000000E+00  0.00000000E+00  0.00000000E+00
  0.00000000E+00  0.00000000E+00  0.00000000E+00
  0.00000000E+00  0.00000000E+00  0.00000000E+00
  0.00000000E+00  0.00000000E+00  0.00000000E+00
  0.00000000E+00  0.00000000E+00  0.00000000E+00
  0.00000000E+00  0.00000000E+00  0.00000000E+00
  0.00000000E+00  0.00000000E+00  0.00000000E+00
  0.00000000E+00  0.00000000E+00  0.00000000E+00
  0.00000000E+00  0.00000000E+00  0.00000000E+00
  0.00000000E+00  0.00000000E+00  0.00000000E+00
  0.00000000E+00  0.00000000E+00  0.00000000E+00
  0.00000000E+00  0.00000000E+00  0.00000000E+00
  0.00000000E+00  0.00000000E+00  0.00000000E+00
  0.00000000E+00  0.00000000E+00  0.00000000E+00
  0.00000000E+00  0.00000000E+00  0.00000000E+00
  0.00000000E+00  0.00000000E+00  0.00000000E+00
  0.00000000E+00  0.00000000E+00  0.00000000E+00
  0.00000000E+00  0.00000000E+00  0.00000000E+00
  0.00000000E+00  0.00000000E+00  0.00000000E+00
  0.00000000E+00  0.00000000E+00  0.00000000E+00
  0.00000000E+00  0.00000000E+00  0.00000000E+00
  0.00000000E+00  0.00000000E+00  0.00000000E+00
  0.00000000E+00  0.00000000E+00  0.00000000E+00
  0.00000000E+00  0.00000000E+00  0.00000000E+00
  0.00000000E+00  0.00000000E+00  0.00000000E+00
  0.00000000E+00  0.00000000E+00  0.00000000E+00
  0.00000000E+00  0.00000000E+00  0.00000000E+00
  0.00000000E+00  0.00000000E+00  0.00000000E+00
  0.00000000E+00  0.00000000E+00  0.00000000E+00
  0.00000000E+00  0.00000000E+00  0.00000000E+00
  0.00000000E+00  0.00000000E+00  0.00000000E+00
  0.00000000E+00  0.00000000E+00  0.00000000E+00
  0.00000000E+00  0.00000000E+00  0.00000000E+00
  0.00000000E+00  0.00000000E+00  0.00000000E+00
  0.00000000E+00  0.00000000E+00  0.00000000E+00
  0.00000000E+00  0.00000000E+00  0.00000000E+00
  0.00000000E+00  0.00000000E+00  0.00000000E+00
  0.00000000E+00  0.00000000E+00  0.00000000E+00
  0.00000000E+00  0.00000000E+00  0.00000000E+00
  0.00000000E+00  0.00000000E+00  0.00000000E+00
  0.00000000E+00  0.00000000E+00  0.00000000E+00
  0.00000000E+00  0.00000000E+00  0.00000000E+00
  0.00000000E+00  0.00000000E+00  0.00000000E+00
  0.00000000E+00  0.00000000E+00  0.00000000E+00
  0.00000000E+00  0.00000000E+00  0.00000000E+00
  0.00000000E+00  0.00000000E+00  0.00000000E+00
  0.00000000E+00  0.00000000E+00  0.00000000E+00
  0.00000000E+00  0.00000000E+00  0.00000000E+00
  0.00000000E+00  0.00000000E+00  0.00000000E+00
  0.00000000E+00  0.00000000E+00  0.00000000E+00
  0.00000000E+00  0.00000000E+00  0.00000000E+00
  0.00000000E+00  0.00000000E+00  0.00000000E+00
  0.00000000E+00  0.00000000E+00  0.00000000E+00
  0.00000000E+00  0.00000000E+00  0.00000000E+00
  0.00000000E+00  0.00000000E+00  0.00000000E+00
  0.00000000E+00  0.00000000E+00  0.00000000E+00
  0.00000000E+00  0.00000000E+00  0.00000000E+00
  0.00000000E+00  0.00000000E+00  0.00000000E+00
  0.00000000E+00  0.00000000E+00  0.00000000E+00
  0.00000000E+00  0.00000000E+00  0.00000000E+00
  0.00000000E+00  0.00000000E+00  0.00000000E+00
  0.00000000E+00  0.00000000E+00  0.00000000E+00
  0.00000000E+00  0.00000000E+00  0.00000000E+00
  0.00000000E+00  0.00000000E+00  0.00000000E+00
  0.00000000E+00  0.00000000E+00  0.00000000E+00
  0.00000000E+00  0.00000000E+00  0.00000000E+00
  0.00000000E+00  0.00000000E+00  0.00000000E+00
  0.00000000E+00  0.00000000E+00  0.00000000E+00
  0.00000000E+00  0.00000000E+00  0.00000000E+00
  0.00000000E+00  0.00000000E+00  0.00000000E+00
  0.00000000E+00  0.00000000E+00  0.00000000E+00
  0.00000000E+00  0.00000000E+00  0.00000000E+00
  0.00000000E+00  0.00000000E+00  0.00000000E+00
  0.00000000E+00  0.00000000E+00  0.00000000E+00
  0.00000000E+00  0.00000000E+00  0.00000000E+00
  0.00000000E+00  0.00000000E+00  0.00000000E+00
  0.00000000E+00  0.00000000E+00  0.00000000E+00
  0.00000000E+00  0.00000000E+00  0.00000000E+00
  0.00000000E+00  0.00000000E+00  0.00000000E+00
  0.00000000E+00  0.00000000E+00  0.00000000E+00
  0.00000000E+00  0.00000000E+00  0.00000000E+00
  0.00000000E+00  0.00000000E+00  0.00000000E+00
  0.00000000E+00  0.00000000E+00  0.00000000E+00
  0.00000000E+00  0.00000000E+00  0.00000000E+00
  0.00000000E+00  0.00000000E+00  0.00000000E+00
  0.00000000E+00  0.00000000E+00  0.00000000E+00
  0.00000000E+00  0.00000000E+00  0.00000000E+00
  0.00000000E+00  0.00000000E+00  0.00000000E+00
  0.00000000E+00  0.00000000E+00  0.00000000E+00
  0.00000000E+00  0.00000000E+00  0.00000000E+00
  0.00000000E+00  0.00000000E+00  0.00000000E+00
  0.00000000E+00  0.00000000E+00  0.00000000E+00
  0.00000000E+00  0.00000000E+00  0.00000000E+00
  0.00000000E+00  0.00000000E+00  0.00000000E+00
  0.00000000E+00  0.00000000E+00  0.00000000E+00
  0.00000000E+00  0.00000000E+00  0.00000000E+00
  0.00000000E+00  0.00000000E+00  0.00000000E+00
  0.00000000E+00  0.00000000E+00  0.00000000E+00
  0.00000000E+00  0.00000000E+00  0.00000000E+00
  0.00000000E+00  0.00000000E+00  0.00000000E+00
  0.00000000E+00  0.00000000E+00  0.00000000E+00
  0.00000000E+00  0.00000000E+00  0.00000000E+00
  0.00000000E+00  0.00000000E+00  0.00000000E+00
  0.00000000E+00  0.00000000E+00  0.00000000E+00
  0.00000000E+00  0.00000000E+00  0.00000000E+00
  0.00000000E+00  0.00000000E+00  0.00000000E+00
  0.00000000E+00  0.00000000E+00  0.00000000E+00
  0.00000000E+00  0.00000000E+00  0.00000000E+00
  0.00000000E+00  0.00000000E+00  0.00000000E+00
  0.00000000E+00  0.00000000E+00  0.00000000E+00
  0.00000000E+00  0.00000000E+00  0.00000000E+00
  0.00000000E+00  0.00000000E+00  0.00000000E+00
  0.00000000E+00  0.00000000E+00  0.00000000E+00
  0.00000000E+00  0.00000000E+00  0.00000000E+00
  0.00000000E+00  0.00000000E+00  0.00000000E+00
  0.00000000E+00  0.00000000E+00  0.00000000E+00
  0.00000000E+00  0.00000000E+00  0.00000000E+00
  0.00000000E+00  0.00000000E+00  0.00000000E+00
  0.00000000E+00  0.00000000E+00  0.00000000E+00
  0.00000000E+00  0.00000000E+00  0.00000000E+00
  0.00000000E+00  0.00000000E+00  0.00000000E+00
  0.00000000E+00  0.00000000E+00  0.00000000E+00
  0.00000000E+00  0.00000000E+00  0.00000000E+00
  0.00000000E+00  0.00000000E+00  0.00000000E+00
  0.00000000E+00  0.00000000E+00  0.00000000E+00
  0.00000000E+00  0.00000000E+00  0.00000000E+00
  0.00000000E+00  0.00000000E+00  0.00000000E+00
  0.00000000E+00  0.00000000E+00  0.00000000E+00
  0.00000000E+00  0.00000000E+00  0.00000000E+00
  0.00000000E+00  0.00000000E+00  0.00000000E+00
  0.00000000E+00  0.00000000E+00  0.00000000E+00
  0.00000000E+00  0.00000000E+00  0.00000000E+00
  0.00000000E+00  0.00000000E+00  0.00000000E+00
  0.00000000E+00  0.00000000E+00  0.00000000E+00
  0.00000000E+00  0.00000000E+00  0.00000000E+00
  0.00000000E+00  0.00000000E+00  0.00000000E+00
  0.00000000E+00  0.00000000E+00  0.00000000E+00
  0.00000000E+00  0.00000000E+00  0.00000000E+00
  0.00000000E+00  0.00000000E+00  0.00000000E+00
  0.00000000E+00  0.00000000E+00  0.00000000E+00
  0.00000000E+00  0.00000000E+00  0.00000000E+00
  0.00000000E+00  0.00000000E+00  0.00000000E+00
  0.00000000E+00  0.00000000E+00  0.00000000E+00
  0.00000000E+00  0.00000000E+00  0.00000000E+00
  0.00000000E+00  0.00000000E+00  0.00000000E+00
  0.00000000E+00  0.00000000E+00  0.00000000E+00
  0.00000000E+00  0.00000000E+00  0.00000000E+00
  0.00000000E+00  0.00000000E+00  0.00000000E+00
  0.00000000E+00  0.00000000E+00  0.00000000E+00
  0.00000000E+00  0.00000000E+00  0.00000000E+00
  0.00000000E+00  0.00000000E+00  0.00000000E+00
  0.00000000E+00  0.00000000E+00  0.00000000E+00
  0.00000000E+00  0.00000000E+00  0.00000000E+00
  0.00000000E+00  0.00000000E+00  0.00000000E+00
  0.00000000E+00  0.00000000E+00  0.00000000E+00
  0.00000000E+00  0.00000000E+00  0.00000000E+00
