supercell of POSCAR                     
   1.03228000000000     
     6.3970863126299999    5.5387332920799999    4.9397337979799998
   -15.9736979067999982   -5.5365852353599996    9.8547656895600007
     6.4026568282999996  -11.0930079636999999    0.0094448205590600
   Sc   Al   N 
    32    64    95
Direct
  0.3722035121238889  0.0701413427950328  0.3108916232038510
  0.8314683747025597  0.3079522128890275  0.4339944176884885
  0.0202048967063462  0.2295199179998377  0.3039297270888355
  0.1894273360436571  0.1473307541345790  0.4375306866998230
  0.0162306703759683  0.2286689348899671  0.0667603420031426
  0.0385700952275911  0.4642479831857358  0.3716932151917263
  0.2298919088655751  0.3859872916097800  0.9987640950562309
  0.6907191972552198  0.1276285425840840  0.1195246695059922
  0.3716725081383174  0.0696316391566185  0.8090814149925833
  0.8315847024693213  0.3079375797724566  0.9328325925956875
  0.0163088450013902  0.2272830435074340  0.8006707443144592
  0.2013010099256292  0.1532905543547258  0.9404204769521201
  0.0202774119702198  0.2308139467910308  0.5662570798395024
  0.0387003593977227  0.4638080094130714  0.8691276658737905
  0.2284961655959563  0.3912419407366698  0.5036245942979320
  0.6910885686268458  0.1285354799629630  0.6175865100227256
  0.3729212323408788  0.5715500776982552  0.3150199180081472
  0.8346530143060491  0.8098534547361709  0.4342998215244478
  0.0273944711145617  0.7353755535276392  0.3055418383331840
  0.1950323495344861  0.6509186194229954  0.4409247075608391
  0.0246606770380140  0.7354307246162151  0.0686932013388954
  0.0441041070737995  0.9641459907855960  0.3704984374299443
  0.2369711161358623  0.8940498859075561  0.0050740703676126
  0.6919034816539948  0.6306367194258726  0.1192402237266066
  0.3647925501563662  0.5686549701919148  0.8085526639534919
  0.8366664264189154  0.8110173593377041  0.9340868887057425
  0.0234609460275976  0.7326299120810447  0.8051811051455573
  0.1944889664389322  0.6505578260390337  0.9379935038826517
  0.0229699153643992  0.7336992538168161  0.5677015537117214
  0.0468517491857625  0.9667496308239762  0.8713729123964384
  0.2367706359410988  0.8944055005625842  0.5062140704449192
  0.6899763230663751  0.6301853277063998  0.6189809427662851
  0.3594734212795174  0.0715268463851473  0.0650035862482525
  0.5329082156814451  0.4844872375004385  0.4357789165621497
  0.5292775420577982  0.4842477258167577  0.1910544909475860
  0.6858171458811171  0.4050174838342571  0.3123044401600765
  0.6135330426193093  0.3683886298114558  0.0454237444967376
  0.8508197718105990  0.3206572195459927  0.1846702441158428
  0.1958170108298845  0.1476810740077354  0.1859036508907650
  0.0908729400817379  0.4630912270476415  0.1279328551570700
  0.2316413127059249  0.3859952812135603  0.2518299539913613
  0.3883457777718604  0.3054390594352441  0.1368939044122044
  0.5565652636832681  0.2288910924016463  0.2488795113731399
  0.3928022725967608  0.3064382576260058  0.3759897537350483
  0.5552313000524407  0.2230113866750969  0.0040961573618432
  0.8874838888693546  0.0516297161397148  0.2471490953260869
  0.7295108212287289  0.1361223612608242  0.3753846452919376
  0.8879344791426291  0.0511715970423197  0.0006580085891486
  0.3600013298476696  0.0717683559388931  0.5642482210880644
  0.5282798188457392  0.4838384516865304  0.9323342989818713
  0.5340216619498364  0.4854411653261650  0.6909618167263218
  0.6861179270126030  0.4051846299751389  0.8072913132881823
  0.6852491872703439  0.4015815548886721  0.5634336954667560
  0.8535113404080690  0.3219862100258908  0.6829026529023992
  0.1963129994816697  0.1478216510228734  0.6844183681303448
  0.0477266184044822  0.4705629369702464  0.6223801588087383
  0.2267644517744429  0.3874021955031992  0.7452380330308870
  0.3937202082411986  0.3063010490566072  0.6260408926232088
  0.5575102367914511  0.2293802223579817  0.7463182216181821
  0.3873419921100165  0.3061653701394178  0.8631527086240283
  0.5505464991472451  0.2269107593649196  0.5051190772874818
  0.8899881338553186  0.0521202816016952  0.7482502817627221
  0.7313396030843080  0.1363998105979789  0.8754679474457276
  0.8854763642025532  0.0510401547168797  0.5010862822448203
  0.3579830644506359  0.5705664639008390  0.0619916611466635
  0.5386930805752215  0.9855364920676450  0.4351155929461115
  0.5407040280801283  0.9864339047719284  0.1934064171914898
  0.6943257318956668  0.9078128992710575  0.3118652088121863
  0.6905698557457782  0.9029378316653194  0.0643555799622320
  0.8546936685260391  0.8226272404408590  0.1840876922899000
  0.1892778208050032  0.6465895603348173  0.1843931653626711
  0.0518098342738753  0.9704636140102210  0.1233449204270087
  0.2346885579535680  0.8900653186955196  0.2493904821656656
  0.3990380223878773  0.8082895096164719  0.1298220657607700
  0.5547829708313827  0.7295677189350300  0.2475822727128758
  0.3978914323238882  0.8092351271180789  0.3745890542981840
  0.5516138175428793  0.7278312801208884  0.0046255755317972
  0.8785067043942405  0.5654346279980160  0.2839092103675114
  0.7225395231158274  0.6389493729025943  0.3787078761009326
  0.8763421120165944  0.5647040714759299  0.9681693568128082
  0.3560586125421139  0.5712220073178997  0.5645311368934571
  0.5404194659727750  0.9861896960251855  0.9354851089081677
  0.5426756198785512  0.9874223418942023  0.6934528558184354
  0.6934170468012155  0.9074081778929468  0.8116171591926147
  0.6911676438926477  0.9034489986611831  0.5651133524668239
  0.8565539345617239  0.8233752627810844  0.6852162487890467
  0.1963803605498313  0.6503149220213302  0.6859166329674409
  0.0513668042526234  0.9704455924331938  0.6230362496654749
  0.2341761943847160  0.8895940103647959  0.7495960146020550
  0.3985358536252193  0.8090731938055455  0.6303193315684794
  0.5553549052209306  0.7301238777283885  0.7475070044219123
  0.3968508633070584  0.8091898209955914  0.8742456672475782
  0.5524896278392148  0.7292625742932728  0.5073243787949906
  0.8836243498390104  0.5529581133430170  0.7417198042387554
  0.7200536909739625  0.6389191005528332  0.8709259111925789
  0.8816795842203078  0.5520387180888591  0.5059274997770800
  0.5820148796766347  0.1810643339999771  0.3671068483588371
  0.5311310626044303  0.1713630083751951  0.1114484750343721
  0.7265738924751801  0.0792964569329300  0.4768311360987099
  0.7293558819398314  0.0801621132252706  0.2452769095280232
  0.8799956005585301  0.0026155374848216  0.3607329819044693
  0.0425482553548946  0.4129447946081228  0.4934154053908628
  0.0593154995056935  0.4088883783650203  0.2274205610913427
  0.2338698883811574  0.3336758472360231  0.3565272890159363
  0.3931593949014882  0.2561184467377444  0.4873574522962869
  0.2325151698974182  0.3314130660336403  0.1212588362814628
  0.3860704777366308  0.2481542473542788  0.2392702588326827
  0.2416569566067182  0.0651231252966369  0.1641643607428520
  0.2585400476173518  0.0632761093162841  0.4282971436502621
  0.4222552391469137  0.4794460974930388  0.2980883874343689
  0.4517995389230762  0.0020016804907996  0.0584851104037085
  0.5776173755497425  0.4028838525874363  0.1746796818787359
  0.7431226636960488  0.3274414115551494  0.2888143069186953
  0.5818166009654107  0.4017944955239017  0.4240268666059777
  0.7342490085249409  0.3216914268595019  0.0587518486212915
  0.8878540821991265  0.2375819406175097  0.1714495565527798
  0.0797052759453507  0.1411328678618631  0.2845206685044346
  0.9122242146932891  0.2289149143931368  0.4208969194185883
  0.0802992596746179  0.1426538847787953  0.0551819794556039
  0.5836823014432468  0.1812952871320732  0.8673133661379424
  0.5313586515517272  0.1712929859749366  0.6104103109414396
  0.7299739636001021  0.0807008474401627  0.9782948806081677
  0.7329596017175675  0.0819436329508250  0.7453072274049788
  0.8787173936687367  0.0022546680846958  0.8604571548411855
  0.0479437064141592  0.4114406386808724  0.9925608416517164
  0.8767149354984838  0.4947612090516529  0.6094886812392986
  0.0584682664816754  0.4122075861785746  0.7239065387887820
  0.2301083748270045  0.3323903850457697  0.8497697739826791
  0.4132125072489217  0.2672541500292454  0.9921496602313198
  0.2353660898205803  0.3323034032621379  0.6189716178684890
  0.3868738882209257  0.2482388865479663  0.7344390544144446
  0.2415026064345298  0.0650687579019333  0.6631454494777174
  0.2629372054343335  0.0670930073283884  0.9292981918548335
  0.4220352061939892  0.4792462272772866  0.7960550250173668
  0.4520768738072505  0.0019821307436700  0.5590436173224305
  0.5786997179401965  0.4029034704421264  0.6722502637443881
  0.7451393849977350  0.3278744864437471  0.7892991848839372
  0.5813041250137303  0.4022834795319667  0.9213762908590866
  0.7319124834298236  0.3210897667408616  0.5583431732461719
  0.8890161932455598  0.2382236997511242  0.6702268189558183
  0.0853129266697437  0.1418761780421391  0.7875750630661926
  0.9146483304982382  0.2300793733169826  0.9213664366624528
  0.0753268153087632  0.1420041447586726  0.5567529082903491
  0.5788574586953743  0.6815046526448896  0.3684271078915415
  0.5284902549630601  0.6701675890723990  0.1099919788129569
  0.7212870119509418  0.5791698663658167  0.4765801326281291
  0.7136637923466225  0.5795737076436041  0.2459001924044912
  0.8701094729352690  0.5005900535439523  0.3652853852067182
  0.0462461404134373  0.9122100495863279  0.4938625232641911
  0.8822840393358860  0.9953801424849829  0.1102150350954929
  0.0604935488539340  0.9107321131091481  0.2234334399963984
  0.2388602945810447  0.8369945523645370  0.3565796744965581
  0.3950461472631233  0.7585448459263446  0.4879232061183458
  0.2398302424174190  0.8337209503792380  0.1211476519340096
  0.3799736374199796  0.7462385069605375  0.2359657256674055
  0.2387708997712039  0.5642454520049824  0.1644723140260922
  0.2533405155391577  0.5634784096848904  0.4282555225286586
  0.4297280352261481  0.9809358505809129  0.2983207586451186
  0.4414008304000063  0.4974869246589932  0.0557094713739303
  0.5846786556962087  0.9036611656240083  0.1744619916578003
  0.7423624574413381  0.8259585973004491  0.2880301350581220
  0.5882056961548017  0.9028004958735707  0.4240395137106887
  0.7340431061830941  0.8206519058527775  0.0579168406489998
  0.8904060722311726  0.7377981252237191  0.1717401311301714
  0.0680630412787124  0.6367555329449104  0.2824776918177960
  0.9110352810137670  0.7274547239454279  0.4190407806801986
  0.0635937461124030  0.6375412193808145  0.0540271433479163
  0.5753380362597085  0.6800531979946669  0.8651725028705499
  0.5275168327684483  0.6710998122110254  0.6098905077747574
  0.7118930919828728  0.5792572226738457  0.9719039542745875
  0.7236824763306089  0.5801009113130817  0.7440964140951323
  0.8709294154552794  0.5007284888310011  0.8522798719959326
  0.0487127717538769  0.9136681810057965  0.9936371782232385
  0.8825278427875105  0.9957885844013816  0.6110131007270354
  0.0626218702864421  0.9125005858058941  0.7251064712668196
  0.2366617478800421  0.8361367684159688  0.8562130377009112
  0.3951089836886013  0.7579430313686686  0.9881675829527765
  0.2386082239421796  0.8338846172263601  0.6210504810215198
  0.3856908463846551  0.7496758192953337  0.7372299896879895
  0.2366905428274819  0.5655462698633755  0.6629501246363176
  0.2528530518076124  0.5631137727117874  0.9281266728521871
  0.4312861383810187  0.9814148391866340  0.7987798223198084
  0.4442587199334511  0.5001747148601652  0.5570828743068645
  0.5849822939218825  0.9043690783327065  0.6743965749315421
  0.7437181441748208  0.8265634017319172  0.7885683029098232
  0.5878128265822653  0.9030818233200364  0.9245931723684819
  0.7352538430415976  0.8216611794787028  0.5591529548064074
  0.8902371388137027  0.7382833567760230  0.6716156301214085
  0.0781474351302975  0.6416246077826528  0.7856102623176469
  0.9097008055534772  0.7275283184621202  0.9216246727776252
  0.0731342134229251  0.6423911260407493  0.5556558452251750
 
  0.00000000E+00  0.00000000E+00  0.00000000E+00
  0.00000000E+00  0.00000000E+00  0.00000000E+00
  0.00000000E+00  0.00000000E+00  0.00000000E+00
  0.00000000E+00  0.00000000E+00  0.00000000E+00
  0.00000000E+00  0.00000000E+00  0.00000000E+00
  0.00000000E+00  0.00000000E+00  0.00000000E+00
  0.00000000E+00  0.00000000E+00  0.00000000E+00
  0.00000000E+00  0.00000000E+00  0.00000000E+00
  0.00000000E+00  0.00000000E+00  0.00000000E+00
  0.00000000E+00  0.00000000E+00  0.00000000E+00
  0.00000000E+00  0.00000000E+00  0.00000000E+00
  0.00000000E+00  0.00000000E+00  0.00000000E+00
  0.00000000E+00  0.00000000E+00  0.00000000E+00
  0.00000000E+00  0.00000000E+00  0.00000000E+00
  0.00000000E+00  0.00000000E+00  0.00000000E+00
  0.00000000E+00  0.00000000E+00  0.00000000E+00
  0.00000000E+00  0.00000000E+00  0.00000000E+00
  0.00000000E+00  0.00000000E+00  0.00000000E+00
  0.00000000E+00  0.00000000E+00  0.00000000E+00
  0.00000000E+00  0.00000000E+00  0.00000000E+00
  0.00000000E+00  0.00000000E+00  0.00000000E+00
  0.00000000E+00  0.00000000E+00  0.00000000E+00
  0.00000000E+00  0.00000000E+00  0.00000000E+00
  0.00000000E+00  0.00000000E+00  0.00000000E+00
  0.00000000E+00  0.00000000E+00  0.00000000E+00
  0.00000000E+00  0.00000000E+00  0.00000000E+00
  0.00000000E+00  0.00000000E+00  0.00000000E+00
  0.00000000E+00  0.00000000E+00  0.00000000E+00
  0.00000000E+00  0.00000000E+00  0.00000000E+00
  0.00000000E+00  0.00000000E+00  0.00000000E+00
  0.00000000E+00  0.00000000E+00  0.00000000E+00
  0.00000000E+00  0.00000000E+00  0.00000000E+00
  0.00000000E+00  0.00000000E+00  0.00000000E+00
  0.00000000E+00  0.00000000E+00  0.00000000E+00
  0.00000000E+00  0.00000000E+00  0.00000000E+00
  0.00000000E+00  0.00000000E+00  0.00000000E+00
  0.00000000E+00  0.00000000E+00  0.00000000E+00
  0.00000000E+00  0.00000000E+00  0.00000000E+00
  0.00000000E+00  0.00000000E+00  0.00000000E+00
  0.00000000E+00  0.00000000E+00  0.00000000E+00
  0.00000000E+00  0.00000000E+00  0.00000000E+00
  0.00000000E+00  0.00000000E+00  0.00000000E+00
  0.00000000E+00  0.00000000E+00  0.00000000E+00
  0.00000000E+00  0.00000000E+00  0.00000000E+00
  0.00000000E+00  0.00000000E+00  0.00000000E+00
  0.00000000E+00  0.00000000E+00  0.00000000E+00
  0.00000000E+00  0.00000000E+00  0.00000000E+00
  0.00000000E+00  0.00000000E+00  0.00000000E+00
  0.00000000E+00  0.00000000E+00  0.00000000E+00
  0.00000000E+00  0.00000000E+00  0.00000000E+00
  0.00000000E+00  0.00000000E+00  0.00000000E+00
  0.00000000E+00  0.00000000E+00  0.00000000E+00
  0.00000000E+00  0.00000000E+00  0.00000000E+00
  0.00000000E+00  0.00000000E+00  0.00000000E+00
  0.00000000E+00  0.00000000E+00  0.00000000E+00
  0.00000000E+00  0.00000000E+00  0.00000000E+00
  0.00000000E+00  0.00000000E+00  0.00000000E+00
  0.00000000E+00  0.00000000E+00  0.00000000E+00
  0.00000000E+00  0.00000000E+00  0.00000000E+00
  0.00000000E+00  0.00000000E+00  0.00000000E+00
  0.00000000E+00  0.00000000E+00  0.00000000E+00
  0.00000000E+00  0.00000000E+00  0.00000000E+00
  0.00000000E+00  0.00000000E+00  0.00000000E+00
  0.00000000E+00  0.00000000E+00  0.00000000E+00
  0.00000000E+00  0.00000000E+00  0.00000000E+00
  0.00000000E+00  0.00000000E+00  0.00000000E+00
  0.00000000E+00  0.00000000E+00  0.00000000E+00
  0.00000000E+00  0.00000000E+00  0.00000000E+00
  0.00000000E+00  0.00000000E+00  0.00000000E+00
  0.00000000E+00  0.00000000E+00  0.00000000E+00
  0.00000000E+00  0.00000000E+00  0.00000000E+00
  0.00000000E+00  0.00000000E+00  0.00000000E+00
  0.00000000E+00  0.00000000E+00  0.00000000E+00
  0.00000000E+00  0.00000000E+00  0.00000000E+00
  0.00000000E+00  0.00000000E+00  0.00000000E+00
  0.00000000E+00  0.00000000E+00  0.00000000E+00
  0.00000000E+00  0.00000000E+00  0.00000000E+00
  0.00000000E+00  0.00000000E+00  0.00000000E+00
  0.00000000E+00  0.00000000E+00  0.00000000E+00
  0.00000000E+00  0.00000000E+00  0.00000000E+00
  0.00000000E+00  0.00000000E+00  0.00000000E+00
  0.00000000E+00  0.00000000E+00  0.00000000E+00
  0.00000000E+00  0.00000000E+00  0.00000000E+00
  0.00000000E+00  0.00000000E+00  0.00000000E+00
  0.00000000E+00  0.00000000E+00  0.00000000E+00
  0.00000000E+00  0.00000000E+00  0.00000000E+00
  0.00000000E+00  0.00000000E+00  0.00000000E+00
  0.00000000E+00  0.00000000E+00  0.00000000E+00
  0.00000000E+00  0.00000000E+00  0.00000000E+00
  0.00000000E+00  0.00000000E+00  0.00000000E+00
  0.00000000E+00  0.00000000E+00  0.00000000E+00
  0.00000000E+00  0.00000000E+00  0.00000000E+00
  0.00000000E+00  0.00000000E+00  0.00000000E+00
  0.00000000E+00  0.00000000E+00  0.00000000E+00
  0.00000000E+00  0.00000000E+00  0.00000000E+00
  0.00000000E+00  0.00000000E+00  0.00000000E+00
  0.00000000E+00  0.00000000E+00  0.00000000E+00
  0.00000000E+00  0.00000000E+00  0.00000000E+00
  0.00000000E+00  0.00000000E+00  0.00000000E+00
  0.00000000E+00  0.00000000E+00  0.00000000E+00
  0.00000000E+00  0.00000000E+00  0.00000000E+00
  0.00000000E+00  0.00000000E+00  0.00000000E+00
  0.00000000E+00  0.00000000E+00  0.00000000E+00
  0.00000000E+00  0.00000000E+00  0.00000000E+00
  0.00000000E+00  0.00000000E+00  0.00000000E+00
  0.00000000E+00  0.00000000E+00  0.00000000E+00
  0.00000000E+00  0.00000000E+00  0.00000000E+00
  0.00000000E+00  0.00000000E+00  0.00000000E+00
  0.00000000E+00  0.00000000E+00  0.00000000E+00
  0.00000000E+00  0.00000000E+00  0.00000000E+00
  0.00000000E+00  0.00000000E+00  0.00000000E+00
  0.00000000E+00  0.00000000E+00  0.00000000E+00
  0.00000000E+00  0.00000000E+00  0.00000000E+00
  0.00000000E+00  0.00000000E+00  0.00000000E+00
  0.00000000E+00  0.00000000E+00  0.00000000E+00
  0.00000000E+00  0.00000000E+00  0.00000000E+00
  0.00000000E+00  0.00000000E+00  0.00000000E+00
  0.00000000E+00  0.00000000E+00  0.00000000E+00
  0.00000000E+00  0.00000000E+00  0.00000000E+00
  0.00000000E+00  0.00000000E+00  0.00000000E+00
  0.00000000E+00  0.00000000E+00  0.00000000E+00
  0.00000000E+00  0.00000000E+00  0.00000000E+00
  0.00000000E+00  0.00000000E+00  0.00000000E+00
  0.00000000E+00  0.00000000E+00  0.00000000E+00
  0.00000000E+00  0.00000000E+00  0.00000000E+00
  0.00000000E+00  0.00000000E+00  0.00000000E+00
  0.00000000E+00  0.00000000E+00  0.00000000E+00
  0.00000000E+00  0.00000000E+00  0.00000000E+00
  0.00000000E+00  0.00000000E+00  0.00000000E+00
  0.00000000E+00  0.00000000E+00  0.00000000E+00
  0.00000000E+00  0.00000000E+00  0.00000000E+00
  0.00000000E+00  0.00000000E+00  0.00000000E+00
  0.00000000E+00  0.00000000E+00  0.00000000E+00
  0.00000000E+00  0.00000000E+00  0.00000000E+00
  0.00000000E+00  0.00000000E+00  0.00000000E+00
  0.00000000E+00  0.00000000E+00  0.00000000E+00
  0.00000000E+00  0.00000000E+00  0.00000000E+00
  0.00000000E+00  0.00000000E+00  0.00000000E+00
  0.00000000E+00  0.00000000E+00  0.00000000E+00
  0.00000000E+00  0.00000000E+00  0.00000000E+00
  0.00000000E+00  0.00000000E+00  0.00000000E+00
  0.00000000E+00  0.00000000E+00  0.00000000E+00
  0.00000000E+00  0.00000000E+00  0.00000000E+00
  0.00000000E+00  0.00000000E+00  0.00000000E+00
  0.00000000E+00  0.00000000E+00  0.00000000E+00
  0.00000000E+00  0.00000000E+00  0.00000000E+00
  0.00000000E+00  0.00000000E+00  0.00000000E+00
  0.00000000E+00  0.00000000E+00  0.00000000E+00
  0.00000000E+00  0.00000000E+00  0.00000000E+00
  0.00000000E+00  0.00000000E+00  0.00000000E+00
  0.00000000E+00  0.00000000E+00  0.00000000E+00
  0.00000000E+00  0.00000000E+00  0.00000000E+00
  0.00000000E+00  0.00000000E+00  0.00000000E+00
  0.00000000E+00  0.00000000E+00  0.00000000E+00
  0.00000000E+00  0.00000000E+00  0.00000000E+00
  0.00000000E+00  0.00000000E+00  0.00000000E+00
  0.00000000E+00  0.00000000E+00  0.00000000E+00
  0.00000000E+00  0.00000000E+00  0.00000000E+00
  0.00000000E+00  0.00000000E+00  0.00000000E+00
  0.00000000E+00  0.00000000E+00  0.00000000E+00
  0.00000000E+00  0.00000000E+00  0.00000000E+00
  0.00000000E+00  0.00000000E+00  0.00000000E+00
  0.00000000E+00  0.00000000E+00  0.00000000E+00
  0.00000000E+00  0.00000000E+00  0.00000000E+00
  0.00000000E+00  0.00000000E+00  0.00000000E+00
  0.00000000E+00  0.00000000E+00  0.00000000E+00
  0.00000000E+00  0.00000000E+00  0.00000000E+00
  0.00000000E+00  0.00000000E+00  0.00000000E+00
  0.00000000E+00  0.00000000E+00  0.00000000E+00
  0.00000000E+00  0.00000000E+00  0.00000000E+00
  0.00000000E+00  0.00000000E+00  0.00000000E+00
  0.00000000E+00  0.00000000E+00  0.00000000E+00
  0.00000000E+00  0.00000000E+00  0.00000000E+00
  0.00000000E+00  0.00000000E+00  0.00000000E+00
  0.00000000E+00  0.00000000E+00  0.00000000E+00
  0.00000000E+00  0.00000000E+00  0.00000000E+00
  0.00000000E+00  0.00000000E+00  0.00000000E+00
  0.00000000E+00  0.00000000E+00  0.00000000E+00
  0.00000000E+00  0.00000000E+00  0.00000000E+00
  0.00000000E+00  0.00000000E+00  0.00000000E+00
  0.00000000E+00  0.00000000E+00  0.00000000E+00
  0.00000000E+00  0.00000000E+00  0.00000000E+00
  0.00000000E+00  0.00000000E+00  0.00000000E+00
  0.00000000E+00  0.00000000E+00  0.00000000E+00
  0.00000000E+00  0.00000000E+00  0.00000000E+00
  0.00000000E+00  0.00000000E+00  0.00000000E+00
  0.00000000E+00  0.00000000E+00  0.00000000E+00
  0.00000000E+00  0.00000000E+00  0.00000000E+00
  0.00000000E+00  0.00000000E+00  0.00000000E+00
  0.00000000E+00  0.00000000E+00  0.00000000E+00
  0.00000000E+00  0.00000000E+00  0.00000000E+00
