supercell of POSCAR                     
   1.03228000000000     
     6.3970863126299999    5.5387332920799999    4.9397337979799998
   -15.9736979067999982   -5.5365852353599996    9.8547656895600007
     6.4026568282999996  -11.0930079636999999    0.0094448205590600
   Sc   Al   N 
    32    64    95
Direct
  0.3720109739865975  0.0690356082736443  0.3111654533342190
  0.8306082022972490  0.3062109130270230  0.4334589789326486
  0.0188970533341646  0.2296982895025224  0.3036810640764358
  0.1898424986171392  0.1471221285985536  0.4378456896679523
  0.0034091687861633  0.2281509323219808  0.0652687127303651
  0.0446877034095792  0.4667538781514722  0.3714677920773184
  0.2236796014501721  0.3883511201410528  0.0027846692015743
  0.6859347101793958  0.1282678499790322  0.1202614702199796
  0.3700376267114507  0.0686999633806877  0.8091545439810588
  0.8280326056466407  0.3051833839218432  0.9294454478603811
  0.0204054319892251  0.2304449758763809  0.8017182908330085
  0.1766528873298441  0.1391283427151464  0.9263630039856423
  0.0201998789411633  0.2302304201585130  0.5670430889487363
  0.0387829194404503  0.4639281272180611  0.8698395412749775
  0.2259668189663913  0.3911052737933289  0.5043821291386266
  0.6902920493506741  0.1287642904824295  0.6180992498366251
  0.3677017470976125  0.5719678296375790  0.3131381229842418
  0.8355945598684755  0.8089105289218708  0.4336642748471746
  0.0279761567731853  0.7332025538819096  0.3052565939483216
  0.1936278700205776  0.6519820740545583  0.4402986461734599
  0.0278573271479701  0.7350736567622036  0.0677704805614212
  0.0430954822764207  0.9636522542770578  0.3705247993210179
  0.2384573325239003  0.8940027661190797  0.0051029544642915
  0.6973539442979657  0.6331185427856312  0.1169932965741367
  0.3690255527559927  0.5708201237616422  0.8101950050516891
  0.8352397152971420  0.8081802102515567  0.9343618881942390
  0.0263276849099867  0.7329474349825773  0.8051301830052253
  0.1925719597105058  0.6503608693092744  0.9381113354434589
  0.0265868772161113  0.7352332637545089  0.5684263031922825
  0.0399968499309438  0.9599214669446852  0.8687991192053275
  0.2365227125782567  0.8937406992484611  0.5049079763436737
  0.6929269036848424  0.6305106935850588  0.6197353584212664
  0.3564246350104696  0.0707194364715775  0.0636754636907426
  0.5317617955271530  0.4852694566123716  0.4370234991750195
  0.5227951202665864  0.5007930318508684  0.1930288329664833
  0.7093340126433318  0.4075227177675416  0.3447288870861058
  0.7099327837539278  0.4032762409390713  0.0366799341503210
  0.8503340049830683  0.3235172049609929  0.1844166451494047
  0.1917608240489557  0.1434062966392702  0.1903464308627321
  0.0523555860522933  0.4707831851849775  0.1236097164686356
  0.2249674306329226  0.3856522798449973  0.2480181628134090
  0.3218576825624169  0.2675745648031125  0.1115986576159713
  0.5507328827221443  0.2275830728959534  0.2476364725659224
  0.3879339603061140  0.3056238639404540  0.3751040932789564
  0.5434403896657471  0.2252715620574008  0.0037681289795728
  0.8851603692685543  0.0512014695941119  0.2481761712531565
  0.7291029742883239  0.1357851887496508  0.3758348467783748
  0.8913777405741712  0.0535707469004905  0.0035080197583710
  0.3590093559957808  0.0712654894133209  0.5641531261692094
  0.5317826286368899  0.4848935297580681  0.9321829619364337
  0.5341962208550441  0.4860706049806041  0.6914254828381203
  0.6889130584393541  0.4068345556352426  0.8065714956298109
  0.6864497553267412  0.4023026275340769  0.5685172465884136
  0.8534904016287328  0.3221303898512176  0.6829212863687744
  0.1957760122541998  0.1482010560955729  0.6827785855415414
  0.0476082710304269  0.4709904296265890  0.6226480237015934
  0.2280026826212094  0.3885001749824468  0.7477624901528372
  0.3923213398638055  0.3063531842945153  0.6284069369688865
  0.5533382461912524  0.2288255374412387  0.7461686575476776
  0.3868436859670581  0.3048597098501631  0.8715333061001829
  0.5488909307141085  0.2270021003399236  0.5051659534437363
  0.8852463697550164  0.0517557139153197  0.7438879748980654
  0.7268180034108269  0.1353093801266709  0.8734670810746223
  0.8847788896553439  0.0504350949324248  0.5003362868378787
  0.3558728371431101  0.5727748331043969  0.0632763494059745
  0.5389272838686594  0.9852881621833944  0.4354995681795941
  0.5408651066959251  0.9863712937725069  0.1934667844309459
  0.6938663410651316  0.9070495768344813  0.3117009780033797
  0.6932620395182028  0.9038694266032650  0.0646102491968392
  0.8569018402896162  0.8227806720426116  0.1847363037961216
  0.1963765603959615  0.6501625667072730  0.1861052287251184
  0.0513039017176808  0.9684994573725021  0.1231952196455097
  0.2351027722022963  0.8893050177480859  0.2494499603776319
  0.4011170655734517  0.8086280078658774  0.1295292056488861
  0.5576043190626336  0.7297088887505296  0.2476263905451077
  0.3990281119471959  0.8091196434758103  0.3746025293479391
  0.5531486834381241  0.7286569568819061  0.0050269654477191
  0.8840171152576204  0.5523829138611802  0.2474890507545950
  0.7284392934195267  0.6370352251783160  0.3770890715288004
  0.8842860988558741  0.5547100234766233  0.9983449461895688
  0.3585053457016940  0.5724902721018950  0.5659732709905043
  0.5429219074341134  0.9872591908496560  0.9367939466534665
  0.5404092814428694  0.9863564252505626  0.6923233338202621
  0.6978990665311144  0.9097639952283529  0.8131171918930136
  0.6911114009323285  0.9024306528808523  0.5640815440457487
  0.8575572476109059  0.8224947039635424  0.6833049792130552
  0.1976479064374175  0.6504631228241777  0.6865241595106113
  0.0514581137073904  0.9700245851172227  0.6224504789488208
  0.2369575172345435  0.8899013324579741  0.7498204087849132
  0.4019743908947362  0.8092138203098926  0.6308442867811763
  0.5597713080354936  0.7312665412019967  0.7486608212540915
  0.3997857532275333  0.8097500575980590  0.8746827489715727
  0.5529525756532081  0.7281112578511753  0.5064205983640875
  0.8850311199485006  0.5532778268013416  0.7473599190127516
  0.7275743251902185  0.6364407747978760  0.8739102270359496
  0.8842309768922192  0.5546576956220264  0.5048766900815522
  0.5815858269803869  0.1811340554815146  0.3667191104355894
  0.5257405351287261  0.1714055943969441  0.1101736737690189
  0.7266265914078573  0.0794609500484569  0.4775581706340262
  0.7289248253899672  0.0808392996724905  0.2452820691472013
  0.8787064058256249  0.0020356888169317  0.3603963052188348
  0.0384879669699316  0.4125930201866268  0.4914437374051488
  0.8763056878669317  0.4957742883581560  0.1097143220868659
  0.0566402933341621  0.4115434143631020  0.2241496543932584
  0.2321594858874505  0.3350215430079899  0.3556773070747212
  0.3917710152027212  0.2566455139666246  0.4879832571369533
  0.2299156982858221  0.3289889854737211  0.1202052929559017
  0.3797702494887787  0.2451860792896738  0.2402036115826363
  0.2398507852801828  0.0632108447310955  0.1640345716651126
  0.2582491870156929  0.0628968562335430  0.4280268252839576
  0.4215846449839091  0.4783783309137135  0.2961203406574597
  0.4536945977628264  0.0030478501188114  0.0589017509945151
  0.7348731094118364  0.3268580396827332  0.2872663813053222
  0.5778545308404262  0.4014087886890749  0.4282937640773881
  0.7260461356995052  0.3204553199453670  0.0570320358664276
  0.8830667335886915  0.2391618887969287  0.1738546782200530
  0.0763550125246084  0.1406184256661973  0.2861509467054759
  0.9126588683394132  0.2286092479608257  0.4215419970832244
  0.0956789978651358  0.1521355417934416  0.0618051258928531
  0.5800168646085524  0.1809643723170069  0.8673933708260577
  0.5295806119207782  0.1712202783948982  0.6100751120627095
  0.7352736833418945  0.0835539744873444  0.9813312597491048
  0.7282053494145018  0.0804135779090274  0.7443036246669692
  0.8885663552870042  0.0074779431277676  0.8634891649474952
  0.0381520275680174  0.4109116593239506  0.9936178393341493
  0.8766274551159299  0.4954944461752930  0.6098015612719863
  0.0572326933766973  0.4118298543572507  0.7231129919294190
  0.2329965795746887  0.3355825018099168  0.8552603519279032
  0.3821557942814096  0.2522165907393017  0.9844285331364588
  0.2342298246278105  0.3325706953430227  0.6204751980195624
  0.3840906575220728  0.2484880893327741  0.7366109529797598
  0.2407529240223241  0.0651336338013664  0.6633458706071877
  0.2554073093043883  0.0601187712746594  0.9265481813480605
  0.4234696238354232  0.4803308089650997  0.7969901373267874
  0.4508921167205102  0.0015245303369085  0.5584765324102818
  0.5776775627812398  0.4030637975735587  0.6732885239722108
  0.7417485750164658  0.3269812927072167  0.7877752070894743
  0.5790271307029755  0.4007631086314731  0.9190379181612300
  0.7313643022846819  0.3210606944125018  0.5574213581023315
  0.8886164909074807  0.2382740409864041  0.6704943153288525
  0.0764197384253080  0.1415173993894996  0.7793242892878496
  0.9105482101764366  0.2281973594565585  0.9183996566058781
  0.0746964525631029  0.1413257437980491  0.5546313211237788
  0.5800754776739794  0.6796152715559600  0.3663772008882162
  0.5308048763850906  0.6707905683448416  0.1096408312721167
  0.7196502432888394  0.5779572695596968  0.4757976528381604
  0.7210297823209686  0.5777004231999143  0.2422308449640838
  0.8707598005206876  0.5018118025953129  0.3604503194089403
  0.0466519728008095  0.9119185278149047  0.4935792442566580
  0.8861058263811401  0.9974463563543949  0.1106050702374120
  0.0619046613370671  0.9109024212233265  0.2245881729245838
  0.2392589641156988  0.8362819620686679  0.3562529222906505
  0.3976192238470944  0.7588252803043289  0.4885375922485480
  0.2431688922603001  0.8348816603074454  0.1213711248494320
  0.3873118000760272  0.7489798118296704  0.2373356534669568
  0.2393754819128660  0.5655092073896455  0.1642417573137038
  0.2563718811845561  0.5654187525142262  0.4301708273315441
  0.4306230986965573  0.9807273127396385  0.2987283962163332
  0.4399421808924089  0.4978843311515391  0.0547597800839341
  0.5874226857779590  0.9046846065397318  0.1742170506706557
  0.7450286228920717  0.8263503198320095  0.2885470799264098
  0.5888622472895406  0.9029852309656334  0.4243977650706938
  0.7363453456827287  0.8217683552101676  0.0591456402513657
  0.8940520745205021  0.7387529115234770  0.1718419152980530
  0.0769115101402136  0.6400205950587150  0.2851635215158623
  0.9128085372569430  0.7272577134624072  0.4196757878813173
  0.0748199103867435  0.6429077151122797  0.0566726684248309
  0.5818729802875353  0.6814911348076009  0.8670461188629730
  0.5311793768877351  0.6717713753239067  0.6113897138699613
  0.7196145176090738  0.5780603067460532  0.9752946837429164
  0.7235160410110453  0.5792928723629842  0.7434613578647102
  0.8735749625132314  0.5022288828137391  0.8598467107717696
  0.0475702258193991  0.9112050308141235  0.9946261675865031
  0.8816486108830190  0.9947382620001548  0.6096294469276131
  0.0636009408216935  0.9111814629061286  0.7227705289734843
  0.2398827022204983  0.8368309384987640  0.8563660659565500
  0.3970290473172753  0.7585091413892258  0.9877785690577241
  0.2434107185577190  0.8350681468536720  0.6215905509043935
  0.3892781283065290  0.7501990299699273  0.7379875140990251
  0.2379525271793810  0.5655486656257978  0.6634193336408174
  0.2541165215403751  0.5633319809861632  0.9278948772354241
  0.4339231015885048  0.9821498052559932  0.8000209594743524
  0.4424457448024981  0.4996219769358703  0.5565149844597528
  0.5887067845852414  0.9051708625206984  0.6756155667992800
  0.7508027616823014  0.8295953732058194  0.7901248099986162
  0.5919411364317497  0.9048082126225552  0.9251423681785269
  0.7354244529694540  0.8207351856089105  0.5581190195673855
  0.8921093992945686  0.7381115625463863  0.6713542937774903
  0.0791082375372909  0.6417758085488288  0.7851329413170234
  0.9129547191994121  0.7273403385080783  0.9207741481193921
  0.0747307617753066  0.6434994983750215  0.5569489280408533
 
  0.00000000E+00  0.00000000E+00  0.00000000E+00
  0.00000000E+00  0.00000000E+00  0.00000000E+00
  0.00000000E+00  0.00000000E+00  0.00000000E+00
  0.00000000E+00  0.00000000E+00  0.00000000E+00
  0.00000000E+00  0.00000000E+00  0.00000000E+00
  0.00000000E+00  0.00000000E+00  0.00000000E+00
  0.00000000E+00  0.00000000E+00  0.00000000E+00
  0.00000000E+00  0.00000000E+00  0.00000000E+00
  0.00000000E+00  0.00000000E+00  0.00000000E+00
  0.00000000E+00  0.00000000E+00  0.00000000E+00
  0.00000000E+00  0.00000000E+00  0.00000000E+00
  0.00000000E+00  0.00000000E+00  0.00000000E+00
  0.00000000E+00  0.00000000E+00  0.00000000E+00
  0.00000000E+00  0.00000000E+00  0.00000000E+00
  0.00000000E+00  0.00000000E+00  0.00000000E+00
  0.00000000E+00  0.00000000E+00  0.00000000E+00
  0.00000000E+00  0.00000000E+00  0.00000000E+00
  0.00000000E+00  0.00000000E+00  0.00000000E+00
  0.00000000E+00  0.00000000E+00  0.00000000E+00
  0.00000000E+00  0.00000000E+00  0.00000000E+00
  0.00000000E+00  0.00000000E+00  0.00000000E+00
  0.00000000E+00  0.00000000E+00  0.00000000E+00
  0.00000000E+00  0.00000000E+00  0.00000000E+00
  0.00000000E+00  0.00000000E+00  0.00000000E+00
  0.00000000E+00  0.00000000E+00  0.00000000E+00
  0.00000000E+00  0.00000000E+00  0.00000000E+00
  0.00000000E+00  0.00000000E+00  0.00000000E+00
  0.00000000E+00  0.00000000E+00  0.00000000E+00
  0.00000000E+00  0.00000000E+00  0.00000000E+00
  0.00000000E+00  0.00000000E+00  0.00000000E+00
  0.00000000E+00  0.00000000E+00  0.00000000E+00
  0.00000000E+00  0.00000000E+00  0.00000000E+00
  0.00000000E+00  0.00000000E+00  0.00000000E+00
  0.00000000E+00  0.00000000E+00  0.00000000E+00
  0.00000000E+00  0.00000000E+00  0.00000000E+00
  0.00000000E+00  0.00000000E+00  0.00000000E+00
  0.00000000E+00  0.00000000E+00  0.00000000E+00
  0.00000000E+00  0.00000000E+00  0.00000000E+00
  0.00000000E+00  0.00000000E+00  0.00000000E+00
  0.00000000E+00  0.00000000E+00  0.00000000E+00
  0.00000000E+00  0.00000000E+00  0.00000000E+00
  0.00000000E+00  0.00000000E+00  0.00000000E+00
  0.00000000E+00  0.00000000E+00  0.00000000E+00
  0.00000000E+00  0.00000000E+00  0.00000000E+00
  0.00000000E+00  0.00000000E+00  0.00000000E+00
  0.00000000E+00  0.00000000E+00  0.00000000E+00
  0.00000000E+00  0.00000000E+00  0.00000000E+00
  0.00000000E+00  0.00000000E+00  0.00000000E+00
  0.00000000E+00  0.00000000E+00  0.00000000E+00
  0.00000000E+00  0.00000000E+00  0.00000000E+00
  0.00000000E+00  0.00000000E+00  0.00000000E+00
  0.00000000E+00  0.00000000E+00  0.00000000E+00
  0.00000000E+00  0.00000000E+00  0.00000000E+00
  0.00000000E+00  0.00000000E+00  0.00000000E+00
  0.00000000E+00  0.00000000E+00  0.00000000E+00
  0.00000000E+00  0.00000000E+00  0.00000000E+00
  0.00000000E+00  0.00000000E+00  0.00000000E+00
  0.00000000E+00  0.00000000E+00  0.00000000E+00
  0.00000000E+00  0.00000000E+00  0.00000000E+00
  0.00000000E+00  0.00000000E+00  0.00000000E+00
  0.00000000E+00  0.00000000E+00  0.00000000E+00
  0.00000000E+00  0.00000000E+00  0.00000000E+00
  0.00000000E+00  0.00000000E+00  0.00000000E+00
  0.00000000E+00  0.00000000E+00  0.00000000E+00
  0.00000000E+00  0.00000000E+00  0.00000000E+00
  0.00000000E+00  0.00000000E+00  0.00000000E+00
  0.00000000E+00  0.00000000E+00  0.00000000E+00
  0.00000000E+00  0.00000000E+00  0.00000000E+00
  0.00000000E+00  0.00000000E+00  0.00000000E+00
  0.00000000E+00  0.00000000E+00  0.00000000E+00
  0.00000000E+00  0.00000000E+00  0.00000000E+00
  0.00000000E+00  0.00000000E+00  0.00000000E+00
  0.00000000E+00  0.00000000E+00  0.00000000E+00
  0.00000000E+00  0.00000000E+00  0.00000000E+00
  0.00000000E+00  0.00000000E+00  0.00000000E+00
  0.00000000E+00  0.00000000E+00  0.00000000E+00
  0.00000000E+00  0.00000000E+00  0.00000000E+00
  0.00000000E+00  0.00000000E+00  0.00000000E+00
  0.00000000E+00  0.00000000E+00  0.00000000E+00
  0.00000000E+00  0.00000000E+00  0.00000000E+00
  0.00000000E+00  0.00000000E+00  0.00000000E+00
  0.00000000E+00  0.00000000E+00  0.00000000E+00
  0.00000000E+00  0.00000000E+00  0.00000000E+00
  0.00000000E+00  0.00000000E+00  0.00000000E+00
  0.00000000E+00  0.00000000E+00  0.00000000E+00
  0.00000000E+00  0.00000000E+00  0.00000000E+00
  0.00000000E+00  0.00000000E+00  0.00000000E+00
  0.00000000E+00  0.00000000E+00  0.00000000E+00
  0.00000000E+00  0.00000000E+00  0.00000000E+00
  0.00000000E+00  0.00000000E+00  0.00000000E+00
  0.00000000E+00  0.00000000E+00  0.00000000E+00
  0.00000000E+00  0.00000000E+00  0.00000000E+00
  0.00000000E+00  0.00000000E+00  0.00000000E+00
  0.00000000E+00  0.00000000E+00  0.00000000E+00
  0.00000000E+00  0.00000000E+00  0.00000000E+00
  0.00000000E+00  0.00000000E+00  0.00000000E+00
  0.00000000E+00  0.00000000E+00  0.00000000E+00
  0.00000000E+00  0.00000000E+00  0.00000000E+00
  0.00000000E+00  0.00000000E+00  0.00000000E+00
  0.00000000E+00  0.00000000E+00  0.00000000E+00
  0.00000000E+00  0.00000000E+00  0.00000000E+00
  0.00000000E+00  0.00000000E+00  0.00000000E+00
  0.00000000E+00  0.00000000E+00  0.00000000E+00
  0.00000000E+00  0.00000000E+00  0.00000000E+00
  0.00000000E+00  0.00000000E+00  0.00000000E+00
  0.00000000E+00  0.00000000E+00  0.00000000E+00
  0.00000000E+00  0.00000000E+00  0.00000000E+00
  0.00000000E+00  0.00000000E+00  0.00000000E+00
  0.00000000E+00  0.00000000E+00  0.00000000E+00
  0.00000000E+00  0.00000000E+00  0.00000000E+00
  0.00000000E+00  0.00000000E+00  0.00000000E+00
  0.00000000E+00  0.00000000E+00  0.00000000E+00
  0.00000000E+00  0.00000000E+00  0.00000000E+00
  0.00000000E+00  0.00000000E+00  0.00000000E+00
  0.00000000E+00  0.00000000E+00  0.00000000E+00
  0.00000000E+00  0.00000000E+00  0.00000000E+00
  0.00000000E+00  0.00000000E+00  0.00000000E+00
  0.00000000E+00  0.00000000E+00  0.00000000E+00
  0.00000000E+00  0.00000000E+00  0.00000000E+00
  0.00000000E+00  0.00000000E+00  0.00000000E+00
  0.00000000E+00  0.00000000E+00  0.00000000E+00
  0.00000000E+00  0.00000000E+00  0.00000000E+00
  0.00000000E+00  0.00000000E+00  0.00000000E+00
  0.00000000E+00  0.00000000E+00  0.00000000E+00
  0.00000000E+00  0.00000000E+00  0.00000000E+00
  0.00000000E+00  0.00000000E+00  0.00000000E+00
  0.00000000E+00  0.00000000E+00  0.00000000E+00
  0.00000000E+00  0.00000000E+00  0.00000000E+00
  0.00000000E+00  0.00000000E+00  0.00000000E+00
  0.00000000E+00  0.00000000E+00  0.00000000E+00
  0.00000000E+00  0.00000000E+00  0.00000000E+00
  0.00000000E+00  0.00000000E+00  0.00000000E+00
  0.00000000E+00  0.00000000E+00  0.00000000E+00
  0.00000000E+00  0.00000000E+00  0.00000000E+00
  0.00000000E+00  0.00000000E+00  0.00000000E+00
  0.00000000E+00  0.00000000E+00  0.00000000E+00
  0.00000000E+00  0.00000000E+00  0.00000000E+00
  0.00000000E+00  0.00000000E+00  0.00000000E+00
  0.00000000E+00  0.00000000E+00  0.00000000E+00
  0.00000000E+00  0.00000000E+00  0.00000000E+00
  0.00000000E+00  0.00000000E+00  0.00000000E+00
  0.00000000E+00  0.00000000E+00  0.00000000E+00
  0.00000000E+00  0.00000000E+00  0.00000000E+00
  0.00000000E+00  0.00000000E+00  0.00000000E+00
  0.00000000E+00  0.00000000E+00  0.00000000E+00
  0.00000000E+00  0.00000000E+00  0.00000000E+00
  0.00000000E+00  0.00000000E+00  0.00000000E+00
  0.00000000E+00  0.00000000E+00  0.00000000E+00
  0.00000000E+00  0.00000000E+00  0.00000000E+00
  0.00000000E+00  0.00000000E+00  0.00000000E+00
  0.00000000E+00  0.00000000E+00  0.00000000E+00
  0.00000000E+00  0.00000000E+00  0.00000000E+00
  0.00000000E+00  0.00000000E+00  0.00000000E+00
  0.00000000E+00  0.00000000E+00  0.00000000E+00
  0.00000000E+00  0.00000000E+00  0.00000000E+00
  0.00000000E+00  0.00000000E+00  0.00000000E+00
  0.00000000E+00  0.00000000E+00  0.00000000E+00
  0.00000000E+00  0.00000000E+00  0.00000000E+00
  0.00000000E+00  0.00000000E+00  0.00000000E+00
  0.00000000E+00  0.00000000E+00  0.00000000E+00
  0.00000000E+00  0.00000000E+00  0.00000000E+00
  0.00000000E+00  0.00000000E+00  0.00000000E+00
  0.00000000E+00  0.00000000E+00  0.00000000E+00
  0.00000000E+00  0.00000000E+00  0.00000000E+00
  0.00000000E+00  0.00000000E+00  0.00000000E+00
  0.00000000E+00  0.00000000E+00  0.00000000E+00
  0.00000000E+00  0.00000000E+00  0.00000000E+00
  0.00000000E+00  0.00000000E+00  0.00000000E+00
  0.00000000E+00  0.00000000E+00  0.00000000E+00
  0.00000000E+00  0.00000000E+00  0.00000000E+00
  0.00000000E+00  0.00000000E+00  0.00000000E+00
  0.00000000E+00  0.00000000E+00  0.00000000E+00
  0.00000000E+00  0.00000000E+00  0.00000000E+00
  0.00000000E+00  0.00000000E+00  0.00000000E+00
  0.00000000E+00  0.00000000E+00  0.00000000E+00
  0.00000000E+00  0.00000000E+00  0.00000000E+00
  0.00000000E+00  0.00000000E+00  0.00000000E+00
  0.00000000E+00  0.00000000E+00  0.00000000E+00
  0.00000000E+00  0.00000000E+00  0.00000000E+00
  0.00000000E+00  0.00000000E+00  0.00000000E+00
  0.00000000E+00  0.00000000E+00  0.00000000E+00
  0.00000000E+00  0.00000000E+00  0.00000000E+00
  0.00000000E+00  0.00000000E+00  0.00000000E+00
  0.00000000E+00  0.00000000E+00  0.00000000E+00
  0.00000000E+00  0.00000000E+00  0.00000000E+00
  0.00000000E+00  0.00000000E+00  0.00000000E+00
  0.00000000E+00  0.00000000E+00  0.00000000E+00
  0.00000000E+00  0.00000000E+00  0.00000000E+00
  0.00000000E+00  0.00000000E+00  0.00000000E+00
  0.00000000E+00  0.00000000E+00  0.00000000E+00
  0.00000000E+00  0.00000000E+00  0.00000000E+00
