supercell of POSCAR                     
   1.03228000000000     
     6.3970863126299999    5.5387332920799999    4.9397337979799998
   -15.9736979067999982   -5.5365852353599996    9.8547656895600007
     6.4026568282999996  -11.0930079636999999    0.0094448205590600
   Sc   Al   N 
    32    64    95
Direct
  0.3676604961303340  0.0677492920507134  0.3110634656060398
  0.8309876938894050  0.3091273299168833  0.4339542642402563
  0.0157944757101234  0.2294296784233367  0.3035531615162341
  0.1872188773449608  0.1473316219748355  0.4369420215479138
  0.9588294331134861  0.1997915130096004  0.0542714404796669
  0.0365201367940315  0.4656600133143343  0.3705125418608333
  0.2289581066996504  0.3913411075417557  0.0037909067020010
  0.6747331333003217  0.1246477625539768  0.1228945877710643
  0.3652749921275671  0.0676373540308433  0.8075628335086620
  0.8335231508602661  0.3104579347210574  0.9338537558399693
  0.0213237220505818  0.2311008432064625  0.8033766440679031
  0.1867329428877014  0.1467778814398244  0.9350147951769685
  0.0180729203612131  0.2303893357764792  0.5674923530522946
  0.0413691579990427  0.4650088243969677  0.8690631998930343
  0.2271007441223105  0.3907976265832502  0.5079631728879335
  0.6890535122178036  0.1288415654974671  0.6180383268727780
  0.3751287429718388  0.5743662812938979  0.3101812402150870
  0.8346218329611261  0.8084885699315763  0.4337147915855155
  0.0271209501842833  0.7327741419544367  0.3051627235880829
  0.1935495268444356  0.6497423443822612  0.4383840769198883
  0.0250964815384052  0.7333729911196940  0.0673924698443145
  0.0405306128100023  0.9629531282924191  0.3702482355407639
  0.2360071326235769  0.8934019454507691  0.0050474446279054
  0.6949998853276753  0.6313405440835425  0.1189426441640222
  0.3700744208723776  0.5706211135805290  0.8092764871251177
  0.8347370028568903  0.8083538047134553  0.9337154725097037
  0.0260541479399166  0.7326002676880350  0.8049090679999367
  0.1921393449382833  0.6498071381337382  0.9377249062108106
  0.0262262698014482  0.7337680286310189  0.5678968351855147
  0.0407699490932742  0.9623406305136371  0.8690032252646631
  0.2341860864975374  0.8929936341692937  0.5047583569491962
  0.6934979256290887  0.6306007583901589  0.6192120985650789
  0.3520854097823474  0.0708564649431693  0.0633710876481217
  0.5348207858715242  0.4851335032486972  0.4367838384359075
  0.5365729479909689  0.4869441413706639  0.1906796409926272
  0.6884267027062521  0.4080797931869142  0.3140718412277153
  0.6883897794385732  0.4038081088094927  0.0602733564741698
  0.8447122536269092  0.3198582951333293  0.1825362918998010
  0.1931740535473452  0.1469218970078572  0.1857414077664288
  0.0503266089303622  0.4726165312888924  0.1221842585834310
  0.2249520423486331  0.4009315652914580  0.2765984493341094
  0.4381746242509266  0.2973904932064499  0.1303075479191378
  0.5549719091107193  0.2264304880301324  0.2521897804573285
  0.3930397515886739  0.3078475918654249  0.3746508092976342
  0.5501791348517386  0.2236488876092011  0.9988035329431284
  0.8854835857294248  0.0513547367833169  0.2475744789846459
  0.7280018244630853  0.1359251210568928  0.3771032862504171
  0.8844624206818850  0.0448456614507151  0.9998059121780543
  0.3569992084849716  0.0713736392719611  0.5639124246693044
  0.5336787435177470  0.4849842325874647  0.9332909314707791
  0.5366498699011402  0.4860284961207384  0.6919339545795609
  0.6906687270491716  0.4076557636295632  0.8099967198584253
  0.6869855968370473  0.4027514946823985  0.5646562595983156
  0.8529190434637925  0.3223099770245099  0.6833972061958278
  0.1949839616597870  0.1488501823421728  0.6846033205093747
  0.0484261693803774  0.4714697026717189  0.6223854662060333
  0.2291879346251164  0.3892220573367027  0.7489539515713375
  0.3942948309669845  0.3069676545660514  0.6287787585080338
  0.5550875209084580  0.2299137807112288  0.7461643275224148
  0.3948050571365016  0.3087179289845352  0.8720962815144162
  0.5481039253811275  0.2272945231026924  0.5053831444990919
  0.8860217925620830  0.0518649790032910  0.7459200044418921
  0.7217796985501579  0.1360978321840776  0.8690933457245862
  0.8843736115089484  0.0508905341583628  0.5012277855704497
  0.3570605407212497  0.5716110304405859  0.0634812456454128
  0.5373287806440246  0.9849390662042836  0.4358707856141564
  0.5389391230731349  0.9851343922888276  0.1948233254463219
  0.6935553851171647  0.9074088303644743  0.3121448586189786
  0.6893681530051907  0.9014824002769757  0.0651331928500838
  0.8568001330424977  0.8223820029978768  0.1841072268201955
  0.1969091818560926  0.6502613227228196  0.1855577730549385
  0.0507765033703365  0.9689767312151290  0.1238077888944247
  0.2334826038176914  0.8884881790524446  0.2492982433165096
  0.3988578553453905  0.8077033494520549  0.1292672311505854
  0.5590569983628484  0.7307542719488822  0.2471224989111178
  0.3979789985004842  0.8086093049474670  0.3744050993051289
  0.5521245057424338  0.7272985165551233  0.0045300388129661
  0.8859612307054263  0.5534594091988083  0.2469794485218841
  0.7307497954246571  0.6372750586277149  0.3751901390840544
  0.8836533618364939  0.5524163206544657  0.9996664816244163
  0.3575169208952289  0.5710155741797109  0.5629445153403552
  0.5409540504665173  0.9869657996712462  0.9361218292846161
  0.5391070930684378  0.9859503981688036  0.6916994798356981
  0.6926989665838335  0.9066848751937897  0.8099984487767244
  0.6905547650750847  0.9026488096509411  0.5642426836410053
  0.8575647748946977  0.8225688957218082  0.6837435407624426
  0.1971085739740204  0.6498629997157721  0.6852043468102096
  0.0499588966648332  0.9701649854476742  0.6222302365730172
  0.2357849965440479  0.8894897459704509  0.7497200881353905
  0.3995124748211722  0.8081044389841381  0.6293378513530783
  0.5579795720043990  0.7297530692174377  0.7474036505283124
  0.3985198506879257  0.8091955830572743  0.8744753757222909
  0.5537851888213865  0.7285625243429976  0.5061987882097796
  0.8856785194141068  0.5529846258808249  0.7466833340220660
  0.7283881695705858  0.6363235034971026  0.8745940647383605
  0.8828685413319661  0.5524278551615183  0.5011463761251846
  0.5787956173550626  0.1795617416984001  0.3670584559751973
  0.5233030094096236  0.1724899725072646  0.1100573998229279
  0.7255211754014681  0.0794990555391664  0.4781959012171839
  0.7271860640293681  0.0800123536408819  0.2467025614430725
  0.8788676798605408  0.0031578646100598  0.3609421245432785
  0.0422250638818724  0.4131233607801619  0.4917287279834852
  0.8785608728726615  0.4951818521169074  0.1099501940191061
  0.0530311612668370  0.4090779532293993  0.2208963150727641
  0.2305262997535777  0.3345143560832895  0.3535532250901383
  0.3906193755667573  0.2570824991965992  0.4863486038698497
  0.3837914089253829  0.2479629469961111  0.2374918095961576
  0.2393293451796410  0.0647737643660022  0.1648727270120034
  0.2552970114207511  0.0631342110704622  0.4282303265786496
  0.4202997119215937  0.4780572467840187  0.2934092076588968
  0.4535624111093455  0.0039353199043290  0.0591045092575513
  0.5726807565734120  0.4012893693349682  0.1706616867116040
  0.7360904192360636  0.3264371115825710  0.2872351405556941
  0.5812457487379135  0.4021277035841990  0.4235544791426236
  0.7267632146549659  0.3200409251023615  0.0566617590814644
  0.8787929496603155  0.2359053845679284  0.1726437078738741
  0.0769615335293068  0.1420983146245050  0.2836834987468890
  0.9105957212526050  0.2294266834533047  0.4219336899212252
  0.0765159306988181  0.1394334576960006  0.0553814018498429
  0.5788460889741671  0.1793987171338003  0.8646145440889654
  0.5283744100208807  0.1713980839236129  0.6099098713075435
  0.7386248949564163  0.0866610566591675  0.9831291643774875
  0.7279185083308306  0.0805332241956265  0.7441690761006399
  0.8783521598627502  0.0024044411943507  0.8593394388375160
  0.0483939255995125  0.4131160289461207  0.9947124750617604
  0.8776883161828763  0.4954780181757172  0.6091463281716898
  0.0579064678942700  0.4117502945248646  0.7225926114246377
  0.2347416702352660  0.3371174483791819  0.8590291876502363
  0.3924669798694822  0.2560561677341724  0.9847172020939965
  0.2338677133199027  0.3317497786928669  0.6224985103822220
  0.3850089396773768  0.2492207953244829  0.7374295559875463
  0.2387949819454604  0.0655147813067956  0.6628471370520472
  0.2557346129729368  0.0632513122308040  0.9270818512443597
  0.4246302472062951  0.4800436058712378  0.7969644004519552
  0.4492252745511465  0.0015929058475663  0.5586517964173083
  0.5799895852748023  0.4030797521674359  0.6731476936633953
  0.7434588613781585  0.3273612621384459  0.7890686066680672
  0.5839718536645009  0.4026058117299769  0.9227663295843698
  0.7306379615763774  0.3207871293598288  0.5577490832638006
  0.8882408685141243  0.2382006391106870  0.6723771174911448
  0.0781445215420646  0.1421130685676175  0.7840945718371373
  0.9134626096154648  0.2307697136012692  0.9217775102739907
  0.0742435795375442  0.1421983756757825  0.5559926732641074
  0.5840208819263424  0.6820704238846247  0.3669283147661986
  0.5302194134209230  0.6705167180788578  0.1099430009058082
  0.7199946701511308  0.5783855870581647  0.4750390932047708
  0.7228187770343197  0.5788029806276995  0.2430499313473149
  0.8715141934970845  0.5024094783602990  0.3589795233616826
  0.0457667198227085  0.9122302545216456  0.4939407961096478
  0.8812271779301355  0.9941411500474402  0.1115756816778060
  0.0624412777937309  0.9113309003995411  0.2244964620471990
  0.2389241264076105  0.8362881150839883  0.3564864191397064
  0.3964271408283153  0.7578301083495376  0.4876966324562417
  0.2410805806689709  0.8342497272222502  0.1208969277555667
  0.3878876419271435  0.7492600176230724  0.2372071695528888
  0.2394751133456197  0.5655873359499637  0.1638785095292192
  0.2556230866584954  0.5616601323559536  0.4249303177190384
  0.4288321429466393  0.9803158329831874  0.2990802978985769
  0.4392561633949512  0.4965622501502907  0.0560869923411715
  0.5849296469644543  0.9038022090213147  0.1746051828746218
  0.7468910301025105  0.8276769491973894  0.2887048134554320
  0.5883448087008958  0.9030487236066520  0.4246035357277407
  0.7349322447763811  0.8204937577108211  0.0583907345730950
  0.8929121971012748  0.7383833107546707  0.1718860331398204
  0.0796151779507213  0.6413191740034279  0.2852030979074698
  0.9145489434081284  0.7283204562630914  0.4207790232197510
  0.0748407805361140  0.6423303869639412  0.0559763147032584
  0.5814433636410712  0.6807674172680080  0.8663223886812119
  0.5295723035189397  0.6706595954098376  0.6093671023602667
  0.7213358114036197  0.5784463973890865  0.9764145727745515
  0.7246374402999365  0.5796064862615395  0.7434556814559059
  0.8762493374987415  0.5027193590045016  0.8597305442739582
  0.0476330503186944  0.9128415208372616  0.9941974626169170
  0.8811155690494346  0.9954294054465009  0.6104842653550904
  0.0644267340920592  0.9123399854777077  0.7239477720565759
  0.2398135321592818  0.8371409088718167  0.8567928074640889
  0.3970208939357676  0.7583948200157877  0.9876037498565466
  0.2419592577652807  0.8346908702695117  0.6217762754656491
  0.3888233626474502  0.7499628344048261  0.7375345944535923
  0.2389943788361890  0.5653368380918309  0.6619778463278720
  0.2563601389003622  0.5635837634790448  0.9275513945146301
  0.4338753747034048  0.9826739271371991  0.8002797243817383
  0.4427251035363327  0.4983885754369339  0.5557965373775104
  0.5851617942333007  0.9042203969600351  0.6738991411882935
  0.7472179376667611  0.8274426883075918  0.7887020793577832
  0.5912980693988175  0.9052143729183086  0.9255605811112986
  0.7359146508902157  0.8214398065929416  0.5588695141655293
  0.8926499472126679  0.7383655040430881  0.6712583363533398
  0.0797525876901162  0.6418015558256940  0.7844069846706034
  0.9132511104576082  0.7279775854916011  0.9206056231568951
  0.0747227579680469  0.6422004795925105  0.5550620993721864
 
  0.00000000E+00  0.00000000E+00  0.00000000E+00
  0.00000000E+00  0.00000000E+00  0.00000000E+00
  0.00000000E+00  0.00000000E+00  0.00000000E+00
  0.00000000E+00  0.00000000E+00  0.00000000E+00
  0.00000000E+00  0.00000000E+00  0.00000000E+00
  0.00000000E+00  0.00000000E+00  0.00000000E+00
  0.00000000E+00  0.00000000E+00  0.00000000E+00
  0.00000000E+00  0.00000000E+00  0.00000000E+00
  0.00000000E+00  0.00000000E+00  0.00000000E+00
  0.00000000E+00  0.00000000E+00  0.00000000E+00
  0.00000000E+00  0.00000000E+00  0.00000000E+00
  0.00000000E+00  0.00000000E+00  0.00000000E+00
  0.00000000E+00  0.00000000E+00  0.00000000E+00
  0.00000000E+00  0.00000000E+00  0.00000000E+00
  0.00000000E+00  0.00000000E+00  0.00000000E+00
  0.00000000E+00  0.00000000E+00  0.00000000E+00
  0.00000000E+00  0.00000000E+00  0.00000000E+00
  0.00000000E+00  0.00000000E+00  0.00000000E+00
  0.00000000E+00  0.00000000E+00  0.00000000E+00
  0.00000000E+00  0.00000000E+00  0.00000000E+00
  0.00000000E+00  0.00000000E+00  0.00000000E+00
  0.00000000E+00  0.00000000E+00  0.00000000E+00
  0.00000000E+00  0.00000000E+00  0.00000000E+00
  0.00000000E+00  0.00000000E+00  0.00000000E+00
  0.00000000E+00  0.00000000E+00  0.00000000E+00
  0.00000000E+00  0.00000000E+00  0.00000000E+00
  0.00000000E+00  0.00000000E+00  0.00000000E+00
  0.00000000E+00  0.00000000E+00  0.00000000E+00
  0.00000000E+00  0.00000000E+00  0.00000000E+00
  0.00000000E+00  0.00000000E+00  0.00000000E+00
  0.00000000E+00  0.00000000E+00  0.00000000E+00
  0.00000000E+00  0.00000000E+00  0.00000000E+00
  0.00000000E+00  0.00000000E+00  0.00000000E+00
  0.00000000E+00  0.00000000E+00  0.00000000E+00
  0.00000000E+00  0.00000000E+00  0.00000000E+00
  0.00000000E+00  0.00000000E+00  0.00000000E+00
  0.00000000E+00  0.00000000E+00  0.00000000E+00
  0.00000000E+00  0.00000000E+00  0.00000000E+00
  0.00000000E+00  0.00000000E+00  0.00000000E+00
  0.00000000E+00  0.00000000E+00  0.00000000E+00
  0.00000000E+00  0.00000000E+00  0.00000000E+00
  0.00000000E+00  0.00000000E+00  0.00000000E+00
  0.00000000E+00  0.00000000E+00  0.00000000E+00
  0.00000000E+00  0.00000000E+00  0.00000000E+00
  0.00000000E+00  0.00000000E+00  0.00000000E+00
  0.00000000E+00  0.00000000E+00  0.00000000E+00
  0.00000000E+00  0.00000000E+00  0.00000000E+00
  0.00000000E+00  0.00000000E+00  0.00000000E+00
  0.00000000E+00  0.00000000E+00  0.00000000E+00
  0.00000000E+00  0.00000000E+00  0.00000000E+00
  0.00000000E+00  0.00000000E+00  0.00000000E+00
  0.00000000E+00  0.00000000E+00  0.00000000E+00
  0.00000000E+00  0.00000000E+00  0.00000000E+00
  0.00000000E+00  0.00000000E+00  0.00000000E+00
  0.00000000E+00  0.00000000E+00  0.00000000E+00
  0.00000000E+00  0.00000000E+00  0.00000000E+00
  0.00000000E+00  0.00000000E+00  0.00000000E+00
  0.00000000E+00  0.00000000E+00  0.00000000E+00
  0.00000000E+00  0.00000000E+00  0.00000000E+00
  0.00000000E+00  0.00000000E+00  0.00000000E+00
  0.00000000E+00  0.00000000E+00  0.00000000E+00
  0.00000000E+00  0.00000000E+00  0.00000000E+00
  0.00000000E+00  0.00000000E+00  0.00000000E+00
  0.00000000E+00  0.00000000E+00  0.00000000E+00
  0.00000000E+00  0.00000000E+00  0.00000000E+00
  0.00000000E+00  0.00000000E+00  0.00000000E+00
  0.00000000E+00  0.00000000E+00  0.00000000E+00
  0.00000000E+00  0.00000000E+00  0.00000000E+00
  0.00000000E+00  0.00000000E+00  0.00000000E+00
  0.00000000E+00  0.00000000E+00  0.00000000E+00
  0.00000000E+00  0.00000000E+00  0.00000000E+00
  0.00000000E+00  0.00000000E+00  0.00000000E+00
  0.00000000E+00  0.00000000E+00  0.00000000E+00
  0.00000000E+00  0.00000000E+00  0.00000000E+00
  0.00000000E+00  0.00000000E+00  0.00000000E+00
  0.00000000E+00  0.00000000E+00  0.00000000E+00
  0.00000000E+00  0.00000000E+00  0.00000000E+00
  0.00000000E+00  0.00000000E+00  0.00000000E+00
  0.00000000E+00  0.00000000E+00  0.00000000E+00
  0.00000000E+00  0.00000000E+00  0.00000000E+00
  0.00000000E+00  0.00000000E+00  0.00000000E+00
  0.00000000E+00  0.00000000E+00  0.00000000E+00
  0.00000000E+00  0.00000000E+00  0.00000000E+00
  0.00000000E+00  0.00000000E+00  0.00000000E+00
  0.00000000E+00  0.00000000E+00  0.00000000E+00
  0.00000000E+00  0.00000000E+00  0.00000000E+00
  0.00000000E+00  0.00000000E+00  0.00000000E+00
  0.00000000E+00  0.00000000E+00  0.00000000E+00
  0.00000000E+00  0.00000000E+00  0.00000000E+00
  0.00000000E+00  0.00000000E+00  0.00000000E+00
  0.00000000E+00  0.00000000E+00  0.00000000E+00
  0.00000000E+00  0.00000000E+00  0.00000000E+00
  0.00000000E+00  0.00000000E+00  0.00000000E+00
  0.00000000E+00  0.00000000E+00  0.00000000E+00
  0.00000000E+00  0.00000000E+00  0.00000000E+00
  0.00000000E+00  0.00000000E+00  0.00000000E+00
  0.00000000E+00  0.00000000E+00  0.00000000E+00
  0.00000000E+00  0.00000000E+00  0.00000000E+00
  0.00000000E+00  0.00000000E+00  0.00000000E+00
  0.00000000E+00  0.00000000E+00  0.00000000E+00
  0.00000000E+00  0.00000000E+00  0.00000000E+00
  0.00000000E+00  0.00000000E+00  0.00000000E+00
  0.00000000E+00  0.00000000E+00  0.00000000E+00
  0.00000000E+00  0.00000000E+00  0.00000000E+00
  0.00000000E+00  0.00000000E+00  0.00000000E+00
  0.00000000E+00  0.00000000E+00  0.00000000E+00
  0.00000000E+00  0.00000000E+00  0.00000000E+00
  0.00000000E+00  0.00000000E+00  0.00000000E+00
  0.00000000E+00  0.00000000E+00  0.00000000E+00
  0.00000000E+00  0.00000000E+00  0.00000000E+00
  0.00000000E+00  0.00000000E+00  0.00000000E+00
  0.00000000E+00  0.00000000E+00  0.00000000E+00
  0.00000000E+00  0.00000000E+00  0.00000000E+00
  0.00000000E+00  0.00000000E+00  0.00000000E+00
  0.00000000E+00  0.00000000E+00  0.00000000E+00
  0.00000000E+00  0.00000000E+00  0.00000000E+00
  0.00000000E+00  0.00000000E+00  0.00000000E+00
  0.00000000E+00  0.00000000E+00  0.00000000E+00
  0.00000000E+00  0.00000000E+00  0.00000000E+00
  0.00000000E+00  0.00000000E+00  0.00000000E+00
  0.00000000E+00  0.00000000E+00  0.00000000E+00
  0.00000000E+00  0.00000000E+00  0.00000000E+00
  0.00000000E+00  0.00000000E+00  0.00000000E+00
  0.00000000E+00  0.00000000E+00  0.00000000E+00
  0.00000000E+00  0.00000000E+00  0.00000000E+00
  0.00000000E+00  0.00000000E+00  0.00000000E+00
  0.00000000E+00  0.00000000E+00  0.00000000E+00
  0.00000000E+00  0.00000000E+00  0.00000000E+00
  0.00000000E+00  0.00000000E+00  0.00000000E+00
  0.00000000E+00  0.00000000E+00  0.00000000E+00
  0.00000000E+00  0.00000000E+00  0.00000000E+00
  0.00000000E+00  0.00000000E+00  0.00000000E+00
  0.00000000E+00  0.00000000E+00  0.00000000E+00
  0.00000000E+00  0.00000000E+00  0.00000000E+00
  0.00000000E+00  0.00000000E+00  0.00000000E+00
  0.00000000E+00  0.00000000E+00  0.00000000E+00
  0.00000000E+00  0.00000000E+00  0.00000000E+00
  0.00000000E+00  0.00000000E+00  0.00000000E+00
  0.00000000E+00  0.00000000E+00  0.00000000E+00
  0.00000000E+00  0.00000000E+00  0.00000000E+00
  0.00000000E+00  0.00000000E+00  0.00000000E+00
  0.00000000E+00  0.00000000E+00  0.00000000E+00
  0.00000000E+00  0.00000000E+00  0.00000000E+00
  0.00000000E+00  0.00000000E+00  0.00000000E+00
  0.00000000E+00  0.00000000E+00  0.00000000E+00
  0.00000000E+00  0.00000000E+00  0.00000000E+00
  0.00000000E+00  0.00000000E+00  0.00000000E+00
  0.00000000E+00  0.00000000E+00  0.00000000E+00
  0.00000000E+00  0.00000000E+00  0.00000000E+00
  0.00000000E+00  0.00000000E+00  0.00000000E+00
  0.00000000E+00  0.00000000E+00  0.00000000E+00
  0.00000000E+00  0.00000000E+00  0.00000000E+00
  0.00000000E+00  0.00000000E+00  0.00000000E+00
  0.00000000E+00  0.00000000E+00  0.00000000E+00
  0.00000000E+00  0.00000000E+00  0.00000000E+00
  0.00000000E+00  0.00000000E+00  0.00000000E+00
  0.00000000E+00  0.00000000E+00  0.00000000E+00
  0.00000000E+00  0.00000000E+00  0.00000000E+00
  0.00000000E+00  0.00000000E+00  0.00000000E+00
  0.00000000E+00  0.00000000E+00  0.00000000E+00
  0.00000000E+00  0.00000000E+00  0.00000000E+00
  0.00000000E+00  0.00000000E+00  0.00000000E+00
  0.00000000E+00  0.00000000E+00  0.00000000E+00
  0.00000000E+00  0.00000000E+00  0.00000000E+00
  0.00000000E+00  0.00000000E+00  0.00000000E+00
  0.00000000E+00  0.00000000E+00  0.00000000E+00
  0.00000000E+00  0.00000000E+00  0.00000000E+00
  0.00000000E+00  0.00000000E+00  0.00000000E+00
  0.00000000E+00  0.00000000E+00  0.00000000E+00
  0.00000000E+00  0.00000000E+00  0.00000000E+00
  0.00000000E+00  0.00000000E+00  0.00000000E+00
  0.00000000E+00  0.00000000E+00  0.00000000E+00
  0.00000000E+00  0.00000000E+00  0.00000000E+00
  0.00000000E+00  0.00000000E+00  0.00000000E+00
  0.00000000E+00  0.00000000E+00  0.00000000E+00
  0.00000000E+00  0.00000000E+00  0.00000000E+00
  0.00000000E+00  0.00000000E+00  0.00000000E+00
  0.00000000E+00  0.00000000E+00  0.00000000E+00
  0.00000000E+00  0.00000000E+00  0.00000000E+00
  0.00000000E+00  0.00000000E+00  0.00000000E+00
  0.00000000E+00  0.00000000E+00  0.00000000E+00
  0.00000000E+00  0.00000000E+00  0.00000000E+00
  0.00000000E+00  0.00000000E+00  0.00000000E+00
  0.00000000E+00  0.00000000E+00  0.00000000E+00
  0.00000000E+00  0.00000000E+00  0.00000000E+00
  0.00000000E+00  0.00000000E+00  0.00000000E+00
  0.00000000E+00  0.00000000E+00  0.00000000E+00
  0.00000000E+00  0.00000000E+00  0.00000000E+00
  0.00000000E+00  0.00000000E+00  0.00000000E+00
  0.00000000E+00  0.00000000E+00  0.00000000E+00
  0.00000000E+00  0.00000000E+00  0.00000000E+00
