supercell of POSCAR                     
   1.03228000000000     
     6.3970863126299999    5.5387332920799999    4.9397337979799998
   -15.9736979067999982   -5.5365852353599996    9.8547656895600007
     6.4026568282999996  -11.0930079636999999    0.0094448205590600
   Sc   Al   N 
    31    64    96
Direct
  0.3691356945366380  0.0701205390548481  0.3096608519443365
  0.8357601408119493  0.3081077604072604  0.4336094650074145
  0.0303099524858865  0.2348396801600856  0.3039763655938614
  0.1918667171684945  0.1499557817358053  0.4383794670358085
  0.0304352163086747  0.2397896541437845  0.0658379682630255
  0.0416118431108856  0.4637971772234692  0.3701515013675447
  0.6947924561801955  0.1306803705453419  0.1186526906952210
  0.3647888868299916  0.0685840539421960  0.8096870951239481
  0.8371328774998332  0.3109009419325375  0.9355615371665209
  0.0315835700562630  0.2387553606411501  0.8109564799063591
  0.1892388554716575  0.1499686791206614  0.9382855132633168
  0.0289877695897260  0.2352879017509153  0.5701548051724643
  0.0493454634006198  0.4615311328516256  0.8741413618130238
  0.2365890163102975  0.3952428209382148  0.5053285598465393
  0.6948777732100950  0.1301633702266400  0.6200341730353287
  0.3698329111382748  0.5694159357729234  0.3098314111763756
  0.8297290316736579  0.8082846331399551  0.4330694069226908
  0.0171184327484468  0.7288394237163018  0.3028097538145786
  0.1891339296085803  0.6477139402983951  0.4375740090448232
  0.0165193668811696  0.7287307383111354  0.0664358832596434
  0.0388576098972422  0.9642316185596513  0.3695510875034032
  0.2253293441887791  0.8897660485384904  0.0033791904901221
  0.6855494535253754  0.6254157934143763  0.1169425246184943
  0.3710254588430573  0.5695279493371999  0.8108326799711705
  0.8293185629600046  0.8075893171893256  0.9334529385555257
  0.0192891520321794  0.7291803136761601  0.8034342019974474
  0.1886254735813111  0.6459058865725567  0.9380391383142381
  0.0179974106833782  0.7302748130268810  0.5669648366802065
  0.0373553494854235  0.9639921099239643  0.8701905614941055
  0.2258958584165143  0.8900876809861131  0.5029684517176420
  0.6894766042688119  0.6282706762252843  0.6189256240558123
  0.3559837128101222  0.0706733379577358  0.0638586417853588
  0.5378604321161333  0.4855907548118807  0.4344331615223922
  0.5318777815493618  0.4843469016337139  0.1865936465472942
  0.6922307050234195  0.4072386753274202  0.3105983681089626
  0.6907362059637308  0.4024134636257344  0.0649107091101726
  0.8561831045783208  0.3225878816285714  0.1838799665984610
  0.1959144658180776  0.1507575025703574  0.1849026233100446
  0.0507965076332795  0.4694084546821529  0.1223108301703206
  0.2352089100224291  0.3893665140430258  0.2466717830576144
  0.3960084453019732  0.3087444643080701  0.1282606391160783
  0.5578787837242629  0.2293911890416425  0.2475826322845833
  0.3978169642623541  0.3088032620280501  0.3741373501639060
  0.5494441045764660  0.2266150720682134  0.0044947185352129
  0.8846917231957931  0.0529755944092543  0.2470218130916635
  0.7301409836663950  0.1362869783735761  0.3752302916567913
  0.8821351042249148  0.0530233766905113  0.0008589696736010
  0.3566745913097549  0.0707928834787097  0.5636250738728208
  0.5303131233228058  0.4831243002104557  0.9387035153330814
  0.5414029304532875  0.4865209579544398  0.6940682512941763
  0.6965856520442699  0.4071452304544536  0.8132794312140774
  0.6907875999531043  0.4023794951442810  0.5645169017701122
  0.8567046062890853  0.3221608111989198  0.6842029270832413
  0.1959244096052259  0.1506941640909147  0.6866509288621856
  0.0509372982077991  0.4696286798792855  0.6235837890632325
  0.2365828498496043  0.3887249923576022  0.7495798437953809
  0.4006302457144884  0.3082284305801792  0.6302177809505025
  0.5567118249944443  0.2284374448481117  0.7475072494470751
  0.3947895942050934  0.3091046846373828  0.8742692264302647
  0.5527889065410108  0.2270765926797296  0.5052446442958853
  0.8840960086844802  0.0537940534504457  0.7477293102721134
  0.7240804190386427  0.1351733352040441  0.8743312744352281
  0.8828245093295450  0.0519687186623514  0.5007989321489390
  0.3582904213423959  0.5662589581346467  0.0637268739528025
  0.5319922657523506  0.9843595802608078  0.4344864138837181
  0.5339244135085934  0.9853236348357868  0.1912199365591931
  0.6884381004718421  0.9069075151345700  0.3107378448324596
  0.6857714061794766  0.9022836222390325  0.0638358360472608
  0.8516599187158675  0.8214163794940674  0.1832752287411523
  0.1958386529714602  0.6477425553214360  0.1854096913560284
  0.0471928852954946  0.9707448287382690  0.1225923831974853
  0.2268399107227026  0.8871053244033575  0.2476771123901642
  0.3928303868971028  0.8060685099143043  0.1283461979404166
  0.5542568775849404  0.7288242913426046  0.2464762755621450
  0.3915254147419134  0.8070090731236377  0.3732156556862805
  0.5478026307743633  0.7262317819781359  0.0059309155995777
  0.8848483467415988  0.5517872420321908  0.2475505134634730
  0.7277159565861098  0.6358448719235668  0.3751173341496354
  0.8841890702836537  0.5490080046990968  0.0006311930566554
  0.3590359442108806  0.5721394613527977  0.5648190536381037
  0.5305448413128317  0.9836073066541857  0.9344304929281009
  0.5326320018134609  0.9847061375827479  0.6912285521235972
  0.6884535669132461  0.9072324677781864  0.8111965884819270
  0.6858966596828608  0.9025972472068418  0.5641621642897974
  0.8523409349794520  0.8221542082836422  0.6837402434515667
  0.1958644138257810  0.6484924229664486  0.6856494838113818
  0.0471851339765976  0.9708499376442319  0.6224784261199900
  0.2271409682871877  0.8872767386103604  0.7480534280407909
  0.3935090500931224  0.8064203604514191  0.6286141606615629
  0.5554210368809649  0.7295079345612550  0.7478796458091495
  0.3914697487411800  0.8065902511661491  0.8737539472906235
  0.5492513664857483  0.7272462967667366  0.5048180456794213
  0.8884367023660644  0.5510103759255500  0.7479860604094597
  0.7289378284678065  0.6351259448707154  0.8754762230712814
  0.8845851937052416  0.5506387737078029  0.5013471893756787
  0.5821830543378113  0.1798494619793303  0.3669569504515309
  0.5291063619017535  0.1695583543249555  0.1101569052926124
  0.7203995208883214  0.0776507181171127  0.4758781930634086
  0.7226330019960372  0.0787239272944191  0.2432828937425100
  0.8740939638422631  0.0024233108143505  0.3597230134904947
  0.0446318041577953  0.4125859316376861  0.4934344680752574
  0.8803214529945080  0.4960245234409655  0.1132572071063009
  0.0613669614903074  0.4117967413273362  0.2260481097813809
  0.2421418559788577  0.3387597052605429  0.3603354180212293
  0.3972699856926170  0.2576006694188422  0.4877707436481415
  0.2405074262917140  0.3299921119447973  0.1308263536784722
  0.3892753466131467  0.2482651987011266  0.2391188466212739
  0.2371329645139753  0.0651884825563158  0.1632211505287415
  0.2549486925926701  0.0632800359732570  0.4274220324512186
  0.4312642616300195  0.4824556302409491  0.2991558049389837
  0.4404104960568844  0.9976568877617495  0.0565446687776188
  0.5851576953591362  0.4042079401761214  0.1743466868485655
  0.7455305316202114  0.3269871473135950  0.2896035408665583
  0.5888985239181466  0.4035124002608441  0.4248417393281301
  0.7304263007121179  0.3192611418197657  0.0597279238548722
  0.8913149680939370  0.2383968723015215  0.1719680003326971
  0.0787635005248575  0.1417142343125306  0.2851198022858554
  0.9155572086532615  0.2276105927473253  0.4206578881231380
  0.0718106841305541  0.1433267197208679  0.0561801454246549
  0.5725767040022163  0.1773143509410602  0.8650898245872085
  0.5300018648858469  0.1695301601527177  0.6090498635378125
  0.7168445255425411  0.0763968179976047  0.9752674890173481
  0.7193262384449284  0.0772678556523374  0.7429912183552574
  0.8734388572341061  0.0026039773724662  0.8599915378206262
  0.0274987614322058  0.4130449994309657  0.9933597168613133
  0.8817861674512741  0.4951908132723162  0.6104279887425577
  0.0621081913898252  0.4105158068206620  0.7216863918409118
  0.2396916418402313  0.3324242704091134  0.8435957931413824
  0.3941134160910664  0.2566210128100934  0.9871656590176130
  0.2445832498971683  0.3356928290395516  0.6174520014306779
  0.3884537988169541  0.2481654273122871  0.7355335295375838
  0.2368635272633526  0.0651134225408612  0.6624809271728154
  0.2523662767627215  0.0628028980726185  0.9284344511517304
  0.4319916997364004  0.4823371868895663  0.7986239894217491
  0.4409146141175597  0.9977674470761357  0.5559232360665405
  0.5872493202425204  0.4044812335853720  0.6750069173519364
  0.7424609914222060  0.3249501104319492  0.7861237336092941
  0.5899227413463066  0.4030071608217156  0.9250420332881504
  0.7348522548101784  0.3205849635464091  0.5576091470828075
  0.8910764042138553  0.2376818295263305  0.6705607467588166
  0.0767758734755759  0.1423424851047486  0.7849142531704203
  0.9028963975585640  0.2255006372136350  0.9185507162117332
  0.0738715822038074  0.1422668384154164  0.5557342871576267
  0.5804513454619595  0.6813442675405881  0.3677898004034077
  0.5284295258169962  0.6713867047746547  0.1107660167526632
  0.7272876012137530  0.5801990350415380  0.4785882238048487
  0.7300592508260095  0.5812372812217106  0.2471327290188441
  0.8784386778970941  0.5028980703771992  0.3615080960511037
  0.0410911024957130  0.9125969711449429  0.4931071674244123
  0.8768189173166050  0.9953234859127420  0.1098868981206991
  0.0568602884916345  0.9113602254025537  0.2232004722231054
  0.2312875086903716  0.8341388123501403  0.3546157209710259
  0.3920919207979168  0.7569756291430423  0.4873442661371143
  0.2328056408916694  0.8312075633687428  0.1200476712951897
  0.3849707383257481  0.7489544486111726  0.2374152575973909
  0.2414073140575752  0.5653500217831962  0.1646112256958290
  0.2576977648089525  0.5637320305933571  0.4290242549283363
  0.4227063787878222  0.9791716436950608  0.2969527127363563
  0.4689608523246562  0.5106307369553491  0.0625284756657933
  0.5787253605105249  0.9027096429141679  0.1731910808824750
  0.7421203429474872  0.8272340451384750  0.2883901223677157
  0.5822609666945695  0.9018204311017541  0.4235141898045285
  0.7301046494651828  0.8206945095910498  0.0580669167751893
  0.8890064776410895  0.7383446761616028  0.1713218409157804
  0.0800699352055716  0.6415259342948474  0.2855307235156701
  0.9113778148962481  0.7294713691270402  0.4219180823597739
  0.0750379038765701  0.6412103612514315  0.0568431400019023
  0.5813905079378543  0.6812184776145997  0.8665752847253430
  0.5300912953720172  0.6719478543486446  0.6106888072429015
  0.7287643973268629  0.5792895445676436  0.9761274276638900
  0.7313762692227854  0.5809489073149052  0.7446214518396772
  0.8832156388591770  0.5025119061669656  0.8603680648930165
  0.0404152030616274  0.9121324595870846  0.9933592680808303
  0.8768680498170340  0.9953926834149627  0.6101344161219444
  0.0570521395794543  0.9114751782512514  0.7233910766385989
  0.2315853367576608  0.8340898511161257  0.8545952534023158
  0.3909864346932395  0.7564457445247683  0.9870691675166583
  0.2335500376489819  0.8316356874625086  0.6201546036407777
  0.3850541355142525  0.7487043950641166  0.7369937426581430
  0.2405516959669214  0.5654082911404856  0.6636337496096942
  0.2616737334695145  0.5644155128615154  0.9293069453312839
  0.4215632361063371  0.9785506850236914  0.7968854299529582
  0.4530687779247273  0.5033536060340325  0.5595495709471976
  0.5785603360827452  0.9024425177373914  0.6732486950669525
  0.7424674520890377  0.8274050129911217  0.7886038700128708
  0.5815152235916656  0.9012537006483257  0.9233471001650955
  0.7310103146817823  0.8211554606351399  0.5583830382810859
  0.8881989119667963  0.7382044782297257  0.6716445817577750
  0.0804489235592456  0.6414080109813440  0.7850310680838390
  0.9118230775835201  0.7290510991638541  0.9208072444876194
  0.0748481122642488  0.6420047276113579  0.5566783525426260
 
  0.00000000E+00  0.00000000E+00  0.00000000E+00
  0.00000000E+00  0.00000000E+00  0.00000000E+00
  0.00000000E+00  0.00000000E+00  0.00000000E+00
  0.00000000E+00  0.00000000E+00  0.00000000E+00
  0.00000000E+00  0.00000000E+00  0.00000000E+00
  0.00000000E+00  0.00000000E+00  0.00000000E+00
  0.00000000E+00  0.00000000E+00  0.00000000E+00
  0.00000000E+00  0.00000000E+00  0.00000000E+00
  0.00000000E+00  0.00000000E+00  0.00000000E+00
  0.00000000E+00  0.00000000E+00  0.00000000E+00
  0.00000000E+00  0.00000000E+00  0.00000000E+00
  0.00000000E+00  0.00000000E+00  0.00000000E+00
  0.00000000E+00  0.00000000E+00  0.00000000E+00
  0.00000000E+00  0.00000000E+00  0.00000000E+00
  0.00000000E+00  0.00000000E+00  0.00000000E+00
  0.00000000E+00  0.00000000E+00  0.00000000E+00
  0.00000000E+00  0.00000000E+00  0.00000000E+00
  0.00000000E+00  0.00000000E+00  0.00000000E+00
  0.00000000E+00  0.00000000E+00  0.00000000E+00
  0.00000000E+00  0.00000000E+00  0.00000000E+00
  0.00000000E+00  0.00000000E+00  0.00000000E+00
  0.00000000E+00  0.00000000E+00  0.00000000E+00
  0.00000000E+00  0.00000000E+00  0.00000000E+00
  0.00000000E+00  0.00000000E+00  0.00000000E+00
  0.00000000E+00  0.00000000E+00  0.00000000E+00
  0.00000000E+00  0.00000000E+00  0.00000000E+00
  0.00000000E+00  0.00000000E+00  0.00000000E+00
  0.00000000E+00  0.00000000E+00  0.00000000E+00
  0.00000000E+00  0.00000000E+00  0.00000000E+00
  0.00000000E+00  0.00000000E+00  0.00000000E+00
  0.00000000E+00  0.00000000E+00  0.00000000E+00
  0.00000000E+00  0.00000000E+00  0.00000000E+00
  0.00000000E+00  0.00000000E+00  0.00000000E+00
  0.00000000E+00  0.00000000E+00  0.00000000E+00
  0.00000000E+00  0.00000000E+00  0.00000000E+00
  0.00000000E+00  0.00000000E+00  0.00000000E+00
  0.00000000E+00  0.00000000E+00  0.00000000E+00
  0.00000000E+00  0.00000000E+00  0.00000000E+00
  0.00000000E+00  0.00000000E+00  0.00000000E+00
  0.00000000E+00  0.00000000E+00  0.00000000E+00
  0.00000000E+00  0.00000000E+00  0.00000000E+00
  0.00000000E+00  0.00000000E+00  0.00000000E+00
  0.00000000E+00  0.00000000E+00  0.00000000E+00
  0.00000000E+00  0.00000000E+00  0.00000000E+00
  0.00000000E+00  0.00000000E+00  0.00000000E+00
  0.00000000E+00  0.00000000E+00  0.00000000E+00
  0.00000000E+00  0.00000000E+00  0.00000000E+00
  0.00000000E+00  0.00000000E+00  0.00000000E+00
  0.00000000E+00  0.00000000E+00  0.00000000E+00
  0.00000000E+00  0.00000000E+00  0.00000000E+00
  0.00000000E+00  0.00000000E+00  0.00000000E+00
  0.00000000E+00  0.00000000E+00  0.00000000E+00
  0.00000000E+00  0.00000000E+00  0.00000000E+00
  0.00000000E+00  0.00000000E+00  0.00000000E+00
  0.00000000E+00  0.00000000E+00  0.00000000E+00
  0.00000000E+00  0.00000000E+00  0.00000000E+00
  0.00000000E+00  0.00000000E+00  0.00000000E+00
  0.00000000E+00  0.00000000E+00  0.00000000E+00
  0.00000000E+00  0.00000000E+00  0.00000000E+00
  0.00000000E+00  0.00000000E+00  0.00000000E+00
  0.00000000E+00  0.00000000E+00  0.00000000E+00
  0.00000000E+00  0.00000000E+00  0.00000000E+00
  0.00000000E+00  0.00000000E+00  0.00000000E+00
  0.00000000E+00  0.00000000E+00  0.00000000E+00
  0.00000000E+00  0.00000000E+00  0.00000000E+00
  0.00000000E+00  0.00000000E+00  0.00000000E+00
  0.00000000E+00  0.00000000E+00  0.00000000E+00
  0.00000000E+00  0.00000000E+00  0.00000000E+00
  0.00000000E+00  0.00000000E+00  0.00000000E+00
  0.00000000E+00  0.00000000E+00  0.00000000E+00
  0.00000000E+00  0.00000000E+00  0.00000000E+00
  0.00000000E+00  0.00000000E+00  0.00000000E+00
  0.00000000E+00  0.00000000E+00  0.00000000E+00
  0.00000000E+00  0.00000000E+00  0.00000000E+00
  0.00000000E+00  0.00000000E+00  0.00000000E+00
  0.00000000E+00  0.00000000E+00  0.00000000E+00
  0.00000000E+00  0.00000000E+00  0.00000000E+00
  0.00000000E+00  0.00000000E+00  0.00000000E+00
  0.00000000E+00  0.00000000E+00  0.00000000E+00
  0.00000000E+00  0.00000000E+00  0.00000000E+00
  0.00000000E+00  0.00000000E+00  0.00000000E+00
  0.00000000E+00  0.00000000E+00  0.00000000E+00
  0.00000000E+00  0.00000000E+00  0.00000000E+00
  0.00000000E+00  0.00000000E+00  0.00000000E+00
  0.00000000E+00  0.00000000E+00  0.00000000E+00
  0.00000000E+00  0.00000000E+00  0.00000000E+00
  0.00000000E+00  0.00000000E+00  0.00000000E+00
  0.00000000E+00  0.00000000E+00  0.00000000E+00
  0.00000000E+00  0.00000000E+00  0.00000000E+00
  0.00000000E+00  0.00000000E+00  0.00000000E+00
  0.00000000E+00  0.00000000E+00  0.00000000E+00
  0.00000000E+00  0.00000000E+00  0.00000000E+00
  0.00000000E+00  0.00000000E+00  0.00000000E+00
  0.00000000E+00  0.00000000E+00  0.00000000E+00
  0.00000000E+00  0.00000000E+00  0.00000000E+00
  0.00000000E+00  0.00000000E+00  0.00000000E+00
  0.00000000E+00  0.00000000E+00  0.00000000E+00
  0.00000000E+00  0.00000000E+00  0.00000000E+00
  0.00000000E+00  0.00000000E+00  0.00000000E+00
  0.00000000E+00  0.00000000E+00  0.00000000E+00
  0.00000000E+00  0.00000000E+00  0.00000000E+00
  0.00000000E+00  0.00000000E+00  0.00000000E+00
  0.00000000E+00  0.00000000E+00  0.00000000E+00
  0.00000000E+00  0.00000000E+00  0.00000000E+00
  0.00000000E+00  0.00000000E+00  0.00000000E+00
  0.00000000E+00  0.00000000E+00  0.00000000E+00
  0.00000000E+00  0.00000000E+00  0.00000000E+00
  0.00000000E+00  0.00000000E+00  0.00000000E+00
  0.00000000E+00  0.00000000E+00  0.00000000E+00
  0.00000000E+00  0.00000000E+00  0.00000000E+00
  0.00000000E+00  0.00000000E+00  0.00000000E+00
  0.00000000E+00  0.00000000E+00  0.00000000E+00
  0.00000000E+00  0.00000000E+00  0.00000000E+00
  0.00000000E+00  0.00000000E+00  0.00000000E+00
  0.00000000E+00  0.00000000E+00  0.00000000E+00
  0.00000000E+00  0.00000000E+00  0.00000000E+00
  0.00000000E+00  0.00000000E+00  0.00000000E+00
  0.00000000E+00  0.00000000E+00  0.00000000E+00
  0.00000000E+00  0.00000000E+00  0.00000000E+00
  0.00000000E+00  0.00000000E+00  0.00000000E+00
  0.00000000E+00  0.00000000E+00  0.00000000E+00
  0.00000000E+00  0.00000000E+00  0.00000000E+00
  0.00000000E+00  0.00000000E+00  0.00000000E+00
  0.00000000E+00  0.00000000E+00  0.00000000E+00
  0.00000000E+00  0.00000000E+00  0.00000000E+00
  0.00000000E+00  0.00000000E+00  0.00000000E+00
  0.00000000E+00  0.00000000E+00  0.00000000E+00
  0.00000000E+00  0.00000000E+00  0.00000000E+00
  0.00000000E+00  0.00000000E+00  0.00000000E+00
  0.00000000E+00  0.00000000E+00  0.00000000E+00
  0.00000000E+00  0.00000000E+00  0.00000000E+00
  0.00000000E+00  0.00000000E+00  0.00000000E+00
  0.00000000E+00  0.00000000E+00  0.00000000E+00
  0.00000000E+00  0.00000000E+00  0.00000000E+00
  0.00000000E+00  0.00000000E+00  0.00000000E+00
  0.00000000E+00  0.00000000E+00  0.00000000E+00
  0.00000000E+00  0.00000000E+00  0.00000000E+00
  0.00000000E+00  0.00000000E+00  0.00000000E+00
  0.00000000E+00  0.00000000E+00  0.00000000E+00
  0.00000000E+00  0.00000000E+00  0.00000000E+00
  0.00000000E+00  0.00000000E+00  0.00000000E+00
  0.00000000E+00  0.00000000E+00  0.00000000E+00
  0.00000000E+00  0.00000000E+00  0.00000000E+00
  0.00000000E+00  0.00000000E+00  0.00000000E+00
  0.00000000E+00  0.00000000E+00  0.00000000E+00
  0.00000000E+00  0.00000000E+00  0.00000000E+00
  0.00000000E+00  0.00000000E+00  0.00000000E+00
  0.00000000E+00  0.00000000E+00  0.00000000E+00
  0.00000000E+00  0.00000000E+00  0.00000000E+00
  0.00000000E+00  0.00000000E+00  0.00000000E+00
  0.00000000E+00  0.00000000E+00  0.00000000E+00
  0.00000000E+00  0.00000000E+00  0.00000000E+00
  0.00000000E+00  0.00000000E+00  0.00000000E+00
  0.00000000E+00  0.00000000E+00  0.00000000E+00
  0.00000000E+00  0.00000000E+00  0.00000000E+00
  0.00000000E+00  0.00000000E+00  0.00000000E+00
  0.00000000E+00  0.00000000E+00  0.00000000E+00
  0.00000000E+00  0.00000000E+00  0.00000000E+00
  0.00000000E+00  0.00000000E+00  0.00000000E+00
  0.00000000E+00  0.00000000E+00  0.00000000E+00
  0.00000000E+00  0.00000000E+00  0.00000000E+00
  0.00000000E+00  0.00000000E+00  0.00000000E+00
  0.00000000E+00  0.00000000E+00  0.00000000E+00
  0.00000000E+00  0.00000000E+00  0.00000000E+00
  0.00000000E+00  0.00000000E+00  0.00000000E+00
  0.00000000E+00  0.00000000E+00  0.00000000E+00
  0.00000000E+00  0.00000000E+00  0.00000000E+00
  0.00000000E+00  0.00000000E+00  0.00000000E+00
  0.00000000E+00  0.00000000E+00  0.00000000E+00
  0.00000000E+00  0.00000000E+00  0.00000000E+00
  0.00000000E+00  0.00000000E+00  0.00000000E+00
  0.00000000E+00  0.00000000E+00  0.00000000E+00
  0.00000000E+00  0.00000000E+00  0.00000000E+00
  0.00000000E+00  0.00000000E+00  0.00000000E+00
  0.00000000E+00  0.00000000E+00  0.00000000E+00
  0.00000000E+00  0.00000000E+00  0.00000000E+00
  0.00000000E+00  0.00000000E+00  0.00000000E+00
  0.00000000E+00  0.00000000E+00  0.00000000E+00
  0.00000000E+00  0.00000000E+00  0.00000000E+00
  0.00000000E+00  0.00000000E+00  0.00000000E+00
  0.00000000E+00  0.00000000E+00  0.00000000E+00
  0.00000000E+00  0.00000000E+00  0.00000000E+00
  0.00000000E+00  0.00000000E+00  0.00000000E+00
  0.00000000E+00  0.00000000E+00  0.00000000E+00
  0.00000000E+00  0.00000000E+00  0.00000000E+00
  0.00000000E+00  0.00000000E+00  0.00000000E+00
  0.00000000E+00  0.00000000E+00  0.00000000E+00
  0.00000000E+00  0.00000000E+00  0.00000000E+00
  0.00000000E+00  0.00000000E+00  0.00000000E+00
  0.00000000E+00  0.00000000E+00  0.00000000E+00
  0.00000000E+00  0.00000000E+00  0.00000000E+00
