supercell of icsd_181358.cif            
   1.00000000000000     
     9.8678471261023049   -0.0115193379959679    0.0005866520884001
    -4.9438914270374790    8.5595359210925910    0.0104768231807771
     0.0005342158616953    0.0135642686470821   10.4866951514672202
   N    Ga   Y 
    36    30     6
Direct
  0.2231146434898434  0.1098375731091181  0.4327741182978144
  0.1099163084776578  0.2210593478961940  0.1906244098058565
  0.8897123537586964  0.1095825530577557  0.9364298886117837
  0.7831429698980727  0.2274119714760587  0.6920370059256769
  0.5712071799342766  0.1345280352977625  0.4349112653507774
  0.4445759570802750  0.2212753529040867  0.1931596508345663
  0.2243939807241944  0.1106624478629783  0.9390719194012078
  0.0946041656700203  0.1844350457496375  0.6797292565788808
  0.8869760971861993  0.1129117373575070  0.4343239163606398
  0.7639242325213047  0.1932684663903217  0.1774549713996549
  0.5692979870197519  0.1436063660488998  0.9328145766301574
  0.4353502495416066  0.1976862391428824  0.6761130258616674
  0.2189454032810758  0.4413273703110221  0.4456951195983621
  0.1374157145335673  0.5679073304730622  0.1846949503236317
  0.8900455492073220  0.4467317115422773  0.9481015426697326
  0.7879240983740772  0.5499009860601092  0.6813463524225654
  0.5552142045557815  0.4428598399594676  0.4408766379358795
  0.4428008037034559  0.5545039573647585  0.1967528368910081
  0.2247656517512482  0.4432626156807373  0.9514511698110724
  0.1021111294987165  0.5693653481777474  0.6856567328968453
  0.8884091207743410  0.4426481286280506  0.4491708932949265
  0.7671080414048532  0.5699595814882414  0.1931021371840487
  0.5545601677617356  0.4448949703056471  0.9623576628659976
  0.4557161090087334  0.5786201450677950  0.6754314387144547
  0.1990378412601359  0.7652672795843785  0.4325191052585069
  0.1110393470627002  0.8896314482613761  0.1922173177142668
  0.8906771392236124  0.7810427384022844  0.9540495053123976
  0.7584960541853221  0.9049334985813999  0.6768700129696796
  0.5664715236157321  0.7678934070320693  0.4301938056519248
  0.4442287591170100  0.8893267267941667  0.2090191723933756
  0.1945843939071779  0.7658397196902200  0.9378161006454988
  0.1366922932015342  0.8968731351923438  0.6772938844475078
  0.8891396354895136  0.7813129900329159  0.4451085428309369
  0.7790517434011406  0.8903835403472158  0.1914516455629425
  0.5707866002119815  0.7622082617336474  0.9393245289654644
  0.4442822007878391  0.8891174023962094  0.7260820071741279
  0.2221809168379494  0.1105234661740653  0.2478979671020412
  0.1115659325586265  0.2208008721554080  0.0023275252322463
  0.8824921139228863  0.1084032820961482  0.7473791168351767
  0.7827915028289496  0.2279401862778343  0.5030259345691164
  0.5563180151218674  0.1101702348525251  0.2504707086144506
  0.4463213880499097  0.2271252683206271  0.0070422130651551
  0.2251253456095199  0.1016287795444057  0.7464447041869278
  0.1058789990513347  0.2107747808063110  0.4934142301744870
  0.8857620133004858  0.1062868138730053  0.2471162047936843
  0.7797639070934466  0.2222692513553213  0.9939328132418552
  0.5597391143146240  0.1164087643131069  0.7502139644135184
  0.4443230144235031  0.2217031017628912  0.4921780507549727
  0.2253194845312052  0.4447667644132949  0.2517887939457779
  0.1135419442231083  0.5552338082141617  0.0005320298437042
  0.8898240040125813  0.4471315061642684  0.7520082618623363
  0.7794756573030455  0.5536292021421190  0.4973619741252548
  0.5521862259599217  0.4457856428391054  0.2511093041210231
  0.4450440394536486  0.5517428518178846  0.0108518575489924
  0.1028946749731432  0.5559230529143946  0.4999165514686510
  0.7757682695012207  0.5626901576771317  0.0077127052317820
  0.4497274066656445  0.5572708080658373  0.4919303377994311
  0.2224698744609555  0.7782575937213707  0.2495415398874101
  0.1064756863198184  0.8876542448605562  0.0056792358062694
  0.7762983341528766  0.8923302558446267  0.4932610712769119
  0.5577809377042939  0.7762344899753586  0.2489359478766175
  0.2167452043747673  0.7778894762780340  0.7536230870355567
  0.1124550994404103  0.8899474198698059  0.4933958585184470
  0.8878483916684132  0.7833032737460641  0.2529683634334674
  0.7824746357660217  0.8884459055936134  0.0055821518068697
  0.5580104215929111  0.7796637309339545  0.7534129914728140
  0.2127725907548808  0.4357923838010151  0.7372881019511865
  0.8881121771627960  0.4405464137846593  0.2382331082716220
  0.5519752432960772  0.4368057629140125  0.7503346177459775
  0.8938397629157109  0.7927643555949757  0.7402988773456940
  0.4467940513045647  0.8917515145180204  0.9876563557378972
  0.4441839687283817  0.8883273133837832  0.5031063343088604
 
  0.00000000E+00  0.00000000E+00  0.00000000E+00
  0.00000000E+00  0.00000000E+00  0.00000000E+00
  0.00000000E+00  0.00000000E+00  0.00000000E+00
  0.00000000E+00  0.00000000E+00  0.00000000E+00
  0.00000000E+00  0.00000000E+00  0.00000000E+00
  0.00000000E+00  0.00000000E+00  0.00000000E+00
  0.00000000E+00  0.00000000E+00  0.00000000E+00
  0.00000000E+00  0.00000000E+00  0.00000000E+00
  0.00000000E+00  0.00000000E+00  0.00000000E+00
  0.00000000E+00  0.00000000E+00  0.00000000E+00
  0.00000000E+00  0.00000000E+00  0.00000000E+00
  0.00000000E+00  0.00000000E+00  0.00000000E+00
  0.00000000E+00  0.00000000E+00  0.00000000E+00
  0.00000000E+00  0.00000000E+00  0.00000000E+00
  0.00000000E+00  0.00000000E+00  0.00000000E+00
  0.00000000E+00  0.00000000E+00  0.00000000E+00
  0.00000000E+00  0.00000000E+00  0.00000000E+00
  0.00000000E+00  0.00000000E+00  0.00000000E+00
  0.00000000E+00  0.00000000E+00  0.00000000E+00
  0.00000000E+00  0.00000000E+00  0.00000000E+00
  0.00000000E+00  0.00000000E+00  0.00000000E+00
  0.00000000E+00  0.00000000E+00  0.00000000E+00
  0.00000000E+00  0.00000000E+00  0.00000000E+00
  0.00000000E+00  0.00000000E+00  0.00000000E+00
  0.00000000E+00  0.00000000E+00  0.00000000E+00
  0.00000000E+00  0.00000000E+00  0.00000000E+00
  0.00000000E+00  0.00000000E+00  0.00000000E+00
  0.00000000E+00  0.00000000E+00  0.00000000E+00
  0.00000000E+00  0.00000000E+00  0.00000000E+00
  0.00000000E+00  0.00000000E+00  0.00000000E+00
  0.00000000E+00  0.00000000E+00  0.00000000E+00
  0.00000000E+00  0.00000000E+00  0.00000000E+00
  0.00000000E+00  0.00000000E+00  0.00000000E+00
  0.00000000E+00  0.00000000E+00  0.00000000E+00
  0.00000000E+00  0.00000000E+00  0.00000000E+00
  0.00000000E+00  0.00000000E+00  0.00000000E+00
  0.00000000E+00  0.00000000E+00  0.00000000E+00
  0.00000000E+00  0.00000000E+00  0.00000000E+00
  0.00000000E+00  0.00000000E+00  0.00000000E+00
  0.00000000E+00  0.00000000E+00  0.00000000E+00
  0.00000000E+00  0.00000000E+00  0.00000000E+00
  0.00000000E+00  0.00000000E+00  0.00000000E+00
  0.00000000E+00  0.00000000E+00  0.00000000E+00
  0.00000000E+00  0.00000000E+00  0.00000000E+00
  0.00000000E+00  0.00000000E+00  0.00000000E+00
  0.00000000E+00  0.00000000E+00  0.00000000E+00
  0.00000000E+00  0.00000000E+00  0.00000000E+00
  0.00000000E+00  0.00000000E+00  0.00000000E+00
  0.00000000E+00  0.00000000E+00  0.00000000E+00
  0.00000000E+00  0.00000000E+00  0.00000000E+00
  0.00000000E+00  0.00000000E+00  0.00000000E+00
  0.00000000E+00  0.00000000E+00  0.00000000E+00
  0.00000000E+00  0.00000000E+00  0.00000000E+00
  0.00000000E+00  0.00000000E+00  0.00000000E+00
  0.00000000E+00  0.00000000E+00  0.00000000E+00
  0.00000000E+00  0.00000000E+00  0.00000000E+00
  0.00000000E+00  0.00000000E+00  0.00000000E+00
  0.00000000E+00  0.00000000E+00  0.00000000E+00
  0.00000000E+00  0.00000000E+00  0.00000000E+00
  0.00000000E+00  0.00000000E+00  0.00000000E+00
  0.00000000E+00  0.00000000E+00  0.00000000E+00
  0.00000000E+00  0.00000000E+00  0.00000000E+00
  0.00000000E+00  0.00000000E+00  0.00000000E+00
  0.00000000E+00  0.00000000E+00  0.00000000E+00
  0.00000000E+00  0.00000000E+00  0.00000000E+00
  0.00000000E+00  0.00000000E+00  0.00000000E+00
  0.00000000E+00  0.00000000E+00  0.00000000E+00
  0.00000000E+00  0.00000000E+00  0.00000000E+00
  0.00000000E+00  0.00000000E+00  0.00000000E+00
  0.00000000E+00  0.00000000E+00  0.00000000E+00
  0.00000000E+00  0.00000000E+00  0.00000000E+00
  0.00000000E+00  0.00000000E+00  0.00000000E+00
