generated by phonopy                    
   1.00000000000000     
    10.0351470768999995   -0.0000022330999784   -0.0000001056124209
    -5.0175765436399997    8.6906901959899994    0.0000001395531216
    -0.0000001735893656    0.0000001431815548   14.9533752540999991
   Pb   P    O 
    20    12    49
Direct
  0.0281188371184911  0.7773441362338289  0.1235931409404643
  0.9994617067162110  0.7731376485933836  0.6228975600075373
  0.0102909262389943  0.2619561398179400  0.3805006707893952
  0.0103021975518942  0.2623167117865677  0.8663201604361745
  0.2319387813570373  0.2225421135871741  0.1228808892416495
  0.2279113847252603  0.2249346530019096  0.6227564276299518
  0.7365755713265401  0.7442832431531983  0.3854207604109519
  0.7364197366142093  0.7438367767900758  0.8622303749481048
  0.7843735840310657  0.0187405642347898  0.1234420857715932
  0.7766054355659548  0.0056110843676436  0.6228173142764319
  0.2608187494550904  0.9993399587770568  0.3769248935746603
  0.2609467328736983  0.9993386517425904  0.8699920263126870
  0.6759594098423563  0.3203472760509456  0.9928856468603371
  0.6649718843052455  0.3319769163303974  0.5035073133389076
  0.3180050819437596  0.6628334458599170  0.9981697069735134
  0.3329969796845162  0.6663567790958567  0.5045014236613810
  0.3181783319773217  0.6628691221049365  0.2494343666416938
  0.3337373925281852  0.6665317616901447  0.7428027533986494
  0.6757928767652857  0.3211021517418544  0.2559232836434617
  0.6650896516304741  0.3322516574643828  0.7454425201184094
  0.6387645052594451  0.6365184998087798  0.1240250893586747
  0.6215608291937897  0.5946141487928784  0.6239736030863838
  0.3699716692693116  0.3958663118454098  0.3744688170530566
  0.3697952695846141  0.3954882279054033  0.8732184265312100
  0.4069219723229764  0.0300979545149929  0.1242144044826503
  0.4045467795731952  0.0277830904802130  0.6240202025762542
  0.6042691434712566  0.9717866819481600  0.3698530168825158
  0.6038910569833078  0.9713982836321193  0.8779772912056174
  0.9643032018208757  0.3845282648658710  0.1243154243444735
  0.9723040483093044  0.3780392328659516  0.6239347020384045
  0.0267890531785255  0.6291586006661305  0.3717250753098753
  0.0266505996535145  0.6291060058974907  0.8763106790943596
  0.4823811871560295  0.6214450011648083  0.1241916434413710
  0.4979363496907894  0.6448607452445074  0.6234865854419098
  0.4706265371501885  0.3181769077617744  0.3751207137551660
  0.4705176744619948  0.3179557327406783  0.8730934936946468
  0.3382129570753634  0.8513006764529720  0.1237856137646531
  0.3532069639330331  0.8534196493757165  0.6235759892857615
  0.6793857316097132  0.1509571704461834  0.3712408347364047
  0.6787816916839091  0.1505120850749933  0.8770057250285177
  0.1405937756726132  0.4990327946237230  0.1238522084535560
  0.1464259784542250  0.5021088084309966  0.6235662061322174
  0.8491425310916796  0.5238994222228115  0.3687816952127747
  0.8491306118569568  0.5234022707803092  0.8797519212621125
  0.7157990411102162  0.6382379698859211  0.0376405527303447
  0.7285115062981689  0.6572210229615649  0.5395374445179542
  0.2590825009514504  0.3467172140813233  0.4576858518996048
  0.2647807430576492  0.3550947099433728  0.9579075932446202
  0.3513898591876270  0.0812231613986469  0.0393842174494807
  0.3435083528434433  0.0725573143612763  0.5390553257017885
  0.6537085616540566  0.9141934898703070  0.4544971630292736
  0.6471446096986071  0.9102404765496459  0.9623318513265957
  0.9123953163961076  0.2763114046119313  0.0394077334489538
  0.9281752706680493  0.2712439288352257  0.5393382215120184
  0.0813688695073935  0.7402403321548974  0.4536959000385821
  0.0955876245052210  0.7303175424715960  0.9625988357380848
  0.2638856929541262  0.3535631841106550  0.2902006018232512
  0.2578445824972633  0.3443893019572499  0.7904786915404074
  0.7170975236903274  0.6404621265293287  0.2103112251145447
  0.7296095118119652  0.6603800457995845  0.7077231412082483
  0.6496399230020558  0.9111763514132889  0.2861485167460955
  0.6554713239321828  0.9146729498045048  0.7939165110770077
  0.3486312268683633  0.0795389111128131  0.2085398652720158
  0.3401442459411257  0.0703680909313960  0.7083040949301562
  0.0951286624406293  0.7321908413893325  0.2860845601595514
  0.0798772513641666  0.7418080641418996  0.7951631470129996
  0.9139279864501049  0.2754375520256431  0.2087353727389356
  0.9300919749920382  0.2701848488191203  0.7079129979377257
  0.5450414768992289  0.4147634812575802  0.6248664785198486
  0.4750922497695598  0.5775024804253945  0.3777696716470658
  0.4748496731705742  0.5770917392235333  0.8685251529358524
  0.5870079828580685  0.1198363821134549  0.1250666837550582
  0.5850114717230852  0.1300219938877234  0.6249908023828183
  0.4227090926727683  0.8964790891639893  0.3721868415885865
  0.4223178520935136  0.8958725913206678  0.8741212385873212
  0.8710244704664660  0.4714425351966867  0.1250933706769004
  0.8695991794113880  0.4553897297509124  0.6248063886529849
  0.1059308246079880  0.5258418409230146  0.3767753826752269
  0.1062183344635628  0.5263141588631584  0.8694380374337385
  0.0092392811963933  0.0056168114629074  0.1214979230470092
  0.9992612976986877  0.9991343624070126  0.6193458492231372
 
  0.00000000E+00  0.00000000E+00  0.00000000E+00
  0.00000000E+00  0.00000000E+00  0.00000000E+00
  0.00000000E+00  0.00000000E+00  0.00000000E+00
  0.00000000E+00  0.00000000E+00  0.00000000E+00
  0.00000000E+00  0.00000000E+00  0.00000000E+00
  0.00000000E+00  0.00000000E+00  0.00000000E+00
  0.00000000E+00  0.00000000E+00  0.00000000E+00
  0.00000000E+00  0.00000000E+00  0.00000000E+00
  0.00000000E+00  0.00000000E+00  0.00000000E+00
  0.00000000E+00  0.00000000E+00  0.00000000E+00
  0.00000000E+00  0.00000000E+00  0.00000000E+00
  0.00000000E+00  0.00000000E+00  0.00000000E+00
  0.00000000E+00  0.00000000E+00  0.00000000E+00
  0.00000000E+00  0.00000000E+00  0.00000000E+00
  0.00000000E+00  0.00000000E+00  0.00000000E+00
  0.00000000E+00  0.00000000E+00  0.00000000E+00
  0.00000000E+00  0.00000000E+00  0.00000000E+00
  0.00000000E+00  0.00000000E+00  0.00000000E+00
  0.00000000E+00  0.00000000E+00  0.00000000E+00
  0.00000000E+00  0.00000000E+00  0.00000000E+00
  0.00000000E+00  0.00000000E+00  0.00000000E+00
  0.00000000E+00  0.00000000E+00  0.00000000E+00
  0.00000000E+00  0.00000000E+00  0.00000000E+00
  0.00000000E+00  0.00000000E+00  0.00000000E+00
  0.00000000E+00  0.00000000E+00  0.00000000E+00
  0.00000000E+00  0.00000000E+00  0.00000000E+00
  0.00000000E+00  0.00000000E+00  0.00000000E+00
  0.00000000E+00  0.00000000E+00  0.00000000E+00
  0.00000000E+00  0.00000000E+00  0.00000000E+00
  0.00000000E+00  0.00000000E+00  0.00000000E+00
  0.00000000E+00  0.00000000E+00  0.00000000E+00
  0.00000000E+00  0.00000000E+00  0.00000000E+00
  0.00000000E+00  0.00000000E+00  0.00000000E+00
  0.00000000E+00  0.00000000E+00  0.00000000E+00
  0.00000000E+00  0.00000000E+00  0.00000000E+00
  0.00000000E+00  0.00000000E+00  0.00000000E+00
  0.00000000E+00  0.00000000E+00  0.00000000E+00
  0.00000000E+00  0.00000000E+00  0.00000000E+00
  0.00000000E+00  0.00000000E+00  0.00000000E+00
  0.00000000E+00  0.00000000E+00  0.00000000E+00
  0.00000000E+00  0.00000000E+00  0.00000000E+00
  0.00000000E+00  0.00000000E+00  0.00000000E+00
  0.00000000E+00  0.00000000E+00  0.00000000E+00
  0.00000000E+00  0.00000000E+00  0.00000000E+00
  0.00000000E+00  0.00000000E+00  0.00000000E+00
  0.00000000E+00  0.00000000E+00  0.00000000E+00
  0.00000000E+00  0.00000000E+00  0.00000000E+00
  0.00000000E+00  0.00000000E+00  0.00000000E+00
  0.00000000E+00  0.00000000E+00  0.00000000E+00
  0.00000000E+00  0.00000000E+00  0.00000000E+00
  0.00000000E+00  0.00000000E+00  0.00000000E+00
  0.00000000E+00  0.00000000E+00  0.00000000E+00
  0.00000000E+00  0.00000000E+00  0.00000000E+00
  0.00000000E+00  0.00000000E+00  0.00000000E+00
  0.00000000E+00  0.00000000E+00  0.00000000E+00
  0.00000000E+00  0.00000000E+00  0.00000000E+00
  0.00000000E+00  0.00000000E+00  0.00000000E+00
  0.00000000E+00  0.00000000E+00  0.00000000E+00
  0.00000000E+00  0.00000000E+00  0.00000000E+00
  0.00000000E+00  0.00000000E+00  0.00000000E+00
  0.00000000E+00  0.00000000E+00  0.00000000E+00
  0.00000000E+00  0.00000000E+00  0.00000000E+00
  0.00000000E+00  0.00000000E+00  0.00000000E+00
  0.00000000E+00  0.00000000E+00  0.00000000E+00
  0.00000000E+00  0.00000000E+00  0.00000000E+00
  0.00000000E+00  0.00000000E+00  0.00000000E+00
  0.00000000E+00  0.00000000E+00  0.00000000E+00
  0.00000000E+00  0.00000000E+00  0.00000000E+00
  0.00000000E+00  0.00000000E+00  0.00000000E+00
  0.00000000E+00  0.00000000E+00  0.00000000E+00
  0.00000000E+00  0.00000000E+00  0.00000000E+00
  0.00000000E+00  0.00000000E+00  0.00000000E+00
  0.00000000E+00  0.00000000E+00  0.00000000E+00
  0.00000000E+00  0.00000000E+00  0.00000000E+00
  0.00000000E+00  0.00000000E+00  0.00000000E+00
  0.00000000E+00  0.00000000E+00  0.00000000E+00
  0.00000000E+00  0.00000000E+00  0.00000000E+00
  0.00000000E+00  0.00000000E+00  0.00000000E+00
  0.00000000E+00  0.00000000E+00  0.00000000E+00
  0.00000000E+00  0.00000000E+00  0.00000000E+00
  0.00000000E+00  0.00000000E+00  0.00000000E+00
