supercell of POSCAR                     
   1.01800000000000     
     3.1310994802600001   -5.4896946145000003   10.0244832682999991
    -9.4821132118399998   -5.5089477087900001    0.0170740616273000
     6.3359946057599998  -11.0114127993000004  -10.0652216442999993
   Al   Gd   N 
    83    12    96
Direct
  0.0913054414367664  0.5810825270571556  0.3306496686417759
  0.5011111160816242  0.3243496815906255  0.2550199950069327
  0.0874413784802641  0.0823812554574204  0.3334995963121017
  0.2566830584971527  0.5782281930802995  0.4916417246363665
  0.3318073547620770  0.3235419033901010  0.0794236106317001
  0.4181758227769308  0.0875032009754619  0.1694677536579050
  0.0082061219211980  0.8411069563299307  0.2541412343292109
  0.1687510224496691  0.3302677074246461  0.4119858291092413
  0.2485771944000064  0.0852107236394204  0.4954879274046249
  0.1639358942853590  0.8341015656191431  0.4151215982177945
  0.1442904686602233  0.6724347038369061  0.1630531093971825
  0.2443360479480603  0.3950710675394618  0.2498089706246560
  0.3353759697765213  0.1624137203222062  0.3333586003170055
  0.0111071574096684  0.6719322234638554  0.4943890598420353
  0.1670352856394999  0.1550161828570253  0.1669584780398239
  0.2545042655337468  0.9188469890897650  0.2533217986297984
  0.4148567120200610  0.4126224816403052  0.4150786925715693
  0.5005032241968976  0.1589998978696059  0.4972375902212818
  0.0800155598390688  0.9220119523929426  0.0790036251548756
  0.4239487496419869  0.9189657644103733  0.4115838373577887
  0.0889975382535511  0.5864144472025004  0.8357777451367099
  0.4988640856832305  0.3236198021810921  0.7539286007166837
  0.0853652211957865  0.0857210264145820  0.8348499240230254
  0.2517139795762162  0.5784028794456546  0.9968382404422940
  0.3315035962720998  0.3172778899800761  0.5771915616165302
  0.4169868870698821  0.0866582107283307  0.6703769892118530
  0.0065354057055131  0.8441200407113314  0.7561945754455053
  0.1665810411445250  0.3333834598882461  0.9135577357162248
  0.2476055120609715  0.0873082581455975  0.9964281665296113
  0.1618532763379221  0.8380369563099634  0.9163634626049344
  0.3352039363766863  0.6748634387997399  0.8393662642640223
  0.1550805017786985  0.6761808590685661  0.6656635899960648
  0.2494904177152009  0.4031100750872056  0.7519928040995865
  0.3334033196263277  0.1660320457034103  0.8337834696758506
  0.0012293494776330  0.6767062204525445  0.9923840561343482
  0.1667984853021238  0.1594346031820280  0.6692098309208774
  0.2521364933374173  0.9209666333723234  0.7551088579100309
  0.4122466091025956  0.4168325428117114  0.9151455795478967
  0.4979599108838855  0.1659099690474335  0.9968719621662601
  0.0844410130001378  0.9230886145258879  0.5798695143076102
  0.4189847247074141  0.9232106206528812  0.9105067091159427
  0.6036245234862250  0.5819179676074384  0.3367671639074743
  0.0010318542054719  0.3191292746255456  0.2555454930435133
  0.5879929719875250  0.0865041956027497  0.3341972804887874
  0.7554383672317826  0.5782202983677607  0.4968787163992090
  0.8307656024965837  0.3189750566230387  0.0783688520885377
  0.9180683223717452  0.0848988865854636  0.1693089457791430
  0.5170378591187159  0.8512036902985116  0.2523109145485734
  0.6701087540736168  0.3306205806380476  0.4129986165199142
  0.7494209244228642  0.0855262634578366  0.4961067521551143
  0.6643319670358920  0.8350635187680950  0.4152390572939098
  0.8423403713888789  0.6711872733317819  0.3425546920737759
  0.6315805436206148  0.6802250927334228  0.1814808500833180
  0.7540738936985463  0.3979121921899988  0.2544360265500245
  0.8368371395275958  0.1618104520572672  0.3346652485353161
  0.5090454454061799  0.6717921217005554  0.4948548708497071
  0.6679687565015513  0.1606244534448393  0.1687895251000029
  0.7566727478421669  0.9223084604893828  0.2546914270832588
  0.9150284237015001  0.4127847358031147  0.4159548221297271
  0.9999567914909520  0.1604609508861472  0.4970401043798347
  0.5841224374232681  0.9285610826529904  0.0774797977466264
  0.9218480939321623  0.9181727104288981  0.4116260244872620
  0.5875799835555711  0.5858312108448018  0.8336015941629711
  0.9994433669204028  0.3232037384862494  0.7553179712042208
  0.5853631525122580  0.0866561176210894  0.8337786623583909
  0.7450698906795310  0.5753890555738082  0.9941994398609140
  0.8322472268283647  0.3180180381055493  0.5789011984445267
  0.9174058473439430  0.0870785816009203  0.6710150808975683
  0.5067878143750093  0.8438830169587987  0.7541720587043699
  0.6658213082143405  0.3322353985488817  0.9128427667456691
  0.7484485524588322  0.0880560393214012  0.9956762942118331
  0.6608527017077535  0.8385212108957560  0.9147783828578397
  0.8341353081816578  0.6748400388306663  0.8401911239601745
  0.6571628755394769  0.6759555112261779  0.6674900945943634
  0.7487038419393315  0.4029421036055396  0.7517872538718819
  0.8338437169262249  0.1662940902462964  0.8337883571556830
  0.5034752975993158  0.6772843328974005  0.9926286465157972
  0.6667496314101555  0.1603546471034463  0.6686188534300683
  0.7524387681294158  0.9220267949176844  0.7554163933352669
  0.9116524892095299  0.4161705189076770  0.9159276609429128
  0.9986028432910175  0.1638517477085415  0.9971877538686371
  0.5854171193172704  0.9225299810447112  0.5796757801812547
  0.9173842787807018  0.9222067663307953  0.9127278272210972
  0.3792083131591184  0.5917892444038131  0.2068422177423557
  0.3332632006530005  0.8314441751761805  0.0824988518795280
  0.0797251297935375  0.4259566186925809  0.0895366523670091
  0.3973234746021532  0.5805317160399142  0.6771071926908618
  0.3341105422787436  0.8352019346339503  0.5817105174573385
  0.0831792176233606  0.4204584677867373  0.5840667069199128
  0.8843993362147842  0.5795051570008880  0.1803685456331081
  0.8219440978781023  0.8248139635250524  0.0853905443043175
  0.5767567463412462  0.4300119831576836  0.0892776759799645
  0.9004790917792533  0.5788523863744004  0.6803001523244347
  0.8348615733245879  0.8352703523133158  0.5834953998282373
  0.5784256406926076  0.4220372048230203  0.5819919217459883
  0.1929411661146858  0.5603651374030179  0.2493669059249513
  0.0178448442724033  0.6185206470976539  0.0981249473516570
  0.1279008824513355  0.3083777779977055  0.1978164698270888
  0.2135048698577293  0.0810384970177651  0.2704888355050699
  0.3952601906211726  0.5703065213074936  0.4503315078509473
  0.4494248546010269  0.3241492338530350  0.0111753064056046
  0.0405979536031182  0.0841590056593162  0.1020703673481194
  0.1324610822482200  0.8410935047143582  0.1848007281938209
  0.2965165117110189  0.3278174540944292  0.3509128487993394
  0.3782301537693513  0.0802932890023840  0.4350732448076187
  0.4764596755188819  0.8425121018419119  0.0059635524700568
  0.2920182617021325  0.8537445813483302  0.3579303554675448
  0.5279856117611743  0.6875100179381732  0.2654602923124187
  0.2637312802187708  0.6510858647929254  0.0981829140433206
  0.3772682500177709  0.3910739605898428  0.1858494847176004
  0.4630623330807211  0.1632721086898314  0.2729231100163716
  0.1368471782766889  0.6626116913148010  0.4306464053248078
  0.2206739722683366  0.4127165556149563  0.0107131429583163
  0.2917364456637728  0.1596543466293809  0.1017366533349460
  0.3875143621682184  0.9260188083880365  0.1997359053212975
  0.0429500598958299  0.4153970248700531  0.3524183019898359
  0.1277131273806305  0.1685401658928285  0.4339196541768544
  0.1966822397913361  0.9310486966801292  0.0111434118783791
  0.0489383500278961  0.9218433503295813  0.3517851704647441
  0.2170124891142464  0.5824516917422216  0.7669429063256601
  0.0332539668303795  0.6122538072899317  0.6016125246336159
  0.1292853833359686  0.3182224356489485  0.6999150295743064
  0.2116882936066276  0.0834136021302498  0.7722302056085297
  0.3796905066978056  0.5857365073054979  0.9366211522453298
  0.4483855138439523  0.3140894285325828  0.5098205152704267
  0.0409109817837674  0.0848498936685758  0.6039387367431175
  0.1311525685195747  0.8430708868651919  0.6866594220236450
  0.2948764268601849  0.3314821203057292  0.8526242622737499
  0.3761127004261056  0.0835650166061797  0.9348048729140075
  0.4791374454819035  0.8374659573887655  0.5076865209766126
  0.2917260257884422  0.8366415030512044  0.8560791832170267
  0.4695310847120240  0.6860008877447896  0.7862592882267094
  0.2622714944850202  0.6556399858122788  0.5938637417786055
  0.3727423153068727  0.3828567927893403  0.6844505346234371
  0.4609751324103470  0.1638469581022548  0.7732681978229436
  0.1331111448614664  0.6668241225931268  0.9348803868653022
  0.2239911672852486  0.4101847674078414  0.5086005824143314
  0.2896421790798769  0.1565823933531121  0.6018930365442969
  0.3836566426451213  0.9277408117530257  0.7010718711718624
  0.0414961631373885  0.4210341630574845  0.8521597909300169
  0.1265320689960561  0.1715407187257156  0.9347575929531757
  0.1972507078401620  0.9303391379493746  0.5104075897360687
  0.0473313600096930  0.9249569459649578  0.8537209215157588
  0.7337569732122233  0.5714363277529699  0.2733607773860811
  0.5177660986496875  0.6210812346747900  0.1006786349213797
  0.6317285935376162  0.3189113293567090  0.1999334355511948
  0.7144258682413991  0.0839950856218721  0.2720534547752607
  0.8864261158484368  0.5819855254230859  0.4401579737806358
  0.9496509861907612  0.3225325506259438  0.0115593967135794
  0.5410905847871632  0.0892691345411052  0.1023493274647151
  0.6393985587330917  0.8548492819378737  0.1807840112708021
  0.7988192198985047  0.3252828892240203  0.3541222756982236
  0.8785159371559530  0.0786246118118328  0.4356831331195821
  0.9687996025626475  0.8402326717286073  0.0088893127209602
  0.7947490147027949  0.8340259624981314  0.3552345394208771
  0.9720164605438271  0.6832664970873736  0.2855594854445727
  0.7349498460447847  0.6427222405155604  0.0981430346244707
  0.8773596412259863  0.3815267880956696  0.1854413326801918
  0.9624713405933747  0.1591193907368762  0.2734219512558482
  0.6387144705589307  0.6648030711927788  0.4355195691929552
  0.7195291265554786  0.4098737047502325  0.0104737354025488
  0.7908414274024338  0.1576128291023480  0.1017649878751428
  0.8864446106532355  0.9251112483340478  0.1986065349425203
  0.5460998458714528  0.4186516408898768  0.3518730190756472
  0.6284214758739495  0.1697484001856395  0.4350806804274470
  0.6992568360149320  0.9321126240484929  0.0088261512815535
  0.5513973547662800  0.9254177726056909  0.3525254697336635
  0.7177112763546774  0.5822514451566079  0.7675755918870735
  0.5357395253586290  0.6147356235071086  0.6038457676565585
  0.6285074300987574  0.3195910580800287  0.6980080076206221
  0.7119376659216954  0.0848222162729755  0.7717834009151687
  0.8767140033745306  0.5851738358349223  0.9377509839415339
  0.9499629732826804  0.3178310347738176  0.5116775090593535
  0.5414181517748844  0.0840645208772202  0.6039033993001581
  0.6329143616213102  0.8435966982357144  0.6863310828882732
  0.7945123671631222  0.3313149880254116  0.8525405668353159
  0.8763758623949940  0.0841142759363294  0.9345499375503366
  0.9781576354355295  0.8364238934671562  0.5077063589509692
  0.7911642738333740  0.8367486286921917  0.8556983251287846
  0.9702945912909939  0.6862214080338234  0.7887663952290893
  0.7667112349742524  0.6548301939806009  0.5973855511349058
  0.8730558904117842  0.3818311871576938  0.6859986082073064
  0.9617017306137257  0.1634656095365585  0.7740294275389203
  0.6317008638948494  0.6667268459863749  0.9322349252587401
  0.7248620490404676  0.4115912210913990  0.5100637912881751
  0.7903785135715182  0.1569384281648212  0.6020832433936647
  0.8844340997158895  0.9284654051776471  0.7021384511990547
  0.5415980859966183  0.4203996451452028  0.8510653104410650
  0.6257859466804589  0.1710094549978933  0.9341714282408091
  0.6991027602412245  0.9302880195912593  0.5101821463585736
  0.5476239413346704  0.9256318269432739  0.8512639567851323
 
  0.00000000E+00  0.00000000E+00  0.00000000E+00
  0.00000000E+00  0.00000000E+00  0.00000000E+00
  0.00000000E+00  0.00000000E+00  0.00000000E+00
  0.00000000E+00  0.00000000E+00  0.00000000E+00
  0.00000000E+00  0.00000000E+00  0.00000000E+00
  0.00000000E+00  0.00000000E+00  0.00000000E+00
  0.00000000E+00  0.00000000E+00  0.00000000E+00
  0.00000000E+00  0.00000000E+00  0.00000000E+00
  0.00000000E+00  0.00000000E+00  0.00000000E+00
  0.00000000E+00  0.00000000E+00  0.00000000E+00
  0.00000000E+00  0.00000000E+00  0.00000000E+00
  0.00000000E+00  0.00000000E+00  0.00000000E+00
  0.00000000E+00  0.00000000E+00  0.00000000E+00
  0.00000000E+00  0.00000000E+00  0.00000000E+00
  0.00000000E+00  0.00000000E+00  0.00000000E+00
  0.00000000E+00  0.00000000E+00  0.00000000E+00
  0.00000000E+00  0.00000000E+00  0.00000000E+00
  0.00000000E+00  0.00000000E+00  0.00000000E+00
  0.00000000E+00  0.00000000E+00  0.00000000E+00
  0.00000000E+00  0.00000000E+00  0.00000000E+00
  0.00000000E+00  0.00000000E+00  0.00000000E+00
  0.00000000E+00  0.00000000E+00  0.00000000E+00
  0.00000000E+00  0.00000000E+00  0.00000000E+00
  0.00000000E+00  0.00000000E+00  0.00000000E+00
  0.00000000E+00  0.00000000E+00  0.00000000E+00
  0.00000000E+00  0.00000000E+00  0.00000000E+00
  0.00000000E+00  0.00000000E+00  0.00000000E+00
  0.00000000E+00  0.00000000E+00  0.00000000E+00
  0.00000000E+00  0.00000000E+00  0.00000000E+00
  0.00000000E+00  0.00000000E+00  0.00000000E+00
  0.00000000E+00  0.00000000E+00  0.00000000E+00
  0.00000000E+00  0.00000000E+00  0.00000000E+00
  0.00000000E+00  0.00000000E+00  0.00000000E+00
  0.00000000E+00  0.00000000E+00  0.00000000E+00
  0.00000000E+00  0.00000000E+00  0.00000000E+00
  0.00000000E+00  0.00000000E+00  0.00000000E+00
  0.00000000E+00  0.00000000E+00  0.00000000E+00
  0.00000000E+00  0.00000000E+00  0.00000000E+00
  0.00000000E+00  0.00000000E+00  0.00000000E+00
  0.00000000E+00  0.00000000E+00  0.00000000E+00
  0.00000000E+00  0.00000000E+00  0.00000000E+00
  0.00000000E+00  0.00000000E+00  0.00000000E+00
  0.00000000E+00  0.00000000E+00  0.00000000E+00
  0.00000000E+00  0.00000000E+00  0.00000000E+00
  0.00000000E+00  0.00000000E+00  0.00000000E+00
  0.00000000E+00  0.00000000E+00  0.00000000E+00
  0.00000000E+00  0.00000000E+00  0.00000000E+00
  0.00000000E+00  0.00000000E+00  0.00000000E+00
  0.00000000E+00  0.00000000E+00  0.00000000E+00
  0.00000000E+00  0.00000000E+00  0.00000000E+00
  0.00000000E+00  0.00000000E+00  0.00000000E+00
  0.00000000E+00  0.00000000E+00  0.00000000E+00
  0.00000000E+00  0.00000000E+00  0.00000000E+00
  0.00000000E+00  0.00000000E+00  0.00000000E+00
  0.00000000E+00  0.00000000E+00  0.00000000E+00
  0.00000000E+00  0.00000000E+00  0.00000000E+00
  0.00000000E+00  0.00000000E+00  0.00000000E+00
  0.00000000E+00  0.00000000E+00  0.00000000E+00
  0.00000000E+00  0.00000000E+00  0.00000000E+00
  0.00000000E+00  0.00000000E+00  0.00000000E+00
  0.00000000E+00  0.00000000E+00  0.00000000E+00
  0.00000000E+00  0.00000000E+00  0.00000000E+00
  0.00000000E+00  0.00000000E+00  0.00000000E+00
  0.00000000E+00  0.00000000E+00  0.00000000E+00
  0.00000000E+00  0.00000000E+00  0.00000000E+00
  0.00000000E+00  0.00000000E+00  0.00000000E+00
  0.00000000E+00  0.00000000E+00  0.00000000E+00
  0.00000000E+00  0.00000000E+00  0.00000000E+00
  0.00000000E+00  0.00000000E+00  0.00000000E+00
  0.00000000E+00  0.00000000E+00  0.00000000E+00
  0.00000000E+00  0.00000000E+00  0.00000000E+00
  0.00000000E+00  0.00000000E+00  0.00000000E+00
  0.00000000E+00  0.00000000E+00  0.00000000E+00
  0.00000000E+00  0.00000000E+00  0.00000000E+00
  0.00000000E+00  0.00000000E+00  0.00000000E+00
  0.00000000E+00  0.00000000E+00  0.00000000E+00
  0.00000000E+00  0.00000000E+00  0.00000000E+00
  0.00000000E+00  0.00000000E+00  0.00000000E+00
  0.00000000E+00  0.00000000E+00  0.00000000E+00
  0.00000000E+00  0.00000000E+00  0.00000000E+00
  0.00000000E+00  0.00000000E+00  0.00000000E+00
  0.00000000E+00  0.00000000E+00  0.00000000E+00
  0.00000000E+00  0.00000000E+00  0.00000000E+00
  0.00000000E+00  0.00000000E+00  0.00000000E+00
  0.00000000E+00  0.00000000E+00  0.00000000E+00
  0.00000000E+00  0.00000000E+00  0.00000000E+00
  0.00000000E+00  0.00000000E+00  0.00000000E+00
  0.00000000E+00  0.00000000E+00  0.00000000E+00
  0.00000000E+00  0.00000000E+00  0.00000000E+00
  0.00000000E+00  0.00000000E+00  0.00000000E+00
  0.00000000E+00  0.00000000E+00  0.00000000E+00
  0.00000000E+00  0.00000000E+00  0.00000000E+00
  0.00000000E+00  0.00000000E+00  0.00000000E+00
  0.00000000E+00  0.00000000E+00  0.00000000E+00
  0.00000000E+00  0.00000000E+00  0.00000000E+00
  0.00000000E+00  0.00000000E+00  0.00000000E+00
  0.00000000E+00  0.00000000E+00  0.00000000E+00
  0.00000000E+00  0.00000000E+00  0.00000000E+00
  0.00000000E+00  0.00000000E+00  0.00000000E+00
  0.00000000E+00  0.00000000E+00  0.00000000E+00
  0.00000000E+00  0.00000000E+00  0.00000000E+00
  0.00000000E+00  0.00000000E+00  0.00000000E+00
  0.00000000E+00  0.00000000E+00  0.00000000E+00
  0.00000000E+00  0.00000000E+00  0.00000000E+00
  0.00000000E+00  0.00000000E+00  0.00000000E+00
  0.00000000E+00  0.00000000E+00  0.00000000E+00
  0.00000000E+00  0.00000000E+00  0.00000000E+00
  0.00000000E+00  0.00000000E+00  0.00000000E+00
  0.00000000E+00  0.00000000E+00  0.00000000E+00
  0.00000000E+00  0.00000000E+00  0.00000000E+00
  0.00000000E+00  0.00000000E+00  0.00000000E+00
  0.00000000E+00  0.00000000E+00  0.00000000E+00
  0.00000000E+00  0.00000000E+00  0.00000000E+00
  0.00000000E+00  0.00000000E+00  0.00000000E+00
  0.00000000E+00  0.00000000E+00  0.00000000E+00
  0.00000000E+00  0.00000000E+00  0.00000000E+00
  0.00000000E+00  0.00000000E+00  0.00000000E+00
  0.00000000E+00  0.00000000E+00  0.00000000E+00
  0.00000000E+00  0.00000000E+00  0.00000000E+00
  0.00000000E+00  0.00000000E+00  0.00000000E+00
  0.00000000E+00  0.00000000E+00  0.00000000E+00
  0.00000000E+00  0.00000000E+00  0.00000000E+00
  0.00000000E+00  0.00000000E+00  0.00000000E+00
  0.00000000E+00  0.00000000E+00  0.00000000E+00
  0.00000000E+00  0.00000000E+00  0.00000000E+00
  0.00000000E+00  0.00000000E+00  0.00000000E+00
  0.00000000E+00  0.00000000E+00  0.00000000E+00
  0.00000000E+00  0.00000000E+00  0.00000000E+00
  0.00000000E+00  0.00000000E+00  0.00000000E+00
  0.00000000E+00  0.00000000E+00  0.00000000E+00
  0.00000000E+00  0.00000000E+00  0.00000000E+00
  0.00000000E+00  0.00000000E+00  0.00000000E+00
  0.00000000E+00  0.00000000E+00  0.00000000E+00
  0.00000000E+00  0.00000000E+00  0.00000000E+00
  0.00000000E+00  0.00000000E+00  0.00000000E+00
  0.00000000E+00  0.00000000E+00  0.00000000E+00
  0.00000000E+00  0.00000000E+00  0.00000000E+00
  0.00000000E+00  0.00000000E+00  0.00000000E+00
  0.00000000E+00  0.00000000E+00  0.00000000E+00
  0.00000000E+00  0.00000000E+00  0.00000000E+00
  0.00000000E+00  0.00000000E+00  0.00000000E+00
  0.00000000E+00  0.00000000E+00  0.00000000E+00
  0.00000000E+00  0.00000000E+00  0.00000000E+00
  0.00000000E+00  0.00000000E+00  0.00000000E+00
  0.00000000E+00  0.00000000E+00  0.00000000E+00
  0.00000000E+00  0.00000000E+00  0.00000000E+00
  0.00000000E+00  0.00000000E+00  0.00000000E+00
  0.00000000E+00  0.00000000E+00  0.00000000E+00
  0.00000000E+00  0.00000000E+00  0.00000000E+00
  0.00000000E+00  0.00000000E+00  0.00000000E+00
  0.00000000E+00  0.00000000E+00  0.00000000E+00
  0.00000000E+00  0.00000000E+00  0.00000000E+00
  0.00000000E+00  0.00000000E+00  0.00000000E+00
  0.00000000E+00  0.00000000E+00  0.00000000E+00
  0.00000000E+00  0.00000000E+00  0.00000000E+00
  0.00000000E+00  0.00000000E+00  0.00000000E+00
  0.00000000E+00  0.00000000E+00  0.00000000E+00
  0.00000000E+00  0.00000000E+00  0.00000000E+00
  0.00000000E+00  0.00000000E+00  0.00000000E+00
  0.00000000E+00  0.00000000E+00  0.00000000E+00
  0.00000000E+00  0.00000000E+00  0.00000000E+00
  0.00000000E+00  0.00000000E+00  0.00000000E+00
  0.00000000E+00  0.00000000E+00  0.00000000E+00
  0.00000000E+00  0.00000000E+00  0.00000000E+00
  0.00000000E+00  0.00000000E+00  0.00000000E+00
  0.00000000E+00  0.00000000E+00  0.00000000E+00
  0.00000000E+00  0.00000000E+00  0.00000000E+00
  0.00000000E+00  0.00000000E+00  0.00000000E+00
  0.00000000E+00  0.00000000E+00  0.00000000E+00
  0.00000000E+00  0.00000000E+00  0.00000000E+00
  0.00000000E+00  0.00000000E+00  0.00000000E+00
  0.00000000E+00  0.00000000E+00  0.00000000E+00
  0.00000000E+00  0.00000000E+00  0.00000000E+00
  0.00000000E+00  0.00000000E+00  0.00000000E+00
  0.00000000E+00  0.00000000E+00  0.00000000E+00
  0.00000000E+00  0.00000000E+00  0.00000000E+00
  0.00000000E+00  0.00000000E+00  0.00000000E+00
  0.00000000E+00  0.00000000E+00  0.00000000E+00
  0.00000000E+00  0.00000000E+00  0.00000000E+00
  0.00000000E+00  0.00000000E+00  0.00000000E+00
  0.00000000E+00  0.00000000E+00  0.00000000E+00
  0.00000000E+00  0.00000000E+00  0.00000000E+00
  0.00000000E+00  0.00000000E+00  0.00000000E+00
  0.00000000E+00  0.00000000E+00  0.00000000E+00
  0.00000000E+00  0.00000000E+00  0.00000000E+00
  0.00000000E+00  0.00000000E+00  0.00000000E+00
  0.00000000E+00  0.00000000E+00  0.00000000E+00
  0.00000000E+00  0.00000000E+00  0.00000000E+00
  0.00000000E+00  0.00000000E+00  0.00000000E+00
  0.00000000E+00  0.00000000E+00  0.00000000E+00
  0.00000000E+00  0.00000000E+00  0.00000000E+00
