supercell of icsd_191774.cif            
   1.00000000000000     
    11.3401394333091634   -0.0673684192494558   -0.0270436943081211
    -5.7284529087351679    9.9454044975567744    0.0263099753750889
    -0.0293781569682148    0.0156693906068493   11.4932983782500457
   N    In   La
    36    20    16
Direct
  0.2304442460064777  0.0957001572822378  0.4550373254826852
  0.1179947754852648  0.2211709038834826  0.2305077905424113
  0.8865118308342730  0.1105535502436155  0.9681936817843919
  0.7775382589007407  0.2320180815802715  0.6837526297558867
  0.5355734500779050  0.1017716075263593  0.4381389268268450
  0.4371662593003762  0.2030156667317726  0.1961047725712675
  0.2170316269474171  0.0983961602033503  0.9337304714486052
  0.1033941938820035  0.2185477967046765  0.6903544713374146
  0.8708090253752800  0.0899297969879171  0.4308004102477128
  0.7728304587793176  0.2224454730976859  0.2014840813776431
  0.5837576584719386  0.1226481177862340  0.9297289644227433
  0.4626326416891473  0.2330734977535087  0.6945901924617459
  0.2159405998907857  0.4488771443301829  0.4470600866499339
  0.1017827300611955  0.5367229428242268  0.1927908584621534
  0.9004424919120027  0.4252543073380082  0.9371130698861663
  0.7812890199450848  0.5541325194810724  0.7069613917888233
  0.5661078798150783  0.4307596950087529  0.4503060908129299
  0.4490294541184738  0.5696646320936622  0.2297657246028848
  0.2268694529171356  0.4522722761340603  0.9569631221720840
  0.1031921052549691  0.5616948261565611  0.7014040441741969
  0.8775831915347254  0.4573115093963978  0.4292901146414252
  0.7897616190087433  0.5513306380952585  0.1762092654163041
  0.5538831564893414  0.4458291869992408  0.9418796359338373
  0.4541350505184525  0.5490560074955582  0.6921053312368386
  0.2268347953896210  0.7956475475049771  0.4334858147974501
  0.1123117798423436  0.9066144364846593  0.1840874149360729
  0.8927022430552327  0.7999438246647586  0.9380508667687479
  0.7933862310557132  0.8863239698216177  0.6817656124369975
  0.5566357861795055  0.8009828530819902  0.4597046961833726
  0.4583545734961945  0.8977977510312840  0.1880418868119094
  0.1973325244494362  0.7655897942662548  0.9521051622068413
  0.0943540315489102  0.8616726062051328  0.6856950009179030
  0.8808306065903864  0.7693607352061846  0.4509896692927455
  0.7635964424594306  0.8932119130270735  0.1904271777194211
  0.5734951776265902  0.7911929897551317  0.9285304074773606
  0.4283539991981300  0.9013637738528502  0.7012382613195030
  0.2290606331661067  0.1033938791973767  0.2606220993087760
  0.7850953666669866  0.2227582702674553  0.0062312599620284
  0.5483981737455963  0.1018905347870316  0.2491179079422565
  0.4500497996475588  0.2186534290967685  0.5020529354978862
  0.8766734776084633  0.1044550133956577  0.2425955002510705
  0.5662039595104886  0.1248269542747806  0.7421352769501226
  0.2202624031679079  0.4476138825280458  0.2558657307499885
  0.8880459322427185  0.4380659684306778  0.7481931701043720
  0.1077190841168374  0.5453363420655961  0.9983546816816471
  0.8868255740221400  0.4430148377146779  0.2410272773928952
  0.7778891107756394  0.5545902607987685  0.5100522098535976
  0.5584703896247376  0.4447307251343489  0.7453267495580320
  0.1062618120243428  0.8786469946915787  0.4984832425745438
  0.8874371259517204  0.7762056244162139  0.7422757613980053
  0.7779200813182214  0.8952399573611984  0.9999500167753084
  0.5560407242339309  0.7958537354709350  0.2631499378297164
  0.4321751496500212  0.8995150617082004  0.5039192871480296
  0.2039023213437332  0.7706916102638459  0.7568053575794238
  0.1051344255659146  0.8935856157948052  0.9936252020526055
  0.7817692363166202  0.8885018551333275  0.4949962608201091
  0.1055733573289004  0.2116539227588063  0.4743731710849985
  0.8809587893980861  0.1073262021788537  0.7552533810168569
  0.2192237524775962  0.0971301376887013  0.7284280875236817
  0.1186860123130984  0.2201651516220267  0.0185475420553800
  0.7694725568666101  0.2232229713535503  0.4774136690865731
  0.4505720439122953  0.2155533959093106  0.9870095422253584
  0.1044069092160314  0.5688602288160070  0.4953404766204130
  0.7965473525528921  0.5600792615686672  0.9698824742641108
  0.5634582011440799  0.4329638462593834  0.2478600431155158
  0.4527318567660643  0.5577464835575867  0.4794134809552375
  0.2217783367825419  0.4450195922704552  0.7474108144010003
  0.4599775500690413  0.5738243476838960  0.0098231246341953
  0.2218636882963452  0.7799996217137064  0.2284462393145006
  0.8827415796799087  0.7790048154509108  0.2434145622844994
  0.5602839737942702  0.7821269320617645  0.7211539720276008
  0.4524998905949218  0.8958738465389970  0.9768551290544281
 
  0.00000000E+00  0.00000000E+00  0.00000000E+00
  0.00000000E+00  0.00000000E+00  0.00000000E+00
  0.00000000E+00  0.00000000E+00  0.00000000E+00
  0.00000000E+00  0.00000000E+00  0.00000000E+00
  0.00000000E+00  0.00000000E+00  0.00000000E+00
  0.00000000E+00  0.00000000E+00  0.00000000E+00
  0.00000000E+00  0.00000000E+00  0.00000000E+00
  0.00000000E+00  0.00000000E+00  0.00000000E+00
  0.00000000E+00  0.00000000E+00  0.00000000E+00
  0.00000000E+00  0.00000000E+00  0.00000000E+00
  0.00000000E+00  0.00000000E+00  0.00000000E+00
  0.00000000E+00  0.00000000E+00  0.00000000E+00
  0.00000000E+00  0.00000000E+00  0.00000000E+00
  0.00000000E+00  0.00000000E+00  0.00000000E+00
  0.00000000E+00  0.00000000E+00  0.00000000E+00
  0.00000000E+00  0.00000000E+00  0.00000000E+00
  0.00000000E+00  0.00000000E+00  0.00000000E+00
  0.00000000E+00  0.00000000E+00  0.00000000E+00
  0.00000000E+00  0.00000000E+00  0.00000000E+00
  0.00000000E+00  0.00000000E+00  0.00000000E+00
  0.00000000E+00  0.00000000E+00  0.00000000E+00
  0.00000000E+00  0.00000000E+00  0.00000000E+00
  0.00000000E+00  0.00000000E+00  0.00000000E+00
  0.00000000E+00  0.00000000E+00  0.00000000E+00
  0.00000000E+00  0.00000000E+00  0.00000000E+00
  0.00000000E+00  0.00000000E+00  0.00000000E+00
  0.00000000E+00  0.00000000E+00  0.00000000E+00
  0.00000000E+00  0.00000000E+00  0.00000000E+00
  0.00000000E+00  0.00000000E+00  0.00000000E+00
  0.00000000E+00  0.00000000E+00  0.00000000E+00
  0.00000000E+00  0.00000000E+00  0.00000000E+00
  0.00000000E+00  0.00000000E+00  0.00000000E+00
  0.00000000E+00  0.00000000E+00  0.00000000E+00
  0.00000000E+00  0.00000000E+00  0.00000000E+00
  0.00000000E+00  0.00000000E+00  0.00000000E+00
  0.00000000E+00  0.00000000E+00  0.00000000E+00
  0.00000000E+00  0.00000000E+00  0.00000000E+00
  0.00000000E+00  0.00000000E+00  0.00000000E+00
  0.00000000E+00  0.00000000E+00  0.00000000E+00
  0.00000000E+00  0.00000000E+00  0.00000000E+00
  0.00000000E+00  0.00000000E+00  0.00000000E+00
  0.00000000E+00  0.00000000E+00  0.00000000E+00
  0.00000000E+00  0.00000000E+00  0.00000000E+00
  0.00000000E+00  0.00000000E+00  0.00000000E+00
  0.00000000E+00  0.00000000E+00  0.00000000E+00
  0.00000000E+00  0.00000000E+00  0.00000000E+00
  0.00000000E+00  0.00000000E+00  0.00000000E+00
  0.00000000E+00  0.00000000E+00  0.00000000E+00
  0.00000000E+00  0.00000000E+00  0.00000000E+00
  0.00000000E+00  0.00000000E+00  0.00000000E+00
  0.00000000E+00  0.00000000E+00  0.00000000E+00
  0.00000000E+00  0.00000000E+00  0.00000000E+00
  0.00000000E+00  0.00000000E+00  0.00000000E+00
  0.00000000E+00  0.00000000E+00  0.00000000E+00
  0.00000000E+00  0.00000000E+00  0.00000000E+00
  0.00000000E+00  0.00000000E+00  0.00000000E+00
  0.00000000E+00  0.00000000E+00  0.00000000E+00
  0.00000000E+00  0.00000000E+00  0.00000000E+00
  0.00000000E+00  0.00000000E+00  0.00000000E+00
  0.00000000E+00  0.00000000E+00  0.00000000E+00
  0.00000000E+00  0.00000000E+00  0.00000000E+00
  0.00000000E+00  0.00000000E+00  0.00000000E+00
  0.00000000E+00  0.00000000E+00  0.00000000E+00
  0.00000000E+00  0.00000000E+00  0.00000000E+00
  0.00000000E+00  0.00000000E+00  0.00000000E+00
  0.00000000E+00  0.00000000E+00  0.00000000E+00
  0.00000000E+00  0.00000000E+00  0.00000000E+00
  0.00000000E+00  0.00000000E+00  0.00000000E+00
  0.00000000E+00  0.00000000E+00  0.00000000E+00
  0.00000000E+00  0.00000000E+00  0.00000000E+00
  0.00000000E+00  0.00000000E+00  0.00000000E+00
  0.00000000E+00  0.00000000E+00  0.00000000E+00
