generated by phonopy                    
   1.00000000000000     
    10.0351470768999995   -0.0000022330999784   -0.0000001056124209
    -5.0175765436399997    8.6906901959899994    0.0000001395531216
    -0.0000001735893656    0.0000001431815548   14.9533752540999991
   Pb   Cu   P    O 
    19     1    12    50
Direct
  0.9959070745905194  0.7707918410367753  0.1205177210667898
  0.9956145385300132  0.7707250988662082  0.6253424191540020
  0.0002710173844847  0.2663571589508678  0.3737413887807506
  0.0004144990125425  0.2622236903693889  0.8789025102174364
  0.2288883917789022  0.2242477613926681  0.1212591936809702
  0.2299086134706201  0.2255399634244455  0.6260737354982027
  0.7337052978111558  0.7340194061231884  0.3731309443417601
  0.7380179471384309  0.7386317333300028  0.8782445121058728
  0.7755661170832724  0.0036944046579919  0.1214279648464895
  0.7748849380022733  0.0046759620163428  0.6264796740515806
  0.2657490933058071  0.9996008867808186  0.3730034930816117
  0.2629523136928427  0.0007734233044445  0.8784584522149075
  0.6664303993380543  0.3334799916694635  0.5015631840616521
  0.3347661106943818  0.6664866113318055  0.0060201151947723
  0.3348466939032733  0.6671566704180592  0.5048937880958420
  0.3319684270941181  0.6658110678463061  0.2449188622492855
  0.3311386768356428  0.6669782153254715  0.7456404045280109
  0.6670332731248010  0.3335075019855722  0.2296173074962979
  0.6671461960873799  0.3335824933368272  0.7575940449145122
  0.6657460175854979  0.3304185171979981  0.0099281203745960
  0.6214213451554969  0.5919370846670233  0.1191584350231167
  0.6226980510508966  0.5939865208193780  0.6241483749540890
  0.3647438463674320  0.3926423781561041  0.3741294175143750
  0.3692564820831521  0.3914640851512274  0.8753232599272280
  0.4070570457833185  0.0282195077666358  0.1194070557913989
  0.4066261213746856  0.0293193984990623  0.6239100353019893
  0.6069832421824302  0.9718038476364512  0.3742599329978589
  0.6093765712359982  0.9788141245925104  0.8760503084587441
  0.9711782729294072  0.3782933982702659  0.1192569928283476
  0.9709162299832172  0.3777898181180959  0.6243161784988445
  0.0278175245233996  0.6351009061381490  0.3739666896603708
  0.0226663645625607  0.6312844382217548  0.8747003354164420
  0.4917324058493122  0.6354265066180176  0.1244962380742507
  0.4992668594914420  0.6459886118676508  0.6251008697100602
  0.4675343740138587  0.3179320424701402  0.3722043769285648
  0.4687210140131484  0.3126819685045419  0.8737799570925304
  0.3629521816019192  0.8549438792627129  0.1246036518182692
  0.3543791330317134  0.8537398526177142  0.6251428973535980
  0.6818406660584202  0.1493811523691377  0.3727103114908346
  0.6874086651251403  0.1571202990506180  0.8755154344570855
  0.1442368228764792  0.5079879266450007  0.1243451055711731
  0.1464409042257202  0.5011838192119100  0.6255463844548217
  0.8503078876519012  0.5320963587895662  0.3719093118162249
  0.8445089718321981  0.5323760414431717  0.8722934103149598
  0.7403746927492563  0.6925240630145382  0.0450787768655800
  0.7295687996660334  0.6586560975382127  0.5396767938738378
  0.2538311644697302  0.3414122412352967  0.4566046369572803
  0.2552513164009085  0.3367842975256607  0.9565408231379635
  0.3077672528208737  0.0474891635721733  0.0448433388272775
  0.3416258882906575  0.0710241852576985  0.5394637892676855
  0.6570483078753995  0.9113434693690792  0.4569292548089336
  0.6627401837867737  0.9180675835169509  0.9572480891864075
  0.9526959830626751  0.2589523310777651  0.0453420066735788
  0.9294650458587554  0.2707425692584664  0.5400265269958737
  0.0867942601118656  0.7465957584779943  0.4561814062354870
  0.0802874695886260  0.7462853270789722  0.9554156834738947
  0.2608535491072033  0.3549706192668296  0.2889889388073357
  0.2676068481314573  0.3590881825122523  0.7897370124185272
  0.7134244977903634  0.6294508729069364  0.2095460036823695
  0.7289332161926367  0.6562686072391628  0.7086010518447452
  0.6459353806290835  0.9063655419885421  0.2892399350911674
  0.6438719941031437  0.9115248925402568  0.7903999209834609
  0.3689297818514987  0.0829565755906359  0.2095024003241406
  0.3448538400593293  0.0737515785521552  0.7083880067184438
  0.0943129402780158  0.7384416344498632  0.2886232979973187
  0.0939547953126905  0.7315953029179170  0.7887491593843379
  0.9167566065240322  0.2866458652657187  0.2097126881698372
  0.9261648358825170  0.2719857347125156  0.7089859676887613
  0.5515712757316891  0.4167641104501811  0.0997459978298565
  0.5431403313392735  0.4142542276584109  0.6226908184089126
  0.4705544035505653  0.5749126229660391  0.3791872583404867
  0.4764732681289701  0.5728954845064536  0.8828903199049023
  0.5825463857584268  0.1330897861301779  0.1005668250601559
  0.5862903110297850  0.1291033129462065  0.6221548409805919
  0.4247636551701390  0.8953492460054377  0.3785451600013658
  0.4277147233517056  0.9038783287143985  0.8824661175595523
  0.8656689252941447  0.4478844072942891  0.0995614448133466
  0.8709652026324051  0.4575691533768023  0.6222317807095479
  0.1044609125664735  0.5295631804283900  0.3794602211809348
  0.0965343840252615  0.5239224843388399  0.8838431849233572
  0.0002301854902740  0.9995183171368183  0.1345176770483150
  0.0002001827487561  0.0004125388941532  0.6289361672945262
 
  0.00000000E+00  0.00000000E+00  0.00000000E+00
  0.00000000E+00  0.00000000E+00  0.00000000E+00
  0.00000000E+00  0.00000000E+00  0.00000000E+00
  0.00000000E+00  0.00000000E+00  0.00000000E+00
  0.00000000E+00  0.00000000E+00  0.00000000E+00
  0.00000000E+00  0.00000000E+00  0.00000000E+00
  0.00000000E+00  0.00000000E+00  0.00000000E+00
  0.00000000E+00  0.00000000E+00  0.00000000E+00
  0.00000000E+00  0.00000000E+00  0.00000000E+00
  0.00000000E+00  0.00000000E+00  0.00000000E+00
  0.00000000E+00  0.00000000E+00  0.00000000E+00
  0.00000000E+00  0.00000000E+00  0.00000000E+00
  0.00000000E+00  0.00000000E+00  0.00000000E+00
  0.00000000E+00  0.00000000E+00  0.00000000E+00
  0.00000000E+00  0.00000000E+00  0.00000000E+00
  0.00000000E+00  0.00000000E+00  0.00000000E+00
  0.00000000E+00  0.00000000E+00  0.00000000E+00
  0.00000000E+00  0.00000000E+00  0.00000000E+00
  0.00000000E+00  0.00000000E+00  0.00000000E+00
  0.00000000E+00  0.00000000E+00  0.00000000E+00
  0.00000000E+00  0.00000000E+00  0.00000000E+00
  0.00000000E+00  0.00000000E+00  0.00000000E+00
  0.00000000E+00  0.00000000E+00  0.00000000E+00
  0.00000000E+00  0.00000000E+00  0.00000000E+00
  0.00000000E+00  0.00000000E+00  0.00000000E+00
  0.00000000E+00  0.00000000E+00  0.00000000E+00
  0.00000000E+00  0.00000000E+00  0.00000000E+00
  0.00000000E+00  0.00000000E+00  0.00000000E+00
  0.00000000E+00  0.00000000E+00  0.00000000E+00
  0.00000000E+00  0.00000000E+00  0.00000000E+00
  0.00000000E+00  0.00000000E+00  0.00000000E+00
  0.00000000E+00  0.00000000E+00  0.00000000E+00
  0.00000000E+00  0.00000000E+00  0.00000000E+00
  0.00000000E+00  0.00000000E+00  0.00000000E+00
  0.00000000E+00  0.00000000E+00  0.00000000E+00
  0.00000000E+00  0.00000000E+00  0.00000000E+00
  0.00000000E+00  0.00000000E+00  0.00000000E+00
  0.00000000E+00  0.00000000E+00  0.00000000E+00
  0.00000000E+00  0.00000000E+00  0.00000000E+00
  0.00000000E+00  0.00000000E+00  0.00000000E+00
  0.00000000E+00  0.00000000E+00  0.00000000E+00
  0.00000000E+00  0.00000000E+00  0.00000000E+00
  0.00000000E+00  0.00000000E+00  0.00000000E+00
  0.00000000E+00  0.00000000E+00  0.00000000E+00
  0.00000000E+00  0.00000000E+00  0.00000000E+00
  0.00000000E+00  0.00000000E+00  0.00000000E+00
  0.00000000E+00  0.00000000E+00  0.00000000E+00
  0.00000000E+00  0.00000000E+00  0.00000000E+00
  0.00000000E+00  0.00000000E+00  0.00000000E+00
  0.00000000E+00  0.00000000E+00  0.00000000E+00
  0.00000000E+00  0.00000000E+00  0.00000000E+00
  0.00000000E+00  0.00000000E+00  0.00000000E+00
  0.00000000E+00  0.00000000E+00  0.00000000E+00
  0.00000000E+00  0.00000000E+00  0.00000000E+00
  0.00000000E+00  0.00000000E+00  0.00000000E+00
  0.00000000E+00  0.00000000E+00  0.00000000E+00
  0.00000000E+00  0.00000000E+00  0.00000000E+00
  0.00000000E+00  0.00000000E+00  0.00000000E+00
  0.00000000E+00  0.00000000E+00  0.00000000E+00
  0.00000000E+00  0.00000000E+00  0.00000000E+00
  0.00000000E+00  0.00000000E+00  0.00000000E+00
  0.00000000E+00  0.00000000E+00  0.00000000E+00
  0.00000000E+00  0.00000000E+00  0.00000000E+00
  0.00000000E+00  0.00000000E+00  0.00000000E+00
  0.00000000E+00  0.00000000E+00  0.00000000E+00
  0.00000000E+00  0.00000000E+00  0.00000000E+00
  0.00000000E+00  0.00000000E+00  0.00000000E+00
  0.00000000E+00  0.00000000E+00  0.00000000E+00
  0.00000000E+00  0.00000000E+00  0.00000000E+00
  0.00000000E+00  0.00000000E+00  0.00000000E+00
  0.00000000E+00  0.00000000E+00  0.00000000E+00
  0.00000000E+00  0.00000000E+00  0.00000000E+00
  0.00000000E+00  0.00000000E+00  0.00000000E+00
  0.00000000E+00  0.00000000E+00  0.00000000E+00
  0.00000000E+00  0.00000000E+00  0.00000000E+00
  0.00000000E+00  0.00000000E+00  0.00000000E+00
  0.00000000E+00  0.00000000E+00  0.00000000E+00
  0.00000000E+00  0.00000000E+00  0.00000000E+00
  0.00000000E+00  0.00000000E+00  0.00000000E+00
  0.00000000E+00  0.00000000E+00  0.00000000E+00
  0.00000000E+00  0.00000000E+00  0.00000000E+00
  0.00000000E+00  0.00000000E+00  0.00000000E+00
