supercell of POSCAR                     
   1.03600000000000     
     9.6051007291200001   -5.6678653607799996   -9.9907275475200006
     9.5551777488200003    5.5783510108199996    9.9928581731800001
    -1.5573508785200001   -8.3719044994900003    4.9655686364999996
   Al   Gd   N 
    72    23    96
Direct
  0.3019411993662615  0.2875061907126550  0.5402465693935525
  0.1436156234561139  0.2432609967188242  0.3121916355742371
  0.3084135402557067  0.4088568876780698  0.3118881182209989
  0.4622306247245334  0.3224272635059151  0.7891351529139854
  0.1441883696290347  0.4971781626149863  0.7830635015741123
  0.2947378523870654  0.1671247460782652  0.7800378920165301
  0.4686722270540642  0.4468055231885231  0.5338180274911082
  0.1433954763695411  0.1196755929072495  0.5393426614265735
  0.4781696942796430  0.0726610874916247  0.3105351297864374
  0.2774294051222128  0.1079544452396277  0.3420760432582810
  0.1162932523525839  0.0702880985072198  0.1032206507162243
  0.1134980842914501  0.1951332758187334  0.8179582077699763
  0.2801047188089711  0.3481913383689985  0.8045139873145857
  0.1113756891058912  0.3244762877921445  0.5880947816485573
  0.2702739233432183  0.4849713627261423  0.5758600287158870
  0.4491304774891063  0.2788271157722093  0.3466019571863157
  0.1119877336463730  0.4440246469831308  0.3379109720142779
  0.4487213414030435  0.4041389746723993  0.1091081251079871
  0.8001513721224782  0.2877507828601864  0.5386625368994018
  0.6425950508109253  0.2430987162019775  0.3129608190533162
  0.8083328341546903  0.4084906198359803  0.3095590195387032
  0.9616994907770646  0.3244034302756020  0.7882823541222663
  0.6416356011328830  0.4982328601860360  0.7844052489583220
  0.7945116990247740  0.1634976077967423  0.7765645608253635
  0.9694178191543799  0.4456516234740207  0.5320807412423747
  0.6407342412387536  0.1157576622425012  0.5364262604518046
  0.9786531513607031  0.0714041310501798  0.2975387778945944
  0.7762808073219745  0.1082632022399466  0.3360732608422055
  0.6138717653998214  0.0699023343477307  0.1033580488937034
  0.6122158634172123  0.1945287175281578  0.8202991937062905
  0.7731617307309548  0.3556965045002798  0.8110840164222139
  0.6088170383654514  0.3253105331071637  0.5892132983591978
  0.7706584567548163  0.4846367362973183  0.5761573562246625
  0.9470967764163944  0.2789189297700503  0.3356170601899464
  0.6115886413486322  0.4453796807304116  0.3418041398092342
  0.9486798549786570  0.4033298902030182  0.1035740367842024
  0.3017694614039357  0.7899870167125229  0.5380394252890142
  0.1440430155998982  0.7431484623917726  0.3105940005211068
  0.3089762126794611  0.9096214983813837  0.3108790958202690
  0.4633764946846313  0.8304866265488897  0.7882689838575985
  0.1420149389950183  0.9984907772207166  0.7842626756621840
  0.2962633675290860  0.6663497985077100  0.7792407430011892
  0.4693106484827467  0.9490641578004855  0.5305913491564240
  0.1442062701989926  0.6193847659496683  0.5373512955242177
  0.4783480694083835  0.5720349944306378  0.2988565832622285
  0.2771163379759116  0.6080978983499676  0.3345235837765657
  0.1162871562304844  0.5688070522611852  0.1012157016570683
  0.1164091224955470  0.6961799903146897  0.8161856721789249
  0.2764545199714732  0.8576715254325507  0.8112638479428753
  0.1127420962615346  0.8249076812760094  0.5882632075934708
  0.2722369578904917  0.9882149158739608  0.5746274611615618
  0.4488902388388425  0.7799744708880851  0.3343601806704868
  0.1114283956617967  0.9450604364510582  0.3395914375416851
  0.4494986152552158  0.9066452563638734  0.1025360743402146
  0.8014195085836278  0.7877133587127219  0.5379109378057763
  0.6436811215582807  0.7427839671423655  0.3106601487188740
  0.8091831606965911  0.9084373319201191  0.3092648166230916
  0.9634448004909331  0.8248096415265493  0.7881850060906714
  0.6407700310520710  0.9974112061666460  0.7835210849831071
  0.7956914586546660  0.6644733383942523  0.7785623773338273
  0.9696562520237038  0.9458998637525227  0.5330444014096685
  0.6431963047613820  0.6192248751918754  0.5382823434131296
  0.9789361748740646  0.5713504748182316  0.2974496192741469
  0.7768343763700543  0.6079273175209750  0.3354184940600646
  0.6152378087021262  0.5703516993912245  0.1030861148375948
  0.6143503361249572  0.6965504925614283  0.8156097090349732
  0.7745029310342986  0.8550760058572351  0.8113841431977775
  0.6115463604584619  0.8247460707263272  0.5872556199400094
  0.7707660176540827  0.9841057615375988  0.5754383892805848
  0.9488518490308593  0.7791545492452556  0.3356483468148426
  0.6126893976602830  0.9439006490395272  0.3380803563866905
  0.9485730870444300  0.9039389484647202  0.1032144139240359
  0.4819610947104991  0.1949288565882341  0.0449552620841658
  0.1388548006482395  0.3633262276140243  0.0267436168187061
  0.3095589296581522  0.0207670486962570  0.0394739483384257
  0.2850887828792708  0.2328022125908191  0.0865159997589089
  0.4460665056437136  0.0311586690427390  0.8068831134310415
  0.9818639608653328  0.1951368307553381  0.0406698791211397
  0.6340256419311245  0.3661663160356596  0.0338463259943396
  0.8066865155384590  0.0217677886036682  0.0404051112069652
  0.7816221506477774  0.2334044552891328  0.0789573020105792
  0.9475520550939933  0.0193473628128302  0.8198741728824501
  0.9435776742705002  0.1545457629181399  0.5718402619757939
  0.4829380949762196  0.6954717898008482  0.0375435331944090
  0.1365906977492770  0.8652980741013963  0.0317470356533462
  0.3094528652096287  0.5189603646459560  0.0366778657934006
  0.2844218900182796  0.7324848732965421  0.0827394697486028
  0.4488669782308463  0.5181657903709720  0.8192965464096957
  0.4429067388292722  0.6568162019428314  0.5737341146570785
  0.9834907572854874  0.6944460470786780  0.0385991043017526
  0.6363911371174353  0.8643015742947284  0.0310051321204980
  0.8085036291815939  0.5205544224864624  0.0386177478669509
  0.7844771885454165  0.7327043798157860  0.0817186826645511
  0.9501133940621713  0.5185550100096918  0.8182137543045584
  0.9444464037219120  0.6547777812453575  0.5720924974196677
  0.2345850410362331  0.3687453700062306  0.6215645967579420
  0.0732408812196184  0.3240525793429683  0.3988509642483962
  0.2385912767822802  0.4902762666515770  0.3901401099956487
  0.4288293732587078  0.2919245494500728  0.1646761650998485
  0.0703354939233520  0.4544027548704577  0.1490736452624688
  0.2364259032354994  0.1020995172404895  0.1590917330719819
  0.4038553989965621  0.3960359851813919  0.9178537328451881
  0.0918122620722173  0.0818946732682022  0.9026949288029087
  0.2299669106017106  0.2441472038265076  0.8752497173010099
  0.3945911275408562  0.0176560504005252  0.5997805365815410
  0.0893854629981803  0.2032986870799149  0.6327925804506265
  0.4033060182053774  0.1548471205866448  0.3566821701861045
  0.2187982691512076  0.1905724315278690  0.4359101744298997
  0.0618494699442351  0.1453055935449470  0.2089571144316480
  0.2154918702872877  0.3202169607640215  0.2115136816498904
  0.3635819875693471  0.1210398788647282  0.9128686623343469
  0.0394979544648351  0.2678808482755670  0.8854063374914247
  0.2132314079748241  0.4332363750051087  0.8836235096478475
  0.3562394706352663  0.2601293273578023  0.6992140905949142
  0.0384625242397547  0.4066075211091231  0.6835260904399831
  0.2114603852131438  0.0688270418848163  0.6718849869839900
  0.3817442707265002  0.3529073205506350  0.4356069093558830
  0.0483087653340633  0.0257170669471236  0.4398048804218391
  0.3904316588078984  0.4750684505364120  0.2126668948208916
  0.7361168521001105  0.3673301315107906  0.6259251174098921
  0.5757208048590172  0.3253827207471431  0.4018910472697002
  0.7392164587058687  0.4894921976623010  0.3905353821135833
  0.9241508637263109  0.2914008059144848  0.1559732621291801
  0.5701747525305976  0.4572645090776817  0.1557386814690389
  0.7341547234715904  0.1044701070299041  0.1564462750331472
  0.8983375492121652  0.3930212189481992  0.9076932334413499
  0.5935958087920099  0.0829213013798906  0.9024942765445303
  0.7317619243239974  0.2433070445283647  0.8614154059518313
  0.8950863876994077  0.0155355059342384  0.6094340386880575
  0.5954889122471343  0.2047522294437485  0.6357135725028300
  0.9038468187179660  0.1546849270926174  0.3545901851481190
  0.7184242259858493  0.1899113630074822  0.4359454289091289
  0.5608451540539434  0.1443613208348182  0.2135571262693929
  0.7148580529606008  0.3194061165784419  0.2099150619150691
  0.8642810855890843  0.1175327241054021  0.9092691629178873
  0.5408554288935221  0.2673683657888049  0.8890782710625231
  0.7090037090398269  0.4349107279448958  0.8893986391178785
  0.8663351474321743  0.2453249707161547  0.6806778458119709
  0.5392860542737097  0.4068583672469899  0.6842869410524770
  0.7115585995924576  0.0666177181791952  0.6696213493906740
  0.8809131217158139  0.3518736943454144  0.4330746700481711
  0.5519997931525467  0.0224033034882112  0.4375237485658303
  0.8910184288877616  0.4743429916771476  0.2092893785583030
  0.2378090885917246  0.8694893427841208  0.6253889087843305
  0.0750747010802115  0.8242692930512021  0.3992166616444877
  0.2371662755680575  0.9888797041198671  0.3893967628473618
  0.4278042048552706  0.7935666490355970  0.1537099602166734
  0.0697851224921564  0.9563330366595650  0.1517350395812045
  0.2360394963969981  0.6012644404156546  0.1542401177527921
  0.4016210735669858  0.9012727597273127  0.9053847069815859
  0.0947593923064147  0.5828265669094321  0.9011565305549922
  0.2348322607280977  0.7461900682985885  0.8677143226018771
  0.3948100352657562  0.5171892084740435  0.6092750946874261
  0.0907986045930755  0.7035754404847481  0.6312288753477588
  0.4047994605019483  0.6560411178652572  0.3551371625158026
  0.2201077551428270  0.6910066818233886  0.4341073662934178
  0.0624943073255366  0.6444101205705053  0.2080550188827885
  0.2162700037583534  0.8196885390219677  0.2094171457632967
  0.3659905464515134  0.6176604538860531  0.9080112814607233
  0.0422224696437112  0.7681794657834828  0.8847735643972712
  0.2101085186890259  0.9359504881292224  0.8887611839156904
  0.3670494973229026  0.7489937522792758  0.6829934794270400
  0.0394774270189941  0.9062736404441409  0.6827558455962119
  0.2126161258883030  0.5692685287647592  0.6705000802152981
  0.3826666077913075  0.8519478942891396  0.4314169611937473
  0.0488772766083656  0.5254164276322939  0.4390200636327464
  0.3922520391353785  0.9760870250090790  0.2123306153825055
  0.7376380192521808  0.8670076969965734  0.6252718211184956
  0.5759623083152761  0.8236961075799769  0.3979312131343278
  0.7401004186458877  0.9890566864671939  0.3892998545604058
  0.9278294693624218  0.7917455904088442  0.1557027748242916
  0.5715736035269785  0.9555767912947957  0.1505642068993396
  0.7353792966008186  0.6021914127639434  0.1552796263364726
  0.8999063594211094  0.8925130478916472  0.9077743158571252
  0.5933064585417824  0.5836821999115074  0.9022145820963772
  0.7334485270455460  0.7438802568628375  0.8662450525112391
  0.8949995257142973  0.5156849206244374  0.6088768303784420
  0.5898946922922548  0.7034292331315086  0.6308328730242394
  0.9046175038025694  0.6549694225546432  0.3546697616236614
  0.7196456833542086  0.6899663656909780  0.4343590639989756
  0.5615133725777213  0.6455799385382406  0.2084556433996383
  0.7166749508613393  0.8190741008648317  0.2094049740954773
  0.8661935100123017  0.6166176562321937  0.9076909702793259
  0.5409055415871151  0.7699594065611990  0.8831303936786341
  0.7103277049378462  0.9352332449711511  0.8879381387328280
  0.8672682959597964  0.7455910290518446  0.6811101605902792
  0.5403163415128418  0.9074331657122769  0.6805585580149014
  0.7119176513576164  0.5676558570414443  0.6707680324163618
  0.8822678914559390  0.8519428539193257  0.4325514086778881
  0.5489498376448338  0.5259577596295770  0.4407863111710810
  0.8907308148301922  0.9746237261123838  0.2082531645848533
 
  0.00000000E+00  0.00000000E+00  0.00000000E+00
  0.00000000E+00  0.00000000E+00  0.00000000E+00
  0.00000000E+00  0.00000000E+00  0.00000000E+00
  0.00000000E+00  0.00000000E+00  0.00000000E+00
  0.00000000E+00  0.00000000E+00  0.00000000E+00
  0.00000000E+00  0.00000000E+00  0.00000000E+00
  0.00000000E+00  0.00000000E+00  0.00000000E+00
  0.00000000E+00  0.00000000E+00  0.00000000E+00
  0.00000000E+00  0.00000000E+00  0.00000000E+00
  0.00000000E+00  0.00000000E+00  0.00000000E+00
  0.00000000E+00  0.00000000E+00  0.00000000E+00
  0.00000000E+00  0.00000000E+00  0.00000000E+00
  0.00000000E+00  0.00000000E+00  0.00000000E+00
  0.00000000E+00  0.00000000E+00  0.00000000E+00
  0.00000000E+00  0.00000000E+00  0.00000000E+00
  0.00000000E+00  0.00000000E+00  0.00000000E+00
  0.00000000E+00  0.00000000E+00  0.00000000E+00
  0.00000000E+00  0.00000000E+00  0.00000000E+00
  0.00000000E+00  0.00000000E+00  0.00000000E+00
  0.00000000E+00  0.00000000E+00  0.00000000E+00
  0.00000000E+00  0.00000000E+00  0.00000000E+00
  0.00000000E+00  0.00000000E+00  0.00000000E+00
  0.00000000E+00  0.00000000E+00  0.00000000E+00
  0.00000000E+00  0.00000000E+00  0.00000000E+00
  0.00000000E+00  0.00000000E+00  0.00000000E+00
  0.00000000E+00  0.00000000E+00  0.00000000E+00
  0.00000000E+00  0.00000000E+00  0.00000000E+00
  0.00000000E+00  0.00000000E+00  0.00000000E+00
  0.00000000E+00  0.00000000E+00  0.00000000E+00
  0.00000000E+00  0.00000000E+00  0.00000000E+00
  0.00000000E+00  0.00000000E+00  0.00000000E+00
  0.00000000E+00  0.00000000E+00  0.00000000E+00
  0.00000000E+00  0.00000000E+00  0.00000000E+00
  0.00000000E+00  0.00000000E+00  0.00000000E+00
  0.00000000E+00  0.00000000E+00  0.00000000E+00
  0.00000000E+00  0.00000000E+00  0.00000000E+00
  0.00000000E+00  0.00000000E+00  0.00000000E+00
  0.00000000E+00  0.00000000E+00  0.00000000E+00
  0.00000000E+00  0.00000000E+00  0.00000000E+00
  0.00000000E+00  0.00000000E+00  0.00000000E+00
  0.00000000E+00  0.00000000E+00  0.00000000E+00
  0.00000000E+00  0.00000000E+00  0.00000000E+00
  0.00000000E+00  0.00000000E+00  0.00000000E+00
  0.00000000E+00  0.00000000E+00  0.00000000E+00
  0.00000000E+00  0.00000000E+00  0.00000000E+00
  0.00000000E+00  0.00000000E+00  0.00000000E+00
  0.00000000E+00  0.00000000E+00  0.00000000E+00
  0.00000000E+00  0.00000000E+00  0.00000000E+00
  0.00000000E+00  0.00000000E+00  0.00000000E+00
  0.00000000E+00  0.00000000E+00  0.00000000E+00
  0.00000000E+00  0.00000000E+00  0.00000000E+00
  0.00000000E+00  0.00000000E+00  0.00000000E+00
  0.00000000E+00  0.00000000E+00  0.00000000E+00
  0.00000000E+00  0.00000000E+00  0.00000000E+00
  0.00000000E+00  0.00000000E+00  0.00000000E+00
  0.00000000E+00  0.00000000E+00  0.00000000E+00
  0.00000000E+00  0.00000000E+00  0.00000000E+00
  0.00000000E+00  0.00000000E+00  0.00000000E+00
  0.00000000E+00  0.00000000E+00  0.00000000E+00
  0.00000000E+00  0.00000000E+00  0.00000000E+00
  0.00000000E+00  0.00000000E+00  0.00000000E+00
  0.00000000E+00  0.00000000E+00  0.00000000E+00
  0.00000000E+00  0.00000000E+00  0.00000000E+00
  0.00000000E+00  0.00000000E+00  0.00000000E+00
  0.00000000E+00  0.00000000E+00  0.00000000E+00
  0.00000000E+00  0.00000000E+00  0.00000000E+00
  0.00000000E+00  0.00000000E+00  0.00000000E+00
  0.00000000E+00  0.00000000E+00  0.00000000E+00
  0.00000000E+00  0.00000000E+00  0.00000000E+00
  0.00000000E+00  0.00000000E+00  0.00000000E+00
  0.00000000E+00  0.00000000E+00  0.00000000E+00
  0.00000000E+00  0.00000000E+00  0.00000000E+00
  0.00000000E+00  0.00000000E+00  0.00000000E+00
  0.00000000E+00  0.00000000E+00  0.00000000E+00
  0.00000000E+00  0.00000000E+00  0.00000000E+00
  0.00000000E+00  0.00000000E+00  0.00000000E+00
  0.00000000E+00  0.00000000E+00  0.00000000E+00
  0.00000000E+00  0.00000000E+00  0.00000000E+00
  0.00000000E+00  0.00000000E+00  0.00000000E+00
  0.00000000E+00  0.00000000E+00  0.00000000E+00
  0.00000000E+00  0.00000000E+00  0.00000000E+00
  0.00000000E+00  0.00000000E+00  0.00000000E+00
  0.00000000E+00  0.00000000E+00  0.00000000E+00
  0.00000000E+00  0.00000000E+00  0.00000000E+00
  0.00000000E+00  0.00000000E+00  0.00000000E+00
  0.00000000E+00  0.00000000E+00  0.00000000E+00
  0.00000000E+00  0.00000000E+00  0.00000000E+00
  0.00000000E+00  0.00000000E+00  0.00000000E+00
  0.00000000E+00  0.00000000E+00  0.00000000E+00
  0.00000000E+00  0.00000000E+00  0.00000000E+00
  0.00000000E+00  0.00000000E+00  0.00000000E+00
  0.00000000E+00  0.00000000E+00  0.00000000E+00
  0.00000000E+00  0.00000000E+00  0.00000000E+00
  0.00000000E+00  0.00000000E+00  0.00000000E+00
  0.00000000E+00  0.00000000E+00  0.00000000E+00
  0.00000000E+00  0.00000000E+00  0.00000000E+00
  0.00000000E+00  0.00000000E+00  0.00000000E+00
  0.00000000E+00  0.00000000E+00  0.00000000E+00
  0.00000000E+00  0.00000000E+00  0.00000000E+00
  0.00000000E+00  0.00000000E+00  0.00000000E+00
  0.00000000E+00  0.00000000E+00  0.00000000E+00
  0.00000000E+00  0.00000000E+00  0.00000000E+00
  0.00000000E+00  0.00000000E+00  0.00000000E+00
  0.00000000E+00  0.00000000E+00  0.00000000E+00
  0.00000000E+00  0.00000000E+00  0.00000000E+00
  0.00000000E+00  0.00000000E+00  0.00000000E+00
  0.00000000E+00  0.00000000E+00  0.00000000E+00
  0.00000000E+00  0.00000000E+00  0.00000000E+00
  0.00000000E+00  0.00000000E+00  0.00000000E+00
  0.00000000E+00  0.00000000E+00  0.00000000E+00
  0.00000000E+00  0.00000000E+00  0.00000000E+00
  0.00000000E+00  0.00000000E+00  0.00000000E+00
  0.00000000E+00  0.00000000E+00  0.00000000E+00
  0.00000000E+00  0.00000000E+00  0.00000000E+00
  0.00000000E+00  0.00000000E+00  0.00000000E+00
  0.00000000E+00  0.00000000E+00  0.00000000E+00
  0.00000000E+00  0.00000000E+00  0.00000000E+00
  0.00000000E+00  0.00000000E+00  0.00000000E+00
  0.00000000E+00  0.00000000E+00  0.00000000E+00
  0.00000000E+00  0.00000000E+00  0.00000000E+00
  0.00000000E+00  0.00000000E+00  0.00000000E+00
  0.00000000E+00  0.00000000E+00  0.00000000E+00
  0.00000000E+00  0.00000000E+00  0.00000000E+00
  0.00000000E+00  0.00000000E+00  0.00000000E+00
  0.00000000E+00  0.00000000E+00  0.00000000E+00
  0.00000000E+00  0.00000000E+00  0.00000000E+00
  0.00000000E+00  0.00000000E+00  0.00000000E+00
  0.00000000E+00  0.00000000E+00  0.00000000E+00
  0.00000000E+00  0.00000000E+00  0.00000000E+00
  0.00000000E+00  0.00000000E+00  0.00000000E+00
  0.00000000E+00  0.00000000E+00  0.00000000E+00
  0.00000000E+00  0.00000000E+00  0.00000000E+00
  0.00000000E+00  0.00000000E+00  0.00000000E+00
  0.00000000E+00  0.00000000E+00  0.00000000E+00
  0.00000000E+00  0.00000000E+00  0.00000000E+00
  0.00000000E+00  0.00000000E+00  0.00000000E+00
  0.00000000E+00  0.00000000E+00  0.00000000E+00
  0.00000000E+00  0.00000000E+00  0.00000000E+00
  0.00000000E+00  0.00000000E+00  0.00000000E+00
  0.00000000E+00  0.00000000E+00  0.00000000E+00
  0.00000000E+00  0.00000000E+00  0.00000000E+00
  0.00000000E+00  0.00000000E+00  0.00000000E+00
  0.00000000E+00  0.00000000E+00  0.00000000E+00
  0.00000000E+00  0.00000000E+00  0.00000000E+00
  0.00000000E+00  0.00000000E+00  0.00000000E+00
  0.00000000E+00  0.00000000E+00  0.00000000E+00
  0.00000000E+00  0.00000000E+00  0.00000000E+00
  0.00000000E+00  0.00000000E+00  0.00000000E+00
  0.00000000E+00  0.00000000E+00  0.00000000E+00
  0.00000000E+00  0.00000000E+00  0.00000000E+00
  0.00000000E+00  0.00000000E+00  0.00000000E+00
  0.00000000E+00  0.00000000E+00  0.00000000E+00
  0.00000000E+00  0.00000000E+00  0.00000000E+00
  0.00000000E+00  0.00000000E+00  0.00000000E+00
  0.00000000E+00  0.00000000E+00  0.00000000E+00
  0.00000000E+00  0.00000000E+00  0.00000000E+00
  0.00000000E+00  0.00000000E+00  0.00000000E+00
  0.00000000E+00  0.00000000E+00  0.00000000E+00
  0.00000000E+00  0.00000000E+00  0.00000000E+00
  0.00000000E+00  0.00000000E+00  0.00000000E+00
  0.00000000E+00  0.00000000E+00  0.00000000E+00
  0.00000000E+00  0.00000000E+00  0.00000000E+00
  0.00000000E+00  0.00000000E+00  0.00000000E+00
  0.00000000E+00  0.00000000E+00  0.00000000E+00
  0.00000000E+00  0.00000000E+00  0.00000000E+00
  0.00000000E+00  0.00000000E+00  0.00000000E+00
  0.00000000E+00  0.00000000E+00  0.00000000E+00
  0.00000000E+00  0.00000000E+00  0.00000000E+00
  0.00000000E+00  0.00000000E+00  0.00000000E+00
  0.00000000E+00  0.00000000E+00  0.00000000E+00
  0.00000000E+00  0.00000000E+00  0.00000000E+00
  0.00000000E+00  0.00000000E+00  0.00000000E+00
  0.00000000E+00  0.00000000E+00  0.00000000E+00
  0.00000000E+00  0.00000000E+00  0.00000000E+00
  0.00000000E+00  0.00000000E+00  0.00000000E+00
  0.00000000E+00  0.00000000E+00  0.00000000E+00
  0.00000000E+00  0.00000000E+00  0.00000000E+00
  0.00000000E+00  0.00000000E+00  0.00000000E+00
  0.00000000E+00  0.00000000E+00  0.00000000E+00
  0.00000000E+00  0.00000000E+00  0.00000000E+00
  0.00000000E+00  0.00000000E+00  0.00000000E+00
  0.00000000E+00  0.00000000E+00  0.00000000E+00
  0.00000000E+00  0.00000000E+00  0.00000000E+00
  0.00000000E+00  0.00000000E+00  0.00000000E+00
  0.00000000E+00  0.00000000E+00  0.00000000E+00
  0.00000000E+00  0.00000000E+00  0.00000000E+00
  0.00000000E+00  0.00000000E+00  0.00000000E+00
  0.00000000E+00  0.00000000E+00  0.00000000E+00
  0.00000000E+00  0.00000000E+00  0.00000000E+00
  0.00000000E+00  0.00000000E+00  0.00000000E+00
  0.00000000E+00  0.00000000E+00  0.00000000E+00
