supercell of 100% icsd_608626.cif, 0% i 
   1.00000000000000     
    -9.5715121087017252    0.0018149092854948    0.0071873316366615
    -4.7873277658160527    8.2746142192676970    0.0065310068502900
     0.0076965727540389   -0.0036418614715980  -10.0879352636789434
   Al   Ti   Mg   N 
    28     4     4    36
Direct
  0.1064529962207317  0.0905970355334915  0.2946162220135733
  0.2222907202175222  0.2037397989043370  0.0468903182967182
  0.7822843447055021  0.0909833485478586  0.7963815367725928
  0.8865953938761280  0.2020018753310140  0.5424315308699974
  0.4512544354774235  0.0896493644167506  0.2911668046338463
  0.5577481994766487  0.2030509724564666  0.0496842143571854
  0.1091493487930535  0.0919849760713163  0.8002493568512676
  0.7798866364793824  0.0943196703329079  0.2954720304029479
  0.8889355949858029  0.2066882388488764  0.0448014843953857
  0.4465890613199619  0.0920239179337941  0.8006393037815940
  0.5608528288971470  0.2009641504527977  0.5405419632477617
  0.1101281426759471  0.4285214241851136  0.2916323465188455
  0.2197796836210699  0.5418581538732994  0.0502336184301555
  0.7811244523056189  0.4230382605675658  0.7999557529705896
  0.4496960265014849  0.4247981355496506  0.2928634326139345
  0.5580597834100516  0.5394857802425079  0.0482254254253149
  0.1088463749922894  0.4272282780334820  0.8055363127736399
  0.8863443186880744  0.5395641689547261  0.0440023636324796
  0.5521972896007767  0.5429410166410165  0.5395141334377485
  0.1072965351116579  0.7687865666234899  0.2941093211890760
  0.2224760906567269  0.8723977064503217  0.0443836356385177
  0.7779771191300000  0.7651250474556477  0.8004179953002151
  0.8862892662542379  0.8766143394513009  0.5410707550159941
  0.5565699573043830  0.8713567174618291  0.0452947282151257
  0.1051493792511948  0.7694720023918364  0.7995789256182917
  0.2253231542899385  0.8692500596631589  0.5413234978956893
  0.7759333242968083  0.7681973487124907  0.2919645501985357
  0.8893481361739006  0.8725282741224873  0.0461046278298411
  0.2253293908407699  0.1998859766139987  0.5477954596368733
  0.8838090370287262  0.5438802749988767  0.5490771310044380
  0.2243135222790897  0.5437042636886815  0.5455390842021330
  0.4464813635762255  0.4255789348361034  0.8042600963678552
  0.7762746000408356  0.4262601591680237  0.2951127284256856
  0.4444906677004141  0.7610193612981675  0.2958345659096082
  0.4416396838878001  0.7647752260949687  0.8008529917288385
  0.5537830304667750  0.8693435855190970  0.5436263371507124
  0.2224734020939891  0.2059441577327235  0.3525410959916755
  0.1105702702882780  0.0959088956050707  0.1042777985837660
  0.8895817346049526  0.2035313128910303  0.8526642571456904
  0.7767280182489955  0.0936515129648399  0.6053099741696286
  0.5553326992378516  0.2049892753388889  0.3517392639581942
  0.4425118483180128  0.0976862054434307  0.1011594199581793
  0.2215665817249928  0.2054394763791549  0.8538944142646656
  0.1083331061869544  0.0920451322266089  0.6074904308505182
  0.8948115171288293  0.1925461083815492  0.3580576864113851
  0.7786755371350083  0.0945627826094793  0.1040314747857209
  0.5612413203810860  0.1994997343054479  0.8574840366241361
  0.4406768975429145  0.1092358650069087  0.6104121453207796
  0.2218382351682919  0.5380539439031224  0.3520397860241218
  0.1105940378330459  0.4279187042371078  0.1022581890234520
  0.8887696437266044  0.5391734356100244  0.8506970177735482
  0.7749111847090191  0.4236096465477530  0.6062966372670431
  0.5487683912874886  0.5286428018441853  0.3583663109964732
  0.4428276183671116  0.4272818391928013  0.1001937052906570
  0.2136057177178046  0.5445990617959637  0.8557720857421316
  0.1141136047554596  0.4283208257309639  0.6109982383045889
  0.8978181510327730  0.5483105305232385  0.3593952848162516
  0.7800656582659400  0.4274132626581064  0.0907452006077420
  0.5658079706832311  0.5218451033687330  0.8571894962116460
  0.4499163919678892  0.4211616198905901  0.6064162212170032
  0.2069813042719204  0.8793702851040308  0.3561524073960953
  0.1104512072718791  0.7611468367646097  0.1050488221165793
  0.8889004719569584  0.8732972666526848  0.8558633090852581
  0.7915762753797324  0.7599286686974480  0.6106678756633954
  0.5644760984257644  0.8794568422150348  0.3433823107261418
  0.4441209993780930  0.7610466748454741  0.0861361015799389
  0.2039958772143962  0.8808638861608244  0.8583114623600139
  0.1058929905248860  0.7663123284441440  0.6056299749781502
  0.8890734372945701  0.8731799622059242  0.3527470774362769
  0.7819656780413524  0.7592625110299096  0.1009994323988082
  0.5648795350341516  0.8801804107908708  0.8563551241356464
  0.4354466962656929  0.7529686814739662  0.5980913480316161
 
  0.00000000E+00  0.00000000E+00  0.00000000E+00
  0.00000000E+00  0.00000000E+00  0.00000000E+00
  0.00000000E+00  0.00000000E+00  0.00000000E+00
  0.00000000E+00  0.00000000E+00  0.00000000E+00
  0.00000000E+00  0.00000000E+00  0.00000000E+00
  0.00000000E+00  0.00000000E+00  0.00000000E+00
  0.00000000E+00  0.00000000E+00  0.00000000E+00
  0.00000000E+00  0.00000000E+00  0.00000000E+00
  0.00000000E+00  0.00000000E+00  0.00000000E+00
  0.00000000E+00  0.00000000E+00  0.00000000E+00
  0.00000000E+00  0.00000000E+00  0.00000000E+00
  0.00000000E+00  0.00000000E+00  0.00000000E+00
  0.00000000E+00  0.00000000E+00  0.00000000E+00
  0.00000000E+00  0.00000000E+00  0.00000000E+00
  0.00000000E+00  0.00000000E+00  0.00000000E+00
  0.00000000E+00  0.00000000E+00  0.00000000E+00
  0.00000000E+00  0.00000000E+00  0.00000000E+00
  0.00000000E+00  0.00000000E+00  0.00000000E+00
  0.00000000E+00  0.00000000E+00  0.00000000E+00
  0.00000000E+00  0.00000000E+00  0.00000000E+00
  0.00000000E+00  0.00000000E+00  0.00000000E+00
  0.00000000E+00  0.00000000E+00  0.00000000E+00
  0.00000000E+00  0.00000000E+00  0.00000000E+00
  0.00000000E+00  0.00000000E+00  0.00000000E+00
  0.00000000E+00  0.00000000E+00  0.00000000E+00
  0.00000000E+00  0.00000000E+00  0.00000000E+00
  0.00000000E+00  0.00000000E+00  0.00000000E+00
  0.00000000E+00  0.00000000E+00  0.00000000E+00
  0.00000000E+00  0.00000000E+00  0.00000000E+00
  0.00000000E+00  0.00000000E+00  0.00000000E+00
  0.00000000E+00  0.00000000E+00  0.00000000E+00
  0.00000000E+00  0.00000000E+00  0.00000000E+00
  0.00000000E+00  0.00000000E+00  0.00000000E+00
  0.00000000E+00  0.00000000E+00  0.00000000E+00
  0.00000000E+00  0.00000000E+00  0.00000000E+00
  0.00000000E+00  0.00000000E+00  0.00000000E+00
  0.00000000E+00  0.00000000E+00  0.00000000E+00
  0.00000000E+00  0.00000000E+00  0.00000000E+00
  0.00000000E+00  0.00000000E+00  0.00000000E+00
  0.00000000E+00  0.00000000E+00  0.00000000E+00
  0.00000000E+00  0.00000000E+00  0.00000000E+00
  0.00000000E+00  0.00000000E+00  0.00000000E+00
  0.00000000E+00  0.00000000E+00  0.00000000E+00
  0.00000000E+00  0.00000000E+00  0.00000000E+00
  0.00000000E+00  0.00000000E+00  0.00000000E+00
  0.00000000E+00  0.00000000E+00  0.00000000E+00
  0.00000000E+00  0.00000000E+00  0.00000000E+00
  0.00000000E+00  0.00000000E+00  0.00000000E+00
  0.00000000E+00  0.00000000E+00  0.00000000E+00
  0.00000000E+00  0.00000000E+00  0.00000000E+00
  0.00000000E+00  0.00000000E+00  0.00000000E+00
  0.00000000E+00  0.00000000E+00  0.00000000E+00
  0.00000000E+00  0.00000000E+00  0.00000000E+00
  0.00000000E+00  0.00000000E+00  0.00000000E+00
  0.00000000E+00  0.00000000E+00  0.00000000E+00
  0.00000000E+00  0.00000000E+00  0.00000000E+00
  0.00000000E+00  0.00000000E+00  0.00000000E+00
  0.00000000E+00  0.00000000E+00  0.00000000E+00
  0.00000000E+00  0.00000000E+00  0.00000000E+00
  0.00000000E+00  0.00000000E+00  0.00000000E+00
  0.00000000E+00  0.00000000E+00  0.00000000E+00
  0.00000000E+00  0.00000000E+00  0.00000000E+00
  0.00000000E+00  0.00000000E+00  0.00000000E+00
  0.00000000E+00  0.00000000E+00  0.00000000E+00
  0.00000000E+00  0.00000000E+00  0.00000000E+00
  0.00000000E+00  0.00000000E+00  0.00000000E+00
  0.00000000E+00  0.00000000E+00  0.00000000E+00
  0.00000000E+00  0.00000000E+00  0.00000000E+00
  0.00000000E+00  0.00000000E+00  0.00000000E+00
  0.00000000E+00  0.00000000E+00  0.00000000E+00
  0.00000000E+00  0.00000000E+00  0.00000000E+00
  0.00000000E+00  0.00000000E+00  0.00000000E+00
