supercell of 100% icsd_608626.cif, 0% i 
   1.00000000000000     
    -9.5529267654402883    0.0010175058532678   -0.0102457959973258
    -4.7773514781550608    8.2937918339878944   -0.0090677499505406
    -0.0109212834280093    0.0048554036887561  -10.0771570653929139
   Al   Mg   Ti   N 
    28     4     4    36
Direct
  0.1081155290198268  0.0976123668983462  0.2934542726991722
  0.2212680781028880  0.2058086226274654  0.0434541463151561
  0.7745102651809930  0.1038985794995781  0.8006049246985114
  0.8908945761906750  0.2099449617886719  0.5479946445993065
  0.4424626975126600  0.0987559667528828  0.2960005808907411
  0.5524448340420989  0.2090312417011546  0.0429973795845058
  0.1113666449315147  0.0985547996973892  0.7971637058028662
  0.2226826410725096  0.2016069771837650  0.5449063656633726
  0.7753128480502554  0.1017051693000681  0.2958545435935633
  0.8899731427572135  0.2091440862753728  0.0423528065106851
  0.5539681671571302  0.2044656418198727  0.5451028841120831
  0.1094830924523365  0.4246240844933098  0.2933689407802191
  0.2260698092566784  0.5312549274330607  0.0412704690265215
  0.7791781044956778  0.4276564930824804  0.7975410482335903
  0.8869232433435101  0.5356033879619844  0.5449453229359307
  0.4470112970819571  0.4236220967393933  0.2933213504374805
  0.5571118595633990  0.5362368012999710  0.0427390367970233
  0.1111709133845551  0.4211897350938614  0.8016635250904258
  0.7808696196116358  0.4240549191393868  0.2943584639976322
  0.8904956419946544  0.5335899541171472  0.0422466276813935
  0.4480008480864583  0.4252887478612237  0.8009415524660142
  0.5609292502869394  0.5381058882031482  0.5505722396640422
  0.1136829404047788  0.7589712742911843  0.2912289744010295
  0.2235478792873522  0.8766606486028365  0.0400933062772211
  0.5524116523064606  0.8741687125802073  0.0417148525667770
  0.7782837166315844  0.7563514869365164  0.2959823321595607
  0.4467641426309328  0.7628224839117763  0.7965549939685559
  0.5526750147133086  0.8748810482072216  0.5472612354789419
  0.4437491919754493  0.0942552459239607  0.7985795245063869
  0.7754681683376461  0.7586433032280553  0.7995889379489540
  0.1142178804804033  0.7594761092537041  0.8054945321306235
  0.2236042971111232  0.8775389716359641  0.5536540147028859
  0.2235676193136058  0.5339758966862362  0.5505726292515902
  0.8846197874625403  0.8752439445371607  0.5434737376869663
  0.4433024048686036  0.7603176674093106  0.3002708171010582
  0.8858879616123403  0.8756591315673106  0.0491627802984880
  0.2201645275479294  0.2059140375285224  0.3523138938110506
  0.1090307132645663  0.0955972190149339  0.1046873229603094
  0.8882797836087235  0.2075422701531480  0.8543488014756662
  0.7745538376071508  0.1017838549994394  0.6049293744636444
  0.5563795180839577  0.2066166176626467  0.3537215373882745
  0.4446183900755543  0.0957017745013715  0.1056616183871526
  0.2098823343273466  0.2109725256051362  0.8595804537723595
  0.1024833644777488  0.1107204414856895  0.6078718482395757
  0.8887352558242867  0.2060524819886851  0.3557480612384936
  0.7740045182735358  0.1043234538523521  0.1075679555653437
  0.5627962868688030  0.2135263647493915  0.8582724787672973
  0.4440511988885660  0.0953309928259785  0.5895611374549290
  0.2226275007612486  0.5369362747679531  0.3518775459225125
  0.1106852714851385  0.4281871829087365  0.1060086523576516
  0.8956385734329686  0.5251679774611020  0.8567963345475320
  0.7781614844444817  0.4276645377079547  0.6048147470320515
  0.5593012407918607  0.5306125602255420  0.3562809580600259
  0.4443630940974757  0.4286208541166516  0.1055865428500198
  0.2304647415577605  0.5212391243388552  0.8539887020287580
  0.1078080793117593  0.4244940217767947  0.6038032714128150
  0.8889985374774696  0.5362276440408635  0.3535347916088369
  0.7768010753249186  0.4275116651045110  0.1053686745348372
  0.5553046166927587  0.5389882648985491  0.8539483912624775
  0.4518757399358222  0.4243943198682771  0.6053326364683898
  0.2166539018462714  0.8747672201595904  0.3433451378947296
  0.1195825251619809  0.7552467157131701  0.1002972911072746
  0.8788613426776024  0.8905427688231171  0.8648314054916426
  0.7776622837554257  0.7590618318759610  0.5883416688789538
  0.5571934768999540  0.8753715088514724  0.3518361791411309
  0.4446153986677004  0.7583200439938977  0.1067612917643643
  0.2287382356267216  0.8803220499166216  0.8540441308472992
  0.1037346116643505  0.7551134151480809  0.5972468683982726
  0.8886160192128472  0.8732099074501747  0.3434250695670045
  0.7750343671862154  0.7554619189516529  0.1062339851154590
  0.5497962954704860  0.8651164579832695  0.8618686489993834
  0.4604760969569028  0.7526183258089674  0.6036750911251403
 
  0.00000000E+00  0.00000000E+00  0.00000000E+00
  0.00000000E+00  0.00000000E+00  0.00000000E+00
  0.00000000E+00  0.00000000E+00  0.00000000E+00
  0.00000000E+00  0.00000000E+00  0.00000000E+00
  0.00000000E+00  0.00000000E+00  0.00000000E+00
  0.00000000E+00  0.00000000E+00  0.00000000E+00
  0.00000000E+00  0.00000000E+00  0.00000000E+00
  0.00000000E+00  0.00000000E+00  0.00000000E+00
  0.00000000E+00  0.00000000E+00  0.00000000E+00
  0.00000000E+00  0.00000000E+00  0.00000000E+00
  0.00000000E+00  0.00000000E+00  0.00000000E+00
  0.00000000E+00  0.00000000E+00  0.00000000E+00
  0.00000000E+00  0.00000000E+00  0.00000000E+00
  0.00000000E+00  0.00000000E+00  0.00000000E+00
  0.00000000E+00  0.00000000E+00  0.00000000E+00
  0.00000000E+00  0.00000000E+00  0.00000000E+00
  0.00000000E+00  0.00000000E+00  0.00000000E+00
  0.00000000E+00  0.00000000E+00  0.00000000E+00
  0.00000000E+00  0.00000000E+00  0.00000000E+00
  0.00000000E+00  0.00000000E+00  0.00000000E+00
  0.00000000E+00  0.00000000E+00  0.00000000E+00
  0.00000000E+00  0.00000000E+00  0.00000000E+00
  0.00000000E+00  0.00000000E+00  0.00000000E+00
  0.00000000E+00  0.00000000E+00  0.00000000E+00
  0.00000000E+00  0.00000000E+00  0.00000000E+00
  0.00000000E+00  0.00000000E+00  0.00000000E+00
  0.00000000E+00  0.00000000E+00  0.00000000E+00
  0.00000000E+00  0.00000000E+00  0.00000000E+00
  0.00000000E+00  0.00000000E+00  0.00000000E+00
  0.00000000E+00  0.00000000E+00  0.00000000E+00
  0.00000000E+00  0.00000000E+00  0.00000000E+00
  0.00000000E+00  0.00000000E+00  0.00000000E+00
  0.00000000E+00  0.00000000E+00  0.00000000E+00
  0.00000000E+00  0.00000000E+00  0.00000000E+00
  0.00000000E+00  0.00000000E+00  0.00000000E+00
  0.00000000E+00  0.00000000E+00  0.00000000E+00
  0.00000000E+00  0.00000000E+00  0.00000000E+00
  0.00000000E+00  0.00000000E+00  0.00000000E+00
  0.00000000E+00  0.00000000E+00  0.00000000E+00
  0.00000000E+00  0.00000000E+00  0.00000000E+00
  0.00000000E+00  0.00000000E+00  0.00000000E+00
  0.00000000E+00  0.00000000E+00  0.00000000E+00
  0.00000000E+00  0.00000000E+00  0.00000000E+00
  0.00000000E+00  0.00000000E+00  0.00000000E+00
  0.00000000E+00  0.00000000E+00  0.00000000E+00
  0.00000000E+00  0.00000000E+00  0.00000000E+00
  0.00000000E+00  0.00000000E+00  0.00000000E+00
  0.00000000E+00  0.00000000E+00  0.00000000E+00
  0.00000000E+00  0.00000000E+00  0.00000000E+00
  0.00000000E+00  0.00000000E+00  0.00000000E+00
  0.00000000E+00  0.00000000E+00  0.00000000E+00
  0.00000000E+00  0.00000000E+00  0.00000000E+00
  0.00000000E+00  0.00000000E+00  0.00000000E+00
  0.00000000E+00  0.00000000E+00  0.00000000E+00
  0.00000000E+00  0.00000000E+00  0.00000000E+00
  0.00000000E+00  0.00000000E+00  0.00000000E+00
  0.00000000E+00  0.00000000E+00  0.00000000E+00
  0.00000000E+00  0.00000000E+00  0.00000000E+00
  0.00000000E+00  0.00000000E+00  0.00000000E+00
  0.00000000E+00  0.00000000E+00  0.00000000E+00
  0.00000000E+00  0.00000000E+00  0.00000000E+00
  0.00000000E+00  0.00000000E+00  0.00000000E+00
  0.00000000E+00  0.00000000E+00  0.00000000E+00
  0.00000000E+00  0.00000000E+00  0.00000000E+00
  0.00000000E+00  0.00000000E+00  0.00000000E+00
  0.00000000E+00  0.00000000E+00  0.00000000E+00
  0.00000000E+00  0.00000000E+00  0.00000000E+00
  0.00000000E+00  0.00000000E+00  0.00000000E+00
  0.00000000E+00  0.00000000E+00  0.00000000E+00
  0.00000000E+00  0.00000000E+00  0.00000000E+00
  0.00000000E+00  0.00000000E+00  0.00000000E+00
  0.00000000E+00  0.00000000E+00  0.00000000E+00
