supercell of 100% icsd_608626.cif, 0% i 
   1.00000000000000     
    -9.5732577362696318    0.0068980974764275    0.0018974781873459
    -4.7926074688669926    8.2737162882778268    0.0040306865429783
     0.0020851785106617   -0.0038235632910208  -10.0859637296840532
   Al   Ti   Mg   N 
    28     4     4    36
Direct
  0.1132641956000526  0.0912740264161300  0.2992435893652257
  0.7791990605610408  0.0902168441196380  0.7990810255673892
  0.4480707413674381  0.0896397683692882  0.3004322644846198
  0.2272027055263592  0.2052172086277153  0.5425947651165686
  0.7768707837072739  0.0920039208359000  0.2983177846215881
  0.8874271478532734  0.2055815526723066  0.0401814880675957
  0.4450940980114098  0.0924729212584623  0.7945101068197502
  0.5497427772953714  0.2079905751531186  0.5466772652445400
  0.1136768489909272  0.4292892125151511  0.2966826272050085
  0.2206809779678238  0.5441606102908025  0.0413765555256234
  0.4438146196329740  0.4293759662085890  0.2989834234008555
  0.5538235082773184  0.5431948429005118  0.0429584437022683
  0.1143941441031728  0.4320556053202722  0.7995556981800078
  0.2245097977089188  0.5424243173502958  0.5454557495428105
  0.7743836347514588  0.4301446072906145  0.2934300701766048
  0.8872101868949187  0.5419534192737032  0.0423886347793285
  0.4416614309512852  0.4335156754174392  0.7954347749732236
  0.5462949602458522  0.5437547257592001  0.5443594232579940
  0.1115544559226933  0.7610078952273724  0.2969779488732840
  0.2253716086985875  0.8668768707953305  0.0432154541666847
  0.7796273054957581  0.7627073771639701  0.8005818905769360
  0.8933950641879775  0.8685262735502448  0.5429756794665153
  0.4459122895585850  0.7619258473144299  0.2944571267370932
  0.5591823334014734  0.8629701099132276  0.0425534596319892
  0.2255883317463372  0.8658531577367370  0.5426275402600922
  0.7741561157311949  0.7652170079051714  0.2922145402837302
  0.8910650334753143  0.8685038462368624  0.0435636849393930
  0.4397016202146133  0.7593538613315118  0.7967282509418325
  0.2200682444462103  0.2061995172286899  0.0492748347785863
  0.8888159064998078  0.2033017960553991  0.5498234990414304
  0.5575880808477436  0.2068604376627334  0.0464823591661272
  0.8904610165459133  0.5410937130345701  0.5495040519046199
  0.1119678611656454  0.0907723433343008  0.7984791410145604
  0.7744253297024883  0.4301167009697124  0.8040905446179352
  0.1113045381507121  0.7636915559173758  0.7966747990647747
  0.5518366523507581  0.8724826482170300  0.5497038238710772
  0.2235883073908127  0.2063857061515648  0.3492443235731386
  0.1064323911080152  0.0928985249791054  0.1076955075199209
  0.8804780855983907  0.1979816224971600  0.8572961840121636
  0.7728709889510981  0.0902503126850007  0.6034107303877150
  0.5550150311451603  0.2056460926884327  0.3530253671073282
  0.4500287469474245  0.0873708109805236  0.1059112919091092
  0.2285513942249082  0.2132962594765928  0.8614776484924533
  0.1157987714740258  0.0939997924702638  0.5876566167139430
  0.8872688968189664  0.2056364977992899  0.3518906456529152
  0.7815987980423387  0.0922342816495600  0.1086833014687940
  0.5547432439716218  0.2060401225133930  0.8540954343980047
  0.4364931857812309  0.1094352620691907  0.6081136626523147
  0.2235779052656284  0.5374007318022294  0.3536226676767313
  0.1085184303436577  0.4343146489490124  0.1070032814227346
  0.8983157018433019  0.5448466391761997  0.8557540769627821
  0.7708391375777239  0.4317321645529191  0.5929722049781319
  0.5548301602281356  0.5389304661168595  0.3528316011595791
  0.4422871521892162  0.4321303385230379  0.1078794173638826
  0.2307824663529487  0.5259184459676121  0.8573472874366317
  0.1180764242569978  0.4253702300069051  0.6041788733975437
  0.8898587634073891  0.5396551372553375  0.3514430094673813
  0.7782549964947094  0.4282643775711819  0.1029890733330632
  0.5418793016086454  0.5443205901549817  0.8589895169905191
  0.4451526073116838  0.4269924545360340  0.6027163763073418
  0.2242857320801903  0.8707848475127804  0.3504226410896507
  0.1102732782025200  0.7607896929937326  0.1059661142596795
  0.8735138514078500  0.8799221332434755  0.8596096434958440
  0.7911774655320372  0.7579007350894358  0.6089198949462968
  0.5566775186099306  0.8710765150333160  0.3441205017802531
  0.4459912811400599  0.7600032781398127  0.1062653318441136
  0.2351555951610891  0.8674714594945456  0.8633891834921101
  0.1102802178826323  0.7623971386925916  0.5890062007362786
  0.8872102998959619  0.8722634367569739  0.3519196501832553
  0.7785655575871644  0.7601611923395950  0.1033541283622057
  0.5559924373225513  0.8708114958807371  0.8518830475720875
  0.4362924692553278  0.7536398048768760  0.6073232424863875
 
  0.00000000E+00  0.00000000E+00  0.00000000E+00
  0.00000000E+00  0.00000000E+00  0.00000000E+00
  0.00000000E+00  0.00000000E+00  0.00000000E+00
  0.00000000E+00  0.00000000E+00  0.00000000E+00
  0.00000000E+00  0.00000000E+00  0.00000000E+00
  0.00000000E+00  0.00000000E+00  0.00000000E+00
  0.00000000E+00  0.00000000E+00  0.00000000E+00
  0.00000000E+00  0.00000000E+00  0.00000000E+00
  0.00000000E+00  0.00000000E+00  0.00000000E+00
  0.00000000E+00  0.00000000E+00  0.00000000E+00
  0.00000000E+00  0.00000000E+00  0.00000000E+00
  0.00000000E+00  0.00000000E+00  0.00000000E+00
  0.00000000E+00  0.00000000E+00  0.00000000E+00
  0.00000000E+00  0.00000000E+00  0.00000000E+00
  0.00000000E+00  0.00000000E+00  0.00000000E+00
  0.00000000E+00  0.00000000E+00  0.00000000E+00
  0.00000000E+00  0.00000000E+00  0.00000000E+00
  0.00000000E+00  0.00000000E+00  0.00000000E+00
  0.00000000E+00  0.00000000E+00  0.00000000E+00
  0.00000000E+00  0.00000000E+00  0.00000000E+00
  0.00000000E+00  0.00000000E+00  0.00000000E+00
  0.00000000E+00  0.00000000E+00  0.00000000E+00
  0.00000000E+00  0.00000000E+00  0.00000000E+00
  0.00000000E+00  0.00000000E+00  0.00000000E+00
  0.00000000E+00  0.00000000E+00  0.00000000E+00
  0.00000000E+00  0.00000000E+00  0.00000000E+00
  0.00000000E+00  0.00000000E+00  0.00000000E+00
  0.00000000E+00  0.00000000E+00  0.00000000E+00
  0.00000000E+00  0.00000000E+00  0.00000000E+00
  0.00000000E+00  0.00000000E+00  0.00000000E+00
  0.00000000E+00  0.00000000E+00  0.00000000E+00
  0.00000000E+00  0.00000000E+00  0.00000000E+00
  0.00000000E+00  0.00000000E+00  0.00000000E+00
  0.00000000E+00  0.00000000E+00  0.00000000E+00
  0.00000000E+00  0.00000000E+00  0.00000000E+00
  0.00000000E+00  0.00000000E+00  0.00000000E+00
  0.00000000E+00  0.00000000E+00  0.00000000E+00
  0.00000000E+00  0.00000000E+00  0.00000000E+00
  0.00000000E+00  0.00000000E+00  0.00000000E+00
  0.00000000E+00  0.00000000E+00  0.00000000E+00
  0.00000000E+00  0.00000000E+00  0.00000000E+00
  0.00000000E+00  0.00000000E+00  0.00000000E+00
  0.00000000E+00  0.00000000E+00  0.00000000E+00
  0.00000000E+00  0.00000000E+00  0.00000000E+00
  0.00000000E+00  0.00000000E+00  0.00000000E+00
  0.00000000E+00  0.00000000E+00  0.00000000E+00
  0.00000000E+00  0.00000000E+00  0.00000000E+00
  0.00000000E+00  0.00000000E+00  0.00000000E+00
  0.00000000E+00  0.00000000E+00  0.00000000E+00
  0.00000000E+00  0.00000000E+00  0.00000000E+00
  0.00000000E+00  0.00000000E+00  0.00000000E+00
  0.00000000E+00  0.00000000E+00  0.00000000E+00
  0.00000000E+00  0.00000000E+00  0.00000000E+00
  0.00000000E+00  0.00000000E+00  0.00000000E+00
  0.00000000E+00  0.00000000E+00  0.00000000E+00
  0.00000000E+00  0.00000000E+00  0.00000000E+00
  0.00000000E+00  0.00000000E+00  0.00000000E+00
  0.00000000E+00  0.00000000E+00  0.00000000E+00
  0.00000000E+00  0.00000000E+00  0.00000000E+00
  0.00000000E+00  0.00000000E+00  0.00000000E+00
  0.00000000E+00  0.00000000E+00  0.00000000E+00
  0.00000000E+00  0.00000000E+00  0.00000000E+00
  0.00000000E+00  0.00000000E+00  0.00000000E+00
  0.00000000E+00  0.00000000E+00  0.00000000E+00
  0.00000000E+00  0.00000000E+00  0.00000000E+00
  0.00000000E+00  0.00000000E+00  0.00000000E+00
  0.00000000E+00  0.00000000E+00  0.00000000E+00
  0.00000000E+00  0.00000000E+00  0.00000000E+00
  0.00000000E+00  0.00000000E+00  0.00000000E+00
  0.00000000E+00  0.00000000E+00  0.00000000E+00
  0.00000000E+00  0.00000000E+00  0.00000000E+00
  0.00000000E+00  0.00000000E+00  0.00000000E+00
