supercell of icsd_608626.cif            
   1.01523452869031     
     9.3122321679093609    0.0017689898142845    0.0034562181837915
    -4.6545842176606467    8.0619770724244955   -0.0000001176717708
     0.0037359095371008    0.0021568758442095    9.8100994249732363
   Al   Y    N 
    34     2    36
Direct
  0.2218059304680580  0.1081698740460268  0.2581329601260904
  0.1092933881650850  0.2220696612512398  0.5065831518569652
  0.8860397594511866  0.1097409641175773  0.7485854073917935
  0.7776448339110544  0.2221557172643429  0.9983094591946298
  0.5561893194140808  0.1114280049319802  0.2480042560473876
  0.4473029580189376  0.2238739627261168  0.4987677661871146
  0.2270170616684766  0.1170690119139266  0.7431309383736533
  0.1089471300051486  0.2193208509946061  0.9922410254726444
  0.8856134485913714  0.1048605641486162  0.2478791273208074
  0.7780107470656930  0.2223387105106980  0.4978965380541212
  0.5560701270999999  0.1113683707269786  0.7486988937417820
  0.4481182333763769  0.2275704980224944  0.9984672595287165
  0.1092933586144795  0.5538903295285351  0.5065831686362259
  0.8860397482086526  0.4429654225189310  0.7485854102095360
  0.7717396818943811  0.5516321107931077  0.9989571563012660
  0.5609291193320303  0.4468011635593356  0.2488776909993646
  0.4462560226794352  0.5564613173482797  0.5060052303463394
  0.2218657412463756  0.4442661874994940  0.7511178933420481
  0.1089471062206329  0.5562930304049303  0.9922409915377415
  0.8856134226958474  0.4474196004071231  0.2478791016677135
  0.7764531484878603  0.5535353918140018  0.4991697078909425
  0.5569259313290758  0.4431247394014974  0.7493086474793031
  0.4533118953445552  0.5599892591370121  0.9925606760069670
  0.2218058728738868  0.7803027965294262  0.2581329237161825
  0.1102076429341423  0.8884371503305744  0.4991366995518902
  0.8810708692603768  0.7738687578922097  0.7437041962234474
  0.7717396518258397  0.8867741796355588  0.9989571649989841
  0.5609291581760019  0.7807946237411443  0.2488776864631390
  0.4473029433564193  0.8900956197839349  0.4987677784308815
  0.2270170561321194  0.7766147243144985  0.7431309791915126
  0.8858317515400529  0.7762492290286076  0.2568471307240827
  0.7764531904420267  0.8895844515071190  0.4991696907920229
  0.5569259295972770  0.7804678481203240  0.7493086508428135
  0.4481181576189144  0.8872143142032058  0.9984672558716454
  0.2212834680841169  0.4439750819658812  0.2385470417512039
  0.1104517003499126  0.8885592853218469  0.9965530636908611
  0.2235816572444662  0.1148398684035428  0.4492607577542174
  0.0964240518740098  0.1884111745584534  0.1805530546016385
  0.8858693686406767  0.1089222827230216  0.9394524529835451
  0.7772018001680436  0.2219342071705910  0.6900460966615256
  0.5564232517500542  0.1115449289740980  0.4391669135334908
  0.4432197754928424  0.2224089087719392  0.1927046181354868
  0.2393391673009546  0.1395542314349072  0.9290425427142992
  0.1078571012837770  0.2214340396654677  0.6955025352375372
  0.8898719751161650  0.1118689763985756  0.4405201338501641
  0.7800752311516845  0.2233709781063595  0.1909854780566462
  0.5547820921252864  0.1107243527263293  0.9424160012333260
  0.4484587490733674  0.2234925679248647  0.6881510279930936
  0.2229513209636309  0.4448089850460519  0.4625877749502791
  0.0964240144681483  0.5746796005786052  0.1805530389862469
  0.8858693449370492  0.4436136410493035  0.9394524501332953
  0.7763005170772317  0.5525972038068545  0.6884034273119184
  0.5550300033238429  0.4451992566762257  0.4410350092693207
  0.4751772841613899  0.5709219847152767  0.1809568523218132
  0.2224004947136109  0.4445335832411459  0.9497870170260825
  0.1078570657702187  0.5530896677670611  0.6955025075987109
  0.8898719654743914  0.4446696913275048  0.4405201120746725
  0.7780747586664987  0.5569028516387249  0.1916134536089587
  0.5568002661678619  0.4426612713909108  0.9388627188548426
  0.4465317429782445  0.5565991895594351  0.6976039456128476
  0.2235816277298426  0.7754083567708179  0.4492607612244299
  0.1104296480757512  0.8885481655196941  0.2206766923230532
  0.8581696185130170  0.7624181261374261  0.9318280602380042
  0.7763005425756475  0.8903699878573903  0.6884034413220519
  0.5550299827988070  0.7764973843892378  0.4410350282030819
  0.4432197586239113  0.8874775411270193  0.1927046556980017
  0.2393390912012450  0.7664517432829925  0.9290425731250807
  0.1102825897777819  0.8884746356159141  0.6966370886968889
  0.8853548686587303  0.7760107660124831  0.4475218370240697
  0.7780747896389073  0.8878386061518171  0.1916134841023052
  0.5568002473462172  0.7808056129191812  0.9388627364409388
  0.4484587296568634  0.8916328251196290  0.6881510011363048
 
  0.00000000E+00  0.00000000E+00  0.00000000E+00
  0.00000000E+00  0.00000000E+00  0.00000000E+00
  0.00000000E+00  0.00000000E+00  0.00000000E+00
  0.00000000E+00  0.00000000E+00  0.00000000E+00
  0.00000000E+00  0.00000000E+00  0.00000000E+00
  0.00000000E+00  0.00000000E+00  0.00000000E+00
  0.00000000E+00  0.00000000E+00  0.00000000E+00
  0.00000000E+00  0.00000000E+00  0.00000000E+00
  0.00000000E+00  0.00000000E+00  0.00000000E+00
  0.00000000E+00  0.00000000E+00  0.00000000E+00
  0.00000000E+00  0.00000000E+00  0.00000000E+00
  0.00000000E+00  0.00000000E+00  0.00000000E+00
  0.00000000E+00  0.00000000E+00  0.00000000E+00
  0.00000000E+00  0.00000000E+00  0.00000000E+00
  0.00000000E+00  0.00000000E+00  0.00000000E+00
  0.00000000E+00  0.00000000E+00  0.00000000E+00
  0.00000000E+00  0.00000000E+00  0.00000000E+00
  0.00000000E+00  0.00000000E+00  0.00000000E+00
  0.00000000E+00  0.00000000E+00  0.00000000E+00
  0.00000000E+00  0.00000000E+00  0.00000000E+00
  0.00000000E+00  0.00000000E+00  0.00000000E+00
  0.00000000E+00  0.00000000E+00  0.00000000E+00
  0.00000000E+00  0.00000000E+00  0.00000000E+00
  0.00000000E+00  0.00000000E+00  0.00000000E+00
  0.00000000E+00  0.00000000E+00  0.00000000E+00
  0.00000000E+00  0.00000000E+00  0.00000000E+00
  0.00000000E+00  0.00000000E+00  0.00000000E+00
  0.00000000E+00  0.00000000E+00  0.00000000E+00
  0.00000000E+00  0.00000000E+00  0.00000000E+00
  0.00000000E+00  0.00000000E+00  0.00000000E+00
  0.00000000E+00  0.00000000E+00  0.00000000E+00
  0.00000000E+00  0.00000000E+00  0.00000000E+00
  0.00000000E+00  0.00000000E+00  0.00000000E+00
  0.00000000E+00  0.00000000E+00  0.00000000E+00
  0.00000000E+00  0.00000000E+00  0.00000000E+00
  0.00000000E+00  0.00000000E+00  0.00000000E+00
  0.00000000E+00  0.00000000E+00  0.00000000E+00
  0.00000000E+00  0.00000000E+00  0.00000000E+00
  0.00000000E+00  0.00000000E+00  0.00000000E+00
  0.00000000E+00  0.00000000E+00  0.00000000E+00
  0.00000000E+00  0.00000000E+00  0.00000000E+00
  0.00000000E+00  0.00000000E+00  0.00000000E+00
  0.00000000E+00  0.00000000E+00  0.00000000E+00
  0.00000000E+00  0.00000000E+00  0.00000000E+00
  0.00000000E+00  0.00000000E+00  0.00000000E+00
  0.00000000E+00  0.00000000E+00  0.00000000E+00
  0.00000000E+00  0.00000000E+00  0.00000000E+00
  0.00000000E+00  0.00000000E+00  0.00000000E+00
  0.00000000E+00  0.00000000E+00  0.00000000E+00
  0.00000000E+00  0.00000000E+00  0.00000000E+00
  0.00000000E+00  0.00000000E+00  0.00000000E+00
  0.00000000E+00  0.00000000E+00  0.00000000E+00
  0.00000000E+00  0.00000000E+00  0.00000000E+00
  0.00000000E+00  0.00000000E+00  0.00000000E+00
  0.00000000E+00  0.00000000E+00  0.00000000E+00
  0.00000000E+00  0.00000000E+00  0.00000000E+00
  0.00000000E+00  0.00000000E+00  0.00000000E+00
  0.00000000E+00  0.00000000E+00  0.00000000E+00
  0.00000000E+00  0.00000000E+00  0.00000000E+00
  0.00000000E+00  0.00000000E+00  0.00000000E+00
  0.00000000E+00  0.00000000E+00  0.00000000E+00
  0.00000000E+00  0.00000000E+00  0.00000000E+00
  0.00000000E+00  0.00000000E+00  0.00000000E+00
  0.00000000E+00  0.00000000E+00  0.00000000E+00
  0.00000000E+00  0.00000000E+00  0.00000000E+00
  0.00000000E+00  0.00000000E+00  0.00000000E+00
  0.00000000E+00  0.00000000E+00  0.00000000E+00
  0.00000000E+00  0.00000000E+00  0.00000000E+00
  0.00000000E+00  0.00000000E+00  0.00000000E+00
  0.00000000E+00  0.00000000E+00  0.00000000E+00
  0.00000000E+00  0.00000000E+00  0.00000000E+00
  0.00000000E+00  0.00000000E+00  0.00000000E+00
