generated by phonopy                    
   1.00000000000000     
    10.0351470768999995   -0.0000022330999784   -0.0000001056124209
    -5.0175765436399997    8.6906901959899994    0.0000001395531216
    -0.0000001735893656    0.0000001431815548   14.9533752540999991
   Pb   Cu   P    O 
    19     1    12    50
Direct
  0.9958544107441796  0.7702169881346776  0.1191315869256186
  0.9966328481707336  0.7710332615145248  0.6240207396576167
  0.0024001256429642  0.2486385863579841  0.3720413657095634
  0.0004061488454283  0.2602522395489686  0.8765600353028020
  0.2294219270889428  0.2248382025874207  0.1194193347187635
  0.2294099266036014  0.2260924517627814  0.6243851101960374
  0.7513885577425370  0.7537299410732174  0.3718245579987425
  0.7399716066055717  0.7403891148100641  0.8762448711532826
  0.7749278189956286  0.0041118594829541  0.1195863677161597
  0.7741367840422697  0.0033734872557218  0.6245484218046826
  0.2462222486440879  0.9976075837143199  0.3717454106869624
  0.2603172890576886  0.0001189560324804  0.8762027731006228
  0.6664096690286812  0.3335512320718408  0.5000573435434816
  0.3341284022910784  0.6665092925544300  0.0078545544767437
  0.3341374277555929  0.6670189685095664  0.5002562325775344
  0.3327120005350892  0.6661113514277872  0.2490809060747168
  0.3321429079802627  0.6668120337111674  0.7439569334343616
  0.6672348687207474  0.3333736579140805  0.2355082641881197
  0.6669267205535476  0.3334725256570437  0.7582876904372426
  0.6654879271218164  0.3313260364783090  0.0177729131150315
  0.6245941938159589  0.5948776404208260  0.1188283043929772
  0.6248088505904832  0.5950205458231892  0.6262083984144340
  0.3661196245342424  0.3986149552680374  0.3740977176282740
  0.3703614113962459  0.3931099442467669  0.8747743117597011
  0.4043826758678009  0.0287642184713945  0.1190786326624504
  0.4054904557978745  0.0301773019217606  0.6260998178096315
  0.6012758108744976  0.9674329982506080  0.3741765410616651
  0.6077319569816595  0.9783780878514676  0.8753448936258295
  0.9706842750926512  0.3751989743416075  0.1189169668623720
  0.9699993538253580  0.3755231336277447  0.6262434937902697
  0.0325378402816838  0.6337619771266390  0.3741265579363926
  0.0229334910631067  0.6301666643492041  0.8743461127613017
  0.4968245651311420  0.6407132604761330  0.1235119843491645
  0.5029146472785939  0.6486387889163723  0.6275076762974408
  0.4726504488848065  0.3281216401232143  0.3718848954067226
  0.4675882506612794  0.3119549536698614  0.8741645906009126
  0.3579539436706369  0.8551013650476804  0.1236098104433481
  0.3518855756020187  0.8548000375760338  0.6273944869567885
  0.6717274838572962  0.1443749424218623  0.3721878203471505
  0.6886105693112583  0.1567179521505153  0.8753084062328043
  0.1442678073521080  0.5029101636169173  0.1234885037169704
  0.1455365613439099  0.4973796228686993  0.6276558809335384
  0.8554208880426728  0.5269521498266556  0.3719331213938162
  0.8444916616770612  0.5333205696732790  0.8731362268460856
  0.7405281814817073  0.6874792998544379  0.0417852234221030
  0.7364249658197224  0.6660496826494011  0.5442509965443278
  0.2570570630155657  0.3451081698305032  0.4578068398317754
  0.2598214925571085  0.3446259982226536  0.9575005772494976
  0.3127590433794367  0.0530496684740598  0.0417552369480774
  0.3341011683944899  0.0706183933519569  0.5442085574722384
  0.6542798712697078  0.9113475880916582  0.4579300263444068
  0.6552876851077727  0.9149972640989574  0.9579038534906275
  0.9475760060006380  0.2589142232444885  0.0421056467951431
  0.9299305412049534  0.2636402770683048  0.5444218719426530
  0.0878681677571436  0.7429648090306600  0.4577118118950239
  0.0844355882445598  0.7411414691658536  0.9569145989565442
  0.2585059130355631  0.3521863894044444  0.2897511627815916
  0.2659108605031903  0.3563072928469282  0.7901263899895454
  0.7209975008866607  0.6385360649749359  0.2077452826986814
  0.7269557922777494  0.6490837461651324  0.7126920679351940
  0.6481296098489651  0.9065584118015408  0.2898533532649736
  0.6457505239817110  0.9119553906200650  0.7905932642507807
  0.3601978113413438  0.0817236795406941  0.2078351834415315
  0.3517597687458363  0.0785402113275993  0.7126261983023738
  0.0935148413747555  0.7410959618892932  0.2896875271463344
  0.0924229678134054  0.7340246641330808  0.7895102987600282
  0.9177868538105685  0.2789382062430903  0.2078991115961131
  0.9215794681468736  0.2737424195673057  0.7128843783395453
  0.5514409499921342  0.4178356502832656  0.1039230462500385
  0.5440646391762911  0.4154407049637214  0.6205278688781846
  0.4643359737168709  0.5806875201183672  0.3765866680038883
  0.4790096249481266  0.5740067516044078  0.8786940787353217
  0.5813414618808821  0.1320660350596370  0.1045489277396712
  0.5850187072322797  0.1289653804729269  0.6201193781785932
  0.4192018789250724  0.8835475720301034  0.3764218814609137
  0.4265516237902816  0.9055361372505999  0.8784198564489998
  0.8665646746034597  0.4479575373093283  0.1038255890885367
  0.8713171366549872  0.4563117977921536  0.6202177513018938
  0.1164485726517128  0.5356142812858522  0.3766707963252856
  0.0949515736882134  0.5212029215477116  0.8794891049366313
  0.0001471988775634  0.9995535954630697  0.1209054154113574
  0.0001517555865505  0.0003112365197282  0.6352957376740775
 
  0.00000000E+00  0.00000000E+00  0.00000000E+00
  0.00000000E+00  0.00000000E+00  0.00000000E+00
  0.00000000E+00  0.00000000E+00  0.00000000E+00
  0.00000000E+00  0.00000000E+00  0.00000000E+00
  0.00000000E+00  0.00000000E+00  0.00000000E+00
  0.00000000E+00  0.00000000E+00  0.00000000E+00
  0.00000000E+00  0.00000000E+00  0.00000000E+00
  0.00000000E+00  0.00000000E+00  0.00000000E+00
  0.00000000E+00  0.00000000E+00  0.00000000E+00
  0.00000000E+00  0.00000000E+00  0.00000000E+00
  0.00000000E+00  0.00000000E+00  0.00000000E+00
  0.00000000E+00  0.00000000E+00  0.00000000E+00
  0.00000000E+00  0.00000000E+00  0.00000000E+00
  0.00000000E+00  0.00000000E+00  0.00000000E+00
  0.00000000E+00  0.00000000E+00  0.00000000E+00
  0.00000000E+00  0.00000000E+00  0.00000000E+00
  0.00000000E+00  0.00000000E+00  0.00000000E+00
  0.00000000E+00  0.00000000E+00  0.00000000E+00
  0.00000000E+00  0.00000000E+00  0.00000000E+00
  0.00000000E+00  0.00000000E+00  0.00000000E+00
  0.00000000E+00  0.00000000E+00  0.00000000E+00
  0.00000000E+00  0.00000000E+00  0.00000000E+00
  0.00000000E+00  0.00000000E+00  0.00000000E+00
  0.00000000E+00  0.00000000E+00  0.00000000E+00
  0.00000000E+00  0.00000000E+00  0.00000000E+00
  0.00000000E+00  0.00000000E+00  0.00000000E+00
  0.00000000E+00  0.00000000E+00  0.00000000E+00
  0.00000000E+00  0.00000000E+00  0.00000000E+00
  0.00000000E+00  0.00000000E+00  0.00000000E+00
  0.00000000E+00  0.00000000E+00  0.00000000E+00
  0.00000000E+00  0.00000000E+00  0.00000000E+00
  0.00000000E+00  0.00000000E+00  0.00000000E+00
  0.00000000E+00  0.00000000E+00  0.00000000E+00
  0.00000000E+00  0.00000000E+00  0.00000000E+00
  0.00000000E+00  0.00000000E+00  0.00000000E+00
  0.00000000E+00  0.00000000E+00  0.00000000E+00
  0.00000000E+00  0.00000000E+00  0.00000000E+00
  0.00000000E+00  0.00000000E+00  0.00000000E+00
  0.00000000E+00  0.00000000E+00  0.00000000E+00
  0.00000000E+00  0.00000000E+00  0.00000000E+00
  0.00000000E+00  0.00000000E+00  0.00000000E+00
  0.00000000E+00  0.00000000E+00  0.00000000E+00
  0.00000000E+00  0.00000000E+00  0.00000000E+00
  0.00000000E+00  0.00000000E+00  0.00000000E+00
  0.00000000E+00  0.00000000E+00  0.00000000E+00
  0.00000000E+00  0.00000000E+00  0.00000000E+00
  0.00000000E+00  0.00000000E+00  0.00000000E+00
  0.00000000E+00  0.00000000E+00  0.00000000E+00
  0.00000000E+00  0.00000000E+00  0.00000000E+00
  0.00000000E+00  0.00000000E+00  0.00000000E+00
  0.00000000E+00  0.00000000E+00  0.00000000E+00
  0.00000000E+00  0.00000000E+00  0.00000000E+00
  0.00000000E+00  0.00000000E+00  0.00000000E+00
  0.00000000E+00  0.00000000E+00  0.00000000E+00
  0.00000000E+00  0.00000000E+00  0.00000000E+00
  0.00000000E+00  0.00000000E+00  0.00000000E+00
  0.00000000E+00  0.00000000E+00  0.00000000E+00
  0.00000000E+00  0.00000000E+00  0.00000000E+00
  0.00000000E+00  0.00000000E+00  0.00000000E+00
  0.00000000E+00  0.00000000E+00  0.00000000E+00
  0.00000000E+00  0.00000000E+00  0.00000000E+00
  0.00000000E+00  0.00000000E+00  0.00000000E+00
  0.00000000E+00  0.00000000E+00  0.00000000E+00
  0.00000000E+00  0.00000000E+00  0.00000000E+00
  0.00000000E+00  0.00000000E+00  0.00000000E+00
  0.00000000E+00  0.00000000E+00  0.00000000E+00
  0.00000000E+00  0.00000000E+00  0.00000000E+00
  0.00000000E+00  0.00000000E+00  0.00000000E+00
  0.00000000E+00  0.00000000E+00  0.00000000E+00
  0.00000000E+00  0.00000000E+00  0.00000000E+00
  0.00000000E+00  0.00000000E+00  0.00000000E+00
  0.00000000E+00  0.00000000E+00  0.00000000E+00
  0.00000000E+00  0.00000000E+00  0.00000000E+00
  0.00000000E+00  0.00000000E+00  0.00000000E+00
  0.00000000E+00  0.00000000E+00  0.00000000E+00
  0.00000000E+00  0.00000000E+00  0.00000000E+00
  0.00000000E+00  0.00000000E+00  0.00000000E+00
  0.00000000E+00  0.00000000E+00  0.00000000E+00
  0.00000000E+00  0.00000000E+00  0.00000000E+00
  0.00000000E+00  0.00000000E+00  0.00000000E+00
  0.00000000E+00  0.00000000E+00  0.00000000E+00
  0.00000000E+00  0.00000000E+00  0.00000000E+00
