generated by phonopy                    
   1.00000000000000     
    10.0351470768999995   -0.0000022330999784   -0.0000001056124209
    -5.0175765436399997    8.6906901959899994    0.0000001395531216
    -0.0000001735893656    0.0000001431815548   14.9533752540999991
   Pb   Cu   P    O 
    19     1    12    50
Direct
  0.0031651667658821  0.7743143628311202  0.1188814490978913
  0.0015283631577390  0.7735537899979832  0.6237001965882527
  0.0006503513783613  0.2184450182389881  0.3708603689038128
  0.0059197060712606  0.2699649172243639  0.8788303711576333
  0.2255124941387407  0.2280879827384510  0.1188565712831036
  0.2267489401102267  0.2276728627573377  0.6236992554132286
  0.7816660983803629  0.7817041918595251  0.3708958945232226
  0.7299504304634183  0.7354810119937341  0.8789406525026635
  0.7718682488880475  0.9969929987404882  0.1188801331198519
  0.7726465949858579  0.9986443305966830  0.6236978844565044
  0.2184737141163851  0.9995769516236024  0.3708116612795678
  0.2644570021586503  0.9940205433642504  0.8788742984772284
  0.6667481186181305  0.3330829382301488  0.0015881297659348
  0.6668180663498120  0.3330054847526043  0.4941281586740445
  0.3336451825037727  0.6667765645733965  0.5015352136752824
  0.3333272262592075  0.6663203745425221  0.2504650027667381
  0.3334494958711858  0.6664679206278379  0.7529809030624079
  0.6669753611137850  0.3334097772220019  0.2507885387092017
  0.6669044081638376  0.3333569124922775  0.7448641117901147
  0.3341584817430174  0.6665869572281622  0.0448733845020257
  0.6276211745493896  0.5988260286224900  0.1199287219443832
  0.6266973658364350  0.5968871809586531  0.6258674468789636
  0.3627850625995421  0.3970505198485270  0.3731820236437997
  0.3700057492709163  0.3972478660911847  0.8752421983046901
  0.4010911143219431  0.0280631062025307  0.1198524944959729
  0.4033047940166554  0.0295480963363488  0.6259277682728523
  0.6032110878611547  0.9653598784313502  0.3730302076362975
  0.6028889438421032  0.9724059612871727  0.8750883265088945
  0.9720027700129066  0.3725669837062142  0.1198170723741043
  0.9706260612260849  0.3734007160896695  0.6258309059008411
  0.0347950713965020  0.6373910734825259  0.3732337911605228
  0.0276245903292605  0.6300282964373451  0.8751066483045875
  0.5104094411417677  0.6563408942236961  0.1165202622720400
  0.5055550058018667  0.6503638305814974  0.6286651373497278
  0.4782970838609302  0.3369298043204978  0.3708434829238527
  0.4808882688938141  0.3306725945622162  0.8710415472069855
  0.3440665939142136  0.8534851073438716  0.1164144232434126
  0.3495548254656171  0.8548630605438987  0.6287605532247369
  0.6631926379311395  0.1409466469379410  0.3707146592736308
  0.6696029785374193  0.1498377258658365  0.8709244664347082
  0.1466149118901825  0.4900412897443971  0.1163015631724562
  0.1452368204122436  0.4944626151808009  0.6286208408490523
  0.8592200735358944  0.5218947912675276  0.3710209424697268
  0.8501663782155120  0.5192509086663009  0.8709707924336314
  0.7272757828686736  0.6395125434848055  0.0316803592785959
  0.7470964418917418  0.6825097285071493  0.5496762038477314
  0.2534631265123792  0.3326340350455723  0.4567924190260726
  0.2508382676371710  0.3193223339989899  0.9527099323124730
  0.3606500574156328  0.0870227458537087  0.0316230172068472
  0.3181247029159948  0.0645944020819584  0.5496006285361901
  0.6673563530111934  0.9203986544670570  0.4567476899228211
  0.6803399209251424  0.9309216743457043  0.9527485607389323
  0.9129347535792007  0.2729053510473491  0.0315768048294913
  0.9356268522337459  0.2531036882411186  0.5495370955436485
  0.0799745320947309  0.7467166277293060  0.4568791512766737
  0.0690807416735879  0.7489845580578773  0.9526909053487813
  0.2541040745856691  0.3413352153608713  0.2890560067665149
  0.2720225317076483  0.3667832765790351  0.7881555586717255
  0.7449947026916703  0.6767656332049441  0.1983218908951159
  0.7185013308046777  0.6324153310550216  0.7160813685428522
  0.6593310659604157  0.9125917225990463  0.2890019969617512
  0.6336809097245961  0.9048390384755578  0.7881239491912169
  0.3225448688599712  0.0670213042843102  0.1981763430487504
  0.3675293719350847  0.0858845927869325  0.7160598737929718
  0.0875890468372802  0.7460523517712474  0.2891173883107214
  0.0951134131432596  0.7282875808896350  0.7880941807404227
  0.9329536790365580  0.2551780994010144  0.1981866133155776
  0.9143701212186244  0.2813890117292530  0.7159814360027070
  0.5450417414093778  0.4191087524158803  0.1301331518663957
  0.5456202156229537  0.4183760584586551  0.6102291898360619
  0.4492410378130955  0.5773315310097402  0.3754971745968732
  0.4665083411749507  0.5770112321108058  0.8884348220622513
  0.5807974441290114  0.1255105957634015  0.1303732849360699
  0.5818677710754443  0.1267835892304703  0.6104957908806128
  0.4229152613325056  0.8714273642963732  0.3751494847176318
  0.4230456279037753  0.8891899984625198  0.8879875689574277
  0.8746285770153790  0.4548515718898258  0.1302139140932042
  0.8732172532819504  0.4545742395182941  0.6103504833304356
  0.1286662162747731  0.5509317196541943  0.3754329992204575
  0.1108307629795746  0.5333904176768272  0.8880025344324523
  0.0001225459749605  0.9997022261761401  0.0983766293979684
  0.0003591000308134  0.0000085112769881  0.6419070280333301
 
  0.00000000E+00  0.00000000E+00  0.00000000E+00
  0.00000000E+00  0.00000000E+00  0.00000000E+00
  0.00000000E+00  0.00000000E+00  0.00000000E+00
  0.00000000E+00  0.00000000E+00  0.00000000E+00
  0.00000000E+00  0.00000000E+00  0.00000000E+00
  0.00000000E+00  0.00000000E+00  0.00000000E+00
  0.00000000E+00  0.00000000E+00  0.00000000E+00
  0.00000000E+00  0.00000000E+00  0.00000000E+00
  0.00000000E+00  0.00000000E+00  0.00000000E+00
  0.00000000E+00  0.00000000E+00  0.00000000E+00
  0.00000000E+00  0.00000000E+00  0.00000000E+00
  0.00000000E+00  0.00000000E+00  0.00000000E+00
  0.00000000E+00  0.00000000E+00  0.00000000E+00
  0.00000000E+00  0.00000000E+00  0.00000000E+00
  0.00000000E+00  0.00000000E+00  0.00000000E+00
  0.00000000E+00  0.00000000E+00  0.00000000E+00
  0.00000000E+00  0.00000000E+00  0.00000000E+00
  0.00000000E+00  0.00000000E+00  0.00000000E+00
  0.00000000E+00  0.00000000E+00  0.00000000E+00
  0.00000000E+00  0.00000000E+00  0.00000000E+00
  0.00000000E+00  0.00000000E+00  0.00000000E+00
  0.00000000E+00  0.00000000E+00  0.00000000E+00
  0.00000000E+00  0.00000000E+00  0.00000000E+00
  0.00000000E+00  0.00000000E+00  0.00000000E+00
  0.00000000E+00  0.00000000E+00  0.00000000E+00
  0.00000000E+00  0.00000000E+00  0.00000000E+00
  0.00000000E+00  0.00000000E+00  0.00000000E+00
  0.00000000E+00  0.00000000E+00  0.00000000E+00
  0.00000000E+00  0.00000000E+00  0.00000000E+00
  0.00000000E+00  0.00000000E+00  0.00000000E+00
  0.00000000E+00  0.00000000E+00  0.00000000E+00
  0.00000000E+00  0.00000000E+00  0.00000000E+00
  0.00000000E+00  0.00000000E+00  0.00000000E+00
  0.00000000E+00  0.00000000E+00  0.00000000E+00
  0.00000000E+00  0.00000000E+00  0.00000000E+00
  0.00000000E+00  0.00000000E+00  0.00000000E+00
  0.00000000E+00  0.00000000E+00  0.00000000E+00
  0.00000000E+00  0.00000000E+00  0.00000000E+00
  0.00000000E+00  0.00000000E+00  0.00000000E+00
  0.00000000E+00  0.00000000E+00  0.00000000E+00
  0.00000000E+00  0.00000000E+00  0.00000000E+00
  0.00000000E+00  0.00000000E+00  0.00000000E+00
  0.00000000E+00  0.00000000E+00  0.00000000E+00
  0.00000000E+00  0.00000000E+00  0.00000000E+00
  0.00000000E+00  0.00000000E+00  0.00000000E+00
  0.00000000E+00  0.00000000E+00  0.00000000E+00
  0.00000000E+00  0.00000000E+00  0.00000000E+00
  0.00000000E+00  0.00000000E+00  0.00000000E+00
  0.00000000E+00  0.00000000E+00  0.00000000E+00
  0.00000000E+00  0.00000000E+00  0.00000000E+00
  0.00000000E+00  0.00000000E+00  0.00000000E+00
  0.00000000E+00  0.00000000E+00  0.00000000E+00
  0.00000000E+00  0.00000000E+00  0.00000000E+00
  0.00000000E+00  0.00000000E+00  0.00000000E+00
  0.00000000E+00  0.00000000E+00  0.00000000E+00
  0.00000000E+00  0.00000000E+00  0.00000000E+00
  0.00000000E+00  0.00000000E+00  0.00000000E+00
  0.00000000E+00  0.00000000E+00  0.00000000E+00
  0.00000000E+00  0.00000000E+00  0.00000000E+00
  0.00000000E+00  0.00000000E+00  0.00000000E+00
  0.00000000E+00  0.00000000E+00  0.00000000E+00
  0.00000000E+00  0.00000000E+00  0.00000000E+00
  0.00000000E+00  0.00000000E+00  0.00000000E+00
  0.00000000E+00  0.00000000E+00  0.00000000E+00
  0.00000000E+00  0.00000000E+00  0.00000000E+00
  0.00000000E+00  0.00000000E+00  0.00000000E+00
  0.00000000E+00  0.00000000E+00  0.00000000E+00
  0.00000000E+00  0.00000000E+00  0.00000000E+00
  0.00000000E+00  0.00000000E+00  0.00000000E+00
  0.00000000E+00  0.00000000E+00  0.00000000E+00
  0.00000000E+00  0.00000000E+00  0.00000000E+00
  0.00000000E+00  0.00000000E+00  0.00000000E+00
  0.00000000E+00  0.00000000E+00  0.00000000E+00
  0.00000000E+00  0.00000000E+00  0.00000000E+00
  0.00000000E+00  0.00000000E+00  0.00000000E+00
  0.00000000E+00  0.00000000E+00  0.00000000E+00
  0.00000000E+00  0.00000000E+00  0.00000000E+00
  0.00000000E+00  0.00000000E+00  0.00000000E+00
  0.00000000E+00  0.00000000E+00  0.00000000E+00
  0.00000000E+00  0.00000000E+00  0.00000000E+00
  0.00000000E+00  0.00000000E+00  0.00000000E+00
  0.00000000E+00  0.00000000E+00  0.00000000E+00
