Al   Gd   N                             
   1.00000000000000     
    -9.5089767570865842    0.0023462109257565   -0.0059038288318606
    -4.7565962591859572    8.2385809805881038    0.0001802778063688
    -0.0062274673914572   -0.0033757368679094  -10.1298024170502838
   Al   Gd   N 
    34     2    36
Direct
  0.1132047246279981  0.0869140849548842  0.4075699893847542
  0.7766094474742076  0.0932134338977662  0.8990352143464975
  0.8873545958238154  0.2040559770087924  0.6568351562281691
  0.4471926964884716  0.0930882733113663  0.4073209500947925
  0.5607426134394800  0.2033063487376126  0.1476012456910212
  0.1096821928043710  0.0891491754056517  0.8928300369844493
  0.2220800286438518  0.2056445866257306  0.6484839538628009
  0.7803538654171760  0.0880209108250227  0.3977254404375117
  0.8891371432083304  0.1950909260238873  0.1428756736518864
  0.4510639046840481  0.0911526423519646  0.8930870017472614
  0.5571280778482546  0.2065142500674426  0.6484779505712694
  0.1132047453160610  0.4332504340175447  0.4075699883329307
  0.2203510421446921  0.5444752309172287  0.1484107764843685
  0.7775848798997416  0.4278921583337620  0.8995508411945323
  0.8873546054724031  0.5419586468115298  0.6568351672031980
  0.4382154211380964  0.4300267022821416  0.3973686625803126
  0.5474527887730503  0.5429582380456139  0.1425798998091210
  0.1096821953355231  0.4345378307715109  0.8928300212856968
  0.2230280577272907  0.5412036533686262  0.6487536355918451
  0.8891371603839602  0.5491412332720600  0.1428756424290967
  0.4431130804946903  0.4269191761711113  0.8986964410596698
  0.5529418835043529  0.5402136490691092  0.6566601596469823
  0.1106330310275041  0.7613680910815575  0.3969040850585657
  0.2203510302487643  0.8685430113272474  0.1484107833699184
  0.7766094331512079  0.7635463427193656  0.8990352129591841
  0.8894942163272859  0.8719374974547804  0.6481334946491302
  0.4382153831731088  0.7651271438269731  0.3973686626003854
  0.5607426140837788  0.8693203141575623  0.1476012491456444
  0.1115367795956033  0.7609162007079675  0.8990424308428047
  0.2230280464287020  0.8691374899870397  0.6487536390892643
  0.7803538747182586  0.7649945113232448  0.3977254222507653
  0.8888343773024658  0.8722674658863596  0.1477198480399906
  0.4431130749891352  0.7633369339925480  0.8986964451175936
  0.5571280737761342  0.8697268589876259  0.6484779389892381
  0.2203247059340541  0.2065223164703909  0.1471853990607457
  0.7767992478559478  0.4282850463716983  0.3929880292275740
  0.2208206019341290  0.2062743349475156  0.3699626784154617
  0.0993354401165902  0.0764609783992611  0.0766268065013165
  0.8864383008054872  0.2047760648542578  0.8437421464478732
  0.7785419530774149  0.0944142131397712  0.5887045216698326
  0.5555015959324692  0.2054811919240294  0.3403127549559031
  0.4734365352144607  0.0799663351207727  0.0794594906288637
  0.2223207148187285  0.2055242560725006  0.8439067216824583
  0.1086796995726758  0.0929925553664503  0.5971248852586228
  0.9062437492589552  0.1734134443213691  0.3299419597019693
  0.7762755338779002  0.0921004481766943  0.0871585620787556
  0.5568241112084706  0.2070763064967736  0.8366904448976982
  0.4478321448466431  0.0927685004297629  0.5957131535245281
  0.2213077134185113  0.5385739994854646  0.3396868508779036
  0.0993354342405013  0.4575728367511758  0.0766267755929135
  0.8864382875342685  0.5421548797812932  0.8437421514177430
  0.7771836071694196  0.4280927827485002  0.6144009048920793
  0.5225448248624431  0.5554122316515517  0.3278948095448300
  0.4424803705037803  0.4253177832490280  0.0878613780141109
  0.2240497369161929  0.5411670920383500  0.8363717721859913
  0.1086796972700625  0.4316969052426600  0.5971248850187081
  0.9062437919410229  0.5537121256555082  0.3299419195650870
  0.7790283412852617  0.4271704509840077  0.0967212494563228
  0.5529430645469304  0.5402130771596703  0.8462585204691138
  0.4453535510838336  0.4284517397980849  0.5887440467267453
  0.2213076816361550  0.8734875654709242  0.3396868564197248
  0.1109677312226012  0.7612007498379398  0.0895985973290436
  0.8894974572568728  0.8719358875402889  0.8384444427752129
  0.7785419563557454  0.7604129848371528  0.5887045030603062
  0.5555015925941191  0.8723864979893037  0.3403127596519013
  0.4424803651088283  0.7655710567267704  0.0878613829613073
  0.2240497318363310  0.8681523895753145  0.8363717787677913
  0.1107311237852642  0.7613190087007524  0.5872728614896232
  0.8893347861178498  0.8720172674114508  0.3381879766181584
  0.7762755283549083  0.7649932785379576  0.0871585587424093
  0.5568241105175744  0.8694687899613598  0.8366904316588020
  0.4453535450708870  0.7595638427682019  0.5887440450001407
 
  0.00000000E+00  0.00000000E+00  0.00000000E+00
  0.00000000E+00  0.00000000E+00  0.00000000E+00
  0.00000000E+00  0.00000000E+00  0.00000000E+00
  0.00000000E+00  0.00000000E+00  0.00000000E+00
  0.00000000E+00  0.00000000E+00  0.00000000E+00
  0.00000000E+00  0.00000000E+00  0.00000000E+00
  0.00000000E+00  0.00000000E+00  0.00000000E+00
  0.00000000E+00  0.00000000E+00  0.00000000E+00
  0.00000000E+00  0.00000000E+00  0.00000000E+00
  0.00000000E+00  0.00000000E+00  0.00000000E+00
  0.00000000E+00  0.00000000E+00  0.00000000E+00
  0.00000000E+00  0.00000000E+00  0.00000000E+00
  0.00000000E+00  0.00000000E+00  0.00000000E+00
  0.00000000E+00  0.00000000E+00  0.00000000E+00
  0.00000000E+00  0.00000000E+00  0.00000000E+00
  0.00000000E+00  0.00000000E+00  0.00000000E+00
  0.00000000E+00  0.00000000E+00  0.00000000E+00
  0.00000000E+00  0.00000000E+00  0.00000000E+00
  0.00000000E+00  0.00000000E+00  0.00000000E+00
  0.00000000E+00  0.00000000E+00  0.00000000E+00
  0.00000000E+00  0.00000000E+00  0.00000000E+00
  0.00000000E+00  0.00000000E+00  0.00000000E+00
  0.00000000E+00  0.00000000E+00  0.00000000E+00
  0.00000000E+00  0.00000000E+00  0.00000000E+00
  0.00000000E+00  0.00000000E+00  0.00000000E+00
  0.00000000E+00  0.00000000E+00  0.00000000E+00
  0.00000000E+00  0.00000000E+00  0.00000000E+00
  0.00000000E+00  0.00000000E+00  0.00000000E+00
  0.00000000E+00  0.00000000E+00  0.00000000E+00
  0.00000000E+00  0.00000000E+00  0.00000000E+00
  0.00000000E+00  0.00000000E+00  0.00000000E+00
  0.00000000E+00  0.00000000E+00  0.00000000E+00
  0.00000000E+00  0.00000000E+00  0.00000000E+00
  0.00000000E+00  0.00000000E+00  0.00000000E+00
  0.00000000E+00  0.00000000E+00  0.00000000E+00
  0.00000000E+00  0.00000000E+00  0.00000000E+00
  0.00000000E+00  0.00000000E+00  0.00000000E+00
  0.00000000E+00  0.00000000E+00  0.00000000E+00
  0.00000000E+00  0.00000000E+00  0.00000000E+00
  0.00000000E+00  0.00000000E+00  0.00000000E+00
  0.00000000E+00  0.00000000E+00  0.00000000E+00
  0.00000000E+00  0.00000000E+00  0.00000000E+00
  0.00000000E+00  0.00000000E+00  0.00000000E+00
  0.00000000E+00  0.00000000E+00  0.00000000E+00
  0.00000000E+00  0.00000000E+00  0.00000000E+00
  0.00000000E+00  0.00000000E+00  0.00000000E+00
  0.00000000E+00  0.00000000E+00  0.00000000E+00
  0.00000000E+00  0.00000000E+00  0.00000000E+00
  0.00000000E+00  0.00000000E+00  0.00000000E+00
  0.00000000E+00  0.00000000E+00  0.00000000E+00
  0.00000000E+00  0.00000000E+00  0.00000000E+00
  0.00000000E+00  0.00000000E+00  0.00000000E+00
  0.00000000E+00  0.00000000E+00  0.00000000E+00
  0.00000000E+00  0.00000000E+00  0.00000000E+00
  0.00000000E+00  0.00000000E+00  0.00000000E+00
  0.00000000E+00  0.00000000E+00  0.00000000E+00
  0.00000000E+00  0.00000000E+00  0.00000000E+00
  0.00000000E+00  0.00000000E+00  0.00000000E+00
  0.00000000E+00  0.00000000E+00  0.00000000E+00
  0.00000000E+00  0.00000000E+00  0.00000000E+00
  0.00000000E+00  0.00000000E+00  0.00000000E+00
  0.00000000E+00  0.00000000E+00  0.00000000E+00
  0.00000000E+00  0.00000000E+00  0.00000000E+00
  0.00000000E+00  0.00000000E+00  0.00000000E+00
  0.00000000E+00  0.00000000E+00  0.00000000E+00
  0.00000000E+00  0.00000000E+00  0.00000000E+00
  0.00000000E+00  0.00000000E+00  0.00000000E+00
  0.00000000E+00  0.00000000E+00  0.00000000E+00
  0.00000000E+00  0.00000000E+00  0.00000000E+00
  0.00000000E+00  0.00000000E+00  0.00000000E+00
  0.00000000E+00  0.00000000E+00  0.00000000E+00
  0.00000000E+00  0.00000000E+00  0.00000000E+00
