Al   Gd   N                             
   1.00000000000000     
    -9.4911310568682250    0.0023116354772207   -0.0060898965146622
    -4.7948682414152684    8.2502680723714512    0.0007313591382535
     0.0063424388403227    0.0172908788461407  -10.4687797334635047
   Al   Gd   N 
    34     2    36
Direct
  0.1213643129541424  0.0840230936235642  0.4064727959449428
  0.7847164347415472  0.0871486750501873  0.8155284518052568
  0.8844928391380407  0.2017561996442154  0.5773304395956629
  0.4466690275720850  0.0976927696283241  0.4009071919436025
  0.5563306199030009  0.2084252265041542  0.1390997707981967
  0.1144274683918880  0.0882886870359414  0.8805724711444611
  0.2220206179279529  0.2058608155763935  0.6443181108114402
  0.7878711747475791  0.0851154196089965  0.3196921198342224
  0.8791864180353741  0.2035667784926787  0.0521056668354092
  0.4490068948286776  0.0975462843974668  0.8832257650270350
  0.5495488083495701  0.2090457448051311  0.6423983206643840
  0.1197038996990614  0.4301754338189667  0.4056187330738155
  0.2209484713595415  0.5431886034529612  0.1383627210427747
  0.7738032547050295  0.4293102603956100  0.8123624072090720
  0.8842265210991513  0.5464016894081709  0.5766932949850769
  0.4361712576255385  0.4235322701027684  0.3917191061045244
  0.5591641544413690  0.5366323127387886  0.0560729938610862
  0.1139345049171325  0.4304451589175144  0.8801983382463092
  0.2212442392350127  0.5419005035967359  0.6423845164503348
  0.8802372609164593  0.5488931694807704  0.0522564057502777
  0.4402541690385746  0.4229250436734588  0.8854014963933423
  0.5524421436214269  0.5382856183260287  0.5729309593835907
  0.1188927316772919  0.7568973768182445  0.3870558933407580
  0.2221332572535957  0.8681825122098559  0.1382745829859857
  0.7808540102655357  0.7625296771533812  0.8155365956921798
  0.8838982124628174  0.8747965210723407  0.5640612159683656
  0.4353377343837153  0.7726717014485089  0.3941500590610687
  0.5668256001278635  0.8656593435392352  0.0674551092117568
  0.1168887047844009  0.7572111506750616  0.8931336081497889
  0.2193450325631119  0.8698572856152111  0.6432674455914267
  0.7769651976431362  0.7663632266411682  0.3197664508419962
  0.8840673856875867  0.8756907857933953  0.0708861717753280
  0.4376121278233924  0.7649676575463005  0.8781650680621311
  0.5573814784548929  0.8725665765786772  0.5971214082897873
  0.2216243458479710  0.2044757824209640  0.1421493629276824
  0.7816873105687989  0.4265063199905299  0.3160251290030871
  0.2184550617388865  0.2083562390640807  0.3592261813942486
  0.1057090134931897  0.0747195996740047  0.0627997783071166
  0.8809950843286956  0.2082192641300935  0.8675139435333392
  0.7829402330966246  0.0863743429854367  0.6325067523340451
  0.5492142390909436  0.2081438787949494  0.3267882246138711
  0.4735839597660174  0.0877229131642991  0.0648935870523601
  0.2225867014325971  0.2052768970081331  0.8311712324808056
  0.1176853129921085  0.0896549424178872  0.5917440450580926
  0.8952736481111288  0.1799780744305437  0.3961197160605252
  0.7871067658875859  0.0923838114891993  0.1337451974101640
  0.5510930482556375  0.2097130967342693  0.8246751217474753
  0.4440580752981091  0.0988624938385314  0.5864908789330840
  0.2207496047914503  0.5371813935350360  0.3250263064367260
  0.1056783238768233  0.4518969515980373  0.0633467218579682
  0.8811390008507516  0.5432934570183718  0.8672006258508418
  0.7760497663296420  0.4280986879368882  0.6262696206483938
  0.5319550817344521  0.5505312619870608  0.3861396534262340
  0.4428357569820918  0.4238697222698988  0.0746665791805867
  0.2211620856901177  0.5429794309973630  0.8248958640660931
  0.1162353505236808  0.4267270609790188  0.5915925727329991
  0.8943211156128896  0.5602173008974560  0.3948787815204255
  0.7817425382166761  0.4255405332133506  0.0997426922825539
  0.5542098674310125  0.5372072765776750  0.8679950680639905
  0.4392904893772567  0.4215908806522748  0.5795635106368735
  0.2211618758258069  0.8759514749560040  0.3255570878845475
  0.1180274269439821  0.7573670289399033  0.0794860692268600
  0.8827477421395002  0.8748666144334436  0.8848562686207444
  0.7815510465409545  0.7640792993698184  0.6342025548762535
  0.5579178383147507  0.8737853809314871  0.3743138086849740
  0.4402674356951906  0.7649569915967973  0.0722723371579121
  0.2180083007165408  0.8695100612209714  0.8244323759126573
  0.1183125049348632  0.7567832204538121  0.5740257681475143
  0.8850611483494788  0.8733858269775041  0.3785871190861911
  0.7809823759331209  0.7574532831560319  0.1312067738029441
  0.5577762664150043  0.8704266495339184  0.8597739943587044
  0.4380609942676159  0.7667117720964498  0.5876749847503007
 
  0.00000000E+00  0.00000000E+00  0.00000000E+00
  0.00000000E+00  0.00000000E+00  0.00000000E+00
  0.00000000E+00  0.00000000E+00  0.00000000E+00
  0.00000000E+00  0.00000000E+00  0.00000000E+00
  0.00000000E+00  0.00000000E+00  0.00000000E+00
  0.00000000E+00  0.00000000E+00  0.00000000E+00
  0.00000000E+00  0.00000000E+00  0.00000000E+00
  0.00000000E+00  0.00000000E+00  0.00000000E+00
  0.00000000E+00  0.00000000E+00  0.00000000E+00
  0.00000000E+00  0.00000000E+00  0.00000000E+00
  0.00000000E+00  0.00000000E+00  0.00000000E+00
  0.00000000E+00  0.00000000E+00  0.00000000E+00
  0.00000000E+00  0.00000000E+00  0.00000000E+00
  0.00000000E+00  0.00000000E+00  0.00000000E+00
  0.00000000E+00  0.00000000E+00  0.00000000E+00
  0.00000000E+00  0.00000000E+00  0.00000000E+00
  0.00000000E+00  0.00000000E+00  0.00000000E+00
  0.00000000E+00  0.00000000E+00  0.00000000E+00
  0.00000000E+00  0.00000000E+00  0.00000000E+00
  0.00000000E+00  0.00000000E+00  0.00000000E+00
  0.00000000E+00  0.00000000E+00  0.00000000E+00
  0.00000000E+00  0.00000000E+00  0.00000000E+00
  0.00000000E+00  0.00000000E+00  0.00000000E+00
  0.00000000E+00  0.00000000E+00  0.00000000E+00
  0.00000000E+00  0.00000000E+00  0.00000000E+00
  0.00000000E+00  0.00000000E+00  0.00000000E+00
  0.00000000E+00  0.00000000E+00  0.00000000E+00
  0.00000000E+00  0.00000000E+00  0.00000000E+00
  0.00000000E+00  0.00000000E+00  0.00000000E+00
  0.00000000E+00  0.00000000E+00  0.00000000E+00
  0.00000000E+00  0.00000000E+00  0.00000000E+00
  0.00000000E+00  0.00000000E+00  0.00000000E+00
  0.00000000E+00  0.00000000E+00  0.00000000E+00
  0.00000000E+00  0.00000000E+00  0.00000000E+00
  0.00000000E+00  0.00000000E+00  0.00000000E+00
  0.00000000E+00  0.00000000E+00  0.00000000E+00
  0.00000000E+00  0.00000000E+00  0.00000000E+00
  0.00000000E+00  0.00000000E+00  0.00000000E+00
  0.00000000E+00  0.00000000E+00  0.00000000E+00
  0.00000000E+00  0.00000000E+00  0.00000000E+00
  0.00000000E+00  0.00000000E+00  0.00000000E+00
  0.00000000E+00  0.00000000E+00  0.00000000E+00
  0.00000000E+00  0.00000000E+00  0.00000000E+00
  0.00000000E+00  0.00000000E+00  0.00000000E+00
  0.00000000E+00  0.00000000E+00  0.00000000E+00
  0.00000000E+00  0.00000000E+00  0.00000000E+00
  0.00000000E+00  0.00000000E+00  0.00000000E+00
  0.00000000E+00  0.00000000E+00  0.00000000E+00
  0.00000000E+00  0.00000000E+00  0.00000000E+00
  0.00000000E+00  0.00000000E+00  0.00000000E+00
  0.00000000E+00  0.00000000E+00  0.00000000E+00
  0.00000000E+00  0.00000000E+00  0.00000000E+00
  0.00000000E+00  0.00000000E+00  0.00000000E+00
  0.00000000E+00  0.00000000E+00  0.00000000E+00
  0.00000000E+00  0.00000000E+00  0.00000000E+00
  0.00000000E+00  0.00000000E+00  0.00000000E+00
  0.00000000E+00  0.00000000E+00  0.00000000E+00
  0.00000000E+00  0.00000000E+00  0.00000000E+00
  0.00000000E+00  0.00000000E+00  0.00000000E+00
  0.00000000E+00  0.00000000E+00  0.00000000E+00
  0.00000000E+00  0.00000000E+00  0.00000000E+00
  0.00000000E+00  0.00000000E+00  0.00000000E+00
  0.00000000E+00  0.00000000E+00  0.00000000E+00
  0.00000000E+00  0.00000000E+00  0.00000000E+00
  0.00000000E+00  0.00000000E+00  0.00000000E+00
  0.00000000E+00  0.00000000E+00  0.00000000E+00
  0.00000000E+00  0.00000000E+00  0.00000000E+00
  0.00000000E+00  0.00000000E+00  0.00000000E+00
  0.00000000E+00  0.00000000E+00  0.00000000E+00
  0.00000000E+00  0.00000000E+00  0.00000000E+00
  0.00000000E+00  0.00000000E+00  0.00000000E+00
  0.00000000E+00  0.00000000E+00  0.00000000E+00
