Al   Gd   N                             
   1.00000000000000     
    -9.4856125353722600    0.0018855404361817   -0.0063530364303219
    -4.7642984640378669    8.2290377571192330    0.0011357836006425
    -0.0791307080356405   -0.0443775938082892  -10.4072313004144359
   Al   Gd   N 
    34     2    36
Direct
  0.1237449561431916  0.0807108617497647  0.4085585374211647
  0.7812098848857119  0.0892076690014747  0.8184473427282768
  0.8879313265998476  0.1985972023278677  0.5813032947225381
  0.4473584762450216  0.0930205280064342  0.3983537478960031
  0.5548979886187766  0.2073939675784828  0.1391034412307519
  0.1148838450522334  0.0871563473703318  0.8822322155314879
  0.2255459756105651  0.2039267840354597  0.6462828385240584
  0.7857482486545777  0.0856945914129312  0.3212032154503461
  0.8745938597914957  0.2081164347836548  0.0560665392501107
  0.4515028082087156  0.0909483780513298  0.8876789738502140
  0.5500347664691461  0.2093717190792503  0.6405605709382343
  0.1237449655249065  0.4289436885362647  0.4085585450982592
  0.2167268408461638  0.5450129489169058  0.1396999967634187
  0.7801837921380255  0.4266078546458587  0.8160262331534511
  0.8879312880043599  0.5468709838896899  0.5813032885687122
  0.4400769699594775  0.4288905024551255  0.3878871039605514
  0.5418040877212178  0.5457977440186497  0.1334189612231640
  0.1148838238045968  0.4313593554729138  0.8822322093878725
  0.2243001973252063  0.5421189216384406  0.6430999522346141
  0.8745938697104236  0.5506892060493200  0.0560665452634694
  0.4444145275763134  0.4279067380631361  0.8889136922464687
  0.5488491641619717  0.5422751759360054  0.6376888471731093
  0.1174052290634009  0.7579971429565262  0.3886503994525796
  0.2167268403073805  0.8716597651964122  0.1396999977321940
  0.7812098429517320  0.7629819794905188  0.8184473527297556
  0.8834606858532794  0.8749693891240256  0.5676510481781776
  0.4400769720804547  0.7644320603300088  0.3878871037606331
  0.5548979795721465  0.8711076026261466  0.1391034374590774
  0.1172575603746893  0.7580709821160951  0.8933885767997793
  0.2243002091747144  0.8669803686786040  0.6430999455492952
  0.7857482413584833  0.7619566496974457  0.3212032043254638
  0.8814654236588240  0.8759670464119935  0.0716280508503218
  0.4444145157941506  0.7610782660505677  0.8889136880459887
  0.5500347404248274  0.8739930554926119  0.6405605726160033
  0.2180632888956637  0.2076681437800119  0.1416937102905536
  0.7930849214318414  0.4201572768208734  0.3291808267872725
  0.2172978953071976  0.2080508134502068  0.3599593059272550
  0.1016385769606316  0.0773269991545718  0.0653095409068740
  0.8801868720616568  0.2086060947478146  0.8706850994746134
  0.7827773137902767  0.0869423999442915  0.6355621632809658
  0.5477394119917207  0.2086016409840070  0.3282491954358235
  0.4761654450308939  0.0786170523825263  0.0685292633073686
  0.2233261886665403  0.2050366821070924  0.8346422892724732
  0.1213685461287426  0.0872545438503778  0.5946393776359002
  0.8986688961961846  0.1727408857699473  0.4001114255487863
  0.7849100401760722  0.0927309264303275  0.1347592684511838
  0.5474791674588317  0.2115176079117944  0.8264472949689932
  0.4489336613787884  0.0922329314477537  0.5825903008648297
  0.2205691966828383  0.5376174380483292  0.3270960837544337
  0.1016385733869996  0.4544339795756898  0.0653095290351189
  0.8801868531485937  0.5446065624976910  0.8706850998840991
  0.7838149956459972  0.4247922412233507  0.6256235814213156
  0.5234361606712170  0.5549816918044215  0.3196111463919635
  0.4420752196866360  0.4263740099384918  0.0753891027568656
  0.2235482868957064  0.5428279904214648  0.8265867227351009
  0.1213685221004681  0.4247764305972410  0.5946393780250219
  0.8986688888021135  0.5619897156649998  0.4001114167179267
  0.7763265496074183  0.4285364783935464  0.1087959384972663
  0.5474853269278270  0.5429571051740396  0.8253521064566343
  0.4464359154168349  0.4269452439539521  0.5750988927785343
  0.2205691983418561  0.8752128816699738  0.3270960877576599
  0.1157979419775401  0.7588008005084603  0.0805640526474249
  0.8817238565099217  0.8758378300174314  0.8860660294714222
  0.7827772783491369  0.7636797861539861  0.6355621668623428
  0.5477394057910772  0.8770584938600550  0.3282491918211790
  0.4420752170543949  0.7649503239938724  0.0753890979568439
  0.2235482734791532  0.8670232516981216  0.8265867195220764
  0.1187593929188253  0.7573200471480632  0.5761505280520964
  0.8835106718036698  0.8749444099094674  0.3820369175850828
  0.7849100308858965  0.7557585525226926  0.1347592584147748
  0.5474791193973232  0.8744027960036718  0.8264472930717943
  0.4464359296772571  0.7600183464375476  0.5750988906898513
 
  0.00000000E+00  0.00000000E+00  0.00000000E+00
  0.00000000E+00  0.00000000E+00  0.00000000E+00
  0.00000000E+00  0.00000000E+00  0.00000000E+00
  0.00000000E+00  0.00000000E+00  0.00000000E+00
  0.00000000E+00  0.00000000E+00  0.00000000E+00
  0.00000000E+00  0.00000000E+00  0.00000000E+00
  0.00000000E+00  0.00000000E+00  0.00000000E+00
  0.00000000E+00  0.00000000E+00  0.00000000E+00
  0.00000000E+00  0.00000000E+00  0.00000000E+00
  0.00000000E+00  0.00000000E+00  0.00000000E+00
  0.00000000E+00  0.00000000E+00  0.00000000E+00
  0.00000000E+00  0.00000000E+00  0.00000000E+00
  0.00000000E+00  0.00000000E+00  0.00000000E+00
  0.00000000E+00  0.00000000E+00  0.00000000E+00
  0.00000000E+00  0.00000000E+00  0.00000000E+00
  0.00000000E+00  0.00000000E+00  0.00000000E+00
  0.00000000E+00  0.00000000E+00  0.00000000E+00
  0.00000000E+00  0.00000000E+00  0.00000000E+00
  0.00000000E+00  0.00000000E+00  0.00000000E+00
  0.00000000E+00  0.00000000E+00  0.00000000E+00
  0.00000000E+00  0.00000000E+00  0.00000000E+00
  0.00000000E+00  0.00000000E+00  0.00000000E+00
  0.00000000E+00  0.00000000E+00  0.00000000E+00
  0.00000000E+00  0.00000000E+00  0.00000000E+00
  0.00000000E+00  0.00000000E+00  0.00000000E+00
  0.00000000E+00  0.00000000E+00  0.00000000E+00
  0.00000000E+00  0.00000000E+00  0.00000000E+00
  0.00000000E+00  0.00000000E+00  0.00000000E+00
  0.00000000E+00  0.00000000E+00  0.00000000E+00
  0.00000000E+00  0.00000000E+00  0.00000000E+00
  0.00000000E+00  0.00000000E+00  0.00000000E+00
  0.00000000E+00  0.00000000E+00  0.00000000E+00
  0.00000000E+00  0.00000000E+00  0.00000000E+00
  0.00000000E+00  0.00000000E+00  0.00000000E+00
  0.00000000E+00  0.00000000E+00  0.00000000E+00
  0.00000000E+00  0.00000000E+00  0.00000000E+00
  0.00000000E+00  0.00000000E+00  0.00000000E+00
  0.00000000E+00  0.00000000E+00  0.00000000E+00
  0.00000000E+00  0.00000000E+00  0.00000000E+00
  0.00000000E+00  0.00000000E+00  0.00000000E+00
  0.00000000E+00  0.00000000E+00  0.00000000E+00
  0.00000000E+00  0.00000000E+00  0.00000000E+00
  0.00000000E+00  0.00000000E+00  0.00000000E+00
  0.00000000E+00  0.00000000E+00  0.00000000E+00
  0.00000000E+00  0.00000000E+00  0.00000000E+00
  0.00000000E+00  0.00000000E+00  0.00000000E+00
  0.00000000E+00  0.00000000E+00  0.00000000E+00
  0.00000000E+00  0.00000000E+00  0.00000000E+00
  0.00000000E+00  0.00000000E+00  0.00000000E+00
  0.00000000E+00  0.00000000E+00  0.00000000E+00
  0.00000000E+00  0.00000000E+00  0.00000000E+00
  0.00000000E+00  0.00000000E+00  0.00000000E+00
  0.00000000E+00  0.00000000E+00  0.00000000E+00
  0.00000000E+00  0.00000000E+00  0.00000000E+00
  0.00000000E+00  0.00000000E+00  0.00000000E+00
  0.00000000E+00  0.00000000E+00  0.00000000E+00
  0.00000000E+00  0.00000000E+00  0.00000000E+00
  0.00000000E+00  0.00000000E+00  0.00000000E+00
  0.00000000E+00  0.00000000E+00  0.00000000E+00
  0.00000000E+00  0.00000000E+00  0.00000000E+00
  0.00000000E+00  0.00000000E+00  0.00000000E+00
  0.00000000E+00  0.00000000E+00  0.00000000E+00
  0.00000000E+00  0.00000000E+00  0.00000000E+00
  0.00000000E+00  0.00000000E+00  0.00000000E+00
  0.00000000E+00  0.00000000E+00  0.00000000E+00
  0.00000000E+00  0.00000000E+00  0.00000000E+00
  0.00000000E+00  0.00000000E+00  0.00000000E+00
  0.00000000E+00  0.00000000E+00  0.00000000E+00
  0.00000000E+00  0.00000000E+00  0.00000000E+00
  0.00000000E+00  0.00000000E+00  0.00000000E+00
  0.00000000E+00  0.00000000E+00  0.00000000E+00
  0.00000000E+00  0.00000000E+00  0.00000000E+00
