Al   Gd   N                             
   1.00000000000000     
    -9.5538129717161731    0.0020246107726571   -0.0062174265892770
    -4.7713358309321849    8.2573398426589826    0.0008473290212391
    -0.1257143704031289   -0.0037114869345934  -10.2755207983806400
   Al   Gd   N 
    34     2    36
Direct
  0.1169179369039739  0.0859988400829650  0.4132254528441592
  0.7785580007250701  0.0871608561488699  0.8314571406461155
  0.8929832799354926  0.2089276217114389  0.6522887181326595
  0.4502867536264930  0.0917766152489108  0.4080132083985575
  0.5499555909550082  0.2074355830932433  0.1463067572724555
  0.1127253668121426  0.0876074044763655  0.8900930540885668
  0.2270563599425088  0.2037517738433792  0.6526010690890800
  0.7854848204006473  0.0841498717413671  0.3241708896856181
  0.8853752255160430  0.1985620354569448  0.1149835096616627
  0.4496800490946242  0.0903446084025035  0.8969508131411175
  0.5519711430563632  0.2099399185196660  0.6485123779851421
  0.1263330718129083  0.4272651359619744  0.4164406121705468
  0.2171183490032647  0.5438730657558111  0.1499555463401094
  0.7693328453333166  0.4297691842201985  0.8883918614853314
  0.8901750017072843  0.5483410808788207  0.5911260580257647
  0.4390441178061124  0.4296679024768082  0.3969439065702289
  0.5399183756516450  0.5451442155199047  0.1422996765905822
  0.1146410921437351  0.4300640354569936  0.8906731064516720
  0.2252742965760177  0.5424611519096203  0.6516215194196775
  0.8791554297643245  0.5522325262958674  0.0709507645643654
  0.4417305641905429  0.4271476144450403  0.8986122620390091
  0.5556060179030737  0.5397990338139920  0.6506119549295732
  0.1180781977037668  0.7583078506091567  0.3972620739928558
  0.2170410444625333  0.8690449564026537  0.1497710057814032
  0.7811932663128118  0.7614758745448569  0.8273096255348094
  0.8839073788299743  0.8783864698576878  0.5771056381457669
  0.4388408125986842  0.7653533980909089  0.3973217783562077
  0.5535818187698851  0.8705966647430898  0.1492759319370336
  0.1180054192167219  0.7573260963490682  0.9010908816972005
  0.2246129104159706  0.8668302936243393  0.6499085055135154
  0.7874046332053908  0.7624917597736953  0.3312252588543316
  0.8816789628810966  0.8726200962837183  0.0781957031531206
  0.4420933966346752  0.7632696133163819  0.8981748227354700
  0.5512106041799001  0.8734466423582390  0.6490551228690720
  0.2140782515869120  0.2052671393980532  0.1532120777019159
  0.7780174691138981  0.4277887622152434  0.3744751551894865
  0.2242387005546718  0.2053484521828892  0.3727511085538069
  0.0998487524681835  0.0739575299523239  0.0712089393390585
  0.8880279852855040  0.2071113946149907  0.8476771512208927
  0.7824818248635808  0.0908796829519005  0.6409057779354868
  0.5504619585216446  0.2087236468151588  0.3385386317435177
  0.4692406100234763  0.0795099681083684  0.0803760627869465
  0.2239246277422637  0.2036645398803358  0.8438563062979512
  0.1152382806580263  0.0908474179170327  0.6011278921074705
  0.9158140079710790  0.1724568376614997  0.3383513967226861
  0.7749919744586364  0.0879433833784518  0.1332788820663779
  0.5480871720430187  0.2102682658020001  0.8377832169176216
  0.4504935493784572  0.0923042815787696  0.5939402302000403
  0.2222503749766673  0.5377089668762594  0.3379688324920807
  0.1028324599421424  0.4522721667227501  0.0776442480177835
  0.8817130932987922  0.5451365125407079  0.8817415211691824
  0.7790914941737412  0.4294282535127039  0.6069030577569521
  0.5182308110409082  0.5578484168078219  0.3254850784599768
  0.4392178108019920  0.4265661811950707  0.0854663512038556
  0.2238806795353341  0.5417842421664574  0.8368915479841021
  0.1213683089851045  0.4257632949771946  0.6053442028610334
  0.9058845335137704  0.5608200047158931  0.4034131261231551
  0.7695754471039393  0.4284599791950967  0.0930185889834476
  0.5491551931585263  0.5413354604024931  0.8397090781596432
  0.4468933991271768  0.4288915806571580  0.5866283733962376
  0.2230368506492155  0.8745483837768404  0.3387216637134998
  0.1143233900838254  0.7582148939342943  0.0908475423423383
  0.8846554606119525  0.8719267531686725  0.8916420769423183
  0.7824044246707373  0.7654358528806426  0.6423367629631684
  0.5509770056275016  0.8747247160663392  0.3402713206758605
  0.4403306164365119  0.7655203734326008  0.0856096595218290
  0.2241907837667654  0.8667163115994541  0.8351268325202597
  0.1178149635006136  0.7583979409759749  0.5865097230243066
  0.8853306088664823  0.8765587627313423  0.3899555134064556
  0.7822729194247842  0.7572238338601593  0.1432099246455039
  0.5489571982918164  0.8731826832867995  0.8371438520347922
  0.4466181504649995  0.7599406569280660  0.5866793970992461
 
  0.00000000E+00  0.00000000E+00  0.00000000E+00
  0.00000000E+00  0.00000000E+00  0.00000000E+00
  0.00000000E+00  0.00000000E+00  0.00000000E+00
  0.00000000E+00  0.00000000E+00  0.00000000E+00
  0.00000000E+00  0.00000000E+00  0.00000000E+00
  0.00000000E+00  0.00000000E+00  0.00000000E+00
  0.00000000E+00  0.00000000E+00  0.00000000E+00
  0.00000000E+00  0.00000000E+00  0.00000000E+00
  0.00000000E+00  0.00000000E+00  0.00000000E+00
  0.00000000E+00  0.00000000E+00  0.00000000E+00
  0.00000000E+00  0.00000000E+00  0.00000000E+00
  0.00000000E+00  0.00000000E+00  0.00000000E+00
  0.00000000E+00  0.00000000E+00  0.00000000E+00
  0.00000000E+00  0.00000000E+00  0.00000000E+00
  0.00000000E+00  0.00000000E+00  0.00000000E+00
  0.00000000E+00  0.00000000E+00  0.00000000E+00
  0.00000000E+00  0.00000000E+00  0.00000000E+00
  0.00000000E+00  0.00000000E+00  0.00000000E+00
  0.00000000E+00  0.00000000E+00  0.00000000E+00
  0.00000000E+00  0.00000000E+00  0.00000000E+00
  0.00000000E+00  0.00000000E+00  0.00000000E+00
  0.00000000E+00  0.00000000E+00  0.00000000E+00
  0.00000000E+00  0.00000000E+00  0.00000000E+00
  0.00000000E+00  0.00000000E+00  0.00000000E+00
  0.00000000E+00  0.00000000E+00  0.00000000E+00
  0.00000000E+00  0.00000000E+00  0.00000000E+00
  0.00000000E+00  0.00000000E+00  0.00000000E+00
  0.00000000E+00  0.00000000E+00  0.00000000E+00
  0.00000000E+00  0.00000000E+00  0.00000000E+00
  0.00000000E+00  0.00000000E+00  0.00000000E+00
  0.00000000E+00  0.00000000E+00  0.00000000E+00
  0.00000000E+00  0.00000000E+00  0.00000000E+00
  0.00000000E+00  0.00000000E+00  0.00000000E+00
  0.00000000E+00  0.00000000E+00  0.00000000E+00
  0.00000000E+00  0.00000000E+00  0.00000000E+00
  0.00000000E+00  0.00000000E+00  0.00000000E+00
  0.00000000E+00  0.00000000E+00  0.00000000E+00
  0.00000000E+00  0.00000000E+00  0.00000000E+00
  0.00000000E+00  0.00000000E+00  0.00000000E+00
  0.00000000E+00  0.00000000E+00  0.00000000E+00
  0.00000000E+00  0.00000000E+00  0.00000000E+00
  0.00000000E+00  0.00000000E+00  0.00000000E+00
  0.00000000E+00  0.00000000E+00  0.00000000E+00
  0.00000000E+00  0.00000000E+00  0.00000000E+00
  0.00000000E+00  0.00000000E+00  0.00000000E+00
  0.00000000E+00  0.00000000E+00  0.00000000E+00
  0.00000000E+00  0.00000000E+00  0.00000000E+00
  0.00000000E+00  0.00000000E+00  0.00000000E+00
  0.00000000E+00  0.00000000E+00  0.00000000E+00
  0.00000000E+00  0.00000000E+00  0.00000000E+00
  0.00000000E+00  0.00000000E+00  0.00000000E+00
  0.00000000E+00  0.00000000E+00  0.00000000E+00
  0.00000000E+00  0.00000000E+00  0.00000000E+00
  0.00000000E+00  0.00000000E+00  0.00000000E+00
  0.00000000E+00  0.00000000E+00  0.00000000E+00
  0.00000000E+00  0.00000000E+00  0.00000000E+00
  0.00000000E+00  0.00000000E+00  0.00000000E+00
  0.00000000E+00  0.00000000E+00  0.00000000E+00
  0.00000000E+00  0.00000000E+00  0.00000000E+00
  0.00000000E+00  0.00000000E+00  0.00000000E+00
  0.00000000E+00  0.00000000E+00  0.00000000E+00
  0.00000000E+00  0.00000000E+00  0.00000000E+00
  0.00000000E+00  0.00000000E+00  0.00000000E+00
  0.00000000E+00  0.00000000E+00  0.00000000E+00
  0.00000000E+00  0.00000000E+00  0.00000000E+00
  0.00000000E+00  0.00000000E+00  0.00000000E+00
  0.00000000E+00  0.00000000E+00  0.00000000E+00
  0.00000000E+00  0.00000000E+00  0.00000000E+00
  0.00000000E+00  0.00000000E+00  0.00000000E+00
  0.00000000E+00  0.00000000E+00  0.00000000E+00
  0.00000000E+00  0.00000000E+00  0.00000000E+00
  0.00000000E+00  0.00000000E+00  0.00000000E+00
