Al   Gd   N                             
   1.00000000000000     
    -9.5394621962905291    0.0027930325345196   -0.0056612515756722
    -4.7573698842217240    8.2425321127864439   -0.0001217373954712
    -0.0208905323187808   -0.0321177709785173  -10.2615183985809217
   Al   Gd   N 
    34     2    36
Direct
  0.1084682186106036  0.0903005543648518  0.3213945725224008
  0.7772608041423510  0.0914473305883448  0.8102078927949066
  0.8883169246826625  0.2014502336447350  0.5659911986949950
  0.4530593535741261  0.0902906458222645  0.3158507681699874
  0.5610715781193178  0.2035936570228714  0.0617452141654553
  0.1101358992181503  0.0927236390042907  0.7993475313031126
  0.2236892838280298  0.2068392405575423  0.5592069173120962
  0.7807849574464214  0.0883482482094635  0.3102838200324314
  0.8852000973519694  0.2006237879254655  0.0503509918549057
  0.4462258315066165  0.0934291818328248  0.8024681746892099
  0.5573581642595897  0.2062605528058441  0.5602206270445649
  0.1087178243759652  0.4333622376890673  0.3193397908078879
  0.2171255639531680  0.5484581191763311  0.1341468627575750
  0.7763153608841407  0.4284087804353192  0.8113362554588264
  0.8895812341182534  0.5440465820937632  0.5657007989161542
  0.4483523233655760  0.4251630716805508  0.3145294042577191
  0.5512546948952490  0.5404071970376734  0.0507165938565848
  0.1062981620184758  0.4271499993028769  0.8012760259496190
  0.2210082460688128  0.5455317381801166  0.6283215235222031
  0.8851413175681841  0.5454587130663242  0.0500577595716507
  0.4484150329735215  0.4242708926806031  0.8112081071129040
  0.5529847625162176  0.5399347148560452  0.5654821687040297
  0.1151094702666953  0.7558878184502049  0.3826011885401144
  0.2185334292264614  0.8667213859849525  0.1167626179236407
  0.7761261667923023  0.7649857827357422  0.8103686655062035
  0.8805981205978952  0.8766542263569619  0.5607501818838330
  0.4469608076816556  0.7609017597060870  0.3162734085379100
  0.5608860130091884  0.8679844537950316  0.0616710667284792
  0.1167237755657453  0.7590381522050791  0.8807155055282578
  0.2258984556528745  0.8717501230171152  0.5844375647168718
  0.7807870295826476  0.7644406427608459  0.3102338963316384
  0.8802905607578140  0.8754078731513459  0.0616311689566160
  0.4424224668629932  0.7641575323122112  0.8092800586528668
  0.5586915172963671  0.8707317401207462  0.5600579654049085
  0.2236375526343366  0.2019530028537275  0.0616508123144754
  0.7814998394722252  0.4264842551963781  0.3070917406129681
  0.2233198876829832  0.2055154592925064  0.3661751949395935
  0.0873417851112777  0.0877730544216959  0.1350783324029479
  0.8902180229706644  0.2021869437311210  0.8625973207016244
  0.7757626235347033  0.0933505365205107  0.6243043433614162
  0.5589976558611411  0.2058515235290059  0.3729580932982799
  0.4761357719809212  0.0784192748629309  0.1321042333287110
  0.2213233172416054  0.2055436744930290  0.8432491967116746
  0.1110330765484662  0.0968340141856814  0.6122853352966970
  0.8980886346586061  0.1783761944567672  0.3844144466498918
  0.7777900773035142  0.0953136532779482  0.1207703905992332
  0.5541891787040996  0.2046238056542791  0.8719534302443748
  0.4475358396130531  0.0934942350550116  0.6144327376236802
  0.2241276932824263  0.5429708611306481  0.3244868119387263
  0.0878046487435995  0.4529037945511973  0.1302231171735784
  0.8886376145807375  0.5414767692775442  0.8630121153868586
  0.7782723942006982  0.4282661355370010  0.6181071355571248
  0.5315161099392611  0.5506361782085349  0.3821238917989618
  0.4503592846179814  0.4249090782240117  0.1202076618091041
  0.2184868366361243  0.5433375002124237  0.8209084064888188
  0.1101946305054966  0.4272534896149693  0.6138421725563958
  0.8998517400900994  0.5570054351534708  0.3840866817743063
  0.7765738082543407  0.4276217278285230  0.0872418533768951
  0.5512690065799362  0.5419381573195565  0.8647484670741079
  0.4511676577316095  0.4230887029620689  0.6221812306432781
  0.2263394355966213  0.8689259298404153  0.3510949461149551
  0.1117713053201754  0.7579752523547043  0.0717195123157168
  0.8824987616517745  0.8750730290765532  0.8728793122818104
  0.7760029923861893  0.7649289632525438  0.6244317053497070
  0.5598088816285269  0.8685008516240700  0.3729708404390095
  0.4485584527094133  0.7582939390705903  0.1237804792861610
  0.2208921249032514  0.8742282971271536  0.8414815889827665
  0.1119956480767286  0.7595791931631268  0.5704332780075276
  0.8838081688370494  0.8748448940119857  0.3699913716420582
  0.7773864755875195  0.7587025745615392  0.1208155096517274
  0.5536640552085714  0.8741272740883232  0.8716660215479095
  0.4497665554267627  0.7612560483232045  0.6203968103777910
 
  0.00000000E+00  0.00000000E+00  0.00000000E+00
  0.00000000E+00  0.00000000E+00  0.00000000E+00
  0.00000000E+00  0.00000000E+00  0.00000000E+00
  0.00000000E+00  0.00000000E+00  0.00000000E+00
  0.00000000E+00  0.00000000E+00  0.00000000E+00
  0.00000000E+00  0.00000000E+00  0.00000000E+00
  0.00000000E+00  0.00000000E+00  0.00000000E+00
  0.00000000E+00  0.00000000E+00  0.00000000E+00
  0.00000000E+00  0.00000000E+00  0.00000000E+00
  0.00000000E+00  0.00000000E+00  0.00000000E+00
  0.00000000E+00  0.00000000E+00  0.00000000E+00
  0.00000000E+00  0.00000000E+00  0.00000000E+00
  0.00000000E+00  0.00000000E+00  0.00000000E+00
  0.00000000E+00  0.00000000E+00  0.00000000E+00
  0.00000000E+00  0.00000000E+00  0.00000000E+00
  0.00000000E+00  0.00000000E+00  0.00000000E+00
  0.00000000E+00  0.00000000E+00  0.00000000E+00
  0.00000000E+00  0.00000000E+00  0.00000000E+00
  0.00000000E+00  0.00000000E+00  0.00000000E+00
  0.00000000E+00  0.00000000E+00  0.00000000E+00
  0.00000000E+00  0.00000000E+00  0.00000000E+00
  0.00000000E+00  0.00000000E+00  0.00000000E+00
  0.00000000E+00  0.00000000E+00  0.00000000E+00
  0.00000000E+00  0.00000000E+00  0.00000000E+00
  0.00000000E+00  0.00000000E+00  0.00000000E+00
  0.00000000E+00  0.00000000E+00  0.00000000E+00
  0.00000000E+00  0.00000000E+00  0.00000000E+00
  0.00000000E+00  0.00000000E+00  0.00000000E+00
  0.00000000E+00  0.00000000E+00  0.00000000E+00
  0.00000000E+00  0.00000000E+00  0.00000000E+00
  0.00000000E+00  0.00000000E+00  0.00000000E+00
  0.00000000E+00  0.00000000E+00  0.00000000E+00
  0.00000000E+00  0.00000000E+00  0.00000000E+00
  0.00000000E+00  0.00000000E+00  0.00000000E+00
  0.00000000E+00  0.00000000E+00  0.00000000E+00
  0.00000000E+00  0.00000000E+00  0.00000000E+00
  0.00000000E+00  0.00000000E+00  0.00000000E+00
  0.00000000E+00  0.00000000E+00  0.00000000E+00
  0.00000000E+00  0.00000000E+00  0.00000000E+00
  0.00000000E+00  0.00000000E+00  0.00000000E+00
  0.00000000E+00  0.00000000E+00  0.00000000E+00
  0.00000000E+00  0.00000000E+00  0.00000000E+00
  0.00000000E+00  0.00000000E+00  0.00000000E+00
  0.00000000E+00  0.00000000E+00  0.00000000E+00
  0.00000000E+00  0.00000000E+00  0.00000000E+00
  0.00000000E+00  0.00000000E+00  0.00000000E+00
  0.00000000E+00  0.00000000E+00  0.00000000E+00
  0.00000000E+00  0.00000000E+00  0.00000000E+00
  0.00000000E+00  0.00000000E+00  0.00000000E+00
  0.00000000E+00  0.00000000E+00  0.00000000E+00
  0.00000000E+00  0.00000000E+00  0.00000000E+00
  0.00000000E+00  0.00000000E+00  0.00000000E+00
  0.00000000E+00  0.00000000E+00  0.00000000E+00
  0.00000000E+00  0.00000000E+00  0.00000000E+00
  0.00000000E+00  0.00000000E+00  0.00000000E+00
  0.00000000E+00  0.00000000E+00  0.00000000E+00
  0.00000000E+00  0.00000000E+00  0.00000000E+00
  0.00000000E+00  0.00000000E+00  0.00000000E+00
  0.00000000E+00  0.00000000E+00  0.00000000E+00
  0.00000000E+00  0.00000000E+00  0.00000000E+00
  0.00000000E+00  0.00000000E+00  0.00000000E+00
  0.00000000E+00  0.00000000E+00  0.00000000E+00
  0.00000000E+00  0.00000000E+00  0.00000000E+00
  0.00000000E+00  0.00000000E+00  0.00000000E+00
  0.00000000E+00  0.00000000E+00  0.00000000E+00
  0.00000000E+00  0.00000000E+00  0.00000000E+00
  0.00000000E+00  0.00000000E+00  0.00000000E+00
  0.00000000E+00  0.00000000E+00  0.00000000E+00
  0.00000000E+00  0.00000000E+00  0.00000000E+00
  0.00000000E+00  0.00000000E+00  0.00000000E+00
  0.00000000E+00  0.00000000E+00  0.00000000E+00
  0.00000000E+00  0.00000000E+00  0.00000000E+00
