Al   Gd   N                             
   1.00000000000000     
    -9.4886586035485738    0.0020317202639509   -0.0062685330809061
    -4.7772284776749556    8.2383944104502866    0.0010151984738893
    -0.0437382554342124   -0.0240766836563509  -10.4234140882211275
   Al   Gd   N 
    34     2    36
Direct
  0.1216764240469956  0.0827894603303960  0.4057090996096520
  0.7825176537846019  0.0881932031321071  0.8153338985952203
  0.8856566547025295  0.2006842063820500  0.5779576741374797
  0.4473556880132179  0.0929889500864221  0.3962468912218000
  0.5555145838171427  0.2068709848235954  0.1380750200621463
  0.1147639736716357  0.0878610715761070  0.8792964007978199
  0.2244565774645366  0.2044388483648518  0.6434077491138126
  0.7863377220157517  0.0857572716720369  0.3197474669102576
  0.8774434850114261  0.2041649013459761  0.0514687893748587
  0.4522422824439332  0.0905456145010746  0.8865925633695397
  0.5496434537813144  0.2075667794117919  0.6396097193065771
  0.1216764292067936  0.4288671436839735  0.4057091194564819
  0.2185801499652200  0.5443885209151702  0.1381981055815587
  0.7767335140031619  0.4283000063173859  0.8150580768244708
  0.8856565368224096  0.5469936213864344  0.5779576265577049
  0.4394280544029385  0.4262212266675007  0.3888863409403100
  0.5529607826128355  0.5401863878746269  0.0784174492890770
  0.1147638853779185  0.4307080634356666  0.8792964094808653
  0.2218548504197173  0.5423739903963494  0.6414895413593698
  0.8774434097397403  0.5517263414534597  0.0514687648533965
  0.4412624927185149  0.4246751071133232  0.8839537217574076
  0.5513028735646088  0.5410153218688620  0.6071203612687697
  0.1195120411404602  0.7569104617843649  0.3867289950310848
  0.2185801491872539  0.8703655611344203  0.1381980914051013
  0.7825176678045338  0.7626226967879290  0.8153338289783676
  0.8836957601335342  0.8748193645628461  0.5647245536792482
  0.4394280768657310  0.7676843409253991  0.3888863998403309
  0.5555145101829169  0.8709479426672999  0.1380750605884060
  0.1175386519826134  0.7578971723719690  0.8917806881086463
  0.2218548414049479  0.8691053656134144  0.6414895719325528
  0.7863377355869829  0.7612385939779500  0.3197474947910166
  0.8821822543373514  0.8755761779133593  0.0699352713782275
  0.4412624971702996  0.7673959535771502  0.8839537622293960
  0.5496433989269320  0.8761233216876079  0.6396096966428928
  0.2186256380007450  0.2073544173895669  0.1396243098727723
  0.7874849125097398  0.4229242462539631  0.3174430554775540
  0.2175895180185208  0.2078720388435613  0.3574752661524414
  0.1034969688941985  0.0759661843243506  0.0624942596796458
  0.8810053333261081  0.2075900891797744  0.8669674418524878
  0.7824818718140349  0.0868488184542429  0.6324977255743889
  0.5482625188175874  0.2076027316809572  0.3264519128903345
  0.4767478918883867  0.0782926317886847  0.0671875117284202
  0.2240055857769363  0.2046640736050023  0.8320291106013897
  0.1189673262781881  0.0890636222345975  0.5919344074004371
  0.8961751288903841  0.1769639245578887  0.3970489215793691
  0.7858132429085671  0.0926390113978428  0.1329345749678268
  0.5488036609985869  0.2090197351146941  0.8243043777087991
  0.4477673979424424  0.0927829497388331  0.5802490007099976
  0.2206651891512408  0.5367219992671295  0.3249815404204952
  0.1034968064623030  0.4538707188530182  0.0624942074161794
  0.8810052652129912  0.5447386605793128  0.8669673403658962
  0.7804060586011374  0.4264638481014984  0.6268673119869703
  0.5298364298392428  0.5517488648028248  0.3535516482918197
  0.4415038322480314  0.4235340562852059  0.0722364446511605
  0.2216092667691711  0.5433758257479866  0.8240855734031953
  0.1189672158994668  0.4253027511294718  0.5919343310763026
  0.8961751319486666  0.5601949198070457  0.3970488365772269
  0.7794378477698913  0.4269480824933467  0.0978115693742794
  0.5499494364900883  0.5416922569472007  0.8491125902894936
  0.4425762098379380  0.4240140367822818  0.5776382924427566
  0.2206651809432714  0.8759464110293322  0.3249815824836659
  0.1171588892984019  0.7580874186402013  0.0785580098325767
  0.8822353583724905  0.8755493172858024  0.8842107236148493
  0.7824818407134728  0.7640031385350383  0.6324976522625718
  0.5482625483663384  0.8774687298128825  0.3264519631507454
  0.4415039136462653  0.7682952388349591  0.0722363980891529
  0.2216092274122090  0.8683485843380936  0.8240856053592935
  0.1190582158204521  0.7571377199051526  0.5740301061773110
  0.8848627787753927  0.8742356302409178  0.3795155852035990
  0.7858131810973603  0.7548817948206334  0.1329345763731382
  0.5488036489639327  0.8755105654262465  0.8243043398905314
  0.4425762504244233  0.7667429668008836  0.5776383163599519
 
  0.00000000E+00  0.00000000E+00  0.00000000E+00
  0.00000000E+00  0.00000000E+00  0.00000000E+00
  0.00000000E+00  0.00000000E+00  0.00000000E+00
  0.00000000E+00  0.00000000E+00  0.00000000E+00
  0.00000000E+00  0.00000000E+00  0.00000000E+00
  0.00000000E+00  0.00000000E+00  0.00000000E+00
  0.00000000E+00  0.00000000E+00  0.00000000E+00
  0.00000000E+00  0.00000000E+00  0.00000000E+00
  0.00000000E+00  0.00000000E+00  0.00000000E+00
  0.00000000E+00  0.00000000E+00  0.00000000E+00
  0.00000000E+00  0.00000000E+00  0.00000000E+00
  0.00000000E+00  0.00000000E+00  0.00000000E+00
  0.00000000E+00  0.00000000E+00  0.00000000E+00
  0.00000000E+00  0.00000000E+00  0.00000000E+00
  0.00000000E+00  0.00000000E+00  0.00000000E+00
  0.00000000E+00  0.00000000E+00  0.00000000E+00
  0.00000000E+00  0.00000000E+00  0.00000000E+00
  0.00000000E+00  0.00000000E+00  0.00000000E+00
  0.00000000E+00  0.00000000E+00  0.00000000E+00
  0.00000000E+00  0.00000000E+00  0.00000000E+00
  0.00000000E+00  0.00000000E+00  0.00000000E+00
  0.00000000E+00  0.00000000E+00  0.00000000E+00
  0.00000000E+00  0.00000000E+00  0.00000000E+00
  0.00000000E+00  0.00000000E+00  0.00000000E+00
  0.00000000E+00  0.00000000E+00  0.00000000E+00
  0.00000000E+00  0.00000000E+00  0.00000000E+00
  0.00000000E+00  0.00000000E+00  0.00000000E+00
  0.00000000E+00  0.00000000E+00  0.00000000E+00
  0.00000000E+00  0.00000000E+00  0.00000000E+00
  0.00000000E+00  0.00000000E+00  0.00000000E+00
  0.00000000E+00  0.00000000E+00  0.00000000E+00
  0.00000000E+00  0.00000000E+00  0.00000000E+00
  0.00000000E+00  0.00000000E+00  0.00000000E+00
  0.00000000E+00  0.00000000E+00  0.00000000E+00
  0.00000000E+00  0.00000000E+00  0.00000000E+00
  0.00000000E+00  0.00000000E+00  0.00000000E+00
  0.00000000E+00  0.00000000E+00  0.00000000E+00
  0.00000000E+00  0.00000000E+00  0.00000000E+00
  0.00000000E+00  0.00000000E+00  0.00000000E+00
  0.00000000E+00  0.00000000E+00  0.00000000E+00
  0.00000000E+00  0.00000000E+00  0.00000000E+00
  0.00000000E+00  0.00000000E+00  0.00000000E+00
  0.00000000E+00  0.00000000E+00  0.00000000E+00
  0.00000000E+00  0.00000000E+00  0.00000000E+00
  0.00000000E+00  0.00000000E+00  0.00000000E+00
  0.00000000E+00  0.00000000E+00  0.00000000E+00
  0.00000000E+00  0.00000000E+00  0.00000000E+00
  0.00000000E+00  0.00000000E+00  0.00000000E+00
  0.00000000E+00  0.00000000E+00  0.00000000E+00
  0.00000000E+00  0.00000000E+00  0.00000000E+00
  0.00000000E+00  0.00000000E+00  0.00000000E+00
  0.00000000E+00  0.00000000E+00  0.00000000E+00
  0.00000000E+00  0.00000000E+00  0.00000000E+00
  0.00000000E+00  0.00000000E+00  0.00000000E+00
  0.00000000E+00  0.00000000E+00  0.00000000E+00
  0.00000000E+00  0.00000000E+00  0.00000000E+00
  0.00000000E+00  0.00000000E+00  0.00000000E+00
  0.00000000E+00  0.00000000E+00  0.00000000E+00
  0.00000000E+00  0.00000000E+00  0.00000000E+00
  0.00000000E+00  0.00000000E+00  0.00000000E+00
  0.00000000E+00  0.00000000E+00  0.00000000E+00
  0.00000000E+00  0.00000000E+00  0.00000000E+00
  0.00000000E+00  0.00000000E+00  0.00000000E+00
  0.00000000E+00  0.00000000E+00  0.00000000E+00
  0.00000000E+00  0.00000000E+00  0.00000000E+00
  0.00000000E+00  0.00000000E+00  0.00000000E+00
  0.00000000E+00  0.00000000E+00  0.00000000E+00
  0.00000000E+00  0.00000000E+00  0.00000000E+00
  0.00000000E+00  0.00000000E+00  0.00000000E+00
  0.00000000E+00  0.00000000E+00  0.00000000E+00
  0.00000000E+00  0.00000000E+00  0.00000000E+00
  0.00000000E+00  0.00000000E+00  0.00000000E+00
