supercell of POSCAR                     
   1.01800000000000     
     3.1310994802600001   -5.4896946145000003   10.0244832682999991
    -9.4821132118399998   -5.5089477087900001    0.0170740616273000
     6.3359946057599998  -11.0114127993000004  -10.0652216442999993
   Al   Gd   N    O 
    84    12    95     1
Direct
  0.0900677672031946  0.5848414904076407  0.3344671218659485
  0.5002721367768075  0.3224469180448111  0.2555232533237159
  0.0866703262841213  0.0850861818439270  0.3345448671950848
  0.2523732081248795  0.5787466566096882  0.4946878826236585
  0.3313485506938818  0.3182175834437473  0.0786399555545856
  0.4184897009650399  0.0863708427117587  0.1714512946645428
  0.0074770456590727  0.8433372995652348  0.2551439831488480
  0.1685623262138733  0.3320841173092788  0.4123393127725805
  0.2483368672829442  0.0867235973030844  0.4960419907762130
  0.1628588179154349  0.8364831678588516  0.4161999643925895
  0.3376982300879874  0.6733295614979937  0.3401767034087300
  0.1561531138385206  0.6756029223605395  0.1656855288226708
  0.2506385555930279  0.4017619813061444  0.2521103118163595
  0.3350478957212815  0.1641241585845208  0.3344302853005132
  0.0072723314452148  0.6730457881930150  0.4943834549920894
  0.1669808383351992  0.1587258676055399  0.1701487905040153
  0.2540749163698379  0.9200317912153437  0.2561670282373214
  0.4132746034377703  0.4146628421576324  0.4154371596973334
  0.4991083980290512  0.1614394495221063  0.4969781965270670
  0.0773954268679020  0.9244925973332201  0.0824696986508044
  0.4208560463701900  0.9197554723271608  0.4117953264501750
  0.0890506863786698  0.5845645209625090  0.8343997711588855
  0.4993964254868999  0.3225661500628831  0.7553134416586857
  0.0850854399377070  0.0861906159941128  0.8333524516798221
  0.2521109731251627  0.5795155897810886  0.9952215154967234
  0.3322128239086624  0.3182097014777554  0.5783545071093101
  0.4171890246697174  0.0867625423169542  0.6710023973811303
  0.0068497288533038  0.8435351567449061  0.7546028183853508
  0.1670838128329990  0.3333376867170372  0.9123855441428788
  0.2471192784303824  0.0931333883239560  0.9948473749570255
  0.1581753592150577  0.8334626693880551  0.9127498489752668
  0.3363740788417005  0.6729417642554338  0.8404966543091419
  0.1548800354871389  0.6750767299517051  0.6659951309094509
  0.2498166566538771  0.4016363604393760  0.7522670371657370
  0.3337121570052801  0.1638434935586375  0.8337607456035911
  0.0060041213897790  0.6723167092134830  0.9947889216782784
  0.1669365837278534  0.1590867075982345  0.6690609631941200
  0.2524971260362605  0.9202843643750640  0.7559321933282774
  0.4122990132737883  0.4142707647630104  0.9152344635935208
  0.4983145678026801  0.1607506349489327  0.9972057727417507
  0.0837280125730402  0.9237505984776959  0.5796312740921081
  0.4210835934183592  0.9188996852796691  0.9115058933644420
  0.5901827782980860  0.5841991608435251  0.3346346298514291
  0.0000911912613546  0.3225694704061439  0.2556122907970533
  0.5867992203173458  0.0847488912711398  0.3344606866453717
  0.7523699636373280  0.5787426277320549  0.4945524385066591
  0.8309792225589163  0.3185010373303712  0.0782818357443773
  0.9165758475314689  0.0873986005175809  0.1709891034970497
  0.5086375883791732  0.8421148418010347  0.2549970309028708
  0.6686207026571935  0.3318439680423708  0.4122140425629794
  0.7482794489199520  0.0867797453785997  0.4959065370614582
  0.6628793118901513  0.8365164939324359  0.4160152899700833
  0.8375066361007981  0.6734623473723715  0.3401454249486591
  0.6555176301387178  0.6739372412486517  0.1662440037080444
  0.7507007698173211  0.4017967932151691  0.2520985775022808
  0.8349886806579150  0.1638805315734544  0.3341821745083848
  0.5072252481236177  0.6730148481536915  0.4943976106576997
  0.6673972834782234  0.1587035324239920  0.1695743703662274
  0.7536705558054209  0.9196234284802358  0.2556605678922281
  0.9132389819091102  0.4147552414831566  0.4153436060992277
  0.9991328428378949  0.1615883366190403  0.4968906824856774
  0.5831718130901251  0.9231704619557846  0.0803480084243873
  0.9208350845991404  0.9198533435855438  0.4117367999723882
  0.5887579549676829  0.5850106894827505  0.8347334384943110
  0.9991106636187652  0.3230202803560545  0.7550780515081712
  0.5858810856327210  0.0851766581085656  0.8341890222356625
  0.7507869550371638  0.5785068513366411  0.9947591486655654
  0.8322069566526693  0.3184065899799222  0.5781504731619620
  0.9170341426637449  0.0870960536963352  0.6705747432210885
  0.5074019889659098  0.8431160970216922  0.7549292685041422
  0.6671784088516830  0.3320916515165067  0.9121752169784685
  0.7466983176098978  0.0868406593646114  0.9959596973542517
  0.6620775971168698  0.8363321336996279  0.9159333394445071
  0.8362411651735258  0.6734777852832252  0.8401644700900590
  0.6548783319464846  0.6749869398136923  0.6658451645611549
  0.7495735565500823  0.4020868444408805  0.7520768571746004
  0.8334801164735453  0.1643579247228288  0.8337420788599204
  0.5060366502082942  0.6723967333660710  0.9950306919051215
  0.6669357814940398  0.1589258004467666  0.6691531811118878
  0.7525731296695000  0.9200519699638434  0.7556010196452760
  0.9116887019093127  0.4150560244144117  0.9152068260811035
  0.9964359061028176  0.1623179951600804  0.9964946180326848
  0.5836684560622203  0.9236126865677008  0.5795887568393141
  0.9188343702096091  0.9205176657689691  0.9113848954702277
  0.3981999315233224  0.5802338335998485  0.1785002244353748
  0.3299926880399937  0.8424078561908601  0.0818337019861133
  0.0803255109382093  0.4180366502552104  0.0852994549631063
  0.3983278628103832  0.5793499009800911  0.6788885042506223
  0.3329352082439740  0.8361567293682057  0.5836797449836340
  0.0823468487795012  0.4193639115931660  0.5848538033379711
  0.8988281374320479  0.5797168459496831  0.1787480689772494
  0.8308760859773088  0.8358844312426470  0.0826809969252977
  0.5807827513686661  0.4176510973816931  0.0848333410996318
  0.8982303921533230  0.5797798850401108  0.6788866585876931
  0.8327898740370330  0.8361668587557531  0.5832415014226058
  0.5824368818356049  0.4191877335676679  0.5847512397199992
  0.2190545161010249  0.5814856010791871  0.2657842893308171
  0.0348766102269096  0.6113986339533994  0.1007006665760741
  0.1303412834136921  0.3166535496439522  0.2002431497962647
  0.2133049579790622  0.0822131897230065  0.2721893848287351
  0.3827597224234651  0.5835820381242058  0.4373172633548350
  0.4471627105979366  0.3177288845738815  0.0102216078397817
  0.0408295804634093  0.0860549660916803  0.1029331468644656
  0.1336024001506217  0.8443539405178342  0.1842219701291654
  0.2967365269895623  0.3294129012096505  0.3521642685523574
  0.3773417629853668  0.0804709201139957  0.4351277417213737
  0.4744527754319705  0.8374511265674087  0.0089545465446150
  0.2934579210005168  0.8349620440604042  0.3561326421623292
  0.4722352080544496  0.6842379549726871  0.2865283641820895
  0.2660754365518585  0.6617748901330742  0.0942136716927706
  0.3743467001813769  0.3817445141176208  0.1849527326910021
  0.4622738854096227  0.1621453765526724  0.2739203754904054
  0.1351908062858200  0.6653989519600003  0.4329795346286858
  0.2232836297828840  0.4126367361105210  0.0101079084064750
  0.2891817464417272  0.1541191108422026  0.1016870291155456
  0.3854801572420499  0.9260108221712855  0.2009613143394304
  0.0435083015850140  0.4195048931665610  0.3518761274255056
  0.1274247486463977  0.1707163551977189  0.4345484177489567
  0.0495823070725763  0.9238832939933701  0.3522456349762777
  0.2180127619214574  0.5812185106159760  0.7673255415627125
  0.0329413250385571  0.6116484606203727  0.6008330774425943
  0.1293698862127499  0.3171326478038807  0.7003518510381355
  0.2117700097911310  0.0826225990342806  0.7723279779362642
  0.3817765195588194  0.5831111886689939  0.9377317311550541
  0.4492420386469931  0.3190780157088824  0.5105939587726596
  0.0406465183836389  0.0854403828570227  0.6036632533656103
  0.1321917431472244  0.8427868673290746  0.6863417284797464
  0.2952085051208968  0.3288376433356248  0.8527299376680162
  0.3745721226403447  0.0783540436384058  0.9359941403600516
  0.4764503097801267  0.8377282657013936  0.5078486566586591
  0.2912992917219981  0.8355881933083609  0.8586331853175935
  0.4704252141119412  0.6856580232876937  0.7874246748017768
  0.2639436775239545  0.6551587501855138  0.5953188107437484
  0.3734402359771636  0.3819116193037999  0.6856294515784782
  0.4613388857262350  0.1624784909467252  0.7744912185025186
  0.1341031042868437  0.6661206373447968  0.9336937583701257
  0.2247109232269153  0.4119492413059405  0.5092251380306223
  0.2901537603406439  0.1571142011477917  0.6021712496943579
  0.3842260415726102  0.9278046664102817  0.7027920211965153
  0.0422163567899858  0.4197078591999670  0.8523348041295833
  0.1254911065496955  0.1705001477893049  0.9346736969737819
  0.1974719135593475  0.9314469130594034  0.5102851891445965
  0.0481983657614720  0.9251026953502119  0.8528708810106167
  0.7193043627262412  0.5807199636744755  0.2666611956730875
  0.5337489996110847  0.6102923284808881  0.1009484294441023
  0.6302753872984752  0.3168694306055073  0.2001915782262600
  0.7131905604745796  0.0821041235956628  0.2720399935897007
  0.8829233639243981  0.5836878880783587  0.4372938944876310
  0.9476505087893301  0.3193015752931601  0.0101540622774650
  0.5405295941396631  0.0852111255905115  0.1037643247703173
  0.6333009399209502  0.8420742530244283  0.1856246055816584
  0.7968968714231437  0.3291567560271673  0.3521147468052916
  0.8774465484157190  0.0805351132499368  0.4350716382513653
  0.9784329399657352  0.8388450925707431  0.0077599527734833
  0.7936687749623204  0.8351474220324278  0.3561949323264244
  0.9724204801029330  0.6853373937742475  0.2865393897733242
  0.7643892754950272  0.6549799085004651  0.0951365077453588
  0.8748141591988130  0.3821277583703377  0.1849962054231753
  0.9625097037887826  0.1623147758703922  0.2737564920770694
  0.6350672221308926  0.6654138929241498  0.4329852231217686
  0.7232675173665513  0.4118125016646772  0.0092663055890654
  0.7899526622674742  0.1570338193810557  0.1018511010433301
  0.8854858708078197  0.9274426158937032  0.2007925860876227
  0.5433535303277566  0.4190525841534765  0.3519998674603215
  0.6272978338670043  0.1705743331359457  0.4345003637318641
  0.6955689490448123  0.9315560976016712  0.0100213108213509
  0.5492180138079803  0.9235830444265787  0.3521963409840581
  0.7179219055859107  0.5813181154347760  0.7670270463967128
  0.5329026430460289  0.6114116170553672  0.6007717275958768
  0.6293385671816907  0.3170216803668282  0.7002331108569138
  0.7119088176540416  0.0824541471777636  0.7721696532307476
  0.8817065978920624  0.5840680975159671  0.9377721981913751
  0.9493902099958831  0.3192356469361783  0.5105031405539293
  0.5404898411315955  0.0852328248324525  0.6037801525931314
  0.6320398872064317  0.8426162614612593  0.6859833519323217
  0.7953971230124566  0.3294660176523720  0.8522966247820278
  0.8757709618370626  0.0806342394958719  0.9350189270744167
  0.9767406817942472  0.8378343496498459  0.5077810018428082
  0.7926327576708800  0.8352522967578011  0.8566968265842974
  0.9714881506357358  0.6857756256829575  0.7875138000418218
  0.7639551123701906  0.6551678479455418  0.5951499155018709
  0.8734808779397625  0.3824453188406096  0.6853098624638463
  0.9611136237334961  0.1630484467206657  0.7739200042879659
  0.6336960546072561  0.6658056786420588  0.9334006983836503
  0.7247259566305999  0.4119549286357937  0.5090292163037304
  0.7900462117459597  0.1573545305855149  0.6019649269788374
  0.8844258436967110  0.9281246872489248  0.7021195901707671
  0.5421401326138309  0.4194718493599225  0.8521486815894121
  0.6257529699627682  0.1705796842522460  0.9346371783313074
  0.6972444604554866  0.9315635737079049  0.5101210253335751
  0.5484972328252411  0.9238655612645772  0.8527387104361424
  0.1897991599361575  0.9364893252938273  0.0079235346787172
 
  0.00000000E+00  0.00000000E+00  0.00000000E+00
  0.00000000E+00  0.00000000E+00  0.00000000E+00
  0.00000000E+00  0.00000000E+00  0.00000000E+00
  0.00000000E+00  0.00000000E+00  0.00000000E+00
  0.00000000E+00  0.00000000E+00  0.00000000E+00
  0.00000000E+00  0.00000000E+00  0.00000000E+00
  0.00000000E+00  0.00000000E+00  0.00000000E+00
  0.00000000E+00  0.00000000E+00  0.00000000E+00
  0.00000000E+00  0.00000000E+00  0.00000000E+00
  0.00000000E+00  0.00000000E+00  0.00000000E+00
  0.00000000E+00  0.00000000E+00  0.00000000E+00
  0.00000000E+00  0.00000000E+00  0.00000000E+00
  0.00000000E+00  0.00000000E+00  0.00000000E+00
  0.00000000E+00  0.00000000E+00  0.00000000E+00
  0.00000000E+00  0.00000000E+00  0.00000000E+00
  0.00000000E+00  0.00000000E+00  0.00000000E+00
  0.00000000E+00  0.00000000E+00  0.00000000E+00
  0.00000000E+00  0.00000000E+00  0.00000000E+00
  0.00000000E+00  0.00000000E+00  0.00000000E+00
  0.00000000E+00  0.00000000E+00  0.00000000E+00
  0.00000000E+00  0.00000000E+00  0.00000000E+00
  0.00000000E+00  0.00000000E+00  0.00000000E+00
  0.00000000E+00  0.00000000E+00  0.00000000E+00
  0.00000000E+00  0.00000000E+00  0.00000000E+00
  0.00000000E+00  0.00000000E+00  0.00000000E+00
  0.00000000E+00  0.00000000E+00  0.00000000E+00
  0.00000000E+00  0.00000000E+00  0.00000000E+00
  0.00000000E+00  0.00000000E+00  0.00000000E+00
  0.00000000E+00  0.00000000E+00  0.00000000E+00
  0.00000000E+00  0.00000000E+00  0.00000000E+00
  0.00000000E+00  0.00000000E+00  0.00000000E+00
  0.00000000E+00  0.00000000E+00  0.00000000E+00
  0.00000000E+00  0.00000000E+00  0.00000000E+00
  0.00000000E+00  0.00000000E+00  0.00000000E+00
  0.00000000E+00  0.00000000E+00  0.00000000E+00
  0.00000000E+00  0.00000000E+00  0.00000000E+00
  0.00000000E+00  0.00000000E+00  0.00000000E+00
  0.00000000E+00  0.00000000E+00  0.00000000E+00
  0.00000000E+00  0.00000000E+00  0.00000000E+00
  0.00000000E+00  0.00000000E+00  0.00000000E+00
  0.00000000E+00  0.00000000E+00  0.00000000E+00
  0.00000000E+00  0.00000000E+00  0.00000000E+00
  0.00000000E+00  0.00000000E+00  0.00000000E+00
  0.00000000E+00  0.00000000E+00  0.00000000E+00
  0.00000000E+00  0.00000000E+00  0.00000000E+00
  0.00000000E+00  0.00000000E+00  0.00000000E+00
  0.00000000E+00  0.00000000E+00  0.00000000E+00
  0.00000000E+00  0.00000000E+00  0.00000000E+00
  0.00000000E+00  0.00000000E+00  0.00000000E+00
  0.00000000E+00  0.00000000E+00  0.00000000E+00
  0.00000000E+00  0.00000000E+00  0.00000000E+00
  0.00000000E+00  0.00000000E+00  0.00000000E+00
  0.00000000E+00  0.00000000E+00  0.00000000E+00
  0.00000000E+00  0.00000000E+00  0.00000000E+00
  0.00000000E+00  0.00000000E+00  0.00000000E+00
  0.00000000E+00  0.00000000E+00  0.00000000E+00
  0.00000000E+00  0.00000000E+00  0.00000000E+00
  0.00000000E+00  0.00000000E+00  0.00000000E+00
  0.00000000E+00  0.00000000E+00  0.00000000E+00
  0.00000000E+00  0.00000000E+00  0.00000000E+00
  0.00000000E+00  0.00000000E+00  0.00000000E+00
  0.00000000E+00  0.00000000E+00  0.00000000E+00
  0.00000000E+00  0.00000000E+00  0.00000000E+00
  0.00000000E+00  0.00000000E+00  0.00000000E+00
  0.00000000E+00  0.00000000E+00  0.00000000E+00
  0.00000000E+00  0.00000000E+00  0.00000000E+00
  0.00000000E+00  0.00000000E+00  0.00000000E+00
  0.00000000E+00  0.00000000E+00  0.00000000E+00
  0.00000000E+00  0.00000000E+00  0.00000000E+00
  0.00000000E+00  0.00000000E+00  0.00000000E+00
  0.00000000E+00  0.00000000E+00  0.00000000E+00
  0.00000000E+00  0.00000000E+00  0.00000000E+00
  0.00000000E+00  0.00000000E+00  0.00000000E+00
  0.00000000E+00  0.00000000E+00  0.00000000E+00
  0.00000000E+00  0.00000000E+00  0.00000000E+00
  0.00000000E+00  0.00000000E+00  0.00000000E+00
  0.00000000E+00  0.00000000E+00  0.00000000E+00
  0.00000000E+00  0.00000000E+00  0.00000000E+00
  0.00000000E+00  0.00000000E+00  0.00000000E+00
  0.00000000E+00  0.00000000E+00  0.00000000E+00
  0.00000000E+00  0.00000000E+00  0.00000000E+00
  0.00000000E+00  0.00000000E+00  0.00000000E+00
  0.00000000E+00  0.00000000E+00  0.00000000E+00
  0.00000000E+00  0.00000000E+00  0.00000000E+00
  0.00000000E+00  0.00000000E+00  0.00000000E+00
  0.00000000E+00  0.00000000E+00  0.00000000E+00
  0.00000000E+00  0.00000000E+00  0.00000000E+00
  0.00000000E+00  0.00000000E+00  0.00000000E+00
  0.00000000E+00  0.00000000E+00  0.00000000E+00
  0.00000000E+00  0.00000000E+00  0.00000000E+00
  0.00000000E+00  0.00000000E+00  0.00000000E+00
  0.00000000E+00  0.00000000E+00  0.00000000E+00
  0.00000000E+00  0.00000000E+00  0.00000000E+00
  0.00000000E+00  0.00000000E+00  0.00000000E+00
  0.00000000E+00  0.00000000E+00  0.00000000E+00
  0.00000000E+00  0.00000000E+00  0.00000000E+00
  0.00000000E+00  0.00000000E+00  0.00000000E+00
  0.00000000E+00  0.00000000E+00  0.00000000E+00
  0.00000000E+00  0.00000000E+00  0.00000000E+00
  0.00000000E+00  0.00000000E+00  0.00000000E+00
  0.00000000E+00  0.00000000E+00  0.00000000E+00
  0.00000000E+00  0.00000000E+00  0.00000000E+00
  0.00000000E+00  0.00000000E+00  0.00000000E+00
  0.00000000E+00  0.00000000E+00  0.00000000E+00
  0.00000000E+00  0.00000000E+00  0.00000000E+00
  0.00000000E+00  0.00000000E+00  0.00000000E+00
  0.00000000E+00  0.00000000E+00  0.00000000E+00
  0.00000000E+00  0.00000000E+00  0.00000000E+00
  0.00000000E+00  0.00000000E+00  0.00000000E+00
  0.00000000E+00  0.00000000E+00  0.00000000E+00
  0.00000000E+00  0.00000000E+00  0.00000000E+00
  0.00000000E+00  0.00000000E+00  0.00000000E+00
  0.00000000E+00  0.00000000E+00  0.00000000E+00
  0.00000000E+00  0.00000000E+00  0.00000000E+00
  0.00000000E+00  0.00000000E+00  0.00000000E+00
  0.00000000E+00  0.00000000E+00  0.00000000E+00
  0.00000000E+00  0.00000000E+00  0.00000000E+00
  0.00000000E+00  0.00000000E+00  0.00000000E+00
  0.00000000E+00  0.00000000E+00  0.00000000E+00
  0.00000000E+00  0.00000000E+00  0.00000000E+00
  0.00000000E+00  0.00000000E+00  0.00000000E+00
  0.00000000E+00  0.00000000E+00  0.00000000E+00
  0.00000000E+00  0.00000000E+00  0.00000000E+00
  0.00000000E+00  0.00000000E+00  0.00000000E+00
  0.00000000E+00  0.00000000E+00  0.00000000E+00
  0.00000000E+00  0.00000000E+00  0.00000000E+00
  0.00000000E+00  0.00000000E+00  0.00000000E+00
  0.00000000E+00  0.00000000E+00  0.00000000E+00
  0.00000000E+00  0.00000000E+00  0.00000000E+00
  0.00000000E+00  0.00000000E+00  0.00000000E+00
  0.00000000E+00  0.00000000E+00  0.00000000E+00
  0.00000000E+00  0.00000000E+00  0.00000000E+00
  0.00000000E+00  0.00000000E+00  0.00000000E+00
  0.00000000E+00  0.00000000E+00  0.00000000E+00
  0.00000000E+00  0.00000000E+00  0.00000000E+00
  0.00000000E+00  0.00000000E+00  0.00000000E+00
  0.00000000E+00  0.00000000E+00  0.00000000E+00
  0.00000000E+00  0.00000000E+00  0.00000000E+00
  0.00000000E+00  0.00000000E+00  0.00000000E+00
  0.00000000E+00  0.00000000E+00  0.00000000E+00
  0.00000000E+00  0.00000000E+00  0.00000000E+00
  0.00000000E+00  0.00000000E+00  0.00000000E+00
  0.00000000E+00  0.00000000E+00  0.00000000E+00
  0.00000000E+00  0.00000000E+00  0.00000000E+00
  0.00000000E+00  0.00000000E+00  0.00000000E+00
  0.00000000E+00  0.00000000E+00  0.00000000E+00
  0.00000000E+00  0.00000000E+00  0.00000000E+00
  0.00000000E+00  0.00000000E+00  0.00000000E+00
  0.00000000E+00  0.00000000E+00  0.00000000E+00
  0.00000000E+00  0.00000000E+00  0.00000000E+00
  0.00000000E+00  0.00000000E+00  0.00000000E+00
  0.00000000E+00  0.00000000E+00  0.00000000E+00
  0.00000000E+00  0.00000000E+00  0.00000000E+00
  0.00000000E+00  0.00000000E+00  0.00000000E+00
  0.00000000E+00  0.00000000E+00  0.00000000E+00
  0.00000000E+00  0.00000000E+00  0.00000000E+00
  0.00000000E+00  0.00000000E+00  0.00000000E+00
  0.00000000E+00  0.00000000E+00  0.00000000E+00
  0.00000000E+00  0.00000000E+00  0.00000000E+00
  0.00000000E+00  0.00000000E+00  0.00000000E+00
  0.00000000E+00  0.00000000E+00  0.00000000E+00
  0.00000000E+00  0.00000000E+00  0.00000000E+00
  0.00000000E+00  0.00000000E+00  0.00000000E+00
  0.00000000E+00  0.00000000E+00  0.00000000E+00
  0.00000000E+00  0.00000000E+00  0.00000000E+00
  0.00000000E+00  0.00000000E+00  0.00000000E+00
  0.00000000E+00  0.00000000E+00  0.00000000E+00
  0.00000000E+00  0.00000000E+00  0.00000000E+00
  0.00000000E+00  0.00000000E+00  0.00000000E+00
  0.00000000E+00  0.00000000E+00  0.00000000E+00
  0.00000000E+00  0.00000000E+00  0.00000000E+00
  0.00000000E+00  0.00000000E+00  0.00000000E+00
  0.00000000E+00  0.00000000E+00  0.00000000E+00
  0.00000000E+00  0.00000000E+00  0.00000000E+00
  0.00000000E+00  0.00000000E+00  0.00000000E+00
  0.00000000E+00  0.00000000E+00  0.00000000E+00
  0.00000000E+00  0.00000000E+00  0.00000000E+00
  0.00000000E+00  0.00000000E+00  0.00000000E+00
  0.00000000E+00  0.00000000E+00  0.00000000E+00
  0.00000000E+00  0.00000000E+00  0.00000000E+00
  0.00000000E+00  0.00000000E+00  0.00000000E+00
  0.00000000E+00  0.00000000E+00  0.00000000E+00
  0.00000000E+00  0.00000000E+00  0.00000000E+00
  0.00000000E+00  0.00000000E+00  0.00000000E+00
  0.00000000E+00  0.00000000E+00  0.00000000E+00
  0.00000000E+00  0.00000000E+00  0.00000000E+00
  0.00000000E+00  0.00000000E+00  0.00000000E+00
  0.00000000E+00  0.00000000E+00  0.00000000E+00
  0.00000000E+00  0.00000000E+00  0.00000000E+00
  0.00000000E+00  0.00000000E+00  0.00000000E+00
  0.00000000E+00  0.00000000E+00  0.00000000E+00
  0.00000000E+00  0.00000000E+00  0.00000000E+00
