POSCAR                                  
   1.00800000000000     
    -4.7132124346099999    8.1757913003600002    0.0019593350047100
     7.8509472653100003    2.7215089198200002   -5.0228529904899997
    -6.2748263380499996   -5.4475157201500002  -10.0388705196999997
   Al   Tb   N 
    51     3    54
Direct
  0.1430218689959304  0.2103803491273268  0.6445600804662917
  0.9868513406149049  0.4242589299815904  0.5399959750794352
  0.4785092700382236  0.2029663299427753  0.6515014560351631
  0.3367774639358743  0.4243078401164908  0.5400443017610783
  0.8057625506326573  0.2101742670484157  0.6480370121498140
  0.6576751975697661  0.4244426306959710  0.5379782469978664
  0.5174822195513045  0.6475749929551355  0.4268174337133743
  0.3714584852602414  0.8759498474606886  0.3133235523376783
  0.8367034462801328  0.6450640816842039  0.4299434337036203
  0.6916030438769170  0.8695185781191057  0.3156358613289214
  0.2207254314850786  0.0990884318871394  0.2014556116784192
  0.0676930761400385  0.3129282381874106  0.0897820179231985
  0.5517016091308022  0.0947342667881159  0.2029295314132042
  0.4054224787763445  0.3154754535916027  0.0902868745612224
  0.2569472274382321  0.5336768981698441  0.9796125408227141
  0.1109282038183181  0.7535906111775716  0.8729207989401502
  0.8808317673962875  0.1002613780844612  0.2015427382024910
  0.7300071438068585  0.3154947032994428  0.0897762733503100
  0.5832517620935960  0.5339068987378894  0.9805440275879889
  0.4387101445200443  0.7582568331681969  0.8734350270193758
  0.9181475682655389  0.5396580887687961  0.9823642790666653
  0.7641216692351307  0.7546992306094324  0.8721874284146693
  0.2940178255808945  0.9769729818729047  0.7599614974371178
  0.6196354825857640  0.9809132424852010  0.7625949798469236
  0.3576080445982157  0.2935866279939390  0.8502806277312516
  0.2116089892726265  0.5186166932643843  0.7397543697692441
  0.6917002430725390  0.2968926864053074  0.8534618915761740
  0.5429786301299870  0.5174243560015341  0.7419162283773417
  0.4029601641924074  0.7415020275837350  0.6354272360713153
  0.2529698027787504  0.9720929030881251  0.5232999616876555
  0.0264313102743685  0.3074838869266401  0.8524341752646478
  0.8747720305565423  0.5197148939878886  0.7420381819248831
  0.7248855268800156  0.7368152129615666  0.6278212179175071
  0.5805230655988254  0.9643273306428313  0.5200040931672376
  0.0568558956408012  0.7373547297010319  0.6316796752526557
  0.9074158188208372  0.9626026754891726  0.5196426513729122
  0.4337670663488211  0.1861711296992254  0.4080473071407837
  0.2852985369989867  0.4009854220200211  0.2896033137142524
  0.7652843604236352  0.1864595535703799  0.4082117858741867
  0.6174106010202962  0.4078222699909944  0.2968083101152672
  0.4690448546869064  0.6289141974285144  0.1851384398460638
  0.3218969078703182  0.8504741733644323  0.0751071970717589
  0.1010048330865914  0.1980564875553625  0.4078099489412068
  0.9457804136057106  0.4030158178880257  0.2903961593657272
  0.7979342344576992  0.6237001608497934  0.1810353042595310
  0.6542184755741545  0.8501578776776242  0.0752057029747846
  0.1350853247841499  0.6196452745228811  0.1741391846425202
  0.9863087061606564  0.8486250846843930  0.0674265176658650
  0.1812515605159390  0.0734363186592617  0.9678056153695778
  0.5057223221340621  0.0720806304430326  0.9621103642597220
  0.8331590993397526  0.0739879687721228  0.9690655776159787
  0.1843757079151871  0.6447477552097425  0.4289327219470991
  0.0273180918906988  0.8803953186931537  0.3106441739664874
  0.9588946497285633  0.9914908586493993  0.7699052010819898
  0.0962297669870651  0.0774248353278395  0.5175202453870185
  0.9488174523962840  0.3034268716199620  0.4101582090897509
  0.4377936129939499  0.0818959270172144  0.5240783236250550
  0.2895623112138352  0.3034292020319995  0.4101960447219568
  0.1309041590882245  0.5017615588694966  0.2792660208824742
  0.9828802547910911  0.7229671951245180  0.1682907160029430
  0.7649484312500192  0.0800550789598944  0.5227273609003689
  0.6181666517117819  0.2990853026455440  0.4098336586404514
  0.4691948666331456  0.5209813135749144  0.2984427119521769
  0.3210197906799834  0.7417643066981938  0.1882893122757778
  0.8030777291549640  0.5215062135523922  0.2981631118936434
  0.6548585776489304  0.7425185675917092  0.1885133517937163
  0.1740381734938055  0.9633420617646422  0.0798444469676056
  0.0233148143637507  0.1799877513630506  0.9590200583667396
  0.5075679510581921  0.9648990864924940  0.0767145315354227
  0.3622884468735919  0.1884520740902218  0.9650853692500831
  0.2150332232732524  0.4101870976149584  0.8529654143407441
  0.0632998181761550  0.6298220077325780  0.7453202515835073
  0.8413495405192535  0.9634836587254654  0.0808636674383862
  0.6888432923791328  0.1879927671480672  0.9659928729633478
  0.5423954538084530  0.4072814459401073  0.8537515188055735
  0.3973680889931899  0.6321425496939810  0.7470758841826921
  0.8745651768353540  0.4128435503177670  0.8559158987803244
  0.7268650235388989  0.6322487191785626  0.7436296754192924
  0.9088927231981998  0.8449852868811263  0.6248565529568140
  0.2465501517297497  0.8494815068318289  0.6304593905539519
  0.5843328988415237  0.8579168242860717  0.6344858725345617
  0.3126780229470043  0.1648143294611160  0.7227926420736424
  0.1708364847990111  0.3962290383180829  0.6095155845366307
  0.6511095933017756  0.1678163079755208  0.7279453158696043
  0.5035672897532564  0.3870651289287039  0.6177885631261830
  0.3814318238708125  0.6099052885826666  0.5165483813830178
  0.2287141739782186  0.8592555144973630  0.3967970719986553
  0.9868044773715781  0.2002147675625068  0.7192777292178221
  0.8284091772623512  0.3936031990912596  0.6149434912000658
  0.6814046360193018  0.6079573733540116  0.5032586456681045
  0.5368082587964693  0.8361483614998590  0.3923159481234961
  0.9985623927374832  0.6080967050925778  0.5117387804955342
  0.8495347282107844  0.8306559217934648  0.4000359970783265
  0.3933950495217431  0.0625014232251004  0.2785920909342039
  0.2457591010535651  0.2793929426948907  0.1613335500668285
  0.7246017318035740  0.0585500805039914  0.2806940443539574
  0.5759688561234952  0.2815383919572838  0.1693977482471709
  0.4278263745423700  0.5017681510603254  0.0586104643832286
  0.2816230945655391  0.7206327873088085  0.9505028501014579
  0.0619905344960756  0.0953187051526143  0.2745177420137850
  0.9019979733774406  0.2807759932556166  0.1614638053318487
  0.7551607993590039  0.4995901823863349  0.0547525096515287
  0.6092478813523172  0.7202249961941476  0.9501216442017864
  0.0934725782342483  0.4950734627619369  0.0482934511903679
  0.9439117018792587  0.7248402269913257  0.9416692646872988
  0.1566087120319324  0.9398068837202374  0.8483834304664342
  0.4629601169730577  0.9442227711814155  0.8362213662822029
  0.7730045086196569  0.9412428766900405  0.8506432986690768
 
  0.00000000E+00  0.00000000E+00  0.00000000E+00
  0.00000000E+00  0.00000000E+00  0.00000000E+00
  0.00000000E+00  0.00000000E+00  0.00000000E+00
  0.00000000E+00  0.00000000E+00  0.00000000E+00
  0.00000000E+00  0.00000000E+00  0.00000000E+00
  0.00000000E+00  0.00000000E+00  0.00000000E+00
  0.00000000E+00  0.00000000E+00  0.00000000E+00
  0.00000000E+00  0.00000000E+00  0.00000000E+00
  0.00000000E+00  0.00000000E+00  0.00000000E+00
  0.00000000E+00  0.00000000E+00  0.00000000E+00
  0.00000000E+00  0.00000000E+00  0.00000000E+00
  0.00000000E+00  0.00000000E+00  0.00000000E+00
  0.00000000E+00  0.00000000E+00  0.00000000E+00
  0.00000000E+00  0.00000000E+00  0.00000000E+00
  0.00000000E+00  0.00000000E+00  0.00000000E+00
  0.00000000E+00  0.00000000E+00  0.00000000E+00
  0.00000000E+00  0.00000000E+00  0.00000000E+00
  0.00000000E+00  0.00000000E+00  0.00000000E+00
  0.00000000E+00  0.00000000E+00  0.00000000E+00
  0.00000000E+00  0.00000000E+00  0.00000000E+00
  0.00000000E+00  0.00000000E+00  0.00000000E+00
  0.00000000E+00  0.00000000E+00  0.00000000E+00
  0.00000000E+00  0.00000000E+00  0.00000000E+00
  0.00000000E+00  0.00000000E+00  0.00000000E+00
  0.00000000E+00  0.00000000E+00  0.00000000E+00
  0.00000000E+00  0.00000000E+00  0.00000000E+00
  0.00000000E+00  0.00000000E+00  0.00000000E+00
  0.00000000E+00  0.00000000E+00  0.00000000E+00
  0.00000000E+00  0.00000000E+00  0.00000000E+00
  0.00000000E+00  0.00000000E+00  0.00000000E+00
  0.00000000E+00  0.00000000E+00  0.00000000E+00
  0.00000000E+00  0.00000000E+00  0.00000000E+00
  0.00000000E+00  0.00000000E+00  0.00000000E+00
  0.00000000E+00  0.00000000E+00  0.00000000E+00
  0.00000000E+00  0.00000000E+00  0.00000000E+00
  0.00000000E+00  0.00000000E+00  0.00000000E+00
  0.00000000E+00  0.00000000E+00  0.00000000E+00
  0.00000000E+00  0.00000000E+00  0.00000000E+00
  0.00000000E+00  0.00000000E+00  0.00000000E+00
  0.00000000E+00  0.00000000E+00  0.00000000E+00
  0.00000000E+00  0.00000000E+00  0.00000000E+00
  0.00000000E+00  0.00000000E+00  0.00000000E+00
  0.00000000E+00  0.00000000E+00  0.00000000E+00
  0.00000000E+00  0.00000000E+00  0.00000000E+00
  0.00000000E+00  0.00000000E+00  0.00000000E+00
  0.00000000E+00  0.00000000E+00  0.00000000E+00
  0.00000000E+00  0.00000000E+00  0.00000000E+00
  0.00000000E+00  0.00000000E+00  0.00000000E+00
  0.00000000E+00  0.00000000E+00  0.00000000E+00
  0.00000000E+00  0.00000000E+00  0.00000000E+00
  0.00000000E+00  0.00000000E+00  0.00000000E+00
  0.00000000E+00  0.00000000E+00  0.00000000E+00
  0.00000000E+00  0.00000000E+00  0.00000000E+00
  0.00000000E+00  0.00000000E+00  0.00000000E+00
  0.00000000E+00  0.00000000E+00  0.00000000E+00
  0.00000000E+00  0.00000000E+00  0.00000000E+00
  0.00000000E+00  0.00000000E+00  0.00000000E+00
  0.00000000E+00  0.00000000E+00  0.00000000E+00
  0.00000000E+00  0.00000000E+00  0.00000000E+00
  0.00000000E+00  0.00000000E+00  0.00000000E+00
  0.00000000E+00  0.00000000E+00  0.00000000E+00
  0.00000000E+00  0.00000000E+00  0.00000000E+00
  0.00000000E+00  0.00000000E+00  0.00000000E+00
  0.00000000E+00  0.00000000E+00  0.00000000E+00
  0.00000000E+00  0.00000000E+00  0.00000000E+00
  0.00000000E+00  0.00000000E+00  0.00000000E+00
  0.00000000E+00  0.00000000E+00  0.00000000E+00
  0.00000000E+00  0.00000000E+00  0.00000000E+00
  0.00000000E+00  0.00000000E+00  0.00000000E+00
  0.00000000E+00  0.00000000E+00  0.00000000E+00
  0.00000000E+00  0.00000000E+00  0.00000000E+00
  0.00000000E+00  0.00000000E+00  0.00000000E+00
  0.00000000E+00  0.00000000E+00  0.00000000E+00
  0.00000000E+00  0.00000000E+00  0.00000000E+00
  0.00000000E+00  0.00000000E+00  0.00000000E+00
  0.00000000E+00  0.00000000E+00  0.00000000E+00
  0.00000000E+00  0.00000000E+00  0.00000000E+00
  0.00000000E+00  0.00000000E+00  0.00000000E+00
  0.00000000E+00  0.00000000E+00  0.00000000E+00
  0.00000000E+00  0.00000000E+00  0.00000000E+00
  0.00000000E+00  0.00000000E+00  0.00000000E+00
  0.00000000E+00  0.00000000E+00  0.00000000E+00
  0.00000000E+00  0.00000000E+00  0.00000000E+00
  0.00000000E+00  0.00000000E+00  0.00000000E+00
  0.00000000E+00  0.00000000E+00  0.00000000E+00
  0.00000000E+00  0.00000000E+00  0.00000000E+00
  0.00000000E+00  0.00000000E+00  0.00000000E+00
  0.00000000E+00  0.00000000E+00  0.00000000E+00
  0.00000000E+00  0.00000000E+00  0.00000000E+00
  0.00000000E+00  0.00000000E+00  0.00000000E+00
  0.00000000E+00  0.00000000E+00  0.00000000E+00
  0.00000000E+00  0.00000000E+00  0.00000000E+00
  0.00000000E+00  0.00000000E+00  0.00000000E+00
  0.00000000E+00  0.00000000E+00  0.00000000E+00
  0.00000000E+00  0.00000000E+00  0.00000000E+00
  0.00000000E+00  0.00000000E+00  0.00000000E+00
  0.00000000E+00  0.00000000E+00  0.00000000E+00
  0.00000000E+00  0.00000000E+00  0.00000000E+00
  0.00000000E+00  0.00000000E+00  0.00000000E+00
  0.00000000E+00  0.00000000E+00  0.00000000E+00
  0.00000000E+00  0.00000000E+00  0.00000000E+00
  0.00000000E+00  0.00000000E+00  0.00000000E+00
  0.00000000E+00  0.00000000E+00  0.00000000E+00
  0.00000000E+00  0.00000000E+00  0.00000000E+00
  0.00000000E+00  0.00000000E+00  0.00000000E+00
  0.00000000E+00  0.00000000E+00  0.00000000E+00
  0.00000000E+00  0.00000000E+00  0.00000000E+00
  0.00000000E+00  0.00000000E+00  0.00000000E+00
