supercell of icsd_608626.cif            
   1.05950059888173     
     9.1859629291650542   -0.0508879275885475   -0.0598036162975644
    -4.6368609028052683    7.9937273323912628    0.0392681530386291
    -0.0636042040428410    0.0114932838916966    9.7524864438749912
   Al   La   N 
    30     6    36
Direct
  0.2226990548455774  0.1085288603938537  0.2353239523687023
  0.8983623772601419  0.1091454904759885  0.7775598893523892
  0.7856534416026193  0.2224205242885660  0.9848413073563265
  0.4423003528409808  0.2144369987006769  0.4985076986241666
  0.2048301600714382  0.1072053099511479  0.7585859771453087
  0.1169106761192609  0.2245460098407577  0.9992359625781120
  0.9021571414686917  0.1065263864448269  0.2326201255125966
  0.4410748610334778  0.2332598181074701  0.0036557903396641
  0.2301120563114836  0.4556505655153629  0.2389567629583880
  0.1171660103741843  0.5698909215274952  0.5069929087111191
  0.8851914019321114  0.4522737936453680  0.7688705804889153
  0.7685064823958641  0.5673924721075494  0.9887934796689208
  0.5480885516575000  0.4555000025113287  0.2455846155825867
  0.4400776787192271  0.5567461267371812  0.4851501267824005
  0.2106131083878253  0.4383966197163502  0.7576622300535618
  0.1236776845330141  0.5675269817058393  0.9908770194550485
  0.7746290034096006  0.5607055262020069  0.5061966477386406
  0.5318958006867263  0.4336648814079993  0.7399225115718764
  0.4425314325578995  0.5569750837097374  0.0105744694559036
  0.2275597731786050  0.7773104469346848  0.2465554271111756
  0.1152945597668165  0.8796621109095639  0.4887978393422898
  0.8985826477006782  0.7874750086614881  0.7425385106275897
  0.7791871599765585  0.8860888143275076  0.0112637400217039
  0.5609754933430580  0.7746898573534935  0.2473363608673296
  0.4308166738156842  0.8696070526273658  0.4955826810436292
  0.2032664732043017  0.7614734699482568  0.7474113110035958
  0.1103912857461893  0.8867864490145649  0.9945700253111127
  0.8866957567595222  0.7825337337388305  0.2450268098163448
  0.7903412937746452  0.8862688244079351  0.4848636573326814
  0.4420042845172318  0.8824900258970700  0.0184656061800936
  0.1433686324834369  0.2269418352749213  0.4997360296687674
  0.5639648275468332  0.1236952294456373  0.2487365779166879
  0.8061300108394747  0.2200494386340850  0.5305605412896170
  0.5103218536972989  0.0836711567865720  0.7592848918278676
  0.9027485935633024  0.4696265162785522  0.2373169727804267
  0.5648857145410702  0.7592063770612967  0.7451423676853821
  0.2455740505529249  0.0823758448313683  0.4128205868893815
  0.1229471627056000  0.2279880969450971  0.1886991290892368
  0.8933603866959174  0.0989433842868550  0.9563071295032870
  0.7930467278624747  0.2287628841562324  0.7640866544694660
  0.5407726128480448  0.0937026964520555  0.4905085646130374
  0.4297936746709325  0.2514892232877912  0.1784680866528490
  0.2237481270643968  0.1076698495518471  0.9418432648744854
  0.1037183040334781  0.2227616683989879  0.7274817925125774
  0.8913282519955743  0.0833932725771405  0.4107236729461761
  0.8127869278852984  0.2197752297595770  0.1690161208341081
  0.5498655427181163  0.1122440037457082  0.9892832130205207
  0.4036481054173109  0.2276588312447032  0.6749549461330844
  0.2283532265605288  0.4809612573451574  0.4220284210498448
  0.1528552189874688  0.5792831527850666  0.1672068563644018
  0.8934678735969328  0.4659236154727253  0.9536222315168601
  0.7623968706735695  0.5587935782265987  0.6948040855728337
  0.5518440064990386  0.4386632251604965  0.4349806624412835
  0.4445578028800341  0.5602597942119374  0.1940298330386554
  0.2265193804996244  0.4501294934597198  0.9421538384013459
  0.0965281631479655  0.5448673781045485  0.6989139942406695
  0.8989610901519001  0.4742049034790980  0.4681018541617519
  0.7510188610135415  0.5796356557614075  0.1702473894223715
  0.5461777360228979  0.4478406959369465  0.9275810891131613
  0.4040792303969027  0.5108119726887494  0.6650478774630102
  0.2170946883918674  0.7719386299488207  0.4310420470674572
  0.1091325970483581  0.8811791279167238  0.1810299077983188
  0.8884263353729267  0.7849707695059323  0.9300504058015804
  0.8247954546433149  0.9218740203565545  0.6705087525425171
  0.5635251577357465  0.7768485200247071  0.4428247842918651
  0.4380055324168524  0.8654100135277289  0.1988237133851811
  0.2291831979449839  0.7872792646500102  0.9328057848665239
  0.1141260341602006  0.8888194590979523  0.6852330591401667
  0.8914537746569664  0.7720136852096076  0.4341932373620949
  0.7813388455344779  0.8878239536975769  0.1917167285426729
  0.5556468963995087  0.7797133678619375  0.9725416724977052
  0.3969098401520839  0.8356207600413583  0.6712172068085778
 
  0.00000000E+00  0.00000000E+00  0.00000000E+00
  0.00000000E+00  0.00000000E+00  0.00000000E+00
  0.00000000E+00  0.00000000E+00  0.00000000E+00
  0.00000000E+00  0.00000000E+00  0.00000000E+00
  0.00000000E+00  0.00000000E+00  0.00000000E+00
  0.00000000E+00  0.00000000E+00  0.00000000E+00
  0.00000000E+00  0.00000000E+00  0.00000000E+00
  0.00000000E+00  0.00000000E+00  0.00000000E+00
  0.00000000E+00  0.00000000E+00  0.00000000E+00
  0.00000000E+00  0.00000000E+00  0.00000000E+00
  0.00000000E+00  0.00000000E+00  0.00000000E+00
  0.00000000E+00  0.00000000E+00  0.00000000E+00
  0.00000000E+00  0.00000000E+00  0.00000000E+00
  0.00000000E+00  0.00000000E+00  0.00000000E+00
  0.00000000E+00  0.00000000E+00  0.00000000E+00
  0.00000000E+00  0.00000000E+00  0.00000000E+00
  0.00000000E+00  0.00000000E+00  0.00000000E+00
  0.00000000E+00  0.00000000E+00  0.00000000E+00
  0.00000000E+00  0.00000000E+00  0.00000000E+00
  0.00000000E+00  0.00000000E+00  0.00000000E+00
  0.00000000E+00  0.00000000E+00  0.00000000E+00
  0.00000000E+00  0.00000000E+00  0.00000000E+00
  0.00000000E+00  0.00000000E+00  0.00000000E+00
  0.00000000E+00  0.00000000E+00  0.00000000E+00
  0.00000000E+00  0.00000000E+00  0.00000000E+00
  0.00000000E+00  0.00000000E+00  0.00000000E+00
  0.00000000E+00  0.00000000E+00  0.00000000E+00
  0.00000000E+00  0.00000000E+00  0.00000000E+00
  0.00000000E+00  0.00000000E+00  0.00000000E+00
  0.00000000E+00  0.00000000E+00  0.00000000E+00
  0.00000000E+00  0.00000000E+00  0.00000000E+00
  0.00000000E+00  0.00000000E+00  0.00000000E+00
  0.00000000E+00  0.00000000E+00  0.00000000E+00
  0.00000000E+00  0.00000000E+00  0.00000000E+00
  0.00000000E+00  0.00000000E+00  0.00000000E+00
  0.00000000E+00  0.00000000E+00  0.00000000E+00
  0.00000000E+00  0.00000000E+00  0.00000000E+00
  0.00000000E+00  0.00000000E+00  0.00000000E+00
  0.00000000E+00  0.00000000E+00  0.00000000E+00
  0.00000000E+00  0.00000000E+00  0.00000000E+00
  0.00000000E+00  0.00000000E+00  0.00000000E+00
  0.00000000E+00  0.00000000E+00  0.00000000E+00
  0.00000000E+00  0.00000000E+00  0.00000000E+00
  0.00000000E+00  0.00000000E+00  0.00000000E+00
  0.00000000E+00  0.00000000E+00  0.00000000E+00
  0.00000000E+00  0.00000000E+00  0.00000000E+00
  0.00000000E+00  0.00000000E+00  0.00000000E+00
  0.00000000E+00  0.00000000E+00  0.00000000E+00
  0.00000000E+00  0.00000000E+00  0.00000000E+00
  0.00000000E+00  0.00000000E+00  0.00000000E+00
  0.00000000E+00  0.00000000E+00  0.00000000E+00
  0.00000000E+00  0.00000000E+00  0.00000000E+00
  0.00000000E+00  0.00000000E+00  0.00000000E+00
  0.00000000E+00  0.00000000E+00  0.00000000E+00
  0.00000000E+00  0.00000000E+00  0.00000000E+00
  0.00000000E+00  0.00000000E+00  0.00000000E+00
  0.00000000E+00  0.00000000E+00  0.00000000E+00
  0.00000000E+00  0.00000000E+00  0.00000000E+00
  0.00000000E+00  0.00000000E+00  0.00000000E+00
  0.00000000E+00  0.00000000E+00  0.00000000E+00
  0.00000000E+00  0.00000000E+00  0.00000000E+00
  0.00000000E+00  0.00000000E+00  0.00000000E+00
  0.00000000E+00  0.00000000E+00  0.00000000E+00
  0.00000000E+00  0.00000000E+00  0.00000000E+00
  0.00000000E+00  0.00000000E+00  0.00000000E+00
  0.00000000E+00  0.00000000E+00  0.00000000E+00
  0.00000000E+00  0.00000000E+00  0.00000000E+00
  0.00000000E+00  0.00000000E+00  0.00000000E+00
  0.00000000E+00  0.00000000E+00  0.00000000E+00
  0.00000000E+00  0.00000000E+00  0.00000000E+00
  0.00000000E+00  0.00000000E+00  0.00000000E+00
  0.00000000E+00  0.00000000E+00  0.00000000E+00
