supercell of icsd_608626.cif            
  0.911355576244153     
     9.3040594917851003    0.0422355578529350   -0.0737829424610138
    -4.6155833236562787    8.0164263472788200    0.0058434402469507
    -0.0803145278854913   -0.0390916185499959    9.9893332785274058
   B    Al   N 
    20    16    36
Direct
  0.2182449187617195  0.1065421915289946  0.2557125944933176
  0.1070558274456488  0.2350501636292748  0.5124827394691422
  0.8903785425654931  0.1158109970937105  0.7440093594269683
  0.5566777731332451  0.1195012710678469  0.2532974943425188
  0.4345494286504419  0.2154325748235166  0.4854067824726442
  0.4293874228158785  0.2039315993873601  0.0147484117303165
  0.1097791837491542  0.5545220890688967  0.4918241170359678
  0.5495419740078518  0.4356583638213962  0.2530525193344957
  0.2187595167649690  0.4568943101671223  0.7527571623302407
  0.1097587622839598  0.5620359344170325  0.0103812320095074
  0.8876899985775495  0.4444080361681770  0.2587308372517114
  0.4338805913819002  0.5542965646925353  0.0069799094209912
  0.1182218590322961  0.8893627504372859  0.4873502591757486
  0.5785366522202935  0.7832192326315948  0.2517405655764762
  0.2232293128063887  0.7660662027303715  0.6947644866447362
  0.1170478512588460  0.8913295037401312  0.0131598537309756
  0.8962211612062276  0.7953313507163600  0.2598005025836798
  0.8143730227170778  0.9139469771753710  0.5057493727849973
  0.4841564148194593  0.7412769792572433  0.7774451869276291
  0.4335540471868882  0.8874931175033964  0.0186114547294665
  0.7750664657450272  0.2250743372787412  0.0049614308949515
  0.2190337716445896  0.1043623604973902  0.7382953630916305
  0.1206589008305130  0.2233605365469344  0.9921623079332349
  0.8947672017050650  0.1082054015739971  0.2549521597048212
  0.7792640926032206  0.2225479022136554  0.4943266038480445
  0.5446548513236777  0.0978928818022737  0.7550984514567247
  0.2253676157002502  0.4440220277702807  0.2506417413052304
  0.8961193616888536  0.4489645113371665  0.7467638152362355
  0.7790680542607831  0.5587356474572900  0.0185127224512271
  0.4455016976150077  0.5590979634552227  0.5022224688636356
  0.7776034202048692  0.5632410925816203  0.4715764375569478
  0.5443566887513072  0.4396086260315286  0.7553507977117917
  0.2191044550081997  0.7772202290202728  0.2247920421809297
  0.9013621669488430  0.7830430844922205  0.7415081269377737
  0.7720029656833631  0.8817826860415821  0.9901991618255011
  0.4474683576355218  0.8856889912285624  0.4842172067032777
  0.2272760471973783  0.1060479333891990  0.4362296318689332
  0.1283964347961088  0.2116991518253570  0.1934248592661234
  0.8873559673357434  0.1107955474720512  0.9199811710513188
  0.7797838792606626  0.2077460435055727  0.6966523900077846
  0.5418312601939661  0.1211245045591625  0.4252778369579318
  0.4393310976639313  0.2139848626323086  0.1905955395083581
  0.2333822798734602  0.0919266972327009  0.9466653561914029
  0.1097127488720488  0.2480442950022308  0.6920649178974614
  0.9141135095854906  0.1131726364574632  0.4538770012252371
  0.7661428405569026  0.2338318154478216  0.2111861077181345
  0.5288815917067566  0.0967994060779276  0.9583823275248591
  0.4435620357437386  0.2198567894823285  0.6600748356212094
  0.2020315286441274  0.4380834853572679  0.4525750197437191
  0.0782696308002997  0.5293250699245320  0.1820206345935773
  0.9123886102542400  0.4613299291973689  0.9458782537377886
  0.7668175196499618  0.5531834955021466  0.6777330646796358
  0.5300060695343873  0.4164627363716136  0.4218687480713825
  0.4646583844596819  0.5691662843337753  0.1863801177731830
  0.2273657723483211  0.4689415637347309  0.9410318068468158
  0.1282874760662693  0.5658445672619479  0.6799202303252869
  0.9151970368363322  0.4569678467911800  0.4321179271006770
  0.7762646680455489  0.5536669418573226  0.2232987793647396
  0.5272825253702820  0.4280138157785842  0.9583768686411389
  0.4238605364197880  0.5628812528145275  0.7074111700908432
  0.2046864891882478  0.7613091392845490  0.4350273658370725
  0.0954077189319165  0.9033386536108949  0.1918769219799827
  0.9193446975759585  0.7895024629317504  0.9437429244642317
  0.8149751817055986  0.9254157393966196  0.6747555754217771
  0.5943406838026561  0.7930025447528237  0.4281680277400284
  0.4795842592196138  0.9029464507835527  0.1934493649526203
  0.2235939351236880  0.7803322489710283  0.9956111108779382
  0.1296655340816812  0.8708907992648207  0.6621652271423670
  0.9144798167809824  0.8128186050499053  0.4339931927339364
  0.7725907588574330  0.8676353231370442  0.1951543650454965
  0.5226730548851819  0.7617405729061559  0.9385164761315963
  0.4240140898971916  0.8572122985154351  0.6989291726919120
 
  0.00000000E+00  0.00000000E+00  0.00000000E+00
  0.00000000E+00  0.00000000E+00  0.00000000E+00
  0.00000000E+00  0.00000000E+00  0.00000000E+00
  0.00000000E+00  0.00000000E+00  0.00000000E+00
  0.00000000E+00  0.00000000E+00  0.00000000E+00
  0.00000000E+00  0.00000000E+00  0.00000000E+00
  0.00000000E+00  0.00000000E+00  0.00000000E+00
  0.00000000E+00  0.00000000E+00  0.00000000E+00
  0.00000000E+00  0.00000000E+00  0.00000000E+00
  0.00000000E+00  0.00000000E+00  0.00000000E+00
  0.00000000E+00  0.00000000E+00  0.00000000E+00
  0.00000000E+00  0.00000000E+00  0.00000000E+00
  0.00000000E+00  0.00000000E+00  0.00000000E+00
  0.00000000E+00  0.00000000E+00  0.00000000E+00
  0.00000000E+00  0.00000000E+00  0.00000000E+00
  0.00000000E+00  0.00000000E+00  0.00000000E+00
  0.00000000E+00  0.00000000E+00  0.00000000E+00
  0.00000000E+00  0.00000000E+00  0.00000000E+00
  0.00000000E+00  0.00000000E+00  0.00000000E+00
  0.00000000E+00  0.00000000E+00  0.00000000E+00
  0.00000000E+00  0.00000000E+00  0.00000000E+00
  0.00000000E+00  0.00000000E+00  0.00000000E+00
  0.00000000E+00  0.00000000E+00  0.00000000E+00
  0.00000000E+00  0.00000000E+00  0.00000000E+00
  0.00000000E+00  0.00000000E+00  0.00000000E+00
  0.00000000E+00  0.00000000E+00  0.00000000E+00
  0.00000000E+00  0.00000000E+00  0.00000000E+00
  0.00000000E+00  0.00000000E+00  0.00000000E+00
  0.00000000E+00  0.00000000E+00  0.00000000E+00
  0.00000000E+00  0.00000000E+00  0.00000000E+00
  0.00000000E+00  0.00000000E+00  0.00000000E+00
  0.00000000E+00  0.00000000E+00  0.00000000E+00
  0.00000000E+00  0.00000000E+00  0.00000000E+00
  0.00000000E+00  0.00000000E+00  0.00000000E+00
  0.00000000E+00  0.00000000E+00  0.00000000E+00
  0.00000000E+00  0.00000000E+00  0.00000000E+00
  0.00000000E+00  0.00000000E+00  0.00000000E+00
  0.00000000E+00  0.00000000E+00  0.00000000E+00
  0.00000000E+00  0.00000000E+00  0.00000000E+00
  0.00000000E+00  0.00000000E+00  0.00000000E+00
  0.00000000E+00  0.00000000E+00  0.00000000E+00
  0.00000000E+00  0.00000000E+00  0.00000000E+00
  0.00000000E+00  0.00000000E+00  0.00000000E+00
  0.00000000E+00  0.00000000E+00  0.00000000E+00
  0.00000000E+00  0.00000000E+00  0.00000000E+00
  0.00000000E+00  0.00000000E+00  0.00000000E+00
  0.00000000E+00  0.00000000E+00  0.00000000E+00
  0.00000000E+00  0.00000000E+00  0.00000000E+00
  0.00000000E+00  0.00000000E+00  0.00000000E+00
  0.00000000E+00  0.00000000E+00  0.00000000E+00
  0.00000000E+00  0.00000000E+00  0.00000000E+00
  0.00000000E+00  0.00000000E+00  0.00000000E+00
  0.00000000E+00  0.00000000E+00  0.00000000E+00
  0.00000000E+00  0.00000000E+00  0.00000000E+00
  0.00000000E+00  0.00000000E+00  0.00000000E+00
  0.00000000E+00  0.00000000E+00  0.00000000E+00
  0.00000000E+00  0.00000000E+00  0.00000000E+00
  0.00000000E+00  0.00000000E+00  0.00000000E+00
  0.00000000E+00  0.00000000E+00  0.00000000E+00
  0.00000000E+00  0.00000000E+00  0.00000000E+00
  0.00000000E+00  0.00000000E+00  0.00000000E+00
  0.00000000E+00  0.00000000E+00  0.00000000E+00
  0.00000000E+00  0.00000000E+00  0.00000000E+00
  0.00000000E+00  0.00000000E+00  0.00000000E+00
  0.00000000E+00  0.00000000E+00  0.00000000E+00
  0.00000000E+00  0.00000000E+00  0.00000000E+00
  0.00000000E+00  0.00000000E+00  0.00000000E+00
  0.00000000E+00  0.00000000E+00  0.00000000E+00
  0.00000000E+00  0.00000000E+00  0.00000000E+00
  0.00000000E+00  0.00000000E+00  0.00000000E+00
  0.00000000E+00  0.00000000E+00  0.00000000E+00
  0.00000000E+00  0.00000000E+00  0.00000000E+00
