generated by phonopy                    
   1.00000000000000     
    10.0351470768999995   -0.0000022330999784   -0.0000001056124209
    -5.0175765436399997    8.6906901959899994    0.0000001395531216
    -0.0000001735893656    0.0000001431815548   14.9533752540999991
   Pb   Cu   P    O 
    20     1    11    50
Direct
  0.9649452506374772  0.7499630322010162  0.1271366035425601
  0.9952617455468555  0.7677295439485690  0.6243433110109819
  0.0025930143002597  0.2594149686773122  0.3710298489653141
  0.9987882010792006  0.2605133116821392  0.8768019737099593
  0.2150311110255672  0.2151569112832519  0.1259254632581772
  0.2294463267012006  0.2245907163078087  0.6231021106882864
  0.7476601856274527  0.7350264712649448  0.3665154797130654
  0.7460822305369277  0.7414093281401506  0.8872267267525373
  0.7540093518410629  0.9951259797435554  0.1240690775777580
  0.7749626427874432  0.0019897757007641  0.6245300800794240
  0.2605139522508679  0.9960779583963273  0.3706478679545953
  0.2552953140193353  0.9979224825211332  0.8765872509821406
  0.6532749943159288  0.3574607376046970  0.0090319275167090
  0.6696214992930152  0.3313683349232051  0.5014346493000374
  0.3358671586008768  0.6740645222784067  0.0044838529776001
  0.3421435385999487  0.6701031346607991  0.5013234824639028
  0.3355020547704299  0.6734413180347900  0.2370544747920889
  0.3407353131471922  0.6702810590813684  0.7432670464758431
  0.6671345328530833  0.3510003269596211  0.2469674961349355
  0.6668022027186069  0.3362394364817263  0.7496734837266175
  0.6012153713199382  0.5926633995222588  0.1344915780826739
  0.6238958735953375  0.5925509258711870  0.6232957389325691
  0.3712305450983635  0.3960848927815519  0.3725691511383289
  0.3685234713158962  0.3987147207271278  0.8722549264989752
  0.3867230547216565  0.0237064002782503  0.1226294460164112
  0.4071374434777582  0.0292162481490763  0.6241925858655080
  0.6120466073545643  0.9744346086054563  0.3764635547470903
  0.6099512172802264  0.9803915604318831  0.8690125866008032
  0.9756670546591835  0.3712418869911218  0.1224374008449587
  0.9766473195616570  0.3749971715946430  0.6238814091804414
  0.0339277665492403  0.6329362863666717  0.3807093884391861
  0.0260345842480376  0.6346258352594703  0.8671231508280997
  0.5057516356994540  0.7074207124228593  0.1190604936747022
  0.5018266686536066  0.6465565446334693  0.6238471750696419
  0.4722032009038770  0.3176065956059801  0.3733981960275230
  0.4659592273566915  0.3165847083614750  0.8709946853659005
  0.3266052455965109  0.8474426000965849  0.1206644014497797
  0.3555325762411741  0.8542976205352346  0.6237044795453173
  0.6982992600008089  0.1527287927425007  0.3845955726221959
  0.6961193447100769  0.1589017379956346  0.8647315195430068
  0.1474042082501583  0.5021773697160299  0.1222231475973530
  0.1499963833780598  0.4995937506631947  0.6239495260498700
  0.8561765352280517  0.5372973253324105  0.3888575657026010
  0.8477302673321887  0.5407713493902264  0.8638549113624663
  0.7329047324146174  0.6384114361836950  0.0284620047147399
  0.7265532149724407  0.6501855459411985  0.5377516865708998
  0.2694829445762608  0.3572253844065756  0.4584183280702732
  0.2618345300679152  0.3514157183995721  0.9560576673865526
  0.3229032147107418  0.0709413794971994  0.0392605155205601
  0.3483246276516212  0.0744531922995861  0.5388769573231613
  0.6295008600514862  0.8957628903674930  0.4622111787279479
  0.6658172562456315  0.9239202892787972  0.9510815747301535
  0.9394406478927309  0.2642560317838161  0.0393254177368902
  0.9329563342841922  0.2704749453122872  0.5385167934972444
  0.1092299047716310  0.7405456808637538  0.4627204359540968
  0.0860626609545889  0.7418890268882805  0.9512234428817763
  0.2601050503987636  0.3440116194086968  0.2905610282501527
  0.2656918357320563  0.3609889271047635  0.7872792775222521
  0.7463098582095284  0.6296599187901180  0.2262531267632184
  0.7321224144436087  0.6556714349249120  0.7062665533678398
  0.6726749741422253  0.9219428527695896  0.2951936949049880
  0.6321459457236713  0.9055884160138348  0.7831324050418331
  0.3193355926919637  0.0637007472740905  0.2070507622428437
  0.3422241245722049  0.0725104654330835  0.7073570042750319
  0.0865727187858027  0.7395359656934062  0.2965671289367933
  0.0973713684634419  0.7422007290916568  0.7840920663918212
  0.9380065255143322  0.2673957437730650  0.2070548394988023
  0.9340752659133855  0.2650619345515111  0.7064774149291608
  0.5256696001664309  0.3840336129217476  0.1326774911923394
  0.5400594257395639  0.4117889294002097  0.6247480151247302
  0.4801935406950832  0.5765014662610355  0.3675415130527355
  0.4803621915912544  0.5792313622851282  0.8752966127199358
  0.5649031701881171  0.1169432982038927  0.1232911190074546
  0.5874011281703417  0.1285661547947115  0.6261811807318338
  0.4342027329794576  0.9107281258021800  0.3620787885083701
  0.4310822562815702  0.9140744907384004  0.8802821764873272
  0.8686062106598058  0.4431969170904679  0.1214558946347779
  0.8732868985887237  0.4516979299316333  0.6257712559518609
  0.1014201208658463  0.5211929192126732  0.3746565207416097
  0.0919650735908419  0.5213729446280126  0.8689989496677839
  0.9787677577448122  0.9829440134720713  0.1285037420864370
  0.0005616218216744  0.9970492679503238  0.6229689909084328
 
  0.00000000E+00  0.00000000E+00  0.00000000E+00
  0.00000000E+00  0.00000000E+00  0.00000000E+00
  0.00000000E+00  0.00000000E+00  0.00000000E+00
  0.00000000E+00  0.00000000E+00  0.00000000E+00
  0.00000000E+00  0.00000000E+00  0.00000000E+00
  0.00000000E+00  0.00000000E+00  0.00000000E+00
  0.00000000E+00  0.00000000E+00  0.00000000E+00
  0.00000000E+00  0.00000000E+00  0.00000000E+00
  0.00000000E+00  0.00000000E+00  0.00000000E+00
  0.00000000E+00  0.00000000E+00  0.00000000E+00
  0.00000000E+00  0.00000000E+00  0.00000000E+00
  0.00000000E+00  0.00000000E+00  0.00000000E+00
  0.00000000E+00  0.00000000E+00  0.00000000E+00
  0.00000000E+00  0.00000000E+00  0.00000000E+00
  0.00000000E+00  0.00000000E+00  0.00000000E+00
  0.00000000E+00  0.00000000E+00  0.00000000E+00
  0.00000000E+00  0.00000000E+00  0.00000000E+00
  0.00000000E+00  0.00000000E+00  0.00000000E+00
  0.00000000E+00  0.00000000E+00  0.00000000E+00
  0.00000000E+00  0.00000000E+00  0.00000000E+00
  0.00000000E+00  0.00000000E+00  0.00000000E+00
  0.00000000E+00  0.00000000E+00  0.00000000E+00
  0.00000000E+00  0.00000000E+00  0.00000000E+00
  0.00000000E+00  0.00000000E+00  0.00000000E+00
  0.00000000E+00  0.00000000E+00  0.00000000E+00
  0.00000000E+00  0.00000000E+00  0.00000000E+00
  0.00000000E+00  0.00000000E+00  0.00000000E+00
  0.00000000E+00  0.00000000E+00  0.00000000E+00
  0.00000000E+00  0.00000000E+00  0.00000000E+00
  0.00000000E+00  0.00000000E+00  0.00000000E+00
  0.00000000E+00  0.00000000E+00  0.00000000E+00
  0.00000000E+00  0.00000000E+00  0.00000000E+00
  0.00000000E+00  0.00000000E+00  0.00000000E+00
  0.00000000E+00  0.00000000E+00  0.00000000E+00
  0.00000000E+00  0.00000000E+00  0.00000000E+00
  0.00000000E+00  0.00000000E+00  0.00000000E+00
  0.00000000E+00  0.00000000E+00  0.00000000E+00
  0.00000000E+00  0.00000000E+00  0.00000000E+00
  0.00000000E+00  0.00000000E+00  0.00000000E+00
  0.00000000E+00  0.00000000E+00  0.00000000E+00
  0.00000000E+00  0.00000000E+00  0.00000000E+00
  0.00000000E+00  0.00000000E+00  0.00000000E+00
  0.00000000E+00  0.00000000E+00  0.00000000E+00
  0.00000000E+00  0.00000000E+00  0.00000000E+00
  0.00000000E+00  0.00000000E+00  0.00000000E+00
  0.00000000E+00  0.00000000E+00  0.00000000E+00
  0.00000000E+00  0.00000000E+00  0.00000000E+00
  0.00000000E+00  0.00000000E+00  0.00000000E+00
  0.00000000E+00  0.00000000E+00  0.00000000E+00
  0.00000000E+00  0.00000000E+00  0.00000000E+00
  0.00000000E+00  0.00000000E+00  0.00000000E+00
  0.00000000E+00  0.00000000E+00  0.00000000E+00
  0.00000000E+00  0.00000000E+00  0.00000000E+00
  0.00000000E+00  0.00000000E+00  0.00000000E+00
  0.00000000E+00  0.00000000E+00  0.00000000E+00
  0.00000000E+00  0.00000000E+00  0.00000000E+00
  0.00000000E+00  0.00000000E+00  0.00000000E+00
  0.00000000E+00  0.00000000E+00  0.00000000E+00
  0.00000000E+00  0.00000000E+00  0.00000000E+00
  0.00000000E+00  0.00000000E+00  0.00000000E+00
  0.00000000E+00  0.00000000E+00  0.00000000E+00
  0.00000000E+00  0.00000000E+00  0.00000000E+00
  0.00000000E+00  0.00000000E+00  0.00000000E+00
  0.00000000E+00  0.00000000E+00  0.00000000E+00
  0.00000000E+00  0.00000000E+00  0.00000000E+00
  0.00000000E+00  0.00000000E+00  0.00000000E+00
  0.00000000E+00  0.00000000E+00  0.00000000E+00
  0.00000000E+00  0.00000000E+00  0.00000000E+00
  0.00000000E+00  0.00000000E+00  0.00000000E+00
  0.00000000E+00  0.00000000E+00  0.00000000E+00
  0.00000000E+00  0.00000000E+00  0.00000000E+00
  0.00000000E+00  0.00000000E+00  0.00000000E+00
  0.00000000E+00  0.00000000E+00  0.00000000E+00
  0.00000000E+00  0.00000000E+00  0.00000000E+00
  0.00000000E+00  0.00000000E+00  0.00000000E+00
  0.00000000E+00  0.00000000E+00  0.00000000E+00
  0.00000000E+00  0.00000000E+00  0.00000000E+00
  0.00000000E+00  0.00000000E+00  0.00000000E+00
  0.00000000E+00  0.00000000E+00  0.00000000E+00
  0.00000000E+00  0.00000000E+00  0.00000000E+00
  0.00000000E+00  0.00000000E+00  0.00000000E+00
  0.00000000E+00  0.00000000E+00  0.00000000E+00
