supercell of POSCAR                     
   1.01800000000000     
     3.1310994802600001   -5.4896946145000003   10.0244832682999991
    -9.4821132118399998   -5.5089477087900001    0.0170740616273000
     6.3359946057599998  -11.0114127993000004  -10.0652216442999993
   Al   Gd   N 
    84    11    96
Direct
  0.0859885461524144  0.5845060406916787  0.3369532182510966
  0.5014135227257555  0.3280750365918266  0.2551542960245996
  0.0867548360120978  0.0852646618995010  0.3338310945342968
  0.2521924358301177  0.5799379278774666  0.4927218534839071
  0.3320844534546765  0.3214343041085996  0.0759675949477767
  0.4173204882806658  0.0874342315263021  0.1687397670343387
  0.0078642200681429  0.8422104439955618  0.2549624833623128
  0.1692248750910750  0.3333280279937298  0.4102587835475831
  0.2479666761141459  0.0871878492027207  0.4950591195071752
  0.1634946750628856  0.8357457206059138  0.4150328139365769
  0.3354108905062034  0.6689047348491499  0.3318480868600773
  0.1560490892284960  0.6684936423433356  0.1741315395242253
  0.2549973840202782  0.4148686964071047  0.2489747592709932
  0.3341882351060264  0.1670598906362173  0.3324459342765564
  0.0055275874338534  0.6741843388222932  0.4954669245819048
  0.1684462431811014  0.1625154546594985  0.1694527667192816
  0.2538358960199574  0.9209569520839906  0.2549116294504685
  0.4128776423480360  0.4153712668124570  0.4142816688417170
  0.4985283244854202  0.1614859909113733  0.4960538609088374
  0.0886225578765476  0.9209510665123801  0.0817145368554009
  0.4188285648418528  0.9197762957381244  0.4106935762196144
  0.0908061700877809  0.5835476578136110  0.8360163569616716
  0.5000360914356392  0.3220991264632431  0.7549263804378583
  0.0866915688750183  0.0835167233133234  0.8350503667340377
  0.2548559607234537  0.5689570381988744  0.9946085107474048
  0.3322935224992491  0.3183343100835003  0.5772250525218112
  0.4172814003480809  0.0869860825108262  0.6705972498757760
  0.0088336306867234  0.8423423337224349  0.7566622463103911
  0.1678447717808851  0.3269774257729026  0.9111159802034479
  0.2507542654001966  0.0820058381015656  0.9986597513595967
  0.1664816218076126  0.8357489083363348  0.9192641707944205
  0.3371041484384136  0.6736659701538343  0.8398843687643520
  0.1546230599717404  0.6748722297736265  0.6657276550586815
  0.2505736714963760  0.4013067561981885  0.7515310649841354
  0.3348639580781523  0.1635011155278789  0.8340133557576479
  0.0075218425110393  0.6747946103347502  0.9955056200867105
  0.1672758489579280  0.1590079953502581  0.6690972266687041
  0.2531289006564421  0.9199487017641843  0.7558959599961383
  0.4140561413624653  0.4139009458813092  0.9141732576002539
  0.4996292177093693  0.1636983632598970  0.9970502351945001
  0.0834544018173631  0.9237218743086828  0.5794260502151118
  0.4189721969062745  0.9211716707120488  0.9131655112936699
  0.5876495205421151  0.5813658105349404  0.3309912871263450
  0.0023174926563954  0.3242131454981276  0.2549386967703668
  0.5857160130270529  0.0870230815060040  0.3329887070546107
  0.7500132252783445  0.5789039941011467  0.4935521871900548
  0.8297338424764362  0.3200784008203144  0.0789789288533527
  0.9191087967429326  0.0867483077474347  0.1701933111301344
  0.5076236671860883  0.8463337709678953  0.2525146173135866
  0.6683595134317812  0.3317170329389256  0.4123977324986470
  0.7481038889002107  0.0870462840276929  0.4954334175716895
  0.6615152970280107  0.8377722369322242  0.4150434518743111
  0.8355470273133676  0.6744649605626947  0.3406818916695116
  0.6472358781577512  0.6789845957159173  0.1703963210170443
  0.7513492618813800  0.4015062143206194  0.2522371003875747
  0.8356695234268656  0.1650493135854632  0.3335047276505065
  0.5048503820981054  0.6736171882963191  0.4924414495386173
  0.6674700581987736  0.1613159639320898  0.1685400689464629
  0.7540010624472302  0.9224658170339737  0.2554881896737982
  0.9123597177829765  0.4144640450508064  0.4157879833250533
  0.9993790367188282  0.1621883167844302  0.4966668253910953
  0.5822847550773602  0.9258828019096015  0.0794546203546744
  0.9206046430288239  0.9203370600916969  0.4117137196294038
  0.5889416205464997  0.5851708810285388  0.8341995179383730
  0.9998959718079448  0.3222666913025236  0.7550875053583184
  0.5861505363123314  0.0851216202846459  0.8346565937296404
  0.7484539859167327  0.5765288816762748  0.9952567341236929
  0.8322958612790003  0.3183085844414890  0.5788224877818706
  0.9179046485084257  0.0863746886491157  0.6714655665533797
  0.5072126822735115  0.8438566292688847  0.7553703087668922
  0.6665229727595730  0.3327972418153919  0.9147030407842678
  0.7483816802296062  0.0874731327415219  0.9964487759115741
  0.6624488845007264  0.8377329646933376  0.9162755458119491
  0.8371676556228138  0.6733919264758370  0.8415803855367940
  0.6535161502162907  0.6756389410641503  0.6649191473545315
  0.7498064533745321  0.4016676913175274  0.7531423106366191
  0.8344316990384542  0.1645862334373618  0.8349169463228989
  0.5055314966677926  0.6770148781183707  0.9935945034823987
  0.6672889550532588  0.1587077269559458  0.6694264606216009
  0.7534673272152617  0.9201311937048828  0.7564989422436099
  0.9135699164602968  0.4141084629589287  0.9161457072148664
  0.9994338696344442  0.1617272283254820  0.9980881904611181
  0.5828330889048559  0.9241141836511630  0.5791221652086520
  0.9215991052205936  0.9204259152242926  0.9128980494868131
  0.3395745363771638  0.8083537012061939  0.0919461384516609
  0.0837431893260074  0.4240263080041515  0.0845562727125753
  0.3977284043570748  0.5794561323604839  0.6778914848289901
  0.3319973606750750  0.8360946356321293  0.5831729985155576
  0.0831264406976331  0.4202505717599578  0.5839318663548880
  0.8927625666607213  0.5809377265344935  0.1787304666654848
  0.8308826082469594  0.8335366433089888  0.0833155946213822
  0.5704242814955691  0.4312545350506412  0.0907509621452576
  0.8964675957537622  0.5801925835634449  0.6792564608184222
  0.8313378541146363  0.8373535103446414  0.5839248182765928
  0.5816901527396183  0.4188432608417614  0.5846202389768322
  0.2115942899082413  0.5812169605358761  0.2716638291498157
  0.0311989358435554  0.6172397976423767  0.1029917838595580
  0.1330739293509424  0.3223716529395517  0.1994329137943822
  0.2129828365666100  0.0834485966049527  0.2714886849624278
  0.3820455004235370  0.5850839121319069  0.4336442426355305
  0.4508175453296630  0.3217562970449706  0.0099267084571650
  0.0439506205150622  0.0843961951623768  0.1040013759431275
  0.1352604650899281  0.8389232701070100  0.1873047102574219
  0.2970461624105312  0.3330109847442486  0.3489878894461000
  0.3765944521367430  0.0815620120070335  0.4335060773061485
  0.4738552581160675  0.8404469301687172  0.0087524339998311
  0.2942315610537563  0.8328771551637928  0.3542329837432945
  0.4730864201826392  0.6845012874121608  0.2805498837692681
  0.2557991930369923  0.6253555245052596  0.1004958650190844
  0.3773896414249833  0.3886396428988519  0.1824742114735329
  0.4612843134185525  0.1662769771963113  0.2715664277541023
  0.1323498153590492  0.6664538264370634  0.4343774221862375
  0.2227856212634407  0.4057532536667665  0.0062859544400808
  0.2916522907711894  0.1612267148652293  0.1026968965555284
  0.3844341471354440  0.9283953311035660  0.1989214467389573
  0.0415492041462855  0.4190814377063177  0.3529215579192879
  0.1275828071571610  0.1718452708698592  0.4338486227776883
  0.2087537920910378  0.9223684893058817  0.0167681773013229
  0.0492536218054411  0.9237837528215849  0.3521779594538046
  0.2186550822806836  0.5809370333808204  0.7670035821514603
  0.0317353413271988  0.6116129535792112  0.6016305751239699
  0.1296551638586791  0.3177004670849328  0.6994081486089669
  0.2124334237257273  0.0824950160459679  0.7720095264744060
  0.3832277558713244  0.5834689459299227  0.9373787827449362
  0.4491283820626322  0.3194103192285027  0.5094394379964271
  0.0408597036666691  0.0854724396334987  0.6035592490793746
  0.1325676034210019  0.8423284743198067  0.6860011477870813
  0.2966368341384040  0.3287185115606448  0.8513151644299199
  0.3772384916050555  0.0821154365916783  0.9353802194002583
  0.4754644935731349  0.8386063683854204  0.5071604460687098
  0.2934584792281214  0.8349741077199155  0.8563894092799558
  0.4712846132728146  0.6850320715914862  0.7862170503933257
  0.2631843229381232  0.6545168151484333  0.5943721325251943
  0.3744900432198150  0.3819776298055544  0.6844887856794912
  0.4622187712789554  0.1623364821365882  0.7737244890874564
  0.1373096491493584  0.6631472551858693  0.9362109343909353
  0.2255298580790921  0.4126579165892110  0.5077431396289995
  0.2901196825691841  0.1574042144011472  0.6014109432812020
  0.3846414312621675  0.9278674229334527  0.7016735685301327
  0.0431336861516982  0.4179772519477467  0.8522814251406245
  0.1280346986643508  0.1659105573708146  0.9358550046156324
  0.1970387119028985  0.9315984108227156  0.5093150585756590
  0.0514842474234882  0.9221628838561884  0.8547520591756239
  0.7179865259023899  0.5812608045677052  0.2665739869499006
  0.5232210944140405  0.6253293932810706  0.1038039017459909
  0.6308664066419354  0.3195501564346301  0.1995346757104173
  0.7129259061772117  0.0845679467254143  0.2718154860818558
  0.8812526749352116  0.5841741349968217  0.4375103363739967
  0.9488675312260924  0.3202329499053533  0.0119004334777628
  0.5416320498291398  0.0877472847049248  0.1031818266336870
  0.6330212280212706  0.8473639987167232  0.1862228591136770
  0.7962825253963430  0.3295861918987910  0.3524904457622355
  0.8774932637964312  0.0813897996925590  0.4346628496198761
  0.9778480970120782  0.8393506087380018  0.0092551144360016
  0.7925210627464452  0.8365355693784196  0.3560352774503386
  0.9691483853245302  0.6845330241197871  0.2868114511007533
  0.7525394110416315  0.6533893622056723  0.0956612167740687
  0.8754716580221995  0.3839012980610832  0.1860266284056422
  0.9633786030517015  0.1636773211391684  0.2730914607487023
  0.6316704867279128  0.6660501724491752  0.4299366123058377
  0.7176148372661473  0.4121995122718545  0.0128781372715636
  0.7914725318600873  0.1577904985482377  0.1023512721754258
  0.8855604715469951  0.9272959211526342  0.2008618650882994
  0.5443545765752376  0.4188203165017441  0.3526922180113985
  0.6267510469196651  0.1704407584756069  0.4339640855636233
  0.6973781472793092  0.9318874002436601  0.0107926804109937
  0.5471533071833861  0.9244341451953133  0.3510596357908184
  0.7182175626455063  0.5818318462495213  0.7667646204702905
  0.5319168188802408  0.6116227377613512  0.5991171736865724
  0.6302261340074793  0.3172184990448201  0.7000329396318676
  0.7127518657348446  0.0826479111854539  0.7724699886777699
  0.8815198358767731  0.5836192221165533  0.9396056899143659
  0.9491012140853101  0.3195630564188079  0.5111300776851095
  0.5405053555542381  0.0859401956886217  0.6031942615201586
  0.6324430524230067  0.8431334857775497  0.6857570350831210
  0.7953962496595395  0.3303490407950704  0.8538822119079228
  0.8773904194964999  0.0810306636976463  0.9356984291561048
  0.9748492663064852  0.8388503381566821  0.5084564974993171
  0.7935874308372206  0.8351555845763343  0.8573953093219515
  0.9724803397098398  0.6836201423902040  0.7887776522094683
  0.7624335060830276  0.6556104638584301  0.5939630263654223
  0.8737462448486397  0.3825954870827246  0.6859694243441012
  0.9623761098358727  0.1623375930291289  0.7746653390766411
  0.6333713061857580  0.6658662602841332  0.9331147377545506
  0.7242871855489810  0.4118209437868572  0.5093211068513952
  0.7904231373178732  0.1567021643546411  0.6021114923550925
  0.8858946464794712  0.9269906487899107  0.7033176224266811
  0.5430005598059253  0.4197194957442818  0.8511305508180200
  0.6271917202226547  0.1706250840187025  0.9345980271495193
  0.6963310743207032  0.9319270512849300  0.5094514390698848
  0.5483823984249909  0.9240153016157464  0.8531037085005408
 
  0.00000000E+00  0.00000000E+00  0.00000000E+00
  0.00000000E+00  0.00000000E+00  0.00000000E+00
  0.00000000E+00  0.00000000E+00  0.00000000E+00
  0.00000000E+00  0.00000000E+00  0.00000000E+00
  0.00000000E+00  0.00000000E+00  0.00000000E+00
  0.00000000E+00  0.00000000E+00  0.00000000E+00
  0.00000000E+00  0.00000000E+00  0.00000000E+00
  0.00000000E+00  0.00000000E+00  0.00000000E+00
  0.00000000E+00  0.00000000E+00  0.00000000E+00
  0.00000000E+00  0.00000000E+00  0.00000000E+00
  0.00000000E+00  0.00000000E+00  0.00000000E+00
  0.00000000E+00  0.00000000E+00  0.00000000E+00
  0.00000000E+00  0.00000000E+00  0.00000000E+00
  0.00000000E+00  0.00000000E+00  0.00000000E+00
  0.00000000E+00  0.00000000E+00  0.00000000E+00
  0.00000000E+00  0.00000000E+00  0.00000000E+00
  0.00000000E+00  0.00000000E+00  0.00000000E+00
  0.00000000E+00  0.00000000E+00  0.00000000E+00
  0.00000000E+00  0.00000000E+00  0.00000000E+00
  0.00000000E+00  0.00000000E+00  0.00000000E+00
  0.00000000E+00  0.00000000E+00  0.00000000E+00
  0.00000000E+00  0.00000000E+00  0.00000000E+00
  0.00000000E+00  0.00000000E+00  0.00000000E+00
  0.00000000E+00  0.00000000E+00  0.00000000E+00
  0.00000000E+00  0.00000000E+00  0.00000000E+00
  0.00000000E+00  0.00000000E+00  0.00000000E+00
  0.00000000E+00  0.00000000E+00  0.00000000E+00
  0.00000000E+00  0.00000000E+00  0.00000000E+00
  0.00000000E+00  0.00000000E+00  0.00000000E+00
  0.00000000E+00  0.00000000E+00  0.00000000E+00
  0.00000000E+00  0.00000000E+00  0.00000000E+00
  0.00000000E+00  0.00000000E+00  0.00000000E+00
  0.00000000E+00  0.00000000E+00  0.00000000E+00
  0.00000000E+00  0.00000000E+00  0.00000000E+00
  0.00000000E+00  0.00000000E+00  0.00000000E+00
  0.00000000E+00  0.00000000E+00  0.00000000E+00
  0.00000000E+00  0.00000000E+00  0.00000000E+00
  0.00000000E+00  0.00000000E+00  0.00000000E+00
  0.00000000E+00  0.00000000E+00  0.00000000E+00
  0.00000000E+00  0.00000000E+00  0.00000000E+00
  0.00000000E+00  0.00000000E+00  0.00000000E+00
  0.00000000E+00  0.00000000E+00  0.00000000E+00
  0.00000000E+00  0.00000000E+00  0.00000000E+00
  0.00000000E+00  0.00000000E+00  0.00000000E+00
  0.00000000E+00  0.00000000E+00  0.00000000E+00
  0.00000000E+00  0.00000000E+00  0.00000000E+00
  0.00000000E+00  0.00000000E+00  0.00000000E+00
  0.00000000E+00  0.00000000E+00  0.00000000E+00
  0.00000000E+00  0.00000000E+00  0.00000000E+00
  0.00000000E+00  0.00000000E+00  0.00000000E+00
  0.00000000E+00  0.00000000E+00  0.00000000E+00
  0.00000000E+00  0.00000000E+00  0.00000000E+00
  0.00000000E+00  0.00000000E+00  0.00000000E+00
  0.00000000E+00  0.00000000E+00  0.00000000E+00
  0.00000000E+00  0.00000000E+00  0.00000000E+00
  0.00000000E+00  0.00000000E+00  0.00000000E+00
  0.00000000E+00  0.00000000E+00  0.00000000E+00
  0.00000000E+00  0.00000000E+00  0.00000000E+00
  0.00000000E+00  0.00000000E+00  0.00000000E+00
  0.00000000E+00  0.00000000E+00  0.00000000E+00
  0.00000000E+00  0.00000000E+00  0.00000000E+00
  0.00000000E+00  0.00000000E+00  0.00000000E+00
  0.00000000E+00  0.00000000E+00  0.00000000E+00
  0.00000000E+00  0.00000000E+00  0.00000000E+00
  0.00000000E+00  0.00000000E+00  0.00000000E+00
  0.00000000E+00  0.00000000E+00  0.00000000E+00
  0.00000000E+00  0.00000000E+00  0.00000000E+00
  0.00000000E+00  0.00000000E+00  0.00000000E+00
  0.00000000E+00  0.00000000E+00  0.00000000E+00
  0.00000000E+00  0.00000000E+00  0.00000000E+00
  0.00000000E+00  0.00000000E+00  0.00000000E+00
  0.00000000E+00  0.00000000E+00  0.00000000E+00
  0.00000000E+00  0.00000000E+00  0.00000000E+00
  0.00000000E+00  0.00000000E+00  0.00000000E+00
  0.00000000E+00  0.00000000E+00  0.00000000E+00
  0.00000000E+00  0.00000000E+00  0.00000000E+00
  0.00000000E+00  0.00000000E+00  0.00000000E+00
  0.00000000E+00  0.00000000E+00  0.00000000E+00
  0.00000000E+00  0.00000000E+00  0.00000000E+00
  0.00000000E+00  0.00000000E+00  0.00000000E+00
  0.00000000E+00  0.00000000E+00  0.00000000E+00
  0.00000000E+00  0.00000000E+00  0.00000000E+00
  0.00000000E+00  0.00000000E+00  0.00000000E+00
  0.00000000E+00  0.00000000E+00  0.00000000E+00
  0.00000000E+00  0.00000000E+00  0.00000000E+00
  0.00000000E+00  0.00000000E+00  0.00000000E+00
  0.00000000E+00  0.00000000E+00  0.00000000E+00
  0.00000000E+00  0.00000000E+00  0.00000000E+00
  0.00000000E+00  0.00000000E+00  0.00000000E+00
  0.00000000E+00  0.00000000E+00  0.00000000E+00
  0.00000000E+00  0.00000000E+00  0.00000000E+00
  0.00000000E+00  0.00000000E+00  0.00000000E+00
  0.00000000E+00  0.00000000E+00  0.00000000E+00
  0.00000000E+00  0.00000000E+00  0.00000000E+00
  0.00000000E+00  0.00000000E+00  0.00000000E+00
  0.00000000E+00  0.00000000E+00  0.00000000E+00
  0.00000000E+00  0.00000000E+00  0.00000000E+00
  0.00000000E+00  0.00000000E+00  0.00000000E+00
  0.00000000E+00  0.00000000E+00  0.00000000E+00
  0.00000000E+00  0.00000000E+00  0.00000000E+00
  0.00000000E+00  0.00000000E+00  0.00000000E+00
  0.00000000E+00  0.00000000E+00  0.00000000E+00
  0.00000000E+00  0.00000000E+00  0.00000000E+00
  0.00000000E+00  0.00000000E+00  0.00000000E+00
  0.00000000E+00  0.00000000E+00  0.00000000E+00
  0.00000000E+00  0.00000000E+00  0.00000000E+00
  0.00000000E+00  0.00000000E+00  0.00000000E+00
  0.00000000E+00  0.00000000E+00  0.00000000E+00
  0.00000000E+00  0.00000000E+00  0.00000000E+00
  0.00000000E+00  0.00000000E+00  0.00000000E+00
  0.00000000E+00  0.00000000E+00  0.00000000E+00
  0.00000000E+00  0.00000000E+00  0.00000000E+00
  0.00000000E+00  0.00000000E+00  0.00000000E+00
  0.00000000E+00  0.00000000E+00  0.00000000E+00
  0.00000000E+00  0.00000000E+00  0.00000000E+00
  0.00000000E+00  0.00000000E+00  0.00000000E+00
  0.00000000E+00  0.00000000E+00  0.00000000E+00
  0.00000000E+00  0.00000000E+00  0.00000000E+00
  0.00000000E+00  0.00000000E+00  0.00000000E+00
  0.00000000E+00  0.00000000E+00  0.00000000E+00
  0.00000000E+00  0.00000000E+00  0.00000000E+00
  0.00000000E+00  0.00000000E+00  0.00000000E+00
  0.00000000E+00  0.00000000E+00  0.00000000E+00
  0.00000000E+00  0.00000000E+00  0.00000000E+00
  0.00000000E+00  0.00000000E+00  0.00000000E+00
  0.00000000E+00  0.00000000E+00  0.00000000E+00
  0.00000000E+00  0.00000000E+00  0.00000000E+00
  0.00000000E+00  0.00000000E+00  0.00000000E+00
  0.00000000E+00  0.00000000E+00  0.00000000E+00
  0.00000000E+00  0.00000000E+00  0.00000000E+00
  0.00000000E+00  0.00000000E+00  0.00000000E+00
  0.00000000E+00  0.00000000E+00  0.00000000E+00
  0.00000000E+00  0.00000000E+00  0.00000000E+00
  0.00000000E+00  0.00000000E+00  0.00000000E+00
  0.00000000E+00  0.00000000E+00  0.00000000E+00
  0.00000000E+00  0.00000000E+00  0.00000000E+00
  0.00000000E+00  0.00000000E+00  0.00000000E+00
  0.00000000E+00  0.00000000E+00  0.00000000E+00
  0.00000000E+00  0.00000000E+00  0.00000000E+00
  0.00000000E+00  0.00000000E+00  0.00000000E+00
  0.00000000E+00  0.00000000E+00  0.00000000E+00
  0.00000000E+00  0.00000000E+00  0.00000000E+00
  0.00000000E+00  0.00000000E+00  0.00000000E+00
  0.00000000E+00  0.00000000E+00  0.00000000E+00
  0.00000000E+00  0.00000000E+00  0.00000000E+00
  0.00000000E+00  0.00000000E+00  0.00000000E+00
  0.00000000E+00  0.00000000E+00  0.00000000E+00
  0.00000000E+00  0.00000000E+00  0.00000000E+00
  0.00000000E+00  0.00000000E+00  0.00000000E+00
  0.00000000E+00  0.00000000E+00  0.00000000E+00
  0.00000000E+00  0.00000000E+00  0.00000000E+00
  0.00000000E+00  0.00000000E+00  0.00000000E+00
  0.00000000E+00  0.00000000E+00  0.00000000E+00
  0.00000000E+00  0.00000000E+00  0.00000000E+00
  0.00000000E+00  0.00000000E+00  0.00000000E+00
  0.00000000E+00  0.00000000E+00  0.00000000E+00
  0.00000000E+00  0.00000000E+00  0.00000000E+00
  0.00000000E+00  0.00000000E+00  0.00000000E+00
  0.00000000E+00  0.00000000E+00  0.00000000E+00
  0.00000000E+00  0.00000000E+00  0.00000000E+00
  0.00000000E+00  0.00000000E+00  0.00000000E+00
  0.00000000E+00  0.00000000E+00  0.00000000E+00
  0.00000000E+00  0.00000000E+00  0.00000000E+00
  0.00000000E+00  0.00000000E+00  0.00000000E+00
  0.00000000E+00  0.00000000E+00  0.00000000E+00
  0.00000000E+00  0.00000000E+00  0.00000000E+00
  0.00000000E+00  0.00000000E+00  0.00000000E+00
  0.00000000E+00  0.00000000E+00  0.00000000E+00
  0.00000000E+00  0.00000000E+00  0.00000000E+00
  0.00000000E+00  0.00000000E+00  0.00000000E+00
  0.00000000E+00  0.00000000E+00  0.00000000E+00
  0.00000000E+00  0.00000000E+00  0.00000000E+00
  0.00000000E+00  0.00000000E+00  0.00000000E+00
  0.00000000E+00  0.00000000E+00  0.00000000E+00
  0.00000000E+00  0.00000000E+00  0.00000000E+00
  0.00000000E+00  0.00000000E+00  0.00000000E+00
  0.00000000E+00  0.00000000E+00  0.00000000E+00
  0.00000000E+00  0.00000000E+00  0.00000000E+00
  0.00000000E+00  0.00000000E+00  0.00000000E+00
  0.00000000E+00  0.00000000E+00  0.00000000E+00
  0.00000000E+00  0.00000000E+00  0.00000000E+00
  0.00000000E+00  0.00000000E+00  0.00000000E+00
  0.00000000E+00  0.00000000E+00  0.00000000E+00
  0.00000000E+00  0.00000000E+00  0.00000000E+00
  0.00000000E+00  0.00000000E+00  0.00000000E+00
  0.00000000E+00  0.00000000E+00  0.00000000E+00
  0.00000000E+00  0.00000000E+00  0.00000000E+00
  0.00000000E+00  0.00000000E+00  0.00000000E+00
  0.00000000E+00  0.00000000E+00  0.00000000E+00
  0.00000000E+00  0.00000000E+00  0.00000000E+00
  0.00000000E+00  0.00000000E+00  0.00000000E+00
