Zn   W    N                             
   1.00000000000000     
     5.0252712316735684   -0.0000001122019032   -0.0000001641374605
     0.0236261779220086   -5.8509842012241977   -0.0000001598294231
     0.0000010019178160    0.0000221499754161   -6.7969082505803051
   Zn   W    N 
     6     2     8
Direct
  0.0666884414843025  0.8448034867940990  0.2416882787716403
  0.0666890283129433  0.8448044699698016  0.7472053768434819
  0.5919948107185320  0.6803198431837814  0.9944445846545449
  0.5882553724576312  0.1770548823305660  0.7409635777997892
  0.5882541975842415  0.1770545607231924  0.2479232636302626
  0.0664667126606417  0.3421788183700158  0.4944421682400844
  0.1605591610907382  0.3423930386094511  0.9944437083330158
  0.5570916594818129  0.6798107669592284  0.4944448800134822
  0.1471528607291930  0.1833783658529455  0.7538735534628600
  0.1471528080669628  0.1833768540782188  0.2350121591189733
  0.1497434895612599  0.6630802500423769  0.9944453879824025
  0.6581285841621991  0.8361069057833674  0.7291813002303371
  0.6581279093108208  0.8361068368931583  0.2597091551512918
  0.6332363886455141  0.3401206011812263  0.9944440393884477
  0.1840049331644522  0.6809852515156791  0.4944457072335737
  0.6570701004537440  0.3662033407276439  0.4944439039703710
 
             NaN             NaN             NaN
             NaN             NaN             NaN
             NaN             NaN             NaN
             NaN             NaN             NaN
             NaN             NaN             NaN
             NaN             NaN             NaN
             NaN             NaN             NaN
             NaN             NaN             NaN
             NaN             NaN             NaN
             NaN             NaN             NaN
             NaN             NaN             NaN
             NaN             NaN             NaN
             NaN             NaN             NaN
             NaN             NaN             NaN
             NaN             NaN             NaN
             NaN             NaN             NaN
