Zn   W    N                             
   1.00000000000000     
     5.4375759111353830   -0.0000001122018956   -0.0000001641374533
     0.0604464281257088   -5.7601031228769841   -0.0000001598294229
     0.0000052892119788    0.0000048027817073   -6.6800044825549021
   Zn   W    N 
     6     2     8
Direct
  0.1520660705165398  0.8472255269875504  0.2344270103643922
  0.1520648629270269  0.8472254150133338  0.7544624152726627
  0.6823165314774542  0.6752909674697634  0.9944434057951810
  0.6784532914795207  0.1782430856221566  0.7453129096736433
  0.6784521738402134  0.1782433023570036  0.2435737406666192
  0.0962656535327042  0.3422173704145735  0.4944453435283407
  0.1888820363848254  0.3408012614110589  0.9944434233955448
  0.5319222908839123  0.6804024943251150  0.4944464731785416
  0.0734924209886429  0.1854306812058297  0.7618498071782867
  0.0734924568611817  0.1854301293125502  0.2270411568388440
  0.0722924270867367  0.6521293415901894  0.9944450212505558
  0.6005413176332439  0.8393079604801059  0.7350056831611482
  0.6005413310458252  0.8393085825166366  0.2538819053336212
  0.5364817850763259  0.3413142648739722  0.9944438615756539
  0.1712096633441789  0.6771148535265752  0.4944449648128355
  0.6321430289888070  0.3680930359078545  0.4944439227987942
 
             NaN             NaN             NaN
             NaN             NaN             NaN
             NaN             NaN             NaN
             NaN             NaN             NaN
             NaN             NaN             NaN
             NaN             NaN             NaN
             NaN             NaN             NaN
             NaN             NaN             NaN
             NaN             NaN             NaN
             NaN             NaN             NaN
             NaN             NaN             NaN
             NaN             NaN             NaN
             NaN             NaN             NaN
             NaN             NaN             NaN
             NaN             NaN             NaN
             NaN             NaN             NaN
