Zn   W    N                             
   1.00000000000000     
     5.5689523277052633   -0.0000001122018994   -0.0000001641374569
     0.1014650551348595   -5.7440255010209160   -0.0000001598294230
     0.0247048997810378   -0.0033389495665401   -6.6359963738316701
   Zn   W    N 
     6     2     8
Direct
  0.0685168009788981  0.8388844101967621  0.2483681392232242
  0.0608676606690182  0.8438019001313961  0.7383735803051650
  0.6832018768338131  0.6674602106160776  0.9943267527582549
  0.5960243244377637  0.1786122508271788  0.7396453389257402
  0.6542891392747237  0.1815404970119232  0.2450269817923072
  0.0598448741259574  0.3521170742045996  0.4963998800771563
  0.1965652890202421  0.3399365504791163  0.9953858376021714
  0.5507646108342499  0.6836068939900102  0.4951429724095391
  0.1298902245330140  0.1820448437663913  0.7550405328422585
  0.0936765299666718  0.1838892628143896  0.2283155297507307
  0.0746770950406841  0.6483177239823519  0.9922733984522125
  0.6646296046648530  0.8397116071371116  0.7267073237085526
  0.6638370844886907  0.8361176271214177  0.2630817225299680
  0.5459679387359273  0.3488294409479806  0.0003508374378569
  0.2067894714082570  0.6795425974891529  0.4943401994529282
  0.6710739328773627  0.3733653822988572  0.4983320175565140
 
             NaN             NaN             NaN
             NaN             NaN             NaN
             NaN             NaN             NaN
             NaN             NaN             NaN
             NaN             NaN             NaN
             NaN             NaN             NaN
             NaN             NaN             NaN
             NaN             NaN             NaN
             NaN             NaN             NaN
             NaN             NaN             NaN
             NaN             NaN             NaN
             NaN             NaN             NaN
             NaN             NaN             NaN
             NaN             NaN             NaN
             NaN             NaN             NaN
             NaN             NaN             NaN
