supercell of icsd_181358.cif            
   1.00000000000000     
    10.2199790895148350    0.0001947280581025   -0.0010269735401787
    -5.1098117094521625    8.8333476040721628   -0.0016525062986326
    -0.0015774234143047   -0.0026386210432453   10.5321868947532380
   N    Sc   Ga
    36    16    20
Direct
  0.2206650098601983  0.1077146098503974  0.4485748993148775
  0.0987639192509491  0.2209065705032884  0.1851838209538386
  0.8882635885524195  0.1122436525712516  0.9389847660575370
  0.7963241008934006  0.2305199755032774  0.6910972379178872
  0.5509142371154141  0.1217580250098749  0.4519008763624157
  0.4575781984034109  0.2267323371019714  0.1956260855147463
  0.2165586025052164  0.1229086236773469  0.9392957743328907
  0.0972546982130851  0.2000778826890510  0.6873464932731821
  0.8970613737469151  0.0995417791031414  0.4339092067641488
  0.7687088993013447  0.2047613227318053  0.1951720985671841
  0.5700707761738286  0.1167524665865898  0.9355705407631092
  0.4342456349853165  0.2289048319554254  0.6930505743127000
  0.2213503710065652  0.4454781332170228  0.4716606825870713
  0.1251571419055821  0.5701402800209152  0.1883696489291466
  0.8802523625594034  0.4281162553155440  0.9478097267882859
  0.7791586159395649  0.5542382993950667  0.7055871887869145
  0.5400044416250367  0.4359855641355708  0.4429349863798251
  0.4438840901650067  0.5415154926394337  0.1900274295200290
  0.2127540129603531  0.4282724231856108  0.9259154276692314
  0.1000646290953782  0.5641740017994081  0.6953325795668164
  0.9009271543278601  0.4516858540490318  0.4368249244970315
  0.7646726264675721  0.5530284692469039  0.1950791469103308
  0.5532862966715939  0.4425202172844820  0.9293309528553380
  0.4627179495229186  0.5662602993634849  0.6939973595315010
  0.2036248504359222  0.7722430268216911  0.4431191660905753
  0.1193504622139798  0.8857294057971643  0.1860474487707151
  0.8809713602034108  0.7878025319411961  0.9344511767476362
  0.7778369693806724  0.8922226181324149  0.6916073909067251
  0.5680267041697959  0.7702846495322362  0.4441385089797265
  0.4404681313142689  0.8940437641006227  0.2134798748698401
  0.2287317203076498  0.7826760400252297  0.9301345695607495
  0.1119978533554331  0.8913682602707240  0.6980781512036600
  0.8959714167028139  0.7881178685755188  0.4528930560736839
  0.7873735071172874  0.9008779705568983  0.1809073023912404
  0.5686423723805945  0.7864315907524144  0.9409632609279797
  0.4394434577309738  0.8746934749705702  0.6899463344395258
  0.2240239030149738  0.1127677508107965  0.2456684508375488
  0.7886290201891057  0.2233096233833294  0.4899859720803690
  0.4480639790743837  0.2233545438080213  0.9920946399838897
  0.5592436907683904  0.1127536885253022  0.7352767336438504
  0.2213241072893624  0.4443607197574906  0.2607615582796541
  0.1141029426039850  0.5536748626358232  0.9855584053574802
  0.7763837367814688  0.5546081290430109  0.5007137204959378
  0.4398570144346934  0.5505631803864546  0.9865265946633528
  0.2190109208559150  0.4396970777086224  0.7218158325766737
  0.8901945334865644  0.4444816450529459  0.2358479139475662
  0.7735746668017569  0.5571228423859864  0.9878964356526154
  0.1099758362715804  0.8923359738441050  0.9842564351734353
  0.5617453722007255  0.7744318419692604  0.2436191484217929
  0.4500140817135474  0.8948997139269608  0.0013526189173092
  0.8936860334383141  0.7832828757876769  0.2494631829181202
  0.4394054211817462  0.8815369589556283  0.4858168747831755
  0.1035085725862359  0.2226380126345191  0.9955675897808476
  0.8895352177042639  0.1092864467240133  0.7514914531109085
  0.5548204999943991  0.1145005658503777  0.2572061625464883
  0.2166870829439418  0.1129407716476365  0.7502244585029914
  0.1055854334681854  0.2069186878479101  0.5026282783949867
  0.8884122691441405  0.1068779306514145  0.2452756873549617
  0.7768515442613761  0.2132919558825677  0.0004589298456281
  0.4348775263724889  0.2236575038674218  0.5033794547669359
  0.8877359552016415  0.4415768879763320  0.7553184113120679
  0.5520856137442109  0.4394235926081294  0.2531067033207179
  0.1048787409460274  0.5608856063135121  0.5055885615977971
  0.5561084045073912  0.4467352647077050  0.7462098851214378
  0.4519629159253640  0.5576026690963047  0.5052526908213082
  0.2187727800874626  0.7789846215848613  0.2527795186570287
  0.8866169414145730  0.7819645243616122  0.7481194093469981
  0.7833143896826300  0.8890100826538756  0.5035376310009951
  0.2224998441917734  0.7795556355490447  0.7452662102336660
  0.1092918796798230  0.8910603170184572  0.5073192100123052
  0.7823869415473865  0.8982546542604624  0.9945726191594702
  0.5617546499290071  0.7809242723698873  0.7496939482616156
 
  0.00000000E+00  0.00000000E+00  0.00000000E+00
  0.00000000E+00  0.00000000E+00  0.00000000E+00
  0.00000000E+00  0.00000000E+00  0.00000000E+00
  0.00000000E+00  0.00000000E+00  0.00000000E+00
  0.00000000E+00  0.00000000E+00  0.00000000E+00
  0.00000000E+00  0.00000000E+00  0.00000000E+00
  0.00000000E+00  0.00000000E+00  0.00000000E+00
  0.00000000E+00  0.00000000E+00  0.00000000E+00
  0.00000000E+00  0.00000000E+00  0.00000000E+00
  0.00000000E+00  0.00000000E+00  0.00000000E+00
  0.00000000E+00  0.00000000E+00  0.00000000E+00
  0.00000000E+00  0.00000000E+00  0.00000000E+00
  0.00000000E+00  0.00000000E+00  0.00000000E+00
  0.00000000E+00  0.00000000E+00  0.00000000E+00
  0.00000000E+00  0.00000000E+00  0.00000000E+00
  0.00000000E+00  0.00000000E+00  0.00000000E+00
  0.00000000E+00  0.00000000E+00  0.00000000E+00
  0.00000000E+00  0.00000000E+00  0.00000000E+00
  0.00000000E+00  0.00000000E+00  0.00000000E+00
  0.00000000E+00  0.00000000E+00  0.00000000E+00
  0.00000000E+00  0.00000000E+00  0.00000000E+00
  0.00000000E+00  0.00000000E+00  0.00000000E+00
  0.00000000E+00  0.00000000E+00  0.00000000E+00
  0.00000000E+00  0.00000000E+00  0.00000000E+00
  0.00000000E+00  0.00000000E+00  0.00000000E+00
  0.00000000E+00  0.00000000E+00  0.00000000E+00
  0.00000000E+00  0.00000000E+00  0.00000000E+00
  0.00000000E+00  0.00000000E+00  0.00000000E+00
  0.00000000E+00  0.00000000E+00  0.00000000E+00
  0.00000000E+00  0.00000000E+00  0.00000000E+00
  0.00000000E+00  0.00000000E+00  0.00000000E+00
  0.00000000E+00  0.00000000E+00  0.00000000E+00
  0.00000000E+00  0.00000000E+00  0.00000000E+00
  0.00000000E+00  0.00000000E+00  0.00000000E+00
  0.00000000E+00  0.00000000E+00  0.00000000E+00
  0.00000000E+00  0.00000000E+00  0.00000000E+00
  0.00000000E+00  0.00000000E+00  0.00000000E+00
  0.00000000E+00  0.00000000E+00  0.00000000E+00
  0.00000000E+00  0.00000000E+00  0.00000000E+00
  0.00000000E+00  0.00000000E+00  0.00000000E+00
  0.00000000E+00  0.00000000E+00  0.00000000E+00
  0.00000000E+00  0.00000000E+00  0.00000000E+00
  0.00000000E+00  0.00000000E+00  0.00000000E+00
  0.00000000E+00  0.00000000E+00  0.00000000E+00
  0.00000000E+00  0.00000000E+00  0.00000000E+00
  0.00000000E+00  0.00000000E+00  0.00000000E+00
  0.00000000E+00  0.00000000E+00  0.00000000E+00
  0.00000000E+00  0.00000000E+00  0.00000000E+00
  0.00000000E+00  0.00000000E+00  0.00000000E+00
  0.00000000E+00  0.00000000E+00  0.00000000E+00
  0.00000000E+00  0.00000000E+00  0.00000000E+00
  0.00000000E+00  0.00000000E+00  0.00000000E+00
  0.00000000E+00  0.00000000E+00  0.00000000E+00
  0.00000000E+00  0.00000000E+00  0.00000000E+00
  0.00000000E+00  0.00000000E+00  0.00000000E+00
  0.00000000E+00  0.00000000E+00  0.00000000E+00
  0.00000000E+00  0.00000000E+00  0.00000000E+00
  0.00000000E+00  0.00000000E+00  0.00000000E+00
  0.00000000E+00  0.00000000E+00  0.00000000E+00
  0.00000000E+00  0.00000000E+00  0.00000000E+00
  0.00000000E+00  0.00000000E+00  0.00000000E+00
  0.00000000E+00  0.00000000E+00  0.00000000E+00
  0.00000000E+00  0.00000000E+00  0.00000000E+00
  0.00000000E+00  0.00000000E+00  0.00000000E+00
  0.00000000E+00  0.00000000E+00  0.00000000E+00
  0.00000000E+00  0.00000000E+00  0.00000000E+00
  0.00000000E+00  0.00000000E+00  0.00000000E+00
  0.00000000E+00  0.00000000E+00  0.00000000E+00
  0.00000000E+00  0.00000000E+00  0.00000000E+00
  0.00000000E+00  0.00000000E+00  0.00000000E+00
  0.00000000E+00  0.00000000E+00  0.00000000E+00
  0.00000000E+00  0.00000000E+00  0.00000000E+00
