supercell of icsd_181358.cif            
   1.00000000000000     
     9.2401931470268757    0.0016492848226193    0.0028432052216458
    -4.6186791299801504    8.0144436742712504    0.0053336109128843
     0.0031487065015150    0.0085807271573940    9.9808081759349534
   N    Ga   B 
    36    30     6
Direct
  0.2198488241946990  0.1127538112401467  0.4372970600339272
  0.0850735044733852  0.2113250475290229  0.1680393339632644
  0.9192737014576977  0.1241921008148665  0.9435194688820943
  0.7916320127982956  0.2487413935320859  0.6992543157860496
  0.5588859660231051  0.1111182280335399  0.4356656020320315
  0.4600730655971716  0.2522681190190781  0.2004254068363878
  0.2070061192355865  0.1276668866188899  0.9526038855528043
  0.1249503258344049  0.2523589540614068  0.6916108685292954
  0.8937071707462039  0.1156110015494107  0.4107038200760442
  0.7945968222680619  0.2083646412598981  0.1929423454472214
  0.5417012487717159  0.0850435087221868  0.9533648902226801
  0.4437697081328906  0.2213972695420239  0.6863807625881435
  0.2206469520279128  0.4466507362854628  0.4316176568294523
  0.1088918836784742  0.5533043429861095  0.1774961718274994
  0.8850326178500509  0.4403157896659025  0.9159446499213573
  0.7945392463485845  0.5399049848430550  0.6953698825255756
  0.5566398778614641  0.4469336449877090  0.4165179157559464
  0.4588411978541700  0.5402855658551928  0.1941344902689934
  0.2071114021007290  0.4139605912701469  0.9247638099218563
  0.0984611142642038  0.5282190638956266  0.7117009459723320
  0.8935374931472708  0.4457529293016051  0.4380717056345489
  0.7494421445892456  0.5394052558154101  0.1967147669895297
  0.5539277535521165  0.4433537154738190  0.9352621869936684
  0.4117080317736708  0.5414912600533626  0.6991090212274926
  0.2210816537417344  0.7736834917786197  0.4394645377676767
  0.1109325129719778  0.8894572667099538  0.1917104834276770
  0.8860746921620120  0.7757240469354016  0.9444179674500788
  0.7772879353482338  0.8922794030645775  0.6902601779856283
  0.5546336680828148  0.7766340943098129  0.4356915600605547
  0.4444241671028024  0.8890874239362248  0.1652469909864749
  0.2527836257872167  0.7942919929943386  0.9490196285681805
  0.1152370012448571  0.8935338704734406  0.6962241106996032
  0.8882129999884540  0.7762807123966411  0.4435938345863022
  0.7941390750530886  0.9208709990511537  0.1982555729634257
  0.5416255348088512  0.7919062966652817  0.9537178994456852
  0.4463926961737030  0.8922841887123312  0.6881275691236510
  0.2175097711148695  0.1192511459245225  0.2448801766318169
  0.8997532299082849  0.1250656772433203  0.7541291291664720
  0.7831125908810890  0.2243387798333671  0.4989441306996625
  0.5619133708316113  0.1129076720220752  0.2433541301239259
  0.4404377001250310  0.2238734097266502  0.0079625996329682
  0.2223087388445748  0.1233578995141542  0.7567133871001133
  0.1106483695188771  0.2275968237280992  0.4970486429732759
  0.7842706340104257  0.2178884631584665  0.9996273491460244
  0.5578998336185492  0.1138221435409719  0.7572620217250972
  0.4462050250945424  0.2250226019224044  0.4916627970426219
  0.2182943209968826  0.4359915743379901  0.2413344220827440
  0.1139489609491449  0.5505844472814516  0.9854597823459912
  0.7768603751488925  0.5502926581347509  0.4994171023462570
  0.4356926519911752  0.5485086760658646  0.9993113679183594
  0.1106924336704012  0.5513160587793422  0.5124241512449572
  0.8868124821869188  0.4383614702120084  0.2493155633762782
  0.7733287115724181  0.5489347688541812  0.0009969872947266
  0.5550804549258288  0.4433588908767234  0.7479127889282182
  0.4401817329066375  0.5522173006096125  0.4981195819054349
  0.2238430202525095  0.7752614571157324  0.2446380289628749
  0.1160978983262879  0.8944773032056830  0.0015175217559147
  0.8885642920759196  0.7715986127858372  0.7515501784356857
  0.7797569277478829  0.8953741108094846  0.4936654083400285
  0.5588204741781908  0.7785889388550871  0.2431542016983670
  0.2244678691079898  0.7730701410052845  0.7568697227206371
  0.1132532951451921  0.8901972231921746  0.5020757162783411
  0.8835844224144296  0.7778021311182073  0.2519662933081293
  0.7817026878186653  0.8995037511724391  0.0059531793788352
  0.5468153132844833  0.7748927210477845  0.7578841610528926
  0.4450283432410771  0.8889894864633021  0.4993680671614769
  0.1027150029287185  0.2164538886074965  0.9980332790794861
  0.8894790811902880  0.1130921721006359  0.2419090627160543
  0.8890173868371889  0.4371037227912495  0.7548120598890975
  0.5559798029000191  0.4447093893795113  0.2500142834529910
  0.2099614104287255  0.4309286070266296  0.7564137216200564
  0.4438376367794135  0.8888132521737901  0.0040577055810829
 
  0.00000000E+00  0.00000000E+00  0.00000000E+00
  0.00000000E+00  0.00000000E+00  0.00000000E+00
  0.00000000E+00  0.00000000E+00  0.00000000E+00
  0.00000000E+00  0.00000000E+00  0.00000000E+00
  0.00000000E+00  0.00000000E+00  0.00000000E+00
  0.00000000E+00  0.00000000E+00  0.00000000E+00
  0.00000000E+00  0.00000000E+00  0.00000000E+00
  0.00000000E+00  0.00000000E+00  0.00000000E+00
  0.00000000E+00  0.00000000E+00  0.00000000E+00
  0.00000000E+00  0.00000000E+00  0.00000000E+00
  0.00000000E+00  0.00000000E+00  0.00000000E+00
  0.00000000E+00  0.00000000E+00  0.00000000E+00
  0.00000000E+00  0.00000000E+00  0.00000000E+00
  0.00000000E+00  0.00000000E+00  0.00000000E+00
  0.00000000E+00  0.00000000E+00  0.00000000E+00
  0.00000000E+00  0.00000000E+00  0.00000000E+00
  0.00000000E+00  0.00000000E+00  0.00000000E+00
  0.00000000E+00  0.00000000E+00  0.00000000E+00
  0.00000000E+00  0.00000000E+00  0.00000000E+00
  0.00000000E+00  0.00000000E+00  0.00000000E+00
  0.00000000E+00  0.00000000E+00  0.00000000E+00
  0.00000000E+00  0.00000000E+00  0.00000000E+00
  0.00000000E+00  0.00000000E+00  0.00000000E+00
  0.00000000E+00  0.00000000E+00  0.00000000E+00
  0.00000000E+00  0.00000000E+00  0.00000000E+00
  0.00000000E+00  0.00000000E+00  0.00000000E+00
  0.00000000E+00  0.00000000E+00  0.00000000E+00
  0.00000000E+00  0.00000000E+00  0.00000000E+00
  0.00000000E+00  0.00000000E+00  0.00000000E+00
  0.00000000E+00  0.00000000E+00  0.00000000E+00
  0.00000000E+00  0.00000000E+00  0.00000000E+00
  0.00000000E+00  0.00000000E+00  0.00000000E+00
  0.00000000E+00  0.00000000E+00  0.00000000E+00
  0.00000000E+00  0.00000000E+00  0.00000000E+00
  0.00000000E+00  0.00000000E+00  0.00000000E+00
  0.00000000E+00  0.00000000E+00  0.00000000E+00
  0.00000000E+00  0.00000000E+00  0.00000000E+00
  0.00000000E+00  0.00000000E+00  0.00000000E+00
  0.00000000E+00  0.00000000E+00  0.00000000E+00
  0.00000000E+00  0.00000000E+00  0.00000000E+00
  0.00000000E+00  0.00000000E+00  0.00000000E+00
  0.00000000E+00  0.00000000E+00  0.00000000E+00
  0.00000000E+00  0.00000000E+00  0.00000000E+00
  0.00000000E+00  0.00000000E+00  0.00000000E+00
  0.00000000E+00  0.00000000E+00  0.00000000E+00
  0.00000000E+00  0.00000000E+00  0.00000000E+00
  0.00000000E+00  0.00000000E+00  0.00000000E+00
  0.00000000E+00  0.00000000E+00  0.00000000E+00
  0.00000000E+00  0.00000000E+00  0.00000000E+00
  0.00000000E+00  0.00000000E+00  0.00000000E+00
  0.00000000E+00  0.00000000E+00  0.00000000E+00
  0.00000000E+00  0.00000000E+00  0.00000000E+00
  0.00000000E+00  0.00000000E+00  0.00000000E+00
  0.00000000E+00  0.00000000E+00  0.00000000E+00
  0.00000000E+00  0.00000000E+00  0.00000000E+00
  0.00000000E+00  0.00000000E+00  0.00000000E+00
  0.00000000E+00  0.00000000E+00  0.00000000E+00
  0.00000000E+00  0.00000000E+00  0.00000000E+00
  0.00000000E+00  0.00000000E+00  0.00000000E+00
  0.00000000E+00  0.00000000E+00  0.00000000E+00
  0.00000000E+00  0.00000000E+00  0.00000000E+00
  0.00000000E+00  0.00000000E+00  0.00000000E+00
  0.00000000E+00  0.00000000E+00  0.00000000E+00
  0.00000000E+00  0.00000000E+00  0.00000000E+00
  0.00000000E+00  0.00000000E+00  0.00000000E+00
  0.00000000E+00  0.00000000E+00  0.00000000E+00
  0.00000000E+00  0.00000000E+00  0.00000000E+00
  0.00000000E+00  0.00000000E+00  0.00000000E+00
  0.00000000E+00  0.00000000E+00  0.00000000E+00
  0.00000000E+00  0.00000000E+00  0.00000000E+00
  0.00000000E+00  0.00000000E+00  0.00000000E+00
  0.00000000E+00  0.00000000E+00  0.00000000E+00
