Al   B    N                             
   1.00000000000000     
    -9.3345345143344005   -0.0001056495130315   -0.0000234641353541
    -4.6607360956690682    8.0678116204513159    0.0001138214684516
     0.0078074642173447    0.0467052214103445  -10.0995306308651074
   Al   B    N 
    34     2    36
Direct
  0.1140557525974941  0.0932152128470776  0.3886079185566018
  0.2261886651476175  0.1998856170959513  0.1355830350004865
  0.7769967799695010  0.0961771122127573  0.8936561929440145
  0.8918132387893962  0.1968436956318271  0.6330966952439780
  0.4437275547697723  0.0960842790641934  0.3931834246991599
  0.5580897579743507  0.1994398482507336  0.1388593759416281
  0.1106568963773711  0.0932122105294440  0.8885402689391384
  0.2195402192312628  0.2081437597838587  0.6411397718946645
  0.7808075917200981  0.0841717280100980  0.3801838821983665
  0.8908410796599426  0.2048251416466371  0.1403045842300301
  0.4509392813985826  0.0849439810128700  0.8798901316285637
  0.5590140530853773  0.1995160241927039  0.6388556388537907
  0.1185892161705340  0.4235021288332987  0.3845810320171381
  0.2252963597134254  0.5375277490191550  0.1408831576351375
  0.7787186577026901  0.4263434307936151  0.8504591053200912
  0.8856082148333044  0.5496548999768152  0.5650806100391179
  0.4458583380649870  0.4265641755527270  0.3885687020530071
  0.5552070154851236  0.5438459918945497  0.1345354227481366
  0.1182407623858310  0.4260001180511708  0.8871015242237448
  0.2152298442680092  0.5427925038115688  0.6359710917371189
  0.7758629686814444  0.4286500787527459  0.3586296541432930
  0.8757520164868211  0.5492513940795831  0.0646860288884668
  0.4440752286732419  0.4263091398166026  0.8886023274402888
  0.5494237129780188  0.5397920118650674  0.6390354199700994
  0.1047699892287000  0.7642696782693790  0.3782323019618090
  0.2296353398445916  0.8744592552016854  0.1391812465967561
  0.7858840909713507  0.7655836561959575  0.8124350794606343
  0.4423742549869161  0.7601736668917880  0.3942404104161099
  0.1148782985584731  0.7589540731097770  0.8940715029533663
  0.2122094111276809  0.8748759219934712  0.6393679920834572
  0.7661365761908954  0.7655638495571466  0.3119736274463278
  0.8861221212436803  0.8748342268818163  0.1051880770670053
  0.4474775630394632  0.7649010309721618  0.8790563963631399
  0.5550309998689897  0.8756532372309636  0.6060852528431155
  0.8910511874286087  0.8704801433061675  0.5945175844302995
  0.5543653682245804  0.8714436673840638  0.0945088634866948
  0.2249808335273116  0.2031700530324443  0.3240432191238583
  0.1109235750464066  0.0945994413945428  0.0771299045079843
  0.8912820720435448  0.1986406743932960  0.8231772867081659
  0.7925748473504939  0.0620797646073896  0.5769536068597034
  0.5554520834489338  0.2041762970393819  0.3280588441725172
  0.4606518967550741  0.0631091560522279  0.0772049694961083
  0.2229836461400581  0.2044473999295064  0.8305391063961522
  0.1121848327997270  0.0948998777638650  0.5771172132290943
  0.8913287981469011  0.2006108204446377  0.3318254225061636
  0.7736085428291020  0.1057380132441281  0.0808606727705268
  0.5575599213281777  0.2040741837312225  0.8279331002771855
  0.4363682231999206  0.1064176926843956  0.5809838845688589
  0.2244176840751280  0.5384915743692673  0.3295253197383516
  0.1156197568508190  0.4270470819966334  0.0788829800101993
  0.8861935497379534  0.5451049350545105  0.8712049952421452
  0.7753385864992808  0.4290831464548930  0.5971502340332222
  0.5492506554759657  0.5431482707290343  0.3250558692536742
  0.4449445784122261  0.4253981707200793  0.0777663225567977
  0.2225733886977395  0.5406563023938347  0.8244396919591068
  0.1152813058455777  0.4252127658153739  0.5764842911849684
  0.8865955587959817  0.5457312538998167  0.3716482402514458
  0.7776482318299358  0.4266932589605688  0.0978699118883029
  0.5507807168431356  0.5402205001433344  0.8296702036302506
  0.4442484448158623  0.4256324068675212  0.5777883083655908
  0.2238895338755995  0.8722689897576359  0.3279471305271642
  0.1262901331294870  0.7562251382408505  0.0823030806774980
  0.8876294074350639  0.8686265482178470  0.8871482994300592
  0.8018496745589090  0.7755081310704313  0.6195335119351810
  0.5610730663936323  0.8687972061842757  0.3867308077418556
  0.4584876015932196  0.7776410848044719  0.0757473982987449
  0.2209527853565660  0.8719084306974736  0.8281504204500081
  0.0804427285131695  0.7770375935837137  0.5760575878083714
  0.8911838434812083  0.8713740830477761  0.3098556973082367
  0.7386822535705875  0.7765166265897321  0.1187471270977412
  0.5544899400940153  0.8714724110403651  0.8101891566524415
  0.4328997762581821  0.7580949404838009  0.5819459487171486
 
  0.00000000E+00  0.00000000E+00  0.00000000E+00
  0.00000000E+00  0.00000000E+00  0.00000000E+00
  0.00000000E+00  0.00000000E+00  0.00000000E+00
  0.00000000E+00  0.00000000E+00  0.00000000E+00
  0.00000000E+00  0.00000000E+00  0.00000000E+00
  0.00000000E+00  0.00000000E+00  0.00000000E+00
  0.00000000E+00  0.00000000E+00  0.00000000E+00
  0.00000000E+00  0.00000000E+00  0.00000000E+00
  0.00000000E+00  0.00000000E+00  0.00000000E+00
  0.00000000E+00  0.00000000E+00  0.00000000E+00
  0.00000000E+00  0.00000000E+00  0.00000000E+00
  0.00000000E+00  0.00000000E+00  0.00000000E+00
  0.00000000E+00  0.00000000E+00  0.00000000E+00
  0.00000000E+00  0.00000000E+00  0.00000000E+00
  0.00000000E+00  0.00000000E+00  0.00000000E+00
  0.00000000E+00  0.00000000E+00  0.00000000E+00
  0.00000000E+00  0.00000000E+00  0.00000000E+00
  0.00000000E+00  0.00000000E+00  0.00000000E+00
  0.00000000E+00  0.00000000E+00  0.00000000E+00
  0.00000000E+00  0.00000000E+00  0.00000000E+00
  0.00000000E+00  0.00000000E+00  0.00000000E+00
  0.00000000E+00  0.00000000E+00  0.00000000E+00
  0.00000000E+00  0.00000000E+00  0.00000000E+00
  0.00000000E+00  0.00000000E+00  0.00000000E+00
  0.00000000E+00  0.00000000E+00  0.00000000E+00
  0.00000000E+00  0.00000000E+00  0.00000000E+00
  0.00000000E+00  0.00000000E+00  0.00000000E+00
  0.00000000E+00  0.00000000E+00  0.00000000E+00
  0.00000000E+00  0.00000000E+00  0.00000000E+00
  0.00000000E+00  0.00000000E+00  0.00000000E+00
  0.00000000E+00  0.00000000E+00  0.00000000E+00
  0.00000000E+00  0.00000000E+00  0.00000000E+00
  0.00000000E+00  0.00000000E+00  0.00000000E+00
  0.00000000E+00  0.00000000E+00  0.00000000E+00
  0.00000000E+00  0.00000000E+00  0.00000000E+00
  0.00000000E+00  0.00000000E+00  0.00000000E+00
  0.00000000E+00  0.00000000E+00  0.00000000E+00
  0.00000000E+00  0.00000000E+00  0.00000000E+00
  0.00000000E+00  0.00000000E+00  0.00000000E+00
  0.00000000E+00  0.00000000E+00  0.00000000E+00
  0.00000000E+00  0.00000000E+00  0.00000000E+00
  0.00000000E+00  0.00000000E+00  0.00000000E+00
  0.00000000E+00  0.00000000E+00  0.00000000E+00
  0.00000000E+00  0.00000000E+00  0.00000000E+00
  0.00000000E+00  0.00000000E+00  0.00000000E+00
  0.00000000E+00  0.00000000E+00  0.00000000E+00
  0.00000000E+00  0.00000000E+00  0.00000000E+00
  0.00000000E+00  0.00000000E+00  0.00000000E+00
  0.00000000E+00  0.00000000E+00  0.00000000E+00
  0.00000000E+00  0.00000000E+00  0.00000000E+00
  0.00000000E+00  0.00000000E+00  0.00000000E+00
  0.00000000E+00  0.00000000E+00  0.00000000E+00
  0.00000000E+00  0.00000000E+00  0.00000000E+00
  0.00000000E+00  0.00000000E+00  0.00000000E+00
  0.00000000E+00  0.00000000E+00  0.00000000E+00
  0.00000000E+00  0.00000000E+00  0.00000000E+00
  0.00000000E+00  0.00000000E+00  0.00000000E+00
  0.00000000E+00  0.00000000E+00  0.00000000E+00
  0.00000000E+00  0.00000000E+00  0.00000000E+00
  0.00000000E+00  0.00000000E+00  0.00000000E+00
  0.00000000E+00  0.00000000E+00  0.00000000E+00
  0.00000000E+00  0.00000000E+00  0.00000000E+00
  0.00000000E+00  0.00000000E+00  0.00000000E+00
  0.00000000E+00  0.00000000E+00  0.00000000E+00
  0.00000000E+00  0.00000000E+00  0.00000000E+00
  0.00000000E+00  0.00000000E+00  0.00000000E+00
  0.00000000E+00  0.00000000E+00  0.00000000E+00
  0.00000000E+00  0.00000000E+00  0.00000000E+00
  0.00000000E+00  0.00000000E+00  0.00000000E+00
  0.00000000E+00  0.00000000E+00  0.00000000E+00
  0.00000000E+00  0.00000000E+00  0.00000000E+00
  0.00000000E+00  0.00000000E+00  0.00000000E+00
