Al   B    N                             
   1.00000000000000     
    -9.3326944836709789    0.0001345923178321   -0.0001038507276923
    -4.6549065376610743    8.0802736350953346   -0.0034801698148670
    -0.0113042430181868    0.0196081764227675  -10.0286160778043634
   Al   B    N 
    34     2    36
Direct
  0.1110925078936802  0.0955046258068180  0.3088414973802429
  0.2271938668617608  0.1980712126013273  0.0609057733934009
  0.7886841195995871  0.0847514265093281  0.8079351394343917
  0.8895513588375934  0.2015175293759839  0.5608396601717658
  0.4471892887409723  0.0935210493775926  0.3866630740080268
  0.5556485304572121  0.1930890677483745  0.1309026784741150
  0.1121555127732705  0.0931815730223562  0.8113956040557326
  0.2103001141106873  0.2123977101174859  0.5631617379798826
  0.7856402231246875  0.0890357275794429  0.3217499490889963
  0.8879540546649167  0.2045138686657637  0.0602655841687607
  0.4494253646251849  0.0875782041046875  0.8396718600567539
  0.5594987665744782  0.2022724150841100  0.6200801802318807
  0.1114666388653802  0.4274562994999016  0.3082502948199632
  0.2213633100620029  0.5404309220474701  0.0591299001019010
  0.7767762516213068  0.4297205822992822  0.8106506340820658
  0.8907292542369589  0.5435394543707162  0.5580611583119648
  0.4397579932985352  0.4346554903639799  0.3120620306505799
  0.5581054450324743  0.5428040278514672  0.0613707562471859
  0.1103726304072410  0.4288375464409953  0.8120779194549428
  0.2152054361165838  0.5441943895428096  0.5601283200753926
  0.7785198740994161  0.4276941305962367  0.3100070268379298
  0.8814088169282357  0.5448726445142569  0.0616149412564937
  0.4419450795371276  0.4344937703504783  0.8109243119307337
  0.5536665912283141  0.5397245077666000  0.5562401344607082
  0.1083473955859304  0.7623386563943129  0.3147899073114999
  0.2255978588376664  0.8735096817102175  0.0621440413609804
  0.7855541067076004  0.7612271464257603  0.8021715592692615
  0.4469689430752908  0.7657259783172350  0.3163596663141561
  0.1064684490352832  0.7640878306076360  0.8070629110071579
  0.2146212922557567  0.8739316342670875  0.5576221149315828
  0.7735819927017289  0.7656529289154435  0.3234580932398217
  0.8815832887842632  0.8743299378404501  0.0628978478756110
  0.4424562770393905  0.7592194809815425  0.8049793422564022
  0.5610224581053842  0.8677105503902425  0.5899633153895678
  0.8928640773109109  0.8679921628603608  0.5568613905696793
  0.5547025257131040  0.8746044249346383  0.1043529186692282
  0.2159759106820545  0.2087901592811434  0.3706028498624150
  0.1104900991388362  0.0947379759196139  0.1194312724914184
  0.8887965231962269  0.2052454301468600  0.8692397519582400
  0.7961582901411717  0.0661601753502126  0.6113339895054892
  0.5537450219569919  0.2039291005212718  0.3303711083981185
  0.4624893976904119  0.0584873447857603  0.0878357132862746
  0.2217726668104163  0.2060228881702812  0.8696165523507133
  0.1096319179009626  0.0939978591747632  0.6222587329991995
  0.8902461605887382  0.2069476897839309  0.3720349130331897
  0.7860691889392655  0.0892197322515713  0.1269107177570987
  0.5591159273541777  0.2042312116061140  0.8213361528551744
  0.4385906398657227  0.1014940944074638  0.5850349182888976
  0.2199219987455123  0.5395498166894299  0.3708104850365359
  0.1114612801979931  0.4267685685160529  0.1177248772769559
  0.8876410658871805  0.5417968648217339  0.8709798162087594
  0.7765301706943433  0.4298451153676197  0.6192285271913107
  0.5558638459256997  0.5397772594023351  0.3665536540263830
  0.4425420895443608  0.4314568647991806  0.1183096882458230
  0.2206546023138856  0.5417882499177651  0.8685990351917496
  0.1086768498531683  0.4300606297392378  0.6227459582019605
  0.8899505516168915  0.5387561807613039  0.3678676878805689
  0.7787153890599399  0.4264590198630671  0.1200497532726672
  0.5554215635853552  0.5406589045598125  0.8723144157947686
  0.4391425443446835  0.4355725307627765  0.6168095387686066
  0.2215455084356535  0.8733158054047578  0.3671144769120218
  0.1086082472371501  0.7617268116549454  0.1233071304269373
  0.8899534135518721  0.8700907254636903  0.8758243914924080
  0.8013771326750003  0.7694567051400156  0.6103251566929728
  0.5591421140087292  0.8650909997145746  0.3862464699820976
  0.4598382266565153  0.7763268497114097  0.1194607231343525
  0.2225299151805729  0.8703636208385319  0.8712578175668781
  0.0864654341100461  0.7740795031390917  0.6129801812091458
  0.8911107091294781  0.8706060699027702  0.3905978046975562
  0.7481329651964188  0.7770243087199660  0.1245821255045882
  0.5599923487728447  0.8676984273759700  0.8115591273770733
  0.4349265464036307  0.7569863669481762  0.6154756324036512
 
  0.00000000E+00  0.00000000E+00  0.00000000E+00
  0.00000000E+00  0.00000000E+00  0.00000000E+00
  0.00000000E+00  0.00000000E+00  0.00000000E+00
  0.00000000E+00  0.00000000E+00  0.00000000E+00
  0.00000000E+00  0.00000000E+00  0.00000000E+00
  0.00000000E+00  0.00000000E+00  0.00000000E+00
  0.00000000E+00  0.00000000E+00  0.00000000E+00
  0.00000000E+00  0.00000000E+00  0.00000000E+00
  0.00000000E+00  0.00000000E+00  0.00000000E+00
  0.00000000E+00  0.00000000E+00  0.00000000E+00
  0.00000000E+00  0.00000000E+00  0.00000000E+00
  0.00000000E+00  0.00000000E+00  0.00000000E+00
  0.00000000E+00  0.00000000E+00  0.00000000E+00
  0.00000000E+00  0.00000000E+00  0.00000000E+00
  0.00000000E+00  0.00000000E+00  0.00000000E+00
  0.00000000E+00  0.00000000E+00  0.00000000E+00
  0.00000000E+00  0.00000000E+00  0.00000000E+00
  0.00000000E+00  0.00000000E+00  0.00000000E+00
  0.00000000E+00  0.00000000E+00  0.00000000E+00
  0.00000000E+00  0.00000000E+00  0.00000000E+00
  0.00000000E+00  0.00000000E+00  0.00000000E+00
  0.00000000E+00  0.00000000E+00  0.00000000E+00
  0.00000000E+00  0.00000000E+00  0.00000000E+00
  0.00000000E+00  0.00000000E+00  0.00000000E+00
  0.00000000E+00  0.00000000E+00  0.00000000E+00
  0.00000000E+00  0.00000000E+00  0.00000000E+00
  0.00000000E+00  0.00000000E+00  0.00000000E+00
  0.00000000E+00  0.00000000E+00  0.00000000E+00
  0.00000000E+00  0.00000000E+00  0.00000000E+00
  0.00000000E+00  0.00000000E+00  0.00000000E+00
  0.00000000E+00  0.00000000E+00  0.00000000E+00
  0.00000000E+00  0.00000000E+00  0.00000000E+00
  0.00000000E+00  0.00000000E+00  0.00000000E+00
  0.00000000E+00  0.00000000E+00  0.00000000E+00
  0.00000000E+00  0.00000000E+00  0.00000000E+00
  0.00000000E+00  0.00000000E+00  0.00000000E+00
  0.00000000E+00  0.00000000E+00  0.00000000E+00
  0.00000000E+00  0.00000000E+00  0.00000000E+00
  0.00000000E+00  0.00000000E+00  0.00000000E+00
  0.00000000E+00  0.00000000E+00  0.00000000E+00
  0.00000000E+00  0.00000000E+00  0.00000000E+00
  0.00000000E+00  0.00000000E+00  0.00000000E+00
  0.00000000E+00  0.00000000E+00  0.00000000E+00
  0.00000000E+00  0.00000000E+00  0.00000000E+00
  0.00000000E+00  0.00000000E+00  0.00000000E+00
  0.00000000E+00  0.00000000E+00  0.00000000E+00
  0.00000000E+00  0.00000000E+00  0.00000000E+00
  0.00000000E+00  0.00000000E+00  0.00000000E+00
  0.00000000E+00  0.00000000E+00  0.00000000E+00
  0.00000000E+00  0.00000000E+00  0.00000000E+00
  0.00000000E+00  0.00000000E+00  0.00000000E+00
  0.00000000E+00  0.00000000E+00  0.00000000E+00
  0.00000000E+00  0.00000000E+00  0.00000000E+00
  0.00000000E+00  0.00000000E+00  0.00000000E+00
  0.00000000E+00  0.00000000E+00  0.00000000E+00
  0.00000000E+00  0.00000000E+00  0.00000000E+00
  0.00000000E+00  0.00000000E+00  0.00000000E+00
  0.00000000E+00  0.00000000E+00  0.00000000E+00
  0.00000000E+00  0.00000000E+00  0.00000000E+00
  0.00000000E+00  0.00000000E+00  0.00000000E+00
  0.00000000E+00  0.00000000E+00  0.00000000E+00
  0.00000000E+00  0.00000000E+00  0.00000000E+00
  0.00000000E+00  0.00000000E+00  0.00000000E+00
  0.00000000E+00  0.00000000E+00  0.00000000E+00
  0.00000000E+00  0.00000000E+00  0.00000000E+00
  0.00000000E+00  0.00000000E+00  0.00000000E+00
  0.00000000E+00  0.00000000E+00  0.00000000E+00
  0.00000000E+00  0.00000000E+00  0.00000000E+00
  0.00000000E+00  0.00000000E+00  0.00000000E+00
  0.00000000E+00  0.00000000E+00  0.00000000E+00
  0.00000000E+00  0.00000000E+00  0.00000000E+00
  0.00000000E+00  0.00000000E+00  0.00000000E+00
