Al   B    N                             
   1.00000000000000     
    -9.2983295937325501   -0.0000005049006904    0.0000004213371979
    -4.6491643597665702    8.0551572352944003   -0.0025903035294621
     0.0000004526628618    0.0032040096567121   -9.9403775078035004
   Al   B    N 
    34     2    36
Direct
  0.1114005029887082  0.0941903184817363  0.2948392907842177
  0.2254860538267422  0.2004779302623234  0.0449357063279052
  0.7804457118218266  0.0888855130557218  0.7905693723166465
  0.8907025345658113  0.2004784966865145  0.5449356137460200
  0.4473361791771779  0.0888854283302152  0.2905693107208975
  0.5588493495553450  0.1995006747902579  0.0452084902300243
  0.1110767470284699  0.0941904881587163  0.7948393539311454
  0.2243135219042998  0.2043884609436191  0.5449932511670141
  0.7789006748175140  0.0918045990663359  0.3019056994865537
  0.8879651177708041  0.2043882652759379  0.0449932656847309
  0.4459618383818054  0.0918049703353674  0.8019057876625482
  0.5583160233626074  0.1995008220335706  0.5452084854563850
  0.1113446708994985  0.4278041783513942  0.2943303428619473
  0.2209044788016428  0.5406812423134824  0.0445212292503143
  0.7775181542287370  0.4278042928306647  0.7943302990883652
  0.8898317509098703  0.5442109940996644  0.5448169722642078
  0.4440565172952518  0.4277420919038164  0.2951076369477121
  0.5571065545814591  0.5423887705594481  0.0450251370164949
  0.1107145250582136  0.4278575617260074  0.7951431012035499
  0.2171711593878172  0.5423892334856930  0.5450251821333012
  0.7780953459536946  0.4278574245453015  0.2951430786467384
  0.8826241291635455  0.5442103688489581  0.0448168399359474
  0.4448673677312343  0.4277423310270905  0.7951076789015090
  0.5550811060109524  0.5406807754070115  0.5445211038289628
  0.1084801617977362  0.7623278753786664  0.3018071920920136
  0.2243564043547437  0.8730035824453637  0.0452977847807858
  0.7777078274221267  0.7651065928005636  0.7972606277721823
  0.4471308539577734  0.7641278675014149  0.2910568266171012
  0.1054069744456783  0.7641284689778658  0.7910566636235430
  0.2193062167274888  0.8730043881781668  0.5452977668234880
  0.7738514986951586  0.7651065350910216  0.2972605837739621
  0.8833212451001700  0.8736840496757807  0.0466842081210928
  0.4458580288121752  0.7623278436966814  0.8018070543714941
  0.5596607341958446  0.8736843894796991  0.5466842495659634
  0.8880175239676262  0.8723823802484745  0.5423667499482576
  0.5562667920055091  0.8723819402873616  0.0423667854200218
  0.2247094933894616  0.2043726830447952  0.3521810485118806
  0.1102308951834488  0.0943967702357611  0.1040815762542451
  0.8875852474390840  0.2043726986049919  0.8521809838451873
  0.7902093059246553  0.0692700680572216  0.5964141296810936
  0.5537280123572614  0.2045211960157900  0.3534414703004174
  0.4571875174240816  0.0692696264878307  0.0964142328220632
  0.2215992730191871  0.2056632003913279  0.8548918386238284
  0.1120389858154667  0.0943973071594471  0.6040816160090969
  0.8894050428523457  0.2056629386492332  0.3548916454302926
  0.7787956020219795  0.0927919655330669  0.1098094205543418
  0.5584178488064140  0.2045213895199538  0.8534414738984353
  0.4450790017280255  0.0927920257706845  0.6098096538727731
  0.2222499866093983  0.5384022919778459  0.3547800736114297
  0.1103919588641915  0.4277719317679143  0.1027329267615684
  0.8873936104366535  0.5408444088216058  0.8529176150514530
  0.7785027650649852  0.4277722115541849  0.6027329141464790
  0.5543769478635383  0.5412450655948717  0.3521806004378192
  0.4446259896032743  0.4272918325201118  0.1031328968332019
  0.2210443192242764  0.5412457710891303  0.8521807522957090
  0.1114428404709358  0.4267577606287034  0.6041028267540796
  0.8884290074571837  0.5408444536008119  0.3529176977196400
  0.7784663118816084  0.4267574213299099  0.1041028486954616
  0.5560144344114590  0.5384021507349317  0.8547799510962761
  0.4447484847665208  0.4272918861372901  0.6031329398627250
  0.2247805234041067  0.8712537713565709  0.3535180778822635
  0.1083764038841579  0.7625015104811936  0.1087126532620815
  0.8889380007868866  0.8726814211993243  0.8584965630804788
  0.7891262316451559  0.7743002442304601  0.6011023480948978
  0.5550466923493573  0.8726813477580677  0.3584965943845475
  0.4565538734956078  0.7739897682467571  0.0966940172449142
  0.2206319726570030  0.8712538721423115  0.8535180741840804
  0.0861226003975659  0.7739903223406230  0.5966939223382681
  0.8877249391106901  0.8713781076049258  0.3749405350345398
  0.7532400401138588  0.7742997886260525  0.1011023286071691
  0.5575631649505652  0.8713781554768616  0.8749405592151547
  0.4457883978844919  0.7625014890295816  0.6087124710989826
 
  0.00000000E+00  0.00000000E+00  0.00000000E+00
  0.00000000E+00  0.00000000E+00  0.00000000E+00
  0.00000000E+00  0.00000000E+00  0.00000000E+00
  0.00000000E+00  0.00000000E+00  0.00000000E+00
  0.00000000E+00  0.00000000E+00  0.00000000E+00
  0.00000000E+00  0.00000000E+00  0.00000000E+00
  0.00000000E+00  0.00000000E+00  0.00000000E+00
  0.00000000E+00  0.00000000E+00  0.00000000E+00
  0.00000000E+00  0.00000000E+00  0.00000000E+00
  0.00000000E+00  0.00000000E+00  0.00000000E+00
  0.00000000E+00  0.00000000E+00  0.00000000E+00
  0.00000000E+00  0.00000000E+00  0.00000000E+00
  0.00000000E+00  0.00000000E+00  0.00000000E+00
  0.00000000E+00  0.00000000E+00  0.00000000E+00
  0.00000000E+00  0.00000000E+00  0.00000000E+00
  0.00000000E+00  0.00000000E+00  0.00000000E+00
  0.00000000E+00  0.00000000E+00  0.00000000E+00
  0.00000000E+00  0.00000000E+00  0.00000000E+00
  0.00000000E+00  0.00000000E+00  0.00000000E+00
  0.00000000E+00  0.00000000E+00  0.00000000E+00
  0.00000000E+00  0.00000000E+00  0.00000000E+00
  0.00000000E+00  0.00000000E+00  0.00000000E+00
  0.00000000E+00  0.00000000E+00  0.00000000E+00
  0.00000000E+00  0.00000000E+00  0.00000000E+00
  0.00000000E+00  0.00000000E+00  0.00000000E+00
  0.00000000E+00  0.00000000E+00  0.00000000E+00
  0.00000000E+00  0.00000000E+00  0.00000000E+00
  0.00000000E+00  0.00000000E+00  0.00000000E+00
  0.00000000E+00  0.00000000E+00  0.00000000E+00
  0.00000000E+00  0.00000000E+00  0.00000000E+00
  0.00000000E+00  0.00000000E+00  0.00000000E+00
  0.00000000E+00  0.00000000E+00  0.00000000E+00
  0.00000000E+00  0.00000000E+00  0.00000000E+00
  0.00000000E+00  0.00000000E+00  0.00000000E+00
  0.00000000E+00  0.00000000E+00  0.00000000E+00
  0.00000000E+00  0.00000000E+00  0.00000000E+00
  0.00000000E+00  0.00000000E+00  0.00000000E+00
  0.00000000E+00  0.00000000E+00  0.00000000E+00
  0.00000000E+00  0.00000000E+00  0.00000000E+00
  0.00000000E+00  0.00000000E+00  0.00000000E+00
  0.00000000E+00  0.00000000E+00  0.00000000E+00
  0.00000000E+00  0.00000000E+00  0.00000000E+00
  0.00000000E+00  0.00000000E+00  0.00000000E+00
  0.00000000E+00  0.00000000E+00  0.00000000E+00
  0.00000000E+00  0.00000000E+00  0.00000000E+00
  0.00000000E+00  0.00000000E+00  0.00000000E+00
  0.00000000E+00  0.00000000E+00  0.00000000E+00
  0.00000000E+00  0.00000000E+00  0.00000000E+00
  0.00000000E+00  0.00000000E+00  0.00000000E+00
  0.00000000E+00  0.00000000E+00  0.00000000E+00
  0.00000000E+00  0.00000000E+00  0.00000000E+00
  0.00000000E+00  0.00000000E+00  0.00000000E+00
  0.00000000E+00  0.00000000E+00  0.00000000E+00
  0.00000000E+00  0.00000000E+00  0.00000000E+00
  0.00000000E+00  0.00000000E+00  0.00000000E+00
  0.00000000E+00  0.00000000E+00  0.00000000E+00
  0.00000000E+00  0.00000000E+00  0.00000000E+00
  0.00000000E+00  0.00000000E+00  0.00000000E+00
  0.00000000E+00  0.00000000E+00  0.00000000E+00
  0.00000000E+00  0.00000000E+00  0.00000000E+00
  0.00000000E+00  0.00000000E+00  0.00000000E+00
  0.00000000E+00  0.00000000E+00  0.00000000E+00
  0.00000000E+00  0.00000000E+00  0.00000000E+00
  0.00000000E+00  0.00000000E+00  0.00000000E+00
  0.00000000E+00  0.00000000E+00  0.00000000E+00
  0.00000000E+00  0.00000000E+00  0.00000000E+00
  0.00000000E+00  0.00000000E+00  0.00000000E+00
  0.00000000E+00  0.00000000E+00  0.00000000E+00
  0.00000000E+00  0.00000000E+00  0.00000000E+00
  0.00000000E+00  0.00000000E+00  0.00000000E+00
  0.00000000E+00  0.00000000E+00  0.00000000E+00
  0.00000000E+00  0.00000000E+00  0.00000000E+00
