supercell of icsd_191774.cif            
   1.00000000000000     
    10.9426685690506442    0.0092721740773986   -0.0051422222023125
    -5.4632574174835229    9.5245168933123949   -0.0137834537603161
    -0.0055371351985023   -0.0206214334806223   11.5025853464321735
   N    In   La
    36    28     8
Direct
  0.2219685906161217  0.1154410005137123  0.4486458207160027
  0.1083419014267903  0.2217071271462814  0.1911027382871993
  0.9008683981445316  0.1377475273963071  0.9318282051241411
  0.7625071951828559  0.2034928611379243  0.6788926962037820
  0.5620988627664971  0.1251087665448551  0.4291233981190743
  0.4396693379193124  0.2208649635825708  0.1956628746786606
  0.2297290168614339  0.1275646077264199  0.9431571048568514
  0.1000454332909229  0.2375479462114924  0.6814044079135684
  0.8862432582509641  0.1098727516367930  0.4395020090576125
  0.7765897625842086  0.2187395083870456  0.1930304361258663
  0.5559273276227543  0.1138651187956512  0.9455552558903619
  0.4562376044612293  0.2129357256198716  0.6789363191181153
  0.2238897971143814  0.4465672342237426  0.4366787974299342
  0.1124019923768032  0.5550029478914880  0.1926061573253364
  0.8886360701667044  0.4462388659762340  0.9608516729689427
  0.7778557218790354  0.5390597879907091  0.6736843785247473
  0.5530423066786980  0.4456478953006524  0.4396575048602287
  0.4319282537848608  0.5358635603261490  0.1889560617546024
  0.2225312923719684  0.4456435774074876  0.9368896080809392
  0.1284674861815773  0.5663664307272001  0.6804350513409858
  0.8915064187329449  0.4412712964581047  0.4371004376513881
  0.7777540959643403  0.5577483309842322  0.2045958891724027
  0.5600635603154984  0.4448214230371690  0.9587797827697671
  0.4403577570365584  0.5624312797667912  0.6869436041530719
  0.2109079040974251  0.7686068107843838  0.4353072684930126
  0.1083003987259374  0.8907462671397326  0.2154135933620367
  0.8871179790319133  0.7607732365642548  0.9361187591384805
  0.7685334397722769  0.8950920104404787  0.6963164962004242
  0.5590249591272354  0.7736535883383908  0.4463746246410949
  0.4318755449298237  0.8966127784479099  0.1846820672551317
  0.2230086052376166  0.7642701833178336  0.9387132632765187
  0.1297768748634525  0.8837812361606083  0.6792373282663107
  0.8859559620654238  0.7779990757055657  0.4556435020855361
  0.7938138445972100  0.8958079878624687  0.1945235248117996
  0.5425495943958367  0.7663030717038524  0.9485955810640831
  0.4465194316338881  0.8900534371159026  0.7127744385459067
  0.2206967529889923  0.1150348663079086  0.2564748468988185
  0.1068243019085600  0.2289594299442896  0.4942430907278919
  0.8849047443239542  0.1162444031414012  0.7420604378455735
  0.7788921930365902  0.2267618455705644  0.0053544222144239
  0.5532050841098624  0.1142602533244528  0.2428639471752163
  0.4511796650252151  0.2270572150521915  0.4914255033351225
  0.1160821983210241  0.2326069984119670  0.9991197882459772
  0.8913231462656981  0.1118877637239351  0.2509359181524928
  0.7754944048791472  0.2224098730438868  0.4913531674741591
  0.5573988099328062  0.1078588610386220  0.7547584479537335
  0.4446414543236585  0.2260430606624837  0.0075200498238104
  0.2180267630865842  0.4390886974183346  0.2490259539971831
  0.1111778091745563  0.5547003393379413  0.4932191597355882
  0.7790444982588909  0.5559500015325867  0.0132263310030325
  0.5512796623671434  0.4396740200325269  0.2485823125179181
  0.4437769007442682  0.5561303830850548  0.4981556371260609
  0.2245156446540690  0.4521493390447660  0.7457424497801952
  0.1135535045187268  0.5521631405609853  0.0043109249701558
  0.8898870537191357  0.4422517221557527  0.2468105706617720
  0.7759935137163154  0.5482366409956612  0.4879372968732056
  0.4374726010467356  0.5463466446784082  0.0013387760500123
  0.2171880394024797  0.7752857363112753  0.2501022710069165
  0.1128501857473267  0.8870296705784710  0.4885377612358823
  0.2273589700291438  0.7730615516419164  0.7508104163632794
  0.8888380573447208  0.7796964361621548  0.2628763697935028
  0.7745468813254988  0.8918733187839081  0.5021112891386466
  0.5486069371147480  0.7749953060869572  0.7543265518618441
  0.4401865467905068  0.8875337057721140  0.9930384062575897
  0.2236778407876940  0.1164083389868722  0.7320841473145947
  0.8974397314389364  0.4331763903146282  0.7507147315033720
  0.5556935831345413  0.4405842744056585  0.7499655742007647
  0.8921990642515638  0.7709050624229761  0.7260958481233359
  0.7858439227805434  0.8978592755548789  0.9869543668015552
  0.5524572337200198  0.7746085427665150  0.2400154256849945
  0.4434518303427808  0.8950337964972945  0.5062286939484721
  0.1182444891786076  0.8908828762803722  0.0077584549389869
 
  0.00000000E+00  0.00000000E+00  0.00000000E+00
  0.00000000E+00  0.00000000E+00  0.00000000E+00
  0.00000000E+00  0.00000000E+00  0.00000000E+00
  0.00000000E+00  0.00000000E+00  0.00000000E+00
  0.00000000E+00  0.00000000E+00  0.00000000E+00
  0.00000000E+00  0.00000000E+00  0.00000000E+00
  0.00000000E+00  0.00000000E+00  0.00000000E+00
  0.00000000E+00  0.00000000E+00  0.00000000E+00
  0.00000000E+00  0.00000000E+00  0.00000000E+00
  0.00000000E+00  0.00000000E+00  0.00000000E+00
  0.00000000E+00  0.00000000E+00  0.00000000E+00
  0.00000000E+00  0.00000000E+00  0.00000000E+00
  0.00000000E+00  0.00000000E+00  0.00000000E+00
  0.00000000E+00  0.00000000E+00  0.00000000E+00
  0.00000000E+00  0.00000000E+00  0.00000000E+00
  0.00000000E+00  0.00000000E+00  0.00000000E+00
  0.00000000E+00  0.00000000E+00  0.00000000E+00
  0.00000000E+00  0.00000000E+00  0.00000000E+00
  0.00000000E+00  0.00000000E+00  0.00000000E+00
  0.00000000E+00  0.00000000E+00  0.00000000E+00
  0.00000000E+00  0.00000000E+00  0.00000000E+00
  0.00000000E+00  0.00000000E+00  0.00000000E+00
  0.00000000E+00  0.00000000E+00  0.00000000E+00
  0.00000000E+00  0.00000000E+00  0.00000000E+00
  0.00000000E+00  0.00000000E+00  0.00000000E+00
  0.00000000E+00  0.00000000E+00  0.00000000E+00
  0.00000000E+00  0.00000000E+00  0.00000000E+00
  0.00000000E+00  0.00000000E+00  0.00000000E+00
  0.00000000E+00  0.00000000E+00  0.00000000E+00
  0.00000000E+00  0.00000000E+00  0.00000000E+00
  0.00000000E+00  0.00000000E+00  0.00000000E+00
  0.00000000E+00  0.00000000E+00  0.00000000E+00
  0.00000000E+00  0.00000000E+00  0.00000000E+00
  0.00000000E+00  0.00000000E+00  0.00000000E+00
  0.00000000E+00  0.00000000E+00  0.00000000E+00
  0.00000000E+00  0.00000000E+00  0.00000000E+00
  0.00000000E+00  0.00000000E+00  0.00000000E+00
  0.00000000E+00  0.00000000E+00  0.00000000E+00
  0.00000000E+00  0.00000000E+00  0.00000000E+00
  0.00000000E+00  0.00000000E+00  0.00000000E+00
  0.00000000E+00  0.00000000E+00  0.00000000E+00
  0.00000000E+00  0.00000000E+00  0.00000000E+00
  0.00000000E+00  0.00000000E+00  0.00000000E+00
  0.00000000E+00  0.00000000E+00  0.00000000E+00
  0.00000000E+00  0.00000000E+00  0.00000000E+00
  0.00000000E+00  0.00000000E+00  0.00000000E+00
  0.00000000E+00  0.00000000E+00  0.00000000E+00
  0.00000000E+00  0.00000000E+00  0.00000000E+00
  0.00000000E+00  0.00000000E+00  0.00000000E+00
  0.00000000E+00  0.00000000E+00  0.00000000E+00
  0.00000000E+00  0.00000000E+00  0.00000000E+00
  0.00000000E+00  0.00000000E+00  0.00000000E+00
  0.00000000E+00  0.00000000E+00  0.00000000E+00
  0.00000000E+00  0.00000000E+00  0.00000000E+00
  0.00000000E+00  0.00000000E+00  0.00000000E+00
  0.00000000E+00  0.00000000E+00  0.00000000E+00
  0.00000000E+00  0.00000000E+00  0.00000000E+00
  0.00000000E+00  0.00000000E+00  0.00000000E+00
  0.00000000E+00  0.00000000E+00  0.00000000E+00
  0.00000000E+00  0.00000000E+00  0.00000000E+00
  0.00000000E+00  0.00000000E+00  0.00000000E+00
  0.00000000E+00  0.00000000E+00  0.00000000E+00
  0.00000000E+00  0.00000000E+00  0.00000000E+00
  0.00000000E+00  0.00000000E+00  0.00000000E+00
  0.00000000E+00  0.00000000E+00  0.00000000E+00
  0.00000000E+00  0.00000000E+00  0.00000000E+00
  0.00000000E+00  0.00000000E+00  0.00000000E+00
  0.00000000E+00  0.00000000E+00  0.00000000E+00
  0.00000000E+00  0.00000000E+00  0.00000000E+00
  0.00000000E+00  0.00000000E+00  0.00000000E+00
  0.00000000E+00  0.00000000E+00  0.00000000E+00
  0.00000000E+00  0.00000000E+00  0.00000000E+00
