Al   Sc   N                             
   1.00000000000000     
    -9.9764690402120557   -0.0014050434059936   -0.0010572941677180
    -4.9847119919895650    8.6364186959403195   -0.0000000115908501
     0.0004990167424090    0.0002879968714863   -8.5621239975093406
   Al   Sc   N 
    34     2    36
Direct
  0.1141077524092466  0.0915820109502761  0.3461959683930260
  0.2231622345360620  0.2050855478376263  0.0959079163224033
  0.7742601011924748  0.0984069732311781  0.8536913115966485
  0.8905575375777701  0.2045541828339523  0.6039775586477489
  0.4434867751307934  0.0949232396973372  0.3482319634480433
  0.5531594822379020  0.2060493882655763  0.0977826743159440
  0.1131327115052727  0.0933388109400681  0.8488055860735386
  0.2219753400545130  0.2056790403824209  0.5986938870742833
  0.7769076301719195  0.0939400339767218  0.3417564059599130
  0.8915331101744215  0.2031466287100230  0.0949572817467157
  0.4445272764113071  0.0944030023608917  0.8459730857177092
  0.5527096952583079  0.2091187022482046  0.5960828821308652
  0.1141077337163097  0.4276437876277299  0.3461958964723522
  0.2227382149159354  0.5379016112618373  0.0973825175286436
  0.7781112823101353  0.4276110948610139  0.8516217486939155
  0.8905575292062622  0.5382215170706743  0.6039775256778270
  0.4413167989822639  0.4288400335185614  0.3448921904247868
  0.5523700429373193  0.5404815523443958  0.0920609617542212
  0.1131326602613498  0.4268620442855493  0.8488056471131316
  0.2259448975131235  0.5355302115264635  0.5969119343046074
  0.8915330955044922  0.5386535814134490  0.0949573848746539
  0.4432351509574843  0.4264829537242605  0.8485891151768001
  0.5502602251396667  0.5415364700566272  0.6041307941484959
  0.1146887150044265  0.7593224162795380  0.3450852967976132
  0.2227382450244377  0.8726935179695090  0.0973825390857854
  0.7742600660573373  0.7606662943703739  0.8536912876564031
  0.4413168113930297  0.7631764351642474  0.3448921508500717
  0.5531595081461660  0.8741242349385345  0.0977827098266459
  0.1160987763511088  0.7586173729843608  0.8521502469033564
  0.2259449534834204  0.8718582623370636  0.5969119103756171
  0.7769076161287600  0.7624857490760348  0.3417564546009686
  0.8899544820042209  0.8716893576380684  0.0994194856687756
  0.4432352089551159  0.7636151967718945  0.8485891282085944
  0.5527097182862235  0.8715047008487673  0.5960828159873444
  0.7766228719770396  0.4283553874556176  0.3537977058914166
  0.8888105365037475  0.8722612422488467  0.6041979552310437
  0.2210885888347534  0.2061223670529770  0.3624646703138339
  0.1127041611400870  0.0946678121860529  0.1089323854540396
  0.8910932035905077  0.2046468129733441  0.8605168887332297
  0.7672424634569452  0.1123132687278883  0.6157826817904422
  0.5553380623004358  0.2065171815182580  0.3580629757424134
  0.4429844132440337  0.0951744707964508  0.1139771888246415
  0.2237607830091761  0.2047862412742205  0.8596198621682305
  0.1125819355585094  0.0930668579571545  0.6129745265557318
  0.8984301332185680  0.1873668333749094  0.3599558535379259
  0.7764442945348975  0.0957097585592450  0.1057489896649955
  0.5526673368566293  0.2057174403635500  0.8643187072898471
  0.4453217914742282  0.0940057734930733  0.6082955327904784
  0.2228583569773761  0.5375753589769445  0.3583262649449210
  0.1127041754227776  0.4259616428911386  0.1089323096743016
  0.8910931663067885  0.5375931741934608  0.8605169260959684
  0.7780804992646821  0.4276265194936997  0.6145443796994670
  0.5364675063712596  0.5484327433741925  0.3647146424545795
  0.4445216563114016  0.4279944399611395  0.1089619417393806
  0.2226608020914540  0.5379662552940800  0.8637080661333627
  0.1125818723688923  0.4276849078497094  0.6129746070281996
  0.8984301626549041  0.5475361709588000  0.3599557522623940
  0.7765927393492618  0.4283703990396148  0.0984493738617971
  0.5537134420653516  0.5398098165136389  0.8571581813033333
  0.4433521774111640  0.4264358627699991  0.6136290053966391
  0.2228584090175829  0.8728995173915308  0.3583262512901655
  0.1129486209530342  0.7601925022327478  0.1095866602503648
  0.8902377497658449  0.8715476585373523  0.8646180456616150
  0.7672424226757002  0.7537777422375385  0.6157826246802500
  0.5553380752885673  0.8714777328345846  0.3580629523915491
  0.4445216920235282  0.7608172945338794  0.1089619860290512
  0.2226608441367617  0.8727061998016765  0.8637080983276633
  0.1301383683690034  0.7515976805510007  0.6109064181524175
  0.8885635882388243  0.8723847648654441  0.3478218072623136
  0.7764442701468681  0.7611794839774007  0.1057490330445603
  0.5526673606990897  0.8749482437837770  0.8643187606907148
  0.4433522208135727  0.7635453556938216  0.6136290260630517
 
  0.00000000E+00  0.00000000E+00  0.00000000E+00
  0.00000000E+00  0.00000000E+00  0.00000000E+00
  0.00000000E+00  0.00000000E+00  0.00000000E+00
  0.00000000E+00  0.00000000E+00  0.00000000E+00
  0.00000000E+00  0.00000000E+00  0.00000000E+00
  0.00000000E+00  0.00000000E+00  0.00000000E+00
  0.00000000E+00  0.00000000E+00  0.00000000E+00
  0.00000000E+00  0.00000000E+00  0.00000000E+00
  0.00000000E+00  0.00000000E+00  0.00000000E+00
  0.00000000E+00  0.00000000E+00  0.00000000E+00
  0.00000000E+00  0.00000000E+00  0.00000000E+00
  0.00000000E+00  0.00000000E+00  0.00000000E+00
  0.00000000E+00  0.00000000E+00  0.00000000E+00
  0.00000000E+00  0.00000000E+00  0.00000000E+00
  0.00000000E+00  0.00000000E+00  0.00000000E+00
  0.00000000E+00  0.00000000E+00  0.00000000E+00
  0.00000000E+00  0.00000000E+00  0.00000000E+00
  0.00000000E+00  0.00000000E+00  0.00000000E+00
  0.00000000E+00  0.00000000E+00  0.00000000E+00
  0.00000000E+00  0.00000000E+00  0.00000000E+00
  0.00000000E+00  0.00000000E+00  0.00000000E+00
  0.00000000E+00  0.00000000E+00  0.00000000E+00
  0.00000000E+00  0.00000000E+00  0.00000000E+00
  0.00000000E+00  0.00000000E+00  0.00000000E+00
  0.00000000E+00  0.00000000E+00  0.00000000E+00
  0.00000000E+00  0.00000000E+00  0.00000000E+00
  0.00000000E+00  0.00000000E+00  0.00000000E+00
  0.00000000E+00  0.00000000E+00  0.00000000E+00
  0.00000000E+00  0.00000000E+00  0.00000000E+00
  0.00000000E+00  0.00000000E+00  0.00000000E+00
  0.00000000E+00  0.00000000E+00  0.00000000E+00
  0.00000000E+00  0.00000000E+00  0.00000000E+00
  0.00000000E+00  0.00000000E+00  0.00000000E+00
  0.00000000E+00  0.00000000E+00  0.00000000E+00
  0.00000000E+00  0.00000000E+00  0.00000000E+00
  0.00000000E+00  0.00000000E+00  0.00000000E+00
  0.00000000E+00  0.00000000E+00  0.00000000E+00
  0.00000000E+00  0.00000000E+00  0.00000000E+00
  0.00000000E+00  0.00000000E+00  0.00000000E+00
  0.00000000E+00  0.00000000E+00  0.00000000E+00
  0.00000000E+00  0.00000000E+00  0.00000000E+00
  0.00000000E+00  0.00000000E+00  0.00000000E+00
  0.00000000E+00  0.00000000E+00  0.00000000E+00
  0.00000000E+00  0.00000000E+00  0.00000000E+00
  0.00000000E+00  0.00000000E+00  0.00000000E+00
  0.00000000E+00  0.00000000E+00  0.00000000E+00
  0.00000000E+00  0.00000000E+00  0.00000000E+00
  0.00000000E+00  0.00000000E+00  0.00000000E+00
  0.00000000E+00  0.00000000E+00  0.00000000E+00
  0.00000000E+00  0.00000000E+00  0.00000000E+00
  0.00000000E+00  0.00000000E+00  0.00000000E+00
  0.00000000E+00  0.00000000E+00  0.00000000E+00
  0.00000000E+00  0.00000000E+00  0.00000000E+00
  0.00000000E+00  0.00000000E+00  0.00000000E+00
  0.00000000E+00  0.00000000E+00  0.00000000E+00
  0.00000000E+00  0.00000000E+00  0.00000000E+00
  0.00000000E+00  0.00000000E+00  0.00000000E+00
  0.00000000E+00  0.00000000E+00  0.00000000E+00
  0.00000000E+00  0.00000000E+00  0.00000000E+00
  0.00000000E+00  0.00000000E+00  0.00000000E+00
  0.00000000E+00  0.00000000E+00  0.00000000E+00
  0.00000000E+00  0.00000000E+00  0.00000000E+00
  0.00000000E+00  0.00000000E+00  0.00000000E+00
  0.00000000E+00  0.00000000E+00  0.00000000E+00
  0.00000000E+00  0.00000000E+00  0.00000000E+00
  0.00000000E+00  0.00000000E+00  0.00000000E+00
  0.00000000E+00  0.00000000E+00  0.00000000E+00
  0.00000000E+00  0.00000000E+00  0.00000000E+00
  0.00000000E+00  0.00000000E+00  0.00000000E+00
  0.00000000E+00  0.00000000E+00  0.00000000E+00
  0.00000000E+00  0.00000000E+00  0.00000000E+00
  0.00000000E+00  0.00000000E+00  0.00000000E+00
