supercell of POSCAR                     
   1.01800000000000     
     3.1310994802600001   -5.4896946145000003   10.0244832682999991
    -9.4821132118399998   -5.5089477087900001    0.0170740616273000
     6.3359946057599998  -11.0114127993000004  -10.0652216442999993
   Al   Gd   N 
    84    11    96
Direct
  0.0873017553956146  0.5856428523567700  0.3349143311330067
  0.4977884951548575  0.3258304673170684  0.2537827357837230
  0.0871131831003282  0.0857986520558498  0.3333901415118987
  0.2520569877818417  0.5803625262761614  0.4911868329832956
  0.3312400652754164  0.3196947224846198  0.0789793076537819
  0.4169225636776659  0.0839639318685741  0.1690142660874159
  0.0078400213810568  0.8424196748418993  0.2556208446873711
  0.1699792739858452  0.3344823444619678  0.4084298244189668
  0.2477843527606183  0.0873700044401744  0.4947338037213456
  0.1637357358258100  0.8361103044173248  0.4143282826368875
  0.3382070228157659  0.6706726766133073  0.3280761685308065
  0.1542966312718619  0.6695016191339604  0.1685183383333069
  0.2625134352178407  0.4168060473976567  0.2440892395882130
  0.3348526877548039  0.1672424866544446  0.3313859742338181
  0.0044920416201535  0.6743192835514193  0.4941584100040188
  0.1694299750336867  0.1628360159174633  0.1686261218929346
  0.2543111526015380  0.9203975509008657  0.2535577395111659
  0.4131365931424895  0.4164175068585863  0.4128010179060482
  0.4983023240969615  0.1622059221946017  0.4957825703894372
  0.0973223005706885  0.9177663351555267  0.0818784463105757
  0.4185393612692039  0.9201929557645343  0.4101814487381006
  0.0889682948809920  0.5824863161037541  0.8349620312154897
  0.4993847030702199  0.3226182973249152  0.7553650533160692
  0.0873913255847469  0.0827520953320118  0.8359070558546620
  0.2526678763587000  0.5714739992034126  0.9959838796380467
  0.3314493787123212  0.3187913718741981  0.5766385478458389
  0.4171113175468832  0.0869519374441765  0.6705764020684910
  0.0088552728007727  0.8417091410804218  0.7571125826828791
  0.1679591343239082  0.3254802696128749  0.9124324020112127
  0.2532485258723369  0.0755402106495424  0.0006348437515271
  0.1689514114033415  0.8334227231752891  0.9227955008653055
  0.3362343346357264  0.6729714553949933  0.8400730892452657
  0.1538702456438727  0.6743227976866351  0.6652969462507272
  0.2491863513914794  0.4009975584828922  0.7513160311538130
  0.3347554972817122  0.1628053229423614  0.8346819178101441
  0.0082424054357091  0.6740453516489353  0.9956070891069544
  0.1671471359961743  0.1586805042082204  0.6689281502949669
  0.2529138874482584  0.9189835520273846  0.7562442824494156
  0.4115862857132484  0.4139861727065934  0.9149138082904074
  0.4990907428083204  0.1640225019489492  0.9977846707452258
  0.0829060111928186  0.9235499497984136  0.5792658703745488
  0.4181594166961204  0.9193979911673864  0.9148482644812574
  0.5814402000402623  0.5867738758130656  0.3274360106200973
  0.0035320066477809  0.3256810544362310  0.2536631767081872
  0.5862400153771645  0.0875115461473257  0.3334422736620084
  0.7484501115974993  0.5793066510396940  0.4929715905145642
  0.8280203068534746  0.3225485258917118  0.0799704876320604
  0.9201749496092262  0.0870410279022309  0.1703100187305182
  0.5080380673771714  0.8454532637931464  0.2572451938723930
  0.6669764623273906  0.3335792559060806  0.4117027824368407
  0.7480310699358057  0.0873519130550733  0.4955769296727439
  0.6614981404710676  0.8373374870102381  0.4158423606587576
  0.8327563096977428  0.6744519247342069  0.3402201392957096
  0.6460621405101250  0.6812702660566075  0.1642818627501796
  0.7496130582811347  0.4027595821763441  0.2522760918109199
  0.8355915187756437  0.1663069917406617  0.3329917232787807
  0.5041792851586848  0.6735914216127696  0.4906860716002015
  0.6670164082680401  0.1626553425662749  0.1686349247133521
  0.7528389282719274  0.9226502739781139  0.2551664229707882
  0.9125213119673319  0.4152750551292073  0.4151712297577248
  0.9992966882675489  0.1629634683577592  0.4964021434163897
  0.5831558554754679  0.9253977865998024  0.0787699124516408
  0.9197781686717690  0.9207293495163142  0.4114687212428620
  0.5890419078419740  0.5840836869690875  0.8332777375147771
  0.9994758656842322  0.3221208694903694  0.7552612587214753
  0.5859439298494920  0.0853165330664112  0.8354179300862299
  0.7480296413816703  0.5776872429324484  0.9976587427491737
  0.8313044259059978  0.3186303167700970  0.5788870030688287
  0.9178914734579209  0.0865377397071043  0.6717343466204539
  0.5069178887813237  0.8437578236218215  0.7556742699983943
  0.6649705987104895  0.3345638013277181  0.9178581184830463
  0.7492066505795592  0.0877488686674397  0.9972324142868132
  0.6626259855670611  0.8381849246401245  0.9172448351781810
  0.8359416068361867  0.6731982253718982  0.8419359802225372
  0.6527541107565398  0.6752190572505583  0.6648607629392416
  0.7485531685218376  0.4013112265719840  0.7540608087113085
  0.8343584869313503  0.1651379690473789  0.8359636810819424
  0.5102282152545143  0.6754504567696245  0.9907865861550746
  0.6671810346528133  0.1586787343819580  0.6696241039736961
  0.7537291542001796  0.9200883409855081  0.7571278951560103
  0.9133888187874319  0.4145062652942428  0.9170869390649443
  0.0008051969637961  0.1624613584325019  0.9994929917297242
  0.5825872127429434  0.9240320487413456  0.5792678698096196
  0.9238600124446421  0.9207507815276941  0.9131023306089503
  0.3677431901335879  0.7729500954027060  0.1070532723295514
  0.0855876380296365  0.4306192679398322  0.0853133650873090
  0.3970705818037104  0.5793861001986613  0.6779653336251457
  0.3317161773351032  0.8353526280456407  0.5828736330826416
  0.0831259882733733  0.4212619512100702  0.5834686976300816
  0.8909863132359064  0.5820003147696369  0.1805684753965764
  0.8380129294048757  0.8361979066600327  0.0836145698231263
  0.5546990868102952  0.4357956184132945  0.0963963732287922
  0.8957112746811262  0.5789625887924217  0.6790693068884934
  0.8315136298106722  0.8363103064002786  0.5848687351663386
  0.5806905798955597  0.4196863519384095  0.5848256777157133
  0.2107416228458092  0.5822584583847998  0.2699640696532271
  0.0217605458805039  0.6196985939203188  0.1033171558225661
  0.1344457046587877  0.3232892479457377  0.1983183527537804
  0.2126880984552528  0.0838448066072033  0.2714626666173316
  0.3812289232876722  0.5854143550688420  0.4329029536142173
  0.4482773262347877  0.3203749777664626  0.0087765872997636
  0.0449279583579383  0.0827374438890587  0.1041322868860064
  0.1325949270704854  0.8394857024094193  0.1889700927936673
  0.2974760675301553  0.3337011532545162  0.3477200584806681
  0.3761131139257117  0.0822373912587793  0.4338821305168068
  0.4779398771101242  0.8388276849494005  0.0069202479297914
  0.2931381232888057  0.8343015289216282  0.3548036891348048
  0.4696545388982756  0.6876065173487902  0.2775672818107253
  0.2513144393517095  0.6263316091652484  0.0980897990371759
  0.3830727193340380  0.3880838283833441  0.1804707209419192
  0.4627672073467011  0.1632525192432368  0.2728591207149336
  0.1315584118680277  0.6668547680522323  0.4340116166329437
  0.2229867331670050  0.4048647714545339  0.0060709814301063
  0.2916313290690695  0.1576646439290528  0.1022758525476988
  0.3855724126855975  0.9274377480923377  0.2015280101519963
  0.0414073437341855  0.4196993431360241  0.3527552726062453
  0.1275567433587170  0.1726968058719152  0.4338610299899202
  0.2171775047050915  0.9161701845950034  0.0189247170390701
  0.0486408048523970  0.9250886521229731  0.3531354659630779
  0.2174861855967407  0.5798049420507070  0.7654724096777485
  0.0304686331109849  0.6124346324879895  0.6007443980652738
  0.1285929580959859  0.3170327571300646  0.6984684904510061
  0.2124773224978540  0.0820916299948777  0.7716329655237431
  0.3823927539777685  0.5830972866210047  0.9362785509467031
  0.4485519045648800  0.3200948258648566  0.5093048287502384
  0.0405523564220545  0.0855042735315905  0.6033952868729031
  0.1321869448322985  0.8420791059032666  0.6855343869463084
  0.2953721596939758  0.3276072024668792  0.8504807153172820
  0.3780619409588510  0.0812121788608522  0.9349195561113177
  0.4751510615077947  0.8389786701484709  0.5072934277172862
  0.2935472965477004  0.8342509592764102  0.8557209982536591
  0.4709382437871454  0.6847581658502833  0.7855631711239823
  0.2623427495971313  0.6538677235587755  0.5936397876035215
  0.3735634579518106  0.3816838087552341  0.6841330990209684
  0.4620135244553722  0.1623271461544675  0.7736311879743809
  0.1349820807350923  0.6610602652649646  0.9329384530670382
  0.2247560353774958  0.4128465458386970  0.5071035012579443
  0.2899503110935484  0.1574645534945276  0.6012599848571227
  0.3843590563998944  0.9277492178340552  0.7011680676501655
  0.0424767323760378  0.4163218209777639  0.8520501610905242
  0.1290610782065968  0.1635963476542770  0.9365434636066468
  0.1966408692267834  0.9317894955868908  0.5095734557063594
  0.0534568678406089  0.9212425018302923  0.8546533620347674
  0.7158678391713806  0.5821547230815654  0.2655724490785261
  0.5237267936009573  0.6300513610971663  0.0983447873597498
  0.6310825383326630  0.3189300780721283  0.2008752757948642
  0.7134474807813831  0.0851470501447551  0.2722784611988089
  0.8799991965237552  0.5841480566757156  0.4375823053120627
  0.9492180805993300  0.3213762827072486  0.0129796474250909
  0.5421181115216953  0.0874916298862232  0.1030960425705132
  0.6317382777572575  0.8489132930196703  0.1865754367914789
  0.7960264816241249  0.3304248119831428  0.3530385637974476
  0.8772296196936011  0.0822629963411288  0.4347389453402357
  0.9828816986545021  0.8399436009867856  0.0079047639459091
  0.7916605096677998  0.8372687218201733  0.3566222915936876
  0.9678190813975789  0.6863287893350858  0.2889824078779313
  0.7591787095744138  0.6610283278309126  0.0954445903762959
  0.8747743998808275  0.3835090292083478  0.1869503101777497
  0.9640271285834956  0.1650551143551979  0.2733010955459108
  0.6319597481505070  0.6657052511429384  0.4298406251839353
  0.7138026863095845  0.4141904405384622  0.0160535292850881
  0.7921420456124082  0.1582966551129203  0.1027450292520200
  0.8854809430577788  0.9290177968089566  0.2028538371989512
  0.5436213331579935  0.4196894381309306  0.3522959369915952
  0.6271619144483154  0.1716298149310092  0.4348358732489572
  0.7000807695788325  0.9320510012204011  0.0111119046029771
  0.5493583063537386  0.9271306831907111  0.3540522493512839
  0.7173719871652651  0.5806447107505619  0.7656010289200097
  0.5305177474359084  0.6127901639153421  0.5983937353371758
  0.6293878052084096  0.3167705899113429  0.6998996036919820
  0.7128164526839029  0.0829628664162456  0.7727537719283220
  0.8807936557352605  0.5830929560499314  0.9389777306382427
  0.9485795263154770  0.3202180028804875  0.5114195517258153
  0.5403636963447624  0.0861413650161822  0.6032198054413840
  0.6324980256078234  0.8432548647544493  0.6858284528585372
  0.7940677659810618  0.3304700080736822  0.8551264908290506
  0.8784477409633382  0.0815417734944148  0.9360933698422471
  0.9738839702145867  0.8391784351949383  0.5084839340329239
  0.7946495548448382  0.8362138925483720  0.8576433000879859
  0.9703742973614027  0.6832959228502276  0.7870928669146480
  0.7617093830840105  0.6551995186423412  0.5939981876949005
  0.8722591330846328  0.3811740189138035  0.6865202383181668
  0.9624007659213021  0.1619973584438839  0.7750506107526931
  0.6367066916533162  0.6659560799532045  0.9300932826182517
  0.7232214129921744  0.4120059290251277  0.5098459792343775
  0.7904593776441615  0.1566572211580208  0.6023770706228788
  0.8861266339959428  0.9275677427987858  0.7035573635801811
  0.5420327302998587  0.4192502370962643  0.8513462557271936
  0.6274583579385506  0.1706535687137105  0.9351379912071778
  0.6971979379370126  0.9319494137359712  0.5106669412862317
  0.5486272094756686  0.9242686992107920  0.8527590879355031
 
  0.00000000E+00  0.00000000E+00  0.00000000E+00
  0.00000000E+00  0.00000000E+00  0.00000000E+00
  0.00000000E+00  0.00000000E+00  0.00000000E+00
  0.00000000E+00  0.00000000E+00  0.00000000E+00
  0.00000000E+00  0.00000000E+00  0.00000000E+00
  0.00000000E+00  0.00000000E+00  0.00000000E+00
  0.00000000E+00  0.00000000E+00  0.00000000E+00
  0.00000000E+00  0.00000000E+00  0.00000000E+00
  0.00000000E+00  0.00000000E+00  0.00000000E+00
  0.00000000E+00  0.00000000E+00  0.00000000E+00
  0.00000000E+00  0.00000000E+00  0.00000000E+00
  0.00000000E+00  0.00000000E+00  0.00000000E+00
  0.00000000E+00  0.00000000E+00  0.00000000E+00
  0.00000000E+00  0.00000000E+00  0.00000000E+00
  0.00000000E+00  0.00000000E+00  0.00000000E+00
  0.00000000E+00  0.00000000E+00  0.00000000E+00
  0.00000000E+00  0.00000000E+00  0.00000000E+00
  0.00000000E+00  0.00000000E+00  0.00000000E+00
  0.00000000E+00  0.00000000E+00  0.00000000E+00
  0.00000000E+00  0.00000000E+00  0.00000000E+00
  0.00000000E+00  0.00000000E+00  0.00000000E+00
  0.00000000E+00  0.00000000E+00  0.00000000E+00
  0.00000000E+00  0.00000000E+00  0.00000000E+00
  0.00000000E+00  0.00000000E+00  0.00000000E+00
  0.00000000E+00  0.00000000E+00  0.00000000E+00
  0.00000000E+00  0.00000000E+00  0.00000000E+00
  0.00000000E+00  0.00000000E+00  0.00000000E+00
  0.00000000E+00  0.00000000E+00  0.00000000E+00
  0.00000000E+00  0.00000000E+00  0.00000000E+00
  0.00000000E+00  0.00000000E+00  0.00000000E+00
  0.00000000E+00  0.00000000E+00  0.00000000E+00
  0.00000000E+00  0.00000000E+00  0.00000000E+00
  0.00000000E+00  0.00000000E+00  0.00000000E+00
  0.00000000E+00  0.00000000E+00  0.00000000E+00
  0.00000000E+00  0.00000000E+00  0.00000000E+00
  0.00000000E+00  0.00000000E+00  0.00000000E+00
  0.00000000E+00  0.00000000E+00  0.00000000E+00
  0.00000000E+00  0.00000000E+00  0.00000000E+00
  0.00000000E+00  0.00000000E+00  0.00000000E+00
  0.00000000E+00  0.00000000E+00  0.00000000E+00
  0.00000000E+00  0.00000000E+00  0.00000000E+00
  0.00000000E+00  0.00000000E+00  0.00000000E+00
  0.00000000E+00  0.00000000E+00  0.00000000E+00
  0.00000000E+00  0.00000000E+00  0.00000000E+00
  0.00000000E+00  0.00000000E+00  0.00000000E+00
  0.00000000E+00  0.00000000E+00  0.00000000E+00
  0.00000000E+00  0.00000000E+00  0.00000000E+00
  0.00000000E+00  0.00000000E+00  0.00000000E+00
  0.00000000E+00  0.00000000E+00  0.00000000E+00
  0.00000000E+00  0.00000000E+00  0.00000000E+00
  0.00000000E+00  0.00000000E+00  0.00000000E+00
  0.00000000E+00  0.00000000E+00  0.00000000E+00
  0.00000000E+00  0.00000000E+00  0.00000000E+00
  0.00000000E+00  0.00000000E+00  0.00000000E+00
  0.00000000E+00  0.00000000E+00  0.00000000E+00
  0.00000000E+00  0.00000000E+00  0.00000000E+00
  0.00000000E+00  0.00000000E+00  0.00000000E+00
  0.00000000E+00  0.00000000E+00  0.00000000E+00
  0.00000000E+00  0.00000000E+00  0.00000000E+00
  0.00000000E+00  0.00000000E+00  0.00000000E+00
  0.00000000E+00  0.00000000E+00  0.00000000E+00
  0.00000000E+00  0.00000000E+00  0.00000000E+00
  0.00000000E+00  0.00000000E+00  0.00000000E+00
  0.00000000E+00  0.00000000E+00  0.00000000E+00
  0.00000000E+00  0.00000000E+00  0.00000000E+00
  0.00000000E+00  0.00000000E+00  0.00000000E+00
  0.00000000E+00  0.00000000E+00  0.00000000E+00
  0.00000000E+00  0.00000000E+00  0.00000000E+00
  0.00000000E+00  0.00000000E+00  0.00000000E+00
  0.00000000E+00  0.00000000E+00  0.00000000E+00
  0.00000000E+00  0.00000000E+00  0.00000000E+00
  0.00000000E+00  0.00000000E+00  0.00000000E+00
  0.00000000E+00  0.00000000E+00  0.00000000E+00
  0.00000000E+00  0.00000000E+00  0.00000000E+00
  0.00000000E+00  0.00000000E+00  0.00000000E+00
  0.00000000E+00  0.00000000E+00  0.00000000E+00
  0.00000000E+00  0.00000000E+00  0.00000000E+00
  0.00000000E+00  0.00000000E+00  0.00000000E+00
  0.00000000E+00  0.00000000E+00  0.00000000E+00
  0.00000000E+00  0.00000000E+00  0.00000000E+00
  0.00000000E+00  0.00000000E+00  0.00000000E+00
  0.00000000E+00  0.00000000E+00  0.00000000E+00
  0.00000000E+00  0.00000000E+00  0.00000000E+00
  0.00000000E+00  0.00000000E+00  0.00000000E+00
  0.00000000E+00  0.00000000E+00  0.00000000E+00
  0.00000000E+00  0.00000000E+00  0.00000000E+00
  0.00000000E+00  0.00000000E+00  0.00000000E+00
  0.00000000E+00  0.00000000E+00  0.00000000E+00
  0.00000000E+00  0.00000000E+00  0.00000000E+00
  0.00000000E+00  0.00000000E+00  0.00000000E+00
  0.00000000E+00  0.00000000E+00  0.00000000E+00
  0.00000000E+00  0.00000000E+00  0.00000000E+00
  0.00000000E+00  0.00000000E+00  0.00000000E+00
  0.00000000E+00  0.00000000E+00  0.00000000E+00
  0.00000000E+00  0.00000000E+00  0.00000000E+00
  0.00000000E+00  0.00000000E+00  0.00000000E+00
  0.00000000E+00  0.00000000E+00  0.00000000E+00
  0.00000000E+00  0.00000000E+00  0.00000000E+00
  0.00000000E+00  0.00000000E+00  0.00000000E+00
  0.00000000E+00  0.00000000E+00  0.00000000E+00
  0.00000000E+00  0.00000000E+00  0.00000000E+00
  0.00000000E+00  0.00000000E+00  0.00000000E+00
  0.00000000E+00  0.00000000E+00  0.00000000E+00
  0.00000000E+00  0.00000000E+00  0.00000000E+00
  0.00000000E+00  0.00000000E+00  0.00000000E+00
  0.00000000E+00  0.00000000E+00  0.00000000E+00
  0.00000000E+00  0.00000000E+00  0.00000000E+00
  0.00000000E+00  0.00000000E+00  0.00000000E+00
  0.00000000E+00  0.00000000E+00  0.00000000E+00
  0.00000000E+00  0.00000000E+00  0.00000000E+00
  0.00000000E+00  0.00000000E+00  0.00000000E+00
  0.00000000E+00  0.00000000E+00  0.00000000E+00
  0.00000000E+00  0.00000000E+00  0.00000000E+00
  0.00000000E+00  0.00000000E+00  0.00000000E+00
  0.00000000E+00  0.00000000E+00  0.00000000E+00
  0.00000000E+00  0.00000000E+00  0.00000000E+00
  0.00000000E+00  0.00000000E+00  0.00000000E+00
  0.00000000E+00  0.00000000E+00  0.00000000E+00
  0.00000000E+00  0.00000000E+00  0.00000000E+00
  0.00000000E+00  0.00000000E+00  0.00000000E+00
  0.00000000E+00  0.00000000E+00  0.00000000E+00
  0.00000000E+00  0.00000000E+00  0.00000000E+00
  0.00000000E+00  0.00000000E+00  0.00000000E+00
  0.00000000E+00  0.00000000E+00  0.00000000E+00
  0.00000000E+00  0.00000000E+00  0.00000000E+00
  0.00000000E+00  0.00000000E+00  0.00000000E+00
  0.00000000E+00  0.00000000E+00  0.00000000E+00
  0.00000000E+00  0.00000000E+00  0.00000000E+00
  0.00000000E+00  0.00000000E+00  0.00000000E+00
  0.00000000E+00  0.00000000E+00  0.00000000E+00
  0.00000000E+00  0.00000000E+00  0.00000000E+00
  0.00000000E+00  0.00000000E+00  0.00000000E+00
  0.00000000E+00  0.00000000E+00  0.00000000E+00
  0.00000000E+00  0.00000000E+00  0.00000000E+00
  0.00000000E+00  0.00000000E+00  0.00000000E+00
  0.00000000E+00  0.00000000E+00  0.00000000E+00
  0.00000000E+00  0.00000000E+00  0.00000000E+00
  0.00000000E+00  0.00000000E+00  0.00000000E+00
  0.00000000E+00  0.00000000E+00  0.00000000E+00
  0.00000000E+00  0.00000000E+00  0.00000000E+00
  0.00000000E+00  0.00000000E+00  0.00000000E+00
  0.00000000E+00  0.00000000E+00  0.00000000E+00
  0.00000000E+00  0.00000000E+00  0.00000000E+00
  0.00000000E+00  0.00000000E+00  0.00000000E+00
  0.00000000E+00  0.00000000E+00  0.00000000E+00
  0.00000000E+00  0.00000000E+00  0.00000000E+00
  0.00000000E+00  0.00000000E+00  0.00000000E+00
  0.00000000E+00  0.00000000E+00  0.00000000E+00
  0.00000000E+00  0.00000000E+00  0.00000000E+00
  0.00000000E+00  0.00000000E+00  0.00000000E+00
  0.00000000E+00  0.00000000E+00  0.00000000E+00
  0.00000000E+00  0.00000000E+00  0.00000000E+00
  0.00000000E+00  0.00000000E+00  0.00000000E+00
  0.00000000E+00  0.00000000E+00  0.00000000E+00
  0.00000000E+00  0.00000000E+00  0.00000000E+00
  0.00000000E+00  0.00000000E+00  0.00000000E+00
  0.00000000E+00  0.00000000E+00  0.00000000E+00
  0.00000000E+00  0.00000000E+00  0.00000000E+00
  0.00000000E+00  0.00000000E+00  0.00000000E+00
  0.00000000E+00  0.00000000E+00  0.00000000E+00
  0.00000000E+00  0.00000000E+00  0.00000000E+00
  0.00000000E+00  0.00000000E+00  0.00000000E+00
  0.00000000E+00  0.00000000E+00  0.00000000E+00
  0.00000000E+00  0.00000000E+00  0.00000000E+00
  0.00000000E+00  0.00000000E+00  0.00000000E+00
  0.00000000E+00  0.00000000E+00  0.00000000E+00
  0.00000000E+00  0.00000000E+00  0.00000000E+00
  0.00000000E+00  0.00000000E+00  0.00000000E+00
  0.00000000E+00  0.00000000E+00  0.00000000E+00
  0.00000000E+00  0.00000000E+00  0.00000000E+00
  0.00000000E+00  0.00000000E+00  0.00000000E+00
  0.00000000E+00  0.00000000E+00  0.00000000E+00
  0.00000000E+00  0.00000000E+00  0.00000000E+00
  0.00000000E+00  0.00000000E+00  0.00000000E+00
  0.00000000E+00  0.00000000E+00  0.00000000E+00
  0.00000000E+00  0.00000000E+00  0.00000000E+00
  0.00000000E+00  0.00000000E+00  0.00000000E+00
  0.00000000E+00  0.00000000E+00  0.00000000E+00
  0.00000000E+00  0.00000000E+00  0.00000000E+00
  0.00000000E+00  0.00000000E+00  0.00000000E+00
  0.00000000E+00  0.00000000E+00  0.00000000E+00
  0.00000000E+00  0.00000000E+00  0.00000000E+00
  0.00000000E+00  0.00000000E+00  0.00000000E+00
  0.00000000E+00  0.00000000E+00  0.00000000E+00
  0.00000000E+00  0.00000000E+00  0.00000000E+00
  0.00000000E+00  0.00000000E+00  0.00000000E+00
  0.00000000E+00  0.00000000E+00  0.00000000E+00
  0.00000000E+00  0.00000000E+00  0.00000000E+00
  0.00000000E+00  0.00000000E+00  0.00000000E+00
  0.00000000E+00  0.00000000E+00  0.00000000E+00
  0.00000000E+00  0.00000000E+00  0.00000000E+00
