supercell of icsd_608626.cif            
   1.12951035736429     
     9.1360158603829511    0.2218823744743919   -0.0285144335063170
    -4.3762597069107105    8.2570745087735276   -0.1108367441890102
    -0.0360038970204038   -0.1672011778343900    9.2437815835824075
   Al   La   N 
    22    14    36
Direct
  0.1888298817359342  0.0557796061970492  0.2869187953544952
  0.1272496075859024  0.2404036398439189  0.5048555438743421
  0.7739651501184213  0.2216967871778976  0.0016620177363791
  0.5273980416093735  0.0617327064699396  0.2174920071144442
  0.2405121186332124  0.1439033253203874  0.7303652723858534
  0.7989858527479967  0.2423245804212399  0.4675005911711807
  0.2367391082601245  0.4953124777219529  0.2579874123772257
  0.7498790995851721  0.3639283219160703  0.7167115395587871
  0.7688258137139314  0.5389342438138272  0.9984447908757161
  0.6390441143011003  0.5714893955112643  0.2026174647495296
  0.2305434303203384  0.4875091813459349  0.7634576177570338
  0.9204910684410166  0.4614488323384904  0.2388819275345071
  0.7661472500827387  0.5287589287997463  0.4519328026219469
  0.4366479349732089  0.5899190003805330  0.0218915009114724
  0.2258196596668043  0.7907786997855268  0.2738437916519274
  0.1614353078583619  0.9292512787660314  0.5272295437446175
  0.5463741492880132  0.7649059865503389  0.2574457889701947
  0.2503594549064303  0.7992387964902363  0.7666028381701153
  0.9027409547153553  0.7539012023122851  0.2629829052899666
  0.7427096902637516  0.7991078122791322  0.5120970668444542
  0.5257625565496085  0.7625513908489978  0.7568063729878958
  0.4484637794674740  0.8766689541419197  0.0289531228007789
  0.8673349253802414  0.0949141055743610  0.6937650760357030
  0.5003139821865474  0.2378384736360530  0.4552751117148048
  0.0945805469953811  0.2471360295160565  0.9754421798022008
  0.8829158187511794  0.1070719317173641  0.2539338474967110
  0.4963148684983238  0.0952780233159913  0.8209325251567492
  0.3992234986101053  0.2824542890464414  0.1177128970826047
  0.1076890345545252  0.5668588798105816  0.5031917074650138
  0.4517778837477948  0.5318106083432781  0.4839978313215596
  0.0807647522033008  0.5848994942816006  0.9877043345507488
  0.4974650386822432  0.4271496888683046  0.7944095768932371
  0.9066420145825802  0.7143267850600949  0.7119314046458456
  0.7661174324485316  0.8538344041403292  0.9791804675406439
  0.4940739336530626  0.9313417929752745  0.4987086895851434
  0.1330319708991681  0.9428975956246859  0.9997206932272675
  0.1841120896356401  0.0967248156828973  0.4619626300347761
  0.1297165220079322  0.1527615263929647  0.1674616554768065
  0.8493506633737766  0.1042553510242499  0.9188564357294240
  0.7148967132207957  0.2002363980638577  0.6318067956037012
  0.6555551350284432  0.1244718376436111  0.3534003216947639
  0.3848425527242938  0.1157956166581826  0.2551632241801371
  0.2949627569317173  0.1740051323747593  0.9101472776726141
  0.1531032917998516  0.2745347764842876  0.6951465928828284
  0.9311824374036846  0.1679552435707521  0.4675789915733120
  0.9183340568790541  0.3201610058923237  0.1259736824470679
  0.5831307297566894  0.0816889742353695  0.0456741686441191
  0.4290952047010634  0.2229697982806584  0.6703977695259908
  0.2120346465115546  0.4142158879623068  0.4146156358659425
  0.1306243154622138  0.5923667968191353  0.2380080773743742
  0.7554280240315876  0.3729154264186363  0.8957526453827285
  0.7141529007276901  0.4918057992813019  0.6274611398362424
  0.5945425134209614  0.4587239641068948  0.3486199040181006
  0.4254334813582616  0.5724812121274709  0.2030077502776209
  0.2543768528250610  0.4871286509902717  0.9447699564783960
  0.1269586629959463  0.6013921452353230  0.7401910639828699
  0.8729181228628704  0.4300116395914912  0.4141817584567846
  0.8315065479109265  0.5690051516905683  0.1742283838461347
  0.5805001219453416  0.5182555145684802  0.0218419330747537
  0.4143728657820276  0.5771446330787171  0.6990728132246531
  0.2369595495652135  0.8177821721244740  0.4540973723264443
  0.0956008613108068  0.8658846798501401  0.2253327247866821
  0.9011954243726308  0.7146256138756684  0.9297844158324580
  0.7296242455338771  0.8265531762299148  0.6890136900777861
  0.5764594736927933  0.7731046147650389  0.4326477337656627
  0.4300300448144014  0.8570741270853190  0.2116795351817302
  0.2718260662040564  0.8343652380624462  0.9475354730650309
  0.1574358009568684  0.9287591683995871  0.7065010396021592
  0.8713148831956943  0.7345757702295970  0.4488308290303209
  0.7342626887389443  0.7853470309706694  0.2044187614152619
  0.5254626262986761  0.7655356645174010  0.9456475432192164
  0.4415274000014264  0.8780281953721172  0.7146032174120904
 
  0.00000000E+00  0.00000000E+00  0.00000000E+00
  0.00000000E+00  0.00000000E+00  0.00000000E+00
  0.00000000E+00  0.00000000E+00  0.00000000E+00
  0.00000000E+00  0.00000000E+00  0.00000000E+00
  0.00000000E+00  0.00000000E+00  0.00000000E+00
  0.00000000E+00  0.00000000E+00  0.00000000E+00
  0.00000000E+00  0.00000000E+00  0.00000000E+00
  0.00000000E+00  0.00000000E+00  0.00000000E+00
  0.00000000E+00  0.00000000E+00  0.00000000E+00
  0.00000000E+00  0.00000000E+00  0.00000000E+00
  0.00000000E+00  0.00000000E+00  0.00000000E+00
  0.00000000E+00  0.00000000E+00  0.00000000E+00
  0.00000000E+00  0.00000000E+00  0.00000000E+00
  0.00000000E+00  0.00000000E+00  0.00000000E+00
  0.00000000E+00  0.00000000E+00  0.00000000E+00
  0.00000000E+00  0.00000000E+00  0.00000000E+00
  0.00000000E+00  0.00000000E+00  0.00000000E+00
  0.00000000E+00  0.00000000E+00  0.00000000E+00
  0.00000000E+00  0.00000000E+00  0.00000000E+00
  0.00000000E+00  0.00000000E+00  0.00000000E+00
  0.00000000E+00  0.00000000E+00  0.00000000E+00
  0.00000000E+00  0.00000000E+00  0.00000000E+00
  0.00000000E+00  0.00000000E+00  0.00000000E+00
  0.00000000E+00  0.00000000E+00  0.00000000E+00
  0.00000000E+00  0.00000000E+00  0.00000000E+00
  0.00000000E+00  0.00000000E+00  0.00000000E+00
  0.00000000E+00  0.00000000E+00  0.00000000E+00
  0.00000000E+00  0.00000000E+00  0.00000000E+00
  0.00000000E+00  0.00000000E+00  0.00000000E+00
  0.00000000E+00  0.00000000E+00  0.00000000E+00
  0.00000000E+00  0.00000000E+00  0.00000000E+00
  0.00000000E+00  0.00000000E+00  0.00000000E+00
  0.00000000E+00  0.00000000E+00  0.00000000E+00
  0.00000000E+00  0.00000000E+00  0.00000000E+00
  0.00000000E+00  0.00000000E+00  0.00000000E+00
  0.00000000E+00  0.00000000E+00  0.00000000E+00
  0.00000000E+00  0.00000000E+00  0.00000000E+00
  0.00000000E+00  0.00000000E+00  0.00000000E+00
  0.00000000E+00  0.00000000E+00  0.00000000E+00
  0.00000000E+00  0.00000000E+00  0.00000000E+00
  0.00000000E+00  0.00000000E+00  0.00000000E+00
  0.00000000E+00  0.00000000E+00  0.00000000E+00
  0.00000000E+00  0.00000000E+00  0.00000000E+00
  0.00000000E+00  0.00000000E+00  0.00000000E+00
  0.00000000E+00  0.00000000E+00  0.00000000E+00
  0.00000000E+00  0.00000000E+00  0.00000000E+00
  0.00000000E+00  0.00000000E+00  0.00000000E+00
  0.00000000E+00  0.00000000E+00  0.00000000E+00
  0.00000000E+00  0.00000000E+00  0.00000000E+00
  0.00000000E+00  0.00000000E+00  0.00000000E+00
  0.00000000E+00  0.00000000E+00  0.00000000E+00
  0.00000000E+00  0.00000000E+00  0.00000000E+00
  0.00000000E+00  0.00000000E+00  0.00000000E+00
  0.00000000E+00  0.00000000E+00  0.00000000E+00
  0.00000000E+00  0.00000000E+00  0.00000000E+00
  0.00000000E+00  0.00000000E+00  0.00000000E+00
  0.00000000E+00  0.00000000E+00  0.00000000E+00
  0.00000000E+00  0.00000000E+00  0.00000000E+00
  0.00000000E+00  0.00000000E+00  0.00000000E+00
  0.00000000E+00  0.00000000E+00  0.00000000E+00
  0.00000000E+00  0.00000000E+00  0.00000000E+00
  0.00000000E+00  0.00000000E+00  0.00000000E+00
  0.00000000E+00  0.00000000E+00  0.00000000E+00
  0.00000000E+00  0.00000000E+00  0.00000000E+00
  0.00000000E+00  0.00000000E+00  0.00000000E+00
  0.00000000E+00  0.00000000E+00  0.00000000E+00
  0.00000000E+00  0.00000000E+00  0.00000000E+00
  0.00000000E+00  0.00000000E+00  0.00000000E+00
  0.00000000E+00  0.00000000E+00  0.00000000E+00
  0.00000000E+00  0.00000000E+00  0.00000000E+00
  0.00000000E+00  0.00000000E+00  0.00000000E+00
  0.00000000E+00  0.00000000E+00  0.00000000E+00
