supercell of POSCAR                     
   1.03600000000000     
     9.6051007291200001   -5.6678653607799996   -9.9907275475200006
     9.5551777488200003    5.5783510108199996    9.9928581731800001
    -1.5573508785200001   -8.3719044994900003    4.9655686364999996
   Al   Gd   N 
    72    24    95
Direct
  0.3017400177715359  0.2874930736492090  0.5409962084159190
  0.1416382292289597  0.2467109182148022  0.3114936478892503
  0.3054892083396226  0.4099281000585719  0.3094881330857504
  0.4638771066689458  0.3211092865660845  0.7834296958165652
  0.1419479928700227  0.4985286027550018  0.7860589446228303
  0.2985205392226362  0.1635919164937647  0.7735219258123749
  0.4716468717130766  0.4501599298461016  0.5394534888473714
  0.1399350186679769  0.1185347106447736  0.5451837640723838
  0.5077605050569645  0.0397996294335172  0.2708054541164131
  0.2332237150057850  0.0949425402459170  0.3263751354235751
  0.1139613004907005  0.0683788283160069  0.0933921153558472
  0.1158304681378155  0.1966602164209732  0.8173238591598135
  0.2732798244617172  0.3563563000945109  0.8140985661867788
  0.1116469064394323  0.3249567830272113  0.5908622967803367
  0.2707880200515618  0.4851431607474908  0.5782106257614075
  0.4609510005628863  0.3191277238152637  0.3279610366081513
  0.1108319703097536  0.4466233373735307  0.3426215013654286
  0.4482779719967098  0.4033405189344208  0.0948915875036107
  0.8013158786134653  0.2888020962972604  0.5400756697226825
  0.6456858971312229  0.2431554156846190  0.3112176210587094
  0.8092879680545693  0.4086427836156403  0.3117868268575137
  0.9635679037290004  0.3249204878325642  0.7907673195721117
  0.6423555764847535  0.4991663644137105  0.7855605452266587
  0.7952534154627529  0.1653950998965001  0.7803028428437671
  0.9698319921470642  0.4462949175539208  0.5358479807973140
  0.6441394045236422  0.1179419852207388  0.5385501182119086
  0.9796913388978652  0.0718032176762549  0.2993142994405105
  0.7772700325588247  0.1087536866149037  0.3355673321194814
  0.6184847139980576  0.0739473708380984  0.0936682921873810
  0.6122510987265883  0.1955521424878413  0.8134692722237702
  0.7748076986926122  0.3553558965401891  0.8121051543894495
  0.6111024905517155  0.3255880708703600  0.5909426094210701
  0.7710661066986759  0.4851811628352749  0.5786222875608402
  0.9486297716362557  0.2804603245829327  0.3375755737060473
  0.6171452742394905  0.4509461610769989  0.3389526427335525
  0.9479799411876400  0.4046984984091182  0.1037760221340918
  0.3012342709816025  0.7887320792882520  0.5394562225736408
  0.1440626331837862  0.7432448214499559  0.3132687256151101
  0.3086981192801872  0.9083325585939974  0.3098863490845361
  0.4627625147177028  0.8270049843946481  0.7890640095980359
  0.1422070915337557  0.9975388355987533  0.7841066243856432
  0.2954415018925403  0.6652430565418115  0.7811062603399535
  0.4703965786804716  0.9461921037992482  0.5289033730027910
  0.1437057415566088  0.6196284302345632  0.5409145714828227
  0.4783057100349737  0.5705393753552386  0.2986878966608941
  0.2756159616981719  0.6084244093800919  0.3377105919442513
  0.1142966301989290  0.5704342827033031  0.1006245346788504
  0.1149878478915838  0.6960206482301601  0.8182532632726023
  0.2747129058879167  0.8556253304038606  0.8118698634874377
  0.1122698385071530  0.8246348165227531  0.5908641314045084
  0.2701087658248866  0.9863805401732293  0.5743888131193344
  0.4483546581788858  0.7788715593362241  0.3353193168762871
  0.1054101027529697  0.9388207075034600  0.3392866404792656
  0.4440329618273324  0.9010295665542642  0.0961660220848728
  0.8010241669744858  0.7885010245800572  0.5408358617145126
  0.6434177192265125  0.7413381807880981  0.3126342362987700
  0.8105376554929222  0.9091036210353280  0.3119707867207424
  0.9625022182356844  0.8255204717907958  0.7896626059807303
  0.6413516268457826  0.9979824568729825  0.7835952060459874
  0.7954196927280748  0.6655248713066229  0.7808452245164332
  0.9692696407209382  0.9457616922585146  0.5353073407588838
  0.6438481769459230  0.6200993356675539  0.5409561902913964
  0.9792907632438030  0.5710095752819413  0.3002288039394898
  0.7771198480012416  0.6094976905593654  0.3375966213609658
  0.6149335742371846  0.5694656650284600  0.0999527118954191
  0.6143998783477755  0.6968445442854758  0.8181995340645969
  0.7738658559488485  0.8557355824786796  0.8137511138546714
  0.6117195203185943  0.8234137891526672  0.5908973402677802
  0.7720383501230472  0.9853242231435857  0.5793373730313078
  0.9474737585827100  0.7788616902355372  0.3377440415219795
  0.6210819345665541  0.9365213955223979  0.3458325403907310
  0.9484875311926757  0.9037639871079435  0.1020799745304473
  0.4834948382324811  0.1936073385860766  0.0381439530704455
  0.1342472129771863  0.3673477644468406  0.0349198228816476
  0.3105627510435909  0.0205868001631941  0.0369392120753957
  0.2824378893171584  0.2336014496694503  0.0778944083989828
  0.4476434307670871  0.0229402808702233  0.8065540362543331
  0.4413350362795683  0.1556448614405497  0.5297743813856215
  0.9839971636089402  0.1946260302093066  0.0421603954005505
  0.6379485208326301  0.3641394632831094  0.0309241297353395
  0.8092729332988000  0.0203024361120256  0.0400517700676417
  0.7864517259240671  0.2342618854081593  0.0802750387721076
  0.9487270857876737  0.0207169133489131  0.8201726614533627
  0.9418544583496384  0.1558416023011091  0.5724640422390834
  0.4840919918104660  0.6942799319189916  0.0388101250437032
  0.1373563534483111  0.8639382825850248  0.0316165434241356
  0.3082980223307175  0.5214843642400169  0.0429461746210009
  0.2837192651673064  0.7313574261195370  0.0840423925925933
  0.4473537124416396  0.5185875705662966  0.8204236162214187
  0.4424192841972499  0.6566804586786432  0.5727448337409626
  0.9821741291386914  0.6960433524065479  0.0414191021546060
  0.6326358745487184  0.8691906293103031  0.0348238432792343
  0.8074464470662477  0.5223843585795862  0.0423207338268767
  0.7821154526825254  0.7354594488449706  0.0838599782131908
  0.9478331232873316  0.5198975548245244  0.8219959636801164
  0.9441234360144648  0.6551336879992320  0.5741275658402358
  0.2390073601491309  0.3666372408567540  0.6270615272928239
  0.0753471236152947  0.3256318931091187  0.4016276986913923
  0.2387040708075148  0.4896867142405767  0.3921992028088042
  0.4260992100110457  0.2905469375801957  0.1544220343448117
  0.0686690194151751  0.4583074966659595  0.1547353754868794
  0.2357674052428891  0.1025756971123641  0.1525910500846592
  0.3994204020407253  0.3896185890118247  0.9042251434878636
  0.0942956134141824  0.0834536444780056  0.9017922444227864
  0.2358490812573564  0.2427444635472966  0.8607469434827522
  0.3960904497551567  0.0246533969217921  0.5922594904165308
  0.0881532352757546  0.2037231174856302  0.6329817420575949
  0.2176797295031676  0.1904679314077029  0.4369075324945655
  0.0659967085895232  0.1435639932934194  0.2111657562757188
  0.2157162836799387  0.3195925826484256  0.2097335890622816
  0.3667507844131137  0.1172642848904673  0.9072023576948851
  0.0426563798178776  0.2683773127479441  0.8882862229218773
  0.2104659834552223  0.4359203819274029  0.8915067036672895
  0.3732323726534688  0.2379562140130886  0.6693170071296493
  0.0403980266300010  0.4064089618145772  0.6851458756644249
  0.2119810159501654  0.0674219974122963  0.6704334915776116
  0.3825935446686302  0.3530793453548071  0.4353150715818757
  0.0488988607523240  0.0249195919676950  0.4404006478481506
  0.3924024468491893  0.4707262506165080  0.2104988262207215
  0.7361258241176216  0.3670126165892356  0.6263813866882728
  0.5780975521023421  0.3276401045333017  0.3998962126201491
  0.7413412290680697  0.4909230087935441  0.3918118072135144
  0.9295719208245927  0.2930594181694630  0.1576797433780612
  0.5700625165533140  0.4550667476218848  0.1505148090071202
  0.7361609829617066  0.1035933487066885  0.1548944189263324
  0.8996432092580804  0.3926356617097326  0.9101146265353606
  0.5908340487924519  0.0831585600887905  0.9013607194673838
  0.7308519113707348  0.2439878230050141  0.8647600869454166
  0.8959005444739745  0.0165708886188085  0.6110591233137441
  0.5807031610593540  0.1997113865505611  0.6260947244797066
  0.9050015639805551  0.1555045989797819  0.3534261690745382
  0.7193329625894478  0.1904116930008328  0.4363337445939948
  0.5622231015142063  0.1451868476932106  0.2111973609522408
  0.7170645948561187  0.3192849970955578  0.2105581002404193
  0.8653650540130968  0.1187851443795225  0.9115874106197808
  0.5419343001206016  0.2685565781715624  0.8867693819714972
  0.7111698192809897  0.4365568909568935  0.8890401002765671
  0.8666976859225954  0.2469296964287793  0.6837248383975307
  0.5400554695327173  0.4063706084065473  0.6836343754400787
  0.7119001558346554  0.0685359319777916  0.6724220859310250
  0.8823006618049050  0.3524803421784384  0.4348058316169201
  0.5554928557350536  0.0203707773775861  0.4402142817183829
  0.8907639260335145  0.4750997468827549  0.2112031603044855
  0.2390362580570766  0.8697820712582072  0.6262674394833070
  0.0739212507399927  0.8224988492824679  0.4012593836668898
  0.2332549559419519  0.9856054434478949  0.3884046619834010
  0.4279078214732337  0.7919760378479168  0.1550134339847276
  0.0702540647676315  0.9555909762507326  0.1507263729745318
  0.2337130543411021  0.6013223149504867  0.1578299986115326
  0.4004526812480904  0.8982592300468610  0.9069859384060521
  0.0933927134326566  0.5833757484745874  0.9036749247918294
  0.2338221672399001  0.7452556405106137  0.8695877686733837
  0.3953276049133052  0.5170844390161378  0.6102193191827965
  0.0906757063433687  0.7039706810544146  0.6338075985418357
  0.4036951636980461  0.6543255399329766  0.3530693579777306
  0.2196076253975434  0.6907622468807872  0.4366110928198452
  0.0616553263082693  0.6456915346821148  0.2106251849213479
  0.2165408019711421  0.8193647474944044  0.2110660541369498
  0.3655555097103189  0.6172086437482065  0.9111073921600408
  0.0408363200516817  0.7684120109211179  0.8865372035147487
  0.2106507661496337  0.9357669775871429  0.8892309597774712
  0.3664917151218887  0.7475697928988865  0.6841603251506143
  0.0398943487702255  0.9067784035180324  0.6845690909950122
  0.2124036567985499  0.5678481231107284  0.6727218411205769
  0.3821372925248241  0.8523583926660407  0.4328199771936454
  0.0488527812092130  0.5263367156011043  0.4424548068471097
  0.3925632448884926  0.9762331749933182  0.2124850916918533
  0.7367898524641561  0.8682521999611268  0.6279985968009640
  0.5752011200916769  0.8213875884308237  0.4017041076291221
  0.7430064224830844  0.9901235689028383  0.3927429266253810
  0.9258234549931998  0.7927934104969623  0.1584585309250741
  0.5657190909193517  0.9628069861311914  0.1596752287736578
  0.7342513451962631  0.6046527657989955  0.1579970259965009
  0.8991436690975974  0.8945177666028599  0.9093990023909271
  0.5920212814824524  0.5834386992760585  0.9030788210011949
  0.7329102402780876  0.7447913443048364  0.8683283124971055
  0.8952613392463036  0.5159248439177517  0.6119581166525236
  0.5887056792048497  0.7029415471901714  0.6335243510803892
  0.9044315268964027  0.6548285188846563  0.3554297645592470
  0.7195328647308514  0.6907401538695481  0.4365072814177324
  0.5615604894870643  0.6437409362273456  0.2096866442443854
  0.7122819697733576  0.8234540936046386  0.2122077098501549
  0.8651567488568688  0.6182833262188865  0.9117880374341070
  0.5416834839649027  0.7710300043713048  0.8869477911943022
  0.7086371803789859  0.9360049972049751  0.8907072438516082
  0.8668872679110464  0.7462922353974903  0.6831644952326741
  0.5376420801340061  0.9084156099365899  0.6830784343598708
  0.7119951214033904  0.5682852975750237  0.6721920056345638
  0.8819149594678777  0.8519873088836434  0.4347372098793798
  0.5495296021898071  0.5253872350993234  0.4398988338470531
  0.8922901461013524  0.9747897732100839  0.2108973828378709
 
  0.00000000E+00  0.00000000E+00  0.00000000E+00
  0.00000000E+00  0.00000000E+00  0.00000000E+00
  0.00000000E+00  0.00000000E+00  0.00000000E+00
  0.00000000E+00  0.00000000E+00  0.00000000E+00
  0.00000000E+00  0.00000000E+00  0.00000000E+00
  0.00000000E+00  0.00000000E+00  0.00000000E+00
  0.00000000E+00  0.00000000E+00  0.00000000E+00
  0.00000000E+00  0.00000000E+00  0.00000000E+00
  0.00000000E+00  0.00000000E+00  0.00000000E+00
  0.00000000E+00  0.00000000E+00  0.00000000E+00
  0.00000000E+00  0.00000000E+00  0.00000000E+00
  0.00000000E+00  0.00000000E+00  0.00000000E+00
  0.00000000E+00  0.00000000E+00  0.00000000E+00
  0.00000000E+00  0.00000000E+00  0.00000000E+00
  0.00000000E+00  0.00000000E+00  0.00000000E+00
  0.00000000E+00  0.00000000E+00  0.00000000E+00
  0.00000000E+00  0.00000000E+00  0.00000000E+00
  0.00000000E+00  0.00000000E+00  0.00000000E+00
  0.00000000E+00  0.00000000E+00  0.00000000E+00
  0.00000000E+00  0.00000000E+00  0.00000000E+00
  0.00000000E+00  0.00000000E+00  0.00000000E+00
  0.00000000E+00  0.00000000E+00  0.00000000E+00
  0.00000000E+00  0.00000000E+00  0.00000000E+00
  0.00000000E+00  0.00000000E+00  0.00000000E+00
  0.00000000E+00  0.00000000E+00  0.00000000E+00
  0.00000000E+00  0.00000000E+00  0.00000000E+00
  0.00000000E+00  0.00000000E+00  0.00000000E+00
  0.00000000E+00  0.00000000E+00  0.00000000E+00
  0.00000000E+00  0.00000000E+00  0.00000000E+00
  0.00000000E+00  0.00000000E+00  0.00000000E+00
  0.00000000E+00  0.00000000E+00  0.00000000E+00
  0.00000000E+00  0.00000000E+00  0.00000000E+00
  0.00000000E+00  0.00000000E+00  0.00000000E+00
  0.00000000E+00  0.00000000E+00  0.00000000E+00
  0.00000000E+00  0.00000000E+00  0.00000000E+00
  0.00000000E+00  0.00000000E+00  0.00000000E+00
  0.00000000E+00  0.00000000E+00  0.00000000E+00
  0.00000000E+00  0.00000000E+00  0.00000000E+00
  0.00000000E+00  0.00000000E+00  0.00000000E+00
  0.00000000E+00  0.00000000E+00  0.00000000E+00
  0.00000000E+00  0.00000000E+00  0.00000000E+00
  0.00000000E+00  0.00000000E+00  0.00000000E+00
  0.00000000E+00  0.00000000E+00  0.00000000E+00
  0.00000000E+00  0.00000000E+00  0.00000000E+00
  0.00000000E+00  0.00000000E+00  0.00000000E+00
  0.00000000E+00  0.00000000E+00  0.00000000E+00
  0.00000000E+00  0.00000000E+00  0.00000000E+00
  0.00000000E+00  0.00000000E+00  0.00000000E+00
  0.00000000E+00  0.00000000E+00  0.00000000E+00
  0.00000000E+00  0.00000000E+00  0.00000000E+00
  0.00000000E+00  0.00000000E+00  0.00000000E+00
  0.00000000E+00  0.00000000E+00  0.00000000E+00
  0.00000000E+00  0.00000000E+00  0.00000000E+00
  0.00000000E+00  0.00000000E+00  0.00000000E+00
  0.00000000E+00  0.00000000E+00  0.00000000E+00
  0.00000000E+00  0.00000000E+00  0.00000000E+00
  0.00000000E+00  0.00000000E+00  0.00000000E+00
  0.00000000E+00  0.00000000E+00  0.00000000E+00
  0.00000000E+00  0.00000000E+00  0.00000000E+00
  0.00000000E+00  0.00000000E+00  0.00000000E+00
  0.00000000E+00  0.00000000E+00  0.00000000E+00
  0.00000000E+00  0.00000000E+00  0.00000000E+00
  0.00000000E+00  0.00000000E+00  0.00000000E+00
  0.00000000E+00  0.00000000E+00  0.00000000E+00
  0.00000000E+00  0.00000000E+00  0.00000000E+00
  0.00000000E+00  0.00000000E+00  0.00000000E+00
  0.00000000E+00  0.00000000E+00  0.00000000E+00
  0.00000000E+00  0.00000000E+00  0.00000000E+00
  0.00000000E+00  0.00000000E+00  0.00000000E+00
  0.00000000E+00  0.00000000E+00  0.00000000E+00
  0.00000000E+00  0.00000000E+00  0.00000000E+00
  0.00000000E+00  0.00000000E+00  0.00000000E+00
  0.00000000E+00  0.00000000E+00  0.00000000E+00
  0.00000000E+00  0.00000000E+00  0.00000000E+00
  0.00000000E+00  0.00000000E+00  0.00000000E+00
  0.00000000E+00  0.00000000E+00  0.00000000E+00
  0.00000000E+00  0.00000000E+00  0.00000000E+00
  0.00000000E+00  0.00000000E+00  0.00000000E+00
  0.00000000E+00  0.00000000E+00  0.00000000E+00
  0.00000000E+00  0.00000000E+00  0.00000000E+00
  0.00000000E+00  0.00000000E+00  0.00000000E+00
  0.00000000E+00  0.00000000E+00  0.00000000E+00
  0.00000000E+00  0.00000000E+00  0.00000000E+00
  0.00000000E+00  0.00000000E+00  0.00000000E+00
  0.00000000E+00  0.00000000E+00  0.00000000E+00
  0.00000000E+00  0.00000000E+00  0.00000000E+00
  0.00000000E+00  0.00000000E+00  0.00000000E+00
  0.00000000E+00  0.00000000E+00  0.00000000E+00
  0.00000000E+00  0.00000000E+00  0.00000000E+00
  0.00000000E+00  0.00000000E+00  0.00000000E+00
  0.00000000E+00  0.00000000E+00  0.00000000E+00
  0.00000000E+00  0.00000000E+00  0.00000000E+00
  0.00000000E+00  0.00000000E+00  0.00000000E+00
  0.00000000E+00  0.00000000E+00  0.00000000E+00
  0.00000000E+00  0.00000000E+00  0.00000000E+00
  0.00000000E+00  0.00000000E+00  0.00000000E+00
  0.00000000E+00  0.00000000E+00  0.00000000E+00
  0.00000000E+00  0.00000000E+00  0.00000000E+00
  0.00000000E+00  0.00000000E+00  0.00000000E+00
  0.00000000E+00  0.00000000E+00  0.00000000E+00
  0.00000000E+00  0.00000000E+00  0.00000000E+00
  0.00000000E+00  0.00000000E+00  0.00000000E+00
  0.00000000E+00  0.00000000E+00  0.00000000E+00
  0.00000000E+00  0.00000000E+00  0.00000000E+00
  0.00000000E+00  0.00000000E+00  0.00000000E+00
  0.00000000E+00  0.00000000E+00  0.00000000E+00
  0.00000000E+00  0.00000000E+00  0.00000000E+00
  0.00000000E+00  0.00000000E+00  0.00000000E+00
  0.00000000E+00  0.00000000E+00  0.00000000E+00
  0.00000000E+00  0.00000000E+00  0.00000000E+00
  0.00000000E+00  0.00000000E+00  0.00000000E+00
  0.00000000E+00  0.00000000E+00  0.00000000E+00
  0.00000000E+00  0.00000000E+00  0.00000000E+00
  0.00000000E+00  0.00000000E+00  0.00000000E+00
  0.00000000E+00  0.00000000E+00  0.00000000E+00
  0.00000000E+00  0.00000000E+00  0.00000000E+00
  0.00000000E+00  0.00000000E+00  0.00000000E+00
  0.00000000E+00  0.00000000E+00  0.00000000E+00
  0.00000000E+00  0.00000000E+00  0.00000000E+00
  0.00000000E+00  0.00000000E+00  0.00000000E+00
  0.00000000E+00  0.00000000E+00  0.00000000E+00
  0.00000000E+00  0.00000000E+00  0.00000000E+00
  0.00000000E+00  0.00000000E+00  0.00000000E+00
  0.00000000E+00  0.00000000E+00  0.00000000E+00
  0.00000000E+00  0.00000000E+00  0.00000000E+00
  0.00000000E+00  0.00000000E+00  0.00000000E+00
  0.00000000E+00  0.00000000E+00  0.00000000E+00
  0.00000000E+00  0.00000000E+00  0.00000000E+00
  0.00000000E+00  0.00000000E+00  0.00000000E+00
  0.00000000E+00  0.00000000E+00  0.00000000E+00
  0.00000000E+00  0.00000000E+00  0.00000000E+00
  0.00000000E+00  0.00000000E+00  0.00000000E+00
  0.00000000E+00  0.00000000E+00  0.00000000E+00
  0.00000000E+00  0.00000000E+00  0.00000000E+00
  0.00000000E+00  0.00000000E+00  0.00000000E+00
  0.00000000E+00  0.00000000E+00  0.00000000E+00
  0.00000000E+00  0.00000000E+00  0.00000000E+00
  0.00000000E+00  0.00000000E+00  0.00000000E+00
  0.00000000E+00  0.00000000E+00  0.00000000E+00
  0.00000000E+00  0.00000000E+00  0.00000000E+00
  0.00000000E+00  0.00000000E+00  0.00000000E+00
  0.00000000E+00  0.00000000E+00  0.00000000E+00
  0.00000000E+00  0.00000000E+00  0.00000000E+00
  0.00000000E+00  0.00000000E+00  0.00000000E+00
  0.00000000E+00  0.00000000E+00  0.00000000E+00
  0.00000000E+00  0.00000000E+00  0.00000000E+00
  0.00000000E+00  0.00000000E+00  0.00000000E+00
  0.00000000E+00  0.00000000E+00  0.00000000E+00
  0.00000000E+00  0.00000000E+00  0.00000000E+00
  0.00000000E+00  0.00000000E+00  0.00000000E+00
  0.00000000E+00  0.00000000E+00  0.00000000E+00
  0.00000000E+00  0.00000000E+00  0.00000000E+00
  0.00000000E+00  0.00000000E+00  0.00000000E+00
  0.00000000E+00  0.00000000E+00  0.00000000E+00
  0.00000000E+00  0.00000000E+00  0.00000000E+00
  0.00000000E+00  0.00000000E+00  0.00000000E+00
  0.00000000E+00  0.00000000E+00  0.00000000E+00
  0.00000000E+00  0.00000000E+00  0.00000000E+00
  0.00000000E+00  0.00000000E+00  0.00000000E+00
  0.00000000E+00  0.00000000E+00  0.00000000E+00
  0.00000000E+00  0.00000000E+00  0.00000000E+00
  0.00000000E+00  0.00000000E+00  0.00000000E+00
  0.00000000E+00  0.00000000E+00  0.00000000E+00
  0.00000000E+00  0.00000000E+00  0.00000000E+00
  0.00000000E+00  0.00000000E+00  0.00000000E+00
  0.00000000E+00  0.00000000E+00  0.00000000E+00
  0.00000000E+00  0.00000000E+00  0.00000000E+00
  0.00000000E+00  0.00000000E+00  0.00000000E+00
  0.00000000E+00  0.00000000E+00  0.00000000E+00
  0.00000000E+00  0.00000000E+00  0.00000000E+00
  0.00000000E+00  0.00000000E+00  0.00000000E+00
  0.00000000E+00  0.00000000E+00  0.00000000E+00
  0.00000000E+00  0.00000000E+00  0.00000000E+00
  0.00000000E+00  0.00000000E+00  0.00000000E+00
  0.00000000E+00  0.00000000E+00  0.00000000E+00
  0.00000000E+00  0.00000000E+00  0.00000000E+00
  0.00000000E+00  0.00000000E+00  0.00000000E+00
  0.00000000E+00  0.00000000E+00  0.00000000E+00
  0.00000000E+00  0.00000000E+00  0.00000000E+00
  0.00000000E+00  0.00000000E+00  0.00000000E+00
  0.00000000E+00  0.00000000E+00  0.00000000E+00
  0.00000000E+00  0.00000000E+00  0.00000000E+00
  0.00000000E+00  0.00000000E+00  0.00000000E+00
  0.00000000E+00  0.00000000E+00  0.00000000E+00
  0.00000000E+00  0.00000000E+00  0.00000000E+00
  0.00000000E+00  0.00000000E+00  0.00000000E+00
  0.00000000E+00  0.00000000E+00  0.00000000E+00
  0.00000000E+00  0.00000000E+00  0.00000000E+00
  0.00000000E+00  0.00000000E+00  0.00000000E+00
  0.00000000E+00  0.00000000E+00  0.00000000E+00
  0.00000000E+00  0.00000000E+00  0.00000000E+00
