supercell of POSCAR                     
   1.01800000000000     
     3.1310994802600001   -5.4896946145000003   10.0244832682999991
    -9.4821132118399998   -5.5089477087900001    0.0170740616273000
     6.3359946057599998  -11.0114127993000004  -10.0652216442999993
   Al   Gd   N 
    84    12    95
Direct
  0.0887705062036019  0.5795337917965568  0.3397726230966285
  0.5008522518659078  0.3225109926448297  0.2557715942015335
  0.0868561588642862  0.0856577797749480  0.3350421477800012
  0.2530388304053091  0.5784886332921886  0.4954602449314720
  0.3345148067632309  0.3183958366935116  0.0791246429515482
  0.4166648556115575  0.0853250688526259  0.1693108282382099
  0.0042215611992873  0.8519660527515924  0.2558701091306972
  0.1693871749001872  0.3304742532477789  0.4137711861172662
  0.2487918438423833  0.0864113220992451  0.4964622050306460
  0.1630548337005422  0.8367282614654101  0.4163797422052582
  0.3387623668484991  0.6732041789928758  0.3412482732035613
  0.1188922553368954  0.6774556345637635  0.1927542688381010
  0.2499953924607610  0.3985021652693064  0.2537314271927471
  0.3354063652842640  0.1629478314490740  0.3344218708492477
  0.0072768525181957  0.6738707896917546  0.4958745625546896
  0.1673114454776510  0.1583133665595327  0.1697680773322503
  0.2539476413504644  0.9202965523046345  0.2554024419042946
  0.4141303827939566  0.4138053098293923  0.4159586569127214
  0.4995332804859771  0.1611849047549683  0.4970292163071761
  0.0823853365577705  0.9244306352298750  0.0801096754048558
  0.4211473170995248  0.9194895219773613  0.4118454500359903
  0.0905617233147140  0.5856660065760906  0.8351586195457230
  0.5010345946377868  0.3223522932452312  0.7546166663813807
  0.0867708209131166  0.0860097184154682  0.8348447108326553
  0.2531354301504223  0.5712196234890925  0.9856025877624788
  0.3333637804379634  0.3180462640477870  0.5787596954028871
  0.4181078292159555  0.0872040020350369  0.6708586287365677
  0.0088409217990417  0.8442146643134549  0.7559399659739512
  0.1686191403241750  0.3310556518436272  0.9128102282860837
  0.2497084836777290  0.0869944653094166  0.9972853940608744
  0.1643311413042952  0.8391728698608247  0.9158770545418591
  0.3379175363881259  0.6756264396847627  0.8372597696553541
  0.1555301580394470  0.6755736192425132  0.6660608067967502
  0.2514596131934113  0.4023267766586471  0.7527942104639322
  0.3350612045592385  0.1646699061221000  0.8340314486013298
  0.0072770031367781  0.6742554217061993  0.9966626728181680
  0.1679447284244091  0.1594769349670742  0.6698180107204337
  0.2535652590035937  0.9212833198149326  0.7553699290464593
  0.4167435885003670  0.4131900438090881  0.9140393798845281
  0.4996400055570760  0.1629036242970159  0.9968968232139446
  0.0842818124431233  0.9239412226945660  0.5802376019660684
  0.4190963253756124  0.9220111324928126  0.9119693730670519
  0.5881806677848687  0.5823397137544433  0.3327375964811381
  0.9998103192257730  0.3214089323847205  0.2560005740439735
  0.5855941955095005  0.0843867423873732  0.3337461431280673
  0.7530591486743177  0.5795285555242202  0.4930668736167476
  0.8297736599793879  0.3171376838791602  0.0772553583627555
  0.9163739914781246  0.0881151374717604  0.1701688939785058
  0.5057407906376028  0.8413311037284359  0.2526486452563503
  0.6691714546953023  0.3311100738056822  0.4121401263805780
  0.7481041292711268  0.0871363812659069  0.4958104769438947
  0.6627967260330507  0.8359425603638257  0.4147314122000694
  0.8361378252851637  0.6726277191308938  0.3381530765452538
  0.6469656311531153  0.6771410802339091  0.1646926142038438
  0.7503469558616302  0.3991468438907333  0.2517702828006065
  0.8347176405319559  0.1629387619477924  0.3340362949333198
  0.5084555467544760  0.6727164893053867  0.4941305635654061
  0.6661006242441871  0.1592858458523807  0.1686960367920278
  0.7513018054965670  0.9210304413262662  0.2548781162767497
  0.9126561814841452  0.4130335660196067  0.4159781497834274
  0.9995287302650055  0.1611885394884993  0.4974463921883086
  0.5790447713539848  0.9250998418913809  0.0794438139562317
  0.9203200764611736  0.9206260471034255  0.4130010322184887
  0.5897001769628076  0.5858418189647168  0.8334057303891527
  0.0007259023150752  0.3230886094940004  0.7560067241946200
  0.5861116196888148  0.0853953305511226  0.8342833963557297
  0.7492501104435689  0.5785176181478775  0.9926315971175796
  0.8338484259204009  0.3182738600951041  0.5785834693755234
  0.9183279489383906  0.0873060642190495  0.6716058385181327
  0.5081608380162947  0.8443242843538386  0.7545396769146464
  0.6684631031074844  0.3322657052795819  0.9122484185294510
  0.7465859670620603  0.0867563773857327  0.9956291941937181
  0.6623613996638653  0.8377647783861306  0.9149838214100896
  0.8382184510457407  0.6742078040800905  0.8409517833015201
  0.6561200357086747  0.6755483504381914  0.6649056955300381
  0.7513257737143491  0.4020766529740669  0.7522067282094085
  0.8346462041481715  0.1642285327824951  0.8343920410332899
  0.5047335226243135  0.6762480123076742  0.9934038357544708
  0.6679316337435282  0.1587874402001219  0.6694687473357916
  0.7537743369667922  0.9206096467432019  0.7560512722364905
  0.9132504757298747  0.4149189405430960  0.9156692718671025
  0.9980933870276516  0.1611967388224897  0.9969649110652981
  0.5842927153166002  0.9237654414957888  0.5789816833585206
  0.9204570180152771  0.9200708056760618  0.9122769744069998
  0.3782412815086360  0.5826702286998753  0.1751196041168797
  0.3258575992157233  0.8209340441766173  0.0831256917623833
  0.0798731589647588  0.4164643303401547  0.0860032862042672
  0.3999414326443542  0.5788117834431219  0.6771985455423462
  0.3336076895340057  0.8364787220362686  0.5835156282317016
  0.0832285196571192  0.4188229705036477  0.5858382738236116
  0.8885758819689897  0.5771082218415700  0.1743839626700421
  0.8273662144461298  0.8360675949369138  0.0823083639476181
  0.5799875090702287  0.4260540789847127  0.0862379512229765
  0.8982947147998672  0.5810418535084452  0.6792387241888918
  0.8323769144893447  0.8382344003031008  0.5839754474716159
  0.5849442045740005  0.4182456629136979  0.5840782391817996
  0.2185440604629889  0.5800453653344348  0.2670723683972938
  0.0394372705427770  0.6111916412102545  0.1030931307254264
  0.1302401905575223  0.3164314629296427  0.2009127200154239
  0.2132875973631485  0.0817088411972478  0.2722194433483196
  0.3832676708465712  0.5832824291804926  0.4370913796848583
  0.4509481243074376  0.3215478758113122  0.0113728108394326
  0.0410503979537680  0.0857083126690057  0.1038677489463922
  0.1324525823247171  0.8442817744802795  0.1863458759865750
  0.2973275881895745  0.3284310003057698  0.3529829796457946
  0.3778212409268704  0.0798807956536862  0.4350761587338567
  0.4687563201228002  0.8401455158088709  0.0097019100758402
  0.2938216618987042  0.8343269577712320  0.3553221606577992
  0.4685655084620066  0.6788672774020839  0.2809650656534330
  0.3759311290128053  0.3881272255316048  0.1862617889117786
  0.4611707303309345  0.1617397196469454  0.2725398433231732
  0.1348380060452072  0.6654926116575766  0.4339094271173423
  0.2255185321454789  0.4133369251314107  0.0125430873951586
  0.2903377037980306  0.1597266432260085  0.1027577438682812
  0.3821734278858955  0.9231482016122285  0.1959203211468292
  0.0435840963600072  0.4171766550876583  0.3528079138536881
  0.1278020668591111  0.1700872781852496  0.4349377863187698
  0.2008391411870747  0.9296216837750961  0.0131530940281550
  0.0487464398699728  0.9245163209675695  0.3536313272290599
  0.2188006100331208  0.5822447297556934  0.7676971475730312
  0.0335643812488797  0.6109786591717921  0.6012879792168206
  0.1309041335588290  0.3177961561205933  0.7014587359170932
  0.2128757305436793  0.0832742777299700  0.7727673298966309
  0.3836779253525719  0.5838526488746396  0.9346979904776020
  0.4502122265270785  0.3190287416693707  0.5107926032952079
  0.0414791994540238  0.0857693586267771  0.6041100607006271
  0.1329393029488699  0.8429847567428013  0.6863114967759714
  0.2969457397560475  0.3305213969860006  0.8536972704560100
  0.3769330174532328  0.0826098349593067  0.9354916304229874
  0.4772338141469632  0.8370638849729559  0.5073339519686968
  0.2931416346583759  0.8358766816970657  0.8562268838858103
  0.4720195665324383  0.6855916016105894  0.7852071636040066
  0.2645387183150945  0.6554674468573580  0.5954115110733156
  0.3744568354947617  0.3820373162898036  0.6858821213697865
  0.4623498264479409  0.1631292913282891  0.7740045860409310
  0.1371991246578688  0.6675221097680293  0.9372628009120092
  0.2255590531363012  0.4120179721000881  0.5095788580378198
  0.2907335605062258  0.1573812853890928  0.6021687766897514
  0.3852031296263263  0.9284386925447947  0.7018900321942212
  0.0446556291713094  0.4206142404016546  0.8538635790595777
  0.1277650504849674  0.1706085038749308  0.9362214849250137
  0.1976373946034613  0.9311115165290147  0.5101999279402349
  0.0498682325324467  0.9247497421513629  0.8541339829110726
  0.7197831255289557  0.5810987850448157  0.2642633712671341
  0.5181103467546606  0.6182719202290983  0.1016605901134184
  0.6291546134917354  0.3181683620335320  0.1987698779211584
  0.7119838017256939  0.0829631434527229  0.2717514229309046
  0.8848607777566073  0.5846662557014355  0.4342435767769501
  0.9477777413993493  0.3188405548230051  0.0104945318002692
  0.5399654561488703  0.0867447233178780  0.1033933176090400
  0.6306598951848557  0.8436075354490669  0.1851556639543617
  0.7971152623691182  0.3285882015188832  0.3516305427632744
  0.8772723924903616  0.0808743845415947  0.4351967458822728
  0.9755884464195930  0.8380794687533779  0.0096100955629836
  0.7956628976475457  0.8339246245397689  0.3541982305676115
  0.9856511882102694  0.6831999480549911  0.2761481751745336
  0.7543260248575336  0.6546535743167681  0.0928658564542104
  0.8749767206891548  0.3811507837329060  0.1845303532871725
  0.9623106711806813  0.1616066744647426  0.2738021792571601
  0.6347295656434397  0.6648912399981555  0.4303327463635753
  0.7223021523659483  0.4125949660159094  0.0097461879400313
  0.7892543029861443  0.1569106365235555  0.1017065665687795
  0.8824645969306886  0.9287439951705494  0.2001792936148874
  0.5441863521497723  0.4180575986940482  0.3520965321852643
  0.6270300029120079  0.1701971714704982  0.4339144330305018
  0.6930803123380826  0.9320303359355080  0.0099020998418169
  0.5478271390699447  0.9215817092941876  0.3501567168699466
  0.7199191043323481  0.5821855075224320  0.7669074459529028
  0.5351825618398038  0.6101521310115388  0.5997806212152383
  0.6311856737048984  0.3175748540244356  0.7000034821980350
  0.7127670685136778  0.0827456834312699  0.7725337661713141
  0.8832213299549139  0.5844490405184501  0.9393530307192819
  0.9505814871474882  0.3191453347657003  0.5107480669826430
  0.5415528414709101  0.0853073182941841  0.6034738491322429
  0.6335842311321116  0.8429904137076036  0.6853900918043934
  0.7970033141102348  0.3302477562502730  0.8526447481167381
  0.8764798387642614  0.0801823886295239  0.9356889382115625
  0.9763635917645388  0.8380782045480615  0.5084612996917741
  0.7934219661976201  0.8352431581019033  0.8570727114133945
  0.9735517102148776  0.6856605970114202  0.7888917488546099
  0.7652258505796752  0.6559437836274924  0.5935790302300958
  0.8757028508365252  0.3834183800746302  0.6855250355395626
  0.9625963739556198  0.1634112529801470  0.7748984652139370
  0.6321055901109887  0.6667912362914308  0.9326078376049125
  0.7274013104854191  0.4124573510146092  0.5080093283396820
  0.7909157606524744  0.1572571705281973  0.6020779817301900
  0.8859718105982282  0.9281577283537601  0.7031593285825366
  0.5443430403682399  0.4200416321062477  0.8512437016394827
  0.6268129723784526  0.1715458081191272  0.9343431289984210
  0.6972550081598143  0.9313130936458052  0.5083772394668173
  0.5479847126544541  0.9241291732344763  0.8528584006657667
 
  0.00000000E+00  0.00000000E+00  0.00000000E+00
  0.00000000E+00  0.00000000E+00  0.00000000E+00
  0.00000000E+00  0.00000000E+00  0.00000000E+00
  0.00000000E+00  0.00000000E+00  0.00000000E+00
  0.00000000E+00  0.00000000E+00  0.00000000E+00
  0.00000000E+00  0.00000000E+00  0.00000000E+00
  0.00000000E+00  0.00000000E+00  0.00000000E+00
  0.00000000E+00  0.00000000E+00  0.00000000E+00
  0.00000000E+00  0.00000000E+00  0.00000000E+00
  0.00000000E+00  0.00000000E+00  0.00000000E+00
  0.00000000E+00  0.00000000E+00  0.00000000E+00
  0.00000000E+00  0.00000000E+00  0.00000000E+00
  0.00000000E+00  0.00000000E+00  0.00000000E+00
  0.00000000E+00  0.00000000E+00  0.00000000E+00
  0.00000000E+00  0.00000000E+00  0.00000000E+00
  0.00000000E+00  0.00000000E+00  0.00000000E+00
  0.00000000E+00  0.00000000E+00  0.00000000E+00
  0.00000000E+00  0.00000000E+00  0.00000000E+00
  0.00000000E+00  0.00000000E+00  0.00000000E+00
  0.00000000E+00  0.00000000E+00  0.00000000E+00
  0.00000000E+00  0.00000000E+00  0.00000000E+00
  0.00000000E+00  0.00000000E+00  0.00000000E+00
  0.00000000E+00  0.00000000E+00  0.00000000E+00
  0.00000000E+00  0.00000000E+00  0.00000000E+00
  0.00000000E+00  0.00000000E+00  0.00000000E+00
  0.00000000E+00  0.00000000E+00  0.00000000E+00
  0.00000000E+00  0.00000000E+00  0.00000000E+00
  0.00000000E+00  0.00000000E+00  0.00000000E+00
  0.00000000E+00  0.00000000E+00  0.00000000E+00
  0.00000000E+00  0.00000000E+00  0.00000000E+00
  0.00000000E+00  0.00000000E+00  0.00000000E+00
  0.00000000E+00  0.00000000E+00  0.00000000E+00
  0.00000000E+00  0.00000000E+00  0.00000000E+00
  0.00000000E+00  0.00000000E+00  0.00000000E+00
  0.00000000E+00  0.00000000E+00  0.00000000E+00
  0.00000000E+00  0.00000000E+00  0.00000000E+00
  0.00000000E+00  0.00000000E+00  0.00000000E+00
  0.00000000E+00  0.00000000E+00  0.00000000E+00
  0.00000000E+00  0.00000000E+00  0.00000000E+00
  0.00000000E+00  0.00000000E+00  0.00000000E+00
  0.00000000E+00  0.00000000E+00  0.00000000E+00
  0.00000000E+00  0.00000000E+00  0.00000000E+00
  0.00000000E+00  0.00000000E+00  0.00000000E+00
  0.00000000E+00  0.00000000E+00  0.00000000E+00
  0.00000000E+00  0.00000000E+00  0.00000000E+00
  0.00000000E+00  0.00000000E+00  0.00000000E+00
  0.00000000E+00  0.00000000E+00  0.00000000E+00
  0.00000000E+00  0.00000000E+00  0.00000000E+00
  0.00000000E+00  0.00000000E+00  0.00000000E+00
  0.00000000E+00  0.00000000E+00  0.00000000E+00
  0.00000000E+00  0.00000000E+00  0.00000000E+00
  0.00000000E+00  0.00000000E+00  0.00000000E+00
  0.00000000E+00  0.00000000E+00  0.00000000E+00
  0.00000000E+00  0.00000000E+00  0.00000000E+00
  0.00000000E+00  0.00000000E+00  0.00000000E+00
  0.00000000E+00  0.00000000E+00  0.00000000E+00
  0.00000000E+00  0.00000000E+00  0.00000000E+00
  0.00000000E+00  0.00000000E+00  0.00000000E+00
  0.00000000E+00  0.00000000E+00  0.00000000E+00
  0.00000000E+00  0.00000000E+00  0.00000000E+00
  0.00000000E+00  0.00000000E+00  0.00000000E+00
  0.00000000E+00  0.00000000E+00  0.00000000E+00
  0.00000000E+00  0.00000000E+00  0.00000000E+00
  0.00000000E+00  0.00000000E+00  0.00000000E+00
  0.00000000E+00  0.00000000E+00  0.00000000E+00
  0.00000000E+00  0.00000000E+00  0.00000000E+00
  0.00000000E+00  0.00000000E+00  0.00000000E+00
  0.00000000E+00  0.00000000E+00  0.00000000E+00
  0.00000000E+00  0.00000000E+00  0.00000000E+00
  0.00000000E+00  0.00000000E+00  0.00000000E+00
  0.00000000E+00  0.00000000E+00  0.00000000E+00
  0.00000000E+00  0.00000000E+00  0.00000000E+00
  0.00000000E+00  0.00000000E+00  0.00000000E+00
  0.00000000E+00  0.00000000E+00  0.00000000E+00
  0.00000000E+00  0.00000000E+00  0.00000000E+00
  0.00000000E+00  0.00000000E+00  0.00000000E+00
  0.00000000E+00  0.00000000E+00  0.00000000E+00
  0.00000000E+00  0.00000000E+00  0.00000000E+00
  0.00000000E+00  0.00000000E+00  0.00000000E+00
  0.00000000E+00  0.00000000E+00  0.00000000E+00
  0.00000000E+00  0.00000000E+00  0.00000000E+00
  0.00000000E+00  0.00000000E+00  0.00000000E+00
  0.00000000E+00  0.00000000E+00  0.00000000E+00
  0.00000000E+00  0.00000000E+00  0.00000000E+00
  0.00000000E+00  0.00000000E+00  0.00000000E+00
  0.00000000E+00  0.00000000E+00  0.00000000E+00
  0.00000000E+00  0.00000000E+00  0.00000000E+00
  0.00000000E+00  0.00000000E+00  0.00000000E+00
  0.00000000E+00  0.00000000E+00  0.00000000E+00
  0.00000000E+00  0.00000000E+00  0.00000000E+00
  0.00000000E+00  0.00000000E+00  0.00000000E+00
  0.00000000E+00  0.00000000E+00  0.00000000E+00
  0.00000000E+00  0.00000000E+00  0.00000000E+00
  0.00000000E+00  0.00000000E+00  0.00000000E+00
  0.00000000E+00  0.00000000E+00  0.00000000E+00
  0.00000000E+00  0.00000000E+00  0.00000000E+00
  0.00000000E+00  0.00000000E+00  0.00000000E+00
  0.00000000E+00  0.00000000E+00  0.00000000E+00
  0.00000000E+00  0.00000000E+00  0.00000000E+00
  0.00000000E+00  0.00000000E+00  0.00000000E+00
  0.00000000E+00  0.00000000E+00  0.00000000E+00
  0.00000000E+00  0.00000000E+00  0.00000000E+00
  0.00000000E+00  0.00000000E+00  0.00000000E+00
  0.00000000E+00  0.00000000E+00  0.00000000E+00
  0.00000000E+00  0.00000000E+00  0.00000000E+00
  0.00000000E+00  0.00000000E+00  0.00000000E+00
  0.00000000E+00  0.00000000E+00  0.00000000E+00
  0.00000000E+00  0.00000000E+00  0.00000000E+00
  0.00000000E+00  0.00000000E+00  0.00000000E+00
  0.00000000E+00  0.00000000E+00  0.00000000E+00
  0.00000000E+00  0.00000000E+00  0.00000000E+00
  0.00000000E+00  0.00000000E+00  0.00000000E+00
  0.00000000E+00  0.00000000E+00  0.00000000E+00
  0.00000000E+00  0.00000000E+00  0.00000000E+00
  0.00000000E+00  0.00000000E+00  0.00000000E+00
  0.00000000E+00  0.00000000E+00  0.00000000E+00
  0.00000000E+00  0.00000000E+00  0.00000000E+00
  0.00000000E+00  0.00000000E+00  0.00000000E+00
  0.00000000E+00  0.00000000E+00  0.00000000E+00
  0.00000000E+00  0.00000000E+00  0.00000000E+00
  0.00000000E+00  0.00000000E+00  0.00000000E+00
  0.00000000E+00  0.00000000E+00  0.00000000E+00
  0.00000000E+00  0.00000000E+00  0.00000000E+00
  0.00000000E+00  0.00000000E+00  0.00000000E+00
  0.00000000E+00  0.00000000E+00  0.00000000E+00
  0.00000000E+00  0.00000000E+00  0.00000000E+00
  0.00000000E+00  0.00000000E+00  0.00000000E+00
  0.00000000E+00  0.00000000E+00  0.00000000E+00
  0.00000000E+00  0.00000000E+00  0.00000000E+00
  0.00000000E+00  0.00000000E+00  0.00000000E+00
  0.00000000E+00  0.00000000E+00  0.00000000E+00
  0.00000000E+00  0.00000000E+00  0.00000000E+00
  0.00000000E+00  0.00000000E+00  0.00000000E+00
  0.00000000E+00  0.00000000E+00  0.00000000E+00
  0.00000000E+00  0.00000000E+00  0.00000000E+00
  0.00000000E+00  0.00000000E+00  0.00000000E+00
  0.00000000E+00  0.00000000E+00  0.00000000E+00
  0.00000000E+00  0.00000000E+00  0.00000000E+00
  0.00000000E+00  0.00000000E+00  0.00000000E+00
  0.00000000E+00  0.00000000E+00  0.00000000E+00
  0.00000000E+00  0.00000000E+00  0.00000000E+00
  0.00000000E+00  0.00000000E+00  0.00000000E+00
  0.00000000E+00  0.00000000E+00  0.00000000E+00
  0.00000000E+00  0.00000000E+00  0.00000000E+00
  0.00000000E+00  0.00000000E+00  0.00000000E+00
  0.00000000E+00  0.00000000E+00  0.00000000E+00
  0.00000000E+00  0.00000000E+00  0.00000000E+00
  0.00000000E+00  0.00000000E+00  0.00000000E+00
  0.00000000E+00  0.00000000E+00  0.00000000E+00
  0.00000000E+00  0.00000000E+00  0.00000000E+00
  0.00000000E+00  0.00000000E+00  0.00000000E+00
  0.00000000E+00  0.00000000E+00  0.00000000E+00
  0.00000000E+00  0.00000000E+00  0.00000000E+00
  0.00000000E+00  0.00000000E+00  0.00000000E+00
  0.00000000E+00  0.00000000E+00  0.00000000E+00
  0.00000000E+00  0.00000000E+00  0.00000000E+00
  0.00000000E+00  0.00000000E+00  0.00000000E+00
  0.00000000E+00  0.00000000E+00  0.00000000E+00
  0.00000000E+00  0.00000000E+00  0.00000000E+00
  0.00000000E+00  0.00000000E+00  0.00000000E+00
  0.00000000E+00  0.00000000E+00  0.00000000E+00
  0.00000000E+00  0.00000000E+00  0.00000000E+00
  0.00000000E+00  0.00000000E+00  0.00000000E+00
  0.00000000E+00  0.00000000E+00  0.00000000E+00
  0.00000000E+00  0.00000000E+00  0.00000000E+00
  0.00000000E+00  0.00000000E+00  0.00000000E+00
  0.00000000E+00  0.00000000E+00  0.00000000E+00
  0.00000000E+00  0.00000000E+00  0.00000000E+00
  0.00000000E+00  0.00000000E+00  0.00000000E+00
  0.00000000E+00  0.00000000E+00  0.00000000E+00
  0.00000000E+00  0.00000000E+00  0.00000000E+00
  0.00000000E+00  0.00000000E+00  0.00000000E+00
  0.00000000E+00  0.00000000E+00  0.00000000E+00
  0.00000000E+00  0.00000000E+00  0.00000000E+00
  0.00000000E+00  0.00000000E+00  0.00000000E+00
  0.00000000E+00  0.00000000E+00  0.00000000E+00
  0.00000000E+00  0.00000000E+00  0.00000000E+00
  0.00000000E+00  0.00000000E+00  0.00000000E+00
  0.00000000E+00  0.00000000E+00  0.00000000E+00
  0.00000000E+00  0.00000000E+00  0.00000000E+00
  0.00000000E+00  0.00000000E+00  0.00000000E+00
  0.00000000E+00  0.00000000E+00  0.00000000E+00
  0.00000000E+00  0.00000000E+00  0.00000000E+00
  0.00000000E+00  0.00000000E+00  0.00000000E+00
  0.00000000E+00  0.00000000E+00  0.00000000E+00
  0.00000000E+00  0.00000000E+00  0.00000000E+00
  0.00000000E+00  0.00000000E+00  0.00000000E+00
  0.00000000E+00  0.00000000E+00  0.00000000E+00
  0.00000000E+00  0.00000000E+00  0.00000000E+00
  0.00000000E+00  0.00000000E+00  0.00000000E+00
  0.00000000E+00  0.00000000E+00  0.00000000E+00
