supercell of POSCAR                     
   1.03600000000000     
     9.6051007291200001   -5.6678653607799996   -9.9907275475200006
     9.5551777488200003    5.5783510108199996    9.9928581731800001
    -1.5573508785200001   -8.3719044994900003    4.9655686364999996
   Al   Gd   N    O 
    72    24    95     1
Direct
  0.3015907617445350  0.2888405771317437  0.5384745288171615
  0.1437588676262465  0.2438933898394353  0.3114382655564896
  0.3084662620974399  0.4092610146758773  0.3111483726736211
  0.4633581056515865  0.3255853003699301  0.7880358042513862
  0.1415176953645485  0.4977604883718385  0.7841541332784630
  0.2998189699319482  0.1691652840249844  0.7822688467672947
  0.4698076330029579  0.4463251986621088  0.5331139908792082
  0.1415545146089201  0.1200853509456934  0.5326801480920196
  0.4795025924285383  0.0708250820348155  0.2976936312629235
  0.2771114490321054  0.1084709290995391  0.3345157805587249
  0.1159308038931428  0.0700530342476071  0.1009199113495711
  0.1145154389710612  0.1960250407821817  0.8169234601865583
  0.2740047397344654  0.3559420112248759  0.8123901965289022
  0.1123313014015892  0.3243658018481881  0.5892780741114194
  0.2708660534671452  0.4851327032491426  0.5768824093862932
  0.4491796810805795  0.2805379335388309  0.3355234706133530
  0.1118760760296453  0.4453401299138449  0.3408985302968617
  0.4483799121550831  0.4042042419068892  0.1023164639799745
  0.8011555157037620  0.2887305725528435  0.5395128981017905
  0.6440557414940216  0.2442108718779110  0.3125722983523502
  0.8082734146003077  0.4091329956521008  0.3116103728607342
  0.9628170384923322  0.3252639176000613  0.7892814275561122
  0.6416548591505133  0.4982918224465891  0.7839326650089617
  0.7951341813808810  0.1652240356259540  0.7800128113833722
  0.9697686751231203  0.4460572621871606  0.5335267348917583
  0.6440612838439463  0.1194778845598847  0.5390259347498585
  0.9795264966520918  0.0715424422280648  0.2983945913857013
  0.7760531817907008  0.1086272771919070  0.3366999158026331
  0.6153347526338138  0.0700012332078757  0.0996060120974533
  0.6151111523044506  0.1960837547316601  0.8168399728774247
  0.7744685779340159  0.3555736990374214  0.8123112786736684
  0.6122929044445442  0.3248013482291441  0.5891991038364779
  0.7708284918163031  0.4853023409428019  0.5768751894467528
  0.9489209100087734  0.2802421734670446  0.3367165897439293
  0.6118913944072304  0.4454826948131583  0.3403311104028077
  0.9481497956841594  0.4046176150563525  0.1028470018448715
  0.3012198050604269  0.7878209667161684  0.5384255154653061
  0.1440950620466026  0.7438730098950757  0.3120153960204846
  0.3089458708404536  0.9085937637729842  0.3090857373180853
  0.4626803464397682  0.8250415501211137  0.7885941622817469
  0.1382371875982074  0.9947810212220674  0.7861696308792858
  0.2951680264072678  0.6646824016264219  0.7796460145401127
  0.4700168028948823  0.9462615081348460  0.5324762220416019
  0.1433884435203083  0.6190101804590284  0.5390053540034714
  0.4793965127264102  0.5710069687414361  0.2986338146609029
  0.2758398533445003  0.6082853526233762  0.3363934105721498
  0.1148683987168724  0.5700182959957871  0.0995828026787677
  0.1146742438621615  0.6957938668663886  0.8163051924210052
  0.2751035206320509  0.8548921868663939  0.8117337231783353
  0.1116314283599706  0.8237052118960762  0.5879542384967422
  0.2734611510111691  0.9811073762264613  0.5715184553582802
  0.4489346799033740  0.7801669758809879  0.3360638693560531
  0.1118170119701958  0.9442665147034575  0.3387857169867772
  0.4483377714223025  0.9043184086897966  0.1029843690067764
  0.8011209971745785  0.7886651849830884  0.5391671210633433
  0.6439399763413007  0.7440753097215520  0.3123689035155763
  0.8083846731900692  0.9089908368490143  0.3112209917229052
  0.9625760129358412  0.8256100400606741  0.7889310043442350
  0.6423354787859381  0.9983037063414884  0.7840724278042828
  0.7954075301155399  0.6650860779556425  0.7794200183940205
  0.9694804105459482  0.9463089251589309  0.5330240600101845
  0.6435446539806549  0.6193532603628213  0.5387772487420719
  0.9794903144779283  0.5709590062824574  0.2990108279088162
  0.7757694844374257  0.6084927224222696  0.3360969076234639
  0.6150164331430688  0.5700546797344330  0.0997578766344844
  0.6149354032086336  0.6958677838493941  0.8162776099630378
  0.7744722878348256  0.8555034397869647  0.8120574115305175
  0.6120277022431608  0.8245233607078575  0.5890395902950729
  0.7708392188332951  0.9852093356597393  0.5765913387863577
  0.9488503934446157  0.7802415559606075  0.3357491096645120
  0.6120095182307494  0.9454268997677673  0.3402855828899476
  0.9488704043395941  0.9043366814578420  0.1019202059875894
  0.4828039345128019  0.1942346608203209  0.0384994785681201
  0.1346107685286384  0.3652665807110935  0.0336605881316032
  0.3081941089373501  0.0210654140338704  0.0379542489433575
  0.2842465825717824  0.2345034691139176  0.0830722980776812
  0.4497751728552544  0.0188024368414972  0.8175858581261721
  0.4452611910533406  0.1556563742809658  0.5697619626405555
  0.9821461770941227  0.1952115567496691  0.0408808831349603
  0.6355306777691467  0.3650417999700863  0.0328321528487905
  0.8073239397534735  0.0206613633292392  0.0414338296101988
  0.7842282686266984  0.2339632796141018  0.0831427620658403
  0.9468443846471573  0.0213635501624907  0.8193739109013052
  0.9433723492410024  0.1560754581038779  0.5721785909710206
  0.4832319412319492  0.6948932975236133  0.0392986220486620
  0.1364716347445452  0.8649305802774521  0.0317649437761673
  0.3073916766345590  0.5209579256765764  0.0406864946891332
  0.2844701999972514  0.7333393604190022  0.0824535893882583
  0.4478866167575362  0.5197914707822520  0.8190414631966121
  0.4435260337878546  0.6554137048277582  0.5716556956810592
  0.9831354300280424  0.6949875452969110  0.0392461702186395
  0.6353478104549808  0.8649289759615542  0.0326878425743971
  0.8075269579551687  0.5210216394195584  0.0404457123236597
  0.7843208480132020  0.7338287070450491  0.0826021751149781
  0.9477997167898025  0.5198599717037240  0.8189878839488358
  0.9432316723618186  0.6553700004149619  0.5713656321967591
  0.2377626663198527  0.3676400492786769  0.6266567773108207
  0.0754761422444830  0.3242915900262560  0.4005219728877734
  0.2390223698268201  0.4898271504306351  0.3909003380614564
  0.4280210632974004  0.2921809788111460  0.1553620116818877
  0.0694053260655210  0.4573885922837704  0.1526904917882206
  0.2356881350524915  0.1032764857582791  0.1548145295828149
  0.3992374768272811  0.3929395631770021  0.9076816258929625
  0.0943279677059650  0.0819543027791028  0.8981792738501611
  0.2336788752109058  0.2432214323804800  0.8650700017380473
  0.3949337958609149  0.0172112020433417  0.6081734446424889
  0.0911322302649538  0.2015643280750012  0.6317741350850241
  0.4047295094292380  0.1554135381627262  0.3520917706027618
  0.2201686690012110  0.1899600045100627  0.4353151284197452
  0.0625926027720212  0.1450907431363788  0.2090283420203534
  0.2157733416454235  0.3202151478362723  0.2103892148728477
  0.3653923580721994  0.1164868813650486  0.9056862841638420
  0.0411564033397482  0.2675539752314933  0.8855131395604587
  0.2092978534223491  0.4349222502702546  0.8899368349663561
  0.3674994239452403  0.2453641676318838  0.6799535966122576
  0.0395982652058606  0.4058923099302376  0.6834726316330446
  0.3820982576487850  0.3522671691954002  0.4327985067183207
  0.0502202816863644  0.0253824264581866  0.4403495930299357
  0.3910823184208780  0.4746753549030487  0.2100323287441412
  0.7376661488560785  0.3682365317657670  0.6268178987558528
  0.5752610968979113  0.3248294376003145  0.4001229735241978
  0.7390586388689471  0.4900713700454915  0.3908460090099126
  0.9281151934337757  0.2930788894550957  0.1570055301076181
  0.5695866615437950  0.4570934256264181  0.1518876390343422
  0.7347896838560075  0.1034620150124468  0.1567878705555472
  0.8999323828518229  0.3936580243200609  0.9090551564127338
  0.5935330760352926  0.0834507505706057  0.9026691721057887
  0.7334243508473719  0.2448381395299180  0.8679554109627148
  0.8955437454386157  0.0167819868242987  0.6086925036278146
  0.5906617894317066  0.2035942226681016  0.6322899740793133
  0.9045385088631903  0.1550073441857478  0.3536207003783076
  0.7196066862209420  0.1909600914979208  0.4353441873318502
  0.5623671457546493  0.1455369713193448  0.2091439674530378
  0.7157514127673110  0.3205108157503034  0.2105382471397377
  0.8643363764832799  0.1176532091750815  0.9114898799043374
  0.5409940034102618  0.2681887740017643  0.8853811247082177
  0.7097449109720486  0.4356141481645324  0.8892421414048286
  0.8667746104601335  0.2462833040581742  0.6826830520930116
  0.5394045537563983  0.4065342102928895  0.6833930937467372
  0.7123115758622234  0.0681110089283123  0.6714225107414507
  0.8821145347066164  0.3522251658265461  0.4334325363825471
  0.5490029872526492  0.0261867264549593  0.4401200542653498
  0.8908664171613623  0.4749856030927333  0.2106564872403709
  0.2371695492972066  0.8681840292000373  0.6260298760190111
  0.0754017904442534  0.8247230941663730  0.3994648051754126
  0.2388073630030618  0.9903316206578836  0.3908446108857717
  0.4279187034602003  0.7925190148391010  0.1563009889144809
  0.0703902092042554  0.9566972374892018  0.1513160273724452
  0.2343698103201248  0.6031473375353684  0.1564836523004871
  0.3996211717685298  0.8939169952658332  0.9085821062761354
  0.0928598047767650  0.5831704824473931  0.9022548587866197
  0.2331491141649096  0.7445195593440843  0.8673943012460157
  0.3952700288774409  0.5164018955706879  0.6088705232329801
  0.0896078850818753  0.7032711820477147  0.6316232520019867
  0.4040889890587636  0.6552220697294828  0.3531512936565093
  0.2192534708300471  0.6907058261372114  0.4352726893065295
  0.0621719859845982  0.6454214571299701  0.2097011987136526
  0.2159411656477204  0.8203872436229105  0.2099975320536487
  0.3650500021632652  0.6175123289481661  0.9105354046395036
  0.0413390392876352  0.7688368112832435  0.8852515402025816
  0.2101998702560834  0.9356964228157167  0.8864019357666564
  0.3663755657839971  0.7463895946792931  0.6822450917155081
  0.0403181783275386  0.9070828550219616  0.6821757665846775
  0.2118304148311054  0.5677593423387961  0.6715875444072807
  0.3817963467898480  0.8526505645126221  0.4332404926294871
  0.0491129865055981  0.5256017778044466  0.4402993748691557
  0.3906961653603176  0.9751710816676606  0.2092789924275067
  0.7375389265745795  0.8682317664303199  0.6266323205255091
  0.5751353957345557  0.8251193821937122  0.4002408242355031
  0.7391844386144442  0.9900262155991797  0.3907058192845696
  0.9281465925667689  0.7927610912553220  0.1559246192165489
  0.5696152812341424  0.9572680993720937  0.1521707809452550
  0.7346778655316655  0.6033587349142522  0.1560871493265736
  0.9001536653206941  0.8943941105728541  0.9081227479366518
  0.5928911598233952  0.5832789114394288  0.9021775595595898
  0.7334689234893403  0.7446111607170778  0.8672895966398215
  0.8953659246002488  0.5163976109859334  0.6087840616640960
  0.5897431658485459  0.7034525815590911  0.6316525262773567
  0.9042778966689724  0.6552915023916981  0.3527269966249165
  0.7195339649568808  0.6909843632622028  0.4352706124668657
  0.5622222564243486  0.6454310366212042  0.2097030271102085
  0.7158849599869299  0.8204811130493610  0.2102845043551156
  0.8652553391998978  0.6176972725937944  0.9102780312486018
  0.5411964993703293  0.7683465626493486  0.8848731630084075
  0.7099343315737627  0.9354767068137875  0.8894348017034375
  0.8670426847242894  0.7465983236754994  0.6821624619501492
  0.5390497427746013  0.9073624194390177  0.6839189727691419
  0.7120328995045000  0.5681920471301041  0.6713994602182893
  0.8823085364830732  0.8524599940630040  0.4332224760615162
  0.5490804814445482  0.5258190180076525  0.4400950504218244
  0.8918424542460031  0.9747302607364077  0.2107434236724828
  0.2115929984862603  0.0664523891925342  0.6683160182915913
 
  0.00000000E+00  0.00000000E+00  0.00000000E+00
  0.00000000E+00  0.00000000E+00  0.00000000E+00
  0.00000000E+00  0.00000000E+00  0.00000000E+00
  0.00000000E+00  0.00000000E+00  0.00000000E+00
  0.00000000E+00  0.00000000E+00  0.00000000E+00
  0.00000000E+00  0.00000000E+00  0.00000000E+00
  0.00000000E+00  0.00000000E+00  0.00000000E+00
  0.00000000E+00  0.00000000E+00  0.00000000E+00
  0.00000000E+00  0.00000000E+00  0.00000000E+00
  0.00000000E+00  0.00000000E+00  0.00000000E+00
  0.00000000E+00  0.00000000E+00  0.00000000E+00
  0.00000000E+00  0.00000000E+00  0.00000000E+00
  0.00000000E+00  0.00000000E+00  0.00000000E+00
  0.00000000E+00  0.00000000E+00  0.00000000E+00
  0.00000000E+00  0.00000000E+00  0.00000000E+00
  0.00000000E+00  0.00000000E+00  0.00000000E+00
  0.00000000E+00  0.00000000E+00  0.00000000E+00
  0.00000000E+00  0.00000000E+00  0.00000000E+00
  0.00000000E+00  0.00000000E+00  0.00000000E+00
  0.00000000E+00  0.00000000E+00  0.00000000E+00
  0.00000000E+00  0.00000000E+00  0.00000000E+00
  0.00000000E+00  0.00000000E+00  0.00000000E+00
  0.00000000E+00  0.00000000E+00  0.00000000E+00
  0.00000000E+00  0.00000000E+00  0.00000000E+00
  0.00000000E+00  0.00000000E+00  0.00000000E+00
  0.00000000E+00  0.00000000E+00  0.00000000E+00
  0.00000000E+00  0.00000000E+00  0.00000000E+00
  0.00000000E+00  0.00000000E+00  0.00000000E+00
  0.00000000E+00  0.00000000E+00  0.00000000E+00
  0.00000000E+00  0.00000000E+00  0.00000000E+00
  0.00000000E+00  0.00000000E+00  0.00000000E+00
  0.00000000E+00  0.00000000E+00  0.00000000E+00
  0.00000000E+00  0.00000000E+00  0.00000000E+00
  0.00000000E+00  0.00000000E+00  0.00000000E+00
  0.00000000E+00  0.00000000E+00  0.00000000E+00
  0.00000000E+00  0.00000000E+00  0.00000000E+00
  0.00000000E+00  0.00000000E+00  0.00000000E+00
  0.00000000E+00  0.00000000E+00  0.00000000E+00
  0.00000000E+00  0.00000000E+00  0.00000000E+00
  0.00000000E+00  0.00000000E+00  0.00000000E+00
  0.00000000E+00  0.00000000E+00  0.00000000E+00
  0.00000000E+00  0.00000000E+00  0.00000000E+00
  0.00000000E+00  0.00000000E+00  0.00000000E+00
  0.00000000E+00  0.00000000E+00  0.00000000E+00
  0.00000000E+00  0.00000000E+00  0.00000000E+00
  0.00000000E+00  0.00000000E+00  0.00000000E+00
  0.00000000E+00  0.00000000E+00  0.00000000E+00
  0.00000000E+00  0.00000000E+00  0.00000000E+00
  0.00000000E+00  0.00000000E+00  0.00000000E+00
  0.00000000E+00  0.00000000E+00  0.00000000E+00
  0.00000000E+00  0.00000000E+00  0.00000000E+00
  0.00000000E+00  0.00000000E+00  0.00000000E+00
  0.00000000E+00  0.00000000E+00  0.00000000E+00
  0.00000000E+00  0.00000000E+00  0.00000000E+00
  0.00000000E+00  0.00000000E+00  0.00000000E+00
  0.00000000E+00  0.00000000E+00  0.00000000E+00
  0.00000000E+00  0.00000000E+00  0.00000000E+00
  0.00000000E+00  0.00000000E+00  0.00000000E+00
  0.00000000E+00  0.00000000E+00  0.00000000E+00
  0.00000000E+00  0.00000000E+00  0.00000000E+00
  0.00000000E+00  0.00000000E+00  0.00000000E+00
  0.00000000E+00  0.00000000E+00  0.00000000E+00
  0.00000000E+00  0.00000000E+00  0.00000000E+00
  0.00000000E+00  0.00000000E+00  0.00000000E+00
  0.00000000E+00  0.00000000E+00  0.00000000E+00
  0.00000000E+00  0.00000000E+00  0.00000000E+00
  0.00000000E+00  0.00000000E+00  0.00000000E+00
  0.00000000E+00  0.00000000E+00  0.00000000E+00
  0.00000000E+00  0.00000000E+00  0.00000000E+00
  0.00000000E+00  0.00000000E+00  0.00000000E+00
  0.00000000E+00  0.00000000E+00  0.00000000E+00
  0.00000000E+00  0.00000000E+00  0.00000000E+00
  0.00000000E+00  0.00000000E+00  0.00000000E+00
  0.00000000E+00  0.00000000E+00  0.00000000E+00
  0.00000000E+00  0.00000000E+00  0.00000000E+00
  0.00000000E+00  0.00000000E+00  0.00000000E+00
  0.00000000E+00  0.00000000E+00  0.00000000E+00
  0.00000000E+00  0.00000000E+00  0.00000000E+00
  0.00000000E+00  0.00000000E+00  0.00000000E+00
  0.00000000E+00  0.00000000E+00  0.00000000E+00
  0.00000000E+00  0.00000000E+00  0.00000000E+00
  0.00000000E+00  0.00000000E+00  0.00000000E+00
  0.00000000E+00  0.00000000E+00  0.00000000E+00
  0.00000000E+00  0.00000000E+00  0.00000000E+00
  0.00000000E+00  0.00000000E+00  0.00000000E+00
  0.00000000E+00  0.00000000E+00  0.00000000E+00
  0.00000000E+00  0.00000000E+00  0.00000000E+00
  0.00000000E+00  0.00000000E+00  0.00000000E+00
  0.00000000E+00  0.00000000E+00  0.00000000E+00
  0.00000000E+00  0.00000000E+00  0.00000000E+00
  0.00000000E+00  0.00000000E+00  0.00000000E+00
  0.00000000E+00  0.00000000E+00  0.00000000E+00
  0.00000000E+00  0.00000000E+00  0.00000000E+00
  0.00000000E+00  0.00000000E+00  0.00000000E+00
  0.00000000E+00  0.00000000E+00  0.00000000E+00
  0.00000000E+00  0.00000000E+00  0.00000000E+00
  0.00000000E+00  0.00000000E+00  0.00000000E+00
  0.00000000E+00  0.00000000E+00  0.00000000E+00
  0.00000000E+00  0.00000000E+00  0.00000000E+00
  0.00000000E+00  0.00000000E+00  0.00000000E+00
  0.00000000E+00  0.00000000E+00  0.00000000E+00
  0.00000000E+00  0.00000000E+00  0.00000000E+00
  0.00000000E+00  0.00000000E+00  0.00000000E+00
  0.00000000E+00  0.00000000E+00  0.00000000E+00
  0.00000000E+00  0.00000000E+00  0.00000000E+00
  0.00000000E+00  0.00000000E+00  0.00000000E+00
  0.00000000E+00  0.00000000E+00  0.00000000E+00
  0.00000000E+00  0.00000000E+00  0.00000000E+00
  0.00000000E+00  0.00000000E+00  0.00000000E+00
  0.00000000E+00  0.00000000E+00  0.00000000E+00
  0.00000000E+00  0.00000000E+00  0.00000000E+00
  0.00000000E+00  0.00000000E+00  0.00000000E+00
  0.00000000E+00  0.00000000E+00  0.00000000E+00
  0.00000000E+00  0.00000000E+00  0.00000000E+00
  0.00000000E+00  0.00000000E+00  0.00000000E+00
  0.00000000E+00  0.00000000E+00  0.00000000E+00
  0.00000000E+00  0.00000000E+00  0.00000000E+00
  0.00000000E+00  0.00000000E+00  0.00000000E+00
  0.00000000E+00  0.00000000E+00  0.00000000E+00
  0.00000000E+00  0.00000000E+00  0.00000000E+00
  0.00000000E+00  0.00000000E+00  0.00000000E+00
  0.00000000E+00  0.00000000E+00  0.00000000E+00
  0.00000000E+00  0.00000000E+00  0.00000000E+00
  0.00000000E+00  0.00000000E+00  0.00000000E+00
  0.00000000E+00  0.00000000E+00  0.00000000E+00
  0.00000000E+00  0.00000000E+00  0.00000000E+00
  0.00000000E+00  0.00000000E+00  0.00000000E+00
  0.00000000E+00  0.00000000E+00  0.00000000E+00
  0.00000000E+00  0.00000000E+00  0.00000000E+00
  0.00000000E+00  0.00000000E+00  0.00000000E+00
  0.00000000E+00  0.00000000E+00  0.00000000E+00
  0.00000000E+00  0.00000000E+00  0.00000000E+00
  0.00000000E+00  0.00000000E+00  0.00000000E+00
  0.00000000E+00  0.00000000E+00  0.00000000E+00
  0.00000000E+00  0.00000000E+00  0.00000000E+00
  0.00000000E+00  0.00000000E+00  0.00000000E+00
  0.00000000E+00  0.00000000E+00  0.00000000E+00
  0.00000000E+00  0.00000000E+00  0.00000000E+00
  0.00000000E+00  0.00000000E+00  0.00000000E+00
  0.00000000E+00  0.00000000E+00  0.00000000E+00
  0.00000000E+00  0.00000000E+00  0.00000000E+00
  0.00000000E+00  0.00000000E+00  0.00000000E+00
  0.00000000E+00  0.00000000E+00  0.00000000E+00
  0.00000000E+00  0.00000000E+00  0.00000000E+00
  0.00000000E+00  0.00000000E+00  0.00000000E+00
  0.00000000E+00  0.00000000E+00  0.00000000E+00
  0.00000000E+00  0.00000000E+00  0.00000000E+00
  0.00000000E+00  0.00000000E+00  0.00000000E+00
  0.00000000E+00  0.00000000E+00  0.00000000E+00
  0.00000000E+00  0.00000000E+00  0.00000000E+00
  0.00000000E+00  0.00000000E+00  0.00000000E+00
  0.00000000E+00  0.00000000E+00  0.00000000E+00
  0.00000000E+00  0.00000000E+00  0.00000000E+00
  0.00000000E+00  0.00000000E+00  0.00000000E+00
  0.00000000E+00  0.00000000E+00  0.00000000E+00
  0.00000000E+00  0.00000000E+00  0.00000000E+00
  0.00000000E+00  0.00000000E+00  0.00000000E+00
  0.00000000E+00  0.00000000E+00  0.00000000E+00
  0.00000000E+00  0.00000000E+00  0.00000000E+00
  0.00000000E+00  0.00000000E+00  0.00000000E+00
  0.00000000E+00  0.00000000E+00  0.00000000E+00
  0.00000000E+00  0.00000000E+00  0.00000000E+00
  0.00000000E+00  0.00000000E+00  0.00000000E+00
  0.00000000E+00  0.00000000E+00  0.00000000E+00
  0.00000000E+00  0.00000000E+00  0.00000000E+00
  0.00000000E+00  0.00000000E+00  0.00000000E+00
  0.00000000E+00  0.00000000E+00  0.00000000E+00
  0.00000000E+00  0.00000000E+00  0.00000000E+00
  0.00000000E+00  0.00000000E+00  0.00000000E+00
  0.00000000E+00  0.00000000E+00  0.00000000E+00
  0.00000000E+00  0.00000000E+00  0.00000000E+00
  0.00000000E+00  0.00000000E+00  0.00000000E+00
  0.00000000E+00  0.00000000E+00  0.00000000E+00
  0.00000000E+00  0.00000000E+00  0.00000000E+00
  0.00000000E+00  0.00000000E+00  0.00000000E+00
  0.00000000E+00  0.00000000E+00  0.00000000E+00
  0.00000000E+00  0.00000000E+00  0.00000000E+00
  0.00000000E+00  0.00000000E+00  0.00000000E+00
  0.00000000E+00  0.00000000E+00  0.00000000E+00
  0.00000000E+00  0.00000000E+00  0.00000000E+00
  0.00000000E+00  0.00000000E+00  0.00000000E+00
  0.00000000E+00  0.00000000E+00  0.00000000E+00
  0.00000000E+00  0.00000000E+00  0.00000000E+00
  0.00000000E+00  0.00000000E+00  0.00000000E+00
  0.00000000E+00  0.00000000E+00  0.00000000E+00
  0.00000000E+00  0.00000000E+00  0.00000000E+00
  0.00000000E+00  0.00000000E+00  0.00000000E+00
  0.00000000E+00  0.00000000E+00  0.00000000E+00
  0.00000000E+00  0.00000000E+00  0.00000000E+00
  0.00000000E+00  0.00000000E+00  0.00000000E+00
  0.00000000E+00  0.00000000E+00  0.00000000E+00
  0.00000000E+00  0.00000000E+00  0.00000000E+00
