supercell of POSCAR                     
   1.00398800000000     
    -6.2729611433599999    0.0082005604289200   10.0015927484000002
     3.1280384584799998    5.4363994576400003   10.0007801159999996
    -7.8567367181199996   13.6110857897000006  -10.0002683574999995
   Al   Sc   N 
    92     3    96
Direct
  0.4796679128936958  0.3135494754447308  0.5421470432105053
  0.0627371083424961  0.3955680782341204  0.7079054641164078
  0.1449822677977934  0.4780941354988499  0.8740472404453143
  0.4354894421463058  0.2698990451094332  0.9571789082959370
  0.0255827990653117  0.3553593301745224  0.1233436367128604
  0.1086446742989793  0.4417100399884504  0.2906915201073659
  0.1884318421175308  0.0216361393461213  0.4598112961941752
  0.2714913984958756  0.1042550489439549  0.6252138651506058
  0.3538195670844928  0.1867061639619578  0.7910530802187736
  0.2260908590105259  0.0638916421545304  0.0401026118597514
  0.3177773046150705  0.1503922120824868  0.2072553864644604
  0.3957412619027849  0.2324902908953135  0.3755323275109888
  0.0009238114870698  0.1662399038417988  0.6667254445322470
  0.0829538568412218  0.2485350547311427  0.8316274634679814
  0.1637785460275936  0.3338708829064814  0.9982558568565381
  0.4521070383216781  0.1239220131222680  0.0811416457962082
  0.0467826276223064  0.2108372749144749  0.2532733170220709
  0.1260816035978252  0.2932572085591758  0.4179200049693534
  0.2091270771824654  0.3752603610538543  0.5834514913266915
  0.2915461592219089  0.4573646633908695  0.7491128047611824
  0.3733257286371270  0.0398508546880336  0.9153106743505930
  0.3339343417539240  0.0054108011056684  0.3384067963523023
  0.4180110692292160  0.0851694500580038  0.5016166326439517
  0.9799946239544681  0.3133594943753408  0.5422126733453894
  0.5627541750655425  0.3956458268864154  0.7080868996783067
  0.6453934843705866  0.4785340385873553  0.8741467100270555
  0.9377794180562944  0.2706690562156808  0.9580663461136680
  0.5125788147952761  0.3522436893698426  0.1230053640120943
  0.6026830227522808  0.4424291248608725  0.2956656386996812
  0.6886735721963717  0.0219178045658381  0.4597398581612211
  0.7715836227686594  0.1042098291398617  0.6253638656136857
  0.8543039790704157  0.1868970457369628  0.7913475379227961
  0.7257400839051016  0.0629969356964608  0.0397322311341526
  0.8171537772996587  0.1414204649459805  0.2097695901186256
  0.8962492853579178  0.2315420775141988  0.3763522000279593
  0.5005735196218026  0.1664809642949407  0.6665939972561858
  0.5824513647893639  0.2488931639014140  0.8315541079567197
  0.6645004298881432  0.3308647432152441  0.9953665856900855
  0.9563951474611798  0.1204172132635009  0.0802820180144082
  0.5410498368570984  0.2148321248988339  0.2522321717668774
  0.6254541448028235  0.2930532505055936  0.4187149410824134
  0.7095639512154648  0.3748996877387185  0.5841179208655802
  0.7922150913407719  0.4572705414452969  0.7497228368324471
  0.8738794916382489  0.0400873016674552  0.9149603094183192
  0.8350002965613612  0.0042853008711603  0.3393872767006343
  0.9186352377011744  0.0844528852711832  0.5021497812173692
  0.4799465399549021  0.8134655725115181  0.5424073249592780
  0.0627421205200633  0.8954841582700936  0.7080109017328198
  0.1449947384420440  0.9786938888944334  0.8740034570547905
  0.4357715533198672  0.7678281874308936  0.9582127462552847
  0.0155421689292083  0.8516108485819984  0.1220991242261107
  0.1027138031884647  0.9405324718380683  0.2960288796963511
  0.1890404083792916  0.5213784982601624  0.4580592585019545
  0.2715248867901607  0.6039672605365851  0.6248309525248459
  0.3539670118319336  0.6865051851033144  0.7910697255992218
  0.2260465066340913  0.5597919875332238  0.0421086323015771
  0.3162889393092527  0.6383730879515142  0.2087433213232117
  0.3968500187533905  0.7309512738555384  0.3760428689404733
  0.0006156720678376  0.6663774579684087  0.6665203415846008
  0.0824230012894063  0.7483383756044688  0.8314884586004609
  0.1629310786538198  0.8306373728028404  0.9950211365443380
  0.4496937332035955  0.6135865160321217  0.0829842421419897
  0.0483588348617161  0.7058819880901765  0.2506238146874438
  0.1268182471853407  0.7904326586753569  0.4179805756892918
  0.2094200730719677  0.8746022729625835  0.5837999649840100
  0.2919423872296605  0.9571211196736371  0.7493507797802081
  0.3728424318552896  0.5401138215502925  0.9149768870316208
  0.3314426231811538  0.5041569320191357  0.3354966068196319
  0.4185924407352104  0.5845908046841757  0.5016715634226188
  0.9800967703992853  0.8129645278103794  0.5419120377062541
  0.5626898933644782  0.8955421543865398  0.7081381790889338
  0.6445938443795214  0.9786944658441925  0.8738087967884809
  0.9357571591907146  0.7691378517113776  0.9573272095986667
  0.5136971920766200  0.8522738424336112  0.1212524214739261
  0.6014512286716496  0.9452488469480187  0.2959863906243854
  0.6887802446303368  0.5220045160966933  0.4598403370120963
  0.7716730166656873  0.6041937435306082  0.6252689203084500
  0.8538685067786744  0.6864897746621921  0.7913022660903763
  0.7266280956340694  0.5628709233680524  0.0410881378505579
  0.8179859247235441  0.6437915952731004  0.2090406302019971
  0.8984232844741129  0.7303969605362397  0.3746730669170617
  0.5008659391427557  0.6661665396252019  0.6666547736532067
  0.5823847285855237  0.7480532458792766  0.8316314295172447
  0.6628725322511571  0.8301915258018369  0.9945628327066203
  0.9605831331346479  0.6166260551825573  0.0823247206979545
  0.5456335478733436  0.7132274730414281  0.2533849328202180
  0.6267475863774763  0.7928626874986122  0.4188476922010693
  0.7093478268955096  0.8751738475087265  0.5839954879693678
  0.7918030954047879  0.9574477767984533  0.7494673976813857
  0.8747835537180464  0.5391685693001094  0.9163983922760650
  0.8355188060410157  0.5045248561484215  0.3379754834660460
  0.9187105142278966  0.5848853080703833  0.5014172902907532
  0.7454918182099846  0.4122321859580040  0.1690585480225764
  0.2411764874747462  0.9151918553526812  0.1694040346278456
  0.7321022459142270  0.9211446631628419  0.1688561988440469
  0.0591045807832487  0.3936368545701612  0.5113475575540321
  0.1419543670180019  0.4753402202525834  0.6759430193092939
  0.2242078952159545  0.0574350163284265  0.8407569343919263
  0.0151940686992873  0.3474580913361009  0.9216108484821817
  0.0860830399376340  0.4316290821303213  0.0813377496240051
  0.1806489987120230  0.0270085469920929  0.2734410505963467
  0.2678897549877348  0.1034650132029213  0.4314909871225723
  0.3510277111593751  0.1845764388459941  0.5943006611417658
  0.4330958921228074  0.2662565433639088  0.7584017173754134
  0.3038408569120605  0.1420190533794354  0.0055452779580847
  0.4246871382607509  0.1931361911328651  0.1775983728158081
  0.4758847927113550  0.3138804324904285  0.3465506145675477
  0.0804421739280059  0.2459085515536330  0.6348849652558997
  0.1628317180951484  0.3283329694313011  0.7997046729526360
  0.2452852345572722  0.4115343640322848  0.9650033568487899
  0.0346604015185719  0.2022263178372370  0.0503300782510081
  0.1233573800957899  0.2897319751837557  0.2188423454978050
  0.2054126769363336  0.3714316934004316  0.3868749468995816
  0.2886417778037469  0.4546977403491681  0.5522301003546559
  0.3716069971901561  0.0369459443731373  0.7175555264807159
  0.4535650752314311  0.1193582927923416  0.8827967095387237
  0.3269643563962248  0.0019701078521663  0.1327009078477701
  0.4104434467720566  0.0832675502911044  0.3045413527314409
  0.4975171794006670  0.1641542227899322  0.4695791592848124
  0.5598059436617859  0.3936729574327842  0.5120945042246987
  0.6424747612820596  0.4753139896859579  0.6765281593878498
  0.7239831746137710  0.0580473166817796  0.8410594256764909
  0.5145893314723651  0.3482211087103408  0.9223004658025928
  0.5947105125985033  0.4242869312392514  0.0837749191116330
  0.6820138664274253  0.0302108975759552  0.2748456901720360
  0.7685555620874780  0.1041131274998435  0.4322309820213235
  0.8514311673695758  0.1843315959583407  0.5946477165952189
  0.9333347872008346  0.2660202697528575  0.7583263277241628
  0.8053816016200841  0.1411787378185849  0.0061733165485478
  0.9116683425910992  0.2038481702375421  0.1782960350493923
  0.9746454704537513  0.3129024508381235  0.3460215241591555
  0.5804093914215471  0.2459892804651673  0.6350058667006309
  0.6629511068809819  0.3284779395520303  0.8001748549686170
  0.7456341267065980  0.4118273041734355  0.9659235858392350
  0.5350691849311815  0.2009301921836339  0.0485132154990069
  0.6262392682019922  0.2935409721404270  0.2187691193292594
  0.7058022350827642  0.3722167335980799  0.3880790818109290
  0.7891506813950500  0.4546129632173290  0.5528457900589743
  0.8716580141028700  0.0370748462275330  0.7178390296016914
  0.9537427618091598  0.1200965165948702  0.8833876645953183
  0.8275809576422759  0.0011075094189863  0.1327260491180269
  0.9121467711288389  0.0821188488827218  0.3051092216529696
  0.9974665571756134  0.1639761789804410  0.4698458864519068
  0.0596556323775346  0.8932571327879728  0.5115311099184510
  0.1422388393658522  0.9751606416875092  0.6762466938165090
  0.2237074668625780  0.5575801910814064  0.8404639007471744
  0.0131218213173128  0.8485534822228260  0.9219186706056846
  0.0873994844706516  0.9289869340661383  0.0828340786865240
  0.1797735311184638  0.5322180401962626  0.2736339848219416
  0.2703028516474575  0.6027588152452310  0.4316753918786134
  0.3515624079948196  0.6843255431603055  0.5944700868083288
  0.4330931546737489  0.7659557833467545  0.7582770317518168
  0.3018458788044356  0.6427592900029495  0.0043555183071007
  0.4095881970067481  0.7116601516392080  0.1801072358314926
  0.4759584137536379  0.8139011738002182  0.3465102873312560
  0.0803897282398864  0.7459219240463568  0.6348726220254761
  0.1626475026486247  0.8284384378110445  0.8001648686160152
  0.2441217053226268  0.9123368490130801  0.9659583871834272
  0.0330996850976462  0.7032044185840078  0.0492595197066095
  0.1234307264883583  0.7950771225447610  0.2175923825657193
  0.2062435723298250  0.8713289254269085  0.3881646960478093
  0.2890234617897462  0.9545882554835714  0.5528446901763715
  0.3714919698234098  0.5369402510133057  0.7174170665292792
  0.4538239977984730  0.6189606980877258  0.8827626495198615
  0.3396358118598926  0.5105393181988163  0.1285714656531312
  0.4130866351418305  0.5823759507022643  0.3049230075847831
  0.4981060229164527  0.6643332691110544  0.4698845395250757
  0.5593291513927525  0.8939414071701535  0.5118160935537048
  0.6420862596628467  0.9754454160825503  0.6764089560446038
  0.7246840602205111  0.5576316897697922  0.8412846602325459
  0.5128183810846565  0.8473960520350943  0.9217886316578543
  0.5848212649351865  0.9279823865377423  0.0803448010490655
  0.6812978513389609  0.5286638602226930  0.2723166721577712
  0.7687746573490770  0.6031533905292221  0.4310881296419709
  0.8511752468485270  0.6844074597304299  0.5941218217236255
  0.9327870965044838  0.7662068840523162  0.7583417113702495
  0.8033100358877761  0.6430571765797453  0.0065114201724725
  0.9037345253372280  0.7149509647245438  0.1774358227103292
  0.9755130247284285  0.8144774848206993  0.3455914355385801
  0.5806287880509515  0.7459444840888878  0.6350731643921179
  0.6625804775250970  0.8283723732854469  0.8001935160394495
  0.7443320838490877  0.9120480446008301  0.9655329584802530
  0.5326208282444682  0.6986028865458067  0.0505583970035204
  0.6239558397880955  0.7957983958933639  0.2180715969492013
  0.7064586542169238  0.8715851319924255  0.3877665344574908
  0.7891423529022248  0.9545615851601283  0.5528590225680290
  0.8716600923376703  0.5370391117886655  0.7176442213224092
  0.9535392407198344  0.6195309085202894  0.8831026836782527
  0.8309211387621858  0.5008081218946998  0.1338361155048418
  0.9126666415201043  0.5811976357285289  0.3035074040773651
  0.9977259657937623  0.6640408317368411  0.4690952182676540
 
  0.00000000E+00  0.00000000E+00  0.00000000E+00
  0.00000000E+00  0.00000000E+00  0.00000000E+00
  0.00000000E+00  0.00000000E+00  0.00000000E+00
  0.00000000E+00  0.00000000E+00  0.00000000E+00
  0.00000000E+00  0.00000000E+00  0.00000000E+00
  0.00000000E+00  0.00000000E+00  0.00000000E+00
  0.00000000E+00  0.00000000E+00  0.00000000E+00
  0.00000000E+00  0.00000000E+00  0.00000000E+00
  0.00000000E+00  0.00000000E+00  0.00000000E+00
  0.00000000E+00  0.00000000E+00  0.00000000E+00
  0.00000000E+00  0.00000000E+00  0.00000000E+00
  0.00000000E+00  0.00000000E+00  0.00000000E+00
  0.00000000E+00  0.00000000E+00  0.00000000E+00
  0.00000000E+00  0.00000000E+00  0.00000000E+00
  0.00000000E+00  0.00000000E+00  0.00000000E+00
  0.00000000E+00  0.00000000E+00  0.00000000E+00
  0.00000000E+00  0.00000000E+00  0.00000000E+00
  0.00000000E+00  0.00000000E+00  0.00000000E+00
  0.00000000E+00  0.00000000E+00  0.00000000E+00
  0.00000000E+00  0.00000000E+00  0.00000000E+00
  0.00000000E+00  0.00000000E+00  0.00000000E+00
  0.00000000E+00  0.00000000E+00  0.00000000E+00
  0.00000000E+00  0.00000000E+00  0.00000000E+00
  0.00000000E+00  0.00000000E+00  0.00000000E+00
  0.00000000E+00  0.00000000E+00  0.00000000E+00
  0.00000000E+00  0.00000000E+00  0.00000000E+00
  0.00000000E+00  0.00000000E+00  0.00000000E+00
  0.00000000E+00  0.00000000E+00  0.00000000E+00
  0.00000000E+00  0.00000000E+00  0.00000000E+00
  0.00000000E+00  0.00000000E+00  0.00000000E+00
  0.00000000E+00  0.00000000E+00  0.00000000E+00
  0.00000000E+00  0.00000000E+00  0.00000000E+00
  0.00000000E+00  0.00000000E+00  0.00000000E+00
  0.00000000E+00  0.00000000E+00  0.00000000E+00
  0.00000000E+00  0.00000000E+00  0.00000000E+00
  0.00000000E+00  0.00000000E+00  0.00000000E+00
  0.00000000E+00  0.00000000E+00  0.00000000E+00
  0.00000000E+00  0.00000000E+00  0.00000000E+00
  0.00000000E+00  0.00000000E+00  0.00000000E+00
  0.00000000E+00  0.00000000E+00  0.00000000E+00
  0.00000000E+00  0.00000000E+00  0.00000000E+00
  0.00000000E+00  0.00000000E+00  0.00000000E+00
  0.00000000E+00  0.00000000E+00  0.00000000E+00
  0.00000000E+00  0.00000000E+00  0.00000000E+00
  0.00000000E+00  0.00000000E+00  0.00000000E+00
  0.00000000E+00  0.00000000E+00  0.00000000E+00
  0.00000000E+00  0.00000000E+00  0.00000000E+00
  0.00000000E+00  0.00000000E+00  0.00000000E+00
  0.00000000E+00  0.00000000E+00  0.00000000E+00
  0.00000000E+00  0.00000000E+00  0.00000000E+00
  0.00000000E+00  0.00000000E+00  0.00000000E+00
  0.00000000E+00  0.00000000E+00  0.00000000E+00
  0.00000000E+00  0.00000000E+00  0.00000000E+00
  0.00000000E+00  0.00000000E+00  0.00000000E+00
  0.00000000E+00  0.00000000E+00  0.00000000E+00
  0.00000000E+00  0.00000000E+00  0.00000000E+00
  0.00000000E+00  0.00000000E+00  0.00000000E+00
  0.00000000E+00  0.00000000E+00  0.00000000E+00
  0.00000000E+00  0.00000000E+00  0.00000000E+00
  0.00000000E+00  0.00000000E+00  0.00000000E+00
  0.00000000E+00  0.00000000E+00  0.00000000E+00
  0.00000000E+00  0.00000000E+00  0.00000000E+00
  0.00000000E+00  0.00000000E+00  0.00000000E+00
  0.00000000E+00  0.00000000E+00  0.00000000E+00
  0.00000000E+00  0.00000000E+00  0.00000000E+00
  0.00000000E+00  0.00000000E+00  0.00000000E+00
  0.00000000E+00  0.00000000E+00  0.00000000E+00
  0.00000000E+00  0.00000000E+00  0.00000000E+00
  0.00000000E+00  0.00000000E+00  0.00000000E+00
  0.00000000E+00  0.00000000E+00  0.00000000E+00
  0.00000000E+00  0.00000000E+00  0.00000000E+00
  0.00000000E+00  0.00000000E+00  0.00000000E+00
  0.00000000E+00  0.00000000E+00  0.00000000E+00
  0.00000000E+00  0.00000000E+00  0.00000000E+00
  0.00000000E+00  0.00000000E+00  0.00000000E+00
  0.00000000E+00  0.00000000E+00  0.00000000E+00
  0.00000000E+00  0.00000000E+00  0.00000000E+00
  0.00000000E+00  0.00000000E+00  0.00000000E+00
  0.00000000E+00  0.00000000E+00  0.00000000E+00
  0.00000000E+00  0.00000000E+00  0.00000000E+00
  0.00000000E+00  0.00000000E+00  0.00000000E+00
  0.00000000E+00  0.00000000E+00  0.00000000E+00
  0.00000000E+00  0.00000000E+00  0.00000000E+00
  0.00000000E+00  0.00000000E+00  0.00000000E+00
  0.00000000E+00  0.00000000E+00  0.00000000E+00
  0.00000000E+00  0.00000000E+00  0.00000000E+00
  0.00000000E+00  0.00000000E+00  0.00000000E+00
  0.00000000E+00  0.00000000E+00  0.00000000E+00
  0.00000000E+00  0.00000000E+00  0.00000000E+00
  0.00000000E+00  0.00000000E+00  0.00000000E+00
  0.00000000E+00  0.00000000E+00  0.00000000E+00
  0.00000000E+00  0.00000000E+00  0.00000000E+00
  0.00000000E+00  0.00000000E+00  0.00000000E+00
  0.00000000E+00  0.00000000E+00  0.00000000E+00
  0.00000000E+00  0.00000000E+00  0.00000000E+00
  0.00000000E+00  0.00000000E+00  0.00000000E+00
  0.00000000E+00  0.00000000E+00  0.00000000E+00
  0.00000000E+00  0.00000000E+00  0.00000000E+00
  0.00000000E+00  0.00000000E+00  0.00000000E+00
  0.00000000E+00  0.00000000E+00  0.00000000E+00
  0.00000000E+00  0.00000000E+00  0.00000000E+00
  0.00000000E+00  0.00000000E+00  0.00000000E+00
  0.00000000E+00  0.00000000E+00  0.00000000E+00
  0.00000000E+00  0.00000000E+00  0.00000000E+00
  0.00000000E+00  0.00000000E+00  0.00000000E+00
  0.00000000E+00  0.00000000E+00  0.00000000E+00
  0.00000000E+00  0.00000000E+00  0.00000000E+00
  0.00000000E+00  0.00000000E+00  0.00000000E+00
  0.00000000E+00  0.00000000E+00  0.00000000E+00
  0.00000000E+00  0.00000000E+00  0.00000000E+00
  0.00000000E+00  0.00000000E+00  0.00000000E+00
  0.00000000E+00  0.00000000E+00  0.00000000E+00
  0.00000000E+00  0.00000000E+00  0.00000000E+00
  0.00000000E+00  0.00000000E+00  0.00000000E+00
  0.00000000E+00  0.00000000E+00  0.00000000E+00
  0.00000000E+00  0.00000000E+00  0.00000000E+00
  0.00000000E+00  0.00000000E+00  0.00000000E+00
  0.00000000E+00  0.00000000E+00  0.00000000E+00
  0.00000000E+00  0.00000000E+00  0.00000000E+00
  0.00000000E+00  0.00000000E+00  0.00000000E+00
  0.00000000E+00  0.00000000E+00  0.00000000E+00
  0.00000000E+00  0.00000000E+00  0.00000000E+00
  0.00000000E+00  0.00000000E+00  0.00000000E+00
  0.00000000E+00  0.00000000E+00  0.00000000E+00
  0.00000000E+00  0.00000000E+00  0.00000000E+00
  0.00000000E+00  0.00000000E+00  0.00000000E+00
  0.00000000E+00  0.00000000E+00  0.00000000E+00
  0.00000000E+00  0.00000000E+00  0.00000000E+00
  0.00000000E+00  0.00000000E+00  0.00000000E+00
  0.00000000E+00  0.00000000E+00  0.00000000E+00
  0.00000000E+00  0.00000000E+00  0.00000000E+00
  0.00000000E+00  0.00000000E+00  0.00000000E+00
  0.00000000E+00  0.00000000E+00  0.00000000E+00
  0.00000000E+00  0.00000000E+00  0.00000000E+00
  0.00000000E+00  0.00000000E+00  0.00000000E+00
  0.00000000E+00  0.00000000E+00  0.00000000E+00
  0.00000000E+00  0.00000000E+00  0.00000000E+00
  0.00000000E+00  0.00000000E+00  0.00000000E+00
  0.00000000E+00  0.00000000E+00  0.00000000E+00
  0.00000000E+00  0.00000000E+00  0.00000000E+00
  0.00000000E+00  0.00000000E+00  0.00000000E+00
  0.00000000E+00  0.00000000E+00  0.00000000E+00
  0.00000000E+00  0.00000000E+00  0.00000000E+00
  0.00000000E+00  0.00000000E+00  0.00000000E+00
  0.00000000E+00  0.00000000E+00  0.00000000E+00
  0.00000000E+00  0.00000000E+00  0.00000000E+00
  0.00000000E+00  0.00000000E+00  0.00000000E+00
  0.00000000E+00  0.00000000E+00  0.00000000E+00
  0.00000000E+00  0.00000000E+00  0.00000000E+00
  0.00000000E+00  0.00000000E+00  0.00000000E+00
  0.00000000E+00  0.00000000E+00  0.00000000E+00
  0.00000000E+00  0.00000000E+00  0.00000000E+00
  0.00000000E+00  0.00000000E+00  0.00000000E+00
  0.00000000E+00  0.00000000E+00  0.00000000E+00
  0.00000000E+00  0.00000000E+00  0.00000000E+00
  0.00000000E+00  0.00000000E+00  0.00000000E+00
  0.00000000E+00  0.00000000E+00  0.00000000E+00
  0.00000000E+00  0.00000000E+00  0.00000000E+00
  0.00000000E+00  0.00000000E+00  0.00000000E+00
  0.00000000E+00  0.00000000E+00  0.00000000E+00
  0.00000000E+00  0.00000000E+00  0.00000000E+00
  0.00000000E+00  0.00000000E+00  0.00000000E+00
  0.00000000E+00  0.00000000E+00  0.00000000E+00
  0.00000000E+00  0.00000000E+00  0.00000000E+00
  0.00000000E+00  0.00000000E+00  0.00000000E+00
  0.00000000E+00  0.00000000E+00  0.00000000E+00
  0.00000000E+00  0.00000000E+00  0.00000000E+00
  0.00000000E+00  0.00000000E+00  0.00000000E+00
  0.00000000E+00  0.00000000E+00  0.00000000E+00
  0.00000000E+00  0.00000000E+00  0.00000000E+00
  0.00000000E+00  0.00000000E+00  0.00000000E+00
  0.00000000E+00  0.00000000E+00  0.00000000E+00
  0.00000000E+00  0.00000000E+00  0.00000000E+00
  0.00000000E+00  0.00000000E+00  0.00000000E+00
  0.00000000E+00  0.00000000E+00  0.00000000E+00
  0.00000000E+00  0.00000000E+00  0.00000000E+00
  0.00000000E+00  0.00000000E+00  0.00000000E+00
  0.00000000E+00  0.00000000E+00  0.00000000E+00
  0.00000000E+00  0.00000000E+00  0.00000000E+00
  0.00000000E+00  0.00000000E+00  0.00000000E+00
  0.00000000E+00  0.00000000E+00  0.00000000E+00
  0.00000000E+00  0.00000000E+00  0.00000000E+00
  0.00000000E+00  0.00000000E+00  0.00000000E+00
  0.00000000E+00  0.00000000E+00  0.00000000E+00
  0.00000000E+00  0.00000000E+00  0.00000000E+00
  0.00000000E+00  0.00000000E+00  0.00000000E+00
  0.00000000E+00  0.00000000E+00  0.00000000E+00
  0.00000000E+00  0.00000000E+00  0.00000000E+00
  0.00000000E+00  0.00000000E+00  0.00000000E+00
  0.00000000E+00  0.00000000E+00  0.00000000E+00
  0.00000000E+00  0.00000000E+00  0.00000000E+00
