supercell of POSCAR                     
   1.00398800000000     
    -6.2729611433599999    0.0082005604289200   10.0015927484000002
     3.1280384584799998    5.4363994576400003   10.0007801159999996
    -7.8567367181199996   13.6110857897000006  -10.0002683574999995
   Al   Sc   N 
    91     4    96
Direct
  0.4797355809903152  0.3136137740374068  0.5428177137643289
  0.0620803314686142  0.3960073556132926  0.7079143912697674
  0.1424837494326141  0.4791779010792752  0.8729227563864868
  0.4378163739202137  0.2670352201832458  0.9567160560041970
  0.0166061260007524  0.3493729275598056  0.1209451077921386
  0.1046650369886777  0.4407902128999055  0.2955385177846708
  0.1886490024386660  0.0219899754201904  0.4605345488604584
  0.2711832226075188  0.1045804319907759  0.6254687027098953
  0.3536463427983918  0.1875546611924221  0.7905837860936273
  0.2254046235777878  0.0626224844417109  0.0400117022472060
  0.3190482810614768  0.1409100854368006  0.2096729650468205
  0.3972703896737286  0.2311438676384512  0.3767541008279096
  0.0006198018103518  0.1664474054197811  0.6666506841727298
  0.0843245762353675  0.2482643680264331  0.8312167089212323
  0.4584995145977260  0.1215263242289879  0.0814539444119262
  0.0464808041421492  0.2109614988728410  0.2534438559601071
  0.1265574918786712  0.2926265078106240  0.4192923414742111
  0.2090834823279053  0.3752605584313784  0.5842467797898934
  0.2913467159328178  0.4577632763462205  0.7490781790198682
  0.3728580434654347  0.0408060430350119  0.9129994560421721
  0.3348345809299005  0.0042385303620662  0.3391465497231323
  0.4183076537007722  0.0849219381997557  0.5023393203157767
  0.9796837585118539  0.3136337444875537  0.5427427628021420
  0.5624076422868498  0.3959947463097890  0.7081447858958541
  0.6443832030469636  0.4788787362130194  0.8737709558721889
  0.9359301697996543  0.2690407041302691  0.9574880605579352
  0.5174518456334098  0.3524272209160770  0.1217968947201697
  0.6040172062638263  0.4418044092216746  0.2965932540031773
  0.6887550081392178  0.0218508927437071  0.4605698667785703
  0.7712809054103360  0.1045903783115065  0.6256221113858942
  0.8539336234837620  0.1872343057170980  0.7911719909954371
  0.7274447599344711  0.0621149787318629  0.0396626621137344
  0.8189824070327774  0.1408533529703533  0.2097659667942580
  0.8971088121134656  0.2311754232747418  0.3768059438867013
  0.5004306765103692  0.1667395585325053  0.6666571726784838
  0.5824278621306433  0.2488310142517633  0.8309241048605074
  0.6631776000528831  0.3313321979079831  0.9948777267290225
  0.9555417380324798  0.1192392411610115  0.0799159673073646
  0.5468372447799013  0.2115146815205549  0.2536797169878824
  0.6267724540931354  0.2924443371351018  0.4195726385933298
  0.7091915171614360  0.3752814405006006  0.5844429373415352
  0.7916240036280797  0.4576626624684579  0.7496425192718661
  0.8729218234313834  0.0404903672477488  0.9144341364621553
  0.8351504778994681  0.0037250385517709  0.3390832052159993
  0.9184086767616861  0.0847462520216311  0.5023289584506543
  0.4796898059604686  0.8135653489088384  0.5427811616886586
  0.0621846481282589  0.8960140189293142  0.7080113133928947
  0.1441983332692871  0.9790373789609177  0.8734794439205373
  0.4348828377552962  0.7698613374658834  0.9562794235833323
  0.0172645916013181  0.8517120991233185  0.1219178407057981
  0.1038558813100678  0.9414402736276415  0.2964984365305341
  0.1886654846104179  0.5217783440120840  0.4603052657524671
  0.2711839538894978  0.6045044813169014  0.6254406973789557
  0.3533462079137308  0.6868261752938807  0.7909601376415480
  0.2262793568975070  0.5650541694577527  0.0407267399903901
  0.3197037064028052  0.6409135641899795  0.2098412467207069
  0.3971905220361762  0.7312224650854375  0.3767757402771892
  0.0003595920351458  0.6666697258766305  0.6667192588047612
  0.0817208473709528  0.7494108070890491  0.8309825377478077
  0.1623319433283328  0.8321577022009379  0.9945435908969742
  0.4563569696961594  0.6204664163566989  0.0798843776131193
  0.0479799152277778  0.7096418538046834  0.2529119862984288
  0.1266800573277536  0.7921832138931819  0.4192512899938734
  0.2091622807216709  0.8750408833970624  0.5841743194148208
  0.2912252309226915  0.9575430961718112  0.7489462959227993
  0.3723241799041830  0.5394982447715435  0.9148316378323926
  0.3349184073383640  0.5035436350602680  0.3385576241033377
  0.4182511980183747  0.5847051596640611  0.5021032235890885
  0.9797008941021303  0.8134955467370446  0.5427282894083021
  0.5620169610861225  0.8961970719024208  0.7078908798610968
  0.6445679546501069  0.9788256492034790  0.8730700405059579
  0.9353589692032003  0.7706351022790301  0.9560625752471452
  0.5167054261627229  0.8519161403621709  0.1218437486799289
  0.6040978619705015  0.9415428398586911  0.2963355433765216
  0.6887405502861128  0.5220161240650683  0.4605722170740094
  0.7711382444867212  0.6045392730401602  0.6255833649573646
  0.8529855681470480  0.6875269365193404  0.7905294444304332
  0.7265100865689007  0.5627027962149711  0.0394321396442123
  0.8199384882011742  0.6395419072798703  0.2090757457140882
  0.8973682216638963  0.7307542225458405  0.3764721881495348
  0.5003210339963218  0.6664489760498356  0.6666484353442712
  0.5812874401055339  0.7494089876823438  0.8306525040231207
  0.6610402847194266  0.8332531863999577  0.9941705314238334
  0.9545073723718787  0.6214496180814422  0.0770106361169383
  0.5470029894111121  0.7114339433438275  0.2534749205326463
  0.6266649939039723  0.7925832745469705  0.4194530587317331
  0.7091509970044214  0.8752505100775494  0.5843554088871770
  0.7913937302750966  0.9579346103835888  0.7491817201016460
  0.8713503847130895  0.5440707249176384  0.9149326984819126
  0.8351659697831124  0.5041170676620865  0.3390781209657163
  0.9183295278616299  0.5849374612657670  0.5023292135028470
  0.2432535983255946  0.4114981400328048  0.1660205440056188
  0.7427424689745976  0.4126538400226778  0.1690143039355760
  0.2427948951865559  0.9126440414265318  0.1690420633107905
  0.7441832314507693  0.9113764992821984  0.1689597939569936
  0.0591827807950054  0.3936703327945423  0.5114282011180435
  0.1416190199720972  0.4757148320148161  0.6763829989196282
  0.2236784144992114  0.0581043534436390  0.8411083272657010
  0.9983665131192296  0.3521499372751222  0.9166443420392341
  0.0819962861206847  0.4343029780863290  0.0857183299696445
  0.1820429121196199  0.0270648968926253  0.2720686803532715
  0.2685566234779984  0.1030558139186368  0.4310677633693416
  0.3508563956045947  0.1846646708962894  0.5943366534014416
  0.4328547291005975  0.2668913833162563  0.7585685372654254
  0.3198478095570465  0.1235320218463158  0.0083654935004418
  0.4122835121896742  0.2061128354782511  0.1784283006711220
  0.4767250596405788  0.3123844357920262  0.3456015393651484
  0.0801796788513371  0.2462079487047646  0.6350583553198845
  0.1627271045638921  0.3288974631494455  0.8002809449864330
  0.2546902585102799  0.4220739634051824  0.9632213921832076
  0.0346416356086792  0.2001211901934425  0.0495541080885502
  0.1254867260024710  0.2919967101275702  0.2174173136850470
  0.2062094822768330  0.3715721121425304  0.3872846228794344
  0.2887364817824860  0.4547339013724638  0.5526846285422664
  0.3711078179613878  0.0375970096481453  0.7178963555114777
  0.4536415416790689  0.1199050917141733  0.8829119645000603
  0.3296752544689241  0.9997031925468178  0.1335135575325666
  0.4128844631993687  0.0813490785937745  0.3044076741135484
  0.4975623977344981  0.1640928080007100  0.4695114098865432
  0.5593010216742229  0.3936151413366460  0.5115987328560720
  0.6419568291730826  0.4757042999479495  0.6766190150162501
  0.7237593425706166  0.0583112633162699  0.8413250585622478
  0.5151096071869077  0.3479679648836651  0.9224974990729748
  0.5886137834741163  0.4296505841425216  0.0831534174060167
  0.6825727135994342  0.0269181230907947  0.2716096501997498
  0.7687936544796017  0.1026538636112164  0.4309980373936355
  0.8509341430310897  0.1845783126594043  0.5943536408947594
  0.9331384008755066  0.2664537290812845  0.7586738879814519
  0.8045787528351269  0.1422888461358127  0.0068125530831793
  0.9116172675431642  0.2056875001339264  0.1778315143007561
  0.9761360616534631  0.3125718917033993  0.3454040243758669
  0.5802514884591972  0.2462790270347952  0.6351468595936893
  0.6627813334133066  0.3289696256135670  0.8005533889660583
  0.7441126732809593  0.4123650077464802  0.9666068694427778
  0.5362003111079403  0.2018001215088248  0.0500527634207799
  0.6257783932375105  0.2933699051033258  0.2177604278205436
  0.7063190880589616  0.3716046816375638  0.3877761048122608
  0.7888216124473431  0.4547906686902863  0.5528627497238574
  0.8713276013928493  0.0376155227695634  0.7180095285647425
  0.9532701736010125  0.1195777531794988  0.8835983906938267
  0.8299443731931788  0.9998563904798559  0.1330386305564843
  0.9126461212985717  0.0813488931146296  0.3044405894803504
  0.9974790956120145  0.1640961702990751  0.4695114426680718
  0.0592048188040835  0.8934230173694928  0.5113430392370759
  0.1416711557139791  0.9755960101125254  0.6762776698392159
  0.2230933111109508  0.5589356341268967  0.8409034189058104
  0.0135201744543778  0.8491071394945493  0.9224337996790197
  0.0885135293252688  0.9289436152084818  0.0832303895986044
  0.1836027461678142  0.5252250597098396  0.2703949513135910
  0.2686197042551228  0.6025513388297128  0.4306168028108104
  0.3508635523907984  0.6844246142175550  0.5941357812609525
  0.4321681593618649  0.7666671469570332  0.7584358689212891
  0.3047661041428853  0.6442938455205294  0.0070406523086035
  0.4122766231455657  0.7061521069036871  0.1779562429056298
  0.4763249898080062  0.8127530346710827  0.3454277085669091
  0.0801535771310640  0.7461916030287554  0.6350836874335286
  0.1623349121311364  0.8290650867710667  0.8004245644382522
  0.2440960240416032  0.9122601314376269  0.9661670555419946
  0.0342295227406950  0.7031715429558574  0.0490897618112456
  0.1260100356870311  0.7928657023472780  0.2176375916820845
  0.2062643816170606  0.8715268880320153  0.3877163858047012
  0.2887926613471166  0.9547461103806754  0.5528060074995551
  0.3713127220822372  0.5373376619313319  0.7178044020646297
  0.4528843480394116  0.6196444561809997  0.8835231292747068
  0.3304385090422954  0.5010768656822151  0.1329652346702161
  0.4128384860145573  0.5814847477415057  0.3044729674069444
  0.4975149233975387  0.6641265263041944  0.4694700904886204
  0.5592094347171610  0.8936720099404454  0.5115373624155524
  0.6416599723163330  0.9758788247701986  0.6764626976481267
  0.7225426982905390  0.5593534406861025  0.8414383526098277
  0.5131421542195369  0.8486530382445281  0.9219933003774372
  0.5888435323508574  0.9296160371619777  0.0835388824220047
  0.6822314535108944  0.5274155602791666  0.2720281981036834
  0.7687096120613646  0.6029846892390154  0.4310019779510625
  0.8508274763340111  0.6845977930457963  0.5943543418097192
  0.9323959261002770  0.7669467968697532  0.7585664173243600
  0.8017765428627115  0.6451119502991816  0.0063339353166967
  0.9133040144727858  0.7039387681172897  0.1767489563985336
  0.9766746009108687  0.8117919026128817  0.3448284348817623
  0.5800781302363589  0.7462267370321740  0.6351283588048418
  0.6621364822356171  0.8291106747403845  0.8002718415188141
  0.7441497644962922  0.9129613883623904  0.9660812954518789
  0.5346930178045213  0.7023322329585469  0.0494813768644349
  0.6266138168953859  0.7928429265189934  0.2175429400357345
  0.7065011398202543  0.8714781842155048  0.3875804260564735
  0.7888557766986040  0.9547495341670000  0.5528734088829310
  0.8712420361645670  0.5374109777508380  0.7180058035877437
  0.9524114426441415  0.6213924988970874  0.8832818389190678
  0.8289885150747693  0.4995473800459607  0.1326660488568265
  0.9132826625724988  0.5809418539402316  0.3039807964245043
  0.9974920713190869  0.6640857441377506  0.4693422836988574
 
  0.00000000E+00  0.00000000E+00  0.00000000E+00
  0.00000000E+00  0.00000000E+00  0.00000000E+00
  0.00000000E+00  0.00000000E+00  0.00000000E+00
  0.00000000E+00  0.00000000E+00  0.00000000E+00
  0.00000000E+00  0.00000000E+00  0.00000000E+00
  0.00000000E+00  0.00000000E+00  0.00000000E+00
  0.00000000E+00  0.00000000E+00  0.00000000E+00
  0.00000000E+00  0.00000000E+00  0.00000000E+00
  0.00000000E+00  0.00000000E+00  0.00000000E+00
  0.00000000E+00  0.00000000E+00  0.00000000E+00
  0.00000000E+00  0.00000000E+00  0.00000000E+00
  0.00000000E+00  0.00000000E+00  0.00000000E+00
  0.00000000E+00  0.00000000E+00  0.00000000E+00
  0.00000000E+00  0.00000000E+00  0.00000000E+00
  0.00000000E+00  0.00000000E+00  0.00000000E+00
  0.00000000E+00  0.00000000E+00  0.00000000E+00
  0.00000000E+00  0.00000000E+00  0.00000000E+00
  0.00000000E+00  0.00000000E+00  0.00000000E+00
  0.00000000E+00  0.00000000E+00  0.00000000E+00
  0.00000000E+00  0.00000000E+00  0.00000000E+00
  0.00000000E+00  0.00000000E+00  0.00000000E+00
  0.00000000E+00  0.00000000E+00  0.00000000E+00
  0.00000000E+00  0.00000000E+00  0.00000000E+00
  0.00000000E+00  0.00000000E+00  0.00000000E+00
  0.00000000E+00  0.00000000E+00  0.00000000E+00
  0.00000000E+00  0.00000000E+00  0.00000000E+00
  0.00000000E+00  0.00000000E+00  0.00000000E+00
  0.00000000E+00  0.00000000E+00  0.00000000E+00
  0.00000000E+00  0.00000000E+00  0.00000000E+00
  0.00000000E+00  0.00000000E+00  0.00000000E+00
  0.00000000E+00  0.00000000E+00  0.00000000E+00
  0.00000000E+00  0.00000000E+00  0.00000000E+00
  0.00000000E+00  0.00000000E+00  0.00000000E+00
  0.00000000E+00  0.00000000E+00  0.00000000E+00
  0.00000000E+00  0.00000000E+00  0.00000000E+00
  0.00000000E+00  0.00000000E+00  0.00000000E+00
  0.00000000E+00  0.00000000E+00  0.00000000E+00
  0.00000000E+00  0.00000000E+00  0.00000000E+00
  0.00000000E+00  0.00000000E+00  0.00000000E+00
  0.00000000E+00  0.00000000E+00  0.00000000E+00
  0.00000000E+00  0.00000000E+00  0.00000000E+00
  0.00000000E+00  0.00000000E+00  0.00000000E+00
  0.00000000E+00  0.00000000E+00  0.00000000E+00
  0.00000000E+00  0.00000000E+00  0.00000000E+00
  0.00000000E+00  0.00000000E+00  0.00000000E+00
  0.00000000E+00  0.00000000E+00  0.00000000E+00
  0.00000000E+00  0.00000000E+00  0.00000000E+00
  0.00000000E+00  0.00000000E+00  0.00000000E+00
  0.00000000E+00  0.00000000E+00  0.00000000E+00
  0.00000000E+00  0.00000000E+00  0.00000000E+00
  0.00000000E+00  0.00000000E+00  0.00000000E+00
  0.00000000E+00  0.00000000E+00  0.00000000E+00
  0.00000000E+00  0.00000000E+00  0.00000000E+00
  0.00000000E+00  0.00000000E+00  0.00000000E+00
  0.00000000E+00  0.00000000E+00  0.00000000E+00
  0.00000000E+00  0.00000000E+00  0.00000000E+00
  0.00000000E+00  0.00000000E+00  0.00000000E+00
  0.00000000E+00  0.00000000E+00  0.00000000E+00
  0.00000000E+00  0.00000000E+00  0.00000000E+00
  0.00000000E+00  0.00000000E+00  0.00000000E+00
  0.00000000E+00  0.00000000E+00  0.00000000E+00
  0.00000000E+00  0.00000000E+00  0.00000000E+00
  0.00000000E+00  0.00000000E+00  0.00000000E+00
  0.00000000E+00  0.00000000E+00  0.00000000E+00
  0.00000000E+00  0.00000000E+00  0.00000000E+00
  0.00000000E+00  0.00000000E+00  0.00000000E+00
  0.00000000E+00  0.00000000E+00  0.00000000E+00
  0.00000000E+00  0.00000000E+00  0.00000000E+00
  0.00000000E+00  0.00000000E+00  0.00000000E+00
  0.00000000E+00  0.00000000E+00  0.00000000E+00
  0.00000000E+00  0.00000000E+00  0.00000000E+00
  0.00000000E+00  0.00000000E+00  0.00000000E+00
  0.00000000E+00  0.00000000E+00  0.00000000E+00
  0.00000000E+00  0.00000000E+00  0.00000000E+00
  0.00000000E+00  0.00000000E+00  0.00000000E+00
  0.00000000E+00  0.00000000E+00  0.00000000E+00
  0.00000000E+00  0.00000000E+00  0.00000000E+00
  0.00000000E+00  0.00000000E+00  0.00000000E+00
  0.00000000E+00  0.00000000E+00  0.00000000E+00
  0.00000000E+00  0.00000000E+00  0.00000000E+00
  0.00000000E+00  0.00000000E+00  0.00000000E+00
  0.00000000E+00  0.00000000E+00  0.00000000E+00
  0.00000000E+00  0.00000000E+00  0.00000000E+00
  0.00000000E+00  0.00000000E+00  0.00000000E+00
  0.00000000E+00  0.00000000E+00  0.00000000E+00
  0.00000000E+00  0.00000000E+00  0.00000000E+00
  0.00000000E+00  0.00000000E+00  0.00000000E+00
  0.00000000E+00  0.00000000E+00  0.00000000E+00
  0.00000000E+00  0.00000000E+00  0.00000000E+00
  0.00000000E+00  0.00000000E+00  0.00000000E+00
  0.00000000E+00  0.00000000E+00  0.00000000E+00
  0.00000000E+00  0.00000000E+00  0.00000000E+00
  0.00000000E+00  0.00000000E+00  0.00000000E+00
  0.00000000E+00  0.00000000E+00  0.00000000E+00
  0.00000000E+00  0.00000000E+00  0.00000000E+00
  0.00000000E+00  0.00000000E+00  0.00000000E+00
  0.00000000E+00  0.00000000E+00  0.00000000E+00
  0.00000000E+00  0.00000000E+00  0.00000000E+00
  0.00000000E+00  0.00000000E+00  0.00000000E+00
  0.00000000E+00  0.00000000E+00  0.00000000E+00
  0.00000000E+00  0.00000000E+00  0.00000000E+00
  0.00000000E+00  0.00000000E+00  0.00000000E+00
  0.00000000E+00  0.00000000E+00  0.00000000E+00
  0.00000000E+00  0.00000000E+00  0.00000000E+00
  0.00000000E+00  0.00000000E+00  0.00000000E+00
  0.00000000E+00  0.00000000E+00  0.00000000E+00
  0.00000000E+00  0.00000000E+00  0.00000000E+00
  0.00000000E+00  0.00000000E+00  0.00000000E+00
  0.00000000E+00  0.00000000E+00  0.00000000E+00
  0.00000000E+00  0.00000000E+00  0.00000000E+00
  0.00000000E+00  0.00000000E+00  0.00000000E+00
  0.00000000E+00  0.00000000E+00  0.00000000E+00
  0.00000000E+00  0.00000000E+00  0.00000000E+00
  0.00000000E+00  0.00000000E+00  0.00000000E+00
  0.00000000E+00  0.00000000E+00  0.00000000E+00
  0.00000000E+00  0.00000000E+00  0.00000000E+00
  0.00000000E+00  0.00000000E+00  0.00000000E+00
  0.00000000E+00  0.00000000E+00  0.00000000E+00
  0.00000000E+00  0.00000000E+00  0.00000000E+00
  0.00000000E+00  0.00000000E+00  0.00000000E+00
  0.00000000E+00  0.00000000E+00  0.00000000E+00
  0.00000000E+00  0.00000000E+00  0.00000000E+00
  0.00000000E+00  0.00000000E+00  0.00000000E+00
  0.00000000E+00  0.00000000E+00  0.00000000E+00
  0.00000000E+00  0.00000000E+00  0.00000000E+00
  0.00000000E+00  0.00000000E+00  0.00000000E+00
  0.00000000E+00  0.00000000E+00  0.00000000E+00
  0.00000000E+00  0.00000000E+00  0.00000000E+00
  0.00000000E+00  0.00000000E+00  0.00000000E+00
  0.00000000E+00  0.00000000E+00  0.00000000E+00
  0.00000000E+00  0.00000000E+00  0.00000000E+00
  0.00000000E+00  0.00000000E+00  0.00000000E+00
  0.00000000E+00  0.00000000E+00  0.00000000E+00
  0.00000000E+00  0.00000000E+00  0.00000000E+00
  0.00000000E+00  0.00000000E+00  0.00000000E+00
  0.00000000E+00  0.00000000E+00  0.00000000E+00
  0.00000000E+00  0.00000000E+00  0.00000000E+00
  0.00000000E+00  0.00000000E+00  0.00000000E+00
  0.00000000E+00  0.00000000E+00  0.00000000E+00
  0.00000000E+00  0.00000000E+00  0.00000000E+00
  0.00000000E+00  0.00000000E+00  0.00000000E+00
  0.00000000E+00  0.00000000E+00  0.00000000E+00
  0.00000000E+00  0.00000000E+00  0.00000000E+00
  0.00000000E+00  0.00000000E+00  0.00000000E+00
  0.00000000E+00  0.00000000E+00  0.00000000E+00
  0.00000000E+00  0.00000000E+00  0.00000000E+00
  0.00000000E+00  0.00000000E+00  0.00000000E+00
  0.00000000E+00  0.00000000E+00  0.00000000E+00
  0.00000000E+00  0.00000000E+00  0.00000000E+00
  0.00000000E+00  0.00000000E+00  0.00000000E+00
  0.00000000E+00  0.00000000E+00  0.00000000E+00
  0.00000000E+00  0.00000000E+00  0.00000000E+00
  0.00000000E+00  0.00000000E+00  0.00000000E+00
  0.00000000E+00  0.00000000E+00  0.00000000E+00
  0.00000000E+00  0.00000000E+00  0.00000000E+00
  0.00000000E+00  0.00000000E+00  0.00000000E+00
  0.00000000E+00  0.00000000E+00  0.00000000E+00
  0.00000000E+00  0.00000000E+00  0.00000000E+00
  0.00000000E+00  0.00000000E+00  0.00000000E+00
  0.00000000E+00  0.00000000E+00  0.00000000E+00
  0.00000000E+00  0.00000000E+00  0.00000000E+00
  0.00000000E+00  0.00000000E+00  0.00000000E+00
  0.00000000E+00  0.00000000E+00  0.00000000E+00
  0.00000000E+00  0.00000000E+00  0.00000000E+00
  0.00000000E+00  0.00000000E+00  0.00000000E+00
  0.00000000E+00  0.00000000E+00  0.00000000E+00
  0.00000000E+00  0.00000000E+00  0.00000000E+00
  0.00000000E+00  0.00000000E+00  0.00000000E+00
  0.00000000E+00  0.00000000E+00  0.00000000E+00
  0.00000000E+00  0.00000000E+00  0.00000000E+00
  0.00000000E+00  0.00000000E+00  0.00000000E+00
  0.00000000E+00  0.00000000E+00  0.00000000E+00
  0.00000000E+00  0.00000000E+00  0.00000000E+00
  0.00000000E+00  0.00000000E+00  0.00000000E+00
  0.00000000E+00  0.00000000E+00  0.00000000E+00
  0.00000000E+00  0.00000000E+00  0.00000000E+00
  0.00000000E+00  0.00000000E+00  0.00000000E+00
  0.00000000E+00  0.00000000E+00  0.00000000E+00
  0.00000000E+00  0.00000000E+00  0.00000000E+00
  0.00000000E+00  0.00000000E+00  0.00000000E+00
  0.00000000E+00  0.00000000E+00  0.00000000E+00
  0.00000000E+00  0.00000000E+00  0.00000000E+00
  0.00000000E+00  0.00000000E+00  0.00000000E+00
  0.00000000E+00  0.00000000E+00  0.00000000E+00
  0.00000000E+00  0.00000000E+00  0.00000000E+00
  0.00000000E+00  0.00000000E+00  0.00000000E+00
  0.00000000E+00  0.00000000E+00  0.00000000E+00
  0.00000000E+00  0.00000000E+00  0.00000000E+00
  0.00000000E+00  0.00000000E+00  0.00000000E+00
  0.00000000E+00  0.00000000E+00  0.00000000E+00
  0.00000000E+00  0.00000000E+00  0.00000000E+00
