supercell of POSCAR                     
   1.00398800000000     
    -6.2729611433599999    0.0082005604289200   10.0015927484000002
     3.1280384584799998    5.4363994576400003   10.0007801159999996
    -7.8567367181199996   13.6110857897000006  -10.0002683574999995
   Al   Sc   N 
    92     3    96
Direct
  0.4796475429218532  0.3135355231326145  0.5421668999943563
  0.0627068879269927  0.3955531148944189  0.7079479121583034
  0.1449549635517116  0.4780950743771371  0.8740773715684611
  0.4354602792867439  0.2699186091388270  0.9571595003948872
  0.0255948177878196  0.3553249834230598  0.1233348592826502
  0.1087641528010650  0.4416789977714117  0.2906556352648195
  0.1884512904263289  0.0216429819820192  0.4598290855290870
  0.2714573971378584  0.1042342666785956  0.6252588020545389
  0.3537866282949906  0.1866800925733685  0.7910748344638847
  0.2260966528757322  0.0638953519599426  0.0400977806305249
  0.3178202620938677  0.1503901610808782  0.2072452070716650
  0.3957477399823688  0.2325404394572530  0.3755218502273792
  0.0008798491868021  0.1662384802772792  0.6667434974171869
  0.0829292920858009  0.2485142077889648  0.8316259518388023
  0.1637727216881828  0.3338645514135337  0.9982496372004448
  0.4521679964310579  0.1239901499033635  0.0811275118937687
  0.0467806749291881  0.2109178313903186  0.2532265490074650
  0.1260459373751672  0.2933597746829406  0.4179116102934444
  0.2090349801037874  0.3753500983132696  0.5834960694475626
  0.2914600163617962  0.4574237480546159  0.7491586206074317
  0.3733099110193336  0.0398925931832466  0.9153224226495809
  0.3340333110632017  0.0053857598610350  0.3383608988718549
  0.4180507204529746  0.0851443278322321  0.5016201987431046
  0.9799948071667330  0.3133623808165211  0.5422325347876722
  0.5627100324202914  0.3956166530934766  0.7081244394422654
  0.6453644223095480  0.4785350018315384  0.8741711071574656
  0.9377634473649792  0.2706447353127643  0.9580475062640801
  0.5125683503343978  0.3523187392593954  0.1229886629269075
  0.6027542043816467  0.4424126584964583  0.2956413982013117
  0.6886744364851864  0.0219203186499826  0.4597784736729693
  0.7715397295552648  0.1041905405607295  0.6254138988354470
  0.8542492562799069  0.1868765641628443  0.7913722244687023
  0.7257143585837227  0.0630049059650020  0.0397410876740310
  0.8171554406323764  0.1413697791174116  0.2097516311568626
  0.8962673796235734  0.2315934757867524  0.3763437018325320
  0.5005298558231317  0.1664727102304653  0.6666142413594400
  0.5824459623610494  0.2488698666215612  0.8315718894718458
  0.6645470478500286  0.3308608882964208  0.9953613377374850
  0.9564023239545207  0.1204766158127555  0.0802464912748633
  0.5411005044168675  0.2148591778717233  0.2521687776944930
  0.6254351505924944  0.2931020424252466  0.4186883401093908
  0.7094534638842731  0.3749835570641551  0.5841364085298153
  0.7920912908833557  0.4573325951807377  0.7497396065321027
  0.8738288998948178  0.0401235088966061  0.9149692164023833
  0.8351232836419271  0.0042388029259044  0.3393674042781996
  0.9186866269133418  0.0844367255911038  0.5021625308680555
  0.4799282861836573  0.8134527125582167  0.5424105667210100
  0.0627039607570126  0.8954449663613460  0.7080485535042413
  0.1449571963341185  0.9786887534144881  0.8740210001714104
  0.4357689723684501  0.7678402060893248  0.9581679478448777
  0.0155589607842543  0.8516268962070228  0.1220942443664512
  0.1027636946311574  0.9405107745999146  0.2959970692279654
  0.1890417896388215  0.5213787386257280  0.4580996639537389
  0.2714682375781692  0.6039664502042825  0.6248820821318830
  0.3539060200776163  0.6864907129232236  0.7910877656895678
  0.2261143499847904  0.5597980610709072  0.0421241376253221
  0.3163409306883338  0.6382742742195546  0.2087053198934470
  0.3968505316479138  0.7309891800826804  0.3760221951124052
  0.0005664151158200  0.6663767055595144  0.6665394699063469
  0.0824034057879928  0.7483215969260897  0.8315020965028879
  0.1630026014978441  0.8306236390972614  0.9950302848787302
  0.4498679642489023  0.6138073124668963  0.0828884591411096
  0.0484433677315650  0.7059151449162684  0.2506100002312053
  0.1267722434331588  0.7905167491205631  0.4179769010478367
  0.2093025015489829  0.8747046188917409  0.5838400050169241
  0.2918427173614120  0.9571860634694715  0.7493881332961152
  0.3728120912174191  0.5401535841782490  0.9149783546663102
  0.3315069050318655  0.5041330252842755  0.3354610087603120
  0.4186281071595346  0.5845750190355972  0.5016864759089685
  0.9800723810617100  0.8129495343754130  0.5419256742357490
  0.5626611860221473  0.8955137595746834  0.7081659400162579
  0.6445606223942235  0.9786829118820322  0.8738195325717228
  0.9357590088534025  0.7691303054565140  0.9573248261402156
  0.5137439039132516  0.8523086871607006  0.1212252862307963
  0.6014802080974633  0.9452378379185262  0.2959874727536587
  0.6887973626259907  0.5220046893719186  0.4598670560354421
  0.7716343243706021  0.6041788751701489  0.6253119666752482
  0.8538264772894451  0.6864772721738603  0.7913276045510074
  0.7266612137390354  0.5629131541998404  0.0410924634787975
  0.8180282153883880  0.6437699976852542  0.2090183982280394
  0.8984067794153106  0.7304420170508621  0.3746591433006188
  0.5008149811929954  0.6661673513294062  0.6666645721673063
  0.5823771739174717  0.7480292961823025  0.8316223461703274
  0.6629412311164486  0.8301564327218713  0.9945336522287818
  0.9606532941086030  0.6166378371264329  0.0822891735643054
  0.5456905979411886  0.7132973195797874  0.2533298187105899
  0.6267054207681397  0.7929248269505038  0.4188215177647834
  0.7092503802759111  0.8752511557269287  0.5840264047521586
  0.7917007117336183  0.9574993314578819  0.7494953972344192
  0.8747315782556271  0.5392187107960922  0.9163860170274347
  0.8356510780449966  0.5044973222398212  0.3379350496751741
  0.9187419444451024  0.5848738825584263  0.5014227805682694
  0.7456750836350281  0.4120274194640103  0.1690376317317615
  0.2414144801475899  0.9149282047698506  0.1693769446669293
  0.7322676353900590  0.9208794815757528  0.1688627649328893
  0.0591114661456444  0.3935903704014265  0.5112393615473110
  0.1419289857085744  0.4753304383794870  0.6760245607893438
  0.2242235831283921  0.0574531985877584  0.8409454512888885
  0.0152325388101602  0.3474736791142234  0.9217415429785163
  0.0861276835004290  0.4316314921336257  0.0813920488080981
  0.1806808819434167  0.0270005532181443  0.2732874955655191
  0.2678834775172589  0.1034622753650822  0.4313304530743451
  0.3509602971761012  0.1845701137871743  0.5942613715083525
  0.4330551656965156  0.2662708041922315  0.7585259258610861
  0.3038895016696515  0.1420605491618474  0.0056694953684016
  0.4246369765312750  0.1932105322714577  0.1775406317555621
  0.4759153831976590  0.3138277964452953  0.3463591569456810
  0.0803720717927661  0.2459241455525074  0.6349130972920776
  0.1628017760244589  0.3283619130199114  0.7998746864093249
  0.2452814532517209  0.4115700814113055  0.9651528502650706
  0.0347053469448397  0.2022782210946161  0.0503882713047688
  0.1234184562917804  0.2897118576880402  0.2187361026921408
  0.2053541972661606  0.3714979475967226  0.3866897235750457
  0.2885683312808212  0.4547252175692051  0.5521610464709354
  0.3715534934374531  0.0369668737694084  0.7176646617490832
  0.4535450729710035  0.1194172286916171  0.8829677341252093
  0.3270090737341889  0.0019400851497338  0.1327058873464821
  0.4104216537632652  0.0833081928774106  0.3043869531344967
  0.4974377099717060  0.1641786110426082  0.4694248093817777
  0.5597743583658783  0.3936043036544987  0.5119663516223696
  0.6424127562734441  0.4752959309102351  0.6765839409743108
  0.7239879418363486  0.0580479852511218  0.8412356839032995
  0.5145879043725330  0.3482619201775634  0.9224419510013888
  0.5946213783523859  0.4244427958510570  0.0837944945480231
  0.6820716093501318  0.0301947465430672  0.2747246321979446
  0.7685663497091042  0.1040729338512278  0.4320909548866823
  0.8513543652203168  0.1843278177452916  0.5946144897152905
  0.9332829176097022  0.2660424558387575  0.7584464201275765
  0.8053815268796995  0.1412162144100222  0.0062971050117682
  0.9117194920375979  0.2037363010048310  0.1782360521625961
  0.9746700785451594  0.3128595575847370  0.3458451745541211
  0.5803226379000677  0.2460040607871363  0.6350182195716485
  0.6629166699500857  0.3285173847728871  0.8003406014709711
  0.7456745319919520  0.4118825663700463  0.9660744554026479
  0.5350754895270455  0.2010138490319022  0.0485721429200439
  0.6262559382731325  0.2935599902743817  0.2186355939697080
  0.7057700427724996  0.3722253677314384  0.3879257025918221
  0.7890873834373124  0.4546187528679226  0.5527882057355953
  0.8716050386983838  0.0371008732859011  0.7179474657980833
  0.9537280116768017  0.1201553597643539  0.8835575758290233
  0.8275792464712310  0.0010048329527308  0.1327333786114409
  0.9121760025155439  0.0820910192369624  0.3049869154515505
  0.9974254565468996  0.1639747397610520  0.4697125792647654
  0.0596459262913314  0.8931770119093301  0.5114121933811333
  0.1421943172657478  0.9751471971586270  0.6763247292473409
  0.2237157397658862  0.5575834803242401  0.8406533541740302
  0.0131529138894422  0.8485698698777568  0.9220709661740827
  0.0874043681597527  0.9290582850913225  0.0828717063255837
  0.1799468801452520  0.5320748308740164  0.2734079822421194
  0.2703208820563034  0.6027010495274325  0.4315089889662005
  0.3514760919405404  0.6843218975867558  0.5944268715765944
  0.4330381697928942  0.7659665670120219  0.7583887840381465
  0.3019158833956936  0.6427579040781310  0.0044930359912456
  0.4097193157318344  0.7114490097106128  0.1800193232743084
  0.4759522387807493  0.8138630252227301  0.3463194087661421
  0.0803044978301415  0.7459307968892475  0.6348828211013000
  0.1626089881733392  0.8284691052471231  0.8003304272445817
  0.2441669387966385  0.9123582346788837  0.9660957413939286
  0.0331958329153750  0.7031940790981750  0.0493136406960915
  0.1235464813504876  0.7950373497749865  0.2174845950457183
  0.2062074332782942  0.8713300831455655  0.3880147682991293
  0.2889519414733570  0.9545930946270289  0.5527829068982442
  0.3714313344376521  0.5369665846056222  0.7175198189279044
  0.4538078027947989  0.6190047246268904  0.8829191266453265
  0.3394821442494305  0.5102732264024112  0.1286488904172955
  0.4131162218327873  0.5823367929325727  0.3047926380749146
  0.4980396566208185  0.6643167866783770  0.4697387451883301
  0.5593138805603743  0.8938793148238133  0.5116981989686238
  0.6420466807806378  0.9754323034513845  0.6764736506393874
  0.7246995815518460  0.5576317871642260  0.8414594782987521
  0.5128385608991834  0.8474096182365329  0.9219082488537467
  0.5848383011711675  0.9280655576570425  0.0803484385557525
  0.6813587508220706  0.5286570276054974  0.2721733482469801
  0.7687741494271876  0.6031244205726765  0.4309291872672176
  0.8511097708634949  0.6843957641327023  0.5940842104511077
  0.9327486575829553  0.7662203621032191  0.7584654172703083
  0.8034166331399959  0.6430803827906004  0.0066442716480211
  0.9038936064211853  0.7148112488129286  0.1773782292385704
  0.9755803252608644  0.8143625733617199  0.3453817320114609
  0.5805429700455917  0.7459470005463729  0.6350813439534519
  0.6625451381521401  0.8283905596175032  0.8003474448203747
  0.7443590811936360  0.9120684051642201  0.9656663198547548
  0.5326788994516818  0.6986696615654751  0.0505874838033691
  0.6240380609355327  0.7958290301892106  0.2179338192124121
  0.7064345238741296  0.8715977229107565  0.3876194629555911
  0.7890817324724821  0.9545731623288489  0.5528012213192426
  0.8716037728836952  0.5370576276277177  0.7177523417014910
  0.9535277779047462  0.6195646254721581  0.8832639869355390
  0.8309666298201819  0.5007363307336661  0.1338349787348250
  0.9127830529635332  0.5811389789313921  0.3033739457983344
  0.9976790436387972  0.6640399494619942  0.4689443465834913
 
  0.00000000E+00  0.00000000E+00  0.00000000E+00
  0.00000000E+00  0.00000000E+00  0.00000000E+00
  0.00000000E+00  0.00000000E+00  0.00000000E+00
  0.00000000E+00  0.00000000E+00  0.00000000E+00
  0.00000000E+00  0.00000000E+00  0.00000000E+00
  0.00000000E+00  0.00000000E+00  0.00000000E+00
  0.00000000E+00  0.00000000E+00  0.00000000E+00
  0.00000000E+00  0.00000000E+00  0.00000000E+00
  0.00000000E+00  0.00000000E+00  0.00000000E+00
  0.00000000E+00  0.00000000E+00  0.00000000E+00
  0.00000000E+00  0.00000000E+00  0.00000000E+00
  0.00000000E+00  0.00000000E+00  0.00000000E+00
  0.00000000E+00  0.00000000E+00  0.00000000E+00
  0.00000000E+00  0.00000000E+00  0.00000000E+00
  0.00000000E+00  0.00000000E+00  0.00000000E+00
  0.00000000E+00  0.00000000E+00  0.00000000E+00
  0.00000000E+00  0.00000000E+00  0.00000000E+00
  0.00000000E+00  0.00000000E+00  0.00000000E+00
  0.00000000E+00  0.00000000E+00  0.00000000E+00
  0.00000000E+00  0.00000000E+00  0.00000000E+00
  0.00000000E+00  0.00000000E+00  0.00000000E+00
  0.00000000E+00  0.00000000E+00  0.00000000E+00
  0.00000000E+00  0.00000000E+00  0.00000000E+00
  0.00000000E+00  0.00000000E+00  0.00000000E+00
  0.00000000E+00  0.00000000E+00  0.00000000E+00
  0.00000000E+00  0.00000000E+00  0.00000000E+00
  0.00000000E+00  0.00000000E+00  0.00000000E+00
  0.00000000E+00  0.00000000E+00  0.00000000E+00
  0.00000000E+00  0.00000000E+00  0.00000000E+00
  0.00000000E+00  0.00000000E+00  0.00000000E+00
  0.00000000E+00  0.00000000E+00  0.00000000E+00
  0.00000000E+00  0.00000000E+00  0.00000000E+00
  0.00000000E+00  0.00000000E+00  0.00000000E+00
  0.00000000E+00  0.00000000E+00  0.00000000E+00
  0.00000000E+00  0.00000000E+00  0.00000000E+00
  0.00000000E+00  0.00000000E+00  0.00000000E+00
  0.00000000E+00  0.00000000E+00  0.00000000E+00
  0.00000000E+00  0.00000000E+00  0.00000000E+00
  0.00000000E+00  0.00000000E+00  0.00000000E+00
  0.00000000E+00  0.00000000E+00  0.00000000E+00
  0.00000000E+00  0.00000000E+00  0.00000000E+00
  0.00000000E+00  0.00000000E+00  0.00000000E+00
  0.00000000E+00  0.00000000E+00  0.00000000E+00
  0.00000000E+00  0.00000000E+00  0.00000000E+00
  0.00000000E+00  0.00000000E+00  0.00000000E+00
  0.00000000E+00  0.00000000E+00  0.00000000E+00
  0.00000000E+00  0.00000000E+00  0.00000000E+00
  0.00000000E+00  0.00000000E+00  0.00000000E+00
  0.00000000E+00  0.00000000E+00  0.00000000E+00
  0.00000000E+00  0.00000000E+00  0.00000000E+00
  0.00000000E+00  0.00000000E+00  0.00000000E+00
  0.00000000E+00  0.00000000E+00  0.00000000E+00
  0.00000000E+00  0.00000000E+00  0.00000000E+00
  0.00000000E+00  0.00000000E+00  0.00000000E+00
  0.00000000E+00  0.00000000E+00  0.00000000E+00
  0.00000000E+00  0.00000000E+00  0.00000000E+00
  0.00000000E+00  0.00000000E+00  0.00000000E+00
  0.00000000E+00  0.00000000E+00  0.00000000E+00
  0.00000000E+00  0.00000000E+00  0.00000000E+00
  0.00000000E+00  0.00000000E+00  0.00000000E+00
  0.00000000E+00  0.00000000E+00  0.00000000E+00
  0.00000000E+00  0.00000000E+00  0.00000000E+00
  0.00000000E+00  0.00000000E+00  0.00000000E+00
  0.00000000E+00  0.00000000E+00  0.00000000E+00
  0.00000000E+00  0.00000000E+00  0.00000000E+00
  0.00000000E+00  0.00000000E+00  0.00000000E+00
  0.00000000E+00  0.00000000E+00  0.00000000E+00
  0.00000000E+00  0.00000000E+00  0.00000000E+00
  0.00000000E+00  0.00000000E+00  0.00000000E+00
  0.00000000E+00  0.00000000E+00  0.00000000E+00
  0.00000000E+00  0.00000000E+00  0.00000000E+00
  0.00000000E+00  0.00000000E+00  0.00000000E+00
  0.00000000E+00  0.00000000E+00  0.00000000E+00
  0.00000000E+00  0.00000000E+00  0.00000000E+00
  0.00000000E+00  0.00000000E+00  0.00000000E+00
  0.00000000E+00  0.00000000E+00  0.00000000E+00
  0.00000000E+00  0.00000000E+00  0.00000000E+00
  0.00000000E+00  0.00000000E+00  0.00000000E+00
  0.00000000E+00  0.00000000E+00  0.00000000E+00
  0.00000000E+00  0.00000000E+00  0.00000000E+00
  0.00000000E+00  0.00000000E+00  0.00000000E+00
  0.00000000E+00  0.00000000E+00  0.00000000E+00
  0.00000000E+00  0.00000000E+00  0.00000000E+00
  0.00000000E+00  0.00000000E+00  0.00000000E+00
  0.00000000E+00  0.00000000E+00  0.00000000E+00
  0.00000000E+00  0.00000000E+00  0.00000000E+00
  0.00000000E+00  0.00000000E+00  0.00000000E+00
  0.00000000E+00  0.00000000E+00  0.00000000E+00
  0.00000000E+00  0.00000000E+00  0.00000000E+00
  0.00000000E+00  0.00000000E+00  0.00000000E+00
  0.00000000E+00  0.00000000E+00  0.00000000E+00
  0.00000000E+00  0.00000000E+00  0.00000000E+00
  0.00000000E+00  0.00000000E+00  0.00000000E+00
  0.00000000E+00  0.00000000E+00  0.00000000E+00
  0.00000000E+00  0.00000000E+00  0.00000000E+00
  0.00000000E+00  0.00000000E+00  0.00000000E+00
  0.00000000E+00  0.00000000E+00  0.00000000E+00
  0.00000000E+00  0.00000000E+00  0.00000000E+00
  0.00000000E+00  0.00000000E+00  0.00000000E+00
  0.00000000E+00  0.00000000E+00  0.00000000E+00
  0.00000000E+00  0.00000000E+00  0.00000000E+00
  0.00000000E+00  0.00000000E+00  0.00000000E+00
  0.00000000E+00  0.00000000E+00  0.00000000E+00
  0.00000000E+00  0.00000000E+00  0.00000000E+00
  0.00000000E+00  0.00000000E+00  0.00000000E+00
  0.00000000E+00  0.00000000E+00  0.00000000E+00
  0.00000000E+00  0.00000000E+00  0.00000000E+00
  0.00000000E+00  0.00000000E+00  0.00000000E+00
  0.00000000E+00  0.00000000E+00  0.00000000E+00
  0.00000000E+00  0.00000000E+00  0.00000000E+00
  0.00000000E+00  0.00000000E+00  0.00000000E+00
  0.00000000E+00  0.00000000E+00  0.00000000E+00
  0.00000000E+00  0.00000000E+00  0.00000000E+00
  0.00000000E+00  0.00000000E+00  0.00000000E+00
  0.00000000E+00  0.00000000E+00  0.00000000E+00
  0.00000000E+00  0.00000000E+00  0.00000000E+00
  0.00000000E+00  0.00000000E+00  0.00000000E+00
  0.00000000E+00  0.00000000E+00  0.00000000E+00
  0.00000000E+00  0.00000000E+00  0.00000000E+00
  0.00000000E+00  0.00000000E+00  0.00000000E+00
  0.00000000E+00  0.00000000E+00  0.00000000E+00
  0.00000000E+00  0.00000000E+00  0.00000000E+00
  0.00000000E+00  0.00000000E+00  0.00000000E+00
  0.00000000E+00  0.00000000E+00  0.00000000E+00
  0.00000000E+00  0.00000000E+00  0.00000000E+00
  0.00000000E+00  0.00000000E+00  0.00000000E+00
  0.00000000E+00  0.00000000E+00  0.00000000E+00
  0.00000000E+00  0.00000000E+00  0.00000000E+00
  0.00000000E+00  0.00000000E+00  0.00000000E+00
  0.00000000E+00  0.00000000E+00  0.00000000E+00
  0.00000000E+00  0.00000000E+00  0.00000000E+00
  0.00000000E+00  0.00000000E+00  0.00000000E+00
  0.00000000E+00  0.00000000E+00  0.00000000E+00
  0.00000000E+00  0.00000000E+00  0.00000000E+00
  0.00000000E+00  0.00000000E+00  0.00000000E+00
  0.00000000E+00  0.00000000E+00  0.00000000E+00
  0.00000000E+00  0.00000000E+00  0.00000000E+00
  0.00000000E+00  0.00000000E+00  0.00000000E+00
  0.00000000E+00  0.00000000E+00  0.00000000E+00
  0.00000000E+00  0.00000000E+00  0.00000000E+00
  0.00000000E+00  0.00000000E+00  0.00000000E+00
  0.00000000E+00  0.00000000E+00  0.00000000E+00
  0.00000000E+00  0.00000000E+00  0.00000000E+00
  0.00000000E+00  0.00000000E+00  0.00000000E+00
  0.00000000E+00  0.00000000E+00  0.00000000E+00
  0.00000000E+00  0.00000000E+00  0.00000000E+00
  0.00000000E+00  0.00000000E+00  0.00000000E+00
  0.00000000E+00  0.00000000E+00  0.00000000E+00
  0.00000000E+00  0.00000000E+00  0.00000000E+00
  0.00000000E+00  0.00000000E+00  0.00000000E+00
  0.00000000E+00  0.00000000E+00  0.00000000E+00
  0.00000000E+00  0.00000000E+00  0.00000000E+00
  0.00000000E+00  0.00000000E+00  0.00000000E+00
  0.00000000E+00  0.00000000E+00  0.00000000E+00
  0.00000000E+00  0.00000000E+00  0.00000000E+00
  0.00000000E+00  0.00000000E+00  0.00000000E+00
  0.00000000E+00  0.00000000E+00  0.00000000E+00
  0.00000000E+00  0.00000000E+00  0.00000000E+00
  0.00000000E+00  0.00000000E+00  0.00000000E+00
  0.00000000E+00  0.00000000E+00  0.00000000E+00
  0.00000000E+00  0.00000000E+00  0.00000000E+00
  0.00000000E+00  0.00000000E+00  0.00000000E+00
  0.00000000E+00  0.00000000E+00  0.00000000E+00
  0.00000000E+00  0.00000000E+00  0.00000000E+00
  0.00000000E+00  0.00000000E+00  0.00000000E+00
  0.00000000E+00  0.00000000E+00  0.00000000E+00
  0.00000000E+00  0.00000000E+00  0.00000000E+00
  0.00000000E+00  0.00000000E+00  0.00000000E+00
  0.00000000E+00  0.00000000E+00  0.00000000E+00
  0.00000000E+00  0.00000000E+00  0.00000000E+00
  0.00000000E+00  0.00000000E+00  0.00000000E+00
  0.00000000E+00  0.00000000E+00  0.00000000E+00
  0.00000000E+00  0.00000000E+00  0.00000000E+00
  0.00000000E+00  0.00000000E+00  0.00000000E+00
  0.00000000E+00  0.00000000E+00  0.00000000E+00
  0.00000000E+00  0.00000000E+00  0.00000000E+00
  0.00000000E+00  0.00000000E+00  0.00000000E+00
  0.00000000E+00  0.00000000E+00  0.00000000E+00
  0.00000000E+00  0.00000000E+00  0.00000000E+00
  0.00000000E+00  0.00000000E+00  0.00000000E+00
  0.00000000E+00  0.00000000E+00  0.00000000E+00
  0.00000000E+00  0.00000000E+00  0.00000000E+00
  0.00000000E+00  0.00000000E+00  0.00000000E+00
  0.00000000E+00  0.00000000E+00  0.00000000E+00
  0.00000000E+00  0.00000000E+00  0.00000000E+00
  0.00000000E+00  0.00000000E+00  0.00000000E+00
  0.00000000E+00  0.00000000E+00  0.00000000E+00
  0.00000000E+00  0.00000000E+00  0.00000000E+00
  0.00000000E+00  0.00000000E+00  0.00000000E+00
  0.00000000E+00  0.00000000E+00  0.00000000E+00
  0.00000000E+00  0.00000000E+00  0.00000000E+00
