supercell of POSCAR                     
   1.00398800000000     
    -6.2729611433599999    0.0082005604289200   10.0015927484000002
     3.1280384584799998    5.4363994576400003   10.0007801159999996
    -7.8567367181199996   13.6110857897000006  -10.0002683574999995
   Al   Sc   N    O 
    92     4    95     1
Direct
  0.4795287196263658  0.3137977987818630  0.5428255223107428
  0.0619043334212392  0.3961770453729230  0.7080135446765041
  0.1440511282847510  0.4792353756316174  0.8730639712665464
  0.4361310758365633  0.2691679505367119  0.9563411437689808
  0.0136714248845493  0.3470123129514562  0.1228889567724067
  0.1041729149134980  0.4421536301695355  0.2969602200968424
  0.1886278762136229  0.0222825676830851  0.4606580899203507
  0.2709214014078754  0.1047889610880759  0.6255536244155735
  0.3531814822419435  0.1871440628090753  0.7906924886502225
  0.2277931591674403  0.0611425318817567  0.0395296734719750
  0.3203070911212720  0.1402174695931464  0.2094448948511740
  0.3975285002298321  0.2313051217197000  0.3768984927319323
  0.0001285521247851  0.1667489203379589  0.6666721076244002
  0.0816287970147656  0.2487595834876544  0.8306914406046175
  0.1642009355548808  0.3283295276191964  0.9914297134402474
  0.4571237685151672  0.1198928225322433  0.0799456579246467
  0.0465402234574057  0.2115299912732382  0.2536015427577922
  0.1267523192191291  0.2927638593920605  0.4196440594996886
  0.2089830284523941  0.3754248724745395  0.5844228172439188
  0.2912722960404466  0.4576818348414520  0.7491449258287020
  0.3733524930028906  0.0400464942927030  0.9143026126817091
  0.3350204328230291  0.0044633383627115  0.3391027460449294
  0.4183189517144541  0.0850091971069915  0.5024048655620774
  0.9795014778175002  0.3138850144705998  0.5428655802186313
  0.5618625607752605  0.3960416136330664  0.7078779888522888
  0.6439544995278226  0.4786960640026408  0.8729076692256115
  0.9343706923940260  0.2690088233467591  0.9556032094475455
  0.5170224467868678  0.3509598258385154  0.1216430174678962
  0.6043246344647386  0.4418262796839656  0.2966505169328713
  0.6886818187639534  0.0222170447591665  0.4606022845935058
  0.7709010325231560  0.1047039503985303  0.6254472015618902
  0.8528902796640594  0.1869950872924164  0.7904267499439968
  0.7274579272139547  0.0618804755662623  0.0393834529810988
  0.8197296268054259  0.1411533922217814  0.2093352265468553
  0.8971964530981964  0.2315338034792376  0.3768308632234891
  0.5001702875612253  0.1666714270578069  0.6666822501505791
  0.5817929738144727  0.2487530029485541  0.8308843886589727
  0.6625342194218575  0.3310517264975346  0.9942849686969382
  0.9559503258659348  0.1190865915166270  0.0791456650963838
  0.5469416711511386  0.2122571010587890  0.2535119808417434
  0.6268800411356992  0.2927556613127678  0.4196651889166247
  0.7089301661034497  0.3754902749945970  0.5843586044183553
  0.7909185332921069  0.4578953350666808  0.7489532800044856
  0.8730700244293104  0.0399259409163903  0.9140687480831104
  0.8350387586769799  0.0044759589133747  0.3388599926312210
  0.9183281887445105  0.0850432417644456  0.5023288302883415
  0.4794860181718477  0.8138798728273215  0.5428501967781187
  0.0619411558744929  0.8960817323421892  0.7079254771405843
  0.1443671709145775  0.9786729549361937  0.8730841444538555
  0.4357732683693811  0.7693601041910441  0.9560531053430097
  0.0184240281752110  0.8507948487227281  0.1217808546838199
  0.1043031046453393  0.9417711532683910  0.2964023764618631
  0.1886548451278713  0.5222855131648885  0.4607228933128127
  0.2709625905751096  0.6047416845693192  0.6255190694401378
  0.3531566781072257  0.6872016226239808  0.7905025404982808
  0.2281727082217984  0.5628842709809945  0.0392067200006210
  0.3195450997552101  0.6404029253228742  0.2096467918847154
  0.3970972056114803  0.7316486021482760  0.3768156303544430
  0.0002539593467645  0.6667115299887385  0.6666836038696857
  0.0820609063805549  0.7488245524505999  0.8308595766468727
  0.1633438809320964  0.8314432626480794  0.9941525096737251
  0.4561362917767582  0.6202319078296767  0.0793359989892011
  0.0479618477716386  0.7112071957810926  0.2535331183834870
  0.1265518595099451  0.7929211832302698  0.4194911331920395
  0.2089275511492232  0.8754954234518664  0.5843737355242737
  0.2911235354535791  0.9579236916590688  0.7491833262372438
  0.3734295852466616  0.5402655133842842  0.9139969247113697
  0.3361367944587457  0.5038949169841729  0.3394197469462057
  0.4182596563287788  0.5851190976243004  0.5023880183386638
  0.9795240915487540  0.8138348445905521  0.5428215876834912
  0.5618896865197271  0.8961891172940142  0.7079726970101561
  0.6443887448772045  0.9787292160833516  0.8732545643195166
  0.9358576918577626  0.7693323705823616  0.9557567119959387
  0.5184497820354466  0.8508653510209427  0.1217629387188097
  0.6042941035602638  0.9415607122115972  0.2963706144651965
  0.6885858362615238  0.5223633463356094  0.4607125323356627
  0.7709066886505838  0.6048328437898931  0.6255018554440142
  0.8529946546629859  0.6873477041610627  0.7904009210482172
  0.7259704036276133  0.5616777607671040  0.0387571009762127
  0.8198236421758409  0.6396468095836241  0.2097435817134610
  0.8969545186191255  0.7316550444648087  0.3768838153290659
  0.5001157865697436  0.6668359740892882  0.6666920767035620
  0.5817324489903442  0.7491341269474674  0.8309171610545150
  0.6629492726167214  0.8317084454748880  0.9944572317697506
  0.9512328427831136  0.6247280654695615  0.0784847808355664
  0.5466322793720551  0.7115789257146261  0.2534420880666914
  0.6264731585695102  0.7929490707677616  0.4195289255656860
  0.7089588378628875  0.8754472931198336  0.5843512071149135
  0.7911284211984437  0.9577461401750327  0.7491016158743591
  0.8723100365628156  0.5406921352862923  0.9134121680274205
  0.8350299462430186  0.5043918796147580  0.3392900381593762
  0.9182657006382513  0.5851184120436770  0.5024184783798376
  0.2416504190058575  0.4127214804507631  0.1692849450158818
  0.7408552447511880  0.4134752263429604  0.1687468260530309
  0.2439035251119748  0.9121232833189481  0.1687050380053492
  0.7453843484775362  0.9111870579748711  0.1692611513238305
  0.0590896019078144  0.3938735334181445  0.5115680249272501
  0.1415070235973843  0.4758446803277252  0.6766592427973066
  0.2235409067757672  0.0587409749778587  0.8417407669300303
  0.0129707286802088  0.3492801442638722  0.9231242082172670
  0.1824070714955894  0.0275871406308710  0.2713394190462068
  0.2686182003078201  0.1031300780307589  0.4309128167706504
  0.3506061550501727  0.1847776957623708  0.5943715653244865
  0.4323122909362453  0.2667208677952786  0.7587312527660686
  0.3038810819797959  0.1439300426762742  0.0076031696469556
  0.4103783572897797  0.2085844160680992  0.1775594339756523
  0.4767913296188340  0.3125313603816053  0.3454411993750739
  0.0799175326562604  0.2464184421527946  0.6352749427639921
  0.1621036301295220  0.3290203614343739  0.8008181238141248
  0.2436012556077642  0.4124406976964110  0.9671140201494453
  0.0356336157073045  0.2016720805031511  0.0487865256285573
  0.1264925982451146  0.2948492091013861  0.2162233604021182
  0.2064980461961667  0.3717173333178323  0.3875926919084094
  0.2886354346195645  0.4549314545532255  0.5528842703617727
  0.3709521031413274  0.0376062614401249  0.7180426870686034
  0.4530357309116226  0.1200988417804822  0.8835609634633315
  0.3309335644002971  0.9997311802647530  0.1326915133926434
  0.4128102927031279  0.0817583731069931  0.3040396638137750
  0.4974890375398076  0.1642431265221518  0.4694919315972186
  0.5590581269308501  0.3938593187050330  0.5115719541473567
  0.6413277565879199  0.4759284684194682  0.6765329029954756
  0.7235153566487114  0.0582855201191208  0.8414509118745954
  0.5131213318777270  0.3487305300327890  0.9224513030640935
  0.5875158994648828  0.4292692071314832  0.0826716264719352
  0.6821048699035401  0.0274403267385992  0.2711555278634421
  0.7687751703512049  0.1029046337552515  0.4307656642766204
  0.8506180675672255  0.1848042815475495  0.5943418162596004
  0.9321960769272692  0.2669640563649978  0.7588326587059626
  0.8048061913688613  0.1423052977858887  0.0064251322915538
  0.9123159924070094  0.2072738556927618  0.1769466775207533
  0.9766192593754113  0.3128848556136390  0.3452092502533759
  0.5799188878470787  0.2462756398601016  0.6351473212848688
  0.6621069257792271  0.3287683661595295  0.8003976476881576
  0.7442716746958666  0.4118734915067463  0.9658381865279040
  0.5354101727196579  0.2011154677820386  0.0492901272137729
  0.6262671133328510  0.2935518351265216  0.2172981977876844
  0.7064245477686626  0.3719059125793436  0.3877271252174950
  0.7886332933197693  0.4550116980167047  0.5529180818744450
  0.8710104390649889  0.0373724785861569  0.7178566924806091
  0.9532740856850666  0.1196363086462284  0.8830776642861622
  0.8309754639376763  0.9994354497529372  0.1327253842076885
  0.9129518727286765  0.0818555277559270  0.3039685371898742
  0.9974276287060349  0.1644123017402492  0.4694613682618467
  0.0590608376736910  0.8938123910246958  0.5114942646457266
  0.1414465854655447  0.9759811771192943  0.6766354004681290
  0.2237051691116747  0.5582032788732150  0.8416089080413656
  0.0140350088153696  0.8483953110892060  0.9225693436052396
  0.0891992641872648  0.9285695050060525  0.0828041519335088
  0.1838468350499838  0.5260671363903242  0.2712971450327331
  0.2684730666868660  0.6031327445976160  0.4308531314362583
  0.3505930990778126  0.6848361536633263  0.5943725153398205
  0.4323324277349698  0.7670111851243391  0.7587827483625702
  0.3048571182832234  0.6425321380344755  0.0064146349036207
  0.4123604218603063  0.7050182873743367  0.1773863278268450
  0.4762231193011246  0.8129879914538876  0.3452065507703139
  0.0799856683537428  0.7463174713942990  0.6351558636220886
  0.1623278976634595  0.8288836770087755  0.8004622586109704
  0.2449875355885567  0.9123581147880060  0.9660419192686476
  0.0358596562255400  0.6991841113828130  0.0493450743069062
  0.1263078676650053  0.7927928689323451  0.2174741231402919
  0.2061485337926712  0.8720181387496950  0.3875709889182772
  0.2885916593257463  0.9550219214627944  0.5529054588995379
  0.3710005470007900  0.5374683516740220  0.7179564172280237
  0.4532297587385870  0.6200963776147930  0.8831878651300329
  0.3280647997129904  0.4989691904399081  0.1327520960023847
  0.4130085230968277  0.5815395158755550  0.3042815912501950
  0.4973199128754970  0.6644262580900744  0.4694653986703585
  0.5590609731904053  0.8938233045189961  0.5115539044136241
  0.6414669327344882  0.9758471672282241  0.6765550106157363
  0.7232634969811471  0.5584139019156353  0.8413155013718523
  0.5138781292382362  0.8488617986986284  0.9228323166063248
  0.5900259284328015  0.9291209122878570  0.0835692338495591
  0.6824985001066253  0.5275118431623298  0.2717391604211628
  0.7685395862134712  0.6032650235279746  0.4310003728207121
  0.8506800731165711  0.6848099362116784  0.5943975048366070
  0.9325104531505986  0.7667895514609953  0.7587355568646501
  0.8051146616708280  0.6410663721535741  0.0063400865381240
  0.9157912670383439  0.7008223129785875  0.1767456837101804
  0.9763169832425405  0.8124625489247421  0.3448964709250717
  0.5799152994528995  0.7464036647294705  0.6352120222326221
  0.6621915551059061  0.8289938007718405  0.8005393201027289
  0.7453084291436696  0.9116458760717876  0.9662071358459769
  0.5352756622449846  0.7015902074601215  0.0492142889451657
  0.6270796003598633  0.7923916010761403  0.2173648484993080
  0.7061670350688232  0.8719775135808447  0.3875553558823128
  0.7886502836281295  0.9549212293707612  0.5528158669720753
  0.8709854788015221  0.5374942302436381  0.7179498071037500
  0.9531505057937437  0.6198713615825113  0.8831680142057152
  0.8311131669234726  0.4991596197917758  0.1319262996647126
  0.9132013049350789  0.5813884843450836  0.3042803661677880
  0.9974076488970383  0.6643371096385735  0.4694265239702062
  0.0838092883830441  0.4289222448087244  0.0805734606950068
 
  0.00000000E+00  0.00000000E+00  0.00000000E+00
  0.00000000E+00  0.00000000E+00  0.00000000E+00
  0.00000000E+00  0.00000000E+00  0.00000000E+00
  0.00000000E+00  0.00000000E+00  0.00000000E+00
  0.00000000E+00  0.00000000E+00  0.00000000E+00
  0.00000000E+00  0.00000000E+00  0.00000000E+00
  0.00000000E+00  0.00000000E+00  0.00000000E+00
  0.00000000E+00  0.00000000E+00  0.00000000E+00
  0.00000000E+00  0.00000000E+00  0.00000000E+00
  0.00000000E+00  0.00000000E+00  0.00000000E+00
  0.00000000E+00  0.00000000E+00  0.00000000E+00
  0.00000000E+00  0.00000000E+00  0.00000000E+00
  0.00000000E+00  0.00000000E+00  0.00000000E+00
  0.00000000E+00  0.00000000E+00  0.00000000E+00
  0.00000000E+00  0.00000000E+00  0.00000000E+00
  0.00000000E+00  0.00000000E+00  0.00000000E+00
  0.00000000E+00  0.00000000E+00  0.00000000E+00
  0.00000000E+00  0.00000000E+00  0.00000000E+00
  0.00000000E+00  0.00000000E+00  0.00000000E+00
  0.00000000E+00  0.00000000E+00  0.00000000E+00
  0.00000000E+00  0.00000000E+00  0.00000000E+00
  0.00000000E+00  0.00000000E+00  0.00000000E+00
  0.00000000E+00  0.00000000E+00  0.00000000E+00
  0.00000000E+00  0.00000000E+00  0.00000000E+00
  0.00000000E+00  0.00000000E+00  0.00000000E+00
  0.00000000E+00  0.00000000E+00  0.00000000E+00
  0.00000000E+00  0.00000000E+00  0.00000000E+00
  0.00000000E+00  0.00000000E+00  0.00000000E+00
  0.00000000E+00  0.00000000E+00  0.00000000E+00
  0.00000000E+00  0.00000000E+00  0.00000000E+00
  0.00000000E+00  0.00000000E+00  0.00000000E+00
  0.00000000E+00  0.00000000E+00  0.00000000E+00
  0.00000000E+00  0.00000000E+00  0.00000000E+00
  0.00000000E+00  0.00000000E+00  0.00000000E+00
  0.00000000E+00  0.00000000E+00  0.00000000E+00
  0.00000000E+00  0.00000000E+00  0.00000000E+00
  0.00000000E+00  0.00000000E+00  0.00000000E+00
  0.00000000E+00  0.00000000E+00  0.00000000E+00
  0.00000000E+00  0.00000000E+00  0.00000000E+00
  0.00000000E+00  0.00000000E+00  0.00000000E+00
  0.00000000E+00  0.00000000E+00  0.00000000E+00
  0.00000000E+00  0.00000000E+00  0.00000000E+00
  0.00000000E+00  0.00000000E+00  0.00000000E+00
  0.00000000E+00  0.00000000E+00  0.00000000E+00
  0.00000000E+00  0.00000000E+00  0.00000000E+00
  0.00000000E+00  0.00000000E+00  0.00000000E+00
  0.00000000E+00  0.00000000E+00  0.00000000E+00
  0.00000000E+00  0.00000000E+00  0.00000000E+00
  0.00000000E+00  0.00000000E+00  0.00000000E+00
  0.00000000E+00  0.00000000E+00  0.00000000E+00
  0.00000000E+00  0.00000000E+00  0.00000000E+00
  0.00000000E+00  0.00000000E+00  0.00000000E+00
  0.00000000E+00  0.00000000E+00  0.00000000E+00
  0.00000000E+00  0.00000000E+00  0.00000000E+00
  0.00000000E+00  0.00000000E+00  0.00000000E+00
  0.00000000E+00  0.00000000E+00  0.00000000E+00
  0.00000000E+00  0.00000000E+00  0.00000000E+00
  0.00000000E+00  0.00000000E+00  0.00000000E+00
  0.00000000E+00  0.00000000E+00  0.00000000E+00
  0.00000000E+00  0.00000000E+00  0.00000000E+00
  0.00000000E+00  0.00000000E+00  0.00000000E+00
  0.00000000E+00  0.00000000E+00  0.00000000E+00
  0.00000000E+00  0.00000000E+00  0.00000000E+00
  0.00000000E+00  0.00000000E+00  0.00000000E+00
  0.00000000E+00  0.00000000E+00  0.00000000E+00
  0.00000000E+00  0.00000000E+00  0.00000000E+00
  0.00000000E+00  0.00000000E+00  0.00000000E+00
  0.00000000E+00  0.00000000E+00  0.00000000E+00
  0.00000000E+00  0.00000000E+00  0.00000000E+00
  0.00000000E+00  0.00000000E+00  0.00000000E+00
  0.00000000E+00  0.00000000E+00  0.00000000E+00
  0.00000000E+00  0.00000000E+00  0.00000000E+00
  0.00000000E+00  0.00000000E+00  0.00000000E+00
  0.00000000E+00  0.00000000E+00  0.00000000E+00
  0.00000000E+00  0.00000000E+00  0.00000000E+00
  0.00000000E+00  0.00000000E+00  0.00000000E+00
  0.00000000E+00  0.00000000E+00  0.00000000E+00
  0.00000000E+00  0.00000000E+00  0.00000000E+00
  0.00000000E+00  0.00000000E+00  0.00000000E+00
  0.00000000E+00  0.00000000E+00  0.00000000E+00
  0.00000000E+00  0.00000000E+00  0.00000000E+00
  0.00000000E+00  0.00000000E+00  0.00000000E+00
  0.00000000E+00  0.00000000E+00  0.00000000E+00
  0.00000000E+00  0.00000000E+00  0.00000000E+00
  0.00000000E+00  0.00000000E+00  0.00000000E+00
  0.00000000E+00  0.00000000E+00  0.00000000E+00
  0.00000000E+00  0.00000000E+00  0.00000000E+00
  0.00000000E+00  0.00000000E+00  0.00000000E+00
  0.00000000E+00  0.00000000E+00  0.00000000E+00
  0.00000000E+00  0.00000000E+00  0.00000000E+00
  0.00000000E+00  0.00000000E+00  0.00000000E+00
  0.00000000E+00  0.00000000E+00  0.00000000E+00
  0.00000000E+00  0.00000000E+00  0.00000000E+00
  0.00000000E+00  0.00000000E+00  0.00000000E+00
  0.00000000E+00  0.00000000E+00  0.00000000E+00
  0.00000000E+00  0.00000000E+00  0.00000000E+00
  0.00000000E+00  0.00000000E+00  0.00000000E+00
  0.00000000E+00  0.00000000E+00  0.00000000E+00
  0.00000000E+00  0.00000000E+00  0.00000000E+00
  0.00000000E+00  0.00000000E+00  0.00000000E+00
  0.00000000E+00  0.00000000E+00  0.00000000E+00
  0.00000000E+00  0.00000000E+00  0.00000000E+00
  0.00000000E+00  0.00000000E+00  0.00000000E+00
  0.00000000E+00  0.00000000E+00  0.00000000E+00
  0.00000000E+00  0.00000000E+00  0.00000000E+00
  0.00000000E+00  0.00000000E+00  0.00000000E+00
  0.00000000E+00  0.00000000E+00  0.00000000E+00
  0.00000000E+00  0.00000000E+00  0.00000000E+00
  0.00000000E+00  0.00000000E+00  0.00000000E+00
  0.00000000E+00  0.00000000E+00  0.00000000E+00
  0.00000000E+00  0.00000000E+00  0.00000000E+00
  0.00000000E+00  0.00000000E+00  0.00000000E+00
  0.00000000E+00  0.00000000E+00  0.00000000E+00
  0.00000000E+00  0.00000000E+00  0.00000000E+00
  0.00000000E+00  0.00000000E+00  0.00000000E+00
  0.00000000E+00  0.00000000E+00  0.00000000E+00
  0.00000000E+00  0.00000000E+00  0.00000000E+00
  0.00000000E+00  0.00000000E+00  0.00000000E+00
  0.00000000E+00  0.00000000E+00  0.00000000E+00
  0.00000000E+00  0.00000000E+00  0.00000000E+00
  0.00000000E+00  0.00000000E+00  0.00000000E+00
  0.00000000E+00  0.00000000E+00  0.00000000E+00
  0.00000000E+00  0.00000000E+00  0.00000000E+00
  0.00000000E+00  0.00000000E+00  0.00000000E+00
  0.00000000E+00  0.00000000E+00  0.00000000E+00
  0.00000000E+00  0.00000000E+00  0.00000000E+00
  0.00000000E+00  0.00000000E+00  0.00000000E+00
  0.00000000E+00  0.00000000E+00  0.00000000E+00
  0.00000000E+00  0.00000000E+00  0.00000000E+00
  0.00000000E+00  0.00000000E+00  0.00000000E+00
  0.00000000E+00  0.00000000E+00  0.00000000E+00
  0.00000000E+00  0.00000000E+00  0.00000000E+00
  0.00000000E+00  0.00000000E+00  0.00000000E+00
  0.00000000E+00  0.00000000E+00  0.00000000E+00
  0.00000000E+00  0.00000000E+00  0.00000000E+00
  0.00000000E+00  0.00000000E+00  0.00000000E+00
  0.00000000E+00  0.00000000E+00  0.00000000E+00
  0.00000000E+00  0.00000000E+00  0.00000000E+00
  0.00000000E+00  0.00000000E+00  0.00000000E+00
  0.00000000E+00  0.00000000E+00  0.00000000E+00
  0.00000000E+00  0.00000000E+00  0.00000000E+00
  0.00000000E+00  0.00000000E+00  0.00000000E+00
  0.00000000E+00  0.00000000E+00  0.00000000E+00
  0.00000000E+00  0.00000000E+00  0.00000000E+00
  0.00000000E+00  0.00000000E+00  0.00000000E+00
  0.00000000E+00  0.00000000E+00  0.00000000E+00
  0.00000000E+00  0.00000000E+00  0.00000000E+00
  0.00000000E+00  0.00000000E+00  0.00000000E+00
  0.00000000E+00  0.00000000E+00  0.00000000E+00
  0.00000000E+00  0.00000000E+00  0.00000000E+00
  0.00000000E+00  0.00000000E+00  0.00000000E+00
  0.00000000E+00  0.00000000E+00  0.00000000E+00
  0.00000000E+00  0.00000000E+00  0.00000000E+00
  0.00000000E+00  0.00000000E+00  0.00000000E+00
  0.00000000E+00  0.00000000E+00  0.00000000E+00
  0.00000000E+00  0.00000000E+00  0.00000000E+00
  0.00000000E+00  0.00000000E+00  0.00000000E+00
  0.00000000E+00  0.00000000E+00  0.00000000E+00
  0.00000000E+00  0.00000000E+00  0.00000000E+00
  0.00000000E+00  0.00000000E+00  0.00000000E+00
  0.00000000E+00  0.00000000E+00  0.00000000E+00
  0.00000000E+00  0.00000000E+00  0.00000000E+00
  0.00000000E+00  0.00000000E+00  0.00000000E+00
  0.00000000E+00  0.00000000E+00  0.00000000E+00
  0.00000000E+00  0.00000000E+00  0.00000000E+00
  0.00000000E+00  0.00000000E+00  0.00000000E+00
  0.00000000E+00  0.00000000E+00  0.00000000E+00
  0.00000000E+00  0.00000000E+00  0.00000000E+00
  0.00000000E+00  0.00000000E+00  0.00000000E+00
  0.00000000E+00  0.00000000E+00  0.00000000E+00
  0.00000000E+00  0.00000000E+00  0.00000000E+00
  0.00000000E+00  0.00000000E+00  0.00000000E+00
  0.00000000E+00  0.00000000E+00  0.00000000E+00
  0.00000000E+00  0.00000000E+00  0.00000000E+00
  0.00000000E+00  0.00000000E+00  0.00000000E+00
  0.00000000E+00  0.00000000E+00  0.00000000E+00
  0.00000000E+00  0.00000000E+00  0.00000000E+00
  0.00000000E+00  0.00000000E+00  0.00000000E+00
  0.00000000E+00  0.00000000E+00  0.00000000E+00
  0.00000000E+00  0.00000000E+00  0.00000000E+00
  0.00000000E+00  0.00000000E+00  0.00000000E+00
  0.00000000E+00  0.00000000E+00  0.00000000E+00
  0.00000000E+00  0.00000000E+00  0.00000000E+00
  0.00000000E+00  0.00000000E+00  0.00000000E+00
  0.00000000E+00  0.00000000E+00  0.00000000E+00
  0.00000000E+00  0.00000000E+00  0.00000000E+00
  0.00000000E+00  0.00000000E+00  0.00000000E+00
  0.00000000E+00  0.00000000E+00  0.00000000E+00
  0.00000000E+00  0.00000000E+00  0.00000000E+00
  0.00000000E+00  0.00000000E+00  0.00000000E+00
  0.00000000E+00  0.00000000E+00  0.00000000E+00
  0.00000000E+00  0.00000000E+00  0.00000000E+00
