supercell of POSCAR                     
   1.00398800000000     
    -6.2729611433599999    0.0082005604289200   10.0015927484000002
     3.1280384584799998    5.4363994576400003   10.0007801159999996
    -7.8567367181199996   13.6110857897000006  -10.0002683574999995
   Al   Sc   N 
    92     4    95
Direct
  0.4794437054543650  0.3135255441169633  0.5425833427382116
  0.0625059029626343  0.3956442401425306  0.7081512528264824
  0.1453154231644262  0.4786363559358549  0.8732465932845770
  0.4364284913657031  0.2690527504983322  0.9560700303006513
  0.0225732643615402  0.3516979809495311  0.1230397048090097
  0.1042235134465130  0.4411884017074641  0.2949467286602214
  0.1881641943976717  0.0218433632310919  0.4601909702668578
  0.2711722949527982  0.1043980060298537  0.6254154260294413
  0.3536680907726293  0.1870842280678033  0.7908438091914789
  0.2269312806087456  0.0640755574104119  0.0397611701521683
  0.3182094109162890  0.1425806619940886  0.2088623739043598
  0.3962651987854784  0.2313055110215032  0.3761869978634067
  0.0007941395098712  0.1667600038173802  0.6673270425303741
  0.0837054778746449  0.2494170467883805  0.8332729213408641
  0.1664138332444551  0.3353360753256709  0.0015037255683552
  0.4532317519652906  0.1219617023411530  0.0796845963673576
  0.0459910202534530  0.2101370852966582  0.2539738602393555
  0.1258759329453767  0.2927730834312072  0.4189440282700900
  0.2089126006339654  0.3752427221902224  0.5841079498018615
  0.2916345929019357  0.4578132827734507  0.7491637020458981
  0.3748604430858293  0.0388568083439083  0.9140584108560077
  0.3342215494106213  0.0041967433465189  0.3386697585023484
  0.4178689427484059  0.0849192081077703  0.5020262418886787
  0.9795161836795501  0.3134362729125257  0.5426585755463407
  0.5626227237621464  0.3958674735160983  0.7080992441930150
  0.6450943176890078  0.4787243614924250  0.8737577031495221
  0.9367442926575151  0.2703047509417686  0.9573523179381027
  0.5153793435034260  0.3520741763798085  0.1217255360065721
  0.6028172057815766  0.4416353136035838  0.2958637978176313
  0.6882471493454645  0.0219084812343411  0.4602354022050790
  0.7712733481891760  0.1045295351453248  0.6255882599659870
  0.8541991247230953  0.1872561183995316  0.7911898609462327
  0.7265430769311081  0.0627055469398314  0.0393241727557125
  0.8176799140064119  0.1417275911884133  0.2095725754962885
  0.8960165554377042  0.2311247595650414  0.3767433337865143
  0.5003634855465577  0.1666158678987344  0.6666775860209455
  0.5825816954707719  0.2488237450389690  0.8311314148604367
  0.6634556678902044  0.3313813706657243  0.9947293795448502
  0.9556219850136500  0.1205554704556349  0.0801198916263957
  0.5428978869324297  0.2134341767696313  0.2525700578174579
  0.6253888647643464  0.2927179237487891  0.4190306287117949
  0.7090552433624637  0.3752082180962120  0.5843036230956713
  0.7923262167737448  0.4574348675976978  0.7497685837152090
  0.8738700692318275  0.0407558139502484  0.9146364536051053
  0.8337134342223393  0.0042105178135401  0.3386941922830928
  0.9179650813341453  0.0847719240571863  0.5023464058913731
  0.4794569785567191  0.8134136038650013  0.5425115789025696
  0.0625653641206512  0.8959279183061568  0.7080795191667661
  0.1452912011376029  0.9788153572221034  0.8738351657144463
  0.4360607849243294  0.7693659799484323  0.9567354694598222
  0.0166803749024282  0.8528256631946718  0.1216383654018145
  0.1031405125756137  0.9406796130829775  0.2960922496625926
  0.1883549896638570  0.5217804873871259  0.4598937413616540
  0.2712538233818123  0.6044466792279977  0.6253183024934117
  0.3538938742872517  0.6868413719588702  0.7909903827499178
  0.2254671520737759  0.5608225569114111  0.0400322740801968
  0.3182197771652255  0.6395238292482333  0.2086916077492589
  0.3963939755525487  0.7308780020765653  0.3761959217167643
  0.0004772502317110  0.6664832858918857  0.6666686925372076
  0.0824439324465729  0.7491600543335863  0.8310568638805478
  0.1633447739887259  0.8310863670612179  0.9948246992862835
  0.4553770298511850  0.6190087474525043  0.0797169360243686
  0.0464480508539609  0.7098438231266258  0.2522586769892499
  0.1259439824595461  0.7921374093927369  0.4189316428964318
  0.2089993112682862  0.8751244140926957  0.5841038982789399
  0.2917384236361968  0.9574931774928572  0.7493166367705300
  0.3730410337109191  0.5399619131200950  0.9148219266773197
  0.3325713480323316  0.5035565779653410  0.3368189938235346
  0.4176478865830831  0.5846300478437385  0.5015846082820516
  0.9795017614967279  0.8133890771974421  0.5425699345511177
  0.5624412459425940  0.8957732501690927  0.7080223926583500
  0.6451507673860348  0.9784342637761938  0.8732978295260736
  0.9358107097386323  0.7705482085159190  0.9563175053669966
  0.5171312472034728  0.8515428394352824  0.1214786217080572
  0.6032396711166115  0.9418539494167177  0.2958539337608173
  0.6881765069950418  0.5218815187796224  0.4601784098948158
  0.7712324805722517  0.6043782080950280  0.6254404251199333
  0.8540479228523807  0.6868057223800932  0.7908676186365540
  0.7279253072495351  0.5620947278302424  0.0397888752945121
  0.8197462467803334  0.6412876842302566  0.2088277269147909
  0.8969312271973138  0.7308306885990987  0.3760474705241066
  0.5005492666647982  0.6663622358459023  0.6666465783653877
  0.5834374036944112  0.7478367950906133  0.8313010062307953
  0.6647546926039141  0.8302801407973206  0.9951229230911096
  0.9644344803101745  0.6141765422287762  0.0812086515877937
  0.5461989401862581  0.7110959316881633  0.2529589521865461
  0.6261192289141064  0.7925299274451447  0.4190314598959120
  0.7089662669461347  0.8752150118624513  0.5841891448267447
  0.7917503244712449  0.9577063736016811  0.7493072187781920
  0.8757115196817509  0.5398339706227659  0.9157434930945101
  0.8344930267687829  0.5039984873074559  0.3386579327579184
  0.9180033845971494  0.5848291827700720  0.5020152354162377
  0.2278784852864604  0.4135825486972990  0.1589649367505004
  0.7436412311295300  0.4128488191120638  0.1685037641228817
  0.2431236725743062  0.9130716526078331  0.1688030821915234
  0.7404682359923314  0.9160569735151540  0.1682697929955097
  0.0589353300153519  0.3936036243216847  0.5114870381447929
  0.1418558373544627  0.4755405778259174  0.6763584209461868
  0.2245367507725220  0.0577782110194534  0.8412139207087392
  0.0168734742047221  0.3494616580484973  0.9257208805364812
  0.1815663389009856  0.0259487764192556  0.2722486990324597
  0.2680720341883713  0.1030444235816219  0.4309773692379935
  0.3508012531814515  0.1845643872955094  0.5942487831324783
  0.4328965110504441  0.2667139641840848  0.7585094227753686
  0.3064038334342811  0.1392578840338174  0.0047680620350405
  0.4102051884079074  0.2075902445491522  0.1775054167975583
  0.4752670836089976  0.3130558912074974  0.3455828898601041
  0.0801491509977907  0.2461451338838216  0.6350733026098538
  0.1625926516189580  0.3287391050089212  0.8003346900119226
  0.2471144629035251  0.4118427682104340  0.9642066387636419
  0.0342919830900215  0.2024284584032685  0.0499168386626607
  0.1255367703786376  0.2895563790744546  0.2202792445783643
  0.2054722253014560  0.3719248600083276  0.3874600266921462
  0.2884890764561874  0.4548600767221984  0.5526189917884139
  0.3714515054738925  0.0372424036956573  0.7176965656363450
  0.4544926184640090  0.1190432296247010  0.8826636305149052
  0.3299775909789915  0.9999247921806855  0.1327697581158134
  0.4121981040155021  0.0812691318466037  0.3041891310123219
  0.4970434676576119  0.1641675869122139  0.4693824645867508
  0.5590151062621800  0.3936529619788303  0.5116255549148505
  0.6423932435433244  0.4755369771205977  0.6766805122905382
  0.7244465859339826  0.0582177775114445  0.8412842409855301
  0.5149277180732597  0.3482528177738757  0.9222607635739664
  0.5893018168455413  0.4283095712835987  0.0830930159757415
  0.6803034050919692  0.0289161134455824  0.2720201331396552
  0.7681732502657965  0.1031270886521369  0.4311799522754498
  0.8511138873641642  0.1846575927196952  0.5947063625961704
  0.9341373666229700  0.2667567825278425  0.7596804497585339
  0.8047970303873413  0.1424383701656282  0.0064840751497570
  0.9110635423124194  0.2057424320750343  0.1781486819579001
  0.9748807689444376  0.3125521786626067  0.3459857429835935
  0.5801568238934678  0.2462112293319265  0.6350479799175162
  0.6629701660326646  0.3288224130840334  0.8003420407237556
  0.7452055688057015  0.4121948744140624  0.9661861237965184
  0.5350810277679869  0.2012969736409858  0.0490346727893041
  0.6248711161206302  0.2932146534619520  0.2177210478079203
  0.7051910131756500  0.3718188754109448  0.3876239858347148
  0.7885601344446940  0.4547678017192709  0.5527008453002722
  0.8715877221591057  0.0375765269528330  0.7179739280330821
  0.9540740166614512  0.1207240243558942  0.8835853811412946
  0.8294405991299172  0.0014561918146043  0.1325335779638976
  0.9118892848503535  0.0814775495173024  0.3044423180003406
  0.9970402677842642  0.1639852367276191  0.4696368646000622
  0.0589949280045374  0.8934314645460688  0.5114708222503381
  0.1420490486531278  0.9755182556691437  0.6763747489353804
  0.2238939879775259  0.5587903721253511  0.8408123589319842
  0.0139710282573589  0.8493576483823446  0.9220543147421552
  0.0887438720139500  0.9301234127546110  0.0830739779572482
  0.1813220522350036  0.5258584949794312  0.2693691412104045
  0.2681412877874791  0.6024768687525537  0.4302055238697378
  0.3509427986552041  0.6843892644004725  0.5940545256708347
  0.4334004917801124  0.7662184695416983  0.7586439829088931
  0.3042008619811014  0.6423341423844704  0.0064202766757830
  0.4112977061874332  0.7062000285968537  0.1776983835417738
  0.4758121529160064  0.8125511496943787  0.3453789302296570
  0.0801709914969990  0.7461873833213062  0.6350375251197278
  0.1628543525994459  0.8290977730110498  0.8003258539769362
  0.2449767523219322  0.9123092896417475  0.9663386815903010
  0.0337605395841720  0.7057880981876465  0.0487878642189514
  0.1249354926982988  0.7932602137591118  0.2174533718553207
  0.2056904032692515  0.8714457346914273  0.3877745016151835
  0.2885957980652947  0.9547599876746418  0.5526810045057218
  0.3715746829015245  0.5373503487541313  0.7176468549843023
  0.4537251112609226  0.6195934769021392  0.8832723835424048
  0.3304877559415758  0.5008195169966783  0.1322264304762584
  0.4118135877030511  0.5816737735308308  0.3041022165996168
  0.4970523548678756  0.6641597122157918  0.4693092362500408
  0.5589870529966134  0.8936447717406750  0.5114498540225441
  0.6418977780100192  0.9756969531861941  0.6764334277134836
  0.7256603478567598  0.5574664105762608  0.8419684849064240
  0.5158140736668173  0.8467574422425557  0.9224835382759764
  0.5874800467443606  0.9294836429729614  0.0824332866667916
  0.6816132634924941  0.5270648261936444  0.2717893636985522
  0.7682052381597089  0.6029716954156115  0.4309359178425964
  0.8508336581071347  0.6845485010683916  0.5942366256385014
  0.9328991852088748  0.7666820456705352  0.7584640549675399
  0.8080825864897392  0.6406939412492605  0.0078525213509408
  0.9077560976021957  0.7112368456687364  0.1778445281578129
  0.9757832646054396  0.8126398866804081  0.3451114619424445
  0.5801416618256852  0.7461246645535482  0.6349387704630516
  0.6630328367145779  0.8283834709607163  0.8001650910606699
  0.7447672122432607  0.9122111752845754  0.9658079755447631
  0.5354532861210117  0.7007264858956006  0.0495087133675511
  0.6253584476828564  0.7927100050996856  0.2175922832890649
  0.7059402799265158  0.8715820963477938  0.3875157396795785
  0.7886041422098273  0.9548517959329530  0.5528100214694831
  0.8715110477680170  0.5372673090259283  0.7177660655622233
  0.9539888700623393  0.6201754313436325  0.8831721664703238
  0.8308731275870613  0.4995013448849051  0.1324780932537166
  0.9122510869386602  0.5812197482190342  0.3039800103520847
  0.9970814340430962  0.6641682721970597  0.4693115318897725
 
  0.00000000E+00  0.00000000E+00  0.00000000E+00
  0.00000000E+00  0.00000000E+00  0.00000000E+00
  0.00000000E+00  0.00000000E+00  0.00000000E+00
  0.00000000E+00  0.00000000E+00  0.00000000E+00
  0.00000000E+00  0.00000000E+00  0.00000000E+00
  0.00000000E+00  0.00000000E+00  0.00000000E+00
  0.00000000E+00  0.00000000E+00  0.00000000E+00
  0.00000000E+00  0.00000000E+00  0.00000000E+00
  0.00000000E+00  0.00000000E+00  0.00000000E+00
  0.00000000E+00  0.00000000E+00  0.00000000E+00
  0.00000000E+00  0.00000000E+00  0.00000000E+00
  0.00000000E+00  0.00000000E+00  0.00000000E+00
  0.00000000E+00  0.00000000E+00  0.00000000E+00
  0.00000000E+00  0.00000000E+00  0.00000000E+00
  0.00000000E+00  0.00000000E+00  0.00000000E+00
  0.00000000E+00  0.00000000E+00  0.00000000E+00
  0.00000000E+00  0.00000000E+00  0.00000000E+00
  0.00000000E+00  0.00000000E+00  0.00000000E+00
  0.00000000E+00  0.00000000E+00  0.00000000E+00
  0.00000000E+00  0.00000000E+00  0.00000000E+00
  0.00000000E+00  0.00000000E+00  0.00000000E+00
  0.00000000E+00  0.00000000E+00  0.00000000E+00
  0.00000000E+00  0.00000000E+00  0.00000000E+00
  0.00000000E+00  0.00000000E+00  0.00000000E+00
  0.00000000E+00  0.00000000E+00  0.00000000E+00
  0.00000000E+00  0.00000000E+00  0.00000000E+00
  0.00000000E+00  0.00000000E+00  0.00000000E+00
  0.00000000E+00  0.00000000E+00  0.00000000E+00
  0.00000000E+00  0.00000000E+00  0.00000000E+00
  0.00000000E+00  0.00000000E+00  0.00000000E+00
  0.00000000E+00  0.00000000E+00  0.00000000E+00
  0.00000000E+00  0.00000000E+00  0.00000000E+00
  0.00000000E+00  0.00000000E+00  0.00000000E+00
  0.00000000E+00  0.00000000E+00  0.00000000E+00
  0.00000000E+00  0.00000000E+00  0.00000000E+00
  0.00000000E+00  0.00000000E+00  0.00000000E+00
  0.00000000E+00  0.00000000E+00  0.00000000E+00
  0.00000000E+00  0.00000000E+00  0.00000000E+00
  0.00000000E+00  0.00000000E+00  0.00000000E+00
  0.00000000E+00  0.00000000E+00  0.00000000E+00
  0.00000000E+00  0.00000000E+00  0.00000000E+00
  0.00000000E+00  0.00000000E+00  0.00000000E+00
  0.00000000E+00  0.00000000E+00  0.00000000E+00
  0.00000000E+00  0.00000000E+00  0.00000000E+00
  0.00000000E+00  0.00000000E+00  0.00000000E+00
  0.00000000E+00  0.00000000E+00  0.00000000E+00
  0.00000000E+00  0.00000000E+00  0.00000000E+00
  0.00000000E+00  0.00000000E+00  0.00000000E+00
  0.00000000E+00  0.00000000E+00  0.00000000E+00
  0.00000000E+00  0.00000000E+00  0.00000000E+00
  0.00000000E+00  0.00000000E+00  0.00000000E+00
  0.00000000E+00  0.00000000E+00  0.00000000E+00
  0.00000000E+00  0.00000000E+00  0.00000000E+00
  0.00000000E+00  0.00000000E+00  0.00000000E+00
  0.00000000E+00  0.00000000E+00  0.00000000E+00
  0.00000000E+00  0.00000000E+00  0.00000000E+00
  0.00000000E+00  0.00000000E+00  0.00000000E+00
  0.00000000E+00  0.00000000E+00  0.00000000E+00
  0.00000000E+00  0.00000000E+00  0.00000000E+00
  0.00000000E+00  0.00000000E+00  0.00000000E+00
  0.00000000E+00  0.00000000E+00  0.00000000E+00
  0.00000000E+00  0.00000000E+00  0.00000000E+00
  0.00000000E+00  0.00000000E+00  0.00000000E+00
  0.00000000E+00  0.00000000E+00  0.00000000E+00
  0.00000000E+00  0.00000000E+00  0.00000000E+00
  0.00000000E+00  0.00000000E+00  0.00000000E+00
  0.00000000E+00  0.00000000E+00  0.00000000E+00
  0.00000000E+00  0.00000000E+00  0.00000000E+00
  0.00000000E+00  0.00000000E+00  0.00000000E+00
  0.00000000E+00  0.00000000E+00  0.00000000E+00
  0.00000000E+00  0.00000000E+00  0.00000000E+00
  0.00000000E+00  0.00000000E+00  0.00000000E+00
  0.00000000E+00  0.00000000E+00  0.00000000E+00
  0.00000000E+00  0.00000000E+00  0.00000000E+00
  0.00000000E+00  0.00000000E+00  0.00000000E+00
  0.00000000E+00  0.00000000E+00  0.00000000E+00
  0.00000000E+00  0.00000000E+00  0.00000000E+00
  0.00000000E+00  0.00000000E+00  0.00000000E+00
  0.00000000E+00  0.00000000E+00  0.00000000E+00
  0.00000000E+00  0.00000000E+00  0.00000000E+00
  0.00000000E+00  0.00000000E+00  0.00000000E+00
  0.00000000E+00  0.00000000E+00  0.00000000E+00
  0.00000000E+00  0.00000000E+00  0.00000000E+00
  0.00000000E+00  0.00000000E+00  0.00000000E+00
  0.00000000E+00  0.00000000E+00  0.00000000E+00
  0.00000000E+00  0.00000000E+00  0.00000000E+00
  0.00000000E+00  0.00000000E+00  0.00000000E+00
  0.00000000E+00  0.00000000E+00  0.00000000E+00
  0.00000000E+00  0.00000000E+00  0.00000000E+00
  0.00000000E+00  0.00000000E+00  0.00000000E+00
  0.00000000E+00  0.00000000E+00  0.00000000E+00
  0.00000000E+00  0.00000000E+00  0.00000000E+00
  0.00000000E+00  0.00000000E+00  0.00000000E+00
  0.00000000E+00  0.00000000E+00  0.00000000E+00
  0.00000000E+00  0.00000000E+00  0.00000000E+00
  0.00000000E+00  0.00000000E+00  0.00000000E+00
  0.00000000E+00  0.00000000E+00  0.00000000E+00
  0.00000000E+00  0.00000000E+00  0.00000000E+00
  0.00000000E+00  0.00000000E+00  0.00000000E+00
  0.00000000E+00  0.00000000E+00  0.00000000E+00
  0.00000000E+00  0.00000000E+00  0.00000000E+00
  0.00000000E+00  0.00000000E+00  0.00000000E+00
  0.00000000E+00  0.00000000E+00  0.00000000E+00
  0.00000000E+00  0.00000000E+00  0.00000000E+00
  0.00000000E+00  0.00000000E+00  0.00000000E+00
  0.00000000E+00  0.00000000E+00  0.00000000E+00
  0.00000000E+00  0.00000000E+00  0.00000000E+00
  0.00000000E+00  0.00000000E+00  0.00000000E+00
  0.00000000E+00  0.00000000E+00  0.00000000E+00
  0.00000000E+00  0.00000000E+00  0.00000000E+00
  0.00000000E+00  0.00000000E+00  0.00000000E+00
  0.00000000E+00  0.00000000E+00  0.00000000E+00
  0.00000000E+00  0.00000000E+00  0.00000000E+00
  0.00000000E+00  0.00000000E+00  0.00000000E+00
  0.00000000E+00  0.00000000E+00  0.00000000E+00
  0.00000000E+00  0.00000000E+00  0.00000000E+00
  0.00000000E+00  0.00000000E+00  0.00000000E+00
  0.00000000E+00  0.00000000E+00  0.00000000E+00
  0.00000000E+00  0.00000000E+00  0.00000000E+00
  0.00000000E+00  0.00000000E+00  0.00000000E+00
  0.00000000E+00  0.00000000E+00  0.00000000E+00
  0.00000000E+00  0.00000000E+00  0.00000000E+00
  0.00000000E+00  0.00000000E+00  0.00000000E+00
  0.00000000E+00  0.00000000E+00  0.00000000E+00
  0.00000000E+00  0.00000000E+00  0.00000000E+00
  0.00000000E+00  0.00000000E+00  0.00000000E+00
  0.00000000E+00  0.00000000E+00  0.00000000E+00
  0.00000000E+00  0.00000000E+00  0.00000000E+00
  0.00000000E+00  0.00000000E+00  0.00000000E+00
  0.00000000E+00  0.00000000E+00  0.00000000E+00
  0.00000000E+00  0.00000000E+00  0.00000000E+00
  0.00000000E+00  0.00000000E+00  0.00000000E+00
  0.00000000E+00  0.00000000E+00  0.00000000E+00
  0.00000000E+00  0.00000000E+00  0.00000000E+00
  0.00000000E+00  0.00000000E+00  0.00000000E+00
  0.00000000E+00  0.00000000E+00  0.00000000E+00
  0.00000000E+00  0.00000000E+00  0.00000000E+00
  0.00000000E+00  0.00000000E+00  0.00000000E+00
  0.00000000E+00  0.00000000E+00  0.00000000E+00
  0.00000000E+00  0.00000000E+00  0.00000000E+00
  0.00000000E+00  0.00000000E+00  0.00000000E+00
  0.00000000E+00  0.00000000E+00  0.00000000E+00
  0.00000000E+00  0.00000000E+00  0.00000000E+00
  0.00000000E+00  0.00000000E+00  0.00000000E+00
  0.00000000E+00  0.00000000E+00  0.00000000E+00
  0.00000000E+00  0.00000000E+00  0.00000000E+00
  0.00000000E+00  0.00000000E+00  0.00000000E+00
  0.00000000E+00  0.00000000E+00  0.00000000E+00
  0.00000000E+00  0.00000000E+00  0.00000000E+00
  0.00000000E+00  0.00000000E+00  0.00000000E+00
  0.00000000E+00  0.00000000E+00  0.00000000E+00
  0.00000000E+00  0.00000000E+00  0.00000000E+00
  0.00000000E+00  0.00000000E+00  0.00000000E+00
  0.00000000E+00  0.00000000E+00  0.00000000E+00
  0.00000000E+00  0.00000000E+00  0.00000000E+00
  0.00000000E+00  0.00000000E+00  0.00000000E+00
  0.00000000E+00  0.00000000E+00  0.00000000E+00
  0.00000000E+00  0.00000000E+00  0.00000000E+00
  0.00000000E+00  0.00000000E+00  0.00000000E+00
  0.00000000E+00  0.00000000E+00  0.00000000E+00
  0.00000000E+00  0.00000000E+00  0.00000000E+00
  0.00000000E+00  0.00000000E+00  0.00000000E+00
  0.00000000E+00  0.00000000E+00  0.00000000E+00
  0.00000000E+00  0.00000000E+00  0.00000000E+00
  0.00000000E+00  0.00000000E+00  0.00000000E+00
  0.00000000E+00  0.00000000E+00  0.00000000E+00
  0.00000000E+00  0.00000000E+00  0.00000000E+00
  0.00000000E+00  0.00000000E+00  0.00000000E+00
  0.00000000E+00  0.00000000E+00  0.00000000E+00
  0.00000000E+00  0.00000000E+00  0.00000000E+00
  0.00000000E+00  0.00000000E+00  0.00000000E+00
  0.00000000E+00  0.00000000E+00  0.00000000E+00
  0.00000000E+00  0.00000000E+00  0.00000000E+00
  0.00000000E+00  0.00000000E+00  0.00000000E+00
  0.00000000E+00  0.00000000E+00  0.00000000E+00
  0.00000000E+00  0.00000000E+00  0.00000000E+00
  0.00000000E+00  0.00000000E+00  0.00000000E+00
  0.00000000E+00  0.00000000E+00  0.00000000E+00
  0.00000000E+00  0.00000000E+00  0.00000000E+00
  0.00000000E+00  0.00000000E+00  0.00000000E+00
  0.00000000E+00  0.00000000E+00  0.00000000E+00
  0.00000000E+00  0.00000000E+00  0.00000000E+00
  0.00000000E+00  0.00000000E+00  0.00000000E+00
  0.00000000E+00  0.00000000E+00  0.00000000E+00
  0.00000000E+00  0.00000000E+00  0.00000000E+00
  0.00000000E+00  0.00000000E+00  0.00000000E+00
  0.00000000E+00  0.00000000E+00  0.00000000E+00
  0.00000000E+00  0.00000000E+00  0.00000000E+00
  0.00000000E+00  0.00000000E+00  0.00000000E+00
  0.00000000E+00  0.00000000E+00  0.00000000E+00
  0.00000000E+00  0.00000000E+00  0.00000000E+00
