supercell of POSCAR                     
   1.00398800000000     
    -6.2729611433599999    0.0082005604289200   10.0015927484000002
     3.1280384584799998    5.4363994576400003   10.0007801159999996
    -7.8567367181199996   13.6110857897000006  -10.0002683574999995
   Al   Sc   N    O 
    92     4    95     1
Direct
  0.4800645835533999  0.3136863464245465  0.5430914064754546
  0.0623746760964110  0.3959573512481285  0.7080372746909376
  0.1446624141702983  0.4788162741655668  0.8733729549445570
  0.4357191035815049  0.2698858979516103  0.9561668929317975
  0.0156925145212270  0.3516557234026934  0.1207960407611495
  0.1032907695184093  0.4425681415167020  0.2964968625600903
  0.1880670738253869  0.0219899389119007  0.4608460797464673
  0.2711744832726239  0.1046343180714402  0.6255861460214618
  0.3535835825469746  0.1870064165988268  0.7907692459540812
  0.2266002333455575  0.0625011299855771  0.0388661858004085
  0.3150216604250602  0.1436612655590466  0.2051795314531617
  0.3966444179492825  0.2362256099113509  0.3785847055288940
  0.0006903380717844  0.1664539625692782  0.6667432247899896
  0.0825603496460587  0.2486004254832395  0.8309581587630319
  0.1637693940650209  0.3308521179430102  0.9944589067507650
  0.4582598141385148  0.1196553009773993  0.0797832636175499
  0.0458868246252777  0.2125272517399779  0.2531419248850000
  0.1253568702340715  0.2930410782982165  0.4194548907170628
  0.2091329267600130  0.3753252016152118  0.5843327347329321
  0.2916305169831048  0.4575432730631164  0.7491974746129699
  0.3738399720678913  0.0399785168569622  0.9145446190783559
  0.3323295291623580  0.0012907292177005  0.3403674353679804
  0.4187797572353702  0.0844379005144944  0.5025788732100835
  0.9795891814904181  0.3136273120062256  0.5428202276236007
  0.5624705804068455  0.3958954131174650  0.7080710493145475
  0.6448716813679596  0.4787210401997086  0.8732226020201423
  0.9358990513265155  0.2694894304166198  0.9560080645199349
  0.5168180404197074  0.3517966735066835  0.1211261862239112
  0.6034525794971799  0.4421594759733765  0.2960211692021488
  0.6895322261082342  0.0218398069824488  0.4605814249024363
  0.7714326572006129  0.1045136754193621  0.6255806884157948
  0.8536729489516901  0.1869666391564593  0.7906176778883349
  0.7272708552038125  0.0626860641804399  0.0395512615006766
  0.8193583680575927  0.1403873255174588  0.2082115146443186
  0.8964637870197834  0.2315046481111409  0.3763151397712363
  0.5006570670484294  0.1663982567898827  0.6667694616794293
  0.5824766027215773  0.2486237073121487  0.8309494159328423
  0.6639589587711825  0.3308273545197267  0.9940881228224541
  0.9562738751078186  0.1190872059970474  0.0792138978963806
  0.5480421858881002  0.2108690627299268  0.2514159011299455
  0.6267974500411739  0.2924395821527668  0.4190999538340137
  0.7092548062387891  0.3751581756054705  0.5843211933954393
  0.7917541252331972  0.4575420351197295  0.7492398298808425
  0.8736782585881215  0.0400116468340386  0.9141298730516354
  0.8348671725121761  0.0041143096996663  0.3389570672504618
  0.9185887612350427  0.0848802426171957  0.5023609506750191
  0.4796737461608132  0.8134190107592119  0.5428886978051608
  0.0624539446749850  0.8958130800112585  0.7079543919911444
  0.1447661021012649  0.9786855241656696  0.8730718963948547
  0.4359479198335734  0.7694083226985313  0.9560132783887241
  0.0167700442431240  0.8515708648052893  0.1210751009894793
  0.1028095403931815  0.9420808124654698  0.2958923159538642
  0.1885921540071607  0.5225648164874812  0.4606491986152434
  0.2713410063645512  0.6045213427553904  0.6255273331915916
  0.3536820097904609  0.6869500100484558  0.7906150474909808
  0.2272024434942139  0.5626877235241636  0.0396088060107616
  0.3193262023048646  0.6401300738989022  0.2082366672813052
  0.3969525927209503  0.7305312534169985  0.3764868700750341
  0.0006045113659070  0.6664856309050364  0.6666364672354206
  0.0824725435363689  0.7485844275750679  0.8308730332189853
  0.1637745271130981  0.8307626064999170  0.9939906580451705
  0.4563807783136440  0.6188549449592458  0.0791110066329352
  0.0472341817320014  0.7114084786360308  0.2515933917304309
  0.1263705816806961  0.7925910395786175  0.4189894291651513
  0.2092845952036981  0.8750845502330549  0.5843524478331403
  0.2917426687570313  0.9575496169173618  0.7492332372495909
  0.3736156603991532  0.5400245165075717  0.9140899727262592
  0.3346329487702135  0.5045558203404994  0.3386268271057915
  0.4186614550985368  0.5846926352280164  0.5022964189439776
  0.9798255746164841  0.8136511429039501  0.5426142016943842
  0.5624236825038906  0.8958616520371905  0.7080638692570389
  0.6446660412107121  0.9788020136418609  0.8734043079866893
  0.9356991481336365  0.7698031817803255  0.9561032415290569
  0.5162487453847788  0.8511810229219208  0.1208880908298156
  0.6087584186477457  0.9365873576300601  0.2967022798146743
  0.6886866793197086  0.5217103613042156  0.4604142814708965
  0.7712819958131618  0.6044668841510870  0.6255077979905153
  0.8536040146669350  0.6869820801529372  0.7907024834396381
  0.7269585889446617  0.5627899674612351  0.0393750791898668
  0.8198505999622938  0.6415348252484350  0.2084601553540395
  0.8981333773293869  0.7309935055529593  0.3763980884231088
  0.5006951732100191  0.6663728516657912  0.6666999512559499
  0.5825712697952810  0.7485531691481029  0.8309514287832869
  0.6637556244499692  0.8306778966866020  0.9943679965716186
  0.9574096657703635  0.6203332403088027  0.0798366888735274
  0.5464097334971214  0.7114443950381855  0.2526274328559879
  0.6266711386185122  0.7921022633573429  0.4200473177810906
  0.7093730808008871  0.8752128695935539  0.5844993598318027
  0.7916484189578981  0.9575578882554652  0.7492465787551126
  0.8738222346830185  0.5399854105491855  0.9145092747696282
  0.8344510514024677  0.5048653948637920  0.3389129205513015
  0.9184751882702287  0.5848198781006175  0.5022488377443963
  0.2378451105867683  0.4159964580950728  0.1689633099089320
  0.7421134305484713  0.4124331926650768  0.1688731877673177
  0.2419068426816651  0.9111996825860871  0.1689513013267856
  0.7374748003120786  0.9169919508258886  0.1692110354115357
  0.0592277262711889  0.3936060402661923  0.5117498857119287
  0.1418917001004871  0.4756496998319761  0.6764402489278822
  0.2242320107921145  0.0581042733724004  0.8411774480330507
  0.0142791157344604  0.3481758353164963  0.9219846693190377
  0.0866722968772180  0.4281203986632818  0.0817211813848289
  0.1821683061478581  0.0288687520782531  0.2724793296631915
  0.2688612066973874  0.1032816362791067  0.4311878604544717
  0.3509553304777953  0.1846229757328004  0.5943299381604774
  0.4327982392461038  0.2665262786699216  0.7585017284312841
  0.3054037795089286  0.1420442659315242  0.0064443831376693
  0.4134839723022310  0.2038233702768864  0.1777427582008144
  0.4762221145092198  0.3119224857525111  0.3447833266792912
  0.0802532993828038  0.2461666817297896  0.6351477041117164
  0.1626609027311261  0.3287691950556848  0.8002296427902920
  0.2447946721451615  0.4122927430331913  0.9657620014925925
  0.0345536654475254  0.2009983975582088  0.0486564855991745
  0.1253298747742804  0.2936992475982052  0.2179476887302840
  0.2063470607142790  0.3707331671623351  0.3879124552017856
  0.2890664504361737  0.4545733762765494  0.5528501934623051
  0.3714561449837390  0.0372826677501124  0.7177886152508393
  0.4535310577978606  0.1198999687357514  0.8830132357938822
  0.3283976829675410  0.9997907216613982  0.1323997662994145
  0.4975347191465289  0.1636217655824055  0.4691183639355003
  0.5593892252880934  0.3932985566713825  0.5115087738638522
  0.6419552174672134  0.4755459375823250  0.6764806970690955
  0.7239543791188581  0.0581154445245033  0.8411149503827033
  0.5140831017077971  0.3485612515651795  0.9219809552361085
  0.5897811655443235  0.4281707300395965  0.0822027143974324
  0.6789895030775597  0.0285252766756798  0.2749024453120299
  0.7690006902408086  0.1030942304011475  0.4313830178026663
  0.8510860601749712  0.1845615621860688  0.5944415120627298
  0.9329044876325057  0.2665125452780046  0.7584899507505085
  0.8050467743272947  0.1420901781456010  0.0057597969522476
  0.9135936094586654  0.2051300293411913  0.1773437709325876
  0.9756681803736882  0.3132380073356771  0.3455519973741445
  0.5804098676988687  0.2459571266405334  0.6351737634826549
  0.6627769561980728  0.3286175651667662  0.8002263950787096
  0.7451290334107270  0.4122509448810234  0.9656297013237207
  0.5351674642428677  0.2019484524929425  0.0486082004452086
  0.6261371986326054  0.2944066892279054  0.2171742234488647
  0.7057477405209696  0.3718894846134901  0.3875991087111927
  0.7887470492484780  0.4547444024801663  0.5528889581982028
  0.8715195150604274  0.0371317923691805  0.7177837000059029
  0.9536915282984424  0.1197141934754242  0.8827947489083883
  0.8310830740632298  0.0007663446769470  0.1317559963442747
  0.9116803643591993  0.0820961296001954  0.3039394761742500
  0.9972906150747534  0.1644465961949422  0.4694299279305412
  0.0595441925638056  0.8936226727412304  0.5115119511872308
  0.1419620179445715  0.9755885790252989  0.6764810527382181
  0.2239528823025623  0.5580898867317998  0.8410594147061659
  0.0139805940858437  0.8485148332435415  0.9218771916134756
  0.0894889674968624  0.9283090667375831  0.0820716061615059
  0.1808295324345153  0.5286395257508829  0.2737985506784213
  0.2690642441284581  0.6029747835037043  0.4312402893299279
  0.3511066151419868  0.6844604270917500  0.5943842090649198
  0.4329110944210797  0.7664995407640305  0.7584544575708705
  0.3050019651543536  0.6420477264869930  0.0057373623411081
  0.4136831691036136  0.7046323667839900  0.1771400687221174
  0.4764543157673060  0.8133529419283008  0.3454863964071251
  0.0802838880603431  0.7461185036485602  0.6349927122616634
  0.1627511122958225  0.8285754668642653  0.8001167951479431
  0.2450429603717126  0.9119946386200937  0.9654259845287356
  0.0351478653018447  0.7018646992700326  0.0484472518970378
  0.1265136097391064  0.7947518058317442  0.2170158174277432
  0.2062558266943455  0.8722778746408721  0.3875590609194788
  0.2888564960355211  0.9548435133697382  0.5529637114834216
  0.3714741616568773  0.5371570290706558  0.7177533341864546
  0.4537286584944695  0.6196618042353279  0.8827903996734960
  0.3311363298636891  0.5005834210136371  0.1317404056310707
  0.4121885839391268  0.5818911740232906  0.3040269599192271
  0.4975281619342127  0.6642312067991654  0.4695014387458301
  0.5591868160365721  0.8936731478986388  0.5119568446343266
  0.6418900757691617  0.9756223125224963  0.6765404233401000
  0.7242197183584906  0.5580689242193841  0.8411624666115074
  0.5141874769888730  0.8481821378425565  0.9219440169753597
  0.5869352084038653  0.9276764489328144  0.0816775540970340
  0.6816256172205826  0.5282405663941958  0.2724078731608088
  0.7686276403945627  0.6028541641079102  0.4313121752889373
  0.8509698937296122  0.6845283089892078  0.5943483147440816
  0.9328204059438363  0.7665078235197669  0.7584291200277846
  0.8053260092134238  0.6420509519623963  0.0062531308472984
  0.9123937068677108  0.7065385894216831  0.1769625578226623
  0.9764442730934775  0.8129038293896045  0.3450895791252364
  0.5803119183163901  0.7460716301709454  0.6351697549860660
  0.6626780942655586  0.8287493647264199  0.8002580385529114
  0.7447575234168013  0.9122759400325009  0.9657831356138828
  0.5345024831372669  0.7010320600300304  0.0486869559931691
  0.6241916708145254  0.7946507689467666  0.2176632475260050
  0.7059533797885607  0.8712661258167884  0.3884881917071468
  0.7888593606411760  0.9548162714259760  0.5529536347822983
  0.8714312893226150  0.5372534778350513  0.7177709025172092
  0.9535274134350971  0.6198559645481652  0.8829294048569736
  0.8286336891638726  0.5006946766644162  0.1326080503886615
  0.9117775900350225  0.5822301565772321  0.3041730911040759
  0.9975801254617949  0.6640920250459601  0.4694772296382510
  0.4117350906603718  0.0812205212396719  0.3052687510253236
 
  0.00000000E+00  0.00000000E+00  0.00000000E+00
  0.00000000E+00  0.00000000E+00  0.00000000E+00
  0.00000000E+00  0.00000000E+00  0.00000000E+00
  0.00000000E+00  0.00000000E+00  0.00000000E+00
  0.00000000E+00  0.00000000E+00  0.00000000E+00
  0.00000000E+00  0.00000000E+00  0.00000000E+00
  0.00000000E+00  0.00000000E+00  0.00000000E+00
  0.00000000E+00  0.00000000E+00  0.00000000E+00
  0.00000000E+00  0.00000000E+00  0.00000000E+00
  0.00000000E+00  0.00000000E+00  0.00000000E+00
  0.00000000E+00  0.00000000E+00  0.00000000E+00
  0.00000000E+00  0.00000000E+00  0.00000000E+00
  0.00000000E+00  0.00000000E+00  0.00000000E+00
  0.00000000E+00  0.00000000E+00  0.00000000E+00
  0.00000000E+00  0.00000000E+00  0.00000000E+00
  0.00000000E+00  0.00000000E+00  0.00000000E+00
  0.00000000E+00  0.00000000E+00  0.00000000E+00
  0.00000000E+00  0.00000000E+00  0.00000000E+00
  0.00000000E+00  0.00000000E+00  0.00000000E+00
  0.00000000E+00  0.00000000E+00  0.00000000E+00
  0.00000000E+00  0.00000000E+00  0.00000000E+00
  0.00000000E+00  0.00000000E+00  0.00000000E+00
  0.00000000E+00  0.00000000E+00  0.00000000E+00
  0.00000000E+00  0.00000000E+00  0.00000000E+00
  0.00000000E+00  0.00000000E+00  0.00000000E+00
  0.00000000E+00  0.00000000E+00  0.00000000E+00
  0.00000000E+00  0.00000000E+00  0.00000000E+00
  0.00000000E+00  0.00000000E+00  0.00000000E+00
  0.00000000E+00  0.00000000E+00  0.00000000E+00
  0.00000000E+00  0.00000000E+00  0.00000000E+00
  0.00000000E+00  0.00000000E+00  0.00000000E+00
  0.00000000E+00  0.00000000E+00  0.00000000E+00
  0.00000000E+00  0.00000000E+00  0.00000000E+00
  0.00000000E+00  0.00000000E+00  0.00000000E+00
  0.00000000E+00  0.00000000E+00  0.00000000E+00
  0.00000000E+00  0.00000000E+00  0.00000000E+00
  0.00000000E+00  0.00000000E+00  0.00000000E+00
  0.00000000E+00  0.00000000E+00  0.00000000E+00
  0.00000000E+00  0.00000000E+00  0.00000000E+00
  0.00000000E+00  0.00000000E+00  0.00000000E+00
  0.00000000E+00  0.00000000E+00  0.00000000E+00
  0.00000000E+00  0.00000000E+00  0.00000000E+00
  0.00000000E+00  0.00000000E+00  0.00000000E+00
  0.00000000E+00  0.00000000E+00  0.00000000E+00
  0.00000000E+00  0.00000000E+00  0.00000000E+00
  0.00000000E+00  0.00000000E+00  0.00000000E+00
  0.00000000E+00  0.00000000E+00  0.00000000E+00
  0.00000000E+00  0.00000000E+00  0.00000000E+00
  0.00000000E+00  0.00000000E+00  0.00000000E+00
  0.00000000E+00  0.00000000E+00  0.00000000E+00
  0.00000000E+00  0.00000000E+00  0.00000000E+00
  0.00000000E+00  0.00000000E+00  0.00000000E+00
  0.00000000E+00  0.00000000E+00  0.00000000E+00
  0.00000000E+00  0.00000000E+00  0.00000000E+00
  0.00000000E+00  0.00000000E+00  0.00000000E+00
  0.00000000E+00  0.00000000E+00  0.00000000E+00
  0.00000000E+00  0.00000000E+00  0.00000000E+00
  0.00000000E+00  0.00000000E+00  0.00000000E+00
  0.00000000E+00  0.00000000E+00  0.00000000E+00
  0.00000000E+00  0.00000000E+00  0.00000000E+00
  0.00000000E+00  0.00000000E+00  0.00000000E+00
  0.00000000E+00  0.00000000E+00  0.00000000E+00
  0.00000000E+00  0.00000000E+00  0.00000000E+00
  0.00000000E+00  0.00000000E+00  0.00000000E+00
  0.00000000E+00  0.00000000E+00  0.00000000E+00
  0.00000000E+00  0.00000000E+00  0.00000000E+00
  0.00000000E+00  0.00000000E+00  0.00000000E+00
  0.00000000E+00  0.00000000E+00  0.00000000E+00
  0.00000000E+00  0.00000000E+00  0.00000000E+00
  0.00000000E+00  0.00000000E+00  0.00000000E+00
  0.00000000E+00  0.00000000E+00  0.00000000E+00
  0.00000000E+00  0.00000000E+00  0.00000000E+00
  0.00000000E+00  0.00000000E+00  0.00000000E+00
  0.00000000E+00  0.00000000E+00  0.00000000E+00
  0.00000000E+00  0.00000000E+00  0.00000000E+00
  0.00000000E+00  0.00000000E+00  0.00000000E+00
  0.00000000E+00  0.00000000E+00  0.00000000E+00
  0.00000000E+00  0.00000000E+00  0.00000000E+00
  0.00000000E+00  0.00000000E+00  0.00000000E+00
  0.00000000E+00  0.00000000E+00  0.00000000E+00
  0.00000000E+00  0.00000000E+00  0.00000000E+00
  0.00000000E+00  0.00000000E+00  0.00000000E+00
  0.00000000E+00  0.00000000E+00  0.00000000E+00
  0.00000000E+00  0.00000000E+00  0.00000000E+00
  0.00000000E+00  0.00000000E+00  0.00000000E+00
  0.00000000E+00  0.00000000E+00  0.00000000E+00
  0.00000000E+00  0.00000000E+00  0.00000000E+00
  0.00000000E+00  0.00000000E+00  0.00000000E+00
  0.00000000E+00  0.00000000E+00  0.00000000E+00
  0.00000000E+00  0.00000000E+00  0.00000000E+00
  0.00000000E+00  0.00000000E+00  0.00000000E+00
  0.00000000E+00  0.00000000E+00  0.00000000E+00
  0.00000000E+00  0.00000000E+00  0.00000000E+00
  0.00000000E+00  0.00000000E+00  0.00000000E+00
  0.00000000E+00  0.00000000E+00  0.00000000E+00
  0.00000000E+00  0.00000000E+00  0.00000000E+00
  0.00000000E+00  0.00000000E+00  0.00000000E+00
  0.00000000E+00  0.00000000E+00  0.00000000E+00
  0.00000000E+00  0.00000000E+00  0.00000000E+00
  0.00000000E+00  0.00000000E+00  0.00000000E+00
  0.00000000E+00  0.00000000E+00  0.00000000E+00
  0.00000000E+00  0.00000000E+00  0.00000000E+00
  0.00000000E+00  0.00000000E+00  0.00000000E+00
  0.00000000E+00  0.00000000E+00  0.00000000E+00
  0.00000000E+00  0.00000000E+00  0.00000000E+00
  0.00000000E+00  0.00000000E+00  0.00000000E+00
  0.00000000E+00  0.00000000E+00  0.00000000E+00
  0.00000000E+00  0.00000000E+00  0.00000000E+00
  0.00000000E+00  0.00000000E+00  0.00000000E+00
  0.00000000E+00  0.00000000E+00  0.00000000E+00
  0.00000000E+00  0.00000000E+00  0.00000000E+00
  0.00000000E+00  0.00000000E+00  0.00000000E+00
  0.00000000E+00  0.00000000E+00  0.00000000E+00
  0.00000000E+00  0.00000000E+00  0.00000000E+00
  0.00000000E+00  0.00000000E+00  0.00000000E+00
  0.00000000E+00  0.00000000E+00  0.00000000E+00
  0.00000000E+00  0.00000000E+00  0.00000000E+00
  0.00000000E+00  0.00000000E+00  0.00000000E+00
  0.00000000E+00  0.00000000E+00  0.00000000E+00
  0.00000000E+00  0.00000000E+00  0.00000000E+00
  0.00000000E+00  0.00000000E+00  0.00000000E+00
  0.00000000E+00  0.00000000E+00  0.00000000E+00
  0.00000000E+00  0.00000000E+00  0.00000000E+00
  0.00000000E+00  0.00000000E+00  0.00000000E+00
  0.00000000E+00  0.00000000E+00  0.00000000E+00
  0.00000000E+00  0.00000000E+00  0.00000000E+00
  0.00000000E+00  0.00000000E+00  0.00000000E+00
  0.00000000E+00  0.00000000E+00  0.00000000E+00
  0.00000000E+00  0.00000000E+00  0.00000000E+00
  0.00000000E+00  0.00000000E+00  0.00000000E+00
  0.00000000E+00  0.00000000E+00  0.00000000E+00
  0.00000000E+00  0.00000000E+00  0.00000000E+00
  0.00000000E+00  0.00000000E+00  0.00000000E+00
  0.00000000E+00  0.00000000E+00  0.00000000E+00
  0.00000000E+00  0.00000000E+00  0.00000000E+00
  0.00000000E+00  0.00000000E+00  0.00000000E+00
  0.00000000E+00  0.00000000E+00  0.00000000E+00
  0.00000000E+00  0.00000000E+00  0.00000000E+00
  0.00000000E+00  0.00000000E+00  0.00000000E+00
  0.00000000E+00  0.00000000E+00  0.00000000E+00
  0.00000000E+00  0.00000000E+00  0.00000000E+00
  0.00000000E+00  0.00000000E+00  0.00000000E+00
  0.00000000E+00  0.00000000E+00  0.00000000E+00
  0.00000000E+00  0.00000000E+00  0.00000000E+00
  0.00000000E+00  0.00000000E+00  0.00000000E+00
  0.00000000E+00  0.00000000E+00  0.00000000E+00
  0.00000000E+00  0.00000000E+00  0.00000000E+00
  0.00000000E+00  0.00000000E+00  0.00000000E+00
  0.00000000E+00  0.00000000E+00  0.00000000E+00
  0.00000000E+00  0.00000000E+00  0.00000000E+00
  0.00000000E+00  0.00000000E+00  0.00000000E+00
  0.00000000E+00  0.00000000E+00  0.00000000E+00
  0.00000000E+00  0.00000000E+00  0.00000000E+00
  0.00000000E+00  0.00000000E+00  0.00000000E+00
  0.00000000E+00  0.00000000E+00  0.00000000E+00
  0.00000000E+00  0.00000000E+00  0.00000000E+00
  0.00000000E+00  0.00000000E+00  0.00000000E+00
  0.00000000E+00  0.00000000E+00  0.00000000E+00
  0.00000000E+00  0.00000000E+00  0.00000000E+00
  0.00000000E+00  0.00000000E+00  0.00000000E+00
  0.00000000E+00  0.00000000E+00  0.00000000E+00
  0.00000000E+00  0.00000000E+00  0.00000000E+00
  0.00000000E+00  0.00000000E+00  0.00000000E+00
  0.00000000E+00  0.00000000E+00  0.00000000E+00
  0.00000000E+00  0.00000000E+00  0.00000000E+00
  0.00000000E+00  0.00000000E+00  0.00000000E+00
  0.00000000E+00  0.00000000E+00  0.00000000E+00
  0.00000000E+00  0.00000000E+00  0.00000000E+00
  0.00000000E+00  0.00000000E+00  0.00000000E+00
  0.00000000E+00  0.00000000E+00  0.00000000E+00
  0.00000000E+00  0.00000000E+00  0.00000000E+00
  0.00000000E+00  0.00000000E+00  0.00000000E+00
  0.00000000E+00  0.00000000E+00  0.00000000E+00
  0.00000000E+00  0.00000000E+00  0.00000000E+00
  0.00000000E+00  0.00000000E+00  0.00000000E+00
  0.00000000E+00  0.00000000E+00  0.00000000E+00
  0.00000000E+00  0.00000000E+00  0.00000000E+00
  0.00000000E+00  0.00000000E+00  0.00000000E+00
  0.00000000E+00  0.00000000E+00  0.00000000E+00
  0.00000000E+00  0.00000000E+00  0.00000000E+00
  0.00000000E+00  0.00000000E+00  0.00000000E+00
  0.00000000E+00  0.00000000E+00  0.00000000E+00
  0.00000000E+00  0.00000000E+00  0.00000000E+00
  0.00000000E+00  0.00000000E+00  0.00000000E+00
  0.00000000E+00  0.00000000E+00  0.00000000E+00
  0.00000000E+00  0.00000000E+00  0.00000000E+00
  0.00000000E+00  0.00000000E+00  0.00000000E+00
  0.00000000E+00  0.00000000E+00  0.00000000E+00
  0.00000000E+00  0.00000000E+00  0.00000000E+00
  0.00000000E+00  0.00000000E+00  0.00000000E+00
  0.00000000E+00  0.00000000E+00  0.00000000E+00
  0.00000000E+00  0.00000000E+00  0.00000000E+00
