supercell of POSCAR                     
   1.00398800000000     
    -6.2729611433599999    0.0082005604289200   10.0015927484000002
     3.1280384584799998    5.4363994576400003   10.0007801159999996
    -7.8567367181199996   13.6110857897000006  -10.0002683574999995
   Al   Sc   N    O 
    92     4    95     1
Direct
  0.4798969454334454  0.3139264193602145  0.5433620768281102
  0.0621642061496743  0.3960348428280298  0.7080161911594587
  0.1445720042113905  0.4787525252979705  0.8730937605436679
  0.4358341003487922  0.2694260425286288  0.9559849582329960
  0.0171025163331393  0.3513650584617238  0.1208955600458381
  0.1041490416962461  0.4418924991888105  0.2959792031647765
  0.1880823330565207  0.0222387616601551  0.4609816064328811
  0.2709852925799652  0.1047740946303293  0.6256551813911528
  0.3533730285673897  0.1870639042240967  0.7906515080951593
  0.2266018073869134  0.0619629071347205  0.0383457358410269
  0.3156593429728787  0.1420181963529856  0.2063368466496698
  0.3964608204448865  0.2363502662622778  0.3791907699971233
  0.0004027667345810  0.1666047369958079  0.6667493071704840
  0.0822444095890518  0.2487434962804684  0.8309268586194563
  0.1635101352197168  0.3311962882793296  0.9941725033370830
  0.4561490204256060  0.1197695907359275  0.0790216747938004
  0.0454439126903381  0.2123701759351064  0.2532154901081611
  0.1254163646346811  0.2933317819803847  0.4193977092184511
  0.2090191118022346  0.3754184154651483  0.5844087163841891
  0.2914591336977210  0.4576402951086109  0.7491549451719663
  0.3734721132775292  0.0400111690262506  0.9140559834597468
  0.3323375337136909  0.0008236692750287  0.3402251827093465
  0.4185822337185314  0.0845135619390120  0.5027053930445504
  0.9795459899744472  0.3137691851655759  0.5429117980944369
  0.5622309803849106  0.3960454726181339  0.7081026218365238
  0.6445907581267107  0.4787204821218438  0.8730935136849496
  0.9357257341223217  0.2694550384741774  0.9558692539145710
  0.5177279717475756  0.3512240269253155  0.1211766554965834
  0.6042549841077758  0.4415926791930502  0.2961502654387260
  0.6892172199243660  0.0221273281119281  0.4607197155687786
  0.7711694216982892  0.1047134337603666  0.6256388560893740
  0.8533815391541424  0.1870634180643265  0.7905859641554400
  0.7270732665209749  0.0622993318303244  0.0388840426046997
  0.8193987834529182  0.1408183279097841  0.2090525880822796
  0.8968579367120739  0.2314822047540730  0.3766341966456750
  0.5004604927232990  0.1664903369102575  0.6668350779506866
  0.5822410523374941  0.2487202113710723  0.8309446247795407
  0.6635088599888164  0.3311311756687942  0.9941238051489449
  0.9560502874296475  0.1198376215072372  0.0791051459147241
  0.5465527511455477  0.2122082374513852  0.2529863485217660
  0.6269365860807170  0.2930019515501172  0.4195512320502104
  0.7091218360847265  0.3754129044134729  0.5844313861189718
  0.7914807793475234  0.4576479922204797  0.7491643398479155
  0.8734692171591618  0.0400575471913314  0.9140897752274100
  0.8346336640227037  0.0045076678280580  0.3388743234669107
  0.9182859165872159  0.0850680356295825  0.5023712643572225
  0.4796276470906591  0.8135594433322595  0.5429763954047786
  0.0621969581662398  0.8959575708546197  0.7079629978063338
  0.1444490391699347  0.9786588857729228  0.8729220254730166
  0.4357821643593027  0.7693782138847922  0.9558636863767518
  0.0175988013124808  0.8511995177783831  0.1211439560351693
  0.1034070013523873  0.9414821329525864  0.2959979497238123
  0.1882445074317829  0.5229452411198636  0.4608523608409172
  0.2710921330672988  0.6047313469808984  0.6255986317072129
  0.3534029138911166  0.6870422524950328  0.7905927058790496
  0.2270316468797660  0.5623235405446678  0.0389405696475151
  0.3193374201756001  0.6407991286487444  0.2091023095400999
  0.3972785631040310  0.7304221493061291  0.3768469634253790
  0.0004121227686653  0.6665985375147940  0.6666937385858773
  0.0822340537788548  0.7486902757666414  0.8308729669739350
  0.1632756540105120  0.8311027135273079  0.9940705902166016
  0.4561553744520026  0.6196041258391034  0.0789352440814497
  0.0463296930052053  0.7121986314579161  0.2529230569031355
  0.1263285388989885  0.7931233135630364  0.4193684155748230
  0.2091184460375288  0.8753210624646783  0.5844382738138805
  0.2914482281274005  0.9576362061592718  0.7491459665477365
  0.3733907538428554  0.5400630701191247  0.9140333849677376
  0.3345420453073942  0.5049496925596983  0.3387200521159457
  0.4184084977396481  0.5848543099193719  0.5023743405247245
  0.9796070871785076  0.8139208140365142  0.5428344777063998
  0.5622069974532167  0.8959503513992360  0.7080469724421121
  0.6445731411209721  0.9787329315775679  0.8731236726388616
  0.9358037756164563  0.7693895515338127  0.9559292489530762
  0.5179007775074922  0.8509585647940696  0.1210253288003500
  0.6092975236243916  0.9363764365439877  0.2960750630037055
  0.6887142539754194  0.5220540705432768  0.4605653932534111
  0.7710950688603333  0.6046427580995868  0.6255825068856709
  0.8534072658219571  0.6870491478163103  0.7905908906944106
  0.7269927350653660  0.5624127410546862  0.0389201455535684
  0.8200253969616114  0.6403005859489994  0.2089374790674157
  0.8980366033977987  0.7307875483604462  0.3768217260723858
  0.5004259507381903  0.6665489953145638  0.6667315115606556
  0.5822908725094678  0.7486944387645096  0.8309250867011926
  0.6634557950113233  0.8311715809891638  0.9941572089760342
  0.9560772653433673  0.6199665147378894  0.0791191723710796
  0.5458253006647240  0.7116397373074008  0.2527699747039946
  0.6266907170354372  0.7924625130088359  0.4199856353570581
  0.7092524692429549  0.8753257673148198  0.5845748538229785
  0.7914780538743287  0.9576563087185477  0.7492069208587253
  0.8734483715000181  0.5400933903464207  0.9140646273103599
  0.8346045638143806  0.5046363028398630  0.3388401086588786
  0.9183265018680657  0.5848964289733800  0.5023835224921385
  0.2434080409077026  0.4132430719530333  0.1682058589509765
  0.7433198900988671  0.4128684719681175  0.1682715365295380
  0.2435631408088170  0.9117267566946836  0.1685588608192035
  0.7436462163862672  0.9129608329085528  0.1683981913820531
  0.0592305808056537  0.3936428694096534  0.5115806846655744
  0.1417027275550282  0.4757532731658642  0.6764752984218916
  0.2238385275842134  0.0582232795759268  0.8412226858409042
  0.0140100294946635  0.3485816165265447  0.9223410694707823
  0.0891121427497126  0.4289478245515852  0.0828243398572184
  0.1822740915931078  0.0282076280437238  0.2715754396713166
  0.2688008381569702  0.1034074758313750  0.4308153273113362
  0.3507502770463589  0.1847246356517829  0.5943334082320533
  0.4325997597488751  0.2666705620720364  0.7586285155799928
  0.3047986098382438  0.1421976526404691  0.0062658521374743
  0.4118385250641055  0.2046958926327420  0.1780869740220794
  0.4758891515179542  0.3122507361573739  0.3451688110320319
  0.0800565102038249  0.2462689024415781  0.6351617613184075
  0.1624883616747539  0.3287603809962718  0.8003101180380767
  0.2449945206960464  0.4120972481999559  0.9657905344384332
  0.0351748192654568  0.2012808157766628  0.0488861830882854
  0.1262017889858029  0.2925073480361391  0.2176357432037364
  0.2061453557607322  0.3714656036046193  0.3874599411400865
  0.2888555075866250  0.4547571305523022  0.5527956876433109
  0.3712680959265739  0.0373421888983430  0.7178446349350196
  0.4535109045875956  0.1197944404103097  0.8830671282317297
  0.3300574172890549  0.9992972344913582  0.1320637377626710
  0.4973862305623200  0.1638182899611209  0.4693235206572339
  0.5591422742054277  0.3935158964284327  0.5115630405465481
  0.6416857044341668  0.4757205152743467  0.6765118210591865
  0.7238408266240626  0.0582438848436340  0.8412593389353233
  0.5139597710931056  0.3485641655393152  0.9223221441672962
  0.5890856268605944  0.4288656297384890  0.0826562911418165
  0.6799650197172582  0.0278095229929818  0.2721081704253763
  0.7684731127595015  0.1031999008599769  0.4308908602420516
  0.8507474348549451  0.1847269915104022  0.5943400763559481
  0.9326308424811671  0.2666805086183146  0.7586087626439237
  0.8048327976801914  0.1423265684391950  0.0061781477053131
  0.9119643200086429  0.2059310184553382  0.1772562504867636
  0.9758446806123686  0.3130740577734841  0.3452826449408164
  0.5802018493849630  0.2460950341871992  0.6352799015650774
  0.6625180475246850  0.3287192626374775  0.8003421081772970
  0.7449500618334142  0.4121645163741690  0.9657847129428490
  0.5350655665159394  0.2013867683911670  0.0491090721312020
  0.6257018367857867  0.2928826360032772  0.2173623370017452
  0.7060386593813917  0.3719538565218414  0.3875561602632658
  0.7886819735146773  0.4549077406349795  0.5528468667176512
  0.8713055876006024  0.0372809987081766  0.7178311437715337
  0.9534922276738769  0.1197929239832405  0.8829808357759248
  0.8301101912159439  0.0001084155941555  0.1322455301200023
  0.9123180938878974  0.0817444872956585  0.3039989926280171
  0.9972774344119486  0.1644634261772637  0.4694456796309439
  0.0592413894420147  0.8938775669916410  0.5115064052817146
  0.1416781014267912  0.9757531320380650  0.6764919278060546
  0.2238301657569650  0.5582236455671463  0.8411935355669371
  0.0138684935059956  0.8485329841177176  0.9222288151992615
  0.0890876033290340  0.9290286624860471  0.0826670159503351
  0.1820836452057719  0.5276316899569977  0.2713257632127934
  0.2685248763999795  0.6031751280382025  0.4308339863511463
  0.3507869303727418  0.6846369012532705  0.5943197495283101
  0.4326514032899169  0.7666655099370132  0.7585979965598995
  0.3047861986222955  0.6422750105160020  0.0061430189222875
  0.4121232462591067  0.7054157751491914  0.1769906581786529
  0.4766012514495870  0.8130061668875470  0.3453728767918633
  0.0800731480079477  0.7462493912297248  0.6350540189277751
  0.1624912064052211  0.8286518721802665  0.8002111899085094
  0.2448660423153228  0.9117874841499898  0.9655305013563407
  0.0351824144787116  0.7013601420255995  0.0489325255671318
  0.1261165537602835  0.7934197835642181  0.2171831184495261
  0.2064374570856913  0.8722654190145178  0.3874881386425528
  0.2887825145216780  0.9549736530842949  0.5529182344755270
  0.3712744709782569  0.5372979921416459  0.7178100258081699
  0.4535483139455252  0.6197231343040244  0.8829885135145190
  0.3303265913089675  0.4999177636847492  0.1322976768207980
  0.4129146253994591  0.5814262001289450  0.3040368171106564
  0.4975146806065496  0.6641867501632532  0.4695555702484668
  0.5592020544399716  0.8937258828630306  0.5117863566820944
  0.6417053795954644  0.9757261842004539  0.6765803245676665
  0.7238601978780252  0.5582131597770257  0.8412281072154713
  0.5139882697495253  0.8485472620718397  0.9223223953020820
  0.5891422676691604  0.9290829713314182  0.0828226799514482
  0.6819182255979541  0.5276875948955677  0.2714464987807048
  0.7685954438152720  0.6030658328819882  0.4309454963720540
  0.8507821368814490  0.6846368476316016  0.5943423903998166
  0.9326326768765512  0.7666560833971090  0.7585555209934824
  0.8048797737331768  0.6423158330051564  0.0062036549924258
  0.9118257090509800  0.7062805653414728  0.1771989444647488
  0.9760410612659101  0.8130330760776729  0.3452212179269551
  0.5801197224939827  0.7461885491659714  0.6351876720814502
  0.6625182504423393  0.8287430984015884  0.8003388418535948
  0.7449373305515081  0.9120782176565569  0.9657933108493211
  0.5350883317738848  0.7014394215689919  0.0489294350456220
  0.6253082292028651  0.7935039130623878  0.2174184530687597
  0.7058368612289883  0.8718702976182158  0.3878547131142795
  0.7886190534821154  0.9550097815612943  0.5528727846393480
  0.8712669127711266  0.5373179671198685  0.7178280839706233
  0.9535206858679999  0.6197712514753633  0.8829948608812686
  0.8301405631186398  0.5000606955692390  0.1322629943818328
  0.9128733182422621  0.5816057551805542  0.3040794216525953
  0.9973357161240983  0.6643439329876131  0.4695736558551715
  0.4126242658742711  0.0808590114578180  0.3051143644576229
 
  0.00000000E+00  0.00000000E+00  0.00000000E+00
  0.00000000E+00  0.00000000E+00  0.00000000E+00
  0.00000000E+00  0.00000000E+00  0.00000000E+00
  0.00000000E+00  0.00000000E+00  0.00000000E+00
  0.00000000E+00  0.00000000E+00  0.00000000E+00
  0.00000000E+00  0.00000000E+00  0.00000000E+00
  0.00000000E+00  0.00000000E+00  0.00000000E+00
  0.00000000E+00  0.00000000E+00  0.00000000E+00
  0.00000000E+00  0.00000000E+00  0.00000000E+00
  0.00000000E+00  0.00000000E+00  0.00000000E+00
  0.00000000E+00  0.00000000E+00  0.00000000E+00
  0.00000000E+00  0.00000000E+00  0.00000000E+00
  0.00000000E+00  0.00000000E+00  0.00000000E+00
  0.00000000E+00  0.00000000E+00  0.00000000E+00
  0.00000000E+00  0.00000000E+00  0.00000000E+00
  0.00000000E+00  0.00000000E+00  0.00000000E+00
  0.00000000E+00  0.00000000E+00  0.00000000E+00
  0.00000000E+00  0.00000000E+00  0.00000000E+00
  0.00000000E+00  0.00000000E+00  0.00000000E+00
  0.00000000E+00  0.00000000E+00  0.00000000E+00
  0.00000000E+00  0.00000000E+00  0.00000000E+00
  0.00000000E+00  0.00000000E+00  0.00000000E+00
  0.00000000E+00  0.00000000E+00  0.00000000E+00
  0.00000000E+00  0.00000000E+00  0.00000000E+00
  0.00000000E+00  0.00000000E+00  0.00000000E+00
  0.00000000E+00  0.00000000E+00  0.00000000E+00
  0.00000000E+00  0.00000000E+00  0.00000000E+00
  0.00000000E+00  0.00000000E+00  0.00000000E+00
  0.00000000E+00  0.00000000E+00  0.00000000E+00
  0.00000000E+00  0.00000000E+00  0.00000000E+00
  0.00000000E+00  0.00000000E+00  0.00000000E+00
  0.00000000E+00  0.00000000E+00  0.00000000E+00
  0.00000000E+00  0.00000000E+00  0.00000000E+00
  0.00000000E+00  0.00000000E+00  0.00000000E+00
  0.00000000E+00  0.00000000E+00  0.00000000E+00
  0.00000000E+00  0.00000000E+00  0.00000000E+00
  0.00000000E+00  0.00000000E+00  0.00000000E+00
  0.00000000E+00  0.00000000E+00  0.00000000E+00
  0.00000000E+00  0.00000000E+00  0.00000000E+00
  0.00000000E+00  0.00000000E+00  0.00000000E+00
  0.00000000E+00  0.00000000E+00  0.00000000E+00
  0.00000000E+00  0.00000000E+00  0.00000000E+00
  0.00000000E+00  0.00000000E+00  0.00000000E+00
  0.00000000E+00  0.00000000E+00  0.00000000E+00
  0.00000000E+00  0.00000000E+00  0.00000000E+00
  0.00000000E+00  0.00000000E+00  0.00000000E+00
  0.00000000E+00  0.00000000E+00  0.00000000E+00
  0.00000000E+00  0.00000000E+00  0.00000000E+00
  0.00000000E+00  0.00000000E+00  0.00000000E+00
  0.00000000E+00  0.00000000E+00  0.00000000E+00
  0.00000000E+00  0.00000000E+00  0.00000000E+00
  0.00000000E+00  0.00000000E+00  0.00000000E+00
  0.00000000E+00  0.00000000E+00  0.00000000E+00
  0.00000000E+00  0.00000000E+00  0.00000000E+00
  0.00000000E+00  0.00000000E+00  0.00000000E+00
  0.00000000E+00  0.00000000E+00  0.00000000E+00
  0.00000000E+00  0.00000000E+00  0.00000000E+00
  0.00000000E+00  0.00000000E+00  0.00000000E+00
  0.00000000E+00  0.00000000E+00  0.00000000E+00
  0.00000000E+00  0.00000000E+00  0.00000000E+00
  0.00000000E+00  0.00000000E+00  0.00000000E+00
  0.00000000E+00  0.00000000E+00  0.00000000E+00
  0.00000000E+00  0.00000000E+00  0.00000000E+00
  0.00000000E+00  0.00000000E+00  0.00000000E+00
  0.00000000E+00  0.00000000E+00  0.00000000E+00
  0.00000000E+00  0.00000000E+00  0.00000000E+00
  0.00000000E+00  0.00000000E+00  0.00000000E+00
  0.00000000E+00  0.00000000E+00  0.00000000E+00
  0.00000000E+00  0.00000000E+00  0.00000000E+00
  0.00000000E+00  0.00000000E+00  0.00000000E+00
  0.00000000E+00  0.00000000E+00  0.00000000E+00
  0.00000000E+00  0.00000000E+00  0.00000000E+00
  0.00000000E+00  0.00000000E+00  0.00000000E+00
  0.00000000E+00  0.00000000E+00  0.00000000E+00
  0.00000000E+00  0.00000000E+00  0.00000000E+00
  0.00000000E+00  0.00000000E+00  0.00000000E+00
  0.00000000E+00  0.00000000E+00  0.00000000E+00
  0.00000000E+00  0.00000000E+00  0.00000000E+00
  0.00000000E+00  0.00000000E+00  0.00000000E+00
  0.00000000E+00  0.00000000E+00  0.00000000E+00
  0.00000000E+00  0.00000000E+00  0.00000000E+00
  0.00000000E+00  0.00000000E+00  0.00000000E+00
  0.00000000E+00  0.00000000E+00  0.00000000E+00
  0.00000000E+00  0.00000000E+00  0.00000000E+00
  0.00000000E+00  0.00000000E+00  0.00000000E+00
  0.00000000E+00  0.00000000E+00  0.00000000E+00
  0.00000000E+00  0.00000000E+00  0.00000000E+00
  0.00000000E+00  0.00000000E+00  0.00000000E+00
  0.00000000E+00  0.00000000E+00  0.00000000E+00
  0.00000000E+00  0.00000000E+00  0.00000000E+00
  0.00000000E+00  0.00000000E+00  0.00000000E+00
  0.00000000E+00  0.00000000E+00  0.00000000E+00
  0.00000000E+00  0.00000000E+00  0.00000000E+00
  0.00000000E+00  0.00000000E+00  0.00000000E+00
  0.00000000E+00  0.00000000E+00  0.00000000E+00
  0.00000000E+00  0.00000000E+00  0.00000000E+00
  0.00000000E+00  0.00000000E+00  0.00000000E+00
  0.00000000E+00  0.00000000E+00  0.00000000E+00
  0.00000000E+00  0.00000000E+00  0.00000000E+00
  0.00000000E+00  0.00000000E+00  0.00000000E+00
  0.00000000E+00  0.00000000E+00  0.00000000E+00
  0.00000000E+00  0.00000000E+00  0.00000000E+00
  0.00000000E+00  0.00000000E+00  0.00000000E+00
  0.00000000E+00  0.00000000E+00  0.00000000E+00
  0.00000000E+00  0.00000000E+00  0.00000000E+00
  0.00000000E+00  0.00000000E+00  0.00000000E+00
  0.00000000E+00  0.00000000E+00  0.00000000E+00
  0.00000000E+00  0.00000000E+00  0.00000000E+00
  0.00000000E+00  0.00000000E+00  0.00000000E+00
  0.00000000E+00  0.00000000E+00  0.00000000E+00
  0.00000000E+00  0.00000000E+00  0.00000000E+00
  0.00000000E+00  0.00000000E+00  0.00000000E+00
  0.00000000E+00  0.00000000E+00  0.00000000E+00
  0.00000000E+00  0.00000000E+00  0.00000000E+00
  0.00000000E+00  0.00000000E+00  0.00000000E+00
  0.00000000E+00  0.00000000E+00  0.00000000E+00
  0.00000000E+00  0.00000000E+00  0.00000000E+00
  0.00000000E+00  0.00000000E+00  0.00000000E+00
  0.00000000E+00  0.00000000E+00  0.00000000E+00
  0.00000000E+00  0.00000000E+00  0.00000000E+00
  0.00000000E+00  0.00000000E+00  0.00000000E+00
  0.00000000E+00  0.00000000E+00  0.00000000E+00
  0.00000000E+00  0.00000000E+00  0.00000000E+00
  0.00000000E+00  0.00000000E+00  0.00000000E+00
  0.00000000E+00  0.00000000E+00  0.00000000E+00
  0.00000000E+00  0.00000000E+00  0.00000000E+00
  0.00000000E+00  0.00000000E+00  0.00000000E+00
  0.00000000E+00  0.00000000E+00  0.00000000E+00
  0.00000000E+00  0.00000000E+00  0.00000000E+00
  0.00000000E+00  0.00000000E+00  0.00000000E+00
  0.00000000E+00  0.00000000E+00  0.00000000E+00
  0.00000000E+00  0.00000000E+00  0.00000000E+00
  0.00000000E+00  0.00000000E+00  0.00000000E+00
  0.00000000E+00  0.00000000E+00  0.00000000E+00
  0.00000000E+00  0.00000000E+00  0.00000000E+00
  0.00000000E+00  0.00000000E+00  0.00000000E+00
  0.00000000E+00  0.00000000E+00  0.00000000E+00
  0.00000000E+00  0.00000000E+00  0.00000000E+00
  0.00000000E+00  0.00000000E+00  0.00000000E+00
  0.00000000E+00  0.00000000E+00  0.00000000E+00
  0.00000000E+00  0.00000000E+00  0.00000000E+00
  0.00000000E+00  0.00000000E+00  0.00000000E+00
  0.00000000E+00  0.00000000E+00  0.00000000E+00
  0.00000000E+00  0.00000000E+00  0.00000000E+00
  0.00000000E+00  0.00000000E+00  0.00000000E+00
  0.00000000E+00  0.00000000E+00  0.00000000E+00
  0.00000000E+00  0.00000000E+00  0.00000000E+00
  0.00000000E+00  0.00000000E+00  0.00000000E+00
  0.00000000E+00  0.00000000E+00  0.00000000E+00
  0.00000000E+00  0.00000000E+00  0.00000000E+00
  0.00000000E+00  0.00000000E+00  0.00000000E+00
  0.00000000E+00  0.00000000E+00  0.00000000E+00
  0.00000000E+00  0.00000000E+00  0.00000000E+00
  0.00000000E+00  0.00000000E+00  0.00000000E+00
  0.00000000E+00  0.00000000E+00  0.00000000E+00
  0.00000000E+00  0.00000000E+00  0.00000000E+00
  0.00000000E+00  0.00000000E+00  0.00000000E+00
  0.00000000E+00  0.00000000E+00  0.00000000E+00
  0.00000000E+00  0.00000000E+00  0.00000000E+00
  0.00000000E+00  0.00000000E+00  0.00000000E+00
  0.00000000E+00  0.00000000E+00  0.00000000E+00
  0.00000000E+00  0.00000000E+00  0.00000000E+00
  0.00000000E+00  0.00000000E+00  0.00000000E+00
  0.00000000E+00  0.00000000E+00  0.00000000E+00
  0.00000000E+00  0.00000000E+00  0.00000000E+00
  0.00000000E+00  0.00000000E+00  0.00000000E+00
  0.00000000E+00  0.00000000E+00  0.00000000E+00
  0.00000000E+00  0.00000000E+00  0.00000000E+00
  0.00000000E+00  0.00000000E+00  0.00000000E+00
  0.00000000E+00  0.00000000E+00  0.00000000E+00
  0.00000000E+00  0.00000000E+00  0.00000000E+00
  0.00000000E+00  0.00000000E+00  0.00000000E+00
  0.00000000E+00  0.00000000E+00  0.00000000E+00
  0.00000000E+00  0.00000000E+00  0.00000000E+00
  0.00000000E+00  0.00000000E+00  0.00000000E+00
  0.00000000E+00  0.00000000E+00  0.00000000E+00
  0.00000000E+00  0.00000000E+00  0.00000000E+00
  0.00000000E+00  0.00000000E+00  0.00000000E+00
  0.00000000E+00  0.00000000E+00  0.00000000E+00
  0.00000000E+00  0.00000000E+00  0.00000000E+00
  0.00000000E+00  0.00000000E+00  0.00000000E+00
  0.00000000E+00  0.00000000E+00  0.00000000E+00
  0.00000000E+00  0.00000000E+00  0.00000000E+00
  0.00000000E+00  0.00000000E+00  0.00000000E+00
  0.00000000E+00  0.00000000E+00  0.00000000E+00
  0.00000000E+00  0.00000000E+00  0.00000000E+00
  0.00000000E+00  0.00000000E+00  0.00000000E+00
  0.00000000E+00  0.00000000E+00  0.00000000E+00
  0.00000000E+00  0.00000000E+00  0.00000000E+00
  0.00000000E+00  0.00000000E+00  0.00000000E+00
  0.00000000E+00  0.00000000E+00  0.00000000E+00
  0.00000000E+00  0.00000000E+00  0.00000000E+00
