supercell of POSCAR                     
   1.00398800000000     
    -6.2729611433599999    0.0082005604289200   10.0015927484000002
     3.1280384584799998    5.4363994576400003   10.0007801159999996
    -7.8567367181199996   13.6110857897000006  -10.0002683574999995
   Al   Sc   N    O 
    92     4    95     1
Direct
  0.4794769284758473  0.3138387038043362  0.5428106806356467
  0.0618991625507377  0.3961852512565827  0.7079629288052729
  0.1441245346378324  0.4792021942436691  0.8730050564847787
  0.4361325439828789  0.2691428362902926  0.9562596103679368
  0.0143347059033161  0.3469781391038325  0.1229886831974980
  0.1040146418790684  0.4421144660232699  0.2970088661736270
  0.1885766753738736  0.0223203879254541  0.4606661523429949
  0.2708986612735416  0.1048421575851322  0.6255334452702144
  0.3531832600435081  0.1872126321955747  0.7906548492468914
  0.2277513240874143  0.0612785119149279  0.0396004974097366
  0.3201608999088421  0.1398885186895811  0.2093895299272788
  0.3974127862176786  0.2313089963293322  0.3769371052802342
  0.0001853407270787  0.1667273955406898  0.6666359297470947
  0.0817070223516154  0.2487543234468390  0.8306919884546105
  0.1643743261699129  0.3285377175721251  0.9916380680979060
  0.4568224797383280  0.1199710923323352  0.0798409527237922
  0.0465898438711747  0.2116326153319221  0.2537008635666069
  0.1266560589971206  0.2928276975101838  0.4196119322839991
  0.2089506888656985  0.3754925169978165  0.5843943443944042
  0.2912744288492135  0.4577477268463781  0.7490983209750297
  0.3733463237762464  0.0400298789982827  0.9141907694917464
  0.3350368908770847  0.0044219785783497  0.3390867174929184
  0.4183629916210876  0.0849479536221835  0.5023944259129820
  0.9794647156560359  0.3138883246123640  0.5428171477629249
  0.5618938850579767  0.3960719309115674  0.7078613880329314
  0.6440229017759194  0.4787205250146513  0.8729278928485300
  0.9344871462838995  0.2690519827078361  0.9556234603660272
  0.5169480009640779  0.3508384160732945  0.1216330560898129
  0.6042647947279463  0.4417556480435962  0.2966984949085898
  0.6886753428253627  0.0222511281745597  0.4606080639623542
  0.7708919591177477  0.1047580389370566  0.6254396018262440
  0.8529415584464317  0.1870402359563741  0.7904150888513470
  0.7274051366868761  0.0619205509492602  0.0394130611805537
  0.8197188355962339  0.1412240826994733  0.2093394724558948
  0.8970265686473198  0.2316092506892673  0.3768410042650956
  0.5002085490101820  0.1666845072765284  0.6666504884545859
  0.5819014943398955  0.2487428115080661  0.8308808972272743
  0.6626663126214893  0.3309894459312446  0.9943016456538416
  0.9559962390676233  0.1192190050016677  0.0791450109797438
  0.5467417989317482  0.2126530314202597  0.2536088119274780
  0.6267102013836165  0.2928527107405188  0.4197259270358344
  0.7089407209035912  0.3755437391568464  0.5843700345360148
  0.7909953185197267  0.4579057363831822  0.7489474151083684
  0.8731030983023160  0.0400202504671370  0.9140734410712668
  0.8351435234005322  0.0044122863154712  0.3388332733027752
  0.9183678912524087  0.0849801052082739  0.5023136555853185
  0.4794574132759806  0.8138858865286380  0.5428265255698292
  0.0619572224618992  0.8961390847099011  0.7079150290099676
  0.1444150938356330  0.9787185794479143  0.8730999448170707
  0.4357858448676666  0.7693422842882427  0.9560421135678041
  0.0182933333672537  0.8507504430775157  0.1218055302081567
  0.1043244307208724  0.9415508268215120  0.2964526568204491
  0.1886725529153139  0.5223130969489773  0.4607143444809623
  0.2709568390759571  0.6048006687843781  0.6255076486195037
  0.3531696190294156  0.6872326902632793  0.7904900864688216
  0.2280036255010813  0.5629083799204366  0.0391711556589627
  0.3194359297507248  0.6402885139447392  0.2096118383385814
  0.3970275061858644  0.7317217615671154  0.3767857195053352
  0.0002975923241735  0.6667134143592577  0.6666562197238832
  0.0821268660335122  0.7488542594887093  0.8308439700987051
  0.1633635042227226  0.8314416090374479  0.9941813230475347
  0.4561020074667184  0.6202557545114686  0.0793174158550656
  0.0474479823068918  0.7115398082313220  0.2534801307396606
  0.1264910641213106  0.7929581395158039  0.4195168617774385
  0.2089211014929973  0.8755400819409758  0.5843521596690238
  0.2911480449459276  0.9579382539775452  0.7491355655754361
  0.3734000379493594  0.5402724900802767  0.9139717669858527
  0.3360069084853592  0.5038990937006318  0.3393067557869287
  0.4183007642053127  0.5850786066174152  0.5023444529385586
  0.9795076496316781  0.8138426494534556  0.5428105771002905
  0.5618985913015919  0.8962144486865853  0.7079476720693521
  0.6444196129396644  0.9787325956989932  0.8732291093358882
  0.9357954144054759  0.7693931909542542  0.9557244111007748
  0.5184765057272571  0.8506906102460405  0.1217580526841573
  0.6043299622020939  0.9415525707046370  0.2964049129465707
  0.6885364907711278  0.5223954803015260  0.4607171614995238
  0.7708811640581459  0.6048932558805618  0.6254835721699479
  0.8530183163788010  0.6873654020965176  0.7903683848548155
  0.7261364724097135  0.5615093945875671  0.0388226263520295
  0.8198916415114468  0.6394258312710548  0.2096922503451495
  0.8968990294234302  0.7317056494563801  0.3768955125944373
  0.5001621566265939  0.6668103199734645  0.6666597174524824
  0.5818711731095831  0.7490434191591291  0.8309122260430613
  0.6628755907483068  0.8317137306002209  0.9944277264099455
  0.9512513610877136  0.6247843920967284  0.0783813002842635
  0.5466028789754276  0.7117522276810107  0.2533894751141403
  0.6264129267440950  0.7930258945212145  0.4195243678361678
  0.7089418252434143  0.8755054238482955  0.5843347746690242
  0.7911530568510585  0.9577929588911474  0.7490798323571397
  0.8724422621019272  0.5407111997404499  0.9134758812650716
  0.8350009046597933  0.5043447875658558  0.3392731228186605
  0.9183107557381334  0.5850645296191459  0.5023938830974757
  0.2430293806389088  0.4116381760655443  0.1696927313208505
  0.7407898150451757  0.4131789426062653  0.1689080697831784
  0.2438423538705337  0.9117553100773890  0.1688259293704419
  0.7452875633638030  0.9112711649533694  0.1694773796679385
  0.0590907267603598  0.3938667837879279  0.5116391985582922
  0.1415011122422243  0.4758599100169789  0.6766167100444633
  0.2235338473309909  0.0586749706376608  0.8415578595486508
  0.0131125817661726  0.3492422239972157  0.9230412981156846
  0.1823618098959940  0.0274919017196567  0.2714880029502211
  0.2685872791071375  0.1031631219850979  0.4309979607900516
  0.3505801711285699  0.1848343797664285  0.5943818494300430
  0.4323453031099831  0.2667721961526368  0.7586566113937323
  0.3039333130588631  0.1436515006546557  0.0073142032791793
  0.4109844637976821  0.2076003692352302  0.1776458391770319
  0.4766275706847836  0.3126345016746654  0.3456859774331420
  0.0799059031608280  0.2464220652161870  0.6352339622980594
  0.1620931618911499  0.3290009608526745  0.8006608569163873
  0.2437481782528153  0.4124349431761942  0.9668473433913292
  0.0355801297187739  0.2017310631941100  0.0487050650464411
  0.1266558340443140  0.2946792438620705  0.2165319800623564
  0.2064763109011949  0.3717929704470109  0.3877804450837061
  0.2886310658013684  0.4549950079814593  0.5529462394984961
  0.3709742764827126  0.0376240601247773  0.7179682336912379
  0.4530912974855710  0.1200435741221071  0.8833689684371961
  0.3308908163933140  0.9992626254618315  0.1326692933504745
  0.4128456342498765  0.0816846147702890  0.3041721686357235
  0.4975101667335551  0.1642081580852164  0.4696148512487284
  0.5590622499822047  0.3939034797381282  0.5117128323408480
  0.6413637292054659  0.4759500508609520  0.6765273417035402
  0.7235696063409520  0.0582596400142776  0.8413533974234042
  0.5132268207344808  0.3486992526444226  0.9223592609776787
  0.5874852151444756  0.4292062951601778  0.0826234332398315
  0.6819616642699060  0.0277705943404456  0.2713810325948529
  0.7687512462118988  0.1029730557402928  0.4308478992401845
  0.8506022009993472  0.1848373378937822  0.5943501190456359
  0.9322200118187141  0.2669650799776093  0.7587400228321286
  0.8048248661333233  0.1422345080461653  0.0063524787374192
  0.9125495692211061  0.2070648581131280  0.1769816615768676
  0.9764748962944196  0.3129129107620088  0.3454121160607926
  0.5799258397713984  0.2462943163802791  0.6351448740065848
  0.6621333599083243  0.3287721561607313  0.8003105691828480
  0.7442899758619745  0.4117954566466153  0.9657332237066569
  0.5353110304564268  0.2010600404610869  0.0491596915565822
  0.6262962373202114  0.2936846390223451  0.2173395163291616
  0.7062866442832529  0.3719725298510212  0.3878962304856444
  0.7886391762774068  0.4550579617638846  0.5529663421001274
  0.8710187607857449  0.0374027060076756  0.7178055849235108
  0.9532876751089887  0.1196601344701023  0.8829630780147042
  0.8307876132277343  0.9995022428504328  0.1327379772080945
  0.9129834287398140  0.0818827602360983  0.3040679886256896
  0.9973961210780544  0.1643910083790203  0.4695468027362608
  0.0590687290411438  0.8938176719065751  0.5115989681663393
  0.1414671137761090  0.9759780399971874  0.6765881726653191
  0.2237054124454616  0.5582320146356423  0.8414528572957352
  0.0140038511535181  0.8484449579455173  0.9224631833688335
  0.0890977848850838  0.9285954830335115  0.0827819039845963
  0.1833921856156948  0.5263868248114107  0.2714458185083544
  0.2684800737458843  0.6031732301778163  0.4309130636024250
  0.3505866273938949  0.6848740077571165  0.5943681509414418
  0.4323761360812526  0.7669933903574560  0.7587039895624699
  0.3048550311953662  0.6425017171950813  0.0062853168671850
  0.4124782470723858  0.7047886320429484  0.1773933420299514
  0.4762510662456236  0.8130011159016490  0.3453171503035293
  0.0799948522095377  0.7463433776763750  0.6351653948544893
  0.1623388918271331  0.8289126725401275  0.8003788446134621
  0.2449488342227966  0.9123397957720769  0.9659663039411228
  0.0356825189899510  0.6994470739924310  0.0491750011694592
  0.1262403348166217  0.7928275525307598  0.2175138382046740
  0.2061459766728859  0.8720547986886089  0.3877509426267309
  0.2886068927798604  0.9550629037957350  0.5529535018198430
  0.3710324993446363  0.5374904044259452  0.7178921995879932
  0.4532319972416872  0.6200570555188492  0.8830603372346033
  0.3279930316350246  0.4989749023349432  0.1326309079017847
  0.4129570620314738  0.5816120569338636  0.3043790654182033
  0.4973075785245697  0.6644569376039513  0.4695347403071111
  0.5590663495738966  0.8938139035109245  0.5116375703873999
  0.6414705913800987  0.9758749049483626  0.6765312483620036
  0.7233827489692644  0.5583275155549714  0.8412261728711172
  0.5138331167457721  0.8488194408153333  0.9226793709506964
  0.5899815520390135  0.9291090401747013  0.0835184596451768
  0.6823163277566238  0.5276398899265402  0.2718857708329665
  0.7684864203421995  0.6033193320375787  0.4310873840204010
  0.8506595008995745  0.6848576102907131  0.5944027969382191
  0.9325125862110539  0.7668320576873029  0.7586604051571229
  0.8049013605281914  0.6411337539157955  0.0062092208529592
  0.9154828658443677  0.7009755860600180  0.1766745880099734
  0.9762836499984360  0.8125371244196415  0.3451152134787492
  0.5799064483142971  0.7464159100048775  0.6352000441922172
  0.6622145396428536  0.8289668216465884  0.8004320086857462
  0.7452134813498432  0.9116888846309195  0.9660937502107885
  0.5353169353897371  0.7014637791010827  0.0491012792496619
  0.6271602607476368  0.7924756801411803  0.2174023688201743
  0.7061478955748228  0.8720557968439380  0.3877113770027734
  0.7886635560222786  0.9549632622913791  0.5528728113973642
  0.8709979769322516  0.5375164185958070  0.7178732417799267
  0.9531643465349902  0.6198969483655929  0.8830170271704247
  0.8311507167994279  0.4987916468158957  0.1319596472606150
  0.9130480648813375  0.5814863214861745  0.3044171957163755
  0.9974199352248974  0.6643231189516356  0.4695348635352090
  0.0839492483603124  0.4295168947629051  0.0805776292882001
 
  0.00000000E+00  0.00000000E+00  0.00000000E+00
  0.00000000E+00  0.00000000E+00  0.00000000E+00
  0.00000000E+00  0.00000000E+00  0.00000000E+00
  0.00000000E+00  0.00000000E+00  0.00000000E+00
  0.00000000E+00  0.00000000E+00  0.00000000E+00
  0.00000000E+00  0.00000000E+00  0.00000000E+00
  0.00000000E+00  0.00000000E+00  0.00000000E+00
  0.00000000E+00  0.00000000E+00  0.00000000E+00
  0.00000000E+00  0.00000000E+00  0.00000000E+00
  0.00000000E+00  0.00000000E+00  0.00000000E+00
  0.00000000E+00  0.00000000E+00  0.00000000E+00
  0.00000000E+00  0.00000000E+00  0.00000000E+00
  0.00000000E+00  0.00000000E+00  0.00000000E+00
  0.00000000E+00  0.00000000E+00  0.00000000E+00
  0.00000000E+00  0.00000000E+00  0.00000000E+00
  0.00000000E+00  0.00000000E+00  0.00000000E+00
  0.00000000E+00  0.00000000E+00  0.00000000E+00
  0.00000000E+00  0.00000000E+00  0.00000000E+00
  0.00000000E+00  0.00000000E+00  0.00000000E+00
  0.00000000E+00  0.00000000E+00  0.00000000E+00
  0.00000000E+00  0.00000000E+00  0.00000000E+00
  0.00000000E+00  0.00000000E+00  0.00000000E+00
  0.00000000E+00  0.00000000E+00  0.00000000E+00
  0.00000000E+00  0.00000000E+00  0.00000000E+00
  0.00000000E+00  0.00000000E+00  0.00000000E+00
  0.00000000E+00  0.00000000E+00  0.00000000E+00
  0.00000000E+00  0.00000000E+00  0.00000000E+00
  0.00000000E+00  0.00000000E+00  0.00000000E+00
  0.00000000E+00  0.00000000E+00  0.00000000E+00
  0.00000000E+00  0.00000000E+00  0.00000000E+00
  0.00000000E+00  0.00000000E+00  0.00000000E+00
  0.00000000E+00  0.00000000E+00  0.00000000E+00
  0.00000000E+00  0.00000000E+00  0.00000000E+00
  0.00000000E+00  0.00000000E+00  0.00000000E+00
  0.00000000E+00  0.00000000E+00  0.00000000E+00
  0.00000000E+00  0.00000000E+00  0.00000000E+00
  0.00000000E+00  0.00000000E+00  0.00000000E+00
  0.00000000E+00  0.00000000E+00  0.00000000E+00
  0.00000000E+00  0.00000000E+00  0.00000000E+00
  0.00000000E+00  0.00000000E+00  0.00000000E+00
  0.00000000E+00  0.00000000E+00  0.00000000E+00
  0.00000000E+00  0.00000000E+00  0.00000000E+00
  0.00000000E+00  0.00000000E+00  0.00000000E+00
  0.00000000E+00  0.00000000E+00  0.00000000E+00
  0.00000000E+00  0.00000000E+00  0.00000000E+00
  0.00000000E+00  0.00000000E+00  0.00000000E+00
  0.00000000E+00  0.00000000E+00  0.00000000E+00
  0.00000000E+00  0.00000000E+00  0.00000000E+00
  0.00000000E+00  0.00000000E+00  0.00000000E+00
  0.00000000E+00  0.00000000E+00  0.00000000E+00
  0.00000000E+00  0.00000000E+00  0.00000000E+00
  0.00000000E+00  0.00000000E+00  0.00000000E+00
  0.00000000E+00  0.00000000E+00  0.00000000E+00
  0.00000000E+00  0.00000000E+00  0.00000000E+00
  0.00000000E+00  0.00000000E+00  0.00000000E+00
  0.00000000E+00  0.00000000E+00  0.00000000E+00
  0.00000000E+00  0.00000000E+00  0.00000000E+00
  0.00000000E+00  0.00000000E+00  0.00000000E+00
  0.00000000E+00  0.00000000E+00  0.00000000E+00
  0.00000000E+00  0.00000000E+00  0.00000000E+00
  0.00000000E+00  0.00000000E+00  0.00000000E+00
  0.00000000E+00  0.00000000E+00  0.00000000E+00
  0.00000000E+00  0.00000000E+00  0.00000000E+00
  0.00000000E+00  0.00000000E+00  0.00000000E+00
  0.00000000E+00  0.00000000E+00  0.00000000E+00
  0.00000000E+00  0.00000000E+00  0.00000000E+00
  0.00000000E+00  0.00000000E+00  0.00000000E+00
  0.00000000E+00  0.00000000E+00  0.00000000E+00
  0.00000000E+00  0.00000000E+00  0.00000000E+00
  0.00000000E+00  0.00000000E+00  0.00000000E+00
  0.00000000E+00  0.00000000E+00  0.00000000E+00
  0.00000000E+00  0.00000000E+00  0.00000000E+00
  0.00000000E+00  0.00000000E+00  0.00000000E+00
  0.00000000E+00  0.00000000E+00  0.00000000E+00
  0.00000000E+00  0.00000000E+00  0.00000000E+00
  0.00000000E+00  0.00000000E+00  0.00000000E+00
  0.00000000E+00  0.00000000E+00  0.00000000E+00
  0.00000000E+00  0.00000000E+00  0.00000000E+00
  0.00000000E+00  0.00000000E+00  0.00000000E+00
  0.00000000E+00  0.00000000E+00  0.00000000E+00
  0.00000000E+00  0.00000000E+00  0.00000000E+00
  0.00000000E+00  0.00000000E+00  0.00000000E+00
  0.00000000E+00  0.00000000E+00  0.00000000E+00
  0.00000000E+00  0.00000000E+00  0.00000000E+00
  0.00000000E+00  0.00000000E+00  0.00000000E+00
  0.00000000E+00  0.00000000E+00  0.00000000E+00
  0.00000000E+00  0.00000000E+00  0.00000000E+00
  0.00000000E+00  0.00000000E+00  0.00000000E+00
  0.00000000E+00  0.00000000E+00  0.00000000E+00
  0.00000000E+00  0.00000000E+00  0.00000000E+00
  0.00000000E+00  0.00000000E+00  0.00000000E+00
  0.00000000E+00  0.00000000E+00  0.00000000E+00
  0.00000000E+00  0.00000000E+00  0.00000000E+00
  0.00000000E+00  0.00000000E+00  0.00000000E+00
  0.00000000E+00  0.00000000E+00  0.00000000E+00
  0.00000000E+00  0.00000000E+00  0.00000000E+00
  0.00000000E+00  0.00000000E+00  0.00000000E+00
  0.00000000E+00  0.00000000E+00  0.00000000E+00
  0.00000000E+00  0.00000000E+00  0.00000000E+00
  0.00000000E+00  0.00000000E+00  0.00000000E+00
  0.00000000E+00  0.00000000E+00  0.00000000E+00
  0.00000000E+00  0.00000000E+00  0.00000000E+00
  0.00000000E+00  0.00000000E+00  0.00000000E+00
  0.00000000E+00  0.00000000E+00  0.00000000E+00
  0.00000000E+00  0.00000000E+00  0.00000000E+00
  0.00000000E+00  0.00000000E+00  0.00000000E+00
  0.00000000E+00  0.00000000E+00  0.00000000E+00
  0.00000000E+00  0.00000000E+00  0.00000000E+00
  0.00000000E+00  0.00000000E+00  0.00000000E+00
  0.00000000E+00  0.00000000E+00  0.00000000E+00
  0.00000000E+00  0.00000000E+00  0.00000000E+00
  0.00000000E+00  0.00000000E+00  0.00000000E+00
  0.00000000E+00  0.00000000E+00  0.00000000E+00
  0.00000000E+00  0.00000000E+00  0.00000000E+00
  0.00000000E+00  0.00000000E+00  0.00000000E+00
  0.00000000E+00  0.00000000E+00  0.00000000E+00
  0.00000000E+00  0.00000000E+00  0.00000000E+00
  0.00000000E+00  0.00000000E+00  0.00000000E+00
  0.00000000E+00  0.00000000E+00  0.00000000E+00
  0.00000000E+00  0.00000000E+00  0.00000000E+00
  0.00000000E+00  0.00000000E+00  0.00000000E+00
  0.00000000E+00  0.00000000E+00  0.00000000E+00
  0.00000000E+00  0.00000000E+00  0.00000000E+00
  0.00000000E+00  0.00000000E+00  0.00000000E+00
  0.00000000E+00  0.00000000E+00  0.00000000E+00
  0.00000000E+00  0.00000000E+00  0.00000000E+00
  0.00000000E+00  0.00000000E+00  0.00000000E+00
  0.00000000E+00  0.00000000E+00  0.00000000E+00
  0.00000000E+00  0.00000000E+00  0.00000000E+00
  0.00000000E+00  0.00000000E+00  0.00000000E+00
  0.00000000E+00  0.00000000E+00  0.00000000E+00
  0.00000000E+00  0.00000000E+00  0.00000000E+00
  0.00000000E+00  0.00000000E+00  0.00000000E+00
  0.00000000E+00  0.00000000E+00  0.00000000E+00
  0.00000000E+00  0.00000000E+00  0.00000000E+00
  0.00000000E+00  0.00000000E+00  0.00000000E+00
  0.00000000E+00  0.00000000E+00  0.00000000E+00
  0.00000000E+00  0.00000000E+00  0.00000000E+00
  0.00000000E+00  0.00000000E+00  0.00000000E+00
  0.00000000E+00  0.00000000E+00  0.00000000E+00
  0.00000000E+00  0.00000000E+00  0.00000000E+00
  0.00000000E+00  0.00000000E+00  0.00000000E+00
  0.00000000E+00  0.00000000E+00  0.00000000E+00
  0.00000000E+00  0.00000000E+00  0.00000000E+00
  0.00000000E+00  0.00000000E+00  0.00000000E+00
  0.00000000E+00  0.00000000E+00  0.00000000E+00
  0.00000000E+00  0.00000000E+00  0.00000000E+00
  0.00000000E+00  0.00000000E+00  0.00000000E+00
  0.00000000E+00  0.00000000E+00  0.00000000E+00
  0.00000000E+00  0.00000000E+00  0.00000000E+00
  0.00000000E+00  0.00000000E+00  0.00000000E+00
  0.00000000E+00  0.00000000E+00  0.00000000E+00
  0.00000000E+00  0.00000000E+00  0.00000000E+00
  0.00000000E+00  0.00000000E+00  0.00000000E+00
  0.00000000E+00  0.00000000E+00  0.00000000E+00
  0.00000000E+00  0.00000000E+00  0.00000000E+00
  0.00000000E+00  0.00000000E+00  0.00000000E+00
  0.00000000E+00  0.00000000E+00  0.00000000E+00
  0.00000000E+00  0.00000000E+00  0.00000000E+00
  0.00000000E+00  0.00000000E+00  0.00000000E+00
  0.00000000E+00  0.00000000E+00  0.00000000E+00
  0.00000000E+00  0.00000000E+00  0.00000000E+00
  0.00000000E+00  0.00000000E+00  0.00000000E+00
  0.00000000E+00  0.00000000E+00  0.00000000E+00
  0.00000000E+00  0.00000000E+00  0.00000000E+00
  0.00000000E+00  0.00000000E+00  0.00000000E+00
  0.00000000E+00  0.00000000E+00  0.00000000E+00
  0.00000000E+00  0.00000000E+00  0.00000000E+00
  0.00000000E+00  0.00000000E+00  0.00000000E+00
  0.00000000E+00  0.00000000E+00  0.00000000E+00
  0.00000000E+00  0.00000000E+00  0.00000000E+00
  0.00000000E+00  0.00000000E+00  0.00000000E+00
  0.00000000E+00  0.00000000E+00  0.00000000E+00
  0.00000000E+00  0.00000000E+00  0.00000000E+00
  0.00000000E+00  0.00000000E+00  0.00000000E+00
  0.00000000E+00  0.00000000E+00  0.00000000E+00
  0.00000000E+00  0.00000000E+00  0.00000000E+00
  0.00000000E+00  0.00000000E+00  0.00000000E+00
  0.00000000E+00  0.00000000E+00  0.00000000E+00
  0.00000000E+00  0.00000000E+00  0.00000000E+00
  0.00000000E+00  0.00000000E+00  0.00000000E+00
  0.00000000E+00  0.00000000E+00  0.00000000E+00
  0.00000000E+00  0.00000000E+00  0.00000000E+00
  0.00000000E+00  0.00000000E+00  0.00000000E+00
  0.00000000E+00  0.00000000E+00  0.00000000E+00
  0.00000000E+00  0.00000000E+00  0.00000000E+00
  0.00000000E+00  0.00000000E+00  0.00000000E+00
  0.00000000E+00  0.00000000E+00  0.00000000E+00
  0.00000000E+00  0.00000000E+00  0.00000000E+00
  0.00000000E+00  0.00000000E+00  0.00000000E+00
  0.00000000E+00  0.00000000E+00  0.00000000E+00
  0.00000000E+00  0.00000000E+00  0.00000000E+00
