supercell of POSCAR                     
   1.00398800000000     
    -6.2729611433599999    0.0082005604289200   10.0015927484000002
     3.1280384584799998    5.4363994576400003   10.0007801159999996
    -7.8567367181199996   13.6110857897000006  -10.0002683574999995
   Al   Sc   N 
    92     4    95
Direct
  0.4795089420941068  0.3134651328996441  0.5427295246767940
  0.0617964304762353  0.3963929081700925  0.7081675039528150
  0.1442554918961605  0.4799655225924226  0.8731758021561120
  0.4356417121352507  0.2700668160177955  0.9564896858336596
  0.0213899750965041  0.3441735822614689  0.1239925229894681
  0.1053033254717590  0.4398086818379525  0.2967358000642335
  0.1885145457756963  0.0215006056719531  0.4603908831349059
  0.2708048468359578  0.1047319461096876  0.6255652233944957
  0.3528116533739691  0.1878806916551738  0.7909374189659530
  0.2272082280655354  0.0635866416573307  0.0400749304933967
  0.3188729883587627  0.1422218742309838  0.2094655502927907
  0.3976358113347800  0.2302910371945615  0.3765878724027090
  0.0000560768265743  0.1671678641460090  0.6670547187459377
  0.0819937844784704  0.2500867800438513  0.8321529038216937
  0.1585966962254304  0.3397718990888805  0.9974816881154709
  0.4555097190837145  0.1218517695161836  0.0807465997837085
  0.0458882603472333  0.2093401807861213  0.2546645738402660
  0.1265805767264538  0.2920008848919906  0.4195997077117539
  0.2088884943988134  0.3753489765210034  0.5844095674212326
  0.2911670111958671  0.4582660484363217  0.7492428803175599
  0.3720185263407103  0.0428923947265147  0.9153105868514970
  0.3351625313658673  0.0035860592585166  0.3388370609117786
  0.4181589111338440  0.0846966286049309  0.5022902773639260
  0.9794178138431135  0.3135088950304876  0.5428520423141521
  0.5619438102773699  0.3963177193900052  0.7080141647751219
  0.6441121989912517  0.4793090709710484  0.8734267497842367
  0.9349734906878595  0.2700876098474509  0.9566777178002042
  0.5149876028397813  0.3525403421859181  0.1218936663511627
  0.6037403210190178  0.4410224915110277  0.2960862366318509
  0.6886416652412279  0.0215268369608452  0.4603418714989687
  0.7708889856860992  0.1046995568893365  0.6255169776267806
  0.8531315384620086  0.1877545168699015  0.7908439951419837
  0.7264361339447163  0.0625788333103046  0.0395874448718274
  0.8180246031703646  0.1406190880696769  0.2095265412342471
  0.8964886304756519  0.2306850129840683  0.3770432911615558
  0.4999784495165329  0.1669229942640413  0.6667723321972971
  0.5816450291220221  0.2495553435128883  0.8310864711561834
  0.6625362849025436  0.3316012828516364  0.9946560093668921
  0.9553402727729718  0.1193628350918274  0.0798109457109888
  0.5438991642070832  0.2123792614797324  0.2520999375196737
  0.6262747040375700  0.2920878733281285  0.4191894128070928
  0.7087599941669041  0.3753839032492081  0.5842832360357164
  0.7908907660811693  0.4584639210485122  0.7493565791211054
  0.8728691268615876  0.0413632522256222  0.9143282467142342
  0.8340845134240382  0.0036778374103221  0.3382316849443541
  0.9180772536893542  0.0844772281010364  0.5022436531107886
  0.4794170406303948  0.8135232475592602  0.5426315477897035
  0.0620006487547684  0.8964311355320120  0.7080226419061475
  0.1444768834396015  0.9794472297083630  0.8736985094643330
  0.4359724499308086  0.7699689837039472  0.9567329326050498
  0.0180019040681358  0.8525315317111719  0.1216557323213934
  0.1039145692984889  0.9403794750051659  0.2962458459647692
  0.1888866494755916  0.5214960704483289  0.4604315614462493
  0.2710169490495034  0.6047398999649900  0.6254842813545380
  0.3533146665526559  0.6876144023780384  0.7908596016916007
  0.2260943436605913  0.5628938715711485  0.0398482197303167
  0.3194720177781818  0.6390889195731404  0.2088699971370147
  0.3970331122990203  0.7305670119785432  0.3763103876720706
  0.0001142198462745  0.6668956729120552  0.6667016062157884
  0.0820360497178072  0.7497845902861897  0.8308140601969498
  0.1633452412587744  0.8318710059913741  0.9945957894528306
  0.4561065436549683  0.6197287332849513  0.0795228723900081
  0.0500131387099003  0.7079519149674454  0.2528739181452622
  0.1264547727273140  0.7917045243705374  0.4190087750685265
  0.2088193853000675  0.8753459564101860  0.5842630687833292
  0.2909086380979318  0.9585685916087954  0.7495980300300502
  0.3730052648647799  0.5408947729570954  0.9145802870626696
  0.3352177110408121  0.5020665866406233  0.3377786490863102
  0.4178972459015355  0.5846412030476529  0.5018712934030276
  0.9795218040278897  0.8133647501399821  0.5426657959230710
  0.5616893208981466  0.8964566935712384  0.7080425539340780
  0.6437633356794663  0.9797393600198774  0.8733041248210967
  0.9351318771199004  0.7720692595180694  0.9552936188197023
  0.5185373536738496  0.8511896195782498  0.1217512247578512
  0.6047382861515800  0.9406785473511334  0.2955840093737976
  0.6883715989088586  0.5218410201797141  0.4603896819202191
  0.7708135724441760  0.6047596883432007  0.6254350683569356
  0.8528834716768401  0.6878828225312645  0.7905317702318300
  0.7283491399318365  0.5612619041582292  0.0393507803505102
  0.8232255533933426  0.6363363453298234  0.2086829678637159
  0.8972981132476221  0.7302852495071193  0.3762751279218293
  0.4999586908821669  0.6670751817842415  0.6667636784713054
  0.5813695181359435  0.7502062156842868  0.8314837279674663
  0.6636221165718794  0.8321167190747190  0.9949393222717262
  0.9633748100953667  0.6157089026857250  0.0757003230589106
  0.5476885799898383  0.7101515003034322  0.2530659763792116
  0.6265867316147720  0.7923450469497979  0.4191815801140137
  0.7088520030177889  0.8753171096072023  0.5842977309554698
  0.7910295766246023  0.9583089996820675  0.7492493953228845
  0.8727269278783467  0.5416173979431420  0.9140709111909047
  0.8351015096540237  0.5032950459687697  0.3390832458756350
  0.9181827057527130  0.5847134934684490  0.5022412963818539
  0.2267323024566537  0.4162420742241864  0.1623252878596233
  0.7430177625059073  0.4119307482775980  0.1683925904924379
  0.2443690278664477  0.9125433426557947  0.1688814410570885
  0.7481234319284908  0.9066791523399189  0.1681919118558000
  0.0590517635132812  0.3935070047513349  0.5116467105034914
  0.1414639471130528  0.4760169141040151  0.6766050784646040
  0.2234638897073395  0.0595416857146986  0.8420397292064195
  0.0130111098474899  0.3508635955181703  0.9244103418532248
  0.1824762714156023  0.0254340556952855  0.2720061295977274
  0.2687345528245118  0.1023004322802024  0.4308771315290656
  0.3506083611167270  0.1846419040642573  0.5943291037187493
  0.4321982798197865  0.2672142901205206  0.7587160583899717
  0.3017646214539056  0.1479595466175567  0.0081131310540741
  0.4063675668278464  0.2118111991836642  0.1771681000562353
  0.4769357427527723  0.3112041170751567  0.3452287286019526
  0.0798046169331030  0.2465699944068902  0.6353173330687341
  0.1617356361550151  0.3297980299065557  0.8007927378998332
  0.2449804891876610  0.4131798139214169  0.9656270674275973
  0.0347729697589472  0.2005197096949800  0.0492015364905427
  0.1255734591956852  0.2897712443509874  0.2204326814084823
  0.2068255536606500  0.3707289801518385  0.3880386137853904
  0.2886284137828028  0.4548412824811123  0.5529107427276756
  0.3707679773445278  0.0380497269029121  0.7180914281891901
  0.4528558817393389  0.1208010336885650  0.8834792985332740
  0.3313037518758506  0.9999150158464971  0.1329646361296568
  0.4135763352368613  0.0803762880712284  0.3039013099572969
  0.4975826304487398  0.1637079085348958  0.4695022249610048
  0.5590385099428943  0.3934074370787570  0.5114181124119028
  0.6414783413083001  0.4760835867243500  0.6765469731281826
  0.7234014361430283  0.0590264027095415  0.8414216958762495
  0.5135950180228761  0.3491605226662315  0.9225001169530458
  0.5882875175082773  0.4289984850285506  0.0830913223919794
  0.6818853873549386  0.0264727015147699  0.2697553178801044
  0.7686546729878216  0.1021490998430750  0.4305270963884453
  0.8507017163182624  0.1846773311946137  0.5944131383436400
  0.9326706896369572  0.2676300537855738  0.7593541863257869
  0.8043218527579725  0.1425891290221131  0.0066778447357336
  0.9115210503576776  0.2053525131188536  0.1778494325130495
  0.9756389697461216  0.3120028497534051  0.3461669634744595
  0.5798774811787410  0.2464221366434529  0.6351861510344463
  0.6621380752348571  0.3294585020212040  0.8004771751646658
  0.7443791350098792  0.4123190852371863  0.9661034744575403
  0.5348608644173396  0.2018562188397581  0.0494216425114615
  0.6252170687298033  0.2929587306069408  0.2173433117615957
  0.7057401329008570  0.3714917336323111  0.3875996544188283
  0.7884633399539922  0.4548722104054050  0.5527904189080033
  0.8710423411541441  0.0379501191889702  0.7180007245621027
  0.9532322224506657  0.1210079838580214  0.8834172887222280
  0.8301649183657602  0.9992659716277856  0.1327392548731936
  0.9125012718970567  0.0810330333896658  0.3041983846252307
  0.9973513681428514  0.1637394932775891  0.4696792654475459
  0.0590762656299404  0.8931386687478025  0.5112481232042754
  0.1415096386980323  0.9761858986419227  0.6765863124577507
  0.2235512370284098  0.5593028142126428  0.8413117645240220
  0.0139726288038702  0.8502906240253125  0.9220312150460188
  0.0896357180371439  0.9297640753302900  0.0832261627305684
  0.1838546245026080  0.5232979162090103  0.2701297540562280
  0.2685958597727023  0.6019165276738008  0.4301719060525642
  0.3506709053427883  0.6846291137792946  0.5941395876020579
  0.4323768768684744  0.7674584964795415  0.7588791418846981
  0.3046798135951647  0.6431478977361635  0.0065413847091307
  0.4124320759475779  0.7054746825174902  0.1776065248477394
  0.4767050702786833  0.8119275981848375  0.3449862928263769
  0.0799562217315142  0.7464843294191823  0.6351513704069092
  0.1624720281591649  0.8297557888732001  0.8004730215567051
  0.2452701627644274  0.9133597780786857  0.9665341973213444
  0.0342772762163861  0.7065676774572083  0.0478209857309082
  0.1259534046696018  0.7923055428727679  0.2173512074250752
  0.2061274626213603  0.8709761917721721  0.3876108144358881
  0.2885503370349412  0.9548500327704801  0.5528412630996513
  0.3710652924971427  0.5379237716346239  0.7179547216713544
  0.4532693164910881  0.6207351463324287  0.8834471529619350
  0.3283752193593017  0.5002583064646942  0.1323044431234948
  0.4126021622371425  0.5809277427672725  0.3039951588922278
  0.4971922262427313  0.6640925625620895  0.4692866877961706
  0.5591594037069285  0.8934348597639072  0.5113615573587111
  0.6414257899124962  0.9760225890344714  0.6764985366545275
  0.7232333713861934  0.5593016649376068  0.8416146505327617
  0.5135645349859601  0.8503147429522784  0.9234536269913676
  0.5894670811972560  0.9303052584768636  0.0837348736130465
  0.6828407243285497  0.5261168885901952  0.2715171608493634
  0.7685158996007573  0.6027716822206060  0.4308887644925719
  0.8506954337391761  0.6846741857645497  0.5942755559314179
  0.9323774368217030  0.7673125708094091  0.7586012482228242
  0.8064482791871441  0.6415174648599731  0.0068226951554564
  0.9204456308722015  0.6955301659211841  0.1750405063004195
  0.9761901290391108  0.8113619845165161  0.3441334363260893
  0.5797915286216551  0.7465726184248282  0.6351230472265357
  0.6619617046586797  0.8296029542580712  0.8005228053115800
  0.7443756165743807  0.9129078706355500  0.9658827660256364
  0.5365220717793804  0.7010132710994554  0.0496236089037936
  0.6293221661871513  0.7903534213707317  0.2169599785147724
  0.7064805312837876  0.8712609095541595  0.3871965053066546
  0.7886492853457483  0.9547532194169293  0.5527848720116282
  0.8707843273609441  0.5379557254191454  0.7179214470118538
  0.9530052537719484  0.6211095648741320  0.8831220809065172
  0.8340788683461398  0.4959129162900666  0.1317078506490645
  0.9136454219910988  0.5799202945886535  0.3041369955274220
  0.9974447988140795  0.6638672094662539  0.4692557732901079
 
  0.00000000E+00  0.00000000E+00  0.00000000E+00
  0.00000000E+00  0.00000000E+00  0.00000000E+00
  0.00000000E+00  0.00000000E+00  0.00000000E+00
  0.00000000E+00  0.00000000E+00  0.00000000E+00
  0.00000000E+00  0.00000000E+00  0.00000000E+00
  0.00000000E+00  0.00000000E+00  0.00000000E+00
  0.00000000E+00  0.00000000E+00  0.00000000E+00
  0.00000000E+00  0.00000000E+00  0.00000000E+00
  0.00000000E+00  0.00000000E+00  0.00000000E+00
  0.00000000E+00  0.00000000E+00  0.00000000E+00
  0.00000000E+00  0.00000000E+00  0.00000000E+00
  0.00000000E+00  0.00000000E+00  0.00000000E+00
  0.00000000E+00  0.00000000E+00  0.00000000E+00
  0.00000000E+00  0.00000000E+00  0.00000000E+00
  0.00000000E+00  0.00000000E+00  0.00000000E+00
  0.00000000E+00  0.00000000E+00  0.00000000E+00
  0.00000000E+00  0.00000000E+00  0.00000000E+00
  0.00000000E+00  0.00000000E+00  0.00000000E+00
  0.00000000E+00  0.00000000E+00  0.00000000E+00
  0.00000000E+00  0.00000000E+00  0.00000000E+00
  0.00000000E+00  0.00000000E+00  0.00000000E+00
  0.00000000E+00  0.00000000E+00  0.00000000E+00
  0.00000000E+00  0.00000000E+00  0.00000000E+00
  0.00000000E+00  0.00000000E+00  0.00000000E+00
  0.00000000E+00  0.00000000E+00  0.00000000E+00
  0.00000000E+00  0.00000000E+00  0.00000000E+00
  0.00000000E+00  0.00000000E+00  0.00000000E+00
  0.00000000E+00  0.00000000E+00  0.00000000E+00
  0.00000000E+00  0.00000000E+00  0.00000000E+00
  0.00000000E+00  0.00000000E+00  0.00000000E+00
  0.00000000E+00  0.00000000E+00  0.00000000E+00
  0.00000000E+00  0.00000000E+00  0.00000000E+00
  0.00000000E+00  0.00000000E+00  0.00000000E+00
  0.00000000E+00  0.00000000E+00  0.00000000E+00
  0.00000000E+00  0.00000000E+00  0.00000000E+00
  0.00000000E+00  0.00000000E+00  0.00000000E+00
  0.00000000E+00  0.00000000E+00  0.00000000E+00
  0.00000000E+00  0.00000000E+00  0.00000000E+00
  0.00000000E+00  0.00000000E+00  0.00000000E+00
  0.00000000E+00  0.00000000E+00  0.00000000E+00
  0.00000000E+00  0.00000000E+00  0.00000000E+00
  0.00000000E+00  0.00000000E+00  0.00000000E+00
  0.00000000E+00  0.00000000E+00  0.00000000E+00
  0.00000000E+00  0.00000000E+00  0.00000000E+00
  0.00000000E+00  0.00000000E+00  0.00000000E+00
  0.00000000E+00  0.00000000E+00  0.00000000E+00
  0.00000000E+00  0.00000000E+00  0.00000000E+00
  0.00000000E+00  0.00000000E+00  0.00000000E+00
  0.00000000E+00  0.00000000E+00  0.00000000E+00
  0.00000000E+00  0.00000000E+00  0.00000000E+00
  0.00000000E+00  0.00000000E+00  0.00000000E+00
  0.00000000E+00  0.00000000E+00  0.00000000E+00
  0.00000000E+00  0.00000000E+00  0.00000000E+00
  0.00000000E+00  0.00000000E+00  0.00000000E+00
  0.00000000E+00  0.00000000E+00  0.00000000E+00
  0.00000000E+00  0.00000000E+00  0.00000000E+00
  0.00000000E+00  0.00000000E+00  0.00000000E+00
  0.00000000E+00  0.00000000E+00  0.00000000E+00
  0.00000000E+00  0.00000000E+00  0.00000000E+00
  0.00000000E+00  0.00000000E+00  0.00000000E+00
  0.00000000E+00  0.00000000E+00  0.00000000E+00
  0.00000000E+00  0.00000000E+00  0.00000000E+00
  0.00000000E+00  0.00000000E+00  0.00000000E+00
  0.00000000E+00  0.00000000E+00  0.00000000E+00
  0.00000000E+00  0.00000000E+00  0.00000000E+00
  0.00000000E+00  0.00000000E+00  0.00000000E+00
  0.00000000E+00  0.00000000E+00  0.00000000E+00
  0.00000000E+00  0.00000000E+00  0.00000000E+00
  0.00000000E+00  0.00000000E+00  0.00000000E+00
  0.00000000E+00  0.00000000E+00  0.00000000E+00
  0.00000000E+00  0.00000000E+00  0.00000000E+00
  0.00000000E+00  0.00000000E+00  0.00000000E+00
  0.00000000E+00  0.00000000E+00  0.00000000E+00
  0.00000000E+00  0.00000000E+00  0.00000000E+00
  0.00000000E+00  0.00000000E+00  0.00000000E+00
  0.00000000E+00  0.00000000E+00  0.00000000E+00
  0.00000000E+00  0.00000000E+00  0.00000000E+00
  0.00000000E+00  0.00000000E+00  0.00000000E+00
  0.00000000E+00  0.00000000E+00  0.00000000E+00
  0.00000000E+00  0.00000000E+00  0.00000000E+00
  0.00000000E+00  0.00000000E+00  0.00000000E+00
  0.00000000E+00  0.00000000E+00  0.00000000E+00
  0.00000000E+00  0.00000000E+00  0.00000000E+00
  0.00000000E+00  0.00000000E+00  0.00000000E+00
  0.00000000E+00  0.00000000E+00  0.00000000E+00
  0.00000000E+00  0.00000000E+00  0.00000000E+00
  0.00000000E+00  0.00000000E+00  0.00000000E+00
  0.00000000E+00  0.00000000E+00  0.00000000E+00
  0.00000000E+00  0.00000000E+00  0.00000000E+00
  0.00000000E+00  0.00000000E+00  0.00000000E+00
  0.00000000E+00  0.00000000E+00  0.00000000E+00
  0.00000000E+00  0.00000000E+00  0.00000000E+00
  0.00000000E+00  0.00000000E+00  0.00000000E+00
  0.00000000E+00  0.00000000E+00  0.00000000E+00
  0.00000000E+00  0.00000000E+00  0.00000000E+00
  0.00000000E+00  0.00000000E+00  0.00000000E+00
  0.00000000E+00  0.00000000E+00  0.00000000E+00
  0.00000000E+00  0.00000000E+00  0.00000000E+00
  0.00000000E+00  0.00000000E+00  0.00000000E+00
  0.00000000E+00  0.00000000E+00  0.00000000E+00
  0.00000000E+00  0.00000000E+00  0.00000000E+00
  0.00000000E+00  0.00000000E+00  0.00000000E+00
  0.00000000E+00  0.00000000E+00  0.00000000E+00
  0.00000000E+00  0.00000000E+00  0.00000000E+00
  0.00000000E+00  0.00000000E+00  0.00000000E+00
  0.00000000E+00  0.00000000E+00  0.00000000E+00
  0.00000000E+00  0.00000000E+00  0.00000000E+00
  0.00000000E+00  0.00000000E+00  0.00000000E+00
  0.00000000E+00  0.00000000E+00  0.00000000E+00
  0.00000000E+00  0.00000000E+00  0.00000000E+00
  0.00000000E+00  0.00000000E+00  0.00000000E+00
  0.00000000E+00  0.00000000E+00  0.00000000E+00
  0.00000000E+00  0.00000000E+00  0.00000000E+00
  0.00000000E+00  0.00000000E+00  0.00000000E+00
  0.00000000E+00  0.00000000E+00  0.00000000E+00
  0.00000000E+00  0.00000000E+00  0.00000000E+00
  0.00000000E+00  0.00000000E+00  0.00000000E+00
  0.00000000E+00  0.00000000E+00  0.00000000E+00
  0.00000000E+00  0.00000000E+00  0.00000000E+00
  0.00000000E+00  0.00000000E+00  0.00000000E+00
  0.00000000E+00  0.00000000E+00  0.00000000E+00
  0.00000000E+00  0.00000000E+00  0.00000000E+00
  0.00000000E+00  0.00000000E+00  0.00000000E+00
  0.00000000E+00  0.00000000E+00  0.00000000E+00
  0.00000000E+00  0.00000000E+00  0.00000000E+00
  0.00000000E+00  0.00000000E+00  0.00000000E+00
  0.00000000E+00  0.00000000E+00  0.00000000E+00
  0.00000000E+00  0.00000000E+00  0.00000000E+00
  0.00000000E+00  0.00000000E+00  0.00000000E+00
  0.00000000E+00  0.00000000E+00  0.00000000E+00
  0.00000000E+00  0.00000000E+00  0.00000000E+00
  0.00000000E+00  0.00000000E+00  0.00000000E+00
  0.00000000E+00  0.00000000E+00  0.00000000E+00
  0.00000000E+00  0.00000000E+00  0.00000000E+00
  0.00000000E+00  0.00000000E+00  0.00000000E+00
  0.00000000E+00  0.00000000E+00  0.00000000E+00
  0.00000000E+00  0.00000000E+00  0.00000000E+00
  0.00000000E+00  0.00000000E+00  0.00000000E+00
  0.00000000E+00  0.00000000E+00  0.00000000E+00
  0.00000000E+00  0.00000000E+00  0.00000000E+00
  0.00000000E+00  0.00000000E+00  0.00000000E+00
  0.00000000E+00  0.00000000E+00  0.00000000E+00
  0.00000000E+00  0.00000000E+00  0.00000000E+00
  0.00000000E+00  0.00000000E+00  0.00000000E+00
  0.00000000E+00  0.00000000E+00  0.00000000E+00
  0.00000000E+00  0.00000000E+00  0.00000000E+00
  0.00000000E+00  0.00000000E+00  0.00000000E+00
  0.00000000E+00  0.00000000E+00  0.00000000E+00
  0.00000000E+00  0.00000000E+00  0.00000000E+00
  0.00000000E+00  0.00000000E+00  0.00000000E+00
  0.00000000E+00  0.00000000E+00  0.00000000E+00
  0.00000000E+00  0.00000000E+00  0.00000000E+00
  0.00000000E+00  0.00000000E+00  0.00000000E+00
  0.00000000E+00  0.00000000E+00  0.00000000E+00
  0.00000000E+00  0.00000000E+00  0.00000000E+00
  0.00000000E+00  0.00000000E+00  0.00000000E+00
  0.00000000E+00  0.00000000E+00  0.00000000E+00
  0.00000000E+00  0.00000000E+00  0.00000000E+00
  0.00000000E+00  0.00000000E+00  0.00000000E+00
  0.00000000E+00  0.00000000E+00  0.00000000E+00
  0.00000000E+00  0.00000000E+00  0.00000000E+00
  0.00000000E+00  0.00000000E+00  0.00000000E+00
  0.00000000E+00  0.00000000E+00  0.00000000E+00
  0.00000000E+00  0.00000000E+00  0.00000000E+00
  0.00000000E+00  0.00000000E+00  0.00000000E+00
  0.00000000E+00  0.00000000E+00  0.00000000E+00
  0.00000000E+00  0.00000000E+00  0.00000000E+00
  0.00000000E+00  0.00000000E+00  0.00000000E+00
  0.00000000E+00  0.00000000E+00  0.00000000E+00
  0.00000000E+00  0.00000000E+00  0.00000000E+00
  0.00000000E+00  0.00000000E+00  0.00000000E+00
  0.00000000E+00  0.00000000E+00  0.00000000E+00
  0.00000000E+00  0.00000000E+00  0.00000000E+00
  0.00000000E+00  0.00000000E+00  0.00000000E+00
  0.00000000E+00  0.00000000E+00  0.00000000E+00
  0.00000000E+00  0.00000000E+00  0.00000000E+00
  0.00000000E+00  0.00000000E+00  0.00000000E+00
  0.00000000E+00  0.00000000E+00  0.00000000E+00
  0.00000000E+00  0.00000000E+00  0.00000000E+00
  0.00000000E+00  0.00000000E+00  0.00000000E+00
  0.00000000E+00  0.00000000E+00  0.00000000E+00
  0.00000000E+00  0.00000000E+00  0.00000000E+00
  0.00000000E+00  0.00000000E+00  0.00000000E+00
  0.00000000E+00  0.00000000E+00  0.00000000E+00
  0.00000000E+00  0.00000000E+00  0.00000000E+00
  0.00000000E+00  0.00000000E+00  0.00000000E+00
  0.00000000E+00  0.00000000E+00  0.00000000E+00
  0.00000000E+00  0.00000000E+00  0.00000000E+00
  0.00000000E+00  0.00000000E+00  0.00000000E+00
  0.00000000E+00  0.00000000E+00  0.00000000E+00
  0.00000000E+00  0.00000000E+00  0.00000000E+00
