supercell of POSCAR                     
   1.00398800000000     
    -6.2729611433599999    0.0082005604289200   10.0015927484000002
     3.1280384584799998    5.4363994576400003   10.0007801159999996
    -7.8567367181199996   13.6110857897000006  -10.0002683574999995
   Al   Sc   N 
    92     4    95
Direct
  0.4797193600551637  0.3138548615185925  0.5430055348615568
  0.0617544854902334  0.3964245707916021  0.7078253976414359
  0.1432282152722522  0.4807272286818502  0.8717277831253796
  0.4382028817065518  0.2682030626878102  0.9557437625527427
  0.9961069165481007  0.3250648742973681  0.1333364073685317
  0.1048341676539977  0.4419276282317668  0.2979394501424437
  0.1888585757087355  0.0222704078946165  0.4609564094293788
  0.2710484160543842  0.1048432349103905  0.6255560816179582
  0.3531835738227542  0.1872941711223248  0.7903621692581169
  0.2282719078649862  0.0606226925758264  0.0397856505687386
  0.3216778837144503  0.1400361579403580  0.2098495114043999
  0.3984324839275573  0.2311089149174208  0.3771036542391712
  0.0001348912958150  0.1667710464991217  0.6665529096543281
  0.0817214977475444  0.2482697317558191  0.8298786764845048
  0.1687495557234726  0.3243971320789925  0.9865169659658335
  0.4570689016303788  0.1207190937730189  0.0806162476242847
  0.0490965869476625  0.2086565992479805  0.2578584217206839
  0.1277383226230384  0.2929391861797939  0.4208857236676025
  0.2093105295624937  0.3755600841368576  0.5847466467151037
  0.2915331482234791  0.4578318053058652  0.7488364829694305
  0.3743087192947172  0.0388934450937271  0.9135215557478844
  0.3360622107870199  0.0041726599580940  0.3397126211259760
  0.4187156398184726  0.0851005394745030  0.5026135202174800
  0.9795637641390087  0.3141175207980353  0.5432294469316545
  0.5619382836602540  0.3962056641098926  0.7077705295173757
  0.6439936496920282  0.4785925464552037  0.8727979948158335
  0.9342074319657598  0.2692780257699638  0.9560140529831997
  0.5130654746681031  0.3518506294322137  0.1207986993034069
  0.6034599709378625  0.4433839988218367  0.2981424392124268
  0.6891871008603303  0.0221879052838148  0.4606253300752101
  0.7709147329059505  0.1048103341337878  0.6254641082229568
  0.8527919040079439  0.1871737996747740  0.7902876283307165
  0.7267024305903078  0.0618929777264938  0.0389592735257622
  0.8205667915538655  0.1433154179444500  0.2089628218401316
  0.8970379780645601  0.2319688717332724  0.3779272519543539
  0.5002206144036663  0.1667293305551851  0.6665742970173980
  0.5817446839385667  0.2488188869954513  0.8302090874306529
  0.6617151073631220  0.3312426639202499  0.9937522132791301
  0.9554091973557206  0.1139879668461390  0.0768474451057628
  0.5456200489104930  0.2141369742912573  0.2528788667906241
  0.6271029247353681  0.2926491099226283  0.4199561865684416
  0.7089154103971680  0.3756251930611967  0.5844161283924549
  0.7907045463992191  0.4581988761283995  0.7488107700123408
  0.8726517752292011  0.0403786132270554  0.9130938744219250
  0.8348617941855210  0.0054683489818146  0.3382901875953408
  0.9185070860049720  0.0848995635804499  0.5025156613888981
  0.4795907098421708  0.8140229762133231  0.5429306826975591
  0.0620085378991320  0.8962578018817098  0.7078014667384522
  0.1444141117607245  0.9787674186439048  0.8730194348964417
  0.4361327461806184  0.7690630399100726  0.9560149330896266
  0.0200259203282656  0.8511472768258912  0.1223087113562400
  0.1051690554731692  0.9404508378860470  0.2967229866064329
  0.1889485311481067  0.5223958729902876  0.4611031134570709
  0.2711068944588959  0.6049296530204131  0.6255599764467732
  0.3533664185820982  0.6872831636566232  0.7904224683519914
  0.2277311015798986  0.5626194423478168  0.0391597804736676
  0.3197200647669547  0.6386094346606725  0.2094783071434776
  0.3969960977973983  0.7317089233944216  0.3771276916809825
  0.0003600735034439  0.6669024502713796  0.6667042023832153
  0.0820885492643768  0.7494409474899015  0.8303321248883435
  0.1638182251098570  0.8310165424527369  0.9935888460935942
  0.4550132433402965  0.6209673136472773  0.0784359324178752
  0.0503436539700104  0.7093443916085675  0.2537446498626608
  0.1266847628061711  0.7927504775494114  0.4196529530759250
  0.2090850159292970  0.8754736881211684  0.5843740242600930
  0.2912772859624084  0.9577984035959943  0.7489519814198999
  0.3734086659826801  0.5403019187692166  0.9136445030878875
  0.3362647931861886  0.5030804299677527  0.3391580842232216
  0.4181523878056197  0.5851252731138743  0.5023304141186671
  0.9796772704623109  0.8139137451450651  0.5429675656439699
  0.5618337717861053  0.8963096319040673  0.7078132757995093
  0.6443819548167369  0.9786787197415805  0.8727826765196625
  0.9352434561258463  0.7708722535628638  0.9543290075572699
  0.5197765792868978  0.8506780529769102  0.1219919504974243
  0.6049728791681801  0.9418350108122482  0.2963096867152046
  0.6886697131156865  0.5228884480255118  0.4612285451558762
  0.7709233784736185  0.6050811943184158  0.6255558227586420
  0.8527021556034313  0.6876784030672880  0.7899947336128790
  0.7266374715585400  0.5599884869361915  0.0391215945900569
  0.8206174132470991  0.6372913627686785  0.2099003925770404
  0.8971517960649535  0.7318408436705468  0.3770014405915063
  0.5001020017105446  0.6669701126879701  0.6665952443576231
  0.5819395266073286  0.7489522581778516  0.8307145950174899
  0.6621767298870864  0.8327792058465135  0.9945334221866773
  0.9467858539516527  0.6329718497747479  0.0767892084878525
  0.5466225533362490  0.7122667281023709  0.2542848033246656
  0.6268923036146532  0.7931316740376246  0.4198182144393314
  0.7090849181588155  0.8755826481720845  0.5843829471556887
  0.7911022398578211  0.9577859536284663  0.7487498781344541
  0.8721645406991314  0.5412188536991280  0.9131097621308086
  0.8353863211734875  0.5049022229685320  0.3402591529073007
  0.9185029262765738  0.5855352635359097  0.5028581633857030
  0.2299048097950518  0.4145954838111479  0.1658786112607373
  0.7289456304434268  0.4182363648454057  0.1699251497387309
  0.2464056486812112  0.9107813588519065  0.1687920790098261
  0.7478111874347562  0.9106637921586795  0.1694378473698066
  0.0591925816279399  0.3942835062652676  0.5119841163222318
  0.1415473942691818  0.4760754359077737  0.6768737919762060
  0.2236403398305313  0.0591344934797249  0.8420630590020792
  0.0127371443087725  0.3499058266969826  0.9239285176051553
  0.1839737413106093  0.0251428281067092  0.2713408017417578
  0.2688312229236658  0.1031374442110575  0.4309071968475280
  0.3506928029114533  0.1848711979469542  0.5943584756066116
  0.4321019530545058  0.2669402233726075  0.7586870516667759
  0.3039065597446964  0.1441484818285801  0.0081943488857448
  0.4063253901201946  0.2136234640001717  0.1772598037012258
  0.4775986505949419  0.3122647412776800  0.3449593400601216
  0.0800680318831226  0.2464654056221889  0.6354705087710073
  0.1619740362194619  0.3292684336710039  0.8011076346361747
  0.2447583963320525  0.4127590922262030  0.9661757949693950
  0.0360624650119874  0.1989443213611182  0.0485228768530490
  0.1275337633080085  0.2928825073742516  0.2179460867348268
  0.2072521444297024  0.3713224761335923  0.3877683011048347
  0.2888352201143718  0.4549854842396286  0.5529722341087222
  0.3709653584511372  0.0377515330217690  0.7181904037050302
  0.4530214844450384  0.1200511502765664  0.8836623409065609
  0.3320663540812561  0.9999867638197699  0.1329115434232122
  0.4135050176784532  0.0814863329999511  0.3038834949768443
  0.4980057726952793  0.1642050310896437  0.4693518258296265
  0.5590432528484399  0.3938673161186657  0.5114633748482973
  0.6413538923130062  0.4761410377939654  0.6766079553215150
  0.7232553217208917  0.0584472544727674  0.8412929867411805
  0.5131576568537994  0.3486873639679047  0.9219439306930965
  0.5833330271195223  0.4297463980332097  0.0812195180232536
  0.6816964413118498  0.0285587818191857  0.2698240225735731
  0.7694265393540363  0.1025998183161789  0.4301218731499930
  0.8505943727888763  0.1848993837394559  0.5943277959806323
  0.9320882056402269  0.2673064730329884  0.7590375732331438
  0.8036160619822823  0.1420643957003023  0.0058026148966590
  0.9159336505029145  0.2152161607366097  0.1747726338441993
  0.9767214286527377  0.3133040951480481  0.3465042267556484
  0.5800479172000195  0.2463646456649897  0.6352339565309464
  0.6622892401024032  0.3289415212725117  0.8004887859450207
  0.7445551811280495  0.4115360805903236  0.9661957996546420
  0.5350565704008261  0.2007521264529757  0.0491366968992963
  0.6273892532048961  0.2959684823350059  0.2162401402849383
  0.7065653069873008  0.3719631223985189  0.3880324318114745
  0.7887542714313582  0.4551081295858950  0.5530508415993225
  0.8711772389569816  0.0375255782239776  0.7179828667458210
  0.9534729073949251  0.1203747553981245  0.8833937987497933
  0.8326949323388391  0.0014042202930469  0.1328394774564288
  0.9135244170969372  0.0833638140619328  0.3028505626712317
  0.9977047853642560  0.1642771004287340  0.4696763558009351
  0.0591333842532293  0.8936845008515633  0.5113163538265582
  0.1414997838265819  0.9761834823807760  0.6766878683489992
  0.2236569554917267  0.5589123535750318  0.8414748064645892
  0.0140379279976415  0.8493718548607418  0.9223397074255288
  0.0911854880448288  0.9270577503454120  0.0830410397910555
  0.1851787081104632  0.5231209752202091  0.2697494876289568
  0.2683095338326709  0.6027693582718499  0.4302622155156044
  0.3506371127039714  0.6848836233006566  0.5942552381066122
  0.4325196223124550  0.7671704796087226  0.7589903356463381
  0.3040275599668831  0.6425451774409154  0.0062752148997092
  0.4139347886774090  0.7027115555533712  0.1773168671071232
  0.4762052147132678  0.8132170289692908  0.3453618843304724
  0.0801469160706816  0.7464180442701149  0.6352247600301624
  0.1626189461595047  0.8293119568872811  0.8005772562576183
  0.2455346386494668  0.9124633922510554  0.9663027156515227
  0.0354399400881320  0.7017235849957331  0.0486170962156152
  0.1266123043473897  0.7919344812296600  0.2173194882215554
  0.2060067363708882  0.8719401173236534  0.3875860839486975
  0.2887292093108087  0.9550467286639517  0.5529217838964016
  0.3712171074398753  0.5376947089297914  0.7180706992459491
  0.4534967218767747  0.6201677314666156  0.8834750321166851
  0.3241316814795354  0.4980961578528920  0.1328120593164073
  0.4121869181988558  0.5817134887698430  0.3041643081903942
  0.4972790859008356  0.6644826053220783  0.4693558564302336
  0.5592088397381261  0.8939747444629020  0.5114728934690049
  0.6414326739253937  0.9759911748034753  0.6765473397623296
  0.7235549980622906  0.5584042498854060  0.8416751795853514
  0.5143187677180947  0.8487662142748533  0.9232938095271592
  0.5913739643443918  0.9300044975579311  0.0844823603327924
  0.6819094344420193  0.5290218056508849  0.2734337633990265
  0.7688440328866903  0.6036725549236195  0.4313931482301143
  0.8507956690863452  0.6851048588479571  0.5945810839467285
  0.9325186003292032  0.7670342379908632  0.7588578028754824
  0.8049653938622328  0.6402788285349033  0.0065893188833854
  0.9190863347835574  0.6961848031364326  0.1758606351937786
  0.9762251296461244  0.8125941356654138  0.3437784070935663
  0.5799629826181913  0.7465303436707771  0.6352336340542664
  0.6621808077637610  0.8290434172068188  0.8006640633325901
  0.7452692239140433  0.9114669906860513  0.9663110058160100
  0.5360525894724972  0.7015917209864853  0.0494998748461057
  0.6285242101066757  0.7916323841831669  0.2172890684630957
  0.7065175940924249  0.8720729683675046  0.3870989622160863
  0.7888183049916435  0.9550233538221278  0.5526938211370549
  0.8710306949797371  0.5376198296537638  0.7181077744795985
  0.9530451910318618  0.6202640970757258  0.8833182470346301
  0.8289162265546750  0.4969602767542014  0.1328356958495220
  0.9140402612571208  0.5807328160932670  0.3042100767429545
  0.9976004169895418  0.6644808546262766  0.4692007684623789
 
  0.00000000E+00  0.00000000E+00  0.00000000E+00
  0.00000000E+00  0.00000000E+00  0.00000000E+00
  0.00000000E+00  0.00000000E+00  0.00000000E+00
  0.00000000E+00  0.00000000E+00  0.00000000E+00
  0.00000000E+00  0.00000000E+00  0.00000000E+00
  0.00000000E+00  0.00000000E+00  0.00000000E+00
  0.00000000E+00  0.00000000E+00  0.00000000E+00
  0.00000000E+00  0.00000000E+00  0.00000000E+00
  0.00000000E+00  0.00000000E+00  0.00000000E+00
  0.00000000E+00  0.00000000E+00  0.00000000E+00
  0.00000000E+00  0.00000000E+00  0.00000000E+00
  0.00000000E+00  0.00000000E+00  0.00000000E+00
  0.00000000E+00  0.00000000E+00  0.00000000E+00
  0.00000000E+00  0.00000000E+00  0.00000000E+00
  0.00000000E+00  0.00000000E+00  0.00000000E+00
  0.00000000E+00  0.00000000E+00  0.00000000E+00
  0.00000000E+00  0.00000000E+00  0.00000000E+00
  0.00000000E+00  0.00000000E+00  0.00000000E+00
  0.00000000E+00  0.00000000E+00  0.00000000E+00
  0.00000000E+00  0.00000000E+00  0.00000000E+00
  0.00000000E+00  0.00000000E+00  0.00000000E+00
  0.00000000E+00  0.00000000E+00  0.00000000E+00
  0.00000000E+00  0.00000000E+00  0.00000000E+00
  0.00000000E+00  0.00000000E+00  0.00000000E+00
  0.00000000E+00  0.00000000E+00  0.00000000E+00
  0.00000000E+00  0.00000000E+00  0.00000000E+00
  0.00000000E+00  0.00000000E+00  0.00000000E+00
  0.00000000E+00  0.00000000E+00  0.00000000E+00
  0.00000000E+00  0.00000000E+00  0.00000000E+00
  0.00000000E+00  0.00000000E+00  0.00000000E+00
  0.00000000E+00  0.00000000E+00  0.00000000E+00
  0.00000000E+00  0.00000000E+00  0.00000000E+00
  0.00000000E+00  0.00000000E+00  0.00000000E+00
  0.00000000E+00  0.00000000E+00  0.00000000E+00
  0.00000000E+00  0.00000000E+00  0.00000000E+00
  0.00000000E+00  0.00000000E+00  0.00000000E+00
  0.00000000E+00  0.00000000E+00  0.00000000E+00
  0.00000000E+00  0.00000000E+00  0.00000000E+00
  0.00000000E+00  0.00000000E+00  0.00000000E+00
  0.00000000E+00  0.00000000E+00  0.00000000E+00
  0.00000000E+00  0.00000000E+00  0.00000000E+00
  0.00000000E+00  0.00000000E+00  0.00000000E+00
  0.00000000E+00  0.00000000E+00  0.00000000E+00
  0.00000000E+00  0.00000000E+00  0.00000000E+00
  0.00000000E+00  0.00000000E+00  0.00000000E+00
  0.00000000E+00  0.00000000E+00  0.00000000E+00
  0.00000000E+00  0.00000000E+00  0.00000000E+00
  0.00000000E+00  0.00000000E+00  0.00000000E+00
  0.00000000E+00  0.00000000E+00  0.00000000E+00
  0.00000000E+00  0.00000000E+00  0.00000000E+00
  0.00000000E+00  0.00000000E+00  0.00000000E+00
  0.00000000E+00  0.00000000E+00  0.00000000E+00
  0.00000000E+00  0.00000000E+00  0.00000000E+00
  0.00000000E+00  0.00000000E+00  0.00000000E+00
  0.00000000E+00  0.00000000E+00  0.00000000E+00
  0.00000000E+00  0.00000000E+00  0.00000000E+00
  0.00000000E+00  0.00000000E+00  0.00000000E+00
  0.00000000E+00  0.00000000E+00  0.00000000E+00
  0.00000000E+00  0.00000000E+00  0.00000000E+00
  0.00000000E+00  0.00000000E+00  0.00000000E+00
  0.00000000E+00  0.00000000E+00  0.00000000E+00
  0.00000000E+00  0.00000000E+00  0.00000000E+00
  0.00000000E+00  0.00000000E+00  0.00000000E+00
  0.00000000E+00  0.00000000E+00  0.00000000E+00
  0.00000000E+00  0.00000000E+00  0.00000000E+00
  0.00000000E+00  0.00000000E+00  0.00000000E+00
  0.00000000E+00  0.00000000E+00  0.00000000E+00
  0.00000000E+00  0.00000000E+00  0.00000000E+00
  0.00000000E+00  0.00000000E+00  0.00000000E+00
  0.00000000E+00  0.00000000E+00  0.00000000E+00
  0.00000000E+00  0.00000000E+00  0.00000000E+00
  0.00000000E+00  0.00000000E+00  0.00000000E+00
  0.00000000E+00  0.00000000E+00  0.00000000E+00
  0.00000000E+00  0.00000000E+00  0.00000000E+00
  0.00000000E+00  0.00000000E+00  0.00000000E+00
  0.00000000E+00  0.00000000E+00  0.00000000E+00
  0.00000000E+00  0.00000000E+00  0.00000000E+00
  0.00000000E+00  0.00000000E+00  0.00000000E+00
  0.00000000E+00  0.00000000E+00  0.00000000E+00
  0.00000000E+00  0.00000000E+00  0.00000000E+00
  0.00000000E+00  0.00000000E+00  0.00000000E+00
  0.00000000E+00  0.00000000E+00  0.00000000E+00
  0.00000000E+00  0.00000000E+00  0.00000000E+00
  0.00000000E+00  0.00000000E+00  0.00000000E+00
  0.00000000E+00  0.00000000E+00  0.00000000E+00
  0.00000000E+00  0.00000000E+00  0.00000000E+00
  0.00000000E+00  0.00000000E+00  0.00000000E+00
  0.00000000E+00  0.00000000E+00  0.00000000E+00
  0.00000000E+00  0.00000000E+00  0.00000000E+00
  0.00000000E+00  0.00000000E+00  0.00000000E+00
  0.00000000E+00  0.00000000E+00  0.00000000E+00
  0.00000000E+00  0.00000000E+00  0.00000000E+00
  0.00000000E+00  0.00000000E+00  0.00000000E+00
  0.00000000E+00  0.00000000E+00  0.00000000E+00
  0.00000000E+00  0.00000000E+00  0.00000000E+00
  0.00000000E+00  0.00000000E+00  0.00000000E+00
  0.00000000E+00  0.00000000E+00  0.00000000E+00
  0.00000000E+00  0.00000000E+00  0.00000000E+00
  0.00000000E+00  0.00000000E+00  0.00000000E+00
  0.00000000E+00  0.00000000E+00  0.00000000E+00
  0.00000000E+00  0.00000000E+00  0.00000000E+00
  0.00000000E+00  0.00000000E+00  0.00000000E+00
  0.00000000E+00  0.00000000E+00  0.00000000E+00
  0.00000000E+00  0.00000000E+00  0.00000000E+00
  0.00000000E+00  0.00000000E+00  0.00000000E+00
  0.00000000E+00  0.00000000E+00  0.00000000E+00
  0.00000000E+00  0.00000000E+00  0.00000000E+00
  0.00000000E+00  0.00000000E+00  0.00000000E+00
  0.00000000E+00  0.00000000E+00  0.00000000E+00
  0.00000000E+00  0.00000000E+00  0.00000000E+00
  0.00000000E+00  0.00000000E+00  0.00000000E+00
  0.00000000E+00  0.00000000E+00  0.00000000E+00
  0.00000000E+00  0.00000000E+00  0.00000000E+00
  0.00000000E+00  0.00000000E+00  0.00000000E+00
  0.00000000E+00  0.00000000E+00  0.00000000E+00
  0.00000000E+00  0.00000000E+00  0.00000000E+00
  0.00000000E+00  0.00000000E+00  0.00000000E+00
  0.00000000E+00  0.00000000E+00  0.00000000E+00
  0.00000000E+00  0.00000000E+00  0.00000000E+00
  0.00000000E+00  0.00000000E+00  0.00000000E+00
  0.00000000E+00  0.00000000E+00  0.00000000E+00
  0.00000000E+00  0.00000000E+00  0.00000000E+00
  0.00000000E+00  0.00000000E+00  0.00000000E+00
  0.00000000E+00  0.00000000E+00  0.00000000E+00
  0.00000000E+00  0.00000000E+00  0.00000000E+00
  0.00000000E+00  0.00000000E+00  0.00000000E+00
  0.00000000E+00  0.00000000E+00  0.00000000E+00
  0.00000000E+00  0.00000000E+00  0.00000000E+00
  0.00000000E+00  0.00000000E+00  0.00000000E+00
  0.00000000E+00  0.00000000E+00  0.00000000E+00
  0.00000000E+00  0.00000000E+00  0.00000000E+00
  0.00000000E+00  0.00000000E+00  0.00000000E+00
  0.00000000E+00  0.00000000E+00  0.00000000E+00
  0.00000000E+00  0.00000000E+00  0.00000000E+00
  0.00000000E+00  0.00000000E+00  0.00000000E+00
  0.00000000E+00  0.00000000E+00  0.00000000E+00
  0.00000000E+00  0.00000000E+00  0.00000000E+00
  0.00000000E+00  0.00000000E+00  0.00000000E+00
  0.00000000E+00  0.00000000E+00  0.00000000E+00
  0.00000000E+00  0.00000000E+00  0.00000000E+00
  0.00000000E+00  0.00000000E+00  0.00000000E+00
  0.00000000E+00  0.00000000E+00  0.00000000E+00
  0.00000000E+00  0.00000000E+00  0.00000000E+00
  0.00000000E+00  0.00000000E+00  0.00000000E+00
  0.00000000E+00  0.00000000E+00  0.00000000E+00
  0.00000000E+00  0.00000000E+00  0.00000000E+00
  0.00000000E+00  0.00000000E+00  0.00000000E+00
  0.00000000E+00  0.00000000E+00  0.00000000E+00
  0.00000000E+00  0.00000000E+00  0.00000000E+00
  0.00000000E+00  0.00000000E+00  0.00000000E+00
  0.00000000E+00  0.00000000E+00  0.00000000E+00
  0.00000000E+00  0.00000000E+00  0.00000000E+00
  0.00000000E+00  0.00000000E+00  0.00000000E+00
  0.00000000E+00  0.00000000E+00  0.00000000E+00
  0.00000000E+00  0.00000000E+00  0.00000000E+00
  0.00000000E+00  0.00000000E+00  0.00000000E+00
  0.00000000E+00  0.00000000E+00  0.00000000E+00
  0.00000000E+00  0.00000000E+00  0.00000000E+00
  0.00000000E+00  0.00000000E+00  0.00000000E+00
  0.00000000E+00  0.00000000E+00  0.00000000E+00
  0.00000000E+00  0.00000000E+00  0.00000000E+00
  0.00000000E+00  0.00000000E+00  0.00000000E+00
  0.00000000E+00  0.00000000E+00  0.00000000E+00
  0.00000000E+00  0.00000000E+00  0.00000000E+00
  0.00000000E+00  0.00000000E+00  0.00000000E+00
  0.00000000E+00  0.00000000E+00  0.00000000E+00
  0.00000000E+00  0.00000000E+00  0.00000000E+00
  0.00000000E+00  0.00000000E+00  0.00000000E+00
  0.00000000E+00  0.00000000E+00  0.00000000E+00
  0.00000000E+00  0.00000000E+00  0.00000000E+00
  0.00000000E+00  0.00000000E+00  0.00000000E+00
  0.00000000E+00  0.00000000E+00  0.00000000E+00
  0.00000000E+00  0.00000000E+00  0.00000000E+00
  0.00000000E+00  0.00000000E+00  0.00000000E+00
  0.00000000E+00  0.00000000E+00  0.00000000E+00
  0.00000000E+00  0.00000000E+00  0.00000000E+00
  0.00000000E+00  0.00000000E+00  0.00000000E+00
  0.00000000E+00  0.00000000E+00  0.00000000E+00
  0.00000000E+00  0.00000000E+00  0.00000000E+00
  0.00000000E+00  0.00000000E+00  0.00000000E+00
  0.00000000E+00  0.00000000E+00  0.00000000E+00
  0.00000000E+00  0.00000000E+00  0.00000000E+00
  0.00000000E+00  0.00000000E+00  0.00000000E+00
  0.00000000E+00  0.00000000E+00  0.00000000E+00
  0.00000000E+00  0.00000000E+00  0.00000000E+00
  0.00000000E+00  0.00000000E+00  0.00000000E+00
  0.00000000E+00  0.00000000E+00  0.00000000E+00
  0.00000000E+00  0.00000000E+00  0.00000000E+00
  0.00000000E+00  0.00000000E+00  0.00000000E+00
  0.00000000E+00  0.00000000E+00  0.00000000E+00
  0.00000000E+00  0.00000000E+00  0.00000000E+00
