supercell of POSCAR                     
   1.00398800000000     
    -6.2729611433599999    0.0082005604289200   10.0015927484000002
     3.1280384584799998    5.4363994576400003   10.0007801159999996
    -7.8567367181199996   13.6110857897000006  -10.0002683574999995
   Al   Sc   N 
    91     4    96
Direct
  0.4797397897268567  0.3135576408356968  0.5427940089414491
  0.0625134163732781  0.3957246429106291  0.7082926760331176
  0.1442986771922676  0.4781718077106447  0.8740370753007838
  0.4365639231833995  0.2681086726135291  0.9566839575042607
  0.0164451253884792  0.3522421103356166  0.1208333721657482
  0.1043798829744276  0.4407553212397275  0.2948537293826732
  0.1885820658748187  0.0219105466573737  0.4603956199383674
  0.2713697249345017  0.1044661899491075  0.6255624333358156
  0.3539308319272436  0.1874376648927978  0.7909720979223707
  0.2260116973352098  0.0652960686111825  0.0393851668902201
  0.3188286740250987  0.1410245559552905  0.2092846863838531
  0.3968396947564941  0.2312752486205767  0.3764971957022567
  0.0008432006960959  0.1664611270488976  0.6668105488689378
  0.0842795326582575  0.2490544710247846  0.8323032982917127
  0.4577851713940220  0.1203413761373966  0.0801174011055963
  0.0465595194248962  0.2108806521952502  0.2531560252595355
  0.1263124015468051  0.2927318509845023  0.4190281947839765
  0.2090822613043528  0.3752020507818941  0.5842236602507924
  0.2914425488611414  0.4578408527040665  0.7492462317566009
  0.3732298462789956  0.0411783398457501  0.9139870417292357
  0.3345004319503957  0.0042113690479724  0.3388912959089652
  0.4182232288451360  0.0848868780806669  0.5022307954339453
  0.9797984011083898  0.3135235642915220  0.5427285325674163
  0.5627601897795174  0.3959323131858454  0.7083087066448002
  0.6444026026894107  0.4789997809066193  0.8741854772246285
  0.9366433832223038  0.2704415430314810  0.9576338233846471
  0.5170766406190666  0.3520917952713987  0.1214004627638374
  0.6035794251659965  0.4416874054343793  0.2963552876972173
  0.6886701446761165  0.0218174921171084  0.4604853143612644
  0.7714855587789415  0.1045652102562329  0.6257436599681867
  0.8546336376316575  0.1873849015556175  0.7914981584061422
  0.7275529125750992  0.0621922066086995  0.0395253296334559
  0.8188782060115329  0.1411277487505771  0.2095968915862585
  0.8969622162980997  0.2310646266779486  0.3766233510358816
  0.5005515326021879  0.1667336766643217  0.6667989643953902
  0.5832162425641201  0.2485435488973025  0.8311555747451109
  0.6637185024056862  0.3311296465266267  0.9948211802995175
  0.9560983472304869  0.1197023300318207  0.0799001061983233
  0.5458657042213133  0.2117964781255779  0.2533163626865544
  0.6263746675243951  0.2924446787484882  0.4193608097479569
  0.7092852930178140  0.3751998283579070  0.5844752974956222
  0.7920522655987838  0.4573318521361287  0.7500851945906604
  0.8735071313155984  0.0403175971303398  0.9146457205237297
  0.8349048014192775  0.0037608383191881  0.3390646551428560
  0.9183762311794794  0.0847399081188200  0.5023272122585425
  0.4797453641494656  0.8133951465223532  0.5427761536068161
  0.0624406509002426  0.8960605801515626  0.7082258580354335
  0.1444449815098565  0.9795268145697520  0.8737756885167798
  0.4346778814379704  0.7700020743274862  0.9563732917061643
  0.0172613610467778  0.8513479070746541  0.1216971286037278
  0.1037466294193905  0.9410443459105551  0.2961503312322904
  0.1885188123203605  0.5217503964451140  0.4601057878345216
  0.2713393327728753  0.6044224572573071  0.6255055223250636
  0.3534304302327982  0.6865536260300260  0.7914336654611418
  0.2263715771585453  0.5629323961835979  0.0396411604144618
  0.3191272734660870  0.6405767722270781  0.2093385929492229
  0.3969543617739504  0.7310441273585013  0.3765613734709845
  0.0005413967266605  0.6665011617654457  0.6668854473773393
  0.0820683444373387  0.7492067864599932  0.8311881310751232
  0.1626781457333024  0.8323697935864516  0.9947442421722670
  0.4560588745356142  0.6203954334911685  0.0797840129007028
  0.0467182473191414  0.7098704922180090  0.2525025668527761
  0.1264853363800071  0.7921793685663090  0.4191356497905261
  0.2092602540380639  0.8750051736994777  0.5842288002856222
  0.2913554178726869  0.9576827651871227  0.7493311547892034
  0.3716411517834217  0.5378568899921703  0.9154378877392659
  0.3338804236853719  0.5037445195394952  0.3379286934323957
  0.4181301245036764  0.5845926485200010  0.5019460092308563
  0.9797476930431444  0.8134412228428545  0.5427626887534345
  0.5622775891342826  0.8960392943545372  0.7080901159166970
  0.6448524141361958  0.9786267488661551  0.8732412396632441
  0.9358090043126950  0.7697417715627211  0.9564416697546960
  0.5167292669294170  0.8522608643995611  0.1216106230044929
  0.6036355069785415  0.9417404745314073  0.2962304139085603
  0.6887007633140314  0.5218490269527720  0.4604411697420119
  0.7713251850570444  0.6043270225322530  0.6257594514561902
  0.8536145673340911  0.6870032462561255  0.7909708224806806
  0.7265447654804973  0.5630267380608913  0.0396416380035873
  0.8188259495456975  0.6411907469838312  0.2089185039043997
  0.8972367056570931  0.7307209761789366  0.3763066179879786
  0.5003784521625576  0.6663403801579548  0.6668358578794056
  0.5815908618868733  0.7490385098500809  0.8308427189534981
  0.6614948524471131  0.8324740865359317  0.9942925358709118
  0.9553646195219940  0.6199841199531875  0.0784148580034056
  0.5465263388976282  0.7115094844430061  0.2533119987129879
  0.6264852570466388  0.7925009549700732  0.4193269836917111
  0.7091961806828309  0.8751871660186765  0.5843984253220995
  0.7917611278804699  0.9577440173158749  0.7493446368487398
  0.8725651714937896  0.5424130407867196  0.9153571519709018
  0.8349301991166200  0.5041215192744843  0.3388066912594212
  0.9182572459202234  0.5848943767970241  0.5022790845637104
  0.2421792422133677  0.4107248177379361  0.1642737051163934
  0.7424897492855749  0.4129086953205743  0.1688774804141602
  0.2429476841496339  0.9128720809067374  0.1685429983636482
  0.7427316508101001  0.9141535872602233  0.1689639851036944
  0.0591839881802585  0.3935996282795031  0.5113221528947207
  0.1417595865895649  0.4754901295887706  0.6761695996905175
  0.2240919749274397  0.0580254509790805  0.8410706000432597
  0.9978174459398730  0.3523144201254311  0.9164505295076637
  0.0817337133229543  0.4354249795087171  0.0869549629955770
  0.1818569259002558  0.0267514803240232  0.2720299548574374
  0.2683921107824290  0.1031075062699642  0.4310289177825126
  0.3509994005387114  0.1845607643850613  0.5942340726195283
  0.4332282425387532  0.2667655770692079  0.7584910233136384
  0.3202390404455357  0.1242530049185291  0.0076322005570475
  0.4129595132726038  0.2047584496977137  0.1780554717880349
  0.4761157847162139  0.3127857072625417  0.3456153163116511
  0.0803707673487395  0.2461093813546569  0.6348909309535600
  0.1631240935903548  0.3286774312186154  0.8001783728459060
  0.2568814080945145  0.4216916626587803  0.9625430325172601
  0.0344591720934915  0.2009816961545212  0.0499692407809533
  0.1254349166631670  0.2912931163092622  0.2179118042971098
  0.2058338383996272  0.3718260057425269  0.3871962332688597
  0.2886910224537118  0.4547266796936000  0.5525584642251857
  0.3713497330699767  0.0374118389156237  0.7177361328637133
  0.4545409767432105  0.1192756666246240  0.8826402719630551
  0.3295896517800045  0.9998704505280500  0.1333445208763635
  0.4124853438967833  0.0814741247506348  0.3045190996800144
  0.4974139956551227  0.1641387249018180  0.4694378945307136
  0.5592892047962579  0.3935573378885238  0.5115555301510568
  0.6422091424560321  0.4755774613783643  0.6764953804206328
  0.7244481965434844  0.0577526213424306  0.8412197645577422
  0.5172363245302236  0.3466762105465193  0.9222985770353631
  0.5886316658144253  0.4294210924764315  0.0831565005456767
  0.6817788513343643  0.0278720117418629  0.2724207571483745
  0.7686886313730810  0.1027941062216229  0.4311609071313711
  0.8510842351906405  0.1844744160120584  0.5942749713717888
  0.9337229175955954  0.2660452572212222  0.7583677654482557
  0.8051617994175757  0.1420282646203077  0.0068818393884911
  0.9113589026879936  0.2058983672511587  0.1780327173231981
  0.9758749452951463  0.3125189442636014  0.3454532159615979
  0.5803557293142418  0.2462072792965628  0.6350293310136621
  0.6632901848453514  0.3288231628530198  0.8003646789942280
  0.7440899657544904  0.4127036379312727  0.9669808169369958
  0.5369375889709218  0.2011655192052189  0.0499862380144407
  0.6255774490290023  0.2932717337281687  0.2178960225122566
  0.7061204063084290  0.3715051888891523  0.3877741617944181
  0.7888721380388617  0.4547098132002674  0.5527678829803691
  0.8714948371134881  0.0375918137153377  0.7179506177391772
  0.9533890144088915  0.1195883093593793  0.8837256836525853
  0.8303109457224664  0.0004392212898239  0.1330022102410950
  0.9125638921229537  0.0812387788158802  0.3045098393938375
  0.9974290966563686  0.1640423551254742  0.4694765986945129
  0.0592556339718797  0.8933878333614231  0.5113808285793340
  0.1419118040345353  0.9754596598400909  0.6761620630581007
  0.2228005495898842  0.5593316292516093  0.8402194386368009
  0.0137374109943877  0.8487833386209189  0.9225658050523009
  0.0883236677160397  0.9291327212389291  0.0833732690901101
  0.1827751427403257  0.5255204866075971  0.2699666629582325
  0.2684782353502868  0.6025380402842373  0.4305052542464409
  0.3509526336040949  0.6843121252405382  0.5939948580507846
  0.4320679665647873  0.7665321311525304  0.7583431557097171
  0.3045316084308425  0.6451461477299745  0.0073799492591888
  0.4118963205673509  0.7062094150580052  0.1780891034883041
  0.4760336356764725  0.8127705176551245  0.3456035092808776
  0.0802298830107233  0.7461515453675460  0.6350526230964988
  0.1622703531737741  0.8293711341369274  0.8004153547674449
  0.2438939947079248  0.9128598591713200  0.9662759736865638
  0.0341912882234183  0.7028678090493869  0.0494241265984741
  0.1256951556114387  0.7927225705084666  0.2177568998911212
  0.2061174873300331  0.8715174076983843  0.3877286222103962
  0.2888350436911082  0.9546830124163819  0.5526942900462473
  0.3715859470611775  0.5371997685926928  0.7175992053074580
  0.4525254708716773  0.6191723430092040  0.8837305161215099
  0.3306715985901505  0.5010218114653213  0.1326733469040562
  0.4124543909677030  0.5815301967849322  0.3044147254737908
  0.4974663056844122  0.6640214198130394  0.4694127225262150
  0.5591991866729558  0.8936047317146603  0.5115276201133767
  0.6418268936391840  0.9757745889543514  0.6763802929069342
  0.7221612474404608  0.5595568565335824  0.8412375483202297
  0.5137845281018869  0.8477844109263657  0.9217538025863590
  0.5903069072039457  0.9281816489872696  0.0836651714602183
  0.6816872679928352  0.5275284609316842  0.2722618384735895
  0.7686467230718748  0.6029013622510604  0.4310050894423085
  0.8508868533796701  0.6844917480933006  0.5943164212224445
  0.9325166934766216  0.7668126829798894  0.7584758704070254
  0.8022116280492568  0.6447800518719760  0.0065640324506830
  0.9096412082618670  0.7085733262363689  0.1776945936900134
  0.9765531027101133  0.8119996500310052  0.3451643877502875
  0.5801447731734726  0.7460909509624756  0.6350456517771121
  0.6625171485264687  0.8287517386117003  0.8001125246221648
  0.7444980002583677  0.9126288843131150  0.9660565094711870
  0.5344828925870857  0.7024460081106056  0.0496157777016464
  0.6252642087913074  0.7934053533287582  0.2180026280420080
  0.7063299500505167  0.8714588733029984  0.3876966303139469
  0.7888417752707326  0.9547379630194115  0.5528488842982284
  0.8714799348015205  0.5371737685698363  0.7179352348841306
  0.9528628744690266  0.6209232676543053  0.8832996413031253
  0.8271919133512995  0.5008311578687099  0.1332443856494763
  0.9128817717878164  0.5811540030309530  0.3039963501217784
  0.9973754010670746  0.6641147456813172  0.4693791763067097
 
  0.00000000E+00  0.00000000E+00  0.00000000E+00
  0.00000000E+00  0.00000000E+00  0.00000000E+00
  0.00000000E+00  0.00000000E+00  0.00000000E+00
  0.00000000E+00  0.00000000E+00  0.00000000E+00
  0.00000000E+00  0.00000000E+00  0.00000000E+00
  0.00000000E+00  0.00000000E+00  0.00000000E+00
  0.00000000E+00  0.00000000E+00  0.00000000E+00
  0.00000000E+00  0.00000000E+00  0.00000000E+00
  0.00000000E+00  0.00000000E+00  0.00000000E+00
  0.00000000E+00  0.00000000E+00  0.00000000E+00
  0.00000000E+00  0.00000000E+00  0.00000000E+00
  0.00000000E+00  0.00000000E+00  0.00000000E+00
  0.00000000E+00  0.00000000E+00  0.00000000E+00
  0.00000000E+00  0.00000000E+00  0.00000000E+00
  0.00000000E+00  0.00000000E+00  0.00000000E+00
  0.00000000E+00  0.00000000E+00  0.00000000E+00
  0.00000000E+00  0.00000000E+00  0.00000000E+00
  0.00000000E+00  0.00000000E+00  0.00000000E+00
  0.00000000E+00  0.00000000E+00  0.00000000E+00
  0.00000000E+00  0.00000000E+00  0.00000000E+00
  0.00000000E+00  0.00000000E+00  0.00000000E+00
  0.00000000E+00  0.00000000E+00  0.00000000E+00
  0.00000000E+00  0.00000000E+00  0.00000000E+00
  0.00000000E+00  0.00000000E+00  0.00000000E+00
  0.00000000E+00  0.00000000E+00  0.00000000E+00
  0.00000000E+00  0.00000000E+00  0.00000000E+00
  0.00000000E+00  0.00000000E+00  0.00000000E+00
  0.00000000E+00  0.00000000E+00  0.00000000E+00
  0.00000000E+00  0.00000000E+00  0.00000000E+00
  0.00000000E+00  0.00000000E+00  0.00000000E+00
  0.00000000E+00  0.00000000E+00  0.00000000E+00
  0.00000000E+00  0.00000000E+00  0.00000000E+00
  0.00000000E+00  0.00000000E+00  0.00000000E+00
  0.00000000E+00  0.00000000E+00  0.00000000E+00
  0.00000000E+00  0.00000000E+00  0.00000000E+00
  0.00000000E+00  0.00000000E+00  0.00000000E+00
  0.00000000E+00  0.00000000E+00  0.00000000E+00
  0.00000000E+00  0.00000000E+00  0.00000000E+00
  0.00000000E+00  0.00000000E+00  0.00000000E+00
  0.00000000E+00  0.00000000E+00  0.00000000E+00
  0.00000000E+00  0.00000000E+00  0.00000000E+00
  0.00000000E+00  0.00000000E+00  0.00000000E+00
  0.00000000E+00  0.00000000E+00  0.00000000E+00
  0.00000000E+00  0.00000000E+00  0.00000000E+00
  0.00000000E+00  0.00000000E+00  0.00000000E+00
  0.00000000E+00  0.00000000E+00  0.00000000E+00
  0.00000000E+00  0.00000000E+00  0.00000000E+00
  0.00000000E+00  0.00000000E+00  0.00000000E+00
  0.00000000E+00  0.00000000E+00  0.00000000E+00
  0.00000000E+00  0.00000000E+00  0.00000000E+00
  0.00000000E+00  0.00000000E+00  0.00000000E+00
  0.00000000E+00  0.00000000E+00  0.00000000E+00
  0.00000000E+00  0.00000000E+00  0.00000000E+00
  0.00000000E+00  0.00000000E+00  0.00000000E+00
  0.00000000E+00  0.00000000E+00  0.00000000E+00
  0.00000000E+00  0.00000000E+00  0.00000000E+00
  0.00000000E+00  0.00000000E+00  0.00000000E+00
  0.00000000E+00  0.00000000E+00  0.00000000E+00
  0.00000000E+00  0.00000000E+00  0.00000000E+00
  0.00000000E+00  0.00000000E+00  0.00000000E+00
  0.00000000E+00  0.00000000E+00  0.00000000E+00
  0.00000000E+00  0.00000000E+00  0.00000000E+00
  0.00000000E+00  0.00000000E+00  0.00000000E+00
  0.00000000E+00  0.00000000E+00  0.00000000E+00
  0.00000000E+00  0.00000000E+00  0.00000000E+00
  0.00000000E+00  0.00000000E+00  0.00000000E+00
  0.00000000E+00  0.00000000E+00  0.00000000E+00
  0.00000000E+00  0.00000000E+00  0.00000000E+00
  0.00000000E+00  0.00000000E+00  0.00000000E+00
  0.00000000E+00  0.00000000E+00  0.00000000E+00
  0.00000000E+00  0.00000000E+00  0.00000000E+00
  0.00000000E+00  0.00000000E+00  0.00000000E+00
  0.00000000E+00  0.00000000E+00  0.00000000E+00
  0.00000000E+00  0.00000000E+00  0.00000000E+00
  0.00000000E+00  0.00000000E+00  0.00000000E+00
  0.00000000E+00  0.00000000E+00  0.00000000E+00
  0.00000000E+00  0.00000000E+00  0.00000000E+00
  0.00000000E+00  0.00000000E+00  0.00000000E+00
  0.00000000E+00  0.00000000E+00  0.00000000E+00
  0.00000000E+00  0.00000000E+00  0.00000000E+00
  0.00000000E+00  0.00000000E+00  0.00000000E+00
  0.00000000E+00  0.00000000E+00  0.00000000E+00
  0.00000000E+00  0.00000000E+00  0.00000000E+00
  0.00000000E+00  0.00000000E+00  0.00000000E+00
  0.00000000E+00  0.00000000E+00  0.00000000E+00
  0.00000000E+00  0.00000000E+00  0.00000000E+00
  0.00000000E+00  0.00000000E+00  0.00000000E+00
  0.00000000E+00  0.00000000E+00  0.00000000E+00
  0.00000000E+00  0.00000000E+00  0.00000000E+00
  0.00000000E+00  0.00000000E+00  0.00000000E+00
  0.00000000E+00  0.00000000E+00  0.00000000E+00
  0.00000000E+00  0.00000000E+00  0.00000000E+00
  0.00000000E+00  0.00000000E+00  0.00000000E+00
  0.00000000E+00  0.00000000E+00  0.00000000E+00
  0.00000000E+00  0.00000000E+00  0.00000000E+00
  0.00000000E+00  0.00000000E+00  0.00000000E+00
  0.00000000E+00  0.00000000E+00  0.00000000E+00
  0.00000000E+00  0.00000000E+00  0.00000000E+00
  0.00000000E+00  0.00000000E+00  0.00000000E+00
  0.00000000E+00  0.00000000E+00  0.00000000E+00
  0.00000000E+00  0.00000000E+00  0.00000000E+00
  0.00000000E+00  0.00000000E+00  0.00000000E+00
  0.00000000E+00  0.00000000E+00  0.00000000E+00
  0.00000000E+00  0.00000000E+00  0.00000000E+00
  0.00000000E+00  0.00000000E+00  0.00000000E+00
  0.00000000E+00  0.00000000E+00  0.00000000E+00
  0.00000000E+00  0.00000000E+00  0.00000000E+00
  0.00000000E+00  0.00000000E+00  0.00000000E+00
  0.00000000E+00  0.00000000E+00  0.00000000E+00
  0.00000000E+00  0.00000000E+00  0.00000000E+00
  0.00000000E+00  0.00000000E+00  0.00000000E+00
  0.00000000E+00  0.00000000E+00  0.00000000E+00
  0.00000000E+00  0.00000000E+00  0.00000000E+00
  0.00000000E+00  0.00000000E+00  0.00000000E+00
  0.00000000E+00  0.00000000E+00  0.00000000E+00
  0.00000000E+00  0.00000000E+00  0.00000000E+00
  0.00000000E+00  0.00000000E+00  0.00000000E+00
  0.00000000E+00  0.00000000E+00  0.00000000E+00
  0.00000000E+00  0.00000000E+00  0.00000000E+00
  0.00000000E+00  0.00000000E+00  0.00000000E+00
  0.00000000E+00  0.00000000E+00  0.00000000E+00
  0.00000000E+00  0.00000000E+00  0.00000000E+00
  0.00000000E+00  0.00000000E+00  0.00000000E+00
  0.00000000E+00  0.00000000E+00  0.00000000E+00
  0.00000000E+00  0.00000000E+00  0.00000000E+00
  0.00000000E+00  0.00000000E+00  0.00000000E+00
  0.00000000E+00  0.00000000E+00  0.00000000E+00
  0.00000000E+00  0.00000000E+00  0.00000000E+00
  0.00000000E+00  0.00000000E+00  0.00000000E+00
  0.00000000E+00  0.00000000E+00  0.00000000E+00
  0.00000000E+00  0.00000000E+00  0.00000000E+00
  0.00000000E+00  0.00000000E+00  0.00000000E+00
  0.00000000E+00  0.00000000E+00  0.00000000E+00
  0.00000000E+00  0.00000000E+00  0.00000000E+00
  0.00000000E+00  0.00000000E+00  0.00000000E+00
  0.00000000E+00  0.00000000E+00  0.00000000E+00
  0.00000000E+00  0.00000000E+00  0.00000000E+00
  0.00000000E+00  0.00000000E+00  0.00000000E+00
  0.00000000E+00  0.00000000E+00  0.00000000E+00
  0.00000000E+00  0.00000000E+00  0.00000000E+00
  0.00000000E+00  0.00000000E+00  0.00000000E+00
  0.00000000E+00  0.00000000E+00  0.00000000E+00
  0.00000000E+00  0.00000000E+00  0.00000000E+00
  0.00000000E+00  0.00000000E+00  0.00000000E+00
  0.00000000E+00  0.00000000E+00  0.00000000E+00
  0.00000000E+00  0.00000000E+00  0.00000000E+00
  0.00000000E+00  0.00000000E+00  0.00000000E+00
  0.00000000E+00  0.00000000E+00  0.00000000E+00
  0.00000000E+00  0.00000000E+00  0.00000000E+00
  0.00000000E+00  0.00000000E+00  0.00000000E+00
  0.00000000E+00  0.00000000E+00  0.00000000E+00
  0.00000000E+00  0.00000000E+00  0.00000000E+00
  0.00000000E+00  0.00000000E+00  0.00000000E+00
  0.00000000E+00  0.00000000E+00  0.00000000E+00
  0.00000000E+00  0.00000000E+00  0.00000000E+00
  0.00000000E+00  0.00000000E+00  0.00000000E+00
  0.00000000E+00  0.00000000E+00  0.00000000E+00
  0.00000000E+00  0.00000000E+00  0.00000000E+00
  0.00000000E+00  0.00000000E+00  0.00000000E+00
  0.00000000E+00  0.00000000E+00  0.00000000E+00
  0.00000000E+00  0.00000000E+00  0.00000000E+00
  0.00000000E+00  0.00000000E+00  0.00000000E+00
  0.00000000E+00  0.00000000E+00  0.00000000E+00
  0.00000000E+00  0.00000000E+00  0.00000000E+00
  0.00000000E+00  0.00000000E+00  0.00000000E+00
  0.00000000E+00  0.00000000E+00  0.00000000E+00
  0.00000000E+00  0.00000000E+00  0.00000000E+00
  0.00000000E+00  0.00000000E+00  0.00000000E+00
  0.00000000E+00  0.00000000E+00  0.00000000E+00
  0.00000000E+00  0.00000000E+00  0.00000000E+00
  0.00000000E+00  0.00000000E+00  0.00000000E+00
  0.00000000E+00  0.00000000E+00  0.00000000E+00
  0.00000000E+00  0.00000000E+00  0.00000000E+00
  0.00000000E+00  0.00000000E+00  0.00000000E+00
  0.00000000E+00  0.00000000E+00  0.00000000E+00
  0.00000000E+00  0.00000000E+00  0.00000000E+00
  0.00000000E+00  0.00000000E+00  0.00000000E+00
  0.00000000E+00  0.00000000E+00  0.00000000E+00
  0.00000000E+00  0.00000000E+00  0.00000000E+00
  0.00000000E+00  0.00000000E+00  0.00000000E+00
  0.00000000E+00  0.00000000E+00  0.00000000E+00
  0.00000000E+00  0.00000000E+00  0.00000000E+00
  0.00000000E+00  0.00000000E+00  0.00000000E+00
  0.00000000E+00  0.00000000E+00  0.00000000E+00
  0.00000000E+00  0.00000000E+00  0.00000000E+00
  0.00000000E+00  0.00000000E+00  0.00000000E+00
  0.00000000E+00  0.00000000E+00  0.00000000E+00
  0.00000000E+00  0.00000000E+00  0.00000000E+00
  0.00000000E+00  0.00000000E+00  0.00000000E+00
  0.00000000E+00  0.00000000E+00  0.00000000E+00
  0.00000000E+00  0.00000000E+00  0.00000000E+00
