supercell of POSCAR                     
   1.00398800000000     
    -6.2729611433599999    0.0082005604289200   10.0015927484000002
     3.1280384584799998    5.4363994576400003   10.0007801159999996
    -7.8567367181199996   13.6110857897000006  -10.0002683574999995
   Al   Sc   N 
    92     4    95
Direct
  0.4816804637198828  0.3151278613855837  0.5471566783203627
  0.0623283594367905  0.3964397009624179  0.7086298081134927
  0.1444794500412030  0.4788812054363234  0.8730364035184479
  0.4356012394248410  0.2700484004959165  0.9555973191879161
  0.0131602125082253  0.3541603623053646  0.1183036245756384
  0.1037556038948182  0.4425980765855044  0.2953353082783252
  0.1832061387474653  0.0267776633741335  0.4671533269955788
  0.2716206364666220  0.1054814534699489  0.6275949150921392
  0.3535129219797000  0.1873856980722550  0.7913413984784796
  0.2242734599009140  0.0606831828728573  0.0343865062880226
  0.2943655713778810  0.1545469098147407  0.1870183668479726
  0.3937055190110286  0.2648574864907047  0.3940817821079463
  0.0006470920824526  0.1667849691192202  0.6675479239238342
  0.0822612487097061  0.2488772635975351  0.8310020954780626
  0.1633381978424069  0.3314788234987915  0.9935770558920183
  0.4579358786742134  0.1182208845285970  0.0768174739586129
  0.0437421156110318  0.2120869989061163  0.2531698942836087
  0.1244651900393521  0.2935882765273305  0.4202673558804761
  0.2090658108848373  0.3753355392796891  0.5852203884403622
  0.2916416645225226  0.4574677940758889  0.7496639953804305
  0.3737225587803934  0.0396283670163200  0.9134984482004569
  0.3069381006118874  0.9755786221058642  0.3513474172355160
  0.4180650459157960  0.0836270606430176  0.5042026517714149
  0.9788572632936550  0.3155311844016211  0.5442903537541639
  0.5627616278868786  0.3963117557670444  0.7093383869243439
  0.6447745929510162  0.4786364709386035  0.8729052931924741
  0.9351118934819524  0.2696224902246627  0.9549893486201739
  0.5184987352483006  0.3517076830341352  0.1204490259643407
  0.6057454655309229  0.4394841389522242  0.2953000057727238
  0.6904418031467117  0.0221340518064395  0.4618400709693447
  0.7720043313526972  0.1044768043887743  0.6269348752588613
  0.8535893654969229  0.1870101399062065  0.7908412435139738
  0.7272239174910098  0.0630506656547922  0.0377632552607210
  0.8176161498200045  0.1429508345153891  0.2080191784048537
  0.8967880683102010  0.2322831215611743  0.3768498950187080
  0.5007532192097770  0.1661188340239050  0.6681407942273694
  0.5824715275639818  0.2486010916361536  0.8312409772602152
  0.6634553229335154  0.3314389981820653  0.9935920309979736
  0.9554882629129082  0.1197060410422495  0.0785959767714743
  0.5447673478270687  0.2113648132563952  0.2529542316548756
  0.6303128570464906  0.2934390772149627  0.4207873762285956
  0.7098584256164457  0.3754965291379477  0.5856345511865939
  0.7918612583963949  0.4576142494644060  0.7495912313166571
  0.8735469685777772  0.0398569067278700  0.9137004997679412
  0.8344757285841737  0.0063804947491235  0.3397652621215457
  0.9168913151724425  0.0863592717786190  0.5035726191264516
  0.4805882792318030  0.8132273529479477  0.5443515859997134
  0.0622857761279434  0.8960194285104777  0.7086089109165101
  0.1440789448427324  0.9782601197325533  0.8719840864520378
  0.4358838975275745  0.7686257980402118  0.9550263100325864
  0.0177163449016504  0.8511212522990874  0.1196224540200035
  0.0965590759306920  0.9415328800826543  0.2925135553418627
  0.1861759426985117  0.5284840817223895  0.4629876821995822
  0.2714821447779769  0.6050676802743666  0.6267365645337080
  0.3535907179915441  0.6868541953543001  0.7907561461794117
  0.2270572589441571  0.5629071234754264  0.0376896643463311
  0.3198576938523772  0.6412822015961552  0.2083030034535724
  0.4040285551136193  0.7204738192772595  0.3779502950070679
  0.0005467826472696  0.6668741756023593  0.6671975013844502
  0.0822333888916731  0.7483786597539392  0.8308528274482470
  0.1629790514403453  0.8305450693273073  0.9931025325780141
  0.4560640416502508  0.6192726934215642  0.0783030609937754
  0.0456289760863839  0.7118513600851628  0.2521393498847146
  0.1282406339297992  0.7956249150725370  0.4193539185773147
  0.2100291017555733  0.8747352370386778  0.5862056352905114
  0.2918135602213283  0.9575750954965514  0.7497271138083690
  0.3736821402781771  0.5398057285219835  0.9136723311335899
  0.3327915057069717  0.5074522261697823  0.3376302725848319
  0.4193121545098748  0.5845548786701755  0.5037692331275281
  0.9801906957507001  0.8154739779085602  0.5438604307719643
  0.5626152526555330  0.8959412260077642  0.7088288256186033
  0.6446009201726710  0.9788122329425164  0.8730974725960863
  0.9355144309933436  0.7694722121022437  0.9553793812526621
  0.5186233368080906  0.8496600800037939  0.1193658588368436
  0.6437846842123491  0.9086953305938579  0.2943551516024883
  0.6906763210783708  0.5213187008429756  0.4615244335531941
  0.7712874231660010  0.6051029930058220  0.6265274993861780
  0.8536024109503089  0.6870543679210286  0.7908268801833600
  0.7260779147346597  0.5628318774378229  0.0374641545624499
  0.8224489591057491  0.6376630200125675  0.2076284404502147
  0.9038423391512254  0.7277945169413584  0.3782832473998923
  0.5009693256903986  0.6664997787132307  0.6676374862339500
  0.5824446344793657  0.7485776211569046  0.8309711937938857
  0.6636127674556747  0.8307734849189572  0.9932372694328890
  0.9557483789590577  0.6202069855728354  0.0781111723897254
  0.5455562919713799  0.7090228823632785  0.2527146613335418
  0.6273946002803967  0.7911139919100094  0.4211236690874927
  0.7098267834789027  0.8752407820181745  0.5854632833348816
  0.7917509050728810  0.9573748724016937  0.7497106644204976
  0.8735998868308315  0.5399519551722705  0.9136739825758795
  0.8343901102373295  0.5046026535788499  0.3389779203109171
  0.9180931583122529  0.5852151987700509  0.5034605287632061
  0.2431552382933191  0.4187724018516406  0.1668489817423193
  0.7433997801202281  0.4139117630235276  0.1672296690879165
  0.2425572620337704  0.9114544060941725  0.1671704109412318
  0.7448552159929847  0.9146192931034847  0.1653435717909062
  0.0591624538729363  0.3941221778171240  0.5115992298950758
  0.1418940011350998  0.4760348720943455  0.6764700615586534
  0.2237248896932016  0.0584563964326392  0.8415559420155958
  0.0141118913630223  0.3486737378236882  0.9227414177236994
  0.0899681281411304  0.4289762537820891  0.0834386128095090
  0.1797141591383422  0.0277749417511970  0.2702341650711020
  0.2661690874647817  0.1046283468632510  0.4332341920729306
  0.3510557919020840  0.1848699378699195  0.5947934959658170
  0.4326397584767889  0.2667840902393834  0.7591858594039778
  0.3045745666766919  0.1422627947046067  0.0067316452622990
  0.4091271225806352  0.2054158019998198  0.1782677613183097
  0.4757959419725424  0.3131272915506429  0.3455393459866798
  0.0803442164333177  0.2462544275951188  0.6352796850827716
  0.1626639763382727  0.3288090779899022  0.8006205163958242
  0.2451562506953024  0.4121156543241256  0.9662200621856130
  0.0354213040954932  0.2012496162433166  0.0490890812724771
  0.1226982827125411  0.2935595719797206  0.2175266395421431
  0.2040068441677221  0.3738702505479665  0.3877272178175986
  0.2895841234686216  0.4544445247646394  0.5523108185257755
  0.3718942197883237  0.0373324807676028  0.7186771161969787
  0.4537617843051223  0.1199109461108776  0.8837782697004855
  0.3296480414744849  0.9960354555972231  0.1291668070980165
  0.4981391059384848  0.1626003573423205  0.4707486180022968
  0.5590628213067959  0.3925996349761718  0.5114681740830846
  0.6416458326286545  0.4756392659375095  0.6767620709713853
  0.7237765621436907  0.0582937009456970  0.8415375979510031
  0.5140541012059714  0.3487192776712362  0.9227228940597030
  0.5897881046703617  0.4289820374499271  0.0828754127428013
  0.6787889831365490  0.0264114105641511  0.2718679521568674
  0.7678148629073647  0.1033494224877174  0.4308001021123218
  0.8505358271197920  0.1847629686620351  0.5947530928732689
  0.9326724852097499  0.2667648230801376  0.7588886214263724
  0.8048676637722281  0.1430007232468498  0.0061981505558322
  0.9110263377376384  0.2070399831086078  0.1772302635730512
  0.9767722728336423  0.3128681020498902  0.3451746774386208
  0.5812391557261520  0.2453542032684766  0.6365135170317302
  0.6630487044975126  0.3283689741563691  0.8008491466335244
  0.7451942401062226  0.4121766106441314  0.9659334537538413
  0.5351861273197116  0.2018308347509503  0.0496914304176101
  0.6236189657629225  0.2912495963616735  0.2176291875288996
  0.7061361055765403  0.3723639980061009  0.3872021516424837
  0.7884748713542393  0.4552034074746487  0.5531962468562739
  0.8717179281887724  0.0368656426443579  0.7182516595627249
  0.9538947588951388  0.1194861983817717  0.8831973884140538
  0.8311150686140536  0.0013982942289132  0.1318984890317125
  0.9095650804632385  0.0833146228349122  0.3034333999961447
  0.9941386900316118  0.1667052329491483  0.4698337424016827
  0.0608196499759330  0.8948948473302138  0.5106033878030871
  0.1415513341998889  0.9759433953066718  0.6769277693440330
  0.2238784820564987  0.5582402748283428  0.8415099755121247
  0.0135520676274723  0.8485763233716455  0.9222832472143949
  0.0893066822029667  0.9290598434140307  0.0823573446485071
  0.1816023333646726  0.5274657753070926  0.2707850682382258
  0.2689981271703346  0.6050080668317008  0.4300858717289344
  0.3512080083735682  0.6841488821449246  0.5945299114541456
  0.4326243358253166  0.7667201597713955  0.7588666951056169
  0.3050163695002084  0.6426838532331232  0.0061770105576855
  0.4117077029406957  0.7066990233514829  0.1771838575846800
  0.4782894269819451  0.8101777991041530  0.3455974855690229
  0.0804825646521437  0.7464758731582748  0.6348317046365324
  0.1627738080071595  0.8279607146892332  0.8001758250698998
  0.2448218932445201  0.9104169424533950  0.9645454477608340
  0.0354374110505873  0.7011534943443181  0.0490744141100095
  0.1255666773872406  0.7920528201814037  0.2165437431462962
  0.2126380786400262  0.8782157091149401  0.3853449673740101
  0.2898747500135457  0.9543465641410194  0.5546604683020036
  0.3716318344035940  0.5367849169719250  0.7179737555014469
  0.4540245413043920  0.6191897616633852  0.8830302627818298
  0.3316503159144872  0.5012815030467124  0.1318354777877531
  0.4138474877738787  0.5796021720335958  0.3031093859676730
  0.4991861917684730  0.6626547719525746  0.4704236750574680
  0.5592283033494709  0.8935948262080160  0.5115552435608990
  0.6418922052606959  0.9755549427587766  0.6766842647047824
  0.7239191326936876  0.5583159856689548  0.8414743940093601
  0.5138569140405096  0.8486435972531012  0.9226035189710728
  0.5895391909431140  0.9287247633452154  0.0830032647071803
  0.6826944816697988  0.5262376032697844  0.2711622045096576
  0.7693976033647800  0.6025107676363390  0.4308633484044222
  0.8507761956843396  0.6848810710149920  0.5944269541528158
  0.9327630649617618  0.7665531887442185  0.7586249741449507
  0.8048951667024156  0.6425586890192676  0.0063532163783293
  0.9102207085986933  0.7078367843513576  0.1771727044872122
  0.9776133644730010  0.8143948000326162  0.3450384519001588
  0.5804262366041257  0.7461278102032480  0.6355778489192616
  0.6628654129764300  0.8286512631884122  0.8007725758663682
  0.7449676874925686  0.9124233019185937  0.9662949517800286
  0.5351145235240651  0.7011710497370487  0.0489221650271361
  0.6246439562380957  0.7905026717472126  0.2169758212035617
  0.7090653422084330  0.8692267522500288  0.3892367801876588
  0.7890952561224722  0.9552478785763299  0.5528947714226859
  0.8715404730231313  0.5372223390582249  0.7180388139969125
  0.9536992240950894  0.6197242809642418  0.8832947990729139
  0.8294283277919448  0.5011974676330837  0.1315967761747245
  0.9127789759659493  0.5826136054147284  0.3039483594866894
  0.9974219095012629  0.6654730303932368  0.4704078985238809
 
  0.00000000E+00  0.00000000E+00  0.00000000E+00
  0.00000000E+00  0.00000000E+00  0.00000000E+00
  0.00000000E+00  0.00000000E+00  0.00000000E+00
  0.00000000E+00  0.00000000E+00  0.00000000E+00
  0.00000000E+00  0.00000000E+00  0.00000000E+00
  0.00000000E+00  0.00000000E+00  0.00000000E+00
  0.00000000E+00  0.00000000E+00  0.00000000E+00
  0.00000000E+00  0.00000000E+00  0.00000000E+00
  0.00000000E+00  0.00000000E+00  0.00000000E+00
  0.00000000E+00  0.00000000E+00  0.00000000E+00
  0.00000000E+00  0.00000000E+00  0.00000000E+00
  0.00000000E+00  0.00000000E+00  0.00000000E+00
  0.00000000E+00  0.00000000E+00  0.00000000E+00
  0.00000000E+00  0.00000000E+00  0.00000000E+00
  0.00000000E+00  0.00000000E+00  0.00000000E+00
  0.00000000E+00  0.00000000E+00  0.00000000E+00
  0.00000000E+00  0.00000000E+00  0.00000000E+00
  0.00000000E+00  0.00000000E+00  0.00000000E+00
  0.00000000E+00  0.00000000E+00  0.00000000E+00
  0.00000000E+00  0.00000000E+00  0.00000000E+00
  0.00000000E+00  0.00000000E+00  0.00000000E+00
  0.00000000E+00  0.00000000E+00  0.00000000E+00
  0.00000000E+00  0.00000000E+00  0.00000000E+00
  0.00000000E+00  0.00000000E+00  0.00000000E+00
  0.00000000E+00  0.00000000E+00  0.00000000E+00
  0.00000000E+00  0.00000000E+00  0.00000000E+00
  0.00000000E+00  0.00000000E+00  0.00000000E+00
  0.00000000E+00  0.00000000E+00  0.00000000E+00
  0.00000000E+00  0.00000000E+00  0.00000000E+00
  0.00000000E+00  0.00000000E+00  0.00000000E+00
  0.00000000E+00  0.00000000E+00  0.00000000E+00
  0.00000000E+00  0.00000000E+00  0.00000000E+00
  0.00000000E+00  0.00000000E+00  0.00000000E+00
  0.00000000E+00  0.00000000E+00  0.00000000E+00
  0.00000000E+00  0.00000000E+00  0.00000000E+00
  0.00000000E+00  0.00000000E+00  0.00000000E+00
  0.00000000E+00  0.00000000E+00  0.00000000E+00
  0.00000000E+00  0.00000000E+00  0.00000000E+00
  0.00000000E+00  0.00000000E+00  0.00000000E+00
  0.00000000E+00  0.00000000E+00  0.00000000E+00
  0.00000000E+00  0.00000000E+00  0.00000000E+00
  0.00000000E+00  0.00000000E+00  0.00000000E+00
  0.00000000E+00  0.00000000E+00  0.00000000E+00
  0.00000000E+00  0.00000000E+00  0.00000000E+00
  0.00000000E+00  0.00000000E+00  0.00000000E+00
  0.00000000E+00  0.00000000E+00  0.00000000E+00
  0.00000000E+00  0.00000000E+00  0.00000000E+00
  0.00000000E+00  0.00000000E+00  0.00000000E+00
  0.00000000E+00  0.00000000E+00  0.00000000E+00
  0.00000000E+00  0.00000000E+00  0.00000000E+00
  0.00000000E+00  0.00000000E+00  0.00000000E+00
  0.00000000E+00  0.00000000E+00  0.00000000E+00
  0.00000000E+00  0.00000000E+00  0.00000000E+00
  0.00000000E+00  0.00000000E+00  0.00000000E+00
  0.00000000E+00  0.00000000E+00  0.00000000E+00
  0.00000000E+00  0.00000000E+00  0.00000000E+00
  0.00000000E+00  0.00000000E+00  0.00000000E+00
  0.00000000E+00  0.00000000E+00  0.00000000E+00
  0.00000000E+00  0.00000000E+00  0.00000000E+00
  0.00000000E+00  0.00000000E+00  0.00000000E+00
  0.00000000E+00  0.00000000E+00  0.00000000E+00
  0.00000000E+00  0.00000000E+00  0.00000000E+00
  0.00000000E+00  0.00000000E+00  0.00000000E+00
  0.00000000E+00  0.00000000E+00  0.00000000E+00
  0.00000000E+00  0.00000000E+00  0.00000000E+00
  0.00000000E+00  0.00000000E+00  0.00000000E+00
  0.00000000E+00  0.00000000E+00  0.00000000E+00
  0.00000000E+00  0.00000000E+00  0.00000000E+00
  0.00000000E+00  0.00000000E+00  0.00000000E+00
  0.00000000E+00  0.00000000E+00  0.00000000E+00
  0.00000000E+00  0.00000000E+00  0.00000000E+00
  0.00000000E+00  0.00000000E+00  0.00000000E+00
  0.00000000E+00  0.00000000E+00  0.00000000E+00
  0.00000000E+00  0.00000000E+00  0.00000000E+00
  0.00000000E+00  0.00000000E+00  0.00000000E+00
  0.00000000E+00  0.00000000E+00  0.00000000E+00
  0.00000000E+00  0.00000000E+00  0.00000000E+00
  0.00000000E+00  0.00000000E+00  0.00000000E+00
  0.00000000E+00  0.00000000E+00  0.00000000E+00
  0.00000000E+00  0.00000000E+00  0.00000000E+00
  0.00000000E+00  0.00000000E+00  0.00000000E+00
  0.00000000E+00  0.00000000E+00  0.00000000E+00
  0.00000000E+00  0.00000000E+00  0.00000000E+00
  0.00000000E+00  0.00000000E+00  0.00000000E+00
  0.00000000E+00  0.00000000E+00  0.00000000E+00
  0.00000000E+00  0.00000000E+00  0.00000000E+00
  0.00000000E+00  0.00000000E+00  0.00000000E+00
  0.00000000E+00  0.00000000E+00  0.00000000E+00
  0.00000000E+00  0.00000000E+00  0.00000000E+00
  0.00000000E+00  0.00000000E+00  0.00000000E+00
  0.00000000E+00  0.00000000E+00  0.00000000E+00
  0.00000000E+00  0.00000000E+00  0.00000000E+00
  0.00000000E+00  0.00000000E+00  0.00000000E+00
  0.00000000E+00  0.00000000E+00  0.00000000E+00
  0.00000000E+00  0.00000000E+00  0.00000000E+00
  0.00000000E+00  0.00000000E+00  0.00000000E+00
  0.00000000E+00  0.00000000E+00  0.00000000E+00
  0.00000000E+00  0.00000000E+00  0.00000000E+00
  0.00000000E+00  0.00000000E+00  0.00000000E+00
  0.00000000E+00  0.00000000E+00  0.00000000E+00
  0.00000000E+00  0.00000000E+00  0.00000000E+00
  0.00000000E+00  0.00000000E+00  0.00000000E+00
  0.00000000E+00  0.00000000E+00  0.00000000E+00
  0.00000000E+00  0.00000000E+00  0.00000000E+00
  0.00000000E+00  0.00000000E+00  0.00000000E+00
  0.00000000E+00  0.00000000E+00  0.00000000E+00
  0.00000000E+00  0.00000000E+00  0.00000000E+00
  0.00000000E+00  0.00000000E+00  0.00000000E+00
  0.00000000E+00  0.00000000E+00  0.00000000E+00
  0.00000000E+00  0.00000000E+00  0.00000000E+00
  0.00000000E+00  0.00000000E+00  0.00000000E+00
  0.00000000E+00  0.00000000E+00  0.00000000E+00
  0.00000000E+00  0.00000000E+00  0.00000000E+00
  0.00000000E+00  0.00000000E+00  0.00000000E+00
  0.00000000E+00  0.00000000E+00  0.00000000E+00
  0.00000000E+00  0.00000000E+00  0.00000000E+00
  0.00000000E+00  0.00000000E+00  0.00000000E+00
  0.00000000E+00  0.00000000E+00  0.00000000E+00
  0.00000000E+00  0.00000000E+00  0.00000000E+00
  0.00000000E+00  0.00000000E+00  0.00000000E+00
  0.00000000E+00  0.00000000E+00  0.00000000E+00
  0.00000000E+00  0.00000000E+00  0.00000000E+00
  0.00000000E+00  0.00000000E+00  0.00000000E+00
  0.00000000E+00  0.00000000E+00  0.00000000E+00
  0.00000000E+00  0.00000000E+00  0.00000000E+00
  0.00000000E+00  0.00000000E+00  0.00000000E+00
  0.00000000E+00  0.00000000E+00  0.00000000E+00
  0.00000000E+00  0.00000000E+00  0.00000000E+00
  0.00000000E+00  0.00000000E+00  0.00000000E+00
  0.00000000E+00  0.00000000E+00  0.00000000E+00
  0.00000000E+00  0.00000000E+00  0.00000000E+00
  0.00000000E+00  0.00000000E+00  0.00000000E+00
  0.00000000E+00  0.00000000E+00  0.00000000E+00
  0.00000000E+00  0.00000000E+00  0.00000000E+00
  0.00000000E+00  0.00000000E+00  0.00000000E+00
  0.00000000E+00  0.00000000E+00  0.00000000E+00
  0.00000000E+00  0.00000000E+00  0.00000000E+00
  0.00000000E+00  0.00000000E+00  0.00000000E+00
  0.00000000E+00  0.00000000E+00  0.00000000E+00
  0.00000000E+00  0.00000000E+00  0.00000000E+00
  0.00000000E+00  0.00000000E+00  0.00000000E+00
  0.00000000E+00  0.00000000E+00  0.00000000E+00
  0.00000000E+00  0.00000000E+00  0.00000000E+00
  0.00000000E+00  0.00000000E+00  0.00000000E+00
  0.00000000E+00  0.00000000E+00  0.00000000E+00
  0.00000000E+00  0.00000000E+00  0.00000000E+00
  0.00000000E+00  0.00000000E+00  0.00000000E+00
  0.00000000E+00  0.00000000E+00  0.00000000E+00
  0.00000000E+00  0.00000000E+00  0.00000000E+00
  0.00000000E+00  0.00000000E+00  0.00000000E+00
  0.00000000E+00  0.00000000E+00  0.00000000E+00
  0.00000000E+00  0.00000000E+00  0.00000000E+00
  0.00000000E+00  0.00000000E+00  0.00000000E+00
  0.00000000E+00  0.00000000E+00  0.00000000E+00
  0.00000000E+00  0.00000000E+00  0.00000000E+00
  0.00000000E+00  0.00000000E+00  0.00000000E+00
  0.00000000E+00  0.00000000E+00  0.00000000E+00
  0.00000000E+00  0.00000000E+00  0.00000000E+00
  0.00000000E+00  0.00000000E+00  0.00000000E+00
  0.00000000E+00  0.00000000E+00  0.00000000E+00
  0.00000000E+00  0.00000000E+00  0.00000000E+00
  0.00000000E+00  0.00000000E+00  0.00000000E+00
  0.00000000E+00  0.00000000E+00  0.00000000E+00
  0.00000000E+00  0.00000000E+00  0.00000000E+00
  0.00000000E+00  0.00000000E+00  0.00000000E+00
  0.00000000E+00  0.00000000E+00  0.00000000E+00
  0.00000000E+00  0.00000000E+00  0.00000000E+00
  0.00000000E+00  0.00000000E+00  0.00000000E+00
  0.00000000E+00  0.00000000E+00  0.00000000E+00
  0.00000000E+00  0.00000000E+00  0.00000000E+00
  0.00000000E+00  0.00000000E+00  0.00000000E+00
  0.00000000E+00  0.00000000E+00  0.00000000E+00
  0.00000000E+00  0.00000000E+00  0.00000000E+00
  0.00000000E+00  0.00000000E+00  0.00000000E+00
  0.00000000E+00  0.00000000E+00  0.00000000E+00
  0.00000000E+00  0.00000000E+00  0.00000000E+00
  0.00000000E+00  0.00000000E+00  0.00000000E+00
  0.00000000E+00  0.00000000E+00  0.00000000E+00
  0.00000000E+00  0.00000000E+00  0.00000000E+00
  0.00000000E+00  0.00000000E+00  0.00000000E+00
  0.00000000E+00  0.00000000E+00  0.00000000E+00
  0.00000000E+00  0.00000000E+00  0.00000000E+00
  0.00000000E+00  0.00000000E+00  0.00000000E+00
  0.00000000E+00  0.00000000E+00  0.00000000E+00
  0.00000000E+00  0.00000000E+00  0.00000000E+00
  0.00000000E+00  0.00000000E+00  0.00000000E+00
  0.00000000E+00  0.00000000E+00  0.00000000E+00
  0.00000000E+00  0.00000000E+00  0.00000000E+00
  0.00000000E+00  0.00000000E+00  0.00000000E+00
  0.00000000E+00  0.00000000E+00  0.00000000E+00
  0.00000000E+00  0.00000000E+00  0.00000000E+00
