supercell of POSCAR                     
   1.00398800000000     
    -6.2729611433599999    0.0082005604289200   10.0015927484000002
     3.1280384584799998    5.4363994576400003   10.0007801159999996
    -7.8567367181199996   13.6110857897000006  -10.0002683574999995
   Al   Sc   N 
    92     4    95
Direct
  0.4797827434093236  0.3144438914546086  0.5435645049762954
  0.0622036045561885  0.3959971377348097  0.7081943589296102
  0.1445269755031049  0.4787270336087062  0.8732483593213658
  0.4357144245369327  0.2695113702118519  0.9562174560788677
  0.0172581820465183  0.3516693878248915  0.1208436944233853
  0.1037168144653791  0.4423916549122424  0.2958861315378911
  0.1882143394203410  0.0220021166428310  0.4609707610098681
  0.2711102195031501  0.1047214075411063  0.6258930450548021
  0.3534248397161548  0.1870316269092882  0.7908761147005805
  0.2262706176777058  0.0622347462629023  0.0383900690551897
  0.3153365601710050  0.1417186982848406  0.2061118315350612
  0.3966181863549636  0.2363782918935442  0.3797015389846266
  0.0004276514263424  0.1666539663081110  0.6669393441035467
  0.0821958705368573  0.2487594387948704  0.8310881820044571
  0.1632746405464118  0.3313820999605781  0.9943047438023527
  0.4564376977061144  0.1190232825012458  0.0790937108307190
  0.0453782832440837  0.2123874512605681  0.2533213887725978
  0.1252495844723143  0.2933081217410134  0.4194596675243218
  0.2090560588622878  0.3753414342322756  0.5845770952398937
  0.2914501681708401  0.4575908807325320  0.7493385552687641
  0.3734641595466925  0.0399515626263707  0.9142396423656578
  0.3327672455026942  0.0013390745416473  0.3403912149842157
  0.4188908814136596  0.0844007145877796  0.5031271186455299
  0.9795769213888690  0.3138423129856633  0.5430478363193458
  0.5623014618043456  0.3959496547543679  0.7082530294708178
  0.6446070685665006  0.4786671930148003  0.8732169816869728
  0.9357107230821669  0.2694634150550499  0.9559692383405434
  0.5180365339673472  0.3514411932987898  0.1212845738377624
  0.6042883036125204  0.4414417316109507  0.2960078885278179
  0.6895836917254812  0.0219031992820931  0.4609082942038398
  0.7714333711578760  0.1045016734795396  0.6257830714550039
  0.8534859252592497  0.1869413402425764  0.7907783778435729
  0.7268916278222193  0.0624177816596401  0.0390623915832862
  0.8191502403868824  0.1413825314990973  0.2090315642687202
  0.8967230748733996  0.2313605159151706  0.3766232290935037
  0.5004804127047322  0.1664917057715058  0.6670862663327242
  0.5821760098058988  0.2487028751597933  0.8311351306017656
  0.6633457444628164  0.3312347139974463  0.9941927399769526
  0.9558524948341969  0.1198243596230526  0.0791805124604466
  0.5462802022990019  0.2117917052833675  0.2532773134561026
  0.6271785064882920  0.2927157274634737  0.4197598470308535
  0.7092547282849324  0.3753202135982008  0.5845860640363796
  0.7914985101894416  0.4575755204762260  0.7493343025623389
  0.8733483328580078  0.0399887416266012  0.9142333242973564
  0.8345566395422637  0.0045883620700735  0.3392396377843454
  0.9184640237478305  0.0851450649770200  0.5025824071116674
  0.4797933929223746  0.8135314490998127  0.5431769521706755
  0.0622739557014498  0.8959096972486265  0.7081109120519642
  0.1444762525796435  0.9786036669013924  0.8730956876101672
  0.4359036802533396  0.7692010703640335  0.9560050391944657
  0.0172217661959237  0.8514431944270981  0.1211085290350340
  0.1036141036562128  0.9415171423557425  0.2960131688497114
  0.1884049403341450  0.5230356313267563  0.4609170385781098
  0.2712091539337038  0.6047270780826750  0.6257242507400704
  0.3534769272968532  0.6869140581696342  0.7907439613727689
  0.2270146299809994  0.5623554007964202  0.0389969652395621
  0.3195582280373799  0.6407722044108013  0.2091500517296723
  0.3971672011555683  0.7305708051050672  0.3768707484840803
  0.0004367228331787  0.6665682070429710  0.6668689956276168
  0.0821316479472856  0.7486726306009004  0.8309928535921216
  0.1631246168416425  0.8310076422820245  0.9940647389134369
  0.4561954730467761  0.6194461589764373  0.0790983356759014
  0.0463044557590919  0.7121066060710035  0.2529156990112540
  0.1263427275209708  0.7931513892707258  0.4193752336082213
  0.2091903600337730  0.8753288237455905  0.5845536542621801
  0.2914995559940081  0.9575725345181070  0.7493617175228309
  0.3734154012307016  0.5399472512368106  0.9142059544091268
  0.3339014343787525  0.5054278516637467  0.3387284994983162
  0.4182716270459821  0.5851863664545363  0.5024388842677396
  0.9798254172053191  0.8137550831067628  0.5429480034064014
  0.5622719700326186  0.8958935063891857  0.7082384976945022
  0.6445361861752446  0.9787117685349926  0.8732861058275816
  0.9357600698678183  0.7694166947661358  0.9560825959501074
  0.5178880007596049  0.8506638827965247  0.1209323127026636
  0.6072407016727439  0.9376457139303156  0.2962893410626535
  0.6887747386092755  0.5218698821814556  0.4606247998829218
  0.7712193370685938  0.6045154879998620  0.6257205082056032
  0.8534422210163441  0.6869811468803420  0.7907623863489803
  0.7271503438134772  0.5623025186201147  0.0389157785545891
  0.8199720436851266  0.6410229731336869  0.2092230399930486
  0.8978378054374687  0.7308537356172593  0.3765985764906574
  0.5004607435427531  0.6665458404016320  0.6669378232317058
  0.5822147926763819  0.7487032164746594  0.8310779186266615
  0.6634732954787950  0.8310421813963060  0.9942023708611671
  0.9559644382799632  0.6200983447260668  0.0792932566558306
  0.5463883987548073  0.7106139174318500  0.2526241790717236
  0.6271244351898417  0.7921143385686804  0.4201754532115274
  0.7094396810187718  0.8750940824442210  0.5847423799156886
  0.7915127850555450  0.9575623148655907  0.7493798644197369
  0.8734805022558305  0.5400212915885305  0.9142042785423783
  0.8344527309992458  0.5045284420274783  0.3389136404878741
  0.9181769387231640  0.5849297890149003  0.5024872686657176
  0.2437291703871054  0.4134585865770148  0.1682001362225449
  0.7435882424115192  0.4132908414010288  0.1681635847496992
  0.2426054419042885  0.9120426737044909  0.1679898750541113
  0.7428003957302991  0.9140604514083179  0.1683945030133174
  0.0592954650089581  0.3936217885633155  0.5113306491792997
  0.1417472603549683  0.4756728601481512  0.6764585489565889
  0.2238688984865504  0.0582276457455819  0.8415197829136929
  0.0140834583353282  0.3485384570973338  0.9226794278082693
  0.0893695837828687  0.4291231415630321  0.0833112697204257
  0.1831142325199338  0.0285901908090551  0.2715514798308973
  0.2693594612961121  0.1036127585041768  0.4307286374596870
  0.3508640100087632  0.1846603620447738  0.5943007015209645
  0.4326558519339514  0.2666288422058329  0.7587686777500906
  0.3047679492774051  0.1423433847421265  0.0068490189418213
  0.4116871535476676  0.2043687876058513  0.1786061729124668
  0.4752544795314577  0.3123223781856126  0.3450921507078206
  0.0801158502714117  0.2462350734323877  0.6350530856721193
  0.1625118593278856  0.3287535083029169  0.8004984071577823
  0.2449425939010936  0.4121580890713048  0.9661961476551681
  0.0351391872179079  0.2015289541243135  0.0494380849744616
  0.1263661574211525  0.2924191324447847  0.2180903887067203
  0.2060370979867017  0.3710418763575802  0.3869740991302493
  0.2887283507118710  0.4547063875354027  0.5525313413012398
  0.3713069780832043  0.0372957235114555  0.7179517885004998
  0.4534852632961304  0.1198696818572884  0.8834754158796940
  0.3303491146652604  0.9988352549598645  0.1323792886427242
  0.4977344618516071  0.1634560142597223  0.4692914572915612
  0.5589679010313660  0.3936851570132589  0.5113134704494300
  0.6416894527335728  0.4756119123703328  0.6764801698030141
  0.7238049995177676  0.0582333660923808  0.8414756176940799
  0.5139694791622702  0.3484927260149462  0.9226743424524528
  0.5894139142352586  0.4288714258362774  0.0830359611099070
  0.6793780671866188  0.0280639679063412  0.2726046654787879
  0.7685465416169279  0.1031673316875654  0.4309297051518541
  0.8508524374606736  0.1846333620358678  0.5942645632391148
  0.9326971906575707  0.2665906507847637  0.7587445622067435
  0.8046304711689345  0.1425049070988393  0.0065895623605385
  0.9120447980077770  0.2062300800122117  0.1775579808459113
  0.9758541135294720  0.3128768187924535  0.3452148492828471
  0.5802066479721475  0.2459528761158793  0.6350709366371419
  0.6625385367668386  0.3286484688514264  0.8005004044434898
  0.7450605435703466  0.4121369903951333  0.9661576640420222
  0.5348003010023916  0.2015141885872964  0.0497941332016083
  0.6252931193460185  0.2925491033553484  0.2176825503151392
  0.7057854707999667  0.3716848012938243  0.3873139936109027
  0.7886503662894597  0.4547889888929433  0.5526539475718835
  0.8713327940598106  0.0372112422574205  0.7178967934919669
  0.9535423010493460  0.1197488151099719  0.8833508344964969
  0.8300531680875807  0.0004788551588604  0.1327159252293910
  0.9124932770426497  0.0813273064298912  0.3037292195198873
  0.9975456776603124  0.1644033889237164  0.4691567629560680
  0.0592919348944179  0.8938055312894093  0.5112596197983024
  0.1417635308795511  0.9757028224436013  0.6764613745557568
  0.2238559172564720  0.5582103622563181  0.8414454734150212
  0.0138473828806198  0.8485188442481828  0.9224739916200022
  0.0886572257779079  0.9291160023154603  0.0827417121549132
  0.1818722523165164  0.5276427884888335  0.2712096764088088
  0.2684484004019936  0.6032116960985690  0.4306659592270208
  0.3508964198840090  0.6846326984557791  0.5941817645200942
  0.4326800869895564  0.7665835666704837  0.7587223931860123
  0.3048476370962945  0.6423829001959689  0.0065650904708647
  0.4117691784393287  0.7061145679944971  0.1773675447508722
  0.4769336910394202  0.8134177654266423  0.3448542691833509
  0.0801656398173378  0.7461317511595809  0.6349449148418174
  0.1625461123316256  0.8286270993095997  0.8004004949307273
  0.2449869944386052  0.9118999127319256  0.9660400714163657
  0.0352294640678252  0.7014155301217500  0.0494084303191755
  0.1262494527156832  0.7935871793426443  0.2173986703402733
  0.2065795237042209  0.8722947254155926  0.3871978102851372
  0.2888190499297565  0.9550459434278338  0.5526635033459897
  0.3712909650795453  0.5371919381922581  0.7178097585237211
  0.4535640735168798  0.6196793302438408  0.8832881971209900
  0.3306966447350419  0.4999718685980241  0.1326247021279556
  0.4131175192569216  0.5814043261802908  0.3041820825697101
  0.4974899271507738  0.6644367393291546  0.4691898377050876
  0.5592259286828138  0.8936082643327623  0.5115497098262907
  0.6417312380378846  0.9756534603142484  0.6765308795423337
  0.7238824245844739  0.5582043644907912  0.8414683542509565
  0.5139927952261729  0.8485372441302346  0.9226550495533701
  0.5892569179045637  0.9286516784219927  0.0831656199804414
  0.6820699127328282  0.5272951119001235  0.2714260674482816
  0.7685700539771148  0.6028748658408531  0.4307903653455369
  0.8509168645234624  0.6844761288909496  0.5942310485897337
  0.9326652122168255  0.7665653392168110  0.7586390085191965
  0.8049700737957934  0.6423499762221283  0.0065938110969626
  0.9111055181224970  0.7073718369358915  0.1775228176447854
  0.9758839280136584  0.8131341055374932  0.3450362678048720
  0.5801660057275058  0.7461237649640182  0.6351291996793691
  0.6625213631558609  0.8287468303517187  0.8005333206286664
  0.7449002260282001  0.9122495950227076  0.9662345341174756
  0.5353377193460389  0.7011936160211576  0.0493681196194018
  0.6245296889714282  0.7937955020391882  0.2176951971593297
  0.7054312551344779  0.8719840919413784  0.3877809704419732
  0.7887710050256942  0.9547317414237995  0.5527191046781113
  0.8712583748100329  0.5372638723281256  0.7178823148770377
  0.9535148431181639  0.6198238698007117  0.8833184588854976
  0.8305491499269593  0.5007576264970695  0.1328458911061148
  0.9126138184953589  0.5816517643854766  0.3040497736312915
  0.9971251387736118  0.6642427033904781  0.4690463691018465
 
  0.00000000E+00  0.00000000E+00  0.00000000E+00
  0.00000000E+00  0.00000000E+00  0.00000000E+00
  0.00000000E+00  0.00000000E+00  0.00000000E+00
  0.00000000E+00  0.00000000E+00  0.00000000E+00
  0.00000000E+00  0.00000000E+00  0.00000000E+00
  0.00000000E+00  0.00000000E+00  0.00000000E+00
  0.00000000E+00  0.00000000E+00  0.00000000E+00
  0.00000000E+00  0.00000000E+00  0.00000000E+00
  0.00000000E+00  0.00000000E+00  0.00000000E+00
  0.00000000E+00  0.00000000E+00  0.00000000E+00
  0.00000000E+00  0.00000000E+00  0.00000000E+00
  0.00000000E+00  0.00000000E+00  0.00000000E+00
  0.00000000E+00  0.00000000E+00  0.00000000E+00
  0.00000000E+00  0.00000000E+00  0.00000000E+00
  0.00000000E+00  0.00000000E+00  0.00000000E+00
  0.00000000E+00  0.00000000E+00  0.00000000E+00
  0.00000000E+00  0.00000000E+00  0.00000000E+00
  0.00000000E+00  0.00000000E+00  0.00000000E+00
  0.00000000E+00  0.00000000E+00  0.00000000E+00
  0.00000000E+00  0.00000000E+00  0.00000000E+00
  0.00000000E+00  0.00000000E+00  0.00000000E+00
  0.00000000E+00  0.00000000E+00  0.00000000E+00
  0.00000000E+00  0.00000000E+00  0.00000000E+00
  0.00000000E+00  0.00000000E+00  0.00000000E+00
  0.00000000E+00  0.00000000E+00  0.00000000E+00
  0.00000000E+00  0.00000000E+00  0.00000000E+00
  0.00000000E+00  0.00000000E+00  0.00000000E+00
  0.00000000E+00  0.00000000E+00  0.00000000E+00
  0.00000000E+00  0.00000000E+00  0.00000000E+00
  0.00000000E+00  0.00000000E+00  0.00000000E+00
  0.00000000E+00  0.00000000E+00  0.00000000E+00
  0.00000000E+00  0.00000000E+00  0.00000000E+00
  0.00000000E+00  0.00000000E+00  0.00000000E+00
  0.00000000E+00  0.00000000E+00  0.00000000E+00
  0.00000000E+00  0.00000000E+00  0.00000000E+00
  0.00000000E+00  0.00000000E+00  0.00000000E+00
  0.00000000E+00  0.00000000E+00  0.00000000E+00
  0.00000000E+00  0.00000000E+00  0.00000000E+00
  0.00000000E+00  0.00000000E+00  0.00000000E+00
  0.00000000E+00  0.00000000E+00  0.00000000E+00
  0.00000000E+00  0.00000000E+00  0.00000000E+00
  0.00000000E+00  0.00000000E+00  0.00000000E+00
  0.00000000E+00  0.00000000E+00  0.00000000E+00
  0.00000000E+00  0.00000000E+00  0.00000000E+00
  0.00000000E+00  0.00000000E+00  0.00000000E+00
  0.00000000E+00  0.00000000E+00  0.00000000E+00
  0.00000000E+00  0.00000000E+00  0.00000000E+00
  0.00000000E+00  0.00000000E+00  0.00000000E+00
  0.00000000E+00  0.00000000E+00  0.00000000E+00
  0.00000000E+00  0.00000000E+00  0.00000000E+00
  0.00000000E+00  0.00000000E+00  0.00000000E+00
  0.00000000E+00  0.00000000E+00  0.00000000E+00
  0.00000000E+00  0.00000000E+00  0.00000000E+00
  0.00000000E+00  0.00000000E+00  0.00000000E+00
  0.00000000E+00  0.00000000E+00  0.00000000E+00
  0.00000000E+00  0.00000000E+00  0.00000000E+00
  0.00000000E+00  0.00000000E+00  0.00000000E+00
  0.00000000E+00  0.00000000E+00  0.00000000E+00
  0.00000000E+00  0.00000000E+00  0.00000000E+00
  0.00000000E+00  0.00000000E+00  0.00000000E+00
  0.00000000E+00  0.00000000E+00  0.00000000E+00
  0.00000000E+00  0.00000000E+00  0.00000000E+00
  0.00000000E+00  0.00000000E+00  0.00000000E+00
  0.00000000E+00  0.00000000E+00  0.00000000E+00
  0.00000000E+00  0.00000000E+00  0.00000000E+00
  0.00000000E+00  0.00000000E+00  0.00000000E+00
  0.00000000E+00  0.00000000E+00  0.00000000E+00
  0.00000000E+00  0.00000000E+00  0.00000000E+00
  0.00000000E+00  0.00000000E+00  0.00000000E+00
  0.00000000E+00  0.00000000E+00  0.00000000E+00
  0.00000000E+00  0.00000000E+00  0.00000000E+00
  0.00000000E+00  0.00000000E+00  0.00000000E+00
  0.00000000E+00  0.00000000E+00  0.00000000E+00
  0.00000000E+00  0.00000000E+00  0.00000000E+00
  0.00000000E+00  0.00000000E+00  0.00000000E+00
  0.00000000E+00  0.00000000E+00  0.00000000E+00
  0.00000000E+00  0.00000000E+00  0.00000000E+00
  0.00000000E+00  0.00000000E+00  0.00000000E+00
  0.00000000E+00  0.00000000E+00  0.00000000E+00
  0.00000000E+00  0.00000000E+00  0.00000000E+00
  0.00000000E+00  0.00000000E+00  0.00000000E+00
  0.00000000E+00  0.00000000E+00  0.00000000E+00
  0.00000000E+00  0.00000000E+00  0.00000000E+00
  0.00000000E+00  0.00000000E+00  0.00000000E+00
  0.00000000E+00  0.00000000E+00  0.00000000E+00
  0.00000000E+00  0.00000000E+00  0.00000000E+00
  0.00000000E+00  0.00000000E+00  0.00000000E+00
  0.00000000E+00  0.00000000E+00  0.00000000E+00
  0.00000000E+00  0.00000000E+00  0.00000000E+00
  0.00000000E+00  0.00000000E+00  0.00000000E+00
  0.00000000E+00  0.00000000E+00  0.00000000E+00
  0.00000000E+00  0.00000000E+00  0.00000000E+00
  0.00000000E+00  0.00000000E+00  0.00000000E+00
  0.00000000E+00  0.00000000E+00  0.00000000E+00
  0.00000000E+00  0.00000000E+00  0.00000000E+00
  0.00000000E+00  0.00000000E+00  0.00000000E+00
  0.00000000E+00  0.00000000E+00  0.00000000E+00
  0.00000000E+00  0.00000000E+00  0.00000000E+00
  0.00000000E+00  0.00000000E+00  0.00000000E+00
  0.00000000E+00  0.00000000E+00  0.00000000E+00
  0.00000000E+00  0.00000000E+00  0.00000000E+00
  0.00000000E+00  0.00000000E+00  0.00000000E+00
  0.00000000E+00  0.00000000E+00  0.00000000E+00
  0.00000000E+00  0.00000000E+00  0.00000000E+00
  0.00000000E+00  0.00000000E+00  0.00000000E+00
  0.00000000E+00  0.00000000E+00  0.00000000E+00
  0.00000000E+00  0.00000000E+00  0.00000000E+00
  0.00000000E+00  0.00000000E+00  0.00000000E+00
  0.00000000E+00  0.00000000E+00  0.00000000E+00
  0.00000000E+00  0.00000000E+00  0.00000000E+00
  0.00000000E+00  0.00000000E+00  0.00000000E+00
  0.00000000E+00  0.00000000E+00  0.00000000E+00
  0.00000000E+00  0.00000000E+00  0.00000000E+00
  0.00000000E+00  0.00000000E+00  0.00000000E+00
  0.00000000E+00  0.00000000E+00  0.00000000E+00
  0.00000000E+00  0.00000000E+00  0.00000000E+00
  0.00000000E+00  0.00000000E+00  0.00000000E+00
  0.00000000E+00  0.00000000E+00  0.00000000E+00
  0.00000000E+00  0.00000000E+00  0.00000000E+00
  0.00000000E+00  0.00000000E+00  0.00000000E+00
  0.00000000E+00  0.00000000E+00  0.00000000E+00
  0.00000000E+00  0.00000000E+00  0.00000000E+00
  0.00000000E+00  0.00000000E+00  0.00000000E+00
  0.00000000E+00  0.00000000E+00  0.00000000E+00
  0.00000000E+00  0.00000000E+00  0.00000000E+00
  0.00000000E+00  0.00000000E+00  0.00000000E+00
  0.00000000E+00  0.00000000E+00  0.00000000E+00
  0.00000000E+00  0.00000000E+00  0.00000000E+00
  0.00000000E+00  0.00000000E+00  0.00000000E+00
  0.00000000E+00  0.00000000E+00  0.00000000E+00
  0.00000000E+00  0.00000000E+00  0.00000000E+00
  0.00000000E+00  0.00000000E+00  0.00000000E+00
  0.00000000E+00  0.00000000E+00  0.00000000E+00
  0.00000000E+00  0.00000000E+00  0.00000000E+00
  0.00000000E+00  0.00000000E+00  0.00000000E+00
  0.00000000E+00  0.00000000E+00  0.00000000E+00
  0.00000000E+00  0.00000000E+00  0.00000000E+00
  0.00000000E+00  0.00000000E+00  0.00000000E+00
  0.00000000E+00  0.00000000E+00  0.00000000E+00
  0.00000000E+00  0.00000000E+00  0.00000000E+00
  0.00000000E+00  0.00000000E+00  0.00000000E+00
  0.00000000E+00  0.00000000E+00  0.00000000E+00
  0.00000000E+00  0.00000000E+00  0.00000000E+00
  0.00000000E+00  0.00000000E+00  0.00000000E+00
  0.00000000E+00  0.00000000E+00  0.00000000E+00
  0.00000000E+00  0.00000000E+00  0.00000000E+00
  0.00000000E+00  0.00000000E+00  0.00000000E+00
  0.00000000E+00  0.00000000E+00  0.00000000E+00
  0.00000000E+00  0.00000000E+00  0.00000000E+00
  0.00000000E+00  0.00000000E+00  0.00000000E+00
  0.00000000E+00  0.00000000E+00  0.00000000E+00
  0.00000000E+00  0.00000000E+00  0.00000000E+00
  0.00000000E+00  0.00000000E+00  0.00000000E+00
  0.00000000E+00  0.00000000E+00  0.00000000E+00
  0.00000000E+00  0.00000000E+00  0.00000000E+00
  0.00000000E+00  0.00000000E+00  0.00000000E+00
  0.00000000E+00  0.00000000E+00  0.00000000E+00
  0.00000000E+00  0.00000000E+00  0.00000000E+00
  0.00000000E+00  0.00000000E+00  0.00000000E+00
  0.00000000E+00  0.00000000E+00  0.00000000E+00
  0.00000000E+00  0.00000000E+00  0.00000000E+00
  0.00000000E+00  0.00000000E+00  0.00000000E+00
  0.00000000E+00  0.00000000E+00  0.00000000E+00
  0.00000000E+00  0.00000000E+00  0.00000000E+00
  0.00000000E+00  0.00000000E+00  0.00000000E+00
  0.00000000E+00  0.00000000E+00  0.00000000E+00
  0.00000000E+00  0.00000000E+00  0.00000000E+00
  0.00000000E+00  0.00000000E+00  0.00000000E+00
  0.00000000E+00  0.00000000E+00  0.00000000E+00
  0.00000000E+00  0.00000000E+00  0.00000000E+00
  0.00000000E+00  0.00000000E+00  0.00000000E+00
  0.00000000E+00  0.00000000E+00  0.00000000E+00
  0.00000000E+00  0.00000000E+00  0.00000000E+00
  0.00000000E+00  0.00000000E+00  0.00000000E+00
  0.00000000E+00  0.00000000E+00  0.00000000E+00
  0.00000000E+00  0.00000000E+00  0.00000000E+00
  0.00000000E+00  0.00000000E+00  0.00000000E+00
  0.00000000E+00  0.00000000E+00  0.00000000E+00
  0.00000000E+00  0.00000000E+00  0.00000000E+00
  0.00000000E+00  0.00000000E+00  0.00000000E+00
  0.00000000E+00  0.00000000E+00  0.00000000E+00
  0.00000000E+00  0.00000000E+00  0.00000000E+00
  0.00000000E+00  0.00000000E+00  0.00000000E+00
  0.00000000E+00  0.00000000E+00  0.00000000E+00
  0.00000000E+00  0.00000000E+00  0.00000000E+00
  0.00000000E+00  0.00000000E+00  0.00000000E+00
  0.00000000E+00  0.00000000E+00  0.00000000E+00
  0.00000000E+00  0.00000000E+00  0.00000000E+00
  0.00000000E+00  0.00000000E+00  0.00000000E+00
  0.00000000E+00  0.00000000E+00  0.00000000E+00
  0.00000000E+00  0.00000000E+00  0.00000000E+00
