supercell of POSCAR                     
   1.00398800000000     
    -6.2729611433599999    0.0082005604289200   10.0015927484000002
     3.1280384584799998    5.4363994576400003   10.0007801159999996
    -7.8567367181199996   13.6110857897000006  -10.0002683574999995
   Al   Sc   N 
    92     4    95
Direct
  0.4803880221323453  0.3151821562030790  0.5450268373400462
  0.0622190972875316  0.3962218284731449  0.7084097659071205
  0.1444817144285366  0.4788261715708728  0.8731317457275765
  0.4356293295696219  0.2697599108784345  0.9558931645355599
  0.0157161367359819  0.3525791663964242  0.1196296379250512
  0.1037763420236857  0.4424867913743142  0.2956456926283195
  0.1859064592048085  0.0229904289169269  0.4633300572240699
  0.2711899350656921  0.1050674586740001  0.6266107080157326
  0.3534329363084723  0.1872036648104114  0.7910535673703265
  0.2252230972876532  0.0618738669752545  0.0366120755304777
  0.3070781840313330  0.1467525025706067  0.1984270156139587
  0.3956626706167654  0.2477010796623773  0.3852843073633352
  0.0004959267330094  0.1667447079090607  0.6672284040301406
  0.0822094217767884  0.2488247550846694  0.8310339033296756
  0.1633043339299078  0.3314257434441217  0.9939082013119247
  0.4571347801159433  0.1185510957737463  0.0779297743340592
  0.0442552076968070  0.2126832701026302  0.2531927803780150
  0.1244254679229897  0.2940104073885479  0.4199180409064454
  0.2090672024628475  0.3754799395241406  0.5849717976738944
  0.2915190093525482  0.4575928970376495  0.7494997928768896
  0.3735657907229282  0.0397826037721032  0.9138459324526309
  0.3220886361641178  0.9904651183337521  0.3452684512303321
  0.4189503659159328  0.0840959233471281  0.5039816253071123
  0.9792982352054551  0.3144723995161911  0.5436176657086733
  0.5624472328107331  0.3961836929509559  0.7086954515332096
  0.6446080334116147  0.4787062694940758  0.8730621828892708
  0.9353461556420513  0.2695942285612318  0.9554850538844164
  0.5182902574343444  0.3515466270417704  0.1209124623310416
  0.6048531997634825  0.4407367285183952  0.2957320802983716
  0.6901331675424771  0.0219257471132579  0.4613590646853751
  0.7716517455571790  0.1045446218807555  0.6262677627456128
  0.8534762956747883  0.1870175405761643  0.7907923850598522
  0.7270557139987943  0.0626376264698294  0.0384893658527830
  0.8186374552735387  0.1419221190868214  0.2086377956256911
  0.8967371321841995  0.2316798854337065  0.3767471133909623
  0.5006041531372105  0.1664162392475248  0.6675919407714304
  0.5822833619028458  0.2486907022168410  0.8311713733279689
  0.6633545904701990  0.3313315359620361  0.9938979460802457
  0.9556313159042844  0.1197926936212212  0.0788164539774954
  0.5457731569878064  0.2117081563580996  0.2531799497286400
  0.6286498030128271  0.2931556401429773  0.4203338538340518
  0.7095477810320219  0.3754720325313912  0.5850772463769331
  0.7916313836553925  0.4576297721395903  0.7494567931820981
  0.8733838814211481  0.0399616870008543  0.9139737106796417
  0.8348487042908843  0.0051714568820032  0.3395148582014400
  0.9178237070490169  0.0856021980774315  0.5030684159951733
  0.4800759756510331  0.8134109440469999  0.5437294967404895
  0.0622418001104279  0.8960064354920760  0.7083401742764224
  0.1442466984065263  0.9785219329584081  0.8726167264870242
  0.4358602541650782  0.7690000204606733  0.9555627017157562
  0.0174039409824758  0.8512701400692393  0.1204650400363221
  0.1009697460401640  0.9408689406982518  0.2949924312560697
  0.1877193474055332  0.5252079674314203  0.4618605188140492
  0.2712683008907746  0.6049657168615568  0.6262156521890105
  0.3534944711376511  0.6869463904036834  0.7907608544798919
  0.2270268006458593  0.5626015592457989  0.0383902490318988
  0.3196669844120095  0.6409805836150042  0.2087799911698838
  0.3989101406849400  0.7267840573674178  0.3775007536790156
  0.0004949442650926  0.6667137732386195  0.6670604870624217
  0.0821484940364385  0.7485778402178767  0.8309179333217074
  0.1630271555096670  0.8308010289923260  0.9935672961133335
  0.4561712132637581  0.6193131160536112  0.0786709882097156
  0.0461172700374846  0.7119270996379043  0.2525775834445199
  0.1268903846560789  0.7939288278005847  0.4194892905749583
  0.2094423367624998  0.8750993132606268  0.5852861539770799
  0.2916034101583591  0.9575919274825466  0.7495161331637306
  0.3735101325261709  0.5399021067985998  0.9139498120925467
  0.3334394513032208  0.5065066890620216  0.3383393958852707
  0.4186913975462829  0.5849774358032249  0.5030304457624624
  0.9799677898899688  0.8144049401778162  0.5433740962129221
  0.5623726593141072  0.8959576791248693  0.7085156189549693
  0.6445465491149704  0.9787728524002404  0.8731906160820699
  0.9356448148332603  0.7694563638993088  0.9557529722426850
  0.5182527754443740  0.8501962128040503  0.1201698898919119
  0.6214225789673904  0.9264734287369834  0.2954979078438740
  0.6895168490045549  0.5216878113166032  0.4610206831067956
  0.7712716155745341  0.6047559852600912  0.6260799435707227
  0.8534722173020413  0.6870543103984872  0.7907947247502989
  0.7267632106472419  0.5624924262804214  0.0382861961361698
  0.8213092280010557  0.6395749713726460  0.2086156058149484
  0.9003470271300529  0.7294727580660876  0.3771319554082666
  0.5006660659374802  0.6665750518267757  0.6672639470443116
  0.5822981735787636  0.7486595990875244  0.8310304247062419
  0.6635441367645853  0.8308947384792447  0.9937380318901958
  0.9559021392383613  0.6201062595837143  0.0786906759638910
  0.5463191925287632  0.7095391188435372  0.2523502041892129
  0.6279000086722704  0.7914439141641054  0.4208701694662835
  0.7096877067524545  0.8751533617133518  0.5851662036362839
  0.7916023514561843  0.9575218203390818  0.7495392876635236
  0.8735056116603417  0.5400112672257578  0.9139459338061116
  0.8344538175331309  0.5045415000762503  0.3389177881700149
  0.9182333523414385  0.5850728217377181  0.5029589838579156
  0.2433483255766546  0.4158283194340200  0.1674828667605013
  0.7436265530856261  0.4134075310695380  0.1676696514516749
  0.2424210343892099  0.9116422632101191  0.1673416064211679
  0.7439930805122401  0.9139887893093146  0.1670435468861200
  0.0592568705176717  0.3938719684405640  0.5115144537380729
  0.1417704062792069  0.4758616414884713  0.6765069337233669
  0.2237592757937179  0.0583504741691812  0.8415198497962280
  0.0140639377262985  0.3486140917860112  0.9226843332927359
  0.0896000759546354  0.4290964827414925  0.0832788226182117
  0.1812598640583900  0.0282959806736258  0.2708381058815093
  0.2678410985306741  0.1044651792705125  0.4322368961401253
  0.3508936102971987  0.1848385099253633  0.5945831205184575
  0.4326243847878075  0.2667446163928062  0.7589455147454345
  0.3047172043586954  0.1422948245622635  0.0067205961779280
  0.4108792448674308  0.2049134118721980  0.1782995611347147
  0.4757304520428818  0.3130212049432401  0.3453225131198820
  0.0801686387410925  0.2462914697225074  0.6351637387882505
  0.1625684679947526  0.3287857181543004  0.8005521926816286
  0.2450392707053979  0.4121578870118725  0.9661902055057610
  0.0351144097944172  0.2014506510098926  0.0492026029878616
  0.1249049999377760  0.2927923469509039  0.2178095867354060
  0.2052544201846871  0.3720986655863285  0.3873528556847674
  0.2889997355977840  0.4547204006762087  0.5525464350340243
  0.3715014832167469  0.0373368436077826  0.7182206671829547
  0.4535910089015047  0.1198825838902593  0.8835807689954933
  0.3299620316902576  0.9977678254556324  0.1309316144037567
  0.4979001802284415  0.1631684126794966  0.4699726189130615
  0.5591216586478751  0.3933688476197901  0.5114274868449158
  0.6416624818934409  0.4756734004749106  0.6765995415056594
  0.7237518176929925  0.0582934674237308  0.8414964108537788
  0.5139699299657252  0.3486186651062724  0.9226875973984079
  0.5895793692276285  0.4289421420409880  0.0829798178650094
  0.6795326800290411  0.0274212992228229  0.2722129128907156
  0.7682242932183172  0.1032338263357175  0.4308378282830958
  0.8506996696788960  0.1847384781343564  0.5944547072105024
  0.9326455474480753  0.2667053396635453  0.7588056772872918
  0.8046556898761352  0.1427233151830052  0.0064227978223244
  0.9117485882557759  0.2064139914098035  0.1773985790015260
  0.9763318552787581  0.3127802755383797  0.3452075325398098
  0.5805299712414822  0.2457549905984635  0.6355524919412687
  0.6626975915647719  0.3285650858165070  0.8006110281476353
  0.7450451408513459  0.4122085171871035  0.9660610083874701
  0.5349572029032714  0.2016698755789079  0.0497428732133898
  0.6246727076257841  0.2920262505104816  0.2176873169597613
  0.7059906270440806  0.3720101312095778  0.3872504453787613
  0.7886055894021595  0.4549820651157575  0.5528509914930169
  0.8714305901080053  0.0371190228691916  0.7180173350421271
  0.9536274146314128  0.1196740756952721  0.8832668392221947
  0.8305023266904925  0.0008423498159544  0.1323947747248866
  0.9115228515088276  0.0820463901147477  0.3036485539088005
  0.9962489835723716  0.1652537601416384  0.4694091333772761
  0.0597653791796873  0.8942370515159013  0.5110687300732977
  0.1416425071611087  0.9758485668989181  0.6766528568282268
  0.2238418654373007  0.5582683351927642  0.8414786108126577
  0.0136824377215561  0.8485829925605586  0.9223756437440116
  0.0888466998419588  0.9290708006592610  0.0825131839572748
  0.1819568702178742  0.5273579209553176  0.2710155919127857
  0.2687296598418669  0.6037980697099670  0.4304704183614874
  0.3510184106029683  0.6844847274834009  0.5943301652650845
  0.4326370848385963  0.7666798604197282  0.7587873239980780
  0.3049071650152158  0.6425532182390441  0.0064030461896039
  0.4116577149975598  0.7064856788999023  0.1772533824597460
  0.4782443894120547  0.8113343081525315  0.3452167479728558
  0.0802486063958341  0.7463032054134686  0.6349196925204055
  0.1626069303258717  0.8283992736063226  0.8003155029047946
  0.2448883971151972  0.9113757978123189  0.9654623505296911
  0.0353397814010137  0.7013211925546869  0.0492541322661708
  0.1260523892408969  0.7929983204786666  0.2170842082190134
  0.2082642407942643  0.8739815637223103  0.3866933667039802
  0.2891781655870602  0.9547972199292474  0.5534100950962682
  0.3714223732484143  0.5370677036672902  0.7178923999221496
  0.4537081228411708  0.6195371659413951  0.8831944956679152
  0.3311309667789857  0.5005279160323184  0.1323026957543405
  0.4133659380862582  0.5808863342193717  0.3037501307980719
  0.4981179627437413  0.6638538972758141  0.4696497264911130
  0.5592383421557372  0.8936313199214894  0.5115584013957672
  0.6417422815423777  0.9756853760730024  0.6766062761168854
  0.7238672915768447  0.5582742804645946  0.8414699556821361
  0.5139171492798411  0.8486015612801410  0.9226419378281321
  0.5894959077198294  0.9286416512070659  0.0831408752530507
  0.6824238465874970  0.5267988149726435  0.2712635466745894
  0.7690682250560172  0.6026003614024518  0.4308215985915567
  0.8508689589726401  0.6846687395369884  0.5943057519330139
  0.9326551621703274  0.7666127537785030  0.7586375595822830
  0.8049238256443942  0.6424570515383934  0.0064866322232220
  0.9110391640334257  0.7073150243380155  0.1773243212644289
  0.9765374266144917  0.8134902357083647  0.3449738890925076
  0.5802805814782062  0.7461582557454705  0.6353015716211843
  0.6626330221220726  0.8287343009537409  0.8006356652989268
  0.7449095688003453  0.9123279395946895  0.9662619051270127
  0.5352600587027041  0.7011999817914329  0.0492032180683637
  0.6246751069249115  0.7924258849014620  0.2174040221090365
  0.7069989623772130  0.8707668974099221  0.3883570368926499
  0.7888526097244579  0.9549282361145117  0.5527865125952331
  0.8713469938409801  0.5372835834994802  0.7179493179347034
  0.9535782328106990  0.6198012468330845  0.8833051287598934
  0.8302451546154117  0.5008895417061083  0.1323678649775601
  0.9128886474372351  0.5817513691660778  0.3039873699566087
  0.9973258735146970  0.6646494428979466  0.4695167631651529
 
  0.00000000E+00  0.00000000E+00  0.00000000E+00
  0.00000000E+00  0.00000000E+00  0.00000000E+00
  0.00000000E+00  0.00000000E+00  0.00000000E+00
  0.00000000E+00  0.00000000E+00  0.00000000E+00
  0.00000000E+00  0.00000000E+00  0.00000000E+00
  0.00000000E+00  0.00000000E+00  0.00000000E+00
  0.00000000E+00  0.00000000E+00  0.00000000E+00
  0.00000000E+00  0.00000000E+00  0.00000000E+00
  0.00000000E+00  0.00000000E+00  0.00000000E+00
  0.00000000E+00  0.00000000E+00  0.00000000E+00
  0.00000000E+00  0.00000000E+00  0.00000000E+00
  0.00000000E+00  0.00000000E+00  0.00000000E+00
  0.00000000E+00  0.00000000E+00  0.00000000E+00
  0.00000000E+00  0.00000000E+00  0.00000000E+00
  0.00000000E+00  0.00000000E+00  0.00000000E+00
  0.00000000E+00  0.00000000E+00  0.00000000E+00
  0.00000000E+00  0.00000000E+00  0.00000000E+00
  0.00000000E+00  0.00000000E+00  0.00000000E+00
  0.00000000E+00  0.00000000E+00  0.00000000E+00
  0.00000000E+00  0.00000000E+00  0.00000000E+00
  0.00000000E+00  0.00000000E+00  0.00000000E+00
  0.00000000E+00  0.00000000E+00  0.00000000E+00
  0.00000000E+00  0.00000000E+00  0.00000000E+00
  0.00000000E+00  0.00000000E+00  0.00000000E+00
  0.00000000E+00  0.00000000E+00  0.00000000E+00
  0.00000000E+00  0.00000000E+00  0.00000000E+00
  0.00000000E+00  0.00000000E+00  0.00000000E+00
  0.00000000E+00  0.00000000E+00  0.00000000E+00
  0.00000000E+00  0.00000000E+00  0.00000000E+00
  0.00000000E+00  0.00000000E+00  0.00000000E+00
  0.00000000E+00  0.00000000E+00  0.00000000E+00
  0.00000000E+00  0.00000000E+00  0.00000000E+00
  0.00000000E+00  0.00000000E+00  0.00000000E+00
  0.00000000E+00  0.00000000E+00  0.00000000E+00
  0.00000000E+00  0.00000000E+00  0.00000000E+00
  0.00000000E+00  0.00000000E+00  0.00000000E+00
  0.00000000E+00  0.00000000E+00  0.00000000E+00
  0.00000000E+00  0.00000000E+00  0.00000000E+00
  0.00000000E+00  0.00000000E+00  0.00000000E+00
  0.00000000E+00  0.00000000E+00  0.00000000E+00
  0.00000000E+00  0.00000000E+00  0.00000000E+00
  0.00000000E+00  0.00000000E+00  0.00000000E+00
  0.00000000E+00  0.00000000E+00  0.00000000E+00
  0.00000000E+00  0.00000000E+00  0.00000000E+00
  0.00000000E+00  0.00000000E+00  0.00000000E+00
  0.00000000E+00  0.00000000E+00  0.00000000E+00
  0.00000000E+00  0.00000000E+00  0.00000000E+00
  0.00000000E+00  0.00000000E+00  0.00000000E+00
  0.00000000E+00  0.00000000E+00  0.00000000E+00
  0.00000000E+00  0.00000000E+00  0.00000000E+00
  0.00000000E+00  0.00000000E+00  0.00000000E+00
  0.00000000E+00  0.00000000E+00  0.00000000E+00
  0.00000000E+00  0.00000000E+00  0.00000000E+00
  0.00000000E+00  0.00000000E+00  0.00000000E+00
  0.00000000E+00  0.00000000E+00  0.00000000E+00
  0.00000000E+00  0.00000000E+00  0.00000000E+00
  0.00000000E+00  0.00000000E+00  0.00000000E+00
  0.00000000E+00  0.00000000E+00  0.00000000E+00
  0.00000000E+00  0.00000000E+00  0.00000000E+00
  0.00000000E+00  0.00000000E+00  0.00000000E+00
  0.00000000E+00  0.00000000E+00  0.00000000E+00
  0.00000000E+00  0.00000000E+00  0.00000000E+00
  0.00000000E+00  0.00000000E+00  0.00000000E+00
  0.00000000E+00  0.00000000E+00  0.00000000E+00
  0.00000000E+00  0.00000000E+00  0.00000000E+00
  0.00000000E+00  0.00000000E+00  0.00000000E+00
  0.00000000E+00  0.00000000E+00  0.00000000E+00
  0.00000000E+00  0.00000000E+00  0.00000000E+00
  0.00000000E+00  0.00000000E+00  0.00000000E+00
  0.00000000E+00  0.00000000E+00  0.00000000E+00
  0.00000000E+00  0.00000000E+00  0.00000000E+00
  0.00000000E+00  0.00000000E+00  0.00000000E+00
  0.00000000E+00  0.00000000E+00  0.00000000E+00
  0.00000000E+00  0.00000000E+00  0.00000000E+00
  0.00000000E+00  0.00000000E+00  0.00000000E+00
  0.00000000E+00  0.00000000E+00  0.00000000E+00
  0.00000000E+00  0.00000000E+00  0.00000000E+00
  0.00000000E+00  0.00000000E+00  0.00000000E+00
  0.00000000E+00  0.00000000E+00  0.00000000E+00
  0.00000000E+00  0.00000000E+00  0.00000000E+00
  0.00000000E+00  0.00000000E+00  0.00000000E+00
  0.00000000E+00  0.00000000E+00  0.00000000E+00
  0.00000000E+00  0.00000000E+00  0.00000000E+00
  0.00000000E+00  0.00000000E+00  0.00000000E+00
  0.00000000E+00  0.00000000E+00  0.00000000E+00
  0.00000000E+00  0.00000000E+00  0.00000000E+00
  0.00000000E+00  0.00000000E+00  0.00000000E+00
  0.00000000E+00  0.00000000E+00  0.00000000E+00
  0.00000000E+00  0.00000000E+00  0.00000000E+00
  0.00000000E+00  0.00000000E+00  0.00000000E+00
  0.00000000E+00  0.00000000E+00  0.00000000E+00
  0.00000000E+00  0.00000000E+00  0.00000000E+00
  0.00000000E+00  0.00000000E+00  0.00000000E+00
  0.00000000E+00  0.00000000E+00  0.00000000E+00
  0.00000000E+00  0.00000000E+00  0.00000000E+00
  0.00000000E+00  0.00000000E+00  0.00000000E+00
  0.00000000E+00  0.00000000E+00  0.00000000E+00
  0.00000000E+00  0.00000000E+00  0.00000000E+00
  0.00000000E+00  0.00000000E+00  0.00000000E+00
  0.00000000E+00  0.00000000E+00  0.00000000E+00
  0.00000000E+00  0.00000000E+00  0.00000000E+00
  0.00000000E+00  0.00000000E+00  0.00000000E+00
  0.00000000E+00  0.00000000E+00  0.00000000E+00
  0.00000000E+00  0.00000000E+00  0.00000000E+00
  0.00000000E+00  0.00000000E+00  0.00000000E+00
  0.00000000E+00  0.00000000E+00  0.00000000E+00
  0.00000000E+00  0.00000000E+00  0.00000000E+00
  0.00000000E+00  0.00000000E+00  0.00000000E+00
  0.00000000E+00  0.00000000E+00  0.00000000E+00
  0.00000000E+00  0.00000000E+00  0.00000000E+00
  0.00000000E+00  0.00000000E+00  0.00000000E+00
  0.00000000E+00  0.00000000E+00  0.00000000E+00
  0.00000000E+00  0.00000000E+00  0.00000000E+00
  0.00000000E+00  0.00000000E+00  0.00000000E+00
  0.00000000E+00  0.00000000E+00  0.00000000E+00
  0.00000000E+00  0.00000000E+00  0.00000000E+00
  0.00000000E+00  0.00000000E+00  0.00000000E+00
  0.00000000E+00  0.00000000E+00  0.00000000E+00
  0.00000000E+00  0.00000000E+00  0.00000000E+00
  0.00000000E+00  0.00000000E+00  0.00000000E+00
  0.00000000E+00  0.00000000E+00  0.00000000E+00
  0.00000000E+00  0.00000000E+00  0.00000000E+00
  0.00000000E+00  0.00000000E+00  0.00000000E+00
  0.00000000E+00  0.00000000E+00  0.00000000E+00
  0.00000000E+00  0.00000000E+00  0.00000000E+00
  0.00000000E+00  0.00000000E+00  0.00000000E+00
  0.00000000E+00  0.00000000E+00  0.00000000E+00
  0.00000000E+00  0.00000000E+00  0.00000000E+00
  0.00000000E+00  0.00000000E+00  0.00000000E+00
  0.00000000E+00  0.00000000E+00  0.00000000E+00
  0.00000000E+00  0.00000000E+00  0.00000000E+00
  0.00000000E+00  0.00000000E+00  0.00000000E+00
  0.00000000E+00  0.00000000E+00  0.00000000E+00
  0.00000000E+00  0.00000000E+00  0.00000000E+00
  0.00000000E+00  0.00000000E+00  0.00000000E+00
  0.00000000E+00  0.00000000E+00  0.00000000E+00
  0.00000000E+00  0.00000000E+00  0.00000000E+00
  0.00000000E+00  0.00000000E+00  0.00000000E+00
  0.00000000E+00  0.00000000E+00  0.00000000E+00
  0.00000000E+00  0.00000000E+00  0.00000000E+00
  0.00000000E+00  0.00000000E+00  0.00000000E+00
  0.00000000E+00  0.00000000E+00  0.00000000E+00
  0.00000000E+00  0.00000000E+00  0.00000000E+00
  0.00000000E+00  0.00000000E+00  0.00000000E+00
  0.00000000E+00  0.00000000E+00  0.00000000E+00
  0.00000000E+00  0.00000000E+00  0.00000000E+00
  0.00000000E+00  0.00000000E+00  0.00000000E+00
  0.00000000E+00  0.00000000E+00  0.00000000E+00
  0.00000000E+00  0.00000000E+00  0.00000000E+00
  0.00000000E+00  0.00000000E+00  0.00000000E+00
  0.00000000E+00  0.00000000E+00  0.00000000E+00
  0.00000000E+00  0.00000000E+00  0.00000000E+00
  0.00000000E+00  0.00000000E+00  0.00000000E+00
  0.00000000E+00  0.00000000E+00  0.00000000E+00
  0.00000000E+00  0.00000000E+00  0.00000000E+00
  0.00000000E+00  0.00000000E+00  0.00000000E+00
  0.00000000E+00  0.00000000E+00  0.00000000E+00
  0.00000000E+00  0.00000000E+00  0.00000000E+00
  0.00000000E+00  0.00000000E+00  0.00000000E+00
  0.00000000E+00  0.00000000E+00  0.00000000E+00
  0.00000000E+00  0.00000000E+00  0.00000000E+00
  0.00000000E+00  0.00000000E+00  0.00000000E+00
  0.00000000E+00  0.00000000E+00  0.00000000E+00
  0.00000000E+00  0.00000000E+00  0.00000000E+00
  0.00000000E+00  0.00000000E+00  0.00000000E+00
  0.00000000E+00  0.00000000E+00  0.00000000E+00
  0.00000000E+00  0.00000000E+00  0.00000000E+00
  0.00000000E+00  0.00000000E+00  0.00000000E+00
  0.00000000E+00  0.00000000E+00  0.00000000E+00
  0.00000000E+00  0.00000000E+00  0.00000000E+00
  0.00000000E+00  0.00000000E+00  0.00000000E+00
  0.00000000E+00  0.00000000E+00  0.00000000E+00
  0.00000000E+00  0.00000000E+00  0.00000000E+00
  0.00000000E+00  0.00000000E+00  0.00000000E+00
  0.00000000E+00  0.00000000E+00  0.00000000E+00
  0.00000000E+00  0.00000000E+00  0.00000000E+00
  0.00000000E+00  0.00000000E+00  0.00000000E+00
  0.00000000E+00  0.00000000E+00  0.00000000E+00
  0.00000000E+00  0.00000000E+00  0.00000000E+00
  0.00000000E+00  0.00000000E+00  0.00000000E+00
  0.00000000E+00  0.00000000E+00  0.00000000E+00
  0.00000000E+00  0.00000000E+00  0.00000000E+00
  0.00000000E+00  0.00000000E+00  0.00000000E+00
  0.00000000E+00  0.00000000E+00  0.00000000E+00
  0.00000000E+00  0.00000000E+00  0.00000000E+00
  0.00000000E+00  0.00000000E+00  0.00000000E+00
  0.00000000E+00  0.00000000E+00  0.00000000E+00
  0.00000000E+00  0.00000000E+00  0.00000000E+00
  0.00000000E+00  0.00000000E+00  0.00000000E+00
  0.00000000E+00  0.00000000E+00  0.00000000E+00
  0.00000000E+00  0.00000000E+00  0.00000000E+00
