supercell of POSCAR                     
   1.00398800000000     
    -6.2729611433599999    0.0082005604289200   10.0015927484000002
     3.1280384584799998    5.4363994576400003   10.0007801159999996
    -7.8567367181199996   13.6110857897000006  -10.0002683574999995
   Al   Sc   N 
    92     4    95
Direct
  0.4794926044493550  0.3136438918209521  0.5430219957559501
  0.0617369956714242  0.3965872443943184  0.7080049838307829
  0.1428294592050321  0.4825310738319857  0.8711337973237221
  0.4410620979578752  0.2675249820897321  0.9560777276305288
  0.9908680562541505  0.3190711362092173  0.1361143300844816
  0.1043136128656172  0.4414714012209018  0.2981728031505853
  0.1886069566239996  0.0220888799782983  0.4608417920246595
  0.2709849034145719  0.1047537739730160  0.6257182250488640
  0.3533515628274344  0.1874152371753368  0.7906205581683423
  0.2280639654909535  0.0600821180420823  0.0401363386702300
  0.3215777060905367  0.1397135972296724  0.2100203121876447
  0.3980917135662239  0.2311377257450218  0.3770873179466960
  0.9997241395399712  0.1665877591396523  0.6662464930663745
  0.0802283814211506  0.2473595416248031  0.8280054924836264
  0.1799671870410151  0.3086937456043160  0.9734781867722404
  0.4582131475369948  0.1201224559907388  0.0810023020898996
  0.0500309260078495  0.2077545419282529  0.2591247506724201
  0.1276699399271735  0.2929183576001648  0.4211208591696831
  0.2091049165428203  0.3755792223436885  0.5849372654119023
  0.2919927611474762  0.4578808768008358  0.7489815348666795
  0.3771408353978032  0.0347228945677855  0.9126370801188841
  0.3360281215080576  0.0040221450136144  0.3398602898392511
  0.4184345588525034  0.0850392566394831  0.5026134177789885
  0.9794562080530937  0.3139456925929807  0.5432762519550707
  0.5619425338116457  0.3962644486792044  0.7079798696812034
  0.6444710567421623  0.4783831564210956  0.8729926147195641
  0.9344427879051338  0.2688581156095324  0.9565404165853906
  0.5122288250011380  0.3517285661533265  0.1207525299951797
  0.6031518720259825  0.4438180135831900  0.2984907839614692
  0.6889537226165245  0.0220284984230688  0.4605521135791051
  0.7707210260288093  0.1046573547904686  0.6256067585294716
  0.8524308276605836  0.1871235845569501  0.7904326076691888
  0.7271604891906875  0.0614667595569287  0.0392701501062191
  0.8205804482352477  0.1438015833081678  0.2090523526710868
  0.8967457366881462  0.2320992204833630  0.3780286034547160
  0.5000912269181725  0.1667676904684328  0.6668353496820743
  0.5820678932177330  0.2488856540750959  0.8302372156715236
  0.6621333359770176  0.3311552564450366  0.9938688828570506
  0.9558877979918847  0.1124832320245659  0.0760478445178094
  0.5450959818956918  0.2154595615283696  0.2533915809344833
  0.6267555361900961  0.2926417555600906  0.4199584252334674
  0.7084584894255244  0.3756546133018190  0.5843966200577881
  0.7904599593553812  0.4582902844644607  0.7487432729182117
  0.8727373230333058  0.0407435023699279  0.9130445424456752
  0.8348085386941051  0.0059953431381530  0.3385538340529095
  0.9181467972209418  0.0849114357443952  0.5024582371604538
  0.4794009628058902  0.8137889963336704  0.5429049127771393
  0.0619752932555073  0.8963115142135862  0.7079875038578933
  0.1443924095678781  0.9787693442626590  0.8732909812189504
  0.4364190759977333  0.7682552015650330  0.9561761289603936
  0.0211186459653518  0.8521036759317369  0.1230596984401231
  0.1052563485953044  0.9401804844014237  0.2967399264757731
  0.1885946460417784  0.5222918285924436  0.4610336127102741
  0.2710346500062002  0.6048716790929163  0.6256833233056867
  0.3536607600944564  0.6873316529903590  0.7906427359161654
  0.2287562168636583  0.5627865921316513  0.0393196661041912
  0.3197909959780389  0.6381568630543555  0.2094779054692282
  0.3966756594475243  0.7317375430367505  0.3769839999970799
  0.0003765679163976  0.6669472099576339  0.6669376673244471
  0.0825887725228043  0.7498382641667050  0.8302959482386498
  0.1644090081602840  0.8309562493445739  0.9935300160863605
  0.4550688974482568  0.6210743304658806  0.0782699975490999
  0.0509913403330629  0.7094692418069357  0.2539265436279692
  0.1262212695592240  0.7928334637932153  0.4195174374072650
  0.2086857269605460  0.8754747749981391  0.5843529554670184
  0.2914531376553171  0.9575668246466691  0.7489645440009411
  0.3741324457457793  0.5402872740415603  0.9136166413689040
  0.3363493259004429  0.5032307970239174  0.3395037824988805
  0.4176832583975170  0.5851836410173519  0.5022386317030865
  0.9794545402482413  0.8136886005113553  0.5429405692537372
  0.5617773773885872  0.8963812775819378  0.7080672959117464
  0.6447824815651941  0.9787045893158961  0.8728848748505129
  0.9354774708021196  0.7717412850621557  0.9532673018292002
  0.5205091351487710  0.8501237148268288  0.1221353260084115
  0.6042265284913242  0.9420775802030832  0.2967970207696808
  0.6884733778090251  0.5227346411671476  0.4611427717111667
  0.7708906748004694  0.6049483555123913  0.6256755571765922
  0.8526727867021080  0.6879797806210277  0.7899765779683818
  0.7269957609154005  0.5588689677799792  0.0396071046421653
  0.8201968862652578  0.6360393897165011  0.2098655170162047
  0.8967298193802478  0.7318437645823934  0.3768481547487212
  0.4998492990800614  0.6670352954488763  0.6666614821689478
  0.5828894889526595  0.7477934840082767  0.8304582461639569
  0.6605111272476094  0.8337520127411082  0.9939998150072853
  0.9291998942647197  0.6576639318118893  0.0763238094710772
  0.5465470994722992  0.7124516817727269  0.2545168997901399
  0.6266763874907539  0.7929209261584944  0.4198027203848937
  0.7088015076294880  0.8755335659155250  0.5845004741722590
  0.7912302040922725  0.9577318593018518  0.7489705175750885
  0.8728162488960649  0.5411602293717479  0.9127925647743069
  0.8353263858033841  0.5049449665123475  0.3403762321215424
  0.9182593980975469  0.5855441789567095  0.5028796620437319
  0.2295548160949323  0.4139949128350864  0.1675702860837234
  0.7253498319984288  0.4198200725422581  0.1702216762041502
  0.2477962081502127  0.9101767202882840  0.1689424565432134
  0.7460841484565037  0.9134090221755145  0.1716906188213727
  0.0592348578559481  0.3945800084839703  0.5121955778985665
  0.1419003947056581  0.4762697873457569  0.6770219283209542
  0.2237503106944985  0.0596175282598068  0.8422100502037040
  0.0126962596332305  0.3494410336613640  0.9234761891227805
  0.1843596484784555  0.0244373795436630  0.2713523520787433
  0.2686999519312749  0.1032664172403059  0.4310417605741748
  0.3508390100481051  0.1851236706770223  0.5944026172343655
  0.4322424422297999  0.2671119004145197  0.7587822591032918
  0.3058872533662225  0.1415974301664988  0.0082441042349757
  0.4059098450983996  0.2143799179224999  0.1774392740610438
  0.4770827387489120  0.3128829811124874  0.3452552723085915
  0.0802593284954582  0.2467089653391810  0.6355507159173115
  0.1619625179932598  0.3294402512840477  0.8016100943008553
  0.2449016075387931  0.4127435441334484  0.9665575723769706
  0.0363745683063854  0.1992667972198916  0.0488694936492919
  0.1275341346216763  0.2933106947628161  0.2175570726813305
  0.2071270878604707  0.3713530817385973  0.3879186660318439
  0.2888874828442241  0.4552168943179069  0.5529556063375693
  0.3710727423974660  0.0381196923089817  0.7182773119690040
  0.4528276345593483  0.1201813564659133  0.8840510195894424
  0.3329752825866095  0.9997984577350394  0.1328876399937187
  0.4130411116718733  0.0816959505492179  0.3040363753443955
  0.4980231492393443  0.1642860199453295  0.4693743610505265
  0.5588305793297863  0.3942049293478931  0.5114648497499985
  0.6413503702436785  0.4765281179631700  0.6764373534308561
  0.7233884743057715  0.0585671883632699  0.8413104288078870
  0.5136499509494499  0.3487438774632565  0.9218397787618073
  0.5819159190678533  0.4297232196529990  0.0808119908479839
  0.6802805629019417  0.0304280177814320  0.2710300505973890
  0.7693465876379904  0.1028633136828958  0.4302860069510075
  0.8504012779654389  0.1851562487957210  0.5941328002573485
  0.9311502628416264  0.2673007011991899  0.7582331364170045
  0.8036354719815648  0.1416885387856226  0.0057544193745898
  0.9169162311717898  0.2171854607438135  0.1742904093354767
  0.9767118214912003  0.3135273823485392  0.3469389485392114
  0.5801465037697611  0.2466272624046866  0.6352103474036639
  0.6624099820561042  0.3291618990405496  0.8004129171619923
  0.7451143158587996  0.4113272507860515  0.9662442035401853
  0.5355084397729897  0.2001404367086295  0.0492896866222665
  0.6275013478746772  0.2965974551864363  0.2161323756930429
  0.7064755681297399  0.3719519806715610  0.3881838501516484
  0.7888633836434096  0.4552781584091719  0.5530470922802948
  0.8713262883054611  0.0376237750753106  0.7179085877693723
  0.9536746092241444  0.1206831500409109  0.8833759797583696
  0.8332234584711884  0.0009519578847943  0.1332677947860219
  0.9136160067531378  0.0836912742075313  0.3027283921183042
  0.9977574837350005  0.1643525151753167  0.4697667834404200
  0.0589768314072998  0.8939339795819876  0.5112553087469038
  0.1416492572522543  0.9764982575949261  0.6765990660652506
  0.2242181229032880  0.5592815671430031  0.8414278206379251
  0.0145433790746736  0.8498280392282140  0.9221944471147054
  0.0922551001208660  0.9265222198663636  0.0832085399418574
  0.1853784211435610  0.5226703709268818  0.2698316480839793
  0.2678372775522959  0.6031705155726712  0.4303248852581163
  0.3506384114923762  0.6852673837927838  0.5941534956358012
  0.4328930660612684  0.7673131065825629  0.7589090844916271
  0.3040285409708119  0.6424096836529571  0.0061158740343075
  0.4145900566954168  0.7015820579647567  0.1772843705825551
  0.4760670713420794  0.8133644747831639  0.3454961187613677
  0.0803467230448049  0.7466755929556896  0.6351486667023565
  0.1630846344623293  0.8296937620100096  0.8004753348496578
  0.2460234098908316  0.9123040139080061  0.9662949373479890
  0.0360496562976635  0.7015566575982959  0.0483699655062537
  0.1268629470517837  0.7915170938734803  0.2174155471376409
  0.2058371990276626  0.8719556754341653  0.3876431204178203
  0.2888150883606784  0.9552600336244836  0.5529131506285907
  0.3714882390432521  0.5380332765939642  0.7179761599362706
  0.4540205149905532  0.6199694365615045  0.8833876013447011
  0.3221477161118855  0.4973496314669177  0.1327840616521812
  0.4118630003479637  0.5817027617406509  0.3041958395854820
  0.4972576252566441  0.6645663479193331  0.4693107420837634
  0.5592183310377976  0.8941523179833553  0.5115323872162989
  0.6416321595159360  0.9762135924549469  0.6765622284484820
  0.7244836934085939  0.5578210628866671  0.8416010779893384
  0.5151165478410675  0.8469319093289158  0.9228455007400527
  0.5932580259105151  0.9291376243836353  0.0848883270902618
  0.6816521499875634  0.5295081030780366  0.2739379197494856
  0.7688727991463651  0.6037740921612809  0.4315683410593039
  0.8510094830620574  0.6853709052839463  0.5946462952184817
  0.9329404968435284  0.7672114509488495  0.7589012979891621
  0.8044081764834559  0.6398326044884470  0.0060722289910586
  0.9194765785018078  0.6952682571870383  0.1756630337571181
  0.9757891087725596  0.8127827556324903  0.3435022823803990
  0.5801505376508374  0.7468277380744439  0.6351945008378692
  0.6623514888508879  0.8292501190562902  0.8007112302280319
  0.7457935473192308  0.9108421212711377  0.9664663714044011
  0.5365622268224115  0.7013308063567791  0.0495567525784395
  0.6289587999117927  0.7918460124914475  0.2174579827017524
  0.7064473756538092  0.8720481483304354  0.3872995084545821
  0.7888810166360471  0.9551879703162882  0.5526775457962998
  0.8712710841304840  0.5378124487467559  0.7180905840133249
  0.9533424437712128  0.6205503133376098  0.8832272093392675
  0.8293136326780655  0.4955887648839266  0.1329891436066433
  0.9140444500415086  0.5807472577761033  0.3041864721388805
  0.9975418119702226  0.6646428524142607  0.4691372688013900
 
  0.00000000E+00  0.00000000E+00  0.00000000E+00
  0.00000000E+00  0.00000000E+00  0.00000000E+00
  0.00000000E+00  0.00000000E+00  0.00000000E+00
  0.00000000E+00  0.00000000E+00  0.00000000E+00
  0.00000000E+00  0.00000000E+00  0.00000000E+00
  0.00000000E+00  0.00000000E+00  0.00000000E+00
  0.00000000E+00  0.00000000E+00  0.00000000E+00
  0.00000000E+00  0.00000000E+00  0.00000000E+00
  0.00000000E+00  0.00000000E+00  0.00000000E+00
  0.00000000E+00  0.00000000E+00  0.00000000E+00
  0.00000000E+00  0.00000000E+00  0.00000000E+00
  0.00000000E+00  0.00000000E+00  0.00000000E+00
  0.00000000E+00  0.00000000E+00  0.00000000E+00
  0.00000000E+00  0.00000000E+00  0.00000000E+00
  0.00000000E+00  0.00000000E+00  0.00000000E+00
  0.00000000E+00  0.00000000E+00  0.00000000E+00
  0.00000000E+00  0.00000000E+00  0.00000000E+00
  0.00000000E+00  0.00000000E+00  0.00000000E+00
  0.00000000E+00  0.00000000E+00  0.00000000E+00
  0.00000000E+00  0.00000000E+00  0.00000000E+00
  0.00000000E+00  0.00000000E+00  0.00000000E+00
  0.00000000E+00  0.00000000E+00  0.00000000E+00
  0.00000000E+00  0.00000000E+00  0.00000000E+00
  0.00000000E+00  0.00000000E+00  0.00000000E+00
  0.00000000E+00  0.00000000E+00  0.00000000E+00
  0.00000000E+00  0.00000000E+00  0.00000000E+00
  0.00000000E+00  0.00000000E+00  0.00000000E+00
  0.00000000E+00  0.00000000E+00  0.00000000E+00
  0.00000000E+00  0.00000000E+00  0.00000000E+00
  0.00000000E+00  0.00000000E+00  0.00000000E+00
  0.00000000E+00  0.00000000E+00  0.00000000E+00
  0.00000000E+00  0.00000000E+00  0.00000000E+00
  0.00000000E+00  0.00000000E+00  0.00000000E+00
  0.00000000E+00  0.00000000E+00  0.00000000E+00
  0.00000000E+00  0.00000000E+00  0.00000000E+00
  0.00000000E+00  0.00000000E+00  0.00000000E+00
  0.00000000E+00  0.00000000E+00  0.00000000E+00
  0.00000000E+00  0.00000000E+00  0.00000000E+00
  0.00000000E+00  0.00000000E+00  0.00000000E+00
  0.00000000E+00  0.00000000E+00  0.00000000E+00
  0.00000000E+00  0.00000000E+00  0.00000000E+00
  0.00000000E+00  0.00000000E+00  0.00000000E+00
  0.00000000E+00  0.00000000E+00  0.00000000E+00
  0.00000000E+00  0.00000000E+00  0.00000000E+00
  0.00000000E+00  0.00000000E+00  0.00000000E+00
  0.00000000E+00  0.00000000E+00  0.00000000E+00
  0.00000000E+00  0.00000000E+00  0.00000000E+00
  0.00000000E+00  0.00000000E+00  0.00000000E+00
  0.00000000E+00  0.00000000E+00  0.00000000E+00
  0.00000000E+00  0.00000000E+00  0.00000000E+00
  0.00000000E+00  0.00000000E+00  0.00000000E+00
  0.00000000E+00  0.00000000E+00  0.00000000E+00
  0.00000000E+00  0.00000000E+00  0.00000000E+00
  0.00000000E+00  0.00000000E+00  0.00000000E+00
  0.00000000E+00  0.00000000E+00  0.00000000E+00
  0.00000000E+00  0.00000000E+00  0.00000000E+00
  0.00000000E+00  0.00000000E+00  0.00000000E+00
  0.00000000E+00  0.00000000E+00  0.00000000E+00
  0.00000000E+00  0.00000000E+00  0.00000000E+00
  0.00000000E+00  0.00000000E+00  0.00000000E+00
  0.00000000E+00  0.00000000E+00  0.00000000E+00
  0.00000000E+00  0.00000000E+00  0.00000000E+00
  0.00000000E+00  0.00000000E+00  0.00000000E+00
  0.00000000E+00  0.00000000E+00  0.00000000E+00
  0.00000000E+00  0.00000000E+00  0.00000000E+00
  0.00000000E+00  0.00000000E+00  0.00000000E+00
  0.00000000E+00  0.00000000E+00  0.00000000E+00
  0.00000000E+00  0.00000000E+00  0.00000000E+00
  0.00000000E+00  0.00000000E+00  0.00000000E+00
  0.00000000E+00  0.00000000E+00  0.00000000E+00
  0.00000000E+00  0.00000000E+00  0.00000000E+00
  0.00000000E+00  0.00000000E+00  0.00000000E+00
  0.00000000E+00  0.00000000E+00  0.00000000E+00
  0.00000000E+00  0.00000000E+00  0.00000000E+00
  0.00000000E+00  0.00000000E+00  0.00000000E+00
  0.00000000E+00  0.00000000E+00  0.00000000E+00
  0.00000000E+00  0.00000000E+00  0.00000000E+00
  0.00000000E+00  0.00000000E+00  0.00000000E+00
  0.00000000E+00  0.00000000E+00  0.00000000E+00
  0.00000000E+00  0.00000000E+00  0.00000000E+00
  0.00000000E+00  0.00000000E+00  0.00000000E+00
  0.00000000E+00  0.00000000E+00  0.00000000E+00
  0.00000000E+00  0.00000000E+00  0.00000000E+00
  0.00000000E+00  0.00000000E+00  0.00000000E+00
  0.00000000E+00  0.00000000E+00  0.00000000E+00
  0.00000000E+00  0.00000000E+00  0.00000000E+00
  0.00000000E+00  0.00000000E+00  0.00000000E+00
  0.00000000E+00  0.00000000E+00  0.00000000E+00
  0.00000000E+00  0.00000000E+00  0.00000000E+00
  0.00000000E+00  0.00000000E+00  0.00000000E+00
  0.00000000E+00  0.00000000E+00  0.00000000E+00
  0.00000000E+00  0.00000000E+00  0.00000000E+00
  0.00000000E+00  0.00000000E+00  0.00000000E+00
  0.00000000E+00  0.00000000E+00  0.00000000E+00
  0.00000000E+00  0.00000000E+00  0.00000000E+00
  0.00000000E+00  0.00000000E+00  0.00000000E+00
  0.00000000E+00  0.00000000E+00  0.00000000E+00
  0.00000000E+00  0.00000000E+00  0.00000000E+00
  0.00000000E+00  0.00000000E+00  0.00000000E+00
  0.00000000E+00  0.00000000E+00  0.00000000E+00
  0.00000000E+00  0.00000000E+00  0.00000000E+00
  0.00000000E+00  0.00000000E+00  0.00000000E+00
  0.00000000E+00  0.00000000E+00  0.00000000E+00
  0.00000000E+00  0.00000000E+00  0.00000000E+00
  0.00000000E+00  0.00000000E+00  0.00000000E+00
  0.00000000E+00  0.00000000E+00  0.00000000E+00
  0.00000000E+00  0.00000000E+00  0.00000000E+00
  0.00000000E+00  0.00000000E+00  0.00000000E+00
  0.00000000E+00  0.00000000E+00  0.00000000E+00
  0.00000000E+00  0.00000000E+00  0.00000000E+00
  0.00000000E+00  0.00000000E+00  0.00000000E+00
  0.00000000E+00  0.00000000E+00  0.00000000E+00
  0.00000000E+00  0.00000000E+00  0.00000000E+00
  0.00000000E+00  0.00000000E+00  0.00000000E+00
  0.00000000E+00  0.00000000E+00  0.00000000E+00
  0.00000000E+00  0.00000000E+00  0.00000000E+00
  0.00000000E+00  0.00000000E+00  0.00000000E+00
  0.00000000E+00  0.00000000E+00  0.00000000E+00
  0.00000000E+00  0.00000000E+00  0.00000000E+00
  0.00000000E+00  0.00000000E+00  0.00000000E+00
  0.00000000E+00  0.00000000E+00  0.00000000E+00
  0.00000000E+00  0.00000000E+00  0.00000000E+00
  0.00000000E+00  0.00000000E+00  0.00000000E+00
  0.00000000E+00  0.00000000E+00  0.00000000E+00
  0.00000000E+00  0.00000000E+00  0.00000000E+00
  0.00000000E+00  0.00000000E+00  0.00000000E+00
  0.00000000E+00  0.00000000E+00  0.00000000E+00
  0.00000000E+00  0.00000000E+00  0.00000000E+00
  0.00000000E+00  0.00000000E+00  0.00000000E+00
  0.00000000E+00  0.00000000E+00  0.00000000E+00
  0.00000000E+00  0.00000000E+00  0.00000000E+00
  0.00000000E+00  0.00000000E+00  0.00000000E+00
  0.00000000E+00  0.00000000E+00  0.00000000E+00
  0.00000000E+00  0.00000000E+00  0.00000000E+00
  0.00000000E+00  0.00000000E+00  0.00000000E+00
  0.00000000E+00  0.00000000E+00  0.00000000E+00
  0.00000000E+00  0.00000000E+00  0.00000000E+00
  0.00000000E+00  0.00000000E+00  0.00000000E+00
  0.00000000E+00  0.00000000E+00  0.00000000E+00
  0.00000000E+00  0.00000000E+00  0.00000000E+00
  0.00000000E+00  0.00000000E+00  0.00000000E+00
  0.00000000E+00  0.00000000E+00  0.00000000E+00
  0.00000000E+00  0.00000000E+00  0.00000000E+00
  0.00000000E+00  0.00000000E+00  0.00000000E+00
  0.00000000E+00  0.00000000E+00  0.00000000E+00
  0.00000000E+00  0.00000000E+00  0.00000000E+00
  0.00000000E+00  0.00000000E+00  0.00000000E+00
  0.00000000E+00  0.00000000E+00  0.00000000E+00
  0.00000000E+00  0.00000000E+00  0.00000000E+00
  0.00000000E+00  0.00000000E+00  0.00000000E+00
  0.00000000E+00  0.00000000E+00  0.00000000E+00
  0.00000000E+00  0.00000000E+00  0.00000000E+00
  0.00000000E+00  0.00000000E+00  0.00000000E+00
  0.00000000E+00  0.00000000E+00  0.00000000E+00
  0.00000000E+00  0.00000000E+00  0.00000000E+00
  0.00000000E+00  0.00000000E+00  0.00000000E+00
  0.00000000E+00  0.00000000E+00  0.00000000E+00
  0.00000000E+00  0.00000000E+00  0.00000000E+00
  0.00000000E+00  0.00000000E+00  0.00000000E+00
  0.00000000E+00  0.00000000E+00  0.00000000E+00
  0.00000000E+00  0.00000000E+00  0.00000000E+00
  0.00000000E+00  0.00000000E+00  0.00000000E+00
  0.00000000E+00  0.00000000E+00  0.00000000E+00
  0.00000000E+00  0.00000000E+00  0.00000000E+00
  0.00000000E+00  0.00000000E+00  0.00000000E+00
  0.00000000E+00  0.00000000E+00  0.00000000E+00
  0.00000000E+00  0.00000000E+00  0.00000000E+00
  0.00000000E+00  0.00000000E+00  0.00000000E+00
  0.00000000E+00  0.00000000E+00  0.00000000E+00
  0.00000000E+00  0.00000000E+00  0.00000000E+00
  0.00000000E+00  0.00000000E+00  0.00000000E+00
  0.00000000E+00  0.00000000E+00  0.00000000E+00
  0.00000000E+00  0.00000000E+00  0.00000000E+00
  0.00000000E+00  0.00000000E+00  0.00000000E+00
  0.00000000E+00  0.00000000E+00  0.00000000E+00
  0.00000000E+00  0.00000000E+00  0.00000000E+00
  0.00000000E+00  0.00000000E+00  0.00000000E+00
  0.00000000E+00  0.00000000E+00  0.00000000E+00
  0.00000000E+00  0.00000000E+00  0.00000000E+00
  0.00000000E+00  0.00000000E+00  0.00000000E+00
  0.00000000E+00  0.00000000E+00  0.00000000E+00
  0.00000000E+00  0.00000000E+00  0.00000000E+00
  0.00000000E+00  0.00000000E+00  0.00000000E+00
  0.00000000E+00  0.00000000E+00  0.00000000E+00
  0.00000000E+00  0.00000000E+00  0.00000000E+00
  0.00000000E+00  0.00000000E+00  0.00000000E+00
  0.00000000E+00  0.00000000E+00  0.00000000E+00
  0.00000000E+00  0.00000000E+00  0.00000000E+00
  0.00000000E+00  0.00000000E+00  0.00000000E+00
  0.00000000E+00  0.00000000E+00  0.00000000E+00
  0.00000000E+00  0.00000000E+00  0.00000000E+00
