supercell of POSCAR                     
   1.00398800000000     
    -6.2729611433599999    0.0082005604289200   10.0015927484000002
     3.1280384584799998    5.4363994576400003   10.0007801159999996
    -7.8567367181199996   13.6110857897000006  -10.0002683574999995
   Al   Sc   N    O 
    92     4    95     1
Direct
  0.4795203769493313  0.3136938547939110  0.5428639205147832
  0.0620695449441939  0.3957043784911036  0.7079428478787406
  0.1446023690100091  0.4785245988495745  0.8733171885459612
  0.4358896857679611  0.2694633265006203  0.9564194084222919
  0.0175437051113718  0.3517483810585844  0.1214451037965176
  0.1032773959192212  0.4428703452509595  0.2958827195766247
  0.1879575493370140  0.0222043951929720  0.4608008782871593
  0.2708983582483526  0.1044622068645538  0.6255757438124263
  0.3533993673285565  0.1867872390540128  0.7907977241883657
  0.2268410608638050  0.0621429029588114  0.0391051712587824
  0.3151167963087076  0.1427517847091977  0.2061413268369492
  0.3962336940363400  0.2367345693531036  0.3793214113594559
  0.0001697400291647  0.1664281322448957  0.6666131794386203
  0.0820934429783406  0.2486624123491410  0.8310670021815625
  0.1634362956398618  0.3312900177408125  0.9945926670402159
  0.4566019896642146  0.1193991341639915  0.0795522149990830
  0.0454669879026355  0.2121681486053930  0.2533026770788069
  0.1251020015544100  0.2932292244187238  0.4193163139216409
  0.2087845957595889  0.3751404757432510  0.5842012120561577
  0.2912610445135684  0.4573866329527903  0.7491068442602895
  0.3734630883172372  0.0399796781091055  0.9145051814738991
  0.3315692552420586  0.0007029256226545  0.3406339720351781
  0.4184764353085981  0.0842888709906688  0.5027803164039568
  0.9792541896131439  0.3136831517240282  0.5427253624320656
  0.5621381401215828  0.3955418521052394  0.7078580672147581
  0.6446712561812546  0.4784866204371738  0.8732138350942620
  0.9360235571191851  0.2693718469870205  0.9562915637438323
  0.5182254116299347  0.3516878435743251  0.1213340491388308
  0.6042243066514956  0.4417598771812266  0.2959889186659410
  0.6893888341963148  0.0218993855033460  0.4606803234067272
  0.7712352763664256  0.1042060128210522  0.6254227541314350
  0.8534665286267753  0.1867129785787469  0.7906874163163309
  0.7270313769624366  0.0626307311635586  0.0392111952881677
  0.8194647305256169  0.1416082268824965  0.2090891567023476
  0.8964979461263738  0.2314978825412553  0.3765049006725221
  0.5002093030263879  0.1662794506110856  0.6667329019228916
  0.5820391707705781  0.2486261515957295  0.8310254363756613
  0.6634499306928774  0.3313137064036766  0.9942598312367608
  0.9559523191095280  0.1199512088456203  0.0793411119803480
  0.5471739425333197  0.2121511182433764  0.2529575566580959
  0.6268096515857522  0.2925833241727105  0.4193289982707213
  0.7088637865156713  0.3750047086195067  0.5841144269495615
  0.7912500259900810  0.4573759503431134  0.7490854282093053
  0.8733570739594754  0.0399739836374309  0.9143061217089681
  0.8345870030047777  0.0047318772121514  0.3389804870828428
  0.9182381712790004  0.0849579666133096  0.5022034967155165
  0.4794759191781353  0.8133244950198417  0.5427922345032954
  0.0621956754122337  0.8956009523313000  0.7078825554105848
  0.1446426345363605  0.9784704369055319  0.8732713830260721
  0.4360789814035897  0.7691674213221660  0.9562324748893332
  0.0173824022705134  0.8514977283936460  0.1212577371390182
  0.1034336181164122  0.9419338496207885  0.2958739704078894
  0.1880959601066650  0.5226156607445276  0.4604052562504748
  0.2710530779204845  0.6042901490638783  0.6252683293586117
  0.3534476738485353  0.6866515580809320  0.7906044901734433
  0.2271938167878531  0.5623589071068977  0.0392031797330930
  0.3195473528024024  0.6408950923471082  0.2092113637467747
  0.3972439914795558  0.7305445027620721  0.3766070103205479
  0.0001821938263546  0.6663659810544402  0.6665454972778662
  0.0820267044995333  0.7485592594852477  0.8309082821610403
  0.1632188632789493  0.8310151286341423  0.9941578217918732
  0.4563262191979121  0.6195288877011578  0.0793134188999929
  0.0463785674131501  0.7121451899164555  0.2529622843979951
  0.1263758820595342  0.7930092240566324  0.4190780153791209
  0.2089533365891327  0.8750911832758064  0.5841934454260951
  0.2912988290135630  0.9574211223234173  0.7492082110601430
  0.3734319019974279  0.5398978988897483  0.9142810548383551
  0.3342022840389802  0.5050217222188067  0.3385620900201474
  0.4180242199765942  0.5848926434411297  0.5020556105138283
  0.9797236762298525  0.8134891650376943  0.5425966728166145
  0.5620920044902817  0.8956149717283068  0.7079696403308731
  0.6445491046989389  0.9785920751787671  0.8733311413798077
  0.9358571851658297  0.7693812100477260  0.9562711633128913
  0.5179349121628505  0.8509505342086499  0.1212247813921934
  0.6100064841454227  0.9363230948870580  0.2960180692025318
  0.6884781697221314  0.5217573934054016  0.4603486528909073
  0.7709190523982414  0.6042756916988026  0.6253656809899368
  0.8533638755352229  0.6867485593885760  0.7906478681541884
  0.7273480829651717  0.5623186017954680  0.0391993514019831
  0.8194497885953922  0.6415429775524686  0.2093026832805265
  0.8974793472376206  0.7311706767721375  0.3765798415797192
  0.5001695266685928  0.6663113746472860  0.6665915403297973
  0.5820516019350492  0.7486422224597646  0.8310245228980193
  0.6634910775870679  0.8311607055740851  0.9944107744429189
  0.9561197860087916  0.6200206596948661  0.0795813172917264
  0.5463751915429640  0.7105960798866775  0.2528267018095249
  0.6269079760936691  0.7919239821364243  0.4199124004118175
  0.7091091086499048  0.8748896027150437  0.5843657690791559
  0.7912868394760935  0.9573847311324855  0.7491636100491377
  0.8734693889383962  0.5399546765076053  0.9143333250275418
  0.8344948908292693  0.5045028465552335  0.3388621175560473
  0.9179580058114354  0.5848056015443390  0.5022285870150114
  0.2441365452325570  0.4135103610377726  0.1683904639849843
  0.7435499776784695  0.4134364009875995  0.1683346576964126
  0.2424465084751120  0.9118114873108212  0.1680580117306505
  0.7432229033618896  0.9142624321072645  0.1683077105999686
  0.0590611552374511  0.3936589787224136  0.5112595282015349
  0.1417501092561082  0.4756479196585843  0.6762864953756136
  0.2241335606161243  0.0583156606228670  0.8414185548070350
  0.0143679444646381  0.3486305639944973  0.9225463749710912
  0.0895452317171461  0.4291560338972005  0.0833349320115531
  0.1831532911060947  0.0282147399695845  0.2712631864333375
  0.2690222908672837  0.1035798833257999  0.4306149270656050
  0.3507413076811758  0.1846261758789538  0.5941638702236247
  0.4327532153306208  0.2666009840886261  0.7585491093884613
  0.3051188612183040  0.1423792227016705  0.0068897759284141
  0.4119716835009726  0.2044854994773431  0.1787021293326490
  0.4752997197208302  0.3117540853966787  0.3447871229971682
  0.0800665649576189  0.2462110824777355  0.6349285748877023
  0.1626398208794768  0.3288452411227070  0.8003348530017220
  0.2451601069516798  0.4122709775157034  0.9660764899825409
  0.0355164028984589  0.2017222979646007  0.0494924644428139
  0.1270180378802550  0.2921390269628077  0.2182109936581114
  0.2063124869494501  0.3705553455000512  0.3867424915093238
  0.2886395460368973  0.4544520509322112  0.5522796692766008
  0.3713425393868732  0.0373442228391028  0.7178210697435787
  0.4536525964010352  0.1200200568951217  0.8833506303794891
  0.3306325509972083  0.9993086963285904  0.1330851398595740
  0.4972532967658054  0.1631355548090809  0.4685823536337708
  0.5587612992135647  0.3934543084713624  0.5110896695421232
  0.6416958794017731  0.4755226663165928  0.6762549223677752
  0.7240110286196142  0.0583013568767825  0.8412718320464450
  0.5141523593361157  0.3485998733044866  0.9224273451581269
  0.5895717490459518  0.4290592120180605  0.0827976456203388
  0.6796918984134876  0.0280141456572522  0.2722341727775870
  0.7683698425319250  0.1031268423355201  0.4307600737951915
  0.8507690289020076  0.1845299609669340  0.5941137429294585
  0.9328277166648391  0.2666028690875422  0.7585722491112676
  0.8048923494782869  0.1427159759788168  0.0063505948996365
  0.9121818232655343  0.2064599980300059  0.1773763638124919
  0.9758070201097411  0.3129128403305330  0.3451019551017609
  0.5801136110388683  0.2457843425288360  0.6347450613131400
  0.6626604068222477  0.3287388419723598  0.8002487119696369
  0.7453576698909146  0.4123647437027174  0.9659764550557597
  0.5350606787718846  0.2017003630592953  0.0496686332430869
  0.6257350960621366  0.2929507088996033  0.2174215039148208
  0.7056356719547168  0.3717047822521096  0.3872039732268746
  0.7884929121056032  0.4547176737097232  0.5525399935516759
  0.8713876701203702  0.0372303243335494  0.7177333372654431
  0.9538014887751061  0.1199417003176109  0.8832297333067487
  0.8303562269277123  0.0008428062706400  0.1325189598693797
  0.9123909277377535  0.0816789616887021  0.3037519137686857
  0.9973202075237069  0.1644176291743804  0.4691153276554942
  0.0592028181668667  0.8937287190293901  0.5111205960418559
  0.1417930102734601  0.9756768572811865  0.6763376917204624
  0.2240627086254889  0.5582519594601081  0.8412419030323264
  0.0140544373951101  0.8485945999861926  0.9222434904727379
  0.0885950344430100  0.9292340658355158  0.0824571198623474
  0.1818336803057434  0.5277036304305724  0.2711409149858923
  0.2682982496568940  0.6030491236336601  0.4304761855420480
  0.3508120063441424  0.6845132342070102  0.5940165712933236
  0.4327979820516390  0.7665809385936697  0.7585331350803060
  0.3050728074539109  0.6425163493174892  0.0063741454070509
  0.4120091390161065  0.7060721782426072  0.1772830806987713
  0.4765963712556953  0.8137557548302254  0.3448625483529142
  0.0801913291474179  0.7460508590221764  0.6348121941610145
  0.1627224552444062  0.8287685884477796  0.8002910739607998
  0.2453261276587355  0.9121780047536063  0.9660905286970518
  0.0354065561240304  0.7015071326966336  0.0492806862997597
  0.1262536686930815  0.7936994026071602  0.2172142282722191
  0.2065857290658570  0.8724018538446430  0.3870701287048348
  0.2887065587634297  0.9549686340208154  0.5526048780913229
  0.3713465673150154  0.5371704327100773  0.7175969080598961
  0.4537716895612007  0.6198778306224284  0.8831334628335128
  0.3309681128914690  0.5001207998266324  0.1324471226363428
  0.4129832209588997  0.5813772373023269  0.3039830728865098
  0.4973569904559270  0.6642793592180141  0.4690880816606509
  0.5590481796340683  0.8935811989073272  0.5114328228581542
  0.6417205745732204  0.9756272218750937  0.6763658917702386
  0.7241116515473962  0.5582778229948602  0.8412568800184843
  0.5142197713642673  0.8486284971983125  0.9224863099293117
  0.5892881456719508  0.9288639640647389  0.0830841544141805
  0.6821370297241600  0.5274407506136214  0.2714096668001105
  0.7684256999137418  0.6028765890723662  0.4307435006214320
  0.8507722714136250  0.6844706303214565  0.5941281963952463
  0.9327704756812025  0.7665728257262785  0.7584497438752749
  0.8052181539348311  0.6425059587069342  0.0064528479024304
  0.9110647197276762  0.7075374746048055  0.1774541471465980
  0.9757611433279791  0.8132740251343122  0.3449602250851882
  0.5800885274854650  0.7460931689672918  0.6349747667108900
  0.6626346666181462  0.8288639089916146  0.8003600019292278
  0.7451126129176302  0.9124571232220262  0.9660917288775153
  0.5355191797242540  0.7014774621622024  0.0493426177206402
  0.6241653401436906  0.7945060738815641  0.2178777633048909
  0.7049478098655584  0.8723152884068952  0.3875486466127569
  0.7887211372362444  0.9545761957222183  0.5525760684558207
  0.8712866790057063  0.5372979722341071  0.7177054132914762
  0.9536897049245070  0.6199836138989667  0.8831564407129733
  0.8306789488890161  0.5008762576841406  0.1327399437791712
  0.9123345569197028  0.5819851420951423  0.3040073677572508
  0.9971225645654798  0.6641308197196167  0.4690498794161186
  0.4124611503078484  0.0806266242507547  0.3045142396632841
 
  0.00000000E+00  0.00000000E+00  0.00000000E+00
  0.00000000E+00  0.00000000E+00  0.00000000E+00
  0.00000000E+00  0.00000000E+00  0.00000000E+00
  0.00000000E+00  0.00000000E+00  0.00000000E+00
  0.00000000E+00  0.00000000E+00  0.00000000E+00
  0.00000000E+00  0.00000000E+00  0.00000000E+00
  0.00000000E+00  0.00000000E+00  0.00000000E+00
  0.00000000E+00  0.00000000E+00  0.00000000E+00
  0.00000000E+00  0.00000000E+00  0.00000000E+00
  0.00000000E+00  0.00000000E+00  0.00000000E+00
  0.00000000E+00  0.00000000E+00  0.00000000E+00
  0.00000000E+00  0.00000000E+00  0.00000000E+00
  0.00000000E+00  0.00000000E+00  0.00000000E+00
  0.00000000E+00  0.00000000E+00  0.00000000E+00
  0.00000000E+00  0.00000000E+00  0.00000000E+00
  0.00000000E+00  0.00000000E+00  0.00000000E+00
  0.00000000E+00  0.00000000E+00  0.00000000E+00
  0.00000000E+00  0.00000000E+00  0.00000000E+00
  0.00000000E+00  0.00000000E+00  0.00000000E+00
  0.00000000E+00  0.00000000E+00  0.00000000E+00
  0.00000000E+00  0.00000000E+00  0.00000000E+00
  0.00000000E+00  0.00000000E+00  0.00000000E+00
  0.00000000E+00  0.00000000E+00  0.00000000E+00
  0.00000000E+00  0.00000000E+00  0.00000000E+00
  0.00000000E+00  0.00000000E+00  0.00000000E+00
  0.00000000E+00  0.00000000E+00  0.00000000E+00
  0.00000000E+00  0.00000000E+00  0.00000000E+00
  0.00000000E+00  0.00000000E+00  0.00000000E+00
  0.00000000E+00  0.00000000E+00  0.00000000E+00
  0.00000000E+00  0.00000000E+00  0.00000000E+00
  0.00000000E+00  0.00000000E+00  0.00000000E+00
  0.00000000E+00  0.00000000E+00  0.00000000E+00
  0.00000000E+00  0.00000000E+00  0.00000000E+00
  0.00000000E+00  0.00000000E+00  0.00000000E+00
  0.00000000E+00  0.00000000E+00  0.00000000E+00
  0.00000000E+00  0.00000000E+00  0.00000000E+00
  0.00000000E+00  0.00000000E+00  0.00000000E+00
  0.00000000E+00  0.00000000E+00  0.00000000E+00
  0.00000000E+00  0.00000000E+00  0.00000000E+00
  0.00000000E+00  0.00000000E+00  0.00000000E+00
  0.00000000E+00  0.00000000E+00  0.00000000E+00
  0.00000000E+00  0.00000000E+00  0.00000000E+00
  0.00000000E+00  0.00000000E+00  0.00000000E+00
  0.00000000E+00  0.00000000E+00  0.00000000E+00
  0.00000000E+00  0.00000000E+00  0.00000000E+00
  0.00000000E+00  0.00000000E+00  0.00000000E+00
  0.00000000E+00  0.00000000E+00  0.00000000E+00
  0.00000000E+00  0.00000000E+00  0.00000000E+00
  0.00000000E+00  0.00000000E+00  0.00000000E+00
  0.00000000E+00  0.00000000E+00  0.00000000E+00
  0.00000000E+00  0.00000000E+00  0.00000000E+00
  0.00000000E+00  0.00000000E+00  0.00000000E+00
  0.00000000E+00  0.00000000E+00  0.00000000E+00
  0.00000000E+00  0.00000000E+00  0.00000000E+00
  0.00000000E+00  0.00000000E+00  0.00000000E+00
  0.00000000E+00  0.00000000E+00  0.00000000E+00
  0.00000000E+00  0.00000000E+00  0.00000000E+00
  0.00000000E+00  0.00000000E+00  0.00000000E+00
  0.00000000E+00  0.00000000E+00  0.00000000E+00
  0.00000000E+00  0.00000000E+00  0.00000000E+00
  0.00000000E+00  0.00000000E+00  0.00000000E+00
  0.00000000E+00  0.00000000E+00  0.00000000E+00
  0.00000000E+00  0.00000000E+00  0.00000000E+00
  0.00000000E+00  0.00000000E+00  0.00000000E+00
  0.00000000E+00  0.00000000E+00  0.00000000E+00
  0.00000000E+00  0.00000000E+00  0.00000000E+00
  0.00000000E+00  0.00000000E+00  0.00000000E+00
  0.00000000E+00  0.00000000E+00  0.00000000E+00
  0.00000000E+00  0.00000000E+00  0.00000000E+00
  0.00000000E+00  0.00000000E+00  0.00000000E+00
  0.00000000E+00  0.00000000E+00  0.00000000E+00
  0.00000000E+00  0.00000000E+00  0.00000000E+00
  0.00000000E+00  0.00000000E+00  0.00000000E+00
  0.00000000E+00  0.00000000E+00  0.00000000E+00
  0.00000000E+00  0.00000000E+00  0.00000000E+00
  0.00000000E+00  0.00000000E+00  0.00000000E+00
  0.00000000E+00  0.00000000E+00  0.00000000E+00
  0.00000000E+00  0.00000000E+00  0.00000000E+00
  0.00000000E+00  0.00000000E+00  0.00000000E+00
  0.00000000E+00  0.00000000E+00  0.00000000E+00
  0.00000000E+00  0.00000000E+00  0.00000000E+00
  0.00000000E+00  0.00000000E+00  0.00000000E+00
  0.00000000E+00  0.00000000E+00  0.00000000E+00
  0.00000000E+00  0.00000000E+00  0.00000000E+00
  0.00000000E+00  0.00000000E+00  0.00000000E+00
  0.00000000E+00  0.00000000E+00  0.00000000E+00
  0.00000000E+00  0.00000000E+00  0.00000000E+00
  0.00000000E+00  0.00000000E+00  0.00000000E+00
  0.00000000E+00  0.00000000E+00  0.00000000E+00
  0.00000000E+00  0.00000000E+00  0.00000000E+00
  0.00000000E+00  0.00000000E+00  0.00000000E+00
  0.00000000E+00  0.00000000E+00  0.00000000E+00
  0.00000000E+00  0.00000000E+00  0.00000000E+00
  0.00000000E+00  0.00000000E+00  0.00000000E+00
  0.00000000E+00  0.00000000E+00  0.00000000E+00
  0.00000000E+00  0.00000000E+00  0.00000000E+00
  0.00000000E+00  0.00000000E+00  0.00000000E+00
  0.00000000E+00  0.00000000E+00  0.00000000E+00
  0.00000000E+00  0.00000000E+00  0.00000000E+00
  0.00000000E+00  0.00000000E+00  0.00000000E+00
  0.00000000E+00  0.00000000E+00  0.00000000E+00
  0.00000000E+00  0.00000000E+00  0.00000000E+00
  0.00000000E+00  0.00000000E+00  0.00000000E+00
  0.00000000E+00  0.00000000E+00  0.00000000E+00
  0.00000000E+00  0.00000000E+00  0.00000000E+00
  0.00000000E+00  0.00000000E+00  0.00000000E+00
  0.00000000E+00  0.00000000E+00  0.00000000E+00
  0.00000000E+00  0.00000000E+00  0.00000000E+00
  0.00000000E+00  0.00000000E+00  0.00000000E+00
  0.00000000E+00  0.00000000E+00  0.00000000E+00
  0.00000000E+00  0.00000000E+00  0.00000000E+00
  0.00000000E+00  0.00000000E+00  0.00000000E+00
  0.00000000E+00  0.00000000E+00  0.00000000E+00
  0.00000000E+00  0.00000000E+00  0.00000000E+00
  0.00000000E+00  0.00000000E+00  0.00000000E+00
  0.00000000E+00  0.00000000E+00  0.00000000E+00
  0.00000000E+00  0.00000000E+00  0.00000000E+00
  0.00000000E+00  0.00000000E+00  0.00000000E+00
  0.00000000E+00  0.00000000E+00  0.00000000E+00
  0.00000000E+00  0.00000000E+00  0.00000000E+00
  0.00000000E+00  0.00000000E+00  0.00000000E+00
  0.00000000E+00  0.00000000E+00  0.00000000E+00
  0.00000000E+00  0.00000000E+00  0.00000000E+00
  0.00000000E+00  0.00000000E+00  0.00000000E+00
  0.00000000E+00  0.00000000E+00  0.00000000E+00
  0.00000000E+00  0.00000000E+00  0.00000000E+00
  0.00000000E+00  0.00000000E+00  0.00000000E+00
  0.00000000E+00  0.00000000E+00  0.00000000E+00
  0.00000000E+00  0.00000000E+00  0.00000000E+00
  0.00000000E+00  0.00000000E+00  0.00000000E+00
  0.00000000E+00  0.00000000E+00  0.00000000E+00
  0.00000000E+00  0.00000000E+00  0.00000000E+00
  0.00000000E+00  0.00000000E+00  0.00000000E+00
  0.00000000E+00  0.00000000E+00  0.00000000E+00
  0.00000000E+00  0.00000000E+00  0.00000000E+00
  0.00000000E+00  0.00000000E+00  0.00000000E+00
  0.00000000E+00  0.00000000E+00  0.00000000E+00
  0.00000000E+00  0.00000000E+00  0.00000000E+00
  0.00000000E+00  0.00000000E+00  0.00000000E+00
  0.00000000E+00  0.00000000E+00  0.00000000E+00
  0.00000000E+00  0.00000000E+00  0.00000000E+00
  0.00000000E+00  0.00000000E+00  0.00000000E+00
  0.00000000E+00  0.00000000E+00  0.00000000E+00
  0.00000000E+00  0.00000000E+00  0.00000000E+00
  0.00000000E+00  0.00000000E+00  0.00000000E+00
  0.00000000E+00  0.00000000E+00  0.00000000E+00
  0.00000000E+00  0.00000000E+00  0.00000000E+00
  0.00000000E+00  0.00000000E+00  0.00000000E+00
  0.00000000E+00  0.00000000E+00  0.00000000E+00
  0.00000000E+00  0.00000000E+00  0.00000000E+00
  0.00000000E+00  0.00000000E+00  0.00000000E+00
  0.00000000E+00  0.00000000E+00  0.00000000E+00
  0.00000000E+00  0.00000000E+00  0.00000000E+00
  0.00000000E+00  0.00000000E+00  0.00000000E+00
  0.00000000E+00  0.00000000E+00  0.00000000E+00
  0.00000000E+00  0.00000000E+00  0.00000000E+00
  0.00000000E+00  0.00000000E+00  0.00000000E+00
  0.00000000E+00  0.00000000E+00  0.00000000E+00
  0.00000000E+00  0.00000000E+00  0.00000000E+00
  0.00000000E+00  0.00000000E+00  0.00000000E+00
  0.00000000E+00  0.00000000E+00  0.00000000E+00
  0.00000000E+00  0.00000000E+00  0.00000000E+00
  0.00000000E+00  0.00000000E+00  0.00000000E+00
  0.00000000E+00  0.00000000E+00  0.00000000E+00
  0.00000000E+00  0.00000000E+00  0.00000000E+00
  0.00000000E+00  0.00000000E+00  0.00000000E+00
  0.00000000E+00  0.00000000E+00  0.00000000E+00
  0.00000000E+00  0.00000000E+00  0.00000000E+00
  0.00000000E+00  0.00000000E+00  0.00000000E+00
  0.00000000E+00  0.00000000E+00  0.00000000E+00
  0.00000000E+00  0.00000000E+00  0.00000000E+00
  0.00000000E+00  0.00000000E+00  0.00000000E+00
  0.00000000E+00  0.00000000E+00  0.00000000E+00
  0.00000000E+00  0.00000000E+00  0.00000000E+00
  0.00000000E+00  0.00000000E+00  0.00000000E+00
  0.00000000E+00  0.00000000E+00  0.00000000E+00
  0.00000000E+00  0.00000000E+00  0.00000000E+00
  0.00000000E+00  0.00000000E+00  0.00000000E+00
  0.00000000E+00  0.00000000E+00  0.00000000E+00
  0.00000000E+00  0.00000000E+00  0.00000000E+00
  0.00000000E+00  0.00000000E+00  0.00000000E+00
  0.00000000E+00  0.00000000E+00  0.00000000E+00
  0.00000000E+00  0.00000000E+00  0.00000000E+00
  0.00000000E+00  0.00000000E+00  0.00000000E+00
  0.00000000E+00  0.00000000E+00  0.00000000E+00
  0.00000000E+00  0.00000000E+00  0.00000000E+00
  0.00000000E+00  0.00000000E+00  0.00000000E+00
  0.00000000E+00  0.00000000E+00  0.00000000E+00
  0.00000000E+00  0.00000000E+00  0.00000000E+00
  0.00000000E+00  0.00000000E+00  0.00000000E+00
  0.00000000E+00  0.00000000E+00  0.00000000E+00
  0.00000000E+00  0.00000000E+00  0.00000000E+00
