supercell of POSCAR                     
   1.00398800000000     
    -6.2729611433599999    0.0082005604289200   10.0015927484000002
     3.1280384584799998    5.4363994576400003   10.0007801159999996
    -7.8567367181199996   13.6110857897000006  -10.0002683574999995
   Al   Sc   N 
    91     4    96
Direct
  0.4791025014498871  0.3149583225715062  0.5435740637956172
  0.0618061478119856  0.3960887782876270  0.7079173100242073
  0.1445132399621301  0.4788291948467602  0.8729810047425133
  0.4353351672344132  0.2693755691679129  0.9554831350098070
  0.0140138244430332  0.3526828264344388  0.1189936379885239
  0.1022362504284331  0.4459370098392696  0.2985620387527916
  0.1874569194941529  0.0222392301775898  0.4610255864021724
  0.2706465102985192  0.1047128577998180  0.6254272271197721
  0.3531703584245633  0.1870425683931671  0.7902102284592445
  0.2242936511099458  0.0645656309056477  0.0351521105325716
  0.3961110952526212  0.2361525290847482  0.3784603448866051
  0.9999104214569243  0.1666657933359801  0.6665400631941338
  0.0819042586560812  0.2486232891925013  0.8304817111508669
  0.1629593581320421  0.3319273741036071  0.9935498989718639
  0.4584768467626006  0.1144671283858045  0.0766177237768488
  0.0465269688531151  0.2130227814062025  0.2537195627751387
  0.1256287657213591  0.2931106653155098  0.4199155682448250
  0.2084921787982807  0.3756149596922924  0.5845321301603121
  0.2910882990749570  0.4578360344252630  0.7492185877657036
  0.3736477500691606  0.0394592982611286  0.9127958937478340
  0.3326765207051139  0.0038139497720380  0.3403843528804416
  0.4173300671213838  0.0855542290068385  0.5025035193733842
  0.9790515735791985  0.3139815054039232  0.5429002146307411
  0.5616943908532974  0.3963198943667194  0.7080503498852622
  0.6437781473310409  0.4787856686124528  0.8730371232135923
  0.9344064540742423  0.2696166500620620  0.9551188409481313
  0.5155694182104824  0.3492055555182958  0.1226025240322102
  0.6037827808449592  0.4426589668758609  0.2967809578850904
  0.6876555627749639  0.0227157611898221  0.4604903856655795
  0.7705066806052372  0.1047937908467844  0.6253810870903322
  0.8527189514673452  0.1871459573853258  0.7902085622722410
  0.7286624015673127  0.0609863309458305  0.0389248752586226
  0.8210105839081407  0.1405604300142755  0.2096538689364138
  0.8968347285239133  0.2316292401735609  0.3769025279650009
  0.4999084616522040  0.1667799075414464  0.6667082599779803
  0.5819152416903748  0.2487826200658674  0.8308641986093050
  0.6621722281199851  0.3312934052373961  0.9949009629139951
  0.9565633115238015  0.1191595099943328  0.0795546008749426
  0.5515714423956197  0.2097354301581191  0.2551238682441124
  0.6268325560280772  0.2932169718874036  0.4199504840289592
  0.7088118935569199  0.3755366275645997  0.5844740183690789
  0.7910615443588753  0.4576610428108339  0.7490540651141018
  0.8734060942716084  0.0398301697636754  0.9140841168713649
  0.8361780162057570  0.0038137203329427  0.3395975710339485
  0.9176430160762763  0.0851767330118420  0.5024779615108770
  0.4790648464489351  0.8139664461647413  0.5427900395842826
  0.0615141926239389  0.8960789067552213  0.7076575306820700
  0.1434983175906837  0.9785866112067509  0.8719487495859326
  0.4355630377220407  0.7696657376051164  0.9560218081215126
  0.0196912605253132  0.8509724749554692  0.1220876274284919
  0.1040297869802487  0.9417538712476627  0.2963474494323179
  0.1880290738867032  0.5232837388534364  0.4613173831097583
  0.2705254518819729  0.6050840904178258  0.6257430147396619
  0.3530105853754577  0.6870394954175012  0.7906447005670074
  0.2272031345398702  0.5607830560043610  0.0403869905076064
  0.3175515061613439  0.6405922786826963  0.2093660140530886
  0.3965475663987590  0.7310652108678184  0.3769338543689074
  0.9998204656379244  0.6668590534509491  0.6667383611440982
  0.0818964136912257  0.7488502388975107  0.8310330279408831
  0.1636498552308936  0.8309686108783794  0.9949480770150458
  0.4553638250806529  0.6199504673354852  0.0800950209671356
  0.0466003381328122  0.7110230152264947  0.2532209341950562
  0.1265060430409832  0.7927301967392424  0.4195448484891102
  0.2086059160895957  0.8752744285086962  0.5843224583364517
  0.2910983512060668  0.9574189527280552  0.7486650463860443
  0.3728293710159249  0.5402577101323658  0.9146809892513872
  0.3348159512741944  0.5050934734511898  0.3391584780740260
  0.4179651533825464  0.5853018708920104  0.5025684470977012
  0.9789146146354142  0.8142455346116009  0.5429070938157281
  0.5619160258586362  0.8959749716206744  0.7078324739044604
  0.6449198641731471  0.9784872486203682  0.8728237796579705
  0.9368739706202973  0.7687828611588046  0.9562079111635171
  0.5242236986097453  0.8477138986704844  0.1208388505356837
  0.6073053742395231  0.9392048099049930  0.2952962828567820
  0.6881768320457553  0.5225244119974377  0.4608160883674302
  0.7706784994743003  0.6048458449264942  0.6255575180549400
  0.8532925281250812  0.6870440704953111  0.7905780059222423
  0.7272442381533537  0.5616838457213191  0.0381325647341697
  0.8194947553498722  0.6403753708122935  0.2092625676538802
  0.8970264369517622  0.7324269591128143  0.3773741227415428
  0.4999589208575372  0.6667296737871879  0.6666403735597370
  0.5820240809608208  0.7484683031507444  0.8306135069643545
  0.6654129439362819  0.8292813123842819  0.9930794766974529
  0.9565760863549642  0.6198145701879980  0.0796341042676190
  0.5452112507872613  0.7115852836536405  0.2532306300599316
  0.6254557856778931  0.7930801504615630  0.4193248161779266
  0.7083856527066459  0.8756073832936622  0.5842056060798910
  0.7910964301532459  0.9576805860536695  0.7489915135490364
  0.8737532323862993  0.5395341167933196  0.9137373759947920
  0.8339766396755763  0.5048730669528183  0.3394156308807510
  0.9174615421566372  0.5854538611982818  0.5025039376849918
  0.2420165678328345  0.4032476920018766  0.1708492561458002
  0.7421116749677807  0.4124492414307923  0.1687194435379595
  0.2449355430567337  0.9181446059193874  0.1696461957487614
  0.7441611083199433  0.9144264339340396  0.1683911442516148
  0.0584256263472298  0.3945192536295536  0.5118961691596056
  0.1413028662974298  0.4762124797758034  0.6766436388640358
  0.2234797901634593  0.0581413024735085  0.8406212676706275
  0.0137642209503639  0.3482233713736491  0.9217994466223587
  0.0887710771883334  0.4286322173158084  0.0819477908668844
  0.1811579737282614  0.0293238882503886  0.2724876531241804
  0.2668186809694149  0.1038960026816014  0.4321188371656248
  0.3502995060562739  0.1851745895369987  0.5945671691552405
  0.4324439904689186  0.2670058923922269  0.7585665263988020
  0.3049162608292093  0.1430584335351170  0.0044428381210295
  0.4301669208793371  0.2086208652208512  0.1720315850445004
  0.4766267072683945  0.3136111109207320  0.3455535958930511
  0.0798285464063468  0.2464021211691474  0.6351247002024607
  0.1625135456333169  0.3288614321300827  0.8002183164800698
  0.2449907976022914  0.4125075228799417  0.9656203157973451
  0.0340918529125815  0.2017217558616551  0.0478846592943114
  0.1016691386576198  0.3139908446073107  0.2177865172228337
  0.2052624841704755  0.3731344584302008  0.3885455834059215
  0.2882879821187956  0.4554631005638043  0.5532485205121347
  0.3711057530216237  0.0373369932730583  0.7176486585611670
  0.4538702800193661  0.1196495021380173  0.8824704386006488
  0.3351752915738402  0.9848042158297403  0.1205104047601111
  0.4252390667596302  0.0747854550786187  0.3169537361034500
  0.4970856116541071  0.1655543960527410  0.4706631435889506
  0.5588251771114727  0.3942397370382551  0.5118113214642506
  0.6413107261658197  0.4760670129984632  0.6765175218586563
  0.7239191158526310  0.0584622658987186  0.8411233555860775
  0.5138173503774723  0.3487310800110279  0.9222217186343045
  0.5869456133505224  0.4285367335125088  0.0833672769629743
  0.6847685791170832  0.0255881679547798  0.2720997209778488
  0.7681290147660107  0.1033981845208558  0.4311037131196898
  0.8502830766962362  0.1849842638890493  0.5943773560586294
  0.9322719141589602  0.2668134411942304  0.7583721427810133
  0.8053357973651885  0.1423735198329226  0.0062720319740279
  0.9125497387941337  0.2060720868992263  0.1773174933641144
  0.9754504265216752  0.3136441670269576  0.3459351898289142
  0.5798817612729295  0.2465730501780143  0.6353826658594244
  0.6621657601267117  0.3290139405866341  0.8002336520962814
  0.7440687098395742  0.4119095423771952  0.9656167309162527
  0.5367689313301156  0.2002749998850604  0.0477515674493176
  0.6286749971570558  0.2933972008011736  0.2181389015231261
  0.7060255077862436  0.3722998449452817  0.3879075200728295
  0.7883939810209526  0.4551693819865079  0.5530017324895908
  0.8708643846592352  0.0374863854122722  0.7175882865235721
  0.9530183819766407  0.1198391183105301  0.8825046192795938
  0.8319362528374867  0.0004252084404897  0.1323035209689749
  0.9130271418143110  0.0816379706888881  0.3044962716446804
  0.9965764392891217  0.1646561950801910  0.4697137591313236
  0.0587240888083969  0.8940165335988510  0.5115521321948293
  0.1411736330471953  0.9759290563558451  0.6763144276301674
  0.2238335972053775  0.5585847017040564  0.8413585849004122
  0.0144384395777166  0.8486764244685006  0.9226120549292105
  0.0911542393841032  0.9290740497700298  0.0838221517181665
  0.1824126213032784  0.5274423002787927  0.2723296246035787
  0.2685539681504494  0.6032262930423684  0.4312610928352356
  0.3503810412208210  0.6849272391675996  0.5944795401243397
  0.4323557175865389  0.7667379610815246  0.7585269031746122
  0.3047010827143311  0.6419245284351973  0.0070274193348752
  0.4095598496747357  0.7074274930572955  0.1775841772251567
  0.4755352388092504  0.8119818406207031  0.3454387850110905
  0.0795964352703109  0.7465006704248438  0.6350425278210849
  0.1620414020337293  0.8285708759378565  0.7997867890004926
  0.2440392228808577  0.9113694756839053  0.9641600787066409
  0.0354259941737993  0.7018438095050499  0.0494561076314852
  0.1250787934062387  0.7931460579712066  0.2180875999924723
  0.2059501721595822  0.8720604910921281  0.3877848886781692
  0.2883558364265824  0.9548420615209068  0.5530358073869834
  0.3709911554319021  0.5375947439132531  0.7179046120353760
  0.4530390563482953  0.6200704490633697  0.8831914768632529
  0.3281118277922275  0.4974115955065912  0.1338407540457709
  0.4124660654836774  0.5818764004086034  0.3042354392692488
  0.4970553394851649  0.6644528527823113  0.4696727506293925
  0.5583535427205888  0.8943810397560981  0.5114583067980334
  0.6413315072685037  0.9760568562029022  0.6764186514810575
  0.7236390526476910  0.5581887238700176  0.8412031649072702
  0.5141998817589837  0.8483986643864156  0.9220476652340963
  0.5937581485088401  0.9256337260687388  0.0816230703200631
  0.6818561430297763  0.5279010906809560  0.2716743383537619
  0.7677776813352537  0.6037473378392448  0.4312760249876035
  0.8502202715007101  0.6852374137542796  0.5944728080868344
  0.9324363941686471  0.7669831220082060  0.7586839065974473
  0.8060185932340147  0.6411404605571676  0.0057724926335183
  0.9114230608683371  0.7061714640701737  0.1774466412186797
  0.9766653488307497  0.8124677414138404  0.3455963248298772
  0.5797894567618158  0.7464198426879278  0.6350595346945127
  0.6624641898523151  0.8287138321364793  0.8001532119032788
  0.7460734387141983  0.9116111786605430  0.9652965828838731
  0.5357938587169429  0.6998963056904230  0.0487023914705773
  0.6258657034921669  0.7925166948930809  0.2172041975674048
  0.7061535996930814  0.8715849707994749  0.3878510446594703
  0.7881071224139120  0.9552564011568521  0.5527192608899156
  0.8710449654776227  0.5375074463920555  0.7178516534831303
  0.9537690489166835  0.6197965299921719  0.8829772926893824
  0.8272702272251848  0.5015188241993513  0.1315613646242326
  0.9102871545319502  0.5842316317225240  0.3050068069514751
  0.9969257911831377  0.6648335970868189  0.4698180931040383
 
  0.00000000E+00  0.00000000E+00  0.00000000E+00
  0.00000000E+00  0.00000000E+00  0.00000000E+00
  0.00000000E+00  0.00000000E+00  0.00000000E+00
  0.00000000E+00  0.00000000E+00  0.00000000E+00
  0.00000000E+00  0.00000000E+00  0.00000000E+00
  0.00000000E+00  0.00000000E+00  0.00000000E+00
  0.00000000E+00  0.00000000E+00  0.00000000E+00
  0.00000000E+00  0.00000000E+00  0.00000000E+00
  0.00000000E+00  0.00000000E+00  0.00000000E+00
  0.00000000E+00  0.00000000E+00  0.00000000E+00
  0.00000000E+00  0.00000000E+00  0.00000000E+00
  0.00000000E+00  0.00000000E+00  0.00000000E+00
  0.00000000E+00  0.00000000E+00  0.00000000E+00
  0.00000000E+00  0.00000000E+00  0.00000000E+00
  0.00000000E+00  0.00000000E+00  0.00000000E+00
  0.00000000E+00  0.00000000E+00  0.00000000E+00
  0.00000000E+00  0.00000000E+00  0.00000000E+00
  0.00000000E+00  0.00000000E+00  0.00000000E+00
  0.00000000E+00  0.00000000E+00  0.00000000E+00
  0.00000000E+00  0.00000000E+00  0.00000000E+00
  0.00000000E+00  0.00000000E+00  0.00000000E+00
  0.00000000E+00  0.00000000E+00  0.00000000E+00
  0.00000000E+00  0.00000000E+00  0.00000000E+00
  0.00000000E+00  0.00000000E+00  0.00000000E+00
  0.00000000E+00  0.00000000E+00  0.00000000E+00
  0.00000000E+00  0.00000000E+00  0.00000000E+00
  0.00000000E+00  0.00000000E+00  0.00000000E+00
  0.00000000E+00  0.00000000E+00  0.00000000E+00
  0.00000000E+00  0.00000000E+00  0.00000000E+00
  0.00000000E+00  0.00000000E+00  0.00000000E+00
  0.00000000E+00  0.00000000E+00  0.00000000E+00
  0.00000000E+00  0.00000000E+00  0.00000000E+00
  0.00000000E+00  0.00000000E+00  0.00000000E+00
  0.00000000E+00  0.00000000E+00  0.00000000E+00
  0.00000000E+00  0.00000000E+00  0.00000000E+00
  0.00000000E+00  0.00000000E+00  0.00000000E+00
  0.00000000E+00  0.00000000E+00  0.00000000E+00
  0.00000000E+00  0.00000000E+00  0.00000000E+00
  0.00000000E+00  0.00000000E+00  0.00000000E+00
  0.00000000E+00  0.00000000E+00  0.00000000E+00
  0.00000000E+00  0.00000000E+00  0.00000000E+00
  0.00000000E+00  0.00000000E+00  0.00000000E+00
  0.00000000E+00  0.00000000E+00  0.00000000E+00
  0.00000000E+00  0.00000000E+00  0.00000000E+00
  0.00000000E+00  0.00000000E+00  0.00000000E+00
  0.00000000E+00  0.00000000E+00  0.00000000E+00
  0.00000000E+00  0.00000000E+00  0.00000000E+00
  0.00000000E+00  0.00000000E+00  0.00000000E+00
  0.00000000E+00  0.00000000E+00  0.00000000E+00
  0.00000000E+00  0.00000000E+00  0.00000000E+00
  0.00000000E+00  0.00000000E+00  0.00000000E+00
  0.00000000E+00  0.00000000E+00  0.00000000E+00
  0.00000000E+00  0.00000000E+00  0.00000000E+00
  0.00000000E+00  0.00000000E+00  0.00000000E+00
  0.00000000E+00  0.00000000E+00  0.00000000E+00
  0.00000000E+00  0.00000000E+00  0.00000000E+00
  0.00000000E+00  0.00000000E+00  0.00000000E+00
  0.00000000E+00  0.00000000E+00  0.00000000E+00
  0.00000000E+00  0.00000000E+00  0.00000000E+00
  0.00000000E+00  0.00000000E+00  0.00000000E+00
  0.00000000E+00  0.00000000E+00  0.00000000E+00
  0.00000000E+00  0.00000000E+00  0.00000000E+00
  0.00000000E+00  0.00000000E+00  0.00000000E+00
  0.00000000E+00  0.00000000E+00  0.00000000E+00
  0.00000000E+00  0.00000000E+00  0.00000000E+00
  0.00000000E+00  0.00000000E+00  0.00000000E+00
  0.00000000E+00  0.00000000E+00  0.00000000E+00
  0.00000000E+00  0.00000000E+00  0.00000000E+00
  0.00000000E+00  0.00000000E+00  0.00000000E+00
  0.00000000E+00  0.00000000E+00  0.00000000E+00
  0.00000000E+00  0.00000000E+00  0.00000000E+00
  0.00000000E+00  0.00000000E+00  0.00000000E+00
  0.00000000E+00  0.00000000E+00  0.00000000E+00
  0.00000000E+00  0.00000000E+00  0.00000000E+00
  0.00000000E+00  0.00000000E+00  0.00000000E+00
  0.00000000E+00  0.00000000E+00  0.00000000E+00
  0.00000000E+00  0.00000000E+00  0.00000000E+00
  0.00000000E+00  0.00000000E+00  0.00000000E+00
  0.00000000E+00  0.00000000E+00  0.00000000E+00
  0.00000000E+00  0.00000000E+00  0.00000000E+00
  0.00000000E+00  0.00000000E+00  0.00000000E+00
  0.00000000E+00  0.00000000E+00  0.00000000E+00
  0.00000000E+00  0.00000000E+00  0.00000000E+00
  0.00000000E+00  0.00000000E+00  0.00000000E+00
  0.00000000E+00  0.00000000E+00  0.00000000E+00
  0.00000000E+00  0.00000000E+00  0.00000000E+00
  0.00000000E+00  0.00000000E+00  0.00000000E+00
  0.00000000E+00  0.00000000E+00  0.00000000E+00
  0.00000000E+00  0.00000000E+00  0.00000000E+00
  0.00000000E+00  0.00000000E+00  0.00000000E+00
  0.00000000E+00  0.00000000E+00  0.00000000E+00
  0.00000000E+00  0.00000000E+00  0.00000000E+00
  0.00000000E+00  0.00000000E+00  0.00000000E+00
  0.00000000E+00  0.00000000E+00  0.00000000E+00
  0.00000000E+00  0.00000000E+00  0.00000000E+00
  0.00000000E+00  0.00000000E+00  0.00000000E+00
  0.00000000E+00  0.00000000E+00  0.00000000E+00
  0.00000000E+00  0.00000000E+00  0.00000000E+00
  0.00000000E+00  0.00000000E+00  0.00000000E+00
  0.00000000E+00  0.00000000E+00  0.00000000E+00
  0.00000000E+00  0.00000000E+00  0.00000000E+00
  0.00000000E+00  0.00000000E+00  0.00000000E+00
  0.00000000E+00  0.00000000E+00  0.00000000E+00
  0.00000000E+00  0.00000000E+00  0.00000000E+00
  0.00000000E+00  0.00000000E+00  0.00000000E+00
  0.00000000E+00  0.00000000E+00  0.00000000E+00
  0.00000000E+00  0.00000000E+00  0.00000000E+00
  0.00000000E+00  0.00000000E+00  0.00000000E+00
  0.00000000E+00  0.00000000E+00  0.00000000E+00
  0.00000000E+00  0.00000000E+00  0.00000000E+00
  0.00000000E+00  0.00000000E+00  0.00000000E+00
  0.00000000E+00  0.00000000E+00  0.00000000E+00
  0.00000000E+00  0.00000000E+00  0.00000000E+00
  0.00000000E+00  0.00000000E+00  0.00000000E+00
  0.00000000E+00  0.00000000E+00  0.00000000E+00
  0.00000000E+00  0.00000000E+00  0.00000000E+00
  0.00000000E+00  0.00000000E+00  0.00000000E+00
  0.00000000E+00  0.00000000E+00  0.00000000E+00
  0.00000000E+00  0.00000000E+00  0.00000000E+00
  0.00000000E+00  0.00000000E+00  0.00000000E+00
  0.00000000E+00  0.00000000E+00  0.00000000E+00
  0.00000000E+00  0.00000000E+00  0.00000000E+00
  0.00000000E+00  0.00000000E+00  0.00000000E+00
  0.00000000E+00  0.00000000E+00  0.00000000E+00
  0.00000000E+00  0.00000000E+00  0.00000000E+00
  0.00000000E+00  0.00000000E+00  0.00000000E+00
  0.00000000E+00  0.00000000E+00  0.00000000E+00
  0.00000000E+00  0.00000000E+00  0.00000000E+00
  0.00000000E+00  0.00000000E+00  0.00000000E+00
  0.00000000E+00  0.00000000E+00  0.00000000E+00
  0.00000000E+00  0.00000000E+00  0.00000000E+00
  0.00000000E+00  0.00000000E+00  0.00000000E+00
  0.00000000E+00  0.00000000E+00  0.00000000E+00
  0.00000000E+00  0.00000000E+00  0.00000000E+00
  0.00000000E+00  0.00000000E+00  0.00000000E+00
  0.00000000E+00  0.00000000E+00  0.00000000E+00
  0.00000000E+00  0.00000000E+00  0.00000000E+00
  0.00000000E+00  0.00000000E+00  0.00000000E+00
  0.00000000E+00  0.00000000E+00  0.00000000E+00
  0.00000000E+00  0.00000000E+00  0.00000000E+00
  0.00000000E+00  0.00000000E+00  0.00000000E+00
  0.00000000E+00  0.00000000E+00  0.00000000E+00
  0.00000000E+00  0.00000000E+00  0.00000000E+00
  0.00000000E+00  0.00000000E+00  0.00000000E+00
  0.00000000E+00  0.00000000E+00  0.00000000E+00
  0.00000000E+00  0.00000000E+00  0.00000000E+00
  0.00000000E+00  0.00000000E+00  0.00000000E+00
  0.00000000E+00  0.00000000E+00  0.00000000E+00
  0.00000000E+00  0.00000000E+00  0.00000000E+00
  0.00000000E+00  0.00000000E+00  0.00000000E+00
  0.00000000E+00  0.00000000E+00  0.00000000E+00
  0.00000000E+00  0.00000000E+00  0.00000000E+00
  0.00000000E+00  0.00000000E+00  0.00000000E+00
  0.00000000E+00  0.00000000E+00  0.00000000E+00
  0.00000000E+00  0.00000000E+00  0.00000000E+00
  0.00000000E+00  0.00000000E+00  0.00000000E+00
  0.00000000E+00  0.00000000E+00  0.00000000E+00
  0.00000000E+00  0.00000000E+00  0.00000000E+00
  0.00000000E+00  0.00000000E+00  0.00000000E+00
  0.00000000E+00  0.00000000E+00  0.00000000E+00
  0.00000000E+00  0.00000000E+00  0.00000000E+00
  0.00000000E+00  0.00000000E+00  0.00000000E+00
  0.00000000E+00  0.00000000E+00  0.00000000E+00
  0.00000000E+00  0.00000000E+00  0.00000000E+00
  0.00000000E+00  0.00000000E+00  0.00000000E+00
  0.00000000E+00  0.00000000E+00  0.00000000E+00
  0.00000000E+00  0.00000000E+00  0.00000000E+00
  0.00000000E+00  0.00000000E+00  0.00000000E+00
  0.00000000E+00  0.00000000E+00  0.00000000E+00
  0.00000000E+00  0.00000000E+00  0.00000000E+00
  0.00000000E+00  0.00000000E+00  0.00000000E+00
  0.00000000E+00  0.00000000E+00  0.00000000E+00
  0.00000000E+00  0.00000000E+00  0.00000000E+00
  0.00000000E+00  0.00000000E+00  0.00000000E+00
  0.00000000E+00  0.00000000E+00  0.00000000E+00
  0.00000000E+00  0.00000000E+00  0.00000000E+00
  0.00000000E+00  0.00000000E+00  0.00000000E+00
  0.00000000E+00  0.00000000E+00  0.00000000E+00
  0.00000000E+00  0.00000000E+00  0.00000000E+00
  0.00000000E+00  0.00000000E+00  0.00000000E+00
  0.00000000E+00  0.00000000E+00  0.00000000E+00
  0.00000000E+00  0.00000000E+00  0.00000000E+00
  0.00000000E+00  0.00000000E+00  0.00000000E+00
  0.00000000E+00  0.00000000E+00  0.00000000E+00
  0.00000000E+00  0.00000000E+00  0.00000000E+00
  0.00000000E+00  0.00000000E+00  0.00000000E+00
  0.00000000E+00  0.00000000E+00  0.00000000E+00
  0.00000000E+00  0.00000000E+00  0.00000000E+00
  0.00000000E+00  0.00000000E+00  0.00000000E+00
  0.00000000E+00  0.00000000E+00  0.00000000E+00
  0.00000000E+00  0.00000000E+00  0.00000000E+00
