supercell of POSCAR                     
   1.00398800000000     
    -6.2729611433599999    0.0082005604289200   10.0015927484000002
     3.1280384584799998    5.4363994576400003   10.0007801159999996
    -7.8567367181199996   13.6110857897000006  -10.0002683574999995
   Al   Sc   N 
    92     4    95
Direct
  0.4796483700770864  0.3136891871587864  0.5428241761413659
  0.0618494956278042  0.3961923373579737  0.7081167478343957
  0.1438069701246292  0.4793225484872181  0.8731351590730583
  0.4359312970729832  0.2691275199188823  0.9564343759365315
  0.0129288326219097  0.3461394300421645  0.1230078408028703
  0.1048018921483376  0.4422070571662005  0.2969493856316419
  0.1887304576748576  0.0221636796810571  0.4606151847691677
  0.2709120039307606  0.1047498399790499  0.6255895647664858
  0.3530642426363926  0.1872390206727843  0.7907562818973943
  0.2280760713890544  0.0612811974936136  0.0396125125611633
  0.3205320707197998  0.1408269422679993  0.2093380989947562
  0.3979196815848454  0.2310964782006621  0.3768305372296865
  0.0001108576072681  0.1668862237548225  0.6668947006115218
  0.0818945528245365  0.2490469678016112  0.8313024874087418
  0.1617346867536398  0.3322489701775311  0.9944098461517044
  0.4566384101361365  0.1208035394269515  0.0803240667450780
  0.0460389417306928  0.2110650087720174  0.2536358900914237
  0.1269631053343190  0.2925812839057969  0.4196563470237749
  0.2090083930437885  0.3753580685126749  0.5844444591149554
  0.2911797485460568  0.4577274792857793  0.7492091214222896
  0.3728448179424504  0.0409482054103663  0.9145291396039212
  0.3351186967608797  0.0044302958639406  0.3389989091571479
  0.4183293713837131  0.0849815990672980  0.5023958157586819
  0.9795400330241577  0.3138414634627438  0.5429289160860407
  0.5618297916279928  0.3960452389670337  0.7079314250273825
  0.6437306961708344  0.4787689395978845  0.8729622282986398
  0.9340545088098580  0.2694095617710701  0.9557468782754768
  0.5159222796397103  0.3514028140843806  0.1217103361317626
  0.6043151553865087  0.4418059419861180  0.2965943986799928
  0.6887880074234758  0.0220668023584025  0.4605458178628723
  0.7709349801298728  0.1046766409159829  0.6254905207959567
  0.8528726048302673  0.1871089950096945  0.7905658027452631
  0.7271854904816024  0.0619376521536310  0.0394382543678589
  0.8192365910377077  0.1410190418441317  0.2093374140221158
  0.8972898672283733  0.2313199877595693  0.3768756666207480
  0.5000849507687803  0.1666990946755149  0.6667080987449694
  0.5815667099418391  0.2488492846509018  0.8309077303710666
  0.6619476587831770  0.3312145425894641  0.9943323940934761
  0.9553755602766287  0.1187158043940286  0.0792653730642812
  0.5459505073582065  0.2125421667009491  0.2529820539067700
  0.6271162777977466  0.2924855206304997  0.4195615945508848
  0.7089400679225477  0.3754515658371815  0.5843783628418464
  0.7908514393873247  0.4579993810503353  0.7491088711875378
  0.8729231972933178  0.0400568762802394  0.9140971303075887
  0.8346893323891322  0.0043980428701218  0.3385520728358742
  0.9183492849601791  0.0849475286735455  0.5023199169011576
  0.4795283956669394  0.8138131832884667  0.5428368543310569
  0.0619253120847745  0.8960953979069330  0.7079809686326115
  0.1443019494718385  0.9787692711600400  0.8732196164514363
  0.4356605164273830  0.7695776711564619  0.9561976612777627
  0.0184235778372113  0.8508189803690414  0.1218702933250313
  0.1042662040639470  0.9418247703695712  0.2963301522484230
  0.1888016925884628  0.5221408417022957  0.4606617315042527
  0.2709858841908783  0.6046925528461671  0.6255312806526163
  0.3530903111271613  0.6872575823924905  0.7906036588661891
  0.2277361901159907  0.5625114007574368  0.0393327975925573
  0.3195256272424061  0.6398452785242341  0.2095307564146793
  0.3971978685596156  0.7314503076274832  0.3767331926895281
  0.0001861499855735  0.6667326040748947  0.6667229878330616
  0.0818989735155569  0.7489220871448836  0.8308707173031280
  0.1632040034774676  0.8313720389703008  0.9941369390368493
  0.4559264154219775  0.6202467300438954  0.0792949029017578
  0.0495110956418827  0.7099226385134045  0.2535732711462231
  0.1266956887660342  0.7926819071970712  0.4193527435792532
  0.2089546086146044  0.8754405067723994  0.5843838238954646
  0.2910257198880970  0.9580409152045064  0.7493202757473014
  0.3731688286385690  0.5403496323107078  0.9141468822046832
  0.3365670011656832  0.5031159119578348  0.3389960241489334
  0.4181897535436789  0.5850196264060870  0.5022643663439794
  0.9796134254330155  0.8137424204057808  0.5428222824329225
  0.5618160564501480  0.8962138569360789  0.7080191573700958
  0.6442500673181897  0.9788238658785389  0.8732956873231998
  0.9356606635790925  0.7695463205742996  0.9557004807787663
  0.5185092275139525  0.8511269737722102  0.1218064729581911
  0.6044304276353643  0.9415113516908349  0.2960712152767400
  0.6886236905518430  0.5223242903881555  0.4606934047982989
  0.7708996880107577  0.6048032172694349  0.6255367814682700
  0.8528726471684394  0.6874316807017848  0.7904462966489376
  0.7258493089305915  0.5617067214577460  0.0385233011868351
  0.8206606002094006  0.6388303904358850  0.2097414624035849
  0.8971113766775147  0.7314237917306059  0.3768067826084405
  0.5000501559946571  0.6668857773451933  0.6667578742501519
  0.5815177832409972  0.7494318883391458  0.8311307706157862
  0.6630411961115072  0.8321141127523006  0.9948049979759901
  0.9553241749369548  0.6192356161415873  0.0778836517077508
  0.5468214775347491  0.7111314177687476  0.2534052627255647
  0.6265717984428676  0.7928598635071253  0.4194350105842162
  0.7089756852832352  0.8753887120199408  0.5843517859145138
  0.7910454664566018  0.9578078125562470  0.7491410078604162
  0.8722235512430316  0.5408765244812201  0.9135571234756625
  0.8351909711973065  0.5042320703813274  0.3393153716076043
  0.9182725353390140  0.5851119169654240  0.5024345544311828
  0.2344576109902050  0.4148288353311216  0.1663046531452963
  0.7403629791815760  0.4134541467169228  0.1685458811940492
  0.2440592719160861  0.9121104695174012  0.1685052588951237
  0.7470052486234593  0.9090274147904296  0.1687290183233969
  0.0591275964067250  0.3937918201404642  0.5114402811786576
  0.1414773991412090  0.4758278045871407  0.6766939263873368
  0.2234813140044807  0.0589402094329401  0.8420531405287619
  0.0128000009833826  0.3499903297807307  0.9241207175853319
  0.1824897292105234  0.0275030361739255  0.2710879529597321
  0.2687417655954931  0.1029661642936333  0.4307184378884941
  0.3506163496359775  0.1846970438765965  0.5943226371881494
  0.4321967818041159  0.2667554642855237  0.7587916031842568
  0.3032287038505430  0.1451017616054386  0.0081281166034941
  0.4075386490428485  0.2118837093866901  0.1773253945288431
  0.4773326814919798  0.3119938012556602  0.3452137250413330
  0.0798878273020875  0.2464604696812671  0.6353458115344992
  0.1619838785875345  0.3291644168739793  0.8010563934479720
  0.2436717424940298  0.4125559376019723  0.9671293117588533
  0.0358361141521897  0.2012676166331389  0.0489015725752822
  0.1263812499638561  0.2950720653437457  0.2160606041600559
  0.2067140164764325  0.3714338447860754  0.3873334739207195
  0.2886672216468327  0.4548508582897526  0.5527815011013999
  0.3708630980064953  0.0376836092508768  0.7181558080679196
  0.4529544397718226  0.1202204756391012  0.8837369544566513
  0.3310549135145635  0.0001031830037661  0.1328498002408551
  0.4128764474945754  0.0817517093316340  0.3037065948926880
  0.4975808645467268  0.1641215630978508  0.4693488313928427
  0.5591541291958251  0.3937000589559290  0.5113997070597733
  0.6413671846943814  0.4759085086315551  0.6766055455746027
  0.7234121673406690  0.0584010001413944  0.8415883679423857
  0.5128260869629742  0.3487753800905296  0.9225476542474595
  0.5869316123636779  0.4293998551765625  0.0827687357215368
  0.6820191950897154  0.0271069975527851  0.2701759402570829
  0.7689497286176632  0.1025481527756043  0.4304916065368261
  0.8507362616420338  0.1847404337278391  0.5943716634602723
  0.9324273701546488  0.2671580135268954  0.7592993500379137
  0.8045160165190310  0.1425178001662957  0.0065679402219416
  0.9118749963569925  0.2074158983157020  0.1769297927056428
  0.9767856436920539  0.3126749602445855  0.3450310426271770
  0.5799123790693557  0.2462827754260033  0.6351611598105507
  0.6620282184244459  0.3288506578952664  0.8005505014543672
  0.7439839683137919  0.4118790490878368  0.9660536953228700
  0.5353244073063692  0.2012551556340298  0.0494531011407062
  0.6259907623846104  0.2936189308669412  0.2171239654050297
  0.7065711720390340  0.3717928760619245  0.3875331711543168
  0.7886223539505153  0.4549863677639010  0.5528527406432815
  0.8709974778193086  0.0374931369367246  0.7179867205947588
  0.9532411330299198  0.1199323483309556  0.8833915549726612
  0.8310438835464140  0.9992291200899572  0.1327556346346626
  0.9128878195183958  0.0817770420760340  0.3037959791507987
  0.9974976440554570  0.1643364329992494  0.4693722769249291
  0.0591539027460044  0.8936191557386195  0.5112956501782904
  0.1414484569454970  0.9760059137668975  0.6766991124044068
  0.2235310452738872  0.5583254768943249  0.8417622010836752
  0.0138991340616030  0.8485923070985351  0.9226483629230273
  0.0889145905288444  0.9286579794748846  0.0827449988502309
  0.1852006606017085  0.5243677313734239  0.2703239442088545
  0.2685520451909653  0.6027393704097008  0.4303999789757427
  0.3506355310498535  0.6847227024365807  0.5942891699579462
  0.4322963416444807  0.7671071941796441  0.7589719569814335
  0.3046016644061993  0.6425780788874889  0.0066824521246929
  0.4122644229945820  0.7049243267735221  0.1773834670272976
  0.4762862479619088  0.8128982559192153  0.3449460980263268
  0.0799778068188388  0.7463240318585207  0.6351661035549085
  0.1622614378437035  0.8290288470208864  0.8006326820442027
  0.2449675859220335  0.9125812055760676  0.9663225154937294
  0.0359120855674888  0.6996942643163209  0.0493784370835826
  0.1264063674410352  0.7926704011201622  0.2174280060538649
  0.2061694974286681  0.8719073787404596  0.3873238865301190
  0.2885856474406268  0.9549850567719815  0.5528254957125611
  0.3709453590604497  0.5375369073164649  0.7180557153775524
  0.4530936179122378  0.6202867441047175  0.8834624807162186
  0.3269753610369222  0.4987217776959056  0.1329293288588005
  0.4131080977148542  0.5813895736332171  0.3040963976695892
  0.4973103551149762  0.6643767947964889  0.4693049040743205
  0.5591273511836548  0.8937320221003020  0.5113846518781386
  0.6414384323992479  0.9758453876856024  0.6765685482001373
  0.7231304386006272  0.5586046834129661  0.8415912947576274
  0.5139052411047729  0.8493552441410941  0.9234058276693062
  0.5897872953782297  0.9299479495292715  0.0839444408533794
  0.6828614345634421  0.5271568982318513  0.2715505177549176
  0.7686393412586412  0.6031829377504110  0.4308491822978482
  0.8507118386712520  0.6847479786340713  0.5943628261706735
  0.9324209205754457  0.7668397402492459  0.7588091752736901
  0.8054944541029485  0.6407541485621877  0.0066320889486562
  0.9184096449917192  0.6979089890841621  0.1764838003818170
  0.9764237256583996  0.8120185669453406  0.3443728510113928
  0.5798720007092442  0.7464344453838123  0.6352212224823290
  0.6620842768143262  0.8290990233086788  0.8007028860549710
  0.7452651400184607  0.9117527854276730  0.9663804327607011
  0.5354170041144073  0.7016925704424821  0.0494524129113643
  0.6278462011979187  0.7916703146976047  0.2171565818967665
  0.7062608248300819  0.8718648993230360  0.3871963144177286
  0.7886972776988728  0.9548607128913815  0.5527310751393131
  0.8709060863920968  0.5375596414201453  0.7180617502152487
  0.9529757469377245  0.6200107160866395  0.8833551387672074
  0.8311938305788118  0.4990143581709319  0.1316552257903609
  0.9137261155506380  0.5808577314433592  0.3041217396581786
  0.9974866803220195  0.6642463445565525  0.4692524595424530
 
  0.00000000E+00  0.00000000E+00  0.00000000E+00
  0.00000000E+00  0.00000000E+00  0.00000000E+00
  0.00000000E+00  0.00000000E+00  0.00000000E+00
  0.00000000E+00  0.00000000E+00  0.00000000E+00
  0.00000000E+00  0.00000000E+00  0.00000000E+00
  0.00000000E+00  0.00000000E+00  0.00000000E+00
  0.00000000E+00  0.00000000E+00  0.00000000E+00
  0.00000000E+00  0.00000000E+00  0.00000000E+00
  0.00000000E+00  0.00000000E+00  0.00000000E+00
  0.00000000E+00  0.00000000E+00  0.00000000E+00
  0.00000000E+00  0.00000000E+00  0.00000000E+00
  0.00000000E+00  0.00000000E+00  0.00000000E+00
  0.00000000E+00  0.00000000E+00  0.00000000E+00
  0.00000000E+00  0.00000000E+00  0.00000000E+00
  0.00000000E+00  0.00000000E+00  0.00000000E+00
  0.00000000E+00  0.00000000E+00  0.00000000E+00
  0.00000000E+00  0.00000000E+00  0.00000000E+00
  0.00000000E+00  0.00000000E+00  0.00000000E+00
  0.00000000E+00  0.00000000E+00  0.00000000E+00
  0.00000000E+00  0.00000000E+00  0.00000000E+00
  0.00000000E+00  0.00000000E+00  0.00000000E+00
  0.00000000E+00  0.00000000E+00  0.00000000E+00
  0.00000000E+00  0.00000000E+00  0.00000000E+00
  0.00000000E+00  0.00000000E+00  0.00000000E+00
  0.00000000E+00  0.00000000E+00  0.00000000E+00
  0.00000000E+00  0.00000000E+00  0.00000000E+00
  0.00000000E+00  0.00000000E+00  0.00000000E+00
  0.00000000E+00  0.00000000E+00  0.00000000E+00
  0.00000000E+00  0.00000000E+00  0.00000000E+00
  0.00000000E+00  0.00000000E+00  0.00000000E+00
  0.00000000E+00  0.00000000E+00  0.00000000E+00
  0.00000000E+00  0.00000000E+00  0.00000000E+00
  0.00000000E+00  0.00000000E+00  0.00000000E+00
  0.00000000E+00  0.00000000E+00  0.00000000E+00
  0.00000000E+00  0.00000000E+00  0.00000000E+00
  0.00000000E+00  0.00000000E+00  0.00000000E+00
  0.00000000E+00  0.00000000E+00  0.00000000E+00
  0.00000000E+00  0.00000000E+00  0.00000000E+00
  0.00000000E+00  0.00000000E+00  0.00000000E+00
  0.00000000E+00  0.00000000E+00  0.00000000E+00
  0.00000000E+00  0.00000000E+00  0.00000000E+00
  0.00000000E+00  0.00000000E+00  0.00000000E+00
  0.00000000E+00  0.00000000E+00  0.00000000E+00
  0.00000000E+00  0.00000000E+00  0.00000000E+00
  0.00000000E+00  0.00000000E+00  0.00000000E+00
  0.00000000E+00  0.00000000E+00  0.00000000E+00
  0.00000000E+00  0.00000000E+00  0.00000000E+00
  0.00000000E+00  0.00000000E+00  0.00000000E+00
  0.00000000E+00  0.00000000E+00  0.00000000E+00
  0.00000000E+00  0.00000000E+00  0.00000000E+00
  0.00000000E+00  0.00000000E+00  0.00000000E+00
  0.00000000E+00  0.00000000E+00  0.00000000E+00
  0.00000000E+00  0.00000000E+00  0.00000000E+00
  0.00000000E+00  0.00000000E+00  0.00000000E+00
  0.00000000E+00  0.00000000E+00  0.00000000E+00
  0.00000000E+00  0.00000000E+00  0.00000000E+00
  0.00000000E+00  0.00000000E+00  0.00000000E+00
  0.00000000E+00  0.00000000E+00  0.00000000E+00
  0.00000000E+00  0.00000000E+00  0.00000000E+00
  0.00000000E+00  0.00000000E+00  0.00000000E+00
  0.00000000E+00  0.00000000E+00  0.00000000E+00
  0.00000000E+00  0.00000000E+00  0.00000000E+00
  0.00000000E+00  0.00000000E+00  0.00000000E+00
  0.00000000E+00  0.00000000E+00  0.00000000E+00
  0.00000000E+00  0.00000000E+00  0.00000000E+00
  0.00000000E+00  0.00000000E+00  0.00000000E+00
  0.00000000E+00  0.00000000E+00  0.00000000E+00
  0.00000000E+00  0.00000000E+00  0.00000000E+00
  0.00000000E+00  0.00000000E+00  0.00000000E+00
  0.00000000E+00  0.00000000E+00  0.00000000E+00
  0.00000000E+00  0.00000000E+00  0.00000000E+00
  0.00000000E+00  0.00000000E+00  0.00000000E+00
  0.00000000E+00  0.00000000E+00  0.00000000E+00
  0.00000000E+00  0.00000000E+00  0.00000000E+00
  0.00000000E+00  0.00000000E+00  0.00000000E+00
  0.00000000E+00  0.00000000E+00  0.00000000E+00
  0.00000000E+00  0.00000000E+00  0.00000000E+00
  0.00000000E+00  0.00000000E+00  0.00000000E+00
  0.00000000E+00  0.00000000E+00  0.00000000E+00
  0.00000000E+00  0.00000000E+00  0.00000000E+00
  0.00000000E+00  0.00000000E+00  0.00000000E+00
  0.00000000E+00  0.00000000E+00  0.00000000E+00
  0.00000000E+00  0.00000000E+00  0.00000000E+00
  0.00000000E+00  0.00000000E+00  0.00000000E+00
  0.00000000E+00  0.00000000E+00  0.00000000E+00
  0.00000000E+00  0.00000000E+00  0.00000000E+00
  0.00000000E+00  0.00000000E+00  0.00000000E+00
  0.00000000E+00  0.00000000E+00  0.00000000E+00
  0.00000000E+00  0.00000000E+00  0.00000000E+00
  0.00000000E+00  0.00000000E+00  0.00000000E+00
  0.00000000E+00  0.00000000E+00  0.00000000E+00
  0.00000000E+00  0.00000000E+00  0.00000000E+00
  0.00000000E+00  0.00000000E+00  0.00000000E+00
  0.00000000E+00  0.00000000E+00  0.00000000E+00
  0.00000000E+00  0.00000000E+00  0.00000000E+00
  0.00000000E+00  0.00000000E+00  0.00000000E+00
  0.00000000E+00  0.00000000E+00  0.00000000E+00
  0.00000000E+00  0.00000000E+00  0.00000000E+00
  0.00000000E+00  0.00000000E+00  0.00000000E+00
  0.00000000E+00  0.00000000E+00  0.00000000E+00
  0.00000000E+00  0.00000000E+00  0.00000000E+00
  0.00000000E+00  0.00000000E+00  0.00000000E+00
  0.00000000E+00  0.00000000E+00  0.00000000E+00
  0.00000000E+00  0.00000000E+00  0.00000000E+00
  0.00000000E+00  0.00000000E+00  0.00000000E+00
  0.00000000E+00  0.00000000E+00  0.00000000E+00
  0.00000000E+00  0.00000000E+00  0.00000000E+00
  0.00000000E+00  0.00000000E+00  0.00000000E+00
  0.00000000E+00  0.00000000E+00  0.00000000E+00
  0.00000000E+00  0.00000000E+00  0.00000000E+00
  0.00000000E+00  0.00000000E+00  0.00000000E+00
  0.00000000E+00  0.00000000E+00  0.00000000E+00
  0.00000000E+00  0.00000000E+00  0.00000000E+00
  0.00000000E+00  0.00000000E+00  0.00000000E+00
  0.00000000E+00  0.00000000E+00  0.00000000E+00
  0.00000000E+00  0.00000000E+00  0.00000000E+00
  0.00000000E+00  0.00000000E+00  0.00000000E+00
  0.00000000E+00  0.00000000E+00  0.00000000E+00
  0.00000000E+00  0.00000000E+00  0.00000000E+00
  0.00000000E+00  0.00000000E+00  0.00000000E+00
  0.00000000E+00  0.00000000E+00  0.00000000E+00
  0.00000000E+00  0.00000000E+00  0.00000000E+00
  0.00000000E+00  0.00000000E+00  0.00000000E+00
  0.00000000E+00  0.00000000E+00  0.00000000E+00
  0.00000000E+00  0.00000000E+00  0.00000000E+00
  0.00000000E+00  0.00000000E+00  0.00000000E+00
  0.00000000E+00  0.00000000E+00  0.00000000E+00
  0.00000000E+00  0.00000000E+00  0.00000000E+00
  0.00000000E+00  0.00000000E+00  0.00000000E+00
  0.00000000E+00  0.00000000E+00  0.00000000E+00
  0.00000000E+00  0.00000000E+00  0.00000000E+00
  0.00000000E+00  0.00000000E+00  0.00000000E+00
  0.00000000E+00  0.00000000E+00  0.00000000E+00
  0.00000000E+00  0.00000000E+00  0.00000000E+00
  0.00000000E+00  0.00000000E+00  0.00000000E+00
  0.00000000E+00  0.00000000E+00  0.00000000E+00
  0.00000000E+00  0.00000000E+00  0.00000000E+00
  0.00000000E+00  0.00000000E+00  0.00000000E+00
  0.00000000E+00  0.00000000E+00  0.00000000E+00
  0.00000000E+00  0.00000000E+00  0.00000000E+00
  0.00000000E+00  0.00000000E+00  0.00000000E+00
  0.00000000E+00  0.00000000E+00  0.00000000E+00
  0.00000000E+00  0.00000000E+00  0.00000000E+00
  0.00000000E+00  0.00000000E+00  0.00000000E+00
  0.00000000E+00  0.00000000E+00  0.00000000E+00
  0.00000000E+00  0.00000000E+00  0.00000000E+00
  0.00000000E+00  0.00000000E+00  0.00000000E+00
  0.00000000E+00  0.00000000E+00  0.00000000E+00
  0.00000000E+00  0.00000000E+00  0.00000000E+00
  0.00000000E+00  0.00000000E+00  0.00000000E+00
  0.00000000E+00  0.00000000E+00  0.00000000E+00
  0.00000000E+00  0.00000000E+00  0.00000000E+00
  0.00000000E+00  0.00000000E+00  0.00000000E+00
  0.00000000E+00  0.00000000E+00  0.00000000E+00
  0.00000000E+00  0.00000000E+00  0.00000000E+00
  0.00000000E+00  0.00000000E+00  0.00000000E+00
  0.00000000E+00  0.00000000E+00  0.00000000E+00
  0.00000000E+00  0.00000000E+00  0.00000000E+00
  0.00000000E+00  0.00000000E+00  0.00000000E+00
  0.00000000E+00  0.00000000E+00  0.00000000E+00
  0.00000000E+00  0.00000000E+00  0.00000000E+00
  0.00000000E+00  0.00000000E+00  0.00000000E+00
  0.00000000E+00  0.00000000E+00  0.00000000E+00
  0.00000000E+00  0.00000000E+00  0.00000000E+00
  0.00000000E+00  0.00000000E+00  0.00000000E+00
  0.00000000E+00  0.00000000E+00  0.00000000E+00
  0.00000000E+00  0.00000000E+00  0.00000000E+00
  0.00000000E+00  0.00000000E+00  0.00000000E+00
  0.00000000E+00  0.00000000E+00  0.00000000E+00
  0.00000000E+00  0.00000000E+00  0.00000000E+00
  0.00000000E+00  0.00000000E+00  0.00000000E+00
  0.00000000E+00  0.00000000E+00  0.00000000E+00
  0.00000000E+00  0.00000000E+00  0.00000000E+00
  0.00000000E+00  0.00000000E+00  0.00000000E+00
  0.00000000E+00  0.00000000E+00  0.00000000E+00
  0.00000000E+00  0.00000000E+00  0.00000000E+00
  0.00000000E+00  0.00000000E+00  0.00000000E+00
  0.00000000E+00  0.00000000E+00  0.00000000E+00
  0.00000000E+00  0.00000000E+00  0.00000000E+00
  0.00000000E+00  0.00000000E+00  0.00000000E+00
  0.00000000E+00  0.00000000E+00  0.00000000E+00
  0.00000000E+00  0.00000000E+00  0.00000000E+00
  0.00000000E+00  0.00000000E+00  0.00000000E+00
  0.00000000E+00  0.00000000E+00  0.00000000E+00
  0.00000000E+00  0.00000000E+00  0.00000000E+00
  0.00000000E+00  0.00000000E+00  0.00000000E+00
  0.00000000E+00  0.00000000E+00  0.00000000E+00
  0.00000000E+00  0.00000000E+00  0.00000000E+00
  0.00000000E+00  0.00000000E+00  0.00000000E+00
  0.00000000E+00  0.00000000E+00  0.00000000E+00
  0.00000000E+00  0.00000000E+00  0.00000000E+00
