supercell of POSCAR                     
   1.00398800000000     
    -6.2729611433599999    0.0082005604289200   10.0015927484000002
     3.1280384584799998    5.4363994576400003   10.0007801159999996
    -7.8567367181199996   13.6110857897000006  -10.0002683574999995
   Al   Sc   N    O 
    92     4    95     1
Direct
  0.4795719555936486  0.3138723924870845  0.5426103839026268
  0.0621231542217160  0.3961498083750428  0.7080618123797393
  0.1443091547664679  0.4791362865988305  0.8736439993474860
  0.4357777723888674  0.2695468657876319  0.9567002477666264
  0.0127297596787557  0.3472031997658291  0.1225689635154836
  0.1036015220972857  0.4429356394318020  0.2973126063628726
  0.1886366131403179  0.0222073282490953  0.4605398666085279
  0.2710805052390270  0.1047981550509292  0.6255005145085661
  0.3533146058049823  0.1871202743872118  0.7908513288060419
  0.2277435361788562  0.0609539434064459  0.0397741385428532
  0.3213064537843948  0.1413974345984670  0.2088400353253164
  0.3972286072756503  0.2319101239846546  0.3763879343035228
  0.0003774791328439  0.1666020870863960  0.6665352561395466
  0.0819833978304061  0.2483066797268521  0.8305198612945688
  0.1640066247972314  0.3276275250823275  0.9915274294242167
  0.4580246516332025  0.1199739891047145  0.0804886962176425
  0.0472061303641595  0.2117726525249992  0.2534099153694598
  0.1266015722282958  0.2927617199104873  0.4195599860986761
  0.2089959096667471  0.3755605050133113  0.5843071561474034
  0.2913243304753337  0.4576651979235749  0.7492229995631874
  0.3737688335599927  0.0396095496330346  0.9146751903469834
  0.3350162335686306  0.0048737704351538  0.3390101920121253
  0.4184147202801043  0.0851779823179868  0.5022165835125918
  0.9795225665231868  0.3139152659075748  0.5427567625799270
  0.5620539220252425  0.3959711573324256  0.7078857400151222
  0.6443441267582770  0.4785737748510641  0.8731186342068398
  0.9347746748050696  0.2686384582664800  0.9556235150022374
  0.5158978951958488  0.3515559510779909  0.1220342515105628
  0.6036023350552782  0.4420648923182711  0.2964744994853561
  0.6887102847969544  0.0223869275912847  0.4604154914996954
  0.7710538143977459  0.1046908082593703  0.6253637594717389
  0.8531221117441063  0.1868864571453344  0.7904061515277476
  0.7273247811050041  0.0618685521706226  0.0395882048254350
  0.8197035660563188  0.1405571676012656  0.2091094390161885
  0.8969244883664658  0.2317927886492370  0.3765805851051951
  0.5003032537860648  0.1667099647425800  0.6666216600899801
  0.5819085537936317  0.2487359590193066  0.8310011455165096
  0.6631512152767627  0.3306442526680797  0.9943433992851993
  0.9559745666235386  0.1185364761521086  0.0791354440992365
  0.5460042974570882  0.2123426564317228  0.2520281373065671
  0.6264685508387728  0.2928526254967281  0.4192161749372829
  0.7090336013041991  0.3754513404295849  0.5842707570525647
  0.7912292519864010  0.4577887021605775  0.7490553707047809
  0.8731914555741227  0.0398258081990264  0.9140217302160352
  0.8350166486015027  0.0045781865986640  0.3387692321243776
  0.9184437504560918  0.0850470992126731  0.5021791252374541
  0.4795798672867377  0.8139825252570319  0.5427640554002835
  0.0621434955267475  0.8959936370860859  0.7078700446652704
  0.1446769188023040  0.9783665232303491  0.8731835923380018
  0.4360713434818635  0.7688515979627439  0.9562992590452311
  0.0180476759307879  0.8510327381397715  0.1217059069502966
  0.1040688593297787  0.9419838863378018  0.2963685179951625
  0.1889343806757964  0.5223191784449455  0.4605015740178118
  0.2711489517875876  0.6047119444303348  0.6254773422488213
  0.3534860481214182  0.6869728491632543  0.7905825030804650
  0.2284028457425080  0.5628200001419685  0.0413428803051303
  0.3199978922575752  0.6396048772755663  0.2088588223433732
  0.3969519572569169  0.7318508698224306  0.3766067248484575
  0.0004049624619427  0.6666945212468178  0.6665936187156660
  0.0823502626472887  0.7485933002601115  0.8308159529380958
  0.1636775380368078  0.8306959661383289  0.9942076698174560
  0.4559007322109139  0.6189963502621083  0.0796638208531562
  0.0482527307156033  0.7113165118826004  0.2523988218384332
  0.1264624372104706  0.7926528050104835  0.4191275521267244
  0.2090247085151660  0.8754535665057546  0.5842477534005042
  0.2914141955273379  0.9577338072253667  0.7492179322117067
  0.3733227793461324  0.5402683028485740  0.9142777319634021
  0.3357249384708538  0.5044049867109024  0.3393369431136719
  0.4186048580305695  0.5852102255457297  0.5024476311407042
  0.9796403269155647  0.8138213260114355  0.5425700393724355
  0.5620861631281713  0.8961655368129371  0.7079923373557193
  0.6442738794703473  0.9787530490845953  0.8734405857077334
  0.9357663046682916  0.7698035049712644  0.9557428009656661
  0.5175802786084205  0.8506152222051426  0.1216436995858317
  0.6039750103742563  0.9421636921905332  0.2965241932329050
  0.6885397944917742  0.5223723294873039  0.4606052317867935
  0.7710759346080280  0.6048301895737751  0.6254392693698847
  0.8532163091448410  0.6871812654578662  0.7905259729621434
  0.7264764210475931  0.5617506170723416  0.0393224200984363
  0.8198064186567393  0.6399829643728765  0.2094896474696384
  0.8970619830151705  0.7320234798147567  0.3763654763100348
  0.5004352264523177  0.6667529521750453  0.6667153796195251
  0.5821404233882106  0.7488028939051219  0.8310268990351020
  0.6640374800982869  0.8303022178214903  0.9946357709328169
  0.9565560684902437  0.6225271902355090  0.0793745110946347
  0.5467204880692620  0.7122851500673448  0.2534748044966122
  0.6264694911028599  0.7931202984077856  0.4195122504857665
  0.7090362581685810  0.8755906193610343  0.5842574721515632
  0.7912149524005230  0.9577183410575145  0.7491248306787739
  0.8729206210310494  0.5403798265759079  0.9140172255724863
  0.8346696255378134  0.5046754125865505  0.3392454975466848
  0.9184396111643878  0.5851924222581957  0.5022036980199971
  0.2311271933855252  0.4182157256291390  0.1705717828369586
  0.7404320828591509  0.4124863538097330  0.1692793418975640
  0.2434738427464183  0.9119125836347735  0.1691929871005513
  0.7422932749658955  0.9125623193047261  0.1695756172815024
  0.0590105683647977  0.3939878135330659  0.5117242274017784
  0.1415987116474540  0.4758403855952835  0.6765851763713471
  0.2239414383439779  0.0582279670986097  0.8415255358296889
  0.0131625599164948  0.3482583650322297  0.9221930856634017
  0.1822082451280593  0.0280051739151972  0.2720716526628593
  0.2685807761114773  0.1031860232610882  0.4311990830985053
  0.3506887486150632  0.1848763123634214  0.5943631900202888
  0.4324399346943508  0.2666263811299245  0.7586002098927835
  0.3043014319259711  0.1429935496022097  0.0073484094229173
  0.4135706790176954  0.2053587334927158  0.1767985018088964
  0.4767891384724550  0.3128305577596393  0.3452790504023042
  0.0800783738364004  0.2464000071235972  0.6352272764390392
  0.1622575157814339  0.3289768947694185  0.8006788388808701
  0.2432328925794707  0.4125554312169797  0.9673804655565021
  0.0351097991416935  0.2006203950948020  0.0484661510084763
  0.1260898685385428  0.2948474089892699  0.2162925660334025
  0.2063783826708629  0.3715133806698887  0.3882054137459718
  0.2887449583959381  0.4549959234703067  0.5529790180698413
  0.3711059005018953  0.0375484882417894  0.7179492876390725
  0.4529401501239434  0.1200793372359783  0.8834261014394968
  0.3300088621049113  0.9995490066145791  0.1327697991038477
  0.4123639005149968  0.0822395205351114  0.3042090544022429
  0.4974871277723096  0.1644461650361180  0.4694538659101184
  0.5592795807703794  0.3938667244843685  0.5116377235689455
  0.6415676948089697  0.4758309658798794  0.6765254170248554
  0.7234492944127666  0.0581530175228835  0.8412307054088970
  0.5132206106514587  0.3486190087048442  0.9222476898103764
  0.5890330246064153  0.4281019195871067  0.0823848532203328
  0.6818019181880857  0.0281148959862279  0.2724254910959729
  0.7688061131351418  0.1033150395220233  0.4310820150305901
  0.8507909818098511  0.1847806990133094  0.5943396800147482
  0.9323494039955591  0.2666851259524492  0.7584920013385315
  0.8049781428262008  0.1416800409770786  0.0060066479616552
  0.9132905969018381  0.2061298182489537  0.1770885175436376
  0.9764165716061015  0.3131266199805296  0.3453722915729784
  0.5800499142564064  0.2462741266967328  0.6350661769173982
  0.6623011689794680  0.3286169865148167  0.8002611632004601
  0.7447295515436139  0.4116948327897134  0.9656625629396416
  0.5357319790174770  0.2011200141361087  0.0488312639910120
  0.6272759022438592  0.2937376258552717  0.2174143596388447
  0.7062820585065737  0.3721711537532286  0.3879002832323692
  0.7887041500689023  0.4550377943041966  0.5529968553056719
  0.8711312486900695  0.0372341600297048  0.7177205402462263
  0.9533899800154302  0.1193222297669294  0.8827148749218736
  0.8309183834653950  0.9995535081365574  0.1324729444051300
  0.9128158649658715  0.0821954773636477  0.3042267416027755
  0.9974449418414508  0.1645458236395783  0.4695285657951729
  0.0591871339978240  0.8938853906090785  0.5115418618866627
  0.1416652273218517  0.9758595735536275  0.6765556442530851
  0.2237494092354382  0.5579454592678772  0.8414424306223935
  0.0140312283959005  0.8485353788351375  0.9220198744561827
  0.0895490708564921  0.9283847844526107  0.0825709384619913
  0.1809906968287649  0.5298715560351539  0.2750398970312489
  0.2691163292800169  0.6034375139984220  0.4316172232540936
  0.3508633311056926  0.6849062605773995  0.5945678762103555
  0.4326442120494107  0.7667559208115620  0.7586703582470022
  0.3047456216850435  0.6421441093564582  0.0059923094221048
  0.4133862535876034  0.7057064096307357  0.1776939235821615
  0.4761984102625121  0.8134522014520655  0.3456422007299835
  0.0800919369051201  0.7462971472851905  0.6350421916402667
  0.1625902659678644  0.8285972532532426  0.8001973413762400
  0.2451390262540869  0.9119278230269430  0.9657833990491511
  0.0353029615983402  0.7012518219190014  0.0484318439035221
  0.1264387445873396  0.7944665943233034  0.2174075121975747
  0.2061291644614585  0.8721435138107267  0.3878250203284779
  0.2887068629693275  0.9550528659496820  0.5529891619123504
  0.3711505512533222  0.5373147151339808  0.7178712980871680
  0.4534479096499595  0.6196775303565474  0.8829476900771880
  0.3318969088949615  0.5005317013384953  0.1326161803158499
  0.4127185302358498  0.5822593091164592  0.3045352530229550
  0.4974618562084814  0.6646454834430600  0.4696364212501791
  0.5590932198200633  0.8940548170791445  0.5117425411839704
  0.6415643867000824  0.9758629809294348  0.6764869728595784
  0.7237272994124737  0.5581362101666727  0.8412700021933688
  0.5143162015982057  0.8480471014367907  0.9225623355843737
  0.5891404182218167  0.9276650170373841  0.0826261899034293
  0.6818979934589251  0.5281744216217632  0.2723074037987843
  0.7684442577355100  0.6034214011090171  0.4313178726867122
  0.8507783050096407  0.6848864620342070  0.5943533279508415
  0.9325780896556637  0.7666832364357177  0.7585469027514762
  0.8068365998690652  0.6403170182644544  0.0068389917463989
  0.9150207115688715  0.7013799592239138  0.1766290601339122
  0.9761129283928724  0.8132989796352277  0.3449416119845452
  0.5800946776695142  0.7463982564903304  0.6351934823653949
  0.6622970615166466  0.8288751315565577  0.8003707605522266
  0.7450193506751646  0.9115829538827427  0.9658943838891361
  0.5350679168404255  0.7007245911764670  0.0490535950078694
  0.6265079198232755  0.7932796010998686  0.2176305946803510
  0.7061994850296713  0.8720435799037531  0.3879514515932314
  0.7887803180180981  0.9549905754232597  0.5528399135786373
  0.8711241051246930  0.5374251318327197  0.7178317746806329
  0.9531605113054695  0.6198406592788928  0.8829930438852500
  0.8296118172625668  0.4990545891501270  0.1324773565083319
  0.9120657855305652  0.5818979293243558  0.3045916791086611
  0.9975272254942595  0.6644246200960993  0.4693718707378451
  0.0781044015583987  0.4254239334855399  0.0772357614313535
 
  0.00000000E+00  0.00000000E+00  0.00000000E+00
  0.00000000E+00  0.00000000E+00  0.00000000E+00
  0.00000000E+00  0.00000000E+00  0.00000000E+00
  0.00000000E+00  0.00000000E+00  0.00000000E+00
  0.00000000E+00  0.00000000E+00  0.00000000E+00
  0.00000000E+00  0.00000000E+00  0.00000000E+00
  0.00000000E+00  0.00000000E+00  0.00000000E+00
  0.00000000E+00  0.00000000E+00  0.00000000E+00
  0.00000000E+00  0.00000000E+00  0.00000000E+00
  0.00000000E+00  0.00000000E+00  0.00000000E+00
  0.00000000E+00  0.00000000E+00  0.00000000E+00
  0.00000000E+00  0.00000000E+00  0.00000000E+00
  0.00000000E+00  0.00000000E+00  0.00000000E+00
  0.00000000E+00  0.00000000E+00  0.00000000E+00
  0.00000000E+00  0.00000000E+00  0.00000000E+00
  0.00000000E+00  0.00000000E+00  0.00000000E+00
  0.00000000E+00  0.00000000E+00  0.00000000E+00
  0.00000000E+00  0.00000000E+00  0.00000000E+00
  0.00000000E+00  0.00000000E+00  0.00000000E+00
  0.00000000E+00  0.00000000E+00  0.00000000E+00
  0.00000000E+00  0.00000000E+00  0.00000000E+00
  0.00000000E+00  0.00000000E+00  0.00000000E+00
  0.00000000E+00  0.00000000E+00  0.00000000E+00
  0.00000000E+00  0.00000000E+00  0.00000000E+00
  0.00000000E+00  0.00000000E+00  0.00000000E+00
  0.00000000E+00  0.00000000E+00  0.00000000E+00
  0.00000000E+00  0.00000000E+00  0.00000000E+00
  0.00000000E+00  0.00000000E+00  0.00000000E+00
  0.00000000E+00  0.00000000E+00  0.00000000E+00
  0.00000000E+00  0.00000000E+00  0.00000000E+00
  0.00000000E+00  0.00000000E+00  0.00000000E+00
  0.00000000E+00  0.00000000E+00  0.00000000E+00
  0.00000000E+00  0.00000000E+00  0.00000000E+00
  0.00000000E+00  0.00000000E+00  0.00000000E+00
  0.00000000E+00  0.00000000E+00  0.00000000E+00
  0.00000000E+00  0.00000000E+00  0.00000000E+00
  0.00000000E+00  0.00000000E+00  0.00000000E+00
  0.00000000E+00  0.00000000E+00  0.00000000E+00
  0.00000000E+00  0.00000000E+00  0.00000000E+00
  0.00000000E+00  0.00000000E+00  0.00000000E+00
  0.00000000E+00  0.00000000E+00  0.00000000E+00
  0.00000000E+00  0.00000000E+00  0.00000000E+00
  0.00000000E+00  0.00000000E+00  0.00000000E+00
  0.00000000E+00  0.00000000E+00  0.00000000E+00
  0.00000000E+00  0.00000000E+00  0.00000000E+00
  0.00000000E+00  0.00000000E+00  0.00000000E+00
  0.00000000E+00  0.00000000E+00  0.00000000E+00
  0.00000000E+00  0.00000000E+00  0.00000000E+00
  0.00000000E+00  0.00000000E+00  0.00000000E+00
  0.00000000E+00  0.00000000E+00  0.00000000E+00
  0.00000000E+00  0.00000000E+00  0.00000000E+00
  0.00000000E+00  0.00000000E+00  0.00000000E+00
  0.00000000E+00  0.00000000E+00  0.00000000E+00
  0.00000000E+00  0.00000000E+00  0.00000000E+00
  0.00000000E+00  0.00000000E+00  0.00000000E+00
  0.00000000E+00  0.00000000E+00  0.00000000E+00
  0.00000000E+00  0.00000000E+00  0.00000000E+00
  0.00000000E+00  0.00000000E+00  0.00000000E+00
  0.00000000E+00  0.00000000E+00  0.00000000E+00
  0.00000000E+00  0.00000000E+00  0.00000000E+00
  0.00000000E+00  0.00000000E+00  0.00000000E+00
  0.00000000E+00  0.00000000E+00  0.00000000E+00
  0.00000000E+00  0.00000000E+00  0.00000000E+00
  0.00000000E+00  0.00000000E+00  0.00000000E+00
  0.00000000E+00  0.00000000E+00  0.00000000E+00
  0.00000000E+00  0.00000000E+00  0.00000000E+00
  0.00000000E+00  0.00000000E+00  0.00000000E+00
  0.00000000E+00  0.00000000E+00  0.00000000E+00
  0.00000000E+00  0.00000000E+00  0.00000000E+00
  0.00000000E+00  0.00000000E+00  0.00000000E+00
  0.00000000E+00  0.00000000E+00  0.00000000E+00
  0.00000000E+00  0.00000000E+00  0.00000000E+00
  0.00000000E+00  0.00000000E+00  0.00000000E+00
  0.00000000E+00  0.00000000E+00  0.00000000E+00
  0.00000000E+00  0.00000000E+00  0.00000000E+00
  0.00000000E+00  0.00000000E+00  0.00000000E+00
  0.00000000E+00  0.00000000E+00  0.00000000E+00
  0.00000000E+00  0.00000000E+00  0.00000000E+00
  0.00000000E+00  0.00000000E+00  0.00000000E+00
  0.00000000E+00  0.00000000E+00  0.00000000E+00
  0.00000000E+00  0.00000000E+00  0.00000000E+00
  0.00000000E+00  0.00000000E+00  0.00000000E+00
  0.00000000E+00  0.00000000E+00  0.00000000E+00
  0.00000000E+00  0.00000000E+00  0.00000000E+00
  0.00000000E+00  0.00000000E+00  0.00000000E+00
  0.00000000E+00  0.00000000E+00  0.00000000E+00
  0.00000000E+00  0.00000000E+00  0.00000000E+00
  0.00000000E+00  0.00000000E+00  0.00000000E+00
  0.00000000E+00  0.00000000E+00  0.00000000E+00
  0.00000000E+00  0.00000000E+00  0.00000000E+00
  0.00000000E+00  0.00000000E+00  0.00000000E+00
  0.00000000E+00  0.00000000E+00  0.00000000E+00
  0.00000000E+00  0.00000000E+00  0.00000000E+00
  0.00000000E+00  0.00000000E+00  0.00000000E+00
  0.00000000E+00  0.00000000E+00  0.00000000E+00
  0.00000000E+00  0.00000000E+00  0.00000000E+00
  0.00000000E+00  0.00000000E+00  0.00000000E+00
  0.00000000E+00  0.00000000E+00  0.00000000E+00
  0.00000000E+00  0.00000000E+00  0.00000000E+00
  0.00000000E+00  0.00000000E+00  0.00000000E+00
  0.00000000E+00  0.00000000E+00  0.00000000E+00
  0.00000000E+00  0.00000000E+00  0.00000000E+00
  0.00000000E+00  0.00000000E+00  0.00000000E+00
  0.00000000E+00  0.00000000E+00  0.00000000E+00
  0.00000000E+00  0.00000000E+00  0.00000000E+00
  0.00000000E+00  0.00000000E+00  0.00000000E+00
  0.00000000E+00  0.00000000E+00  0.00000000E+00
  0.00000000E+00  0.00000000E+00  0.00000000E+00
  0.00000000E+00  0.00000000E+00  0.00000000E+00
  0.00000000E+00  0.00000000E+00  0.00000000E+00
  0.00000000E+00  0.00000000E+00  0.00000000E+00
  0.00000000E+00  0.00000000E+00  0.00000000E+00
  0.00000000E+00  0.00000000E+00  0.00000000E+00
  0.00000000E+00  0.00000000E+00  0.00000000E+00
  0.00000000E+00  0.00000000E+00  0.00000000E+00
  0.00000000E+00  0.00000000E+00  0.00000000E+00
  0.00000000E+00  0.00000000E+00  0.00000000E+00
  0.00000000E+00  0.00000000E+00  0.00000000E+00
  0.00000000E+00  0.00000000E+00  0.00000000E+00
  0.00000000E+00  0.00000000E+00  0.00000000E+00
  0.00000000E+00  0.00000000E+00  0.00000000E+00
  0.00000000E+00  0.00000000E+00  0.00000000E+00
  0.00000000E+00  0.00000000E+00  0.00000000E+00
  0.00000000E+00  0.00000000E+00  0.00000000E+00
  0.00000000E+00  0.00000000E+00  0.00000000E+00
  0.00000000E+00  0.00000000E+00  0.00000000E+00
  0.00000000E+00  0.00000000E+00  0.00000000E+00
  0.00000000E+00  0.00000000E+00  0.00000000E+00
  0.00000000E+00  0.00000000E+00  0.00000000E+00
  0.00000000E+00  0.00000000E+00  0.00000000E+00
  0.00000000E+00  0.00000000E+00  0.00000000E+00
  0.00000000E+00  0.00000000E+00  0.00000000E+00
  0.00000000E+00  0.00000000E+00  0.00000000E+00
  0.00000000E+00  0.00000000E+00  0.00000000E+00
  0.00000000E+00  0.00000000E+00  0.00000000E+00
  0.00000000E+00  0.00000000E+00  0.00000000E+00
  0.00000000E+00  0.00000000E+00  0.00000000E+00
  0.00000000E+00  0.00000000E+00  0.00000000E+00
  0.00000000E+00  0.00000000E+00  0.00000000E+00
  0.00000000E+00  0.00000000E+00  0.00000000E+00
  0.00000000E+00  0.00000000E+00  0.00000000E+00
  0.00000000E+00  0.00000000E+00  0.00000000E+00
  0.00000000E+00  0.00000000E+00  0.00000000E+00
  0.00000000E+00  0.00000000E+00  0.00000000E+00
  0.00000000E+00  0.00000000E+00  0.00000000E+00
  0.00000000E+00  0.00000000E+00  0.00000000E+00
  0.00000000E+00  0.00000000E+00  0.00000000E+00
  0.00000000E+00  0.00000000E+00  0.00000000E+00
  0.00000000E+00  0.00000000E+00  0.00000000E+00
  0.00000000E+00  0.00000000E+00  0.00000000E+00
  0.00000000E+00  0.00000000E+00  0.00000000E+00
  0.00000000E+00  0.00000000E+00  0.00000000E+00
  0.00000000E+00  0.00000000E+00  0.00000000E+00
  0.00000000E+00  0.00000000E+00  0.00000000E+00
  0.00000000E+00  0.00000000E+00  0.00000000E+00
  0.00000000E+00  0.00000000E+00  0.00000000E+00
  0.00000000E+00  0.00000000E+00  0.00000000E+00
  0.00000000E+00  0.00000000E+00  0.00000000E+00
  0.00000000E+00  0.00000000E+00  0.00000000E+00
  0.00000000E+00  0.00000000E+00  0.00000000E+00
  0.00000000E+00  0.00000000E+00  0.00000000E+00
  0.00000000E+00  0.00000000E+00  0.00000000E+00
  0.00000000E+00  0.00000000E+00  0.00000000E+00
  0.00000000E+00  0.00000000E+00  0.00000000E+00
  0.00000000E+00  0.00000000E+00  0.00000000E+00
  0.00000000E+00  0.00000000E+00  0.00000000E+00
  0.00000000E+00  0.00000000E+00  0.00000000E+00
  0.00000000E+00  0.00000000E+00  0.00000000E+00
  0.00000000E+00  0.00000000E+00  0.00000000E+00
  0.00000000E+00  0.00000000E+00  0.00000000E+00
  0.00000000E+00  0.00000000E+00  0.00000000E+00
  0.00000000E+00  0.00000000E+00  0.00000000E+00
  0.00000000E+00  0.00000000E+00  0.00000000E+00
  0.00000000E+00  0.00000000E+00  0.00000000E+00
  0.00000000E+00  0.00000000E+00  0.00000000E+00
  0.00000000E+00  0.00000000E+00  0.00000000E+00
  0.00000000E+00  0.00000000E+00  0.00000000E+00
  0.00000000E+00  0.00000000E+00  0.00000000E+00
  0.00000000E+00  0.00000000E+00  0.00000000E+00
  0.00000000E+00  0.00000000E+00  0.00000000E+00
  0.00000000E+00  0.00000000E+00  0.00000000E+00
  0.00000000E+00  0.00000000E+00  0.00000000E+00
  0.00000000E+00  0.00000000E+00  0.00000000E+00
  0.00000000E+00  0.00000000E+00  0.00000000E+00
  0.00000000E+00  0.00000000E+00  0.00000000E+00
  0.00000000E+00  0.00000000E+00  0.00000000E+00
  0.00000000E+00  0.00000000E+00  0.00000000E+00
  0.00000000E+00  0.00000000E+00  0.00000000E+00
  0.00000000E+00  0.00000000E+00  0.00000000E+00
  0.00000000E+00  0.00000000E+00  0.00000000E+00
  0.00000000E+00  0.00000000E+00  0.00000000E+00
  0.00000000E+00  0.00000000E+00  0.00000000E+00
