supercell of POSCAR                     
   1.00398800000000     
    -6.2729611433599999    0.0082005604289200   10.0015927484000002
     3.1280384584799998    5.4363994576400003   10.0007801159999996
    -7.8567367181199996   13.6110857897000006  -10.0002683574999995
   Al   Sc   N 
    91     4    96
Direct
  0.4795826421950551  0.3156878636711085  0.5434748846380160
  0.0619881331520915  0.3962398585800813  0.7078500377803181
  0.1448808841855893  0.4783199149188135  0.8737554059167252
  0.4357942794433427  0.2687027603035048  0.9549934670529510
  0.0120945508865802  0.3531091894920380  0.1221932946775723
  0.0999183176274130  0.4443820615858129  0.2967298889829806
  0.1883363709549499  0.0227329435556243  0.4597181235164456
  0.2709697864638798  0.1049464175703676  0.6246640915991861
  0.3530975046678364  0.1867851567517960  0.7899486044930626
  0.2279158385686202  0.0607992654187299  0.0384895396329199
  0.3975194125914001  0.2305092205724080  0.3757837646374185
  0.0001337806123161  0.1670594766195634  0.6663909191494852
  0.0820062361754523  0.2486080633984642  0.8309832071561019
  0.1630228251800361  0.3307513667374025  0.9949152200812748
  0.4595313417300133  0.1155512724839269  0.0774847845840299
  0.0529630587842291  0.2159612570954366  0.2511647123601719
  0.1264802628129189  0.2932683112522625  0.4187539746542015
  0.2087021835379943  0.3760619630854336  0.5839599617406392
  0.2910534050218843  0.4581101218353467  0.7492961302252468
  0.3731839144363747  0.0397999212983251  0.9138686601778900
  0.3365059132014281  0.0083340163778232  0.3380391606463533
  0.4175693279289092  0.0871611612982548  0.5009693392582122
  0.9795479434925767  0.3141742680636028  0.5422189682826328
  0.5619295771890975  0.3968437761513286  0.7083054675063778
  0.6437334656916747  0.4782130501480850  0.8741540602725095
  0.9349049215733842  0.2686905389153011  0.9565130792949148
  0.5062517427421511  0.3369218846775368  0.1269717030120390
  0.6049090176267171  0.4437909067461661  0.2972381246065297
  0.6863523863282737  0.0238685061296025  0.4597036712868316
  0.7705022697958483  0.1053421041889564  0.6251688167588512
  0.8528955077249947  0.1873242937863608  0.7905327319720783
  0.7289101377869756  0.0602589187505345  0.0387423357627128
  0.8236948957672254  0.1400583133103055  0.2100017350005885
  0.8981219260448512  0.2320960308357982  0.3757377378893665
  0.4999615517637963  0.1673330728665618  0.6662929430903048
  0.5819935604455395  0.2489145211393904  0.8309690622133701
  0.6602440708316450  0.3301060074311977  0.9967428606286077
  0.9580712728096046  0.1186398339329742  0.0797778856482694
  0.5529787917213085  0.2106992707420190  0.2545602409419558
  0.6265926920646265  0.2937443106979813  0.4194335230287862
  0.7090626015354147  0.3762689092097347  0.5843246767648722
  0.7910403050433672  0.4580681537606139  0.7494742344763168
  0.8739226324366740  0.0395724727983406  0.9145715852654845
  0.8365971207648997  0.0035455023754452  0.3391800002514174
  0.9179632822541350  0.0856646207923220  0.5018690482679631
  0.4792038745667426  0.8148165929035258  0.5419969755228777
  0.0615096009543592  0.8963630357372736  0.7074872511645367
  0.1436976212941516  0.9783429931425403  0.8721788457043687
  0.4346245235018102  0.7696517453759810  0.9571910004482547
  0.0192754834180136  0.8511809792645977  0.1226386062113463
  0.1059487755280699  0.9427946079333651  0.2954384388940170
  0.1887864235977617  0.5224621788069754  0.4602994642182452
  0.2705354079450260  0.6055569155212766  0.6255169468660782
  0.3529781064207071  0.6872933094710731  0.7909385081393125
  0.2271977287738096  0.5600907967881454  0.0421309766349012
  0.3165375726143012  0.6399174336962830  0.2084017815233850
  0.3967751229857726  0.7320510569354681  0.3758210301188569
  0.9998543914715725  0.6673126554612239  0.6665812153543342
  0.0820959676422248  0.7488663365273069  0.8312848632942007
  0.1644395237224714  0.8310747863639136  0.9954981655967217
  0.4560182624648093  0.6165811475118943  0.0807602830814815
  0.0469698744573890  0.7093420350350854  0.2527361454256010
  0.1268184898820266  0.7927967569357364  0.4187333240019626
  0.2086381579977186  0.8758982238771154  0.5837857461826630
  0.2910811324225762  0.9578172409231698  0.7486778824863194
  0.3725672804041693  0.5405466300272579  0.9152567679549080
  0.3349828141437428  0.5042752499887158  0.3385485314647028
  0.4182427817892247  0.5858746110614632  0.5020619128018211
  0.9789511965697386  0.8146205182940207  0.5423725570065869
  0.5620759884138238  0.8961427618536533  0.7077303290208192
  0.6446626372151840  0.9782706616217567  0.8733759365594125
  0.9372899131780130  0.7680365646645555  0.9567784419719132
  0.5161433090312357  0.8506884104825758  0.1202784862406858
  0.6000378951360972  0.9452886070194921  0.2964321739040798
  0.6886174787849484  0.5234267391895102  0.4605465578937569
  0.7709538656060104  0.6053385851333175  0.6254148924945966
  0.8534563544027662  0.6869611880025062  0.7909670783095066
  0.7257470276779614  0.5606141650364265  0.0390604292698811
  0.8174673612657699  0.6392803559851856  0.2092309637896079
  0.8965881231595318  0.7333158589649571  0.3771519804401464
  0.5000472870770025  0.6672654646492973  0.6664931091486466
  0.5819275576216114  0.7483787441731309  0.8312135692245946
  0.6651439486526343  0.8285895033788293  0.9940901009339100
  0.9573488388959817  0.6181656605002956  0.0806200398886361
  0.5450068220849076  0.7132900154646862  0.2526866888968939
  0.6252844162502385  0.7949667710250381  0.4180476723520385
  0.7082301625904250  0.8765011249437649  0.5836059071782884
  0.7910122546403215  0.9580359435743020  0.7491287196349035
  0.8737584449763176  0.5390605321638731  0.9147334033402572
  0.8347072532877604  0.5059215266766586  0.3389134862950840
  0.9178995603796949  0.5860198587602170  0.5019433787970371
  0.2434012896190438  0.3897852789797227  0.1735000384847183
  0.7374387255097901  0.4095435188687517  0.1689735549128883
  0.2484309599020520  0.9204850640366971  0.1683174684882474
  0.7405674718170587  0.9146823067618328  0.1691455918828666
  0.0584732763142455  0.3949873156210302  0.5118799205100828
  0.1411804503270346  0.4764046383562999  0.6764651794972139
  0.2232921000209700  0.0579682541974691  0.8401880504112569
  0.0133301242160400  0.3475734717845071  0.9216856492032051
  0.0869467144939691  0.4275987317832133  0.0820440288301825
  0.1814722492280865  0.0307712805014333  0.2728806162341471
  0.2665471567139051  0.1047230046617855  0.4322031714255843
  0.3503861691385168  0.1855277798767645  0.5943313963014205
  0.4322193687031017  0.2669225274337279  0.7581638890363749
  0.3045770220540476  0.1421838614233195  0.0045465827974880
  0.4432666483831227  0.2225687348805039  0.1673337637100616
  0.4775490882853717  0.3141400545650441  0.3461307287018229
  0.0799117892190040  0.2465756139804469  0.6349316898342892
  0.1622197568683816  0.3287093385504036  0.7999400084461215
  0.2445239899802161  0.4116490365571295  0.9656283377061641
  0.0342228276461540  0.2010714769975266  0.0480349335480952
  0.1050160624142649  0.3164028289598093  0.2170746189759001
  0.2054735639866934  0.3737808020571549  0.3887960830091117
  0.2884150852664646  0.4562607050021725  0.5534985247538984
  0.3708609275691686  0.0371815190201090  0.7169655593970745
  0.4530021149730601  0.1186797431371218  0.8811594426238898
  0.3335363820068409  0.9856259823762983  0.1217986655636309
  0.4241325600969077  0.0773493125823848  0.3153942401278300
  0.4977627014042199  0.1683223247501999  0.4723057853121446
  0.5593252108131139  0.3953393885223093  0.5122668810722075
  0.6413964259717773  0.4765531414917916  0.6766282449455261
  0.7236929586998855  0.0580978296123007  0.8410544853886748
  0.5129068662957152  0.3489565616200565  0.9211705835513229
  0.5822885187500546  0.4241644527663979  0.0842040701248408
  0.6849516741375510  0.0263424157605101  0.2730336069323869
  0.7685178647774080  0.1040377801878662  0.4314342386876788
  0.8504643304078598  0.1854292245163762  0.5943773773161780
  0.9322178174736493  0.2668548006605462  0.7582008686933577
  0.8065755712890521  0.1405163700296725  0.0060372555384376
  0.9150069069244680  0.2047023427176242  0.1772163042057144
  0.9760190391289001  0.3144341570523181  0.3455337533074498
  0.5802060737962691  0.2474452552559328  0.6358942300491890
  0.6621891536963815  0.3289037802044490  0.8000592314352417
  0.7436078114996079  0.4096416267296092  0.9656785257760561
  0.5391733255473454  0.1946468381320443  0.0425282357667029
  0.6363450554806604  0.2943848827499806  0.2212243829475256
  0.7073142819455640  0.3728956581687797  0.3889943438782169
  0.7888831067514346  0.4556205280703054  0.5532803655876748
  0.8706969015885448  0.0376868312642671  0.7174961022648105
  0.9528159990381653  0.1194127740664968  0.8820919704461190
  0.8305573670571604  0.9998736255462219  0.1328165072424454
  0.9147888070137995  0.0807248607246578  0.3052765720286885
  0.9969683924503201  0.1648787035495829  0.4696617678498711
  0.0588642633825387  0.8943670450988961  0.5115349047903806
  0.1411067343227330  0.9761063396184539  0.6760795258619865
  0.2233578718812481  0.5582492420800662  0.8411104880079279
  0.0142823922134383  0.8478139642024090  0.9223330650156143
  0.0900955620017001  0.9279881871485145  0.0835376893485176
  0.1821504068628528  0.5274936136179136  0.2733046040901925
  0.2689760207567176  0.6036985972319400  0.4316057528597881
  0.3503770684241729  0.6854560215870862  0.5945138587114158
  0.4322479217398438  0.7668042588763058  0.7583608465354246
  0.3035087045623968  0.6412031101778410  0.0067244782991409
  0.4101032747040776  0.7060393644364780  0.1780028721007128
  0.4753897317541274  0.8124081805577674  0.3455561549150872
  0.0794270947631119  0.7469073231413716  0.6349616640643205
  0.1615239461165672  0.8283691190149227  0.7990958655284572
  0.2426373227645300  0.9109639039961479  0.9625215084561702
  0.0339309391590135  0.7016804692731071  0.0494739173136693
  0.1236937955616639  0.7933183342893102  0.2187604019161000
  0.2062803088824268  0.8719548783139004  0.3879096325840337
  0.2883288869715273  0.9550690411185982  0.5527216131020296
  0.3708046694065246  0.5378489351240390  0.7178063030890414
  0.4524998001799716  0.6198079484667716  0.8827855715993564
  0.3213179078794752  0.5003262492373324  0.1347070472405392
  0.4125606393270118  0.5819288628646007  0.3045712221320116
  0.4971947078330032  0.6650114013660229  0.4697235755476399
  0.5582851695192232  0.8953283131079459  0.5113597545981179
  0.6413021014340146  0.9762599942972443  0.6762939571162292
  0.7234049425601725  0.5577025530914739  0.8413954741759753
  0.5137660523790970  0.8479165812810621  0.9219972502244573
  0.5923387946011189  0.9247398063169641  0.0815892231705320
  0.6817292947705198  0.5300952488977018  0.2726072697243538
  0.7677395144023009  0.6048147939053266  0.4317415670326881
  0.8501656588103330  0.6858126935736877  0.5944855038886487
  0.9321964779419361  0.7669104840654768  0.7585745781787097
  0.8056029711674242  0.6398493266123921  0.0060054760679762
  0.9097953627693300  0.7059443002938863  0.1777399933715387
  0.9771982241651855  0.8124682857633729  0.3459827109700342
  0.5797360250982422  0.7467470705035808  0.6347821547527843
  0.6622586122851928  0.8282467500840625  0.7998878408068890
  0.7466508429374130  0.9092661254585153  0.9647660687897428
  0.5361691620100117  0.6962256466646650  0.0476784603015119
  0.6254481964121013  0.7934418058827148  0.2173186207222884
  0.7089086543217391  0.8713715409979912  0.3889071080624902
  0.7883676423358921  0.9559117198977560  0.5528946144210352
  0.8709470227261633  0.5375866276705210  0.7178079560703878
  0.9536404806341849  0.6188629459118147  0.8828342266684572
  0.8224470717228201  0.5010169908229045  0.1315391341124865
  0.9090356546699425  0.5871813927758893  0.3061703236151416
  0.9981208788486526  0.6648180034303621  0.4703769008857961
 
  0.00000000E+00  0.00000000E+00  0.00000000E+00
  0.00000000E+00  0.00000000E+00  0.00000000E+00
  0.00000000E+00  0.00000000E+00  0.00000000E+00
  0.00000000E+00  0.00000000E+00  0.00000000E+00
  0.00000000E+00  0.00000000E+00  0.00000000E+00
  0.00000000E+00  0.00000000E+00  0.00000000E+00
  0.00000000E+00  0.00000000E+00  0.00000000E+00
  0.00000000E+00  0.00000000E+00  0.00000000E+00
  0.00000000E+00  0.00000000E+00  0.00000000E+00
  0.00000000E+00  0.00000000E+00  0.00000000E+00
  0.00000000E+00  0.00000000E+00  0.00000000E+00
  0.00000000E+00  0.00000000E+00  0.00000000E+00
  0.00000000E+00  0.00000000E+00  0.00000000E+00
  0.00000000E+00  0.00000000E+00  0.00000000E+00
  0.00000000E+00  0.00000000E+00  0.00000000E+00
  0.00000000E+00  0.00000000E+00  0.00000000E+00
  0.00000000E+00  0.00000000E+00  0.00000000E+00
  0.00000000E+00  0.00000000E+00  0.00000000E+00
  0.00000000E+00  0.00000000E+00  0.00000000E+00
  0.00000000E+00  0.00000000E+00  0.00000000E+00
  0.00000000E+00  0.00000000E+00  0.00000000E+00
  0.00000000E+00  0.00000000E+00  0.00000000E+00
  0.00000000E+00  0.00000000E+00  0.00000000E+00
  0.00000000E+00  0.00000000E+00  0.00000000E+00
  0.00000000E+00  0.00000000E+00  0.00000000E+00
  0.00000000E+00  0.00000000E+00  0.00000000E+00
  0.00000000E+00  0.00000000E+00  0.00000000E+00
  0.00000000E+00  0.00000000E+00  0.00000000E+00
  0.00000000E+00  0.00000000E+00  0.00000000E+00
  0.00000000E+00  0.00000000E+00  0.00000000E+00
  0.00000000E+00  0.00000000E+00  0.00000000E+00
  0.00000000E+00  0.00000000E+00  0.00000000E+00
  0.00000000E+00  0.00000000E+00  0.00000000E+00
  0.00000000E+00  0.00000000E+00  0.00000000E+00
  0.00000000E+00  0.00000000E+00  0.00000000E+00
  0.00000000E+00  0.00000000E+00  0.00000000E+00
  0.00000000E+00  0.00000000E+00  0.00000000E+00
  0.00000000E+00  0.00000000E+00  0.00000000E+00
  0.00000000E+00  0.00000000E+00  0.00000000E+00
  0.00000000E+00  0.00000000E+00  0.00000000E+00
  0.00000000E+00  0.00000000E+00  0.00000000E+00
  0.00000000E+00  0.00000000E+00  0.00000000E+00
  0.00000000E+00  0.00000000E+00  0.00000000E+00
  0.00000000E+00  0.00000000E+00  0.00000000E+00
  0.00000000E+00  0.00000000E+00  0.00000000E+00
  0.00000000E+00  0.00000000E+00  0.00000000E+00
  0.00000000E+00  0.00000000E+00  0.00000000E+00
  0.00000000E+00  0.00000000E+00  0.00000000E+00
  0.00000000E+00  0.00000000E+00  0.00000000E+00
  0.00000000E+00  0.00000000E+00  0.00000000E+00
  0.00000000E+00  0.00000000E+00  0.00000000E+00
  0.00000000E+00  0.00000000E+00  0.00000000E+00
  0.00000000E+00  0.00000000E+00  0.00000000E+00
  0.00000000E+00  0.00000000E+00  0.00000000E+00
  0.00000000E+00  0.00000000E+00  0.00000000E+00
  0.00000000E+00  0.00000000E+00  0.00000000E+00
  0.00000000E+00  0.00000000E+00  0.00000000E+00
  0.00000000E+00  0.00000000E+00  0.00000000E+00
  0.00000000E+00  0.00000000E+00  0.00000000E+00
  0.00000000E+00  0.00000000E+00  0.00000000E+00
  0.00000000E+00  0.00000000E+00  0.00000000E+00
  0.00000000E+00  0.00000000E+00  0.00000000E+00
  0.00000000E+00  0.00000000E+00  0.00000000E+00
  0.00000000E+00  0.00000000E+00  0.00000000E+00
  0.00000000E+00  0.00000000E+00  0.00000000E+00
  0.00000000E+00  0.00000000E+00  0.00000000E+00
  0.00000000E+00  0.00000000E+00  0.00000000E+00
  0.00000000E+00  0.00000000E+00  0.00000000E+00
  0.00000000E+00  0.00000000E+00  0.00000000E+00
  0.00000000E+00  0.00000000E+00  0.00000000E+00
  0.00000000E+00  0.00000000E+00  0.00000000E+00
  0.00000000E+00  0.00000000E+00  0.00000000E+00
  0.00000000E+00  0.00000000E+00  0.00000000E+00
  0.00000000E+00  0.00000000E+00  0.00000000E+00
  0.00000000E+00  0.00000000E+00  0.00000000E+00
  0.00000000E+00  0.00000000E+00  0.00000000E+00
  0.00000000E+00  0.00000000E+00  0.00000000E+00
  0.00000000E+00  0.00000000E+00  0.00000000E+00
  0.00000000E+00  0.00000000E+00  0.00000000E+00
  0.00000000E+00  0.00000000E+00  0.00000000E+00
  0.00000000E+00  0.00000000E+00  0.00000000E+00
  0.00000000E+00  0.00000000E+00  0.00000000E+00
  0.00000000E+00  0.00000000E+00  0.00000000E+00
  0.00000000E+00  0.00000000E+00  0.00000000E+00
  0.00000000E+00  0.00000000E+00  0.00000000E+00
  0.00000000E+00  0.00000000E+00  0.00000000E+00
  0.00000000E+00  0.00000000E+00  0.00000000E+00
  0.00000000E+00  0.00000000E+00  0.00000000E+00
  0.00000000E+00  0.00000000E+00  0.00000000E+00
  0.00000000E+00  0.00000000E+00  0.00000000E+00
  0.00000000E+00  0.00000000E+00  0.00000000E+00
  0.00000000E+00  0.00000000E+00  0.00000000E+00
  0.00000000E+00  0.00000000E+00  0.00000000E+00
  0.00000000E+00  0.00000000E+00  0.00000000E+00
  0.00000000E+00  0.00000000E+00  0.00000000E+00
  0.00000000E+00  0.00000000E+00  0.00000000E+00
  0.00000000E+00  0.00000000E+00  0.00000000E+00
  0.00000000E+00  0.00000000E+00  0.00000000E+00
  0.00000000E+00  0.00000000E+00  0.00000000E+00
  0.00000000E+00  0.00000000E+00  0.00000000E+00
  0.00000000E+00  0.00000000E+00  0.00000000E+00
  0.00000000E+00  0.00000000E+00  0.00000000E+00
  0.00000000E+00  0.00000000E+00  0.00000000E+00
  0.00000000E+00  0.00000000E+00  0.00000000E+00
  0.00000000E+00  0.00000000E+00  0.00000000E+00
  0.00000000E+00  0.00000000E+00  0.00000000E+00
  0.00000000E+00  0.00000000E+00  0.00000000E+00
  0.00000000E+00  0.00000000E+00  0.00000000E+00
  0.00000000E+00  0.00000000E+00  0.00000000E+00
  0.00000000E+00  0.00000000E+00  0.00000000E+00
  0.00000000E+00  0.00000000E+00  0.00000000E+00
  0.00000000E+00  0.00000000E+00  0.00000000E+00
  0.00000000E+00  0.00000000E+00  0.00000000E+00
  0.00000000E+00  0.00000000E+00  0.00000000E+00
  0.00000000E+00  0.00000000E+00  0.00000000E+00
  0.00000000E+00  0.00000000E+00  0.00000000E+00
  0.00000000E+00  0.00000000E+00  0.00000000E+00
  0.00000000E+00  0.00000000E+00  0.00000000E+00
  0.00000000E+00  0.00000000E+00  0.00000000E+00
  0.00000000E+00  0.00000000E+00  0.00000000E+00
  0.00000000E+00  0.00000000E+00  0.00000000E+00
  0.00000000E+00  0.00000000E+00  0.00000000E+00
  0.00000000E+00  0.00000000E+00  0.00000000E+00
  0.00000000E+00  0.00000000E+00  0.00000000E+00
  0.00000000E+00  0.00000000E+00  0.00000000E+00
  0.00000000E+00  0.00000000E+00  0.00000000E+00
  0.00000000E+00  0.00000000E+00  0.00000000E+00
  0.00000000E+00  0.00000000E+00  0.00000000E+00
  0.00000000E+00  0.00000000E+00  0.00000000E+00
  0.00000000E+00  0.00000000E+00  0.00000000E+00
  0.00000000E+00  0.00000000E+00  0.00000000E+00
  0.00000000E+00  0.00000000E+00  0.00000000E+00
  0.00000000E+00  0.00000000E+00  0.00000000E+00
  0.00000000E+00  0.00000000E+00  0.00000000E+00
  0.00000000E+00  0.00000000E+00  0.00000000E+00
  0.00000000E+00  0.00000000E+00  0.00000000E+00
  0.00000000E+00  0.00000000E+00  0.00000000E+00
  0.00000000E+00  0.00000000E+00  0.00000000E+00
  0.00000000E+00  0.00000000E+00  0.00000000E+00
  0.00000000E+00  0.00000000E+00  0.00000000E+00
  0.00000000E+00  0.00000000E+00  0.00000000E+00
  0.00000000E+00  0.00000000E+00  0.00000000E+00
  0.00000000E+00  0.00000000E+00  0.00000000E+00
  0.00000000E+00  0.00000000E+00  0.00000000E+00
  0.00000000E+00  0.00000000E+00  0.00000000E+00
  0.00000000E+00  0.00000000E+00  0.00000000E+00
  0.00000000E+00  0.00000000E+00  0.00000000E+00
  0.00000000E+00  0.00000000E+00  0.00000000E+00
  0.00000000E+00  0.00000000E+00  0.00000000E+00
  0.00000000E+00  0.00000000E+00  0.00000000E+00
  0.00000000E+00  0.00000000E+00  0.00000000E+00
  0.00000000E+00  0.00000000E+00  0.00000000E+00
  0.00000000E+00  0.00000000E+00  0.00000000E+00
  0.00000000E+00  0.00000000E+00  0.00000000E+00
  0.00000000E+00  0.00000000E+00  0.00000000E+00
  0.00000000E+00  0.00000000E+00  0.00000000E+00
  0.00000000E+00  0.00000000E+00  0.00000000E+00
  0.00000000E+00  0.00000000E+00  0.00000000E+00
  0.00000000E+00  0.00000000E+00  0.00000000E+00
  0.00000000E+00  0.00000000E+00  0.00000000E+00
  0.00000000E+00  0.00000000E+00  0.00000000E+00
  0.00000000E+00  0.00000000E+00  0.00000000E+00
  0.00000000E+00  0.00000000E+00  0.00000000E+00
  0.00000000E+00  0.00000000E+00  0.00000000E+00
  0.00000000E+00  0.00000000E+00  0.00000000E+00
  0.00000000E+00  0.00000000E+00  0.00000000E+00
  0.00000000E+00  0.00000000E+00  0.00000000E+00
  0.00000000E+00  0.00000000E+00  0.00000000E+00
  0.00000000E+00  0.00000000E+00  0.00000000E+00
  0.00000000E+00  0.00000000E+00  0.00000000E+00
  0.00000000E+00  0.00000000E+00  0.00000000E+00
  0.00000000E+00  0.00000000E+00  0.00000000E+00
  0.00000000E+00  0.00000000E+00  0.00000000E+00
  0.00000000E+00  0.00000000E+00  0.00000000E+00
  0.00000000E+00  0.00000000E+00  0.00000000E+00
  0.00000000E+00  0.00000000E+00  0.00000000E+00
  0.00000000E+00  0.00000000E+00  0.00000000E+00
  0.00000000E+00  0.00000000E+00  0.00000000E+00
  0.00000000E+00  0.00000000E+00  0.00000000E+00
  0.00000000E+00  0.00000000E+00  0.00000000E+00
  0.00000000E+00  0.00000000E+00  0.00000000E+00
  0.00000000E+00  0.00000000E+00  0.00000000E+00
  0.00000000E+00  0.00000000E+00  0.00000000E+00
  0.00000000E+00  0.00000000E+00  0.00000000E+00
  0.00000000E+00  0.00000000E+00  0.00000000E+00
  0.00000000E+00  0.00000000E+00  0.00000000E+00
  0.00000000E+00  0.00000000E+00  0.00000000E+00
  0.00000000E+00  0.00000000E+00  0.00000000E+00
  0.00000000E+00  0.00000000E+00  0.00000000E+00
  0.00000000E+00  0.00000000E+00  0.00000000E+00
  0.00000000E+00  0.00000000E+00  0.00000000E+00
