supercell of POSCAR                     
   1.00398800000000     
    -6.2729611433599999    0.0082005604289200   10.0015927484000002
     3.1280384584799998    5.4363994576400003   10.0007801159999996
    -7.8567367181199996   13.6110857897000006  -10.0002683574999995
   Al   Sc   N 
    91     4    96
Direct
  0.4796995170410767  0.3136073182699022  0.5428242009527295
  0.0619835434446117  0.3961543022274228  0.7075953943774849
  0.1420474065798700  0.4801886019890560  0.8718360762059518
  0.4398024915959198  0.2664194329302418  0.9563151541347352
  0.0146310206819180  0.3496537521150529  0.1227939032996872
  0.1045647146346980  0.4409179167074413  0.2962267662890881
  0.1886631180855147  0.0220091951161692  0.4606346981594669
  0.2712016280401386  0.1045575628544881  0.6253870966904245
  0.3539260023635720  0.1874903837703030  0.7903368301908600
  0.2263609620761642  0.0603134168509598  0.0404112752345966
  0.3191274279879721  0.1406274365838271  0.2100668991853425
  0.3973809481371546  0.2311269198616941  0.3769687262993031
  0.0006944350030622  0.1661286222405920  0.6662746023967756
  0.0848578007636007  0.2471023233742144  0.8297796918688718
  0.4599823103379066  0.1219858787610946  0.0821699757836569
  0.0465587167431138  0.2108223014231569  0.2539711432127163
  0.1266346729357934  0.2925647043458852  0.4195348951899049
  0.2091268982348069  0.3752197351447748  0.5842048316726363
  0.2916138914741424  0.4575740606034984  0.7486998429167855
  0.3743528312419642  0.0390541324098592  0.9123420743987651
  0.3349987138568764  0.0042426742242156  0.3393992205612406
  0.4183495234225845  0.0849009940370706  0.5023975742016233
  0.9796235751116882  0.3136570199518331  0.5427358569918894
  0.5623070729516684  0.3959689787863496  0.7079205278979259
  0.6438568008843220  0.4788008381998523  0.8734979851286369
  0.9337236976405165  0.2683423377903225  0.9570496552782330
  0.5172228059112385  0.3526962864381744  0.1218986906267006
  0.6039819208954356  0.4419958872302132  0.2969602817509909
  0.6887556495134035  0.0218538271712561  0.4606457257609264
  0.7711327528627692  0.1045316940986183  0.6254907808285068
  0.8535621292259350  0.1868931836836580  0.7908713244429109
  0.7279645223222531  0.0620487513065413  0.0396977922461801
  0.8192371402125644  0.1407028518179558  0.2098346095829271
  0.8970822729079018  0.2312669436923045  0.3770147880576999
  0.5004516288174585  0.1666556609079421  0.6664857790203698
  0.5825241924618680  0.2486797780238490  0.8304971565733652
  0.6628372108608360  0.3316732175138952  0.9949450758780216
  0.9555338934500242  0.1195629068507813  0.0799477560495063
  0.5474573440748713  0.2114942331693968  0.2539601207313353
  0.6269037721239243  0.2924104777292129  0.4197340869670327
  0.7091279412645335  0.3752610754581625  0.5843232508475182
  0.7913722052009788  0.4576907277065345  0.7491353782976162
  0.8726903494344853  0.0402472980715061  0.9141932506071200
  0.8353418041239067  0.0038189032391855  0.3392092589102589
  0.9184451603158124  0.0846768511609994  0.5023188602578728
  0.4796767447979704  0.8135997705491249  0.5427702851356315
  0.0621053473837350  0.8959689192849822  0.7078060840224296
  0.1441492596792386  0.9787832968148251  0.8733628195068306
  0.4350386590267590  0.7694853007875295  0.9561084079412936
  0.0173138428154118  0.8522778748033986  0.1220197594128081
  0.1039374393186705  0.9415998643519217  0.2967828945019519
  0.1886786642080267  0.5218337731865574  0.4605021380893177
  0.2711115153419641  0.6045603671277533  0.6253464430440232
  0.3532898866329361  0.6868721139554452  0.7907154129327552
  0.2265382966375924  0.5665056504997565  0.0413246009946988
  0.3198459711488510  0.6408656085589257  0.2101059477704936
  0.3972097096424463  0.7313252390881004  0.3769396706132113
  0.0003786407061952  0.6666805954938297  0.6665797058306069
  0.0814920046792409  0.7499151534834567  0.8307055052979209
  0.1620897810652622  0.8322514676172972  0.9942636134169618
  0.4565777599758007  0.6205553961347761  0.0799575854050261
  0.0487329164401160  0.7097719080109499  0.2534531763836299
  0.1267605091216097  0.7921986756708250  0.4194201193090024
  0.2091745193323575  0.8749974514341972  0.5841108252568503
  0.2913101891379881  0.9573628432953498  0.7486639183625314
  0.3726584683367378  0.5398363422824985  0.9145549275559972
  0.3353784818844758  0.5035082712876289  0.3390171292961668
  0.4183096375838886  0.5847288714621186  0.5021879761710935
  0.9796540374135887  0.8134926295163396  0.5427290032561771
  0.5619983412653440  0.8962048466044124  0.7077127786032520
  0.6448025791630272  0.9786756259338247  0.8728390290081833
  0.9353896415594178  0.7709940040799310  0.9558304030777691
  0.5165501554275806  0.8514882135185147  0.1220824593601009
  0.6041830376786876  0.9415797291058752  0.2965579382103627
  0.6887266175335256  0.5221042770427147  0.4606945336793515
  0.7710849145961518  0.6045970524011750  0.6254621867371242
  0.8528329122473295  0.6877165575265067  0.7901574819529174
  0.7261149992257927  0.5623621386926061  0.0396839533426743
  0.8194830716058732  0.6387492999807947  0.2095269032028781
  0.8973320632839830  0.7308472970463740  0.3766674549368361
  0.5002699784002900  0.6664666035988205  0.6664480347716832
  0.5811189154902436  0.7494105225494181  0.8302003683980317
  0.6609440258270496  0.8335261179392361  0.9938167799746509
  0.9529050167218287  0.6237435266655993  0.0766009017415783
  0.5470099259634793  0.7113953577514280  0.2537529487476249
  0.6267091414639481  0.7925942207257464  0.4195721035602773
  0.7091420589985660  0.8752052145072966  0.5842985732701322
  0.7913271893711382  0.9578647860449720  0.7489518879323214
  0.8690776347234461  0.5460913395471820  0.9140837753430020
  0.8351723800395945  0.5040920354006317  0.3394144074675580
  0.9183480377324713  0.5849502944468270  0.5024068775986947
  0.2435988961026894  0.4114883673356005  0.1673126526920683
  0.7414356257956598  0.4124434905323326  0.1694750146790227
  0.2427872772721287  0.9122780339227319  0.1694537363538302
  0.7445438812816647  0.9105762114717280  0.1692242545575482
  0.0591743669837683  0.3937366069972228  0.5115342007566070
  0.1416884989683922  0.4757842790520783  0.6764391803808891
  0.2238658886804714  0.0581231255942285  0.8413380842478944
  0.9938906738180364  0.3524323369896649  0.9142730545750553
  0.0786845567828820  0.4369637705144456  0.0878839158240723
  0.1822325388641630  0.0270320403369695  0.2721838709837598
  0.2686009500001987  0.1030728404571732  0.4311453800933620
  0.3508347981325102  0.1847264000057081  0.5943721300796057
  0.4328575652267972  0.2669402322233978  0.7585214572940515
  0.3235490278018460  0.1188152242192047  0.0087943322828039
  0.4123127021341801  0.2062963624500114  0.1785686092207968
  0.4769106532548832  0.3122485233492114  0.3455492802860434
  0.0802079218249077  0.2462077554067648  0.6351467022076704
  0.1628456498672008  0.3289607004456201  0.8003465087383717
  0.2562802789157246  0.4238761441947005  0.9625664791831028
  0.0357615822460247  0.2013803770387312  0.0492134425930573
  0.1256411873380969  0.2920772620948071  0.2178167557731570
  0.2064068117873390  0.3715059256294211  0.3875078394565179
  0.2888174185658414  0.4547438809460047  0.5527715159700577
  0.3711049459528155  0.0376649119801939  0.7179838478036373
  0.4535719650954206  0.1200562597729871  0.8829830390245093
  0.3297614702840619  0.9994159699278242  0.1338414809801378
  0.4130925472243163  0.0813191140333842  0.3044795955659083
  0.4976627722085354  0.1640807342847026  0.4695622490720339
  0.5592593741955199  0.3936530648324847  0.5116078300749933
  0.6418599351154697  0.4757686180009131  0.6765337249428001
  0.7236531731860580  0.0583822034196402  0.8412427043597930
  0.5152408713507981  0.3482388212373237  0.9222088362592658
  0.5879615530436055  0.4298123917889214  0.0829798124467729
  0.6829828097533550  0.0265718430318671  0.2713134916710374
  0.7688385187467404  0.1026334184983568  0.4309539240467757
  0.8508559873811521  0.1846358611838426  0.5943754901890514
  0.9327952716976569  0.2664923302412276  0.7586359255439987
  0.8049712048360433  0.1426515726298518  0.0067611198951596
  0.9121894747119228  0.2056768559150299  0.1775887485352428
  0.9761359331307062  0.3126289432483844  0.3455466672984215
  0.5802856728284453  0.2462813604997081  0.6351504477820669
  0.6627985070478672  0.3289642377957378  0.8004600142078857
  0.7434760446391735  0.4126858763252130  0.9665619403643220
  0.5363341903670076  0.2020247432476907  0.0499156831748024
  0.6259894040649812  0.2935709918325884  0.2176110007292564
  0.7063646051074670  0.3716088692559651  0.3878691142484030
  0.7888773372759488  0.4547846607115673  0.5529212729847899
  0.8713484489173098  0.0375269651135284  0.7179184546566191
  0.9531315900386517  0.1192102105555648  0.8833952703659875
  0.8298229952224006  0.9995439540926867  0.1330692315117119
  0.9126965253360950  0.0814940216996760  0.3043730625789678
  0.9975373077497665  0.1640725046454605  0.4695674355154011
  0.0591815504243769  0.8934899929317126  0.5113831988276871
  0.1416870216305171  0.9756802547199541  0.6763245755629796
  0.2233851119169543  0.5592427042094883  0.8408036407882093
  0.0135253502055193  0.8491000009299441  0.9222741111783606
  0.0886653839336589  0.9294800583385623  0.0830027217536866
  0.1837094320587198  0.5252962687467928  0.2708399391639986
  0.2686301097561454  0.6026093306057305  0.4307395057996288
  0.3508310144760429  0.6845161433544789  0.5941691597192218
  0.4321838487716789  0.7667137152613392  0.7583886967689395
  0.3049187651633360  0.6443677084169153  0.0068928526694805
  0.4125663557621024  0.7057541744979687  0.1779277418376566
  0.4763604552927276  0.8128379732822211  0.3454197125428422
  0.0802189329183420  0.7461992140718721  0.6350883783140873
  0.1624353277724708  0.8292059403530274  0.8003597090757353
  0.2441658507845830  0.9118600429342223  0.9660373170659042
  0.0342497460607945  0.7035014299567379  0.0489897924817981
  0.1260463201048410  0.7930079810092749  0.2174819063719085
  0.2062921341989892  0.8715251868108496  0.3877623733155673
  0.2888351300078114  0.9547669261697678  0.5528662605191315
  0.3713730382476967  0.5374508466766343  0.7177973585387889
  0.4528506552000451  0.6197982050915556  0.8833692107203106
  0.3298470927055774  0.5008114821921126  0.1330536367149122
  0.4127753589957806  0.5815037465039339  0.3045163699032756
  0.4975540877273517  0.6641525811728570  0.4695041835314058
  0.5592156999017206  0.8937355215326974  0.5115568476515193
  0.6416396023490378  0.9759199261614953  0.6764575334778087
  0.7220555692858710  0.5591729656919640  0.8410248931764954
  0.5137766170889080  0.8478719026843038  0.9218557948385495
  0.5886601366526065  0.9293946118096272  0.0833394919045674
  0.6821966684308265  0.5275846539341345  0.2722741915878473
  0.7687086486304864  0.6031009369054701  0.4311339439474438
  0.8508653793206165  0.6846657781389069  0.5944105019687100
  0.9324710608343025  0.7669643066881733  0.7585596959917993
  0.8017079193440253  0.6448039090462387  0.0062849676065397
  0.9146933350619406  0.7016994721365535  0.1766556254633755
  0.9766324206161059  0.8118763822578643  0.3447563772408699
  0.5801280838075371  0.7462619559134964  0.6351527782343069
  0.6621740832547900  0.8290864753292340  0.8002774183756358
  0.7442575460704930  0.9130765927127911  0.9660621360833233
  0.5345666593505740  0.7024912747613357  0.0493548711995544
  0.6269301445796742  0.7929408623580372  0.2174261949617602
  0.7065536133528241  0.8715229984073289  0.3875617960991278
  0.7888996225126661  0.9547290360418756  0.5528707228493559
  0.8713282269349918  0.5373789267905735  0.7180287739886992
  0.9524779609783707  0.6212975530398595  0.8833040943049681
  0.8274725218307850  0.4995068743028881  0.1329942605051073
  0.9132805044100607  0.5809066126516598  0.3041293762784605
  0.9975546017420598  0.6641005167252061  0.4693659283309088
 
  0.00000000E+00  0.00000000E+00  0.00000000E+00
  0.00000000E+00  0.00000000E+00  0.00000000E+00
  0.00000000E+00  0.00000000E+00  0.00000000E+00
  0.00000000E+00  0.00000000E+00  0.00000000E+00
  0.00000000E+00  0.00000000E+00  0.00000000E+00
  0.00000000E+00  0.00000000E+00  0.00000000E+00
  0.00000000E+00  0.00000000E+00  0.00000000E+00
  0.00000000E+00  0.00000000E+00  0.00000000E+00
  0.00000000E+00  0.00000000E+00  0.00000000E+00
  0.00000000E+00  0.00000000E+00  0.00000000E+00
  0.00000000E+00  0.00000000E+00  0.00000000E+00
  0.00000000E+00  0.00000000E+00  0.00000000E+00
  0.00000000E+00  0.00000000E+00  0.00000000E+00
  0.00000000E+00  0.00000000E+00  0.00000000E+00
  0.00000000E+00  0.00000000E+00  0.00000000E+00
  0.00000000E+00  0.00000000E+00  0.00000000E+00
  0.00000000E+00  0.00000000E+00  0.00000000E+00
  0.00000000E+00  0.00000000E+00  0.00000000E+00
  0.00000000E+00  0.00000000E+00  0.00000000E+00
  0.00000000E+00  0.00000000E+00  0.00000000E+00
  0.00000000E+00  0.00000000E+00  0.00000000E+00
  0.00000000E+00  0.00000000E+00  0.00000000E+00
  0.00000000E+00  0.00000000E+00  0.00000000E+00
  0.00000000E+00  0.00000000E+00  0.00000000E+00
  0.00000000E+00  0.00000000E+00  0.00000000E+00
  0.00000000E+00  0.00000000E+00  0.00000000E+00
  0.00000000E+00  0.00000000E+00  0.00000000E+00
  0.00000000E+00  0.00000000E+00  0.00000000E+00
  0.00000000E+00  0.00000000E+00  0.00000000E+00
  0.00000000E+00  0.00000000E+00  0.00000000E+00
  0.00000000E+00  0.00000000E+00  0.00000000E+00
  0.00000000E+00  0.00000000E+00  0.00000000E+00
  0.00000000E+00  0.00000000E+00  0.00000000E+00
  0.00000000E+00  0.00000000E+00  0.00000000E+00
  0.00000000E+00  0.00000000E+00  0.00000000E+00
  0.00000000E+00  0.00000000E+00  0.00000000E+00
  0.00000000E+00  0.00000000E+00  0.00000000E+00
  0.00000000E+00  0.00000000E+00  0.00000000E+00
  0.00000000E+00  0.00000000E+00  0.00000000E+00
  0.00000000E+00  0.00000000E+00  0.00000000E+00
  0.00000000E+00  0.00000000E+00  0.00000000E+00
  0.00000000E+00  0.00000000E+00  0.00000000E+00
  0.00000000E+00  0.00000000E+00  0.00000000E+00
  0.00000000E+00  0.00000000E+00  0.00000000E+00
  0.00000000E+00  0.00000000E+00  0.00000000E+00
  0.00000000E+00  0.00000000E+00  0.00000000E+00
  0.00000000E+00  0.00000000E+00  0.00000000E+00
  0.00000000E+00  0.00000000E+00  0.00000000E+00
  0.00000000E+00  0.00000000E+00  0.00000000E+00
  0.00000000E+00  0.00000000E+00  0.00000000E+00
  0.00000000E+00  0.00000000E+00  0.00000000E+00
  0.00000000E+00  0.00000000E+00  0.00000000E+00
  0.00000000E+00  0.00000000E+00  0.00000000E+00
  0.00000000E+00  0.00000000E+00  0.00000000E+00
  0.00000000E+00  0.00000000E+00  0.00000000E+00
  0.00000000E+00  0.00000000E+00  0.00000000E+00
  0.00000000E+00  0.00000000E+00  0.00000000E+00
  0.00000000E+00  0.00000000E+00  0.00000000E+00
  0.00000000E+00  0.00000000E+00  0.00000000E+00
  0.00000000E+00  0.00000000E+00  0.00000000E+00
  0.00000000E+00  0.00000000E+00  0.00000000E+00
  0.00000000E+00  0.00000000E+00  0.00000000E+00
  0.00000000E+00  0.00000000E+00  0.00000000E+00
  0.00000000E+00  0.00000000E+00  0.00000000E+00
  0.00000000E+00  0.00000000E+00  0.00000000E+00
  0.00000000E+00  0.00000000E+00  0.00000000E+00
  0.00000000E+00  0.00000000E+00  0.00000000E+00
  0.00000000E+00  0.00000000E+00  0.00000000E+00
  0.00000000E+00  0.00000000E+00  0.00000000E+00
  0.00000000E+00  0.00000000E+00  0.00000000E+00
  0.00000000E+00  0.00000000E+00  0.00000000E+00
  0.00000000E+00  0.00000000E+00  0.00000000E+00
  0.00000000E+00  0.00000000E+00  0.00000000E+00
  0.00000000E+00  0.00000000E+00  0.00000000E+00
  0.00000000E+00  0.00000000E+00  0.00000000E+00
  0.00000000E+00  0.00000000E+00  0.00000000E+00
  0.00000000E+00  0.00000000E+00  0.00000000E+00
  0.00000000E+00  0.00000000E+00  0.00000000E+00
  0.00000000E+00  0.00000000E+00  0.00000000E+00
  0.00000000E+00  0.00000000E+00  0.00000000E+00
  0.00000000E+00  0.00000000E+00  0.00000000E+00
  0.00000000E+00  0.00000000E+00  0.00000000E+00
  0.00000000E+00  0.00000000E+00  0.00000000E+00
  0.00000000E+00  0.00000000E+00  0.00000000E+00
  0.00000000E+00  0.00000000E+00  0.00000000E+00
  0.00000000E+00  0.00000000E+00  0.00000000E+00
  0.00000000E+00  0.00000000E+00  0.00000000E+00
  0.00000000E+00  0.00000000E+00  0.00000000E+00
  0.00000000E+00  0.00000000E+00  0.00000000E+00
  0.00000000E+00  0.00000000E+00  0.00000000E+00
  0.00000000E+00  0.00000000E+00  0.00000000E+00
  0.00000000E+00  0.00000000E+00  0.00000000E+00
  0.00000000E+00  0.00000000E+00  0.00000000E+00
  0.00000000E+00  0.00000000E+00  0.00000000E+00
  0.00000000E+00  0.00000000E+00  0.00000000E+00
  0.00000000E+00  0.00000000E+00  0.00000000E+00
  0.00000000E+00  0.00000000E+00  0.00000000E+00
  0.00000000E+00  0.00000000E+00  0.00000000E+00
  0.00000000E+00  0.00000000E+00  0.00000000E+00
  0.00000000E+00  0.00000000E+00  0.00000000E+00
  0.00000000E+00  0.00000000E+00  0.00000000E+00
  0.00000000E+00  0.00000000E+00  0.00000000E+00
  0.00000000E+00  0.00000000E+00  0.00000000E+00
  0.00000000E+00  0.00000000E+00  0.00000000E+00
  0.00000000E+00  0.00000000E+00  0.00000000E+00
  0.00000000E+00  0.00000000E+00  0.00000000E+00
  0.00000000E+00  0.00000000E+00  0.00000000E+00
  0.00000000E+00  0.00000000E+00  0.00000000E+00
  0.00000000E+00  0.00000000E+00  0.00000000E+00
  0.00000000E+00  0.00000000E+00  0.00000000E+00
  0.00000000E+00  0.00000000E+00  0.00000000E+00
  0.00000000E+00  0.00000000E+00  0.00000000E+00
  0.00000000E+00  0.00000000E+00  0.00000000E+00
  0.00000000E+00  0.00000000E+00  0.00000000E+00
  0.00000000E+00  0.00000000E+00  0.00000000E+00
  0.00000000E+00  0.00000000E+00  0.00000000E+00
  0.00000000E+00  0.00000000E+00  0.00000000E+00
  0.00000000E+00  0.00000000E+00  0.00000000E+00
  0.00000000E+00  0.00000000E+00  0.00000000E+00
  0.00000000E+00  0.00000000E+00  0.00000000E+00
  0.00000000E+00  0.00000000E+00  0.00000000E+00
  0.00000000E+00  0.00000000E+00  0.00000000E+00
  0.00000000E+00  0.00000000E+00  0.00000000E+00
  0.00000000E+00  0.00000000E+00  0.00000000E+00
  0.00000000E+00  0.00000000E+00  0.00000000E+00
  0.00000000E+00  0.00000000E+00  0.00000000E+00
  0.00000000E+00  0.00000000E+00  0.00000000E+00
  0.00000000E+00  0.00000000E+00  0.00000000E+00
  0.00000000E+00  0.00000000E+00  0.00000000E+00
  0.00000000E+00  0.00000000E+00  0.00000000E+00
  0.00000000E+00  0.00000000E+00  0.00000000E+00
  0.00000000E+00  0.00000000E+00  0.00000000E+00
  0.00000000E+00  0.00000000E+00  0.00000000E+00
  0.00000000E+00  0.00000000E+00  0.00000000E+00
  0.00000000E+00  0.00000000E+00  0.00000000E+00
  0.00000000E+00  0.00000000E+00  0.00000000E+00
  0.00000000E+00  0.00000000E+00  0.00000000E+00
  0.00000000E+00  0.00000000E+00  0.00000000E+00
  0.00000000E+00  0.00000000E+00  0.00000000E+00
  0.00000000E+00  0.00000000E+00  0.00000000E+00
  0.00000000E+00  0.00000000E+00  0.00000000E+00
  0.00000000E+00  0.00000000E+00  0.00000000E+00
  0.00000000E+00  0.00000000E+00  0.00000000E+00
  0.00000000E+00  0.00000000E+00  0.00000000E+00
  0.00000000E+00  0.00000000E+00  0.00000000E+00
  0.00000000E+00  0.00000000E+00  0.00000000E+00
  0.00000000E+00  0.00000000E+00  0.00000000E+00
  0.00000000E+00  0.00000000E+00  0.00000000E+00
  0.00000000E+00  0.00000000E+00  0.00000000E+00
  0.00000000E+00  0.00000000E+00  0.00000000E+00
  0.00000000E+00  0.00000000E+00  0.00000000E+00
  0.00000000E+00  0.00000000E+00  0.00000000E+00
  0.00000000E+00  0.00000000E+00  0.00000000E+00
  0.00000000E+00  0.00000000E+00  0.00000000E+00
  0.00000000E+00  0.00000000E+00  0.00000000E+00
  0.00000000E+00  0.00000000E+00  0.00000000E+00
  0.00000000E+00  0.00000000E+00  0.00000000E+00
  0.00000000E+00  0.00000000E+00  0.00000000E+00
  0.00000000E+00  0.00000000E+00  0.00000000E+00
  0.00000000E+00  0.00000000E+00  0.00000000E+00
  0.00000000E+00  0.00000000E+00  0.00000000E+00
  0.00000000E+00  0.00000000E+00  0.00000000E+00
  0.00000000E+00  0.00000000E+00  0.00000000E+00
  0.00000000E+00  0.00000000E+00  0.00000000E+00
  0.00000000E+00  0.00000000E+00  0.00000000E+00
  0.00000000E+00  0.00000000E+00  0.00000000E+00
  0.00000000E+00  0.00000000E+00  0.00000000E+00
  0.00000000E+00  0.00000000E+00  0.00000000E+00
  0.00000000E+00  0.00000000E+00  0.00000000E+00
  0.00000000E+00  0.00000000E+00  0.00000000E+00
  0.00000000E+00  0.00000000E+00  0.00000000E+00
  0.00000000E+00  0.00000000E+00  0.00000000E+00
  0.00000000E+00  0.00000000E+00  0.00000000E+00
  0.00000000E+00  0.00000000E+00  0.00000000E+00
  0.00000000E+00  0.00000000E+00  0.00000000E+00
  0.00000000E+00  0.00000000E+00  0.00000000E+00
  0.00000000E+00  0.00000000E+00  0.00000000E+00
  0.00000000E+00  0.00000000E+00  0.00000000E+00
  0.00000000E+00  0.00000000E+00  0.00000000E+00
  0.00000000E+00  0.00000000E+00  0.00000000E+00
  0.00000000E+00  0.00000000E+00  0.00000000E+00
  0.00000000E+00  0.00000000E+00  0.00000000E+00
  0.00000000E+00  0.00000000E+00  0.00000000E+00
  0.00000000E+00  0.00000000E+00  0.00000000E+00
  0.00000000E+00  0.00000000E+00  0.00000000E+00
  0.00000000E+00  0.00000000E+00  0.00000000E+00
  0.00000000E+00  0.00000000E+00  0.00000000E+00
  0.00000000E+00  0.00000000E+00  0.00000000E+00
  0.00000000E+00  0.00000000E+00  0.00000000E+00
  0.00000000E+00  0.00000000E+00  0.00000000E+00
  0.00000000E+00  0.00000000E+00  0.00000000E+00
