supercell of POSCAR                     
   1.00398800000000     
    -6.2729611433599999    0.0082005604289200   10.0015927484000002
     3.1280384584799998    5.4363994576400003   10.0007801159999996
    -7.8567367181199996   13.6110857897000006  -10.0002683574999995
   Al   Sc   N 
    91     4    96
Direct
  0.4798599806331509  0.3132930707594426  0.5427983932912568
  0.0624526257153946  0.3953454097542917  0.7086649248938741
  0.1438503410462530  0.4780300954423069  0.8748834592641117
  0.4340733202973510  0.2696069079604015  0.9570843094988390
  0.0191192221376681  0.3539110560334748  0.1203624648792143
  0.1048301672522385  0.4401155013506894  0.2938250225581314
  0.1887114917069113  0.0216115944372035  0.4602047608172768
  0.2713618930467874  0.1043130220448418  0.6257413871581861
  0.3531161025354450  0.1875226837532296  0.7917927308096679
  0.2281952708899908  0.0682126599012278  0.0381134042857028
  0.3196702207607274  0.1399417648003833  0.2088610895828324
  0.3968144476724973  0.2309605078208321  0.3761899425894626
  0.0007220656651512  0.1661227047470177  0.6663417944809780
  0.0815840751025476  0.2512201605736024  0.8336430308252929
  0.4561769527282351  0.1175998407067667  0.0782052904735266
  0.0472543971189054  0.2102749359941001  0.2527188861245619
  0.1263532578710596  0.2925380090121976  0.4185931734784916
  0.2089405910527660  0.3749484044921516  0.5840636422333532
  0.2908633180973723  0.4580000212189859  0.7492604254648967
  0.3711804800706702  0.0427700716406036  0.9167626604736512
  0.3345167543848788  0.0037532433216185  0.3385432032051909
  0.4183008923198983  0.0846136952440091  0.5021302261921363
  0.9799207982408831  0.3132723836228095  0.5425327313780031
  0.5629872085536505  0.3958649000856127  0.7085982330516316
  0.6425290021085601  0.4797354531841265  0.8749169440587679
  0.9392708733598525  0.2735492047728769  0.9561223931344145
  0.5171833534277255  0.3519256839131160  0.1207709600965643
  0.6036919436674708  0.4413252235117326  0.2958759901135579
  0.6889158031703175  0.0214633227229726  0.4603473427089355
  0.7716047038130327  0.1044839935170998  0.6258705238031581
  0.8554838972628858  0.1881053880482000  0.7918751911355244
  0.7268540489425774  0.0627490500410488  0.0393262063284112
  0.8188576208678171  0.1418630063567718  0.2092541746468441
  0.8970953955277068  0.2307292289686842  0.3762755504096589
  0.5002854148487401  0.1668737650217196  0.6671398305142091
  0.5840576473284642  0.2480884291074048  0.8314989580230474
  0.6650372187664857  0.3308459743079553  0.9945063044951539
  0.9566712416163696  0.1215271816069290  0.0793665286072738
  0.5458043900624148  0.2112506754539325  0.2530981817124101
  0.6263472213507981  0.2921485341142329  0.4191267093460738
  0.7094178435511864  0.3749368160447375  0.5845740316443511
  0.7922270112501337  0.4565505138771684  0.7510076383657278
  0.8736625807023586  0.0403618128447292  0.9148279454097050
  0.8353296882211296  0.0033915315341133  0.3390456823299957
  0.9184814615004910  0.0843922514067188  0.5021005837001269
  0.4798616758796257  0.8130521648009790  0.5429093840491817
  0.0623318776561561  0.8962431118305858  0.7084606525014081
  0.1439826981703334  0.9806408506031588  0.8739839094559798
  0.4332566397270057  0.7690393389620596  0.9562643719644655
  0.0166436565232004  0.8523089793237162  0.1212980787837452
  0.1040036798740900  0.9403473997489584  0.2956467557154880
  0.1886781874717300  0.5213880929703762  0.4598441335942880
  0.2714542749280113  0.6041739993502588  0.6256896669608025
  0.3528237674439509  0.6851920525053359  0.7929683242498911
  0.2266670669071402  0.5640876147887681  0.0392912003346098
  0.3194016109350457  0.6405817173237764  0.2089551318876630
  0.3971944188648209  0.7306716812441039  0.3764182003095797
  0.0004486984746777  0.6662073646655102  0.6671402103659787
  0.0813457383549334  0.7496041133597018  0.8311738310393082
  0.1623595957732036  0.8342666812745563  0.9949809298794534
  0.4567406887559144  0.6211856278164447  0.0799749723038659
  0.0461152790698804  0.7096886175539225  0.2518208324740883
  0.1267047236350791  0.7918046814505004  0.4189859527229913
  0.2094427421479352  0.8746800691689671  0.5842865929822665
  0.2907011383485454  0.9578743124875828  0.7500358798189311
  0.3641849083221302  0.5311589860979637  0.9187263234841367
  0.3336197508949610  0.5038306207403167  0.3376563690738905
  0.4183346922838709  0.5842641960256145  0.5019886922768109
  0.9798938851975976  0.8131413180807883  0.5427879473927604
  0.5617981346626593  0.8961905754534456  0.7084414908088945
  0.6435224977961624  0.9790988376115948  0.8736200751824725
  0.9353744281060585  0.7689871082317197  0.9565496025704476
  0.5174879872298561  0.8526832508885676  0.1211812560741734
  0.6038206182499550  0.9414842864142869  0.2961657266837534
  0.6888968911611926  0.5214473399499795  0.4602398909330176
  0.7711876151239352  0.6040170906030937  0.6260894413176317
  0.8529206818645250  0.6870977117461337  0.7914324768695309
  0.7277314130068504  0.5630354022044202  0.0392948916948797
  0.8188342720987691  0.6426710465359378  0.2084126376519251
  0.8976814081914100  0.7302469233749136  0.3759707316047027
  0.4999704817053257  0.6661801393504021  0.6674713882270851
  0.5802704446583107  0.7490783278997952  0.8311370467230290
  0.6616320123482993  0.8308904920454836  0.9941962412404379
  0.9569844701553905  0.6191255212232818  0.0794977135309338
  0.5468775631280707  0.7115727845571840  0.2532413151851785
  0.6267055231215792  0.7921608113183680  0.4192592423579313
  0.7091822286775411  0.8750388207579078  0.5845337049615082
  0.7915149492039220  0.9578610268381169  0.7495199985431782
  0.8745722147035764  0.5374089368416861  0.9147214138579756
  0.8352740427418368  0.5037724320267998  0.3383396346529963
  0.9182945599431207  0.5846534235565244  0.5021869669797780
  0.2452727295184118  0.4089867802709790  0.1639420762997190
  0.7433680116021506  0.4136233251554486  0.1682889515231381
  0.2433820829513991  0.9127567680689452  0.1676098358021747
  0.7413461669138641  0.9176270992198212  0.1691845995711745
  0.0591470649906114  0.3933057123326051  0.5108887823866226
  0.1412903045324612  0.4750201630453574  0.6753074717327223
  0.2235838494846547  0.0581257748745827  0.8406842856222312
  0.9975803213804255  0.3526276635312442  0.9146926684509893
  0.0837360882992968  0.4400426230495356  0.0924544156404821
  0.1820285801850261  0.0259548010465451  0.2720609209977809
  0.2684209143069936  0.1028793127677474  0.4309636935113943
  0.3510372395226540  0.1842713989698268  0.5939422399230452
  0.4331268618319157  0.2664955498689707  0.7583882309021561
  0.3197145163561714  0.1262399667691270  0.0079259998422430
  0.4160454836227458  0.2007037486441945  0.1783794693677123
  0.4758861383389714  0.3129864969536129  0.3458486096410951
  0.0803974365327420  0.2457925224649316  0.6341704894508098
  0.1628409569371030  0.3284943459115155  0.7995534028435571
  0.2633832136091812  0.4317406116786060  0.9597548038511192
  0.0344983686094267  0.2025608367455689  0.0500556211954120
  0.1267518174273050  0.2892560195946814  0.2189076263427197
  0.2059013675914585  0.3716918680922348  0.3871465883746765
  0.2887308963075625  0.4544201153180651  0.5522722104292512
  0.3709941213709698  0.0371727455598858  0.7174146237992360
  0.4538358733383205  0.1190552181052880  0.8827114944787056
  0.3303530062971234  0.9989061920474001  0.1337545680215371
  0.4128940891621653  0.0808505652295821  0.3050608408608682
  0.4975982524333276  0.1638175608532393  0.4693840733837504
  0.5593902965126105  0.3932389322755512  0.5113892833335427
  0.6420375615088147  0.4753581084567102  0.6760107768032952
  0.7245589615866024  0.0567091659625518  0.8409378055931853
  0.5217698633588341  0.3425245432059683  0.9223166831392575
  0.5894055876370743  0.4293925873110922  0.0832945923911197
  0.6816141020659927  0.0285667423028073  0.2739396472880102
  0.7688460180263661  0.1026322944092968  0.4312362051513361
  0.8508187690833182  0.1839532649425877  0.5934469584796602
  0.9334176855186698  0.2647832990367860  0.7561583023022607
  0.8057102384196426  0.1416194069889301  0.0071585125947706
  0.9111573648659359  0.2066341556900326  0.1783815873737922
  0.9759452301464577  0.3121563178271174  0.3455129220446196
  0.5803050404391428  0.2459070719810938  0.6347483605942728
  0.6635701783496302  0.3283395311228361  0.7998791584355942
  0.7443475546590008  0.4130472009473038  0.9673792023594103
  0.5370773211154685  0.2008075492818051  0.0504031786926262
  0.6256601953733707  0.2930078665307292  0.2183264766890431
  0.7062390676228674  0.3711856528723771  0.3877502861114266
  0.7889196254580497  0.4544561138841416  0.5525134288923610
  0.8711497761798199  0.0374832833355256  0.7176047543169162
  0.9528666949060991  0.1189977917228759  0.8835128330086945
  0.8303531749001891  0.0018066481383272  0.1331660389931955
  0.9128653736636494  0.0809395374572404  0.3045723055419671
  0.9975450228620488  0.1636754346350671  0.4692393785068987
  0.0594064730952155  0.8930391306974741  0.5112347716277625
  0.1417693089475591  0.9750763389134107  0.6755403108482909
  0.2194087783722694  0.5610487564028759  0.8376855698848971
  0.0133872030932523  0.8484814800265852  0.9227170425038764
  0.0870430656311854  0.9310534155521424  0.0836947858128312
  0.1825877961726974  0.5262047545552022  0.2705012413760031
  0.2687616630359031  0.6023840708456589  0.4306513181907050
  0.3509437320846089  0.6839912911729442  0.5937204008442194
  0.4304266181008458  0.7663287519919493  0.7581316335609642
  0.3039127533606489  0.6506295793082302  0.0101410234432180
  0.4125368465897807  0.7064608591155022  0.1789038922523218
  0.4762705180416447  0.8124885765589127  0.3460361121654785
  0.0801222305268539  0.7458490523491861  0.6348204697527322
  0.1612521147435118  0.8300486364829780  0.8001014429480833
  0.2424306430355045  0.9140554328113382  0.9659672686034710
  0.0335981605909623  0.7041371417731526  0.0498552465374473
  0.1257958163942448  0.7925523981659737  0.2178989020933813
  0.2063521523127037  0.8711812088005431  0.3877585617977530
  0.2889174739042772  0.9543814282801080  0.5524340566266233
  0.3717382226205217  0.5365644510877772  0.7170470257038062
  0.4500018125548024  0.6170109059063407  0.8846732568943594
  0.3321168368324408  0.5017420806270820  0.1327822025135532
  0.4127426324363839  0.5814135583674300  0.3046616157675288
  0.4977197368929467  0.6636616303216130  0.4694341762214620
  0.5592593211820542  0.8932679849270926  0.5114759944352016
  0.6413627538383651  0.9757219303787181  0.6760414096537843
  0.7188397414460610  0.5609923945056963  0.8403791915064431
  0.5136309377269725  0.8464168333796067  0.9215219074858538
  0.5942849728862569  0.9253810645130969  0.0843186312415227
  0.6818277620063355  0.5273213661409102  0.2724451707380950
  0.7688591126857105  0.6024818074170142  0.4308788605132889
  0.8506346103999860  0.6842043811391747  0.5940488009511355
  0.9312635479970339  0.7671982383758547  0.7579167126217214
  0.8038644694249157  0.6438093102077147  0.0063951327847320
  0.9061677177621235  0.7139842138357011  0.1788588461604448
  0.9769935413512556  0.8119217706712192  0.3455599878762996
  0.5798208352007990  0.7458902654602113  0.6349613203624571
  0.6614789822060985  0.8290168928313548  0.7998316784266706
  0.7439670230821136  0.9127297409287110  0.9660500382507493
  0.5356166733557686  0.7024738545957874  0.0500184865965565
  0.6250384951446222  0.7934445191131800  0.2187989279015810
  0.7068266642514160  0.8708651681538697  0.3879755654584258
  0.7888785876233229  0.9544011367063376  0.5527095156274981
  0.8711149639084539  0.5370137098688303  0.7177266716833728
  0.9514335817947881  0.6216200483529875  0.8829365447935587
  0.8274027188487310  0.5018290941536776  0.1336001771228652
  0.9132443116422024  0.5808797805921202  0.3039710293166635
  0.9975327838771548  0.6637967073874833  0.4693346884414566
 
  0.00000000E+00  0.00000000E+00  0.00000000E+00
  0.00000000E+00  0.00000000E+00  0.00000000E+00
  0.00000000E+00  0.00000000E+00  0.00000000E+00
  0.00000000E+00  0.00000000E+00  0.00000000E+00
  0.00000000E+00  0.00000000E+00  0.00000000E+00
  0.00000000E+00  0.00000000E+00  0.00000000E+00
  0.00000000E+00  0.00000000E+00  0.00000000E+00
  0.00000000E+00  0.00000000E+00  0.00000000E+00
  0.00000000E+00  0.00000000E+00  0.00000000E+00
  0.00000000E+00  0.00000000E+00  0.00000000E+00
  0.00000000E+00  0.00000000E+00  0.00000000E+00
  0.00000000E+00  0.00000000E+00  0.00000000E+00
  0.00000000E+00  0.00000000E+00  0.00000000E+00
  0.00000000E+00  0.00000000E+00  0.00000000E+00
  0.00000000E+00  0.00000000E+00  0.00000000E+00
  0.00000000E+00  0.00000000E+00  0.00000000E+00
  0.00000000E+00  0.00000000E+00  0.00000000E+00
  0.00000000E+00  0.00000000E+00  0.00000000E+00
  0.00000000E+00  0.00000000E+00  0.00000000E+00
  0.00000000E+00  0.00000000E+00  0.00000000E+00
  0.00000000E+00  0.00000000E+00  0.00000000E+00
  0.00000000E+00  0.00000000E+00  0.00000000E+00
  0.00000000E+00  0.00000000E+00  0.00000000E+00
  0.00000000E+00  0.00000000E+00  0.00000000E+00
  0.00000000E+00  0.00000000E+00  0.00000000E+00
  0.00000000E+00  0.00000000E+00  0.00000000E+00
  0.00000000E+00  0.00000000E+00  0.00000000E+00
  0.00000000E+00  0.00000000E+00  0.00000000E+00
  0.00000000E+00  0.00000000E+00  0.00000000E+00
  0.00000000E+00  0.00000000E+00  0.00000000E+00
  0.00000000E+00  0.00000000E+00  0.00000000E+00
  0.00000000E+00  0.00000000E+00  0.00000000E+00
  0.00000000E+00  0.00000000E+00  0.00000000E+00
  0.00000000E+00  0.00000000E+00  0.00000000E+00
  0.00000000E+00  0.00000000E+00  0.00000000E+00
  0.00000000E+00  0.00000000E+00  0.00000000E+00
  0.00000000E+00  0.00000000E+00  0.00000000E+00
  0.00000000E+00  0.00000000E+00  0.00000000E+00
  0.00000000E+00  0.00000000E+00  0.00000000E+00
  0.00000000E+00  0.00000000E+00  0.00000000E+00
  0.00000000E+00  0.00000000E+00  0.00000000E+00
  0.00000000E+00  0.00000000E+00  0.00000000E+00
  0.00000000E+00  0.00000000E+00  0.00000000E+00
  0.00000000E+00  0.00000000E+00  0.00000000E+00
  0.00000000E+00  0.00000000E+00  0.00000000E+00
  0.00000000E+00  0.00000000E+00  0.00000000E+00
  0.00000000E+00  0.00000000E+00  0.00000000E+00
  0.00000000E+00  0.00000000E+00  0.00000000E+00
  0.00000000E+00  0.00000000E+00  0.00000000E+00
  0.00000000E+00  0.00000000E+00  0.00000000E+00
  0.00000000E+00  0.00000000E+00  0.00000000E+00
  0.00000000E+00  0.00000000E+00  0.00000000E+00
  0.00000000E+00  0.00000000E+00  0.00000000E+00
  0.00000000E+00  0.00000000E+00  0.00000000E+00
  0.00000000E+00  0.00000000E+00  0.00000000E+00
  0.00000000E+00  0.00000000E+00  0.00000000E+00
  0.00000000E+00  0.00000000E+00  0.00000000E+00
  0.00000000E+00  0.00000000E+00  0.00000000E+00
  0.00000000E+00  0.00000000E+00  0.00000000E+00
  0.00000000E+00  0.00000000E+00  0.00000000E+00
  0.00000000E+00  0.00000000E+00  0.00000000E+00
  0.00000000E+00  0.00000000E+00  0.00000000E+00
  0.00000000E+00  0.00000000E+00  0.00000000E+00
  0.00000000E+00  0.00000000E+00  0.00000000E+00
  0.00000000E+00  0.00000000E+00  0.00000000E+00
  0.00000000E+00  0.00000000E+00  0.00000000E+00
  0.00000000E+00  0.00000000E+00  0.00000000E+00
  0.00000000E+00  0.00000000E+00  0.00000000E+00
  0.00000000E+00  0.00000000E+00  0.00000000E+00
  0.00000000E+00  0.00000000E+00  0.00000000E+00
  0.00000000E+00  0.00000000E+00  0.00000000E+00
  0.00000000E+00  0.00000000E+00  0.00000000E+00
  0.00000000E+00  0.00000000E+00  0.00000000E+00
  0.00000000E+00  0.00000000E+00  0.00000000E+00
  0.00000000E+00  0.00000000E+00  0.00000000E+00
  0.00000000E+00  0.00000000E+00  0.00000000E+00
  0.00000000E+00  0.00000000E+00  0.00000000E+00
  0.00000000E+00  0.00000000E+00  0.00000000E+00
  0.00000000E+00  0.00000000E+00  0.00000000E+00
  0.00000000E+00  0.00000000E+00  0.00000000E+00
  0.00000000E+00  0.00000000E+00  0.00000000E+00
  0.00000000E+00  0.00000000E+00  0.00000000E+00
  0.00000000E+00  0.00000000E+00  0.00000000E+00
  0.00000000E+00  0.00000000E+00  0.00000000E+00
  0.00000000E+00  0.00000000E+00  0.00000000E+00
  0.00000000E+00  0.00000000E+00  0.00000000E+00
  0.00000000E+00  0.00000000E+00  0.00000000E+00
  0.00000000E+00  0.00000000E+00  0.00000000E+00
  0.00000000E+00  0.00000000E+00  0.00000000E+00
  0.00000000E+00  0.00000000E+00  0.00000000E+00
  0.00000000E+00  0.00000000E+00  0.00000000E+00
  0.00000000E+00  0.00000000E+00  0.00000000E+00
  0.00000000E+00  0.00000000E+00  0.00000000E+00
  0.00000000E+00  0.00000000E+00  0.00000000E+00
  0.00000000E+00  0.00000000E+00  0.00000000E+00
  0.00000000E+00  0.00000000E+00  0.00000000E+00
  0.00000000E+00  0.00000000E+00  0.00000000E+00
  0.00000000E+00  0.00000000E+00  0.00000000E+00
  0.00000000E+00  0.00000000E+00  0.00000000E+00
  0.00000000E+00  0.00000000E+00  0.00000000E+00
  0.00000000E+00  0.00000000E+00  0.00000000E+00
  0.00000000E+00  0.00000000E+00  0.00000000E+00
  0.00000000E+00  0.00000000E+00  0.00000000E+00
  0.00000000E+00  0.00000000E+00  0.00000000E+00
  0.00000000E+00  0.00000000E+00  0.00000000E+00
  0.00000000E+00  0.00000000E+00  0.00000000E+00
  0.00000000E+00  0.00000000E+00  0.00000000E+00
  0.00000000E+00  0.00000000E+00  0.00000000E+00
  0.00000000E+00  0.00000000E+00  0.00000000E+00
  0.00000000E+00  0.00000000E+00  0.00000000E+00
  0.00000000E+00  0.00000000E+00  0.00000000E+00
  0.00000000E+00  0.00000000E+00  0.00000000E+00
  0.00000000E+00  0.00000000E+00  0.00000000E+00
  0.00000000E+00  0.00000000E+00  0.00000000E+00
  0.00000000E+00  0.00000000E+00  0.00000000E+00
  0.00000000E+00  0.00000000E+00  0.00000000E+00
  0.00000000E+00  0.00000000E+00  0.00000000E+00
  0.00000000E+00  0.00000000E+00  0.00000000E+00
  0.00000000E+00  0.00000000E+00  0.00000000E+00
  0.00000000E+00  0.00000000E+00  0.00000000E+00
  0.00000000E+00  0.00000000E+00  0.00000000E+00
  0.00000000E+00  0.00000000E+00  0.00000000E+00
  0.00000000E+00  0.00000000E+00  0.00000000E+00
  0.00000000E+00  0.00000000E+00  0.00000000E+00
  0.00000000E+00  0.00000000E+00  0.00000000E+00
  0.00000000E+00  0.00000000E+00  0.00000000E+00
  0.00000000E+00  0.00000000E+00  0.00000000E+00
  0.00000000E+00  0.00000000E+00  0.00000000E+00
  0.00000000E+00  0.00000000E+00  0.00000000E+00
  0.00000000E+00  0.00000000E+00  0.00000000E+00
  0.00000000E+00  0.00000000E+00  0.00000000E+00
  0.00000000E+00  0.00000000E+00  0.00000000E+00
  0.00000000E+00  0.00000000E+00  0.00000000E+00
  0.00000000E+00  0.00000000E+00  0.00000000E+00
  0.00000000E+00  0.00000000E+00  0.00000000E+00
  0.00000000E+00  0.00000000E+00  0.00000000E+00
  0.00000000E+00  0.00000000E+00  0.00000000E+00
  0.00000000E+00  0.00000000E+00  0.00000000E+00
  0.00000000E+00  0.00000000E+00  0.00000000E+00
  0.00000000E+00  0.00000000E+00  0.00000000E+00
  0.00000000E+00  0.00000000E+00  0.00000000E+00
  0.00000000E+00  0.00000000E+00  0.00000000E+00
  0.00000000E+00  0.00000000E+00  0.00000000E+00
  0.00000000E+00  0.00000000E+00  0.00000000E+00
  0.00000000E+00  0.00000000E+00  0.00000000E+00
  0.00000000E+00  0.00000000E+00  0.00000000E+00
  0.00000000E+00  0.00000000E+00  0.00000000E+00
  0.00000000E+00  0.00000000E+00  0.00000000E+00
  0.00000000E+00  0.00000000E+00  0.00000000E+00
  0.00000000E+00  0.00000000E+00  0.00000000E+00
  0.00000000E+00  0.00000000E+00  0.00000000E+00
  0.00000000E+00  0.00000000E+00  0.00000000E+00
  0.00000000E+00  0.00000000E+00  0.00000000E+00
  0.00000000E+00  0.00000000E+00  0.00000000E+00
  0.00000000E+00  0.00000000E+00  0.00000000E+00
  0.00000000E+00  0.00000000E+00  0.00000000E+00
  0.00000000E+00  0.00000000E+00  0.00000000E+00
  0.00000000E+00  0.00000000E+00  0.00000000E+00
  0.00000000E+00  0.00000000E+00  0.00000000E+00
  0.00000000E+00  0.00000000E+00  0.00000000E+00
  0.00000000E+00  0.00000000E+00  0.00000000E+00
  0.00000000E+00  0.00000000E+00  0.00000000E+00
  0.00000000E+00  0.00000000E+00  0.00000000E+00
  0.00000000E+00  0.00000000E+00  0.00000000E+00
  0.00000000E+00  0.00000000E+00  0.00000000E+00
  0.00000000E+00  0.00000000E+00  0.00000000E+00
  0.00000000E+00  0.00000000E+00  0.00000000E+00
  0.00000000E+00  0.00000000E+00  0.00000000E+00
  0.00000000E+00  0.00000000E+00  0.00000000E+00
  0.00000000E+00  0.00000000E+00  0.00000000E+00
  0.00000000E+00  0.00000000E+00  0.00000000E+00
  0.00000000E+00  0.00000000E+00  0.00000000E+00
  0.00000000E+00  0.00000000E+00  0.00000000E+00
  0.00000000E+00  0.00000000E+00  0.00000000E+00
  0.00000000E+00  0.00000000E+00  0.00000000E+00
  0.00000000E+00  0.00000000E+00  0.00000000E+00
  0.00000000E+00  0.00000000E+00  0.00000000E+00
  0.00000000E+00  0.00000000E+00  0.00000000E+00
  0.00000000E+00  0.00000000E+00  0.00000000E+00
  0.00000000E+00  0.00000000E+00  0.00000000E+00
  0.00000000E+00  0.00000000E+00  0.00000000E+00
  0.00000000E+00  0.00000000E+00  0.00000000E+00
  0.00000000E+00  0.00000000E+00  0.00000000E+00
  0.00000000E+00  0.00000000E+00  0.00000000E+00
  0.00000000E+00  0.00000000E+00  0.00000000E+00
  0.00000000E+00  0.00000000E+00  0.00000000E+00
  0.00000000E+00  0.00000000E+00  0.00000000E+00
  0.00000000E+00  0.00000000E+00  0.00000000E+00
  0.00000000E+00  0.00000000E+00  0.00000000E+00
  0.00000000E+00  0.00000000E+00  0.00000000E+00
  0.00000000E+00  0.00000000E+00  0.00000000E+00
