supercell of POSCAR                     
   1.00398800000000     
    -6.2729611433599999    0.0082005604289200   10.0015927484000002
     3.1280384584799998    5.4363994576400003   10.0007801159999996
    -7.8567367181199996   13.6110857897000006  -10.0002683574999995
   Al   Sc   N 
    92     3    96
Direct
  0.4793617273665518  0.3135196075929159  0.5429041446794116
  0.0620525697273777  0.3959112927083410  0.7079917988054234
  0.1442917326256676  0.4789834620996984  0.8726888094832574
  0.4366466252891925  0.2693905885924011  0.9555054532818659
  0.0213977216292278  0.3501536311547255  0.1247017831464277
  0.1041946534920939  0.4379674979832870  0.2940609891947119
  0.1883129906724648  0.0220590570904022  0.4606062552970371
  0.2709763346805047  0.1045149414698869  0.6255159779321460
  0.3534449726550477  0.1869215000208655  0.7904898677789376
  0.2268825135240107  0.0625476601520418  0.0392807510145872
  0.3140393461147113  0.1469735084695714  0.2095247960761171
  0.3964394831837623  0.2313247669960532  0.3769125615057050
  0.0003461413606232  0.1665574333493183  0.6668913087944546
  0.0825607601962020  0.2485889309561955  0.8312377372576805
  0.1674986645538823  0.3291750157385209  0.9936150054992439
  0.4538684487048172  0.1219377011690739  0.0773360137521664
  0.0449361640685382  0.2101960372874530  0.2540701295855783
  0.1259147022183100  0.2927075938507357  0.4193837892381396
  0.2088430118617453  0.3752181316704863  0.5843087644753027
  0.2913504759654373  0.4576814591013729  0.7490407175060625
  0.3740470549774244  0.0391318346722400  0.9136295002049835
  0.3339122158548165  0.0047953532599365  0.3388142663409326
  0.4179825898916576  0.0848868048246203  0.5023497820518230
  0.9795091650810619  0.3135791707796898  0.5429068277715245
  0.5621588569791385  0.3960013799593298  0.7080742306258543
  0.6445305363431544  0.4788030600083673  0.8735431683615786
  0.9358185391555764  0.2698972598884666  0.9571677908327132
  0.5195362100859953  0.3462247906908829  0.1226266124476183
  0.6050672947815343  0.4418620796697184  0.2965768321184399
  0.6883234967238963  0.0216979435371414  0.4605549784896752
  0.7709412167924725  0.1045276664638024  0.6256309964308429
  0.8534740082532366  0.1871472055510139  0.7909412269154359
  0.7278858189622994  0.0619775819110373  0.0389885157399306
  0.8193318224748651  0.1406750403845933  0.2095809154679102
  0.8966716199288882  0.2310303901531938  0.3771863559786794
  0.5001903716167035  0.1665635813740423  0.6666941357335645
  0.5822620565717500  0.2487755449148992  0.8307089024441368
  0.6625253302292649  0.3313893792466303  0.9942151521169933
  0.9558540185766944  0.1210231699887387  0.0798093711523862
  0.5461808763730858  0.2153597717713396  0.2548568855582403
  0.6272330580271372  0.2922426657115054  0.4201086210076639
  0.7091525457838870  0.3752370411038797  0.5845986580912594
  0.7914379128348230  0.4577206887895926  0.7494780197514359
  0.8733703269433093  0.0406150813080473  0.9142975214259366
  0.8340975408808546  0.0041840636911132  0.3387632431657153
  0.9183338070449452  0.0844894101615310  0.5025077224771692
  0.4794883299790627  0.8136788234616645  0.5429002541486270
  0.0620476785324016  0.8959416440501471  0.7079786747035541
  0.1445558018741693  0.9787924979993079  0.8733059315988640
  0.4361259724174502  0.7694508765164869  0.9564084227444738
  0.0175019752221246  0.8527632418271480  0.1213727126529562
  0.1034129484182316  0.9414075828977388  0.2965984921271314
  0.1876445275514982  0.5214968721218725  0.4600929944348451
  0.2707504233902185  0.6044663943367965  0.6253913153981401
  0.3532217401770978  0.6871389715015610  0.7906768354370470
  0.2247679238831850  0.5621576846169134  0.0380389337104248
  0.3168588135052062  0.6424135403852134  0.2112460145398103
  0.3969042672011298  0.7320271572928121  0.3771474703558937
  0.0001807275246080  0.6666209443867288  0.6667371351113403
  0.0819698877465811  0.7491582911694863  0.8309442686163209
  0.1627290979219751  0.8321725094530308  0.9944422930152825
  0.4553542893207947  0.6204910490534417  0.0794555386575411
  0.0445654851071779  0.7128795376113644  0.2506840917405810
  0.1259365282421925  0.7925304302688900  0.4190944721429801
  0.2088132008910790  0.8751793245316435  0.5841953642827349
  0.2913598452067419  0.9574574169902306  0.7490452369881524
  0.3732280912164683  0.5400140182588657  0.9139685171308756
  0.3393544240817548  0.5021225852708966  0.3391245677242907
  0.4184399353516355  0.5844861484784545  0.5022440497030445
  0.9793185645297271  0.8134294237891666  0.5427523824234584
  0.5621399178790938  0.8958799533871726  0.7079953772523453
  0.6447852751994745  0.9786834367526041  0.8730150607795863
  0.9357268109723478  0.7699004912934129  0.9559278534834661
  0.5165738522866192  0.8524858414755343  0.1219634262687208
  0.6017860765379197  0.9422335823248886  0.2960992112510183
  0.6886064947961970  0.5221377009284609  0.4607290339039736
  0.7710375149113347  0.6045445190528724  0.6256360279766113
  0.8534160218992000  0.6870846620536852  0.7906396297146046
  0.7279507459886077  0.5624676454741859  0.0398229369763428
  0.8182712888533032  0.6415655160852509  0.2095463103685589
  0.8968511243717572  0.7303487928305259  0.3763112512143536
  0.5002760216466484  0.6664438401473234  0.6666709477296848
  0.5824841656572275  0.7484843369291809  0.8309939024472541
  0.6636604352826083  0.8318904913936223  0.9944866430379236
  0.9568693939996109  0.6233349526207377  0.0812360085112758
  0.5464386638825758  0.7110227339823822  0.2534980842381671
  0.6263363175353831  0.7927721730122670  0.4194141959061568
  0.7088963493485352  0.8752369715844281  0.5844035195662514
  0.7913934422612385  0.9576920367134250  0.7491900240267597
  0.8735966472682080  0.5408380734735232  0.9147542940077784
  0.8352556151554182  0.5038584187395543  0.3391487572247343
  0.9179072097197860  0.5850245367707814  0.5023763219225188
  0.7431411952646982  0.4131077467036874  0.1684582360940894
  0.2430537126515517  0.9140744636352238  0.1687533008285627
  0.7412497687174806  0.9151270398162836  0.1683777614681858
  0.0588978230088841  0.3937296051175139  0.5113792019674506
  0.1415964456206922  0.4757014355072897  0.6765332968521918
  0.2240094042190890  0.0581064463273435  0.8414931446563472
  0.0142199679303658  0.3493369372578101  0.9238051394859923
  0.0829553242800998  0.4301853120504902  0.0796443856943441
  0.1814610654492412  0.0262674218193411  0.2716603212633828
  0.2682235078110580  0.1030606191207255  0.4307316950175988
  0.3506135470953424  0.1846090221835723  0.5942787423872673
  0.4325577791691870  0.2667631806008757  0.7587208116290256
  0.3048745389118679  0.1417722538849731  0.0058138550266591
  0.4197334531179635  0.1981434923203551  0.1775167770799442
  0.4766134745205193  0.3125122850090989  0.3459642084432843
  0.0799678481016457  0.2461863613400084  0.6352003180593258
  0.1624521484573052  0.3287451329263362  0.8006364354033337
  0.2457690326215101  0.4119167027933202  0.9656672018470260
  0.0357568517181974  0.2027329398078166  0.0503260868264945
  0.1234356833724775  0.2907389880957041  0.2186362878455483
  0.2053054972939492  0.3717561585499283  0.3867065833304792
  0.2882772709458266  0.4548467020419338  0.5524141838212628
  0.3711758492031692  0.0372562636243927  0.7179095240113753
  0.4537042739498318  0.1197355071206090  0.8832304298069431
  0.3298160430808963  0.0023015837551128  0.1331132213370410
  0.4108760821163102  0.0829781844878994  0.3035575450730974
  0.4971406007406713  0.1641177192048673  0.4692905617553436
  0.5590897984005849  0.3935396983044939  0.5116294914818837
  0.6417915392488212  0.4757370832503014  0.6767331400394099
  0.7240014900776615  0.0584730573054060  0.8415634146513895
  0.5140037581617847  0.3488577453560708  0.9223189133329015
  0.5863126909607743  0.4293373873548347  0.0832807441704730
  0.6793330667723581  0.0287588758763917  0.2712063444305528
  0.7687346951124212  0.1021369864590795  0.4306571628036409
  0.8507382250133730  0.1844926403635014  0.5944206397414220
  0.9328951721317225  0.2667897160925961  0.7592107252713021
  0.8047852278629790  0.1431998697087877  0.0068063512564862
  0.9105194948583772  0.2065037337919833  0.1776799310068427
  0.9753583246464501  0.3123643679126360  0.3455989239129167
  0.5799169979381915  0.2462867648603222  0.6351879610198310
  0.6625560092543381  0.3291028515909886  0.8006885034661124
  0.7445707887371498  0.4128325084137288  0.9669118422052563
  0.5355198832244241  0.2010266332253465  0.0486693566704730
  0.6260783363298401  0.2930179719805750  0.2181130024160680
  0.7058316510094329  0.3717185328007631  0.3876636304176344
  0.7885894015238648  0.4547976178596969  0.5528303104688064
  0.8712195091463713  0.0375598430097668  0.7180990367409663
  0.9536993907724423  0.1206257884943867  0.8838618583454689
  0.8299964202934405  0.0003443287709217  0.1325384514938150
  0.9120854363757260  0.0811857982977955  0.3041720090811850
  0.9971903277406540  0.1639174206810736  0.4695444336130237
  0.0590120579221960  0.8930891659415749  0.5111542183243785
  0.1416426951004013  0.9755658165845844  0.6764396426391102
  0.2237267470274276  0.5585363627743050  0.8414359826660274
  0.0139063776274568  0.8490312520187331  0.9226738597742568
  0.0889934410365427  0.9302652176185120  0.0831558506966914
  0.1791007520149961  0.5327089088474395  0.2760870792398578
  0.2677017303658289  0.6023303462627538  0.4299230691603526
  0.3504952599978637  0.6843375340903819  0.5939789159360345
  0.4327789652312362  0.7664940733837469  0.7588063359839978
  0.3045110345982280  0.6426766931647379  0.0067904917709143
  0.4106883173844764  0.7053571234383540  0.1774022126391870
  0.4757151288698793  0.8130509896335738  0.3450317213726422
  0.0798784342614596  0.7462150965369005  0.6350733477739041
  0.1623986166081579  0.8290613213842946  0.8005784519667429
  0.2452533983116538  0.9121625304541752  0.9663713566201579
  0.0353975085958496  0.7025338696499261  0.0495633559215563
  0.1248454299317601  0.7932729481692533  0.2171942437435987
  0.2058503130125260  0.8713574767387229  0.3875072717005850
  0.2885351505905760  0.9547301332951790  0.5526930592175319
  0.3711343160274367  0.5374868612076540  0.7178816112530200
  0.4533254377875835  0.6201850198266285  0.8836132720272829
  0.3360331618821917  0.5042472949043599  0.1305159593992826
  0.4136638737954286  0.5813906218579916  0.3043217557973037
  0.4971424583248307  0.6640849743180297  0.4693343371306895
  0.5589602534733729  0.8936193756088926  0.5113622769309174
  0.6416189707147026  0.9757375589868076  0.6765859018911229
  0.7243312253159715  0.5581685730041599  0.8420590459615127
  0.5148489995609680  0.8480601985518561  0.9229036673031246
  0.5867722450126607  0.9310187675016763  0.0830640541430867
  0.6826960087714795  0.5269670877256516  0.2713156585599918
  0.7682730393475410  0.6030984459580040  0.4307065508144490
  0.8506334802646265  0.6846000338909590  0.5943373891714216
  0.9326339181540320  0.7667343194245788  0.7587954241713675
  0.8061473025460728  0.6426368377824545  0.0076777739712028
  0.9091573089194398  0.7082022604655620  0.1774585959069910
  0.9762464281217547  0.8111495821305752  0.3440952739500034
  0.5799348891784248  0.7461449756344436  0.6351269746797854
  0.6625592557083380  0.8287221639389983  0.8005557859909302
  0.7451652322324875  0.9123068429810743  0.9661542449517739
  0.5354375402015421  0.7017145178920146  0.0499229635309533
  0.6245915351154920  0.7930986082982585  0.2174104387076312
  0.7057816651828759  0.8717767897540512  0.3869740360564364
  0.7884753204997850  0.9547848222341386  0.5527401997261876
  0.8711928782585048  0.5373480224695015  0.7180864851479640
  0.9536695790274123  0.6200423331229175  0.8835194343207249
  0.8318834606168579  0.4994062181359027  0.1328350958850635
  0.9132287599085345  0.5805713238322809  0.3035891733264862
  0.9968731917386364  0.6642510346079291  0.4690718089670796
 
  0.00000000E+00  0.00000000E+00  0.00000000E+00
  0.00000000E+00  0.00000000E+00  0.00000000E+00
  0.00000000E+00  0.00000000E+00  0.00000000E+00
  0.00000000E+00  0.00000000E+00  0.00000000E+00
  0.00000000E+00  0.00000000E+00  0.00000000E+00
  0.00000000E+00  0.00000000E+00  0.00000000E+00
  0.00000000E+00  0.00000000E+00  0.00000000E+00
  0.00000000E+00  0.00000000E+00  0.00000000E+00
  0.00000000E+00  0.00000000E+00  0.00000000E+00
  0.00000000E+00  0.00000000E+00  0.00000000E+00
  0.00000000E+00  0.00000000E+00  0.00000000E+00
  0.00000000E+00  0.00000000E+00  0.00000000E+00
  0.00000000E+00  0.00000000E+00  0.00000000E+00
  0.00000000E+00  0.00000000E+00  0.00000000E+00
  0.00000000E+00  0.00000000E+00  0.00000000E+00
  0.00000000E+00  0.00000000E+00  0.00000000E+00
  0.00000000E+00  0.00000000E+00  0.00000000E+00
  0.00000000E+00  0.00000000E+00  0.00000000E+00
  0.00000000E+00  0.00000000E+00  0.00000000E+00
  0.00000000E+00  0.00000000E+00  0.00000000E+00
  0.00000000E+00  0.00000000E+00  0.00000000E+00
  0.00000000E+00  0.00000000E+00  0.00000000E+00
  0.00000000E+00  0.00000000E+00  0.00000000E+00
  0.00000000E+00  0.00000000E+00  0.00000000E+00
  0.00000000E+00  0.00000000E+00  0.00000000E+00
  0.00000000E+00  0.00000000E+00  0.00000000E+00
  0.00000000E+00  0.00000000E+00  0.00000000E+00
  0.00000000E+00  0.00000000E+00  0.00000000E+00
  0.00000000E+00  0.00000000E+00  0.00000000E+00
  0.00000000E+00  0.00000000E+00  0.00000000E+00
  0.00000000E+00  0.00000000E+00  0.00000000E+00
  0.00000000E+00  0.00000000E+00  0.00000000E+00
  0.00000000E+00  0.00000000E+00  0.00000000E+00
  0.00000000E+00  0.00000000E+00  0.00000000E+00
  0.00000000E+00  0.00000000E+00  0.00000000E+00
  0.00000000E+00  0.00000000E+00  0.00000000E+00
  0.00000000E+00  0.00000000E+00  0.00000000E+00
  0.00000000E+00  0.00000000E+00  0.00000000E+00
  0.00000000E+00  0.00000000E+00  0.00000000E+00
  0.00000000E+00  0.00000000E+00  0.00000000E+00
  0.00000000E+00  0.00000000E+00  0.00000000E+00
  0.00000000E+00  0.00000000E+00  0.00000000E+00
  0.00000000E+00  0.00000000E+00  0.00000000E+00
  0.00000000E+00  0.00000000E+00  0.00000000E+00
  0.00000000E+00  0.00000000E+00  0.00000000E+00
  0.00000000E+00  0.00000000E+00  0.00000000E+00
  0.00000000E+00  0.00000000E+00  0.00000000E+00
  0.00000000E+00  0.00000000E+00  0.00000000E+00
  0.00000000E+00  0.00000000E+00  0.00000000E+00
  0.00000000E+00  0.00000000E+00  0.00000000E+00
  0.00000000E+00  0.00000000E+00  0.00000000E+00
  0.00000000E+00  0.00000000E+00  0.00000000E+00
  0.00000000E+00  0.00000000E+00  0.00000000E+00
  0.00000000E+00  0.00000000E+00  0.00000000E+00
  0.00000000E+00  0.00000000E+00  0.00000000E+00
  0.00000000E+00  0.00000000E+00  0.00000000E+00
  0.00000000E+00  0.00000000E+00  0.00000000E+00
  0.00000000E+00  0.00000000E+00  0.00000000E+00
  0.00000000E+00  0.00000000E+00  0.00000000E+00
  0.00000000E+00  0.00000000E+00  0.00000000E+00
  0.00000000E+00  0.00000000E+00  0.00000000E+00
  0.00000000E+00  0.00000000E+00  0.00000000E+00
  0.00000000E+00  0.00000000E+00  0.00000000E+00
  0.00000000E+00  0.00000000E+00  0.00000000E+00
  0.00000000E+00  0.00000000E+00  0.00000000E+00
  0.00000000E+00  0.00000000E+00  0.00000000E+00
  0.00000000E+00  0.00000000E+00  0.00000000E+00
  0.00000000E+00  0.00000000E+00  0.00000000E+00
  0.00000000E+00  0.00000000E+00  0.00000000E+00
  0.00000000E+00  0.00000000E+00  0.00000000E+00
  0.00000000E+00  0.00000000E+00  0.00000000E+00
  0.00000000E+00  0.00000000E+00  0.00000000E+00
  0.00000000E+00  0.00000000E+00  0.00000000E+00
  0.00000000E+00  0.00000000E+00  0.00000000E+00
  0.00000000E+00  0.00000000E+00  0.00000000E+00
  0.00000000E+00  0.00000000E+00  0.00000000E+00
  0.00000000E+00  0.00000000E+00  0.00000000E+00
  0.00000000E+00  0.00000000E+00  0.00000000E+00
  0.00000000E+00  0.00000000E+00  0.00000000E+00
  0.00000000E+00  0.00000000E+00  0.00000000E+00
  0.00000000E+00  0.00000000E+00  0.00000000E+00
  0.00000000E+00  0.00000000E+00  0.00000000E+00
  0.00000000E+00  0.00000000E+00  0.00000000E+00
  0.00000000E+00  0.00000000E+00  0.00000000E+00
  0.00000000E+00  0.00000000E+00  0.00000000E+00
  0.00000000E+00  0.00000000E+00  0.00000000E+00
  0.00000000E+00  0.00000000E+00  0.00000000E+00
  0.00000000E+00  0.00000000E+00  0.00000000E+00
  0.00000000E+00  0.00000000E+00  0.00000000E+00
  0.00000000E+00  0.00000000E+00  0.00000000E+00
  0.00000000E+00  0.00000000E+00  0.00000000E+00
  0.00000000E+00  0.00000000E+00  0.00000000E+00
  0.00000000E+00  0.00000000E+00  0.00000000E+00
  0.00000000E+00  0.00000000E+00  0.00000000E+00
  0.00000000E+00  0.00000000E+00  0.00000000E+00
  0.00000000E+00  0.00000000E+00  0.00000000E+00
  0.00000000E+00  0.00000000E+00  0.00000000E+00
  0.00000000E+00  0.00000000E+00  0.00000000E+00
  0.00000000E+00  0.00000000E+00  0.00000000E+00
  0.00000000E+00  0.00000000E+00  0.00000000E+00
  0.00000000E+00  0.00000000E+00  0.00000000E+00
  0.00000000E+00  0.00000000E+00  0.00000000E+00
  0.00000000E+00  0.00000000E+00  0.00000000E+00
  0.00000000E+00  0.00000000E+00  0.00000000E+00
  0.00000000E+00  0.00000000E+00  0.00000000E+00
  0.00000000E+00  0.00000000E+00  0.00000000E+00
  0.00000000E+00  0.00000000E+00  0.00000000E+00
  0.00000000E+00  0.00000000E+00  0.00000000E+00
  0.00000000E+00  0.00000000E+00  0.00000000E+00
  0.00000000E+00  0.00000000E+00  0.00000000E+00
  0.00000000E+00  0.00000000E+00  0.00000000E+00
  0.00000000E+00  0.00000000E+00  0.00000000E+00
  0.00000000E+00  0.00000000E+00  0.00000000E+00
  0.00000000E+00  0.00000000E+00  0.00000000E+00
  0.00000000E+00  0.00000000E+00  0.00000000E+00
  0.00000000E+00  0.00000000E+00  0.00000000E+00
  0.00000000E+00  0.00000000E+00  0.00000000E+00
  0.00000000E+00  0.00000000E+00  0.00000000E+00
  0.00000000E+00  0.00000000E+00  0.00000000E+00
  0.00000000E+00  0.00000000E+00  0.00000000E+00
  0.00000000E+00  0.00000000E+00  0.00000000E+00
  0.00000000E+00  0.00000000E+00  0.00000000E+00
  0.00000000E+00  0.00000000E+00  0.00000000E+00
  0.00000000E+00  0.00000000E+00  0.00000000E+00
  0.00000000E+00  0.00000000E+00  0.00000000E+00
  0.00000000E+00  0.00000000E+00  0.00000000E+00
  0.00000000E+00  0.00000000E+00  0.00000000E+00
  0.00000000E+00  0.00000000E+00  0.00000000E+00
  0.00000000E+00  0.00000000E+00  0.00000000E+00
  0.00000000E+00  0.00000000E+00  0.00000000E+00
  0.00000000E+00  0.00000000E+00  0.00000000E+00
  0.00000000E+00  0.00000000E+00  0.00000000E+00
  0.00000000E+00  0.00000000E+00  0.00000000E+00
  0.00000000E+00  0.00000000E+00  0.00000000E+00
  0.00000000E+00  0.00000000E+00  0.00000000E+00
  0.00000000E+00  0.00000000E+00  0.00000000E+00
  0.00000000E+00  0.00000000E+00  0.00000000E+00
  0.00000000E+00  0.00000000E+00  0.00000000E+00
  0.00000000E+00  0.00000000E+00  0.00000000E+00
  0.00000000E+00  0.00000000E+00  0.00000000E+00
  0.00000000E+00  0.00000000E+00  0.00000000E+00
  0.00000000E+00  0.00000000E+00  0.00000000E+00
  0.00000000E+00  0.00000000E+00  0.00000000E+00
  0.00000000E+00  0.00000000E+00  0.00000000E+00
  0.00000000E+00  0.00000000E+00  0.00000000E+00
  0.00000000E+00  0.00000000E+00  0.00000000E+00
  0.00000000E+00  0.00000000E+00  0.00000000E+00
  0.00000000E+00  0.00000000E+00  0.00000000E+00
  0.00000000E+00  0.00000000E+00  0.00000000E+00
  0.00000000E+00  0.00000000E+00  0.00000000E+00
  0.00000000E+00  0.00000000E+00  0.00000000E+00
  0.00000000E+00  0.00000000E+00  0.00000000E+00
  0.00000000E+00  0.00000000E+00  0.00000000E+00
  0.00000000E+00  0.00000000E+00  0.00000000E+00
  0.00000000E+00  0.00000000E+00  0.00000000E+00
  0.00000000E+00  0.00000000E+00  0.00000000E+00
  0.00000000E+00  0.00000000E+00  0.00000000E+00
  0.00000000E+00  0.00000000E+00  0.00000000E+00
  0.00000000E+00  0.00000000E+00  0.00000000E+00
  0.00000000E+00  0.00000000E+00  0.00000000E+00
  0.00000000E+00  0.00000000E+00  0.00000000E+00
  0.00000000E+00  0.00000000E+00  0.00000000E+00
  0.00000000E+00  0.00000000E+00  0.00000000E+00
  0.00000000E+00  0.00000000E+00  0.00000000E+00
  0.00000000E+00  0.00000000E+00  0.00000000E+00
  0.00000000E+00  0.00000000E+00  0.00000000E+00
  0.00000000E+00  0.00000000E+00  0.00000000E+00
  0.00000000E+00  0.00000000E+00  0.00000000E+00
  0.00000000E+00  0.00000000E+00  0.00000000E+00
  0.00000000E+00  0.00000000E+00  0.00000000E+00
  0.00000000E+00  0.00000000E+00  0.00000000E+00
  0.00000000E+00  0.00000000E+00  0.00000000E+00
  0.00000000E+00  0.00000000E+00  0.00000000E+00
  0.00000000E+00  0.00000000E+00  0.00000000E+00
  0.00000000E+00  0.00000000E+00  0.00000000E+00
  0.00000000E+00  0.00000000E+00  0.00000000E+00
  0.00000000E+00  0.00000000E+00  0.00000000E+00
  0.00000000E+00  0.00000000E+00  0.00000000E+00
  0.00000000E+00  0.00000000E+00  0.00000000E+00
  0.00000000E+00  0.00000000E+00  0.00000000E+00
  0.00000000E+00  0.00000000E+00  0.00000000E+00
  0.00000000E+00  0.00000000E+00  0.00000000E+00
  0.00000000E+00  0.00000000E+00  0.00000000E+00
  0.00000000E+00  0.00000000E+00  0.00000000E+00
  0.00000000E+00  0.00000000E+00  0.00000000E+00
  0.00000000E+00  0.00000000E+00  0.00000000E+00
  0.00000000E+00  0.00000000E+00  0.00000000E+00
  0.00000000E+00  0.00000000E+00  0.00000000E+00
  0.00000000E+00  0.00000000E+00  0.00000000E+00
  0.00000000E+00  0.00000000E+00  0.00000000E+00
  0.00000000E+00  0.00000000E+00  0.00000000E+00
