supercell of POSCAR                     
   1.03600000000000     
     9.6051007291200001   -5.6678653607799996   -9.9907275475200006
     9.5551777488200003    5.5783510108199996    9.9928581731800001
    -1.5573508785200001   -8.3719044994900003    4.9655686364999996
   Al   Gd   N 
    72    24    95
Direct
  0.3017995786476106  0.2874273899387916  0.5391462295041620
  0.1421381449375332  0.2454828713925963  0.3127668378712585
  0.3069096839653227  0.4101784663614296  0.3119568290845152
  0.4625159135508738  0.3220321546835052  0.7857209750969005
  0.1429759337027576  0.4989425115423032  0.7857416785109166
  0.2972149629017764  0.1641145121470018  0.7758880065158920
  0.4692316537660375  0.4484085809305256  0.5375446459744992
  0.1418477381409105  0.1190786065743623  0.5394900694392959
  0.5026483057959652  0.0446866120932157  0.2720532585624866
  0.2668943284148639  0.1082683460611804  0.3336481927850414
  0.1115838047563358  0.0696547959768736  0.1012799892358132
  0.1158236674245501  0.1959700753026965  0.8160721274649347
  0.2741886566079401  0.3558381292522697  0.8130499709205381
  0.1119702510576772  0.3246361670064886  0.5899627954316102
  0.2711873240356226  0.4853464064547168  0.5786695813746618
  0.4482123750104137  0.2876382666325554  0.3362212768726707
  0.1108866607838053  0.4462351492799854  0.3412580006200940
  0.4487995145444188  0.4074880447096234  0.1030781263972287
  0.8010269871758808  0.2888624749207267  0.5375445449561198
  0.6443393842477008  0.2436398368654622  0.3105224796685206
  0.8083468162727527  0.4083863869113458  0.3087182445317183
  0.9628359755818323  0.3244361301650827  0.7901131948290683
  0.6419138328726675  0.4987858057304280  0.7836790226459627
  0.7931581756971511  0.1672894215572640  0.7772084542447928
  0.9694815909701049  0.4459049026206614  0.5339127085972777
  0.6439332737233343  0.1184746550621725  0.5375251791619391
  0.9786392755062678  0.0722465339735976  0.2990178469746425
  0.7779277250130292  0.1085066467378368  0.3357055779396134
  0.6196075294766885  0.0737073868088771  0.0945231241247484
  0.6123120102959376  0.1957687396811707  0.8137259681714468
  0.7738970193445383  0.3563968507296593  0.8107561567284591
  0.6105761977834305  0.3243398664909307  0.5884341914328814
  0.7707408563453626  0.4848002102860605  0.5760156256173801
  0.9481525173569594  0.2794152436311350  0.3367848652476368
  0.6120421655686457  0.4462226832108414  0.3404868334987299
  0.9477178512892337  0.4038097484066370  0.1044739971104107
  0.3012785575625756  0.7887467224935989  0.5367888682913815
  0.1440379244379102  0.7434712188362198  0.3101073032166966
  0.3085622019243814  0.9085221340058141  0.3084768237771414
  0.4632634884203668  0.8251415985202399  0.7888752326062516
  0.1425877677713459  0.9986254804434012  0.7830073410191289
  0.2931858820245026  0.6671002202286900  0.7769143868273787
  0.4704464311996617  0.9446468220722224  0.5316104547369491
  0.1426911488564571  0.6194326674751309  0.5378179584260820
  0.4778508880320373  0.5714764235989023  0.2988056432159851
  0.2765354388883452  0.6084946725970042  0.3364505053127402
  0.1157918727075611  0.5709782442182245  0.1021730061253621
  0.1137403992404842  0.6964631068465224  0.8164225769781694
  0.2743150074208458  0.8565546137417570  0.8098270337843303
  0.1116273925833156  0.8245559612543687  0.5883410806236569
  0.2710001481923499  0.9856124180535488  0.5739701859485180
  0.4484595721398676  0.7778866821005721  0.3351842807283845
  0.1100049960196969  0.9441904251791300  0.3401229951655225
  0.4440957298106269  0.8996995485565691  0.0969690260606200
  0.8016494745674834  0.7879720491905360  0.5406560523364732
  0.6434921561198621  0.7422191528162401  0.3133064204723581
  0.8100943240823568  0.9092806015434078  0.3129962058391982
  0.9625573777146812  0.8248946051167039  0.7889148541475635
  0.6432954509783855  0.9977656519947686  0.7844552469598156
  0.7958037735980525  0.6646250377551581  0.7795106713023401
  0.9693322081344036  0.9466792326383029  0.5367575722271596
  0.6434910733222523  0.6192626481672505  0.5390137064397820
  0.9782200598408934  0.5717627659288809  0.2964461665768923
  0.7761742087896124  0.6088319486178122  0.3352634947101905
  0.6122403451973710  0.5694961965475258  0.1031318733283157
  0.6153700868642176  0.6962665643658710  0.8174129134019807
  0.7748269305078637  0.8554389181030544  0.8140262795064785
  0.6123089881504953  0.8234891698436755  0.5911713898884869
  0.7727410592261563  0.9853821445279607  0.5803311421699107
  0.9480143180065426  0.7799310859524908  0.3366385733902959
  0.6186909058837529  0.9389635791603652  0.3461939069450182
  0.9492143293451605  0.9071129862054690  0.1048129004102023
  0.4816305623884247  0.1960932326284848  0.0415239789300301
  0.1348942638228152  0.3667804738364921  0.0335606840036320
  0.3079337413966812  0.0227054031913241  0.0396542456004525
  0.2826152627730281  0.2350754685444016  0.0810274692421089
  0.4485635869844842  0.0218569208391983  0.8147217166608556
  0.4420371172838884  0.1527029117387642  0.5500920326010288
  0.9828518630965561  0.1917458251039363  0.0396342712317974
  0.6367895693616958  0.3642749976123127  0.0309713976553141
  0.8139665760624837  0.0215607824156336  0.0394623017840559
  0.7860777870941504  0.2323620985306007  0.0765795513378009
  0.9503382283404065  0.0212603769604982  0.8295772939042294
  0.9429440467815908  0.1549050752229348  0.5759351085033302
  0.4834045694615199  0.6898504742521823  0.0375730824076612
  0.1376284675635873  0.8649433405932498  0.0311772966405783
  0.3123076170991794  0.5222877832022519  0.0403994865251178
  0.2847091355747438  0.7304365124986560  0.0777244605218925
  0.4488704727387471  0.5190256498962569  0.8290931300912092
  0.4432897327398067  0.6551163486906759  0.5756721806580956
  0.9813270061119468  0.6967395948663793  0.0411711043882406
  0.6326594073719818  0.8695242171819118  0.0353645252261998
  0.8067054171877643  0.5229951848909096  0.0407089597805168
  0.7820443366285872  0.7358832476179060  0.0837718047736260
  0.9489108502381214  0.5194797966221287  0.8211588096255937
  0.9432077862727368  0.6539583240830211  0.5710102699526942
  0.2381955459293508  0.3669913564476701  0.6268127040727904
  0.0746185257115002  0.3264606311262099  0.4016818329705387
  0.2379718245120017  0.4903858053589403  0.3928581017160653
  0.4260131450970164  0.2935888632093224  0.1565738269279819
  0.0688211875068561  0.4577828023106605  0.1530175439920072
  0.2335003234964432  0.1040192440759427  0.1537173763160524
  0.3989578650538803  0.3878013977301507  0.9047731386196958
  0.0964843979627119  0.0835012087251883  0.8995050271839418
  0.2350059438116290  0.2432541699090862  0.8630531551953169
  0.3963544840837017  0.0178089759110804  0.6026437848465775
  0.0893497554919165  0.2034447554194116  0.6316068961259518
  0.2171908268511800  0.1917415736817745  0.4365817802854721
  0.0635567302797071  0.1468500163426611  0.2144465078621920
  0.2150160827835350  0.3207883025498006  0.2108745253530913
  0.3664067914050264  0.1173564573581913  0.9084867795278697
  0.0424656699889425  0.2679251441416568  0.8855390743700084
  0.2111249816842786  0.4357492842806678  0.8900334797446590
  0.3705151913141194  0.2401997767788870  0.6742903578680028
  0.0399193610507780  0.4067811381705084  0.6844152349323025
  0.2128375045457815  0.0676883104382071  0.6687613621045827
  0.3811533794981230  0.3549440590497497  0.4364740682207398
  0.0486269194866082  0.0252590512201323  0.4415128180582570
  0.3901345672143108  0.4734951230109985  0.2151308026801786
  0.7360374387616915  0.3673829786213787  0.6246022414699155
  0.5750992224736251  0.3246917023072911  0.3991932566392506
  0.7392422296832635  0.4897942784366407  0.3899881316372316
  0.9281200453630660  0.2916980805299190  0.1570162827975281
  0.5713313175888928  0.4549114050851486  0.1538692146065088
  0.7376306380917512  0.1023066438763180  0.1551304868844596
  0.8994285987045032  0.3925977516633381  0.9088072437125732
  0.5935635914397608  0.0823838609881236  0.9007104890168804
  0.7299090096390728  0.2459702578534149  0.8633752259728240
  0.8961164772293273  0.0162757549921508  0.6154497080975858
  0.5856167901166813  0.2009611160795828  0.6276772636343964
  0.9047026632261250  0.1557066407692460  0.3579797023756868
  0.7190227339833086  0.1902460982460425  0.4343621405320022
  0.5639116819614713  0.1454249654130493  0.2066240780771480
  0.7167434267137125  0.3183906415809901  0.2085721714291040
  0.8603208489778638  0.1238148052672301  0.9080886888956670
  0.5407494551717988  0.2672797929635990  0.8865010250120093
  0.7102674558864877  0.4363228697445010  0.8883786125429651
  0.8660366391725631  0.2477319049607871  0.6808463295704357
  0.5397359292981960  0.4055504851271650  0.6831617298764669
  0.7113687523918202  0.0681846185184583  0.6703395289494978
  0.8816255945262981  0.3528371836463293  0.4327538835730991
  0.5530806141624254  0.0214749054514130  0.4399526166909098
  0.8898522037127847  0.4748983501200428  0.2086542816401717
  0.2378639812355274  0.8688203163386774  0.6240316529580383
  0.0751239989684294  0.8242941794996099  0.3993249640719512
  0.2381342826791979  0.9894632128497491  0.3883231126339339
  0.4285932727150481  0.7901293715303481  0.1548729420305222
  0.0715387351097618  0.9552214719135108  0.1535658860516449
  0.2356062151351423  0.6019977295242498  0.1564498047378535
  0.4008248622816950  0.8950508046466723  0.9064278653510698
  0.0940113583821400  0.5836901800990475  0.9023607428508598
  0.2316320263869542  0.7469108652308449  0.8651697994410483
  0.3951100392051003  0.5171533928436958  0.6150288839889342
  0.0892644835868239  0.7036035141079822  0.6313381290603104
  0.4040095340508003  0.6551083025404338  0.3575052593258974
  0.2190453773812280  0.6909508154446726  0.4347630181161151
  0.0618111738113569  0.6461307377588028  0.2082383543093016
  0.2174710349499094  0.8189306624380137  0.2086883916118438
  0.3601838387383296  0.6231716802030789  0.9076789828611425
  0.0412812946992105  0.7688508095940847  0.8867186951859338
  0.2114553922639715  0.9366732919197958  0.8878610459806495
  0.3664106247853951  0.7481652338416609  0.6808608350053618
  0.0404244434947358  0.9060267088835516  0.6837120735625319
  0.2108244153923593  0.5683634216176330  0.6699772557695383
  0.3824197575904833  0.8524390332003264  0.4311621889902142
  0.0475533645677402  0.5265440253637408  0.4398220670616269
  0.3910877325547162  0.9737981321809599  0.2075046362021524
  0.7375272197800911  0.8677133924373450  0.6278131883361411
  0.5754717391431896  0.8230220432648636  0.4024371982192889
  0.7416782833822779  0.9899658084810952  0.3939709060530490
  0.9255146272063257  0.7940249437706797  0.1575738213166389
  0.5649857061131556  0.9633375639100521  0.1605383257059145
  0.7332138410057425  0.6048209470466119  0.1559669317064305
  0.8991253456609911  0.8910494572126808  0.9073675039841618
  0.5947177942016637  0.5835719023751977  0.8999609778738176
  0.7339804813054656  0.7439961999657427  0.8670966352705562
  0.8949934405365028  0.5152366243439559  0.6110964957314593
  0.5900986510913881  0.7030935942193395  0.6326530787367872
  0.9039263047654131  0.6552167327746616  0.3534872012342447
  0.7201868519074637  0.6908175893314805  0.4363482903655012
  0.5626529417854798  0.6460844619502595  0.2146858412396000
  0.7127214843650123  0.8232464710393117  0.2120842314090439
  0.8658640645392879  0.6172336467913695  0.9092395465016736
  0.5428282594161900  0.7698374635090062  0.8866522043795229
  0.7102560432382745  0.9351772084771568  0.8912896355893238
  0.8674666134056466  0.7448971330572007  0.6816579644279841
  0.5396898651662809  0.9067173464457170  0.6832893243751315
  0.7124989189236643  0.5678403043300762  0.6702695359707747
  0.8820919441813970  0.8519793391455366  0.4359835069136793
  0.5487668711359603  0.5256646691380951  0.4417339476197029
  0.8910790830821043  0.9743272329238835  0.2157897116162601
 
  0.00000000E+00  0.00000000E+00  0.00000000E+00
  0.00000000E+00  0.00000000E+00  0.00000000E+00
  0.00000000E+00  0.00000000E+00  0.00000000E+00
  0.00000000E+00  0.00000000E+00  0.00000000E+00
  0.00000000E+00  0.00000000E+00  0.00000000E+00
  0.00000000E+00  0.00000000E+00  0.00000000E+00
  0.00000000E+00  0.00000000E+00  0.00000000E+00
  0.00000000E+00  0.00000000E+00  0.00000000E+00
  0.00000000E+00  0.00000000E+00  0.00000000E+00
  0.00000000E+00  0.00000000E+00  0.00000000E+00
  0.00000000E+00  0.00000000E+00  0.00000000E+00
  0.00000000E+00  0.00000000E+00  0.00000000E+00
  0.00000000E+00  0.00000000E+00  0.00000000E+00
  0.00000000E+00  0.00000000E+00  0.00000000E+00
  0.00000000E+00  0.00000000E+00  0.00000000E+00
  0.00000000E+00  0.00000000E+00  0.00000000E+00
  0.00000000E+00  0.00000000E+00  0.00000000E+00
  0.00000000E+00  0.00000000E+00  0.00000000E+00
  0.00000000E+00  0.00000000E+00  0.00000000E+00
  0.00000000E+00  0.00000000E+00  0.00000000E+00
  0.00000000E+00  0.00000000E+00  0.00000000E+00
  0.00000000E+00  0.00000000E+00  0.00000000E+00
  0.00000000E+00  0.00000000E+00  0.00000000E+00
  0.00000000E+00  0.00000000E+00  0.00000000E+00
  0.00000000E+00  0.00000000E+00  0.00000000E+00
  0.00000000E+00  0.00000000E+00  0.00000000E+00
  0.00000000E+00  0.00000000E+00  0.00000000E+00
  0.00000000E+00  0.00000000E+00  0.00000000E+00
  0.00000000E+00  0.00000000E+00  0.00000000E+00
  0.00000000E+00  0.00000000E+00  0.00000000E+00
  0.00000000E+00  0.00000000E+00  0.00000000E+00
  0.00000000E+00  0.00000000E+00  0.00000000E+00
  0.00000000E+00  0.00000000E+00  0.00000000E+00
  0.00000000E+00  0.00000000E+00  0.00000000E+00
  0.00000000E+00  0.00000000E+00  0.00000000E+00
  0.00000000E+00  0.00000000E+00  0.00000000E+00
  0.00000000E+00  0.00000000E+00  0.00000000E+00
  0.00000000E+00  0.00000000E+00  0.00000000E+00
  0.00000000E+00  0.00000000E+00  0.00000000E+00
  0.00000000E+00  0.00000000E+00  0.00000000E+00
  0.00000000E+00  0.00000000E+00  0.00000000E+00
  0.00000000E+00  0.00000000E+00  0.00000000E+00
  0.00000000E+00  0.00000000E+00  0.00000000E+00
  0.00000000E+00  0.00000000E+00  0.00000000E+00
  0.00000000E+00  0.00000000E+00  0.00000000E+00
  0.00000000E+00  0.00000000E+00  0.00000000E+00
  0.00000000E+00  0.00000000E+00  0.00000000E+00
  0.00000000E+00  0.00000000E+00  0.00000000E+00
  0.00000000E+00  0.00000000E+00  0.00000000E+00
  0.00000000E+00  0.00000000E+00  0.00000000E+00
  0.00000000E+00  0.00000000E+00  0.00000000E+00
  0.00000000E+00  0.00000000E+00  0.00000000E+00
  0.00000000E+00  0.00000000E+00  0.00000000E+00
  0.00000000E+00  0.00000000E+00  0.00000000E+00
  0.00000000E+00  0.00000000E+00  0.00000000E+00
  0.00000000E+00  0.00000000E+00  0.00000000E+00
  0.00000000E+00  0.00000000E+00  0.00000000E+00
  0.00000000E+00  0.00000000E+00  0.00000000E+00
  0.00000000E+00  0.00000000E+00  0.00000000E+00
  0.00000000E+00  0.00000000E+00  0.00000000E+00
  0.00000000E+00  0.00000000E+00  0.00000000E+00
  0.00000000E+00  0.00000000E+00  0.00000000E+00
  0.00000000E+00  0.00000000E+00  0.00000000E+00
  0.00000000E+00  0.00000000E+00  0.00000000E+00
  0.00000000E+00  0.00000000E+00  0.00000000E+00
  0.00000000E+00  0.00000000E+00  0.00000000E+00
  0.00000000E+00  0.00000000E+00  0.00000000E+00
  0.00000000E+00  0.00000000E+00  0.00000000E+00
  0.00000000E+00  0.00000000E+00  0.00000000E+00
  0.00000000E+00  0.00000000E+00  0.00000000E+00
  0.00000000E+00  0.00000000E+00  0.00000000E+00
  0.00000000E+00  0.00000000E+00  0.00000000E+00
  0.00000000E+00  0.00000000E+00  0.00000000E+00
  0.00000000E+00  0.00000000E+00  0.00000000E+00
  0.00000000E+00  0.00000000E+00  0.00000000E+00
  0.00000000E+00  0.00000000E+00  0.00000000E+00
  0.00000000E+00  0.00000000E+00  0.00000000E+00
  0.00000000E+00  0.00000000E+00  0.00000000E+00
  0.00000000E+00  0.00000000E+00  0.00000000E+00
  0.00000000E+00  0.00000000E+00  0.00000000E+00
  0.00000000E+00  0.00000000E+00  0.00000000E+00
  0.00000000E+00  0.00000000E+00  0.00000000E+00
  0.00000000E+00  0.00000000E+00  0.00000000E+00
  0.00000000E+00  0.00000000E+00  0.00000000E+00
  0.00000000E+00  0.00000000E+00  0.00000000E+00
  0.00000000E+00  0.00000000E+00  0.00000000E+00
  0.00000000E+00  0.00000000E+00  0.00000000E+00
  0.00000000E+00  0.00000000E+00  0.00000000E+00
  0.00000000E+00  0.00000000E+00  0.00000000E+00
  0.00000000E+00  0.00000000E+00  0.00000000E+00
  0.00000000E+00  0.00000000E+00  0.00000000E+00
  0.00000000E+00  0.00000000E+00  0.00000000E+00
  0.00000000E+00  0.00000000E+00  0.00000000E+00
  0.00000000E+00  0.00000000E+00  0.00000000E+00
  0.00000000E+00  0.00000000E+00  0.00000000E+00
  0.00000000E+00  0.00000000E+00  0.00000000E+00
  0.00000000E+00  0.00000000E+00  0.00000000E+00
  0.00000000E+00  0.00000000E+00  0.00000000E+00
  0.00000000E+00  0.00000000E+00  0.00000000E+00
  0.00000000E+00  0.00000000E+00  0.00000000E+00
  0.00000000E+00  0.00000000E+00  0.00000000E+00
  0.00000000E+00  0.00000000E+00  0.00000000E+00
  0.00000000E+00  0.00000000E+00  0.00000000E+00
  0.00000000E+00  0.00000000E+00  0.00000000E+00
  0.00000000E+00  0.00000000E+00  0.00000000E+00
  0.00000000E+00  0.00000000E+00  0.00000000E+00
  0.00000000E+00  0.00000000E+00  0.00000000E+00
  0.00000000E+00  0.00000000E+00  0.00000000E+00
  0.00000000E+00  0.00000000E+00  0.00000000E+00
  0.00000000E+00  0.00000000E+00  0.00000000E+00
  0.00000000E+00  0.00000000E+00  0.00000000E+00
  0.00000000E+00  0.00000000E+00  0.00000000E+00
  0.00000000E+00  0.00000000E+00  0.00000000E+00
  0.00000000E+00  0.00000000E+00  0.00000000E+00
  0.00000000E+00  0.00000000E+00  0.00000000E+00
  0.00000000E+00  0.00000000E+00  0.00000000E+00
  0.00000000E+00  0.00000000E+00  0.00000000E+00
  0.00000000E+00  0.00000000E+00  0.00000000E+00
  0.00000000E+00  0.00000000E+00  0.00000000E+00
  0.00000000E+00  0.00000000E+00  0.00000000E+00
  0.00000000E+00  0.00000000E+00  0.00000000E+00
  0.00000000E+00  0.00000000E+00  0.00000000E+00
  0.00000000E+00  0.00000000E+00  0.00000000E+00
  0.00000000E+00  0.00000000E+00  0.00000000E+00
  0.00000000E+00  0.00000000E+00  0.00000000E+00
  0.00000000E+00  0.00000000E+00  0.00000000E+00
  0.00000000E+00  0.00000000E+00  0.00000000E+00
  0.00000000E+00  0.00000000E+00  0.00000000E+00
  0.00000000E+00  0.00000000E+00  0.00000000E+00
  0.00000000E+00  0.00000000E+00  0.00000000E+00
  0.00000000E+00  0.00000000E+00  0.00000000E+00
  0.00000000E+00  0.00000000E+00  0.00000000E+00
  0.00000000E+00  0.00000000E+00  0.00000000E+00
  0.00000000E+00  0.00000000E+00  0.00000000E+00
  0.00000000E+00  0.00000000E+00  0.00000000E+00
  0.00000000E+00  0.00000000E+00  0.00000000E+00
  0.00000000E+00  0.00000000E+00  0.00000000E+00
  0.00000000E+00  0.00000000E+00  0.00000000E+00
  0.00000000E+00  0.00000000E+00  0.00000000E+00
  0.00000000E+00  0.00000000E+00  0.00000000E+00
  0.00000000E+00  0.00000000E+00  0.00000000E+00
  0.00000000E+00  0.00000000E+00  0.00000000E+00
  0.00000000E+00  0.00000000E+00  0.00000000E+00
  0.00000000E+00  0.00000000E+00  0.00000000E+00
  0.00000000E+00  0.00000000E+00  0.00000000E+00
  0.00000000E+00  0.00000000E+00  0.00000000E+00
  0.00000000E+00  0.00000000E+00  0.00000000E+00
  0.00000000E+00  0.00000000E+00  0.00000000E+00
  0.00000000E+00  0.00000000E+00  0.00000000E+00
  0.00000000E+00  0.00000000E+00  0.00000000E+00
  0.00000000E+00  0.00000000E+00  0.00000000E+00
  0.00000000E+00  0.00000000E+00  0.00000000E+00
  0.00000000E+00  0.00000000E+00  0.00000000E+00
  0.00000000E+00  0.00000000E+00  0.00000000E+00
  0.00000000E+00  0.00000000E+00  0.00000000E+00
  0.00000000E+00  0.00000000E+00  0.00000000E+00
  0.00000000E+00  0.00000000E+00  0.00000000E+00
  0.00000000E+00  0.00000000E+00  0.00000000E+00
  0.00000000E+00  0.00000000E+00  0.00000000E+00
  0.00000000E+00  0.00000000E+00  0.00000000E+00
  0.00000000E+00  0.00000000E+00  0.00000000E+00
  0.00000000E+00  0.00000000E+00  0.00000000E+00
  0.00000000E+00  0.00000000E+00  0.00000000E+00
  0.00000000E+00  0.00000000E+00  0.00000000E+00
  0.00000000E+00  0.00000000E+00  0.00000000E+00
  0.00000000E+00  0.00000000E+00  0.00000000E+00
  0.00000000E+00  0.00000000E+00  0.00000000E+00
  0.00000000E+00  0.00000000E+00  0.00000000E+00
  0.00000000E+00  0.00000000E+00  0.00000000E+00
  0.00000000E+00  0.00000000E+00  0.00000000E+00
  0.00000000E+00  0.00000000E+00  0.00000000E+00
  0.00000000E+00  0.00000000E+00  0.00000000E+00
  0.00000000E+00  0.00000000E+00  0.00000000E+00
  0.00000000E+00  0.00000000E+00  0.00000000E+00
  0.00000000E+00  0.00000000E+00  0.00000000E+00
  0.00000000E+00  0.00000000E+00  0.00000000E+00
  0.00000000E+00  0.00000000E+00  0.00000000E+00
  0.00000000E+00  0.00000000E+00  0.00000000E+00
  0.00000000E+00  0.00000000E+00  0.00000000E+00
  0.00000000E+00  0.00000000E+00  0.00000000E+00
  0.00000000E+00  0.00000000E+00  0.00000000E+00
  0.00000000E+00  0.00000000E+00  0.00000000E+00
  0.00000000E+00  0.00000000E+00  0.00000000E+00
  0.00000000E+00  0.00000000E+00  0.00000000E+00
  0.00000000E+00  0.00000000E+00  0.00000000E+00
  0.00000000E+00  0.00000000E+00  0.00000000E+00
  0.00000000E+00  0.00000000E+00  0.00000000E+00
  0.00000000E+00  0.00000000E+00  0.00000000E+00
  0.00000000E+00  0.00000000E+00  0.00000000E+00
  0.00000000E+00  0.00000000E+00  0.00000000E+00
  0.00000000E+00  0.00000000E+00  0.00000000E+00
