supercell of icsd_181358.cif            
   1.00000000000000     
    10.0565801161309629   -0.0388189812416830    0.0182886487770520
    -5.0615811810577567    8.7778636203739513    0.0363464397453224
     0.0193863662084110    0.0570398328436917   10.7574173932104244
   N    Ga   La
    36    28     8
Direct
  0.2183341238634426  0.1188241709531752  0.4343000392652385
  0.1442182334289583  0.2305535990916496  0.1715296538946376
  0.8954329121805102  0.1229351785141333  0.9595085735018998
  0.7780044171223892  0.2195246808025004  0.7333739670291948
  0.5094118722224437  0.0859023258015128  0.4232763626204843
  0.4388109757279253  0.2228105628151198  0.1800272677802752
  0.2252477672611093  0.1130030108241442  0.9315989310291570
  0.1189594402645113  0.2277121423783939  0.6928512786525047
  0.9002597682237266  0.1346244401609198  0.4574523490660951
  0.7473223405150122  0.2462073123860478  0.1728967332082547
  0.5456654450349134  0.1124978034917348  0.9379739313756872
  0.4447525409435329  0.2214158365739749  0.6830054877831913
  0.1981429766660199  0.4305345357822787  0.4207315533707856
  0.0912951358428913  0.5065854097968199  0.1728732032374296
  0.8913554275606757  0.4562727921094591  0.9360184561584930
  0.7623943347562729  0.5066901543457192  0.6639290907166782
  0.5799905113752999  0.4186830956617698  0.4192331432488317
  0.4353834937608880  0.5176912166524872  0.1742448992271761
  0.2227161533014055  0.4435367448642467  0.9350331915496568
  0.0926836027402231  0.5112449182879857  0.6797779749341473
  0.9167489163593672  0.4743988111441766  0.4133693668224936
  0.7835043696595605  0.5625877044013166  0.1866076874541207
  0.5645981854795963  0.4430364212556910  0.9357625490519581
  0.4570264183190673  0.5647465283480315  0.7242244926574912
  0.2198821107524083  0.7721734683990960  0.4868546891276608
  0.1106445831098952  0.9119606511573934  0.1867736902901598
  0.8945383306418719  0.7792997998514721  0.9677584568226578
  0.7772155341594029  0.9088168792796480  0.7366226212738809
  0.5348503575843822  0.7812497908012688  0.4452279352208564
  0.4452389119739308  0.9211305993310290  0.1753220180186332
  0.2151573961806577  0.7738678236552587  0.9666791920587912
  0.1164251754833714  0.9224331528949676  0.6758214378522069
  0.9114378765059712  0.7692458735542331  0.4261533427626176
  0.7996360784079215  0.8891332363422180  0.1838428987578453
  0.5524898152713220  0.7796510183276197  0.9592499730021586
  0.4840712109091712  0.9149477537684945  0.6877226239984608
  0.2282625862651955  0.1195586706138130  0.2456038077146658
  0.1238524238967003  0.2267286071250822  0.9954760002750760
  0.8936803309851200  0.1218177554112287  0.7727949908352727
  0.5403402903758945  0.1191156467901493  0.2404972629956177
  0.4411045631356885  0.2218727643290919  0.9985372564258128
  0.2269324646136823  0.1206187111577464  0.7463756102097250
  0.1082555792496294  0.2246900302897856  0.5047091896057410
  0.7678997243198751  0.2324424748028520  0.9913045814393158
  0.5575958844054014  0.1147286997605192  0.7598822369362992
  0.4326063270794265  0.2098916197528169  0.4920219188739239
  0.2231642740593642  0.4295440465739873  0.2360868203634539
  0.1077512748725553  0.5461391210646340  0.9984857090415957
  0.8874182809657540  0.4328518902105074  0.7552732820805304
  0.7931313067641739  0.5539043020956171  0.4790110960546912
  0.5596035250491838  0.4310401923410225  0.2381090532893637
  0.4429544992425107  0.5438991938248989  0.9887168080914677
  0.2215444987939748  0.4364254400225391  0.7559476557683666
  0.1064879872078990  0.5426081174160160  0.4980358015778208
  0.8830417572647420  0.4463402674923316  0.2362349549357106
  0.7810486966161889  0.5572425644337073  0.0077312591552641
  0.5581089251535118  0.4309665992128728  0.7515247292858049
  0.1155568180187316  0.8980996788216089  0.0085827072891504
  0.4384101168510384  0.8987831145466600  0.0016131689583290
  0.1187972714862227  0.8986591024597459  0.4987780028564330
  0.8961464187229353  0.7811694216962408  0.2403328952268993
  0.7891881597057733  0.8955512953652942  0.0016947362927766
  0.5619008831174455  0.7898757229079933  0.7738699192681082
  0.4417686183120964  0.8915362522877572  0.5042420616515031
  0.7538914275344055  0.2403245983267865  0.5143885662846870
  0.8989140283633219  0.1423443295876794  0.2354223220267926
  0.4405091182942158  0.5330262163218293  0.5035222084429662
  0.2023901605001655  0.7609063809381809  0.2575584564101803
  0.8776544036600313  0.7555637590209017  0.7575036208303558
  0.7833996171798034  0.8915057223334131  0.5149859293238137
  0.5469274203816710  0.7709248845187560  0.2250426957491101
  0.2259135939655792  0.7733733623399672  0.7364736216116228
 
  0.00000000E+00  0.00000000E+00  0.00000000E+00
  0.00000000E+00  0.00000000E+00  0.00000000E+00
  0.00000000E+00  0.00000000E+00  0.00000000E+00
  0.00000000E+00  0.00000000E+00  0.00000000E+00
  0.00000000E+00  0.00000000E+00  0.00000000E+00
  0.00000000E+00  0.00000000E+00  0.00000000E+00
  0.00000000E+00  0.00000000E+00  0.00000000E+00
  0.00000000E+00  0.00000000E+00  0.00000000E+00
  0.00000000E+00  0.00000000E+00  0.00000000E+00
  0.00000000E+00  0.00000000E+00  0.00000000E+00
  0.00000000E+00  0.00000000E+00  0.00000000E+00
  0.00000000E+00  0.00000000E+00  0.00000000E+00
  0.00000000E+00  0.00000000E+00  0.00000000E+00
  0.00000000E+00  0.00000000E+00  0.00000000E+00
  0.00000000E+00  0.00000000E+00  0.00000000E+00
  0.00000000E+00  0.00000000E+00  0.00000000E+00
  0.00000000E+00  0.00000000E+00  0.00000000E+00
  0.00000000E+00  0.00000000E+00  0.00000000E+00
  0.00000000E+00  0.00000000E+00  0.00000000E+00
  0.00000000E+00  0.00000000E+00  0.00000000E+00
  0.00000000E+00  0.00000000E+00  0.00000000E+00
  0.00000000E+00  0.00000000E+00  0.00000000E+00
  0.00000000E+00  0.00000000E+00  0.00000000E+00
  0.00000000E+00  0.00000000E+00  0.00000000E+00
  0.00000000E+00  0.00000000E+00  0.00000000E+00
  0.00000000E+00  0.00000000E+00  0.00000000E+00
  0.00000000E+00  0.00000000E+00  0.00000000E+00
  0.00000000E+00  0.00000000E+00  0.00000000E+00
  0.00000000E+00  0.00000000E+00  0.00000000E+00
  0.00000000E+00  0.00000000E+00  0.00000000E+00
  0.00000000E+00  0.00000000E+00  0.00000000E+00
  0.00000000E+00  0.00000000E+00  0.00000000E+00
  0.00000000E+00  0.00000000E+00  0.00000000E+00
  0.00000000E+00  0.00000000E+00  0.00000000E+00
  0.00000000E+00  0.00000000E+00  0.00000000E+00
  0.00000000E+00  0.00000000E+00  0.00000000E+00
  0.00000000E+00  0.00000000E+00  0.00000000E+00
  0.00000000E+00  0.00000000E+00  0.00000000E+00
  0.00000000E+00  0.00000000E+00  0.00000000E+00
  0.00000000E+00  0.00000000E+00  0.00000000E+00
  0.00000000E+00  0.00000000E+00  0.00000000E+00
  0.00000000E+00  0.00000000E+00  0.00000000E+00
  0.00000000E+00  0.00000000E+00  0.00000000E+00
  0.00000000E+00  0.00000000E+00  0.00000000E+00
  0.00000000E+00  0.00000000E+00  0.00000000E+00
  0.00000000E+00  0.00000000E+00  0.00000000E+00
  0.00000000E+00  0.00000000E+00  0.00000000E+00
  0.00000000E+00  0.00000000E+00  0.00000000E+00
  0.00000000E+00  0.00000000E+00  0.00000000E+00
  0.00000000E+00  0.00000000E+00  0.00000000E+00
  0.00000000E+00  0.00000000E+00  0.00000000E+00
  0.00000000E+00  0.00000000E+00  0.00000000E+00
  0.00000000E+00  0.00000000E+00  0.00000000E+00
  0.00000000E+00  0.00000000E+00  0.00000000E+00
  0.00000000E+00  0.00000000E+00  0.00000000E+00
  0.00000000E+00  0.00000000E+00  0.00000000E+00
  0.00000000E+00  0.00000000E+00  0.00000000E+00
  0.00000000E+00  0.00000000E+00  0.00000000E+00
  0.00000000E+00  0.00000000E+00  0.00000000E+00
  0.00000000E+00  0.00000000E+00  0.00000000E+00
  0.00000000E+00  0.00000000E+00  0.00000000E+00
  0.00000000E+00  0.00000000E+00  0.00000000E+00
  0.00000000E+00  0.00000000E+00  0.00000000E+00
  0.00000000E+00  0.00000000E+00  0.00000000E+00
  0.00000000E+00  0.00000000E+00  0.00000000E+00
  0.00000000E+00  0.00000000E+00  0.00000000E+00
  0.00000000E+00  0.00000000E+00  0.00000000E+00
  0.00000000E+00  0.00000000E+00  0.00000000E+00
  0.00000000E+00  0.00000000E+00  0.00000000E+00
  0.00000000E+00  0.00000000E+00  0.00000000E+00
  0.00000000E+00  0.00000000E+00  0.00000000E+00
  0.00000000E+00  0.00000000E+00  0.00000000E+00
