generated by phonopy                    
   1.00000000000000     
    10.0351470768999995   -0.0000022330999784   -0.0000001056124209
    -5.0175765436399997    8.6906901959899994    0.0000001395531216
    -0.0000001735893656    0.0000001431815548   14.9533752540999991
   Pb   P    O 
    20    13    49
Direct
  0.0014474621849985  0.7772752487222760  0.1213528669144566
  0.0017138994103902  0.7754992597053985  0.6244071345495783
  0.9868756178050049  0.2455018495796821  0.3745627947923253
  0.0042327501998969  0.2476183111295924  0.8742366786323217
  0.2256029163609554  0.2271167016543387  0.1245582231892399
  0.2255958721523967  0.2260537613822819  0.6238278408046014
  0.7682357004520810  0.7542099451396282  0.3725068246521204
  0.7584486643544963  0.7636691450000299  0.8736430504764243
  0.7698590032216259  0.0021422253846310  0.1221783686885516
  0.7708016181422579  0.0022063863353452  0.6271816227463773
  0.2487437254571319  0.9868801661478273  0.3736930474795415
  0.2458448573276257  0.0028852350060333  0.8735894067993257
  0.6658176512651792  0.3418033828277132  0.9987628697292337
  0.6710305809573924  0.3335772624812634  0.5029920891878632
  0.3363688891455752  0.6675455225545193  0.9987221042524652
  0.3455568863637524  0.6814486813806155  0.5043863286802406
  0.3301419950574100  0.6777044069677700  0.2400400997301162
  0.3315936919476172  0.6645613760606892  0.7467709274434355
  0.6703677091489908  0.3341419992696402  0.2463304823705599
  0.6655720280518764  0.3402012172358511  0.7500810457246416
  0.6331652222152044  0.6048283164864046  0.1248189206493819
  0.6330952701351507  0.6028692254221255  0.6233813892878857
  0.3405302502694241  0.3393038198482046  0.3743253116015595
  0.3691658547326995  0.4058633565047529  0.8741890954251303
  0.4058221317059818  0.0363099228690587  0.1184732361093950
  0.4062347303968608  0.0349183692945445  0.6295708584424631
  0.6068822894882970  0.9768921411467062  0.3748566383224130
  0.6015224391080380  0.9715780989887790  0.8742026107004790
  0.9674442683790190  0.3725939905043347  0.1241763285428874
  0.9695575572183159  0.3734776070190833  0.6245533315007776
  0.0261977261152424  0.6231012074123612  0.3736475906923573
  0.0321593500463209  0.6374219123739167  0.8737636527844970
  0.4689076404994310  0.5806984541185258  0.3687008015581839
  0.5146720930273503  0.6618004208621073  0.1237926176229749
  0.5138077881992587  0.6591109017564989  0.6228920999141181
  0.4520319391504728  0.2724802185729729  0.3754292932667767
  0.4732112400901087  0.3320691896731987  0.8742966644809655
  0.3600355495183649  0.8647750460415011  0.1103073754258759
  0.3598905365206235  0.8633670557775162  0.6367746395201550
  0.6792000180650177  0.1551627908061022  0.3759332695802442
  0.6697550905053049  0.1487204940953291  0.8747403411440970
  0.1438828358421063  0.4863209063063252  0.1250205460758593
  0.1454287506799545  0.4881395254235272  0.6227339244255816
  0.8466135529195427  0.5281307446382471  0.3738263396588266
  0.8543361178098081  0.5311948608055559  0.8740610874595092
  0.7360885184937374  0.6576134250451275  0.0382628899401638
  0.7451743019395636  0.6663342101409171  0.5412710094560538
  0.2302622699717816  0.2852400648656541  0.4575599560976542
  0.2615844639538949  0.3578102081784635  0.9581459656874571
  0.3522101580112178  0.0922060846358193  0.0350952935682329
  0.3357145095112557  0.0657216432189500  0.5441634561292119
  0.6443704412048419  0.9165642401268173  0.4618302309818532
  0.6529095455003713  0.9143630370021398  0.9581343076370743
  0.9205009928953132  0.2622617622114660  0.0414525826789216
  0.9146460895560296  0.2706001156163751  0.5379535122046875
  0.0879422500144074  0.7283333255853464  0.4579597263157353
  0.0892640536100870  0.7457739390939508  0.9575589234637931
  0.2258618836535931  0.2752347812329177  0.2930068449337355
  0.2609550501165288  0.3566105827341559  0.7905058345829232
  0.7480589027331561  0.6731683021894810  0.2056823704676347
  0.7370902916050852  0.6606743410159268  0.7092193392180661
  0.6657368316063312  0.9243391336590747  0.2934169424515076
  0.6564945098340331  0.9168430703024626  0.7908159966638380
  0.3320458631731924  0.0648478447676553  0.2031180369398484
  0.3499847495610950  0.0892635896934877  0.7125463117183202
  0.0868144438690734  0.7294064063661523  0.2893633093104597
  0.0889779756802795  0.7453529877514242  0.7897885744893856
  0.9142570511191010  0.2689773545329857  0.2104225299035960
  0.9244161980979086  0.2615655747488148  0.7066129779016066
  0.5490888930190039  0.4246051121896315  0.1289596544963629
  0.5486792683391144  0.4224889391633084  0.6222180526852057
  0.4716317980100229  0.5869634079594235  0.8738246214071239
  0.5860608912009013  0.1387171383889410  0.1250444172537897
  0.5867782895264710  0.1378520162127117  0.6250311460422679
  0.4249339265843659  0.8988686269638677  0.3683368256449810
  0.4201443025013063  0.8856444741520448  0.8733000626972114
  0.8746411891807213  0.4604016889322864  0.1211161222445014
  0.8753314810260520  0.4597702821348548  0.6296536253730665
  0.0966965362332530  0.5133985681309312  0.3720582278399363
  0.1139272185675750  0.5380594945639601  0.8736832890396968
  0.9976146386209166  0.0026205201154283  0.1202828175811632
  0.9979348198702169  0.0010252635476604  0.6235310525490689
 
  0.00000000E+00  0.00000000E+00  0.00000000E+00
  0.00000000E+00  0.00000000E+00  0.00000000E+00
  0.00000000E+00  0.00000000E+00  0.00000000E+00
  0.00000000E+00  0.00000000E+00  0.00000000E+00
  0.00000000E+00  0.00000000E+00  0.00000000E+00
  0.00000000E+00  0.00000000E+00  0.00000000E+00
  0.00000000E+00  0.00000000E+00  0.00000000E+00
  0.00000000E+00  0.00000000E+00  0.00000000E+00
  0.00000000E+00  0.00000000E+00  0.00000000E+00
  0.00000000E+00  0.00000000E+00  0.00000000E+00
  0.00000000E+00  0.00000000E+00  0.00000000E+00
  0.00000000E+00  0.00000000E+00  0.00000000E+00
  0.00000000E+00  0.00000000E+00  0.00000000E+00
  0.00000000E+00  0.00000000E+00  0.00000000E+00
  0.00000000E+00  0.00000000E+00  0.00000000E+00
  0.00000000E+00  0.00000000E+00  0.00000000E+00
  0.00000000E+00  0.00000000E+00  0.00000000E+00
  0.00000000E+00  0.00000000E+00  0.00000000E+00
  0.00000000E+00  0.00000000E+00  0.00000000E+00
  0.00000000E+00  0.00000000E+00  0.00000000E+00
  0.00000000E+00  0.00000000E+00  0.00000000E+00
  0.00000000E+00  0.00000000E+00  0.00000000E+00
  0.00000000E+00  0.00000000E+00  0.00000000E+00
  0.00000000E+00  0.00000000E+00  0.00000000E+00
  0.00000000E+00  0.00000000E+00  0.00000000E+00
  0.00000000E+00  0.00000000E+00  0.00000000E+00
  0.00000000E+00  0.00000000E+00  0.00000000E+00
  0.00000000E+00  0.00000000E+00  0.00000000E+00
  0.00000000E+00  0.00000000E+00  0.00000000E+00
  0.00000000E+00  0.00000000E+00  0.00000000E+00
  0.00000000E+00  0.00000000E+00  0.00000000E+00
  0.00000000E+00  0.00000000E+00  0.00000000E+00
  0.00000000E+00  0.00000000E+00  0.00000000E+00
  0.00000000E+00  0.00000000E+00  0.00000000E+00
  0.00000000E+00  0.00000000E+00  0.00000000E+00
  0.00000000E+00  0.00000000E+00  0.00000000E+00
  0.00000000E+00  0.00000000E+00  0.00000000E+00
  0.00000000E+00  0.00000000E+00  0.00000000E+00
  0.00000000E+00  0.00000000E+00  0.00000000E+00
  0.00000000E+00  0.00000000E+00  0.00000000E+00
  0.00000000E+00  0.00000000E+00  0.00000000E+00
  0.00000000E+00  0.00000000E+00  0.00000000E+00
  0.00000000E+00  0.00000000E+00  0.00000000E+00
  0.00000000E+00  0.00000000E+00  0.00000000E+00
  0.00000000E+00  0.00000000E+00  0.00000000E+00
  0.00000000E+00  0.00000000E+00  0.00000000E+00
  0.00000000E+00  0.00000000E+00  0.00000000E+00
  0.00000000E+00  0.00000000E+00  0.00000000E+00
  0.00000000E+00  0.00000000E+00  0.00000000E+00
  0.00000000E+00  0.00000000E+00  0.00000000E+00
  0.00000000E+00  0.00000000E+00  0.00000000E+00
  0.00000000E+00  0.00000000E+00  0.00000000E+00
  0.00000000E+00  0.00000000E+00  0.00000000E+00
  0.00000000E+00  0.00000000E+00  0.00000000E+00
  0.00000000E+00  0.00000000E+00  0.00000000E+00
  0.00000000E+00  0.00000000E+00  0.00000000E+00
  0.00000000E+00  0.00000000E+00  0.00000000E+00
  0.00000000E+00  0.00000000E+00  0.00000000E+00
  0.00000000E+00  0.00000000E+00  0.00000000E+00
  0.00000000E+00  0.00000000E+00  0.00000000E+00
  0.00000000E+00  0.00000000E+00  0.00000000E+00
  0.00000000E+00  0.00000000E+00  0.00000000E+00
  0.00000000E+00  0.00000000E+00  0.00000000E+00
  0.00000000E+00  0.00000000E+00  0.00000000E+00
  0.00000000E+00  0.00000000E+00  0.00000000E+00
  0.00000000E+00  0.00000000E+00  0.00000000E+00
  0.00000000E+00  0.00000000E+00  0.00000000E+00
  0.00000000E+00  0.00000000E+00  0.00000000E+00
  0.00000000E+00  0.00000000E+00  0.00000000E+00
  0.00000000E+00  0.00000000E+00  0.00000000E+00
  0.00000000E+00  0.00000000E+00  0.00000000E+00
  0.00000000E+00  0.00000000E+00  0.00000000E+00
  0.00000000E+00  0.00000000E+00  0.00000000E+00
  0.00000000E+00  0.00000000E+00  0.00000000E+00
  0.00000000E+00  0.00000000E+00  0.00000000E+00
  0.00000000E+00  0.00000000E+00  0.00000000E+00
  0.00000000E+00  0.00000000E+00  0.00000000E+00
  0.00000000E+00  0.00000000E+00  0.00000000E+00
  0.00000000E+00  0.00000000E+00  0.00000000E+00
  0.00000000E+00  0.00000000E+00  0.00000000E+00
  0.00000000E+00  0.00000000E+00  0.00000000E+00
  0.00000000E+00  0.00000000E+00  0.00000000E+00
