generated by phonopy                    
   1.00000000000000     
    11.7777700938999992   -0.0000006592896312    0.0000118211769744
    -0.0000006477562692   11.7777479613999994   -0.0000130806483528
     0.0000177256125076   -0.0000204342245446   17.8544012557999991
   Bi   Ge   Cu   Se   O 
    36     1    35    36    36
Direct
  0.9999653480979944  0.1712789198606615  0.4338709925915012
  0.3358200078117335  0.1706471378169425  0.4326793265740676
  0.6641009802616793  0.1706501225252524  0.4326811138606033
  0.9999639484089684  0.4999900317565249  0.4323087285675626
  0.3340116605634549  0.4999907059748310  0.4316473185012200
  0.6659143761007371  0.4999903085380808  0.4316477755664465
  0.9999603033520259  0.8287025154263858  0.4338714742797336
  0.3358211696155493  0.8293324740421397  0.4326801907386226
  0.6641020579132402  0.8293309492027632  0.4326811282945329
  0.9999692530739708  0.1668146173261889  0.9281742824459158
  0.3337805396563240  0.1673125904981987  0.9257981868390601
  0.6661532996151038  0.1673096791772011  0.9257916284694403
  0.9999665967002258  0.4999759450037544  0.9272979092810516
  0.3348638984344916  0.4999763859121344  0.9249420617817634
  0.6650686883556816  0.4999758296503884  0.9249400219722332
  0.9999669682978478  0.8331371241410821  0.9281735538217717
  0.3337757956557468  0.8326410838969380  0.9257962940127697
  0.6661471828325958  0.8326393111101780  0.9257911910209060
  0.1712559071232960  0.9999783820722143  0.0662526280475504
  0.4999686746198151  0.9999758347296321  0.0678146210410233
  0.8286757991891491  0.9999739190751669  0.0662446373990733
  0.1706230633274828  0.3358399304859816  0.0674419007370872
  0.4999659683302440  0.3340250515188501  0.0684796973982316
  0.8293040741411772  0.3358370022464854  0.0674369464664011
  0.1706224599599508  0.6641163321321599  0.0674419358417992
  0.4999639372817057  0.6659253641858811  0.0684785342121970
  0.8293047037532162  0.6641174797357650  0.0674384989830443
  0.1667968606444106  0.9999888978298657  0.5719470385395127
  0.4999580163050084  0.9999907166086501  0.5728229475134867
  0.8331195918428946  0.9999945250120490  0.5719458052555169
  0.1672965442040777  0.3338006384366139  0.5743289730576251
  0.4999597733332948  0.3348837998638388  0.5751809290207746
  0.8326305174688287  0.3338035439371865  0.5743274453384046
  0.1672917919900314  0.6661807164741163  0.5743278128710401
  0.4999571620450212  0.6650963627973852  0.5751813185842209
  0.8326266360197749  0.6661806879232373  0.5743298829690389
  0.9999913069958879  0.9999856143431316  0.2500578870864132
  0.3423060064182977  0.9999832911780828  0.2454080064781081
  0.6576759213202905  0.9999693031781547  0.2454288464724499
  0.9999643342712687  0.3422895703708519  0.2546961349593673
  0.3384994698785633  0.3385111872159143  0.2500666252640258
  0.6614360417564598  0.3385144451643143  0.2500612781601106
  0.9999596012343304  0.6576756834511954  0.2546986566204339
  0.3384989128626827  0.6614522619014807  0.2500646472115804
  0.6614460507786717  0.6614453152967670  0.2500612045389801
  0.9999581536073521  0.9999879469213866  0.7500627040805412
  0.3322950688981550  0.9999857249479120  0.7504614767485762
  0.6676213919463336  0.9999885097228756  0.7504628350462426
  0.9999521696944598  0.3323218300398381  0.7496584793896162
  0.3318997724275121  0.3319316331983444  0.7500604061486698
  0.6680125783548547  0.3319335886632118  0.7500565632507090
  0.9999540554711714  0.6676526200955735  0.7496597897869677
  0.3318992300331161  0.6680406670582499  0.7500588383437901
  0.6680129705628559  0.6680436895333699  0.7500583895434758
  0.1849678319214405  0.1851175165538237  0.2500211998439497
  0.4999911219431183  0.1691971568086643  0.2505221008981167
  0.8148981840893370  0.1850299726915239  0.2500690012141646
  0.1691770739133034  0.4999928557534119  0.2496025556623920
  0.4999698001561512  0.4999838887568515  0.2500619205759662
  0.8307652417158451  0.4999830687549434  0.2495984987905189
  0.1850130797185798  0.8149165975187813  0.2500510046170632
  0.4999851334081100  0.8307697536187391  0.2505212134762260
  0.8148904463018027  0.8149392445991950  0.2500737447768699
  0.1658405396361573  0.1658646116923137  0.7500591380841968
  0.4999583338190305  0.1654303423773271  0.7492890378813613
  0.8340689900983307  0.1658637263797544  0.7500617019764704
  0.1654037838434022  0.4999744992481396  0.7508293786203311
  0.4999548533619418  0.4999753446989104  0.7500560861304209
  0.8344957521580199  0.4999834660895814  0.7508319927295801
  0.1658394001951677  0.8340935705623380  0.7500617480368987
  0.4999541409125570  0.8345281109852181  0.7492891444782614
  0.8340685021921814  0.8340960332452383  0.7500606547530992
  0.1686031068066711  0.3366709764304971  0.3399823041631578
  0.4999568151522880  0.3340334942540153  0.3391057408105951
  0.8313038759174205  0.3366742397767197  0.3399747046553969
  0.1686136465462553  0.6633064708723211  0.3399769792353808
  0.4999686880405960  0.6659379104959910  0.3391036774756486
  0.8313144488770305  0.6633052993480675  0.3399789844923546
  0.1669985937360323  0.9999940757186536  0.3277670527876779
  0.4999674780363748  0.9999846279644800  0.3365173392496388
  0.8329835561786609  0.9999993790283312  0.3277835039630332
  0.1658388740565968  0.3329856731792802  0.8372071390671323
  0.4999630518234071  0.3326566581592161  0.8362600658994808
  0.8340842038530525  0.3329895028444980  0.8372054669229172
  0.1658396516214609  0.6669671000814787  0.8372065375892106
  0.4999613599682533  0.6672993984387645  0.8362579441542763
  0.8340845842349722  0.6669737750538687  0.8372061272562235
  0.1661750603947425  0.9999794695480233  0.8376009262137174
  0.4999578149337154  0.9999793757637718  0.8371589731135387
  0.8337478594830401  0.9999798725565938  0.8376021751642568
  0.3366459024028572  0.1686354008977915  0.1601486722253398
  0.6632819793191587  0.1686310470119423  0.1601458512493110
  0.9999337890313598  0.1669848510970411  0.1723284313161813
  0.3340070377980595  0.4999760128996797  0.1610209252849515
  0.6659142035392804  0.4999845984654456  0.1610179550356108
  0.9999631996277714  0.4999849729457395  0.1636024580594651
  0.3366546877658791  0.8313151335891007  0.1601454788503531
  0.6632898908064035  0.8313344817561372  0.1601416253599339
  0.9999511791441620  0.8329761588657476  0.1723372635019302
  0.3329674690079401  0.1658625693343510  0.6629147854735535
  0.6669502885681737  0.1658632558045099  0.6629131152223522
  0.9999588678528681  0.1661983921548753  0.6625207365772567
  0.3326353605670818  0.4999847717192196  0.6638579246556660
  0.6672791917907333  0.4999887071611937  0.6638562972843900
  0.9999572352334383  0.4999880254676654  0.6629629457698911
  0.3329673376885722  0.8341096528850684  0.6629142039592182
  0.6669511760334927  0.8341126207874296  0.6629131227785834
  0.9999589548294878  0.8337768829189685  0.6625214680716383
  0.1666680989636191  0.1671322882462718  0.5006899487097698
  0.4999607397781318  0.1677094098563146  0.5017681633035167
  0.8332535230385005  0.1671393925974485  0.5006875731882232
  0.1670486743176340  0.4999900121544130  0.5024509107780943
  0.4999578286969424  0.4999893336220822  0.5034730511630343
  0.8328743872987019  0.4999897953825041  0.5024504479323895
  0.1666682111930342  0.8328430858177143  0.5006881519355488
  0.4999624612894991  0.8322678770973226  0.5017683759113751
  0.8332535423927396  0.8328433730569031  0.5006899136080634
  0.1671104053947374  0.1666849653261764  0.9994357345876494
  0.4999665400645270  0.1670666573741144  0.9976745511130858
  0.8328173137560668  0.1666853408804343  0.9994291530117181
  0.1676858365503264  0.4999780682911705  0.9983516361249940
  0.4999678259518774  0.4999772211345999  0.9966499722493865
  0.8322418181939426  0.4999785921518836  0.9983520549347631
  0.1671111720903582  0.8332693493505801  0.9994349083573297
  0.4999643511034222  0.8328882148616614  0.9976737758802514
  0.8328174621104552  0.8332700059485063  0.9994281266039096
  0.9999671351056492  0.9999769164335817  0.0005713855579543
  0.3332292199391702  0.9999767072026984  0.9978041393090180
  0.6666962756695725  0.9999769572377772  0.9977980601355299
  0.9999636868148940  0.3329380270786686  0.0001345845606906
  0.3325567706122641  0.3341836398365459  0.9976457857096150
  0.6673749217761937  0.3341823147213390  0.9976413479667343
  0.9999635938803451  0.6670183986442382  0.0001351453668903
  0.3325555862050393  0.6657704066541896  0.9976445668529905
  0.6673741814958660  0.6657753649304112  0.9976424254195706
  0.9999603740056529  0.9999896671261652  0.4995485613955069
  0.3329206447124022  0.9999885824633026  0.4999872001480696
  0.6670030900124360  0.9999903009821836  0.4999844131413198
  0.9999625075961873  0.3332547150798391  0.5023213446290882
  0.3341620836696606  0.3325773837491610  0.5024779183746446
  0.6657548852229453  0.3325804449321481  0.5024801028394279
  0.9999607723625275  0.6667264660543921  0.5023220506006041
  0.3341641458109947  0.6673998655762219  0.5024781709573958
  0.6657566270766964  0.6673993546447292  0.5024805602005813
 
  0.00000000E+00  0.00000000E+00  0.00000000E+00
  0.00000000E+00  0.00000000E+00  0.00000000E+00
  0.00000000E+00  0.00000000E+00  0.00000000E+00
  0.00000000E+00  0.00000000E+00  0.00000000E+00
  0.00000000E+00  0.00000000E+00  0.00000000E+00
  0.00000000E+00  0.00000000E+00  0.00000000E+00
  0.00000000E+00  0.00000000E+00  0.00000000E+00
  0.00000000E+00  0.00000000E+00  0.00000000E+00
  0.00000000E+00  0.00000000E+00  0.00000000E+00
  0.00000000E+00  0.00000000E+00  0.00000000E+00
  0.00000000E+00  0.00000000E+00  0.00000000E+00
  0.00000000E+00  0.00000000E+00  0.00000000E+00
  0.00000000E+00  0.00000000E+00  0.00000000E+00
  0.00000000E+00  0.00000000E+00  0.00000000E+00
  0.00000000E+00  0.00000000E+00  0.00000000E+00
  0.00000000E+00  0.00000000E+00  0.00000000E+00
  0.00000000E+00  0.00000000E+00  0.00000000E+00
  0.00000000E+00  0.00000000E+00  0.00000000E+00
  0.00000000E+00  0.00000000E+00  0.00000000E+00
  0.00000000E+00  0.00000000E+00  0.00000000E+00
  0.00000000E+00  0.00000000E+00  0.00000000E+00
  0.00000000E+00  0.00000000E+00  0.00000000E+00
  0.00000000E+00  0.00000000E+00  0.00000000E+00
  0.00000000E+00  0.00000000E+00  0.00000000E+00
  0.00000000E+00  0.00000000E+00  0.00000000E+00
  0.00000000E+00  0.00000000E+00  0.00000000E+00
  0.00000000E+00  0.00000000E+00  0.00000000E+00
  0.00000000E+00  0.00000000E+00  0.00000000E+00
  0.00000000E+00  0.00000000E+00  0.00000000E+00
  0.00000000E+00  0.00000000E+00  0.00000000E+00
  0.00000000E+00  0.00000000E+00  0.00000000E+00
  0.00000000E+00  0.00000000E+00  0.00000000E+00
  0.00000000E+00  0.00000000E+00  0.00000000E+00
  0.00000000E+00  0.00000000E+00  0.00000000E+00
  0.00000000E+00  0.00000000E+00  0.00000000E+00
  0.00000000E+00  0.00000000E+00  0.00000000E+00
  0.00000000E+00  0.00000000E+00  0.00000000E+00
  0.00000000E+00  0.00000000E+00  0.00000000E+00
  0.00000000E+00  0.00000000E+00  0.00000000E+00
  0.00000000E+00  0.00000000E+00  0.00000000E+00
  0.00000000E+00  0.00000000E+00  0.00000000E+00
  0.00000000E+00  0.00000000E+00  0.00000000E+00
  0.00000000E+00  0.00000000E+00  0.00000000E+00
  0.00000000E+00  0.00000000E+00  0.00000000E+00
  0.00000000E+00  0.00000000E+00  0.00000000E+00
  0.00000000E+00  0.00000000E+00  0.00000000E+00
  0.00000000E+00  0.00000000E+00  0.00000000E+00
  0.00000000E+00  0.00000000E+00  0.00000000E+00
  0.00000000E+00  0.00000000E+00  0.00000000E+00
  0.00000000E+00  0.00000000E+00  0.00000000E+00
  0.00000000E+00  0.00000000E+00  0.00000000E+00
  0.00000000E+00  0.00000000E+00  0.00000000E+00
  0.00000000E+00  0.00000000E+00  0.00000000E+00
  0.00000000E+00  0.00000000E+00  0.00000000E+00
  0.00000000E+00  0.00000000E+00  0.00000000E+00
  0.00000000E+00  0.00000000E+00  0.00000000E+00
  0.00000000E+00  0.00000000E+00  0.00000000E+00
  0.00000000E+00  0.00000000E+00  0.00000000E+00
  0.00000000E+00  0.00000000E+00  0.00000000E+00
  0.00000000E+00  0.00000000E+00  0.00000000E+00
  0.00000000E+00  0.00000000E+00  0.00000000E+00
  0.00000000E+00  0.00000000E+00  0.00000000E+00
  0.00000000E+00  0.00000000E+00  0.00000000E+00
  0.00000000E+00  0.00000000E+00  0.00000000E+00
  0.00000000E+00  0.00000000E+00  0.00000000E+00
  0.00000000E+00  0.00000000E+00  0.00000000E+00
  0.00000000E+00  0.00000000E+00  0.00000000E+00
  0.00000000E+00  0.00000000E+00  0.00000000E+00
  0.00000000E+00  0.00000000E+00  0.00000000E+00
  0.00000000E+00  0.00000000E+00  0.00000000E+00
  0.00000000E+00  0.00000000E+00  0.00000000E+00
  0.00000000E+00  0.00000000E+00  0.00000000E+00
  0.00000000E+00  0.00000000E+00  0.00000000E+00
  0.00000000E+00  0.00000000E+00  0.00000000E+00
  0.00000000E+00  0.00000000E+00  0.00000000E+00
  0.00000000E+00  0.00000000E+00  0.00000000E+00
  0.00000000E+00  0.00000000E+00  0.00000000E+00
  0.00000000E+00  0.00000000E+00  0.00000000E+00
  0.00000000E+00  0.00000000E+00  0.00000000E+00
  0.00000000E+00  0.00000000E+00  0.00000000E+00
  0.00000000E+00  0.00000000E+00  0.00000000E+00
  0.00000000E+00  0.00000000E+00  0.00000000E+00
  0.00000000E+00  0.00000000E+00  0.00000000E+00
  0.00000000E+00  0.00000000E+00  0.00000000E+00
  0.00000000E+00  0.00000000E+00  0.00000000E+00
  0.00000000E+00  0.00000000E+00  0.00000000E+00
  0.00000000E+00  0.00000000E+00  0.00000000E+00
  0.00000000E+00  0.00000000E+00  0.00000000E+00
  0.00000000E+00  0.00000000E+00  0.00000000E+00
  0.00000000E+00  0.00000000E+00  0.00000000E+00
  0.00000000E+00  0.00000000E+00  0.00000000E+00
  0.00000000E+00  0.00000000E+00  0.00000000E+00
  0.00000000E+00  0.00000000E+00  0.00000000E+00
  0.00000000E+00  0.00000000E+00  0.00000000E+00
  0.00000000E+00  0.00000000E+00  0.00000000E+00
  0.00000000E+00  0.00000000E+00  0.00000000E+00
  0.00000000E+00  0.00000000E+00  0.00000000E+00
  0.00000000E+00  0.00000000E+00  0.00000000E+00
  0.00000000E+00  0.00000000E+00  0.00000000E+00
  0.00000000E+00  0.00000000E+00  0.00000000E+00
  0.00000000E+00  0.00000000E+00  0.00000000E+00
  0.00000000E+00  0.00000000E+00  0.00000000E+00
  0.00000000E+00  0.00000000E+00  0.00000000E+00
  0.00000000E+00  0.00000000E+00  0.00000000E+00
  0.00000000E+00  0.00000000E+00  0.00000000E+00
  0.00000000E+00  0.00000000E+00  0.00000000E+00
  0.00000000E+00  0.00000000E+00  0.00000000E+00
  0.00000000E+00  0.00000000E+00  0.00000000E+00
  0.00000000E+00  0.00000000E+00  0.00000000E+00
  0.00000000E+00  0.00000000E+00  0.00000000E+00
  0.00000000E+00  0.00000000E+00  0.00000000E+00
  0.00000000E+00  0.00000000E+00  0.00000000E+00
  0.00000000E+00  0.00000000E+00  0.00000000E+00
  0.00000000E+00  0.00000000E+00  0.00000000E+00
  0.00000000E+00  0.00000000E+00  0.00000000E+00
  0.00000000E+00  0.00000000E+00  0.00000000E+00
  0.00000000E+00  0.00000000E+00  0.00000000E+00
  0.00000000E+00  0.00000000E+00  0.00000000E+00
  0.00000000E+00  0.00000000E+00  0.00000000E+00
  0.00000000E+00  0.00000000E+00  0.00000000E+00
  0.00000000E+00  0.00000000E+00  0.00000000E+00
  0.00000000E+00  0.00000000E+00  0.00000000E+00
  0.00000000E+00  0.00000000E+00  0.00000000E+00
  0.00000000E+00  0.00000000E+00  0.00000000E+00
  0.00000000E+00  0.00000000E+00  0.00000000E+00
  0.00000000E+00  0.00000000E+00  0.00000000E+00
  0.00000000E+00  0.00000000E+00  0.00000000E+00
  0.00000000E+00  0.00000000E+00  0.00000000E+00
  0.00000000E+00  0.00000000E+00  0.00000000E+00
  0.00000000E+00  0.00000000E+00  0.00000000E+00
  0.00000000E+00  0.00000000E+00  0.00000000E+00
  0.00000000E+00  0.00000000E+00  0.00000000E+00
  0.00000000E+00  0.00000000E+00  0.00000000E+00
  0.00000000E+00  0.00000000E+00  0.00000000E+00
  0.00000000E+00  0.00000000E+00  0.00000000E+00
  0.00000000E+00  0.00000000E+00  0.00000000E+00
  0.00000000E+00  0.00000000E+00  0.00000000E+00
  0.00000000E+00  0.00000000E+00  0.00000000E+00
  0.00000000E+00  0.00000000E+00  0.00000000E+00
  0.00000000E+00  0.00000000E+00  0.00000000E+00
  0.00000000E+00  0.00000000E+00  0.00000000E+00
  0.00000000E+00  0.00000000E+00  0.00000000E+00
  0.00000000E+00  0.00000000E+00  0.00000000E+00
  0.00000000E+00  0.00000000E+00  0.00000000E+00
