supercell of icsd_181358.cif            
   1.00000000000000     
    10.1035960090971777   -0.0047473385477253   -0.0054945531532538
    -5.0558947391333824    8.7716241889975386   -0.0013480055425186
    -0.0057743249899194   -0.0055758234046214   10.5327020378082370
   N    Ga   Y 
    36    26    10
Direct
  0.2211408711865630  0.1093224934898132  0.4528604222347568
  0.0934472534467616  0.1835050369997546  0.1784948240620565
  0.8864659820800540  0.1076340359002899  0.9367209227826692
  0.7804201529150632  0.2248412874440433  0.6905514229490421
  0.5724907199322473  0.1458579597029939  0.4303184336063808
  0.4299415779576918  0.1979118800314552  0.1825864409356868
  0.2351810832195795  0.1354183790721208  0.9346878621180252
  0.0913184771936315  0.2349749449296894  0.6806846818144408
  0.9032099899077792  0.1482943935727263  0.4255232113330720
  0.7567481151926287  0.1855558612061330  0.1728765446256304
  0.5661982475770913  0.1370091584504891  0.9322172194825598
  0.4753031032457571  0.2371825416312916  0.6845793715748840
  0.2465468902263481  0.4299318540710217  0.4337763383597348
  0.1192153918733965  0.5769722810456059  0.1917036615357262
  0.8867500358778315  0.4430611523516745  0.9503024149446020
  0.7786622320212331  0.5564695803449808  0.6991731604936930
  0.5610048203217772  0.4504129212469437  0.4614499405106898
  0.4603244852035573  0.5813307374111005  0.1695430848532382
  0.2182580688296554  0.4408376432806378  0.9521020483020592
  0.0956089381861887  0.5312317256293255  0.7081697423618962
  0.8657472527947263  0.4398290322172400  0.4443741692913505
  0.7852108213508657  0.5794969190298431  0.1742176910576063
  0.5547278722169580  0.4439157285100706  0.9398967314408608
  0.4393977876912984  0.5532255020895960  0.6995831292846972
  0.2094438385364441  0.7773868471219956  0.4543282720302102
  0.1111129413157954  0.8878545904776729  0.2175863445401092
  0.8676412600061525  0.7676845697965788  0.9344313366155959
  0.7780342881718099  0.8914797619909294  0.7006809303605195
  0.5518271150646683  0.7484850135353369  0.4348389635529983
  0.4436050432923295  0.8880213119266429  0.2297926081532324
  0.2182124646580661  0.7676719941079142  0.9503099147970815
  0.0814586932894201  0.8774423815952304  0.6842902743379966
  0.8915497310830318  0.7580926558226224  0.4356455481475052
  0.7778463267425835  0.8864934028224241  0.1949305679814302
  0.5649957872821005  0.7691955150624707  0.9346767585719462
  0.4737058307553212  0.9061155059334070  0.6992561863782072
  0.2175785978988642  0.1010941888587098  0.2587812830324836
  0.1069556472701976  0.2148833608187886  0.9941381076005200
  0.8836325329889547  0.1126600341182566  0.7494432837181293
  0.7788875100648198  0.2343460356536156  0.5015058117950986
  0.5532229393195536  0.1109087738059245  0.2488475235414072
  0.4458174593394517  0.2283744453007586  0.9937735875254958
  0.1133659327579721  0.2282632726142353  0.4939593075789546
  0.8834334826800117  0.1040509031632197  0.2393558364241954
  0.7760130646649657  0.2191158208860031  0.9913145470993641
  0.5698565327012872  0.1228171853529361  0.7486113593905444
  0.4618517598779732  0.2370103656379285  0.5023770016160896
  0.1099923993444278  0.5584752063450438  0.9986943459610345
  0.8832812514222681  0.4387299647308183  0.7575831927184993
  0.7764600330501779  0.5529406393676695  0.5109653721883518
  0.4528290074121557  0.5597525757751214  0.9883167097294177
  0.2140135376296541  0.4388554120486958  0.7596341060450911
  0.7721497351021895  0.5593578609143179  0.9920820035296387
  0.5614523896232910  0.4468753584100895  0.7499200349491986
  0.4464306392305417  0.5468601234192576  0.5104464542454821
  0.2184613779479108  0.7803263272804486  0.2627129925088312
  0.8764971907379717  0.7738159986050093  0.7509756066828430
  0.5584565066109448  0.7733017574831464  0.2516598932502845
  0.1001185559791722  0.8798301331877809  0.4970824338210278
  0.8901998973180270  0.7757624489926940  0.2519787053241984
  0.7746227162284640  0.8829094647639550  0.9982337200712621
  0.5641722811884051  0.7818590584031426  0.7517000939467735
  0.2253770811347380  0.1235355742405773  0.7234976494092180
  0.2230565056592795  0.4353889669845046  0.2230781271764499
  0.5536624045854666  0.4459466398980538  0.2491200527121364
  0.1042377169821478  0.5310376569550854  0.4973823443190497
  0.8760548295001200  0.4342904775811434  0.2324284651233199
  0.1056794112520762  0.8962876553959092  0.0059781981042732
  0.7916146157370036  0.8979304705228373  0.4899244944652423
  0.4580364796489178  0.8976347542984655  0.0099566128960973
  0.2228139994157772  0.7753453674604174  0.7401615404497051
  0.4569604870484056  0.8992791208733806  0.4812180256281309
 
  0.00000000E+00  0.00000000E+00  0.00000000E+00
  0.00000000E+00  0.00000000E+00  0.00000000E+00
  0.00000000E+00  0.00000000E+00  0.00000000E+00
  0.00000000E+00  0.00000000E+00  0.00000000E+00
  0.00000000E+00  0.00000000E+00  0.00000000E+00
  0.00000000E+00  0.00000000E+00  0.00000000E+00
  0.00000000E+00  0.00000000E+00  0.00000000E+00
  0.00000000E+00  0.00000000E+00  0.00000000E+00
  0.00000000E+00  0.00000000E+00  0.00000000E+00
  0.00000000E+00  0.00000000E+00  0.00000000E+00
  0.00000000E+00  0.00000000E+00  0.00000000E+00
  0.00000000E+00  0.00000000E+00  0.00000000E+00
  0.00000000E+00  0.00000000E+00  0.00000000E+00
  0.00000000E+00  0.00000000E+00  0.00000000E+00
  0.00000000E+00  0.00000000E+00  0.00000000E+00
  0.00000000E+00  0.00000000E+00  0.00000000E+00
  0.00000000E+00  0.00000000E+00  0.00000000E+00
  0.00000000E+00  0.00000000E+00  0.00000000E+00
  0.00000000E+00  0.00000000E+00  0.00000000E+00
  0.00000000E+00  0.00000000E+00  0.00000000E+00
  0.00000000E+00  0.00000000E+00  0.00000000E+00
  0.00000000E+00  0.00000000E+00  0.00000000E+00
  0.00000000E+00  0.00000000E+00  0.00000000E+00
  0.00000000E+00  0.00000000E+00  0.00000000E+00
  0.00000000E+00  0.00000000E+00  0.00000000E+00
  0.00000000E+00  0.00000000E+00  0.00000000E+00
  0.00000000E+00  0.00000000E+00  0.00000000E+00
  0.00000000E+00  0.00000000E+00  0.00000000E+00
  0.00000000E+00  0.00000000E+00  0.00000000E+00
  0.00000000E+00  0.00000000E+00  0.00000000E+00
  0.00000000E+00  0.00000000E+00  0.00000000E+00
  0.00000000E+00  0.00000000E+00  0.00000000E+00
  0.00000000E+00  0.00000000E+00  0.00000000E+00
  0.00000000E+00  0.00000000E+00  0.00000000E+00
  0.00000000E+00  0.00000000E+00  0.00000000E+00
  0.00000000E+00  0.00000000E+00  0.00000000E+00
  0.00000000E+00  0.00000000E+00  0.00000000E+00
  0.00000000E+00  0.00000000E+00  0.00000000E+00
  0.00000000E+00  0.00000000E+00  0.00000000E+00
  0.00000000E+00  0.00000000E+00  0.00000000E+00
  0.00000000E+00  0.00000000E+00  0.00000000E+00
  0.00000000E+00  0.00000000E+00  0.00000000E+00
  0.00000000E+00  0.00000000E+00  0.00000000E+00
  0.00000000E+00  0.00000000E+00  0.00000000E+00
  0.00000000E+00  0.00000000E+00  0.00000000E+00
  0.00000000E+00  0.00000000E+00  0.00000000E+00
  0.00000000E+00  0.00000000E+00  0.00000000E+00
  0.00000000E+00  0.00000000E+00  0.00000000E+00
  0.00000000E+00  0.00000000E+00  0.00000000E+00
  0.00000000E+00  0.00000000E+00  0.00000000E+00
  0.00000000E+00  0.00000000E+00  0.00000000E+00
  0.00000000E+00  0.00000000E+00  0.00000000E+00
  0.00000000E+00  0.00000000E+00  0.00000000E+00
  0.00000000E+00  0.00000000E+00  0.00000000E+00
  0.00000000E+00  0.00000000E+00  0.00000000E+00
  0.00000000E+00  0.00000000E+00  0.00000000E+00
  0.00000000E+00  0.00000000E+00  0.00000000E+00
  0.00000000E+00  0.00000000E+00  0.00000000E+00
  0.00000000E+00  0.00000000E+00  0.00000000E+00
  0.00000000E+00  0.00000000E+00  0.00000000E+00
  0.00000000E+00  0.00000000E+00  0.00000000E+00
  0.00000000E+00  0.00000000E+00  0.00000000E+00
  0.00000000E+00  0.00000000E+00  0.00000000E+00
  0.00000000E+00  0.00000000E+00  0.00000000E+00
  0.00000000E+00  0.00000000E+00  0.00000000E+00
  0.00000000E+00  0.00000000E+00  0.00000000E+00
  0.00000000E+00  0.00000000E+00  0.00000000E+00
  0.00000000E+00  0.00000000E+00  0.00000000E+00
  0.00000000E+00  0.00000000E+00  0.00000000E+00
  0.00000000E+00  0.00000000E+00  0.00000000E+00
  0.00000000E+00  0.00000000E+00  0.00000000E+00
  0.00000000E+00  0.00000000E+00  0.00000000E+00
