generated by phonopy                    
   1.00000000000000     
    10.0351470768999995   -0.0000022330999784   -0.0000001056124209
    -5.0175765436399997    8.6906901959899994    0.0000001395531216
    -0.0000001735893656    0.0000001431815548   14.9533752540999991
   Pb   P    O 
    19    12    50
Direct
  0.9996986158223606  0.7662833824592425  0.1199926934414890
  0.9878316304188672  0.7527112902364408  0.6271779468830303
  0.0056723438383273  0.2654510234227629  0.3729187209253908
  0.0069311566029882  0.2708124957539013  0.8793635377757312
  0.2342224697645037  0.2421750435545036  0.1193122092841108
  0.2391083068900883  0.2264279645061649  0.6260879814400795
  0.7356826744564486  0.7407978865435538  0.3721265648117154
  0.7309418149642184  0.7378271016743412  0.8814502594633922
  0.7568924217849116  0.0006925670604616  0.1192726422172896
  0.7698801047153339  0.0043158349466879  0.6266191539824533
  0.2608688488382569  0.9954002593956019  0.3701269414057791
  0.2642809004828806  0.9936628904532867  0.8832282186235929
  0.6719221972976825  0.3385665288802855  0.9996113485047573
  0.6614407257054893  0.3290432711482651  0.4988051429752360
  0.3314486622678672  0.6660030163412287  0.5058960596440087
  0.3343039784523185  0.6653657312175199  0.2231458593326039
  0.3340312828565715  0.6647555940026209  0.7595597647589472
  0.6684272952848715  0.3355502294470654  0.2489390297901579
  0.6596204843479114  0.3278506403658739  0.7488685375757100
  0.6313965542040378  0.6004896810871401  0.1260006254637531
  0.6219716449478625  0.5951984313042971  0.6227928290328748
  0.3700258483218235  0.3955607201077598  0.3734141599351091
  0.3682599452122943  0.3896879258328241  0.8740262403301884
  0.4005235828992184  0.0271892942365355  0.1262822583471177
  0.4065314207613895  0.0284083156530173  0.6230302194432014
  0.6044687509257898  0.9746181343888551  0.3727199957050118
  0.6110250473527827  0.9796697839184887  0.8744232119861550
  0.9671136497721022  0.3699178205176494  0.1258795559296786
  0.9751814301592816  0.3771581838062659  0.6233727248217633
  0.0238565763085887  0.6296212144783482  0.3764835431153060
  0.0183080226521639  0.6315561924521660  0.8699620752785293
  0.5374486461235932  0.6842448094606084  0.1279994491654648
  0.5092295082591747  0.6592624240105991  0.6249750835080548
  0.4746028317321915  0.3212254161332879  0.3747346270634608
  0.4759103035972245  0.3184940739001121  0.8728040211519428
  0.3291434801795958  0.8516184776802902  0.1282879458864770
  0.3357005642048492  0.8506254440273722  0.6246169541733408
  0.6768447602557259  0.1532507169976611  0.3743457752009149
  0.6804657815714847  0.1581752258501368  0.8727070728086019
  0.1445934873344967  0.4636797582997829  0.1282241580183126
  0.1508529135665171  0.4941863050065791  0.6252697884219316
  0.8451278208469972  0.5243961684710925  0.3762643423394536
  0.8397999844872430  0.5219673200846913  0.8703536497423130
  0.7388274453711645  0.6498606104846374  0.0407802451292056
  0.7276393087290529  0.6495598264246283  0.5375086181314472
  0.2640495779451442  0.3518997239633919  0.4580995750129162
  0.2545206747316868  0.3244133634616873  0.9549859251525064
  0.3425423642786356  0.0792576773558409  0.0425816428320047
  0.3557125130817766  0.0843141073995994  0.5379729404097517
  0.6513687667616637  0.9136196628706301  0.4565901791549365
  0.6772312072949020  0.9325909530147669  0.9559128175859541
  0.9090124510632265  0.2630343203599139  0.0403968039969769
  0.9251541684808657  0.2719399512989185  0.5381845833944894
  0.0848743750663772  0.7332865522562244  0.4623191939223545
  0.0671004139760711  0.7457579274004047  0.9504812274271046
  0.2597128057223159  0.3414896093896473  0.2906152161189084
  0.2628550479193734  0.3481951605660427  0.7889342493971014
  0.7407090436800061  0.6434263653551540  0.2096532012156729
  0.7326779517414579  0.6521751499237638  0.7059845729880365
  0.6572504994063877  0.9189697408727397  0.2888953346312491
  0.6550919816618404  0.9167884836822324  0.7899557858686634
  0.3582408675973596  0.0906827549268527  0.2111925606090210
  0.3550929558814317  0.0863688517984045  0.7069224279633275
  0.0809186504106947  0.7419365119835675  0.2946617448389404
  0.0789486729524285  0.7361746390865349  0.7842472916752357
  0.8999571649576197  0.2608518843298668  0.2097218812127153
  0.9231729233373756  0.2666942878503917  0.7062959016165635
  0.5284799079420992  0.4204783004992265  0.1234019530843327
  0.5317004925109146  0.4137753764473331  0.6234840816626672
  0.4744144194242566  0.5765830571358990  0.3706762990572017
  0.4696446782740509  0.5702974498674607  0.8758424922276120
  0.5827652224217985  0.1133069741274610  0.1206764507498761
  0.5876083624112312  0.1139470015008825  0.6231575315675428
  0.4231143824119599  0.8958482189418504  0.3715939020594803
  0.4304544567775821  0.8985617595591080  0.8760241361256931
  0.8889898290148892  0.4722203276186718  0.1230687701386870
  0.8819158963687244  0.4663898189727789  0.6242260607453147
  0.1018121378098726  0.5263656680197073  0.3729881556046664
  0.0996615884436025  0.5320616592777796  0.8715347604452788
  0.9809890383758173  0.0002631954809971  0.1195721434005179
  0.0109339209154697  0.9874875936071632  0.6253089938731549
 
  0.00000000E+00  0.00000000E+00  0.00000000E+00
  0.00000000E+00  0.00000000E+00  0.00000000E+00
  0.00000000E+00  0.00000000E+00  0.00000000E+00
  0.00000000E+00  0.00000000E+00  0.00000000E+00
  0.00000000E+00  0.00000000E+00  0.00000000E+00
  0.00000000E+00  0.00000000E+00  0.00000000E+00
  0.00000000E+00  0.00000000E+00  0.00000000E+00
  0.00000000E+00  0.00000000E+00  0.00000000E+00
  0.00000000E+00  0.00000000E+00  0.00000000E+00
  0.00000000E+00  0.00000000E+00  0.00000000E+00
  0.00000000E+00  0.00000000E+00  0.00000000E+00
  0.00000000E+00  0.00000000E+00  0.00000000E+00
  0.00000000E+00  0.00000000E+00  0.00000000E+00
  0.00000000E+00  0.00000000E+00  0.00000000E+00
  0.00000000E+00  0.00000000E+00  0.00000000E+00
  0.00000000E+00  0.00000000E+00  0.00000000E+00
  0.00000000E+00  0.00000000E+00  0.00000000E+00
  0.00000000E+00  0.00000000E+00  0.00000000E+00
  0.00000000E+00  0.00000000E+00  0.00000000E+00
  0.00000000E+00  0.00000000E+00  0.00000000E+00
  0.00000000E+00  0.00000000E+00  0.00000000E+00
  0.00000000E+00  0.00000000E+00  0.00000000E+00
  0.00000000E+00  0.00000000E+00  0.00000000E+00
  0.00000000E+00  0.00000000E+00  0.00000000E+00
  0.00000000E+00  0.00000000E+00  0.00000000E+00
  0.00000000E+00  0.00000000E+00  0.00000000E+00
  0.00000000E+00  0.00000000E+00  0.00000000E+00
  0.00000000E+00  0.00000000E+00  0.00000000E+00
  0.00000000E+00  0.00000000E+00  0.00000000E+00
  0.00000000E+00  0.00000000E+00  0.00000000E+00
  0.00000000E+00  0.00000000E+00  0.00000000E+00
  0.00000000E+00  0.00000000E+00  0.00000000E+00
  0.00000000E+00  0.00000000E+00  0.00000000E+00
  0.00000000E+00  0.00000000E+00  0.00000000E+00
  0.00000000E+00  0.00000000E+00  0.00000000E+00
  0.00000000E+00  0.00000000E+00  0.00000000E+00
  0.00000000E+00  0.00000000E+00  0.00000000E+00
  0.00000000E+00  0.00000000E+00  0.00000000E+00
  0.00000000E+00  0.00000000E+00  0.00000000E+00
  0.00000000E+00  0.00000000E+00  0.00000000E+00
  0.00000000E+00  0.00000000E+00  0.00000000E+00
  0.00000000E+00  0.00000000E+00  0.00000000E+00
  0.00000000E+00  0.00000000E+00  0.00000000E+00
  0.00000000E+00  0.00000000E+00  0.00000000E+00
  0.00000000E+00  0.00000000E+00  0.00000000E+00
  0.00000000E+00  0.00000000E+00  0.00000000E+00
  0.00000000E+00  0.00000000E+00  0.00000000E+00
  0.00000000E+00  0.00000000E+00  0.00000000E+00
  0.00000000E+00  0.00000000E+00  0.00000000E+00
  0.00000000E+00  0.00000000E+00  0.00000000E+00
  0.00000000E+00  0.00000000E+00  0.00000000E+00
  0.00000000E+00  0.00000000E+00  0.00000000E+00
  0.00000000E+00  0.00000000E+00  0.00000000E+00
  0.00000000E+00  0.00000000E+00  0.00000000E+00
  0.00000000E+00  0.00000000E+00  0.00000000E+00
  0.00000000E+00  0.00000000E+00  0.00000000E+00
  0.00000000E+00  0.00000000E+00  0.00000000E+00
  0.00000000E+00  0.00000000E+00  0.00000000E+00
  0.00000000E+00  0.00000000E+00  0.00000000E+00
  0.00000000E+00  0.00000000E+00  0.00000000E+00
  0.00000000E+00  0.00000000E+00  0.00000000E+00
  0.00000000E+00  0.00000000E+00  0.00000000E+00
  0.00000000E+00  0.00000000E+00  0.00000000E+00
  0.00000000E+00  0.00000000E+00  0.00000000E+00
  0.00000000E+00  0.00000000E+00  0.00000000E+00
  0.00000000E+00  0.00000000E+00  0.00000000E+00
  0.00000000E+00  0.00000000E+00  0.00000000E+00
  0.00000000E+00  0.00000000E+00  0.00000000E+00
  0.00000000E+00  0.00000000E+00  0.00000000E+00
  0.00000000E+00  0.00000000E+00  0.00000000E+00
  0.00000000E+00  0.00000000E+00  0.00000000E+00
  0.00000000E+00  0.00000000E+00  0.00000000E+00
  0.00000000E+00  0.00000000E+00  0.00000000E+00
  0.00000000E+00  0.00000000E+00  0.00000000E+00
  0.00000000E+00  0.00000000E+00  0.00000000E+00
  0.00000000E+00  0.00000000E+00  0.00000000E+00
  0.00000000E+00  0.00000000E+00  0.00000000E+00
  0.00000000E+00  0.00000000E+00  0.00000000E+00
  0.00000000E+00  0.00000000E+00  0.00000000E+00
  0.00000000E+00  0.00000000E+00  0.00000000E+00
  0.00000000E+00  0.00000000E+00  0.00000000E+00
