POSCAR                                  
  0.899000000000000     
    -6.8457598559199999   -2.2763503501300000    0.0780696872015000
    -2.2753295323699998   -6.8496520912300003    0.0695569563341000
     2.0172086365799999    2.0944535972399998   31.5175129968000007
   Al   Gd   N 
    42     6    48
Direct
  0.2192882779167888  0.2746249510833891  0.0076682859856447
  0.2244927237958407  0.1940735832056149  0.8141191371072978
  0.9512247563874681  0.0318929686816816  0.0077869403983826
  0.0980607181768036  0.6684562886741432  0.0796138887594537
  0.5984180062131301  0.1693082147580895  0.0796022026287844
  0.2046376110400274  0.1544026980400517  0.6719957225560904
  0.0744510022259988  0.6378405073543121  0.9398497447642669
  0.5357215716346673  0.1673380343434872  0.9174413318072041
  0.7076317709734070  0.7871476603704011  0.0077190717483120
  0.8496222309307200  0.4189241678074822  0.0789179619490881
  0.3477535429991292  0.9183998817377770  0.0787740904644423
  0.3108290681074521  0.7591688221752619  0.6042955409284474
  0.8113408410495495  0.2595011477362519  0.6047522189829309
  0.9516911860520381  0.9026302542691909  0.6723294017300958
  0.0723557450250638  0.5622163218371128  0.7471329466070955
  0.5991781384593438  0.0314660735659089  0.7377473755489916
  0.8252378557983562  0.3824792820417571  0.9394699675352172
  0.3293140874444518  0.8865959800021628  0.9395421518512634
  0.4646948173185308  0.5190826458507019  0.0076884268881159
  0.1174465662184474  0.0726594603112076  0.3522646356231718
  0.2664759301413824  0.7143988180530911  0.4217769095263293
  0.7722073528047488  0.2000808553723772  0.4207742189796022
  0.9036545998275187  0.8513724142282939  0.4906669287095013
  0.0703534571608131  0.5172977238681469  0.6027307933563151
  0.5731903239222547  0.0208458170151715  0.5907643133633087
  0.7025528207530058  0.6543805445432440  0.6717321347513874
  0.8395094904134695  0.2936615106583815  0.7456992720237920
  0.3418882195540434  0.7961485899798575  0.7457454673228341
  0.4678001900156161  0.4373650060146588  0.8140308863636534
  0.9941560779845346  0.0563251129236164  0.1512321422367222
  0.1318049442584979  0.6937412117958957  0.2173096676840984
  0.6197831244839307  0.2049067693059925  0.2192794360741672
  0.0128688396600509  0.4626230979551593  0.4225159078537359
  0.5257194547502735  0.9474847194139144  0.4112369504318139
  0.4508572104457826  0.4011667328990498  0.6727696621971546
  0.7278648673756081  0.8131152792591791  0.1503185938407299
  0.8699230883711380  0.4488678737039180  0.2195555438662637
  0.6378582484373680  0.5539145188306804  0.3498455280331996
  0.4100557638906679  0.3457279141107819  0.4912858282029688
  0.4836763756452811  0.5696846500857760  0.1510122572333898
  0.3793291504098661  0.3253063605533981  0.3505381346725329
  0.2412904235998994  0.2982999639152126  0.1512579079982004
  0.9881486640488291  0.9475864799116422  0.8460529577883804
  0.1580634322152932  0.1041498729164729  0.5128608209991441
  0.7268447597709411  0.6862418878944396  0.8460421496619830
  0.8860754115308822  0.8037326050394924  0.3178466847133450
  0.6635120947384721  0.6007987244757302  0.5131604179635829
  0.3650503487840666  0.9639301586967264  0.2539089111018171
  0.6999043492777091  0.7536435342876331  0.9317178595967093
  0.7123618971476517  0.6743456815662370  0.7413463433319549
  0.4439102424455612  0.5178879931712217  0.9338665019024290
  0.5861092787565170  0.1526398472891941  0.0080804162716603
  0.0833807365027184  0.6561876359327314  0.0071152497120437
  0.6913438207012490  0.6297912983548173  0.5976461932102097
  0.4691588666808713  0.4087618884865094  0.7449480011791039
  0.5452766478042435  0.1294092796379687  0.8469037262893977
  0.1150350586493616  0.5478269328664567  0.8166283154838041
  0.1917768663179373  0.2658684881583895  0.9339755649588568
  0.3365024136285086  0.9023979277483818  0.0071168511034685
  0.8358426320038603  0.4019541298764011  0.0069628552058063
  0.6422344054305142  0.5915141833616531  0.4187304782483636
  0.7665816852998120  0.2103549026435019  0.4902152881836912
  0.2696295149753638  0.7090035491638318  0.4921408214220833
  0.4389948108308772  0.3936058416987507  0.6001390348313862
  0.5723317505162981  0.0304322486528434  0.6689560929155434
  0.0796201799783347  0.5238647838007111  0.6713773367841540
  0.2258023096178761  0.1654079498810077  0.7451781293267743
  0.3551842232239935  0.8105376966653068  0.8154237146979213
  0.8514323370653827  0.3071530317982720  0.8154122735539175
  0.9551965113753766  0.0089548445824974  0.9316482159287247
  0.5051929126735502  0.5592440758184338  0.2221116903356659
  0.7465415244360116  0.2064789416084736  0.3472007263462800
  0.2785774387015465  0.6828860668661747  0.3443668978741954
  0.3920610297515665  0.3221011193782459  0.4183967125741290
  0.5627490701774178  0.0059760020530675  0.5184313787132098
  0.0489778421248772  0.4879147006087265  0.4931890536013412
  0.1801676016637188  0.1383843740057529  0.5973651843676748
  0.3281663801822390  0.7784598091422978  0.6726750777590311
  0.8291751956293254  0.2794235295432443  0.6728837750842800
  0.9587060019967879  0.9203830153823276  0.7412333739880879
  0.4737885784715417  0.5426325463466100  0.0784584347209147
  0.6108639910879958  0.1791872361800060  0.1495167832395481
  0.1089793323043224  0.6864730250261886  0.1492185069965402
  0.2446960435739953  0.3425328818777302  0.2229539286907070
  0.4743029341893816  0.9515281698325566  0.3387498216571174
  0.0095523581203167  0.4158754052866840  0.3413249714463831
  0.1511002179839736  0.0785165049636234  0.4195950973772824
  0.9449026707781414  0.8861110696775754  0.6004405537045230
  0.2209066729932161  0.2959909452352179  0.0781293566797103
  0.3622882670450025  0.9335256447622484  0.1479714889955304
  0.8608682356173460  0.4370940974739597  0.1504401277554024
  0.9760529436309398  0.0827156263342559  0.2229509292191096
  0.8838184929911037  0.8326463886435818  0.4199317223345673
  0.9729105615019265  0.0450959464043308  0.0784764806799032
  0.7776803409953885  0.8152471295510821  0.2297552181063196
  0.7254576403869066  0.7906679211070227  0.0780419728003352
 
  0.00000000E+00  0.00000000E+00  0.00000000E+00
  0.00000000E+00  0.00000000E+00  0.00000000E+00
  0.00000000E+00  0.00000000E+00  0.00000000E+00
  0.00000000E+00  0.00000000E+00  0.00000000E+00
  0.00000000E+00  0.00000000E+00  0.00000000E+00
  0.00000000E+00  0.00000000E+00  0.00000000E+00
  0.00000000E+00  0.00000000E+00  0.00000000E+00
  0.00000000E+00  0.00000000E+00  0.00000000E+00
  0.00000000E+00  0.00000000E+00  0.00000000E+00
  0.00000000E+00  0.00000000E+00  0.00000000E+00
  0.00000000E+00  0.00000000E+00  0.00000000E+00
  0.00000000E+00  0.00000000E+00  0.00000000E+00
  0.00000000E+00  0.00000000E+00  0.00000000E+00
  0.00000000E+00  0.00000000E+00  0.00000000E+00
  0.00000000E+00  0.00000000E+00  0.00000000E+00
  0.00000000E+00  0.00000000E+00  0.00000000E+00
  0.00000000E+00  0.00000000E+00  0.00000000E+00
  0.00000000E+00  0.00000000E+00  0.00000000E+00
  0.00000000E+00  0.00000000E+00  0.00000000E+00
  0.00000000E+00  0.00000000E+00  0.00000000E+00
  0.00000000E+00  0.00000000E+00  0.00000000E+00
  0.00000000E+00  0.00000000E+00  0.00000000E+00
  0.00000000E+00  0.00000000E+00  0.00000000E+00
  0.00000000E+00  0.00000000E+00  0.00000000E+00
  0.00000000E+00  0.00000000E+00  0.00000000E+00
  0.00000000E+00  0.00000000E+00  0.00000000E+00
  0.00000000E+00  0.00000000E+00  0.00000000E+00
  0.00000000E+00  0.00000000E+00  0.00000000E+00
  0.00000000E+00  0.00000000E+00  0.00000000E+00
  0.00000000E+00  0.00000000E+00  0.00000000E+00
  0.00000000E+00  0.00000000E+00  0.00000000E+00
  0.00000000E+00  0.00000000E+00  0.00000000E+00
  0.00000000E+00  0.00000000E+00  0.00000000E+00
  0.00000000E+00  0.00000000E+00  0.00000000E+00
  0.00000000E+00  0.00000000E+00  0.00000000E+00
  0.00000000E+00  0.00000000E+00  0.00000000E+00
  0.00000000E+00  0.00000000E+00  0.00000000E+00
  0.00000000E+00  0.00000000E+00  0.00000000E+00
  0.00000000E+00  0.00000000E+00  0.00000000E+00
  0.00000000E+00  0.00000000E+00  0.00000000E+00
  0.00000000E+00  0.00000000E+00  0.00000000E+00
  0.00000000E+00  0.00000000E+00  0.00000000E+00
  0.00000000E+00  0.00000000E+00  0.00000000E+00
  0.00000000E+00  0.00000000E+00  0.00000000E+00
  0.00000000E+00  0.00000000E+00  0.00000000E+00
  0.00000000E+00  0.00000000E+00  0.00000000E+00
  0.00000000E+00  0.00000000E+00  0.00000000E+00
  0.00000000E+00  0.00000000E+00  0.00000000E+00
  0.00000000E+00  0.00000000E+00  0.00000000E+00
  0.00000000E+00  0.00000000E+00  0.00000000E+00
  0.00000000E+00  0.00000000E+00  0.00000000E+00
  0.00000000E+00  0.00000000E+00  0.00000000E+00
  0.00000000E+00  0.00000000E+00  0.00000000E+00
  0.00000000E+00  0.00000000E+00  0.00000000E+00
  0.00000000E+00  0.00000000E+00  0.00000000E+00
  0.00000000E+00  0.00000000E+00  0.00000000E+00
  0.00000000E+00  0.00000000E+00  0.00000000E+00
  0.00000000E+00  0.00000000E+00  0.00000000E+00
  0.00000000E+00  0.00000000E+00  0.00000000E+00
  0.00000000E+00  0.00000000E+00  0.00000000E+00
  0.00000000E+00  0.00000000E+00  0.00000000E+00
  0.00000000E+00  0.00000000E+00  0.00000000E+00
  0.00000000E+00  0.00000000E+00  0.00000000E+00
  0.00000000E+00  0.00000000E+00  0.00000000E+00
  0.00000000E+00  0.00000000E+00  0.00000000E+00
  0.00000000E+00  0.00000000E+00  0.00000000E+00
  0.00000000E+00  0.00000000E+00  0.00000000E+00
  0.00000000E+00  0.00000000E+00  0.00000000E+00
  0.00000000E+00  0.00000000E+00  0.00000000E+00
  0.00000000E+00  0.00000000E+00  0.00000000E+00
  0.00000000E+00  0.00000000E+00  0.00000000E+00
  0.00000000E+00  0.00000000E+00  0.00000000E+00
  0.00000000E+00  0.00000000E+00  0.00000000E+00
  0.00000000E+00  0.00000000E+00  0.00000000E+00
  0.00000000E+00  0.00000000E+00  0.00000000E+00
  0.00000000E+00  0.00000000E+00  0.00000000E+00
  0.00000000E+00  0.00000000E+00  0.00000000E+00
  0.00000000E+00  0.00000000E+00  0.00000000E+00
  0.00000000E+00  0.00000000E+00  0.00000000E+00
  0.00000000E+00  0.00000000E+00  0.00000000E+00
  0.00000000E+00  0.00000000E+00  0.00000000E+00
  0.00000000E+00  0.00000000E+00  0.00000000E+00
  0.00000000E+00  0.00000000E+00  0.00000000E+00
  0.00000000E+00  0.00000000E+00  0.00000000E+00
  0.00000000E+00  0.00000000E+00  0.00000000E+00
  0.00000000E+00  0.00000000E+00  0.00000000E+00
  0.00000000E+00  0.00000000E+00  0.00000000E+00
  0.00000000E+00  0.00000000E+00  0.00000000E+00
  0.00000000E+00  0.00000000E+00  0.00000000E+00
  0.00000000E+00  0.00000000E+00  0.00000000E+00
  0.00000000E+00  0.00000000E+00  0.00000000E+00
  0.00000000E+00  0.00000000E+00  0.00000000E+00
  0.00000000E+00  0.00000000E+00  0.00000000E+00
  0.00000000E+00  0.00000000E+00  0.00000000E+00
  0.00000000E+00  0.00000000E+00  0.00000000E+00
  0.00000000E+00  0.00000000E+00  0.00000000E+00
