supercell of 100% icsd_608626.cif, 0% i 
   1.00000000000000     
    -9.3956820028824328    0.0011317993118028    0.0006136018430793
    -4.6988211672512383    8.1363340168261811    0.0006138734283682
     0.0006554708392346   -0.0003787671756627  -10.0403190902841200
   Al   Si   Mg   N 
    32     2     2    36
Direct
  0.1104640391599148  0.0977743109825226  0.2940399130766735
  0.2201011969920401  0.2074980049088637  0.0463864940575291
  0.8905738188424408  0.2072405647759012  0.5458680742277338
  0.4419096106923561  0.0981635788206106  0.2947893985932168
  0.5588445166181515  0.2053136306482557  0.0461084988869729
  0.1133859604757674  0.0920415910552848  0.7950901917545252
  0.2223416513952259  0.2050090341120523  0.5441757177365076
  0.8874065043996637  0.2040725856352879  0.0461935239516009
  0.4444070091677546  0.0925334623669514  0.7953635299817279
  0.5525703896336012  0.2068130809328323  0.5461214447998302
  0.1102889526540665  0.4269543173689669  0.2954605266437653
  0.7753735253620775  0.4300540694586985  0.7950904417593065
  0.8883427018189991  0.5390082265440270  0.5441758009424476
  0.4431905108815357  0.4257097834234713  0.2944817908045394
  0.5573116533141871  0.5349045396263818  0.0480858990566091
  0.1116871050607955  0.4283549106271707  0.7928746886087481
  0.2222936570900487  0.5389607757963191  0.5450661861573707
  0.7811091904108807  0.4271294654019684  0.2940396564177803
  0.8908314501567958  0.5367678184809890  0.0463862991516493
  0.4433966652532746  0.4307757821629536  0.7932173519696519
  0.5550892556596665  0.5407961084864255  0.5455668987157338
  0.1090439361866871  0.7598564445588920  0.2944819199996758
  0.2182382317351994  0.8739779668819949  0.0480857672035953
  0.7758655276429707  0.7610748499702567  0.7953634563532717
  0.8901459739122615  0.8692376886658479  0.5461213177601110
  0.5566909400226194  0.8733575094284447  0.0477448546679398
  0.1141074256749732  0.7600648316007508  0.7932172350511877
  0.2241295988171359  0.8717557332586381  0.5455670861316619
  0.7814983525489367  0.7585749811164533  0.2947895450003912
  0.8886474542654241  0.8755106748343664  0.0461086014030982
  0.4443032528185853  0.7609713908654641  0.7963121878175485
  0.5547570759032610  0.8714236152520058  0.5460192342763719
  0.7776994695352855  0.0943674374710426  0.7947402445073024
  0.4444602715194890  0.7611255832391493  0.2946176362384989
  0.7776104636349999  0.0942765618696697  0.2942593535404470
  0.2217827903513978  0.5384490195551379  0.0469822201446135
  0.2233095282963689  0.2034742460179331  0.3552755752000394
  0.1106557569782112  0.0949664587275976  0.1031489608050080
  0.8833074586193206  0.1999754005068226  0.8489890739163926
  0.7779419221103794  0.0946092598873847  0.6152274736359118
  0.5429783098153038  0.2106503333284024  0.3613013006031807
  0.4445857258039254  0.0950333148470577  0.1032961921648550
  0.2219762415964368  0.2057746242664322  0.8541480708630402
  0.1126349653920187  0.0926531939101096  0.6055370433768061
  0.8954675381052724  0.2121329769893947  0.3599516072698137
  0.7776167345950498  0.0942826434323507  0.0914945543383254
  0.5667669312689227  0.2000003302882476  0.8483200276644496
  0.4446825086503878  0.0923224389233397  0.6058687608676081
  0.2224097259622226  0.5390757102305130  0.3541104353302131
  0.1038441878042775  0.4205109886989575  0.1093799851814055
  0.8891067483978219  0.5386442623877699  0.8541479292871799
  0.7759865290983967  0.4293019087144714  0.6055372009576061
  0.5496223604879873  0.5526020145065829  0.3518218872206589
  0.4588669398579768  0.4197153910690119  0.1082437927149513
  0.2221382782839569  0.5388067174027498  0.8415224149180602
  0.1102221240559658  0.4268886408683983  0.6020017412255072
  0.8868091284584168  0.5399748621261864  0.3552756854727690
  0.7783004869581092  0.4273217917323606  0.1031487140919154
  0.5549346169630027  0.5402675053566099  0.8568844651274006
  0.4465150330262730  0.4288121633235846  0.6031796383031178
  0.2359366528733347  0.8662876511874842  0.3518220779350330
  0.1030493024533570  0.7755329868085070  0.1082439271576305
  0.8833322381583528  0.8834348160393972  0.8483200877929704
  0.7756558443041826  0.7613492560699200  0.6058687307115065
  0.5492470437484158  0.8659122969295083  0.3509276790498390
  0.4446161338174335  0.7612822980654599  0.1156005647089984
  0.2235991163281454  0.8716028654843839  0.8568843248858045
  0.1121448034308585  0.7631822925349638  0.6031795885386160
  0.8939844203654843  0.8596444490852591  0.3613012812549101
  0.7783670296966818  0.7612520983068265  0.1032963498807149
  0.5548693923329395  0.8715373941483620  0.8573946344181707
  0.4446181122963466  0.7612844876136720  0.6063552357398692
 
  0.00000000E+00  0.00000000E+00  0.00000000E+00
  0.00000000E+00  0.00000000E+00  0.00000000E+00
  0.00000000E+00  0.00000000E+00  0.00000000E+00
  0.00000000E+00  0.00000000E+00  0.00000000E+00
  0.00000000E+00  0.00000000E+00  0.00000000E+00
  0.00000000E+00  0.00000000E+00  0.00000000E+00
  0.00000000E+00  0.00000000E+00  0.00000000E+00
  0.00000000E+00  0.00000000E+00  0.00000000E+00
  0.00000000E+00  0.00000000E+00  0.00000000E+00
  0.00000000E+00  0.00000000E+00  0.00000000E+00
  0.00000000E+00  0.00000000E+00  0.00000000E+00
  0.00000000E+00  0.00000000E+00  0.00000000E+00
  0.00000000E+00  0.00000000E+00  0.00000000E+00
  0.00000000E+00  0.00000000E+00  0.00000000E+00
  0.00000000E+00  0.00000000E+00  0.00000000E+00
  0.00000000E+00  0.00000000E+00  0.00000000E+00
  0.00000000E+00  0.00000000E+00  0.00000000E+00
  0.00000000E+00  0.00000000E+00  0.00000000E+00
  0.00000000E+00  0.00000000E+00  0.00000000E+00
  0.00000000E+00  0.00000000E+00  0.00000000E+00
  0.00000000E+00  0.00000000E+00  0.00000000E+00
  0.00000000E+00  0.00000000E+00  0.00000000E+00
  0.00000000E+00  0.00000000E+00  0.00000000E+00
  0.00000000E+00  0.00000000E+00  0.00000000E+00
  0.00000000E+00  0.00000000E+00  0.00000000E+00
  0.00000000E+00  0.00000000E+00  0.00000000E+00
  0.00000000E+00  0.00000000E+00  0.00000000E+00
  0.00000000E+00  0.00000000E+00  0.00000000E+00
  0.00000000E+00  0.00000000E+00  0.00000000E+00
  0.00000000E+00  0.00000000E+00  0.00000000E+00
  0.00000000E+00  0.00000000E+00  0.00000000E+00
  0.00000000E+00  0.00000000E+00  0.00000000E+00
  0.00000000E+00  0.00000000E+00  0.00000000E+00
  0.00000000E+00  0.00000000E+00  0.00000000E+00
  0.00000000E+00  0.00000000E+00  0.00000000E+00
  0.00000000E+00  0.00000000E+00  0.00000000E+00
  0.00000000E+00  0.00000000E+00  0.00000000E+00
  0.00000000E+00  0.00000000E+00  0.00000000E+00
  0.00000000E+00  0.00000000E+00  0.00000000E+00
  0.00000000E+00  0.00000000E+00  0.00000000E+00
  0.00000000E+00  0.00000000E+00  0.00000000E+00
  0.00000000E+00  0.00000000E+00  0.00000000E+00
  0.00000000E+00  0.00000000E+00  0.00000000E+00
  0.00000000E+00  0.00000000E+00  0.00000000E+00
  0.00000000E+00  0.00000000E+00  0.00000000E+00
  0.00000000E+00  0.00000000E+00  0.00000000E+00
  0.00000000E+00  0.00000000E+00  0.00000000E+00
  0.00000000E+00  0.00000000E+00  0.00000000E+00
  0.00000000E+00  0.00000000E+00  0.00000000E+00
  0.00000000E+00  0.00000000E+00  0.00000000E+00
  0.00000000E+00  0.00000000E+00  0.00000000E+00
  0.00000000E+00  0.00000000E+00  0.00000000E+00
  0.00000000E+00  0.00000000E+00  0.00000000E+00
  0.00000000E+00  0.00000000E+00  0.00000000E+00
  0.00000000E+00  0.00000000E+00  0.00000000E+00
  0.00000000E+00  0.00000000E+00  0.00000000E+00
  0.00000000E+00  0.00000000E+00  0.00000000E+00
  0.00000000E+00  0.00000000E+00  0.00000000E+00
  0.00000000E+00  0.00000000E+00  0.00000000E+00
  0.00000000E+00  0.00000000E+00  0.00000000E+00
  0.00000000E+00  0.00000000E+00  0.00000000E+00
  0.00000000E+00  0.00000000E+00  0.00000000E+00
  0.00000000E+00  0.00000000E+00  0.00000000E+00
  0.00000000E+00  0.00000000E+00  0.00000000E+00
  0.00000000E+00  0.00000000E+00  0.00000000E+00
  0.00000000E+00  0.00000000E+00  0.00000000E+00
  0.00000000E+00  0.00000000E+00  0.00000000E+00
  0.00000000E+00  0.00000000E+00  0.00000000E+00
  0.00000000E+00  0.00000000E+00  0.00000000E+00
  0.00000000E+00  0.00000000E+00  0.00000000E+00
  0.00000000E+00  0.00000000E+00  0.00000000E+00
  0.00000000E+00  0.00000000E+00  0.00000000E+00
