supercell of 100% icsd_608626.cif, 0% i 
   1.00000000000000     
    -9.3971847195736800   -0.0024874395305125    0.0040742140297348
    -4.6964391955119229    8.1304209303022663   -0.0053228269719872
     0.0043516724717163    0.0090790549747549  -10.0443006373418271
   Al   Si   Mg   N 
    32     2     2    36
Direct
  0.1116206248144209  0.0940561391365975  0.2958651776091230
  0.2233948027771149  0.2049179248511450  0.0462759957409844
  0.7787506313917376  0.0926160903061444  0.7939673615769323
  0.8893609578359047  0.2067819537048052  0.5462937112253741
  0.4462091442009779  0.0940492167710687  0.2941060233246802
  0.5545389491122066  0.2052338502752207  0.0457404688907630
  0.1113382545659150  0.0918917720745611  0.7932580498060560
  0.2213014443350474  0.2059639060704654  0.5491653275131654
  0.7749664892382668  0.0961737773675182  0.2959162494651153
  0.8892495907267914  0.2055065439254165  0.0451768893103548
  0.5527183667735684  0.2082535957167124  0.5489091106279531
  0.1132924110445472  0.4276426181441337  0.2959998555238386
  0.2221540757787182  0.5389652185196070  0.0448158448085678
  0.7785669475585522  0.4279487965272395  0.7932249951815606
  0.8894682994112344  0.5399663547213436  0.5481056768423471
  0.4449709019091586  0.4277202070920438  0.2946896068644946
  0.5560333231774450  0.5380436031920084  0.0464155009839686
  0.1108392766398651  0.4301799846522627  0.7925189502922123
  0.2233787404328140  0.5382006329113338  0.5465748888378315
  0.7749187638927353  0.4287399385381079  0.2935785816193004
  0.8911132998002103  0.5358686409195101  0.0462664293685791
  0.4416997721380866  0.4297657545555538  0.7930352614557705
  0.1131088869919878  0.7588570892199371  0.2956255520374924
  0.2212667334411336  0.8727660167186073  0.0453913980056768
  0.7801214954156350  0.7612343758411271  0.7937236753641628
  0.8885161427181032  0.8698233375816429  0.5469403994595368
  0.4462345241083980  0.7583820542354118  0.2919570316326983
  0.5532465706510052  0.8751305066558146  0.0479774911760131
  0.1104405275078975  0.7619381737054667  0.7936164845064724
  0.2233087706571908  0.8716395014368175  0.5465168614644256
  0.8908468258507867  0.8731377468031525  0.0463111943902135
  0.4400356634740561  0.7625579617825693  0.7932799735975991
  0.4440106223043614  0.0960030453082652  0.7936799013841380
  0.7767056629728728  0.7613334612473608  0.2924991317987349
  0.5546570326380902  0.5401629872545328  0.5461084108467702
  0.5564891377371382  0.8703715771201388  0.5478858918750760
  0.2244093952615174  0.2038824756039475  0.3568040283363914
  0.1114227396045777  0.0954137090287830  0.1045765555162603
  0.8888588291310882  0.2046461979196081  0.8552526537089093
  0.7778001951506255  0.0934294247618510  0.6035251024551869
  0.5547468944851204  0.2043681060942859  0.3566977231131432
  0.4436525827642015  0.0960412039604606  0.1050334161452824
  0.2337777141488644  0.1998723329019683  0.8526208232612476
  0.1101468747539585  0.0945061791721216  0.6043828056315874
  0.8892752893109375  0.2048758405124715  0.3539429799993457
  0.7766782811795707  0.0949657278399556  0.1050942137581998
  0.5504032255024001  0.1987041304776085  0.8534231307400262
  0.4379423755119021  0.1064615474595314  0.6197642174921683
  0.2225097544149648  0.5384242693565184  0.3544601400880367
  0.1122975609193375  0.4263830851120431  0.1052620686494166
  0.8893201838013667  0.5396142583121772  0.8579694501463209
  0.7929701311667969  0.4211047327973461  0.6070766915488051
  0.5555195041824277  0.5383771015192238  0.3402951193527599
  0.4438646391717072  0.4258650811513007  0.1023560471803577
  0.2204335209848480  0.5401769861774781  0.8553180917684671
  0.1109432030766868  0.4278709039083566  0.6031144540696545
  0.8831798236145332  0.5516268371166291  0.3498203939771258
  0.7800588316122656  0.4266037447917981  0.1035203930122250
  0.5565567571091989  0.5377320030982986  0.8556529397067436
  0.4373707048186546  0.4216363349180483  0.6087082708665079
  0.2224236401846085  0.8722200469024202  0.3530443428783698
  0.1112231113916735  0.7607079844770652  0.1060203062051528
  0.8885302643973105  0.8726247198304264  0.8575386783210988
  0.7917187841221960  0.7542704429594806  0.6095859736370102
  0.5686251728823351  0.8659812284882804  0.3386471358318630
  0.4437619467465979  0.7626162605822628  0.1003443537373769
  0.2189149478266472  0.8734822079026827  0.8573206025367739
  0.1089660615708965  0.7625776707841112  0.6026235764594929
  0.8822388801448611  0.8656936256428125  0.3500593107085876
  0.7798577272610530  0.7601658915880591  0.1121923804536777
  0.5507215374822891  0.8858429282938758  0.8541536709471274
  0.4300052502879623  0.7694104236731292  0.6123846033512450
 
  0.00000000E+00  0.00000000E+00  0.00000000E+00
  0.00000000E+00  0.00000000E+00  0.00000000E+00
  0.00000000E+00  0.00000000E+00  0.00000000E+00
  0.00000000E+00  0.00000000E+00  0.00000000E+00
  0.00000000E+00  0.00000000E+00  0.00000000E+00
  0.00000000E+00  0.00000000E+00  0.00000000E+00
  0.00000000E+00  0.00000000E+00  0.00000000E+00
  0.00000000E+00  0.00000000E+00  0.00000000E+00
  0.00000000E+00  0.00000000E+00  0.00000000E+00
  0.00000000E+00  0.00000000E+00  0.00000000E+00
  0.00000000E+00  0.00000000E+00  0.00000000E+00
  0.00000000E+00  0.00000000E+00  0.00000000E+00
  0.00000000E+00  0.00000000E+00  0.00000000E+00
  0.00000000E+00  0.00000000E+00  0.00000000E+00
  0.00000000E+00  0.00000000E+00  0.00000000E+00
  0.00000000E+00  0.00000000E+00  0.00000000E+00
  0.00000000E+00  0.00000000E+00  0.00000000E+00
  0.00000000E+00  0.00000000E+00  0.00000000E+00
  0.00000000E+00  0.00000000E+00  0.00000000E+00
  0.00000000E+00  0.00000000E+00  0.00000000E+00
  0.00000000E+00  0.00000000E+00  0.00000000E+00
  0.00000000E+00  0.00000000E+00  0.00000000E+00
  0.00000000E+00  0.00000000E+00  0.00000000E+00
  0.00000000E+00  0.00000000E+00  0.00000000E+00
  0.00000000E+00  0.00000000E+00  0.00000000E+00
  0.00000000E+00  0.00000000E+00  0.00000000E+00
  0.00000000E+00  0.00000000E+00  0.00000000E+00
  0.00000000E+00  0.00000000E+00  0.00000000E+00
  0.00000000E+00  0.00000000E+00  0.00000000E+00
  0.00000000E+00  0.00000000E+00  0.00000000E+00
  0.00000000E+00  0.00000000E+00  0.00000000E+00
  0.00000000E+00  0.00000000E+00  0.00000000E+00
  0.00000000E+00  0.00000000E+00  0.00000000E+00
  0.00000000E+00  0.00000000E+00  0.00000000E+00
  0.00000000E+00  0.00000000E+00  0.00000000E+00
  0.00000000E+00  0.00000000E+00  0.00000000E+00
  0.00000000E+00  0.00000000E+00  0.00000000E+00
  0.00000000E+00  0.00000000E+00  0.00000000E+00
  0.00000000E+00  0.00000000E+00  0.00000000E+00
  0.00000000E+00  0.00000000E+00  0.00000000E+00
  0.00000000E+00  0.00000000E+00  0.00000000E+00
  0.00000000E+00  0.00000000E+00  0.00000000E+00
  0.00000000E+00  0.00000000E+00  0.00000000E+00
  0.00000000E+00  0.00000000E+00  0.00000000E+00
  0.00000000E+00  0.00000000E+00  0.00000000E+00
  0.00000000E+00  0.00000000E+00  0.00000000E+00
  0.00000000E+00  0.00000000E+00  0.00000000E+00
  0.00000000E+00  0.00000000E+00  0.00000000E+00
  0.00000000E+00  0.00000000E+00  0.00000000E+00
  0.00000000E+00  0.00000000E+00  0.00000000E+00
  0.00000000E+00  0.00000000E+00  0.00000000E+00
  0.00000000E+00  0.00000000E+00  0.00000000E+00
  0.00000000E+00  0.00000000E+00  0.00000000E+00
  0.00000000E+00  0.00000000E+00  0.00000000E+00
  0.00000000E+00  0.00000000E+00  0.00000000E+00
  0.00000000E+00  0.00000000E+00  0.00000000E+00
  0.00000000E+00  0.00000000E+00  0.00000000E+00
  0.00000000E+00  0.00000000E+00  0.00000000E+00
  0.00000000E+00  0.00000000E+00  0.00000000E+00
  0.00000000E+00  0.00000000E+00  0.00000000E+00
  0.00000000E+00  0.00000000E+00  0.00000000E+00
  0.00000000E+00  0.00000000E+00  0.00000000E+00
  0.00000000E+00  0.00000000E+00  0.00000000E+00
  0.00000000E+00  0.00000000E+00  0.00000000E+00
  0.00000000E+00  0.00000000E+00  0.00000000E+00
  0.00000000E+00  0.00000000E+00  0.00000000E+00
  0.00000000E+00  0.00000000E+00  0.00000000E+00
  0.00000000E+00  0.00000000E+00  0.00000000E+00
  0.00000000E+00  0.00000000E+00  0.00000000E+00
  0.00000000E+00  0.00000000E+00  0.00000000E+00
  0.00000000E+00  0.00000000E+00  0.00000000E+00
  0.00000000E+00  0.00000000E+00  0.00000000E+00
