generated by phonopy                    
   1.00000000000000     
    10.0351470768999995   -0.0000022330999784   -0.0000001056124209
    -5.0175765436399997    8.6906901959899994    0.0000001395531216
    -0.0000001735893656    0.0000001431815548   14.9533752540999991
   Pb   P    O    Cu
    20    12    49     1
Direct
  0.9911276189633327  0.7671825579211600  0.1127558411361989
  0.0095875537673251  0.7584697127985720  0.6365504916720965
  0.0015937704895919  0.2715625881071233  0.3714870055895503
  0.0019091489505314  0.2591050882067307  0.8736276227275042
  0.2193385750024106  0.2197694854596293  0.1105664479154029
  0.2358942394608405  0.2281385290497298  0.6164271579068270
  0.8563724017733705  0.8413870807839672  0.4506485278971368
  0.7343481110764216  0.7354120282590628  0.8753261256934337
  0.7721400195767103  0.9934305823699319  0.1117539504749985
  0.7634244158940291  0.0140179033716521  0.6296949335935125
  0.2681304907649178  0.0069355278587437  0.3678466686991015
  0.2542980903562153  0.9954919759114276  0.8783837887320942
  0.6557334666137606  0.3202542931479044  0.0005408397734428
  0.6635655859306127  0.3428440946055673  0.4991077599219977
  0.3328978218155569  0.6624552052879054  0.0037916281238424
  0.3412062461868501  0.6689572000669912  0.5077165046821861
  0.3022515814858764  0.6699108234472746  0.2432509905014513
  0.3334067869006887  0.6666562738185746  0.7480225491053289
  0.6736655091618431  0.3340822153861751  0.2459674242768841
  0.6722601956896384  0.3355449676526447  0.7510870322440297
  0.6045523975890887  0.5781317965546080  0.1210433844419256
  0.6177313723666487  0.5888735744851203  0.6290157909217911
  0.4008784678829187  0.4221814349410664  0.3648756559145312
  0.3640242901409820  0.3864541962862162  0.8686472341379670
  0.3994349679504765  0.0231388724644717  0.1235385447663475
  0.3948505933518334  0.0284032516923531  0.6239057237579004
  0.6057618720075340  0.9658347601130899  0.3820752500054923
  0.6029211477228600  0.9701770024570635  0.8754738231945609
  0.9688369037530222  0.3771084453039606  0.1265142322173176
  0.9749748062735932  0.3812484853337210  0.6236568815294561
  0.0192641231379937  0.6281421534822513  0.3788102401128768
  0.0225631395168904  0.6277372720505028  0.8786512053194997
  0.4858512981186323  0.6345808640194761  0.1218649600768629
  0.5108091937753230  0.6598216667289520  0.6296548713091994
  0.4757996404805525  0.3167913328200456  0.3673303772911964
  0.4634927306714189  0.3073595769281852  0.8677889782082460
  0.3422008784874890  0.8463079685785075  0.1215982022660000
  0.3350931073678254  0.8517880521139389  0.6240179119445202
  0.6962136434680417  0.1433761670625628  0.3698532815162281
  0.6856834982464619  0.1484598029831972  0.8732811036871482
  0.1422571728009814  0.5053787046708322  0.1235228944831235
  0.1507804942806814  0.5015455531773085  0.6234455699302544
  0.8442711854759608  0.5138002626012579  0.3714357608492875
  0.8445122881066851  0.5296687340118211  0.8771647843351573
  0.7269611944755354  0.6585396701880413  0.0451961330426656
  0.7091863825941118  0.6238213812422941  0.5377579119017426
  0.3394942422416207  0.4272165449412597  0.4603065782573026
  0.2570843654348778  0.3391602410411494  0.9532504559489894
  0.3378156263803405  0.0698370246065636  0.0392005481409186
  0.3553034303729277  0.0858701716354204  0.5350188076626949
  0.6439320917058353  0.9169176511740673  0.4742528324726294
  0.6462701438612228  0.9081568482203224  0.9607700438541826
  0.9325406700812948  0.2585321548641843  0.0491553740730097
  0.9273825229276298  0.2693037864045564  0.5419909764721211
  0.0558200711085206  0.7420153571157968  0.4590581067058608
  0.0831912500691843  0.7390673046876586  0.9611295229185117
  0.2670706434966945  0.3639943322778620  0.2952347124388979
  0.2551901045667506  0.3445415639680292  0.7854599373318649
  0.6941669900488208  0.6199792403186706  0.2133159005734342
  0.7368700215813107  0.6539735283875103  0.7074169596495423
  0.6412720855107921  0.8780020986908283  0.3075126087931537
  0.6449556521672051  0.9011764634849939  0.7934998083563585
  0.3356231786108381  0.0643663305376165  0.2079357759601024
  0.3107971575392483  0.0656298212553210  0.7007978987966368
  0.0928928959504631  0.7293664570584539  0.2931766805177318
  0.0892097330486976  0.7338489071432264  0.7943760754460385
  0.9287370281339093  0.2895375719108415  0.2180765092364112
  0.9278794703594784  0.2795668642183102  0.7106120579477562
  0.5264869213827836  0.3998053237584145  0.1101776389695814
  0.5247711730176690  0.4083895978093111  0.6352966816429984
  0.4716515589630177  0.5678090180513635  0.8704620959050260
  0.5790873383190274  0.1186162579437990  0.1220726329537101
  0.5735028876723405  0.1218686444143771  0.6368861373156633
  0.4267467577214532  0.9040601161808794  0.3782049743666889
  0.4223019023659660  0.8997647995306934  0.8748589298770639
  0.8636177529529903  0.4505420734761643  0.1159065051661017
  0.8780893671889061  0.4658217491694501  0.6209866477179631
  0.1059975896846197  0.5335775363260638  0.3926140819647514
  0.0966928923099957  0.5210408430882012  0.8814672652634030
  0.9942582820137389  0.9917833028939711  0.0882959842305056
  0.9692216006148300  0.9673908023111579  0.5744583260356819
  0.5885750590176144  0.6592681846468622  0.3098945304384415
 
  0.00000000E+00  0.00000000E+00  0.00000000E+00
  0.00000000E+00  0.00000000E+00  0.00000000E+00
  0.00000000E+00  0.00000000E+00  0.00000000E+00
  0.00000000E+00  0.00000000E+00  0.00000000E+00
  0.00000000E+00  0.00000000E+00  0.00000000E+00
  0.00000000E+00  0.00000000E+00  0.00000000E+00
  0.00000000E+00  0.00000000E+00  0.00000000E+00
  0.00000000E+00  0.00000000E+00  0.00000000E+00
  0.00000000E+00  0.00000000E+00  0.00000000E+00
  0.00000000E+00  0.00000000E+00  0.00000000E+00
  0.00000000E+00  0.00000000E+00  0.00000000E+00
  0.00000000E+00  0.00000000E+00  0.00000000E+00
  0.00000000E+00  0.00000000E+00  0.00000000E+00
  0.00000000E+00  0.00000000E+00  0.00000000E+00
  0.00000000E+00  0.00000000E+00  0.00000000E+00
  0.00000000E+00  0.00000000E+00  0.00000000E+00
  0.00000000E+00  0.00000000E+00  0.00000000E+00
  0.00000000E+00  0.00000000E+00  0.00000000E+00
  0.00000000E+00  0.00000000E+00  0.00000000E+00
  0.00000000E+00  0.00000000E+00  0.00000000E+00
  0.00000000E+00  0.00000000E+00  0.00000000E+00
  0.00000000E+00  0.00000000E+00  0.00000000E+00
  0.00000000E+00  0.00000000E+00  0.00000000E+00
  0.00000000E+00  0.00000000E+00  0.00000000E+00
  0.00000000E+00  0.00000000E+00  0.00000000E+00
  0.00000000E+00  0.00000000E+00  0.00000000E+00
  0.00000000E+00  0.00000000E+00  0.00000000E+00
  0.00000000E+00  0.00000000E+00  0.00000000E+00
  0.00000000E+00  0.00000000E+00  0.00000000E+00
  0.00000000E+00  0.00000000E+00  0.00000000E+00
  0.00000000E+00  0.00000000E+00  0.00000000E+00
  0.00000000E+00  0.00000000E+00  0.00000000E+00
  0.00000000E+00  0.00000000E+00  0.00000000E+00
  0.00000000E+00  0.00000000E+00  0.00000000E+00
  0.00000000E+00  0.00000000E+00  0.00000000E+00
  0.00000000E+00  0.00000000E+00  0.00000000E+00
  0.00000000E+00  0.00000000E+00  0.00000000E+00
  0.00000000E+00  0.00000000E+00  0.00000000E+00
  0.00000000E+00  0.00000000E+00  0.00000000E+00
  0.00000000E+00  0.00000000E+00  0.00000000E+00
  0.00000000E+00  0.00000000E+00  0.00000000E+00
  0.00000000E+00  0.00000000E+00  0.00000000E+00
  0.00000000E+00  0.00000000E+00  0.00000000E+00
  0.00000000E+00  0.00000000E+00  0.00000000E+00
  0.00000000E+00  0.00000000E+00  0.00000000E+00
  0.00000000E+00  0.00000000E+00  0.00000000E+00
  0.00000000E+00  0.00000000E+00  0.00000000E+00
  0.00000000E+00  0.00000000E+00  0.00000000E+00
  0.00000000E+00  0.00000000E+00  0.00000000E+00
  0.00000000E+00  0.00000000E+00  0.00000000E+00
  0.00000000E+00  0.00000000E+00  0.00000000E+00
  0.00000000E+00  0.00000000E+00  0.00000000E+00
  0.00000000E+00  0.00000000E+00  0.00000000E+00
  0.00000000E+00  0.00000000E+00  0.00000000E+00
  0.00000000E+00  0.00000000E+00  0.00000000E+00
  0.00000000E+00  0.00000000E+00  0.00000000E+00
  0.00000000E+00  0.00000000E+00  0.00000000E+00
  0.00000000E+00  0.00000000E+00  0.00000000E+00
  0.00000000E+00  0.00000000E+00  0.00000000E+00
  0.00000000E+00  0.00000000E+00  0.00000000E+00
  0.00000000E+00  0.00000000E+00  0.00000000E+00
  0.00000000E+00  0.00000000E+00  0.00000000E+00
  0.00000000E+00  0.00000000E+00  0.00000000E+00
  0.00000000E+00  0.00000000E+00  0.00000000E+00
  0.00000000E+00  0.00000000E+00  0.00000000E+00
  0.00000000E+00  0.00000000E+00  0.00000000E+00
  0.00000000E+00  0.00000000E+00  0.00000000E+00
  0.00000000E+00  0.00000000E+00  0.00000000E+00
  0.00000000E+00  0.00000000E+00  0.00000000E+00
  0.00000000E+00  0.00000000E+00  0.00000000E+00
  0.00000000E+00  0.00000000E+00  0.00000000E+00
  0.00000000E+00  0.00000000E+00  0.00000000E+00
  0.00000000E+00  0.00000000E+00  0.00000000E+00
  0.00000000E+00  0.00000000E+00  0.00000000E+00
  0.00000000E+00  0.00000000E+00  0.00000000E+00
  0.00000000E+00  0.00000000E+00  0.00000000E+00
  0.00000000E+00  0.00000000E+00  0.00000000E+00
  0.00000000E+00  0.00000000E+00  0.00000000E+00
  0.00000000E+00  0.00000000E+00  0.00000000E+00
  0.00000000E+00  0.00000000E+00  0.00000000E+00
  0.00000000E+00  0.00000000E+00  0.00000000E+00
  0.00000000E+00  0.00000000E+00  0.00000000E+00
