supercell of POSCAR                     
   1.01800000000000     
     3.1310994802600001   -5.4896946145000003   10.0244832682999991
    -9.4821132118399998   -5.5089477087900001    0.0170740616273000
     6.3359946057599998  -11.0114127993000004  -10.0652216442999993
   Al   Gd   N 
    83    12    96
Direct
  0.0909069875477044  0.5863170224544518  0.3353387931834462
  0.4996629353121520  0.3223582855292122  0.2558775573942853
  0.2543101052185861  0.5835894323321966  0.4957657437718481
  0.3317988957114508  0.3181534688761189  0.0776695931632148
  0.4129833275121655  0.0865031847449274  0.1726880222400951
  0.0077570948859744  0.8454253824272584  0.2514948954344760
  0.1713282515494612  0.3342810167793431  0.4143184556708945
  0.2451874286748534  0.0909113464709534  0.4960607230546188
  0.1646219875851500  0.8380440756297460  0.4160368950225717
  0.3384587792906402  0.6742902805351108  0.3402780034200674
  0.1545484147021625  0.6744625905740804  0.1653571677623731
  0.2513824379363427  0.4016227757755360  0.2520238090608302
  0.3324743809616990  0.1640422086994420  0.3348532131207946
  0.0078843084595945  0.6729693626745714  0.4946690627009076
  0.1662655193122546  0.1584923743825044  0.1692645402670721
  0.2526644364523207  0.9195394917396627  0.2554258597647916
  0.4122248268417863  0.4157989738583083  0.4162021927731701
  0.4982560623966492  0.1607864964871908  0.4971495925734288
  0.0827908629858527  0.9239628147426586  0.0788736150762119
  0.4202069118788145  0.9208144425234082  0.4115312070326596
  0.0893697813702161  0.5850017242889081  0.8340576385174785
  0.4996553672545190  0.3228990138119343  0.7557946313963058
  0.0853648969150598  0.0849647129715123  0.8340136864029191
  0.2513892615921023  0.5782943298777212  0.9942031241813822
  0.3324209906310926  0.3179448817664863  0.5783176318798624
  0.4180566886752430  0.0873197316024772  0.6723581456975651
  0.0070131930378921  0.8432443133923755  0.7547481395735005
  0.1676947478078219  0.3320830517943136  0.9115060084214761
  0.2471456724178296  0.0872433833158794  0.9952311695682070
  0.1616235688018648  0.8365759602820546  0.9157796700248468
  0.3367719956212198  0.6732192881076813  0.8399633927917662
  0.1563801176719011  0.6752435416348135  0.6647563568836006
  0.2504949101176166  0.4022397003939417  0.7511428804582607
  0.3339762285287833  0.1639703577757743  0.8339112406289431
  0.0062621870507726  0.6725107862271074  0.9944559924866141
  0.1671731692477891  0.1582226790588948  0.6689217707255466
  0.2522826608283921  0.9199578679731744  0.7560769927517725
  0.4124845793159793  0.4145147772846940  0.9150879182555016
  0.4976933649162731  0.1608179385496484  0.9973823601143934
  0.0821309447108618  0.9248723993208117  0.5795053695353616
  0.4198725415653541  0.9194807356016810  0.9115078933181593
  0.5898182271152734  0.5848837689783437  0.3353371212646294
  0.0051066379995319  0.3223194757660650  0.2576532930952595
  0.5852366492725665  0.0850434332234187  0.3347521043459523
  0.7517625231829683  0.5792735923867838  0.4952146170169058
  0.8312952068532269  0.3170572796765896  0.0778375575967374
  0.9151108547261373  0.0865666919505657  0.1679641058310750
  0.5084569800093277  0.8425825969361540  0.2548737144676707
  0.6667425431876737  0.3327615855277486  0.4131749803113323
  0.7483846608039997  0.0876631350961290  0.4960629508332843
  0.6622208230495730  0.8374975589786686  0.4160445911332289
  0.8367912406753888  0.6748905385602768  0.3408061225856898
  0.6551372941223548  0.6739405861395937  0.1662187561687887
  0.7497904899475145  0.4006520510612646  0.2528179683139697
  0.8321460902659155  0.1641034406874269  0.3346710154357098
  0.5074721711700079  0.6742757927670553  0.4949552678729887
  0.6655650898365337  0.1581807319538129  0.1695642748286019
  0.7529655502483763  0.9203791952397324  0.2557164745628242
  0.9118330134692840  0.4148180619685462  0.4153391667466479
  0.0007453181248991  0.1638692176019916  0.4957822173872160
  0.5821671480359498  0.9237031347449332  0.0802369984256899
  0.9207597343902307  0.9213261534526822  0.4119652484028222
  0.5893994637825841  0.5847271275998978  0.8349924212570627
  0.9997332027980690  0.3223806349921219  0.7546004395485255
  0.5856121883822425  0.0849954741092489  0.8348219467471409
  0.7519130881309408  0.5777064848805153  0.9949731232994452
  0.8296564609753219  0.3186375493561968  0.5787689160720646
  0.9168272177131911  0.0870443467350199  0.6712279320826866
  0.5075830199724649  0.8429523121354947  0.7553257142677055
  0.6674887298025709  0.3316327014106548  0.9124652508020219
  0.7464463203450435  0.0861876838673581  0.9954119677250759
  0.6617973816664389  0.8361214832554040  0.9163746869082843
  0.8366235075485022  0.6727245783067843  0.8395158955312780
  0.6565101882494844  0.6746305026994008  0.6661936356146825
  0.7501817983159214  0.4021796828470059  0.7523854625746011
  0.8339407666908940  0.1641151295002814  0.8340485877549568
  0.5064735084502132  0.6727200716957356  0.9946468035416700
  0.6667409285286325  0.1587225743309659  0.6699156142426261
  0.7524243646021205  0.9199972571127262  0.7563112579018352
  0.9125855126586870  0.4143645692041886  0.9150155554628370
  0.9981586315335278  0.1611617515770476  0.9961817344635264
  0.5836852365872147  0.9240569416428812  0.5798325369514927
  0.9196265556228269  0.9193090133386335  0.9114590796219701
  0.3977867517570672  0.5799479567722798  0.1786065704235682
  0.3309160668489213  0.8358428241232616  0.0823485468477045
  0.0816955372702424  0.4183047525118297  0.0844927307667049
  0.3986278431151433  0.5816307394496505  0.6778101449080012
  0.3323342493088788  0.8438110680024238  0.5829750698030409
  0.0835428618555838  0.4119393179539586  0.5805856757471588
  0.8984063320180553  0.5773523077943139  0.1803592549687920
  0.8310401030080143  0.8344487145874666  0.0828246333875953
  0.5813416004203447  0.4182722181581155  0.0850538137595436
  0.9016436880517489  0.5780269960199149  0.6769679894132281
  0.8314786807878463  0.8379873531364197  0.5838771559106135
  0.5803541382973947  0.4184134105784096  0.5857911611824989
  0.2190381992656327  0.5819548367982819  0.2664698050264533
  0.0319784175010582  0.6104085303297495  0.1008827753814927
  0.1309571704539536  0.3181054324394097  0.1997955672673513
  0.2281283555762599  0.0819954911364604  0.2634047322371202
  0.3842446190228586  0.5858305431748008  0.4374171502153175
  0.4486958216499985  0.3191411187702400  0.0098959895649600
  0.0396096493884741  0.0854874926148881  0.1023303974223495
  0.1323916360968340  0.8421134529321250  0.1840073602103800
  0.2972711953771281  0.3311169594581713  0.3521867224994466
  0.3765945842065008  0.0805312892106400  0.4358567362888763
  0.4756908433705647  0.8373175182630632  0.0077234286638657
  0.2942295865820412  0.8352306130090525  0.3561456405912580
  0.4727847636664038  0.6844848923278946  0.2865835227826494
  0.2631891922417822  0.6542275745657520  0.0945496666238128
  0.3749593294584344  0.3824327268939740  0.1846183200513849
  0.4625473641969506  0.1631308202012534  0.2747545003829757
  0.1359920735544691  0.6664132927184596  0.4336006972880995
  0.2238048697258250  0.4118021954130242  0.0085453157219604
  0.2891201118030295  0.1583182847909157  0.0999428774207303
  0.3860216501706972  0.9240109102064977  0.2004663921451098
  0.0436533722964754  0.4215923146302387  0.3527294513341914
  0.1328121307757471  0.1894711532330930  0.4524772546585041
  0.1958423731665704  0.9322049947500375  0.0092864482864954
  0.0444562578500722  0.9057687589863122  0.3528877354617492
  0.2187752569834487  0.5814651959671124  0.7663879668101998
  0.0377639925974549  0.6058019086408137  0.5995210722141238
  0.1298795453428454  0.3174366940898423  0.6996531141101343
  0.2117917678797809  0.0824145211255001  0.7725253919917634
  0.3820313548433489  0.5834141188851092  0.9372668407578999
  0.4493064176384607  0.3184600744970751  0.5104277174616314
  0.0389279996061376  0.0851799138146632  0.6050420806753820
  0.1315390454362557  0.8423956050223254  0.6859582597125993
  0.2959181545491631  0.3297374064745640  0.8516743791725077
  0.3764053086187005  0.0801770138515820  0.9347056660829622
  0.4766769387174108  0.8386451693307677  0.5080122897465102
  0.2923968779006429  0.8344815320505958  0.8565281141125922
  0.4716840932813398  0.6847708604767746  0.7872215328471697
  0.2672385780926732  0.6630423597073971  0.5952866289882621
  0.3752812394047282  0.3836548135837958  0.6854624969424350
  0.4622126671254563  0.1632054382302286  0.7749806336273011
  0.1339129882009971  0.6651746837114629  0.9328573023951563
  0.2308862016728384  0.4195929353457544  0.5102998547665294
  0.2931548444585488  0.1564286904628034  0.6050220704763660
  0.3850273216211022  0.9283309975392910  0.7038423669373870
  0.0425678523953366  0.4196692771640400  0.8514426453963537
  0.1261048186534168  0.1711151965699145  0.9338357268450395
  0.1945421749260632  0.9342758411788381  0.5095032833371249
  0.0481657267497582  0.9236304916998037  0.8523637665466310
  0.7189425622488201  0.5808791776927151  0.2669744812710633
  0.5331792254207528  0.6107915937283579  0.1007635708449541
  0.6296547269678641  0.3171882549071299  0.2002475064171065
  0.7102602610386981  0.0817174952864050  0.2722537545419499
  0.8822495392561365  0.5843421233225783  0.4374688107641660
  0.9483548032813474  0.3187929184368912  0.0100795214159319
  0.5385229496955475  0.0851975264574421  0.1041558831057046
  0.6332479133391544  0.8416161037550012  0.1855867381446998
  0.7941722573567560  0.3304521601593109  0.3532275873864563
  0.8770617648146199  0.0812089053132325  0.4351210702666535
  0.9754612619972320  0.8371895086302317  0.0076284575246675
  0.7921236367126099  0.8358131615467670  0.3563157426187189
  0.9716237231173679  0.6861311040764946  0.2861259275865251
  0.7647513093724783  0.6523952446498811  0.0960170166309311
  0.8745071019565103  0.3802990489764184  0.1855622098537921
  0.9441515785698016  0.1728155115663341  0.2646470599196249
  0.6352499852081053  0.6663834553858052  0.4335317554740996
  0.7238067679302063  0.4114080497508681  0.0094033428957800
  0.7871808975639993  0.1570643405413179  0.1002532883695082
  0.8835151406942927  0.9280301810910601  0.1999868719274929
  0.5425534612301064  0.4201281609989280  0.3521951168199990
  0.6268254666982855  0.1708799313145093  0.4350497832009026
  0.6958023822087185  0.9310815125572276  0.0103412078827603
  0.5484362705466168  0.9237371598248245  0.3524146318787800
  0.7180270843965246  0.5809189162887591  0.7670917188646769
  0.5350303307193016  0.6114517191466859  0.6008997383652357
  0.6298355961111426  0.3169710889466728  0.7010723204710416
  0.7118423853585014  0.0823591919262725  0.7727679128227649
  0.8819664235995646  0.5831787713726229  0.9371563039772397
  0.9425167689350644  0.3199329045493826  0.5102573602383700
  0.5407306662384741  0.0851250879266416  0.6044749626597508
  0.6324856375083669  0.8422808171777589  0.6860873204760836
  0.7956153489530493  0.3294074983756303  0.8525842927682206
  0.8760204419662756  0.0800092137639155  0.9348060087430952
  0.9748439822533115  0.8371038684999661  0.5093325196668417
  0.7923461986593523  0.8341554080048112  0.8566060164107157
  0.9709655654144953  0.6845093885190394  0.7860849856892713
  0.7661908853325343  0.6556876918025480  0.5958716164183002
  0.8728249869049804  0.3818371551398698  0.6859998094191937
  0.9612890424012903  0.1630255248028192  0.7742899173715969
  0.6345692366724123  0.6649384222675820  0.9337283074050688
  0.7214350432730754  0.4134376614389481  0.5101803610922815
  0.7889123236599147  0.1571519956290004  0.6027539652163938
  0.8838520236840495  0.9281092745656565  0.7029193159953806
  0.5428817426638091  0.4196448836517206  0.8524020903277787
  0.6259072736918796  0.1705821919226409  0.9346564881751078
  0.6965074291403042  0.9325632289149226  0.5100698411685798
  0.5488926322401753  0.9235687347919281  0.8527947312133151
 
  0.00000000E+00  0.00000000E+00  0.00000000E+00
  0.00000000E+00  0.00000000E+00  0.00000000E+00
  0.00000000E+00  0.00000000E+00  0.00000000E+00
  0.00000000E+00  0.00000000E+00  0.00000000E+00
  0.00000000E+00  0.00000000E+00  0.00000000E+00
  0.00000000E+00  0.00000000E+00  0.00000000E+00
  0.00000000E+00  0.00000000E+00  0.00000000E+00
  0.00000000E+00  0.00000000E+00  0.00000000E+00
  0.00000000E+00  0.00000000E+00  0.00000000E+00
  0.00000000E+00  0.00000000E+00  0.00000000E+00
  0.00000000E+00  0.00000000E+00  0.00000000E+00
  0.00000000E+00  0.00000000E+00  0.00000000E+00
  0.00000000E+00  0.00000000E+00  0.00000000E+00
  0.00000000E+00  0.00000000E+00  0.00000000E+00
  0.00000000E+00  0.00000000E+00  0.00000000E+00
  0.00000000E+00  0.00000000E+00  0.00000000E+00
  0.00000000E+00  0.00000000E+00  0.00000000E+00
  0.00000000E+00  0.00000000E+00  0.00000000E+00
  0.00000000E+00  0.00000000E+00  0.00000000E+00
  0.00000000E+00  0.00000000E+00  0.00000000E+00
  0.00000000E+00  0.00000000E+00  0.00000000E+00
  0.00000000E+00  0.00000000E+00  0.00000000E+00
  0.00000000E+00  0.00000000E+00  0.00000000E+00
  0.00000000E+00  0.00000000E+00  0.00000000E+00
  0.00000000E+00  0.00000000E+00  0.00000000E+00
  0.00000000E+00  0.00000000E+00  0.00000000E+00
  0.00000000E+00  0.00000000E+00  0.00000000E+00
  0.00000000E+00  0.00000000E+00  0.00000000E+00
  0.00000000E+00  0.00000000E+00  0.00000000E+00
  0.00000000E+00  0.00000000E+00  0.00000000E+00
  0.00000000E+00  0.00000000E+00  0.00000000E+00
  0.00000000E+00  0.00000000E+00  0.00000000E+00
  0.00000000E+00  0.00000000E+00  0.00000000E+00
  0.00000000E+00  0.00000000E+00  0.00000000E+00
  0.00000000E+00  0.00000000E+00  0.00000000E+00
  0.00000000E+00  0.00000000E+00  0.00000000E+00
  0.00000000E+00  0.00000000E+00  0.00000000E+00
  0.00000000E+00  0.00000000E+00  0.00000000E+00
  0.00000000E+00  0.00000000E+00  0.00000000E+00
  0.00000000E+00  0.00000000E+00  0.00000000E+00
  0.00000000E+00  0.00000000E+00  0.00000000E+00
  0.00000000E+00  0.00000000E+00  0.00000000E+00
  0.00000000E+00  0.00000000E+00  0.00000000E+00
  0.00000000E+00  0.00000000E+00  0.00000000E+00
  0.00000000E+00  0.00000000E+00  0.00000000E+00
  0.00000000E+00  0.00000000E+00  0.00000000E+00
  0.00000000E+00  0.00000000E+00  0.00000000E+00
  0.00000000E+00  0.00000000E+00  0.00000000E+00
  0.00000000E+00  0.00000000E+00  0.00000000E+00
  0.00000000E+00  0.00000000E+00  0.00000000E+00
  0.00000000E+00  0.00000000E+00  0.00000000E+00
  0.00000000E+00  0.00000000E+00  0.00000000E+00
  0.00000000E+00  0.00000000E+00  0.00000000E+00
  0.00000000E+00  0.00000000E+00  0.00000000E+00
  0.00000000E+00  0.00000000E+00  0.00000000E+00
  0.00000000E+00  0.00000000E+00  0.00000000E+00
  0.00000000E+00  0.00000000E+00  0.00000000E+00
  0.00000000E+00  0.00000000E+00  0.00000000E+00
  0.00000000E+00  0.00000000E+00  0.00000000E+00
  0.00000000E+00  0.00000000E+00  0.00000000E+00
  0.00000000E+00  0.00000000E+00  0.00000000E+00
  0.00000000E+00  0.00000000E+00  0.00000000E+00
  0.00000000E+00  0.00000000E+00  0.00000000E+00
  0.00000000E+00  0.00000000E+00  0.00000000E+00
  0.00000000E+00  0.00000000E+00  0.00000000E+00
  0.00000000E+00  0.00000000E+00  0.00000000E+00
  0.00000000E+00  0.00000000E+00  0.00000000E+00
  0.00000000E+00  0.00000000E+00  0.00000000E+00
  0.00000000E+00  0.00000000E+00  0.00000000E+00
  0.00000000E+00  0.00000000E+00  0.00000000E+00
  0.00000000E+00  0.00000000E+00  0.00000000E+00
  0.00000000E+00  0.00000000E+00  0.00000000E+00
  0.00000000E+00  0.00000000E+00  0.00000000E+00
  0.00000000E+00  0.00000000E+00  0.00000000E+00
  0.00000000E+00  0.00000000E+00  0.00000000E+00
  0.00000000E+00  0.00000000E+00  0.00000000E+00
  0.00000000E+00  0.00000000E+00  0.00000000E+00
  0.00000000E+00  0.00000000E+00  0.00000000E+00
  0.00000000E+00  0.00000000E+00  0.00000000E+00
  0.00000000E+00  0.00000000E+00  0.00000000E+00
  0.00000000E+00  0.00000000E+00  0.00000000E+00
  0.00000000E+00  0.00000000E+00  0.00000000E+00
  0.00000000E+00  0.00000000E+00  0.00000000E+00
  0.00000000E+00  0.00000000E+00  0.00000000E+00
  0.00000000E+00  0.00000000E+00  0.00000000E+00
  0.00000000E+00  0.00000000E+00  0.00000000E+00
  0.00000000E+00  0.00000000E+00  0.00000000E+00
  0.00000000E+00  0.00000000E+00  0.00000000E+00
  0.00000000E+00  0.00000000E+00  0.00000000E+00
  0.00000000E+00  0.00000000E+00  0.00000000E+00
  0.00000000E+00  0.00000000E+00  0.00000000E+00
  0.00000000E+00  0.00000000E+00  0.00000000E+00
  0.00000000E+00  0.00000000E+00  0.00000000E+00
  0.00000000E+00  0.00000000E+00  0.00000000E+00
  0.00000000E+00  0.00000000E+00  0.00000000E+00
  0.00000000E+00  0.00000000E+00  0.00000000E+00
  0.00000000E+00  0.00000000E+00  0.00000000E+00
  0.00000000E+00  0.00000000E+00  0.00000000E+00
  0.00000000E+00  0.00000000E+00  0.00000000E+00
  0.00000000E+00  0.00000000E+00  0.00000000E+00
  0.00000000E+00  0.00000000E+00  0.00000000E+00
  0.00000000E+00  0.00000000E+00  0.00000000E+00
  0.00000000E+00  0.00000000E+00  0.00000000E+00
  0.00000000E+00  0.00000000E+00  0.00000000E+00
  0.00000000E+00  0.00000000E+00  0.00000000E+00
  0.00000000E+00  0.00000000E+00  0.00000000E+00
  0.00000000E+00  0.00000000E+00  0.00000000E+00
  0.00000000E+00  0.00000000E+00  0.00000000E+00
  0.00000000E+00  0.00000000E+00  0.00000000E+00
  0.00000000E+00  0.00000000E+00  0.00000000E+00
  0.00000000E+00  0.00000000E+00  0.00000000E+00
  0.00000000E+00  0.00000000E+00  0.00000000E+00
  0.00000000E+00  0.00000000E+00  0.00000000E+00
  0.00000000E+00  0.00000000E+00  0.00000000E+00
  0.00000000E+00  0.00000000E+00  0.00000000E+00
  0.00000000E+00  0.00000000E+00  0.00000000E+00
  0.00000000E+00  0.00000000E+00  0.00000000E+00
  0.00000000E+00  0.00000000E+00  0.00000000E+00
  0.00000000E+00  0.00000000E+00  0.00000000E+00
  0.00000000E+00  0.00000000E+00  0.00000000E+00
  0.00000000E+00  0.00000000E+00  0.00000000E+00
  0.00000000E+00  0.00000000E+00  0.00000000E+00
  0.00000000E+00  0.00000000E+00  0.00000000E+00
  0.00000000E+00  0.00000000E+00  0.00000000E+00
  0.00000000E+00  0.00000000E+00  0.00000000E+00
  0.00000000E+00  0.00000000E+00  0.00000000E+00
  0.00000000E+00  0.00000000E+00  0.00000000E+00
  0.00000000E+00  0.00000000E+00  0.00000000E+00
  0.00000000E+00  0.00000000E+00  0.00000000E+00
  0.00000000E+00  0.00000000E+00  0.00000000E+00
  0.00000000E+00  0.00000000E+00  0.00000000E+00
  0.00000000E+00  0.00000000E+00  0.00000000E+00
  0.00000000E+00  0.00000000E+00  0.00000000E+00
  0.00000000E+00  0.00000000E+00  0.00000000E+00
  0.00000000E+00  0.00000000E+00  0.00000000E+00
  0.00000000E+00  0.00000000E+00  0.00000000E+00
  0.00000000E+00  0.00000000E+00  0.00000000E+00
  0.00000000E+00  0.00000000E+00  0.00000000E+00
  0.00000000E+00  0.00000000E+00  0.00000000E+00
  0.00000000E+00  0.00000000E+00  0.00000000E+00
  0.00000000E+00  0.00000000E+00  0.00000000E+00
  0.00000000E+00  0.00000000E+00  0.00000000E+00
  0.00000000E+00  0.00000000E+00  0.00000000E+00
  0.00000000E+00  0.00000000E+00  0.00000000E+00
  0.00000000E+00  0.00000000E+00  0.00000000E+00
  0.00000000E+00  0.00000000E+00  0.00000000E+00
  0.00000000E+00  0.00000000E+00  0.00000000E+00
  0.00000000E+00  0.00000000E+00  0.00000000E+00
  0.00000000E+00  0.00000000E+00  0.00000000E+00
  0.00000000E+00  0.00000000E+00  0.00000000E+00
  0.00000000E+00  0.00000000E+00  0.00000000E+00
  0.00000000E+00  0.00000000E+00  0.00000000E+00
  0.00000000E+00  0.00000000E+00  0.00000000E+00
  0.00000000E+00  0.00000000E+00  0.00000000E+00
  0.00000000E+00  0.00000000E+00  0.00000000E+00
  0.00000000E+00  0.00000000E+00  0.00000000E+00
  0.00000000E+00  0.00000000E+00  0.00000000E+00
  0.00000000E+00  0.00000000E+00  0.00000000E+00
  0.00000000E+00  0.00000000E+00  0.00000000E+00
  0.00000000E+00  0.00000000E+00  0.00000000E+00
  0.00000000E+00  0.00000000E+00  0.00000000E+00
  0.00000000E+00  0.00000000E+00  0.00000000E+00
  0.00000000E+00  0.00000000E+00  0.00000000E+00
  0.00000000E+00  0.00000000E+00  0.00000000E+00
  0.00000000E+00  0.00000000E+00  0.00000000E+00
  0.00000000E+00  0.00000000E+00  0.00000000E+00
  0.00000000E+00  0.00000000E+00  0.00000000E+00
  0.00000000E+00  0.00000000E+00  0.00000000E+00
  0.00000000E+00  0.00000000E+00  0.00000000E+00
  0.00000000E+00  0.00000000E+00  0.00000000E+00
  0.00000000E+00  0.00000000E+00  0.00000000E+00
  0.00000000E+00  0.00000000E+00  0.00000000E+00
  0.00000000E+00  0.00000000E+00  0.00000000E+00
  0.00000000E+00  0.00000000E+00  0.00000000E+00
  0.00000000E+00  0.00000000E+00  0.00000000E+00
  0.00000000E+00  0.00000000E+00  0.00000000E+00
  0.00000000E+00  0.00000000E+00  0.00000000E+00
  0.00000000E+00  0.00000000E+00  0.00000000E+00
  0.00000000E+00  0.00000000E+00  0.00000000E+00
  0.00000000E+00  0.00000000E+00  0.00000000E+00
  0.00000000E+00  0.00000000E+00  0.00000000E+00
  0.00000000E+00  0.00000000E+00  0.00000000E+00
  0.00000000E+00  0.00000000E+00  0.00000000E+00
  0.00000000E+00  0.00000000E+00  0.00000000E+00
  0.00000000E+00  0.00000000E+00  0.00000000E+00
  0.00000000E+00  0.00000000E+00  0.00000000E+00
  0.00000000E+00  0.00000000E+00  0.00000000E+00
  0.00000000E+00  0.00000000E+00  0.00000000E+00
  0.00000000E+00  0.00000000E+00  0.00000000E+00
  0.00000000E+00  0.00000000E+00  0.00000000E+00
  0.00000000E+00  0.00000000E+00  0.00000000E+00
