supercell of POSCAR                     
   1.01800000000000     
     3.1310994802600001   -5.4896946145000003   10.0244832682999991
    -9.4821132118399998   -5.5089477087900001    0.0170740616273000
     6.3359946057599998  -11.0114127993000004  -10.0652216442999993
   Al   Gd   N 
    84    11    96
Direct
  0.0859746463515663  0.5838711716377034  0.3370373422743640
  0.5018953342137564  0.3279667266241617  0.2552887054647002
  0.0867507910916601  0.0851353028702775  0.3339821789998751
  0.2524467491100566  0.5795461068770820  0.4924233954686983
  0.3323947021553479  0.3213321872901105  0.0760938927003068
  0.4173809778304900  0.0879892259685136  0.1686163568555870
  0.0075342165314396  0.8425829592435505  0.2551029908643656
  0.1692688990105324  0.3328762586632195  0.4104302495335261
  0.2481159772560488  0.0870842913640928  0.4952108230575689
  0.1637922847609303  0.8358324211974164  0.4149861337943506
  0.3358603841458603  0.6689541393086529  0.3320698714799164
  0.1549696459106187  0.6695547754799662  0.1757317474209898
  0.2548356472571101  0.4141822799034571  0.2494994428458810
  0.3343298868598410  0.1668719261998604  0.3326976695707629
  0.0055797031116285  0.6743888534752074  0.4952572437830014
  0.1685396888342865  0.1619346148539194  0.1697528818238609
  0.2538563819381494  0.9209379937085416  0.2549918513677270
  0.4132256147719389  0.4152403101890982  0.4143860351007760
  0.4986913131834143  0.1615108911574623  0.4961775054155737
  0.0885075272193703  0.9208380316294438  0.0818288004464733
  0.4189262281405632  0.9199368740211256  0.4108918967887192
  0.0906200775296924  0.5832494993510124  0.8355782527560152
  0.5002484238714828  0.3220587834059430  0.7549104903042476
  0.0866711224071395  0.0836090056002377  0.8350954537460922
  0.2538017686141458  0.5688283541216919  0.9931014743714641
  0.3325371755272997  0.3181196933363069  0.5773307297710772
  0.4173202796657520  0.0871400500120316  0.6705305609086309
  0.0089566109240522  0.8426855448651906  0.7566842800187885
  0.1673323470658659  0.3268376230520218  0.9110853653248867
  0.2507976569760473  0.0818085178392494  0.9989292030533292
  0.1668936260504523  0.8362980855469431  0.9192053290803202
  0.3369206621997094  0.6742387439947848  0.8398894994208632
  0.1543149305499938  0.6752216221799046  0.6660639387558049
  0.2503203721675717  0.4011618803306192  0.7517059802766681
  0.3347605587645006  0.1636018306139277  0.8341341515250562
  0.0073323021783764  0.6746942711229593  0.9947783277598958
  0.1673095504164550  0.1590149145335999  0.6691270255214476
  0.2532565085303276  0.9203071195815014  0.7558693094685012
  0.4143891312322694  0.4140324630407264  0.9141319732396340
  0.4995370975065683  0.1640327803626320  0.9970449040045253
  0.0834642040601850  0.9238712074294497  0.5795132419358140
  0.4188504343076929  0.9217514632931056  0.9133077856292218
  0.5880100582599184  0.5810096754715843  0.3309918688793019
  0.0024155624125015  0.3240306903372954  0.2553127822776204
  0.5858480632706176  0.0871888462696475  0.3330889952097777
  0.7503853185164004  0.5786933480074481  0.4930595276775378
  0.8292547243937918  0.3198497814878678  0.0788252268160861
  0.9191533655975519  0.0867950374357278  0.1702361361475511
  0.5081463823148624  0.8467205244374227  0.2524760671157296
  0.6686182214668435  0.3315586516399236  0.4123040575879884
  0.7481768183448736  0.0871045057764093  0.4954830605838296
  0.6618474555498892  0.8378797330481405  0.4148934620949518
  0.8359332945392026  0.6744090139954437  0.3403057932999189
  0.6466679703320040  0.6791746931859137  0.1708146077702040
  0.7517053864811984  0.4016026127307128  0.2521187644027023
  0.8357384571729654  0.1649658313708215  0.3336042862737827
  0.5049540931214409  0.6738355315546798  0.4923444182996803
  0.6674731709305703  0.1614660789136266  0.1686412143354872
  0.7541673146405898  0.9227243722949225  0.2555672802827331
  0.9125990292729824  0.4143414875085867  0.4157985301078071
  0.9994430494535465  0.1620509396456953  0.4967355628394827
  0.5816092657162812  0.9266588489989260  0.0798485896882397
  0.9206094629731254  0.9204634273981469  0.4119035380628659
  0.5892849714691550  0.5850022426275316  0.8341334072085118
  0.9998953713341265  0.3220831956479557  0.7550341687515214
  0.5860788952025118  0.0853961047286589  0.8345828290416719
  0.7482718147241343  0.5761322483640896  0.9947091200838045
  0.8325200790982947  0.3181279649053366  0.5787807162966558
  0.9179884471493054  0.0864171602032258  0.6714102722903448
  0.5073940950480988  0.8444795568234795  0.7552969169355990
  0.6665241609864623  0.3327699185668038  0.9145270686294040
  0.7480162513598430  0.0880532886321461  0.9963170044029042
  0.6626024614163128  0.8381496197319365  0.9157933710203849
  0.8371368639169674  0.6735297360082981  0.8414858025456340
  0.6532431465861492  0.6761205214210406  0.6651950589102853
  0.7498377335910433  0.4013492018986895  0.7530245291850548
  0.8344010544343305  0.1643947069371166  0.8348634846168324
  0.5052591495890937  0.6774615165194575  0.9935509690680675
  0.6673330052782802  0.1587247303539741  0.6693472403489906
  0.7536244544522219  0.9204077641350707  0.7564262289001604
  0.9134354346403910  0.4138861632507016  0.9158661503714711
  0.9992024691105073  0.1609835054467368  0.9980541063184063
  0.5827575252712691  0.9243333396596682  0.5791660730108035
  0.9215586826205922  0.9202576958660060  0.9129970662812212
  0.3395813301405965  0.8064106596607488  0.0926636090067561
  0.0827934907116727  0.4209030735073114  0.0847644278064763
  0.3974706809600406  0.5790801945517572  0.6785712538464708
  0.3318277862377954  0.8354220408755140  0.5833936308113579
  0.0833052182626020  0.4201762788950134  0.5839061637498304
  0.8923954940911756  0.5814098871320468  0.1775525219834222
  0.8292564040768582  0.8345514012888202  0.0830704941063161
  0.5706761975406351  0.4316668387955218  0.0905959279710515
  0.8960389083035309  0.5800742213771386  0.6793728751416097
  0.8310702327152129  0.8371460668971622  0.5839713937936466
  0.5821048965163413  0.4192226627535689  0.5844808109951813
  0.2120793182269125  0.5810403680404761  0.2714912020676650
  0.0338478720917763  0.6152618690047689  0.1024607244521718
  0.1332691054614585  0.3216783346746226  0.1999337003634594
  0.2132584323497611  0.0830190216876545  0.2716294889556892
  0.3823244808877959  0.5850892039812763  0.4335739392668572
  0.4507808237429458  0.3222324195528969  0.0100205850177630
  0.0440211514208428  0.0842353904273168  0.1040372566806766
  0.1352568855286478  0.8389334185473558  0.1874006315242696
  0.2972465774042874  0.3328320252138255  0.3492806008238034
  0.3767519597372555  0.0815592184437506  0.4336342521717498
  0.4730646458771517  0.8411424202334459  0.0094492585209025
  0.2946202140386163  0.8328178501949708  0.3540098160328213
  0.4736681302312036  0.6846164887813444  0.2803940281764739
  0.2528009697298970  0.6248449161474738  0.0997193283540341
  0.3772959261528044  0.3885611602506174  0.1826869593157170
  0.4612307012842933  0.1662860451001791  0.2715013942579816
  0.1325863756321084  0.6664447113003718  0.4342258467939288
  0.2226691674474282  0.4062429790761044  0.0067170552361233
  0.2915646799910050  0.1614736978301679  0.1028714010156193
  0.3846339016271685  0.9281467215628396  0.1980761222891729
  0.0419034138754100  0.4188932320322536  0.3530403855267465
  0.1276887670790288  0.1715939340678574  0.4339016771420532
  0.2092937219257109  0.9216531507348265  0.0173460944788744
  0.0492612742902452  0.9235480103175462  0.3522513169033274
  0.2189629075683683  0.5811642852643644  0.7670279079678579
  0.0317431286917582  0.6116927231860245  0.6015689122460444
  0.1296352521134736  0.3177864777323265  0.6994664642685606
  0.2124391541243753  0.0826297852514841  0.7721604658581569
  0.3830101507070580  0.5840196542173359  0.9375106841036214
  0.4494636130107139  0.3195873323079823  0.5096462528277783
  0.0409857107497587  0.0854970064112592  0.6036073585444939
  0.1327818356476413  0.8424052568096911  0.6861168437237808
  0.2964879510280625  0.3290988930380649  0.8517393554494674
  0.3770846492150497  0.0823961659572277  0.9356138678528936
  0.4753291077128452  0.8385662834725949  0.5073242628681243
  0.2936860673537893  0.8353279360899393  0.8564707786797925
  0.4716856699505385  0.6852585737993806  0.7865067091078117
  0.2627638894019668  0.6532781814783064  0.5944721857098614
  0.3743686491753664  0.3820023588891104  0.6847083326293770
  0.4620542468255948  0.1625578219798882  0.7738117579148707
  0.1369993910401917  0.6635729440430964  0.9356942175416521
  0.2259849478464631  0.4125531463661076  0.5077643572497337
  0.2901739897912776  0.1574755042370839  0.6015027234228896
  0.3846883256958975  0.9279095403312567  0.7015251249424210
  0.0431550483091030  0.4180191714935546  0.8523318932946751
  0.1280303347578240  0.1658922093629158  0.9361724858798866
  0.1973155472136909  0.9312892070949133  0.5094528576798893
  0.0514686872237817  0.9221784836690503  0.8550337588346721
  0.7185328077061754  0.5814621594255556  0.2661039059762018
  0.5223619000238529  0.6261106738730007  0.1038963613954209
  0.6310663554379516  0.3199607708799803  0.1993070378409172
  0.7129659085052964  0.0846753963529068  0.2718126437348829
  0.8816161037432195  0.5843540634053070  0.4371443924976717
  0.9480772332842093  0.3195438649567350  0.0114977494546906
  0.5415243995550725  0.0883667360382674  0.1032464457997833
  0.6332675161608137  0.8476116687236086  0.1860619720948478
  0.7965817424828359  0.3297231401741527  0.3522911081093625
  0.8775211821349487  0.0813850741166675  0.4346949655161794
  0.9774328974258566  0.8386811508955176  0.0097567569939940
  0.7929043290112929  0.8363482865051637  0.3558247633871261
  0.9697437480160787  0.6838060097442806  0.2858124596414484
  0.7512979324598206  0.6532627423467545  0.0952531767702993
  0.8762125257122904  0.3847827707298848  0.1857212682825917
  0.9633831778848787  0.1635646099703933  0.2730881647200150
  0.6317430662605616  0.6661372797595462  0.4297643502271953
  0.7175413523963741  0.4122716385455263  0.0127522716368489
  0.7914098055924583  0.1577318780518198  0.1024051902294616
  0.8855205205646115  0.9271541146649938  0.2005723078582591
  0.5446162665091236  0.4188201069370550  0.3526233072370957
  0.6268434337476165  0.1705216339178435  0.4339573419567202
  0.6962460306806761  0.9324066726364393  0.0105720220346797
  0.5471228205918095  0.9245300012914797  0.3509956673393333
  0.7184792247150042  0.5820539664807427  0.7667362174936514
  0.5315757825848237  0.6120211988415605  0.5992951453344304
  0.6301566177883657  0.3174002352033725  0.6998604713990701
  0.7126804112078560  0.0827231685866110  0.7724909837548282
  0.8815343102681368  0.5835270400918517  0.9396429365922501
  0.9493575835598946  0.3195827270917917  0.5111561209159419
  0.5405826526403601  0.0860219000417786  0.6032362558178335
  0.6325459680393877  0.8433384786290716  0.6858299372900944
  0.7953327122486940  0.3302653590855869  0.8537890550204068
  0.8771014257746685  0.0806389838419079  0.9358122004239604
  0.9748188783128242  0.8388214253210506  0.5086321097405531
  0.7936882272578316  0.8351572191535865  0.8574020152884785
  0.9726302389857224  0.6836269335280534  0.7887148288717825
  0.7617417900370427  0.6549274013510527  0.5937175369299723
  0.8738763807992598  0.3827408083128532  0.6859366758265821
  0.9623677941333781  0.1622982178893650  0.7747572511509162
  0.6331919291993486  0.6664253078852624  0.9332067819287744
  0.7247721489251475  0.4118374909620925  0.5091147066323458
  0.7905181095380556  0.1567305684893014  0.6021401746562418
  0.8859945161728007  0.9269437092553829  0.7032409706976779
  0.5430283325207697  0.4200349848950253  0.8511304971794331
  0.6269524563622397  0.1709388582604490  0.9345488302857987
  0.6963398668790930  0.9318417032401740  0.5094043244765203
  0.5481480723199184  0.9242743510390738  0.8532282224404000
 
  0.00000000E+00  0.00000000E+00  0.00000000E+00
  0.00000000E+00  0.00000000E+00  0.00000000E+00
  0.00000000E+00  0.00000000E+00  0.00000000E+00
  0.00000000E+00  0.00000000E+00  0.00000000E+00
  0.00000000E+00  0.00000000E+00  0.00000000E+00
  0.00000000E+00  0.00000000E+00  0.00000000E+00
  0.00000000E+00  0.00000000E+00  0.00000000E+00
  0.00000000E+00  0.00000000E+00  0.00000000E+00
  0.00000000E+00  0.00000000E+00  0.00000000E+00
  0.00000000E+00  0.00000000E+00  0.00000000E+00
  0.00000000E+00  0.00000000E+00  0.00000000E+00
  0.00000000E+00  0.00000000E+00  0.00000000E+00
  0.00000000E+00  0.00000000E+00  0.00000000E+00
  0.00000000E+00  0.00000000E+00  0.00000000E+00
  0.00000000E+00  0.00000000E+00  0.00000000E+00
  0.00000000E+00  0.00000000E+00  0.00000000E+00
  0.00000000E+00  0.00000000E+00  0.00000000E+00
  0.00000000E+00  0.00000000E+00  0.00000000E+00
  0.00000000E+00  0.00000000E+00  0.00000000E+00
  0.00000000E+00  0.00000000E+00  0.00000000E+00
  0.00000000E+00  0.00000000E+00  0.00000000E+00
  0.00000000E+00  0.00000000E+00  0.00000000E+00
  0.00000000E+00  0.00000000E+00  0.00000000E+00
  0.00000000E+00  0.00000000E+00  0.00000000E+00
  0.00000000E+00  0.00000000E+00  0.00000000E+00
  0.00000000E+00  0.00000000E+00  0.00000000E+00
  0.00000000E+00  0.00000000E+00  0.00000000E+00
  0.00000000E+00  0.00000000E+00  0.00000000E+00
  0.00000000E+00  0.00000000E+00  0.00000000E+00
  0.00000000E+00  0.00000000E+00  0.00000000E+00
  0.00000000E+00  0.00000000E+00  0.00000000E+00
  0.00000000E+00  0.00000000E+00  0.00000000E+00
  0.00000000E+00  0.00000000E+00  0.00000000E+00
  0.00000000E+00  0.00000000E+00  0.00000000E+00
  0.00000000E+00  0.00000000E+00  0.00000000E+00
  0.00000000E+00  0.00000000E+00  0.00000000E+00
  0.00000000E+00  0.00000000E+00  0.00000000E+00
  0.00000000E+00  0.00000000E+00  0.00000000E+00
  0.00000000E+00  0.00000000E+00  0.00000000E+00
  0.00000000E+00  0.00000000E+00  0.00000000E+00
  0.00000000E+00  0.00000000E+00  0.00000000E+00
  0.00000000E+00  0.00000000E+00  0.00000000E+00
  0.00000000E+00  0.00000000E+00  0.00000000E+00
  0.00000000E+00  0.00000000E+00  0.00000000E+00
  0.00000000E+00  0.00000000E+00  0.00000000E+00
  0.00000000E+00  0.00000000E+00  0.00000000E+00
  0.00000000E+00  0.00000000E+00  0.00000000E+00
  0.00000000E+00  0.00000000E+00  0.00000000E+00
  0.00000000E+00  0.00000000E+00  0.00000000E+00
  0.00000000E+00  0.00000000E+00  0.00000000E+00
  0.00000000E+00  0.00000000E+00  0.00000000E+00
  0.00000000E+00  0.00000000E+00  0.00000000E+00
  0.00000000E+00  0.00000000E+00  0.00000000E+00
  0.00000000E+00  0.00000000E+00  0.00000000E+00
  0.00000000E+00  0.00000000E+00  0.00000000E+00
  0.00000000E+00  0.00000000E+00  0.00000000E+00
  0.00000000E+00  0.00000000E+00  0.00000000E+00
  0.00000000E+00  0.00000000E+00  0.00000000E+00
  0.00000000E+00  0.00000000E+00  0.00000000E+00
  0.00000000E+00  0.00000000E+00  0.00000000E+00
  0.00000000E+00  0.00000000E+00  0.00000000E+00
  0.00000000E+00  0.00000000E+00  0.00000000E+00
  0.00000000E+00  0.00000000E+00  0.00000000E+00
  0.00000000E+00  0.00000000E+00  0.00000000E+00
  0.00000000E+00  0.00000000E+00  0.00000000E+00
  0.00000000E+00  0.00000000E+00  0.00000000E+00
  0.00000000E+00  0.00000000E+00  0.00000000E+00
  0.00000000E+00  0.00000000E+00  0.00000000E+00
  0.00000000E+00  0.00000000E+00  0.00000000E+00
  0.00000000E+00  0.00000000E+00  0.00000000E+00
  0.00000000E+00  0.00000000E+00  0.00000000E+00
  0.00000000E+00  0.00000000E+00  0.00000000E+00
  0.00000000E+00  0.00000000E+00  0.00000000E+00
  0.00000000E+00  0.00000000E+00  0.00000000E+00
  0.00000000E+00  0.00000000E+00  0.00000000E+00
  0.00000000E+00  0.00000000E+00  0.00000000E+00
  0.00000000E+00  0.00000000E+00  0.00000000E+00
  0.00000000E+00  0.00000000E+00  0.00000000E+00
  0.00000000E+00  0.00000000E+00  0.00000000E+00
  0.00000000E+00  0.00000000E+00  0.00000000E+00
  0.00000000E+00  0.00000000E+00  0.00000000E+00
  0.00000000E+00  0.00000000E+00  0.00000000E+00
  0.00000000E+00  0.00000000E+00  0.00000000E+00
  0.00000000E+00  0.00000000E+00  0.00000000E+00
  0.00000000E+00  0.00000000E+00  0.00000000E+00
  0.00000000E+00  0.00000000E+00  0.00000000E+00
  0.00000000E+00  0.00000000E+00  0.00000000E+00
  0.00000000E+00  0.00000000E+00  0.00000000E+00
  0.00000000E+00  0.00000000E+00  0.00000000E+00
  0.00000000E+00  0.00000000E+00  0.00000000E+00
  0.00000000E+00  0.00000000E+00  0.00000000E+00
  0.00000000E+00  0.00000000E+00  0.00000000E+00
  0.00000000E+00  0.00000000E+00  0.00000000E+00
  0.00000000E+00  0.00000000E+00  0.00000000E+00
  0.00000000E+00  0.00000000E+00  0.00000000E+00
  0.00000000E+00  0.00000000E+00  0.00000000E+00
  0.00000000E+00  0.00000000E+00  0.00000000E+00
  0.00000000E+00  0.00000000E+00  0.00000000E+00
  0.00000000E+00  0.00000000E+00  0.00000000E+00
  0.00000000E+00  0.00000000E+00  0.00000000E+00
  0.00000000E+00  0.00000000E+00  0.00000000E+00
  0.00000000E+00  0.00000000E+00  0.00000000E+00
  0.00000000E+00  0.00000000E+00  0.00000000E+00
  0.00000000E+00  0.00000000E+00  0.00000000E+00
  0.00000000E+00  0.00000000E+00  0.00000000E+00
  0.00000000E+00  0.00000000E+00  0.00000000E+00
  0.00000000E+00  0.00000000E+00  0.00000000E+00
  0.00000000E+00  0.00000000E+00  0.00000000E+00
  0.00000000E+00  0.00000000E+00  0.00000000E+00
  0.00000000E+00  0.00000000E+00  0.00000000E+00
  0.00000000E+00  0.00000000E+00  0.00000000E+00
  0.00000000E+00  0.00000000E+00  0.00000000E+00
  0.00000000E+00  0.00000000E+00  0.00000000E+00
  0.00000000E+00  0.00000000E+00  0.00000000E+00
  0.00000000E+00  0.00000000E+00  0.00000000E+00
  0.00000000E+00  0.00000000E+00  0.00000000E+00
  0.00000000E+00  0.00000000E+00  0.00000000E+00
  0.00000000E+00  0.00000000E+00  0.00000000E+00
  0.00000000E+00  0.00000000E+00  0.00000000E+00
  0.00000000E+00  0.00000000E+00  0.00000000E+00
  0.00000000E+00  0.00000000E+00  0.00000000E+00
  0.00000000E+00  0.00000000E+00  0.00000000E+00
  0.00000000E+00  0.00000000E+00  0.00000000E+00
  0.00000000E+00  0.00000000E+00  0.00000000E+00
  0.00000000E+00  0.00000000E+00  0.00000000E+00
  0.00000000E+00  0.00000000E+00  0.00000000E+00
  0.00000000E+00  0.00000000E+00  0.00000000E+00
  0.00000000E+00  0.00000000E+00  0.00000000E+00
  0.00000000E+00  0.00000000E+00  0.00000000E+00
  0.00000000E+00  0.00000000E+00  0.00000000E+00
  0.00000000E+00  0.00000000E+00  0.00000000E+00
  0.00000000E+00  0.00000000E+00  0.00000000E+00
  0.00000000E+00  0.00000000E+00  0.00000000E+00
  0.00000000E+00  0.00000000E+00  0.00000000E+00
  0.00000000E+00  0.00000000E+00  0.00000000E+00
  0.00000000E+00  0.00000000E+00  0.00000000E+00
  0.00000000E+00  0.00000000E+00  0.00000000E+00
  0.00000000E+00  0.00000000E+00  0.00000000E+00
  0.00000000E+00  0.00000000E+00  0.00000000E+00
  0.00000000E+00  0.00000000E+00  0.00000000E+00
  0.00000000E+00  0.00000000E+00  0.00000000E+00
  0.00000000E+00  0.00000000E+00  0.00000000E+00
  0.00000000E+00  0.00000000E+00  0.00000000E+00
  0.00000000E+00  0.00000000E+00  0.00000000E+00
  0.00000000E+00  0.00000000E+00  0.00000000E+00
  0.00000000E+00  0.00000000E+00  0.00000000E+00
  0.00000000E+00  0.00000000E+00  0.00000000E+00
  0.00000000E+00  0.00000000E+00  0.00000000E+00
  0.00000000E+00  0.00000000E+00  0.00000000E+00
  0.00000000E+00  0.00000000E+00  0.00000000E+00
  0.00000000E+00  0.00000000E+00  0.00000000E+00
  0.00000000E+00  0.00000000E+00  0.00000000E+00
  0.00000000E+00  0.00000000E+00  0.00000000E+00
  0.00000000E+00  0.00000000E+00  0.00000000E+00
  0.00000000E+00  0.00000000E+00  0.00000000E+00
  0.00000000E+00  0.00000000E+00  0.00000000E+00
  0.00000000E+00  0.00000000E+00  0.00000000E+00
  0.00000000E+00  0.00000000E+00  0.00000000E+00
  0.00000000E+00  0.00000000E+00  0.00000000E+00
  0.00000000E+00  0.00000000E+00  0.00000000E+00
  0.00000000E+00  0.00000000E+00  0.00000000E+00
  0.00000000E+00  0.00000000E+00  0.00000000E+00
  0.00000000E+00  0.00000000E+00  0.00000000E+00
  0.00000000E+00  0.00000000E+00  0.00000000E+00
  0.00000000E+00  0.00000000E+00  0.00000000E+00
  0.00000000E+00  0.00000000E+00  0.00000000E+00
  0.00000000E+00  0.00000000E+00  0.00000000E+00
  0.00000000E+00  0.00000000E+00  0.00000000E+00
  0.00000000E+00  0.00000000E+00  0.00000000E+00
  0.00000000E+00  0.00000000E+00  0.00000000E+00
  0.00000000E+00  0.00000000E+00  0.00000000E+00
  0.00000000E+00  0.00000000E+00  0.00000000E+00
  0.00000000E+00  0.00000000E+00  0.00000000E+00
  0.00000000E+00  0.00000000E+00  0.00000000E+00
  0.00000000E+00  0.00000000E+00  0.00000000E+00
  0.00000000E+00  0.00000000E+00  0.00000000E+00
  0.00000000E+00  0.00000000E+00  0.00000000E+00
  0.00000000E+00  0.00000000E+00  0.00000000E+00
  0.00000000E+00  0.00000000E+00  0.00000000E+00
  0.00000000E+00  0.00000000E+00  0.00000000E+00
  0.00000000E+00  0.00000000E+00  0.00000000E+00
  0.00000000E+00  0.00000000E+00  0.00000000E+00
  0.00000000E+00  0.00000000E+00  0.00000000E+00
  0.00000000E+00  0.00000000E+00  0.00000000E+00
  0.00000000E+00  0.00000000E+00  0.00000000E+00
  0.00000000E+00  0.00000000E+00  0.00000000E+00
  0.00000000E+00  0.00000000E+00  0.00000000E+00
  0.00000000E+00  0.00000000E+00  0.00000000E+00
  0.00000000E+00  0.00000000E+00  0.00000000E+00
  0.00000000E+00  0.00000000E+00  0.00000000E+00
  0.00000000E+00  0.00000000E+00  0.00000000E+00
