supercell of icsd_191774.cif            
   1.00000000000000     
    10.6131164861973719    0.0005554848225165    0.0022553123825742
    -5.3060766370125529    9.1885581931360658    0.0012085954462321
     0.0024511599905972    0.0029107135898472   11.2209574316520300
   N    In   Sc
    36    28     8
Direct
  0.2223411701132392  0.1113944934107352  0.4468932175214135
  0.1122648117080587  0.2215179896754194  0.1911934170209335
  0.8889545444755171  0.1122176027064157  0.9403972238534379
  0.7728744586176717  0.2190414816094375  0.6920838083067693
  0.5514656299951497  0.1137604818046398  0.4364253479615101
  0.4468826389681624  0.2184704184944550  0.1869005501194110
  0.2270300999552646  0.1139415499364063  0.9390908018372599
  0.1134109864765094  0.2264593991820618  0.6861967882062245
  0.8925841363301359  0.1132480270749383  0.4432027181379112
  0.7729244461975000  0.2191331308983493  0.1929342023049685
  0.5522484700544936  0.1151059753376984  0.9368651285672627
  0.4481341997244996  0.2191216237922831  0.6863418362806115
  0.2197998418703406  0.4396109524222709  0.4442210718870712
  0.1122261038701140  0.5561436024497581  0.1894773455999825
  0.8888684251217853  0.4442572131372060  0.9411285127127584
  0.7776158261051975  0.5543359269157833  0.6910705652212954
  0.5521008975532737  0.4397512052614871  0.4424887903442922
  0.4445939289926812  0.5549298094038022  0.1908360560101912
  0.2223051980453761  0.4438722316693529  0.9331824516379399
  0.1161819857381587  0.5575585255662432  0.6954082849527552
  0.8896641930947666  0.4445697544821670  0.4412175974947559
  0.7776686659211549  0.5554011571474859  0.1913200680503522
  0.5527257988011129  0.4393457827225191  0.9429157810042952
  0.4415429847475991  0.5533736874849708  0.6940574604860572
  0.2199069809401450  0.7802987874846963  0.4441426665823087
  0.1121549882903068  0.8897067975569257  0.1909502667176639
  0.8893960408544359  0.7780486160769087  0.9401724197738517
  0.7774397731627403  0.8886424382850180  0.6915907075890431
  0.5539428835866573  0.7780964758055759  0.4421027014669079
  0.4466058382875602  0.8935568357972130  0.1917196610100689
  0.2221679192068606  0.7788151452949066  0.9332433599968013
  0.1132200434927739  0.8858169324959064  0.6856722587433950
  0.8928015898083999  0.7803111173141843  0.4431354856438148
  0.7778030497274102  0.8889947137500300  0.1912186358542556
  0.5545879216243961  0.7783965528418619  0.9420797749798311
  0.4432021271616620  0.8914999813572848  0.6949530264754955
  0.2250941717948436  0.1119365513527555  0.2522215143526694
  0.8907144589428739  0.1126887390117375  0.7478384244405660
  0.7754219047099227  0.2213690868250566  0.9992339894510636
  0.2226191635625412  0.1107306240962629  0.7449533810068019
  0.1122300426654945  0.2226115017947947  0.9980929855558429
  0.8889658096726976  0.1114828086650874  0.2502048940486219
  0.7751873469901867  0.2207732811288992  0.4988415759754972
  0.2224487716606944  0.4444611018039453  0.2508674286032360
  0.1117564272484657  0.5558627996262402  0.5019724316943481
  0.8904489736385628  0.4438297345748978  0.7487896323133967
  0.7770328085137308  0.5554451910788387  0.9989841351547781
  0.5543659310867923  0.4417053856455482  0.2490692895365214
  0.4441558453328796  0.5549032328296946  0.5007979530358639
  0.1128791165428282  0.5564577075176658  0.9963863929233909
  0.8894034314117079  0.4437258159436581  0.2487020512297349
  0.7768825785014144  0.5555369539867812  0.4988036408544048
  0.5549519370154670  0.4423813268424084  0.7494489884580986
  0.4433529767132214  0.5545867281606505  0.9982148043003463
  0.2234254027189735  0.7780226724441377  0.2505030733331921
  0.8906475153950595  0.7781566427042250  0.7478767104855848
  0.7779915864882696  0.8893419238075637  0.9990632632793108
  0.5545892596646951  0.7778504249647327  0.2491130654165019
  0.4442334700563322  0.8915971288395710  0.5009554762862081
  0.1123889200513659  0.8903058687651892  0.9981307668569102
  0.8890201837212715  0.7779309160849479  0.2502853061678039
  0.7776582759108166  0.8891434580571982  0.4994406954711650
  0.5545481375060604  0.7780111463944905  0.7497990482975680
  0.4435304685702235  0.8911495438317942  0.9978688014100996
  0.1105369494865798  0.2211582118727051  0.4984639865871756
  0.5549992095086509  0.1108687374114155  0.2474728303037566
  0.4438426912947264  0.2218744508203159  0.4980611305845883
  0.5555071742345348  0.1112835371930743  0.7480712843252775
  0.4435329972788438  0.2219240277357883  0.9973368533911966
  0.2227693503389858  0.4440731391254076  0.7464128274309587
  0.1106309941362724  0.8894894967419873  0.4982138086518901
  0.2225971190129030  0.7785836856741568  0.7464775684327734
 
  0.00000000E+00  0.00000000E+00  0.00000000E+00
  0.00000000E+00  0.00000000E+00  0.00000000E+00
  0.00000000E+00  0.00000000E+00  0.00000000E+00
  0.00000000E+00  0.00000000E+00  0.00000000E+00
  0.00000000E+00  0.00000000E+00  0.00000000E+00
  0.00000000E+00  0.00000000E+00  0.00000000E+00
  0.00000000E+00  0.00000000E+00  0.00000000E+00
  0.00000000E+00  0.00000000E+00  0.00000000E+00
  0.00000000E+00  0.00000000E+00  0.00000000E+00
  0.00000000E+00  0.00000000E+00  0.00000000E+00
  0.00000000E+00  0.00000000E+00  0.00000000E+00
  0.00000000E+00  0.00000000E+00  0.00000000E+00
  0.00000000E+00  0.00000000E+00  0.00000000E+00
  0.00000000E+00  0.00000000E+00  0.00000000E+00
  0.00000000E+00  0.00000000E+00  0.00000000E+00
  0.00000000E+00  0.00000000E+00  0.00000000E+00
  0.00000000E+00  0.00000000E+00  0.00000000E+00
  0.00000000E+00  0.00000000E+00  0.00000000E+00
  0.00000000E+00  0.00000000E+00  0.00000000E+00
  0.00000000E+00  0.00000000E+00  0.00000000E+00
  0.00000000E+00  0.00000000E+00  0.00000000E+00
  0.00000000E+00  0.00000000E+00  0.00000000E+00
  0.00000000E+00  0.00000000E+00  0.00000000E+00
  0.00000000E+00  0.00000000E+00  0.00000000E+00
  0.00000000E+00  0.00000000E+00  0.00000000E+00
  0.00000000E+00  0.00000000E+00  0.00000000E+00
  0.00000000E+00  0.00000000E+00  0.00000000E+00
  0.00000000E+00  0.00000000E+00  0.00000000E+00
  0.00000000E+00  0.00000000E+00  0.00000000E+00
  0.00000000E+00  0.00000000E+00  0.00000000E+00
  0.00000000E+00  0.00000000E+00  0.00000000E+00
  0.00000000E+00  0.00000000E+00  0.00000000E+00
  0.00000000E+00  0.00000000E+00  0.00000000E+00
  0.00000000E+00  0.00000000E+00  0.00000000E+00
  0.00000000E+00  0.00000000E+00  0.00000000E+00
  0.00000000E+00  0.00000000E+00  0.00000000E+00
  0.00000000E+00  0.00000000E+00  0.00000000E+00
  0.00000000E+00  0.00000000E+00  0.00000000E+00
  0.00000000E+00  0.00000000E+00  0.00000000E+00
  0.00000000E+00  0.00000000E+00  0.00000000E+00
  0.00000000E+00  0.00000000E+00  0.00000000E+00
  0.00000000E+00  0.00000000E+00  0.00000000E+00
  0.00000000E+00  0.00000000E+00  0.00000000E+00
  0.00000000E+00  0.00000000E+00  0.00000000E+00
  0.00000000E+00  0.00000000E+00  0.00000000E+00
  0.00000000E+00  0.00000000E+00  0.00000000E+00
  0.00000000E+00  0.00000000E+00  0.00000000E+00
  0.00000000E+00  0.00000000E+00  0.00000000E+00
  0.00000000E+00  0.00000000E+00  0.00000000E+00
  0.00000000E+00  0.00000000E+00  0.00000000E+00
  0.00000000E+00  0.00000000E+00  0.00000000E+00
  0.00000000E+00  0.00000000E+00  0.00000000E+00
  0.00000000E+00  0.00000000E+00  0.00000000E+00
  0.00000000E+00  0.00000000E+00  0.00000000E+00
  0.00000000E+00  0.00000000E+00  0.00000000E+00
  0.00000000E+00  0.00000000E+00  0.00000000E+00
  0.00000000E+00  0.00000000E+00  0.00000000E+00
  0.00000000E+00  0.00000000E+00  0.00000000E+00
  0.00000000E+00  0.00000000E+00  0.00000000E+00
  0.00000000E+00  0.00000000E+00  0.00000000E+00
  0.00000000E+00  0.00000000E+00  0.00000000E+00
  0.00000000E+00  0.00000000E+00  0.00000000E+00
  0.00000000E+00  0.00000000E+00  0.00000000E+00
  0.00000000E+00  0.00000000E+00  0.00000000E+00
  0.00000000E+00  0.00000000E+00  0.00000000E+00
  0.00000000E+00  0.00000000E+00  0.00000000E+00
  0.00000000E+00  0.00000000E+00  0.00000000E+00
  0.00000000E+00  0.00000000E+00  0.00000000E+00
  0.00000000E+00  0.00000000E+00  0.00000000E+00
  0.00000000E+00  0.00000000E+00  0.00000000E+00
  0.00000000E+00  0.00000000E+00  0.00000000E+00
  0.00000000E+00  0.00000000E+00  0.00000000E+00
