supercell of icsd_191774.cif            
   1.00000000000000     
    10.3443976375382913    0.0357920116219259   -0.0722539292035606
    -5.1412019665679596    8.9048160517739916    0.0000013965693766
    -0.0782002961082163   -0.0451475676452040   11.0563858377770057
   N    In   B 
    36    32     4
Direct
  0.2176025451592807  0.1079718771403222  0.4302935415777398
  0.1370806396415531  0.2352072351552295  0.1380096223546019
  0.9425199263108865  0.1379259670805268  0.9506683518091990
  0.7735104676744129  0.2149910851637102  0.6907901718817016
  0.5483635569961720  0.1062276536635025  0.4298727065009231
  0.4536441549702133  0.2283245769708699  0.1914838646699408
  0.2078551918980054  0.1364659365941208  0.9460596392822680
  0.1044403653890598  0.2188874189793921  0.6711433844055605
  0.8688379799893582  0.1010856415691777  0.4058765733334013
  0.7949426295028275  0.1936646407184099  0.2141015346534161
  0.5417712862326240  0.0710801166564607  0.9633382070982321
  0.4430401662339136  0.2163010785605195  0.6932984837634635
  0.2176027375848832  0.4429655192241952  0.4302935118769469
  0.1015090127005394  0.5485953833985917  0.1875982971173400
  0.8864393921700113  0.4378352264194092  0.9369531989253659
  0.7782187413455688  0.5557754662496990  0.6514589070654964
  0.5982272026621231  0.4657805855219621  0.4590565120027108
  0.4536441409169356  0.5586539958932519  0.1914840369484523
  0.2078550428066990  0.4047224812599808  0.9460595750452399
  0.1131251459395486  0.5576752170836485  0.6953178672808065
  0.8639592206792628  0.4641674635477315  0.4578033337435201
  0.7827825959108452  0.5580575504115046  0.1903479251496876
  0.5606359643583971  0.4469839586538669  0.9307245275326892
  0.4430402831461819  0.5600708747538121  0.6932984043419950
  0.2197364956435024  0.7765353905408929  0.4290555366264073
  0.1015088703382787  0.8862474326053515  0.1875982813382109
  0.8864384778143233  0.7819358243308940  0.9369531555698103
  0.7735097997734215  0.8918511755793332  0.6907897901497648
  0.5483627434688287  0.7754701335974943  0.4298726358876834
  0.4400609061541161  0.8866976252483596  0.1510180842439866
  0.2680418590028495  0.8006878399986661  0.9571117151771062
  0.1131246464675613  0.8887845167314765  0.6953177460599989
  0.8639591849245534  0.7331250941573515  0.4578034126801569
  0.7949426609142378  0.9346110556556297  0.2141018264856527
  0.5417710605581405  0.8040238304415084  0.9633383540618041
  0.4448918821739269  0.8891120371312127  0.6881361159153272
  0.2179312721678599  0.1170750833448366  0.2349409446747686
  0.0968690025806680  0.2151020791889806  0.4814639294403662
  0.8980881538115071  0.1157096912042093  0.7594915169514280
  0.7944732928634437  0.2141589670131765  0.0139838724339043
  0.5541314215540325  0.1019358286535237  0.2374313086278548
  0.4469924096272635  0.2246562871479583  0.4985354874127879
  0.2185637924613673  0.1173138304421570  0.7523098097054515
  0.7687852054631534  0.2242051904710110  0.4973444555467452
  0.5550190837413709  0.1045600281282475  0.7661579282670914
  0.4409578772591161  0.2212389038782163  0.9989522995581055
  0.2179310857152430  0.4341903678970525  0.2349407951407585
  0.1042304718109435  0.5573561262645015  0.5003687821562650
  0.8841410318590022  0.4445092973479063  0.7404630842748787
  0.7814437050060548  0.5573874496832190  0.0009875709363953
  0.5670115474658672  0.4501731608101380  0.2627484126028179
  0.4469927596352008  0.5556702725122449  0.4985353419670417
  0.2185637119195292  0.4345847924168496  0.7523098907216195
  0.1180304515756205  0.5501445205616164  0.9956951873236974
  0.8865866110980676  0.4399030884164574  0.2637040513004436
  0.5629736240103753  0.4481527096801301  0.7370747355092320
  0.4409576206026173  0.5530503369810091  0.9989525854409322
  0.2234688178555260  0.7784014802820352  0.2349958047451608
  0.1042308175547504  0.8802088598773636  0.5003686658621973
  0.8841405063250320  0.7729637689166111  0.7404629702189069
  0.7944726342586321  0.9136459392255176  0.0139842470884801
  0.5541314627077583  0.7855303417619339  0.2374315600209798
  0.4402878374279311  0.8868114531098854  0.4995569943259568
  0.2318926483150463  0.7826141006685248  0.7621054611108136
  0.1180294991988617  0.9012188275267192  0.9956948909591148
  0.8865868238416823  0.7800159218147869  0.2637041430042899
  0.7687842237976383  0.8779125609235834  0.4973442841671272
  0.5550188268936367  0.7837908188090381  0.7661580915502384
  0.1293098809232944  0.2313215264905892  0.0025074496208930
  0.8296946865356034  0.0815139148930513  0.2733714604680983
  0.7746825172955099  0.5540079199990586  0.5059619218944391
  0.4475977073877289  0.8904656469698367  0.0073312324141241
 
  0.00000000E+00  0.00000000E+00  0.00000000E+00
  0.00000000E+00  0.00000000E+00  0.00000000E+00
  0.00000000E+00  0.00000000E+00  0.00000000E+00
  0.00000000E+00  0.00000000E+00  0.00000000E+00
  0.00000000E+00  0.00000000E+00  0.00000000E+00
  0.00000000E+00  0.00000000E+00  0.00000000E+00
  0.00000000E+00  0.00000000E+00  0.00000000E+00
  0.00000000E+00  0.00000000E+00  0.00000000E+00
  0.00000000E+00  0.00000000E+00  0.00000000E+00
  0.00000000E+00  0.00000000E+00  0.00000000E+00
  0.00000000E+00  0.00000000E+00  0.00000000E+00
  0.00000000E+00  0.00000000E+00  0.00000000E+00
  0.00000000E+00  0.00000000E+00  0.00000000E+00
  0.00000000E+00  0.00000000E+00  0.00000000E+00
  0.00000000E+00  0.00000000E+00  0.00000000E+00
  0.00000000E+00  0.00000000E+00  0.00000000E+00
  0.00000000E+00  0.00000000E+00  0.00000000E+00
  0.00000000E+00  0.00000000E+00  0.00000000E+00
  0.00000000E+00  0.00000000E+00  0.00000000E+00
  0.00000000E+00  0.00000000E+00  0.00000000E+00
  0.00000000E+00  0.00000000E+00  0.00000000E+00
  0.00000000E+00  0.00000000E+00  0.00000000E+00
  0.00000000E+00  0.00000000E+00  0.00000000E+00
  0.00000000E+00  0.00000000E+00  0.00000000E+00
  0.00000000E+00  0.00000000E+00  0.00000000E+00
  0.00000000E+00  0.00000000E+00  0.00000000E+00
  0.00000000E+00  0.00000000E+00  0.00000000E+00
  0.00000000E+00  0.00000000E+00  0.00000000E+00
  0.00000000E+00  0.00000000E+00  0.00000000E+00
  0.00000000E+00  0.00000000E+00  0.00000000E+00
  0.00000000E+00  0.00000000E+00  0.00000000E+00
  0.00000000E+00  0.00000000E+00  0.00000000E+00
  0.00000000E+00  0.00000000E+00  0.00000000E+00
  0.00000000E+00  0.00000000E+00  0.00000000E+00
  0.00000000E+00  0.00000000E+00  0.00000000E+00
  0.00000000E+00  0.00000000E+00  0.00000000E+00
  0.00000000E+00  0.00000000E+00  0.00000000E+00
  0.00000000E+00  0.00000000E+00  0.00000000E+00
  0.00000000E+00  0.00000000E+00  0.00000000E+00
  0.00000000E+00  0.00000000E+00  0.00000000E+00
  0.00000000E+00  0.00000000E+00  0.00000000E+00
  0.00000000E+00  0.00000000E+00  0.00000000E+00
  0.00000000E+00  0.00000000E+00  0.00000000E+00
  0.00000000E+00  0.00000000E+00  0.00000000E+00
  0.00000000E+00  0.00000000E+00  0.00000000E+00
  0.00000000E+00  0.00000000E+00  0.00000000E+00
  0.00000000E+00  0.00000000E+00  0.00000000E+00
  0.00000000E+00  0.00000000E+00  0.00000000E+00
  0.00000000E+00  0.00000000E+00  0.00000000E+00
  0.00000000E+00  0.00000000E+00  0.00000000E+00
  0.00000000E+00  0.00000000E+00  0.00000000E+00
  0.00000000E+00  0.00000000E+00  0.00000000E+00
  0.00000000E+00  0.00000000E+00  0.00000000E+00
  0.00000000E+00  0.00000000E+00  0.00000000E+00
  0.00000000E+00  0.00000000E+00  0.00000000E+00
  0.00000000E+00  0.00000000E+00  0.00000000E+00
  0.00000000E+00  0.00000000E+00  0.00000000E+00
  0.00000000E+00  0.00000000E+00  0.00000000E+00
  0.00000000E+00  0.00000000E+00  0.00000000E+00
  0.00000000E+00  0.00000000E+00  0.00000000E+00
  0.00000000E+00  0.00000000E+00  0.00000000E+00
  0.00000000E+00  0.00000000E+00  0.00000000E+00
  0.00000000E+00  0.00000000E+00  0.00000000E+00
  0.00000000E+00  0.00000000E+00  0.00000000E+00
  0.00000000E+00  0.00000000E+00  0.00000000E+00
  0.00000000E+00  0.00000000E+00  0.00000000E+00
  0.00000000E+00  0.00000000E+00  0.00000000E+00
  0.00000000E+00  0.00000000E+00  0.00000000E+00
  0.00000000E+00  0.00000000E+00  0.00000000E+00
  0.00000000E+00  0.00000000E+00  0.00000000E+00
  0.00000000E+00  0.00000000E+00  0.00000000E+00
  0.00000000E+00  0.00000000E+00  0.00000000E+00
