supercell of icsd_191774.cif            
   1.00000000000000     
    10.6150529953438575    0.0075943012583202   -0.0047621086923033
    -5.3009527887320571    9.1986455125682891    0.0039199410486130
    -0.0051865146813521    0.0019186466220699   11.1996969008031879
   N    In   Sc
    36    28     8
Direct
  0.2223065240416986  0.1105949630170286  0.4415672300825975
  0.1108870061279887  0.2220406271879867  0.1905699929744316
  0.8864663578701482  0.1065739309835152  0.9437875983063648
  0.7793607841715229  0.2254777112623501  0.6936477233624387
  0.5528987415153850  0.1070095783790919  0.4443001782016722
  0.4446918628305738  0.2223174879639060  0.1894527897183949
  0.2199675772375258  0.1061120548151209  0.9358634083965143
  0.1127639482488050  0.2201542384538939  0.6939358231729642
  0.8883473894240623  0.1106493875035923  0.4403452070613767
  0.7771198832301920  0.2223208638232350  0.1907205619640138
  0.5549273231366172  0.1097078152038407  0.9405682680120222
  0.4422951995008262  0.2242304386913290  0.6958029335723879
  0.2221796291664049  0.4447348468769263  0.4418298173520085
  0.1109674085228534  0.5559758459553805  0.1908084979498526
  0.8890825205025195  0.4441627441067695  0.9342548448490433
  0.7780323869797172  0.5554003944601575  0.6977133069374659
  0.5560664526017902  0.4446068575277664  0.4421769100542576
  0.4464914539108804  0.5595885496965707  0.1931054077141994
  0.2227395509311094  0.4441146592552414  0.9417194491303675
  0.1077418042285458  0.5549123218394953  0.6939545431844465
  0.8886136294973994  0.4448119826470318  0.4422465662670803
  0.7776502572722208  0.5559754680756086  0.1870171967460763
  0.5552629767860680  0.4444415247683295  0.9341256600421133
  0.4476288301904461  0.5542429239465037  0.6922716996061524
  0.2259826592789125  0.7805708080777691  0.4434662066433859
  0.1109523028789283  0.8890268312629672  0.1829804989232855
  0.8918716000087343  0.7828712876065609  0.9368974498720775
  0.7793788496711969  0.8854177328708630  0.6931763490339691
  0.5536173999826985  0.7805996452219901  0.4354683608551042
  0.4464695096719709  0.8860623802239402  0.1953923799379922
  0.2205692432542676  0.7799007622287704  0.9431671790751608
  0.1087902725454200  0.8915717219236754  0.6970791003355288
  0.8890136106607471  0.7778029396008037  0.4404296464781297
  0.7731760553471929  0.8862956391259544  0.1852186692808147
  0.5606114314948272  0.7800898956309013  0.9440017979350230
  0.4442168284264554  0.8880690699055620  0.6848665083508507
  0.2218800972842132  0.1097160128985664  0.2484286509448310
  0.1104715216145777  0.2221220484088349  0.5002829250468750
  0.8885130011919173  0.1102912709269930  0.7501790607879855
  0.7780548137005283  0.2230022067090545  0.9981290834982062
  0.5551322103821192  0.1109189395190384  0.2502520994321387
  0.4447502154687939  0.2221359096730851  0.5018771047290755
  0.1114997904851052  0.2206194335587952  0.9977736176355236
  0.8875605271622149  0.1088161429058516  0.2472492809294096
  0.7769315006239665  0.2216356188149007  0.5002170985509551
  0.5545315324040487  0.1101945760252576  0.7478562981335699
  0.4432984890036096  0.2221207461863699  0.9962140346008113
  0.2226086677043710  0.4444381484959266  0.2490626966436054
  0.1116432460913543  0.5570051070096440  0.5005360434152593
  0.7789638362311919  0.5578633120334331  0.9937165300741668
  0.5560240600387090  0.4446512177657524  0.2487902153363208
  0.4457548107633755  0.5585887097159201  0.4987472806824940
  0.2231472637717076  0.4451490393328044  0.7488665987018805
  0.1107057104920202  0.5558202140978779  0.9982393424855900
  0.8883231581431801  0.4449580086379754  0.2491100192358218
  0.7780519145279214  0.5561547642585936  0.5031660154963120
  0.4455643907997171  0.5556649190849257  0.9995400485524186
  0.2211522561681107  0.7786020436295544  0.2492816696214248
  0.1109088833668181  0.8884657715395861  0.5022126143722900
  0.2228218271807094  0.7789642487540434  0.7496718512309570
  0.8890951997314644  0.7788056244776911  0.2461844457369722
  0.7753018258173228  0.8877975520320547  0.4991102357123438
  0.5550759500057438  0.7775996808575698  0.7500006745287351
  0.4440686142291312  0.8880051180364177  0.0012634984998954
  0.2226590560339758  0.1117265232614173  0.7477110389860897
  0.8888561113413616  0.4444027437847424  0.7478037834948665
  0.5562587219523891  0.4441342249323768  0.7472923336021964
  0.8889679652562279  0.7765868386164527  0.7483751480628911
  0.7795660976866117  0.8890209316249695  0.9963598333121837
  0.5571755536124101  0.7776975734580489  0.2460826513433290
  0.4447017267776161  0.8881746863582194  0.4958238501666017
  0.1108401918088404  0.8897141624568263  0.9944625650363932
 
  0.00000000E+00  0.00000000E+00  0.00000000E+00
  0.00000000E+00  0.00000000E+00  0.00000000E+00
  0.00000000E+00  0.00000000E+00  0.00000000E+00
  0.00000000E+00  0.00000000E+00  0.00000000E+00
  0.00000000E+00  0.00000000E+00  0.00000000E+00
  0.00000000E+00  0.00000000E+00  0.00000000E+00
  0.00000000E+00  0.00000000E+00  0.00000000E+00
  0.00000000E+00  0.00000000E+00  0.00000000E+00
  0.00000000E+00  0.00000000E+00  0.00000000E+00
  0.00000000E+00  0.00000000E+00  0.00000000E+00
  0.00000000E+00  0.00000000E+00  0.00000000E+00
  0.00000000E+00  0.00000000E+00  0.00000000E+00
  0.00000000E+00  0.00000000E+00  0.00000000E+00
  0.00000000E+00  0.00000000E+00  0.00000000E+00
  0.00000000E+00  0.00000000E+00  0.00000000E+00
  0.00000000E+00  0.00000000E+00  0.00000000E+00
  0.00000000E+00  0.00000000E+00  0.00000000E+00
  0.00000000E+00  0.00000000E+00  0.00000000E+00
  0.00000000E+00  0.00000000E+00  0.00000000E+00
  0.00000000E+00  0.00000000E+00  0.00000000E+00
  0.00000000E+00  0.00000000E+00  0.00000000E+00
  0.00000000E+00  0.00000000E+00  0.00000000E+00
  0.00000000E+00  0.00000000E+00  0.00000000E+00
  0.00000000E+00  0.00000000E+00  0.00000000E+00
  0.00000000E+00  0.00000000E+00  0.00000000E+00
  0.00000000E+00  0.00000000E+00  0.00000000E+00
  0.00000000E+00  0.00000000E+00  0.00000000E+00
  0.00000000E+00  0.00000000E+00  0.00000000E+00
  0.00000000E+00  0.00000000E+00  0.00000000E+00
  0.00000000E+00  0.00000000E+00  0.00000000E+00
  0.00000000E+00  0.00000000E+00  0.00000000E+00
  0.00000000E+00  0.00000000E+00  0.00000000E+00
  0.00000000E+00  0.00000000E+00  0.00000000E+00
  0.00000000E+00  0.00000000E+00  0.00000000E+00
  0.00000000E+00  0.00000000E+00  0.00000000E+00
  0.00000000E+00  0.00000000E+00  0.00000000E+00
  0.00000000E+00  0.00000000E+00  0.00000000E+00
  0.00000000E+00  0.00000000E+00  0.00000000E+00
  0.00000000E+00  0.00000000E+00  0.00000000E+00
  0.00000000E+00  0.00000000E+00  0.00000000E+00
  0.00000000E+00  0.00000000E+00  0.00000000E+00
  0.00000000E+00  0.00000000E+00  0.00000000E+00
  0.00000000E+00  0.00000000E+00  0.00000000E+00
  0.00000000E+00  0.00000000E+00  0.00000000E+00
  0.00000000E+00  0.00000000E+00  0.00000000E+00
  0.00000000E+00  0.00000000E+00  0.00000000E+00
  0.00000000E+00  0.00000000E+00  0.00000000E+00
  0.00000000E+00  0.00000000E+00  0.00000000E+00
  0.00000000E+00  0.00000000E+00  0.00000000E+00
  0.00000000E+00  0.00000000E+00  0.00000000E+00
  0.00000000E+00  0.00000000E+00  0.00000000E+00
  0.00000000E+00  0.00000000E+00  0.00000000E+00
  0.00000000E+00  0.00000000E+00  0.00000000E+00
  0.00000000E+00  0.00000000E+00  0.00000000E+00
  0.00000000E+00  0.00000000E+00  0.00000000E+00
  0.00000000E+00  0.00000000E+00  0.00000000E+00
  0.00000000E+00  0.00000000E+00  0.00000000E+00
  0.00000000E+00  0.00000000E+00  0.00000000E+00
  0.00000000E+00  0.00000000E+00  0.00000000E+00
  0.00000000E+00  0.00000000E+00  0.00000000E+00
  0.00000000E+00  0.00000000E+00  0.00000000E+00
  0.00000000E+00  0.00000000E+00  0.00000000E+00
  0.00000000E+00  0.00000000E+00  0.00000000E+00
  0.00000000E+00  0.00000000E+00  0.00000000E+00
  0.00000000E+00  0.00000000E+00  0.00000000E+00
  0.00000000E+00  0.00000000E+00  0.00000000E+00
  0.00000000E+00  0.00000000E+00  0.00000000E+00
  0.00000000E+00  0.00000000E+00  0.00000000E+00
  0.00000000E+00  0.00000000E+00  0.00000000E+00
  0.00000000E+00  0.00000000E+00  0.00000000E+00
  0.00000000E+00  0.00000000E+00  0.00000000E+00
  0.00000000E+00  0.00000000E+00  0.00000000E+00
