generated by phonopy                    
   1.00000000000000     
    10.0351470768999995   -0.0000022330999784   -0.0000001056124209
    -5.0175765436399997    8.6906901959899994    0.0000001395531216
    -0.0000001735893656    0.0000001431815548   14.9533752540999991
   Pb   P    O    S 
    20    12    49     1
Direct
  0.0002501955313932  0.7520300014064247  0.1211098992541650
  0.9972048896669961  0.7723652338807341  0.6322087926021354
  0.0049214944282170  0.2454531688421042  0.3779404354598341
  0.0004709272738452  0.2481329959818410  0.8835914906657010
  0.2485178100144907  0.2484605677310512  0.1211200109723194
  0.2276225763294093  0.2248161029392861  0.6322618381682048
  0.7544448521506553  0.7593525153628491  0.3777869839907950
  0.7518138431142987  0.7522402592041360  0.8836061725349751
  0.7513894650423296  0.9996631231652984  0.1211760748957147
  0.7752908380164527  0.0029594022608279  0.6322435135662587
  0.2408110859474704  0.9953292648095129  0.3778349138508119
  0.2478290080650396  0.9995987011351204  0.8836597883448789
  0.6664418649326507  0.3332573625454245  0.9984391165402329
  0.6666427755802928  0.3333226331728127  0.5013202764197970
  0.3334647664522024  0.6666911128272091  0.0004559738413832
  0.3334635681427898  0.6665871770083598  0.5025099106801107
  0.3334365245958679  0.6667563015057638  0.2486664557616436
  0.3332865052289549  0.6666433799954135  0.7452621700671003
  0.6665162162521199  0.3331819457870893  0.2564071557537346
  0.6667679531107424  0.3332854441680198  0.7465259311313091
  0.6230927329047447  0.5964112236460224  0.1238053091340205
  0.6296705911836682  0.5982747276798008  0.6242197439313486
  0.3676522751026354  0.4004724477187480  0.3725260260437651
  0.3752031490884562  0.4019090518890280  0.8777649801437590
  0.4035247251261964  0.0266636351261127  0.1237949035547956
  0.4017042958637091  0.0313523392857959  0.6241588986741107
  0.5995635863746358  0.9671938775383495  0.3725982796846807
  0.5981367290615225  0.9733035720088949  0.8777675547844979
  0.9732221979408067  0.3768988545177123  0.1238265276142769
  0.9687405255784540  0.3703859784380725  0.6242006197021723
  0.0328006416605362  0.6323095539649444  0.3725576540626179
  0.0268036480318727  0.6247776981135615  0.8777449459239719
  0.5122605192686578  0.6630065809180152  0.1210723433359178
  0.5072880694333364  0.6504346064120909  0.6257996739375642
  0.4734014658230521  0.3282762214223851  0.3729113011544243
  0.4820210011571504  0.3309517152915404  0.8809759505366159
  0.3369629056067325  0.8491549367111020  0.1210421796413357
  0.3496589528561032  0.8568655370828466  0.6257490827311827
  0.6717216074248640  0.1450906150091456  0.3729971719476239
  0.6691610041464955  0.1510757942316019  0.8810292581046539
  0.1507840788790702  0.4877891931029339  0.1210692525266026
  0.1431994414804478  0.4927037095859035  0.6258037127868121
  0.8548634377830311  0.5264615575572194  0.3728867912737499
  0.8489364882533437  0.5179794070002686  0.8809744330324563
  0.7110224597992385  0.6213556561478484  0.0331852745377859
  0.7370075989916245  0.6633861365177509  0.5401471568727700
  0.2575693265374426  0.3471497240563792  0.4557208088447169
  0.2835817571800234  0.3763643579860272  0.9673236749721994
  0.3784278004286321  0.0896337493385388  0.0331413774878655
  0.3365527392253256  0.0736380982909068  0.5401656323151158
  0.6530040052254336  0.9103404311596606  0.4556943059453928
  0.6234312473957146  0.9069533227456716  0.9673275462931841
  0.9102834973344329  0.2885932422254811  0.0332282932384942
  0.9264432030495868  0.2628700280654215  0.5402077264318734
  0.0895669693145251  0.7427281891439534  0.4556014461538851
  0.0929775711358047  0.7166317578803572  0.9672703222517498
  0.2619044550418010  0.3533979619626848  0.2875246220822376
  0.2536207116912053  0.3260620243852443  0.8013103313710346
  0.7462831212207703  0.6758649252484972  0.1990571943293418
  0.7367965514599035  0.6559499437247709  0.7086657273633392
  0.6465137818720947  0.9083984473872846  0.2875500889341822
  0.6739577782970869  0.9275624912981186  0.8013575109629585
  0.3241128118177414  0.0705670700873426  0.1988833488815729
  0.3441063418649861  0.0808891404339960  0.7086324090286382
  0.0916582439311711  0.7381612843285055  0.2875192627511751
  0.0725967707148598  0.7463072384676011  0.8012519556395929
  0.9291490160196219  0.2535493804493143  0.1990263706631055
  0.9191040223166240  0.2632059731496170  0.7086543888220973
  0.5297956809758944  0.4174206426011935  0.1408531491405043
  0.5480415603395059  0.4174511452614453  0.6225000429259850
  0.4673823965291177  0.5819763877087709  0.3745178862003158
  0.4717671339215670  0.5809496957056339  0.8621838684973113
  0.5824506767121136  0.1121110038605480  0.1408485134179998
  0.5825663653212700  0.1305275542025797  0.6224268832070763
  0.4180690212257758  0.8854082400327314  0.3745889729645313
  0.4190715411049766  0.8909775564245450  0.8622476867377458
  0.8879541764152705  0.4704580902433477  0.1408237162361488
  0.8694438245946543  0.4519397000269834  0.6224200723179223
  0.1144967834793960  0.5325750191229588  0.3746893940982332
  0.1091385124798805  0.5281574630852504  0.8622891537344799
  0.0000320799158260  0.0000306129174135  0.6427536622278751
  0.0000884765926088  0.0001210528200630  0.0029298229958528
 
  0.00000000E+00  0.00000000E+00  0.00000000E+00
  0.00000000E+00  0.00000000E+00  0.00000000E+00
  0.00000000E+00  0.00000000E+00  0.00000000E+00
  0.00000000E+00  0.00000000E+00  0.00000000E+00
  0.00000000E+00  0.00000000E+00  0.00000000E+00
  0.00000000E+00  0.00000000E+00  0.00000000E+00
  0.00000000E+00  0.00000000E+00  0.00000000E+00
  0.00000000E+00  0.00000000E+00  0.00000000E+00
  0.00000000E+00  0.00000000E+00  0.00000000E+00
  0.00000000E+00  0.00000000E+00  0.00000000E+00
  0.00000000E+00  0.00000000E+00  0.00000000E+00
  0.00000000E+00  0.00000000E+00  0.00000000E+00
  0.00000000E+00  0.00000000E+00  0.00000000E+00
  0.00000000E+00  0.00000000E+00  0.00000000E+00
  0.00000000E+00  0.00000000E+00  0.00000000E+00
  0.00000000E+00  0.00000000E+00  0.00000000E+00
  0.00000000E+00  0.00000000E+00  0.00000000E+00
  0.00000000E+00  0.00000000E+00  0.00000000E+00
  0.00000000E+00  0.00000000E+00  0.00000000E+00
  0.00000000E+00  0.00000000E+00  0.00000000E+00
  0.00000000E+00  0.00000000E+00  0.00000000E+00
  0.00000000E+00  0.00000000E+00  0.00000000E+00
  0.00000000E+00  0.00000000E+00  0.00000000E+00
  0.00000000E+00  0.00000000E+00  0.00000000E+00
  0.00000000E+00  0.00000000E+00  0.00000000E+00
  0.00000000E+00  0.00000000E+00  0.00000000E+00
  0.00000000E+00  0.00000000E+00  0.00000000E+00
  0.00000000E+00  0.00000000E+00  0.00000000E+00
  0.00000000E+00  0.00000000E+00  0.00000000E+00
  0.00000000E+00  0.00000000E+00  0.00000000E+00
  0.00000000E+00  0.00000000E+00  0.00000000E+00
  0.00000000E+00  0.00000000E+00  0.00000000E+00
  0.00000000E+00  0.00000000E+00  0.00000000E+00
  0.00000000E+00  0.00000000E+00  0.00000000E+00
  0.00000000E+00  0.00000000E+00  0.00000000E+00
  0.00000000E+00  0.00000000E+00  0.00000000E+00
  0.00000000E+00  0.00000000E+00  0.00000000E+00
  0.00000000E+00  0.00000000E+00  0.00000000E+00
  0.00000000E+00  0.00000000E+00  0.00000000E+00
  0.00000000E+00  0.00000000E+00  0.00000000E+00
  0.00000000E+00  0.00000000E+00  0.00000000E+00
  0.00000000E+00  0.00000000E+00  0.00000000E+00
  0.00000000E+00  0.00000000E+00  0.00000000E+00
  0.00000000E+00  0.00000000E+00  0.00000000E+00
  0.00000000E+00  0.00000000E+00  0.00000000E+00
  0.00000000E+00  0.00000000E+00  0.00000000E+00
  0.00000000E+00  0.00000000E+00  0.00000000E+00
  0.00000000E+00  0.00000000E+00  0.00000000E+00
  0.00000000E+00  0.00000000E+00  0.00000000E+00
  0.00000000E+00  0.00000000E+00  0.00000000E+00
  0.00000000E+00  0.00000000E+00  0.00000000E+00
  0.00000000E+00  0.00000000E+00  0.00000000E+00
  0.00000000E+00  0.00000000E+00  0.00000000E+00
  0.00000000E+00  0.00000000E+00  0.00000000E+00
  0.00000000E+00  0.00000000E+00  0.00000000E+00
  0.00000000E+00  0.00000000E+00  0.00000000E+00
  0.00000000E+00  0.00000000E+00  0.00000000E+00
  0.00000000E+00  0.00000000E+00  0.00000000E+00
  0.00000000E+00  0.00000000E+00  0.00000000E+00
  0.00000000E+00  0.00000000E+00  0.00000000E+00
  0.00000000E+00  0.00000000E+00  0.00000000E+00
  0.00000000E+00  0.00000000E+00  0.00000000E+00
  0.00000000E+00  0.00000000E+00  0.00000000E+00
  0.00000000E+00  0.00000000E+00  0.00000000E+00
  0.00000000E+00  0.00000000E+00  0.00000000E+00
  0.00000000E+00  0.00000000E+00  0.00000000E+00
  0.00000000E+00  0.00000000E+00  0.00000000E+00
  0.00000000E+00  0.00000000E+00  0.00000000E+00
  0.00000000E+00  0.00000000E+00  0.00000000E+00
  0.00000000E+00  0.00000000E+00  0.00000000E+00
  0.00000000E+00  0.00000000E+00  0.00000000E+00
  0.00000000E+00  0.00000000E+00  0.00000000E+00
  0.00000000E+00  0.00000000E+00  0.00000000E+00
  0.00000000E+00  0.00000000E+00  0.00000000E+00
  0.00000000E+00  0.00000000E+00  0.00000000E+00
  0.00000000E+00  0.00000000E+00  0.00000000E+00
  0.00000000E+00  0.00000000E+00  0.00000000E+00
  0.00000000E+00  0.00000000E+00  0.00000000E+00
  0.00000000E+00  0.00000000E+00  0.00000000E+00
  0.00000000E+00  0.00000000E+00  0.00000000E+00
  0.00000000E+00  0.00000000E+00  0.00000000E+00
  0.00000000E+00  0.00000000E+00  0.00000000E+00
