generated by phonopy                    
   1.00000000000000     
    10.0351470768999995   -0.0000022330999784   -0.0000001056124209
    -5.0175765436399997    8.6906901959899994    0.0000001395531216
    -0.0000001735893656    0.0000001431815548   14.9533752540999991
   Pb   P    O 
    20    13    49
Direct
  0.9952189107398226  0.7704297314937349  0.1226231544769192
  0.9965629139066507  0.7688287852170461  0.6360780273707931
  0.9765939114517082  0.2550937090156111  0.3599968964572611
  0.9969503645730740  0.2573200782372069  0.8762870223884178
  0.2232550664115678  0.2202382404688734  0.1196373391365952
  0.2541594775994511  0.2244392396192794  0.6421293810964599
  0.7388936033007525  0.7405594910336717  0.3739781288196582
  0.7363503946826100  0.7397376008780583  0.8753840298755620
  0.7697721547685958  0.9977760297583842  0.1204193773397009
  0.7858747666982140  0.0194867778084813  0.6346657071502193
  0.2572139960042037  0.9958556369550422  0.3660024761797089
  0.2552505088329866  0.9942871760622154  0.8814989446697865
  0.6665112653599721  0.3369259927928567  0.0009093218230305
  0.6802666957560675  0.3421929581883987  0.5011651969081754
  0.3340419496627689  0.6674052478454584  0.0008120538618641
  0.3358537663818737  0.6952553942990392  0.5032580186702660
  0.3349154419057641  0.6691367196386864  0.2400597540956468
  0.3355475855792776  0.6657982537890206  0.7442083995404900
  0.6702665778455597  0.3367316133513825  0.2432619322878011
  0.6726010068144532  0.3290986847465334  0.7519442215074008
  0.6229682800581529  0.5941176984264800  0.1231034873853289
  0.6176063981714179  0.5946803365362499  0.6235427168465293
  0.3814393379213072  0.3892520171342397  0.3726838387648996
  0.3697616652149875  0.3880357052485834  0.8669568066866304
  0.4027275854738903  0.0268365449551311  0.1230469763946473
  0.4137513702947544  0.0327809206660490  0.6226475762485606
  0.6053340931906845  0.9730301127633183  0.3732848017208994
  0.6043011263336595  0.9731350916354984  0.8735857001772445
  0.9736733084344209  0.3765168161650934  0.1199237817808410
  0.9695304594701994  0.3871889514798923  0.6270774752879333
  0.0282516760097593  0.6306330439301888  0.3724540679598363
  0.0259157966533365  0.6293354836744314  0.8709746520060051
  0.2351867798397507  0.3545605732229049  0.4901598033712631
  0.5017081990245558  0.6482318411165409  0.1217907545014967
  0.4966714279033511  0.6486468264875214  0.6232580997916415
  0.4839276820915330  0.3152274019434955  0.3733393664795557
  0.4716616661606139  0.3126641522851443  0.8707138904638043
  0.3526082738154841  0.8522926916876798  0.1209923709013125
  0.3456324386064438  0.8547118914974661  0.6271857403627976
  0.6827755559766899  0.1522389864179274  0.3755523786747830
  0.6843028234975606  0.1515620765786707  0.8778803837257456
  0.1489012185794039  0.4970060319285636  0.1213849739219057
  0.1457654268653528  0.5018005778454295  0.6279838001650333
  0.8496574499845337  0.5311901006463700  0.3775916000926358
  0.8474397644839868  0.5293148628267232  0.8732910609073130
  0.7254162687213181  0.6479271263570681  0.0364507293287843
  0.7098429908592152  0.6325958514534378  0.5340849036516602
  0.2540964445620659  0.3373182281132330  0.9465819624693239
  0.3416668863938455  0.0727951528847726  0.0382630606637520
  0.3559379410540799  0.0805092559618430  0.5388249042079565
  0.6347184896911102  0.9042451064543542  0.4599644950582586
  0.6467843925795336  0.9039096307585694  0.9555849429931342
  0.9280129381323619  0.2707507980417034  0.0353019016378298
  0.9156414614548680  0.2821985795170789  0.5418389060489517
  0.1017226660679427  0.7273624979963884  0.4592955243960120
  0.0914103640654176  0.7387702091133050  0.9540926814114670
  0.2490080065674576  0.3172640366913129  0.3028828153735361
  0.2675941034072409  0.3425877298977369  0.7789290545406971
  0.7339501527833079  0.6620887419421564  0.2055044057268631
  0.7370733519538035  0.6731225933919802  0.7016310146801530
  0.6646612975125663  0.9182995453930261  0.2923900754593518
  0.6509473035666247  0.9163315209377458  0.7878565902017129
  0.3336521708091738  0.0664483108065568  0.2062292970568862
  0.3550251639286728  0.0862696744399827  0.7072010433395306
  0.0808137413502479  0.7478524366423045  0.2927347879948812
  0.0843870565539859  0.7359710429366970  0.7863063723552983
  0.9273494315604864  0.2654834431608535  0.2031445251686037
  0.9170573647659523  0.2760978788972324  0.7105204302961354
  0.5413253517929419  0.4135949470312710  0.1276202589502944
  0.5334383035148562  0.4133912832209390  0.6375348376231145
  0.4761303305236879  0.5683753037503436  0.3607849817045974
  0.4720086110098336  0.5692654206700922  0.8681158727732878
  0.5823808014567575  0.1288818662593414  0.1252611759391939
  0.5928555678673249  0.1205352903581556  0.6266314252488598
  0.4242844394486127  0.8996048990524770  0.3637042411712343
  0.4232909928176056  0.8997986750731783  0.8737235774138057
  0.8742243872190656  0.4569631415453230  0.1221129741643168
  0.8781493934922509  0.4768550816769235  0.6301414707520863
  0.0982461258368872  0.5216311493038788  0.3568857874999622
  0.1008443629344313  0.5230866338963480  0.8706649739507526
  0.9970317307997405  0.9984191103098610  0.1137469174367141
  0.0297694104364368  0.0317176166226858  0.6591563098549713
 
  0.00000000E+00  0.00000000E+00  0.00000000E+00
  0.00000000E+00  0.00000000E+00  0.00000000E+00
  0.00000000E+00  0.00000000E+00  0.00000000E+00
  0.00000000E+00  0.00000000E+00  0.00000000E+00
  0.00000000E+00  0.00000000E+00  0.00000000E+00
  0.00000000E+00  0.00000000E+00  0.00000000E+00
  0.00000000E+00  0.00000000E+00  0.00000000E+00
  0.00000000E+00  0.00000000E+00  0.00000000E+00
  0.00000000E+00  0.00000000E+00  0.00000000E+00
  0.00000000E+00  0.00000000E+00  0.00000000E+00
  0.00000000E+00  0.00000000E+00  0.00000000E+00
  0.00000000E+00  0.00000000E+00  0.00000000E+00
  0.00000000E+00  0.00000000E+00  0.00000000E+00
  0.00000000E+00  0.00000000E+00  0.00000000E+00
  0.00000000E+00  0.00000000E+00  0.00000000E+00
  0.00000000E+00  0.00000000E+00  0.00000000E+00
  0.00000000E+00  0.00000000E+00  0.00000000E+00
  0.00000000E+00  0.00000000E+00  0.00000000E+00
  0.00000000E+00  0.00000000E+00  0.00000000E+00
  0.00000000E+00  0.00000000E+00  0.00000000E+00
  0.00000000E+00  0.00000000E+00  0.00000000E+00
  0.00000000E+00  0.00000000E+00  0.00000000E+00
  0.00000000E+00  0.00000000E+00  0.00000000E+00
  0.00000000E+00  0.00000000E+00  0.00000000E+00
  0.00000000E+00  0.00000000E+00  0.00000000E+00
  0.00000000E+00  0.00000000E+00  0.00000000E+00
  0.00000000E+00  0.00000000E+00  0.00000000E+00
  0.00000000E+00  0.00000000E+00  0.00000000E+00
  0.00000000E+00  0.00000000E+00  0.00000000E+00
  0.00000000E+00  0.00000000E+00  0.00000000E+00
  0.00000000E+00  0.00000000E+00  0.00000000E+00
  0.00000000E+00  0.00000000E+00  0.00000000E+00
  0.00000000E+00  0.00000000E+00  0.00000000E+00
  0.00000000E+00  0.00000000E+00  0.00000000E+00
  0.00000000E+00  0.00000000E+00  0.00000000E+00
  0.00000000E+00  0.00000000E+00  0.00000000E+00
  0.00000000E+00  0.00000000E+00  0.00000000E+00
  0.00000000E+00  0.00000000E+00  0.00000000E+00
  0.00000000E+00  0.00000000E+00  0.00000000E+00
  0.00000000E+00  0.00000000E+00  0.00000000E+00
  0.00000000E+00  0.00000000E+00  0.00000000E+00
  0.00000000E+00  0.00000000E+00  0.00000000E+00
  0.00000000E+00  0.00000000E+00  0.00000000E+00
  0.00000000E+00  0.00000000E+00  0.00000000E+00
  0.00000000E+00  0.00000000E+00  0.00000000E+00
  0.00000000E+00  0.00000000E+00  0.00000000E+00
  0.00000000E+00  0.00000000E+00  0.00000000E+00
  0.00000000E+00  0.00000000E+00  0.00000000E+00
  0.00000000E+00  0.00000000E+00  0.00000000E+00
  0.00000000E+00  0.00000000E+00  0.00000000E+00
  0.00000000E+00  0.00000000E+00  0.00000000E+00
  0.00000000E+00  0.00000000E+00  0.00000000E+00
  0.00000000E+00  0.00000000E+00  0.00000000E+00
  0.00000000E+00  0.00000000E+00  0.00000000E+00
  0.00000000E+00  0.00000000E+00  0.00000000E+00
  0.00000000E+00  0.00000000E+00  0.00000000E+00
  0.00000000E+00  0.00000000E+00  0.00000000E+00
  0.00000000E+00  0.00000000E+00  0.00000000E+00
  0.00000000E+00  0.00000000E+00  0.00000000E+00
  0.00000000E+00  0.00000000E+00  0.00000000E+00
  0.00000000E+00  0.00000000E+00  0.00000000E+00
  0.00000000E+00  0.00000000E+00  0.00000000E+00
  0.00000000E+00  0.00000000E+00  0.00000000E+00
  0.00000000E+00  0.00000000E+00  0.00000000E+00
  0.00000000E+00  0.00000000E+00  0.00000000E+00
  0.00000000E+00  0.00000000E+00  0.00000000E+00
  0.00000000E+00  0.00000000E+00  0.00000000E+00
  0.00000000E+00  0.00000000E+00  0.00000000E+00
  0.00000000E+00  0.00000000E+00  0.00000000E+00
  0.00000000E+00  0.00000000E+00  0.00000000E+00
  0.00000000E+00  0.00000000E+00  0.00000000E+00
  0.00000000E+00  0.00000000E+00  0.00000000E+00
  0.00000000E+00  0.00000000E+00  0.00000000E+00
  0.00000000E+00  0.00000000E+00  0.00000000E+00
  0.00000000E+00  0.00000000E+00  0.00000000E+00
  0.00000000E+00  0.00000000E+00  0.00000000E+00
  0.00000000E+00  0.00000000E+00  0.00000000E+00
  0.00000000E+00  0.00000000E+00  0.00000000E+00
  0.00000000E+00  0.00000000E+00  0.00000000E+00
  0.00000000E+00  0.00000000E+00  0.00000000E+00
  0.00000000E+00  0.00000000E+00  0.00000000E+00
  0.00000000E+00  0.00000000E+00  0.00000000E+00
