generated by phonopy                    
   1.00000000000000     
    10.0351470768999995   -0.0000022330999784   -0.0000001056124209
    -5.0175765436399997    8.6906901959899994    0.0000001395531216
    -0.0000001735893656    0.0000001431815548   14.9533752540999991
   Pb   P    O 
    20    11    50
Direct
  0.9824612081540280  0.7508064379886292  0.1242794362112036
  0.9958842224249622  0.7666554581222869  0.6237801593822496
  0.0062667975585171  0.2676666872235529  0.3679924543492845
  0.0059827467412319  0.2665100633019435  0.8788965958670190
  0.2361704083640959  0.2206398328895389  0.1228284532099906
  0.2480231710948431  0.2337640894864279  0.6232927795376284
  0.7318107855137228  0.7417429238314313  0.3834313356101617
  0.7310486044727469  0.7411370970740450  0.8646194790477537
  0.7643295657044007  0.9928715960135506  0.1234196188856558
  0.7777718709411729  0.0179739408118351  0.6238111017727590
  0.2601723940651794  0.9956773740928710  0.3710295254131921
  0.2596148325802261  0.9954534197564300  0.8754286106340246
  0.6636347441509756  0.3293899523255419  0.9991345039106321
  0.6697119888592553  0.3283132271855536  0.4989322512902703
  0.3371408330683039  0.6626380031012715  0.0025105763185422
  0.3270061332732652  0.6661388810794193  0.5033503634562848
  0.3402270288703519  0.6604546765541812  0.2445729649981487
  0.3269297375107882  0.6643423163535687  0.7439831196348337
  0.6641447948039030  0.3300020095766385  0.2484897111107287
  0.6699331917689264  0.3290800929949214  0.7488544014220508
  0.6196861622684366  0.5989697344478415  0.6239103897222691
  0.3692440379540471  0.3931251405664824  0.3770619063545126
  0.3688485499405232  0.3929403617905862  0.8706411652624553
  0.4085271938296700  0.0267535715751777  0.1239093699551148
  0.4048674734219091  0.0274589051790386  0.6240238739368493
  0.6023371152610935  0.9717891119217370  0.3686899381046942
  0.6024325579595029  0.9721730694297221  0.8787904993615356
  0.9760898429111720  0.3757841449708366  0.1237177758493075
  0.9679555169808154  0.3808648818948939  0.6237708588433080
  0.0243198667954303  0.6309161680153750  0.3674864023028874
  0.0244352832745705  0.6307442692937784  0.8802617452407659
  0.5547452316277344  0.6752765245377574  0.1233845768651705
  0.5007597959285661  0.6550359371297461  0.6237841980166436
  0.4757091369546629  0.3220736802527639  0.3749477189918622
  0.4757741025911315  0.3223657575030643  0.8725632188674410
  0.3390416556679625  0.8491091025118109  0.1238637024672755
  0.3394812594179655  0.8499076181983085  0.6237819910544076
  0.6708805061039058  0.1494684792062770  0.3692285066776364
  0.6711737475740733  0.1499144405579500  0.8784005529774674
  0.1528219798500672  0.4916752528287560  0.1237024141764351
  0.1460011377264081  0.4903221309543611  0.6237310803855678
  0.8475386746980149  0.5173791873861617  0.3692245892594883
  0.8474018791279789  0.5185110045702856  0.8789886005964789
  0.7181546952305524  0.6430099689758109  0.0496539028590846
  0.7293526013650720  0.6597779008158895  0.5401998643916244
  0.2624838450290170  0.3453381524419754  0.4615802839779732
  0.2590302060411318  0.3438021692849986  0.9540312939671125
  0.3558411611907957  0.0839624885532189  0.0398013156265051
  0.3491213546548337  0.0795620317476562  0.5395818784772857
  0.6525557252126220  0.9146413670667926  0.4534290377730841
  0.6514585010504135  0.9124827895304506  0.9620659510840639
  0.9251157643877619  0.2682856772766655  0.0395130350843687
  0.9133761283191006  0.2736932219856669  0.5389153994054752
  0.0834402851511982  0.7340508033097493  0.4532222504859149
  0.0790333170643152  0.7418394962380646  0.9631260065374789
  0.2598672986034885  0.3453075775303347  0.2934886424579375
  0.2623323438637968  0.3455797278754247  0.7859759201307384
  0.7179868235737743  0.6423176794949796  0.1981163424494383
  0.7288688694040104  0.6593904782706588  0.7078266560090469
  0.6526466145484733  0.9124889103833667  0.2857812273404789
  0.6537923811335133  0.9154070206453966  0.7944077036844419
  0.3556454684707475  0.0836065282672251  0.2080385040162369
  0.3488506170723440  0.0789689577273265  0.7085775843804356
  0.0757343186445709  0.7436140625489358  0.2854334964252061
  0.0825538689221119  0.7353506501427773  0.7950663863957033
  0.9248567977140496  0.2689571018568913  0.2082047416851580
  0.9135465488372176  0.2731817107910288  0.7084221091354834
  0.5500011662523434  0.4522521839794962  0.1234676579754321
  0.5352150321761115  0.4172205594305609  0.6238314696372882
  0.4699110138279678  0.5760608751216196  0.3761260289603854
  0.4690668907590521  0.5758628452910060  0.8717891543763372
  0.5895745079081252  0.1143672330449022  0.1238934700688219
  0.5861565853815378  0.1187558700404594  0.6240875376764663
  0.4195699798907029  0.8881329289228361  0.3681711958856013
  0.4196951546301548  0.8887645429380129  0.8785600047848732
  0.8833115619699896  0.4657252994801766  0.1234538852147580
  0.8803757877939873  0.4743821565802833  0.6240463700916834
  0.1124090876097981  0.5357231706790770  0.3611185937752879
  0.1114632718478745  0.5342755823150540  0.8843635117954918
  0.0019869903937817  0.9863718954221383  0.1229585326268321
  0.0145058619105143  0.0242513043531787  0.6234471628293505
 
  0.00000000E+00  0.00000000E+00  0.00000000E+00
  0.00000000E+00  0.00000000E+00  0.00000000E+00
  0.00000000E+00  0.00000000E+00  0.00000000E+00
  0.00000000E+00  0.00000000E+00  0.00000000E+00
  0.00000000E+00  0.00000000E+00  0.00000000E+00
  0.00000000E+00  0.00000000E+00  0.00000000E+00
  0.00000000E+00  0.00000000E+00  0.00000000E+00
  0.00000000E+00  0.00000000E+00  0.00000000E+00
  0.00000000E+00  0.00000000E+00  0.00000000E+00
  0.00000000E+00  0.00000000E+00  0.00000000E+00
  0.00000000E+00  0.00000000E+00  0.00000000E+00
  0.00000000E+00  0.00000000E+00  0.00000000E+00
  0.00000000E+00  0.00000000E+00  0.00000000E+00
  0.00000000E+00  0.00000000E+00  0.00000000E+00
  0.00000000E+00  0.00000000E+00  0.00000000E+00
  0.00000000E+00  0.00000000E+00  0.00000000E+00
  0.00000000E+00  0.00000000E+00  0.00000000E+00
  0.00000000E+00  0.00000000E+00  0.00000000E+00
  0.00000000E+00  0.00000000E+00  0.00000000E+00
  0.00000000E+00  0.00000000E+00  0.00000000E+00
  0.00000000E+00  0.00000000E+00  0.00000000E+00
  0.00000000E+00  0.00000000E+00  0.00000000E+00
  0.00000000E+00  0.00000000E+00  0.00000000E+00
  0.00000000E+00  0.00000000E+00  0.00000000E+00
  0.00000000E+00  0.00000000E+00  0.00000000E+00
  0.00000000E+00  0.00000000E+00  0.00000000E+00
  0.00000000E+00  0.00000000E+00  0.00000000E+00
  0.00000000E+00  0.00000000E+00  0.00000000E+00
  0.00000000E+00  0.00000000E+00  0.00000000E+00
  0.00000000E+00  0.00000000E+00  0.00000000E+00
  0.00000000E+00  0.00000000E+00  0.00000000E+00
  0.00000000E+00  0.00000000E+00  0.00000000E+00
  0.00000000E+00  0.00000000E+00  0.00000000E+00
  0.00000000E+00  0.00000000E+00  0.00000000E+00
  0.00000000E+00  0.00000000E+00  0.00000000E+00
  0.00000000E+00  0.00000000E+00  0.00000000E+00
  0.00000000E+00  0.00000000E+00  0.00000000E+00
  0.00000000E+00  0.00000000E+00  0.00000000E+00
  0.00000000E+00  0.00000000E+00  0.00000000E+00
  0.00000000E+00  0.00000000E+00  0.00000000E+00
  0.00000000E+00  0.00000000E+00  0.00000000E+00
  0.00000000E+00  0.00000000E+00  0.00000000E+00
  0.00000000E+00  0.00000000E+00  0.00000000E+00
  0.00000000E+00  0.00000000E+00  0.00000000E+00
  0.00000000E+00  0.00000000E+00  0.00000000E+00
  0.00000000E+00  0.00000000E+00  0.00000000E+00
  0.00000000E+00  0.00000000E+00  0.00000000E+00
  0.00000000E+00  0.00000000E+00  0.00000000E+00
  0.00000000E+00  0.00000000E+00  0.00000000E+00
  0.00000000E+00  0.00000000E+00  0.00000000E+00
  0.00000000E+00  0.00000000E+00  0.00000000E+00
  0.00000000E+00  0.00000000E+00  0.00000000E+00
  0.00000000E+00  0.00000000E+00  0.00000000E+00
  0.00000000E+00  0.00000000E+00  0.00000000E+00
  0.00000000E+00  0.00000000E+00  0.00000000E+00
  0.00000000E+00  0.00000000E+00  0.00000000E+00
  0.00000000E+00  0.00000000E+00  0.00000000E+00
  0.00000000E+00  0.00000000E+00  0.00000000E+00
  0.00000000E+00  0.00000000E+00  0.00000000E+00
  0.00000000E+00  0.00000000E+00  0.00000000E+00
  0.00000000E+00  0.00000000E+00  0.00000000E+00
  0.00000000E+00  0.00000000E+00  0.00000000E+00
  0.00000000E+00  0.00000000E+00  0.00000000E+00
  0.00000000E+00  0.00000000E+00  0.00000000E+00
  0.00000000E+00  0.00000000E+00  0.00000000E+00
  0.00000000E+00  0.00000000E+00  0.00000000E+00
  0.00000000E+00  0.00000000E+00  0.00000000E+00
  0.00000000E+00  0.00000000E+00  0.00000000E+00
  0.00000000E+00  0.00000000E+00  0.00000000E+00
  0.00000000E+00  0.00000000E+00  0.00000000E+00
  0.00000000E+00  0.00000000E+00  0.00000000E+00
  0.00000000E+00  0.00000000E+00  0.00000000E+00
  0.00000000E+00  0.00000000E+00  0.00000000E+00
  0.00000000E+00  0.00000000E+00  0.00000000E+00
  0.00000000E+00  0.00000000E+00  0.00000000E+00
  0.00000000E+00  0.00000000E+00  0.00000000E+00
  0.00000000E+00  0.00000000E+00  0.00000000E+00
  0.00000000E+00  0.00000000E+00  0.00000000E+00
  0.00000000E+00  0.00000000E+00  0.00000000E+00
  0.00000000E+00  0.00000000E+00  0.00000000E+00
  0.00000000E+00  0.00000000E+00  0.00000000E+00
