Mg   Al   Hf   N                        
   1.00000000000000     
    -9.5860304498384927   -0.0000001000984737    0.0000000623942850
    -4.7930146897057080    8.3286256401075942    0.0023116424876755
    -0.0000000663951999   -0.0012965056970652   -9.8717576083069787
   Mg   Al   Hf   N 
     2    32     2    36
Direct
  0.1229131778778703  0.0879496072779530  0.3707456323141864
  0.7724705514980457  0.0879496194513264  0.3707456418325009
  0.2215840482746677  0.2085248490832048  0.1319139491581935
  0.7780158818366695  0.0945832004451542  0.8845550015432472
  0.4369268410334344  0.1094796334074167  0.3753388098487920
  0.5532244812216290  0.2085248453028063  0.1319139554282427
  0.1107342264667725  0.0945831936425232  0.8845550117871441
  0.2212050194453081  0.2108018116969328  0.6355126767550856
  0.8878207472502414  0.2076918973744770  0.1444420333685482
  0.4435477202237212  0.0962378685410893  0.8863702665451004
  0.5513264901871423  0.2108018384319264  0.6355126723377358
  0.1120986585204907  0.4274263877496557  0.3802277105835338
  0.2220472974552295  0.5392387606381995  0.1350232083306847
  0.7778720682846028  0.4275891670808588  0.8850052090374103
  0.8938570384653772  0.5395571658580590  0.6348477980435260
  0.4438082895946198  0.4274263632816160  0.3802276988564197
  0.5550220165781331  0.5381700431279962  0.1309688132107100
  0.1118719740349048  0.4289826789167658  0.8832139052877775
  0.2225871201067028  0.5381591131690023  0.6304038154520671
  0.7722799316790585  0.4387734882633554  0.3760899473555018
  0.8901412864570836  0.5381700701354729  0.1309688072262125
  0.4424786695604527  0.4289826606368937  0.8832139121912349
  0.5499191332996965  0.5395571401394149  0.6348477952408975
  0.1130219020208271  0.7572895170064712  0.3808805097421958
  0.2217028041702909  0.8690651497182479  0.1312953353625513
  0.7787451935370308  0.7604628247862300  0.8865984157458896
  0.8945971052057935  0.8668243733446814  0.6358008486692035
  0.4389748908347180  0.7549600587690778  0.3754048088990067
  0.5551091951449187  0.8731149639835127  0.1379626231144442
  0.1125848493062768  0.7581635980121817  0.8826642844447739
  0.2219118561848732  0.8668243879662746  0.6358008468379066
  0.7893983746130447  0.7549600843485824  0.3754048005491427
  0.8925653788175424  0.8690651810346482  0.1312953313935881
  0.4441252812775381  0.7604628079038661  0.8865984179144921
  0.8890289832548551  0.2052753874123049  0.6057557990164618
  0.5548270448680771  0.8736792559381867  0.6129690629402015
  0.2261599336365344  0.2165705605455926  0.3198166857478590
  0.1096009696758261  0.0947302347918306  0.0802339306146617
  0.8880634571717603  0.2072064212448020  0.8259838462586863
  0.7673463295591831  0.0816490054003741  0.5850473052617940
  0.5406028711504095  0.2165705256635298  0.3198166909105576
  0.4458421964236534  0.0916489563844043  0.0777381783058628
  0.2226268727793236  0.2066450294807916  0.8298481942022647
  0.1343380104919921  0.0816489913983776  0.5850472992143498
  0.8814111158241860  0.2205111323748044  0.3411386117428962
  0.7790021328001627  0.0947302474105926  0.0802339231326596
  0.5540614245344891  0.2066450316855707  0.8298481858773945
  0.4334398354893367  0.1164536593423301  0.5720121095019345
  0.2225789519638243  0.5381754399193325  0.3289499958031553
  0.1107540259946722  0.4299962494182851  0.0747687607757910
  0.8884106908503122  0.5397256535622593  0.8282613949453063
  0.7646675335173541  0.4539982569875179  0.5734967220721719
  0.5543254532922677  0.5386199847825178  0.3231176405797548
  0.4425830548418361  0.4299962484823394  0.0747687654348735
  0.2225841128856067  0.5381651164218323  0.8239297014635486
  0.1101184292454509  0.4274923895710381  0.5769757712204086
  0.8903878964776238  0.5386200158466358  0.3231176392366016
  0.7781428197738646  0.4270477051018191  0.0780526206138136
  0.5551969876421243  0.5397256399358976  0.8282613923267909
  0.4457225028168450  0.4274923903938907  0.5769757597245156
  0.2282895159882291  0.8543551160992092  0.3196628777324529
  0.1127630858603039  0.7578071535074645  0.0731426024291142
  0.8892822051855317  0.8705438847302833  0.8299837872926574
  0.7983795372832299  0.7507186563235578  0.5713822728332442
  0.5550809530954450  0.8731714477269686  0.3407690894248810
  0.4467874040101109  0.7615181379268882  0.0786666404518465
  0.2235072372666312  0.8705438812260091  0.8299837888269486
  0.1115427486370098  0.7602478330259423  0.5781130320685551
  0.9006886976288152  0.8543551484127581  0.3196628742663582
  0.7750277748690203  0.7615181661224277  0.0786666346858688
  0.5553483238921899  0.8726366743603009  0.8268616523244472
  0.4342351471187133  0.7507186478769942  0.5713822801508001
