Mg   Al   Hf   N                        
   1.00000000000000     
    -9.5261204350806228   -0.0000000844840073    0.0000000056468806
    -4.7630601993807264    8.2742906153331237    0.0025760190448097
    -0.0000000020760226   -0.0033364680090489  -10.0438082223778604
   Mg   Al   Hf   N 
     2    32     2    36
Direct
  0.1200836373410177  0.0894936290202666  0.3998549940642447
  0.7737560772292861  0.0894936466666818  0.3998550052048952
  0.2216021995063987  0.2080631328959192  0.1591767932417360
  0.7771820439371937  0.0936260160822786  0.9123222291679022
  0.4379342569457234  0.1074648069076811  0.4012419159542314
  0.5536680450477075  0.2080631271695727  0.1591767984814232
  0.1125252661726952  0.0936260110621652  0.9123222376871155
  0.2214692567775682  0.2111592856589809  0.6619530541641109
  0.8879648904716179  0.2074036079183167  0.1684240018225221
  0.4430981091871159  0.0971371157631584  0.9137689103083088
  0.5507047851413757  0.2111593077967730  0.6619530509490060
  0.1122715760547658  0.4271494039612046  0.4059773326019565
  0.2220912317170593  0.5391508855090595  0.1611369099783792
  0.7770112419617208  0.4293108426745196  0.9124748724938636
  0.8940457671355533  0.5396091998542324  0.6601225229685198
  0.4439123597768188  0.4271493816842836  0.4059773225253709
  0.5550855435949571  0.5382505878224980  0.1584786870228957
  0.1117246430871071  0.4289374003445299  0.9099566723506911
  0.2224719185078402  0.5383895046436601  0.6570680744721017
  0.7736015122061531  0.4361303434240869  0.4020715290171011
  0.8899972159892273  0.5382506076458575  0.1584786815489175
  0.4426712823265248  0.4289373935046210  0.9099566783232826
  0.5496783597812871  0.5396091886244609  0.6601225199419583
  0.1127818286406845  0.7577696396284274  0.4062726561064230
  0.2217952459004877  0.8695304560942860  0.1585959201200499
  0.7798913450009157  0.7596720175243756  0.9135663967562415
  0.8949711336408536  0.8665134214214540  0.6621870184816877
  0.4395605658783581  0.7562893041962830  0.4018040478992235
  0.5552008509957413  0.8729316491855412  0.1629016923162219
  0.1124942216090448  0.7583448642684506  0.9099210107759753
  0.2218487876225816  0.8665134219175445  0.6621870158041456
  0.7874834279226811  0.7562893302887187  0.4018040439758335
  0.8920076288637296  0.8695304829019451  0.1585959179178634
  0.4437699539271089  0.7596720040557647  0.9135664019245930
  0.8886849224687732  0.2059635238237883  0.6421040209237350
  0.5547449804258863  0.8738433662957338  0.6447403225464002
  0.2263332080641037  0.2156748084605561  0.3441032864487846
  0.1106310150991012  0.0942052072848770  0.1034316165941738
  0.8882178542429574  0.2068976357687356  0.8545882890205595
  0.7677883658420966  0.0824528090536688  0.6104230395315092
  0.5413253409710828  0.2156747773085292  0.3441032911593166
  0.4454990160425791  0.0923353268013852  0.1017588145421942
  0.2228072243346982  0.2066441775605135  0.8534913949600750
  0.1330921984904255  0.0824527837283765  0.6104230336603608
  0.8814482466247129  0.2204368708359120  0.3585570892425133
  0.7784971285323105  0.0942052217515991  0.1034316091887041
  0.5538819305190924  0.2066441831206905  0.8534913897046963
  0.4339616881748385  0.1154099739374067  0.5956086011199639
  0.2225561137039369  0.5382211047880109  0.3522109189318182
  0.1106025772444750  0.4296736576252489  0.0989162299962155
  0.8885567216343706  0.5394960359127536  0.8511554814202038
  0.7654390662112774  0.4524551975895847  0.5970393910645116
  0.5543501884294194  0.5390153730938976  0.3478613834159733
  0.4430571009894851  0.4296736588932836  0.0989162352020325
  0.2225088006534264  0.5383157341880912  0.8482934336685268
  0.1105003964114659  0.4275520556392488  0.6005748445950583
  0.8899677707081493  0.5390154009189687  0.3478613829688482
  0.7775725910883178  0.4281881686211823  0.1016229632215900
  0.5552805755327000  0.5394960298890923  0.8511554809774773
  0.4452808737040954  0.4275520592360223  0.6005748367884250
  0.2283010357516162  0.8553129412177022  0.3439939507604729
  0.1124893038808218  0.7583547225354105  0.0977171108050535
  0.8895195239511072  0.8702515838256448  0.8535877282903289
  0.7971344009486607  0.7516128377426514  0.5952347484575398
  0.5550805369986286  0.8731722470171474  0.3617741917080066
  0.4463922130656491  0.7610586881357845  0.1023760334942243
  0.2235622227086576  0.8702515774831514  0.8535877301613146
  0.1115878958888269  0.7601575410820604  0.6014790388374147
  0.8997193198410064  0.8553129726592142  0.3439939499653334
  0.7758824291456677  0.7610587083318189  0.1023760260221590
  0.5553873488260782  0.8725586287133248  0.8539819396661864
  0.4345861026332241  0.7516128192512267  0.5952347454815505
