supercell of 100% icsd_608626.cif, 0% i 
   1.00000000000000     
    -9.6516326311318146    0.0127197852730032   -0.0101547661809413
    -4.8368579514276950    8.3457218344478505   -0.0134986832513888
    -0.0107846146853660    0.0103951941603798  -10.1886906353788991
   Al   Ge   Ca   N 
    28     4     4    36
Direct
  0.1021792969455433  0.0893651206571064  0.2969437357427438
  0.2193521860000089  0.2053496939042034  0.0482334705698335
  0.7791387210494207  0.0916069448048660  0.7976034301780857
  0.8877856864588978  0.2021052991448684  0.5453354650921582
  0.4503725005903334  0.0915366419112331  0.2882438101589671
  0.5549323818462994  0.2064102363490790  0.0488785401481522
  0.1052496160624301  0.0972298014511281  0.7988435184452740
  0.7778206436664945  0.0918078854880022  0.2978136057980194
  0.8883269840020915  0.2045404121226966  0.0392178571666193
  0.4407400000998649  0.1033220829619168  0.8024967685334801
  0.5538772421594444  0.2076053629025054  0.5408215815416000
  0.1130309958372209  0.4296161064979458  0.2955689564750372
  0.2222794137349453  0.5392622404264955  0.0506579484680501
  0.7834552256771588  0.4214509778479965  0.8026531286117162
  0.4472938327037639  0.4186315188479455  0.2950632563637186
  0.5575182007459176  0.5332410280493249  0.0364946699854087
  0.1109838816447066  0.4253438366322300  0.8028569653068587
  0.8890063187720330  0.5388392414322709  0.0401020428410490
  0.5501619601654468  0.5388460133299589  0.5445490244625688
  0.1038202278687947  0.7672804581952235  0.2954274960598440
  0.2162506391627161  0.8755167038779419  0.0412978368241355
  0.7877099397996901  0.7631894383346207  0.8025518748237204
  0.8923406663298366  0.8719181816131680  0.5415885179659767
  0.5606648999945065  0.8751254416172642  0.0430379469259563
  0.1048778659505203  0.7670241268107674  0.7986177632590028
  0.2203960540459917  0.8691761030937855  0.5403455480981592
  0.7827753344908217  0.7687603788710362  0.2899969895987695
  0.8910650406110605  0.8722757681213764  0.0459949336450407
  0.2226164824504053  0.2043731024816680  0.5444394268730690
  0.8913802345080839  0.5449721707346029  0.5475697498784342
  0.2232949764204264  0.5434435020570021  0.5430063901283120
  0.4445335918552757  0.4217369532657713  0.7983380802687208
  0.7834055007470724  0.4268580701967011  0.2945297007554259
  0.4426122691531660  0.7549419036272482  0.2935428568641854
  0.4423681129855055  0.7658170449971067  0.8086201647153288
  0.5597865219845914  0.8749776311679156  0.5509367598072430
  0.2195510697480998  0.2054788211181418  0.3559393593246014
  0.1081172387546872  0.0969809923704119  0.1071242831451187
  0.8881334671936898  0.2025093614984925  0.8487676327795555
  0.7733112906034592  0.0935846176756954  0.6072548451729034
  0.5524899555906515  0.2020245237359575  0.3538401894009979
  0.4393005055563250  0.1013388790861001  0.1003459832384550
  0.2176547847383503  0.2070014674970011  0.8582841515930255
  0.1125216502947666  0.0982085226489815  0.6071708732061580
  0.8966735924236815  0.1794192955128722  0.3653619311258041
  0.7768910601408692  0.0949059909873213  0.1043482759990297
  0.5535269178618023  0.2083419308026606  0.8575240254409948
  0.4217301686774633  0.1345469802729511  0.6162136858363354
  0.2232494460185279  0.5367573772765937  0.3568097161080672
  0.1106316264436913  0.4281761817161538  0.1069109778600463
  0.8926225873756124  0.5384378031766559  0.8519465095329011
  0.7839025759387042  0.4294331356930385  0.6052733799448191
  0.5479616523246591  0.5085546677673065  0.3708714380000657
  0.4422597556386521  0.4276713873583375  0.1050968518894706
  0.2230268791375991  0.5374831425146027  0.8562470540783167
  0.1138795944123814  0.4267587909492576  0.6077431231971886
  0.9081627982057441  0.5576414907381775  0.3670244969096288
  0.7792907740833073  0.4272582515138552  0.0727165161364240
  0.5686097818867921  0.5019642459478248  0.8519585527828539
  0.4388888889005429  0.4260289253097724  0.6098976352546686
  0.1907208398937783  0.8839528201828557  0.3602700983281508
  0.1121257877309318  0.7583666541559850  0.1069001721452025
  0.8917954216534199  0.8734664652527542  0.8580754239473762
  0.8167006121437197  0.7441826483678113  0.6185903834690194
  0.5728146254564379  0.8835848260433181  0.3328414866831721
  0.4452736777085420  0.7602657863015381  0.0625692686623083
  0.1832256924076390  0.8921212312437135  0.8599571191193149
  0.1110832143981142  0.7575490447171163  0.6065161422317544
  0.8890292437362106  0.8730799224248926  0.3545332339787493
  0.7864299990875807  0.7562759477414716  0.1000417873615191
  0.5767198202994024  0.8946101870823782  0.8555822258812000
  0.4282895570136347  0.7485402594931188  0.5872313578540940
 
  0.00000000E+00  0.00000000E+00  0.00000000E+00
  0.00000000E+00  0.00000000E+00  0.00000000E+00
  0.00000000E+00  0.00000000E+00  0.00000000E+00
  0.00000000E+00  0.00000000E+00  0.00000000E+00
  0.00000000E+00  0.00000000E+00  0.00000000E+00
  0.00000000E+00  0.00000000E+00  0.00000000E+00
  0.00000000E+00  0.00000000E+00  0.00000000E+00
  0.00000000E+00  0.00000000E+00  0.00000000E+00
  0.00000000E+00  0.00000000E+00  0.00000000E+00
  0.00000000E+00  0.00000000E+00  0.00000000E+00
  0.00000000E+00  0.00000000E+00  0.00000000E+00
  0.00000000E+00  0.00000000E+00  0.00000000E+00
  0.00000000E+00  0.00000000E+00  0.00000000E+00
  0.00000000E+00  0.00000000E+00  0.00000000E+00
  0.00000000E+00  0.00000000E+00  0.00000000E+00
  0.00000000E+00  0.00000000E+00  0.00000000E+00
  0.00000000E+00  0.00000000E+00  0.00000000E+00
  0.00000000E+00  0.00000000E+00  0.00000000E+00
  0.00000000E+00  0.00000000E+00  0.00000000E+00
  0.00000000E+00  0.00000000E+00  0.00000000E+00
  0.00000000E+00  0.00000000E+00  0.00000000E+00
  0.00000000E+00  0.00000000E+00  0.00000000E+00
  0.00000000E+00  0.00000000E+00  0.00000000E+00
  0.00000000E+00  0.00000000E+00  0.00000000E+00
  0.00000000E+00  0.00000000E+00  0.00000000E+00
  0.00000000E+00  0.00000000E+00  0.00000000E+00
  0.00000000E+00  0.00000000E+00  0.00000000E+00
  0.00000000E+00  0.00000000E+00  0.00000000E+00
  0.00000000E+00  0.00000000E+00  0.00000000E+00
  0.00000000E+00  0.00000000E+00  0.00000000E+00
  0.00000000E+00  0.00000000E+00  0.00000000E+00
  0.00000000E+00  0.00000000E+00  0.00000000E+00
  0.00000000E+00  0.00000000E+00  0.00000000E+00
  0.00000000E+00  0.00000000E+00  0.00000000E+00
  0.00000000E+00  0.00000000E+00  0.00000000E+00
  0.00000000E+00  0.00000000E+00  0.00000000E+00
  0.00000000E+00  0.00000000E+00  0.00000000E+00
  0.00000000E+00  0.00000000E+00  0.00000000E+00
  0.00000000E+00  0.00000000E+00  0.00000000E+00
  0.00000000E+00  0.00000000E+00  0.00000000E+00
  0.00000000E+00  0.00000000E+00  0.00000000E+00
  0.00000000E+00  0.00000000E+00  0.00000000E+00
  0.00000000E+00  0.00000000E+00  0.00000000E+00
  0.00000000E+00  0.00000000E+00  0.00000000E+00
  0.00000000E+00  0.00000000E+00  0.00000000E+00
  0.00000000E+00  0.00000000E+00  0.00000000E+00
  0.00000000E+00  0.00000000E+00  0.00000000E+00
  0.00000000E+00  0.00000000E+00  0.00000000E+00
  0.00000000E+00  0.00000000E+00  0.00000000E+00
  0.00000000E+00  0.00000000E+00  0.00000000E+00
  0.00000000E+00  0.00000000E+00  0.00000000E+00
  0.00000000E+00  0.00000000E+00  0.00000000E+00
  0.00000000E+00  0.00000000E+00  0.00000000E+00
  0.00000000E+00  0.00000000E+00  0.00000000E+00
  0.00000000E+00  0.00000000E+00  0.00000000E+00
  0.00000000E+00  0.00000000E+00  0.00000000E+00
  0.00000000E+00  0.00000000E+00  0.00000000E+00
  0.00000000E+00  0.00000000E+00  0.00000000E+00
  0.00000000E+00  0.00000000E+00  0.00000000E+00
  0.00000000E+00  0.00000000E+00  0.00000000E+00
  0.00000000E+00  0.00000000E+00  0.00000000E+00
  0.00000000E+00  0.00000000E+00  0.00000000E+00
  0.00000000E+00  0.00000000E+00  0.00000000E+00
  0.00000000E+00  0.00000000E+00  0.00000000E+00
  0.00000000E+00  0.00000000E+00  0.00000000E+00
  0.00000000E+00  0.00000000E+00  0.00000000E+00
  0.00000000E+00  0.00000000E+00  0.00000000E+00
  0.00000000E+00  0.00000000E+00  0.00000000E+00
  0.00000000E+00  0.00000000E+00  0.00000000E+00
  0.00000000E+00  0.00000000E+00  0.00000000E+00
  0.00000000E+00  0.00000000E+00  0.00000000E+00
  0.00000000E+00  0.00000000E+00  0.00000000E+00
