supercell of 100% icsd_608626.cif, 0% i 
   1.00000000000000     
    -9.6191660771031131   -0.0281709121570793    0.0035519402687865
    -4.7851231109380601    8.3392322181760949   -0.0004691213910716
     0.0038088421757180    0.0027603879762469  -10.1897281417420000
   Al   Ge   Ca   N 
    28     4     4    36
Direct
  0.1154160008607121  0.0978128681785719  0.2982376925788230
  0.2234422329717489  0.2002616688123169  0.0460073560048997
  0.8925961374441798  0.2058521028651796  0.5468753491056120
  0.4407805045226780  0.0946235413867456  0.2990772698886772
  0.5545501441797214  0.2045709035762329  0.0471998220681868
  0.1180594679314595  0.0945011531851421  0.7929605924783090
  0.2200462791150102  0.2055972219757578  0.5462518575851902
  0.7721684868455156  0.0989833108743952  0.3001445456088021
  0.8919677827171313  0.2040716247093926  0.0495941649455958
  0.4404191856128534  0.0952955517390137  0.7964843671300699
  0.1116398813303476  0.4225889612299056  0.2807638587749679
  0.2284656245614727  0.5264239492945464  0.0522828443047842
  0.7795025628550079  0.4274461703107448  0.7957706356690437
  0.4478276397703311  0.4267527733930834  0.2879868851730194
  0.5573881840558101  0.5385196413742079  0.0469652853700993
  0.1210756186414272  0.4136916768655468  0.8043927504861728
  0.7783587743674829  0.4280924315417067  0.2907384275026672
  0.8897274023169501  0.5355583555592176  0.0482573509155770
  0.4481494685400520  0.4215183241184732  0.8012888833065475
  0.5648081708392496  0.5289863814046356  0.5471184158108429
  0.2262497252942666  0.8748669528733970  0.0440169495517964
  0.7679989348583902  0.7649608258548000  0.7971591225162555
  0.8765731413046183  0.8823558818639796  0.5413597451159049
  0.4478214111219927  0.7625762119902433  0.2984344263322001
  0.5507361125305934  0.8744576563708932  0.0485712457353600
  0.2182764910820225  0.8825207208325452  0.5406724463007393
  0.7708641161123708  0.7646416175541617  0.2927672855739729
  0.5575778976236876  0.8750442000944645  0.5436061623574844
  0.7717644390805987  0.0994488737062511  0.7959472022537000
  0.5544510545013281  0.2075079625338816  0.5475219853901692
  0.8828146901658371  0.8770515429113175  0.0456405188884190
  0.4467034939111301  0.7624587405688246  0.7953366517271192
  0.8909811590537657  0.5421540334842163  0.5467438223633465
  0.2262661443195242  0.5340335873832345  0.5364099685574217
  0.1036374181409130  0.7732124771505013  0.3026512916667627
  0.1097147472553175  0.7543440120140517  0.8007451867523798
  0.2208457058614925  0.2096907112221729  0.3549344866241455
  0.1101307663956987  0.0927697696026186  0.1071846993065009
  0.8908976571930864  0.1992883142109534  0.8576245696828906
  0.7737295782946774  0.0990949573858941  0.6080468260358813
  0.5531559146573599  0.2096822368690567  0.3591412486967300
  0.4456787498304919  0.0939142089844225  0.1076689815692191
  0.2278325827043162  0.1947130672447628  0.8610847404621964
  0.1116787661057614  0.0956531267194052  0.6066420101504804
  0.8890125524101862  0.2054898012369080  0.3552098283641598
  0.7767955872581709  0.0953783138735389  0.1080060343254772
  0.5590678743286119  0.2014858302625413  0.8569529655223818
  0.4454587711999949  0.0947080695868507  0.6041790130398681
  0.2359544966034193  0.5120237376405541  0.3141414353192999
  0.1097338192442550  0.4183714533781711  0.0933516487525168
  0.8864367247881049  0.5421237287342464  0.8557359376744245
  0.7697539066006911  0.4105832855079470  0.6148956694149845
  0.5573831058614189  0.5380166154474324  0.3557159281463669
  0.4578220325921833  0.4203612035980271  0.1004481506730954
  0.2461244767664752  0.4992962575963134  0.8670743397620555
  0.1286336306892508  0.3963532909006204  0.6269544698776528
  0.8883324450502812  0.5408324130597535  0.3210880672587990
  0.7765961132692709  0.4237670858561131  0.0996315296880468
  0.5549613868610805  0.5431402756413846  0.8569437059758016
  0.4743178089748383  0.4096439710515511  0.6171390978308935
  0.2438916146381516  0.8919425760075939  0.3601722964726406
  0.1062030207027007  0.7643881074953072  0.0691929036394185
  0.8487311903081149  0.8953341825562404  0.8641007848184401
  0.7583727794266508  0.7966065519645085  0.6179900506071618
  0.5557347936057226  0.8720521565707173  0.3548329802574344
  0.4467753090430548  0.7581353552532946  0.1070448312251386
  0.2419688755432006  0.8845921643775725  0.8594314335601467
  0.0900009193172906  0.7962912479426052  0.5765804044110894
  0.8448594114318624  0.8949581040693317  0.3590008627601122
  0.7745877903290861  0.7656085773831833  0.1003966608807332
  0.5518700512927950  0.8729323366703952  0.8583444668310918
  0.4478492649847965  0.7579930045164289  0.6071345745917469
 
  0.00000000E+00  0.00000000E+00  0.00000000E+00
  0.00000000E+00  0.00000000E+00  0.00000000E+00
  0.00000000E+00  0.00000000E+00  0.00000000E+00
  0.00000000E+00  0.00000000E+00  0.00000000E+00
  0.00000000E+00  0.00000000E+00  0.00000000E+00
  0.00000000E+00  0.00000000E+00  0.00000000E+00
  0.00000000E+00  0.00000000E+00  0.00000000E+00
  0.00000000E+00  0.00000000E+00  0.00000000E+00
  0.00000000E+00  0.00000000E+00  0.00000000E+00
  0.00000000E+00  0.00000000E+00  0.00000000E+00
  0.00000000E+00  0.00000000E+00  0.00000000E+00
  0.00000000E+00  0.00000000E+00  0.00000000E+00
  0.00000000E+00  0.00000000E+00  0.00000000E+00
  0.00000000E+00  0.00000000E+00  0.00000000E+00
  0.00000000E+00  0.00000000E+00  0.00000000E+00
  0.00000000E+00  0.00000000E+00  0.00000000E+00
  0.00000000E+00  0.00000000E+00  0.00000000E+00
  0.00000000E+00  0.00000000E+00  0.00000000E+00
  0.00000000E+00  0.00000000E+00  0.00000000E+00
  0.00000000E+00  0.00000000E+00  0.00000000E+00
  0.00000000E+00  0.00000000E+00  0.00000000E+00
  0.00000000E+00  0.00000000E+00  0.00000000E+00
  0.00000000E+00  0.00000000E+00  0.00000000E+00
  0.00000000E+00  0.00000000E+00  0.00000000E+00
  0.00000000E+00  0.00000000E+00  0.00000000E+00
  0.00000000E+00  0.00000000E+00  0.00000000E+00
  0.00000000E+00  0.00000000E+00  0.00000000E+00
  0.00000000E+00  0.00000000E+00  0.00000000E+00
  0.00000000E+00  0.00000000E+00  0.00000000E+00
  0.00000000E+00  0.00000000E+00  0.00000000E+00
  0.00000000E+00  0.00000000E+00  0.00000000E+00
  0.00000000E+00  0.00000000E+00  0.00000000E+00
  0.00000000E+00  0.00000000E+00  0.00000000E+00
  0.00000000E+00  0.00000000E+00  0.00000000E+00
  0.00000000E+00  0.00000000E+00  0.00000000E+00
  0.00000000E+00  0.00000000E+00  0.00000000E+00
  0.00000000E+00  0.00000000E+00  0.00000000E+00
  0.00000000E+00  0.00000000E+00  0.00000000E+00
  0.00000000E+00  0.00000000E+00  0.00000000E+00
  0.00000000E+00  0.00000000E+00  0.00000000E+00
  0.00000000E+00  0.00000000E+00  0.00000000E+00
  0.00000000E+00  0.00000000E+00  0.00000000E+00
  0.00000000E+00  0.00000000E+00  0.00000000E+00
  0.00000000E+00  0.00000000E+00  0.00000000E+00
  0.00000000E+00  0.00000000E+00  0.00000000E+00
  0.00000000E+00  0.00000000E+00  0.00000000E+00
  0.00000000E+00  0.00000000E+00  0.00000000E+00
  0.00000000E+00  0.00000000E+00  0.00000000E+00
  0.00000000E+00  0.00000000E+00  0.00000000E+00
  0.00000000E+00  0.00000000E+00  0.00000000E+00
  0.00000000E+00  0.00000000E+00  0.00000000E+00
  0.00000000E+00  0.00000000E+00  0.00000000E+00
  0.00000000E+00  0.00000000E+00  0.00000000E+00
  0.00000000E+00  0.00000000E+00  0.00000000E+00
  0.00000000E+00  0.00000000E+00  0.00000000E+00
  0.00000000E+00  0.00000000E+00  0.00000000E+00
  0.00000000E+00  0.00000000E+00  0.00000000E+00
  0.00000000E+00  0.00000000E+00  0.00000000E+00
  0.00000000E+00  0.00000000E+00  0.00000000E+00
  0.00000000E+00  0.00000000E+00  0.00000000E+00
  0.00000000E+00  0.00000000E+00  0.00000000E+00
  0.00000000E+00  0.00000000E+00  0.00000000E+00
  0.00000000E+00  0.00000000E+00  0.00000000E+00
  0.00000000E+00  0.00000000E+00  0.00000000E+00
  0.00000000E+00  0.00000000E+00  0.00000000E+00
  0.00000000E+00  0.00000000E+00  0.00000000E+00
  0.00000000E+00  0.00000000E+00  0.00000000E+00
  0.00000000E+00  0.00000000E+00  0.00000000E+00
  0.00000000E+00  0.00000000E+00  0.00000000E+00
  0.00000000E+00  0.00000000E+00  0.00000000E+00
  0.00000000E+00  0.00000000E+00  0.00000000E+00
  0.00000000E+00  0.00000000E+00  0.00000000E+00
