Ge   N    Li
1.0
  -4.812724247305731 -2.797042687902803 0.0378412790429648
  -4.817881044617703 2.8030219693746408 -0.0076383690118799
  -0.0149859566756726 -0.0022427517200778 -5.29512210646415
 Ge  N  Li 
4 6 2 
direct
   -0.9712574822777289   0.6545949198772834   0.0954321019647395
   -0.6535515855724586   0.9847148839994661   0.9551939341043718
   -0.3291916488415654   0.9941698417070769   0.4610085409514041
   -0.9926305899919047   0.3041756241852625   0.4580798272972472
   -0.6650627652219259   0.6776190797723063   0.0522659157182588
   -0.9485741120893751   0.3046830403961709   0.0925957982678796
   -0.3319065166422777   0.9688101134148399   0.0902404680083251
   -0.2871190382678109   0.2807438352518617   0.5651253565004523
   -0.0101205562081860   0.6472742478779524   0.4882470282065511
   -0.6530559587252187   0.0201057845038833   0.5965460844845863
   -0.3211598158351877   0.3204966302783704   0.9525597601650445
   -0.6363646815625191   0.6426057032318157   0.4879709171645885
