Ge   N    Li
1.0
  -4.805606563840304 -2.7864114886198577 0.038687982678771
  -4.806698507268622 2.78549936333115 -0.0041594120236829
  -0.0101169121300369 -0.0012236163097545 -5.20690107550772
 Ge  N  Li 
4 6 2 
direct
   -0.9772883534037933   0.6541766510271146   0.9892238317809970
   -0.6531521358899753   0.9832770210922420   0.9581245347119350
   -0.3177970599367727   0.9856255969058909   0.4636636630937403
   -0.9921340563445186   0.3135018254525690   0.4628186190683579
   -0.6726160521905130   0.6805073574094395   0.0616778696414926
   -0.9481446115824568   0.3145096047568146   0.0959452943126280
   -0.3227413656488950   0.9555811746059747   0.0946627376421887
   -0.2860317408347656   0.2809575010699988   0.5636229801256007
   -0.0151477002396946   0.6469559689257949   0.5762138493879901
   -0.6518069166477076   0.0207951070627033   0.5954984230327298
   -0.3213210270269827   0.3216452168999382   0.9554935169734620
   -0.6418137314900534   0.6424606792878080   0.4783204130623417
