Ge   N    Li
1.0
  -4.81682441157 -2.78797088234 -1.34747911105e-05
  -4.81669677715 2.78796817126 1.53363621536e-05
  1.017239974e-06 -6.538173665e-07 -5.10103583836
 Ge  N  Li 
4 6 2 
direct
   -0.9800443704882298   0.6533823602379484   0.9663408693847232
   -0.6533724266247702   0.9800605637805829   0.9663367248464212
   -0.3132932970138710   0.9866177455099816   0.4663364784517796
   -0.9866167044249324   0.3132864884265770   0.4663331468545097
   -0.6850539913808333   0.6850533714446456   0.0674511903244408
   -0.9445754482853347   0.3189658250304747   0.0977096496283067
   -0.3189763457566031   0.9445671143942461   0.0977125743264438
   -0.2816210670646343   0.2816051130586388   0.5674487901772807
   -0.0220890644567575   0.6476959401860753   0.5977152149933360
   -0.6476908052514149   0.0220980314881488   0.5977188853305719
   -0.3248927957921453   0.3248891837794972   0.9711140590101622
   -0.6417736834604710   0.6417782626631805   0.4711157500053603
