Ge   N    Li
1.0
  -4.79970764669135 -2.7992835934588127 -0.0094855638980622
  -4.793120204473937 2.785551910189189 -0.0152920743859135
  0.0873166077067755 -0.0044848496227891 -5.48920837456829
 Ge  N  Li 
4 6 2 
direct
   -0.9832884535283810   0.6632478987105729   0.1030869722264640
   -0.6665975858400799   0.9806769799898447   0.9495893716687932
   -0.3021843474128831   0.9824451182576297   0.6048987496081962
   -0.9872977327664928   0.3023209722573841   0.4497429526434544
   -0.6732822570065338   0.6696883888906130   0.0265304727903342
   -0.9389946583970925   0.2979974319434078   0.1037682731769181
   -0.3016911820080496   0.9301526711274165   0.9501693932654051
   -0.2875163124198609   0.2971759860470443   0.5620157606626607
   -0.0323397949639030   0.6674974613368363   0.4490958217954599
   -0.6673494050381734   0.0329499713945085   0.6022149135847172
   -0.3146197410926135   0.3319971940542530   0.9647375248615616
   -0.6448308912409857   0.6438449195966883   0.5241840556071226
