Ge   N    Li
1.0
  -4.811058544868214 -2.7897655040625073 -0.0292260273443317
  -4.82449061052398 2.8100105169664755 -0.0090299518071588
  0.0695365616033921 -0.0026504058842071 -5.33041051884672
 Ge  N  Li 
4 6 2 
direct
   -0.9774118012440597   0.6560144747606101   0.1004170826902211
   -0.6529343600896099   0.9781381274965498   0.9586723483570412
   -0.3267945979876998   0.9959669754520776   0.4818911154468708
   -0.9886055754021401   0.3010514718059695   0.4548133034229239
   -0.6676852073634764   0.6753885866803773   0.0566125582738550
   -0.9472175250403511   0.3008062880296124   0.0953798058240096
   -0.3288235126917770   0.9683467085076674   0.0728765800569420
   -0.2883990852664340   0.2889199975677457   0.5665745576198803
   -0.0116768603090875   0.6488436864013991   0.4771056925562149
   -0.6555430140902133   0.0194764451614021   0.5995688727309982
   -0.3220014118339876   0.3219129653913627   0.9581192625935770
   -0.6329017852912814   0.6451279775139086   0.4731961294304697
