Ge   N    Li
1.0
  -4.798551126115435 -2.7998393564928064 -0.0114221129518749
  -4.790344570384445 2.7833233300796896 -0.0159878657835529
  0.0847479379764197 -0.0046886767048538 -5.50685258075958
 Ge  N  Li 
4 6 2 
direct
   -0.9827978497266515   0.6633320779217371   0.1022851524323585
   -0.6668442543872716   0.9817847096537804   0.9483124717814847
   -0.3013953965676989   0.9825405558337792   0.6044161116615783
   -0.9865214187891597   0.3026348368389478   0.4489915836533739
   -0.6758592283752449   0.6687980040841665   0.0128238132655696
   -0.9387981352908953   0.2977542272916338   0.1039824840799000
   -0.3015393072651448   0.9296606299468593   0.9490939155281950
   -0.2864558248567732   0.2972938056138688   0.5613502626496469
   -0.0311938695290550   0.6682409224313730   0.4474593977417740
   -0.6668292963136153   0.0346269941054587   0.6019126533469574
   -0.3135903703612470   0.3310307879749459   0.9650174972443891
   -0.6481674077620667   0.6422974401183978   0.5443665481242305
