Ge   N    Li                            
   1.00000000000000     
     0.0721743761860681   -0.0030580600483365   -5.3656989312292902
    -4.8314455905442379    2.8072131658111821   -0.0104215346024376
     4.8169026010848635    2.7851853049238255    0.0307079673697560
   Ge   N    Li
     4     6     2
Direct
  0.0997777739324590  0.6607101492600478  0.9832342938156131
  0.9605783203655776  0.9756062630442059  0.6535192462577726
  0.5292569781772656  0.9919719962523459  0.3189565148192699
  0.4510281829927649  0.2997750850064591  0.9867590125163304
  0.0583944910222911  0.6745954286688374  0.6693180102432663
  0.0967352794954621  0.3011251381921056  0.9466863617830228
  0.0323299864496462  0.9623290270002940  0.3216211089986771
  0.5641369498985611  0.2937870459273668  0.2894069827285719
  0.4724768450351462  0.6508546331587297  0.0148851815716640
  0.5997915433032617  0.0200320010268626  0.6601794878378300
  0.9604740541642158  0.3234752580426417  0.3221123310143170
  0.4702469041663520  0.6457316791888132  0.6333162050237533
 
  0.00000000E+00  0.00000000E+00  0.00000000E+00
  0.00000000E+00  0.00000000E+00  0.00000000E+00
  0.00000000E+00  0.00000000E+00  0.00000000E+00
  0.00000000E+00  0.00000000E+00  0.00000000E+00
  0.00000000E+00  0.00000000E+00  0.00000000E+00
  0.00000000E+00  0.00000000E+00  0.00000000E+00
  0.00000000E+00  0.00000000E+00  0.00000000E+00
  0.00000000E+00  0.00000000E+00  0.00000000E+00
  0.00000000E+00  0.00000000E+00  0.00000000E+00
  0.00000000E+00  0.00000000E+00  0.00000000E+00
  0.00000000E+00  0.00000000E+00  0.00000000E+00
  0.00000000E+00  0.00000000E+00  0.00000000E+00
