Ge   N    Li
1.0
  -4.817638883644023 -2.7833125507208316 -0.0259333705998192
  -4.827810721923962 2.797791062185921 -0.0125089087953558
  0.0742051429157039 -0.0036695412945305 -5.41863154980315
 Ge  N  Li 
4 6 2 
direct
   -0.9856051453905366   0.6638487122915393   0.1048969960471311
   -0.6619582532447978   0.9773374727385898   0.9567123430410688
   -0.3069045929112447   0.9837516533187198   0.5938688463452094
   -0.9870275304960004   0.2990057020165296   0.4510407954391198
   -0.6699153484349055   0.6750731668613170   0.0598866929549757
   -0.9452272158789157   0.3018271297091105   0.0992545928174664
   -0.3101039548368121   0.9493416096612534   0.9741426829019915
   -0.2904791498869770   0.2956708845375502   0.5608245406941421
   -0.0238206885284171   0.6575987518026238   0.4621044184037046
   -0.6645358538712359   0.0220483714314597   0.6011561039799530
   -0.3219363630661932   0.3289469913796736   0.9626670511214500
   -0.6324806400640598   0.6455432590203288   0.4686722452567976
