Ge   N    Li                            
   1.00000000000000     
     0.0000010172399740   -0.0000006538173665   -5.1010358383599996
    -4.8166967771499998    2.7879681712600002    0.0000153363621536
     4.8168244115699999    2.7879708823399998    0.0000134747911105
   Ge   N    Li
     4     6     2
Direct
  0.9663408693847231  0.6533823602379485  0.9800443704882298
  0.9663367248464212  0.9800605637805830  0.6533724266247702
  0.4663364784517796  0.9866177455099816  0.3132932970138711
  0.4663331468545096  0.3132864884265771  0.9866167044249323
  0.0674511903244408  0.6850533714446456  0.6850539913808333
  0.0977096496283067  0.3189658250304745  0.9445754482853346
  0.0977125743264438  0.9445671143942462  0.3189763457566031
  0.5674487901772807  0.2816051130586388  0.2816210670646342
  0.5977152149933360  0.6476959401860753  0.0220890644567575
  0.5977188853305719  0.0220980314881487  0.6476908052514148
  0.9711140590101621  0.3248891837794972  0.3248927957921453
  0.4711157500053602  0.6417782626631805  0.6417736834604710
 
  0.00000000E+00  0.00000000E+00  0.00000000E+00
  0.00000000E+00  0.00000000E+00  0.00000000E+00
  0.00000000E+00  0.00000000E+00  0.00000000E+00
  0.00000000E+00  0.00000000E+00  0.00000000E+00
  0.00000000E+00  0.00000000E+00  0.00000000E+00
  0.00000000E+00  0.00000000E+00  0.00000000E+00
  0.00000000E+00  0.00000000E+00  0.00000000E+00
  0.00000000E+00  0.00000000E+00  0.00000000E+00
  0.00000000E+00  0.00000000E+00  0.00000000E+00
  0.00000000E+00  0.00000000E+00  0.00000000E+00
  0.00000000E+00  0.00000000E+00  0.00000000E+00
  0.00000000E+00  0.00000000E+00  0.00000000E+00
