Ge   N    Li
1.0
  -4.810326285293628 -2.783826566994327 -0.0176826640399542
  -4.816099937724562 2.790773972676152 -0.0132047001929952
  0.0782694323071052 -0.0038733683765951 -5.43627575599443
 Ge  N  Li 
4 6 2 
direct
   -0.9855135064630287   0.6640993561151232   0.1071638365435845
   -0.6661065801947783   0.9784782159029105   0.9537657196158306
   -0.3032688918550760   0.9814276284180892   0.6061201443106655
   -0.9878816658606836   0.2994747435544980   0.4524491935243305
   -0.6698819242848301   0.6756110865351913   0.0621073731850714
   -0.9426297371412387   0.3008714612394313   0.1020186887355905
   -0.3047615225493060   0.9381252128172263   0.9586744175223174
   -0.2910010361568068   0.2960020831717641   0.5619791341411330
   -0.0305335473240972   0.6617254487721098   0.4572036690220500
   -0.6661616609711060   0.0243943214240758   0.6027212998036262
   -0.3211656102127519   0.3339573453589608   0.9643710240677236
   -0.6310891502475613   0.6458267126672651   0.4667196572138579
