Ge   N    Li                            
   1.00000000000000     
     0.0729079176484527   -0.0032618871304011   -5.3833431374205798
    -4.8320472296941208    2.8049850538713392   -0.0111173260000770
     4.8184129512098544    2.7845386364565630    0.0296016032172223
   Ge   N    Li
     4     6     2
Direct
  0.1008368142400258  0.6619713182607327  0.9844808150451527
  0.9599987613063021  0.9756033013792518  0.6553798402353550
  0.5533006951777537  0.9893666873757851  0.3149524083756319
  0.4503496741233164  0.2994172867174427  0.9866571585786943
  0.0587779615446209  0.6745855652016246  0.6696193747459773
  0.0973106830422310  0.3013556881604273  0.9464092334105345
  0.0123357492086456  0.9588537555308463  0.3179841710208393
  0.5625422915543936  0.2950173454360296  0.2898967923525575
  0.4691753825378129  0.6527088417734745  0.0172409312734558
  0.5998257138909437  0.0206499862618799  0.6620662679490934
  0.9610969957265212  0.3246936014020179  0.3220743083098583
  0.4696765866504364  0.6457703272691759  0.6332334353129383
 
  0.00000000E+00  0.00000000E+00  0.00000000E+00
  0.00000000E+00  0.00000000E+00  0.00000000E+00
  0.00000000E+00  0.00000000E+00  0.00000000E+00
  0.00000000E+00  0.00000000E+00  0.00000000E+00
  0.00000000E+00  0.00000000E+00  0.00000000E+00
  0.00000000E+00  0.00000000E+00  0.00000000E+00
  0.00000000E+00  0.00000000E+00  0.00000000E+00
  0.00000000E+00  0.00000000E+00  0.00000000E+00
  0.00000000E+00  0.00000000E+00  0.00000000E+00
  0.00000000E+00  0.00000000E+00  0.00000000E+00
  0.00000000E+00  0.00000000E+00  0.00000000E+00
  0.00000000E+00  0.00000000E+00  0.00000000E+00
