Ge   N    Li
1.0
  -4.799813186077556 -2.7807344976185315 0.0299482598058908
  -4.802150503261212 2.782088509015472 -0.0020720378307646
  -0.0095383160199718 -0.0006121350635605 -5.15396845693386
 Ge  N  Li 
4 6 2 
direct
   -0.9800875382675258   0.6536475445780640   0.9639132420890064
   -0.6534044690608097   0.9810064299112966   0.9628341240658075
   -0.3140570240224037   0.9860579333345498   0.4626330466418409
   -0.9873415210312330   0.3136191642897614   0.4625533526268626
   -0.6823867553560062   0.6834693389873934   0.0637918597931275
   -0.9455658905083907   0.3188891732032176   0.0959319847883009
   -0.3185964093274762   0.9463173511127251   0.0956783690644087
   -0.2825731805664091   0.2816533245589952   0.5637072289160655
   -0.0213784813296343   0.6474838265308235   0.5960483036801206
   -0.6483719598896726   0.0214962413719419   0.5959275751035803
   -0.3234646471697217   0.3238692349499387   0.9625546638949203
   -0.6427668747068509   0.6424841416676230   0.4696919821689178
