Ge   N    Li
1.0
  -4.79779456188306 -2.80222277470288 -0.0177159935915258
  -4.7818919398916595 2.77013947558811 -0.0173794485788317
  0.0691297944444262 -0.0050963308689831 -5.54214099314216
 Ge  N  Li 
4 6 2 
direct
   -0.9818739280786983   0.6632958158165535   0.0979497244490375
   -0.6670526404199033   0.9834510651526499   0.9428256563961598
   -0.2996100828964996   0.9832448677302351   0.6005951663661834
   -0.9847831460644939   0.3033953021026575   0.4454999580375087
   -0.6818397761395543   0.6676953840400228   0.9850450413599107
   -0.9383170418752654   0.2966584008040342   0.1021521105833187
   -0.3012118066211184   0.9283092016725332   0.9441949562180271
   -0.2848650583103235   0.2989890537931997   0.5582521219510426
   -0.0283294421722003   0.6700286955653920   0.4412955619389579
   -0.6654531537851440   0.0383937040198816   0.5992476218587158
   -0.3117363953862194   0.3292253846282874   0.9638889607382597
   -0.6549175718220821   0.6373010577500365   0.5798671872300787
