Ge   N    Li
1.0
  -4.798715501030098 -2.7811276316602536 0.036811082446921
  -4.800962100609251 2.7822707962334294 -0.002767829228404
  -0.0087228986205782 -0.0008159621456252 -5.17161266312514
 Ge  N  Li 
4 6 2 
direct
   -0.9792914952960105   0.6538704993687360   0.9675682069986493
   -0.6533263370122383   0.9817589342757103   0.9617689042071476
   -0.3152326289057470   0.9856394330613939   0.4627858386953889
   -0.9891426896867229   0.3138596181584176   0.4625468377462028
   -0.6789862052954092   0.6820927190856594   0.0630394175212530
   -0.9469055298621142   0.3182361436249223   0.0960469313258869
   -0.3192257322967436   0.9492969967567575   0.0954110764453873
   -0.2839162000656189   0.2814309940741566   0.5636786783154690
   -0.0192797250753145   0.6473053032308513   0.5940213534523197
   -0.6496820858755611   0.0211162888276846   0.5957742653711763
   -0.3223565467751683   0.3228505327586504   0.9590963207400520
   -0.6426495750895143   0.6425362412733406   0.4735279020145313
