Ge   N    Li                            
   1.00000000000000     
    -0.0101169121300369   -0.0012236163097545   -5.2069010755077203
    -4.8066985072686217    2.7854993633311498   -0.0041594120236829
     4.8056065638403043    2.7864114886198577   -0.0386879826787710
   Ge   N    Li
     4     6     2
Direct
  0.9892238317809969  0.6541766510271145  0.9772883534037931
  0.9581245347119349  0.9832770210922419  0.6531521358899752
  0.4636636630937403  0.9856255969058907  0.3177970599367725
  0.4628186190683579  0.3135018254525690  0.9921340563445185
  0.0616778696414926  0.6805073574094394  0.6726160521905129
  0.0959452943126280  0.3145096047568146  0.9481446115824568
  0.0946627376421887  0.9555811746059746  0.3227413656488949
  0.5636229801256007  0.2809575010699987  0.2860317408347655
  0.5762138493879903  0.6469559689257949  0.0151477002396945
  0.5954984230327298  0.0207951070627033  0.6518069166477076
  0.9554935169734620  0.3216452168999382  0.3213210270269826
  0.4783204130623417  0.6424606792878080  0.6418137314900534
 
  0.00000000E+00  0.00000000E+00  0.00000000E+00
  0.00000000E+00  0.00000000E+00  0.00000000E+00
  0.00000000E+00  0.00000000E+00  0.00000000E+00
  0.00000000E+00  0.00000000E+00  0.00000000E+00
  0.00000000E+00  0.00000000E+00  0.00000000E+00
  0.00000000E+00  0.00000000E+00  0.00000000E+00
  0.00000000E+00  0.00000000E+00  0.00000000E+00
  0.00000000E+00  0.00000000E+00  0.00000000E+00
  0.00000000E+00  0.00000000E+00  0.00000000E+00
  0.00000000E+00  0.00000000E+00  0.00000000E+00
  0.00000000E+00  0.00000000E+00  0.00000000E+00
  0.00000000E+00  0.00000000E+00  0.00000000E+00
