Ge   N    Li                            
   1.00000000000000     
     0.0695365616033921   -0.0026504058842071   -5.3304105188467199
    -4.8244906105239798    2.8100105169664755   -0.0090299518071588
     4.8110585448682137    2.7897655040625073    0.0292260273443317
   Ge   N    Li
     4     6     2
Direct
  0.1004170826902211  0.6560144747606103  0.9774118012440596
  0.9586723483570410  0.9781381274965497  0.6529343600896098
  0.4818911154468708  0.9959669754520775  0.3267945979876998
  0.4548133034229238  0.3010514718059696  0.9886055754021399
  0.0566125582738550  0.6753885866803770  0.6676852073634763
  0.0953798058240096  0.3008062880296123  0.9472175250403509
  0.0728765800569420  0.9683467085076671  0.3288235126917769
  0.5665745576198802  0.2889199975677457  0.2883990852664340
  0.4771056925562149  0.6488436864013991  0.0116768603090875
  0.5995688727309982  0.0194764451614020  0.6555430140902132
  0.9581192625935770  0.3219129653913626  0.3220014118339876
  0.4731961294304696  0.6451279775139085  0.6329017852912813
 
  0.00000000E+00  0.00000000E+00  0.00000000E+00
  0.00000000E+00  0.00000000E+00  0.00000000E+00
  0.00000000E+00  0.00000000E+00  0.00000000E+00
  0.00000000E+00  0.00000000E+00  0.00000000E+00
  0.00000000E+00  0.00000000E+00  0.00000000E+00
  0.00000000E+00  0.00000000E+00  0.00000000E+00
  0.00000000E+00  0.00000000E+00  0.00000000E+00
  0.00000000E+00  0.00000000E+00  0.00000000E+00
  0.00000000E+00  0.00000000E+00  0.00000000E+00
  0.00000000E+00  0.00000000E+00  0.00000000E+00
  0.00000000E+00  0.00000000E+00  0.00000000E+00
  0.00000000E+00  0.00000000E+00  0.00000000E+00
