Ge   N    Li
1.0
  -4.818412951209854 -2.784538636456563 -0.0296016032172223
  -4.832047229694121 2.8049850538713392 -0.011117326000077
  0.0729079176484527 -0.0032618871304011 -5.38334313742058
 Ge  N  Li 
4 6 2 
direct
   -0.9844808150451525   0.6619713182607329   0.1008368142400258
   -0.6553798402353549   0.9756033013792518   0.9599987613063022
   -0.3149524083756319   0.9893666873757853   0.5533006951777537
   -0.9866571585786942   0.2994172867174428   0.4503496741233164
   -0.6696193747459773   0.6745855652016247   0.0587779615446209
   -0.9464092334105344   0.3013556881604273   0.0973106830422310
   -0.3179841710208393   0.9588537555308464   0.0123357492086456
   -0.2898967923525574   0.2950173454360296   0.5625422915543937
   -0.0172409312734559   0.6527088417734744   0.4691753825378129
   -0.6620662679490933   0.0206499862618799   0.5998257138909437
   -0.3220743083098583   0.3246936014020180   0.9610969957265214
   -0.6332334353129383   0.6457703272691760   0.4696765866504363
