supercell of POSCAR                     
   1.01800000000000     
     3.1310994802600001   -5.4896946145000003   10.0244832682999991
    -9.4821132118399998   -5.5089477087900001    0.0170740616273000
     6.3359946057599998  -11.0114127993000004  -10.0652216442999993
   Al   Gd   N    O 
    84    12    95     1
Direct
  0.0887261157180532  0.5852011209910799  0.3347715252809920
  0.5009641753976553  0.3223796490521593  0.2547973629933225
  0.0846511224278430  0.0842475344709968  0.3341039230897564
  0.2513393234129353  0.5784640844125590  0.4934152373200575
  0.3322009519145936  0.3181336402872361  0.0789517759720724
  0.4168793071369379  0.0875319140428275  0.1706151890840246
  0.0067101672371379  0.8431344698398746  0.2545931683574523
  0.1609592520555339  0.3317277149107625  0.4142203846008812
  0.2471439281266896  0.0868500944125543  0.4964597567615172
  0.1619650277723679  0.8369588093160587  0.4156790688016869
  0.3374233908372872  0.6743006050125686  0.3397398181886544
  0.1548648353044655  0.6755233966482024  0.1662701917532488
  0.2486206817180587  0.4045819050215300  0.2502863776164901
  0.3352741957039598  0.1565905262497438  0.3333921636821344
  0.0065376837157345  0.6739557734486397  0.4940558834518569
  0.1669294794254910  0.1587050161528367  0.1692257359227369
  0.2524163387441121  0.9196141638445710  0.2557214452764285
  0.4160668454889134  0.4178679427586331  0.4171160364211914
  0.4990893014187492  0.1608612309955220  0.4968556228593002
  0.0824946060523359  0.9240621345353617  0.0802305364458462
  0.4197580491125805  0.9193186463732772  0.4121180539662816
  0.0903792281700859  0.5846258373189670  0.8350407106347859
  0.5002918754781973  0.3220997104242045  0.7554222107566844
  0.0864506273347061  0.0854151611148524  0.8344462161748467
  0.2526980159557226  0.5786703057658755  0.9944594415642456
  0.3319870537199279  0.3173364450787020  0.5779393386999772
  0.4171776414082657  0.0871810490801082  0.6709787561986431
  0.0077645801863397  0.8442827794619276  0.7549630518729842
  0.1686339972828534  0.3320613082162964  0.9123669416811069
  0.2475385911968218  0.0876665138511896  0.9959357095113077
  0.1628763532533100  0.8373748770919178  0.9157676678394395
  0.3376527977624164  0.6743764919565365  0.8406543197130532
  0.1542182329580299  0.6762181092518844  0.6678032363766278
  0.2504919745308314  0.4011607124127181  0.7524159289655827
  0.3347214188007186  0.1642182222514137  0.8342550199677774
  0.0076183799721150  0.6735036056053332  0.9941509044354717
  0.1670916580421036  0.1589693047244509  0.6695314271846442
  0.2533344602397563  0.9209719379826566  0.7560657981100221
  0.4135489734382034  0.4149818374323360  0.9153854018839809
  0.4985563795581953  0.1618611024896452  0.9970312306533344
  0.0823734086319803  0.9242005696917204  0.5804250038928629
  0.4202590943672888  0.9210371401466020  0.9116109531884504
  0.5891554428162280  0.5853864757256702  0.3345895603127502
  0.9992461940293396  0.3213567013153664  0.2554336378489381
  0.5862391027806098  0.0850607599231736  0.3347072969686735
  0.7519543050775752  0.5780881803830127  0.4935820165800209
  0.8328938253497640  0.3175425502349611  0.0780375706059715
  0.9168615501592114  0.0865073817365385  0.1705878140964998
  0.5068938527256677  0.8444813570364005  0.2552020283137040
  0.6679075063781426  0.3312746433966609  0.4121347735346035
  0.7476124281347154  0.0872201964677828  0.4961407614564735
  0.6625175431368859  0.8372749754928464  0.4156739244046079
  0.8370904984616772  0.6740780293557691  0.3401764626035089
  0.6547844872423880  0.6769074158630630  0.1687407993291359
  0.7502477070316900  0.4016445515006168  0.2520359230642981
  0.8340276915961979  0.1638665159782633  0.3341536050256977
  0.5072875983071441  0.6741494420263265  0.4942385252796342
  0.6672339039932353  0.1591320360227471  0.1692982767730484
  0.7530319625322548  0.9208332916883393  0.2557718426219751
  0.9120218016381756  0.4150638324794471  0.4155366077905924
  0.9982262875644992  0.1609270448806441  0.4972441754148420
  0.5827865735166995  0.9249269031975373  0.0810071434353645
  0.9196150413018458  0.9201310750804623  0.4117980238364325
  0.5901771313904618  0.5845858400470192  0.8345377135922192
  0.0007824117587774  0.3220224518825248  0.7556697624157493
  0.5861340224995288  0.0855956394594770  0.8343207711567118
  0.7529312818230878  0.5779478097257851  0.9929253970629546
  0.8329902257849469  0.3177893807642178  0.5783036696281840
  0.9173887148635771  0.0870788420692037  0.6708992003474492
  0.5074707030186119  0.8442729320764926  0.7549934990701814
  0.6685167956868128  0.3317128743887139  0.9114885685143292
  0.7475137160830840  0.0882669184338880  0.9956761032610117
  0.6627844532840186  0.8374083166516471  0.9151379442172143
  0.8379043522378780  0.6745448945237769  0.8405730811238783
  0.6543005666901109  0.6762994915626805  0.6679702821184961
  0.7504992016846757  0.4009886678757155  0.7521450262819585
  0.8349068956726242  0.1638485311815856  0.8340230690264647
  0.5077883926866207  0.6741863585333761  0.9931631598579429
  0.6673594262649374  0.1589310607769718  0.6694297707772634
  0.7533648821677232  0.9209089999095994  0.7558551012629735
  0.9137260851721720  0.4145695216273282  0.9149254269390710
  0.9989220153213694  0.1610027669385801  0.9966977093516007
  0.5824202169514976  0.9243750904717132  0.5805424454315542
  0.9205742573690330  0.9203756958077065  0.9117733360162816
  0.3996611711945093  0.5787015685218933  0.1782461285953332
  0.3313206233648742  0.8375148349274681  0.0831485090608837
  0.0818922570835596  0.4177324113926346  0.0847421795946204
  0.3971200383521705  0.5785819737367390  0.6798493114980033
  0.3295810444402321  0.8354316665910559  0.5837550175428845
  0.0827941858168728  0.4200828899693789  0.5852762642012692
  0.8970219232953767  0.5787118952550401  0.1784267836886144
  0.8295819961631565  0.8356017032377991  0.0822662423480693
  0.5841542128464070  0.4191864525930811  0.0836132207790428
  0.8966674085706785  0.5786303644278235  0.6802083862974371
  0.8301466525971861  0.8355494521667879  0.5833235618243506
  0.5821962150434032  0.4180412341583377  0.5846029007507738
  0.2197219475885674  0.5791933716021944  0.2674517706699220
  0.0338704135348635  0.6105754625858566  0.1006269796166208
  0.1306297284262925  0.3170206302799343  0.2019853589756764
  0.2119809771713221  0.0830025425728991  0.2725817976725367
  0.3821914267740070  0.5835125802808747  0.4368524921659542
  0.4492693695762640  0.3201727589286349  0.0114045994611303
  0.0406223329770512  0.0860745284368747  0.1039933207769934
  0.1324261585153010  0.8423494757349204  0.1861206371700206
  0.3759821092267188  0.0811669865625717  0.4351191550658413
  0.4769813343233480  0.8383021962688701  0.0083126592973599
  0.2927667436293220  0.8349421025189585  0.3563557866830465
  0.4715215740287988  0.6851255102258804  0.2859114918496886
  0.2645750398782880  0.6549074144637217  0.0955702813552293
  0.3726205495147497  0.3817562405873147  0.1877921477599358
  0.4608479029378501  0.1638660323836163  0.2747418970843682
  0.1342742586245507  0.6656652152522042  0.4329447558392161
  0.2251416784567510  0.4122741274548147  0.0098185723405990
  0.2898749073913862  0.1577801351050212  0.1024012776143124
  0.3840754815405205  0.9286346220062711  0.2018901186478956
  0.0433785868109595  0.4193597339456900  0.3516486127793215
  0.1272361746732784  0.1707155671576572  0.4337518452125835
  0.1958648344941025  0.9322877588263481  0.0103386740706028
  0.0480762800895320  0.9233298494813340  0.3523124085289311
  0.2199053242613047  0.5815353001907368  0.7664546662790670
  0.0328697574881502  0.6126460201976087  0.6009787268973312
  0.1302620340064067  0.3177621815548335  0.6998264012381199
  0.2127912870119033  0.0830909228571386  0.7722688503393300
  0.3834184531526574  0.5841913277617365  0.9377141317338555
  0.4476664977701788  0.3190083771559102  0.5086238125715568
  0.0407282542101299  0.0860772419353282  0.6035818367125145
  0.1330317389932745  0.8432614954981617  0.6859179124302699
  0.2970194556231647  0.3299357699461609  0.8525456535054872
  0.3768197351408702  0.0811068015003187  0.9355596768115930
  0.4748744109615970  0.8377833572590418  0.5088202545395362
  0.2936199405491209  0.8356053340695340  0.8565649058594644
  0.4726216776862202  0.6851590137733581  0.7866395816780454
  0.2616936017036622  0.6520677252597409  0.5947900805743913
  0.3747379038304075  0.3819768781666468  0.6845609071478052
  0.4619497748704333  0.1627264293567521  0.7739375653727194
  0.1355394877673177  0.6660060807430028  0.9333734310789978
  0.2250364790374064  0.4111547432216085  0.5069161366288597
  0.2898513618724650  0.1573927658512417  0.6017796092488865
  0.3845593807692822  0.9276502787382626  0.7012486798791215
  0.0438604142491457  0.4197974108173597  0.8519128389318027
  0.1269765294670009  0.1713102435278273  0.9346490172316209
  0.1956082095370348  0.9318682494932560  0.5100660015419720
  0.0489707501576362  0.9241642496686637  0.8526229293922611
  0.7183956395725488  0.5812660987897971  0.2667535738565050
  0.5360024327560637  0.6124668892745362  0.1000817153490843
  0.6296807051098767  0.3180838334309328  0.1996601084190175
  0.7118864279686790  0.0830413802694636  0.2722063862859301
  0.8826020158250927  0.5840015366622708  0.4372127778050086
  0.9493522147883837  0.3190310870340411  0.0102508885473611
  0.5403418925339167  0.0864317573728570  0.1041688285296729
  0.6320826362827177  0.8435263477109700  0.1863487588302704
  0.7959774407127611  0.3299069046932956  0.3521767878849360
  0.8766479609499953  0.0808182301554581  0.4352173169904887
  0.9755336634846401  0.8376809768821616  0.0085715896998977
  0.7928524733409503  0.8352771428731316  0.3562010951432981
  0.9714126478158178  0.6841138353653093  0.2860176630369580
  0.7603986138104233  0.6530055788193536  0.0946079227787990
  0.8747586600804880  0.3821041875806586  0.1853255809177412
  0.9612501389124191  0.1620195578692218  0.2739040101209227
  0.6343125351967487  0.6655746254540560  0.4329946163014995
  0.7261881802683448  0.4117783986695329  0.0085555813996834
  0.7898526471388081  0.1575414810139151  0.1020814378664241
  0.8838994278771608  0.9267888115749514  0.2006039881447776
  0.5408516833015184  0.4192994473009435  0.3517491961109585
  0.6266031583800356  0.1709435358705775  0.4345614831124323
  0.6952086971209823  0.9328552970831581  0.0100980289436237
  0.5480422743695925  0.9241735074853352  0.3529385432892198
  0.7198918884006815  0.5814799381787239  0.7663691900563450
  0.5339713734020037  0.6112478995113193  0.6006607500124943
  0.6300177629757044  0.3176994496729932  0.6997709842516997
  0.7126366756872500  0.0829623325521638  0.7722003517610077
  0.8835518954427712  0.5840075916309218  0.9372998468421798
  0.9505454701520506  0.3198838981228249  0.5103405952725026
  0.5403546556025844  0.0864723245427541  0.6035230766974706
  0.6326137929247793  0.8432296865041096  0.6859896522541007
  0.7970125442033620  0.3295411116725475  0.8520846508515589
  0.8766670557091913  0.0805780667663782  0.9353477839861668
  0.9753507789484530  0.8379788769558587  0.5084293379091065
  0.7935524105979113  0.8355866302379908  0.8563898014997946
  0.9729221589198644  0.6852134451322627  0.7867212059321460
  0.7615557719474211  0.6528038154384177  0.5948703086701670
  0.8752610549480195  0.3820082603073587  0.6851567267395211
  0.9622828824685854  0.1625135086271001  0.7739530454886747
  0.6356604734205789  0.6659547896900477  0.9327378177755818
  0.7251422371050751  0.4115698120283326  0.5089372140751394
  0.7902675838777355  0.1575537462799304  0.6019465348776762
  0.8846456772140598  0.9274695947351645  0.7011153430193104
  0.5435310261203981  0.4198242146156446  0.8517771850532512
  0.6265063108092974  0.1715496110810832  0.9346292777935048
  0.6955786084782858  0.9320133537066511  0.5102872283987807
  0.5487934572163553  0.9243463063249422  0.8525600075311317
  0.2942374504635836  0.3303734169028090  0.3520785876342032
 
  0.00000000E+00  0.00000000E+00  0.00000000E+00
  0.00000000E+00  0.00000000E+00  0.00000000E+00
  0.00000000E+00  0.00000000E+00  0.00000000E+00
  0.00000000E+00  0.00000000E+00  0.00000000E+00
  0.00000000E+00  0.00000000E+00  0.00000000E+00
  0.00000000E+00  0.00000000E+00  0.00000000E+00
  0.00000000E+00  0.00000000E+00  0.00000000E+00
  0.00000000E+00  0.00000000E+00  0.00000000E+00
  0.00000000E+00  0.00000000E+00  0.00000000E+00
  0.00000000E+00  0.00000000E+00  0.00000000E+00
  0.00000000E+00  0.00000000E+00  0.00000000E+00
  0.00000000E+00  0.00000000E+00  0.00000000E+00
  0.00000000E+00  0.00000000E+00  0.00000000E+00
  0.00000000E+00  0.00000000E+00  0.00000000E+00
  0.00000000E+00  0.00000000E+00  0.00000000E+00
  0.00000000E+00  0.00000000E+00  0.00000000E+00
  0.00000000E+00  0.00000000E+00  0.00000000E+00
  0.00000000E+00  0.00000000E+00  0.00000000E+00
  0.00000000E+00  0.00000000E+00  0.00000000E+00
  0.00000000E+00  0.00000000E+00  0.00000000E+00
  0.00000000E+00  0.00000000E+00  0.00000000E+00
  0.00000000E+00  0.00000000E+00  0.00000000E+00
  0.00000000E+00  0.00000000E+00  0.00000000E+00
  0.00000000E+00  0.00000000E+00  0.00000000E+00
  0.00000000E+00  0.00000000E+00  0.00000000E+00
  0.00000000E+00  0.00000000E+00  0.00000000E+00
  0.00000000E+00  0.00000000E+00  0.00000000E+00
  0.00000000E+00  0.00000000E+00  0.00000000E+00
  0.00000000E+00  0.00000000E+00  0.00000000E+00
  0.00000000E+00  0.00000000E+00  0.00000000E+00
  0.00000000E+00  0.00000000E+00  0.00000000E+00
  0.00000000E+00  0.00000000E+00  0.00000000E+00
  0.00000000E+00  0.00000000E+00  0.00000000E+00
  0.00000000E+00  0.00000000E+00  0.00000000E+00
  0.00000000E+00  0.00000000E+00  0.00000000E+00
  0.00000000E+00  0.00000000E+00  0.00000000E+00
  0.00000000E+00  0.00000000E+00  0.00000000E+00
  0.00000000E+00  0.00000000E+00  0.00000000E+00
  0.00000000E+00  0.00000000E+00  0.00000000E+00
  0.00000000E+00  0.00000000E+00  0.00000000E+00
  0.00000000E+00  0.00000000E+00  0.00000000E+00
  0.00000000E+00  0.00000000E+00  0.00000000E+00
  0.00000000E+00  0.00000000E+00  0.00000000E+00
  0.00000000E+00  0.00000000E+00  0.00000000E+00
  0.00000000E+00  0.00000000E+00  0.00000000E+00
  0.00000000E+00  0.00000000E+00  0.00000000E+00
  0.00000000E+00  0.00000000E+00  0.00000000E+00
  0.00000000E+00  0.00000000E+00  0.00000000E+00
  0.00000000E+00  0.00000000E+00  0.00000000E+00
  0.00000000E+00  0.00000000E+00  0.00000000E+00
  0.00000000E+00  0.00000000E+00  0.00000000E+00
  0.00000000E+00  0.00000000E+00  0.00000000E+00
  0.00000000E+00  0.00000000E+00  0.00000000E+00
  0.00000000E+00  0.00000000E+00  0.00000000E+00
  0.00000000E+00  0.00000000E+00  0.00000000E+00
  0.00000000E+00  0.00000000E+00  0.00000000E+00
  0.00000000E+00  0.00000000E+00  0.00000000E+00
  0.00000000E+00  0.00000000E+00  0.00000000E+00
  0.00000000E+00  0.00000000E+00  0.00000000E+00
  0.00000000E+00  0.00000000E+00  0.00000000E+00
  0.00000000E+00  0.00000000E+00  0.00000000E+00
  0.00000000E+00  0.00000000E+00  0.00000000E+00
  0.00000000E+00  0.00000000E+00  0.00000000E+00
  0.00000000E+00  0.00000000E+00  0.00000000E+00
  0.00000000E+00  0.00000000E+00  0.00000000E+00
  0.00000000E+00  0.00000000E+00  0.00000000E+00
  0.00000000E+00  0.00000000E+00  0.00000000E+00
  0.00000000E+00  0.00000000E+00  0.00000000E+00
  0.00000000E+00  0.00000000E+00  0.00000000E+00
  0.00000000E+00  0.00000000E+00  0.00000000E+00
  0.00000000E+00  0.00000000E+00  0.00000000E+00
  0.00000000E+00  0.00000000E+00  0.00000000E+00
  0.00000000E+00  0.00000000E+00  0.00000000E+00
  0.00000000E+00  0.00000000E+00  0.00000000E+00
  0.00000000E+00  0.00000000E+00  0.00000000E+00
  0.00000000E+00  0.00000000E+00  0.00000000E+00
  0.00000000E+00  0.00000000E+00  0.00000000E+00
  0.00000000E+00  0.00000000E+00  0.00000000E+00
  0.00000000E+00  0.00000000E+00  0.00000000E+00
  0.00000000E+00  0.00000000E+00  0.00000000E+00
  0.00000000E+00  0.00000000E+00  0.00000000E+00
  0.00000000E+00  0.00000000E+00  0.00000000E+00
  0.00000000E+00  0.00000000E+00  0.00000000E+00
  0.00000000E+00  0.00000000E+00  0.00000000E+00
  0.00000000E+00  0.00000000E+00  0.00000000E+00
  0.00000000E+00  0.00000000E+00  0.00000000E+00
  0.00000000E+00  0.00000000E+00  0.00000000E+00
  0.00000000E+00  0.00000000E+00  0.00000000E+00
  0.00000000E+00  0.00000000E+00  0.00000000E+00
  0.00000000E+00  0.00000000E+00  0.00000000E+00
  0.00000000E+00  0.00000000E+00  0.00000000E+00
  0.00000000E+00  0.00000000E+00  0.00000000E+00
  0.00000000E+00  0.00000000E+00  0.00000000E+00
  0.00000000E+00  0.00000000E+00  0.00000000E+00
  0.00000000E+00  0.00000000E+00  0.00000000E+00
  0.00000000E+00  0.00000000E+00  0.00000000E+00
  0.00000000E+00  0.00000000E+00  0.00000000E+00
  0.00000000E+00  0.00000000E+00  0.00000000E+00
  0.00000000E+00  0.00000000E+00  0.00000000E+00
  0.00000000E+00  0.00000000E+00  0.00000000E+00
  0.00000000E+00  0.00000000E+00  0.00000000E+00
  0.00000000E+00  0.00000000E+00  0.00000000E+00
  0.00000000E+00  0.00000000E+00  0.00000000E+00
  0.00000000E+00  0.00000000E+00  0.00000000E+00
  0.00000000E+00  0.00000000E+00  0.00000000E+00
  0.00000000E+00  0.00000000E+00  0.00000000E+00
  0.00000000E+00  0.00000000E+00  0.00000000E+00
  0.00000000E+00  0.00000000E+00  0.00000000E+00
  0.00000000E+00  0.00000000E+00  0.00000000E+00
  0.00000000E+00  0.00000000E+00  0.00000000E+00
  0.00000000E+00  0.00000000E+00  0.00000000E+00
  0.00000000E+00  0.00000000E+00  0.00000000E+00
  0.00000000E+00  0.00000000E+00  0.00000000E+00
  0.00000000E+00  0.00000000E+00  0.00000000E+00
  0.00000000E+00  0.00000000E+00  0.00000000E+00
  0.00000000E+00  0.00000000E+00  0.00000000E+00
  0.00000000E+00  0.00000000E+00  0.00000000E+00
  0.00000000E+00  0.00000000E+00  0.00000000E+00
  0.00000000E+00  0.00000000E+00  0.00000000E+00
  0.00000000E+00  0.00000000E+00  0.00000000E+00
  0.00000000E+00  0.00000000E+00  0.00000000E+00
  0.00000000E+00  0.00000000E+00  0.00000000E+00
  0.00000000E+00  0.00000000E+00  0.00000000E+00
  0.00000000E+00  0.00000000E+00  0.00000000E+00
  0.00000000E+00  0.00000000E+00  0.00000000E+00
  0.00000000E+00  0.00000000E+00  0.00000000E+00
  0.00000000E+00  0.00000000E+00  0.00000000E+00
  0.00000000E+00  0.00000000E+00  0.00000000E+00
  0.00000000E+00  0.00000000E+00  0.00000000E+00
  0.00000000E+00  0.00000000E+00  0.00000000E+00
  0.00000000E+00  0.00000000E+00  0.00000000E+00
  0.00000000E+00  0.00000000E+00  0.00000000E+00
  0.00000000E+00  0.00000000E+00  0.00000000E+00
  0.00000000E+00  0.00000000E+00  0.00000000E+00
  0.00000000E+00  0.00000000E+00  0.00000000E+00
  0.00000000E+00  0.00000000E+00  0.00000000E+00
  0.00000000E+00  0.00000000E+00  0.00000000E+00
  0.00000000E+00  0.00000000E+00  0.00000000E+00
  0.00000000E+00  0.00000000E+00  0.00000000E+00
  0.00000000E+00  0.00000000E+00  0.00000000E+00
  0.00000000E+00  0.00000000E+00  0.00000000E+00
  0.00000000E+00  0.00000000E+00  0.00000000E+00
  0.00000000E+00  0.00000000E+00  0.00000000E+00
  0.00000000E+00  0.00000000E+00  0.00000000E+00
  0.00000000E+00  0.00000000E+00  0.00000000E+00
  0.00000000E+00  0.00000000E+00  0.00000000E+00
  0.00000000E+00  0.00000000E+00  0.00000000E+00
  0.00000000E+00  0.00000000E+00  0.00000000E+00
  0.00000000E+00  0.00000000E+00  0.00000000E+00
  0.00000000E+00  0.00000000E+00  0.00000000E+00
  0.00000000E+00  0.00000000E+00  0.00000000E+00
  0.00000000E+00  0.00000000E+00  0.00000000E+00
  0.00000000E+00  0.00000000E+00  0.00000000E+00
  0.00000000E+00  0.00000000E+00  0.00000000E+00
  0.00000000E+00  0.00000000E+00  0.00000000E+00
  0.00000000E+00  0.00000000E+00  0.00000000E+00
  0.00000000E+00  0.00000000E+00  0.00000000E+00
  0.00000000E+00  0.00000000E+00  0.00000000E+00
  0.00000000E+00  0.00000000E+00  0.00000000E+00
  0.00000000E+00  0.00000000E+00  0.00000000E+00
  0.00000000E+00  0.00000000E+00  0.00000000E+00
  0.00000000E+00  0.00000000E+00  0.00000000E+00
  0.00000000E+00  0.00000000E+00  0.00000000E+00
  0.00000000E+00  0.00000000E+00  0.00000000E+00
  0.00000000E+00  0.00000000E+00  0.00000000E+00
  0.00000000E+00  0.00000000E+00  0.00000000E+00
  0.00000000E+00  0.00000000E+00  0.00000000E+00
  0.00000000E+00  0.00000000E+00  0.00000000E+00
  0.00000000E+00  0.00000000E+00  0.00000000E+00
  0.00000000E+00  0.00000000E+00  0.00000000E+00
  0.00000000E+00  0.00000000E+00  0.00000000E+00
  0.00000000E+00  0.00000000E+00  0.00000000E+00
  0.00000000E+00  0.00000000E+00  0.00000000E+00
  0.00000000E+00  0.00000000E+00  0.00000000E+00
  0.00000000E+00  0.00000000E+00  0.00000000E+00
  0.00000000E+00  0.00000000E+00  0.00000000E+00
  0.00000000E+00  0.00000000E+00  0.00000000E+00
  0.00000000E+00  0.00000000E+00  0.00000000E+00
  0.00000000E+00  0.00000000E+00  0.00000000E+00
  0.00000000E+00  0.00000000E+00  0.00000000E+00
  0.00000000E+00  0.00000000E+00  0.00000000E+00
  0.00000000E+00  0.00000000E+00  0.00000000E+00
  0.00000000E+00  0.00000000E+00  0.00000000E+00
  0.00000000E+00  0.00000000E+00  0.00000000E+00
  0.00000000E+00  0.00000000E+00  0.00000000E+00
  0.00000000E+00  0.00000000E+00  0.00000000E+00
  0.00000000E+00  0.00000000E+00  0.00000000E+00
  0.00000000E+00  0.00000000E+00  0.00000000E+00
  0.00000000E+00  0.00000000E+00  0.00000000E+00
  0.00000000E+00  0.00000000E+00  0.00000000E+00
  0.00000000E+00  0.00000000E+00  0.00000000E+00
  0.00000000E+00  0.00000000E+00  0.00000000E+00
