generated by phonopy                    
   1.00000000000000     
    11.7777700938999992   -0.0000006592896312    0.0000118211769744
    -0.0000006477562692   11.7777479613999994   -0.0000130806483528
     0.0000177256125076   -0.0000204342245446   17.8544012557999991
   Bi   Cu   Cl   Se   O 
    36    36     1    35    36
Direct
  0.9980277317747621  0.1645288996985670  0.4305963274608686
  0.3355155260920029  0.1645225605028600  0.4305919419982729
  0.6667749253506301  0.1658682931864490  0.4299625388427586
  0.9980236456359890  0.5020278036516501  0.4306003142868846
  0.3355096959959027  0.5020238301973521  0.4305952044262824
  0.6667650036183304  0.5006831365597009  0.4299655579074795
  0.9993456178119828  0.8332761195897831  0.4299629163202070
  0.3341873026247697  0.8332740334153996  0.4299602874036239
  0.6667672180807287  0.8332782282465843  0.4305291185905560
  0.0002070154595870  0.1668597659979412  0.9289370731651161
  0.3331571740805046  0.1668662617367929  0.9289380446017930
  0.6666794402371963  0.1661551246294408  0.9283128194139678
  0.0002041593378408  0.4998041143830108  0.9289369857767014
  0.3331552008104950  0.4998084660188766  0.9289386909464241
  0.6666833088338890  0.5005163722850483  0.9283105978844048
  0.9994896643670401  0.8333310757843009  0.9283020222298290
  0.3338701796915942  0.8333304063027072  0.9283043012228873
  0.6666777247191291  0.8333352428908540  0.9283427704226810
  0.1666817352494263  0.9990600874290578  0.0698389993454072
  0.5003843718326380  0.9996316226407842  0.0705114195094723
  0.8329715763599239  0.9996305587354826  0.0705098516046689
  0.1666833440124336  0.3333315894624604  0.0711077061502507
  0.5009490204382416  0.3333397084647132  0.0698531221247194
  0.8324238661592602  0.3333331519604457  0.0698562122591753
  0.1666769106887358  0.6675966183691528  0.0698447359492178
  0.5003881495874793  0.6670394591487963  0.0705115136867747
  0.8329706909651620  0.6670414315691247  0.0705095262273332
  0.1667625074930825  0.0003102973440079  0.5717264312101662
  0.5004755303249340  0.9995731537743495  0.5727449211355804
  0.8330512816779887  0.9995681062946602  0.5727469404192078
  0.1667652762535283  0.3332781526742750  0.5706391973502178
  0.4997237256695826  0.3332790038877036  0.5717257017174902
  0.8338039260204155  0.3332756519487248  0.5717304839962836
  0.1667685669547296  0.6662464413649190  0.5717305039724749
  0.5004760829064594  0.6669908429824929  0.5727439648660635
  0.8330524499034908  0.6669828955608921  0.5727457386953958
  0.9975184519766387  0.9961960828168657  0.2508329392225974
  0.3359518626979394  0.9962106220716151  0.2508406145683537
  0.6667524601686452  0.9997288485259901  0.2500299092648532
  0.9764658046976606  0.3333220476295722  0.2427806639498584
  0.3571547912270674  0.3333345793341493  0.2427410173211442
  0.6667528047570386  0.3333280752032337  0.2503391183807508
  0.9975603749098738  0.6704031183842503  0.2508411285592516
  0.3359206986476622  0.6703893519063229  0.2508421513715575
  0.6667586712255300  0.6669071443364061  0.2500361804989453
  0.0003425225476192  0.0002775297886544  0.7501402400360178
  0.3330550359313023  0.0002781869192177  0.7501410671754627
  0.6666961635412250  0.0006078074873912  0.7502755650719379
  0.0003218925981940  0.3332873304285471  0.7502166414742177
  0.3330837952186201  0.3332885770526630  0.7502145146682793
  0.6666999393181428  0.3332898046909918  0.7504993844652361
  0.0003494127635264  0.6663136098911693  0.7501352823528649
  0.3330512016999023  0.6663159621170038  0.7501328348967107
  0.6666906573518006  0.6659848926013510  0.7502687253281763
  0.1667036532645696  0.1424926471301120  0.2425729186913657
  0.5037765313374791  0.1641479408623567  0.2508497469070647
  0.8296721907458604  0.1641740464009658  0.2508528519041278
  0.1666979877639250  0.5239325518634601  0.2426225484535536
  0.5037873681023370  0.5024478619850896  0.2508520917782349
  0.8296764684891187  0.5024220589956911  0.2508512500248585
  0.1667033678584318  0.8332921586322328  0.2503277244479065
  0.5003223285595126  0.8332790945063593  0.2500371964688668
  0.8330834019287110  0.8332778100399025  0.2500411304598558
  0.1667456195424819  0.1669317586976646  0.7502164882238844
  0.4997527501869072  0.1669686040421894  0.7501366110279761
  0.8337249970865415  0.1669692371073879  0.7501347924679251
  0.1667446029279702  0.4997017068599376  0.7502173256320006
  0.4997528591520393  0.4996703038056935  0.7501353834270574
  0.8337214316376773  0.4996705497285703  0.7501321342753897
  0.1667406010400896  0.8333253210557459  0.7504977623712108
  0.4994337390018302  0.8333298885552196  0.7502775909565855
  0.8340424256591703  0.8333270676245164  0.7502746401443687
  0.1667353781610572  0.3333087636104537  0.3307463192631204
  0.5009816652145034  0.3332926872502497  0.3391207435650756
  0.8325350446202577  0.3332946005226916  0.3391147386705882
  0.1667503657597393  0.6675280975728057  0.3391217625161005
  0.5006741530610839  0.6672069101711244  0.3384036155490193
  0.8328324853631557  0.6671996648368150  0.3384055792177634
  0.1667382586545969  0.9990321949954080  0.3391299708980000
  0.5006742730430531  0.9993708014500626  0.3384012297569754
  0.8328197594840674  0.9993743811775246  0.3384033547567640
  0.1667007220615488  0.3333187712495160  0.8375484973525289
  0.4998909740458899  0.3333225607913235  0.8373724935399025
  0.8335076078060979  0.3333212087156170  0.8373705138872864
  0.1666996865225130  0.6665133898941562  0.8373707761600500
  0.4999125473965407  0.6665359131479818  0.8371349181645584
  0.8334798686367293  0.6665335906950460  0.8371314210102270
  0.1666975152262467  0.0001298777276020  0.8373740215148757
  0.4999133102319249  0.0001130342303028  0.8371388963090922
  0.8334781370584494  0.0001116915066035  0.8371381153081998
  0.3340653512218026  0.1659957887955699  0.1642729369370031
  0.6667158668222797  0.1667425084533676  0.1624481102176887
  0.9993448308861161  0.1659908185101031  0.1642666182609247
  0.3340672586666784  0.5006472006946439  0.1642681777267612
  0.6667178813375116  0.4999025171996863  0.1624454456588467
  0.9993496824754047  0.5006418968489612  0.1642587430109472
  0.3332927531324117  0.8333123196039196  0.1624364561320064
  0.6667048288506976  0.8333173186725276  0.1631191842003048
  0.0001093498337426  0.8333055233508233  0.1624315763106736
  0.3332664477656380  0.1667664058379756  0.6627860108512635
  0.6667409329481444  0.1671204992133895  0.6627541373946002
  0.0002212767031580  0.1667667042172312  0.6627892667217523
  0.3332654135098707  0.4998151799000823  0.6627894632637421
  0.6667404888767976  0.4994601719130642  0.6627547585037803
  0.0002242140151054  0.4998128919342903  0.6627901218096355
  0.3329173695099286  0.8332982481001991  0.6627550485266980
  0.6667393023112709  0.8332965305240165  0.6633399633892836
  0.0005689227650549  0.8332948820028108  0.6627571122729563
  0.1667598375359631  0.1672568801248673  0.4993260624932674
  0.4992917681022178  0.1661598798384176  0.5005122452918798
  0.8342318400634241  0.1661611211259313  0.5005156513623632
  0.1667627423783955  0.4993070200435241  0.4993302872844438
  0.4992871322940857  0.5004044959182607  0.5005129116770846
  0.8342304579382400  0.5004028656556443  0.5005167380633679
  0.1667601612934106  0.8332828838045785  0.5006929006825374
  0.4998024067103728  0.8332835604530047  0.5013751650109910
  0.8337145576160410  0.8332797445032512  0.5013773870598897
  0.1666885666302420  0.1667993771693332  0.0003397121058129
  0.5001451735770743  0.1666042550836195  0.9998172146397124
  0.8332295157872736  0.1665983838786360  0.9998142608971818
  0.1666853584426562  0.4998576073368284  0.0003398100898337
  0.5001472416402706  0.5000598701693661  0.9998125159209508
  0.8332310456117753  0.5000564584560578  0.9998141475879194
  0.1666868727346156  0.8333253325649963  0.9994636965079451
  0.5002252398689464  0.8333287402197485  0.9996792884653445
  0.8331455432871593  0.8333308253207434  0.9996744531039496
  0.9999560318546656  0.9998677283067607  0.9998095921945378
  0.3334221914554050  0.9998711424372857  0.9998100658036719
  0.6666842005816136  0.9997955657042468  0.9996794775609388
  0.0001595708755033  0.3333270770949639  0.0003386451234135
  0.3332193138360822  0.3333336864524341  0.0003404719850622
  0.6666911127208053  0.3333317692594733  0.9994794300171961
  0.9999537345110951  0.6667887642248829  0.9998097302964837
  0.3334207303843897  0.6667876767450878  0.9998132684027468
  0.6666873992806117  0.6668656524995527  0.9996759350205409
  0.9996314812165963  0.0007525828100796  0.5005141726784785
  0.3338826370050256  0.0007507986909800  0.5005136929836667
  0.6667596694527944  0.0002442312212523  0.5013723523486036
  0.0007401093915718  0.3332824972927924  0.4993284331277721
  0.3327771601111209  0.3332789613975891  0.4993247798576874
  0.6667589811412213  0.3332800699730072  0.5006982544741163
  0.9996352434288340  0.6658107320455002  0.5005196797806875
  0.3338850246109288  0.6658113811065576  0.5005148183591501
  0.6667596219078646  0.6663201329134623  0.5013729848119794
 
  0.00000000E+00  0.00000000E+00  0.00000000E+00
  0.00000000E+00  0.00000000E+00  0.00000000E+00
  0.00000000E+00  0.00000000E+00  0.00000000E+00
  0.00000000E+00  0.00000000E+00  0.00000000E+00
  0.00000000E+00  0.00000000E+00  0.00000000E+00
  0.00000000E+00  0.00000000E+00  0.00000000E+00
  0.00000000E+00  0.00000000E+00  0.00000000E+00
  0.00000000E+00  0.00000000E+00  0.00000000E+00
  0.00000000E+00  0.00000000E+00  0.00000000E+00
  0.00000000E+00  0.00000000E+00  0.00000000E+00
  0.00000000E+00  0.00000000E+00  0.00000000E+00
  0.00000000E+00  0.00000000E+00  0.00000000E+00
  0.00000000E+00  0.00000000E+00  0.00000000E+00
  0.00000000E+00  0.00000000E+00  0.00000000E+00
  0.00000000E+00  0.00000000E+00  0.00000000E+00
  0.00000000E+00  0.00000000E+00  0.00000000E+00
  0.00000000E+00  0.00000000E+00  0.00000000E+00
  0.00000000E+00  0.00000000E+00  0.00000000E+00
  0.00000000E+00  0.00000000E+00  0.00000000E+00
  0.00000000E+00  0.00000000E+00  0.00000000E+00
  0.00000000E+00  0.00000000E+00  0.00000000E+00
  0.00000000E+00  0.00000000E+00  0.00000000E+00
  0.00000000E+00  0.00000000E+00  0.00000000E+00
  0.00000000E+00  0.00000000E+00  0.00000000E+00
  0.00000000E+00  0.00000000E+00  0.00000000E+00
  0.00000000E+00  0.00000000E+00  0.00000000E+00
  0.00000000E+00  0.00000000E+00  0.00000000E+00
  0.00000000E+00  0.00000000E+00  0.00000000E+00
  0.00000000E+00  0.00000000E+00  0.00000000E+00
  0.00000000E+00  0.00000000E+00  0.00000000E+00
  0.00000000E+00  0.00000000E+00  0.00000000E+00
  0.00000000E+00  0.00000000E+00  0.00000000E+00
  0.00000000E+00  0.00000000E+00  0.00000000E+00
  0.00000000E+00  0.00000000E+00  0.00000000E+00
  0.00000000E+00  0.00000000E+00  0.00000000E+00
  0.00000000E+00  0.00000000E+00  0.00000000E+00
  0.00000000E+00  0.00000000E+00  0.00000000E+00
  0.00000000E+00  0.00000000E+00  0.00000000E+00
  0.00000000E+00  0.00000000E+00  0.00000000E+00
  0.00000000E+00  0.00000000E+00  0.00000000E+00
  0.00000000E+00  0.00000000E+00  0.00000000E+00
  0.00000000E+00  0.00000000E+00  0.00000000E+00
  0.00000000E+00  0.00000000E+00  0.00000000E+00
  0.00000000E+00  0.00000000E+00  0.00000000E+00
  0.00000000E+00  0.00000000E+00  0.00000000E+00
  0.00000000E+00  0.00000000E+00  0.00000000E+00
  0.00000000E+00  0.00000000E+00  0.00000000E+00
  0.00000000E+00  0.00000000E+00  0.00000000E+00
  0.00000000E+00  0.00000000E+00  0.00000000E+00
  0.00000000E+00  0.00000000E+00  0.00000000E+00
  0.00000000E+00  0.00000000E+00  0.00000000E+00
  0.00000000E+00  0.00000000E+00  0.00000000E+00
  0.00000000E+00  0.00000000E+00  0.00000000E+00
  0.00000000E+00  0.00000000E+00  0.00000000E+00
  0.00000000E+00  0.00000000E+00  0.00000000E+00
  0.00000000E+00  0.00000000E+00  0.00000000E+00
  0.00000000E+00  0.00000000E+00  0.00000000E+00
  0.00000000E+00  0.00000000E+00  0.00000000E+00
  0.00000000E+00  0.00000000E+00  0.00000000E+00
  0.00000000E+00  0.00000000E+00  0.00000000E+00
  0.00000000E+00  0.00000000E+00  0.00000000E+00
  0.00000000E+00  0.00000000E+00  0.00000000E+00
  0.00000000E+00  0.00000000E+00  0.00000000E+00
  0.00000000E+00  0.00000000E+00  0.00000000E+00
  0.00000000E+00  0.00000000E+00  0.00000000E+00
  0.00000000E+00  0.00000000E+00  0.00000000E+00
  0.00000000E+00  0.00000000E+00  0.00000000E+00
  0.00000000E+00  0.00000000E+00  0.00000000E+00
  0.00000000E+00  0.00000000E+00  0.00000000E+00
  0.00000000E+00  0.00000000E+00  0.00000000E+00
  0.00000000E+00  0.00000000E+00  0.00000000E+00
  0.00000000E+00  0.00000000E+00  0.00000000E+00
  0.00000000E+00  0.00000000E+00  0.00000000E+00
  0.00000000E+00  0.00000000E+00  0.00000000E+00
  0.00000000E+00  0.00000000E+00  0.00000000E+00
  0.00000000E+00  0.00000000E+00  0.00000000E+00
  0.00000000E+00  0.00000000E+00  0.00000000E+00
  0.00000000E+00  0.00000000E+00  0.00000000E+00
  0.00000000E+00  0.00000000E+00  0.00000000E+00
  0.00000000E+00  0.00000000E+00  0.00000000E+00
  0.00000000E+00  0.00000000E+00  0.00000000E+00
  0.00000000E+00  0.00000000E+00  0.00000000E+00
  0.00000000E+00  0.00000000E+00  0.00000000E+00
  0.00000000E+00  0.00000000E+00  0.00000000E+00
  0.00000000E+00  0.00000000E+00  0.00000000E+00
  0.00000000E+00  0.00000000E+00  0.00000000E+00
  0.00000000E+00  0.00000000E+00  0.00000000E+00
  0.00000000E+00  0.00000000E+00  0.00000000E+00
  0.00000000E+00  0.00000000E+00  0.00000000E+00
  0.00000000E+00  0.00000000E+00  0.00000000E+00
  0.00000000E+00  0.00000000E+00  0.00000000E+00
  0.00000000E+00  0.00000000E+00  0.00000000E+00
  0.00000000E+00  0.00000000E+00  0.00000000E+00
  0.00000000E+00  0.00000000E+00  0.00000000E+00
  0.00000000E+00  0.00000000E+00  0.00000000E+00
  0.00000000E+00  0.00000000E+00  0.00000000E+00
  0.00000000E+00  0.00000000E+00  0.00000000E+00
  0.00000000E+00  0.00000000E+00  0.00000000E+00
  0.00000000E+00  0.00000000E+00  0.00000000E+00
  0.00000000E+00  0.00000000E+00  0.00000000E+00
  0.00000000E+00  0.00000000E+00  0.00000000E+00
  0.00000000E+00  0.00000000E+00  0.00000000E+00
  0.00000000E+00  0.00000000E+00  0.00000000E+00
  0.00000000E+00  0.00000000E+00  0.00000000E+00
  0.00000000E+00  0.00000000E+00  0.00000000E+00
  0.00000000E+00  0.00000000E+00  0.00000000E+00
  0.00000000E+00  0.00000000E+00  0.00000000E+00
  0.00000000E+00  0.00000000E+00  0.00000000E+00
  0.00000000E+00  0.00000000E+00  0.00000000E+00
  0.00000000E+00  0.00000000E+00  0.00000000E+00
  0.00000000E+00  0.00000000E+00  0.00000000E+00
  0.00000000E+00  0.00000000E+00  0.00000000E+00
  0.00000000E+00  0.00000000E+00  0.00000000E+00
  0.00000000E+00  0.00000000E+00  0.00000000E+00
  0.00000000E+00  0.00000000E+00  0.00000000E+00
  0.00000000E+00  0.00000000E+00  0.00000000E+00
  0.00000000E+00  0.00000000E+00  0.00000000E+00
  0.00000000E+00  0.00000000E+00  0.00000000E+00
  0.00000000E+00  0.00000000E+00  0.00000000E+00
  0.00000000E+00  0.00000000E+00  0.00000000E+00
  0.00000000E+00  0.00000000E+00  0.00000000E+00
  0.00000000E+00  0.00000000E+00  0.00000000E+00
  0.00000000E+00  0.00000000E+00  0.00000000E+00
  0.00000000E+00  0.00000000E+00  0.00000000E+00
  0.00000000E+00  0.00000000E+00  0.00000000E+00
  0.00000000E+00  0.00000000E+00  0.00000000E+00
  0.00000000E+00  0.00000000E+00  0.00000000E+00
  0.00000000E+00  0.00000000E+00  0.00000000E+00
  0.00000000E+00  0.00000000E+00  0.00000000E+00
  0.00000000E+00  0.00000000E+00  0.00000000E+00
  0.00000000E+00  0.00000000E+00  0.00000000E+00
  0.00000000E+00  0.00000000E+00  0.00000000E+00
  0.00000000E+00  0.00000000E+00  0.00000000E+00
  0.00000000E+00  0.00000000E+00  0.00000000E+00
  0.00000000E+00  0.00000000E+00  0.00000000E+00
  0.00000000E+00  0.00000000E+00  0.00000000E+00
  0.00000000E+00  0.00000000E+00  0.00000000E+00
  0.00000000E+00  0.00000000E+00  0.00000000E+00
  0.00000000E+00  0.00000000E+00  0.00000000E+00
  0.00000000E+00  0.00000000E+00  0.00000000E+00
  0.00000000E+00  0.00000000E+00  0.00000000E+00
  0.00000000E+00  0.00000000E+00  0.00000000E+00
  0.00000000E+00  0.00000000E+00  0.00000000E+00
  0.00000000E+00  0.00000000E+00  0.00000000E+00
