POSCAR
1.00
  1.56420000 -2.70930000  5.01530000
 -9.38520000 -5.41860000  0.00000000
  3.12840000 -5.41860000 -5.01530000
  Al  Gd   N
  21   3  24
Direct
  0.16683333  0.58325000  0.66683333
  1.00016667  0.33325000  0.50016667
  0.16683333  0.08325000  0.66683333
  0.50016667  0.58325000  1.00016667
  0.66683333  0.33325000  0.16683333
  0.83350000  0.08325000  0.33350000
  1.00016667  0.83325000  0.50016667
  0.33350000  0.33325000  0.83350000
  0.50016667  0.08325000  1.00016667
  0.33350000  0.83325000  0.83350000
  0.66650000  0.66675000  0.66650000
  0.33316667  0.66675000  0.33316667
  0.49983333  0.41675000  0.49983333
  0.66650000  0.16675000  0.66650000
  0.99983333  0.66675000  0.99983333
  0.33316667  0.16675000  0.33316667
  0.49983333  0.91675000  0.49983333
  0.83316667  0.41675000  0.83316667
  0.99983333  0.16675000  0.99983333
  0.16650000  0.91675000  0.16650000
  0.83316667  0.91675000  0.83316667
  0.83350000  0.58325000  0.33350000
  0.66683333  0.83325000  0.16683333
  0.16650000  0.41675000  0.16650000
  0.42083333  0.58325000  0.53983333
  0.08750000  0.58325000  0.20650000
  0.25416667  0.33325000  0.37316667
  0.42083333  0.08325000  0.53983333
  0.75416667  0.58325000  0.87316667
  0.92083333  0.33325000  0.03983333
  0.08750000  0.08325000  0.20650000
  0.25416667  0.83325000  0.37316667
  0.58750000  0.33325000  0.70650000
  0.75416667  0.08325000  0.87316667
  0.92083333  0.83325000  0.03983333
  0.58750000  0.83325000  0.70650000
  0.92050000  0.66675000  0.53950000
  0.58716667  0.66675000  0.20616667
  0.75383333  0.41675000  0.37283333
  0.92050000  0.16675000  0.53950000
  0.25383333  0.66675000  0.87283333
  0.42050000  0.41675000  0.03950000
  0.58716667  0.16675000  0.20616667
  0.75383333  0.91675000  0.37283333
  0.08716667  0.41675000  0.70616667
  0.25383333  0.16675000  0.87283333
  0.42050000  0.91675000  0.03950000
  0.08716667  0.91675000  0.70616667
