supercell of icsd_181358.cif            
   1.00000000000000     
     9.0424293524973951   -0.0064273922362815    0.0053967781837847
    -4.5267917049182280    7.8231899463655230   -0.0027406717670757
     0.0058786723913809   -0.0000164738258825    9.7653714582882785
   N    Ga   B 
    36    26    10
Direct
  0.2021103356378404  0.1278159528746343  0.4566901707865156
  0.1322769496173066  0.2594901261102009  0.1948905339117815
  0.8768678347817342  0.1287482180010713  0.9420382754903258
  0.7812640627782628  0.2288960511563545  0.6626443776588431
  0.5890168665008417  0.1214293655925260  0.4497433731367337
  0.4459131055466230  0.2172915371366955  0.2012820355530138
  0.2209863556761960  0.1135777395774937  0.9401344198627655
  0.1301336487440068  0.2624320029346521  0.6676428471212219
  0.9042411685700387  0.1421001959574966  0.4541275076010294
  0.7791059154051680  0.2176350821719240  0.1610791142462347
  0.5865033224348366  0.1233794194561852  0.9468681282834126
  0.4499910091859363  0.2252632616103654  0.6944270515598419
  0.2368899438976229  0.4380043325572274  0.4311424267991200
  0.1272182319094242  0.5380945332898790  0.1959957020864422
  0.8634824051922649  0.4293106254476626  0.9548456574069348
  0.7773235964823471  0.5531252593082598  0.6892911785999232
  0.5379625642316412  0.4618622879760039  0.4473086315496744
  0.4260166257169828  0.5664342780441984  0.1973473535124555
  0.2291088414771849  0.4456244330824646  0.9014273153334216
  0.1381748636654976  0.5707473500856750  0.7045110531067635
  0.8758682956410695  0.4175504238878531  0.4428660595380833
  0.7748690996550991  0.5479127470995309  0.1684591470680488
  0.5818590774479020  0.4586534157117583  0.9517726901800501
  0.4308245047094275  0.5714723427083683  0.6772166823536381
  0.2220548996934397  0.7805312479188800  0.4419624803745634
  0.1135004511051463  0.8901629486320815  0.1888327491657549
  0.8713378636965388  0.7445632395194650  0.9537812188539192
  0.7437777391624394  0.8742572885774820  0.6935021909163055
  0.5321904666190918  0.7442621691329094  0.4209094234165818
  0.4580588055123016  0.8691179027486129  0.1950086050247322
  0.2272547102234697  0.7746396402558418  0.9187130596628563
  0.1253899115393224  0.8722409804381854  0.7043517140376707
  0.8865824390687678  0.7773432793666757  0.4375789794386975
  0.7407110179778869  0.8698728942288909  0.1996205120980790
  0.5536891097114705  0.7710221912047928  0.9063465330059088
  0.4319684095171326  0.8623352685527124  0.7054228755816041
  0.2180631196464731  0.1182216932485645  0.2593685834494792
  0.1112440408613296  0.2342948266084264  0.9979439624708064
  0.8907921494805535  0.1202736264986939  0.7404588009266320
  0.5660546857025182  0.1034456067119649  0.2526010638250895
  0.4557661662264394  0.2251919180981901  0.0043536924191017
  0.2216420738512213  0.1177755986066487  0.7450406864412926
  0.8916574507203734  0.1188345077943680  0.2552164034379700
  0.5619119164158803  0.1064304130880416  0.7496836019577060
  0.4465072324042367  0.2294213612033076  0.5014744171266727
  0.1089061422238586  0.5460279648318149  0.9935209770230813
  0.8935936187461522  0.4453225692968488  0.7559244656216251
  0.7712995225802501  0.5492665919780677  0.4996297901017854
  0.5492370863592484  0.4527293220975608  0.2497920458325709
  0.4439219169104902  0.5579900658035442  0.9972903820599655
  0.1153766141439618  0.5473320812408105  0.5048418870606426
  0.8897309099777857  0.4353626696796624  0.2434943867467112
  0.5510415473243810  0.4571004998327908  0.7517194760158006
  0.2270166412194357  0.7708822069583761  0.2510034722090637
  0.1092926734281718  0.8807173428889001  0.9936844197390968
  0.8826999339709261  0.7723157463377603  0.7575684514321352
  0.7662079843767486  0.8878251438220559  0.4963068564555471
  0.4540175499144610  0.8862360269656548  0.9951102956769660
  0.1084433779595457  0.8907052403856213  0.5099318104463180
  0.8799567501807601  0.7719414058536955  0.2429613363026775
  0.7669319603233049  0.8853010734522684  0.9991829986318876
  0.4479756243326918  0.8803279831248005  0.5071255912289843
  0.7878021085331497  0.2286474374706486  0.5023564902699462
  0.1236586230341956  0.2438502322115639  0.5029550038432546
  0.7751872327491469  0.2243907371626577  0.0013807977192144
  0.2291034657783300  0.4501944702672844  0.2532050174899254
  0.2346899656620351  0.4661673935441968  0.7392703837716965
  0.7713605824258423  0.5454592108948120  0.0054396977460200
  0.4356455995718491  0.5531993101526282  0.4879361539350242
  0.5376935717144420  0.7620040336071625  0.2536941711185889
  0.2325875425259412  0.7685255995069369  0.7565747030200782
  0.5384581699915927  0.7690880564186031  0.7461756521237319
 
  0.00000000E+00  0.00000000E+00  0.00000000E+00
  0.00000000E+00  0.00000000E+00  0.00000000E+00
  0.00000000E+00  0.00000000E+00  0.00000000E+00
  0.00000000E+00  0.00000000E+00  0.00000000E+00
  0.00000000E+00  0.00000000E+00  0.00000000E+00
  0.00000000E+00  0.00000000E+00  0.00000000E+00
  0.00000000E+00  0.00000000E+00  0.00000000E+00
  0.00000000E+00  0.00000000E+00  0.00000000E+00
  0.00000000E+00  0.00000000E+00  0.00000000E+00
  0.00000000E+00  0.00000000E+00  0.00000000E+00
  0.00000000E+00  0.00000000E+00  0.00000000E+00
  0.00000000E+00  0.00000000E+00  0.00000000E+00
  0.00000000E+00  0.00000000E+00  0.00000000E+00
  0.00000000E+00  0.00000000E+00  0.00000000E+00
  0.00000000E+00  0.00000000E+00  0.00000000E+00
  0.00000000E+00  0.00000000E+00  0.00000000E+00
  0.00000000E+00  0.00000000E+00  0.00000000E+00
  0.00000000E+00  0.00000000E+00  0.00000000E+00
  0.00000000E+00  0.00000000E+00  0.00000000E+00
  0.00000000E+00  0.00000000E+00  0.00000000E+00
  0.00000000E+00  0.00000000E+00  0.00000000E+00
  0.00000000E+00  0.00000000E+00  0.00000000E+00
  0.00000000E+00  0.00000000E+00  0.00000000E+00
  0.00000000E+00  0.00000000E+00  0.00000000E+00
  0.00000000E+00  0.00000000E+00  0.00000000E+00
  0.00000000E+00  0.00000000E+00  0.00000000E+00
  0.00000000E+00  0.00000000E+00  0.00000000E+00
  0.00000000E+00  0.00000000E+00  0.00000000E+00
  0.00000000E+00  0.00000000E+00  0.00000000E+00
  0.00000000E+00  0.00000000E+00  0.00000000E+00
  0.00000000E+00  0.00000000E+00  0.00000000E+00
  0.00000000E+00  0.00000000E+00  0.00000000E+00
  0.00000000E+00  0.00000000E+00  0.00000000E+00
  0.00000000E+00  0.00000000E+00  0.00000000E+00
  0.00000000E+00  0.00000000E+00  0.00000000E+00
  0.00000000E+00  0.00000000E+00  0.00000000E+00
  0.00000000E+00  0.00000000E+00  0.00000000E+00
  0.00000000E+00  0.00000000E+00  0.00000000E+00
  0.00000000E+00  0.00000000E+00  0.00000000E+00
  0.00000000E+00  0.00000000E+00  0.00000000E+00
  0.00000000E+00  0.00000000E+00  0.00000000E+00
  0.00000000E+00  0.00000000E+00  0.00000000E+00
  0.00000000E+00  0.00000000E+00  0.00000000E+00
  0.00000000E+00  0.00000000E+00  0.00000000E+00
  0.00000000E+00  0.00000000E+00  0.00000000E+00
  0.00000000E+00  0.00000000E+00  0.00000000E+00
  0.00000000E+00  0.00000000E+00  0.00000000E+00
  0.00000000E+00  0.00000000E+00  0.00000000E+00
  0.00000000E+00  0.00000000E+00  0.00000000E+00
  0.00000000E+00  0.00000000E+00  0.00000000E+00
  0.00000000E+00  0.00000000E+00  0.00000000E+00
  0.00000000E+00  0.00000000E+00  0.00000000E+00
  0.00000000E+00  0.00000000E+00  0.00000000E+00
  0.00000000E+00  0.00000000E+00  0.00000000E+00
  0.00000000E+00  0.00000000E+00  0.00000000E+00
  0.00000000E+00  0.00000000E+00  0.00000000E+00
  0.00000000E+00  0.00000000E+00  0.00000000E+00
  0.00000000E+00  0.00000000E+00  0.00000000E+00
  0.00000000E+00  0.00000000E+00  0.00000000E+00
  0.00000000E+00  0.00000000E+00  0.00000000E+00
  0.00000000E+00  0.00000000E+00  0.00000000E+00
  0.00000000E+00  0.00000000E+00  0.00000000E+00
  0.00000000E+00  0.00000000E+00  0.00000000E+00
  0.00000000E+00  0.00000000E+00  0.00000000E+00
  0.00000000E+00  0.00000000E+00  0.00000000E+00
  0.00000000E+00  0.00000000E+00  0.00000000E+00
  0.00000000E+00  0.00000000E+00  0.00000000E+00
  0.00000000E+00  0.00000000E+00  0.00000000E+00
  0.00000000E+00  0.00000000E+00  0.00000000E+00
  0.00000000E+00  0.00000000E+00  0.00000000E+00
  0.00000000E+00  0.00000000E+00  0.00000000E+00
  0.00000000E+00  0.00000000E+00  0.00000000E+00
