Al   Sc   N                             
   1.00000000000000     
    -9.5009578761315385   -0.0018792370124378    0.0012503836565781
    -4.7496864193384312    8.2257445318363409   -0.0000000044550247
     0.0026011923373002    0.0015027725982823   -9.9886773507783406
   Al   Sc   N 
    34     2    36
Direct
  0.1111973562178719  0.0940604718811784  0.3864084484634986
  0.2181296120915874  0.2054759897442011  0.1367610575685561
  0.7840313658046512  0.0914336407766996  0.8828992456640989
  0.8896390806513566  0.2061373581659538  0.6358232970509903
  0.4408606580485994  0.1001548338306577  0.3871848812121641
  0.1106706920114959  0.0948804043045968  0.8864590519673712
  0.2181298955511792  0.2097286988516345  0.6367599912748219
  0.7787973421944088  0.0940298711171224  0.3899348198468502
  0.8929047156792578  0.2044204646649490  0.1367893360864443
  0.4408609787647748  0.0923180765982607  0.8871849716892157
  0.5544016911430703  0.2091359036636007  0.6387431466115601
  0.1106707000929603  0.4277827843404154  0.3864589856225606
  0.2194109093934671  0.5429179318343813  0.1369923888374487
  0.7778883027285985  0.4277162538888746  0.8859182398141172
  0.8929059868957836  0.5360081236587746  0.6367886334360762
  0.4442889163881745  0.4285371500266990  0.3903332234507459
  0.5549022231287211  0.5416247264892036  0.1363957785772314
  0.1111969734333940  0.4280764530666232  0.8864084583761596
  0.2206921185860296  0.5395710113140879  0.6352872226443296
  0.7778881698635303  0.4277295983279004  0.3859176064831260
  0.8896395332234235  0.5375561068575507  0.1358239873124134
  0.4407318162220264  0.4343192869062449  0.8831299493788620
  0.5549021066509141  0.5368063840869652  0.6363957764526873
  0.1111494759780669  0.7617154241954225  0.3866710099889730
  0.2206927863922488  0.8730691789732390  0.1352875516366154
  0.7787976217190575  0.7605059355431436  0.8899339101986925
  0.8936412730860610  0.8695248875884829  0.6364805648832856
  0.4407323448273388  0.7582818906906041  0.3831292038858010
  0.5544013319463019  0.8697952806390745  0.1387429157669260
  0.1111493809956556  0.7604680264551078  0.8866710993127143
  0.2194110779001335  0.8710048168364324  0.6369922136629143
  0.7840316379511449  0.7578678836409267  0.3829001524802109
  0.8936421530142766  0.8701667859079549  0.1364805354382170
  0.4442892765216655  0.7605071183709171  0.8903336770683197
  0.5565119659363589  0.2067608350081400  0.1268946115440173
  0.5565138143323907  0.8700581486658479  0.6268951240289198
  0.2203389996527818  0.2064572329631815  0.3283960267469226
  0.1107883264582554  0.0948162044580201  0.0782643275344341
  0.8898807181594819  0.2067508053798974  0.8267662406237122
  0.7783991541709980  0.0935259582780077  0.5828967172964994
  0.5568186545516554  0.2065074637121143  0.3394635941845578
  0.4333892609883847  0.0852126565865561  0.0771219105402707
  0.2203391553306702  0.2065361169313391  0.8283967615293690
  0.1119338949354898  0.0935550867763553  0.5789919692254557
  0.8889064655758006  0.2053788711961957  0.3299321660076586
  0.7998848597389667  0.0838171435538015  0.0722661650166998
  0.5553907237168687  0.2056768629030614  0.8364240414894866
  0.4333889208392918  0.1147311381340543  0.5771223696304162
  0.2224148320870256  0.5388768229077527  0.3301297756999304
  0.1119337946982952  0.4278436510534931  0.0789916687605796
  0.8889060904716501  0.5390476860044515  0.8299328482426560
  0.7775043568785449  0.4287548878231817  0.5786813542253384
  0.5564632610652893  0.5366255749340922  0.3279490457888912
  0.4329050851478655  0.4500310314455618  0.0723485512765905
  0.2199319214981657  0.5399248619636623  0.8267131081913135
  0.1107880644438879  0.4277286664811939  0.5782657426290996
  0.8898802223433862  0.5367016512660499  0.3267653202444265
  0.7775048871612782  0.4270732124292351  0.0786809741641932
  0.5564632615913041  0.5402448699047611  0.8279480515410711
  0.4437336431292280  0.4285044924643984  0.5824200889822961
  0.2199316929691122  0.8734770502729319  0.3267129446396737
  0.1113668411725826  0.7608000950956750  0.0783243743170132
  0.8898351553538575  0.8698732718329723  0.8280179346655814
  0.7998837307626587  0.7496315502344828  0.5722659698036807
  0.5553907947697994  0.8722655335185152  0.3364239335311225
  0.4437335223359042  0.7610969597006587  0.0824202979401676
  0.2224146986603799  0.8720419523336744  0.8301292559748816
  0.1113684078070705  0.7611660643902951  0.5783243965848186
  0.8898353354547055  0.8736251823974044  0.3280171851461091
  0.7783987617745183  0.7614088996599477  0.0828973790770107
  0.5568187197261452  0.8700074663222850  0.8394624242116890
  0.4329047731124902  0.7503971874930357  0.5723493277721019
 
  0.00000000E+00  0.00000000E+00  0.00000000E+00
  0.00000000E+00  0.00000000E+00  0.00000000E+00
  0.00000000E+00  0.00000000E+00  0.00000000E+00
  0.00000000E+00  0.00000000E+00  0.00000000E+00
  0.00000000E+00  0.00000000E+00  0.00000000E+00
  0.00000000E+00  0.00000000E+00  0.00000000E+00
  0.00000000E+00  0.00000000E+00  0.00000000E+00
  0.00000000E+00  0.00000000E+00  0.00000000E+00
  0.00000000E+00  0.00000000E+00  0.00000000E+00
  0.00000000E+00  0.00000000E+00  0.00000000E+00
  0.00000000E+00  0.00000000E+00  0.00000000E+00
  0.00000000E+00  0.00000000E+00  0.00000000E+00
  0.00000000E+00  0.00000000E+00  0.00000000E+00
  0.00000000E+00  0.00000000E+00  0.00000000E+00
  0.00000000E+00  0.00000000E+00  0.00000000E+00
  0.00000000E+00  0.00000000E+00  0.00000000E+00
  0.00000000E+00  0.00000000E+00  0.00000000E+00
  0.00000000E+00  0.00000000E+00  0.00000000E+00
  0.00000000E+00  0.00000000E+00  0.00000000E+00
  0.00000000E+00  0.00000000E+00  0.00000000E+00
  0.00000000E+00  0.00000000E+00  0.00000000E+00
  0.00000000E+00  0.00000000E+00  0.00000000E+00
  0.00000000E+00  0.00000000E+00  0.00000000E+00
  0.00000000E+00  0.00000000E+00  0.00000000E+00
  0.00000000E+00  0.00000000E+00  0.00000000E+00
  0.00000000E+00  0.00000000E+00  0.00000000E+00
  0.00000000E+00  0.00000000E+00  0.00000000E+00
  0.00000000E+00  0.00000000E+00  0.00000000E+00
  0.00000000E+00  0.00000000E+00  0.00000000E+00
  0.00000000E+00  0.00000000E+00  0.00000000E+00
  0.00000000E+00  0.00000000E+00  0.00000000E+00
  0.00000000E+00  0.00000000E+00  0.00000000E+00
  0.00000000E+00  0.00000000E+00  0.00000000E+00
  0.00000000E+00  0.00000000E+00  0.00000000E+00
  0.00000000E+00  0.00000000E+00  0.00000000E+00
  0.00000000E+00  0.00000000E+00  0.00000000E+00
  0.00000000E+00  0.00000000E+00  0.00000000E+00
  0.00000000E+00  0.00000000E+00  0.00000000E+00
  0.00000000E+00  0.00000000E+00  0.00000000E+00
  0.00000000E+00  0.00000000E+00  0.00000000E+00
  0.00000000E+00  0.00000000E+00  0.00000000E+00
  0.00000000E+00  0.00000000E+00  0.00000000E+00
  0.00000000E+00  0.00000000E+00  0.00000000E+00
  0.00000000E+00  0.00000000E+00  0.00000000E+00
  0.00000000E+00  0.00000000E+00  0.00000000E+00
  0.00000000E+00  0.00000000E+00  0.00000000E+00
  0.00000000E+00  0.00000000E+00  0.00000000E+00
  0.00000000E+00  0.00000000E+00  0.00000000E+00
  0.00000000E+00  0.00000000E+00  0.00000000E+00
  0.00000000E+00  0.00000000E+00  0.00000000E+00
  0.00000000E+00  0.00000000E+00  0.00000000E+00
  0.00000000E+00  0.00000000E+00  0.00000000E+00
  0.00000000E+00  0.00000000E+00  0.00000000E+00
  0.00000000E+00  0.00000000E+00  0.00000000E+00
  0.00000000E+00  0.00000000E+00  0.00000000E+00
  0.00000000E+00  0.00000000E+00  0.00000000E+00
  0.00000000E+00  0.00000000E+00  0.00000000E+00
  0.00000000E+00  0.00000000E+00  0.00000000E+00
  0.00000000E+00  0.00000000E+00  0.00000000E+00
  0.00000000E+00  0.00000000E+00  0.00000000E+00
  0.00000000E+00  0.00000000E+00  0.00000000E+00
  0.00000000E+00  0.00000000E+00  0.00000000E+00
  0.00000000E+00  0.00000000E+00  0.00000000E+00
  0.00000000E+00  0.00000000E+00  0.00000000E+00
  0.00000000E+00  0.00000000E+00  0.00000000E+00
  0.00000000E+00  0.00000000E+00  0.00000000E+00
  0.00000000E+00  0.00000000E+00  0.00000000E+00
  0.00000000E+00  0.00000000E+00  0.00000000E+00
  0.00000000E+00  0.00000000E+00  0.00000000E+00
  0.00000000E+00  0.00000000E+00  0.00000000E+00
  0.00000000E+00  0.00000000E+00  0.00000000E+00
  0.00000000E+00  0.00000000E+00  0.00000000E+00
