Al   Sc   N                             
   1.00000000000000     
    -9.5894782850695002   -0.0018702753790394   -0.0010262745888626
    -4.7936030401617797    8.3033660795289972   -0.0000000978295312
    -0.0021318965887884   -0.0012055595787166   -9.7413133360675026
   Al   Sc   N 
    34     2    36
Direct
  0.1102557506560444  0.0953013768879316  0.3271725562106553
  0.2179628396406414  0.2053680504342239  0.0768907398908070
  0.7780467318924735  0.0943177821677210  0.8242662203190037
  0.8896931410043720  0.2063348467256034  0.5788822392001620
  0.4404825145393474  0.0909764116789447  0.3275394020889024
  0.1115401588747531  0.0936627135506214  0.8269875303656278
  0.2179599513816939  0.2100108133661891  0.5768895951861737
  0.7855305828760777  0.0908866498372021  0.3312503806713067
  0.8929820428198525  0.2043682227756065  0.0757447797723358
  0.4404806958435685  0.1018716001617008  0.8275386817657377
  0.5543752091028367  0.2093400372486940  0.5736367611586459
  0.1115397621254886  0.4281254255408840  0.3269871280494456
  0.2193737710387822  0.5429563760173721  0.0754955937644297
  0.7779705903878167  0.4280217765374914  0.8276196287341833
  0.8929814231939943  0.5359842795622640  0.5757442287875918
  0.4397355750210323  0.4358573185058745  0.3308144888744735
  0.5550582243459417  0.5414083075930733  0.0771845233190902
  0.1102554862255261  0.4277712248180450  0.8271731311585100
  0.2205091528531398  0.5396628062679554  0.5793161530274347
  0.7779699064031291  0.4273332766218871  0.3276197234686080
  0.8896931103869150  0.5373068818023086  0.0788827340210716
  0.4449017197939824  0.4277784512392913  0.8238973762972606
  0.5550605742770003  0.5368733182536758  0.5771846391513691
  0.1111211215473489  0.7600077116055459  0.3267718299590499
  0.2205098035440685  0.8731686489347794  0.0793152513556663
  0.7855311536738370  0.7569063039777362  0.8312501865649224
  0.8937199679016032  0.8693286981421409  0.5771132320492711
  0.4449024540324515  0.7606489604687425  0.3238971416511092
  0.5543781193858095  0.8696251168904325  0.0736364819375837
  0.1111211859595471  0.7621999101724839  0.8267708666136002
  0.2193772945867920  0.8710087355584832  0.5754959136300144
  0.7780477259926570  0.7609606410349059  0.3242657463037233
  0.8937193671842749  0.8702866449133779  0.0771121408177606
  0.4397384178725190  0.7577354635727431  0.8308148494271563
  0.5565156976650982  0.2065839926930693  0.0930214553752862
  0.5565158632817884  0.8702505658174786  0.5930207610000764
  0.2199468389489780  0.2067675493473402  0.3812041973721207
  0.1103164504263390  0.0952289978615894  0.1313589624900757
  0.8890086865111044  0.2054148148246355  0.8785360189319888
  0.7777716250926048  0.0936707675522399  0.6265790125228534
  0.5554148494353015  0.2057570738955050  0.3705288806341542
  0.4330709850254522  0.0839877455446896  0.1323892643481912
  0.2199455474429897  0.2066325910160600  0.8812065757431782
  0.1124239993503977  0.0931377325112805  0.6304946400690881
  0.8900393134752278  0.2069205785665247  0.3838729514940624
  0.8011945287250768  0.0834459570182275  0.1372875038194650
  0.5569426977975951  0.2067077828930053  0.8739755606375397
  0.4330657797512103  0.1162679688644062  0.6323904427142679
  0.2196181373984132  0.5400838636129777  0.3837904920528672
  0.1124242012998593  0.4277583410628196  0.1304947059188493
  0.8900397501888335  0.5363825323079112  0.8838741983633085
  0.7775743745933141  0.4292435433229045  0.6309274842011163
  0.5567053899145407  0.5402426508308622  0.3815890356133735
  0.4320543891513822  0.4512308698004901  0.1370192076417212
  0.2222916930490086  0.5389870264008252  0.8783451957338997
  0.1103157057121749  0.4277758886189744  0.6313590488337582
  0.8890083333229128  0.5389195649820095  0.3785350330966395
  0.7775721776976638  0.4264971801033042  0.1309274056948553
  0.5567054652216044  0.5363994972961592  0.8815886402152699
  0.4442830188235050  0.4280464130160624  0.6270416501414431
  0.2222928620811828  0.8720677426735293  0.3783460924998607
  0.1113202494978793  0.7603294703788421  0.1311383498814536
  0.8900099208498631  0.8737296102457606  0.8815406511183497
  0.8011951673830424  0.7486736462838905  0.6372875229299595
  0.5569429349503991  0.8696976614886438  0.3739749196606112
  0.4442834076061288  0.7609934286690532  0.1270410668237218
  0.2196208498546355  0.8736435783130716  0.8837888683914414
  0.1113214395664031  0.7616723607796700  0.6311383128016956
  0.8900104390232926  0.8696036296374459  0.3815426911693649
  0.7777741498625659  0.7618717715006653  0.1265789855435031
  0.5554152840667186  0.8721754198607954  0.8705289557874067
  0.4320598492986178  0.7500365546050105  0.6370173538493304
 
  0.00000000E+00  0.00000000E+00  0.00000000E+00
  0.00000000E+00  0.00000000E+00  0.00000000E+00
  0.00000000E+00  0.00000000E+00  0.00000000E+00
  0.00000000E+00  0.00000000E+00  0.00000000E+00
  0.00000000E+00  0.00000000E+00  0.00000000E+00
  0.00000000E+00  0.00000000E+00  0.00000000E+00
  0.00000000E+00  0.00000000E+00  0.00000000E+00
  0.00000000E+00  0.00000000E+00  0.00000000E+00
  0.00000000E+00  0.00000000E+00  0.00000000E+00
  0.00000000E+00  0.00000000E+00  0.00000000E+00
  0.00000000E+00  0.00000000E+00  0.00000000E+00
  0.00000000E+00  0.00000000E+00  0.00000000E+00
  0.00000000E+00  0.00000000E+00  0.00000000E+00
  0.00000000E+00  0.00000000E+00  0.00000000E+00
  0.00000000E+00  0.00000000E+00  0.00000000E+00
  0.00000000E+00  0.00000000E+00  0.00000000E+00
  0.00000000E+00  0.00000000E+00  0.00000000E+00
  0.00000000E+00  0.00000000E+00  0.00000000E+00
  0.00000000E+00  0.00000000E+00  0.00000000E+00
  0.00000000E+00  0.00000000E+00  0.00000000E+00
  0.00000000E+00  0.00000000E+00  0.00000000E+00
  0.00000000E+00  0.00000000E+00  0.00000000E+00
  0.00000000E+00  0.00000000E+00  0.00000000E+00
  0.00000000E+00  0.00000000E+00  0.00000000E+00
  0.00000000E+00  0.00000000E+00  0.00000000E+00
  0.00000000E+00  0.00000000E+00  0.00000000E+00
  0.00000000E+00  0.00000000E+00  0.00000000E+00
  0.00000000E+00  0.00000000E+00  0.00000000E+00
  0.00000000E+00  0.00000000E+00  0.00000000E+00
  0.00000000E+00  0.00000000E+00  0.00000000E+00
  0.00000000E+00  0.00000000E+00  0.00000000E+00
  0.00000000E+00  0.00000000E+00  0.00000000E+00
  0.00000000E+00  0.00000000E+00  0.00000000E+00
  0.00000000E+00  0.00000000E+00  0.00000000E+00
  0.00000000E+00  0.00000000E+00  0.00000000E+00
  0.00000000E+00  0.00000000E+00  0.00000000E+00
  0.00000000E+00  0.00000000E+00  0.00000000E+00
  0.00000000E+00  0.00000000E+00  0.00000000E+00
  0.00000000E+00  0.00000000E+00  0.00000000E+00
  0.00000000E+00  0.00000000E+00  0.00000000E+00
  0.00000000E+00  0.00000000E+00  0.00000000E+00
  0.00000000E+00  0.00000000E+00  0.00000000E+00
  0.00000000E+00  0.00000000E+00  0.00000000E+00
  0.00000000E+00  0.00000000E+00  0.00000000E+00
  0.00000000E+00  0.00000000E+00  0.00000000E+00
  0.00000000E+00  0.00000000E+00  0.00000000E+00
  0.00000000E+00  0.00000000E+00  0.00000000E+00
  0.00000000E+00  0.00000000E+00  0.00000000E+00
  0.00000000E+00  0.00000000E+00  0.00000000E+00
  0.00000000E+00  0.00000000E+00  0.00000000E+00
  0.00000000E+00  0.00000000E+00  0.00000000E+00
  0.00000000E+00  0.00000000E+00  0.00000000E+00
  0.00000000E+00  0.00000000E+00  0.00000000E+00
  0.00000000E+00  0.00000000E+00  0.00000000E+00
  0.00000000E+00  0.00000000E+00  0.00000000E+00
  0.00000000E+00  0.00000000E+00  0.00000000E+00
  0.00000000E+00  0.00000000E+00  0.00000000E+00
  0.00000000E+00  0.00000000E+00  0.00000000E+00
  0.00000000E+00  0.00000000E+00  0.00000000E+00
  0.00000000E+00  0.00000000E+00  0.00000000E+00
  0.00000000E+00  0.00000000E+00  0.00000000E+00
  0.00000000E+00  0.00000000E+00  0.00000000E+00
  0.00000000E+00  0.00000000E+00  0.00000000E+00
  0.00000000E+00  0.00000000E+00  0.00000000E+00
  0.00000000E+00  0.00000000E+00  0.00000000E+00
  0.00000000E+00  0.00000000E+00  0.00000000E+00
  0.00000000E+00  0.00000000E+00  0.00000000E+00
  0.00000000E+00  0.00000000E+00  0.00000000E+00
  0.00000000E+00  0.00000000E+00  0.00000000E+00
  0.00000000E+00  0.00000000E+00  0.00000000E+00
  0.00000000E+00  0.00000000E+00  0.00000000E+00
  0.00000000E+00  0.00000000E+00  0.00000000E+00
