Al   Sc   N                             
   1.00000000000000     
    -9.7996186915520607   -0.0018766765457525    0.0005999098721664
    -4.8968715952186717    8.4835652994293902   -0.0000000311334551
     0.0021468800482469    0.0012393100476738   -9.1131284544770992
   Al   Sc   N 
    34     2    36
Direct
  0.1121432163894838  0.0929757325862042  0.3745714500135335
  0.2176028428976409  0.2057588323405142  0.1242372940481289
  0.7849556160151678  0.0915709234928244  0.8672425817972140
  0.8900289457081456  0.2067030534697309  0.6205343264739085
  0.4401672332235904  0.1001790601300812  0.3717998495394568
  0.1094648482531184  0.0960741096058513  0.8736471284201386
  0.2176021790936957  0.2099741715402175  0.6242377291494918
  0.7792706263744122  0.0934164631856405  0.3779536154932615
  0.8926713446535928  0.2045154072857471  0.1270559996297465
  0.4401675121933692  0.0929847821434393  0.8717993313887717
  0.5545506460378178  0.2089802564584957  0.6227256714386726
  0.1094648481532303  0.4277925487668455  0.3736469532624298
  0.2196132876651262  0.5425257678746505  0.1272771366794458
  0.7779945909843420  0.4266375175050570  0.8735954207124195
  0.8926712161617019  0.5361483632697244  0.6270560947701327
  0.4445630176861286  0.4289730154168083  0.3779255324262891
  0.5554398876084221  0.5403807275165846  0.1240046733344897
  0.1121432047408462  0.4282125455105401  0.8745715059092873
  0.2198039306132813  0.5400069291287153  0.6203149252782225
  0.7779946509222952  0.4286993433766497  0.3735956476861872
  0.8900289627586133  0.5366030758320477  0.1205342046472921
  0.4396847363900420  0.4351026427624518  0.8679696197240574
  0.5554401757627474  0.5375149332708844  0.6240044102781042
  0.1111679209292831  0.7629259693749191  0.3744066264207575
  0.2198039151434585  0.8735250237595480  0.1203152295329204
  0.7792705766040768  0.7606441485757145  0.8779537863079057
  0.8937501719180219  0.8687405202151837  0.6241005502884036
  0.4396851238058872  0.7585438978748869  0.3679692890684478
  0.5545509196655800  0.8698046133967807  0.1227256046616461
  0.1111679109169046  0.7592376796731273  0.8744063429355791
  0.2196140192114697  0.8711962038602792  0.6272769473318860
  0.7849555411523852  0.7568044360414703  0.3672425430988753
  0.8937500046718583  0.8708443610644494  0.1241007725644749
  0.4445629871556918  0.7597952219514212  0.8779256593777234
  0.5569785434915389  0.2066824584114002  0.1076185116225830
  0.5569784466265304  0.8696752858517414  0.6076185224475026
  0.2193086084017395  0.2067590999116433  0.3350903886341783
  0.1095382579884543  0.0959230362948915  0.0845046322694358
  0.8900918965223994  0.2072122688108067  0.8302595945240796
  0.7786118067627115  0.0930199997596404  0.5905936081977430
  0.5571111328793847  0.2067018888782428  0.3452081994813270
  0.4333691199604033  0.0859278562911499  0.0854207865666652
  0.2193088016400466  0.2072691984540782  0.8350912753000159
  0.1129810882306259  0.0924931453425231  0.5858216479607208
  0.8891780838342314  0.2054955783097085  0.3397881151664208
  0.7999234570908840  0.0845667035719586  0.0791129221094806
  0.5555943295103773  0.2058204162305088  0.8422404472549729
  0.4333682612723351  0.1140328895669214  0.5854206437663123
  0.2220420637907594  0.5391571146205507  0.3396746385032401
  0.1129811745863520  0.4278554032991480  0.0858215814053835
  0.8891780125971636  0.5386632235182631  0.8397883079640636
  0.7776408692205337  0.4299815402023697  0.5851181254575906
  0.5569801179833362  0.5363138371930987  0.3347183408121808
  0.4324406204888263  0.4496027103205051  0.0796624030283510
  0.2193384047787106  0.5400998071133003  0.8306407758275398
  0.1095380467742046  0.4278686547719914  0.5845046789655512
  0.8900919802087088  0.5360327429216980  0.3302592734564982
  0.7776405891853884  0.4257068786002094  0.0851180303104968
  0.5569800929990620  0.5400433425461770  0.8347179689567383
  0.4441060708250504  0.4289036315328403  0.5900424830769211
  0.2193389784700273  0.8738987639876825  0.3306413058661377
  0.1113869550263047  0.7596300948566679  0.0850040919348700
  0.8902731979712115  0.8693698207522615  0.8347205712927561
  0.7999233964648838  0.7488384676914066  0.5791128716654228
  0.5555942593992285  0.8719219312615110  0.3422403968912349
  0.4441059112029961  0.7603203086556150  0.0900427210698069
  0.2220422979239558  0.8721377794615748  0.8396742342258108
  0.1113872016853747  0.7623129782940197  0.5850039970230441
  0.8902729999080918  0.8736936547753444  0.3347211977820947
  0.7786119608467672  0.7616973851402946  0.0905936359167114
  0.5571109958905609  0.8695237719308651  0.8452084148577512
  0.4324414337596778  0.7512859506042204  0.5796626497811985
 
  0.00000000E+00  0.00000000E+00  0.00000000E+00
  0.00000000E+00  0.00000000E+00  0.00000000E+00
  0.00000000E+00  0.00000000E+00  0.00000000E+00
  0.00000000E+00  0.00000000E+00  0.00000000E+00
  0.00000000E+00  0.00000000E+00  0.00000000E+00
  0.00000000E+00  0.00000000E+00  0.00000000E+00
  0.00000000E+00  0.00000000E+00  0.00000000E+00
  0.00000000E+00  0.00000000E+00  0.00000000E+00
  0.00000000E+00  0.00000000E+00  0.00000000E+00
  0.00000000E+00  0.00000000E+00  0.00000000E+00
  0.00000000E+00  0.00000000E+00  0.00000000E+00
  0.00000000E+00  0.00000000E+00  0.00000000E+00
  0.00000000E+00  0.00000000E+00  0.00000000E+00
  0.00000000E+00  0.00000000E+00  0.00000000E+00
  0.00000000E+00  0.00000000E+00  0.00000000E+00
  0.00000000E+00  0.00000000E+00  0.00000000E+00
  0.00000000E+00  0.00000000E+00  0.00000000E+00
  0.00000000E+00  0.00000000E+00  0.00000000E+00
  0.00000000E+00  0.00000000E+00  0.00000000E+00
  0.00000000E+00  0.00000000E+00  0.00000000E+00
  0.00000000E+00  0.00000000E+00  0.00000000E+00
  0.00000000E+00  0.00000000E+00  0.00000000E+00
  0.00000000E+00  0.00000000E+00  0.00000000E+00
  0.00000000E+00  0.00000000E+00  0.00000000E+00
  0.00000000E+00  0.00000000E+00  0.00000000E+00
  0.00000000E+00  0.00000000E+00  0.00000000E+00
  0.00000000E+00  0.00000000E+00  0.00000000E+00
  0.00000000E+00  0.00000000E+00  0.00000000E+00
  0.00000000E+00  0.00000000E+00  0.00000000E+00
  0.00000000E+00  0.00000000E+00  0.00000000E+00
  0.00000000E+00  0.00000000E+00  0.00000000E+00
  0.00000000E+00  0.00000000E+00  0.00000000E+00
  0.00000000E+00  0.00000000E+00  0.00000000E+00
  0.00000000E+00  0.00000000E+00  0.00000000E+00
  0.00000000E+00  0.00000000E+00  0.00000000E+00
  0.00000000E+00  0.00000000E+00  0.00000000E+00
  0.00000000E+00  0.00000000E+00  0.00000000E+00
  0.00000000E+00  0.00000000E+00  0.00000000E+00
  0.00000000E+00  0.00000000E+00  0.00000000E+00
  0.00000000E+00  0.00000000E+00  0.00000000E+00
  0.00000000E+00  0.00000000E+00  0.00000000E+00
  0.00000000E+00  0.00000000E+00  0.00000000E+00
  0.00000000E+00  0.00000000E+00  0.00000000E+00
  0.00000000E+00  0.00000000E+00  0.00000000E+00
  0.00000000E+00  0.00000000E+00  0.00000000E+00
  0.00000000E+00  0.00000000E+00  0.00000000E+00
  0.00000000E+00  0.00000000E+00  0.00000000E+00
  0.00000000E+00  0.00000000E+00  0.00000000E+00
  0.00000000E+00  0.00000000E+00  0.00000000E+00
  0.00000000E+00  0.00000000E+00  0.00000000E+00
  0.00000000E+00  0.00000000E+00  0.00000000E+00
  0.00000000E+00  0.00000000E+00  0.00000000E+00
  0.00000000E+00  0.00000000E+00  0.00000000E+00
  0.00000000E+00  0.00000000E+00  0.00000000E+00
  0.00000000E+00  0.00000000E+00  0.00000000E+00
  0.00000000E+00  0.00000000E+00  0.00000000E+00
  0.00000000E+00  0.00000000E+00  0.00000000E+00
  0.00000000E+00  0.00000000E+00  0.00000000E+00
  0.00000000E+00  0.00000000E+00  0.00000000E+00
  0.00000000E+00  0.00000000E+00  0.00000000E+00
  0.00000000E+00  0.00000000E+00  0.00000000E+00
  0.00000000E+00  0.00000000E+00  0.00000000E+00
  0.00000000E+00  0.00000000E+00  0.00000000E+00
  0.00000000E+00  0.00000000E+00  0.00000000E+00
  0.00000000E+00  0.00000000E+00  0.00000000E+00
  0.00000000E+00  0.00000000E+00  0.00000000E+00
  0.00000000E+00  0.00000000E+00  0.00000000E+00
  0.00000000E+00  0.00000000E+00  0.00000000E+00
  0.00000000E+00  0.00000000E+00  0.00000000E+00
  0.00000000E+00  0.00000000E+00  0.00000000E+00
  0.00000000E+00  0.00000000E+00  0.00000000E+00
  0.00000000E+00  0.00000000E+00  0.00000000E+00
