Al   Sc   N                             
   1.00000000000000     
    -9.8458915707575674   -0.0018724091012771   -0.0004842131018529
    -4.9196596497622496    8.5233049185020917   -0.0000000755975059
    -0.0020733238154280   -0.0011966990718794   -8.9684088923326204
   Al   Sc   N 
    34     2    36
Direct
  0.1093964389679059  0.0961115277977527  0.3373637084755146
  0.2175536891321386  0.2058620228608277  0.0867831458119923
  0.7797962383042290  0.0931197659568497  0.8328591958208875
  0.8900537755673668  0.2067136006015104  0.5905384155247404
  0.4401538874109079  0.0938511526494352  0.3397402710959980
  0.1121921460174207  0.0929251291763720  0.8362989515257269
  0.2175532605367252  0.2099193900474248  0.5867826999869763
  0.7844589790511662  0.0918725918375927  0.3441584759666654
  0.8925997611491567  0.2046214293461759  0.0837247676798540
  0.4401536680783948  0.0993269782389063  0.8397397070573476
  0.5546220636944454  0.2089035180649006  0.5899605077039425
  0.1121922018890515  0.4282148915360722  0.3362988203469968
  0.2195889769875805  0.5424387091792013  0.0835194738073710
  0.7779943208022857  0.4287844620728976  0.8373218683074271
  0.8925998088147864  0.5361131555569969  0.5837246393934450
  0.4399332328711836  0.4345476335592124  0.3434130842701038
  0.5555287704627148  0.5402750962419631  0.0869662203537018
  0.1093965071046128  0.4278240565040576  0.8373638752910963
  0.2197677826057145  0.5400343055794252  0.5907067055320354
  0.7779941536283275  0.4265531889675174  0.3373219663798395
  0.8900537982073260  0.5365669969839004  0.0905385557948435
  0.4442700173864864  0.4295096280649986  0.8330047729374073
  0.5555289025440047  0.5375308738364879  0.5869664155941692
  0.1111942864944666  0.7592035029848390  0.3365381158739780
  0.2197677641245264  0.8735329985778790  0.0907064456015902
  0.7844590091262162  0.7570000149725260  0.8441585379774281
  0.8937084013020140  0.8688002988025190  0.5868521321150482
  0.4442700438488032  0.7595521848737690  0.3330046352544471
  0.5546222724453855  0.8698092654701526  0.0899606025285848
  0.1111942822852896  0.7629344096436199  0.8365377989268907
  0.2195895301798032  0.8713070650924806  0.5835196879217293
  0.7797963563913441  0.7604157799068076  0.3328590950422239
  0.8937083689739396  0.8708257604596525  0.0868518922250274
  0.4399335613569448  0.7588510154713006  0.8434134076426929
  0.5570363541365495  0.2066684459328414  0.1018796023237343
  0.5570362552280770  0.8696313186809448  0.6018795055522403
  0.2192042946931494  0.2073391195132146  0.3708488508945678
  0.1094705152369713  0.0959480829715105  0.1215540639664638
  0.8892408592706360  0.2055645860778981  0.8659321745781199
  0.7788855755123478  0.0928823173842943  0.6154478438534738
  0.5556860841527111  0.2058650251905334  0.3655862133630876
  0.4335509207655974  0.0865190583712803  0.1199828907825946
  0.2192042429895338  0.2067926197769125  0.8708495062558512
  0.1129938666185737  0.0924490448839776  0.6201834981084318
  0.8900492659110384  0.2071876060912317  0.3760284394711988
  0.7992915944835772  0.0849196181972829  0.1264440661605093
  0.5570751993829290  0.2066498931347809  0.8594272294567702
  0.4335502992092231  0.1132610902659650  0.6199826715422176
  0.2194221981650912  0.5400495551457567  0.3755732796470284
  0.1129939919479952  0.4278879675800482  0.1201835440506613
  0.8900494346180636  0.5360987132335140  0.8760287193129912
  0.7776648323276447  0.4300204696979222  0.6209112908381584
  0.5570095767422742  0.5398650310044886  0.3712328549787571
  0.4327488116654621  0.4489055190540796  0.1258652969438216
  0.2219114121079357  0.5392205268567167  0.8661468507514130
  0.1094705325931287  0.4279122699752946  0.6215540505935451
  0.8892408795852020  0.5385301537952643  0.3659319619869521
  0.7776645438183962  0.4256450928943067  0.1209114009402015
  0.5570096423681363  0.5364612801371322  0.8712326911909400
  0.4439750479067825  0.4291537106252648  0.6159953939772507
  0.2219116396046275  0.8722039397330619  0.3661471399983043
  0.1114186217076423  0.7595798396652071  0.1210313353100148
  0.8903200355183643  0.8735092517198879  0.8712485105276428
  0.7992916245629687  0.7491187451812422  0.6264441302412820
  0.5570752824831615  0.8696105527694158  0.3594271478243840
  0.4439750230260842  0.7602020093708077  0.1159951672860515
  0.2194225519567752  0.8738641840041410  0.8755729104605692
  0.1114187564233831  0.7623325856523167  0.6210313686670048
  0.8903201385190158  0.8695062523219406  0.3712489865262683
  0.7788858333438995  0.7615623683913242  0.1154478167816251
  0.5556861264240567  0.8717846667773372  0.8655862549951649
  0.4327495167033746  0.7516762040228073  0.6258652554397415
 
  0.00000000E+00  0.00000000E+00  0.00000000E+00
  0.00000000E+00  0.00000000E+00  0.00000000E+00
  0.00000000E+00  0.00000000E+00  0.00000000E+00
  0.00000000E+00  0.00000000E+00  0.00000000E+00
  0.00000000E+00  0.00000000E+00  0.00000000E+00
  0.00000000E+00  0.00000000E+00  0.00000000E+00
  0.00000000E+00  0.00000000E+00  0.00000000E+00
  0.00000000E+00  0.00000000E+00  0.00000000E+00
  0.00000000E+00  0.00000000E+00  0.00000000E+00
  0.00000000E+00  0.00000000E+00  0.00000000E+00
  0.00000000E+00  0.00000000E+00  0.00000000E+00
  0.00000000E+00  0.00000000E+00  0.00000000E+00
  0.00000000E+00  0.00000000E+00  0.00000000E+00
  0.00000000E+00  0.00000000E+00  0.00000000E+00
  0.00000000E+00  0.00000000E+00  0.00000000E+00
  0.00000000E+00  0.00000000E+00  0.00000000E+00
  0.00000000E+00  0.00000000E+00  0.00000000E+00
  0.00000000E+00  0.00000000E+00  0.00000000E+00
  0.00000000E+00  0.00000000E+00  0.00000000E+00
  0.00000000E+00  0.00000000E+00  0.00000000E+00
  0.00000000E+00  0.00000000E+00  0.00000000E+00
  0.00000000E+00  0.00000000E+00  0.00000000E+00
  0.00000000E+00  0.00000000E+00  0.00000000E+00
  0.00000000E+00  0.00000000E+00  0.00000000E+00
  0.00000000E+00  0.00000000E+00  0.00000000E+00
  0.00000000E+00  0.00000000E+00  0.00000000E+00
  0.00000000E+00  0.00000000E+00  0.00000000E+00
  0.00000000E+00  0.00000000E+00  0.00000000E+00
  0.00000000E+00  0.00000000E+00  0.00000000E+00
  0.00000000E+00  0.00000000E+00  0.00000000E+00
  0.00000000E+00  0.00000000E+00  0.00000000E+00
  0.00000000E+00  0.00000000E+00  0.00000000E+00
  0.00000000E+00  0.00000000E+00  0.00000000E+00
  0.00000000E+00  0.00000000E+00  0.00000000E+00
  0.00000000E+00  0.00000000E+00  0.00000000E+00
  0.00000000E+00  0.00000000E+00  0.00000000E+00
  0.00000000E+00  0.00000000E+00  0.00000000E+00
  0.00000000E+00  0.00000000E+00  0.00000000E+00
  0.00000000E+00  0.00000000E+00  0.00000000E+00
  0.00000000E+00  0.00000000E+00  0.00000000E+00
  0.00000000E+00  0.00000000E+00  0.00000000E+00
  0.00000000E+00  0.00000000E+00  0.00000000E+00
  0.00000000E+00  0.00000000E+00  0.00000000E+00
  0.00000000E+00  0.00000000E+00  0.00000000E+00
  0.00000000E+00  0.00000000E+00  0.00000000E+00
  0.00000000E+00  0.00000000E+00  0.00000000E+00
  0.00000000E+00  0.00000000E+00  0.00000000E+00
  0.00000000E+00  0.00000000E+00  0.00000000E+00
  0.00000000E+00  0.00000000E+00  0.00000000E+00
  0.00000000E+00  0.00000000E+00  0.00000000E+00
  0.00000000E+00  0.00000000E+00  0.00000000E+00
  0.00000000E+00  0.00000000E+00  0.00000000E+00
  0.00000000E+00  0.00000000E+00  0.00000000E+00
  0.00000000E+00  0.00000000E+00  0.00000000E+00
  0.00000000E+00  0.00000000E+00  0.00000000E+00
  0.00000000E+00  0.00000000E+00  0.00000000E+00
  0.00000000E+00  0.00000000E+00  0.00000000E+00
  0.00000000E+00  0.00000000E+00  0.00000000E+00
  0.00000000E+00  0.00000000E+00  0.00000000E+00
  0.00000000E+00  0.00000000E+00  0.00000000E+00
  0.00000000E+00  0.00000000E+00  0.00000000E+00
  0.00000000E+00  0.00000000E+00  0.00000000E+00
  0.00000000E+00  0.00000000E+00  0.00000000E+00
  0.00000000E+00  0.00000000E+00  0.00000000E+00
  0.00000000E+00  0.00000000E+00  0.00000000E+00
  0.00000000E+00  0.00000000E+00  0.00000000E+00
  0.00000000E+00  0.00000000E+00  0.00000000E+00
  0.00000000E+00  0.00000000E+00  0.00000000E+00
  0.00000000E+00  0.00000000E+00  0.00000000E+00
  0.00000000E+00  0.00000000E+00  0.00000000E+00
  0.00000000E+00  0.00000000E+00  0.00000000E+00
  0.00000000E+00  0.00000000E+00  0.00000000E+00
