Al   Sc   N                             
   1.00000000000000     
    -9.7714612334938167    0.0128247936856762   -0.0023949638824102
    -4.8976728824007516    8.4304426530288907    0.0039864044926453
    -0.0045623277489364   -0.0070123237876486  -10.0933463222386166
   Al   Sc   N 
    28     8    36
Direct
  0.1034422357940628  0.0976925620584055  0.3084066515936499
  0.2106498261210561  0.2074306531267780  0.0571302374714406
  0.7861400640131464  0.0987895234175582  0.8069379661627067
  0.8936859162129736  0.2055937372583259  0.5593154068268191
  0.1066985075089448  0.0972485949511466  0.8079498278666648
  0.2066515583814876  0.2079215378056887  0.5569805637432168
  0.7884599138137531  0.0942495401535339  0.3071831413974238
  0.8944998750264546  0.2055724310825582  0.0572257830195610
  0.1041864828704959  0.4302347400441988  0.3048246063347761
  0.2212565736702672  0.5363602217373398  0.0595339561845520
  0.7770494657751996  0.4252599035163342  0.8090688114681299
  0.8893969799739949  0.5336264224725582  0.5547516069813270
  0.4424257392077351  0.4383426340058705  0.3026555076403099
  0.5550459542445054  0.5440364966223328  0.0576784474974232
  0.1044223815018199  0.4197300467634477  0.8111995313448119
  0.7759746814730093  0.4275115619174059  0.3093708455515554
  0.8898119141808536  0.5320910876764131  0.0618991095075856
  0.4498323620439137  0.4301841009166765  0.8106500035566455
  0.5553652326190672  0.5409735236929265  0.5584611682253708
  0.1128150255018596  0.7608363944408438  0.3023167563461442
  0.2247529680124813  0.8767723675752350  0.0621216070243023
  0.8968459893526770  0.8715806867352995  0.5516011404641361
  0.4453222161933823  0.7558247487517704  0.3049960928229112
  0.5537084128595495  0.8648819229348135  0.0565228900141790
  0.2188504680270853  0.8751767052889505  0.5547079021380483
  0.7820102611008295  0.7561499020269125  0.3033265224204129
  0.8932823953311839  0.8750189560574668  0.0643099186244243
  0.4409283848156562  0.7573091994145216  0.8098152481474301
  0.4362970155426282  0.0951436964143895  0.3093037728437054
  0.5639104217033619  0.2082919685053710  0.0669387089116853
  0.4352544124603810  0.1011086957842906  0.8197365044298053
  0.5639009699545241  0.2080625905215641  0.5602862417762111
  0.2168847881002662  0.5374770682336774  0.5631343928443755
  0.7872102626173358  0.7548620188587378  0.8197106551403408
  0.1153881091088493  0.7643315047344430  0.8193588987733733
  0.5592141382437816  0.8624969942569862  0.5630449862662275
  0.1961382290274187  0.2177673077951496  0.3678633561060494
  0.1092330468881855  0.0960515071422421  0.1194092484612668
  0.8895447177256699  0.2077821389589616  0.8659987928522597
  0.8019085109562738  0.0837782857354625  0.6172117344122512
  0.5644958532754458  0.2152768234085727  0.3430296773653509
  0.4339959400689750  0.0879304082544650  0.0944904740680599
  0.1979542568706520  0.2125566736484217  0.8713985153502577
  0.1101950441032784  0.0921416848676984  0.6162874302370440
  0.8880141219519331  0.2080576354267762  0.3692729708917071
  0.8040608127562905  0.0866170388513083  0.1219751300057084
  0.5698904948393135  0.2138360281770844  0.8535178315312351
  0.4239675343446052  0.1061021815988710  0.6022971649739830
  0.2202160654816154  0.5381746658472792  0.3515067941851697
  0.1100493331428609  0.4268267833898918  0.1160752899509347
  0.8945043903179837  0.5176531972490110  0.8751238537476738
  0.7750413209744522  0.4301946299290833  0.6153394676363675
  0.5549894022492126  0.5399060080158762  0.3668651239550442
  0.4347273766840445  0.4515204429789179  0.1153320514750078
  0.2301892171951394  0.5147522409890470  0.8658273450608860
  0.0964790635954458  0.4168698318614261  0.6221857802908062
  0.8871394488206903  0.5384063195087521  0.3621407923320419
  0.7756640144451978  0.4267561491973169  0.1183309741578782
  0.5561401606883507  0.5399958351267884  0.8682378921226714
  0.4511238549755490  0.4399587119448753  0.6235163511597221
  0.2223784019440913  0.8731900599955793  0.3611696925081915
  0.1147801359712801  0.7598986219336652  0.1082461681338671
  0.8811780913869143  0.8946906974173388  0.8790593098196595
  0.8035754194675988  0.7500274295458240  0.6086321144043296
  0.5656178666908858  0.8520262821151121  0.3541185788248455
  0.4443923916606920  0.7601595181173479  0.1161914379799924
  0.2308740636194457  0.8855588584524341  0.8741574567423598
  0.1059744599333357  0.7770738473358492  0.6092405659602420
  0.8904296995121541  0.8712523681015654  0.3588276574953397
  0.7801723474042319  0.7597529430638872  0.1087167340744841
  0.5500568744053353  0.8585742302725876  0.8650372955240897
  0.4309990073045640  0.7535642689624567  0.6203349946306602
 
  0.00000000E+00  0.00000000E+00  0.00000000E+00
  0.00000000E+00  0.00000000E+00  0.00000000E+00
  0.00000000E+00  0.00000000E+00  0.00000000E+00
  0.00000000E+00  0.00000000E+00  0.00000000E+00
  0.00000000E+00  0.00000000E+00  0.00000000E+00
  0.00000000E+00  0.00000000E+00  0.00000000E+00
  0.00000000E+00  0.00000000E+00  0.00000000E+00
  0.00000000E+00  0.00000000E+00  0.00000000E+00
  0.00000000E+00  0.00000000E+00  0.00000000E+00
  0.00000000E+00  0.00000000E+00  0.00000000E+00
  0.00000000E+00  0.00000000E+00  0.00000000E+00
  0.00000000E+00  0.00000000E+00  0.00000000E+00
  0.00000000E+00  0.00000000E+00  0.00000000E+00
  0.00000000E+00  0.00000000E+00  0.00000000E+00
  0.00000000E+00  0.00000000E+00  0.00000000E+00
  0.00000000E+00  0.00000000E+00  0.00000000E+00
  0.00000000E+00  0.00000000E+00  0.00000000E+00
  0.00000000E+00  0.00000000E+00  0.00000000E+00
  0.00000000E+00  0.00000000E+00  0.00000000E+00
  0.00000000E+00  0.00000000E+00  0.00000000E+00
  0.00000000E+00  0.00000000E+00  0.00000000E+00
  0.00000000E+00  0.00000000E+00  0.00000000E+00
  0.00000000E+00  0.00000000E+00  0.00000000E+00
  0.00000000E+00  0.00000000E+00  0.00000000E+00
  0.00000000E+00  0.00000000E+00  0.00000000E+00
  0.00000000E+00  0.00000000E+00  0.00000000E+00
  0.00000000E+00  0.00000000E+00  0.00000000E+00
  0.00000000E+00  0.00000000E+00  0.00000000E+00
  0.00000000E+00  0.00000000E+00  0.00000000E+00
  0.00000000E+00  0.00000000E+00  0.00000000E+00
  0.00000000E+00  0.00000000E+00  0.00000000E+00
  0.00000000E+00  0.00000000E+00  0.00000000E+00
  0.00000000E+00  0.00000000E+00  0.00000000E+00
  0.00000000E+00  0.00000000E+00  0.00000000E+00
  0.00000000E+00  0.00000000E+00  0.00000000E+00
  0.00000000E+00  0.00000000E+00  0.00000000E+00
  0.00000000E+00  0.00000000E+00  0.00000000E+00
  0.00000000E+00  0.00000000E+00  0.00000000E+00
  0.00000000E+00  0.00000000E+00  0.00000000E+00
  0.00000000E+00  0.00000000E+00  0.00000000E+00
  0.00000000E+00  0.00000000E+00  0.00000000E+00
  0.00000000E+00  0.00000000E+00  0.00000000E+00
  0.00000000E+00  0.00000000E+00  0.00000000E+00
  0.00000000E+00  0.00000000E+00  0.00000000E+00
  0.00000000E+00  0.00000000E+00  0.00000000E+00
  0.00000000E+00  0.00000000E+00  0.00000000E+00
  0.00000000E+00  0.00000000E+00  0.00000000E+00
  0.00000000E+00  0.00000000E+00  0.00000000E+00
  0.00000000E+00  0.00000000E+00  0.00000000E+00
  0.00000000E+00  0.00000000E+00  0.00000000E+00
  0.00000000E+00  0.00000000E+00  0.00000000E+00
  0.00000000E+00  0.00000000E+00  0.00000000E+00
  0.00000000E+00  0.00000000E+00  0.00000000E+00
  0.00000000E+00  0.00000000E+00  0.00000000E+00
  0.00000000E+00  0.00000000E+00  0.00000000E+00
  0.00000000E+00  0.00000000E+00  0.00000000E+00
  0.00000000E+00  0.00000000E+00  0.00000000E+00
  0.00000000E+00  0.00000000E+00  0.00000000E+00
  0.00000000E+00  0.00000000E+00  0.00000000E+00
  0.00000000E+00  0.00000000E+00  0.00000000E+00
  0.00000000E+00  0.00000000E+00  0.00000000E+00
  0.00000000E+00  0.00000000E+00  0.00000000E+00
  0.00000000E+00  0.00000000E+00  0.00000000E+00
  0.00000000E+00  0.00000000E+00  0.00000000E+00
  0.00000000E+00  0.00000000E+00  0.00000000E+00
  0.00000000E+00  0.00000000E+00  0.00000000E+00
  0.00000000E+00  0.00000000E+00  0.00000000E+00
  0.00000000E+00  0.00000000E+00  0.00000000E+00
  0.00000000E+00  0.00000000E+00  0.00000000E+00
  0.00000000E+00  0.00000000E+00  0.00000000E+00
  0.00000000E+00  0.00000000E+00  0.00000000E+00
  0.00000000E+00  0.00000000E+00  0.00000000E+00
