generated by phonopy                    
   1.00000000000000     
    10.0351470768999995   -0.0000022330999784   -0.0000001056124209
    -5.0175765436399997    8.6906901959899994    0.0000001395531216
    -0.0000001735893656    0.0000001431815548   14.9533752540999991
   Cu   Pb   P    O 
     1    19    12    50
Direct
  0.9484624795423144  0.7540127397903262  0.0556011967673271
  0.0001039773270719  0.7726706401895740  0.6158574632306184
  0.0058959394751668  0.2688781557713611  0.3737398970329906
  0.0049634887063377  0.2620117191923441  0.8702473329961009
  0.2214095040731436  0.1938622645074588  0.1053522392292123
  0.2280092877511422  0.2255003963103732  0.6161697747115511
  0.7336178568425780  0.7385025731888035  0.3705099782683305
  0.7348500548464116  0.7386072263960983  0.8665732203612180
  0.7824623986749870  0.9912450484939583  0.1054898508376141
  0.7767474815627367  0.0026437363057283  0.6177518347181845
  0.2582038359896686  0.9938009315673000  0.3627225115877621
  0.2623445315728432  0.0008651738235201  0.8692990014439346
  0.6588339647709631  0.3223999904081509  0.0028666369213539
  0.6562212287271478  0.3262369150878897  0.5013917879330094
  0.3345123103921281  0.6703014170693180  0.0077606907934253
  0.3462223322571418  0.6771928921922026  0.5047265274437862
  0.3171182297924773  0.6594293314627393  0.2457852300943415
  0.3262763800456057  0.6627827037861778  0.7454656398753272
  0.6825724519634164  0.3478405855642066  0.2499987099508729
  0.6737160800824284  0.3380034421712210  0.7472947494754862
  0.6074396438042484  0.5841220239351301  0.1319185803750642
  0.6223372898746575  0.5950619517124096  0.6286516206528816
  0.3664435374573927  0.3933634858856365  0.3758736934820632
  0.3671413068151352  0.3911369906613942  0.8747899776526467
  0.4169277833735805  0.0271208095020867  0.1251290868368002
  0.4071281951776697  0.0301622447983050  0.6278189838884032
  0.6083963461878454  0.9765590657159393  0.3752699638304478
  0.6092267733879879  0.9766317230459052  0.8754100957311906
  0.9735650654516022  0.3970877569467817  0.1250046287153097
  0.9738336415477349  0.3782549023744366  0.6256569252319224
  0.0277835563448647  0.6335969819023717  0.3806415323055390
  0.0261230500573575  0.6326446538717292  0.8817146097257904
  0.4902854714809237  0.6428493852561559  0.1282276718366333
  0.4990993449618131  0.6465151907303550  0.6286183979513282
  0.4690452311191180  0.3176956149941432  0.3719823330973853
  0.4675433929335284  0.3134120784701366  0.8686224638532991
  0.3659889431076238  0.8534792380817535  0.1242307386058172
  0.3553002827584990  0.8554106882059287  0.6273932779831171
  0.6836813691312713  0.1549310299974991  0.3762985987268479
  0.6900384806704238  0.1548100043467855  0.8726745351002307
  0.1513026319895516  0.5100473432621158  0.1217351931868862
  0.1479947489933622  0.5032280699855889  0.6253074917226300
  0.8495637639339435  0.5303589355820577  0.3763904141506771
  0.8478767623887933  0.5374310933033257  0.8797172669031852
  0.7310786611003195  0.6737343385622339  0.0565612232229000
  0.7354950850214124  0.6673804867593987  0.5481186708917889
  0.2534342552877433  0.3334987507461804  0.4577747059096922
  0.2595028289860579  0.3343170497491954  0.9588571526365968
  0.3611994356264532  0.0767393455328076  0.0386634143517242
  0.3477103769933834  0.0764583424713123  0.5429402168871675
  0.6447367610006509  0.9129424643108806  0.4624212449002769
  0.6514672918844155  0.9179908020826630  0.9624563025800228
  0.9297039108917460  0.2649552075907877  0.0544858149623977
  0.9337496883790521  0.2641035577618212  0.5451589606905429
  0.0795727047159218  0.7495000550010857  0.4606897109287686
  0.0876853554131642  0.7386951606378744  0.9676008606731727
  0.2634271564926323  0.3610493101570782  0.2911459801465810
  0.2578410050345070  0.3548215593770649  0.7922649760068410
  0.6864927812519568  0.6142041430865817  0.2248250972729480
  0.7210982601986586  0.6477619797535539  0.7166557516615697
  0.6631306029243547  0.9171392229089363  0.2947927340077996
  0.6567471933404079  0.9092880910901613  0.7950760913007073
  0.3478139904158510  0.0688753757828167  0.2069079850052304
  0.3433536427456545  0.0723706376889837  0.7122211268202392
  0.0993659257062234  0.7324806480923201  0.2946923973307136
  0.0952881926355573  0.7417080875287425  0.7993564182297277
  0.9259484510834710  0.3264310163098116  0.2207244639645936
  0.9292094810085487  0.2797904959917972  0.7136784551765771
  0.5284516722755299  0.4077567204399770  0.1113024020539370
  0.5437331716601932  0.4152346218987901  0.6236413789648552
  0.4717267428683343  0.5741983919027263  0.3873490881385848
  0.4735837986781632  0.5717740216647158  0.8798778635648858
  0.5970141331646133  0.1273594915028795  0.1261428357936367
  0.5877929449509622  0.1305792722493564  0.6285065312523912
  0.4266932206640348  0.9004372906117410  0.3712047194557684
  0.4289930065117105  0.9039487030142652  0.8729789379715669
  0.8834131979184221  0.4845141154711143  0.1033530386301749
  0.8709885686527841  0.4550681616798613  0.6195624904303685
  0.1032806048326620  0.5287248595383076  0.3936128990163752
  0.0973172135001406  0.5235128231237951  0.8831321237818273
  0.9993310868777314  0.9617494977378769  0.0682596046825381
  0.0013395069553042  0.9992063856835074  0.6105555578636199
 
  0.00000000E+00  0.00000000E+00  0.00000000E+00
  0.00000000E+00  0.00000000E+00  0.00000000E+00
  0.00000000E+00  0.00000000E+00  0.00000000E+00
  0.00000000E+00  0.00000000E+00  0.00000000E+00
  0.00000000E+00  0.00000000E+00  0.00000000E+00
  0.00000000E+00  0.00000000E+00  0.00000000E+00
  0.00000000E+00  0.00000000E+00  0.00000000E+00
  0.00000000E+00  0.00000000E+00  0.00000000E+00
  0.00000000E+00  0.00000000E+00  0.00000000E+00
  0.00000000E+00  0.00000000E+00  0.00000000E+00
  0.00000000E+00  0.00000000E+00  0.00000000E+00
  0.00000000E+00  0.00000000E+00  0.00000000E+00
  0.00000000E+00  0.00000000E+00  0.00000000E+00
  0.00000000E+00  0.00000000E+00  0.00000000E+00
  0.00000000E+00  0.00000000E+00  0.00000000E+00
  0.00000000E+00  0.00000000E+00  0.00000000E+00
  0.00000000E+00  0.00000000E+00  0.00000000E+00
  0.00000000E+00  0.00000000E+00  0.00000000E+00
  0.00000000E+00  0.00000000E+00  0.00000000E+00
  0.00000000E+00  0.00000000E+00  0.00000000E+00
  0.00000000E+00  0.00000000E+00  0.00000000E+00
  0.00000000E+00  0.00000000E+00  0.00000000E+00
  0.00000000E+00  0.00000000E+00  0.00000000E+00
  0.00000000E+00  0.00000000E+00  0.00000000E+00
  0.00000000E+00  0.00000000E+00  0.00000000E+00
  0.00000000E+00  0.00000000E+00  0.00000000E+00
  0.00000000E+00  0.00000000E+00  0.00000000E+00
  0.00000000E+00  0.00000000E+00  0.00000000E+00
  0.00000000E+00  0.00000000E+00  0.00000000E+00
  0.00000000E+00  0.00000000E+00  0.00000000E+00
  0.00000000E+00  0.00000000E+00  0.00000000E+00
  0.00000000E+00  0.00000000E+00  0.00000000E+00
  0.00000000E+00  0.00000000E+00  0.00000000E+00
  0.00000000E+00  0.00000000E+00  0.00000000E+00
  0.00000000E+00  0.00000000E+00  0.00000000E+00
  0.00000000E+00  0.00000000E+00  0.00000000E+00
  0.00000000E+00  0.00000000E+00  0.00000000E+00
  0.00000000E+00  0.00000000E+00  0.00000000E+00
  0.00000000E+00  0.00000000E+00  0.00000000E+00
  0.00000000E+00  0.00000000E+00  0.00000000E+00
  0.00000000E+00  0.00000000E+00  0.00000000E+00
  0.00000000E+00  0.00000000E+00  0.00000000E+00
  0.00000000E+00  0.00000000E+00  0.00000000E+00
  0.00000000E+00  0.00000000E+00  0.00000000E+00
  0.00000000E+00  0.00000000E+00  0.00000000E+00
  0.00000000E+00  0.00000000E+00  0.00000000E+00
  0.00000000E+00  0.00000000E+00  0.00000000E+00
  0.00000000E+00  0.00000000E+00  0.00000000E+00
  0.00000000E+00  0.00000000E+00  0.00000000E+00
  0.00000000E+00  0.00000000E+00  0.00000000E+00
  0.00000000E+00  0.00000000E+00  0.00000000E+00
  0.00000000E+00  0.00000000E+00  0.00000000E+00
  0.00000000E+00  0.00000000E+00  0.00000000E+00
  0.00000000E+00  0.00000000E+00  0.00000000E+00
  0.00000000E+00  0.00000000E+00  0.00000000E+00
  0.00000000E+00  0.00000000E+00  0.00000000E+00
  0.00000000E+00  0.00000000E+00  0.00000000E+00
  0.00000000E+00  0.00000000E+00  0.00000000E+00
  0.00000000E+00  0.00000000E+00  0.00000000E+00
  0.00000000E+00  0.00000000E+00  0.00000000E+00
  0.00000000E+00  0.00000000E+00  0.00000000E+00
  0.00000000E+00  0.00000000E+00  0.00000000E+00
  0.00000000E+00  0.00000000E+00  0.00000000E+00
  0.00000000E+00  0.00000000E+00  0.00000000E+00
  0.00000000E+00  0.00000000E+00  0.00000000E+00
  0.00000000E+00  0.00000000E+00  0.00000000E+00
  0.00000000E+00  0.00000000E+00  0.00000000E+00
  0.00000000E+00  0.00000000E+00  0.00000000E+00
  0.00000000E+00  0.00000000E+00  0.00000000E+00
  0.00000000E+00  0.00000000E+00  0.00000000E+00
  0.00000000E+00  0.00000000E+00  0.00000000E+00
  0.00000000E+00  0.00000000E+00  0.00000000E+00
  0.00000000E+00  0.00000000E+00  0.00000000E+00
  0.00000000E+00  0.00000000E+00  0.00000000E+00
  0.00000000E+00  0.00000000E+00  0.00000000E+00
  0.00000000E+00  0.00000000E+00  0.00000000E+00
  0.00000000E+00  0.00000000E+00  0.00000000E+00
  0.00000000E+00  0.00000000E+00  0.00000000E+00
  0.00000000E+00  0.00000000E+00  0.00000000E+00
  0.00000000E+00  0.00000000E+00  0.00000000E+00
  0.00000000E+00  0.00000000E+00  0.00000000E+00
  0.00000000E+00  0.00000000E+00  0.00000000E+00
