Al   Gd   N                             
   1.00000000000000     
    -9.8499534455810132   -0.0000417744784553   -0.0229203648469422
    -4.9597910762358488    8.5775175665408945   -0.0323430534121520
    -0.0244506084946265    0.0680386984913528  -10.5634009214257016
   Al   Gd   N 
    28     8    36
Direct
  0.1056062759424918  0.1080383061594645  0.3385720420003793
  0.2248793226888424  0.2145987491298413  0.1567055335200749
  0.7666173772243710  0.0970605617899096  0.9276994519663688
  0.4368280888184870  0.1061188107120827  0.3842393772327100
  0.5403685155961711  0.2171070495427045  0.1393641050391921
  0.1226377990070091  0.0837367674571041  0.8516339630259040
  0.8951088903833337  0.2037817249748386  0.0856069118564164
  0.4412497281090708  0.0896084564299429  0.9180915453933736
  0.1017685029948510  0.4439521427358244  0.3959024725302953
  0.2305106924240263  0.5375151841030998  0.1527790905428219
  0.7804025807212369  0.4129879349713832  0.8982044930864816
  0.8984608476149205  0.5437467039438886  0.6615946469959155
  0.4383259458432534  0.4315962310662016  0.3937221777758140
  0.5566674861027536  0.5279779857340543  0.1565932897433910
  0.1355294928431832  0.4113971813290505  0.8946437583093996
  0.2281600292806019  0.5306279489592995  0.6333413703258728
  0.7779769079078918  0.4522748797507745  0.4120281677767537
  0.4485755787219787  0.4163982810384468  0.9058567139204428
  0.5427241053446963  0.5361186373959157  0.6493300173170624
  0.1143842797101300  0.7561346005442857  0.3420560776520034
  0.2126189999750352  0.8836997432570257  0.1039428292251827
  0.7783543597792431  0.7832308221224977  0.8372265176850817
  0.9060294537010520  0.8483193555688615  0.5667611348085018
  0.4362585522639009  0.7605485027780219  0.3284808554532290
  0.5454258322128069  0.8882986640235586  0.1598393798707249
  0.2220242596091992  0.8554405207037092  0.5777828142700088
  0.7836940184380765  0.7597528345516125  0.3257482759292643
  0.8909376580539572  0.8755012183129693  0.0976416805997502
  0.8665663931539456  0.2174096306348545  0.6399328243979667
  0.2050474934529944  0.1947758717749792  0.6177831834496388
  0.7827462675155914  0.1024552912936514  0.3628439210940755
  0.5450663508330820  0.1951686136924096  0.6676627073512762
  0.8898970045709476  0.5432374940428701  0.1134608478473851
  0.1053016634240365  0.7838146516646418  0.8203661896060694
  0.4646981684089511  0.7429663006190239  0.8821922507528441
  0.5765082506724610  0.8281707867238026  0.5926217138611136
  0.2181256598097008  0.2196141638785605  0.3433467601911460
  0.1008454980628102  0.1054610709956876  0.1554489045169518
  0.9010121729098231  0.1902733902064710  0.8965277743311191
  0.7803072654434828  0.0661358122716607  0.5856779811260111
  0.5232772297105015  0.2267389555260380  0.3216448334232993
  0.4355785675803716  0.0947942406053102  0.1020262113515926
  0.2310035997191093  0.1994493277468337  0.8464465624766291
  0.1112673581245076  0.0352557747789035  0.6783808797239175
  0.9119489135011420  0.2307264229149837  0.4183127387329790
  0.7761164771703548  0.1029930442814191  0.1170452076512944
  0.5539891511865065  0.1979836170789326  0.8916564367966799
  0.4428311743041178  0.0843993959379006  0.5580799757045440
  0.2257070088873547  0.5344626662131589  0.3357280001117857
  0.1504863261992213  0.4147102899338080  0.0791858875298033
  0.8984116183953645  0.5227104974851287  0.8558263287438734
  0.7435306590634312  0.5032184526896870  0.5880425146420833
  0.5599734530167098  0.5322374567328438  0.3387517959734936
  0.4390072111704129  0.4415172405456644  0.0887222259889242
  0.2465128122337248  0.5074287579638579  0.8220739970146411
  0.0959317063831762  0.4525276628680928  0.5778024835562405
  0.8897317948826782  0.5408942163231885  0.3361462659045245
  0.7542704869045167  0.4224277927280795  0.0792020240480085
  0.5872247630031282  0.4722968626544670  0.8228476309982966
  0.4407944932988386  0.4367646372924909  0.5720911068582097
  0.2211961853825031  0.8794775882312038  0.3904060515019552
  0.1070860769818722  0.7701642361065097  0.1528980784148857
  0.8734104813032744  0.8795805395961338  0.9187241065288987
  0.8210330397059096  0.7553950147638702  0.6652311077764779
  0.5514139179399180  0.8721634785846746  0.3502182566834762
  0.4417904308631719  0.7638787145985972  0.1420520381748176
  0.2163223768823599  0.8940519793886565  0.9315702991752772
  0.1190332828142857  0.7451405089052798  0.6023403700551526
  0.9030443792367606  0.8390281155422201  0.3885058686819605
  0.7612522265134913  0.7994483374152708  0.1491846351651915
  0.5630656577369066  0.8933536581544246  0.8451486707413380
  0.4125341540128673  0.7487355050149986  0.6619722588344530
 
  0.00000000E+00  0.00000000E+00  0.00000000E+00
  0.00000000E+00  0.00000000E+00  0.00000000E+00
  0.00000000E+00  0.00000000E+00  0.00000000E+00
  0.00000000E+00  0.00000000E+00  0.00000000E+00
  0.00000000E+00  0.00000000E+00  0.00000000E+00
  0.00000000E+00  0.00000000E+00  0.00000000E+00
  0.00000000E+00  0.00000000E+00  0.00000000E+00
  0.00000000E+00  0.00000000E+00  0.00000000E+00
  0.00000000E+00  0.00000000E+00  0.00000000E+00
  0.00000000E+00  0.00000000E+00  0.00000000E+00
  0.00000000E+00  0.00000000E+00  0.00000000E+00
  0.00000000E+00  0.00000000E+00  0.00000000E+00
  0.00000000E+00  0.00000000E+00  0.00000000E+00
  0.00000000E+00  0.00000000E+00  0.00000000E+00
  0.00000000E+00  0.00000000E+00  0.00000000E+00
  0.00000000E+00  0.00000000E+00  0.00000000E+00
  0.00000000E+00  0.00000000E+00  0.00000000E+00
  0.00000000E+00  0.00000000E+00  0.00000000E+00
  0.00000000E+00  0.00000000E+00  0.00000000E+00
  0.00000000E+00  0.00000000E+00  0.00000000E+00
  0.00000000E+00  0.00000000E+00  0.00000000E+00
  0.00000000E+00  0.00000000E+00  0.00000000E+00
  0.00000000E+00  0.00000000E+00  0.00000000E+00
  0.00000000E+00  0.00000000E+00  0.00000000E+00
  0.00000000E+00  0.00000000E+00  0.00000000E+00
  0.00000000E+00  0.00000000E+00  0.00000000E+00
  0.00000000E+00  0.00000000E+00  0.00000000E+00
  0.00000000E+00  0.00000000E+00  0.00000000E+00
  0.00000000E+00  0.00000000E+00  0.00000000E+00
  0.00000000E+00  0.00000000E+00  0.00000000E+00
  0.00000000E+00  0.00000000E+00  0.00000000E+00
  0.00000000E+00  0.00000000E+00  0.00000000E+00
  0.00000000E+00  0.00000000E+00  0.00000000E+00
  0.00000000E+00  0.00000000E+00  0.00000000E+00
  0.00000000E+00  0.00000000E+00  0.00000000E+00
  0.00000000E+00  0.00000000E+00  0.00000000E+00
  0.00000000E+00  0.00000000E+00  0.00000000E+00
  0.00000000E+00  0.00000000E+00  0.00000000E+00
  0.00000000E+00  0.00000000E+00  0.00000000E+00
  0.00000000E+00  0.00000000E+00  0.00000000E+00
  0.00000000E+00  0.00000000E+00  0.00000000E+00
  0.00000000E+00  0.00000000E+00  0.00000000E+00
  0.00000000E+00  0.00000000E+00  0.00000000E+00
  0.00000000E+00  0.00000000E+00  0.00000000E+00
  0.00000000E+00  0.00000000E+00  0.00000000E+00
  0.00000000E+00  0.00000000E+00  0.00000000E+00
  0.00000000E+00  0.00000000E+00  0.00000000E+00
  0.00000000E+00  0.00000000E+00  0.00000000E+00
  0.00000000E+00  0.00000000E+00  0.00000000E+00
  0.00000000E+00  0.00000000E+00  0.00000000E+00
  0.00000000E+00  0.00000000E+00  0.00000000E+00
  0.00000000E+00  0.00000000E+00  0.00000000E+00
  0.00000000E+00  0.00000000E+00  0.00000000E+00
  0.00000000E+00  0.00000000E+00  0.00000000E+00
  0.00000000E+00  0.00000000E+00  0.00000000E+00
  0.00000000E+00  0.00000000E+00  0.00000000E+00
  0.00000000E+00  0.00000000E+00  0.00000000E+00
  0.00000000E+00  0.00000000E+00  0.00000000E+00
  0.00000000E+00  0.00000000E+00  0.00000000E+00
  0.00000000E+00  0.00000000E+00  0.00000000E+00
  0.00000000E+00  0.00000000E+00  0.00000000E+00
  0.00000000E+00  0.00000000E+00  0.00000000E+00
  0.00000000E+00  0.00000000E+00  0.00000000E+00
  0.00000000E+00  0.00000000E+00  0.00000000E+00
  0.00000000E+00  0.00000000E+00  0.00000000E+00
  0.00000000E+00  0.00000000E+00  0.00000000E+00
  0.00000000E+00  0.00000000E+00  0.00000000E+00
  0.00000000E+00  0.00000000E+00  0.00000000E+00
  0.00000000E+00  0.00000000E+00  0.00000000E+00
  0.00000000E+00  0.00000000E+00  0.00000000E+00
  0.00000000E+00  0.00000000E+00  0.00000000E+00
  0.00000000E+00  0.00000000E+00  0.00000000E+00
