Al   Gd   N                             
   1.00000000000000     
    -9.8251691817627336    0.0082164832902005   -0.0205224877852414
    -4.9978337603892760    8.6115877998874737   -0.0271476585752715
    -0.0871130971213395    0.0394164734297319  -10.6000168639648535
   Al   Gd   N 
    28     8    36
Direct
  0.1118809999360053  0.1093467163044295  0.3098799340584009
  0.2292137318446805  0.2048374808969342  0.0642846715809924
  0.7607259818384193  0.0977535237812219  0.8962345357673058
  0.4394986542893662  0.0922965549118544  0.3003825565989189
  0.5457326351474734  0.2191932418495028  0.1353726483196169
  0.1159052010731330  0.0858136093340107  0.8293768447330763
  0.8936749531761237  0.2025243688959009  0.0594362205637680
  0.4403403721805574  0.0885750509830956  0.8214707793530209
  0.1225828831228455  0.4235420206115421  0.2992100264255129
  0.2321867767983434  0.5359907681726739  0.0662505334926138
  0.7739771626764522  0.4174279493982311  0.8800483996068991
  0.8884953221806740  0.5522435738339055  0.6532418755790061
  0.4459853731875967  0.4371870044854873  0.3695320470267518
  0.5607950715689825  0.5293218231761614  0.1369944656699360
  0.1279768470228078  0.4190755102389616  0.8218332581574543
  0.2145548708124920  0.5454170130763174  0.5457012170415467
  0.7846178059840696  0.4533684271058149  0.3910995955645475
  0.4591792409387168  0.4037822059939273  0.8805073489877984
  0.5409185630903295  0.5421141681431578  0.6287634484993703
  0.1166502950745709  0.7467568003794014  0.3136580774015343
  0.2130061429070906  0.8808134649949082  0.0805504576431488
  0.7734527626002574  0.7840838759624091  0.8259136850980227
  0.9013826592807916  0.8481228383844908  0.5444190102679087
  0.4400406563009085  0.7702199358795170  0.2997282747596799
  0.5560921520739868  0.8894092424470585  0.0696116142369050
  0.2152967435946493  0.8642992648494214  0.5555623136397827
  0.7790084830148913  0.7605801724339756  0.3009264676099335
  0.8913562554456362  0.8746161182567818  0.0728446244541132
  0.8619997372353581  0.2198346740743489  0.6190087380954097
  0.1934228960453694  0.2065950961792140  0.5634790812622015
  0.8034044765845181  0.0923541719620786  0.3369484105734060
  0.5433952816770145  0.1996245609957299  0.5982146997404030
  0.8912860692130167  0.5433832884289060  0.0853852006773153
  0.1083802166549077  0.7656371946880611  0.8003211318489818
  0.4521291867450756  0.7458878578920505  0.8566972115212153
  0.5689948490331176  0.8319594829014889  0.5626403024173925
  0.2289728986818673  0.2059555575100589  0.3506887132408139
  0.1034411904705976  0.1043629881252812  0.1276727180697890
  0.8930038057225858  0.1951358565844288  0.8709768364976895
  0.7901576428419048  0.0618306833374405  0.5531049876910785
  0.5352331670204151  0.2204568076080164  0.3222915163806164
  0.4419423202784856  0.0984916341291751  0.1180778669095375
  0.2185720444712018  0.2044070331475538  0.8786757934885827
  0.1116621860831444  0.0522598760759365  0.6535652284904714
  0.9175988781541520  0.2322600643321806  0.3966019833816148
  0.7733198640476715  0.1026787744287745  0.0908415970116465
  0.5564664198993370  0.1964009670331848  0.8300619568388470
  0.4267945911437607  0.0674878725689680  0.6447925185463177
  0.2209201516131998  0.5337552169731268  0.3617312877881389
  0.1503219309950481  0.4104243960944061  0.1202659062776448
  0.8853067050555126  0.5345253743587648  0.8429125200132717
  0.7475332084811868  0.5025121303201630  0.5700116275589977
  0.5623782289605117  0.5404549108103325  0.3172216987808270
  0.4537552678958434  0.4283891898516643  0.0798985489127375
  0.2353518045696461  0.5183577696287571  0.8839530352694496
  0.1132391727231052  0.4488884267771667  0.6404832566951129
  0.8940676803040901  0.5398126953133868  0.3128189358250921
  0.7580172978643560  0.4192011221308221  0.0594766980969155
  0.5807058652271166  0.4819021238051704  0.8041439469571259
  0.4385234471684640  0.4517525724563711  0.5495286825250076
  0.2194299586690747  0.8798832510138013  0.3640620664761229
  0.1134047932250368  0.7582511570370443  0.1281927839691122
  0.8736467558366243  0.8813023751469942  0.8950568342150476
  0.8066364508809940  0.7654163062323605  0.6506522007489863
  0.5530490680826361  0.8733898518844114  0.3475804690296869
  0.4445682136516425  0.7661876958153186  0.1137792405241669
  0.2032567527375519  0.8943659071717249  0.9070258616489539
  0.1124213756616328  0.7535135354508640  0.5853062637125106
  0.9053320888908516  0.8324627327585716  0.3656483245585491
  0.7627020621428215  0.7983828342049790  0.1261166412386956
  0.5670303189906534  0.8860374532251996  0.8885148175995212
  0.4076373744780852  0.7540114967364246  0.6407538452291419
 
  0.00000000E+00  0.00000000E+00  0.00000000E+00
  0.00000000E+00  0.00000000E+00  0.00000000E+00
  0.00000000E+00  0.00000000E+00  0.00000000E+00
  0.00000000E+00  0.00000000E+00  0.00000000E+00
  0.00000000E+00  0.00000000E+00  0.00000000E+00
  0.00000000E+00  0.00000000E+00  0.00000000E+00
  0.00000000E+00  0.00000000E+00  0.00000000E+00
  0.00000000E+00  0.00000000E+00  0.00000000E+00
  0.00000000E+00  0.00000000E+00  0.00000000E+00
  0.00000000E+00  0.00000000E+00  0.00000000E+00
  0.00000000E+00  0.00000000E+00  0.00000000E+00
  0.00000000E+00  0.00000000E+00  0.00000000E+00
  0.00000000E+00  0.00000000E+00  0.00000000E+00
  0.00000000E+00  0.00000000E+00  0.00000000E+00
  0.00000000E+00  0.00000000E+00  0.00000000E+00
  0.00000000E+00  0.00000000E+00  0.00000000E+00
  0.00000000E+00  0.00000000E+00  0.00000000E+00
  0.00000000E+00  0.00000000E+00  0.00000000E+00
  0.00000000E+00  0.00000000E+00  0.00000000E+00
  0.00000000E+00  0.00000000E+00  0.00000000E+00
  0.00000000E+00  0.00000000E+00  0.00000000E+00
  0.00000000E+00  0.00000000E+00  0.00000000E+00
  0.00000000E+00  0.00000000E+00  0.00000000E+00
  0.00000000E+00  0.00000000E+00  0.00000000E+00
  0.00000000E+00  0.00000000E+00  0.00000000E+00
  0.00000000E+00  0.00000000E+00  0.00000000E+00
  0.00000000E+00  0.00000000E+00  0.00000000E+00
  0.00000000E+00  0.00000000E+00  0.00000000E+00
  0.00000000E+00  0.00000000E+00  0.00000000E+00
  0.00000000E+00  0.00000000E+00  0.00000000E+00
  0.00000000E+00  0.00000000E+00  0.00000000E+00
  0.00000000E+00  0.00000000E+00  0.00000000E+00
  0.00000000E+00  0.00000000E+00  0.00000000E+00
  0.00000000E+00  0.00000000E+00  0.00000000E+00
  0.00000000E+00  0.00000000E+00  0.00000000E+00
  0.00000000E+00  0.00000000E+00  0.00000000E+00
  0.00000000E+00  0.00000000E+00  0.00000000E+00
  0.00000000E+00  0.00000000E+00  0.00000000E+00
  0.00000000E+00  0.00000000E+00  0.00000000E+00
  0.00000000E+00  0.00000000E+00  0.00000000E+00
  0.00000000E+00  0.00000000E+00  0.00000000E+00
  0.00000000E+00  0.00000000E+00  0.00000000E+00
  0.00000000E+00  0.00000000E+00  0.00000000E+00
  0.00000000E+00  0.00000000E+00  0.00000000E+00
  0.00000000E+00  0.00000000E+00  0.00000000E+00
  0.00000000E+00  0.00000000E+00  0.00000000E+00
  0.00000000E+00  0.00000000E+00  0.00000000E+00
  0.00000000E+00  0.00000000E+00  0.00000000E+00
  0.00000000E+00  0.00000000E+00  0.00000000E+00
  0.00000000E+00  0.00000000E+00  0.00000000E+00
  0.00000000E+00  0.00000000E+00  0.00000000E+00
  0.00000000E+00  0.00000000E+00  0.00000000E+00
  0.00000000E+00  0.00000000E+00  0.00000000E+00
  0.00000000E+00  0.00000000E+00  0.00000000E+00
  0.00000000E+00  0.00000000E+00  0.00000000E+00
  0.00000000E+00  0.00000000E+00  0.00000000E+00
  0.00000000E+00  0.00000000E+00  0.00000000E+00
  0.00000000E+00  0.00000000E+00  0.00000000E+00
  0.00000000E+00  0.00000000E+00  0.00000000E+00
  0.00000000E+00  0.00000000E+00  0.00000000E+00
  0.00000000E+00  0.00000000E+00  0.00000000E+00
  0.00000000E+00  0.00000000E+00  0.00000000E+00
  0.00000000E+00  0.00000000E+00  0.00000000E+00
  0.00000000E+00  0.00000000E+00  0.00000000E+00
  0.00000000E+00  0.00000000E+00  0.00000000E+00
  0.00000000E+00  0.00000000E+00  0.00000000E+00
  0.00000000E+00  0.00000000E+00  0.00000000E+00
  0.00000000E+00  0.00000000E+00  0.00000000E+00
  0.00000000E+00  0.00000000E+00  0.00000000E+00
  0.00000000E+00  0.00000000E+00  0.00000000E+00
  0.00000000E+00  0.00000000E+00  0.00000000E+00
  0.00000000E+00  0.00000000E+00  0.00000000E+00
