Al   Gd   N                             
   1.00000000000000     
    -9.8623015858265077    0.0138772038719923   -0.0159533145688543
    -4.9364619242911871    8.5775153949316749   -0.0285496948718519
    -0.0690670552366139    0.1328401015307184  -10.5771302652327854
   Al   Gd   N 
    28     8    36
Direct
  0.1131644882310425  0.1039341443494521  0.2957914700384734
  0.2282967498463293  0.2023640729734737  0.0522449593435468
  0.7677614284843131  0.0993817569172677  0.8808786650318154
  0.4415145560901266  0.0941913479130463  0.2803975301179449
  0.5419233373870114  0.2168274772371745  0.0560153277005639
  0.1132279430414656  0.0891517937648416  0.8189929944332590
  0.8977521867491660  0.2001890924254823  0.0487007626961855
  0.4457955280828472  0.0947426349269591  0.8178147108635017
  0.1250865287114351  0.4192714861410138  0.2913948964063877
  0.2341417193249882  0.5332581493211208  0.0516857451172115
  0.7681477305809565  0.4271702345369732  0.8740496141481557
  0.8889801952328185  0.5477902327214252  0.6418369900018490
  0.4398736948477691  0.4285729833841927  0.2938447257301107
  0.5517166370803039  0.5376221077723642  0.0767105668752279
  0.1256201868780167  0.4187643008835877  0.8112254457757828
  0.2178310920423527  0.5420589179458872  0.5436342461153814
  0.7891334065238382  0.4461892012887319  0.3762558619550376
  0.4433348609149590  0.4261624819765046  0.8032830850622119
  0.5355660954127330  0.5523850268689401  0.5480749767720496
  0.1169479394625128  0.7456752745908943  0.3032049925576672
  0.2180473031720069  0.8742499378426842  0.0672839936226453
  0.7745034608365771  0.7807422679030509  0.8143216983031323
  0.9026677571382393  0.8495276024535556  0.5325288342589971
  0.4425958684025417  0.7621440769195544  0.2935877693258178
  0.5568331780177616  0.8817217193536138  0.0575097447164197
  0.2141541929101223  0.8654437364311534  0.5332949194376368
  0.7809914257116972  0.7590166705409160  0.2866562251797546
  0.8929236609597453  0.8725339368555396  0.0582894552929503
  0.8701966585560470  0.2136679266506221  0.6008498111779730
  0.2047394542122092  0.1989864510034280  0.5554966189770028
  0.7932974279184464  0.0954785641712235  0.3136356611367148
  0.5322690164218997  0.2089403560543062  0.5491585126876544
  0.8966802479077174  0.5400608480088351  0.0751180382962815
  0.1039892835775333  0.7669622664902533  0.7883788970537253
  0.4378829191881124  0.7722369094702017  0.8055676206457107
  0.5800778269120670  0.8451831972680779  0.5418549562914095
  0.2320748311742875  0.1988827258686570  0.3393973167799516
  0.1072105734193087  0.1002317262303976  0.1127721750005719
  0.8892301945543508  0.2032739958909389  0.8541164649097652
  0.7831140221595518  0.0639187121428861  0.5465192455708632
  0.5319441764423729  0.2134322397131925  0.3326176314019804
  0.4428385619696229  0.0963903911285584  0.0997136831997025
  0.2189900009418935  0.2036008314309186  0.8668527488369406
  0.1205767704483804  0.0452960076674458  0.6425574843419994
  0.9176417012111031  0.2249965435286754  0.3781264052187083
  0.7773712809244273  0.1002507149579017  0.0750733306064078
  0.5473058317132669  0.2119075925048648  0.8648629551995626
  0.4392380876190813  0.0716667444256345  0.6420559276609126
  0.2292532483721246  0.5275407366502165  0.3589540968755145
  0.1537140910998005  0.4069352906146122  0.1114980242357078
  0.8864453399132657  0.5347351880434275  0.8334471945637034
  0.7542132972905620  0.4915823611536680  0.5588937375164420
  0.5539101921996803  0.5370251443661331  0.3451819084649514
  0.4441596372756464  0.4307706685301866  0.1120379912033869
  0.2341211119806701  0.5178230840997315  0.8722281374803984
  0.1112405693923648  0.4444274196300029  0.6291034232044339
  0.8971355164432282  0.5374730293974395  0.3030485220678472
  0.7662367604173497  0.4135437542226015  0.0578564781869346
  0.5568167836326907  0.5205173750806154  0.8515437063685880
  0.4267006428779325  0.4542703058752764  0.6193635079557183
  0.2164546575245723  0.8778566414752476  0.3461117961578140
  0.1135944940279003  0.7542307902539420  0.1155578225293183
  0.8723133929706250  0.8830889579721557  0.8798813504136334
  0.8138964994084859  0.7598224748071871  0.6391183153300872
  0.5557566084880321  0.8723030137022860  0.3287545258450635
  0.4461332098477371  0.7610501598183674  0.1078145837303524
  0.2022214750683133  0.8937077915569063  0.8937738836097751
  0.1134557848399282  0.7543486428149748  0.5718013727567737
  0.9048187612407403  0.8339126061235760  0.3533363704599566
  0.7646021098724560  0.7959974997718504  0.1119266310750362
  0.5697366531089543  0.8848841426907370  0.8776340399865035
  0.4192793728643025  0.7581425894878180  0.5890047956311264
 
  0.00000000E+00  0.00000000E+00  0.00000000E+00
  0.00000000E+00  0.00000000E+00  0.00000000E+00
  0.00000000E+00  0.00000000E+00  0.00000000E+00
  0.00000000E+00  0.00000000E+00  0.00000000E+00
  0.00000000E+00  0.00000000E+00  0.00000000E+00
  0.00000000E+00  0.00000000E+00  0.00000000E+00
  0.00000000E+00  0.00000000E+00  0.00000000E+00
  0.00000000E+00  0.00000000E+00  0.00000000E+00
  0.00000000E+00  0.00000000E+00  0.00000000E+00
  0.00000000E+00  0.00000000E+00  0.00000000E+00
  0.00000000E+00  0.00000000E+00  0.00000000E+00
  0.00000000E+00  0.00000000E+00  0.00000000E+00
  0.00000000E+00  0.00000000E+00  0.00000000E+00
  0.00000000E+00  0.00000000E+00  0.00000000E+00
  0.00000000E+00  0.00000000E+00  0.00000000E+00
  0.00000000E+00  0.00000000E+00  0.00000000E+00
  0.00000000E+00  0.00000000E+00  0.00000000E+00
  0.00000000E+00  0.00000000E+00  0.00000000E+00
  0.00000000E+00  0.00000000E+00  0.00000000E+00
  0.00000000E+00  0.00000000E+00  0.00000000E+00
  0.00000000E+00  0.00000000E+00  0.00000000E+00
  0.00000000E+00  0.00000000E+00  0.00000000E+00
  0.00000000E+00  0.00000000E+00  0.00000000E+00
  0.00000000E+00  0.00000000E+00  0.00000000E+00
  0.00000000E+00  0.00000000E+00  0.00000000E+00
  0.00000000E+00  0.00000000E+00  0.00000000E+00
  0.00000000E+00  0.00000000E+00  0.00000000E+00
  0.00000000E+00  0.00000000E+00  0.00000000E+00
  0.00000000E+00  0.00000000E+00  0.00000000E+00
  0.00000000E+00  0.00000000E+00  0.00000000E+00
  0.00000000E+00  0.00000000E+00  0.00000000E+00
  0.00000000E+00  0.00000000E+00  0.00000000E+00
  0.00000000E+00  0.00000000E+00  0.00000000E+00
  0.00000000E+00  0.00000000E+00  0.00000000E+00
  0.00000000E+00  0.00000000E+00  0.00000000E+00
  0.00000000E+00  0.00000000E+00  0.00000000E+00
  0.00000000E+00  0.00000000E+00  0.00000000E+00
  0.00000000E+00  0.00000000E+00  0.00000000E+00
  0.00000000E+00  0.00000000E+00  0.00000000E+00
  0.00000000E+00  0.00000000E+00  0.00000000E+00
  0.00000000E+00  0.00000000E+00  0.00000000E+00
  0.00000000E+00  0.00000000E+00  0.00000000E+00
  0.00000000E+00  0.00000000E+00  0.00000000E+00
  0.00000000E+00  0.00000000E+00  0.00000000E+00
  0.00000000E+00  0.00000000E+00  0.00000000E+00
  0.00000000E+00  0.00000000E+00  0.00000000E+00
  0.00000000E+00  0.00000000E+00  0.00000000E+00
  0.00000000E+00  0.00000000E+00  0.00000000E+00
  0.00000000E+00  0.00000000E+00  0.00000000E+00
  0.00000000E+00  0.00000000E+00  0.00000000E+00
  0.00000000E+00  0.00000000E+00  0.00000000E+00
  0.00000000E+00  0.00000000E+00  0.00000000E+00
  0.00000000E+00  0.00000000E+00  0.00000000E+00
  0.00000000E+00  0.00000000E+00  0.00000000E+00
  0.00000000E+00  0.00000000E+00  0.00000000E+00
  0.00000000E+00  0.00000000E+00  0.00000000E+00
  0.00000000E+00  0.00000000E+00  0.00000000E+00
  0.00000000E+00  0.00000000E+00  0.00000000E+00
  0.00000000E+00  0.00000000E+00  0.00000000E+00
  0.00000000E+00  0.00000000E+00  0.00000000E+00
  0.00000000E+00  0.00000000E+00  0.00000000E+00
  0.00000000E+00  0.00000000E+00  0.00000000E+00
  0.00000000E+00  0.00000000E+00  0.00000000E+00
  0.00000000E+00  0.00000000E+00  0.00000000E+00
  0.00000000E+00  0.00000000E+00  0.00000000E+00
  0.00000000E+00  0.00000000E+00  0.00000000E+00
  0.00000000E+00  0.00000000E+00  0.00000000E+00
  0.00000000E+00  0.00000000E+00  0.00000000E+00
  0.00000000E+00  0.00000000E+00  0.00000000E+00
  0.00000000E+00  0.00000000E+00  0.00000000E+00
  0.00000000E+00  0.00000000E+00  0.00000000E+00
  0.00000000E+00  0.00000000E+00  0.00000000E+00
