Al   Gd   N                             
   1.00000000000000     
    -9.8515107322689293    0.0130408495158654   -0.0157889154700943
    -4.9221580161680878    8.5830240749162900   -0.0305858780827881
    -0.0603831158014065    0.1537813975497418  -10.5682103623385544
   Al   Gd   N 
    28     8    36
Direct
  0.1144117757638909  0.0999607601655370  0.2934161889099087
  0.2275861353133237  0.2019859927323466  0.0520050951408351
  0.7664267898646528  0.1017511494563834  0.8809296683846028
  0.4399606383553163  0.0932988608317089  0.2797688505726228
  0.5408352668503085  0.2173326955788468  0.0571606693953655
  0.1131937698383041  0.0901333632837336  0.8179509839736312
  0.8964576421647052  0.2021304392460408  0.0485723124513697
  0.4451208287813273  0.0972563898224337  0.8180868201325637
  0.1250965923544811  0.4180334779279988  0.2922602158662926
  0.2330492447228565  0.5332043448715638  0.0540277266334215
  0.7699061214991687  0.4284956046843433  0.8637813656647708
  0.8893048148935065  0.5477720995482755  0.6462877088189956
  0.4415247430327653  0.4286461189988700  0.2927290959203717
  0.5477437422993887  0.5370400661438666  0.0513144311640730
  0.1268716283015578  0.4203673133884038  0.8129577818047125
  0.2191754296964703  0.5449615250797990  0.5463809332076508
  0.7870825469067455  0.4363984388420548  0.3538816863865861
  0.4415774927797216  0.4296424243935846  0.8068653314139880
  0.5409747113149379  0.5523766232528757  0.5462078985599277
  0.1177681395536894  0.7442352708830953  0.3026272353063746
  0.2199403949297718  0.8725988164831904  0.0657526869354115
  0.7734271638276198  0.7829340716907325  0.8144337340341892
  0.9039543772897858  0.8482134944261190  0.5323876098569684
  0.4452822566719874  0.7580187978047377  0.2925012086736558
  0.5551425282491707  0.8799650931384306  0.0570989446437835
  0.2176687263737733  0.8654429444042293  0.5312998127906283
  0.7807644780753265  0.7562602698319196  0.2857300032440122
  0.8920144992589556  0.8726279786737550  0.0571818456256423
  0.8741370699380084  0.2084245320647682  0.5946392676715533
  0.2049012022909693  0.2031576067261867  0.5564964143706135
  0.7902306276310256  0.0891884785000983  0.3112025193897097
  0.5303012706622567  0.2179069671528566  0.5491607451828457
  0.8960962163666508  0.5399644387685498  0.0715576660703405
  0.1029843696970474  0.7674078458704869  0.7891884319126135
  0.4375489067811529  0.7730520679717401  0.7989136769793532
  0.5808773240035023  0.8539776316324605  0.5405430029706224
  0.2306870241712886  0.1970634973773713  0.3399327171014050
  0.1079604790377076  0.0985550758075249  0.1105750854861114
  0.8883400042243323  0.2045620175109448  0.8522778308748755
  0.7789514766474355  0.0620923998797167  0.5434991269673475
  0.5294037981401232  0.2137117439303324  0.3316991958652267
  0.4422189229106195  0.0953504977914790  0.0989405140119501
  0.2184172317081945  0.2051160077733982  0.8664677718584315
  0.1250571495031707  0.0451492855071791  0.6410167001267624
  0.9146013344800394  0.2207228326524486  0.3703670667934702
  0.7768118993572344  0.1003037486904077  0.0744429572171370
  0.5461420050070416  0.2146892975634387  0.8658143802514928
  0.4393879718123799  0.0788046480565825  0.6414353920759694
  0.2312316011928530  0.5262548630688642  0.3605953761947092
  0.1531067425258357  0.4059589203818490  0.1130020356288597
  0.8888663851726051  0.5384841123672786  0.8373749805996056
  0.7535431934560748  0.4798010727908917  0.5917140477234284
  0.5565767224407523  0.5331135123813269  0.3568638862746951
  0.4442144630195557  0.4318891745507685  0.1122274389217992
  0.2335706328194789  0.5195418035405908  0.8749796594145067
  0.1119859159779253  0.4478083841748060  0.6313776127633588
  0.8958292024211971  0.5353628087273847  0.3048347535862845
  0.7665766785960813  0.4136572861389709  0.0605695152800010
  0.5511448940147048  0.5251794882070087  0.8694812130530565
  0.4266357051151104  0.4623445065957341  0.6252482560254435
  0.2178390893536246  0.8749046114132923  0.3440528493335080
  0.1126480347273286  0.7543030007147848  0.1146915639339525
  0.8706292954045693  0.8860359391074510  0.8789405979454372
  0.8148112273143937  0.7594900986731261  0.6394286116709438
  0.5562736163899302  0.8705984643604481  0.3266091722189088
  0.4470682150968699  0.7568398742467934  0.1069400087801000
  0.2050165123316035  0.8932896139121169  0.8913264344464125
  0.1143402908435078  0.7572868165082411  0.5725228059759928
  0.9065516267140268  0.8284502292161164  0.3536169230612956
  0.7639237059395967  0.7955297017593352  0.1109408556775193
  0.5673380426760986  0.8856648973983496  0.8757811776271396
  0.4243105023514033  0.7606938357031368  0.5825694775196197
 
  0.00000000E+00  0.00000000E+00  0.00000000E+00
  0.00000000E+00  0.00000000E+00  0.00000000E+00
  0.00000000E+00  0.00000000E+00  0.00000000E+00
  0.00000000E+00  0.00000000E+00  0.00000000E+00
  0.00000000E+00  0.00000000E+00  0.00000000E+00
  0.00000000E+00  0.00000000E+00  0.00000000E+00
  0.00000000E+00  0.00000000E+00  0.00000000E+00
  0.00000000E+00  0.00000000E+00  0.00000000E+00
  0.00000000E+00  0.00000000E+00  0.00000000E+00
  0.00000000E+00  0.00000000E+00  0.00000000E+00
  0.00000000E+00  0.00000000E+00  0.00000000E+00
  0.00000000E+00  0.00000000E+00  0.00000000E+00
  0.00000000E+00  0.00000000E+00  0.00000000E+00
  0.00000000E+00  0.00000000E+00  0.00000000E+00
  0.00000000E+00  0.00000000E+00  0.00000000E+00
  0.00000000E+00  0.00000000E+00  0.00000000E+00
  0.00000000E+00  0.00000000E+00  0.00000000E+00
  0.00000000E+00  0.00000000E+00  0.00000000E+00
  0.00000000E+00  0.00000000E+00  0.00000000E+00
  0.00000000E+00  0.00000000E+00  0.00000000E+00
  0.00000000E+00  0.00000000E+00  0.00000000E+00
  0.00000000E+00  0.00000000E+00  0.00000000E+00
  0.00000000E+00  0.00000000E+00  0.00000000E+00
  0.00000000E+00  0.00000000E+00  0.00000000E+00
  0.00000000E+00  0.00000000E+00  0.00000000E+00
  0.00000000E+00  0.00000000E+00  0.00000000E+00
  0.00000000E+00  0.00000000E+00  0.00000000E+00
  0.00000000E+00  0.00000000E+00  0.00000000E+00
  0.00000000E+00  0.00000000E+00  0.00000000E+00
  0.00000000E+00  0.00000000E+00  0.00000000E+00
  0.00000000E+00  0.00000000E+00  0.00000000E+00
  0.00000000E+00  0.00000000E+00  0.00000000E+00
  0.00000000E+00  0.00000000E+00  0.00000000E+00
  0.00000000E+00  0.00000000E+00  0.00000000E+00
  0.00000000E+00  0.00000000E+00  0.00000000E+00
  0.00000000E+00  0.00000000E+00  0.00000000E+00
  0.00000000E+00  0.00000000E+00  0.00000000E+00
  0.00000000E+00  0.00000000E+00  0.00000000E+00
  0.00000000E+00  0.00000000E+00  0.00000000E+00
  0.00000000E+00  0.00000000E+00  0.00000000E+00
  0.00000000E+00  0.00000000E+00  0.00000000E+00
  0.00000000E+00  0.00000000E+00  0.00000000E+00
  0.00000000E+00  0.00000000E+00  0.00000000E+00
  0.00000000E+00  0.00000000E+00  0.00000000E+00
  0.00000000E+00  0.00000000E+00  0.00000000E+00
  0.00000000E+00  0.00000000E+00  0.00000000E+00
  0.00000000E+00  0.00000000E+00  0.00000000E+00
  0.00000000E+00  0.00000000E+00  0.00000000E+00
  0.00000000E+00  0.00000000E+00  0.00000000E+00
  0.00000000E+00  0.00000000E+00  0.00000000E+00
  0.00000000E+00  0.00000000E+00  0.00000000E+00
  0.00000000E+00  0.00000000E+00  0.00000000E+00
  0.00000000E+00  0.00000000E+00  0.00000000E+00
  0.00000000E+00  0.00000000E+00  0.00000000E+00
  0.00000000E+00  0.00000000E+00  0.00000000E+00
  0.00000000E+00  0.00000000E+00  0.00000000E+00
  0.00000000E+00  0.00000000E+00  0.00000000E+00
  0.00000000E+00  0.00000000E+00  0.00000000E+00
  0.00000000E+00  0.00000000E+00  0.00000000E+00
  0.00000000E+00  0.00000000E+00  0.00000000E+00
  0.00000000E+00  0.00000000E+00  0.00000000E+00
  0.00000000E+00  0.00000000E+00  0.00000000E+00
  0.00000000E+00  0.00000000E+00  0.00000000E+00
  0.00000000E+00  0.00000000E+00  0.00000000E+00
  0.00000000E+00  0.00000000E+00  0.00000000E+00
  0.00000000E+00  0.00000000E+00  0.00000000E+00
  0.00000000E+00  0.00000000E+00  0.00000000E+00
  0.00000000E+00  0.00000000E+00  0.00000000E+00
  0.00000000E+00  0.00000000E+00  0.00000000E+00
  0.00000000E+00  0.00000000E+00  0.00000000E+00
  0.00000000E+00  0.00000000E+00  0.00000000E+00
  0.00000000E+00  0.00000000E+00  0.00000000E+00
