Al   Gd   N                             
   1.00000000000000     
    -9.8580881436248919    0.0008906452079415   -0.0196746135285840
    -4.9296827299520958    8.5457405678139349   -0.0332711191753494
    -0.0214328998287040    0.0290298893998264  -10.4246824341051170
   Al   Gd   N 
    28     8    36
Direct
  0.1130862821641401  0.0953644028615059  0.3944920327534689
  0.2259361508678239  0.2038739336661948  0.1604292828194360
  0.7805624455706948  0.0895357999924755  0.9350969122517085
  0.4336203403566330  0.1075628781053268  0.3899569042953175
  0.5445595890629136  0.2133442252364475  0.1429891474040943
  0.1134494285645289  0.0932390623908077  0.9250753311511630
  0.8893397657357625  0.2082764798043684  0.1557896906629637
  0.4452221779343404  0.0894837376448550  0.9362334763566551
  0.1077560123930539  0.4327634381571741  0.4063674183831409
  0.2273933547120564  0.5400505410048382  0.1656145912909537
  0.7753798590710161  0.4151596035262841  0.9106692037472897
  0.8915130833080767  0.5461746379430394  0.6550979458338446
  0.4352347599528343  0.4332663947132005  0.3996433429546968
  0.5510279194726166  0.5374929459843472  0.1669968096090244
  0.1294291497762714  0.4123007835000152  0.9124381772329073
  0.2246178035328867  0.5362909558182594  0.6446492577823051
  0.7767736148095068  0.4390226640537875  0.4075921626159555
  0.4502235267746499  0.4173206116196724  0.9195264768302280
  0.5488057392144654  0.5375228771540108  0.6429380642479998
  0.1127815761660216  0.7542298118348327  0.4090119839554731
  0.2211371191729725  0.8708375125470909  0.1697627070196290
  0.7686568406084930  0.7789593776101498  0.9096266893702492
  0.8926684663843787  0.8681551174406366  0.6565490324370131
  0.4389596247797485  0.7552457410983493  0.4014576706013102
  0.5548910717941880  0.8754674927539909  0.1725809432396588
  0.2183102553534297  0.8673993630756911  0.6430048832018329
  0.7920660889984106  0.7498086876636592  0.4098280300568931
  0.8946644006263824  0.8671927811232010  0.1623718892277424
  0.8914418925886949  0.2062723354954272  0.6633666995538761
  0.2197969668993380  0.2035213478262747  0.6590118712696125
  0.7702166451450836  0.0970180651734580  0.3862023000952277
  0.5489286919093672  0.2161457809897200  0.6844526694293691
  0.8892064280583512  0.5392796925163523  0.1450859427476203
  0.1140683407039589  0.7493525055550236  0.8949103508176961
  0.4522883236495261  0.7500731974207113  0.9087692433041568
  0.5591427388972008  0.8672657668996919  0.6355632544106911
  0.2149457370026226  0.2123229130833479  0.3461690552165777
  0.1145301743675589  0.0905551044966018  0.1103298575425526
  0.8946831989731194  0.1955532170794854  0.8836477097003055
  0.7832639491903066  0.0749049006522711  0.6011142940718628
  0.5183675408266595  0.2306153041242354  0.3264871484053984
  0.4417760017448913  0.0872387804580725  0.1180095798158973
  0.2282685402837927  0.1957002092055049  0.8805784442353186
  0.1217439950736505  0.0680874736081876  0.5722774984547101
  0.8989334857077793  0.2287469872498136  0.3407106817827739
  0.7848904776003067  0.0891729707431779  0.1230249936659149
  0.5594606904454409  0.1975267512794403  0.9125156753219912
  0.4447667788034622  0.1098080064814866  0.5686847282366259
  0.2188177726166103  0.5413168612875268  0.3496782992184819
  0.1456808938658583  0.4158573498280518  0.0948363719185181
  0.8907610843137590  0.5377126083168378  0.8577743350406664
  0.7629848624872650  0.4619160555349140  0.5913353595975721
  0.5571846612926379  0.5352753845527118  0.3490761188930733
  0.4362879305478486  0.4449619795802562  0.1007972650928508
  0.2529176787702596  0.4900842676381316  0.8290765548761385
  0.0998945293924862  0.4494184742175875  0.5892266953636849
  0.8895873911626140  0.5398260917475497  0.3590490176296797
  0.7542499770729023  0.4193203134725465  0.0915919768092266
  0.5722774025194255  0.4942069556226016  0.8287765800515530
  0.4335898293059799  0.4454752537482278  0.5796898582494734
  0.2176648428118710  0.8698698123992159  0.3508936738589838
  0.1141945729789526  0.7605719000738347  0.1126437041360902
  0.8636656582119500  0.8904013104333686  0.8444303665521602
  0.8101059163246660  0.7492943663058540  0.5920619696501390
  0.5605635451998054  0.8687340897474698  0.3609627756001501
  0.4453966304609480  0.7624421975705360  0.1273853391526174
  0.2106368918697896  0.9012865386407327  0.8291783726135336
  0.1100440338653854  0.7572650735581945  0.6053802675772602
  0.9062629585628770  0.8394444014800584  0.3422272623041920
  0.7613581580557849  0.7943761492076860  0.0932768806636943
  0.5590482709025366  0.8917297019950396  0.8551808565287331
  0.4260852277822522  0.7458673563716332  0.5876619675328598
 
  0.00000000E+00  0.00000000E+00  0.00000000E+00
  0.00000000E+00  0.00000000E+00  0.00000000E+00
  0.00000000E+00  0.00000000E+00  0.00000000E+00
  0.00000000E+00  0.00000000E+00  0.00000000E+00
  0.00000000E+00  0.00000000E+00  0.00000000E+00
  0.00000000E+00  0.00000000E+00  0.00000000E+00
  0.00000000E+00  0.00000000E+00  0.00000000E+00
  0.00000000E+00  0.00000000E+00  0.00000000E+00
  0.00000000E+00  0.00000000E+00  0.00000000E+00
  0.00000000E+00  0.00000000E+00  0.00000000E+00
  0.00000000E+00  0.00000000E+00  0.00000000E+00
  0.00000000E+00  0.00000000E+00  0.00000000E+00
  0.00000000E+00  0.00000000E+00  0.00000000E+00
  0.00000000E+00  0.00000000E+00  0.00000000E+00
  0.00000000E+00  0.00000000E+00  0.00000000E+00
  0.00000000E+00  0.00000000E+00  0.00000000E+00
  0.00000000E+00  0.00000000E+00  0.00000000E+00
  0.00000000E+00  0.00000000E+00  0.00000000E+00
  0.00000000E+00  0.00000000E+00  0.00000000E+00
  0.00000000E+00  0.00000000E+00  0.00000000E+00
  0.00000000E+00  0.00000000E+00  0.00000000E+00
  0.00000000E+00  0.00000000E+00  0.00000000E+00
  0.00000000E+00  0.00000000E+00  0.00000000E+00
  0.00000000E+00  0.00000000E+00  0.00000000E+00
  0.00000000E+00  0.00000000E+00  0.00000000E+00
  0.00000000E+00  0.00000000E+00  0.00000000E+00
  0.00000000E+00  0.00000000E+00  0.00000000E+00
  0.00000000E+00  0.00000000E+00  0.00000000E+00
  0.00000000E+00  0.00000000E+00  0.00000000E+00
  0.00000000E+00  0.00000000E+00  0.00000000E+00
  0.00000000E+00  0.00000000E+00  0.00000000E+00
  0.00000000E+00  0.00000000E+00  0.00000000E+00
  0.00000000E+00  0.00000000E+00  0.00000000E+00
  0.00000000E+00  0.00000000E+00  0.00000000E+00
  0.00000000E+00  0.00000000E+00  0.00000000E+00
  0.00000000E+00  0.00000000E+00  0.00000000E+00
  0.00000000E+00  0.00000000E+00  0.00000000E+00
  0.00000000E+00  0.00000000E+00  0.00000000E+00
  0.00000000E+00  0.00000000E+00  0.00000000E+00
  0.00000000E+00  0.00000000E+00  0.00000000E+00
  0.00000000E+00  0.00000000E+00  0.00000000E+00
  0.00000000E+00  0.00000000E+00  0.00000000E+00
  0.00000000E+00  0.00000000E+00  0.00000000E+00
  0.00000000E+00  0.00000000E+00  0.00000000E+00
  0.00000000E+00  0.00000000E+00  0.00000000E+00
  0.00000000E+00  0.00000000E+00  0.00000000E+00
  0.00000000E+00  0.00000000E+00  0.00000000E+00
  0.00000000E+00  0.00000000E+00  0.00000000E+00
  0.00000000E+00  0.00000000E+00  0.00000000E+00
  0.00000000E+00  0.00000000E+00  0.00000000E+00
  0.00000000E+00  0.00000000E+00  0.00000000E+00
  0.00000000E+00  0.00000000E+00  0.00000000E+00
  0.00000000E+00  0.00000000E+00  0.00000000E+00
  0.00000000E+00  0.00000000E+00  0.00000000E+00
  0.00000000E+00  0.00000000E+00  0.00000000E+00
  0.00000000E+00  0.00000000E+00  0.00000000E+00
  0.00000000E+00  0.00000000E+00  0.00000000E+00
  0.00000000E+00  0.00000000E+00  0.00000000E+00
  0.00000000E+00  0.00000000E+00  0.00000000E+00
  0.00000000E+00  0.00000000E+00  0.00000000E+00
  0.00000000E+00  0.00000000E+00  0.00000000E+00
  0.00000000E+00  0.00000000E+00  0.00000000E+00
  0.00000000E+00  0.00000000E+00  0.00000000E+00
  0.00000000E+00  0.00000000E+00  0.00000000E+00
  0.00000000E+00  0.00000000E+00  0.00000000E+00
  0.00000000E+00  0.00000000E+00  0.00000000E+00
  0.00000000E+00  0.00000000E+00  0.00000000E+00
  0.00000000E+00  0.00000000E+00  0.00000000E+00
  0.00000000E+00  0.00000000E+00  0.00000000E+00
  0.00000000E+00  0.00000000E+00  0.00000000E+00
  0.00000000E+00  0.00000000E+00  0.00000000E+00
  0.00000000E+00  0.00000000E+00  0.00000000E+00
