supercell of icsd_608626.cif            
   1.00000000000000     
     9.7974142314234118   -0.0036475543922060   -0.0063807075665532
    -4.9018806446568934    8.4850856914278037   -0.0027533057066063
    -0.0070427962132000   -0.0074345881436370    9.9998115584628113
   Al   Sc   N 
    24    12    36
Direct
  0.2110331209253999  0.1080527583970650  0.2534040666039843
  0.1070524486353648  0.2150749847619196  0.5039299051636590
  0.8843219195617635  0.1065473048746739  0.7467951491925291
  0.2286586879131676  0.1132288531658290  0.7455851118248020
  0.8914965308563509  0.1068169657722464  0.2523110818755256
  0.5500851707684546  0.1090628696342790  0.7539251301790273
  0.4398488146908335  0.2218255023279454  0.9989383874904405
  0.1130084857883631  0.5589651770907977  0.5083501632954182
  0.8854839138094164  0.4419989260020500  0.7429004661093259
  0.5581941457333528  0.4527641351893408  0.2537327844808530
  0.4498455295283819  0.5622396790929116  0.5054606228933025
  0.2237552897036181  0.4433196855527086  0.7375407432836241
  0.8924778490212759  0.4484450551028587  0.2567960293328539
  0.7779256158504211  0.5570448203954541  0.4949724362905172
  0.5539925852929315  0.4362794702493957  0.7451930130105140
  0.1118620174913971  0.8887844420147744  0.5021225606307524
  0.7738080436623136  0.8895163284798997  0.0009759824710116
  0.5607371655374891  0.7773451262485338  0.2507154152048017
  0.4441783841352347  0.8846528684217603  0.5032516711262858
  0.2307182018417038  0.7834128358172521  0.7428586135986137
  0.8863149092153577  0.7796359187716746  0.2581973201635606
  0.7736922685421135  0.8890205418416031  0.4952135834799805
  0.5583675867132811  0.7877570035918353  0.7458015703176955
  0.4489037728927983  0.8893178811020164  0.9937783237345030
  0.7799251706176378  0.2207065887486195  0.9886446470986598
  0.5545214057462857  0.1087474251883123  0.2333521217612002
  0.4410083157323328  0.2220194238851576  0.4892747352780944
  0.1118472437393052  0.2173063141673595  0.9890804748653608
  0.7790002711339241  0.2197387912574058  0.4944253833922971
  0.2256404703199593  0.4429329061162690  0.2535049051201241
  0.7737588737467078  0.5543859995681899  0.9999460389160078
  0.1156522960499515  0.5588561890865904  0.9829895694828679
  0.4540263582653452  0.5631159459569020  0.9830209814447457
  0.2214523656648737  0.7776841540551089  0.2507397365739834
  0.8821795238712298  0.7771623434256512  0.7297897304822314
  0.1092332481455145  0.8900664729105472  0.9886791085428683
  0.2042425251968112  0.1008238056136079  0.4435085526958602
  0.1027062169666451  0.2092461975701738  0.1983856372498352
  0.8818618960043594  0.0931432739306501  0.9338506236853306
  0.7743373581167816  0.2191551120408164  0.7084788317524087
  0.5457265391220147  0.0923085993482857  0.4395324003159686
  0.4311875970901369  0.2326203248217311  0.1970371868148888
  0.2373007229891186  0.1163505160583043  0.9321486044854197
  0.1086116369101120  0.2172930182995145  0.6956676396166230
  0.8957193901616662  0.1015947154036212  0.4416222192945725
  0.7963070072274405  0.2309331403426569  0.2059223975549997
  0.5401835912175272  0.1058205862757760  0.9514223676422375
  0.4446456772087757  0.2198029952118077  0.6961195228363337
  0.2229815670050215  0.4433187650735135  0.4657684359270107
  0.0993734243130362  0.5482010613994959  0.1933240708338388
  0.8880332858945934  0.4481658862207212  0.9289968494064951
  0.7666853716707891  0.5358431699092279  0.6854615484305882
  0.5620172070472123  0.4624091813402629  0.4430082492615242
  0.4623388261732586  0.5656273711468245  0.1943139429281757
  0.2260342242827420  0.4432664929634669  0.9271943761507941
  0.1109989636511770  0.5567684789881042  0.6989911140872778
  0.8997670942555942  0.4611793732860647  0.4469002021355664
  0.7791617137498719  0.5561962881750731  0.2117553073546574
  0.5490646433961999  0.4264011316322467  0.9332765294569398
  0.4511773509748309  0.5603957999956251  0.6983647906573083
  0.2232718490846750  0.7767457484322762  0.4600669020152779
  0.1001673900713769  0.8933915224270947  0.2007365660607334
  0.8734488472322823  0.7819013932537686  0.9374020822893030
  0.7663899081685912  0.8989693364363873  0.6814204244027806
  0.5531405031623891  0.7772086017085869  0.4433719658263584
  0.4510532441768831  0.8744520248113332  0.1828246369817847
  0.2412582733789108  0.7903613347287788  0.9331092617702339
  0.1264186597787145  0.8968763377247271  0.6935213311861830
  0.8882579162030240  0.7789820210028608  0.4554278728732086
  0.7775193854123614  0.8882118067816975  0.1967311602229174
  0.5671827409590477  0.8001348092199834  0.9335710637677153
  0.4474194506021689  0.8920680901599809  0.6925677673167954
 
  0.00000000E+00  0.00000000E+00  0.00000000E+00
  0.00000000E+00  0.00000000E+00  0.00000000E+00
  0.00000000E+00  0.00000000E+00  0.00000000E+00
  0.00000000E+00  0.00000000E+00  0.00000000E+00
  0.00000000E+00  0.00000000E+00  0.00000000E+00
  0.00000000E+00  0.00000000E+00  0.00000000E+00
  0.00000000E+00  0.00000000E+00  0.00000000E+00
  0.00000000E+00  0.00000000E+00  0.00000000E+00
  0.00000000E+00  0.00000000E+00  0.00000000E+00
  0.00000000E+00  0.00000000E+00  0.00000000E+00
  0.00000000E+00  0.00000000E+00  0.00000000E+00
  0.00000000E+00  0.00000000E+00  0.00000000E+00
  0.00000000E+00  0.00000000E+00  0.00000000E+00
  0.00000000E+00  0.00000000E+00  0.00000000E+00
  0.00000000E+00  0.00000000E+00  0.00000000E+00
  0.00000000E+00  0.00000000E+00  0.00000000E+00
  0.00000000E+00  0.00000000E+00  0.00000000E+00
  0.00000000E+00  0.00000000E+00  0.00000000E+00
  0.00000000E+00  0.00000000E+00  0.00000000E+00
  0.00000000E+00  0.00000000E+00  0.00000000E+00
  0.00000000E+00  0.00000000E+00  0.00000000E+00
  0.00000000E+00  0.00000000E+00  0.00000000E+00
  0.00000000E+00  0.00000000E+00  0.00000000E+00
  0.00000000E+00  0.00000000E+00  0.00000000E+00
  0.00000000E+00  0.00000000E+00  0.00000000E+00
  0.00000000E+00  0.00000000E+00  0.00000000E+00
  0.00000000E+00  0.00000000E+00  0.00000000E+00
  0.00000000E+00  0.00000000E+00  0.00000000E+00
  0.00000000E+00  0.00000000E+00  0.00000000E+00
  0.00000000E+00  0.00000000E+00  0.00000000E+00
  0.00000000E+00  0.00000000E+00  0.00000000E+00
  0.00000000E+00  0.00000000E+00  0.00000000E+00
  0.00000000E+00  0.00000000E+00  0.00000000E+00
  0.00000000E+00  0.00000000E+00  0.00000000E+00
  0.00000000E+00  0.00000000E+00  0.00000000E+00
  0.00000000E+00  0.00000000E+00  0.00000000E+00
  0.00000000E+00  0.00000000E+00  0.00000000E+00
  0.00000000E+00  0.00000000E+00  0.00000000E+00
  0.00000000E+00  0.00000000E+00  0.00000000E+00
  0.00000000E+00  0.00000000E+00  0.00000000E+00
  0.00000000E+00  0.00000000E+00  0.00000000E+00
  0.00000000E+00  0.00000000E+00  0.00000000E+00
  0.00000000E+00  0.00000000E+00  0.00000000E+00
  0.00000000E+00  0.00000000E+00  0.00000000E+00
  0.00000000E+00  0.00000000E+00  0.00000000E+00
  0.00000000E+00  0.00000000E+00  0.00000000E+00
  0.00000000E+00  0.00000000E+00  0.00000000E+00
  0.00000000E+00  0.00000000E+00  0.00000000E+00
  0.00000000E+00  0.00000000E+00  0.00000000E+00
  0.00000000E+00  0.00000000E+00  0.00000000E+00
  0.00000000E+00  0.00000000E+00  0.00000000E+00
  0.00000000E+00  0.00000000E+00  0.00000000E+00
  0.00000000E+00  0.00000000E+00  0.00000000E+00
  0.00000000E+00  0.00000000E+00  0.00000000E+00
  0.00000000E+00  0.00000000E+00  0.00000000E+00
  0.00000000E+00  0.00000000E+00  0.00000000E+00
  0.00000000E+00  0.00000000E+00  0.00000000E+00
  0.00000000E+00  0.00000000E+00  0.00000000E+00
  0.00000000E+00  0.00000000E+00  0.00000000E+00
  0.00000000E+00  0.00000000E+00  0.00000000E+00
  0.00000000E+00  0.00000000E+00  0.00000000E+00
  0.00000000E+00  0.00000000E+00  0.00000000E+00
  0.00000000E+00  0.00000000E+00  0.00000000E+00
  0.00000000E+00  0.00000000E+00  0.00000000E+00
  0.00000000E+00  0.00000000E+00  0.00000000E+00
  0.00000000E+00  0.00000000E+00  0.00000000E+00
  0.00000000E+00  0.00000000E+00  0.00000000E+00
  0.00000000E+00  0.00000000E+00  0.00000000E+00
  0.00000000E+00  0.00000000E+00  0.00000000E+00
  0.00000000E+00  0.00000000E+00  0.00000000E+00
  0.00000000E+00  0.00000000E+00  0.00000000E+00
  0.00000000E+00  0.00000000E+00  0.00000000E+00
