generated by phonopy                    
   1.00000000000000     
    10.0351470768999995   -0.0000022330999784   -0.0000001056124209
    -5.0175765436399997    8.6906901959899994    0.0000001395531216
    -0.0000001735893656    0.0000001431815548   14.9533752540999991
   Pb   P    O 
    19    12    50
Direct
  0.9959258554985766  0.7710945281420294  0.6242507675294178
  0.0041434363091497  0.2602980110585378  0.3762890271870987
  0.0041061891674445  0.2313014016758785  0.9004742760470847
  0.2218250716444743  0.2164410454290788  0.1033697147359618
  0.2303052073834309  0.2246301679815161  0.6306003967767353
  0.7331245783866081  0.7401640533124123  0.3631518818262975
  0.7421712903161222  0.7422024494986275  0.8842180273862681
  0.7866558663733514  0.0010540753495576  0.1021403293418004
  0.7728842868203643  0.0005731339697803  0.6293495218641922
  0.2547592581996980  0.9894963703741197  0.3689019484427902
  0.2514601366732094  0.9895642091792212  0.8828122184294216
  0.6901697670828426  0.3555315207880909  0.0053815475206775
  0.6655685007914443  0.3371355936133185  0.5021715865932563
  0.3238291926591899  0.6673000528730455  0.0038575462917692
  0.3391815142582359  0.6697269733212465  0.5052606116670617
  0.3247920354979072  0.6658684885009123  0.2428686616196885
  0.3221808064456440  0.6597447725977119  0.7460879676986067
  0.6533888650376198  0.3344489553505525  0.2478836109047649
  0.6753316920524455  0.3304839702408344  0.7501275737795225
  0.6066701191855159  0.5883221106130492  0.1255657532658603
  0.6263583775442356  0.5946733018336872  0.6270253379040867
  0.3647876599021274  0.3973585142613132  0.3776268673205223
  0.3787123018255514  0.3970278626082262  0.8755075876188485
  0.4125289605023852  0.0268223411842143  0.1252322968318680
  0.4045069598630349  0.0287876801098221  0.6257956904972133
  0.6038946030711116  0.9728065121491412  0.3762783272367614
  0.6056315035876096  0.9768194341114977  0.8755719590664839
  0.9718006542408375  0.3801336612297135  0.1268874917123171
  0.9684619602130837  0.3729243164626013  0.6214362319981888
  0.0258478004831559  0.6301858936581937  0.3765272677426879
  0.0365576409635082  0.6306307009955390  0.8712545455826302
  0.4795365126820954  0.6352467243961541  0.1251426010873260
  0.5008933657185963  0.6434336007238812  0.6250807053548613
  0.4687651218592137  0.3236686097055355  0.3799625390871455
  0.4844357274233033  0.3259938500605344  0.8815353055670769
  0.3636492658247761  0.8531728707663788  0.1230354523345696
  0.3544939252589501  0.8540294929853900  0.6254661037459996
  0.6805085217697737  0.1509656120189007  0.3742737465712480
  0.6814442402077319  0.1538895493510140  0.8816534725568417
  0.1475948255830630  0.5005683900556903  0.1219889636901641
  0.1444061909431085  0.4935267324534678  0.6244758758642917
  0.8472610680536405  0.5314565792874788  0.3749153218375838
  0.8572640354383267  0.5381728047604426  0.8743594804073282
  0.7070581889967471  0.6509579641915266  0.0398530819232690
  0.7276904460812972  0.6469108320813248  0.5403032961950274
  0.2564719945957705  0.3526733929786943  0.4613855143977474
  0.2794401703473568  0.3650431687549514  0.9636579452498566
  0.3392195929578321  0.0675931921030895  0.0439576908495383
  0.3463171833192078  0.0741637455315072  0.5402903770684944
  0.6470573177662473  0.9117335445808621  0.4611486320108398
  0.6376556651527920  0.9075627787163469  0.9621671500200293
  0.9142875501471650  0.3034345127063460  0.0317591242079018
  0.9238753321281763  0.2757263704256872  0.5331703205500418
  0.0882717900642476  0.7313348384390395  0.4628655982070953
  0.1054939528593692  0.7390506399256225  0.9543973469207643
  0.2593546139324445  0.3501639563231365  0.2936014521340837
  0.2619918789270841  0.3310124845389879  0.7972154882321050
  0.7036807480768914  0.6454732600593047  0.2126859720758176
  0.7368152093947984  0.6676276423723166  0.7090007810055354
  0.6478369336943288  0.9086682228523202  0.2929094470500004
  0.6671283328294422  0.9229995350357072  0.7959645957939401
  0.3599739032431515  0.0706313912262857  0.2132469961892056
  0.3380117792694293  0.0704305465439248  0.7092467745874984
  0.0942696455524938  0.7426403930458889  0.2956693831796073
  0.0959470680277192  0.7382476083687806  0.7867026465653524
  0.9451139133106494  0.2507869547097883  0.1946594575326230
  0.9194208163169648  0.2591863862993975  0.7019114849912143
  0.5298760136534639  0.4068759673691673  0.1243632935639027
  0.5474645771727893  0.4142785565301921  0.6332125648885238
  0.4705062340699939  0.5794116404814957  0.3781545902390704
  0.4781890034560732  0.5777152130089789  0.8654708168313050
  0.5925993086113479  0.1286402058429132  0.1182312077095986
  0.5850452489753053  0.1288694140856776  0.6286120552640568
  0.4216483075177351  0.8968378852946373  0.3765377175259985
  0.4252613472737181  0.8999191668759110  0.8669014714256704
  0.8741707256764712  0.4560627357689953  0.1491647838590637
  0.8721085361821252  0.4573696190150613  0.6253823081318615
  0.0967018454540067  0.5196094529708688  0.3731804884854313
  0.1052040348869596  0.5203507195622450  0.8682664077963409
  0.0015334156786437  0.0690647589702778  0.0173370594170308
  0.0006193145736972  0.0017687653911338  0.6243767379007963
 
  0.00000000E+00  0.00000000E+00  0.00000000E+00
  0.00000000E+00  0.00000000E+00  0.00000000E+00
  0.00000000E+00  0.00000000E+00  0.00000000E+00
  0.00000000E+00  0.00000000E+00  0.00000000E+00
  0.00000000E+00  0.00000000E+00  0.00000000E+00
  0.00000000E+00  0.00000000E+00  0.00000000E+00
  0.00000000E+00  0.00000000E+00  0.00000000E+00
  0.00000000E+00  0.00000000E+00  0.00000000E+00
  0.00000000E+00  0.00000000E+00  0.00000000E+00
  0.00000000E+00  0.00000000E+00  0.00000000E+00
  0.00000000E+00  0.00000000E+00  0.00000000E+00
  0.00000000E+00  0.00000000E+00  0.00000000E+00
  0.00000000E+00  0.00000000E+00  0.00000000E+00
  0.00000000E+00  0.00000000E+00  0.00000000E+00
  0.00000000E+00  0.00000000E+00  0.00000000E+00
  0.00000000E+00  0.00000000E+00  0.00000000E+00
  0.00000000E+00  0.00000000E+00  0.00000000E+00
  0.00000000E+00  0.00000000E+00  0.00000000E+00
  0.00000000E+00  0.00000000E+00  0.00000000E+00
  0.00000000E+00  0.00000000E+00  0.00000000E+00
  0.00000000E+00  0.00000000E+00  0.00000000E+00
  0.00000000E+00  0.00000000E+00  0.00000000E+00
  0.00000000E+00  0.00000000E+00  0.00000000E+00
  0.00000000E+00  0.00000000E+00  0.00000000E+00
  0.00000000E+00  0.00000000E+00  0.00000000E+00
  0.00000000E+00  0.00000000E+00  0.00000000E+00
  0.00000000E+00  0.00000000E+00  0.00000000E+00
  0.00000000E+00  0.00000000E+00  0.00000000E+00
  0.00000000E+00  0.00000000E+00  0.00000000E+00
  0.00000000E+00  0.00000000E+00  0.00000000E+00
  0.00000000E+00  0.00000000E+00  0.00000000E+00
  0.00000000E+00  0.00000000E+00  0.00000000E+00
  0.00000000E+00  0.00000000E+00  0.00000000E+00
  0.00000000E+00  0.00000000E+00  0.00000000E+00
  0.00000000E+00  0.00000000E+00  0.00000000E+00
  0.00000000E+00  0.00000000E+00  0.00000000E+00
  0.00000000E+00  0.00000000E+00  0.00000000E+00
  0.00000000E+00  0.00000000E+00  0.00000000E+00
  0.00000000E+00  0.00000000E+00  0.00000000E+00
  0.00000000E+00  0.00000000E+00  0.00000000E+00
  0.00000000E+00  0.00000000E+00  0.00000000E+00
  0.00000000E+00  0.00000000E+00  0.00000000E+00
  0.00000000E+00  0.00000000E+00  0.00000000E+00
  0.00000000E+00  0.00000000E+00  0.00000000E+00
  0.00000000E+00  0.00000000E+00  0.00000000E+00
  0.00000000E+00  0.00000000E+00  0.00000000E+00
  0.00000000E+00  0.00000000E+00  0.00000000E+00
  0.00000000E+00  0.00000000E+00  0.00000000E+00
  0.00000000E+00  0.00000000E+00  0.00000000E+00
  0.00000000E+00  0.00000000E+00  0.00000000E+00
  0.00000000E+00  0.00000000E+00  0.00000000E+00
  0.00000000E+00  0.00000000E+00  0.00000000E+00
  0.00000000E+00  0.00000000E+00  0.00000000E+00
  0.00000000E+00  0.00000000E+00  0.00000000E+00
  0.00000000E+00  0.00000000E+00  0.00000000E+00
  0.00000000E+00  0.00000000E+00  0.00000000E+00
  0.00000000E+00  0.00000000E+00  0.00000000E+00
  0.00000000E+00  0.00000000E+00  0.00000000E+00
  0.00000000E+00  0.00000000E+00  0.00000000E+00
  0.00000000E+00  0.00000000E+00  0.00000000E+00
  0.00000000E+00  0.00000000E+00  0.00000000E+00
  0.00000000E+00  0.00000000E+00  0.00000000E+00
  0.00000000E+00  0.00000000E+00  0.00000000E+00
  0.00000000E+00  0.00000000E+00  0.00000000E+00
  0.00000000E+00  0.00000000E+00  0.00000000E+00
  0.00000000E+00  0.00000000E+00  0.00000000E+00
  0.00000000E+00  0.00000000E+00  0.00000000E+00
  0.00000000E+00  0.00000000E+00  0.00000000E+00
  0.00000000E+00  0.00000000E+00  0.00000000E+00
  0.00000000E+00  0.00000000E+00  0.00000000E+00
  0.00000000E+00  0.00000000E+00  0.00000000E+00
  0.00000000E+00  0.00000000E+00  0.00000000E+00
  0.00000000E+00  0.00000000E+00  0.00000000E+00
  0.00000000E+00  0.00000000E+00  0.00000000E+00
  0.00000000E+00  0.00000000E+00  0.00000000E+00
  0.00000000E+00  0.00000000E+00  0.00000000E+00
  0.00000000E+00  0.00000000E+00  0.00000000E+00
  0.00000000E+00  0.00000000E+00  0.00000000E+00
  0.00000000E+00  0.00000000E+00  0.00000000E+00
  0.00000000E+00  0.00000000E+00  0.00000000E+00
  0.00000000E+00  0.00000000E+00  0.00000000E+00
