generated by phonopy                    
   1.00000000000000     
    10.0351470768999995   -0.0000022330999784   -0.0000001056124209
    -5.0175765436399997    8.6906901959899994    0.0000001395531216
    -0.0000001735893656    0.0000001431815548   14.9533752540999991
   Pb   P    O 
    20    12    49
Direct
  0.9942322784809079  0.7700736437016644  0.1189299450660570
  0.9946272185780032  0.7710875845163940  0.6291214981513846
  0.9915494830747136  0.2539635961540512  0.3738290052429747
  0.0041933506984932  0.2673117398058764  0.8737541322444073
  0.2250356685653472  0.2220804315990321  0.1196508339205522
  0.2259790610736374  0.2226800811605258  0.6291340283681492
  0.7429209707767797  0.7455019822105982  0.3739167672062607
  0.7372465810723980  0.7425499149486612  0.8740798019047418
  0.7738380326460188  0.0023282067527930  0.1210241394099398
  0.7738012985611888  0.0027842104460518  0.6267617651405644
  0.2523114845099030  0.9834876299898525  0.3739455878423641
  0.2590712433536737  0.9966845259777415  0.8741842501467403
  0.6666853920697591  0.3304611850687564  0.0009051431148706
  0.6631018509937689  0.3388833944259204  0.5033427465498406
  0.3327927437250082  0.6660799499102410  0.0024364549913116
  0.3333192042501096  0.6721379863525030  0.5063789167764625
  0.3349587369985869  0.6739832862573962  0.2410464215743815
  0.3341578531871008  0.6673216472815326  0.7450226815122392
  0.6601809191320029  0.3391061362103827  0.2456913501069238
  0.6656917702292517  0.3313010172485278  0.7477506278613717
  0.6226582611784224  0.5953528735825486  0.1234719017740602
  0.6228241809129429  0.5954791322643516  0.6238095285478948
  0.3639944408011289  0.3898703623220712  0.3747528739952628
  0.3683238880043120  0.3962819454224231  0.8740979871560910
  0.4068390024319868  0.0309466652437180  0.1259413305626893
  0.4068712310774245  0.0309124577326330  0.6219173178208592
  0.6088722015535808  0.9726791877625658  0.3732228853903621
  0.6024936833061432  0.9726952166282032  0.8737392778294932
  0.9705278858239765  0.3763771832572544  0.1275234693436715
  0.9702614052349077  0.3766251624471693  0.6207102387826566
  0.0309277263601473  0.6292666974549803  0.3735618228464972
  0.0252427859771771  0.6331543304442704  0.8736515997716054
  0.4999656744731524  0.6474113398531429  0.1218859293866785
  0.4997600355705529  0.6469774523254159  0.6252930464409019
  0.4710986916084821  0.3208435987216021  0.8743594629352742
  0.3596558418938542  0.8571136621446271  0.1240439462368883
  0.3594106969724038  0.8570226705895081  0.6236271518258647
  0.6898739435333852  0.1515848205234320  0.3728842516784425
  0.6759085596749443  0.1507962917282271  0.8739667885248608
  0.1428149244114962  0.5063511520124422  0.1240848294935120
  0.1429402974652163  0.5054782972952836  0.6233538519516841
  0.8529688150251360  0.5347433788536335  0.3738462496818045
  0.8474536862226785  0.5282026820803338  0.8738583576187722
  0.7283646831360642  0.6529631080432878  0.0383675607427350
  0.7295454765094931  0.6594177357558024  0.5395891456160982
  0.2627383494415128  0.3431409186896985  0.4601685633457748
  0.2604608338697147  0.3516171014421730  0.9579030306662304
  0.3546283378637440  0.0780685299286432  0.0383112340669882
  0.3342949181413246  0.0688004722686060  0.5399918922408560
  0.6523618248869028  0.9087782735224721  0.4571048315839761
  0.6491304568971330  0.9118321769739097  0.9575923076476585
  0.9195639583969140  0.2816063366579371  0.0381471321220630
  0.9365503084290125  0.2635002922880076  0.5407072772088029
  0.0987684800376556  0.7382432337658358  0.4571359542811990
  0.0861944587960082  0.7407337625003905  0.9575857156118488
  0.2624026341599119  0.3365403017405200  0.2896578014166451
  0.2598080039123758  0.3496197568256605  0.7905254834256255
  0.7298854593403590  0.6599839393487628  0.2074728511411976
  0.7288422533035330  0.6540943151276650  0.7087832174778583
  0.6515433110842181  0.9076605583446309  0.2894778614938431
  0.6494261275485300  0.9122883791218186  0.7898243693486720
  0.3323499856674843  0.0678635018444638  0.2073032087486695
  0.3529336412857802  0.0774659844366212  0.7091448239105702
  0.0980657709993622  0.7394179978180873  0.2904248776468847
  0.0854972453038059  0.7415989241924308  0.7900872007066013
  0.9409905746199101  0.2612554823284370  0.2057342773507145
  0.9213676386758536  0.2792236575217117  0.7090925709119063
  0.5423742627083712  0.4145266526815945  0.1256779417785197
  0.5430114577808354  0.4145981562684398  0.6221523342555599
  0.4810346662649039  0.5682001904885468  0.3729147521695282
  0.4732801458776450  0.5782116317137564  0.8734326216074493
  0.5869937336973763  0.1347695916879346  0.1332813897529519
  0.5871903533544369  0.1346071506243831  0.6159258323276120
  0.4275719627380070  0.9001284272875623  0.3732662239118270
  0.4203563498693654  0.8943054583094465  0.8735516166558384
  0.8641800209005837  0.4493008469374189  0.1409775301852108
  0.8644181650757261  0.4508547790422170  0.6104931629634720
  0.1003916409628829  0.5181303034729297  0.3729011362406425
  0.1046783715853010  0.5303574754423153  0.8731214329033818
  0.9975328419084377  0.9968461160386255  0.1077416434194589
  0.9977948780300352  0.9979340773893313  0.6393537609117388
 
  0.00000000E+00  0.00000000E+00  0.00000000E+00
  0.00000000E+00  0.00000000E+00  0.00000000E+00
  0.00000000E+00  0.00000000E+00  0.00000000E+00
  0.00000000E+00  0.00000000E+00  0.00000000E+00
  0.00000000E+00  0.00000000E+00  0.00000000E+00
  0.00000000E+00  0.00000000E+00  0.00000000E+00
  0.00000000E+00  0.00000000E+00  0.00000000E+00
  0.00000000E+00  0.00000000E+00  0.00000000E+00
  0.00000000E+00  0.00000000E+00  0.00000000E+00
  0.00000000E+00  0.00000000E+00  0.00000000E+00
  0.00000000E+00  0.00000000E+00  0.00000000E+00
  0.00000000E+00  0.00000000E+00  0.00000000E+00
  0.00000000E+00  0.00000000E+00  0.00000000E+00
  0.00000000E+00  0.00000000E+00  0.00000000E+00
  0.00000000E+00  0.00000000E+00  0.00000000E+00
  0.00000000E+00  0.00000000E+00  0.00000000E+00
  0.00000000E+00  0.00000000E+00  0.00000000E+00
  0.00000000E+00  0.00000000E+00  0.00000000E+00
  0.00000000E+00  0.00000000E+00  0.00000000E+00
  0.00000000E+00  0.00000000E+00  0.00000000E+00
  0.00000000E+00  0.00000000E+00  0.00000000E+00
  0.00000000E+00  0.00000000E+00  0.00000000E+00
  0.00000000E+00  0.00000000E+00  0.00000000E+00
  0.00000000E+00  0.00000000E+00  0.00000000E+00
  0.00000000E+00  0.00000000E+00  0.00000000E+00
  0.00000000E+00  0.00000000E+00  0.00000000E+00
  0.00000000E+00  0.00000000E+00  0.00000000E+00
  0.00000000E+00  0.00000000E+00  0.00000000E+00
  0.00000000E+00  0.00000000E+00  0.00000000E+00
  0.00000000E+00  0.00000000E+00  0.00000000E+00
  0.00000000E+00  0.00000000E+00  0.00000000E+00
  0.00000000E+00  0.00000000E+00  0.00000000E+00
  0.00000000E+00  0.00000000E+00  0.00000000E+00
  0.00000000E+00  0.00000000E+00  0.00000000E+00
  0.00000000E+00  0.00000000E+00  0.00000000E+00
  0.00000000E+00  0.00000000E+00  0.00000000E+00
  0.00000000E+00  0.00000000E+00  0.00000000E+00
  0.00000000E+00  0.00000000E+00  0.00000000E+00
  0.00000000E+00  0.00000000E+00  0.00000000E+00
  0.00000000E+00  0.00000000E+00  0.00000000E+00
  0.00000000E+00  0.00000000E+00  0.00000000E+00
  0.00000000E+00  0.00000000E+00  0.00000000E+00
  0.00000000E+00  0.00000000E+00  0.00000000E+00
  0.00000000E+00  0.00000000E+00  0.00000000E+00
  0.00000000E+00  0.00000000E+00  0.00000000E+00
  0.00000000E+00  0.00000000E+00  0.00000000E+00
  0.00000000E+00  0.00000000E+00  0.00000000E+00
  0.00000000E+00  0.00000000E+00  0.00000000E+00
  0.00000000E+00  0.00000000E+00  0.00000000E+00
  0.00000000E+00  0.00000000E+00  0.00000000E+00
  0.00000000E+00  0.00000000E+00  0.00000000E+00
  0.00000000E+00  0.00000000E+00  0.00000000E+00
  0.00000000E+00  0.00000000E+00  0.00000000E+00
  0.00000000E+00  0.00000000E+00  0.00000000E+00
  0.00000000E+00  0.00000000E+00  0.00000000E+00
  0.00000000E+00  0.00000000E+00  0.00000000E+00
  0.00000000E+00  0.00000000E+00  0.00000000E+00
  0.00000000E+00  0.00000000E+00  0.00000000E+00
  0.00000000E+00  0.00000000E+00  0.00000000E+00
  0.00000000E+00  0.00000000E+00  0.00000000E+00
  0.00000000E+00  0.00000000E+00  0.00000000E+00
  0.00000000E+00  0.00000000E+00  0.00000000E+00
  0.00000000E+00  0.00000000E+00  0.00000000E+00
  0.00000000E+00  0.00000000E+00  0.00000000E+00
  0.00000000E+00  0.00000000E+00  0.00000000E+00
  0.00000000E+00  0.00000000E+00  0.00000000E+00
  0.00000000E+00  0.00000000E+00  0.00000000E+00
  0.00000000E+00  0.00000000E+00  0.00000000E+00
  0.00000000E+00  0.00000000E+00  0.00000000E+00
  0.00000000E+00  0.00000000E+00  0.00000000E+00
  0.00000000E+00  0.00000000E+00  0.00000000E+00
  0.00000000E+00  0.00000000E+00  0.00000000E+00
  0.00000000E+00  0.00000000E+00  0.00000000E+00
  0.00000000E+00  0.00000000E+00  0.00000000E+00
  0.00000000E+00  0.00000000E+00  0.00000000E+00
  0.00000000E+00  0.00000000E+00  0.00000000E+00
  0.00000000E+00  0.00000000E+00  0.00000000E+00
  0.00000000E+00  0.00000000E+00  0.00000000E+00
  0.00000000E+00  0.00000000E+00  0.00000000E+00
  0.00000000E+00  0.00000000E+00  0.00000000E+00
  0.00000000E+00  0.00000000E+00  0.00000000E+00
