supercell of icsd_608626.cif            
   1.02976466074373     
     9.2980368002772593   -0.0040759940838667   -0.0035209005461710
    -4.6525484440565110    8.0584502583698185   -0.0000001228431806
    -0.0037355111837195   -0.0021567346914083    9.7298559527675668
   Al   Y    N 
    32     4    36
Direct
  0.2276903584687062  0.1124459015349544  0.2536600829843891
  0.1155355454376732  0.2244344116555794  0.5099877219588649
  0.8790768656492745  0.1062051052761888  0.7430228424061553
  0.7715097105225865  0.2280558293370873  0.9944742507998683
  0.5519689431175365  0.1143342429933156  0.2554523739989492
  0.4403832643927785  0.2217812622958064  0.4980485350717530
  0.2287420968419482  0.1048031090500245  0.7448255410111386
  0.7809030102840993  0.2229907947810545  0.5069050281093297
  0.5582424082276134  0.1207347440739213  0.7430605070011609
  0.4491496793002199  0.2233425104970266  0.0001781641526506
  0.2276903718467693  0.4485777786302947  0.2536600668050468
  0.1126281582261939  0.5515887023878747  0.4971242517971959
  0.8907330297119529  0.4459942919313633  0.7572139268714295
  0.7776127194507367  0.5554730445566918  0.9988245973663865
  0.5470391664700003  0.4401862738837252  0.2422576236969221
  0.4403832836544765  0.5519353873742077  0.4980485463853768
  0.2287421014010036  0.4572722752698866  0.7448255736449525
  0.1100038346729235  0.5597105218255152  0.9993956724300688
  0.8901183132589239  0.4441448068075289  0.2415998775152914
  0.5532909492954019  0.4433121188193709  0.7568111358811223
  0.4491496340311016  0.5591404446319572  0.0001781722183622
  0.2219441924600716  0.7776387667210045  0.2554269649621403
  0.1126281178581934  0.8943727346307639  0.4971242555435254
  0.8907330261831845  0.7780720637248422  0.7572138844601000
  0.7715096624727238  0.8767872017792229  0.9944742771888144
  0.5519689335260978  0.7709680673853114  0.2554523727557623
  0.4445316911273878  0.8889325292401438  0.4997748291570190
  0.2126029007412527  0.7729681102755066  0.7429031544033720
  0.1100038654669007  0.8836265753700445  0.9993956689514789
  0.8901183433176598  0.7793068927441524  0.2415999224337071
  0.7809030146422486  0.8912455443607996  0.5069050069188066
  0.5582423694566216  0.7708409456844976  0.7430605007295910
  0.1166098620527976  0.2249715819125129  0.9767531467787762
  0.8842477097439172  0.1087905008166459  0.2517228185208822
  0.7790466354833825  0.5561900453945867  0.4902648790496968
  0.4459420435114012  0.8896376996758022  0.9863932265082553
  0.2228401189958831  0.1117157733881058  0.4460228560098116
  0.1374493441781439  0.2353913426805221  0.1993295473431402
  0.8539028486058982  0.0936180736857466  0.9390175870286654
  0.7789518045239632  0.2287943788848992  0.6937488388792943
  0.5584533913496372  0.1147131903499456  0.4478965386029330
  0.4422838201945325  0.2182301907110684  0.1910744317804856
  0.2408982237031481  0.0915750658401748  0.9318922293548724
  0.1148564219247419  0.2240948691595506  0.7089631948238804
  0.8911901376474916  0.1122617605536718  0.4749300363047695
  0.7592610251340162  0.2332349719133404  0.1815869106140227
  0.5683942000704505  0.1421532783364796  0.9273154461951520
  0.4461973915066082  0.2272004598620043  0.6863747188972127
  0.2228400509473190  0.4444576357533307  0.4460228509462070
  0.1145782875665873  0.5574325998985046  0.1914387510145303
  0.8924929140908233  0.4459078302564805  0.9463896348739596
  0.7769978816720169  0.5551656061309060  0.7154174790721370
  0.5270006492735106  0.4301669866056983  0.4296170746064902
  0.4422838235369468  0.5573870210495926  0.1910744381881173
  0.2408982070065377  0.4826564107591196  0.9318922446369342
  0.1067357514769114  0.5534883033440607  0.6861473394884214
  0.9031949306110434  0.4267954508200091  0.4290564847209239
  0.7772866573874140  0.5553100170474110  0.1976749627916945
  0.5507869583588771  0.4420601474090731  0.9488294085613163
  0.4461973666841388  0.5523302377971930  0.6863747192162108
  0.2186677354449742  0.7760005154605381  0.4463069829669450
  0.1145782906420010  0.8904790488360632  0.1914387050472257
  0.8924929120755536  0.7799184098019722  0.9463896348797576
  0.7789517603223715  0.8834907725427996  0.6937488762145207
  0.5584533481791212  0.7770735412660201  0.4478965421155294
  0.4459699371628645  0.8896516558087768  0.2145411660724648
  0.1914916337582682  0.7624124631061804  0.9297207894432518
  0.1067357492833878  0.8865807575232552  0.6861473487430274
  0.9031949012062910  0.8097327532662035  0.4290565053913085
  0.7592610805149675  0.8593595011396999  0.1815869330216344
  0.5683941949444602  0.7595742456485652  0.9273154775891683
  0.4442104377133091  0.8887719160338676  0.6977439140956392
 
  0.00000000E+00  0.00000000E+00  0.00000000E+00
  0.00000000E+00  0.00000000E+00  0.00000000E+00
  0.00000000E+00  0.00000000E+00  0.00000000E+00
  0.00000000E+00  0.00000000E+00  0.00000000E+00
  0.00000000E+00  0.00000000E+00  0.00000000E+00
  0.00000000E+00  0.00000000E+00  0.00000000E+00
  0.00000000E+00  0.00000000E+00  0.00000000E+00
  0.00000000E+00  0.00000000E+00  0.00000000E+00
  0.00000000E+00  0.00000000E+00  0.00000000E+00
  0.00000000E+00  0.00000000E+00  0.00000000E+00
  0.00000000E+00  0.00000000E+00  0.00000000E+00
  0.00000000E+00  0.00000000E+00  0.00000000E+00
  0.00000000E+00  0.00000000E+00  0.00000000E+00
  0.00000000E+00  0.00000000E+00  0.00000000E+00
  0.00000000E+00  0.00000000E+00  0.00000000E+00
  0.00000000E+00  0.00000000E+00  0.00000000E+00
  0.00000000E+00  0.00000000E+00  0.00000000E+00
  0.00000000E+00  0.00000000E+00  0.00000000E+00
  0.00000000E+00  0.00000000E+00  0.00000000E+00
  0.00000000E+00  0.00000000E+00  0.00000000E+00
  0.00000000E+00  0.00000000E+00  0.00000000E+00
  0.00000000E+00  0.00000000E+00  0.00000000E+00
  0.00000000E+00  0.00000000E+00  0.00000000E+00
  0.00000000E+00  0.00000000E+00  0.00000000E+00
  0.00000000E+00  0.00000000E+00  0.00000000E+00
  0.00000000E+00  0.00000000E+00  0.00000000E+00
  0.00000000E+00  0.00000000E+00  0.00000000E+00
  0.00000000E+00  0.00000000E+00  0.00000000E+00
  0.00000000E+00  0.00000000E+00  0.00000000E+00
  0.00000000E+00  0.00000000E+00  0.00000000E+00
  0.00000000E+00  0.00000000E+00  0.00000000E+00
  0.00000000E+00  0.00000000E+00  0.00000000E+00
  0.00000000E+00  0.00000000E+00  0.00000000E+00
  0.00000000E+00  0.00000000E+00  0.00000000E+00
  0.00000000E+00  0.00000000E+00  0.00000000E+00
  0.00000000E+00  0.00000000E+00  0.00000000E+00
  0.00000000E+00  0.00000000E+00  0.00000000E+00
  0.00000000E+00  0.00000000E+00  0.00000000E+00
  0.00000000E+00  0.00000000E+00  0.00000000E+00
  0.00000000E+00  0.00000000E+00  0.00000000E+00
  0.00000000E+00  0.00000000E+00  0.00000000E+00
  0.00000000E+00  0.00000000E+00  0.00000000E+00
  0.00000000E+00  0.00000000E+00  0.00000000E+00
  0.00000000E+00  0.00000000E+00  0.00000000E+00
  0.00000000E+00  0.00000000E+00  0.00000000E+00
  0.00000000E+00  0.00000000E+00  0.00000000E+00
  0.00000000E+00  0.00000000E+00  0.00000000E+00
  0.00000000E+00  0.00000000E+00  0.00000000E+00
  0.00000000E+00  0.00000000E+00  0.00000000E+00
  0.00000000E+00  0.00000000E+00  0.00000000E+00
  0.00000000E+00  0.00000000E+00  0.00000000E+00
  0.00000000E+00  0.00000000E+00  0.00000000E+00
  0.00000000E+00  0.00000000E+00  0.00000000E+00
  0.00000000E+00  0.00000000E+00  0.00000000E+00
  0.00000000E+00  0.00000000E+00  0.00000000E+00
  0.00000000E+00  0.00000000E+00  0.00000000E+00
  0.00000000E+00  0.00000000E+00  0.00000000E+00
  0.00000000E+00  0.00000000E+00  0.00000000E+00
  0.00000000E+00  0.00000000E+00  0.00000000E+00
  0.00000000E+00  0.00000000E+00  0.00000000E+00
  0.00000000E+00  0.00000000E+00  0.00000000E+00
  0.00000000E+00  0.00000000E+00  0.00000000E+00
  0.00000000E+00  0.00000000E+00  0.00000000E+00
  0.00000000E+00  0.00000000E+00  0.00000000E+00
  0.00000000E+00  0.00000000E+00  0.00000000E+00
  0.00000000E+00  0.00000000E+00  0.00000000E+00
  0.00000000E+00  0.00000000E+00  0.00000000E+00
  0.00000000E+00  0.00000000E+00  0.00000000E+00
  0.00000000E+00  0.00000000E+00  0.00000000E+00
  0.00000000E+00  0.00000000E+00  0.00000000E+00
  0.00000000E+00  0.00000000E+00  0.00000000E+00
  0.00000000E+00  0.00000000E+00  0.00000000E+00
