supercell of supercell of icsd_608626.c 
   1.00600000000000     
    18.8433725412000008    0.0042597715995000    0.0111656436851000
    -6.2786657403800001   10.8752831735999997   -0.0012954496991100
     0.0059525623905900    0.0022414031449000   10.0498800689000003
   Al   Gd   N 
    91     4    96
Direct
  0.1131522266640062  0.0860738708764188  0.2443598130534141
  0.0518787230916686  0.1618113581879967  0.9990328057341245
  0.4445448518835562  0.3344075618520606  0.7458629977946885
  0.3896898671705671  0.4157567948645564  0.4956194296111676
  0.2257255737671287  0.1732622875690026  0.9946400384504344
  0.1076804200240815  0.3302708313827196  0.7434189812108798
  0.0551752766566267  0.4176121576118206  0.5007994180461566
  0.4433802625157028  0.0842756730841359  0.2454693854543990
  0.3939215715486810  0.1754852383367123  0.9960059756442732
  0.2793538435424168  0.3319878535780489  0.7389870644658245
  0.2223711748775514  0.4158473182765761  0.4957054331923914
  0.1112463733751312  0.0833131443408419  0.7477091106031253
  0.0545419114072772  0.1637468926283887  0.4989416368445703
  0.4436174336504024  0.3300368287315578  0.2440878070684107
  0.3896321728792458  0.4147779585265212  0.9961945799836371
  0.2791497750184675  0.0857907598854979  0.7378979728002335
  0.2208388881310057  0.1638537916537786  0.4950851115727701
  0.1093976578080031  0.3313238702959040  0.2587563141043034
  0.0539173175311163  0.4165899190210069  0.0004587863368783
  0.4437387635160022  0.0823960494281764  0.7474299577880430
  0.3899720437067344  0.1664364483610399  0.4927566339827436
  0.2774796926625740  0.3287388635025295  0.2546053856704660
  0.6121002692434345  0.0834355272824467  0.2482142475590550
  0.5500372190744827  0.1614935920005252  0.9987142010575170
  0.9453517403570473  0.3347055510071328  0.7513963952205245
  0.8895721951956901  0.4164012883834474  0.5012953704118814
  0.7791184529695485  0.0857847701118359  0.2589926703192376
  0.7249662195092981  0.1689298354291893  0.9982714455502588
  0.6062171091770807  0.3295272273502619  0.7422834088425816
  0.5543636313310571  0.4170015010731447  0.4972980156194211
  0.9435105682020719  0.0830034491514624  0.2494506445650302
  0.8921034618879844  0.1720591711451576  0.9987906885177793
  0.7792068093734912  0.3318275741313741  0.7451862836925756
  0.7216939490240932  0.4161730858664470  0.4989784916585691
  0.6107919922609710  0.0832981933689680  0.7495188467730358
  0.5542012347282750  0.1636030860017215  0.4981854941562318
  0.9448626285396386  0.3337079722592264  0.2498874335879506
  0.8902847820524116  0.4158410460299038  0.0002579858739864
  0.7798844753054368  0.0879266262335960  0.7450753544302486
  0.7213111328133337  0.1656826932957216  0.5019622902492529
  0.6084296627856602  0.3309235871881384  0.2572233815911034
  0.5528047835043637  0.4161298480476745  0.9985765534846109
  0.9445247201679550  0.0827365661305421  0.7502004563614761
  0.8906484140431132  0.1682881768864419  0.5011389336811689
  0.7784440511529596  0.3319744396874356  0.2590267829423922
  0.1121111725142612  0.5848775526075016  0.2500194567941705
  0.0538234281309968  0.6654437493052043  0.0004226475695361
  0.4443277988755341  0.8343459077987490  0.7504218622094641
  0.3901608180321645  0.9166153908813044  0.5012683435219074
  0.2793499823794576  0.5863388772801343  0.2597018444809933
  0.2249044316506001  0.6714724275958801  0.9995357786360444
  0.1107011097850048  0.8329793176581077  0.7473641876386949
  0.0546570548231315  0.9174408225000761  0.5015282254143187
  0.4438736187754131  0.5821973261672753  0.2472947778755952
  0.3912085466268067  0.6719039365218578  0.9979592617688837
  0.2775145201583342  0.8340813837728618  0.7480200431128523
  0.2206845931052328  0.9120295423706963  0.4833955850919338
  0.1112414736081462  0.5833164938642383  0.7524021779478645
  0.0537407751205095  0.6631696945250951  0.5040282737290838
  0.4448856178737515  0.8340367677934921  0.2489496697132836
  0.3884614594741578  0.9152812758448832  0.9985385621504150
  0.2793732678259389  0.5871953592727692  0.7456122954520694
  0.2219046047008391  0.6651498511048288  0.5051497828276155
  0.1058406570051460  0.8274974565858955  0.2634645448864958
  0.0551267404983946  0.9174915323769355  0.9985200637013065
  0.4436575551382660  0.5817722616971750  0.7485960544864412
  0.3907278012272215  0.6681036372427442  0.5003594799294078
  0.2793847612025786  0.8289970590547284  0.2630549013095660
  0.6120788239978907  0.5845333026058341  0.2477033328794462
  0.5510026751929402  0.6618611047936724  0.9975101373248734
  0.9456676823513774  0.8345926781968345  0.7509400881204158
  0.8898732218162166  0.9169558237165845  0.5006027673987106
  0.7790252393357520  0.5857623424901846  0.2587966899827236
  0.7252326697393414  0.6689892401275443  0.9980548407322232
  0.6065498466673134  0.8297981150653015  0.7433273545874854
  0.5549893820475731  0.9174858031848032  0.4999684783895120
  0.9433102018910375  0.5816009262348700  0.2504131180683515
  0.8923173193253575  0.6720638975275932  0.9993967321690462
  0.7795226846300096  0.8316803888993718  0.7448202830426567
  0.7221124839257342  0.9164541864371216  0.4998478513742981
  0.6109021628977658  0.5828170302075080  0.7488352691260260
  0.5542628653221158  0.6637016988560447  0.4994289955337052
  0.9451757037410644  0.8343470858937181  0.2496137035582393
  0.8904219784425109  0.9148831743596233  0.9995111211995535
  0.7798416598736964  0.5876364817993007  0.7449246728095460
  0.7213060265845996  0.6658192268451444  0.5015272287493318
  0.6092963447108559  0.8315603619245806  0.2588591705377326
  0.5527066170226362  0.9162883011201046  0.9985196713192792
  0.9445393164398652  0.5830392782008857  0.7516240080031693
  0.8905530770722336  0.6682242905533471  0.5010350415494642
  0.7790445411394487  0.8327561322361632  0.2590169284942121
  0.2204542672554268  0.4137482127215151  0.0032028390073293
  0.7188848158879537  0.4147559815456319  0.9997048696286228
  0.2262358756792793  0.9331532354186294  0.0273481283717771
  0.7197237011167630  0.9151414976914651  0.9992589544659154
  0.1098837211898100  0.0821040669222626  0.4364983315858098
  0.0526203500584046  0.1666811710366289  0.1903613440383651
  0.4473663952882134  0.3408892954584388  0.9340998192312000
  0.3906782805288032  0.4184881110933674  0.6833911115406366
  0.2775122315424099  0.0806604945425136  0.4637978107791767
  0.2150859777405785  0.1807774161531981  0.1746428890438096
  0.0938398581122044  0.3196662858250221  0.9293071595421267
  0.0548563708674834  0.4182968488248449  0.6892564024306722
  0.4448401781163867  0.0814359515067622  0.4369872625434468
  0.4031130442812056  0.1766346418507254  0.1772201090063206
  0.2864910215465244  0.3300139680871723  0.9224422533662420
  0.2215286611903409  0.4169860038731983  0.6919264690769893
  0.1109436318293149  0.0836960240102300  0.9371019559433691
  0.0539947111526331  0.1635301721507290  0.6875717207885899
  0.4451979233036596  0.3338020099415999  0.4351374785503666
  0.3887218083945285  0.4171050710942694  0.1879152985101342
  0.2881465712591549  0.1080630728836809  0.9234874129656703
  0.2201345880090173  0.1658412200091561  0.6841641687408924
  0.1083550756802651  0.3308892200448028  0.4473395861976712
  0.0559865984548651  0.4166827669162387  0.1919257475601057
  0.4418448170157703  0.0785019113309744  0.9362219110927370
  0.3922085460560893  0.1693915084320992  0.6844236025815391
  0.2785912820989722  0.3312527176410214  0.4441882307481038
  0.2224150617886949  0.4197166489265882  0.2249780352099222
  0.6118646943666164  0.0830602069003277  0.4384480018197010
  0.5584195448454352  0.1668501010034333  0.1895089322865644
  0.9461036901238131  0.3370950741039920  0.9414978355519139
  0.8900872601020353  0.4173384326111744  0.6897120827819592
  0.7790655825787596  0.0857672436395234  0.4477980712855754
  0.7238691570464155  0.1670931766378061  0.1911520567641318
  0.5929587311362212  0.3190958527641286  0.9275466453862578
  0.5555494417699194  0.4190473599066564  0.6855391813834757
  0.9432855285958155  0.0822741443861972  0.4395858234058210
  0.8880535134164163  0.1666376167758088  0.1908715382281656
  0.7852548730503486  0.3266419819368096  0.9311113341953572
  0.7217110952560475  0.4164044997927121  0.6950529615176393
  0.6125562114754217  0.0845545858724179  0.9412316403315018
  0.5549188777906977  0.1634443048990093  0.6867864942072828
  0.9445340439801981  0.3335755583157649  0.4397922886785466
  0.8876422140161466  0.4151132065879821  0.1918549041302384
  0.7864844574494541  0.1032978637064730  0.9307025218477136
  0.7210245542207261  0.1656590320536750  0.6888843550505328
  0.6091722047655779  0.3313357016263296  0.4461151177204172
  0.5590233181840247  0.4205589737374282  0.1891902241521350
  0.9412187916206918  0.0792537156527686  0.9408582994777603
  0.8910925372545222  0.1687191917439037  0.6898206851536628
  0.7783870099766617  0.3317179208627223  0.4475549564558463
  0.7224775550381040  0.4167258215182272  0.2213638380779983
  0.1112683410549877  0.5835020773826969  0.4409134326511506
  0.0530711688958121  0.6633499207750120  0.1916194469457793
  0.4452349499218897  0.8369380635867500  0.9402332349419353
  0.3894776302093490  0.9164786279067982  0.6896680325158684
  0.2796307177287076  0.5860330606518502  0.4485720981848615
  0.2233394801514024  0.6650140218387364  0.1916633743297922
  0.1006967895889090  0.8253637026849034  0.9353729236859891
  0.0549426701120908  0.9173685479001890  0.6899587649710384
  0.4445288930875790  0.5831556610622357  0.4373639723204832
  0.3893082203326443  0.6673254415243832  0.1902023081710738
  0.2816500136712747  0.8309527638653051  0.9361264367594231
  0.2212359059486602  0.9148119621794919  0.6889062659851177
  0.1119565219541556  0.5837340712910901  0.9436632657482136
  0.0545147436290279  0.6636721039221598  0.6929025282315209
  0.4456527316064225  0.8337322802655933  0.4389195308727381
  0.3885602066498564  0.9152572569731774  0.1903860102567521
  0.2855649098500876  0.6034718782565278  0.9314530484706083
  0.2207556483621573  0.6658153398823785  0.6920860607457513
  0.1042013172103893  0.8270695359047693  0.4508641161195044
  0.0556999122155588  0.9159201036516791  0.1902329122580824
  0.4416669578652801  0.5805825023800892  0.9394753007279206
  0.3912072758962424  0.6686920657722766  0.6891841824065921
  0.2805776939371256  0.8282660791741492  0.4501433317038348
  0.2159474319224159  0.8989077937770134  0.2428169135066938
  0.6116858755183472  0.5841497908544255  0.4378973968168651
  0.5563838950024333  0.6681487296105715  0.1892395113776644
  0.9466974576392673  0.8364765311900655  0.9409467823185835
  0.8902195519378040  0.9172608151810380  0.6889382050079789
  0.7788985834557209  0.5857345990310279  0.4474963038205715
  0.7241135618630494  0.6685372660272861  0.1910011410818626
  0.5932777159097427  0.8197539284571320  0.9284969084863022
  0.5548963882650568  0.9183686175917956  0.6882357381974202
  0.9431351810130408  0.5812593877520911  0.4407839302255070
  0.8885168480637518  0.6665007125752282  0.1915266364753521
  0.7854883655792477  0.8262382854419101  0.9305009863709017
  0.7218159529462156  0.9164912650331161  0.6956183400594966
  0.6130141073336333  0.5854977577556966  0.9407078203866988
  0.5546187866027452  0.6636311477534633  0.6880672677299913
  0.9439541117266970  0.8333868485017888  0.4395203601016817
  0.8880471318134440  0.9159600143467443  0.1911977381279613
  0.7866603737400908  0.6030062189392638  0.9308975023945649
  0.7211253864689766  0.6657606602753532  0.6884481181481874
  0.6094013685088058  0.8315750215200310  0.4475129525353267
  0.5569114261038592  0.9164523325180767  0.1900946373704002
  0.9426691515161494  0.5809937820778686  0.9421662934687660
  0.8910429031421572  0.6683898863800621  0.6897962285128543
  0.7785212879471430  0.8322374033176132  0.4474697881627634
  0.7223853605414519  0.9167161227089622  0.2212039036995677
 
  0.00000000E+00  0.00000000E+00  0.00000000E+00
  0.00000000E+00  0.00000000E+00  0.00000000E+00
  0.00000000E+00  0.00000000E+00  0.00000000E+00
  0.00000000E+00  0.00000000E+00  0.00000000E+00
  0.00000000E+00  0.00000000E+00  0.00000000E+00
  0.00000000E+00  0.00000000E+00  0.00000000E+00
  0.00000000E+00  0.00000000E+00  0.00000000E+00
  0.00000000E+00  0.00000000E+00  0.00000000E+00
  0.00000000E+00  0.00000000E+00  0.00000000E+00
  0.00000000E+00  0.00000000E+00  0.00000000E+00
  0.00000000E+00  0.00000000E+00  0.00000000E+00
  0.00000000E+00  0.00000000E+00  0.00000000E+00
  0.00000000E+00  0.00000000E+00  0.00000000E+00
  0.00000000E+00  0.00000000E+00  0.00000000E+00
  0.00000000E+00  0.00000000E+00  0.00000000E+00
  0.00000000E+00  0.00000000E+00  0.00000000E+00
  0.00000000E+00  0.00000000E+00  0.00000000E+00
  0.00000000E+00  0.00000000E+00  0.00000000E+00
  0.00000000E+00  0.00000000E+00  0.00000000E+00
  0.00000000E+00  0.00000000E+00  0.00000000E+00
  0.00000000E+00  0.00000000E+00  0.00000000E+00
  0.00000000E+00  0.00000000E+00  0.00000000E+00
  0.00000000E+00  0.00000000E+00  0.00000000E+00
  0.00000000E+00  0.00000000E+00  0.00000000E+00
  0.00000000E+00  0.00000000E+00  0.00000000E+00
  0.00000000E+00  0.00000000E+00  0.00000000E+00
  0.00000000E+00  0.00000000E+00  0.00000000E+00
  0.00000000E+00  0.00000000E+00  0.00000000E+00
  0.00000000E+00  0.00000000E+00  0.00000000E+00
  0.00000000E+00  0.00000000E+00  0.00000000E+00
  0.00000000E+00  0.00000000E+00  0.00000000E+00
  0.00000000E+00  0.00000000E+00  0.00000000E+00
  0.00000000E+00  0.00000000E+00  0.00000000E+00
  0.00000000E+00  0.00000000E+00  0.00000000E+00
  0.00000000E+00  0.00000000E+00  0.00000000E+00
  0.00000000E+00  0.00000000E+00  0.00000000E+00
  0.00000000E+00  0.00000000E+00  0.00000000E+00
  0.00000000E+00  0.00000000E+00  0.00000000E+00
  0.00000000E+00  0.00000000E+00  0.00000000E+00
  0.00000000E+00  0.00000000E+00  0.00000000E+00
  0.00000000E+00  0.00000000E+00  0.00000000E+00
  0.00000000E+00  0.00000000E+00  0.00000000E+00
  0.00000000E+00  0.00000000E+00  0.00000000E+00
  0.00000000E+00  0.00000000E+00  0.00000000E+00
  0.00000000E+00  0.00000000E+00  0.00000000E+00
  0.00000000E+00  0.00000000E+00  0.00000000E+00
  0.00000000E+00  0.00000000E+00  0.00000000E+00
  0.00000000E+00  0.00000000E+00  0.00000000E+00
  0.00000000E+00  0.00000000E+00  0.00000000E+00
  0.00000000E+00  0.00000000E+00  0.00000000E+00
  0.00000000E+00  0.00000000E+00  0.00000000E+00
  0.00000000E+00  0.00000000E+00  0.00000000E+00
  0.00000000E+00  0.00000000E+00  0.00000000E+00
  0.00000000E+00  0.00000000E+00  0.00000000E+00
  0.00000000E+00  0.00000000E+00  0.00000000E+00
  0.00000000E+00  0.00000000E+00  0.00000000E+00
  0.00000000E+00  0.00000000E+00  0.00000000E+00
  0.00000000E+00  0.00000000E+00  0.00000000E+00
  0.00000000E+00  0.00000000E+00  0.00000000E+00
  0.00000000E+00  0.00000000E+00  0.00000000E+00
  0.00000000E+00  0.00000000E+00  0.00000000E+00
  0.00000000E+00  0.00000000E+00  0.00000000E+00
  0.00000000E+00  0.00000000E+00  0.00000000E+00
  0.00000000E+00  0.00000000E+00  0.00000000E+00
  0.00000000E+00  0.00000000E+00  0.00000000E+00
  0.00000000E+00  0.00000000E+00  0.00000000E+00
  0.00000000E+00  0.00000000E+00  0.00000000E+00
  0.00000000E+00  0.00000000E+00  0.00000000E+00
  0.00000000E+00  0.00000000E+00  0.00000000E+00
  0.00000000E+00  0.00000000E+00  0.00000000E+00
  0.00000000E+00  0.00000000E+00  0.00000000E+00
  0.00000000E+00  0.00000000E+00  0.00000000E+00
  0.00000000E+00  0.00000000E+00  0.00000000E+00
  0.00000000E+00  0.00000000E+00  0.00000000E+00
  0.00000000E+00  0.00000000E+00  0.00000000E+00
  0.00000000E+00  0.00000000E+00  0.00000000E+00
  0.00000000E+00  0.00000000E+00  0.00000000E+00
  0.00000000E+00  0.00000000E+00  0.00000000E+00
  0.00000000E+00  0.00000000E+00  0.00000000E+00
  0.00000000E+00  0.00000000E+00  0.00000000E+00
  0.00000000E+00  0.00000000E+00  0.00000000E+00
  0.00000000E+00  0.00000000E+00  0.00000000E+00
  0.00000000E+00  0.00000000E+00  0.00000000E+00
  0.00000000E+00  0.00000000E+00  0.00000000E+00
  0.00000000E+00  0.00000000E+00  0.00000000E+00
  0.00000000E+00  0.00000000E+00  0.00000000E+00
  0.00000000E+00  0.00000000E+00  0.00000000E+00
  0.00000000E+00  0.00000000E+00  0.00000000E+00
  0.00000000E+00  0.00000000E+00  0.00000000E+00
  0.00000000E+00  0.00000000E+00  0.00000000E+00
  0.00000000E+00  0.00000000E+00  0.00000000E+00
  0.00000000E+00  0.00000000E+00  0.00000000E+00
  0.00000000E+00  0.00000000E+00  0.00000000E+00
  0.00000000E+00  0.00000000E+00  0.00000000E+00
  0.00000000E+00  0.00000000E+00  0.00000000E+00
  0.00000000E+00  0.00000000E+00  0.00000000E+00
  0.00000000E+00  0.00000000E+00  0.00000000E+00
  0.00000000E+00  0.00000000E+00  0.00000000E+00
  0.00000000E+00  0.00000000E+00  0.00000000E+00
  0.00000000E+00  0.00000000E+00  0.00000000E+00
  0.00000000E+00  0.00000000E+00  0.00000000E+00
  0.00000000E+00  0.00000000E+00  0.00000000E+00
  0.00000000E+00  0.00000000E+00  0.00000000E+00
  0.00000000E+00  0.00000000E+00  0.00000000E+00
  0.00000000E+00  0.00000000E+00  0.00000000E+00
  0.00000000E+00  0.00000000E+00  0.00000000E+00
  0.00000000E+00  0.00000000E+00  0.00000000E+00
  0.00000000E+00  0.00000000E+00  0.00000000E+00
  0.00000000E+00  0.00000000E+00  0.00000000E+00
  0.00000000E+00  0.00000000E+00  0.00000000E+00
  0.00000000E+00  0.00000000E+00  0.00000000E+00
  0.00000000E+00  0.00000000E+00  0.00000000E+00
  0.00000000E+00  0.00000000E+00  0.00000000E+00
  0.00000000E+00  0.00000000E+00  0.00000000E+00
  0.00000000E+00  0.00000000E+00  0.00000000E+00
  0.00000000E+00  0.00000000E+00  0.00000000E+00
  0.00000000E+00  0.00000000E+00  0.00000000E+00
  0.00000000E+00  0.00000000E+00  0.00000000E+00
  0.00000000E+00  0.00000000E+00  0.00000000E+00
  0.00000000E+00  0.00000000E+00  0.00000000E+00
  0.00000000E+00  0.00000000E+00  0.00000000E+00
  0.00000000E+00  0.00000000E+00  0.00000000E+00
  0.00000000E+00  0.00000000E+00  0.00000000E+00
  0.00000000E+00  0.00000000E+00  0.00000000E+00
  0.00000000E+00  0.00000000E+00  0.00000000E+00
  0.00000000E+00  0.00000000E+00  0.00000000E+00
  0.00000000E+00  0.00000000E+00  0.00000000E+00
  0.00000000E+00  0.00000000E+00  0.00000000E+00
  0.00000000E+00  0.00000000E+00  0.00000000E+00
  0.00000000E+00  0.00000000E+00  0.00000000E+00
  0.00000000E+00  0.00000000E+00  0.00000000E+00
  0.00000000E+00  0.00000000E+00  0.00000000E+00
  0.00000000E+00  0.00000000E+00  0.00000000E+00
  0.00000000E+00  0.00000000E+00  0.00000000E+00
  0.00000000E+00  0.00000000E+00  0.00000000E+00
  0.00000000E+00  0.00000000E+00  0.00000000E+00
  0.00000000E+00  0.00000000E+00  0.00000000E+00
  0.00000000E+00  0.00000000E+00  0.00000000E+00
  0.00000000E+00  0.00000000E+00  0.00000000E+00
  0.00000000E+00  0.00000000E+00  0.00000000E+00
  0.00000000E+00  0.00000000E+00  0.00000000E+00
  0.00000000E+00  0.00000000E+00  0.00000000E+00
  0.00000000E+00  0.00000000E+00  0.00000000E+00
  0.00000000E+00  0.00000000E+00  0.00000000E+00
  0.00000000E+00  0.00000000E+00  0.00000000E+00
  0.00000000E+00  0.00000000E+00  0.00000000E+00
  0.00000000E+00  0.00000000E+00  0.00000000E+00
  0.00000000E+00  0.00000000E+00  0.00000000E+00
  0.00000000E+00  0.00000000E+00  0.00000000E+00
  0.00000000E+00  0.00000000E+00  0.00000000E+00
  0.00000000E+00  0.00000000E+00  0.00000000E+00
  0.00000000E+00  0.00000000E+00  0.00000000E+00
  0.00000000E+00  0.00000000E+00  0.00000000E+00
  0.00000000E+00  0.00000000E+00  0.00000000E+00
  0.00000000E+00  0.00000000E+00  0.00000000E+00
  0.00000000E+00  0.00000000E+00  0.00000000E+00
  0.00000000E+00  0.00000000E+00  0.00000000E+00
  0.00000000E+00  0.00000000E+00  0.00000000E+00
  0.00000000E+00  0.00000000E+00  0.00000000E+00
  0.00000000E+00  0.00000000E+00  0.00000000E+00
  0.00000000E+00  0.00000000E+00  0.00000000E+00
  0.00000000E+00  0.00000000E+00  0.00000000E+00
  0.00000000E+00  0.00000000E+00  0.00000000E+00
  0.00000000E+00  0.00000000E+00  0.00000000E+00
  0.00000000E+00  0.00000000E+00  0.00000000E+00
  0.00000000E+00  0.00000000E+00  0.00000000E+00
  0.00000000E+00  0.00000000E+00  0.00000000E+00
  0.00000000E+00  0.00000000E+00  0.00000000E+00
  0.00000000E+00  0.00000000E+00  0.00000000E+00
  0.00000000E+00  0.00000000E+00  0.00000000E+00
  0.00000000E+00  0.00000000E+00  0.00000000E+00
  0.00000000E+00  0.00000000E+00  0.00000000E+00
  0.00000000E+00  0.00000000E+00  0.00000000E+00
  0.00000000E+00  0.00000000E+00  0.00000000E+00
  0.00000000E+00  0.00000000E+00  0.00000000E+00
  0.00000000E+00  0.00000000E+00  0.00000000E+00
  0.00000000E+00  0.00000000E+00  0.00000000E+00
  0.00000000E+00  0.00000000E+00  0.00000000E+00
  0.00000000E+00  0.00000000E+00  0.00000000E+00
  0.00000000E+00  0.00000000E+00  0.00000000E+00
  0.00000000E+00  0.00000000E+00  0.00000000E+00
  0.00000000E+00  0.00000000E+00  0.00000000E+00
  0.00000000E+00  0.00000000E+00  0.00000000E+00
  0.00000000E+00  0.00000000E+00  0.00000000E+00
  0.00000000E+00  0.00000000E+00  0.00000000E+00
  0.00000000E+00  0.00000000E+00  0.00000000E+00
  0.00000000E+00  0.00000000E+00  0.00000000E+00
  0.00000000E+00  0.00000000E+00  0.00000000E+00
  0.00000000E+00  0.00000000E+00  0.00000000E+00
  0.00000000E+00  0.00000000E+00  0.00000000E+00
  0.00000000E+00  0.00000000E+00  0.00000000E+00
