generated by phonopy                    
   1.00000000000000     
    10.0351470768999995   -0.0000022330999784   -0.0000001056124209
    -5.0175765436399997    8.6906901959899994    0.0000001395531216
    -0.0000001735893656    0.0000001431815548   14.9533752540999991
   Pb   P    Cu   O 
    20    12     1    49
Direct
  0.0011088547584421  0.7754859973843722  0.1234076465450826
  0.9952851911629850  0.7695462125599875  0.6233499294679063
  0.9960821812209417  0.2522652390822344  0.3823134024668278
  0.9959445970698795  0.2524067072046989  0.8651272166376245
  0.2416761223039927  0.2266670797146517  0.1234517157421280
  0.2264362655366057  0.2220708495310433  0.6234081922060000
  0.7358109562046309  0.7418691421371690  0.3743994925510279
  0.7354532483933482  0.7414980092177075  0.8730431517035484
  0.7986948890919763  0.0255799936866552  0.1232250367247829
  0.7717372055512044  0.9987015482398434  0.6232602196632442
  0.2636845380936492  0.9953299856176514  0.3740448978655593
  0.2634822491222408  0.9954534042513785  0.8736267961021156
  0.6671657658204992  0.3418289034609501  0.0010224753889858
  0.6631401578214167  0.3307382083630230  0.5015429137372323
  0.2945301014217847  0.6394513521008065  0.9907855236994223
  0.3402032849421346  0.6684194097489993  0.5055704131539258
  0.2946967576348243  0.6397489794402276  0.2568813212890575
  0.3408415265095499  0.6693222836729049  0.7420079097391863
  0.6666216642770380  0.3417273629027449  0.2472822965677750
  0.6625851222096131  0.3303629529259098  0.7467266854932504
  0.6349748605618046  0.6185882503970319  0.1239555865868240
  0.6237377284545076  0.5925069899846562  0.6239133898281111
  0.3628177290779604  0.3913333580049354  0.3733697751164513
  0.3626991716122063  0.3909306856025836  0.8747236039463431
  0.4184524526146873  0.0271910983972461  0.1240581402356682
  0.4069592951627143  0.0275951513482440  0.6239823041116210
  0.6042780407354158  0.9706482506925980  0.3733128039086679
  0.6038609468361287  0.9703302142682588  0.8745123309234515
  0.9678930095412426  0.3806546656261318  0.1240608938880001
  0.9714056467133076  0.3745414970669430  0.6239839137067023
  0.0230635847174199  0.6274641987640379  0.3756779486481463
  0.0228862494752278  0.6274396849164106  0.8721336696208652
  0.5233828741210473  0.7623005917981871  0.1237672342859639
  0.5005932882987310  0.6449821454175435  0.6236739612934556
  0.4620737552627219  0.3123565152690375  0.3708270370429361
  0.4622652737060804  0.3123088480602192  0.8777510196060518
  0.3893564696314016  0.8571684148151135  0.1239043720529125
  0.3574038507415409  0.8532543339212921  0.6237783456828652
  0.6749986818618936  0.1482277976739610  0.3756003178058123
  0.6747415711415172  0.1479185715681481  0.8723698763569345
  0.1434106551200429  0.5047078252934867  0.1237972720393259
  0.1458602636010653  0.4967499344225104  0.6237688295270942
  0.8455705618769755  0.5287941876406279  0.3732148381252500
  0.8453984868612210  0.5284126947061409  0.8746911582905810
  0.7452138022903299  0.6672829686385455  0.0389856957224879
  0.7290836526253912  0.6537778574240178  0.5392667364859562
  0.2524625517909627  0.3391984321607779  0.4562379021200300
  0.2584478020748193  0.3561930999131349  0.9597272078219632
  0.3461202320754779  0.0595819043772323  0.0399690399185459
  0.3445908662763912  0.0707494535652984  0.5391019494150342
  0.6449333153243089  0.9070854377755211  0.4588439091373786
  0.6603499512128437  0.9155159378314153  0.9565355481619306
  0.9265429748882923  0.2766090401540140  0.0388897920259836
  0.9257568910993612  0.2666254943204862  0.5396793641096949
  0.0837269498234292  0.7417858262825163  0.4556954635942319
  0.0937189362153177  0.7237180548834345  0.9599488013076822
  0.2575684395918429  0.3550285725797337  0.2887165252295745
  0.2514411348663117  0.3368463619021611  0.7923060068047008
  0.7460793952202494  0.6691237619566266  0.2085832108619456
  0.7296610214368258  0.6555641428252912  0.7082025611425493
  0.6613076848791763  0.9161004035110238  0.2914465794150658
  0.6447959862951720  0.9067844130674203  0.7891002387160810
  0.3450090172098825  0.0587605446127029  0.2079070344175733
  0.3437522043734376  0.0700263469511526  0.7087635571900748
  0.0940893215986947  0.7245151603648239  0.2881635701595684
  0.0831913661797969  0.7424588298883918  0.7924839040678222
  0.9277951108112887  0.2757731313062592  0.2087277423825000
  0.9269797615370905  0.2658254707322030  0.7078517705956955
  0.5433656317894986  0.4364313125736459  0.1245158815569809
  0.5419012004008437  0.4120997274824489  0.6244029011825987
  0.4704786832503984  0.5726291768937202  0.3779228233364691
  0.4701300729595133  0.5721665516510654  0.8689949779952428
  0.5958424508653763  0.1427151346489453  0.1243951023135565
  0.5872020723707010  0.1298098389472528  0.6242314046621757
  0.4215781608389264  0.8892108413787341  0.3699623029281227
  0.4211461245677697  0.8890248313666618  0.8775023819807259
  0.8698784693503470  0.4624155552210567  0.1246360109009643
  0.8693734950361929  0.4523336919799874  0.6245861038975846
  0.0956293103440657  0.5176955239144903  0.3818743460280700
  0.0958031236179409  0.5180110775498505  0.8653711440780540
  0.0103718841634972  0.0085579797201376  0.1215169550856174
  0.9983742335732444  0.9976779585630808  0.6214820664002758
 
  0.00000000E+00  0.00000000E+00  0.00000000E+00
  0.00000000E+00  0.00000000E+00  0.00000000E+00
  0.00000000E+00  0.00000000E+00  0.00000000E+00
  0.00000000E+00  0.00000000E+00  0.00000000E+00
  0.00000000E+00  0.00000000E+00  0.00000000E+00
  0.00000000E+00  0.00000000E+00  0.00000000E+00
  0.00000000E+00  0.00000000E+00  0.00000000E+00
  0.00000000E+00  0.00000000E+00  0.00000000E+00
  0.00000000E+00  0.00000000E+00  0.00000000E+00
  0.00000000E+00  0.00000000E+00  0.00000000E+00
  0.00000000E+00  0.00000000E+00  0.00000000E+00
  0.00000000E+00  0.00000000E+00  0.00000000E+00
  0.00000000E+00  0.00000000E+00  0.00000000E+00
  0.00000000E+00  0.00000000E+00  0.00000000E+00
  0.00000000E+00  0.00000000E+00  0.00000000E+00
  0.00000000E+00  0.00000000E+00  0.00000000E+00
  0.00000000E+00  0.00000000E+00  0.00000000E+00
  0.00000000E+00  0.00000000E+00  0.00000000E+00
  0.00000000E+00  0.00000000E+00  0.00000000E+00
  0.00000000E+00  0.00000000E+00  0.00000000E+00
  0.00000000E+00  0.00000000E+00  0.00000000E+00
  0.00000000E+00  0.00000000E+00  0.00000000E+00
  0.00000000E+00  0.00000000E+00  0.00000000E+00
  0.00000000E+00  0.00000000E+00  0.00000000E+00
  0.00000000E+00  0.00000000E+00  0.00000000E+00
  0.00000000E+00  0.00000000E+00  0.00000000E+00
  0.00000000E+00  0.00000000E+00  0.00000000E+00
  0.00000000E+00  0.00000000E+00  0.00000000E+00
  0.00000000E+00  0.00000000E+00  0.00000000E+00
  0.00000000E+00  0.00000000E+00  0.00000000E+00
  0.00000000E+00  0.00000000E+00  0.00000000E+00
  0.00000000E+00  0.00000000E+00  0.00000000E+00
  0.00000000E+00  0.00000000E+00  0.00000000E+00
  0.00000000E+00  0.00000000E+00  0.00000000E+00
  0.00000000E+00  0.00000000E+00  0.00000000E+00
  0.00000000E+00  0.00000000E+00  0.00000000E+00
  0.00000000E+00  0.00000000E+00  0.00000000E+00
  0.00000000E+00  0.00000000E+00  0.00000000E+00
  0.00000000E+00  0.00000000E+00  0.00000000E+00
  0.00000000E+00  0.00000000E+00  0.00000000E+00
  0.00000000E+00  0.00000000E+00  0.00000000E+00
  0.00000000E+00  0.00000000E+00  0.00000000E+00
  0.00000000E+00  0.00000000E+00  0.00000000E+00
  0.00000000E+00  0.00000000E+00  0.00000000E+00
  0.00000000E+00  0.00000000E+00  0.00000000E+00
  0.00000000E+00  0.00000000E+00  0.00000000E+00
  0.00000000E+00  0.00000000E+00  0.00000000E+00
  0.00000000E+00  0.00000000E+00  0.00000000E+00
  0.00000000E+00  0.00000000E+00  0.00000000E+00
  0.00000000E+00  0.00000000E+00  0.00000000E+00
  0.00000000E+00  0.00000000E+00  0.00000000E+00
  0.00000000E+00  0.00000000E+00  0.00000000E+00
  0.00000000E+00  0.00000000E+00  0.00000000E+00
  0.00000000E+00  0.00000000E+00  0.00000000E+00
  0.00000000E+00  0.00000000E+00  0.00000000E+00
  0.00000000E+00  0.00000000E+00  0.00000000E+00
  0.00000000E+00  0.00000000E+00  0.00000000E+00
  0.00000000E+00  0.00000000E+00  0.00000000E+00
  0.00000000E+00  0.00000000E+00  0.00000000E+00
  0.00000000E+00  0.00000000E+00  0.00000000E+00
  0.00000000E+00  0.00000000E+00  0.00000000E+00
  0.00000000E+00  0.00000000E+00  0.00000000E+00
  0.00000000E+00  0.00000000E+00  0.00000000E+00
  0.00000000E+00  0.00000000E+00  0.00000000E+00
  0.00000000E+00  0.00000000E+00  0.00000000E+00
  0.00000000E+00  0.00000000E+00  0.00000000E+00
  0.00000000E+00  0.00000000E+00  0.00000000E+00
  0.00000000E+00  0.00000000E+00  0.00000000E+00
  0.00000000E+00  0.00000000E+00  0.00000000E+00
  0.00000000E+00  0.00000000E+00  0.00000000E+00
  0.00000000E+00  0.00000000E+00  0.00000000E+00
  0.00000000E+00  0.00000000E+00  0.00000000E+00
  0.00000000E+00  0.00000000E+00  0.00000000E+00
  0.00000000E+00  0.00000000E+00  0.00000000E+00
  0.00000000E+00  0.00000000E+00  0.00000000E+00
  0.00000000E+00  0.00000000E+00  0.00000000E+00
  0.00000000E+00  0.00000000E+00  0.00000000E+00
  0.00000000E+00  0.00000000E+00  0.00000000E+00
  0.00000000E+00  0.00000000E+00  0.00000000E+00
  0.00000000E+00  0.00000000E+00  0.00000000E+00
  0.00000000E+00  0.00000000E+00  0.00000000E+00
  0.00000000E+00  0.00000000E+00  0.00000000E+00
