Al   Se   Li                            
   1.00000000000000     
     0.0086775035014236    0.0000113872925653   -6.6144002121877001
    -6.9852995943938136    0.0160891674658738    0.0000290446271264
    -0.0197252789480289    8.4868320823801522   -0.0942611356619398
   Al   Se   Li
     4     8     4
Direct
  0.8549369602788651  0.9255945443477043  0.1417440550614912
  0.3223462822203650  0.0614868587766355  0.8887517332079561
  0.9951812324666169  0.4253113227041098  0.3895009282442582
  0.4879219113668075  0.5671013025257811  0.6387849037927218
  0.9523403059472636  0.0634677296086634  0.8967429065995135
  0.4565951805907505  0.9303248091416135  0.1246379670163708
  0.8855879598182853  0.5815916239995648  0.1518195244962958
  0.8871934749512235  0.0927825363082313  0.3860286403475290
  0.3875307980349346  0.4056863715498092  0.8770721576677852
  0.3927358913750686  0.9014903504692766  0.6420753624265986
  0.8558483246733014  0.5562412396242127  0.6275182963408604
  0.3600525361871280  0.4343289166369927  0.3985949374888627
  0.9987731332931954  0.4301278368294062  0.8897342557780342
  0.0006005438337916  0.8918681611191237  0.6249175844909035
  0.4899226646374149  0.5727149101521266  0.1330861347286452
  0.4879866350475198  0.0924830240877196  0.3900623220380392
 
             NaN             NaN             NaN
             NaN             NaN             NaN
             NaN             NaN             NaN
             NaN             NaN             NaN
             NaN             NaN             NaN
             NaN             NaN             NaN
             NaN             NaN             NaN
             NaN             NaN             NaN
             NaN             NaN             NaN
             NaN             NaN             NaN
             NaN             NaN             NaN
             NaN             NaN             NaN
             NaN             NaN             NaN
             NaN             NaN             NaN
             NaN             NaN             NaN
             NaN             NaN             NaN
