Al   Se   Li
1.0
  6.9834340833496436 -0.0164791735760369 -3.25593739888e-05
  -0.0201551786721255 8.4846358824993 -0.1081571353724338
  -0.0115607489385937 -1.33777737621e-05 6.61439425726255
 Al  Se  Li 
4 8 4 
direct
   -0.9232372666916284   0.1446424972744965  -0.8979029028846119
   -0.0610464070415374   0.8890488524248670  -0.3179443652411794
   -0.4255967464588689   0.3899594835401202  -0.9970573554150783
   -0.5675457113481746   0.6390873791571725  -0.4866536290443199
   -0.0650175646011890   0.8946264113585046  -0.9444259127146742
   -0.9288160265211856   0.1265646329923332  -0.4323742269728419
   -0.5813026652777146   0.1522603898339494  -0.8834665120462573
   -0.0937677348049313   0.3862374380646276  -0.8841645383302198
   -0.4052961896217483   0.8771328610867122  -0.3872542869553964
   -0.9020084956336070   0.6416868162315376  -0.3922439954164609
   -0.5558580985325996   0.6273636499005588  -0.8553989929386440
   -0.4341608552456419   0.3983400101919601  -0.3607728916170765
   -0.4305851363674422   0.8896427361938779  -0.9993956143743534
   -0.8914328025166542   0.6247664913968668  -0.0011240077337085
   -0.5757532444955861   0.1323827590963014  -0.4885268450000971
   -0.0911765927224650   0.3873293009819641  -0.4868477580376093
