Al   Se   Li
1.0
  6.951077916940545 0.0066571635999366 4.4765056983e-05
  0.0083890579091962 8.410690934433289 0.1091352410613641
  -0.011283298229583 3.04128125676e-05 6.6145252656159
 Al  Se  Li 
4 8 4 
direct
   -0.9259811794063006   0.1363388587288658  -0.8589114967063810
   -0.0708678421674846   0.8882741719822227  -0.3610900212953890
   -0.4212230148560294   0.3782486553916427  -0.9812521913699559
   -0.5679810780850991   0.6392939049920487  -0.3527080050961487
   -0.0590474591366000   0.8971139600486580  -0.9935371035570727
   -0.9353627418756085   0.1309927545261965  -0.4949324639031371
   -0.5925543004777347   0.1345667081004021  -0.9721894052179150
   -0.0780295978282144   0.3787387949041182  -0.9780956885437656
   -0.4030267833008442   0.8782973379085304  -0.4672807205282301
   -0.9000066140745772   0.6551102940698791  -0.4691819442921710
   -0.5669462140300544   0.6320943107955438  -0.9833184313876044
   -0.4315329392243205   0.3981938263170225  -0.4572095631535338
   -0.3988643710880222   0.8840537558566579  -0.8524640022846574
   -0.9132775373032457   0.6371561777405901  -0.8530781136362035
   -0.5872845423267178   0.1357326822245824  -0.3677105322353263
   -0.0806153226999847   0.3968655161390070  -0.3725941515148137
