Al   Se   Li
1.0
  6.949917204621817 -0.0082857804464595 -4.31036145758e-05
  -0.0102651980788099 8.454798639843926 -0.1982964962280258
  -0.0160523139962455 -1.93492173525e-05 6.61437639248709
 Al  Se  Li 
4 8 4 
direct
   -0.9174878720283910   0.1499666875145612  -0.0152999732115994
   -0.0688590872722435   0.8769554636386384  -0.2951743216318437
   -0.4206881509314380   0.3894812147392236  -0.9937252598725745
   -0.5665795383308161   0.6382904776017514  -0.4861274556908569
   -0.0590894545523567   0.9005121609116349  -0.9268222211913903
   -0.9285869946619308   0.1265630740264512  -0.3805092478830700
   -0.5919690427645466   0.1582926963417763  -0.8831748915028332
   -0.0892648474511396   0.3776526019584161  -0.8829256100404117
   -0.4085755142823013   0.8793415912710145  -0.3809085629179236
   -0.9027877592642648   0.6369808784574528  -0.3886096583455100
   -0.5538165349134643   0.6301252542428395  -0.8534443269321830
   -0.4325856026651910   0.3978107896911496  -0.3596404131550927
   -0.4273166238755773   0.8961963435991902  -0.9885473540605859
   -0.8960871587603761   0.6241212690194721  -0.9917185114264642
   -0.5783743609309407   0.1351579654270647  -0.4947442554024352
   -0.0905329951958976   0.3836232412851673  -0.4941817714576984
