Al   Se   Li                            
   1.00000000000000     
     0.0212524303662571   -0.0000065270382060   -6.6144538065140699
    -6.9417531385081723   -0.0006448067083331   -0.0000025880946348
    -0.0009402389517255    8.5734507572139478   -0.0075424132974269
   Al   Se   Li
     4     8     4
Direct
  0.8477961565914859  0.9312754891966807  0.1387478349132313
  0.3513973327716562  0.0651600376020474  0.8856154362479796
  0.0126698179132737  0.4304841086284900  0.3861394499263184
  0.5115360244298865  0.5623339380065825  0.6389994907459799
  0.9839949428084931  0.0487059159322470  0.8979828759714121
  0.4819117146558695  0.9384698319474356  0.1254672827647874
  0.9092423452462602  0.5862364380677801  0.1501910094321514
  0.9557834152119080  0.0842114566519192  0.3753923459557003
  0.4149945598165206  0.4088078451091635  0.8780125249261498
  0.4541898538428659  0.9090906934359426  0.6486646715538722
  0.8791072711078860  0.5599670880878391  0.6230554005877287
  0.3790344889078548  0.4366807247225891  0.3999011800795176
  0.9280424322770048  0.4080241530177587  0.8906039006608935
  0.8441449751794263  0.9290273356712707  0.6344837973696921
  0.5143579627697690  0.5683758938550246  0.1390466136162014
  0.3473505411919205  0.0657505879485359  0.3887678949748594
 
             NaN             NaN             NaN
             NaN             NaN             NaN
             NaN             NaN             NaN
             NaN             NaN             NaN
             NaN             NaN             NaN
             NaN             NaN             NaN
             NaN             NaN             NaN
             NaN             NaN             NaN
             NaN             NaN             NaN
             NaN             NaN             NaN
             NaN             NaN             NaN
             NaN             NaN             NaN
             NaN             NaN             NaN
             NaN             NaN             NaN
             NaN             NaN             NaN
             NaN             NaN             NaN
