Al   Se   Li
1.0
  6.943023660767107 -0.0044601024290561 -1.14708928146e-05
  0.0112156402270344 8.57458296625297 0.0079087999623972
  -0.0295866876673485 -1.4348865813e-06 6.61442998681346
 Al  Se  Li 
4 8 4 
direct
   -0.9288373156591399   0.1380314731414268  -0.8371974013163843
   -0.0598249174403138   0.8853136352942971  -0.3381864665020063
   -0.4266513310555546   0.3859493229287291  -0.9991939460008749
   -0.5595023721064898   0.6381868407039650  -0.5030552232054657
   -0.0564137728843865   0.9005516638500788  -0.9713831319861702
   -0.9286668997404983   0.1219717727831268  -0.4691947296016832
   -0.5833149270937388   0.1487291808639708  -0.8984559541703016
   -0.0870111133060245   0.3795893938602040  -0.9146162757773437
   -0.4059140038269737   0.8750560750097524  -0.3966326191302227
   -0.9033678963522737   0.6483404673486831  -0.4363455299555738
   -0.5543717903195347   0.6255885055647503  -0.8692990814071779
   -0.4389348115399686   0.3978990908350533  -0.3664661544642920
   -0.4269896211881777   0.8885989730380565  -0.0050970142573210
   -0.9230240345887842   0.6417423860084995  -0.8333139363722351
   -0.5606311359347038   0.1346330693202554  -0.5080903073188002
   -0.0891455948476294   0.3908898591763377  -0.4690260632568381
