Al   Se   Li
1.0
  6.932323978350333 0.0026536281390624 -9.266522276e-07
  0.0015927514665025 8.565300832665564 -0.0114649333664367
  -0.0158421955594377 4.5365570092e-06 6.6144478515889205
 Al  Se  Li 
4 8 4 
direct
   -0.9300790828561479   0.1390113801313132  -0.8467412391857255
   -0.0643691254276832   0.8858724543650727  -0.3486892548639591
   -0.4299219273611913   0.3867295068882448  -0.0101807251525588
   -0.5624905952514407   0.6396011456670390  -0.5083508001828687
   -0.0478840600566593   0.8981737395470928  -0.9817083833017674
   -0.9389617473007704   0.1255502393952607  -0.4807921650206433
   -0.5835977750700897   0.1503111069392939  -0.9037653571882356
   -0.0828021493144216   0.3757454477490068  -0.9553381978183101
   -0.4117266846518818   0.8768046476465194  -0.3972812922498161
   -0.9102248018664594   0.6486334390493353  -0.4540927097463847
   -0.5564090122297420   0.6250845717369694  -0.8752642590337318
   -0.4381496513158689   0.3995232993893592  -0.3765160923203367
   -0.4148196276465145   0.8896296629794423  -0.9745805573280226
   -0.9272262931378822   0.6346671519001676  -0.8440752722634424
   -0.5674045334171157   0.1369661771446753  -0.5115507535645510
   -0.0665344709773653   0.3887677391975889  -0.3466267755017501
