Al   Se   Li                            
   1.00000000000000     
     0.0079060034570653   -0.0000184699253868   -6.6144895360649798
    -6.9852636013972296   -0.0160111050450235   -0.0000236765758089
     0.0196365381540394    8.4872959214797259    0.0909866383368113
   Al   Se   Li
     4     8     4
Direct
  0.8638135882945582  0.9245872082577974  0.1387479233661658
  0.3570350114204136  0.0663182745943024  0.8893762892249990
  0.0291263782525205  0.4300406689860575  0.3886728727471687
  0.4997771427672047  0.5657567252165608  0.6414300585842534
  0.9920310108488993  0.0572813050815599  0.8986611799067151
  0.4960004359317183  0.9352958195390007  0.1274819754101804
  0.9592294395092497  0.5902171142147512  0.1421151458907965
  0.9642918804486460  0.0858853795067064  0.3770693409875745
  0.4644568393284239  0.3989338509769820  0.8858175043226455
  0.4662447141265311  0.9098274187892184  0.6517187351679871
  0.8941884725112202  0.5611694684036169  0.6245599359271867
  0.3988774551701908  0.4281897919716034  0.3969360356628256
  0.8636899915907256  0.3989287924174902  0.8904941563961478
  0.8619144958272618  0.9192590690782768  0.6332627736093847
  0.3516637242054548  0.5995263285129740  0.1249643251950181
  0.3532132544892839  0.0613843223338850  0.3897634573268765
 
             NaN             NaN             NaN
             NaN             NaN             NaN
             NaN             NaN             NaN
             NaN             NaN             NaN
             NaN             NaN             NaN
             NaN             NaN             NaN
             NaN             NaN             NaN
             NaN             NaN             NaN
             NaN             NaN             NaN
             NaN             NaN             NaN
             NaN             NaN             NaN
             NaN             NaN             NaN
             NaN             NaN             NaN
             NaN             NaN             NaN
             NaN             NaN             NaN
             NaN             NaN             NaN
