Al   Se   Li                            
   1.00000000000000     
     0.0085055056026782   -0.0000324032937644   -6.6145312205410498
    -6.9461870694336740   -0.0065039215829716   -0.0000482798038454
     0.0082482577958750    8.4038523906642197    0.1009918326613582
   Al   Se   Li
     4     8     4
Direct
  0.8592411923700367  0.9254271616639258  0.1365573781669170
  0.3611811429962501  0.0708094399098928  0.8883370648303843
  0.9384168204882800  0.4212999993758537  0.3790533459517820
  0.3569935133817107  0.5669844119504008  0.6376113247209786
  0.9937086857914665  0.0589884872178635  0.8970644742989312
  0.4952157188849935  0.9350969803148410  0.1311098758712436
  0.9749909813355149  0.5921512444735557  0.1359118950032499
  0.9805216511682411  0.0794911539632600  0.3782729186378380
  0.4676973339419478  0.4030400181021004  0.8783581566390982
  0.4696920801532938  0.9002101292823677  0.6548300331234096
  0.9885139425858267  0.5661620934286175  0.6310669553432080
  0.4808840181410476  0.4319641310249921  0.3985398318399420
  0.8529951154876223  0.3993885165691700  0.8840765739546912
  0.8536088154031658  0.9130169827067365  0.6368953813201127
  0.3685057342345752  0.5863309305954794  0.1368268842842730
  0.3733870883583212  0.0822398573017962  0.3965596157398999
 
             NaN             NaN             NaN
             NaN             NaN             NaN
             NaN             NaN             NaN
             NaN             NaN             NaN
             NaN             NaN             NaN
             NaN             NaN             NaN
             NaN             NaN             NaN
             NaN             NaN             NaN
             NaN             NaN             NaN
             NaN             NaN             NaN
             NaN             NaN             NaN
             NaN             NaN             NaN
             NaN             NaN             NaN
             NaN             NaN             NaN
             NaN             NaN             NaN
             NaN             NaN             NaN
