Al   Se   Li
1.0
  6.9579535456160615 -0.0038985389432122 -1.4985639677e-05
  -0.0069443095622693 8.561286580662976 -0.0144696433829604
  0.0059448742011676 -3.4253677781e-06 6.61442403188831
 Al  Se  Li 
4 8 4 
direct
   -0.9267647980606175   0.1357585323079943  -0.8330514177755947
   -0.0614003074492593   0.8850568225482303  -0.3374105978747777
   -0.4246763029373107   0.3855013326848699  -0.9965800528028761
   -0.5629165368195965   0.6386741184784842  -0.4966253490922732
   -0.0556946594302292   0.8994365069856309  -0.9698828647036878
   -0.9327609427084635   0.1243018286340431  -0.4652420029620901
   -0.5814925241473993   0.1490822707625991  -0.8911892733734128
   -0.0862748890907813   0.3771024761342465  -0.9106027498642709
   -0.4078280254517541   0.8758764086437467  -0.3912974166325978
   -0.9066871880317612   0.6471360914838004  -0.4372115814990986
   -0.5468147497097857   0.6261074237612616  -0.8633406591109070
   -0.4377913404633786   0.3990497700836623  -0.3628244197648882
   -0.4249965934963382   0.8901007349065857  -0.0004362409848337
   -0.9125403459395359   0.6387898427474124  -0.8571460526117455
   -0.5648664744290208   0.1355801009641542  -0.4990780551150142
   -0.0990958597153261   0.3935174485991145  -0.5036351005541544
