Al   Se   Li
1.0
  6.9662920029017785 -0.0035099479932498 -1.85003865393e-05
  -0.004565974938107 8.561421263912374 -0.0075144348117309
  0.0064919545031451 -5.4158489749e-06 6.61441807696316
 Al  Se  Li 
4 8 4 
direct
   -0.9272404947412333   0.1360373983814930  -0.8305043654703884
   -0.0609202784134685   0.8853706026719925  -0.3349932042997366
   -0.4260912405165226   0.3857922320317307  -0.9957775259941524
   -0.5643556905002395   0.6388974138220438  -0.4939188753717788
   -0.0594180682824959   0.9012845038478590  -0.9666540424934097
   -0.9314606797827379   0.1243324117238173  -0.4628593889134064
   -0.5829791443044803   0.1493144748196334  -0.8908513261645915
   -0.0894646338827763   0.3770179688306708  -0.9040720737402465
   -0.4066537995136874   0.8758372169194785  -0.3915383041005320
   -0.9038954130633473   0.6449792680282760  -0.4183152514414052
   -0.5477083076986768   0.6263849688980673  -0.8610493945981742
   -0.4364761884648379   0.3992493304112774  -0.3617988232070006
   -0.4271505191537441   0.8903795772881535  -0.0009651906244271
   -0.9078039086767615   0.6350378688153735  -0.9029904512762448
   -0.5638909044897800   0.1356432598476990  -0.4985129534108927
   -0.0970922663961368   0.3955132133884185  -0.5007526636158751
