Al   Se   Li                            
   1.00000000000000     
     0.0040171412878111   -0.0000343937749612   -6.6145371754662001
    -6.9362281575129119   -0.0057476828007650   -0.0000517945507077
     0.0073983165170747    8.3900893999618908    0.0876858090844889
   Al   Se   Li
     4     8     4
Direct
  0.8609327046333192  0.9238915656159629  0.1374411019694463
  0.3605929054023456  0.0702114346949775  0.8885322348852077
  0.8950723988771075  0.4218195406356186  0.3809121091568318
  0.3612731957430820  0.5668827739734333  0.6371109702879907
  0.9939319117002545  0.0590891234970730  0.8968269833987473
  0.4958083731611126  0.9346546121043844  0.1311816601733361
  0.9766107004652036  0.5907012634677704  0.1394449384434325
  0.9815145897351659  0.0833491189204443  0.3773646244541690
  0.4691867377391666  0.4026471925342136  0.8780017128125435
  0.4711920174997997  0.9005472812672498  0.6539157662020376
  0.9944583916408981  0.5641073151003454  0.6287461379002148
  0.5014147886157932  0.4321850010843566  0.3980574477522162
  0.8552287723767230  0.4012558709045293  0.8843737301693824
  0.8559153684699103  0.9121119819290139  0.6360728347308150
  0.3688706495924500  0.5854484599434530  0.1374544029140353
  0.3735503290699753  0.0836990022079421  0.3956350544755997
 
             NaN             NaN             NaN
             NaN             NaN             NaN
             NaN             NaN             NaN
             NaN             NaN             NaN
             NaN             NaN             NaN
             NaN             NaN             NaN
             NaN             NaN             NaN
             NaN             NaN             NaN
             NaN             NaN             NaN
             NaN             NaN             NaN
             NaN             NaN             NaN
             NaN             NaN             NaN
             NaN             NaN             NaN
             NaN             NaN             NaN
             NaN             NaN             NaN
             NaN             NaN             NaN
