Al   Se   Li                            
   1.00000000000000     
     0.0163098370207848   -0.0000025460758123   -6.6144418966637701
    -6.9321357488943685    0.0063687223373525    0.0000044413990899
     0.0035938423107848    8.5659522981766418    0.0115324761817911
   Al   Se   Li
     4     8     4
Direct
  0.8435958802075818  0.9290480284462389  0.1396107797901054
  0.3417629055147502  0.0616677946924391  0.8867053967027776
  0.0032889189859265  0.4271422931125636  0.3858874764389585
  0.5052272797054527  0.5614681003163796  0.6390133378062107
  0.9754294228941016  0.0534157810381058  0.8995663213343016
  0.4766822491250397  0.9351187994123977  0.1250167239304388
  0.8978421615139612  0.5813166894693380  0.1486913507074321
  0.9545819458544831  0.0798158161747117  0.3768273348133153
  0.3964443780137066  0.4088137932566000  0.8757069272500543
  0.4481421736930919  0.9079462977630922  0.6503070972750340
  0.8711701869243565  0.5526607392973488  0.6255215040705896
  0.3702705976184126  0.4436709305649465  0.3981711975386212
  0.0049111491211672  0.4251044534679512  0.8887684992540528
  0.8404227991017000  0.9242406116698955  0.6370087029007151
  0.5078153871267935  0.5643341884029266  0.1346570252977106
  0.3779663993220259  0.0768372207982954  0.3896120346165031
 
             NaN             NaN             NaN
             NaN             NaN             NaN
             NaN             NaN             NaN
             NaN             NaN             NaN
             NaN             NaN             NaN
             NaN             NaN             NaN
             NaN             NaN             NaN
             NaN             NaN             NaN
             NaN             NaN             NaN
             NaN             NaN             NaN
             NaN             NaN             NaN
             NaN             NaN             NaN
             NaN             NaN             NaN
             NaN             NaN             NaN
             NaN             NaN             NaN
             NaN             NaN             NaN
