Al   Se   Li
1.0
  6.985299594393814 -0.0160891674658738 -2.90446271264e-05
  -0.0197252789480289 8.486832082380152 -0.0942611356619398
  -0.0086775035014236 -1.13872925653e-05 6.6144002121877
 Al  Se  Li 
4 8 4 
direct
   -0.9255945443477043   0.1417440550614912  -0.8549369602788651
   -0.0614868587766355   0.8887517332079561  -0.3223462822203649
   -0.4253113227041098   0.3895009282442582  -0.9951812324666169
   -0.5671013025257812   0.6387849037927217  -0.4879219113668076
   -0.0634677296086634   0.8967429065995134  -0.9523403059472635
   -0.9303248091416135   0.1246379670163708  -0.4565951805907505
   -0.5815916239995648   0.1518195244962958  -0.8855879598182854
   -0.0927825363082313   0.3860286403475290  -0.8871934749512234
   -0.4056863715498092   0.8770721576677851  -0.3875307980349346
   -0.9014903504692767   0.6420753624265986  -0.3927358913750686
   -0.5562412396242127   0.6275182963408604  -0.8558483246733015
   -0.4343289166369927   0.3985949374888627  -0.3600525361871280
   -0.4301278368294063   0.8897342557780342  -0.9987731332931952
   -0.8918681611191239   0.6249175844909035  -0.0006005438337916
   -0.5727149101521265   0.1330861347286452  -0.4899226646374149
   -0.0924830240877196   0.3900623220380391  -0.4879866350475198
