Al   Se   Li                            
   1.00000000000000     
     0.0167074121604916   -0.0000264318501740   -6.6145133557655900
    -6.9495352034688471   -0.0101757597962557   -0.0000377355632583
     0.0124582694946790    8.4577357073914055    0.1929049567500378
   Al   Se   Li
     4     8     4
Direct
  0.8656602343306217  0.9251228603735462  0.1383570928196809
  0.3584403327845904  0.0708361617338251  0.8891474650744370
  0.0566993153278224  0.4230664136215838  0.3775492589615747
  0.3378404600937860  0.5739479261803402  0.6498811587549433
  0.9925341702263577  0.0587541571094102  0.8979057898200726
  0.4983294752444031  0.9376135708603207  0.1296380168331248
  0.9626042481092238  0.5887886098881669  0.1377372022227632
  0.9700419439760941  0.0835054565181439  0.3793696110904409
  0.4695455594597897  0.4022811276845436  0.8776594713951503
  0.4690755592279296  0.8998547427751811  0.6577389392927342
  0.9723054519048727  0.5632088779358218  0.6273111149993594
  0.4249833560610439  0.4321081755318651  0.4001645777857131
  0.8585314433336362  0.4009424831143904  0.8840954612746654
  0.8576169338736261  0.9132995044095982  0.6351032689976469
  0.3591585732798273  0.5956560385583572  0.1238358139122313
  0.3621867774886690  0.0636154315857496  0.3955774664914713
 
             NaN             NaN             NaN
             NaN             NaN             NaN
             NaN             NaN             NaN
             NaN             NaN             NaN
             NaN             NaN             NaN
             NaN             NaN             NaN
             NaN             NaN             NaN
             NaN             NaN             NaN
             NaN             NaN             NaN
             NaN             NaN             NaN
             NaN             NaN             NaN
             NaN             NaN             NaN
             NaN             NaN             NaN
             NaN             NaN             NaN
             NaN             NaN             NaN
             NaN             NaN             NaN
