Al   Se   Li
1.0
  6.9321357488943685 -0.0063687223373525 -4.4413990899e-06
  0.0035938423107848 8.565952298176642 0.0115324761817911
  -0.0163098370207848 2.5460758123e-06 6.61444189666377
 Al  Se  Li 
4 8 4 
direct
   -0.9290480284462387   0.1396107797901054  -0.8435958802075818
   -0.0616677946924391   0.8867053967027775  -0.3417629055147502
   -0.4271422931125635   0.3858874764389585  -0.0032889189859265
   -0.5614681003163795   0.6390133378062107  -0.5052272797054527
   -0.0534157810381058   0.8995663213343015  -0.9754294228941016
   -0.9351187994123976   0.1250167239304388  -0.4766822491250398
   -0.5813166894693381   0.1486913507074321  -0.8978421615139612
   -0.0798158161747117   0.3768273348133153  -0.9545819458544832
   -0.4088137932565999   0.8757069272500543  -0.3964443780137066
   -0.9079462977630922   0.6503070972750340  -0.4481421736930920
   -0.5526607392973487   0.6255215040705896  -0.8711701869243567
   -0.4436709305649464   0.3981711975386211  -0.3702705976184126
   -0.4251044534679511   0.8887684992540527  -0.0049111491211672
   -0.9242406116698952   0.6370087029007151  -0.8404227991017000
   -0.5643341884029265   0.1346570252977106  -0.5078153871267935
   -0.0768372207982954   0.3896120346165031  -0.3779663993220259
