Al   Se   Li
1.0
  6.973161189949953 0.0154465456477134 3.4220816396e-05
  0.0188412632271369 8.47551574532905 0.1180337192685511
  -0.0143139241879315 2.44413689772e-05 6.61450740084044
 Al  Se  Li 
4 8 4 
direct
   -0.9247402654397816   0.1387615029049765  -0.8644284424350271
   -0.0676352751442513   0.8885989714293476  -0.3570497302047548
   -0.4277871125645362   0.3849208056937922  -0.0438465517646765
   -0.5709176885732131   0.6471755544590423  -0.3731629520774664
   -0.0575472719575539   0.8980931772072325  -0.9921136487444721
   -0.9357675955181169   0.1273260088181939  -0.4965156336207389
   -0.5897516287522350   0.1416669964664342  -0.9595130730299671
   -0.0864254337183638   0.3778776391503934  -0.9644632298525366
   -0.3990516051243404   0.8818094329066812  -0.4717890251684387
   -0.9051675245062537   0.6530162184153538  -0.4719109684263750
   -0.5659394553216378   0.6323454417120039  -0.9706601887490488
   -0.4267758950387083   0.3943416351976760  -0.4172302994801898
   -0.4006960181831593   0.8867895645044572  -0.8638672253131295
   -0.9146353234049033   0.6331821628707796  -0.8629449048146907
   -0.5984136299072561   0.1244959141057997  -0.3523531740110512
   -0.0613498147264657   0.3906706838837535  -0.3537047870297390
