Al   Se   Li                            
   1.00000000000000     
     0.0160523139962455    0.0000193492173525   -6.6143763924870900
    -6.9499172046218174    0.0082857804464595    0.0000431036145758
    -0.0102651980788099    8.4547986398439257   -0.1982964962280258
   Al   Se   Li
     4     8     4
Direct
  0.0152999732115994  0.9174878720283910  0.1499666875145612
  0.2951743216318437  0.0688590872722435  0.8769554636386385
  0.9937252598725745  0.4206881509314381  0.3894812147392237
  0.4861274556908569  0.5665795383308161  0.6382904776017515
  0.9268222211913905  0.0590894545523567  0.9005121609116350
  0.3805092478830701  0.9285869946619310  0.1265630740264512
  0.8831748915028335  0.5919690427645466  0.1582926963417763
  0.8829256100404119  0.0892648474511396  0.3776526019584161
  0.3809085629179237  0.4085755142823013  0.8793415912710146
  0.3886096583455101  0.9027877592642649  0.6369808784574529
  0.8534443269321830  0.5538165349134643  0.6301252542428395
  0.3596404131550927  0.4325856026651911  0.3978107896911497
  0.9885473540605860  0.4273166238755773  0.8961963435991903
  0.9917185114264642  0.8960871587603763  0.6241212690194722
  0.4947442554024352  0.5783743609309407  0.1351579654270647
  0.4941817714576984  0.0905329951958976  0.3836232412851674
 
             NaN             NaN             NaN
             NaN             NaN             NaN
             NaN             NaN             NaN
             NaN             NaN             NaN
             NaN             NaN             NaN
             NaN             NaN             NaN
             NaN             NaN             NaN
             NaN             NaN             NaN
             NaN             NaN             NaN
             NaN             NaN             NaN
             NaN             NaN             NaN
             NaN             NaN             NaN
             NaN             NaN             NaN
             NaN             NaN             NaN
             NaN             NaN             NaN
             NaN             NaN             NaN
