100% icsd_280225.cif, 0% icsd_280225.ci
1.0
  6.916840005659958 -7.6615664673e-06 -6.06773488876e-05
  -9.278485115e-06 8.356401316898392 -3.71052406918e-05
  -5.80641756928e-05 -2.93016233365e-05 6.614346617861334
 Al  Se  Li 
4 8 4 
direct
   -0.9228162360003367   0.1385403394883298  -0.9877931139002597
   -0.0688409187935264   0.8864636426025714  -0.4877951680400514
   -0.4228168377756916   0.3864628755997970  -0.9877956689172720
   -0.5688437338638365   0.6385402335948527  -0.4877914757500150
   -0.0599607783820417   0.8960045120373438  -0.8538855867232584
   -0.9317046420244850   0.1290027976291128  -0.3538819822085700
   -0.5901952172074444   0.1490420106441164  -0.8741811302972238
   -0.0901962066479385   0.3759623717262884  -0.8741818623626257
   -0.4014589600550451   0.8759611407288902  -0.3741800550230394
   -0.9014619020758800   0.6490428120643729  -0.3741796403995323
   -0.5599612355320572   0.6289968184421610  -0.8538813402510924
   -0.4317088776500526   0.3960001965234525  -0.3538840571694308
   -0.4086411580625935   0.8907653595674462  -0.9841394282133537
   -0.9086313234906241   0.6342256203192137  -0.9841334231192035
   -0.5830461023679090   0.1342182448714979  -0.4841461977885970
   -0.0830492034038883   0.3907710241605571  -0.4841500034145341
