Al   Se   Li
1.0
  6.955406965092953 0.0070414131201876 4.12503101207e-05
  0.0088234443398017 8.41732113026572 0.1166367644286759
  -0.013017460413789 2.84223313708e-05 6.61451931069074
 Al  Se  Li 
4 8 4 
direct
   -0.9257232242134498   0.1369033587838471  -0.8606400182743075
   -0.0705937787218095   0.8884439666398488  -0.3600721745501668
   -0.4217700056169242   0.3781418897865043  -0.0226129102469860
   -0.5705889679120473   0.6434597358378187  -0.3465517540429284
   -0.0593948227900101   0.8970653403529897  -0.9932189951455661
   -0.9358715412169784   0.1306205455890991  -0.4954266047739106
   -0.5918421324072560   0.1347514661729035  -0.9689281518837448
   -0.0787028890616094   0.3790639278724112  -0.9753038586896252
   -0.4024649126527377   0.8777258211852613  -0.4677973918219074
   -0.8997302519948059   0.6553875296599943  -0.4693732553809752
   -0.5665647634525407   0.6317948829916767  -0.9786886575705256
   -0.4309525263687661   0.3972123255669552  -0.4327332063442316
   -0.3991118046981587   0.8843398990077400  -0.8532126725389387
   -0.9133590778550588   0.6369760506129334  -0.8538758630629775
   -0.5896816335177815   0.1324249480581996  -0.3662721334473966
   -0.0762492054008996   0.3967600216077918  -0.3708461869481274
