Al   Se   Li                            
   1.00000000000000     
     0.0130174604137890   -0.0000284223313708   -6.6145193106907403
    -6.9554069650929531   -0.0070414131201876   -0.0000412503101207
     0.0088234443398017    8.4173211302657194    0.1166367644286759
   Al   Se   Li
     4     8     4
Direct
  0.8606400182743075  0.9257232242134501  0.1369033587838471
  0.3600721745501669  0.0705937787218095  0.8884439666398487
  0.0226129102469860  0.4217700056169243  0.3781418897865042
  0.3465517540429285  0.5705889679120475  0.6434597358378186
  0.9932189951455663  0.0593948227900101  0.8970653403529897
  0.4954266047739107  0.9358715412169785  0.1306205455890991
  0.9689281518837450  0.5918421324072562  0.1347514661729035
  0.9753038586896253  0.0787028890616094  0.3790639278724111
  0.4677973918219075  0.4024649126527378  0.8777258211852612
  0.4693732553809752  0.8997302519948061  0.6553875296599943
  0.9786886575705257  0.5665647634525408  0.6317948829916766
  0.4327332063442317  0.4309525263687662  0.3972123255669551
  0.8532126725389387  0.3991118046981588  0.8843398990077400
  0.8538758630629774  0.9133590778550591  0.6369760506129333
  0.3662721334473967  0.5896816335177815  0.1324249480581996
  0.3708461869481275  0.0762492054008996  0.3967600216077918
 
             NaN             NaN             NaN
             NaN             NaN             NaN
             NaN             NaN             NaN
             NaN             NaN             NaN
             NaN             NaN             NaN
             NaN             NaN             NaN
             NaN             NaN             NaN
             NaN             NaN             NaN
             NaN             NaN             NaN
             NaN             NaN             NaN
             NaN             NaN             NaN
             NaN             NaN             NaN
             NaN             NaN             NaN
             NaN             NaN             NaN
             NaN             NaN             NaN
             NaN             NaN             NaN
