Al   Se   Li                            
   1.00000000000000     
    -0.0119885277278100   -0.0000164794441900   -6.6144835811398304
    -6.9585734896633964   -0.0090673225926481   -0.0000201618289466
     0.0113294475008909    8.5268688075752586   -0.0455919583188362
   Al   Se   Li
     4     8     4
Direct
  0.8618115546511262  0.9254582653866203  0.1385660328379189
  0.3618271779801292  0.0660204704743976  0.8859999698354473
  0.0248605967074312  0.4287444069733196  0.3884036562333669
  0.5260849752846443  0.5628431652486408  0.6361321040667958
  0.9950373292863265  0.0567688103270808  0.8995816962467057
  0.4950708248849098  0.9351636566304214  0.1247201054290309
  0.9597701690772656  0.5899316139432864  0.1440856675880207
  0.9632705909272143  0.0841962825346317  0.3761216292302857
  0.4561575630475168  0.4020100501578645  0.8803135222481031
  0.4632903001244104  0.9074991638946058  0.6476447137359350
  0.8939475967141229  0.5602127933934827  0.6267726171466281
  0.3936170031171112  0.4309034458226574  0.3994194208286585
  0.8513688791226831  0.3952257131436213  0.9012645038693960
  0.8549417179620012  0.9286022790175203  0.6368854215557246
  0.3591075673635193  0.5949182758213827  0.1270762832487625
  0.3553899884720404  0.0641031451113227  0.3880843656248916
 
             NaN             NaN             NaN
             NaN             NaN             NaN
             NaN             NaN             NaN
             NaN             NaN             NaN
             NaN             NaN             NaN
             NaN             NaN             NaN
             NaN             NaN             NaN
             NaN             NaN             NaN
             NaN             NaN             NaN
             NaN             NaN             NaN
             NaN             NaN             NaN
             NaN             NaN             NaN
             NaN             NaN             NaN
             NaN             NaN             NaN
             NaN             NaN             NaN
             NaN             NaN             NaN
