Al   Se   Li                            
   1.00000000000000     
     0.0115607489385937    0.0000133777737621   -6.6143942572625498
    -6.9834340833496436    0.0164791735760369    0.0000325593739888
    -0.0201551786721255    8.4846358824992993   -0.1081571353724338
   Al   Se   Li
     4     8     4
Direct
  0.8979029028846119  0.9232372666916284  0.1446424972744965
  0.3179443652411793  0.0610464070415374  0.8890488524248670
  0.9970573554150785  0.4255967464588689  0.3899594835401202
  0.4866536290443199  0.5675457113481746  0.6390873791571725
  0.9444259127146744  0.0650175646011890  0.8946264113585046
  0.4323742269728419  0.9288160265211856  0.1265646329923332
  0.8834665120462574  0.5813026652777146  0.1522603898339494
  0.8841645383302198  0.0937677348049313  0.3862374380646276
  0.3872542869553965  0.4052961896217483  0.8771328610867123
  0.3922439954164609  0.9020084956336067  0.6416868162315377
  0.8553989929386440  0.5558580985325995  0.6273636499005588
  0.3607728916170765  0.4341608552456419  0.3983400101919602
  0.9993956143743534  0.4305851363674422  0.8896427361938780
  0.0011240077337085  0.8914328025166541  0.6247664913968668
  0.4885268450000971  0.5757532444955862  0.1323827590963014
  0.4868477580376092  0.0911765927224650  0.3873293009819641
 
             NaN             NaN             NaN
             NaN             NaN             NaN
             NaN             NaN             NaN
             NaN             NaN             NaN
             NaN             NaN             NaN
             NaN             NaN             NaN
             NaN             NaN             NaN
             NaN             NaN             NaN
             NaN             NaN             NaN
             NaN             NaN             NaN
             NaN             NaN             NaN
             NaN             NaN             NaN
             NaN             NaN             NaN
             NaN             NaN             NaN
             NaN             NaN             NaN
             NaN             NaN             NaN
