Al   Se   Li
1.0
  6.941753138508172 0.0006448067083331 2.5880946348e-06
  -0.0009402389517255 8.573450757213948 -0.0075424132974269
  -0.0212524303662571 6.527038206e-06 6.61445380651407
 Al  Se  Li 
4 8 4 
direct
   -0.9312754891966807   0.1387478349132313  -0.8477961565914861
   -0.0651600376020474   0.8856154362479793  -0.3513973327716562
   -0.4304841086284900   0.3861394499263184  -0.0126698179132737
   -0.5623339380065826   0.6389994907459798  -0.5115360244298865
   -0.0487059159322470   0.8979828759714119  -0.9839949428084932
   -0.9384698319474358   0.1254672827647874  -0.4819117146558696
   -0.5862364380677800   0.1501910094321514  -0.9092423452462602
   -0.0842114566519192   0.3753923459557003  -0.9557834152119081
   -0.4088078451091636   0.8780125249261498  -0.4149945598165207
   -0.9090906934359427   0.6486646715538722  -0.4541898538428660
   -0.5599670880878391   0.6230554005877286  -0.8791072711078861
   -0.4366807247225891   0.3999011800795176  -0.3790344889078548
   -0.4080241530177587   0.8906039006608935  -0.9280424322770049
   -0.9290273356712706   0.6344837973696920  -0.8441449751794265
   -0.5683758938550246   0.1390466136162014  -0.5143579627697691
   -0.0657505879485359   0.3887678949748594  -0.3473505411919205
