Al   Se   Li
1.0
  6.946187069433674 0.0065039215829716 4.82798038454e-05
  0.008248257795875 8.40385239066422 0.1009918326613582
  -0.0085055056026782 3.24032937644e-05 6.61453122054105
 Al  Se  Li 
4 8 4 
direct
   -0.9254271616639258   0.1365573781669170  -0.8592411923700369
   -0.0708094399098928   0.8883370648303843  -0.3611811429962501
   -0.4212999993758538   0.3790533459517820  -0.9384168204882801
   -0.5669844119504009   0.6376113247209787  -0.3569935133817108
   -0.0589884872178635   0.8970644742989312  -0.9937086857914668
   -0.9350969803148411   0.1311098758712436  -0.4952157188849936
   -0.5921512444735558   0.1359118950032499  -0.9749909813355150
   -0.0794911539632600   0.3782729186378380  -0.9805216511682412
   -0.4030400181021004   0.8783581566390984  -0.4676973339419478
   -0.9002101292823675   0.6548300331234097  -0.4696920801532938
   -0.5661620934286176   0.6310669553432080  -0.9885139425858267
   -0.4319641310249922   0.3985398318399421  -0.4808840181410477
   -0.3993885165691701   0.8840765739546912  -0.8529951154876224
   -0.9130169827067365   0.6368953813201127  -0.8536088154031659
   -0.5863309305954792   0.1368268842842730  -0.3685057342345753
   -0.0822398573017962   0.3965596157398999  -0.3733870883583212
