Al   Se   Li
1.0
  6.95105579469363 -0.0065377156667373 -5.01331083005e-05
  -0.0082927990066364 8.41079735646488 -0.109341782157017
  -0.0105085136022871 -2.33301797461e-05 6.61436448263679
 Al  Se  Li 
4 8 4 
direct
   -0.9236198518196732   0.1392862014476824  -0.9992491972319384
   -0.0703135762363019   0.8782224971998507  -0.3707873061939322
   -0.4207755558902135   0.3882892905021484  -0.9908745485157681
   -0.5655897178614953   0.6363257676035363  -0.4930281696205139
   -0.0601292061547825   0.8982459318125922  -0.8946280884865740
   -0.9245671140742031   0.1320530833630789  -0.3686405257462698
   -0.5916021424545657   0.1551085314931201  -0.8828129397964600
   -0.0886280219393579   0.3782700091279553  -0.8846655595853818
   -0.4135027399814176   0.8787385164514642  -0.3739494544333917
   -0.8989715348273495   0.6345415795432366  -0.3795560785372027
   -0.5562618323909667   0.6310209453250185  -0.8570208890048044
   -0.4324565307089506   0.3971231381324047  -0.3584375008779022
   -0.4109693411024988   0.8968852469669505  -0.9795929830203185
   -0.9044546328886768   0.6357411771837813  -0.9838621833977899
   -0.5781749842383983   0.1371701527869413  -0.4989389469938730
   -0.0925847553121011   0.3840496407860913  -0.4995094632803707
