Al   Se   Li                            
   1.00000000000000     
    -0.0054107328975892   -0.0000124984817964   -6.6144716712895297
    -6.9666953630194337   -0.0032188971600326   -0.0000131323352218
     0.0040674359885840    8.5615742600183840    0.0076976337907701
   Al   Se   Li
     4     8     4
Direct
  0.8578449364822420  0.9272993674275197  0.1388990070765756
  0.3560777889424753  0.0654158647352767  0.8857980994751395
  0.0168227052543501  0.4306699701454365  0.3853562367743273
  0.5213583663088599  0.5643250429729002  0.6360576357726699
  0.9900442638609375  0.0551401401950679  0.8992496336055514
  0.4907130667748919  0.9437390622569608  0.1263863642037979
  0.9328147287803016  0.5876461987406433  0.1450964699051588
  0.9604283609006748  0.0849300863185618  0.3758080527365305
  0.4478890716627067  0.4020113088166327  0.8770139573115496
  0.4609824695331889  0.9085508846540843  0.6493308361966691
  0.8889995129460093  0.5602217768348388  0.6242725209584675
  0.3851307082076546  0.4322481897101160  0.4012889822375201
  0.8515259093746175  0.3946698266865629  0.8954003010222935
  0.8533566822648488  0.9277890518892671  0.6356215616195815
  0.4504132603119343  0.5833822955735397  0.1351279541957078
  0.3511520031166838  0.0645624709234421  0.3903640966342751
 
             NaN             NaN             NaN
             NaN             NaN             NaN
             NaN             NaN             NaN
             NaN             NaN             NaN
             NaN             NaN             NaN
             NaN             NaN             NaN
             NaN             NaN             NaN
             NaN             NaN             NaN
             NaN             NaN             NaN
             NaN             NaN             NaN
             NaN             NaN             NaN
             NaN             NaN             NaN
             NaN             NaN             NaN
             NaN             NaN             NaN
             NaN             NaN             NaN
             NaN             NaN             NaN
