Al   Se   Li
1.0
  6.965308059909534 -0.0045064297372187 -2.20151334017e-05
  -0.0059038813612375 8.552532801559213 -0.0045235248793403
  0.0094772479139878 -7.4063301717e-06 6.61441212203801
 Al  Se  Li 
4 8 4 
direct
   -0.9277408282341153   0.1367269357436514  -0.8293558651533868
   -0.0614252084032196   0.8859902323352651  -0.3322406170383324
   -0.4262841989145794   0.3862826103232547  -0.9940672906176461
   -0.5655606164921055   0.6384679757570461  -0.4915651573166134
   -0.0614174876190958   0.9020116182104286  -0.9634583629832026
   -0.9310999115787233   0.1243496387434240  -0.4615458389376039
   -0.5835568221208042   0.1493278165072282  -0.8902969764787551
   -0.0903793028965711   0.3787098010479503  -0.8991302630837812
   -0.4065430856771772   0.8757221751768460  -0.3911384687629157
   -0.9013249153138229   0.6426317820202101  -0.3972388838171754
   -0.5510729474124423   0.6262939787471532  -0.8586199606195033
   -0.4354073680869534   0.3991614202535695  -0.3602577822007262
   -0.4281461565997192   0.8900300565802358  -0.0002529692507511
   -0.9030459840120663   0.6323919615061936  -0.9485571020985233
   -0.5636576166541669   0.1356669132537287  -0.4979654375071587
   -0.0959390878653517   0.3973067935197893  -0.4998628588561996
