Al   Se   Li                            
   1.00000000000000     
     0.0032892223398360    0.0000273111421397   -6.6143525727864905
    -6.9362434284950938    0.0056093201583101    0.0000571626020252
    -0.0072782571681394    8.3901421928423616   -0.0877472698453928
   Al   Se   Li
     4     8     4
Direct
  0.9906856447859442  0.9246988478746530  0.1371164192791695
  0.4569758449181396  0.0697139646284474  0.8808910088332228
  0.9913800298226721  0.4214270664022799  0.3885494453406161
  0.4910180642348468  0.5676913357994349  0.6374336888940193
  0.8504975513073116  0.0594661141167440  0.8980941248748924
  0.3575005781891962  0.9274141043381801  0.1287018997520067
  0.8807764770924743  0.5910520738564675  0.1539142323140935
  0.8827350595621368  0.0890060039811418  0.3779724779788420
  0.3705297013228793  0.4081880809554855  0.8773547847650051
  0.3751932934734146  0.9008446854487704  0.6394565435017827
  0.8561610181822317  0.5569769250958059  0.6312095062296217
  0.3580501113511895  0.4324157154143324  0.3968388814423095
  0.9786276763154761  0.4078965700248007  0.8956438739338919
  0.9827771860448715  0.9062961486843842  0.6374538158265672
  0.4960051065663083  0.5793419295364047  0.1360743627470714
  0.4966404915534029  0.0901719717236174  0.3843666440127455
 
             NaN             NaN             NaN
             NaN             NaN             NaN
             NaN             NaN             NaN
             NaN             NaN             NaN
             NaN             NaN             NaN
             NaN             NaN             NaN
             NaN             NaN             NaN
             NaN             NaN             NaN
             NaN             NaN             NaN
             NaN             NaN             NaN
             NaN             NaN             NaN
             NaN             NaN             NaN
             NaN             NaN             NaN
             NaN             NaN             NaN
             NaN             NaN             NaN
             NaN             NaN             NaN
