Al   Se   Li
1.0
  6.955400205520837 -0.0069375918578959 -4.66183614382e-05
  -0.0087466547257575 8.417418590429774 -0.1168031697496626
  -0.0122175772539131 -2.13396985493e-05 6.61437043756194
 Al  Se  Li 
4 8 4 
direct
   -0.9210254226168871   0.1434449900923670  -0.0053959090547934
   -0.0697766341881738   0.8781217924539605  -0.3294362950281756
   -0.4210414012767902   0.3884551374185257  -0.9918955882382454
   -0.5658388668816882   0.6368920506225461  -0.4913086419516827
   -0.0607260348784047   0.8972580142497374  -0.9191286935204434
   -0.9249445820389189   0.1317587236146396  -0.3732702651031094
   -0.5918843345739087   0.1553879872654803  -0.8826188474285436
   -0.0891844589150283   0.3777048323951917  -0.8841494146470381
   -0.4128280713394034   0.8790636035050212  -0.3767411225422618
   -0.8996709919865967   0.6347169165005594  -0.3828236429750257
   -0.5557427910832125   0.6306442925365877  -0.8565286460337816
   -0.4321075904580503   0.3970761336952284  -0.3587589400716584
   -0.4153883499432535   0.8967709491854384  -0.9813033041740744
   -0.9020091223311930   0.6324498503865770  -0.9853271608875908
   -0.5781022878501748   0.1369911812563073  -0.4981242880846796
   -0.0923305975192671   0.3843352545476779  -0.4987430749813697
