generated by phonopy                    
   1.00000000000000     
    10.0351470768999995   -0.0000022330999784   -0.0000001056124209
    -5.0175765436399997    8.6906901959899994    0.0000001395531216
    -0.0000001735893656    0.0000001431815548   14.9533752540999991
   Pb   P    O 
    20    13    49
Direct
  0.0047741547330702  0.7855646414876176  0.1104552669437453
  0.9990032184832813  0.7677738504951961  0.6228593270980056
  0.0033468859382424  0.2437587457030475  0.3793214883731935
  0.0000179962384692  0.2573618050496265  0.8758360378701440
  0.1970648799206458  0.2274999457727915  0.1218608562083077
  0.2262954499870347  0.2221789268775893  0.6260090247753283
  0.7554542520710186  0.7572049567080583  0.3687573544440568
  0.7457299820621586  0.7443629023435108  0.8741096628442619
  0.7748769621486247  0.0010824020311162  0.1103574357452715
  0.7737391756713521  0.9986416169919181  0.6249288323820537
  0.2436317312220098  0.9979310441229359  0.3722176058495847
  0.2590094775250122  0.9996727499040574  0.8732136385277585
  0.6468438807692891  0.3322606710533762  0.0120086299801585
  0.6628710453760718  0.3340815384038365  0.4999416403666856
  0.3341770358145126  0.6732471431528992  0.0025864239734972
  0.3401161760525895  0.6595932426821349  0.5002443798935090
  0.3262089961138841  0.6745563469674778  0.2472269066627533
  0.3348148876745114  0.6653680735734397  0.7428456350891608
  0.6942773500317401  0.3273590679860376  0.2565124651443895
  0.6680805267482697  0.3338038173720861  0.7494813999835515
  0.6369439055587875  0.6306589991859539  0.1228762870773821
  0.6250923579354364  0.5913929632877455  0.6269190171976291
  0.3643623125226298  0.3926691694647602  0.3767821118403916
  0.3700875376519619  0.3978372998571160  0.8758327076159560
  0.3919887653465253  0.0198405940169764  0.1208919740211059
  0.4053892977136400  0.0287608899119860  0.6259496214387141
  0.6006511944867086  0.9624436979608504  0.3819274820313936
  0.6043061437687030  0.9729475712984055  0.8672714246885818
  0.9764654635739660  0.3786643334356228  0.1212466598895077
  0.9733894167511608  0.3713648965172922  0.6270934619960968
  0.0374681967255128  0.6364427512500370  0.3763049059050303
  0.0249176432655176  0.6306764940089877  0.8708948264389207
  0.5141619260003196  0.3980077254369121  0.1535304929079402
  0.5265688127217345  0.6994675203045801  0.1141588748112170
  0.5049236837575322  0.6468832300585419  0.6272838173351474
  0.4661388608787433  0.3166343020982367  0.3811576229379838
  0.4685703955845995  0.3174435314977160  0.8766829147655955
  0.3376501079079333  0.8436045303257700  0.1203835935064745
  0.3531798362401659  0.8541839268762743  0.6272507793911331
  0.6714453805032079  0.1376627460495712  0.3953346757039427
  0.6845774240614020  0.1502614707976733  0.8628600575676373
  0.1518468807063513  0.5015710350881619  0.1190232784305536
  0.1476710761262652  0.4951962484880781  0.6278053936851293
  0.8591367786854534  0.5432041612141632  0.3748561568295301
  0.8466598972624055  0.5369915633365494  0.8715450937589893
  0.7302200159875909  0.6560417555261324  0.0325452697102833
  0.7369070689546788  0.6598715830244828  0.5454461816592939
  0.2621301672087171  0.3566675657637788  0.4637345739839560
  0.2611879608856427  0.3539633387544541  0.9588698577752055
  0.3739467116886317  0.0728406293977812  0.0255523724342552
  0.3322883806610335  0.0686303566263433  0.5448717915217074
  0.6332569484338606  0.8862876373856281  0.4647881022835278
  0.6518479411456966  0.9172384332923613  0.9530335811976869
  0.9286727213144133  0.2778121444901913  0.0344595508916825
  0.9361402173412543  0.2590389394149213  0.5461367783935103
  0.0976310459692371  0.7485420395179929  0.4583774964127301
  0.0915042323092692  0.7375751888598927  0.9550941010328131
  0.2456177102931818  0.3283037739507080  0.2979259513665085
  0.2642351438714172  0.3531431382273240  0.7914738977676450
  0.7620731420512854  0.7286675992092526  0.1957321766040607
  0.7252943596797081  0.6418254817308977  0.7139297777054381
  0.6688805879654609  0.9246399119738626  0.2983869333628562
  0.6445961141669940  0.9014688393376105  0.7857602034030720
  0.2879115340402620  0.0460361057822141  0.1882351041140140
  0.3539135098050039  0.0791130154800612  0.7128912556137834
  0.1045986175479428  0.7386176939120759  0.2903190369056574
  0.0904503674128492  0.7395634272623539  0.7879306733568683
  0.9413732062198150  0.2676776011003383  0.2026165177108084
  0.9248548550843410  0.2695197173038366  0.7135561985252323
  0.5403893066031102  0.4110874151719344  0.6216033625917703
  0.4652972266968689  0.5731699230411635  0.3694782934110705
  0.4801277905830901  0.5781362094551525  0.8759833723695820
  0.5659280601352847  0.1124403713357864  0.1463748811161736
  0.5851611984291836  0.1290247805413074  0.6195862287900411
  0.4201136977389197  0.8823768359729840  0.3704292170228882
  0.4234187494665065  0.8993139076186338  0.8682539143250239
  0.8766336916836011  0.4576240012441488  0.1295735350580216
  0.8727174992150211  0.4502905448064851  0.6209779591753630
  0.1084182458400491  0.5273210890048645  0.3803772273719659
  0.0938613352012254  0.5197079028207909  0.8702604647888705
  0.9920027734961536  0.9932327990985854  0.0651331821137262
  0.9988250994429677  0.9940403946377927  0.6375268881443787
 
  0.00000000E+00  0.00000000E+00  0.00000000E+00
  0.00000000E+00  0.00000000E+00  0.00000000E+00
  0.00000000E+00  0.00000000E+00  0.00000000E+00
  0.00000000E+00  0.00000000E+00  0.00000000E+00
  0.00000000E+00  0.00000000E+00  0.00000000E+00
  0.00000000E+00  0.00000000E+00  0.00000000E+00
  0.00000000E+00  0.00000000E+00  0.00000000E+00
  0.00000000E+00  0.00000000E+00  0.00000000E+00
  0.00000000E+00  0.00000000E+00  0.00000000E+00
  0.00000000E+00  0.00000000E+00  0.00000000E+00
  0.00000000E+00  0.00000000E+00  0.00000000E+00
  0.00000000E+00  0.00000000E+00  0.00000000E+00
  0.00000000E+00  0.00000000E+00  0.00000000E+00
  0.00000000E+00  0.00000000E+00  0.00000000E+00
  0.00000000E+00  0.00000000E+00  0.00000000E+00
  0.00000000E+00  0.00000000E+00  0.00000000E+00
  0.00000000E+00  0.00000000E+00  0.00000000E+00
  0.00000000E+00  0.00000000E+00  0.00000000E+00
  0.00000000E+00  0.00000000E+00  0.00000000E+00
  0.00000000E+00  0.00000000E+00  0.00000000E+00
  0.00000000E+00  0.00000000E+00  0.00000000E+00
  0.00000000E+00  0.00000000E+00  0.00000000E+00
  0.00000000E+00  0.00000000E+00  0.00000000E+00
  0.00000000E+00  0.00000000E+00  0.00000000E+00
  0.00000000E+00  0.00000000E+00  0.00000000E+00
  0.00000000E+00  0.00000000E+00  0.00000000E+00
  0.00000000E+00  0.00000000E+00  0.00000000E+00
  0.00000000E+00  0.00000000E+00  0.00000000E+00
  0.00000000E+00  0.00000000E+00  0.00000000E+00
  0.00000000E+00  0.00000000E+00  0.00000000E+00
  0.00000000E+00  0.00000000E+00  0.00000000E+00
  0.00000000E+00  0.00000000E+00  0.00000000E+00
  0.00000000E+00  0.00000000E+00  0.00000000E+00
  0.00000000E+00  0.00000000E+00  0.00000000E+00
  0.00000000E+00  0.00000000E+00  0.00000000E+00
  0.00000000E+00  0.00000000E+00  0.00000000E+00
  0.00000000E+00  0.00000000E+00  0.00000000E+00
  0.00000000E+00  0.00000000E+00  0.00000000E+00
  0.00000000E+00  0.00000000E+00  0.00000000E+00
  0.00000000E+00  0.00000000E+00  0.00000000E+00
  0.00000000E+00  0.00000000E+00  0.00000000E+00
  0.00000000E+00  0.00000000E+00  0.00000000E+00
  0.00000000E+00  0.00000000E+00  0.00000000E+00
  0.00000000E+00  0.00000000E+00  0.00000000E+00
  0.00000000E+00  0.00000000E+00  0.00000000E+00
  0.00000000E+00  0.00000000E+00  0.00000000E+00
  0.00000000E+00  0.00000000E+00  0.00000000E+00
  0.00000000E+00  0.00000000E+00  0.00000000E+00
  0.00000000E+00  0.00000000E+00  0.00000000E+00
  0.00000000E+00  0.00000000E+00  0.00000000E+00
  0.00000000E+00  0.00000000E+00  0.00000000E+00
  0.00000000E+00  0.00000000E+00  0.00000000E+00
  0.00000000E+00  0.00000000E+00  0.00000000E+00
  0.00000000E+00  0.00000000E+00  0.00000000E+00
  0.00000000E+00  0.00000000E+00  0.00000000E+00
  0.00000000E+00  0.00000000E+00  0.00000000E+00
  0.00000000E+00  0.00000000E+00  0.00000000E+00
  0.00000000E+00  0.00000000E+00  0.00000000E+00
  0.00000000E+00  0.00000000E+00  0.00000000E+00
  0.00000000E+00  0.00000000E+00  0.00000000E+00
  0.00000000E+00  0.00000000E+00  0.00000000E+00
  0.00000000E+00  0.00000000E+00  0.00000000E+00
  0.00000000E+00  0.00000000E+00  0.00000000E+00
  0.00000000E+00  0.00000000E+00  0.00000000E+00
  0.00000000E+00  0.00000000E+00  0.00000000E+00
  0.00000000E+00  0.00000000E+00  0.00000000E+00
  0.00000000E+00  0.00000000E+00  0.00000000E+00
  0.00000000E+00  0.00000000E+00  0.00000000E+00
  0.00000000E+00  0.00000000E+00  0.00000000E+00
  0.00000000E+00  0.00000000E+00  0.00000000E+00
  0.00000000E+00  0.00000000E+00  0.00000000E+00
  0.00000000E+00  0.00000000E+00  0.00000000E+00
  0.00000000E+00  0.00000000E+00  0.00000000E+00
  0.00000000E+00  0.00000000E+00  0.00000000E+00
  0.00000000E+00  0.00000000E+00  0.00000000E+00
  0.00000000E+00  0.00000000E+00  0.00000000E+00
  0.00000000E+00  0.00000000E+00  0.00000000E+00
  0.00000000E+00  0.00000000E+00  0.00000000E+00
  0.00000000E+00  0.00000000E+00  0.00000000E+00
  0.00000000E+00  0.00000000E+00  0.00000000E+00
  0.00000000E+00  0.00000000E+00  0.00000000E+00
  0.00000000E+00  0.00000000E+00  0.00000000E+00
