Mg   Sb   N                             
   1.00000000000000     
     0.0001038215157196    0.0000398655830861    5.4148171765013098
    -5.9444204761451545   -0.0160446956728718    0.0001129012092980
     0.0278951576099914  -10.3349188076603227    0.0000759154166017
   Mg   Sb   N 
     8     4    12
Direct
  0.9881236447721994  0.1542115860794638  0.8296366054364126
  0.9881236408269505  0.1542115860720602  0.1703633796441711
  0.4881236639915562  0.8304037770557817  0.1703633962376525
  0.4881236672246156  0.8304037782784015  0.8296365892302247
  0.9881236510275652  0.6542115860492052  0.3296366054477724
  0.9881236471040243  0.6542115871792877  0.6703633801653642
  0.4881236694113100  0.3304037755747246  0.6703633957232142
  0.4881236733408281  0.3304037757129442  0.3296365892781277
  0.9811513850839232  0.6680803962548779  0.9999999981779926
  0.4811513325569299  0.3165349692955404  0.9999999980288454
  0.9811514012387712  0.1680803964358532  0.4999999876812458
  0.4811513499209994  0.8165349667120155  0.4999999877356903
  0.8756445033951479  0.8186363708313146  0.1615658921868726
  0.8756444996526276  0.8186363789394664  0.8384340937558716
  0.8635862833664610  0.3370847777502854  0.9999999906303624
  0.3756444950807661  0.1659788412091579  0.8384341101423152
  0.3756444964955308  0.1659788457364505  0.1615658743072906
  0.3635863206542413  0.6475305737920147 -0.0000000089358015
  0.8756445083771798  0.3186363769522879  0.6615658958809406
  0.8756445098342213  0.3186363745582950  0.3384340977418600
  0.3756445036234176  0.6659788396271745  0.6615658797359499
  0.3756445038307127  0.6659788419883026  0.3384341156984728
  0.8635862996775734  0.8370847783104083  0.4999999966501967
  0.3635863359807873  0.1475305695788395  0.4999999959411492
 
             NaN             NaN             NaN
             NaN             NaN             NaN
             NaN             NaN             NaN
             NaN             NaN             NaN
             NaN             NaN             NaN
             NaN             NaN             NaN
             NaN             NaN             NaN
             NaN             NaN             NaN
             NaN             NaN             NaN
             NaN             NaN             NaN
             NaN             NaN             NaN
             NaN             NaN             NaN
             NaN             NaN             NaN
             NaN             NaN             NaN
             NaN             NaN             NaN
             NaN             NaN             NaN
             NaN             NaN             NaN
             NaN             NaN             NaN
             NaN             NaN             NaN
             NaN             NaN             NaN
             NaN             NaN             NaN
             NaN             NaN             NaN
             NaN             NaN             NaN
             NaN             NaN             NaN
