Mg   Sb   N
1.0
  10.433695923767049 -0.0487901424403855 0.0089681030107189
  0.0194941664411837 5.9970103673018444 -0.000940407423678
  0.0003322656100176 0.0023421535734295 5.43170770874881
 Mg  Sb  N 
8 4 12 
direct
   -0.8265127955053176  -0.1553888062213082   0.9545343759811949
   -0.1770245343207451  -0.1505016950660202   0.9987728560127856
   -0.1770302083956589  -0.8330229449554916   0.4969206349480275
   -0.8244743720783330  -0.8289805275308870   0.4908083834575800
   -0.3311840675580391  -0.6521815819596248   0.0057371347530440
   -0.6683569640629120  -0.6539697431920840   0.0056080650441729
   -0.6668820757432345  -0.3341378313375161   0.5031264675736807
   -0.3303124395969069  -0.3322736713875267   0.5057408021392056
   -0.0005474566834782  -0.6635284537485091   0.8808268627341949
   -0.9994736878291711  -0.3179638478274556   0.3821521147102793
   -0.4995303828948167  -0.1678339875851180   0.9979194013963333
   -0.4997425829435656  -0.8182160855928420   0.4976695347814258
   -0.1672594297537215  -0.8205187247659905   0.8979053271291051
   -0.8337358217522259  -0.8182323665661854   0.9008953374887660
   -0.9992544176902953  -0.3411396799449177   0.9966989836678144
   -0.8344677362711089  -0.1650411728499600   0.4294056109332294
   -0.1668433441528064  -0.1628770379881145   0.3969641055872741
   -0.0010888185398279  -0.6408770195668438   0.4950735013724082
   -0.6573550005559226  -0.3226739842642483   0.8910414990826397
   -0.3406411662506342  -0.3200095538943438   0.8912646857518073
   -0.6580924846588981  -0.6654873070940044   0.3904251169410962
   -0.3411377415773131  -0.6644877787607831   0.3912862020497642
   -0.4998997191131954  -0.8393669528532255   0.8793541816969307
   -0.4991527185251450  -0.1466771096367586   0.3794362286179035
