Mg   Sb   N                             
   1.00000000000000     
    -0.0006528160739787    0.0005582110853738    5.4447594836673199
    -5.9849539213873193   -0.0721341800247023    0.0015798440438807
     0.1364193006615913  -10.4126184459315656    0.0046984702469120
   Mg   Sb   N 
     8     4    12
Direct
  0.8829754524407716  0.1517922470792674  0.8322553794164270
  0.9449168563790834  0.1543823729607336  0.1705273702374241
  0.3882289398244970  0.8278824629933382  0.1672527057961493
  0.3832687875827860  0.8353343001836386  0.8329102164187893
  0.0035266227860248  0.6489666994274819  0.3342091605867381
  0.0033292058092205  0.6511520525911889  0.6670666072731918
  0.5031993462098449  0.3348275273814637  0.6661738913031766
  0.5062144740719985  0.3319011830829482  0.3319181779298954
  0.8860632631126668  0.6679053145975552  0.9989442775813812
  0.3863705459239159  0.3197466478773990  0.9982460223317314
  0.0007893550632480  0.1659855531458651  0.5002902058023181
  0.5003734041118362  0.8177250825319593  0.5002277529972232
  0.9912527214416779  0.8139025144068862  0.1595166482021430
  0.9933420951668295  0.8219915924448946  0.8410749114684186
  0.0042875663172712  0.3410394900848842  0.9962190982200645
  0.4939001681457033  0.1652727750327732  0.8405248393517025
  0.4460537157631926  0.1665239803104475  0.1623180556550675
  0.5062378616472295  0.6474911463538862  0.9990021313316805
  0.8935431961323510  0.3207521460021655  0.6579258125071480
  0.8928373875108286  0.3185479423605016  0.3416919928552185
  0.3938715880415545  0.6654006804427772  0.6588671351936793
  0.3942715997221540  0.6627280252265592  0.3424177940100674
  0.8808978305666447  0.8381160197434538  0.5004232461810764
  0.3809343549430386  0.1460167872981534  0.4999965475240645
 
             NaN             NaN             NaN
             NaN             NaN             NaN
             NaN             NaN             NaN
             NaN             NaN             NaN
             NaN             NaN             NaN
             NaN             NaN             NaN
             NaN             NaN             NaN
             NaN             NaN             NaN
             NaN             NaN             NaN
             NaN             NaN             NaN
             NaN             NaN             NaN
             NaN             NaN             NaN
             NaN             NaN             NaN
             NaN             NaN             NaN
             NaN             NaN             NaN
             NaN             NaN             NaN
             NaN             NaN             NaN
             NaN             NaN             NaN
             NaN             NaN             NaN
             NaN             NaN             NaN
             NaN             NaN             NaN
             NaN             NaN             NaN
             NaN             NaN             NaN
             NaN             NaN             NaN
