Mg   Sb   N                             
   1.00000000000000     
     0.0098301406278119    0.0002525201481272    5.4271011999540404
    -5.9837687763998639   -0.0234805109221289    0.0007147239106652
     0.0408910461098246  -10.4203253578089488    0.0004165698620752
   Mg   Sb   N 
     8     4    12
Direct
  0.9991011612629601  0.1559331950610903  0.8272615213586151
  0.9991011243065303  0.1559331824374884  0.1727384577699993
  0.4951897157492964  0.8311209971141713  0.1770048177282032
  0.4951897459159100  0.8311209614697642  0.8229951985928657
  0.0045421993951456  0.6533282131570560  0.3305767430392425
  0.0045421818027083  0.6533282263297956  0.6694232254983540
  0.5061748168973909  0.3325450770072981  0.6680933777672092
  0.5061748349788562  0.3325450598704257  0.3319066152910455
  0.8837886443181948  0.6651094064913369  0.9999999724416035
  0.4383868863937229  0.3120731899782515  0.9999999740841961
  0.9972526623215073  0.1678181738180999  0.5000000027022358
  0.4976610180202792  0.8175549565667153  0.5000000052258369
  0.8959686395094418  0.8235138015887643  0.1670442486613413
  0.8959686810305784  0.8235138245786701  0.8329557685209242
  0.9380837491700599  0.3316930949037943  0.9999999974225147
  0.3942428399441705  0.1641956886845111  0.8330029524581556
  0.3942427805261114  0.1641957036817368  0.1669970541619006
  0.4851319173293041  0.6475685346016138  0.9999999927189076
  0.8919192694842762  0.3196301921579833  0.6595857128916157
  0.8919192532614499  0.3196301873413847  0.3404143276985208
  0.3903520700239354  0.6641621250395519  0.6586156404762771
  0.3903520574041166  0.6641621022009726  0.3413843692547699
  0.8792982283661395  0.8382717657442770  0.5000000108298783
  0.3794724417328828  0.1464369350105357  0.5000000061173058
 
             NaN             NaN             NaN
             NaN             NaN             NaN
             NaN             NaN             NaN
             NaN             NaN             NaN
             NaN             NaN             NaN
             NaN             NaN             NaN
             NaN             NaN             NaN
             NaN             NaN             NaN
             NaN             NaN             NaN
             NaN             NaN             NaN
             NaN             NaN             NaN
             NaN             NaN             NaN
             NaN             NaN             NaN
             NaN             NaN             NaN
             NaN             NaN             NaN
             NaN             NaN             NaN
             NaN             NaN             NaN
             NaN             NaN             NaN
             NaN             NaN             NaN
             NaN             NaN             NaN
             NaN             NaN             NaN
             NaN             NaN             NaN
             NaN             NaN             NaN
             NaN             NaN             NaN
