Mg   Sb   N
1.0
  10.359934745258558 -0.0406532245612608 -0.0003773609289395
  0.0233805023704515 5.958377822035863 -0.0003009708034752
  0.0001063201346615 -0.0087461927334858 5.41865593383029
 Mg  Sb  N 
8 4 12 
direct
   -0.8289856197270269  -0.1561046923097243   0.0047925905578470
   -0.1710140772927895  -0.1561045209218013   0.0047921189438955
   -0.1717855437782636  -0.8296254132546392   0.4981660817331995
   -0.8282142877272286  -0.8296252609266371   0.4981665013824115
   -0.3309414429432684  -0.6533549587437638   0.0039284425391495
   -0.6690582693083108  -0.6533548878897749   0.0039279772041636
   -0.6701941317219740  -0.3302259667418111   0.5044776014920886
   -0.3298056423849406  -0.3302258188092131   0.5044780568629059
   -0.9999993109086213  -0.6693969455305713   0.9867845454675831
   -0.9999996628786537  -0.3153978776683672   0.4949164045175145
   -0.4999997933476241  -0.1676613373648503   0.9972280197359771
   -0.4999998609803721  -0.8165691021411288   0.4970568245148759
   -0.1634758710833699  -0.8203217899496620   0.8907584323174457
   -0.8365249969517933  -0.8203216181811609   0.8907588300838987
   -0.0000000724145884  -0.3348933363971294   0.8791812566354446
   -0.8378063999516160  -0.1660564994945329   0.3913730268132842
   -0.1621941791155554  -0.1660564628081138   0.3913727663627747
   -0.0000000766655232  -0.6484346965394004   0.3884853515979828
   -0.6608863258909755  -0.3188870863353402   0.8917529388721089
   -0.3391140789230354  -0.3188871842712556   0.8917530931880351
   -0.6602922944478162  -0.6646958360164876   0.3906511274218482
   -0.3397080553171075  -0.6646956511272620   0.3906512486892925
   -0.4999999952879779  -0.8376431112615599   0.8790911943083617
   -0.5000000036631385  -0.1468445401510666   0.3795124879023283
