Mg   Sb   N                             
   1.00000000000000     
     0.0034240952655779    0.0004253019822231    5.4370819690093697
    -5.9922692758595240   -0.0220212712495613    0.0012037048555262
     0.0443047469275898  -10.4158794428228028   -0.0080651050060147
   Mg   Sb   N 
     8     4    12
Direct
  0.8832866046357536  0.1559710547599513  0.8322797208154733
  0.0006048192026576  0.1491877211206159  0.1762928626578261
  0.4997952254174849  0.8333373661301702  0.1764261979121207
  0.4128129230555089  0.8303975586887795  0.8301313789416361
  0.0062672735757381  0.6514088473154929  0.3304244991368067
  0.0033511667328315  0.6524056407250161  0.6665593977083369
  0.5016023540100243  0.3345271669742598  0.6650556301632093
  0.5064283265469202  0.3319296473481370  0.3295663359867648
  0.8835471225977076  0.6652966543649410  0.9982760609520932
  0.3823317603404039  0.3180549081353828  0.9978875623886624
  0.9982757035319026  0.1672542059692049  0.4994627277361755
  0.4988437283134083  0.8179491670949769  0.4991602728861733
  0.8976178556472439  0.8192043030443730  0.1664997627805286
  0.9693699423706326  0.8218673708597242  0.8382355473000359
  0.0005392556678172  0.3406846046625089  0.9967648404103094
  0.4911663209376819  0.1660020704214795  0.8400157742559260
  0.3972596642672284  0.1633131229184437  0.1657043878085074
  0.4996072180571985  0.6418860013155051  0.9982468351836632
  0.8923636965723342  0.3221565540170728  0.6571002267489084
  0.8916564535621230  0.3189659093134562  0.3399401528095842
  0.3919456834711052  0.6644804501006829  0.6572095838511327
  0.3915608122972021  0.6642733094918007  0.3404215794592005
  0.8797540810492699  0.8387458915945778  0.4993605738026507
  0.3795794219904823  0.1460883382231958  0.4989780547575550
 
             NaN             NaN             NaN
             NaN             NaN             NaN
             NaN             NaN             NaN
             NaN             NaN             NaN
             NaN             NaN             NaN
             NaN             NaN             NaN
             NaN             NaN             NaN
             NaN             NaN             NaN
             NaN             NaN             NaN
             NaN             NaN             NaN
             NaN             NaN             NaN
             NaN             NaN             NaN
             NaN             NaN             NaN
             NaN             NaN             NaN
             NaN             NaN             NaN
             NaN             NaN             NaN
             NaN             NaN             NaN
             NaN             NaN             NaN
             NaN             NaN             NaN
             NaN             NaN             NaN
             NaN             NaN             NaN
             NaN             NaN             NaN
             NaN             NaN             NaN
             NaN             NaN             NaN
