Mg   Sb   N
1.0
  10.382886136968182 -0.0407476892529746 -0.0003985127538835
  0.0234300888388058 5.971654858470719 -0.0004890403976525
  0.0001727746862368 -0.0083185594586338 5.42249469115927
 Mg  Sb  N 
8 4 12 
direct
   -0.8288692773892800  -0.1575893003518677   0.0072093271313308
   -0.1711306441548458  -0.1575893340458266   0.0072093255211938
   -0.1737252875823886  -0.8300446111038131   0.4918030023146657
   -0.8262747713828210  -0.8300445587222600   0.4918029920800355
   -0.3317776189564787  -0.6525373099567872   0.0047789953759179
   -0.6682223175718910  -0.6525373545486648   0.0047789637879567
   -0.6701278517525751  -0.3304620026892278   0.5048846831647220
   -0.3298722163943239  -0.3304619494562117   0.5048847100525774
   -0.9999998769936523  -0.6710319992876939   0.9139077007267707
   -0.9999999652811694  -0.3116392848447050   0.4936381865280773
   -0.5000000256694578  -0.1676193999639832   0.9972681565696649
   -0.5000000737119873  -0.8168338336631479   0.4972644313136002
   -0.1674077867864402  -0.8242711479875716   0.8946496323557109
   -0.8325922705839293  -0.8242711472088284   0.8946495693130295
   -0.0000000019586535  -0.3268016225368138   0.8833416942895871
   -0.8369032371899680  -0.1659275208523303   0.3919571560689624
   -0.1630966729232746  -0.1659275755252929   0.3919571632439840
    0.0000000412031343  -0.6491023856625070   0.4540143200346746
   -0.6606716717581383  -0.3189413166780964   0.8921203807801320
   -0.3393284876775338  -0.3189412425253813   0.8921203911844051
   -0.6594344754009844  -0.6641276939152810   0.3905639979110285
   -0.3405654710906473  -0.6641276828163111   0.3905640331442669
   -0.5000000301799641  -0.8379661575544510   0.8791374844164893
   -0.5000000015243075  -0.1465881629381616   0.3795506218356103
