Mg   Sb   N
1.0
  10.386404793044974 -0.0407609712215874 -0.0004025732744526
  0.0234394691525985 5.973967930480538 -0.000526654316488
  0.0001860655965519 -0.0082868576206542 5.42326244262506
 Mg  Sb  N 
8 4 12 
direct
   -0.8289573697232050  -0.1575006459304358   0.0072922007459051
   -0.1710426009906572  -0.1575007422693917   0.0072922784774974
   -0.1744899175138579  -0.8306226043212102   0.4908504039458686
   -0.8255101023243051  -0.8306226209782651   0.4908503323637590
   -0.3317108799592253  -0.6525482283854045   0.0047620163467491
   -0.6682891325191606  -0.6525482600907686   0.0047620770463382
   -0.6699969484129831  -0.3305944002710228   0.5050361074182839
   -0.3300031620978889  -0.3305943617767758   0.5050360453345106
   -0.9999999507269395  -0.6712357015220768   0.8978380470487938
   -1.0000000000451446  -0.3099402728018059   0.4943541499903846
   -0.5000000581150488  -0.1676028242719664   0.9971861223355464
   -0.5000000863449066  -0.8168492864948600   0.4973800576423060
   -0.1677618230059371  -0.8246695372795790   0.8958434216776019
   -0.8322382799585754  -0.8246693852988176   0.8958433800085805
    0.0000000265410037  -0.3255953400398847   0.8842972288142756
   -0.8367618126161696  -0.1663177431204379   0.3918962390300917
   -0.1632380018945503  -0.1663178011170925   0.3918962834999755
   -0.9999999070579253  -0.6493224154690059   0.4675686146022849
   -0.6606518190566093  -0.3189267089396478   0.8921832662034823
   -0.3393482475805054  -0.3189266487124002   0.8921832234061230
   -0.6592835527795674  -0.6639996826806049   0.3905087966402029
   -0.3407162847251250  -0.6639996808688841   0.3905087864616306
   -0.5000000618170444  -0.8379850006125550   0.8791455191046883
   -0.5000000199872487  -0.1464947015823429   0.3795423209995105
