Mg   Sb   N
1.0
  10.337365738586449 -0.0405645775826683 -0.0002932057594457
  0.0233148608541617 5.945820082903089 -0.0002633568846398
  9.30292243464e-05 -0.0039516161637191 5.41788818236449
 Mg  Sb  N 
8 4 12 
direct
   -0.8295627462976752  -0.1544611463717263   0.0032976916201952
   -0.1704368095727571  -0.1544611348444223   0.0032970665698281
   -0.1705318162092476  -0.8302694725656031   0.5025963604072180
   -0.8294681112193348  -0.8302692735763830   0.5025970028525716
   -0.3297932045976456  -0.6541078446861801   0.0033450599531302
   -0.6702063512157214  -0.6541078635493677   0.0033444481540752
   -0.6703152916205493  -0.3302982223742272   0.5034946740275712
   -0.3296846192771484  -0.3302980167579108   0.5034953054579713
   -0.9999997490655489  -0.6683003149189675   0.9955736782692307
    0.0000001165663540  -0.3164831787699657   0.4960347028160733
   -0.4999997269894561  -0.1679433227657662   0.9964633915359318
   -0.4999998666746178  -0.8164480805305967   0.4964544536028299
   -0.1617439326731952  -0.8188315484372641   0.8905314692442797
   -0.8382567964363133  -0.8188316504016113   0.8905317363540994
   -0.0000000703862749  -0.3371191213864743   0.8784403493357514
   -0.8383705294716066  -0.1660778641302999   0.3906873615045102
   -0.1616296102985891  -0.1660781503442330   0.3906870814014325
   -0.9999999657217331  -0.6476091558276775   0.3786225147989812
   -0.6614473027788074  -0.3186958111972576   0.8908572111099546
   -0.3385534239767852  -0.3186958861288531   0.8908574530379513
   -0.6613936312569525  -0.6657593189626944   0.3906866969381185
   -0.3386065130795105  -0.6657590247861825   0.3906869662422959
   -0.5000000590230312  -0.8371259530456048   0.8786956073276850
   -0.4999999482552076  -0.1473610305216558   0.3787621538860754
