Mg   Sb   N                             
   1.00000000000000     
     0.0023981759343404    0.0003455565203327    5.4324754602145999
    -5.9983559461685143   -0.0186908556241801    0.0009780213425134
     0.0501987900662345  -10.4337529113920269   -0.0090038276907045
   Mg   Sb   N 
     8     4    12
Direct
  0.9363238088443508  0.1564608775573575  0.8276562758869861
  0.9991566877601864  0.1503108301103810  0.1769975081234309
  0.4969158436762033  0.8330715829430693  0.1769920838914446
  0.4892419737055068  0.8280346354119815  0.8247478160332022
  0.0057878120938250  0.6520778745971461  0.3311959049012397
  0.0058133724849700  0.6541137761132023  0.6682367018681893
  0.5026560071824756  0.3346746451971859  0.6663186093949007
  0.5057905245663066  0.3322493168347055  0.3301687302758363
  0.8809360358681321  0.6632801803109956  0.0005562638236169
  0.3823488984596937  0.3176065291657709  0.9992094749115767
  0.9980910717270292  0.1678031573654106  0.4994330266758499
  0.4978023870830977  0.8183253431256200  0.4996689551303632
  0.8979966503986417  0.8203373412320444  0.1672514408175297
  0.9026501097483237  0.8175518464021746  0.8338448729701105
  0.9974848275757108  0.3407088385195217  0.9987787903637079
  0.4450344224257495  0.1659542614788878  0.8354337969840894
  0.3968444167323558  0.1628862655683678  0.1667299321321648
  0.4951711844985073  0.6406602901948154  0.0012422752529660
  0.8914961858363005  0.3231316382876325  0.6569888775549225
  0.8913100539928623  0.3199216239541874  0.3405359739056323
  0.3904509021374103  0.6656520077944298  0.6579674578663605
  0.3913294974441729  0.6644734804550686  0.3411210867019801
  0.8794034280486650  0.8394423166694410  0.4998801231775770
  0.3795313115602046  0.1466592053003580  0.4990439878096122
 
             NaN             NaN             NaN
             NaN             NaN             NaN
             NaN             NaN             NaN
             NaN             NaN             NaN
             NaN             NaN             NaN
             NaN             NaN             NaN
             NaN             NaN             NaN
             NaN             NaN             NaN
             NaN             NaN             NaN
             NaN             NaN             NaN
             NaN             NaN             NaN
             NaN             NaN             NaN
             NaN             NaN             NaN
             NaN             NaN             NaN
             NaN             NaN             NaN
             NaN             NaN             NaN
             NaN             NaN             NaN
             NaN             NaN             NaN
             NaN             NaN             NaN
             NaN             NaN             NaN
             NaN             NaN             NaN
             NaN             NaN             NaN
             NaN             NaN             NaN
             NaN             NaN             NaN
