Mg   Sb   N
1.0
  10.33533581695797 -0.0150390545948338 -5.07833280513e-05
  -0.0086501084319768 -5.944638329033219 7.52872904625e-05
  2.6574672771e-05 6.9136275466e-05 5.41404942503552
 Mg  Sb  N 
8 4 12 
direct
   -0.8296349510616767   0.1542120598164816   0.9844190568812246
   -0.1703650408729754   0.1542120599216341   0.9844190543125435
   -0.1703650572383543   0.8304033263402472   0.4844190556348499
   -0.8296349351692571   0.8304033268937515   0.4844190573858717
   -0.3296349515393461   0.6542120580202908   0.9844190572728814
   -0.6703650412045070   0.6542120585728239   0.9844190535085795
   -0.6703650566990103   0.3304033252251042   0.4844190546034033
   -0.3296349353107532   0.3304033259316085   0.4844190576673635
   -0.9999999966434807   0.6680857602376625   0.9774595700452162
   -0.9999999962293761   0.3165296435887349   0.4774595869172090
   -0.4999999964068116   0.1680857575075975   0.9774595684321479
   -0.4999999967316784   0.8165296414417434   0.4774595854515142
   -0.1615648088367618   0.8186371368951936   0.8719787894316582
   -0.8384351864651562   0.8186371376485816   0.8719787895806009
   -0.9999999966174303   0.3370902580378604   0.8599326909575683
   -0.8384352135511376   0.1659781202051970   0.3719787970397653
   -0.1615647808876040   0.1659781201286801   0.3719787967329911
   -0.9999999967720652   0.6475251387318425   0.3599326811310531
   -0.6615648081537929   0.3186371360294442   0.8719787876175998
   -0.3384351863221435   0.3186371360543718   0.8719787896549901
   -0.6615647816268605   0.6659781185724902   0.3719787956434788
   -0.3384352136157097   0.6659781190076575   0.3719787975646704
   -0.4999999970485971   0.8370902556407156   0.8599326904234637
   -0.4999999968288091   0.1475251363986273   0.3599326803610267
