Mg   Sb   N
1.0
  10.412339264401224 -0.0525145006214726 -0.002297273435918
  -0.0173086402776661 -5.991402866362392 0.0013917744497034
  0.0004917565337985 -0.0002654569594044 5.44092072633835
 Mg  Sb  N 
8 4 12 
direct
   -0.8321702824372197   0.1520398533866338   0.8822800365575095
   -0.1739717349972066   0.1560325197551838   0.9936191577327997
   -0.1700807289669191   0.8280976478195073   0.4222885344128159
   -0.8325811533338683   0.8347278339387206   0.3821043270397971
   -0.3332162107388461   0.6486471517954037   0.0040571184732783
   -0.6668252369909243   0.6507873846135095   0.0025858827435355
   -0.6657807014591098   0.3340479661367979   0.5027262039769740
   -0.3305795331482092   0.3304453543713276   0.5079261155125989
   -0.9983016645548196   0.6686249643904922   0.8861217126163238
   -0.9966841889314318   0.3212216706431498   0.3838938375580355
   -0.4999028354682538   0.1656064771738507   0.9996638284428407
   -0.5002848452091068   0.8169935074706828   0.5001325365508713
   -0.1624604525086748   0.8154211212522150   0.9625256262765067
   -0.8405658653883480   0.8230608993530695   0.9929721869898207
   -0.9942747102948734   0.3427922602575272   0.0019419363865640
   -0.8405480577230540   0.1639213977357085   0.4938304587516721
   -0.1645350906314083   0.1693393397866512   0.4039154301628126
   -0.9977745090146379   0.6468304735370872   0.5047074242545352
   -0.6576798271087968   0.3204816166861720   0.8930918904689141
   -0.3409190527605850   0.3175537138446287   0.8919049856943843
   -0.6586222661500346   0.6643731349681353   0.3934702284618263
   -0.3422838360711842   0.6616459780797418   0.3937157181168752
   -0.5004386140023273   0.8376029021681760   0.8806935003156007
   -0.4995185825042596   0.1450894160012791   0.3804580193635893
