Mg   Sb   N
1.0
  10.404171020555511 -0.0513924855733535 -0.001154755604358
  -0.0294795458401023 -5.968038897534619 0.0017302997192225
  0.0006113747266341 0.0015779981466708 5.4478304895305
 Mg  Sb  N 
8 4 12 
direct
   -0.8331299103893565   0.1505047535865800   0.8925242541563995
   -0.1668700586868002   0.1505047192145601   0.8925243249734220
   -0.1668700779992850   0.8341100066998692   0.3925242562443180
   -0.8331299042283479   0.8341100364472778   0.3925242383117029
   -0.3331299531024327   0.6505046871648188   0.0120239013053252
   -0.6668700444509043   0.6505047305392093   0.0120238691005755
   -0.6668700587559254   0.3341101021196679   0.5120238982915681
   -0.3331299166528162   0.3341100874264367   0.5120239449798666
   -0.9999999950561361   0.6665186468320879   0.8955041885507049
   -0.9999999945579953   0.3180960622619760   0.3955041912986847
   -0.4999999852468492   0.1665186900276877   0.0090439998026357
   -0.4999999870255685   0.8180961131272569   0.5090439784992558
   -0.1586047019242752   0.8194611768290265   0.0023860273217020
   -0.8413952924779952   0.8194612412811392   0.0023860260471038
   -0.9999999762986256   0.3377408810729538   0.0153565445451723
   -0.8413953074094509   0.1651534783683115   0.5023860631510416
   -0.1586046697881503   0.1651534702319860   0.5023860435453891
   -0.9999999847785559   0.6468738966943430   0.5153564996703751
   -0.6586046473961890   0.3194612204806778   0.9021618657446663
   -0.3413953189952246   0.3194611746422684   0.9021619040264356
   -0.6586046301632981   0.6651534771030694   0.4021618579863748
   -0.3413953569463835   0.6651534633464464   0.4021618926254297
   -0.4999999954371578   0.8377408908022718   0.8891916612807064
   -0.4999999899865957   0.1468739277907530   0.3891916443179297
