Mg   Sb   N
1.0
  10.334918807660323 -0.0278951576099914 -7.59154166017e-05
  0.0160446956728718 5.9444204761451545 -0.000112901209298
  3.98655830861e-05 0.0001038215157196 5.41481717650131
 Mg  Sb  N 
8 4 12 
direct
   -0.8296366054364125  -0.1542115860794638   0.9881236447721994
   -0.1703633796441711  -0.1542115860720602   0.9881236408269504
   -0.1703633962376525  -0.8304037770557817   0.4881236639915562
   -0.8296365892302244  -0.8304037782784015   0.4881236672246156
   -0.3296366054477722  -0.6542115860492052   0.9881236510275651
   -0.6703633801653641  -0.6542115871792881   0.9881236471040244
   -0.6703633957232140  -0.3304037755747248   0.4881236694113100
   -0.3296365892781275  -0.3304037757129442   0.4881236733408281
   -0.9999999981779925  -0.6680803962548779   0.9811513850839233
   -0.9999999980288451  -0.3165349692955404   0.4811513325569298
   -0.4999999876812456  -0.1680803964358532   0.9811514012387712
   -0.4999999877356903  -0.8165349667120155   0.4811513499209994
   -0.1615658921868726  -0.8186363708313147   0.8756445033951479
   -0.8384340937558713  -0.8186363789394664   0.8756444996526276
   -0.9999999906303619  -0.3370847777502853   0.8635862833664610
   -0.8384341101423148  -0.1659788412091579   0.3756444950807661
   -0.1615658743072906  -0.1659788457364505   0.3756444964955307
    0.0000000089358015  -0.6475305737920147   0.3635863206542413
   -0.6615658958809407  -0.3186363769522879   0.8756445083771799
   -0.3384340977418600  -0.3186363745582951   0.8756445098342212
   -0.6615658797359498  -0.6659788396271745   0.3756445036234176
   -0.3384341156984726  -0.6659788419883025   0.3756445038307126
   -0.4999999966501965  -0.8370847783104083   0.8635862996775736
   -0.4999999959411489  -0.1475305695788395   0.3635863359807874
