Mg   Sb   N                             
   1.00000000000000     
     0.0000352536299054    0.0000132837624560    5.4132816735697205
    -5.9448456917367531   -0.0042307165189231    0.0000376733716271
     0.0073555090676958  -10.3357280639153277    0.0000254465584150
   Mg   Sb   N 
     8     4    12
Direct
  0.9806719460402941  0.1542124344632334  0.8296333095314663
  0.9806719424861542  0.1542124343399331  0.1703666879812800
  0.4806719652545028  0.8304029879408534  0.1703667057360349
  0.4806719681585897  0.8304029907877967  0.8296332925684281
  0.9806719453572429  0.6542124331746365  0.3296333100322946
  0.9806719422698712  0.6542124365232782  0.6703666880593457
  0.4806719659929253  0.3304029896844982  0.6703667052866374
  0.4806719688027720  0.3304029895167623  0.3296332919125384
  0.9737254048272556  0.6680910853305401 -0.0000000004148532
  0.4737253530792738  0.3165243445750027 -0.0000000010981282
  0.9737254049738466  0.1680910883066272  0.4999999987562534
  0.4737253534305620  0.8165243448642027  0.4999999988451814
  0.8682703073811269  0.8186378161829663  0.1615637599667159
  0.8682703061782270  0.8186378204252931  0.8384362414206175
  0.8562366356037335  0.3370956966810498  0.9999999984390541
  0.3682703053921637  0.1659774510234322  0.8384362594326117
  0.3682703059805950  0.1659774492224224  0.1615637397151387
  0.3562366691646399  0.6475197268912443  0.9999999987613688
  0.8682703037870497  0.3186378194873721  0.6615637584572601
  0.8682703033679047  0.3186378196051994  0.3384362401840537
  0.3682703013193006  0.6659774535094566  0.6615637399507338
  0.3682703015668304  0.6659774480038430  0.3384362609749731
  0.8562366355804760  0.8370957019918784  0.4999999985549046
  0.3562366670323907  0.1475197248732333  0.4999999985900140
 
             NaN             NaN             NaN
             NaN             NaN             NaN
             NaN             NaN             NaN
             NaN             NaN             NaN
             NaN             NaN             NaN
             NaN             NaN             NaN
             NaN             NaN             NaN
             NaN             NaN             NaN
             NaN             NaN             NaN
             NaN             NaN             NaN
             NaN             NaN             NaN
             NaN             NaN             NaN
             NaN             NaN             NaN
             NaN             NaN             NaN
             NaN             NaN             NaN
             NaN             NaN             NaN
             NaN             NaN             NaN
             NaN             NaN             NaN
             NaN             NaN             NaN
             NaN             NaN             NaN
             NaN             NaN             NaN
             NaN             NaN             NaN
             NaN             NaN             NaN
             NaN             NaN             NaN
