Mg   Sb   N
1.0
  10.403330610613972 -0.0680135520624042 -0.0011973470770967
  0.0390138842153112 5.967579512524951 -0.0018055275568935
  0.0006379565472642 0.001645473802856 5.44936599246209
 Mg  Sb  N 
8 4 12 
direct
   -0.8331377452055871  -0.1504970368480263   0.9042966181102198
   -0.1668622432374520  -0.1504970339349889   0.9042966172525779
   -0.1668622626298618  -0.8341183242567181   0.4042966042332277
   -0.8331377250569301  -0.8341183245859479   0.4042966050801379
   -0.3331377587972549  -0.6504970037694312   0.0238919258949343
   -0.6668622311210048  -0.6504970064657385   0.0238919230252592
   -0.6668622517345921  -0.3341183225241831   0.5238919682202912
   -0.3331377368262110  -0.3341183229951001   0.5238919723913227
   -0.9999999938412915  -0.6665076333584941   0.9073127471567457
   -0.9999999934931798  -0.3181077215600843   0.4073127213652504
   -0.4999999952566215  -0.1665075546203857   0.0208756855906988
   -0.4999999948073100  -0.8181077245023737   0.5208756390153674
   -0.1586004371611947  -0.8194654022003296   0.0142555896581435
   -0.8413995516821856  -0.8194654054141528   0.0142555916222024
   -0.9999999936026459  -0.3377308416535167   0.0272411650668284
   -0.8413995948277204  -0.1651498788881592   0.5142556018504776
   -0.1586003937994136  -0.1651498792231769   0.5142555999077162
   -0.9999999935628811  -0.6468845666617612   0.5272412274413429
   -0.6586004232599424  -0.3194653899083585   0.9139329637766115
   -0.3413995646662196  -0.3194653869268823   0.9139329686059696
   -0.6586004109160879  -0.6651498013090563   0.4139329143029364
   -0.3413995782887554  -0.6651498014779720   0.4139329178864053
   -0.4999999947416756  -0.8377307516124799   0.9009470804870841
   -0.4999999949919209  -0.1468845482835128   0.4009471567528711
