Mg   Sb   N
1.0
  10.411610688191457 -0.0510324104174126 -0.002492758573756
  -0.0181570948678278 -5.99077954761153 0.001354160530868
  0.0004784656234834 -0.0003917736962981 5.44015297487255
 Mg  Sb  N 
8 4 12 
direct
   -0.8322061692568561   0.1520271169066876   0.8821421561386716
   -0.1742234097281974   0.1550604436587524   0.9952550434858156
   -0.1713814342478557   0.8294332801224078   0.4433056436922829
   -0.8325312269168577   0.8345025875478175   0.3819562098301352
   -0.3325646519443928   0.6491762036643591   0.0046056615889963
   -0.6667013933883529   0.6507436054665002   0.0025430107137612
   -0.6657908775363957   0.3339023925991261   0.5026704468996624
   -0.3304773568769173   0.3306181223327064   0.5077802409750819
   -0.9979522368513040   0.6682034185631753   0.8857803666305685
   -0.9965993706952895   0.3209419266649119   0.3836333526083873
   -0.4998327072603368   0.1657049626009672   0.9995075090956030
   -0.5002072288395066   0.8169526377313605   0.4999870446151168
   -0.1635700919919749   0.8167081653393239   0.9443372065293861
   -0.8404967695548980   0.8231381016728118   0.9930757463874212
   -0.9943926648459028   0.3426047475018660   0.0018277208048175
   -0.8405375439198376   0.1635657006661268   0.4937880515412855
   -0.1646213809943430   0.1688307602685178   0.4020742116861070
   -0.9971420262404499   0.6461172614074371   0.5038549425135715
   -0.6576985006209374   0.3204407667431250   0.8930818194622044
   -0.3408055882089137   0.3177344536392820   0.8919106330707751
   -0.6585048116521854   0.6642299685921949   0.3933891765498067
   -0.3419365022800823   0.6620610161671115   0.3931023651177725
   -0.5003423341089824   0.8375752085447618   0.8806033583759313
   -0.4994837024333241   0.1451117367643342   0.3804147785473285
