Mg   Sb   N
1.0
  10.33375284638806 -0.0341299681336844 -0.0001540168600294
  -0.0196331071812079 -5.943804913122713 0.0002257429658043
  7.97383140313e-05 0.0001031098959066 5.4171204308987
 Mg  Sb  N 
8 4 12 
direct
   -0.8296416644537863   0.1542120964165228   0.9994564078263843
   -0.1703582776069992   0.1542121071376118   0.9994563764346532
   -0.1703585452101245   0.8304053647651656   0.4994551643341368
   -0.8296413607717193   0.8304054026901192   0.4994552081779433
   -0.3296415008915213   0.6542108721550804   0.9994590115684854
   -0.6703585233442773   0.6542108365084183   0.9994590096639094
   -0.6703584152240011   0.3304041859223699   0.4994585336778868
   -0.3296415734847836   0.3304041726380694   0.4994585487626929
    0.0000004624745964   0.6680661750661220   0.9924428452675156
    0.0000004312729147   0.3165516211492048   0.4924448182900983
   -0.5000003744397127   0.1680639843372045   0.9924478839942645
   -0.5000004080257783   0.8165494715120082   0.4924494125356508
   -0.1615695937416096   0.8186375325310357   0.8868605101133856
   -0.8384308217562101   0.8186372138870794   0.8868606892604936
   -1.0000000997679372   0.3370711015555227   0.8747648277590844
   -0.8384312168762554   0.1659831803783598   0.3868613168973808
   -0.1615692504908823   0.1659828696145640   0.3868611851907148
   -1.0000001265891518   0.6475484264848320   0.3747638353991118
   -0.6615684465343735   0.3186360753953397   0.8868636984496850
   -0.3384311019994363   0.3186363275898210   0.8868636083321955
   -0.6615686856012840   0.6659816965108738   0.3868639765643000
   -0.3384309149482260   0.6659814277097695   0.3868638328315789
   -0.4999998624052959   0.8370689074287946   0.8747695248709191
   -0.4999998877220234   0.1475463684193341   0.3747688230763185
