Mg   Sb   N                             
   1.00000000000000     
     0.0086640518672733    0.0002791019687574    5.4286367028856297
    -5.9832669218058525   -0.0234786212977043    0.0007899517483362
     0.0409086225312166  -10.4248626007170628    0.0004235959058702
   Mg   Sb   N 
     8     4    12
Direct
  0.9976217585730776  0.1546848325021137  0.8259431568872730
  0.9976220142628484  0.1546850067970885  0.1740568759690753
  0.4958837353269305  0.8315570359512311  0.1770913545686927
  0.4958835011328823  0.8315572129219158  0.8229086569858659
  0.0046829048169183  0.6533034907979328  0.3306219799311260
  0.0046829825137527  0.6533035629850487  0.6693780900660494
  0.5061865189803576  0.3324162559304780  0.6682029290710277
  0.5061864180119252  0.3324163070373940  0.3317971467915864
  0.8824318472272025  0.6642652433553727  0.0000006271590395
  0.4039458036466080  0.3157678334881399  0.0000007976013627
  0.9974063660791803  0.1678306136411384  0.4999996444060326
  0.4975828224949919  0.8174976159574896  0.4999995991611707
  0.8962291218999313  0.8228125804729415  0.1668673113659108
  0.8962291490087907  0.8228128065216362  0.8331321992529932
  0.9674566482127803  0.3353497849740776  0.9999998619572311
  0.3960553948516758  0.1634593255556160  0.8325417230032166
  0.3960553522049570  0.1634597395562992  0.1674575427364176
  0.4888203704354309  0.6454939115629580  0.9999998668248662
  0.8917724039460240  0.3198073248824249  0.6593970732581484
  0.8917725664361192  0.3198070240611366  0.3406031813312334
  0.3904087023254964  0.6641709397443553  0.6586384911276182
  0.3904089354508490  0.6641712759422342  0.3413617602409804
  0.8792743685202750  0.8383135871207805  0.5000000654320054
  0.3794572327859564  0.1464412830754726  0.5000000575826062
 
             NaN             NaN             NaN
             NaN             NaN             NaN
             NaN             NaN             NaN
             NaN             NaN             NaN
             NaN             NaN             NaN
             NaN             NaN             NaN
             NaN             NaN             NaN
             NaN             NaN             NaN
             NaN             NaN             NaN
             NaN             NaN             NaN
             NaN             NaN             NaN
             NaN             NaN             NaN
             NaN             NaN             NaN
             NaN             NaN             NaN
             NaN             NaN             NaN
             NaN             NaN             NaN
             NaN             NaN             NaN
             NaN             NaN             NaN
             NaN             NaN             NaN
             NaN             NaN             NaN
             NaN             NaN             NaN
             NaN             NaN             NaN
             NaN             NaN             NaN
             NaN             NaN             NaN
