Mg   Sb   N
1.0
  10.432672003916181 -0.0513203456301222 0.0085019894185628
  0.018047258202238 5.998989210345377 -0.0010156352613489
  0.0003588474306478 0.0023727232851284 5.4332432116804
 Mg  Sb  N 
8 4 12 
direct
   -0.8288695738026991  -0.1575376787564459   0.9179195665057553
   -0.1769357359446202  -0.1501040090039759   0.9995221258933730
   -0.1769425317212405  -0.8330667926495913   0.4969878689728653
   -0.8250112912113137  -0.8272676769100146   0.4874144257822018
   -0.3311969671860173  -0.6519551823332072   0.0058271015072141
   -0.6681526150317523  -0.6542200258482830   0.0059158208749468
   -0.6657761413736332  -0.3351132688198199   0.5021316631746259
   -0.3300121471251302  -0.3321938227000457   0.5058515790068953
   -0.0004820093296140  -0.6631016763718183   0.8811951623205905
   -0.9988931314813901  -0.3172936651880646   0.3824189867537230
   -0.4993876097677109  -0.1677720264953658   0.9981681658712359
   -0.4995930969112324  -0.8183933816605319   0.4979458327700904
   -0.1672258717715808  -0.8201279230888894   0.8980619847940657
   -0.8339530353359256  -0.8172356815192122   0.9047194474530591
   -0.9982341290677872  -0.3402577994839119   0.9983302929499835
   -0.8365280531056446  -0.1669399914343442   0.4609029793796384
   -0.1665432776617949  -0.1628643837637769   0.3967880466293907
   -0.0013198105935243  -0.6404184767248468   0.4953412731621179
   -0.6567488889065345  -0.3234463007318635   0.8919563981279597
   -0.3404181273274505  -0.3197941735713980   0.8913560309607971
   -0.6578783543059795  -0.6657832843860273   0.3904496070759731
   -0.3410951315186178  -0.6644298499059490   0.3913500763521737
   -0.4998483428541699  -0.8394565919806741   0.8794313437288830
   -0.4989540931179215  -0.1466142012617038   0.3795816338031405
