Mg   Sb   N                             
   1.00000000000000     
    -0.0088862592571959    0.0001196110449765    5.4194236852960795
    -5.9627288441052322   -0.0233957280362970    0.0003385847223107
     0.0406866022293857  -10.3676242296549468    0.0003862100171927
   Mg   Sb   N 
     8     4    12
Direct
  0.0056392647478248  0.1567656303103241  0.8288425108514589
  0.0056390108227437  0.1567654891512731  0.1711573436490763
  0.4960902402542253  0.8295296971119722  0.1722655632176268
  0.4960904163822428  0.8295294699028523  0.8277345158397721
  0.0042225889508519  0.6530039285195468  0.3313441817455747
  0.0042222065047609  0.6530039919724020  0.6686553976471946
  0.5045856483546416  0.3302725842047252  0.6702163893456270
  0.5045860110717141  0.3302725039492310  0.3297833474425590
  0.9743566512079227  0.6697843907994622  0.0000018309387912
  0.4940606378407978  0.3146581108123948  0.0000010725581906
  0.9972880253415206  0.1676364617783080  0.4999986008364629
  0.4970835055395508  0.8166824344267942  0.4999984156857623
  0.8910408350420458  0.8214784529387072  0.1646558457976078
  0.8910401040636586  0.8214799406627368  0.8353426175181237
  0.8797786777692588  0.3327228922290027  0.9999997355246449
  0.3915233872025558  0.1658369694128433  0.8375032032131896
  0.3915237325305420  0.1658378845637636  0.1624959115178122
  0.4017388985012778  0.6487724535782904  0.9999996762454284
  0.8918795160820607  0.3189176095308036  0.6607834273788131
  0.8918801097064070  0.3189168254893955  0.3392181543527420
  0.3905702272336850  0.6644768407406665  0.6599648217384577
  0.3905709808247985  0.6644776752275847  0.3400368466161478
  0.8790999842120173  0.8377871084821551  0.5000003136089277
  0.3795462589573165  0.1467752490400050  0.5000002694416104
 
             NaN             NaN             NaN
             NaN             NaN             NaN
             NaN             NaN             NaN
             NaN             NaN             NaN
             NaN             NaN             NaN
             NaN             NaN             NaN
             NaN             NaN             NaN
             NaN             NaN             NaN
             NaN             NaN             NaN
             NaN             NaN             NaN
             NaN             NaN             NaN
             NaN             NaN             NaN
             NaN             NaN             NaN
             NaN             NaN             NaN
             NaN             NaN             NaN
             NaN             NaN             NaN
             NaN             NaN             NaN
             NaN             NaN             NaN
             NaN             NaN             NaN
             NaN             NaN             NaN
             NaN             NaN             NaN
             NaN             NaN             NaN
             NaN             NaN             NaN
             NaN             NaN             NaN
