Mg   Sb   N
1.0
  10.414241410919606 -0.0408669970663622 -0.0004100714279299
  -0.0234806965281636 -5.9837919691905155 0.0006394960729943
  0.0002259383274971 0.0097023323353913 5.42556569702245
 Mg  Sb  N 
8 4 12 
direct
   -0.8279070628259921   0.1564212282104094   0.0014486479176023
   -0.1720928527733787   0.1564210998250733   0.0014484815446488
   -0.1767535892201794   0.8312201284234907   0.4937583067584058
   -0.8232464897010608   0.8312199524024042   0.4937584492338802
   -0.3307619695050105   0.6532150880823240   0.0045589450151327
   -0.6692378554757650   0.6532150938912044   0.0045587927853772
   -0.6683733945030584   0.3323564040059529   0.5058081021331772
   -0.3316264813208670   0.3323563757668218   0.5058082828824609
   -0.0000000849748328   0.6674750475149832   0.8838267419926856
   -0.0000001096397265   0.3088905181244830   0.4722081544552052
   -0.4999997916651580   0.1678502693983506   0.9971951504244219
   -0.4999997821924069   0.8176175872046880   0.4976086417839302
   -0.1673095999520076   0.8238465413552454   0.8961107595955854
   -0.8326901891972246   0.8238469409346822   0.8961108554886928
    0.0000000071780746   0.3277299671243736   0.9090127108993856
   -0.8342038584824636   0.1654982781321140   0.3923579647796042
   -0.1657961527630830   0.1654984191575265   0.3923578779327909
   -0.0000000487543454   0.6485577293514226   0.4828188684670582
   -0.6598049867068930   0.3194973712486537   0.8919329186444577
   -0.3401953085950479   0.3194972959297612   0.8919330190253286
   -0.6586246116030545   0.6641791739204311   0.3903331948428830
   -0.3413757391125257   0.6641792179251139   0.3903332780848421
   -0.5000000111112763   0.8383028451900998   0.8792985464621642
   -0.5000000298142512   0.1464920217156542   0.3794702279952391
