Mg   Sb   N
1.0
  10.430163598567166 -0.0520967616871298 0.0076472257464028
  0.0175968994959031 5.999055496353884 -0.0010532491801843
  0.0003721383409628 0.0023500059897426 5.43401096314619
 Mg  Sb  N 
8 4 12 
direct
   -0.8302684719469866  -0.1586848977997908   0.8994551113511182
   -0.1768215544156772  -0.1497902554613508   0.9999637601534458
   -0.1768733734113130  -0.8329948852980883   0.4972066395621396
   -0.8253648645638593  -0.8266802297764976   0.4845810452852203
   -0.3311786819638757  -0.6517620765611537   0.0058828815337253
   -0.6680769557693337  -0.6543202843401489   0.0058818318697381
   -0.6651983311027624  -0.3354812188406455   0.5014866305463692
   -0.3297996650005637  -0.3320883440302038   0.5059582258153047
   -0.0003102383442011  -0.6629781527353469   0.8816706840048091
   -0.9985436346187913  -0.3170483700704588   0.3823734268916061
   -0.4993911761959344  -0.1677422431536956   0.9981369608780076
   -0.4994938877278077  -0.8184334254325047   0.4981286923120551
   -0.1671826415167183  -0.8198283455135360   0.8981364058605228
   -0.8341162952166032  -0.8173748936439936   0.9076871417065312
   -0.9975837718030905  -0.3397789924826602   0.9992647249613166
   -0.8378306677671306  -0.1680643055480160   0.4766831193350842
   -0.1662664919931398  -0.1627682397480137   0.3967994349713215
   -0.0013241353044604  -0.6401436087690693   0.4956503353854043
   -0.6566315268199184  -0.3236557346309528   0.8923543686604753
   -0.3402527196966563  -0.3195747518588716   0.8914336087647371
   -0.6578042128671755  -0.6659127330535580   0.3904183692920440
   -0.3410462284155273  -0.6643321002157584   0.3913765713925916
   -0.4997846675740245  -0.8394128715167202   0.8794547052261114
   -0.4988557724177289  -0.1465369041087073   0.3795827380909881
