Mg   Sb   N
1.0
  10.408486829335379 -0.0422888504778263 0.0076710863281341
  -0.0231435673268032 -5.987446385672853 0.0012413187743616
  0.0004385928925382 0.0035507359106255 5.43784972047517
 Mg  Sb  N 
8 4 12 
direct
   -0.8324437323634690   0.1540818116851140   0.8823503800888202
   -0.1761337867362532   0.1493030277432281   0.0009504241588780
   -0.1762326413230977   0.8336744931598138   0.5009717554059790
   -0.8315920561114870   0.8316889357496017   0.3928494746682860
   -0.3300915209469873   0.6516142288601865   0.0064358209461800
   -0.6661855171771334   0.6519856633420777   0.0025613989180129
   -0.6654029495605970   0.3341372569883067   0.5017180368106081
   -0.3295600514561754   0.3320899664768686   0.5064798406764720
   -0.9976256892940800   0.6657575684248362   0.8836505925218514
   -0.9975628509869175   0.3182585952975324   0.3828912089925010
   -0.4994627412471530   0.1672848773872116   0.9984115092014292
   -0.4992514034683627   0.8178102464326006   0.4987321586433707
   -0.1660781738849232   0.8193123929717963   0.8972578264407510
   -0.8397927336720904   0.8227155242106036   0.9856442294195197
   -0.9964340175372405   0.3410580126298158   0.0010082666815879
   -0.8403320925772845   0.1639529337412896   0.4923370874151382
   -0.1656037499205626   0.1636407274615284   0.3972928021870946
   -0.9969986609479281   0.6425573419717943   0.5008220104760089
   -0.6574104356441560   0.3216315350599988   0.8923366748700502
   -0.3398557323014533   0.3190584188660850   0.8916225498894206
   -0.6574233270891130   0.6643252493246679   0.3923072375428418
   -0.3401621425210206   0.6645783168493780   0.3915909885248336
   -0.4993030618935685   0.8386459691359616   0.8797088154482499
   -0.4990608969990840   0.1462249596047431   0.3795683408017427
