Mg   Sb   N                             
   1.00000000000000     
    -0.0002004709633114    0.0004518838028533    5.4386174719409599
    -5.9865862114263217   -0.0205783822942656    0.0012789326931971
     0.0467698988831809  -10.4055380946133820    0.0007709571730595
   Mg   Sb   N 
     8     4    12
Direct
  0.8818138953437363  0.1521377550566735  0.8323466668845131
  0.9986106855323874  0.1523258690748475  0.1749173871126390
  0.4845396495521279  0.8323654174763071  0.1740919140661928
  0.3817957359193285  0.8339026360746022  0.8325565685788286
  0.0057102940379910  0.6507005446740763  0.3309965748511899
  0.0024089733761958  0.6507983668460370  0.6664454285055026
  0.5024286223580646  0.3336174742935077  0.6658521661752647
  0.5071227110438352  0.3312228135785198  0.3300822693611865
  0.8845663459036820  0.6671613323576697  0.9974111547568327
  0.3835710102492047  0.3200511614076979  0.9967510510671337
  0.9991583096935183  0.1661350052649083  0.4996574984304967
  0.4993159838030045  0.8169055012530702  0.4998576405117613
  0.9092644206397243  0.8190958779183118  0.1653675171660442
  0.9933976248837715  0.8233349134061814  0.8406642376250928
  0.0017569511644804  0.3422522204415567  0.9949638743955472
  0.4936754112792403  0.1627753209112358  0.8405644211703736
  0.3988475676346003  0.1665213947318956  0.1649091176941871
  0.5023411871952843  0.6446595804827048  0.9960277059248529
  0.8929382440419988  0.3204597825345142  0.6577571816800364
  0.8918293912995925  0.3183178979055168  0.3403656174747559
  0.3930716265906218  0.6640287775324336  0.6582654002616980
  0.3920439279084436  0.6635399629577604  0.3407460181967691
  0.8802271342307493  0.8376509005330475  0.4999850377002049
  0.3801927969861521  0.1454240720780209  0.4994175308336330
 
             NaN             NaN             NaN
             NaN             NaN             NaN
             NaN             NaN             NaN
             NaN             NaN             NaN
             NaN             NaN             NaN
             NaN             NaN             NaN
             NaN             NaN             NaN
             NaN             NaN             NaN
             NaN             NaN             NaN
             NaN             NaN             NaN
             NaN             NaN             NaN
             NaN             NaN             NaN
             NaN             NaN             NaN
             NaN             NaN             NaN
             NaN             NaN             NaN
             NaN             NaN             NaN
             NaN             NaN             NaN
             NaN             NaN             NaN
             NaN             NaN             NaN
             NaN             NaN             NaN
             NaN             NaN             NaN
             NaN             NaN             NaN
             NaN             NaN             NaN
             NaN             NaN             NaN
