Mg   Sb   N
1.0
  10.415879442822803 -0.0443047469275898 0.0080651050060147
  -0.0220212712495613 -5.992269275859524 0.0012037048555262
  0.0004253019822231 0.0034240952655779 5.43708196900937
 Mg  Sb  N 
8 4 12 
direct
   -0.8322797208154732   0.1559710547599513   0.8832866046357537
   -0.1762928626578261   0.1491877211206160   0.0006048192026576
   -0.1764261979121207   0.8333373661301702   0.4997952254174848
   -0.8301313789416359   0.8303975586887796   0.4128129230555089
   -0.3304244991368067   0.6514088473154930   0.0062672735757381
   -0.6665593977083368   0.6524056407250161   0.0033511667328315
   -0.6650556301632092   0.3345271669742599   0.5016023540100243
   -0.3295663359867648   0.3319296473481371   0.5064283265469202
   -0.9982760609520931   0.6652966543649410   0.8835471225977076
   -0.9978875623886625   0.3180549081353828   0.3823317603404039
   -0.4994627277361754   0.1672542059692049   0.9982757035319028
   -0.4991602728861733   0.8179491670949771   0.4988437283134083
   -0.1664997627805286   0.8192043030443731   0.8976178556472441
   -0.8382355473000358   0.8218673708597244   0.9693699423706325
   -0.9967648404103093   0.3406846046625089   0.0005392556678172
   -0.8400157742559260   0.1660020704214795   0.4911663209376819
   -0.1657043878085074   0.1633131229184437   0.3972596642672284
   -0.9982468351836630   0.6418860013155052   0.4996072180571985
   -0.6571002267489083   0.3221565540170729   0.8923636965723341
   -0.3399401528095841   0.3189659093134563   0.8916564535621230
   -0.6572095838511326   0.6644804501006831   0.3919456834711052
   -0.3404215794592004   0.6642733094918009   0.3915608122972021
   -0.4993605738026506   0.8387458915945777   0.8797540810492697
   -0.4989780547575550   0.1460883382231958   0.3795794219904823
