Mg   Sb   N                             
   1.00000000000000     
     0.0031957679466639    0.0003987201615930    5.4355464660777804
    -5.9970617110942284   -0.0201204126576298    0.0011284770178552
     0.0476694910735096  -10.4226847765870598   -0.0086004272363011
   Mg   Sb   N 
     8     4    12
Direct
  0.8850373430162479  0.1583995330974987  0.8319731497067575
  0.0005124711752262  0.1491339435718460  0.1765196383053577
  0.4987743555111042  0.8330742750483089  0.1766601005990185
  0.4517925819960796  0.8283281410969988  0.8277214088280934
  0.0061396468697992  0.6513060660542157  0.3307967292919738
  0.0045522718930230  0.6533602825091911  0.6673105301079888
  0.5011827045755607  0.3350848093333568  0.6647980019860976
  0.5063150682903015  0.3318402491456552  0.3295551134108236
  0.8830579546025890  0.6641332056646925  0.9993301953234401
  0.3819965229573521  0.3176742969708832  0.9982432305985955
  0.9980684993223538  0.1673650077371267  0.4994717057870230
  0.4986362108475861  0.8181404419519038  0.4992026370617620
  0.8979437465118674  0.8192806729513236  0.1669470709567267
  0.9361466095098178  0.8200600624687794  0.8358464769055213
  0.0001328472275411  0.3400677404235846  0.9970251338781415
  0.4888384925366469  0.1682747782682852  0.8395278731814281
  0.3971447468810231  0.1628538574795095  0.1658607154079434
  0.4975977271113365  0.6408299509345114  0.9999935276590828
  0.8923526790825448  0.3229297647605404  0.6568024276468158
  0.8916665855607069  0.3189936632424513  0.3399988819210143
  0.3909625709108346  0.6651053330229385  0.6573700711091206
  0.3915440344653249  0.6640943714783790  0.3407091290649018
  0.8796303327856752  0.8389439280829516  0.4994716052778169
  0.3795414102101217  0.1461134892948112  0.4988646124378168
 
             NaN             NaN             NaN
             NaN             NaN             NaN
             NaN             NaN             NaN
             NaN             NaN             NaN
             NaN             NaN             NaN
             NaN             NaN             NaN
             NaN             NaN             NaN
             NaN             NaN             NaN
             NaN             NaN             NaN
             NaN             NaN             NaN
             NaN             NaN             NaN
             NaN             NaN             NaN
             NaN             NaN             NaN
             NaN             NaN             NaN
             NaN             NaN             NaN
             NaN             NaN             NaN
             NaN             NaN             NaN
             NaN             NaN             NaN
             NaN             NaN             NaN
             NaN             NaN             NaN
             NaN             NaN             NaN
             NaN             NaN             NaN
             NaN             NaN             NaN
             NaN             NaN             NaN
