Mg   Sb   N
1.0
  10.417662627588005 -0.0408803678315552 -0.0004139861572885
  -0.023481165171428 -5.983900670800063 0.0006771099918298
  0.0002392292378121 0.0099420645991189 5.42633344848824
 Mg  Sb  N 
8 4 12 
direct
   -0.8276042056711955   0.1562044374565075   0.0000921150647190
   -0.1723957267915219   0.1562043652806092   0.0000919989477188
   -0.1768998109649727   0.8311242968422744   0.4945894315292856
   -0.8231002158567376   0.8311241897063665   0.4945895493691174
   -0.3306388495626792   0.6532865841086017   0.0045348759376952
   -0.6693610702472204   0.6532865735657450   0.0045348064255539
   -0.6681864667241489   0.3324938896225296   0.5060247404891175
   -0.3318134899384147   0.3324938512526392   0.5060248226342513
   -0.9999997548892506   0.6661039602433185   0.8839052950876457
   -0.9999997425343011   0.3104532546656096   0.4556333529364963
   -0.5000000917535279   0.1678273180746676   0.9972143816989539
   -0.5000001129448802   0.8175834832873281   0.4976466363643747
   -0.1671572807749866   0.8236882576251642   0.8959738787745445
   -0.8328428771356403   0.8236882567079969   0.8959739377759247
   -0.0000000220602244   0.3298081402601938   0.9237270772794433
   -0.8335128495363856   0.1647932176960474   0.3932109809971376
   -0.1664874286908959   0.1647930957883977   0.3932108204901054
   -0.0000000421855749   0.6482034660577175   0.4837856966531964
   -0.6596764906111564   0.3195692785147238   0.8919192303088553
   -0.3403234984934617   0.3195693702056874   0.8919191699769753
   -0.6586169019533386   0.6641743811132578   0.3903403667696518
   -0.3413830720142819   0.6641742394073465   0.3903402810935969
   -0.4999999933521322   0.8382798099963834   0.8793011424774767
   -0.4999999980245950   0.1464568773561542   0.3794723300631367
