Mg   Sb   N                             
   1.00000000000000     
    -0.0259697342215024    0.0001993565068669    5.4240301940908600
    -5.9774198655638786   -0.0234495522828247    0.0005642682353234
     0.0407772817167316  -10.3893379634584342    0.0005584646306180
   Mg   Sb   N 
     8     4    12
Direct
  0.0076719142107927  0.1573643472343262  0.8292736589411177
  0.0076722245022487  0.1573646740779393  0.1707264282069318
  0.4886019853126067  0.8318252462121577  0.1758125031763153
  0.4886018459219317  0.8318251669806060  0.8241874536114718
  0.0044555230918390  0.6522189194285064  0.3315441557862053
  0.0044556780857195  0.6522189755590959  0.6684559374335094
  0.5053199739338873  0.3305922280873468  0.6697704444799132
  0.5053197992756790  0.3305921740065829  0.3302296342222675
  0.8836223310394097  0.6717814561901509  0.0000008451797476
  0.4965784417080767  0.3076445998330670  0.0000005106342930
  0.9968844444588425  0.1671344775044973  0.4999996408405701
  0.4976153635405662  0.8164822070895916  0.4999995214710263
  0.8971948981292033  0.8253175780685477  0.1679783301864358
  0.8971947959701997  0.8253177169743415  0.8320214122856899
  0.8852299293456414  0.3244711279102518  1.0000000966876141
  0.3917067316539876  0.1676093070866653  0.8366148814510604
  0.3917071857703663  0.1676097574284219  0.1633842770713233
  0.4807360529946755  0.6495399895880141  0.9999998699353287
  0.8923024393859218  0.3187399751773354  0.6606740041392026
  0.8923026182209074  0.3187396230846428  0.3393265247522759
  0.3901685257540538  0.6636303008224514  0.6589780813554902
  0.3901688329880844  0.6636306848996705  0.3410217986002597
  0.8791235152460124  0.8377096533940550  0.5000000796272737
  0.3794218686021805  0.1460244081968888  0.4999999026363387
 
             NaN             NaN             NaN
             NaN             NaN             NaN
             NaN             NaN             NaN
             NaN             NaN             NaN
             NaN             NaN             NaN
             NaN             NaN             NaN
             NaN             NaN             NaN
             NaN             NaN             NaN
             NaN             NaN             NaN
             NaN             NaN             NaN
             NaN             NaN             NaN
             NaN             NaN             NaN
             NaN             NaN             NaN
             NaN             NaN             NaN
             NaN             NaN             NaN
             NaN             NaN             NaN
             NaN             NaN             NaN
             NaN             NaN             NaN
             NaN             NaN             NaN
             NaN             NaN             NaN
             NaN             NaN             NaN
             NaN             NaN             NaN
             NaN             NaN             NaN
             NaN             NaN             NaN
