Mg   Sb   N                             
   1.00000000000000     
     0.0001720925160674    0.0000664474037162    5.4163526794329000
    -5.9439738595581684   -0.0249295670110425    0.0001881290469689
     0.0433421078448047  -10.3340968356298912    0.0001262982828382
   Mg   Sb   N 
     8     4    12
Direct
  0.9956567242845001  0.1542110326343627  0.8296399204305805
  0.9956567390780489  0.1542110277485885  0.1703600723770197
  0.4956567501362097  0.8304044423968466  0.1703600827892157
  0.4956567351335958  0.8304044369009197  0.8296399087018729
  0.9956567602986229  0.6542110196943948  0.3296399157506021
  0.9956567286631037  0.6542110233069963  0.6703600668263804
  0.4956567465684271  0.3304044312960362  0.6703600764973212
  0.4956567776626426  0.3304044369892065  0.3296399070949041
  0.9886587059609067  0.6680699221738917  0.9999999922471280
  0.4886586740973884  0.3165455460348098  0.9999999928455781
  0.9886587327381318  0.1680699086092639  0.4999999952059793
  0.4886586975852048  0.8165455361909737  0.4999999947501226
  0.8830999038257609  0.8186349347597642  0.1615680205820323
  0.8830998875253642  0.8186349350191798  0.8384319745292294
  0.8710171064586177  0.3370735996395807  0.0000000005285073
  0.3830998881453424  0.1659804059561406  0.8384319916895107
  0.3830999045110711  0.1659804072174625  0.1615680059407710
  0.3710171355064747  0.6475418450453708  0.0000000001679639
  0.8830998983067709  0.3186349269809216  0.6615680159938019
  0.8830999220123167  0.3186349303933317  0.3384319792773918
  0.3830998978724151  0.6659803971709946  0.6615680027980984
  0.3830999199587365  0.6659803959555518  0.3384319921869036
  0.8710171313407378  0.8370735878641110  0.4999999905904723
  0.3710171634808341  0.1475418351902073  0.4999999917110134
 
             NaN             NaN             NaN
             NaN             NaN             NaN
             NaN             NaN             NaN
             NaN             NaN             NaN
             NaN             NaN             NaN
             NaN             NaN             NaN
             NaN             NaN             NaN
             NaN             NaN             NaN
             NaN             NaN             NaN
             NaN             NaN             NaN
             NaN             NaN             NaN
             NaN             NaN             NaN
             NaN             NaN             NaN
             NaN             NaN             NaN
             NaN             NaN             NaN
             NaN             NaN             NaN
             NaN             NaN             NaN
             NaN             NaN             NaN
             NaN             NaN             NaN
             NaN             NaN             NaN
             NaN             NaN             NaN
             NaN             NaN             NaN
             NaN             NaN             NaN
             NaN             NaN             NaN
