Mg   Sb   N
1.0
  10.367624229654947 -0.0406866022293857 -0.0003862100171927
  -0.023395728036297 -5.962728844105232 0.0003385847223107
  0.0001196110449765 -0.0088862592571959 5.4194236852960795
 Mg  Sb  N 
8 4 12 
direct
   -0.8288425108514589   0.1567656303103241   0.0056392647478248
   -0.1711573436490763   0.1567654891512731   0.0056390108227437
   -0.1722655632176268   0.8295296971119721   0.4960902402542253
   -0.8277345158397722   0.8295294699028521   0.4960904163822428
   -0.3313441817455747   0.6530039285195467   0.0042225889508519
   -0.6686553976471946   0.6530039919724019   0.0042222065047609
   -0.6702163893456270   0.3302725842047252   0.5045856483546416
   -0.3297833474425590   0.3302725039492310   0.5045860110717142
   -0.0000018309387912   0.6697843907994623   0.9743566512079226
   -0.0000010725581906   0.3146581108123949   0.4940606378407978
   -0.4999986008364629   0.1676364617783080   0.9972880253415207
   -0.4999984156857623   0.8166824344267941   0.4970835055395507
   -0.1646558457976078   0.8214784529387071   0.8910408350420458
   -0.8353426175181237   0.8214799406627367   0.8910401040636585
   -0.9999997355246448   0.3327228922290027   0.8797786777692587
   -0.8375032032131895   0.1658369694128433   0.3915233872025558
   -0.1624959115178122   0.1658378845637636   0.3915237325305420
   -0.9999996762454284   0.6487724535782904   0.4017388985012778
   -0.6607834273788131   0.3189176095308036   0.8918795160820607
   -0.3392181543527421   0.3189168254893954   0.8918801097064071
   -0.6599648217384578   0.6644768407406665   0.3905702272336851
   -0.3400368466161478   0.6644776752275846   0.3905709808247986
   -0.5000003136089277   0.8377871084821548   0.8790999842120173
   -0.5000002694416104   0.1467752490400050   0.3795462589573165
