Mg   Sb   N                             
   1.00000000000000     
    -0.0039516161637191    0.0000930292243464    5.4178881823644902
    -5.9458200829030892   -0.0233148608541617    0.0002633568846398
     0.0405645775826683  -10.3373657385864490    0.0002932057594457
   Mg   Sb   N 
     8     4    12
Direct
  0.0032976916201952  0.1544611463717263  0.8295627462976752
  0.0032970665698281  0.1544611348444223  0.1704368095727571
  0.5025963604072181  0.8302694725656030  0.1705318162092476
  0.5025970028525717  0.8302692735763834  0.8294681112193352
  0.0033450599531302  0.6541078446861803  0.3297932045976456
  0.0033444481540752  0.6541078635493679  0.6702063512157214
  0.5034946740275713  0.3302982223742274  0.6703152916205490
  0.5034953054579715  0.3302980167579109  0.3296846192771484
  0.9955736782692307  0.6683003149189677  0.9999997490655490
  0.4960347028160733  0.3164831787699659 -0.0000001165663540
  0.9964633915359318  0.1679433227657662  0.4999997269894563
  0.4964544536028299  0.8164480805305974  0.4999998666746178
  0.8905314692442798  0.8188315484372644  0.1617439326731952
  0.8905317363540994  0.8188316504016113  0.8382567964363133
  0.8784403493357513  0.3371191213864743  0.0000000703862749
  0.3906873615045102  0.1660778641302999  0.8383705294716066
  0.3906870814014325  0.1660781503442330  0.1616296102985891
  0.3786225147989812  0.6476091558276778  0.9999999657217334
  0.8908572111099547  0.3186958111972576  0.6614473027788075
  0.8908574530379514  0.3186958861288532  0.3385534239767852
  0.3906866969381185  0.6657593189626946  0.6613936312569526
  0.3906869662422959  0.6657590247861825  0.3386065130795105
  0.8786956073276853  0.8371259530456051  0.5000000590230314
  0.3787621538860754  0.1473610305216559  0.4999999482552077
 
             NaN             NaN             NaN
             NaN             NaN             NaN
             NaN             NaN             NaN
             NaN             NaN             NaN
             NaN             NaN             NaN
             NaN             NaN             NaN
             NaN             NaN             NaN
             NaN             NaN             NaN
             NaN             NaN             NaN
             NaN             NaN             NaN
             NaN             NaN             NaN
             NaN             NaN             NaN
             NaN             NaN             NaN
             NaN             NaN             NaN
             NaN             NaN             NaN
             NaN             NaN             NaN
             NaN             NaN             NaN
             NaN             NaN             NaN
             NaN             NaN             NaN
             NaN             NaN             NaN
             NaN             NaN             NaN
             NaN             NaN             NaN
             NaN             NaN             NaN
             NaN             NaN             NaN
