Mg   Sb   N                             
   1.00000000000000     
     0.0015796321834006    0.0005980838163190    5.4470627380647096
    -5.9680395784661231   -0.0501336333258833    0.0016926858003871
     0.0873929412195096  -10.4043180937222122    0.0011060666848709
   Mg   Sb   N 
     8     4    12
Direct
  0.8870410807897221  0.1505007239246237  0.8331290427739436
  0.8869966818883731  0.1505051599026531  0.1668727611086482
  0.3870255596102140  0.8341183809594893  0.1668721577081949
  0.3870400412738930  0.8340991424434515  0.8331260041181645
  0.0064851666051187  0.6505141392092727  0.3331221706277191
  0.0064907173952149  0.6505046224179593  0.6668723603261439
  0.5064925806676071  0.3341018712954415  0.6668763285915691
  0.5064813779870888  0.3341138937089348  0.3331266014261436
  0.8899972700803204  0.6665190750658554  1.0000014274375630
  0.3899941729753078  0.3180899095645905  1.0000013741391016
  0.0035262207058593  0.1665261194280802  0.4999986730379412
  0.5035268644805654  0.8180928583613936  0.4999983053285757
  0.9968473188798254  0.8194674325657889  0.1586041052339046
  0.9968534857109856  0.8194478928448411  0.8413934063776678
  0.0098105699120018  0.3377379459869908  0.0000061311014754
  0.4968525422775463  0.1651526469778122  0.8413966033747357
  0.4968609098740902  0.1651610615641287  0.1586059036498300
  0.5098113678022643  0.6468700809635175  0.0000024847820231
  0.8966783149578256  0.3194510465365206  0.6586093447213007
  0.8966707284518050  0.3194614012644757  0.3413923637293693
  0.3966776626402609  0.6651537060092904  0.6586048415938928
  0.3966712143537156  0.6651652881610207  0.3413896783208144
  0.8837128160625323  0.8377437550822836  0.4999979538130374
  0.3837123955048634  0.1468738242207961  0.4999998709106067
 
             NaN             NaN             NaN
             NaN             NaN             NaN
             NaN             NaN             NaN
             NaN             NaN             NaN
             NaN             NaN             NaN
             NaN             NaN             NaN
             NaN             NaN             NaN
             NaN             NaN             NaN
             NaN             NaN             NaN
             NaN             NaN             NaN
             NaN             NaN             NaN
             NaN             NaN             NaN
             NaN             NaN             NaN
             NaN             NaN             NaN
             NaN             NaN             NaN
             NaN             NaN             NaN
             NaN             NaN             NaN
             NaN             NaN             NaN
             NaN             NaN             NaN
             NaN             NaN             NaN
             NaN             NaN             NaN
             NaN             NaN             NaN
             NaN             NaN             NaN
             NaN             NaN             NaN
