Mg   Sb   N
1.0
  10.389337963458434 -0.0407772817167316 -0.000558464630618
  -0.0234495522828247 -5.977419865563879 0.0005642682353234
  0.0001993565068669 -0.0259697342215024 5.42403019409086
 Mg  Sb  N 
8 4 12 
direct
   -0.8292736589411177   0.1573643472343262   0.0076719142107927
   -0.1707264282069318   0.1573646740779393   0.0076722245022487
   -0.1758125031763153   0.8318252462121578   0.4886019853126067
   -0.8241874536114719   0.8318251669806062   0.4886018459219317
   -0.3315441557862053   0.6522189194285064   0.0044555230918390
   -0.6684559374335093   0.6522189755590958   0.0044556780857195
   -0.6697704444799132   0.3305922280873468   0.5053199739338873
   -0.3302296342222674   0.3305921740065829   0.5053197992756790
   -0.0000008451797476   0.6717814561901509   0.8836223310394098
   -0.0000005106342930   0.3076445998330670   0.4965784417080766
   -0.4999996408405701   0.1671344775044973   0.9968844444588424
   -0.4999995214710262   0.8164822070895916   0.4976153635405661
   -0.1679783301864358   0.8253175780685478   0.8971948981292032
   -0.8320214122856899   0.8253177169743414   0.8971947959701998
   -1.0000000966876141   0.3244711279102518   0.8852299293456413
   -0.8366148814510603   0.1676093070866653   0.3917067316539876
   -0.1633842770713233   0.1676097574284219   0.3917071857703662
   -0.9999998699353289   0.6495399895880142   0.4807360529946755
   -0.6606740041392026   0.3187399751773354   0.8923024393859219
   -0.3393265247522759   0.3187396230846429   0.8923026182209075
   -0.6589780813554902   0.6636303008224512   0.3901685257540539
   -0.3410217986002597   0.6636306848996705   0.3901688329880845
   -0.5000000796272737   0.8377096533940550   0.8791235152460126
   -0.4999999026363386   0.1460244081968888   0.3794218686021805
