Mg   Sb   N                             
   1.00000000000000     
    -0.0054995638792913    0.0003056837893875    5.4301722058172199
    -5.9955187599304400   -0.0286423346041419    0.0008651795860071
     0.0601226814850690  -10.4272242001106132   -0.0138927569927557
   Mg   Sb   N 
     8     4    12
Direct
  0.9902582880159981  0.1526336268768990  0.8236475499604400
  0.9990067663038835  0.1508744546611775  0.1772028446303549
  0.4983615540438662  0.8327000771348888  0.1770970709454989
  0.4954297325580024  0.8317647467845791  0.8237449668645016
  0.0060948170008782  0.6522028856936103  0.3312753384602588
  0.0052017466090706  0.6533011935266363  0.6687648183817301
  0.5041321619099091  0.3326009046756766  0.6683819944256507
  0.5058227438041168  0.3320616233944362  0.3305628865717947
  0.8824349047728536  0.6647548163252036  0.0003049030316069
  0.3823670852780312  0.3190159059703805  0.9998053314375043
  0.9972662357667520  0.1676877476023263  0.4998867343441576
  0.4974567978827936  0.8176308422201559  0.5000032050117986
  0.8988505943204133  0.8211385748990494  0.1673430745878730
  0.8983909271955893  0.8208577164546473  0.8333702660517750
  0.9978932675886735  0.3430529142479430  0.0000439896256465
  0.4014413785142030  0.1631818862266795  0.8328397618876495
  0.3986393417241453  0.1625269923772339  0.1667453191525185
  0.4970812068345057  0.6408504542377254  0.0004596830313444
  0.8903213920203576  0.3214169096973230  0.6584047263896028
  0.8913754905950270  0.3202954758466037  0.3408903478086917
  0.3906102624803737  0.6649749137982059  0.6586335464759580
  0.3916376480685763  0.6643713146521629  0.3410774068243233
  0.8792338418651262  0.8390780073810649  0.5000106799763536
  0.3790680392246906  0.1463642767590285  0.4995036126122142
 
             NaN             NaN             NaN
             NaN             NaN             NaN
             NaN             NaN             NaN
             NaN             NaN             NaN
             NaN             NaN             NaN
             NaN             NaN             NaN
             NaN             NaN             NaN
             NaN             NaN             NaN
             NaN             NaN             NaN
             NaN             NaN             NaN
             NaN             NaN             NaN
             NaN             NaN             NaN
             NaN             NaN             NaN
             NaN             NaN             NaN
             NaN             NaN             NaN
             NaN             NaN             NaN
             NaN             NaN             NaN
             NaN             NaN             NaN
             NaN             NaN             NaN
             NaN             NaN             NaN
             NaN             NaN             NaN
             NaN             NaN             NaN
             NaN             NaN             NaN
             NaN             NaN             NaN
