Mg   Sb   N                             
   1.00000000000000     
    -0.0082868576206542    0.0001860655965519    5.4232624426250604
    -5.9739679304805380   -0.0234394691525985    0.0005266543164880
     0.0407609712215874  -10.3864047930449743    0.0004025732744526
   Mg   Sb   N 
     8     4    12
Direct
  0.0072922007459051  0.1575006459304358  0.8289573697232047
  0.0072922784774974  0.1575007422693917  0.1710426009906572
  0.4908504039458686  0.8306226043212102  0.1744899175138579
  0.4908503323637590  0.8306226209782651  0.8255101023243051
  0.0047620163467491  0.6525482283854045  0.3317108799592251
  0.0047620770463382  0.6525482600907685  0.6682891325191606
  0.5050361074182836  0.3305944002710229  0.6699969484129831
  0.5050360453345106  0.3305943617767758  0.3300031620978887
  0.8978380470487934  0.6712357015220767  0.9999999507269394
  0.4943541499903846  0.3099402728018059  1.0000000000451446
  0.9971861223355463  0.1676028242719664  0.5000000581150487
  0.4973800576423060  0.8168492864948599  0.5000000863449066
  0.8958434216776017  0.8246695372795788  0.1677618230059371
  0.8958433800085803  0.8246693852988178  0.8322382799585754
  0.8842972288142755  0.3255953400398849 -0.0000000265410037
  0.3918962390300917  0.1663177431204379  0.8367618126161698
  0.3918962834999755  0.1663178011170925  0.1632380018945503
  0.4675686146022849  0.6493224154690057  0.9999999070579252
  0.8921832662034821  0.3189267089396478  0.6606518190566092
  0.8921832234061232  0.3189266487124001  0.3393482475805054
  0.3905087966402027  0.6639996826806049  0.6592835527795671
  0.3905087864616304  0.6639996808688842  0.3407162847251250
  0.8791455191046882  0.8379850006125548  0.5000000618170444
  0.3795423209995105  0.1464947015823429  0.5000000199872486
 
             NaN             NaN             NaN
             NaN             NaN             NaN
             NaN             NaN             NaN
             NaN             NaN             NaN
             NaN             NaN             NaN
             NaN             NaN             NaN
             NaN             NaN             NaN
             NaN             NaN             NaN
             NaN             NaN             NaN
             NaN             NaN             NaN
             NaN             NaN             NaN
             NaN             NaN             NaN
             NaN             NaN             NaN
             NaN             NaN             NaN
             NaN             NaN             NaN
             NaN             NaN             NaN
             NaN             NaN             NaN
             NaN             NaN             NaN
             NaN             NaN             NaN
             NaN             NaN             NaN
             NaN             NaN             NaN
             NaN             NaN             NaN
             NaN             NaN             NaN
             NaN             NaN             NaN
