Mg   Sb   N
1.0
  10.425081401281219 -0.0497658385551564 0.0080635211201631
  -0.0189254487062041 -5.998450939870988 0.0010908630990198
  0.0003854292512779 0.0029545679593331 5.43477871461199
 Mg  Sb  N 
8 4 12 
direct
   -0.8316670496506955   0.1592681747931839   0.8867574102645763
   -0.1766334587936404   0.1492342407720346   0.0004943383331521
   -0.1767438307167624   0.8329524679209392   0.4981545189116133
   -0.8265104982224956   0.8272937830101866   0.4707902416778531
   -0.3309887135770374   0.6513351878828540   0.0060742149480065
   -0.6677349509219566   0.6539665711679524   0.0051851109080799
   -0.6647754884604961   0.3353965582527356   0.5009572794927635
   -0.3295659926479907   0.3318377242758675   0.5062192676088362
   -0.9998022877089575   0.6634923384745466   0.8826124199556502
   -0.9983414325140950   0.3173912685894865   0.3821102413934431
   -0.4994657588166762   0.1674958338631271   0.9980118792415205
   -0.4993067276494366   0.8182456451598319   0.4984094847267930
   -0.1670759928415664   0.8193936199611552   0.8981739444197477
   -0.8348095060985782   0.8189185869032106   0.9197654299186061
   -0.9970874293753422   0.3398031961820747   0.0000033966062038
   -0.8391641865191612   0.1688544546099235   0.4870849268719009
   -0.1659516722414834   0.1626652715134275   0.3970305033969592
   -0.0007814928705063   0.6403620220782162   0.4966491909461765
   -0.6566994752265578   0.3233729832388064   0.8923753600444960
   -0.3400376296042105   0.3190904425176345   0.8916222618676695
   -0.6576171875792158   0.6656097341150720   0.3905198937045992
   -0.3408544874431786   0.6640766129674476   0.3915212420409242
   -0.4995766453989277   0.8391019314504272   0.8795259517935741
   -0.4988080715743043   0.1462292148896248   0.3795189047775314
