Mg   Sb   N
1.0
  10.420325357808949 -0.0408910461098246 -0.0004165698620752
  -0.0234805109221289 -5.983768776399864 0.0007147239106652
  0.0002525201481272 0.0098301406278119 5.42710119995404
 Mg  Sb  N 
8 4 12 
direct
   -0.8272615213586151   0.1559331950610903   0.9991011612629601
   -0.1727384577699993   0.1559331824374884   0.9991011243065305
   -0.1770048177282032   0.8311209971141714   0.4951897157492964
   -0.8229951985928657   0.8311209614697643   0.4951897459159100
   -0.3305767430392425   0.6533282131570560   0.0045421993951456
   -0.6694232254983539   0.6533282263297957   0.0045421818027083
   -0.6680933777672091   0.3325450770072981   0.5061748168973909
   -0.3319066152910455   0.3325450598704257   0.5061748349788563
   -0.9999999724416035   0.6651094064913369   0.8837886443181949
   -0.9999999740841963   0.3120731899782515   0.4383868863937229
   -0.5000000027022358   0.1678181738180999   0.9972526623215073
   -0.5000000052258370   0.8175549565667154   0.4976610180202792
   -0.1670442486613413   0.8235138015887642   0.8959686395094418
   -0.8329557685209242   0.8235138245786702   0.8959686810305784
   -0.9999999974225147   0.3316930949037943   0.9380837491700598
   -0.8330029524581556   0.1641956886845111   0.3942428399441704
   -0.1669970541619006   0.1641957036817368   0.3942427805261114
   -0.9999999927189076   0.6475685346016139   0.4851319173293041
   -0.6595857128916157   0.3196301921579832   0.8919192694842762
   -0.3404143276985208   0.3196301873413847   0.8919192532614498
   -0.6586156404762771   0.6641621250395519   0.3903520700239355
   -0.3413843692547699   0.6641621022009725   0.3903520574041165
   -0.5000000108298783   0.8382717657442770   0.8792982283661395
   -0.5000000061173058   0.1464369350105357   0.3794724417328827
