Mg   Sb   N
1.0
  10.407879854434826 -0.133264152670382 -0.0032314025861313
  -0.0745217613547669 -5.977652560539825 0.0016550718815516
  0.000584792906004 -0.0007495115790912 5.44629498659891
 Mg  Sb  N 
8 4 12 
direct
   -0.8325901976685630   0.1514197664377208   0.8834869449980900
   -0.1679609045514318   0.1519864323898588   0.9013814136704169
   -0.1670918348074153   0.8312155835305056   0.3861984369219356
   -0.8330145350750915   0.8349931737017658   0.3837132994019595
   -0.3337981101668729   0.6496748708380599   0.0039440487104979
   -0.6670241900681052   0.6509701139302841   0.0035001736719250
   -0.6665001552021612   0.3346339151968359   0.5033345301150206
   -0.3328249099235420   0.3330147081102768   0.5049276365925862
   -0.9994948905746975   0.6673207319072262   0.8867671882203141
   -0.9994596880293733   0.3184283700668245   0.3873288084453982
   -0.5002563701131514   0.1662049410329587   0.0009894479132899
   -0.5001937561271387   0.8178472441792241   0.5006747303354235
   -0.1590523815252786   0.8169791947155410   0.9934777889781672
   -0.8412402456764040   0.8210018573757210   0.9935551322366614
   -0.9983799363072016   0.3392514837867052   0.0063536877657364
   -0.8408522329265620   0.1654565097096490   0.4937553158313415
   -0.1597646107152253   0.1650593026110837   0.4826630544264205
   -0.9993966542315326   0.6469750687397604   0.5067136983632329
   -0.6582253095127958   0.3203896780018639   0.8936692329253343
   -0.3417480421657265   0.3191286286055023   0.8940630941856287
   -0.6588016240521711   0.6653745234028227   0.3938176129948044
   -0.3420054872194163   0.6637518672402322   0.3942988553346922
   -0.5002740805409658   0.8380232829745017   0.8809836344433305
   -0.5000498329933183   0.1462832947567720   0.3810891269251021
