Mg   Sb   N
1.0
  10.404318093722212 -0.0873929412195096 -0.0011060666848709
  -0.0501336333258833 -5.968039578466123 0.0016926858003871
  0.000598083816319 0.0015796321834006 5.44706273806471
 Mg  Sb  N 
8 4 12 
direct
   -0.8331290427739436   0.1505007239246237   0.8870410807897221
   -0.1668727611086482   0.1505051599026531   0.8869966818883731
   -0.1668721577081949   0.8341183809594893   0.3870255596102141
   -0.8331260041181644   0.8340991424434516   0.3870400412738930
   -0.3331221706277190   0.6505141392092728   0.0064851666051187
   -0.6668723603261439   0.6505046224179594   0.0064907173952149
   -0.6668763285915691   0.3341018712954416   0.5064925806676072
   -0.3331266014261436   0.3341138937089348   0.5064813779870888
   -1.0000014274375630   0.6665190750658554   0.8899972700803204
   -1.0000013741391016   0.3180899095645905   0.3899941729753079
   -0.4999986730379412   0.1665261194280802   0.0035262207058593
   -0.4999983053285757   0.8180928583613937   0.5035268644805654
   -0.1586041052339046   0.8194674325657889   0.9968473188798253
   -0.8413934063776679   0.8194478928448410   0.9968534857109856
   -0.0000061311014754   0.3377379459869908   0.0098105699120018
   -0.8413966033747357   0.1651526469778123   0.4968525422775464
   -0.1586059036498300   0.1651610615641287   0.4968609098740903
   -0.0000024847820231   0.6468700809635176   0.5098113678022643
   -0.6586093447213008   0.3194510465365206   0.8966783149578256
   -0.3413923637293693   0.3194614012644758   0.8966707284518050
   -0.6586048415938928   0.6651537060092905   0.3966776626402609
   -0.3413896783208144   0.6651652881610207   0.3966712143537156
   -0.4999979538130374   0.8377437550822836   0.8837128160625324
   -0.4999998709106067   0.1468738242207961   0.3837123955048634
