Mg   Sb   N
1.0
  10.419880932350317 -0.0459425381345005 0.0085532239563526
  -0.0210994477631987 -5.995071733011898 0.0011660909366907
  0.0004120110719081 0.0033320227237511 5.43631421754358
 Mg  Sb  N 
8 4 12 
direct
   -0.8321455857587856   0.1573054690532317   0.8840925591405073
   -0.1764135579220258   0.1491249933436529   0.0005311646651005
   -0.1765641220951294   0.8331945379735652   0.4992825042957859
   -0.8288945020768429   0.8293328671638248   0.4324494262537029
   -0.3306197089003383   0.6513397838645977   0.0061945432527785
   -0.6669277600457290   0.6528547158318883   0.0039661412748517
   -0.6648898087530796   0.3348099659195975   0.5014099329644748
   -0.3295594945757988   0.3318755450556126   0.5063769141363701
   -0.9988331579374699   0.6647226833431548   0.8833425605510498
   -0.9980989529840467   0.3178710658855130   0.3820665490254908
   -0.4994669113648353   0.1672952263386589   0.9981561622467322
   -0.4991526288510472   0.8180540953920838   0.4987835860296899
   -0.1667627647575710   0.8192197557890054   0.8977571644078066
   -0.8369734694224775   0.8210009391612376   0.9527314768154377
   -0.9969336601113763   0.3403497946689269   0.0002922879113607
   -0.8397778345769391   0.1673270608284237   0.4900541416217004
   -0.1657861223852766   0.1630636016063163   0.3972130578668764
   -0.9991747703365821   0.6413206522765543   0.4985633752636909
   -0.6569275278041062   0.3225488652461560   0.8923540499303096
   -0.3399722378180177   0.3189639663077447   0.8916723811806672
   -0.6572239975962429   0.6647364882313908   0.3914577220212861
   -0.3405750883893287   0.6641609364226501   0.3915500453707906
   -0.4994061590370504   0.8388402459801106   0.8797077586551174
   -0.4989201429531764   0.1460746089058556   0.3795619089690951
