Mg   Sb   N
1.0
  10.409544009964694 -0.0492009839513222 -0.0021021858942069
  0.0191997882491131 5.989260213517803 -0.0013165466120325
  0.0004651747131683 -0.0003855511099824 5.43938522340676
 Mg  Sb  N 
8 4 12 
direct
   -0.8322544561251088  -0.1520681039206690   0.8820021459304750
   -0.1745095854984780  -0.1538806764021869   0.9967879489535518
   -0.1726523818265625  -0.8307697530150790   0.4640439455212357
   -0.8325250516424506  -0.8342621082409000   0.3818762038913497
   -0.3318649349376866  -0.6498343624981266   0.0051190492374457
   -0.6665865105118374  -0.6507408223727802   0.0025011489414934
   -0.6658124669919976  -0.3337749084339059   0.5025865831726013
   -0.3303242778510322  -0.3308421326444852   0.5075133006902357
   -0.9976588667131244  -0.6677394101698257   0.8852928601434925
   -0.9966194082750268  -0.3205816228153879   0.3835474149724831
   -0.4997572765503007  -0.1658597312852046   0.9993590892561364
   -0.5000675902708364  -0.8169124891831666   0.4997211352288177
   -0.1645390191844333  -0.8179144751444524   0.9264662663740804
   -0.8405293041456799  -0.8232376074086482   0.9932213042253366
   -0.9946022585359078  -0.3424479125293791   0.0017784389405737
   -0.8405379274980297  -0.1632218960896973   0.4937471463679379
   -0.1647287984211764  -0.1678963832637626   0.4004465360105897
   -0.9965728808926148  -0.6454276633204790   0.5030807473253847
   -0.6577204414069265  -0.3204337681401890   0.8930458267347885
   -0.3406369337683449  -0.3179625508045696   0.8918821604953020
   -0.6583972311002197  -0.6641295267537902   0.3932781587254275
   -0.3414354029235410  -0.6626561162899912   0.3925313532270140
   -0.5002094391010279  -0.8375809699736838   0.8804573005589589
   -0.4994575362217490  -0.1452095944652774   0.3803406319357883
