Mg   Sb   N
1.0
  10.433752911392027 -0.0501987900662345 0.0090038276907045
  -0.0186908556241801 -5.998355946168514 0.0009780213425134
  0.0003455565203327 0.0023981759343404 5.4324754602146
 Mg  Sb  N 
8 4 12 
direct
   -0.8276562758869861   0.1564608775573575   0.9363238088443508
   -0.1769975081234309   0.1503108301103810   0.9991566877601865
   -0.1769920838914446   0.8330715829430693   0.4969158436762034
   -0.8247478160332021   0.8280346354119817   0.4892419737055069
   -0.3311959049012397   0.6520778745971461   0.0057878120938250
   -0.6682367018681893   0.6541137761132023   0.0058133724849700
   -0.6663186093949006   0.3346746451971860   0.5026560071824757
   -0.3301687302758363   0.3322493168347055   0.5057905245663066
   -0.0005562638236169   0.6632801803109956   0.8809360358681321
   -0.9992094749115767   0.3176065291657709   0.3823488984596938
   -0.4994330266758498   0.1678031573654107   0.9980910717270293
   -0.4996689551303631   0.8183253431256201   0.4978023870830978
   -0.1672514408175297   0.8203373412320445   0.8979966503986418
   -0.8338448729701105   0.8175518464021747   0.9026501097483239
   -0.9987787903637076   0.3407088385195218   0.9974848275757109
   -0.8354337969840894   0.1659542614788878   0.4450344224257496
   -0.1667299321321648   0.1628862655683678   0.3968444167323559
   -0.0012422752529660   0.6406602901948155   0.4951711844985073
   -0.6569888775549225   0.3231316382876326   0.8914961858363007
   -0.3405359739056322   0.3199216239541874   0.8913100539928624
   -0.6579674578663605   0.6656520077944299   0.3904509021374103
   -0.3411210867019801   0.6644734804550686   0.3913294974441729
   -0.4998801231775770   0.8394423166694411   0.8794034280486651
   -0.4990439878096121   0.1466592053003580   0.3795313115602046
