Mg   Sb   N                             
   1.00000000000000     
    -0.0000689174096766    0.0005050474441135    5.4416884778041403
    -5.9910412646904518   -0.0166723635996810    0.0014293883685389
     0.0536166395262119  -10.4122079599661639    0.0016801371893469
   Mg   Sb   N 
     8     4    12
Direct
  0.8824866250049538  0.1521607886028456  0.8321220703034065
  0.9911304634448914  0.1568151530658423  0.1736269232518954
  0.4010840609186611  0.8265919043345938  0.1686042302729835
  0.3824231612049243  0.8350825199149692  0.8327104003408906
  0.0033511741007663  0.6481776312686015  0.3339180512276922
  0.0026989986299146  0.6509109040720306  0.6670076816027746
  0.5028077955976856  0.3343075567331886  0.6657842681604883
  0.5079046652072994  0.3302307124207028  0.3306648830694887
  0.8863509405998222  0.6689867493596162  0.9986740440702351
  0.3844307667175936  0.3214824972775414  0.9969036807163179
  0.9998820633963363  0.1655357429393519  0.4999848919549711
  0.5001507618793990  0.8170277127303462  0.5003044915694734
  0.9806180478755943  0.8138543687743195  0.1611176404164615
  0.9929492120476038  0.8230554535713692  0.8407475761108220
  0.0022014135078794  0.3430122107426655  0.9942201947704966
  0.4939386767586166  0.1644580241570393  0.8405644845940748
  0.4064679595916723  0.1693114332187515  0.1644103985672117
  0.5056730567720311  0.6476567493549023  0.9985426264181999
  0.8931235914741493  0.3206032154627982  0.6576507230942724
  0.8918421882757361  0.3173245641152713  0.3410001539379266
  0.3935937586942584  0.6646660814057759  0.6588030638072606
  0.3942773618814295  0.6613317574551204  0.3425033085673183
  0.8807348098633306  0.8376525552399355  0.5005397032676137
  0.3805051434159172  0.1451482989480747  0.4995944903018127
 
             NaN             NaN             NaN
             NaN             NaN             NaN
             NaN             NaN             NaN
             NaN             NaN             NaN
             NaN             NaN             NaN
             NaN             NaN             NaN
             NaN             NaN             NaN
             NaN             NaN             NaN
             NaN             NaN             NaN
             NaN             NaN             NaN
             NaN             NaN             NaN
             NaN             NaN             NaN
             NaN             NaN             NaN
             NaN             NaN             NaN
             NaN             NaN             NaN
             NaN             NaN             NaN
             NaN             NaN             NaN
             NaN             NaN             NaN
             NaN             NaN             NaN
             NaN             NaN             NaN
             NaN             NaN             NaN
             NaN             NaN             NaN
             NaN             NaN             NaN
             NaN             NaN             NaN
