Sc   Al   N                             
   1.00000000000000     
    -9.9269153510026467   -0.0137050638158122   -0.0106266428883206
    -4.9475437039979395    8.5932774949750002   -0.0125025385887233
    -0.0713977753173132    0.0480416443371972  -10.0597640474242596
   Sc   Al   N 
    10    26    36
Direct
  0.0931308755725482  0.1063040979814573  0.3702995537608231
  0.4547039978517731  0.0961840019508102  0.3353439316293887
  0.1030822201717356  0.1022863910143741  0.8754862733393907
  0.2200935318510133  0.2156919065211369  0.6143133835137036
  0.4559341475143626  0.0928718560748933  0.8335104653402112
  0.8822640110350477  0.5418226264616877  0.6125369753434526
  0.1047478972623779  0.7518544892016337  0.3608447033182145
  0.4568879302430844  0.7509761124782983  0.3453010331784725
  0.2183191309504124  0.8672170981742937  0.6140683178802320
  0.4567551764244584  0.7509162115088941  0.8505812913232162
  0.2184513313792849  0.2123185142577242  0.1334991412155659
  0.7779545425714502  0.0907543363077039  0.8226526134040100
  0.8740024251777427  0.2138835967304473  0.6368064777104649
  0.5608043327264127  0.2036017678731596  0.0667217659210309
  0.7680863980341712  0.0993603597819401  0.3142898383968529
  0.8816901386203924  0.2118695898472680  0.1283699247739349
  0.5661442480853438  0.2046782446490809  0.5712762163786067
  0.1124386009161711  0.4334545769106981  0.3764622219208462
  0.2299673423613910  0.5284719687278994  0.1294182625378255
  0.7779683613253852  0.4281319570536439  0.8848777593502248
  0.4442229777482893  0.4298590111453038  0.3848156062384334
  0.5587298477012652  0.5279280074531485  0.1292997290301443
  0.1052685975560905  0.4356056165838140  0.8853162199991829
  0.2191302293684956  0.5435747209475110  0.6361770646372094
  0.7694781729265614  0.4218108283017088  0.3796470686470812
  0.8902612634312064  0.5343157953354734  0.1346296477328153
  0.4450379948192591  0.4294131628740061  0.8811376437220346
  0.5586216515120199  0.5271875870696547  0.6347874392633841
  0.2236332952600364  0.8700253828953919  0.1134613629124246
  0.7879304015367055  0.7620795639492144  0.8229826397838167
  0.8758906757034808  0.8831462225273583  0.5681993386046571
  0.5654467714217972  0.8686096839768922  0.0736097030536271
  0.1122799878063674  0.7533028807769071  0.8871102953226924
  0.7796590654944708  0.7643306180554106  0.3201199849327736
  0.8819421943450791  0.8747098317507920  0.0719208630946042
  0.5690133292185777  0.8695646341417103  0.5729019752710798
  0.2114570130567515  0.2251060296745493  0.3274684025435235
  0.1093252975751255  0.0955590031964633  0.0957085801832065
  0.8700432662934574  0.2190159235315292  0.8304076725305052
  0.7753776851490883  0.0922569853993309  0.6305067745980182
  0.5690194436654821  0.2143721585556619  0.3814341500654166
  0.4464050548583032  0.0946990815886295  0.1107634822136347
  0.2132371582513031  0.2290390507633759  0.8270905663949293
  0.0838223372264153  0.1105510545076029  0.5871024198512487
  0.8649332562625389  0.2200893179446979  0.3155312659819316
  0.7741335587041860  0.0909691252892486  0.1207403071244570
  0.5704261618102322  0.2098802095535746  0.8776134982994179
  0.4648904832917680  0.0871611423686147  0.6095596761916440
  0.2401494691139092  0.5128327754335729  0.3154072530784262
  0.1081978702775359  0.4300032633997475  0.0779736093537693
  0.8902862163151752  0.5364472864512777  0.8329193798593764
  0.7624642466464877  0.4166439515973650  0.5674336183745083
  0.5643078901300811  0.5140425164166444  0.3172105839109136
  0.4426278501035483  0.4310447202263106  0.0730515518802193
  0.2218142740761806  0.5388652368903664  0.8309866440231275
  0.1163209121206563  0.4466237965055413  0.5627760608495223
  0.8890105572310816  0.5348843303464790  0.3347266970253884
  0.7775445218311035  0.4300785405255496  0.0757498567470165
  0.5694488069264523  0.5128395927600806  0.8249652623116219
  0.4359467814682887  0.4372598673402237  0.5805658716733362
  0.2221886981501200  0.8705392641304570  0.3509767539400741
  0.1130114062420162  0.7560941957024596  0.0918424801356608
  0.8897929231079260  0.8726937013415395  0.8813511985078577
  0.7719799210108746  0.7833370859655773  0.6342494403925940
  0.5800453309937410  0.8607214656175870  0.3842661700306280
  0.4476580805790604  0.7585583223729913  0.1048733164230882
  0.2138678522305710  0.8621684038239579  0.8415135496133672
  0.0960737749923126  0.7524440696941639  0.5798000235890939
  0.8610936496656763  0.8912986748404492  0.3751136165276066
  0.7804698497200775  0.7614912933905416  0.1298248359940146
  0.5854420699738512  0.8593141628049423  0.8884259732630468
  0.4694990881198322  0.7497188440168188  0.6134366566566314
 
  0.00000000E+00  0.00000000E+00  0.00000000E+00
  0.00000000E+00  0.00000000E+00  0.00000000E+00
  0.00000000E+00  0.00000000E+00  0.00000000E+00
  0.00000000E+00  0.00000000E+00  0.00000000E+00
  0.00000000E+00  0.00000000E+00  0.00000000E+00
  0.00000000E+00  0.00000000E+00  0.00000000E+00
  0.00000000E+00  0.00000000E+00  0.00000000E+00
  0.00000000E+00  0.00000000E+00  0.00000000E+00
  0.00000000E+00  0.00000000E+00  0.00000000E+00
  0.00000000E+00  0.00000000E+00  0.00000000E+00
  0.00000000E+00  0.00000000E+00  0.00000000E+00
  0.00000000E+00  0.00000000E+00  0.00000000E+00
  0.00000000E+00  0.00000000E+00  0.00000000E+00
  0.00000000E+00  0.00000000E+00  0.00000000E+00
  0.00000000E+00  0.00000000E+00  0.00000000E+00
  0.00000000E+00  0.00000000E+00  0.00000000E+00
  0.00000000E+00  0.00000000E+00  0.00000000E+00
  0.00000000E+00  0.00000000E+00  0.00000000E+00
  0.00000000E+00  0.00000000E+00  0.00000000E+00
  0.00000000E+00  0.00000000E+00  0.00000000E+00
  0.00000000E+00  0.00000000E+00  0.00000000E+00
  0.00000000E+00  0.00000000E+00  0.00000000E+00
  0.00000000E+00  0.00000000E+00  0.00000000E+00
  0.00000000E+00  0.00000000E+00  0.00000000E+00
  0.00000000E+00  0.00000000E+00  0.00000000E+00
  0.00000000E+00  0.00000000E+00  0.00000000E+00
  0.00000000E+00  0.00000000E+00  0.00000000E+00
  0.00000000E+00  0.00000000E+00  0.00000000E+00
  0.00000000E+00  0.00000000E+00  0.00000000E+00
  0.00000000E+00  0.00000000E+00  0.00000000E+00
  0.00000000E+00  0.00000000E+00  0.00000000E+00
  0.00000000E+00  0.00000000E+00  0.00000000E+00
  0.00000000E+00  0.00000000E+00  0.00000000E+00
  0.00000000E+00  0.00000000E+00  0.00000000E+00
  0.00000000E+00  0.00000000E+00  0.00000000E+00
  0.00000000E+00  0.00000000E+00  0.00000000E+00
  0.00000000E+00  0.00000000E+00  0.00000000E+00
  0.00000000E+00  0.00000000E+00  0.00000000E+00
  0.00000000E+00  0.00000000E+00  0.00000000E+00
  0.00000000E+00  0.00000000E+00  0.00000000E+00
  0.00000000E+00  0.00000000E+00  0.00000000E+00
  0.00000000E+00  0.00000000E+00  0.00000000E+00
  0.00000000E+00  0.00000000E+00  0.00000000E+00
  0.00000000E+00  0.00000000E+00  0.00000000E+00
  0.00000000E+00  0.00000000E+00  0.00000000E+00
  0.00000000E+00  0.00000000E+00  0.00000000E+00
  0.00000000E+00  0.00000000E+00  0.00000000E+00
  0.00000000E+00  0.00000000E+00  0.00000000E+00
  0.00000000E+00  0.00000000E+00  0.00000000E+00
  0.00000000E+00  0.00000000E+00  0.00000000E+00
  0.00000000E+00  0.00000000E+00  0.00000000E+00
  0.00000000E+00  0.00000000E+00  0.00000000E+00
  0.00000000E+00  0.00000000E+00  0.00000000E+00
  0.00000000E+00  0.00000000E+00  0.00000000E+00
  0.00000000E+00  0.00000000E+00  0.00000000E+00
  0.00000000E+00  0.00000000E+00  0.00000000E+00
  0.00000000E+00  0.00000000E+00  0.00000000E+00
  0.00000000E+00  0.00000000E+00  0.00000000E+00
  0.00000000E+00  0.00000000E+00  0.00000000E+00
  0.00000000E+00  0.00000000E+00  0.00000000E+00
  0.00000000E+00  0.00000000E+00  0.00000000E+00
  0.00000000E+00  0.00000000E+00  0.00000000E+00
  0.00000000E+00  0.00000000E+00  0.00000000E+00
  0.00000000E+00  0.00000000E+00  0.00000000E+00
  0.00000000E+00  0.00000000E+00  0.00000000E+00
  0.00000000E+00  0.00000000E+00  0.00000000E+00
  0.00000000E+00  0.00000000E+00  0.00000000E+00
  0.00000000E+00  0.00000000E+00  0.00000000E+00
  0.00000000E+00  0.00000000E+00  0.00000000E+00
  0.00000000E+00  0.00000000E+00  0.00000000E+00
  0.00000000E+00  0.00000000E+00  0.00000000E+00
  0.00000000E+00  0.00000000E+00  0.00000000E+00
