Sc   Al   N                             
   1.00000000000000     
    -9.8420822916628499   -0.0157347143593939    0.0043815693309488
    -4.8853380370188901    8.4980437480262498    0.0035020153198617
    -0.0031930825931295    0.0566221686380989  -10.3257603450036992
   Sc   Al   N 
    10    26    36
Direct
  0.0988537690679934  0.1014489490577972  0.3141283488315025
  0.4486164172511238  0.0974903194064467  0.3241459091930210
  0.0993638975831033  0.1025081000162587  0.8387031244397534
  0.2187820764347137  0.2137239784129221  0.5755436012403834
  0.4533098107357532  0.0957571348200972  0.8267564905048914
  0.8843991455560598  0.5450269782154535  0.5760742692254723
  0.1033568411044712  0.7519838091738151  0.3630635841427861
  0.4525777764515482  0.7525016045671507  0.3224808190449338
  0.2204217242504853  0.8694952121529056  0.5869245677474098
  0.4584843880764566  0.7513818700489239  0.8299725619254801
  0.2216417186364907  0.2126240299869977  0.0654442678939446
  0.7786473170402104  0.0951474795342548  0.8215767497270008
  0.8757279548135770  0.2089318051552169  0.5725032287340284
  0.5630225120730898  0.2015568321616286  0.0695713954638251
  0.7700018668196478  0.1022203570744438  0.3230279759701205
  0.8784619887965377  0.2102657367325378  0.0691397283563902
  0.5641497533567374  0.2014502324783152  0.5729432603613489
  0.1042619233721211  0.4271774669287467  0.3088090329447937
  0.2329311062996950  0.5311067452033384  0.1353968200712998
  0.7750322331141035  0.4235365415896979  0.8223693522614255
  0.4413289586197635  0.4267026330321642  0.3926577706770757
  0.5638490440623656  0.5342425293509763  0.0706166472270766
  0.1050201989084485  0.4362589720225785  0.8290012222710175
  0.2245326631331821  0.5447430221189506  0.6470914705441402
  0.7761593153610420  0.4261518668329742  0.3198204151264008
  0.8875159174772733  0.5397596022305819  0.0697040680525944
  0.4433714830534967  0.4291001580632638  0.8914551111076108
  0.5621986996212698  0.5325990457744609  0.5727493650195328
  0.2268925347679485  0.8701161673941158  0.0664588964317829
  0.7857608577781576  0.7627365389593166  0.8250595126710749
  0.8756856478614168  0.8803024340512380  0.5704996573890995
  0.5637660136963305  0.8701051278203806  0.0690452834899489
  0.1098175849995258  0.7517622166885829  0.8961046846710659
  0.7783019041785550  0.7612329192047298  0.3170774171313440
  0.8815476074913065  0.8769789580393805  0.0758104801980366
  0.5674783469601294  0.8690678587580365  0.5702984458060243
  0.2095310325372992  0.2233448888972305  0.3716234201645605
  0.1091613938604610  0.0952681195230767  0.1014917106503788
  0.8652214555697313  0.2160050280882544  0.8876158124667270
  0.7772703255409255  0.0938563072274121  0.6343057118296755
  0.5666250140520788  0.2100457339217812  0.3863531428634772
  0.4462054069853707  0.0945258680823784  0.1121757154885472
  0.2169187747694750  0.2268796255641803  0.8825935975235808
  0.0857963967653106  0.1088968241568296  0.6309191872022524
  0.8686225093386426  0.2156308774831359  0.3845824194095897
  0.7774319150188234  0.0950442223153445  0.1343216259034961
  0.5712743136623146  0.2087208161763741  0.8832156669064872
  0.4615871323518306  0.0860120158638722  0.6170432253132958
  0.2408999508467033  0.5124209834425102  0.3197047616042497
  0.1055668703786736  0.4284625555547166  0.1206543534245839
  0.8864622339798345  0.5404527687146228  0.8792486924426228
  0.7684832917333821  0.4182073295985518  0.6375720644450240
  0.5694888474209492  0.5206045207189547  0.3841947114190418
  0.4435198614810147  0.4275217257178880  0.0822831265608599
  0.2273570790274633  0.5431284804593020  0.8385177696872859
  0.1110080387908781  0.4387955255859097  0.6452122023108657
  0.8900348824769182  0.5399131957905396  0.3654928348023248
  0.7789775422520009  0.4270783738343411  0.1314892463236106
  0.5711237438027865  0.5209412287141788  0.8860677071152452
  0.4355477667018235  0.4320779592739754  0.5862430471784421
  0.2227090186300700  0.8746263296748111  0.3800602034546543
  0.1119524254987354  0.7564282630721095  0.0958980774006335
  0.8871171976545682  0.8758309188850006  0.8867164338004585
  0.7716603819672514  0.7795632023582186  0.6408991339091799
  0.5760593046724622  0.8602879860949670  0.3854424747169958
  0.4483337319570211  0.7595565817954366  0.1100898077243926
  0.2193383276850795  0.8599496550902401  0.8775342231886114
  0.0971541564013236  0.7474789205110497  0.5788018936592252
  0.8585112834506319  0.8900634984679954  0.3803126258634109
  0.7796161775643498  0.7604868049633211  0.1302810759523254
  0.5812891799133268  0.8626860190130827  0.8890657356105294
  0.4691119319197270  0.7489755596622487  0.6211116846896090
 
  0.00000000E+00  0.00000000E+00  0.00000000E+00
  0.00000000E+00  0.00000000E+00  0.00000000E+00
  0.00000000E+00  0.00000000E+00  0.00000000E+00
  0.00000000E+00  0.00000000E+00  0.00000000E+00
  0.00000000E+00  0.00000000E+00  0.00000000E+00
  0.00000000E+00  0.00000000E+00  0.00000000E+00
  0.00000000E+00  0.00000000E+00  0.00000000E+00
  0.00000000E+00  0.00000000E+00  0.00000000E+00
  0.00000000E+00  0.00000000E+00  0.00000000E+00
  0.00000000E+00  0.00000000E+00  0.00000000E+00
  0.00000000E+00  0.00000000E+00  0.00000000E+00
  0.00000000E+00  0.00000000E+00  0.00000000E+00
  0.00000000E+00  0.00000000E+00  0.00000000E+00
  0.00000000E+00  0.00000000E+00  0.00000000E+00
  0.00000000E+00  0.00000000E+00  0.00000000E+00
  0.00000000E+00  0.00000000E+00  0.00000000E+00
  0.00000000E+00  0.00000000E+00  0.00000000E+00
  0.00000000E+00  0.00000000E+00  0.00000000E+00
  0.00000000E+00  0.00000000E+00  0.00000000E+00
  0.00000000E+00  0.00000000E+00  0.00000000E+00
  0.00000000E+00  0.00000000E+00  0.00000000E+00
  0.00000000E+00  0.00000000E+00  0.00000000E+00
  0.00000000E+00  0.00000000E+00  0.00000000E+00
  0.00000000E+00  0.00000000E+00  0.00000000E+00
  0.00000000E+00  0.00000000E+00  0.00000000E+00
  0.00000000E+00  0.00000000E+00  0.00000000E+00
  0.00000000E+00  0.00000000E+00  0.00000000E+00
  0.00000000E+00  0.00000000E+00  0.00000000E+00
  0.00000000E+00  0.00000000E+00  0.00000000E+00
  0.00000000E+00  0.00000000E+00  0.00000000E+00
  0.00000000E+00  0.00000000E+00  0.00000000E+00
  0.00000000E+00  0.00000000E+00  0.00000000E+00
  0.00000000E+00  0.00000000E+00  0.00000000E+00
  0.00000000E+00  0.00000000E+00  0.00000000E+00
  0.00000000E+00  0.00000000E+00  0.00000000E+00
  0.00000000E+00  0.00000000E+00  0.00000000E+00
  0.00000000E+00  0.00000000E+00  0.00000000E+00
  0.00000000E+00  0.00000000E+00  0.00000000E+00
  0.00000000E+00  0.00000000E+00  0.00000000E+00
  0.00000000E+00  0.00000000E+00  0.00000000E+00
  0.00000000E+00  0.00000000E+00  0.00000000E+00
  0.00000000E+00  0.00000000E+00  0.00000000E+00
  0.00000000E+00  0.00000000E+00  0.00000000E+00
  0.00000000E+00  0.00000000E+00  0.00000000E+00
  0.00000000E+00  0.00000000E+00  0.00000000E+00
  0.00000000E+00  0.00000000E+00  0.00000000E+00
  0.00000000E+00  0.00000000E+00  0.00000000E+00
  0.00000000E+00  0.00000000E+00  0.00000000E+00
  0.00000000E+00  0.00000000E+00  0.00000000E+00
  0.00000000E+00  0.00000000E+00  0.00000000E+00
  0.00000000E+00  0.00000000E+00  0.00000000E+00
  0.00000000E+00  0.00000000E+00  0.00000000E+00
  0.00000000E+00  0.00000000E+00  0.00000000E+00
  0.00000000E+00  0.00000000E+00  0.00000000E+00
  0.00000000E+00  0.00000000E+00  0.00000000E+00
  0.00000000E+00  0.00000000E+00  0.00000000E+00
  0.00000000E+00  0.00000000E+00  0.00000000E+00
  0.00000000E+00  0.00000000E+00  0.00000000E+00
  0.00000000E+00  0.00000000E+00  0.00000000E+00
  0.00000000E+00  0.00000000E+00  0.00000000E+00
  0.00000000E+00  0.00000000E+00  0.00000000E+00
  0.00000000E+00  0.00000000E+00  0.00000000E+00
  0.00000000E+00  0.00000000E+00  0.00000000E+00
  0.00000000E+00  0.00000000E+00  0.00000000E+00
  0.00000000E+00  0.00000000E+00  0.00000000E+00
  0.00000000E+00  0.00000000E+00  0.00000000E+00
  0.00000000E+00  0.00000000E+00  0.00000000E+00
  0.00000000E+00  0.00000000E+00  0.00000000E+00
  0.00000000E+00  0.00000000E+00  0.00000000E+00
  0.00000000E+00  0.00000000E+00  0.00000000E+00
  0.00000000E+00  0.00000000E+00  0.00000000E+00
  0.00000000E+00  0.00000000E+00  0.00000000E+00
