Sc   Al   N                             
   1.00000000000000     
    -9.8706577171071412   -0.0054757295225600    0.0024233667315285
    -4.9272364927538899    8.5227480301238945    0.0046257756809914
    -0.0172938304317800    0.1525442248782837  -10.2770202059958375
   Sc   Al   N 
    10    26    36
Direct
  0.1027695025259376  0.0980289168557533  0.3082374036074498
  0.4494581585847186  0.1000654262620841  0.3221440808606175
  0.0980799044639795  0.1037555693883334  0.8339438617054924
  0.2175064979557462  0.2137580988210885  0.5705662166572409
  0.4525641506958635  0.0974321561502194  0.8218991370821627
  0.8825633696102955  0.5482328824001996  0.5750531114897726
  0.1047938457202875  0.7564153060191359  0.3317756097489450
  0.4513704835840571  0.7581190104529014  0.3225385247020043
  0.2234648406376536  0.8699114806758459  0.5854714720228955
  0.4554740754261175  0.7540113582656076  0.8404891145709641
  0.2217265796118255  0.2111831722671411  0.0612702141518326
  0.7756387916325451  0.0977524220077868  0.8163683458290976
  0.8783138502841297  0.2034872712409239  0.5640420644549380
  0.5638331604036964  0.1997958276955600  0.0645558380051980
  0.7728204511853534  0.0971352076001040  0.3172189237066050
  0.8816249903461895  0.2030023916949872  0.0659292550575259
  0.5648277942852218  0.2032909315954115  0.5659921231575069
  0.1050388474940931  0.4267129777642893  0.3050227293025074
  0.2311418130128828  0.5322520962214909  0.1269490012209857
  0.7727165533832050  0.4289784221592967  0.8804103391279057
  0.4451742295497567  0.4298865665291558  0.3841140535222038
  0.5609716462038108  0.5263364488955631  0.1284397277862226
  0.1067495486913899  0.4363090139269801  0.8240567717395919
  0.2299977544475240  0.5374360359266035  0.6414796978231649
  0.7735269678384711  0.4257366868176362  0.3676652139624181
  0.8891940460646310  0.5431096901896950  0.0670430301291844
  0.4440862346849883  0.4310721276647342  0.8869450342663470
  0.5610668762396216  0.5269917418644212  0.6359717368956481
  0.2197379303481881  0.8646840294050406  0.0588848250526723
  0.7835724451874029  0.7654765164211028  0.8208266630041194
  0.8769199944933419  0.8813438769310764  0.5710211491720756
  0.5640949712167611  0.8707628757870580  0.0674365883480519
  0.1002625358259266  0.7624280949741049  0.8205635744772977
  0.7812670826014383  0.7605449242050994  0.3142638592474896
  0.8900541270671667  0.8720133665354908  0.0659544524618809
  0.5666093320448056  0.8708304539926459  0.5687993094656818
  0.2098592428183323  0.2215660640701245  0.3660397406143829
  0.1103659199050639  0.0921729124263493  0.0956196131256917
  0.8660631172977205  0.2112033535722233  0.8816694442812647
  0.7756712165018911  0.0963497553488182  0.6294184116052364
  0.5693106284722518  0.2110271861927089  0.3803761331434785
  0.4459057738799501  0.0950212390065914  0.1093879199176797
  0.2160118949456731  0.2264660081847936  0.8773887099644568
  0.0856838049735202  0.1089801722335011  0.6258029044056670
  0.8745505744093833  0.2050734146594451  0.3733990652817667
  0.7783390749829451  0.0907546047824113  0.1284183040392648
  0.5697002763985495  0.2091868503746213  0.8789459219767011
  0.4609693691407912  0.0896318066426502  0.6106343167489143
  0.2406884273705359  0.5114484492977240  0.3175018861673493
  0.1070203789504163  0.4277420903584854  0.1156875863262741
  0.8880681765368550  0.5442082246000908  0.8728329843426934
  0.7643849119682571  0.4217136514024347  0.5750387852161012
  0.5646197739919998  0.5153312658073972  0.3141962615156686
  0.4446106790642901  0.4292087216939677  0.0738904016427284
  0.2295534660841057  0.5387058642994234  0.8343286575919606
  0.1128650500933759  0.4384180818080949  0.6374302558118714
  0.8906195876978344  0.5391459812501367  0.3601172034993994
  0.7769731926886294  0.4291237206670786  0.0826766370551724
  0.5672607614336371  0.5126658817082799  0.8229920633975638
  0.4377014236089067  0.4375659413100408  0.5752047577311430
  0.2226531163638015  0.8710926380398050  0.3810677569865248
  0.1086059049344428  0.7616487602728910  0.1176303188944701
  0.8880937660033439  0.8758504783972825  0.8783383333507047
  0.7700459909608028  0.7826926383520174  0.6371533277449615
  0.5784711271269742  0.8611832975347582  0.3821182744970173
  0.4453638573321825  0.7600982160036409  0.1020883887610537
  0.2131896563144835  0.8595986832971434  0.8710561678981605
  0.0923700238178071  0.7588874476018361  0.6259187475052954
  0.8663859685038702  0.8839637419975972  0.3824366922383433
  0.7818526918690338  0.7614408134603821  0.1263129691207254
  0.5812336485085652  0.8646608048573512  0.8867404066202411
  0.4686630010709436  0.7534802803827532  0.6233249306092077
 
  0.00000000E+00  0.00000000E+00  0.00000000E+00
  0.00000000E+00  0.00000000E+00  0.00000000E+00
  0.00000000E+00  0.00000000E+00  0.00000000E+00
  0.00000000E+00  0.00000000E+00  0.00000000E+00
  0.00000000E+00  0.00000000E+00  0.00000000E+00
  0.00000000E+00  0.00000000E+00  0.00000000E+00
  0.00000000E+00  0.00000000E+00  0.00000000E+00
  0.00000000E+00  0.00000000E+00  0.00000000E+00
  0.00000000E+00  0.00000000E+00  0.00000000E+00
  0.00000000E+00  0.00000000E+00  0.00000000E+00
  0.00000000E+00  0.00000000E+00  0.00000000E+00
  0.00000000E+00  0.00000000E+00  0.00000000E+00
  0.00000000E+00  0.00000000E+00  0.00000000E+00
  0.00000000E+00  0.00000000E+00  0.00000000E+00
  0.00000000E+00  0.00000000E+00  0.00000000E+00
  0.00000000E+00  0.00000000E+00  0.00000000E+00
  0.00000000E+00  0.00000000E+00  0.00000000E+00
  0.00000000E+00  0.00000000E+00  0.00000000E+00
  0.00000000E+00  0.00000000E+00  0.00000000E+00
  0.00000000E+00  0.00000000E+00  0.00000000E+00
  0.00000000E+00  0.00000000E+00  0.00000000E+00
  0.00000000E+00  0.00000000E+00  0.00000000E+00
  0.00000000E+00  0.00000000E+00  0.00000000E+00
  0.00000000E+00  0.00000000E+00  0.00000000E+00
  0.00000000E+00  0.00000000E+00  0.00000000E+00
  0.00000000E+00  0.00000000E+00  0.00000000E+00
  0.00000000E+00  0.00000000E+00  0.00000000E+00
  0.00000000E+00  0.00000000E+00  0.00000000E+00
  0.00000000E+00  0.00000000E+00  0.00000000E+00
  0.00000000E+00  0.00000000E+00  0.00000000E+00
  0.00000000E+00  0.00000000E+00  0.00000000E+00
  0.00000000E+00  0.00000000E+00  0.00000000E+00
  0.00000000E+00  0.00000000E+00  0.00000000E+00
  0.00000000E+00  0.00000000E+00  0.00000000E+00
  0.00000000E+00  0.00000000E+00  0.00000000E+00
  0.00000000E+00  0.00000000E+00  0.00000000E+00
  0.00000000E+00  0.00000000E+00  0.00000000E+00
  0.00000000E+00  0.00000000E+00  0.00000000E+00
  0.00000000E+00  0.00000000E+00  0.00000000E+00
  0.00000000E+00  0.00000000E+00  0.00000000E+00
  0.00000000E+00  0.00000000E+00  0.00000000E+00
  0.00000000E+00  0.00000000E+00  0.00000000E+00
  0.00000000E+00  0.00000000E+00  0.00000000E+00
  0.00000000E+00  0.00000000E+00  0.00000000E+00
  0.00000000E+00  0.00000000E+00  0.00000000E+00
  0.00000000E+00  0.00000000E+00  0.00000000E+00
  0.00000000E+00  0.00000000E+00  0.00000000E+00
  0.00000000E+00  0.00000000E+00  0.00000000E+00
  0.00000000E+00  0.00000000E+00  0.00000000E+00
  0.00000000E+00  0.00000000E+00  0.00000000E+00
  0.00000000E+00  0.00000000E+00  0.00000000E+00
  0.00000000E+00  0.00000000E+00  0.00000000E+00
  0.00000000E+00  0.00000000E+00  0.00000000E+00
  0.00000000E+00  0.00000000E+00  0.00000000E+00
  0.00000000E+00  0.00000000E+00  0.00000000E+00
  0.00000000E+00  0.00000000E+00  0.00000000E+00
  0.00000000E+00  0.00000000E+00  0.00000000E+00
  0.00000000E+00  0.00000000E+00  0.00000000E+00
  0.00000000E+00  0.00000000E+00  0.00000000E+00
  0.00000000E+00  0.00000000E+00  0.00000000E+00
  0.00000000E+00  0.00000000E+00  0.00000000E+00
  0.00000000E+00  0.00000000E+00  0.00000000E+00
  0.00000000E+00  0.00000000E+00  0.00000000E+00
  0.00000000E+00  0.00000000E+00  0.00000000E+00
  0.00000000E+00  0.00000000E+00  0.00000000E+00
  0.00000000E+00  0.00000000E+00  0.00000000E+00
  0.00000000E+00  0.00000000E+00  0.00000000E+00
  0.00000000E+00  0.00000000E+00  0.00000000E+00
  0.00000000E+00  0.00000000E+00  0.00000000E+00
  0.00000000E+00  0.00000000E+00  0.00000000E+00
  0.00000000E+00  0.00000000E+00  0.00000000E+00
  0.00000000E+00  0.00000000E+00  0.00000000E+00
