Sc   Al   N                             
   1.00000000000000     
    -9.9504066693774416   -0.0195825487603776   -0.0072725821486404
    -4.9659141859013234    8.5915421164973029   -0.0017454103261148
    -0.0108537602699646    0.0461914195130819  -10.0377324339499712
   Sc   Al   N 
    10    26    36
Direct
  0.0945105728853051  0.1077108164592246  0.3741234410318981
  0.4529800900803593  0.0954852915824489  0.3617199037675078
  0.0991084793010799  0.1070757789160055  0.8690388632148611
  0.2256422393238822  0.2140660063184185  0.6225287257560339
  0.4481215016634010  0.1011039048513425  0.8788717976602456
  0.8847749085576027  0.5405851674530879  0.6103427626599185
  0.1058391806174654  0.7548305038995196  0.3575972216970840
  0.4503135771285045  0.7542973619459659  0.3345387336222601
  0.2196380440773922  0.8665889213753744  0.6043461914212287
  0.4599526117872799  0.7516276269048774  0.8445586016277886
  0.2183315137029425  0.2105845329159237  0.1350773235272058
  0.7785796703188339  0.0903533855535841  0.8232905316896364
  0.8728884218938973  0.2147946813161496  0.6358701066438854
  0.5529479022424937  0.2135778891556654  0.1300795218889235
  0.7735952982006893  0.0962505080868965  0.3131448736441556
  0.8845641427267950  0.2096085679040200  0.1259418397883323
  0.5572664989038572  0.2099022736541016  0.6320580204578121
  0.1150342486464666  0.4321670357560947  0.3762798073379585
  0.2289574554086045  0.5293620232164571  0.1288645419961796
  0.7769203210121844  0.4297495061510119  0.8848176851804155
  0.4477302097605005  0.4246069585992700  0.3826157437334814
  0.5602178768251278  0.5266091153645078  0.1273246948446172
  0.1036971752998284  0.4380825888038800  0.8859174934516005
  0.2202083671610069  0.5423316592704168  0.6337370094727035
  0.7693191798400960  0.4229186099916973  0.3781690067777674
  0.8921589112570700  0.5330303086352330  0.1351145588620213
  0.4469465354722999  0.4264123466468703  0.8802785613748370
  0.5599170500991875  0.5265733071956546  0.6335958544666980
  0.2240969022615857  0.8684164857246017  0.0716793279336159
  0.7859085534100885  0.7632171300496324  0.8208525425309077
  0.8755143213579828  0.8831132619003554  0.5670471512368991
  0.5686173702039525  0.8635567996020939  0.0771427319575437
  0.1099696695534149  0.7504656872835938  0.8828633091769476
  0.7806491455401030  0.7623568487530079  0.3199503968700625
  0.8819965462209254  0.8746599302244533  0.0697024876207095
  0.5692264596328442  0.8668452701906588  0.5718765857834356
  0.2123908999358122  0.2241845660427018  0.3255588288110118
  0.1101957510229923  0.0947068593273670  0.0921847759594598
  0.8662378974805733  0.2209101941545484  0.8309541264293259
  0.7787668490194264  0.0913224733611244  0.6249592126302730
  0.5604811331730630  0.2211864663922185  0.3207620370863182
  0.4448456692229783  0.0947910672638557  0.1029072652579757
  0.2136962845057795  0.2302337592092556  0.8320526856409032
  0.0850842215539487  0.1133664007742397  0.5964840774892153
  0.8670053395831303  0.2189392395551835  0.3153958105016770
  0.7776079854705671  0.0904707780115075  0.1126473625584055
  0.5599493687711856  0.2182322753366677  0.8257082922456647
  0.4650468711540512  0.0884092469594222  0.5864385869765414
  0.2399173456867700  0.5149947732501232  0.3158235314309863
  0.1085572336200400  0.4300462988659106  0.0783459878717139
  0.8897047170251327  0.5368700640670809  0.8319502352088648
  0.7629230431524761  0.4176636228437900  0.5666601535213971
  0.5638004793658666  0.5153331965696992  0.3168225968824103
  0.4441461803831643  0.4272691048143997  0.0697174661635103
  0.2226079957769542  0.5378504144805802  0.8292852330183962
  0.1195008888055895  0.4427538953846266  0.5630862793536622
  0.8913952776271685  0.5332516939259406  0.3353272604557489
  0.7785591932782836  0.4299685668805395  0.0760341986569628
  0.5688326994505246  0.5134631822303319  0.8256725582838982
  0.4402961562772632  0.4313796516663260  0.5762939462047285
  0.2228015208830172  0.8718115551151087  0.3830422710594092
  0.1124042189995862  0.7549247557287515  0.0917527539520009
  0.8891803019320648  0.8721183167575859  0.8785895751862256
  0.7715860482780101  0.7830485511162593  0.6323421042686022
  0.5813122298523652  0.8531704107166789  0.3811767333241960
  0.4465309817850098  0.7579779606285229  0.1042368637507991
  0.2157028944425505  0.8612581589508679  0.8643537382880524
  0.0952408271135070  0.7513901791716293  0.5827674771969455
  0.8610532221359364  0.8906101226010819  0.3741130788216367
  0.7828445436315121  0.7598353404947886  0.1294457682741310
  0.5860859128971398  0.8603800838860565  0.8898744080979242
  0.4698896466642140  0.7497991197350018  0.6200781351057501
 
  0.00000000E+00  0.00000000E+00  0.00000000E+00
  0.00000000E+00  0.00000000E+00  0.00000000E+00
  0.00000000E+00  0.00000000E+00  0.00000000E+00
  0.00000000E+00  0.00000000E+00  0.00000000E+00
  0.00000000E+00  0.00000000E+00  0.00000000E+00
  0.00000000E+00  0.00000000E+00  0.00000000E+00
  0.00000000E+00  0.00000000E+00  0.00000000E+00
  0.00000000E+00  0.00000000E+00  0.00000000E+00
  0.00000000E+00  0.00000000E+00  0.00000000E+00
  0.00000000E+00  0.00000000E+00  0.00000000E+00
  0.00000000E+00  0.00000000E+00  0.00000000E+00
  0.00000000E+00  0.00000000E+00  0.00000000E+00
  0.00000000E+00  0.00000000E+00  0.00000000E+00
  0.00000000E+00  0.00000000E+00  0.00000000E+00
  0.00000000E+00  0.00000000E+00  0.00000000E+00
  0.00000000E+00  0.00000000E+00  0.00000000E+00
  0.00000000E+00  0.00000000E+00  0.00000000E+00
  0.00000000E+00  0.00000000E+00  0.00000000E+00
  0.00000000E+00  0.00000000E+00  0.00000000E+00
  0.00000000E+00  0.00000000E+00  0.00000000E+00
  0.00000000E+00  0.00000000E+00  0.00000000E+00
  0.00000000E+00  0.00000000E+00  0.00000000E+00
  0.00000000E+00  0.00000000E+00  0.00000000E+00
  0.00000000E+00  0.00000000E+00  0.00000000E+00
  0.00000000E+00  0.00000000E+00  0.00000000E+00
  0.00000000E+00  0.00000000E+00  0.00000000E+00
  0.00000000E+00  0.00000000E+00  0.00000000E+00
  0.00000000E+00  0.00000000E+00  0.00000000E+00
  0.00000000E+00  0.00000000E+00  0.00000000E+00
  0.00000000E+00  0.00000000E+00  0.00000000E+00
  0.00000000E+00  0.00000000E+00  0.00000000E+00
  0.00000000E+00  0.00000000E+00  0.00000000E+00
  0.00000000E+00  0.00000000E+00  0.00000000E+00
  0.00000000E+00  0.00000000E+00  0.00000000E+00
  0.00000000E+00  0.00000000E+00  0.00000000E+00
  0.00000000E+00  0.00000000E+00  0.00000000E+00
  0.00000000E+00  0.00000000E+00  0.00000000E+00
  0.00000000E+00  0.00000000E+00  0.00000000E+00
  0.00000000E+00  0.00000000E+00  0.00000000E+00
  0.00000000E+00  0.00000000E+00  0.00000000E+00
  0.00000000E+00  0.00000000E+00  0.00000000E+00
  0.00000000E+00  0.00000000E+00  0.00000000E+00
  0.00000000E+00  0.00000000E+00  0.00000000E+00
  0.00000000E+00  0.00000000E+00  0.00000000E+00
  0.00000000E+00  0.00000000E+00  0.00000000E+00
  0.00000000E+00  0.00000000E+00  0.00000000E+00
  0.00000000E+00  0.00000000E+00  0.00000000E+00
  0.00000000E+00  0.00000000E+00  0.00000000E+00
  0.00000000E+00  0.00000000E+00  0.00000000E+00
  0.00000000E+00  0.00000000E+00  0.00000000E+00
  0.00000000E+00  0.00000000E+00  0.00000000E+00
  0.00000000E+00  0.00000000E+00  0.00000000E+00
  0.00000000E+00  0.00000000E+00  0.00000000E+00
  0.00000000E+00  0.00000000E+00  0.00000000E+00
  0.00000000E+00  0.00000000E+00  0.00000000E+00
  0.00000000E+00  0.00000000E+00  0.00000000E+00
  0.00000000E+00  0.00000000E+00  0.00000000E+00
  0.00000000E+00  0.00000000E+00  0.00000000E+00
  0.00000000E+00  0.00000000E+00  0.00000000E+00
  0.00000000E+00  0.00000000E+00  0.00000000E+00
  0.00000000E+00  0.00000000E+00  0.00000000E+00
  0.00000000E+00  0.00000000E+00  0.00000000E+00
  0.00000000E+00  0.00000000E+00  0.00000000E+00
  0.00000000E+00  0.00000000E+00  0.00000000E+00
  0.00000000E+00  0.00000000E+00  0.00000000E+00
  0.00000000E+00  0.00000000E+00  0.00000000E+00
  0.00000000E+00  0.00000000E+00  0.00000000E+00
  0.00000000E+00  0.00000000E+00  0.00000000E+00
  0.00000000E+00  0.00000000E+00  0.00000000E+00
  0.00000000E+00  0.00000000E+00  0.00000000E+00
  0.00000000E+00  0.00000000E+00  0.00000000E+00
  0.00000000E+00  0.00000000E+00  0.00000000E+00
