Sc   Al   N                             
   1.00000000000000     
    -9.8986988753270531   -0.0103313854022306   -0.0005569525148278
    -4.9323386179791617    8.5321025383182576    0.0000192143516252
     0.0094548133417525    0.0932064511663049  -10.2138218555028182
   Sc   Al   N 
    10    26    36
Direct
  0.0987419009585011  0.0951010180487870  0.3225114126429887
  0.4560606783158363  0.0942416858648798  0.3369277170497895
  0.0980094956177879  0.1053335272262572  0.8393947549660368
  0.2191010273310283  0.2145224155386529  0.6052050872379695
  0.4572803840309163  0.0925483031222072  0.8251931865506066
  0.8846170753228648  0.5401134061211934  0.6224696315082241
  0.1034906974282350  0.7574847556507649  0.3348886569322786
  0.4497594613471492  0.7573648333391603  0.3244625242036960
  0.2237646080277571  0.8680469911172111  0.5930196522371958
  0.4566359751468028  0.7513896707226095  0.8471774372302505
  0.2218176915619452  0.2124843455243806  0.1294684070291510
  0.7763519252400144  0.0986071548089384  0.8216934984972681
  0.8743392367431468  0.2044946964532528  0.5661187518436890
  0.5619159894213368  0.2015765109446619  0.0688488799408802
  0.7711055892516612  0.0987202430025533  0.3192059894056669
  0.8821542059122720  0.2034030766976969  0.0716652040962629
  0.5645201274469329  0.2062111727583158  0.5694830238524915
  0.1115729492134605  0.4345528473204467  0.3763972168804699
  0.2292252229408263  0.5312262156917882  0.1302644263004424
  0.7754070463570955  0.4322682655426107  0.8909227062144254
  0.4449916145492523  0.4317787595689992  0.3855448989179138
  0.5603131351545372  0.5264152868205443  0.1298317958122723
  0.1087633713888678  0.4341878846727312  0.8873795014263450
  0.2242476572554821  0.5364246349865951  0.6381444303635604
  0.7693180355616747  0.4294008434526404  0.3810124089199007
  0.8911225692207623  0.5350724148406201  0.1363005953688727
  0.4438785062145314  0.4296558560571455  0.8855448892667397
  0.5601731700176700  0.5279556677991266  0.6390668884885429
  0.2188631463682000  0.8656412265008555  0.0625868836872030
  0.7845124806641266  0.7644295786270590  0.8262022718482243
  0.8762675234430759  0.8823277727556444  0.5752696104472790
  0.5654893423576794  0.8702075002468348  0.0730450192056011
  0.0998797935383422  0.7604619033688422  0.8227789416303679
  0.7804187244093725  0.7633458849487980  0.3216714967959931
  0.8894360284275038  0.8718570057656905  0.0699040411915490
  0.5687934929715794  0.8662595857414104  0.5726141793177675
  0.2111702317188602  0.2233271466501066  0.3292690493137655
  0.1105697974024977  0.0938569486030190  0.1033895493333645
  0.8667255499801101  0.2122404923972070  0.8867710426497197
  0.7737787094124471  0.0985621004913071  0.6338919490994641
  0.5691225848602741  0.2139483936638840  0.3827830211744327
  0.4480774479040051  0.0943708371258865  0.1164329132833188
  0.2158187285956430  0.2303335362595931  0.8223000963344305
  0.0812495368495760  0.1097539133183929  0.6226020451625445
  0.8696780624821372  0.2077954456217697  0.3754649788781492
  0.7773582647205615  0.0921311679983248  0.1307268198590350
  0.5698229273293549  0.2083000667223800  0.8819627182063812
  0.4648853031538067  0.0872731905092721  0.6057683711757065
  0.2405251908484374  0.5128712225335406  0.3166447914977724
  0.1098635444612199  0.4304335501039631  0.0774543959826346
  0.8905377815399831  0.5360323712985320  0.8374390415644370
  0.7601263511475977  0.4262222872835508  0.5689057136499542
  0.5649140581087124  0.5155184318554475  0.3158306721303319
  0.4422258358749431  0.4315072411929037  0.0743343162941130
  0.2254466596239624  0.5335572962307609  0.8298667524936150
  0.1155388832822908  0.4495800207845591  0.5594185440001596
  0.8910851265616770  0.5333612565688526  0.3310187328633489
  0.7768215849136766  0.4334088897609902  0.0821354292545848
  0.5706187848069320  0.5097351078513128  0.8263833446478230
  0.4366699287651983  0.4398036050273504  0.5783691559752882
  0.2241121577894276  0.8668560728906058  0.3877114287442112
  0.1079970162399846  0.7624511979129451  0.1204198353444568
  0.8884553128795929  0.8749121356984872  0.8819707273073263
  0.7699666292861380  0.7842501589880371  0.6395314436827988
  0.5802983967990656  0.8542547368119742  0.3868405870946887
  0.4445220388079392  0.7604651830048184  0.1043110900364965
  0.2127245080922648  0.8591218768200406  0.8732327082004829
  0.0905156479847733  0.7598856012683228  0.6299831577812611
  0.8650689338468567  0.8864157183412615  0.3863682463243308
  0.7810539045642386  0.7648720810911840  0.1325706743637980
  0.5837035395590320  0.8607071031239002  0.8920507238991036
  0.4688962610449821  0.7535267342546348  0.6296205877283256
 
  0.00000000E+00  0.00000000E+00  0.00000000E+00
  0.00000000E+00  0.00000000E+00  0.00000000E+00
  0.00000000E+00  0.00000000E+00  0.00000000E+00
  0.00000000E+00  0.00000000E+00  0.00000000E+00
  0.00000000E+00  0.00000000E+00  0.00000000E+00
  0.00000000E+00  0.00000000E+00  0.00000000E+00
  0.00000000E+00  0.00000000E+00  0.00000000E+00
  0.00000000E+00  0.00000000E+00  0.00000000E+00
  0.00000000E+00  0.00000000E+00  0.00000000E+00
  0.00000000E+00  0.00000000E+00  0.00000000E+00
  0.00000000E+00  0.00000000E+00  0.00000000E+00
  0.00000000E+00  0.00000000E+00  0.00000000E+00
  0.00000000E+00  0.00000000E+00  0.00000000E+00
  0.00000000E+00  0.00000000E+00  0.00000000E+00
  0.00000000E+00  0.00000000E+00  0.00000000E+00
  0.00000000E+00  0.00000000E+00  0.00000000E+00
  0.00000000E+00  0.00000000E+00  0.00000000E+00
  0.00000000E+00  0.00000000E+00  0.00000000E+00
  0.00000000E+00  0.00000000E+00  0.00000000E+00
  0.00000000E+00  0.00000000E+00  0.00000000E+00
  0.00000000E+00  0.00000000E+00  0.00000000E+00
  0.00000000E+00  0.00000000E+00  0.00000000E+00
  0.00000000E+00  0.00000000E+00  0.00000000E+00
  0.00000000E+00  0.00000000E+00  0.00000000E+00
  0.00000000E+00  0.00000000E+00  0.00000000E+00
  0.00000000E+00  0.00000000E+00  0.00000000E+00
  0.00000000E+00  0.00000000E+00  0.00000000E+00
  0.00000000E+00  0.00000000E+00  0.00000000E+00
  0.00000000E+00  0.00000000E+00  0.00000000E+00
  0.00000000E+00  0.00000000E+00  0.00000000E+00
  0.00000000E+00  0.00000000E+00  0.00000000E+00
  0.00000000E+00  0.00000000E+00  0.00000000E+00
  0.00000000E+00  0.00000000E+00  0.00000000E+00
  0.00000000E+00  0.00000000E+00  0.00000000E+00
  0.00000000E+00  0.00000000E+00  0.00000000E+00
  0.00000000E+00  0.00000000E+00  0.00000000E+00
  0.00000000E+00  0.00000000E+00  0.00000000E+00
  0.00000000E+00  0.00000000E+00  0.00000000E+00
  0.00000000E+00  0.00000000E+00  0.00000000E+00
  0.00000000E+00  0.00000000E+00  0.00000000E+00
  0.00000000E+00  0.00000000E+00  0.00000000E+00
  0.00000000E+00  0.00000000E+00  0.00000000E+00
  0.00000000E+00  0.00000000E+00  0.00000000E+00
  0.00000000E+00  0.00000000E+00  0.00000000E+00
  0.00000000E+00  0.00000000E+00  0.00000000E+00
  0.00000000E+00  0.00000000E+00  0.00000000E+00
  0.00000000E+00  0.00000000E+00  0.00000000E+00
  0.00000000E+00  0.00000000E+00  0.00000000E+00
  0.00000000E+00  0.00000000E+00  0.00000000E+00
  0.00000000E+00  0.00000000E+00  0.00000000E+00
  0.00000000E+00  0.00000000E+00  0.00000000E+00
  0.00000000E+00  0.00000000E+00  0.00000000E+00
  0.00000000E+00  0.00000000E+00  0.00000000E+00
  0.00000000E+00  0.00000000E+00  0.00000000E+00
  0.00000000E+00  0.00000000E+00  0.00000000E+00
  0.00000000E+00  0.00000000E+00  0.00000000E+00
  0.00000000E+00  0.00000000E+00  0.00000000E+00
  0.00000000E+00  0.00000000E+00  0.00000000E+00
  0.00000000E+00  0.00000000E+00  0.00000000E+00
  0.00000000E+00  0.00000000E+00  0.00000000E+00
  0.00000000E+00  0.00000000E+00  0.00000000E+00
  0.00000000E+00  0.00000000E+00  0.00000000E+00
  0.00000000E+00  0.00000000E+00  0.00000000E+00
  0.00000000E+00  0.00000000E+00  0.00000000E+00
  0.00000000E+00  0.00000000E+00  0.00000000E+00
  0.00000000E+00  0.00000000E+00  0.00000000E+00
  0.00000000E+00  0.00000000E+00  0.00000000E+00
  0.00000000E+00  0.00000000E+00  0.00000000E+00
  0.00000000E+00  0.00000000E+00  0.00000000E+00
  0.00000000E+00  0.00000000E+00  0.00000000E+00
  0.00000000E+00  0.00000000E+00  0.00000000E+00
  0.00000000E+00  0.00000000E+00  0.00000000E+00
