Sc   Al   N                             
   1.00000000000000     
    -9.8746341277162024   -0.0142205653775272    0.0109790086852810
    -4.9108918020830066    8.5119753804924994    0.0114374761074687
    -0.0026979511418405    0.1251528796866623  -10.2690249031780318
   Sc   Al   N 
    10    26    36
Direct
  0.0992603630305737  0.1002835989990061  0.3093616379582116
  0.4488338442539543  0.0997568795397044  0.3224786800185697
  0.0989613942172767  0.1028430034967158  0.8360372103930445
  0.2177456939204490  0.2127044740387447  0.5712149063675298
  0.4531856516586856  0.0968467240462090  0.8219809874592769
  0.8821885304958741  0.5467715464951439  0.5703257975228126
  0.1050982374452047  0.7530587347399162  0.3516762028850451
  0.4513425406534921  0.7580507928713871  0.3255856082363309
  0.2220155834556579  0.8692776187594617  0.5869026140044369
  0.4573464314888511  0.7534481050224642  0.8423875720312779
  0.2220330656449292  0.2120367693115526  0.0616924129224330
  0.7767456337800454  0.0970340944413692  0.8167344970908772
  0.8768176773218386  0.2086888800836846  0.5668785453993266
  0.5637727474110861  0.2003422657734859  0.0650988346414181
  0.7711812707109971  0.1014966666731709  0.3181818880850003
  0.8789598150011670  0.2096519409524547  0.0639133892316011
  0.5652082646270387  0.2023095089331690  0.5664210237736214
  0.1050424993019163  0.4266503456953927  0.3045618616173584
  0.2305152714547063  0.5327806819706069  0.1300627012642011
  0.7802662591197702  0.4207288693544768  0.8175822973801274
  0.4454605089178827  0.4296255486194980  0.3847961770431496
  0.5566805047187344  0.5288093790446666  0.1272892394003406
  0.1051034285895014  0.4354364691203401  0.8229091029557694
  0.2253719853618890  0.5418840687650857  0.6388447930712999
  0.7819901775313127  0.4232056223864191  0.3119302538316191
  0.8877815959982414  0.5393759415847370  0.0638551588009619
  0.4439998066306146  0.4301924159742327  0.8872670189323912
  0.5550568710853412  0.5293565619987888  0.6375143629048665
  0.2219862043826808  0.8674852233026016  0.0634190978689517
  0.7847784865999543  0.7633675297281712  0.8205070723661620
  0.8763114972231847  0.8810742078006157  0.5675265585730997
  0.5648582702766163  0.8710031532555433  0.0674679515917305
  0.1060622956384165  0.7548332919564871  0.8633109249295288
  0.7801224198797030  0.7615555020355345  0.3127522360090609
  0.8866185039683359  0.8743853299795887  0.0709347550867605
  0.5674391904886349  0.8700894094978437  0.5689702361574120
  0.2090010555515249  0.2218674737994917  0.3661756376411631
  0.1096706423533007  0.0938889955867808  0.0957047551423997
  0.8646362639599872  0.2155708820066096  0.8823809106174281
  0.7766839530546505  0.0955292286465834  0.6292651981894437
  0.5681633048424288  0.2113363727648903  0.3807619448742656
  0.4462480796520438  0.0952028042339208  0.1094998552015483
  0.2169950429567251  0.2261998551445217  0.8774112881710181
  0.0858173596875744  0.1084358960256253  0.6277653531445253
  0.8691031055525684  0.2154797121379133  0.3789753947918086
  0.7781750925933508  0.0943206878327558  0.1288816341845163
  0.5707253327854573  0.2084618661312305  0.8792191444583111
  0.4612881708867320  0.0887971741328002  0.6109514965734846
  0.2412660098434927  0.5105125929220335  0.3172521402613597
  0.1062083865246279  0.4284951935235952  0.1150183168823702
  0.8858955560518282  0.5404392939732716  0.8727391425836615
  0.7745983558653293  0.4158936388496173  0.6283144775528342
  0.5621830585599952  0.5167220173968516  0.3164106557505235
  0.4429410108624126  0.4293664590326998  0.0739176982269356
  0.2275246257805321  0.5398633399641852  0.8326382434056399
  0.1110671512581050  0.4383173791468593  0.6374320205818762
  0.8898401079196248  0.5392657992206651  0.3594707689872152
  0.7847077113089469  0.4240226173957780  0.1204609027390831
  0.5619597296060519  0.5155938135493159  0.8275750506085799
  0.4378589506030011  0.4360485982132261  0.5762082480692570
  0.2221482540871946  0.8749731261405387  0.3795853261295932
  0.1098380024352039  0.7595005689285586  0.1072560981746236
  0.8877565074065643  0.8754249361326529  0.8806094151285535
  0.7716366443543166  0.7809115576049166  0.6366705279385840
  0.5789930156228422  0.8612972385636084  0.3825520476901829
  0.4467549726041895  0.7604094492680460  0.1027153057497259
  0.2158736801571095  0.8597249083776433  0.8731631211169102
  0.0958711201382272  0.7513210089349869  0.5881887914124277
  0.8616926987032443  0.8886353224220187  0.3773968376438717
  0.7813718313843978  0.7601717996457111  0.1254453272503113
  0.5829176811785004  0.8648269418385226  0.8866239844181507
  0.4691712610929670  0.7523431380729235  0.6219457684447391
 
  0.00000000E+00  0.00000000E+00  0.00000000E+00
  0.00000000E+00  0.00000000E+00  0.00000000E+00
  0.00000000E+00  0.00000000E+00  0.00000000E+00
  0.00000000E+00  0.00000000E+00  0.00000000E+00
  0.00000000E+00  0.00000000E+00  0.00000000E+00
  0.00000000E+00  0.00000000E+00  0.00000000E+00
  0.00000000E+00  0.00000000E+00  0.00000000E+00
  0.00000000E+00  0.00000000E+00  0.00000000E+00
  0.00000000E+00  0.00000000E+00  0.00000000E+00
  0.00000000E+00  0.00000000E+00  0.00000000E+00
  0.00000000E+00  0.00000000E+00  0.00000000E+00
  0.00000000E+00  0.00000000E+00  0.00000000E+00
  0.00000000E+00  0.00000000E+00  0.00000000E+00
  0.00000000E+00  0.00000000E+00  0.00000000E+00
  0.00000000E+00  0.00000000E+00  0.00000000E+00
  0.00000000E+00  0.00000000E+00  0.00000000E+00
  0.00000000E+00  0.00000000E+00  0.00000000E+00
  0.00000000E+00  0.00000000E+00  0.00000000E+00
  0.00000000E+00  0.00000000E+00  0.00000000E+00
  0.00000000E+00  0.00000000E+00  0.00000000E+00
  0.00000000E+00  0.00000000E+00  0.00000000E+00
  0.00000000E+00  0.00000000E+00  0.00000000E+00
  0.00000000E+00  0.00000000E+00  0.00000000E+00
  0.00000000E+00  0.00000000E+00  0.00000000E+00
  0.00000000E+00  0.00000000E+00  0.00000000E+00
  0.00000000E+00  0.00000000E+00  0.00000000E+00
  0.00000000E+00  0.00000000E+00  0.00000000E+00
  0.00000000E+00  0.00000000E+00  0.00000000E+00
  0.00000000E+00  0.00000000E+00  0.00000000E+00
  0.00000000E+00  0.00000000E+00  0.00000000E+00
  0.00000000E+00  0.00000000E+00  0.00000000E+00
  0.00000000E+00  0.00000000E+00  0.00000000E+00
  0.00000000E+00  0.00000000E+00  0.00000000E+00
  0.00000000E+00  0.00000000E+00  0.00000000E+00
  0.00000000E+00  0.00000000E+00  0.00000000E+00
  0.00000000E+00  0.00000000E+00  0.00000000E+00
  0.00000000E+00  0.00000000E+00  0.00000000E+00
  0.00000000E+00  0.00000000E+00  0.00000000E+00
  0.00000000E+00  0.00000000E+00  0.00000000E+00
  0.00000000E+00  0.00000000E+00  0.00000000E+00
  0.00000000E+00  0.00000000E+00  0.00000000E+00
  0.00000000E+00  0.00000000E+00  0.00000000E+00
  0.00000000E+00  0.00000000E+00  0.00000000E+00
  0.00000000E+00  0.00000000E+00  0.00000000E+00
  0.00000000E+00  0.00000000E+00  0.00000000E+00
  0.00000000E+00  0.00000000E+00  0.00000000E+00
  0.00000000E+00  0.00000000E+00  0.00000000E+00
  0.00000000E+00  0.00000000E+00  0.00000000E+00
  0.00000000E+00  0.00000000E+00  0.00000000E+00
  0.00000000E+00  0.00000000E+00  0.00000000E+00
  0.00000000E+00  0.00000000E+00  0.00000000E+00
  0.00000000E+00  0.00000000E+00  0.00000000E+00
  0.00000000E+00  0.00000000E+00  0.00000000E+00
  0.00000000E+00  0.00000000E+00  0.00000000E+00
  0.00000000E+00  0.00000000E+00  0.00000000E+00
  0.00000000E+00  0.00000000E+00  0.00000000E+00
  0.00000000E+00  0.00000000E+00  0.00000000E+00
  0.00000000E+00  0.00000000E+00  0.00000000E+00
  0.00000000E+00  0.00000000E+00  0.00000000E+00
  0.00000000E+00  0.00000000E+00  0.00000000E+00
  0.00000000E+00  0.00000000E+00  0.00000000E+00
  0.00000000E+00  0.00000000E+00  0.00000000E+00
  0.00000000E+00  0.00000000E+00  0.00000000E+00
  0.00000000E+00  0.00000000E+00  0.00000000E+00
  0.00000000E+00  0.00000000E+00  0.00000000E+00
  0.00000000E+00  0.00000000E+00  0.00000000E+00
  0.00000000E+00  0.00000000E+00  0.00000000E+00
  0.00000000E+00  0.00000000E+00  0.00000000E+00
  0.00000000E+00  0.00000000E+00  0.00000000E+00
  0.00000000E+00  0.00000000E+00  0.00000000E+00
  0.00000000E+00  0.00000000E+00  0.00000000E+00
  0.00000000E+00  0.00000000E+00  0.00000000E+00
