Sc   Al   N                             
   1.00000000000000     
    -9.9200570180698708   -0.0157309790391889   -0.0117995661621027
    -4.9369840522950161    8.6056588058336807   -0.0123888379563204
    -0.0428840919898504    0.0552842549696156  -10.0347867794383454
   Sc   Al   N 
    10    26    36
Direct
  0.0944781291364976  0.1046770244855608  0.3675450007275032
  0.4517395938905722  0.0950798501116239  0.3407041353547768
  0.1026525079185916  0.0994185978827744  0.8817496419046122
  0.2194096069219214  0.2140705590908567  0.6184213049785612
  0.4504685919082547  0.0946715883147462  0.8503606025243755
  0.8838132289910448  0.5421640576200630  0.6113836220069402
  0.1046719956513371  0.7523976228136675  0.3583486585097972
  0.4559657604151255  0.7466962316760970  0.3693265654600495
  0.2160471666952972  0.8678791731855853  0.6238261224561938
  0.4528282128561258  0.7493373887788621  0.8679778971249661
  0.2171324750239947  0.2140011197700389  0.1329959405640011
  0.7780597976931105  0.0911046586267474  0.8238890169146487
  0.8760091535915748  0.2129719247015203  0.6360289215504054
  0.5598781635965437  0.2067992306868618  0.0751700261096389
  0.7689344412487600  0.0987951503342686  0.3119624975146706
  0.8818410780526165  0.2136220553352359  0.1279793949989667
  0.5634138507739408  0.2057362240384322  0.5806094943611839
  0.1133242014412090  0.4332005942415051  0.3768218350317412
  0.2297427989427305  0.5299482629870056  0.1288382663337089
  0.7784596549777447  0.4289600378459468  0.8838402642010479
  0.4457165734416648  0.4269937931809338  0.3820380098850507
  0.5584912406529057  0.5315812266034143  0.1317525087323617
  0.1042295381409915  0.4370871266581631  0.8848668099322126
  0.2207557064232475  0.5428547986628871  0.6347172251314817
  0.7710615990229357  0.4215326027623760  0.3797875124701662
  0.8910591811403137  0.5347983870863544  0.1342631117186386
  0.4462207085367496  0.4291412454610750  0.8811537256072199
  0.5593294120994869  0.5271970214442305  0.6342990658460721
  0.2256260354160062  0.8697641927465298  0.1337117344491716
  0.7872357508244363  0.7627924235517582  0.8222225515968660
  0.8764187753471546  0.8836365203090395  0.5664037260381107
  0.5667162430205721  0.8658903890972525  0.0756289649500701
  0.1134872663634141  0.7532014242624072  0.8896307380040156
  0.7798041257021282  0.7641529197932968  0.3192445347441861
  0.8833405051350169  0.8746320884359235  0.0707378059111505
  0.5693831433439414  0.8703563616121031  0.5735039041175582
  0.2096273898084533  0.2265870389716440  0.3258055681973815
  0.1087210341494398  0.0968829867513534  0.0979529272266717
  0.8711315804109603  0.2191724865019822  0.8302674576981985
  0.7759985595206516  0.0923531180536727  0.6294778203188045
  0.5661921032408159  0.2148787498513158  0.3672939271255728
  0.4448282893416220  0.0946099551395960  0.1053394467022386
  0.2089938647123759  0.2290201169438149  0.8302907639869090
  0.0851159526756078  0.1073883112126239  0.5828436954012304
  0.8652161624273376  0.2203287750700795  0.3158170943334326
  0.7767767163414590  0.0910917461713296  0.1172390874803710
  0.5688062001702860  0.2115418067893700  0.8740218027463058
  0.4628293340798280  0.0872203475582793  0.6063758991915265
  0.2395920854101092  0.5141793041481080  0.3155522175366343
  0.1082535266094737  0.4315026481420858  0.0775559031267292
  0.8901343836539084  0.5377386234887922  0.8320708236658092
  0.7642812589919856  0.4165930795443558  0.5683397780232298
  0.5649137100596420  0.5152232852710199  0.3188227190945341
  0.4433791863914607  0.4324421253410193  0.0735526198976046
  0.2227158192156367  0.5392638343052667  0.8302351091277984
  0.1185500091760048  0.4441991933807330  0.5638454887663258
  0.8898984354205268  0.5354528939474932  0.3352686840197947
  0.7774291953954275  0.4315308624209706  0.0756882195894519
  0.5690097475840332  0.5150415714734820  0.8235212611317522
  0.4386433803715519  0.4338463068642398  0.5790757159056028
  0.2226971630383758  0.8706209807551915  0.3250778754104857
  0.1140196779137526  0.7562527216994397  0.0907617876369144
  0.8905602729367956  0.8725079981251298  0.8799583558377009
  0.7725436759958981  0.7836039425086554  0.6329447780719164
  0.5805981883247142  0.8589145711443535  0.3820073816154803
  0.4483043731929541  0.7568231689098539  0.0972257591757213
  0.2123853493157455  0.8621580957314237  0.8351423569562826
  0.0985283930125505  0.7516379137709279  0.5750193408928155
  0.8613180632135879  0.8916498343909609  0.3734384816591358
  0.7817215990476640  0.7614484361622544  0.1287929122145215
  0.5848205334427377  0.8575977596345155  0.8869799336192088
  0.4660420606944626  0.7483920295457551  0.5985478395404300
 
  0.00000000E+00  0.00000000E+00  0.00000000E+00
  0.00000000E+00  0.00000000E+00  0.00000000E+00
  0.00000000E+00  0.00000000E+00  0.00000000E+00
  0.00000000E+00  0.00000000E+00  0.00000000E+00
  0.00000000E+00  0.00000000E+00  0.00000000E+00
  0.00000000E+00  0.00000000E+00  0.00000000E+00
  0.00000000E+00  0.00000000E+00  0.00000000E+00
  0.00000000E+00  0.00000000E+00  0.00000000E+00
  0.00000000E+00  0.00000000E+00  0.00000000E+00
  0.00000000E+00  0.00000000E+00  0.00000000E+00
  0.00000000E+00  0.00000000E+00  0.00000000E+00
  0.00000000E+00  0.00000000E+00  0.00000000E+00
  0.00000000E+00  0.00000000E+00  0.00000000E+00
  0.00000000E+00  0.00000000E+00  0.00000000E+00
  0.00000000E+00  0.00000000E+00  0.00000000E+00
  0.00000000E+00  0.00000000E+00  0.00000000E+00
  0.00000000E+00  0.00000000E+00  0.00000000E+00
  0.00000000E+00  0.00000000E+00  0.00000000E+00
  0.00000000E+00  0.00000000E+00  0.00000000E+00
  0.00000000E+00  0.00000000E+00  0.00000000E+00
  0.00000000E+00  0.00000000E+00  0.00000000E+00
  0.00000000E+00  0.00000000E+00  0.00000000E+00
  0.00000000E+00  0.00000000E+00  0.00000000E+00
  0.00000000E+00  0.00000000E+00  0.00000000E+00
  0.00000000E+00  0.00000000E+00  0.00000000E+00
  0.00000000E+00  0.00000000E+00  0.00000000E+00
  0.00000000E+00  0.00000000E+00  0.00000000E+00
  0.00000000E+00  0.00000000E+00  0.00000000E+00
  0.00000000E+00  0.00000000E+00  0.00000000E+00
  0.00000000E+00  0.00000000E+00  0.00000000E+00
  0.00000000E+00  0.00000000E+00  0.00000000E+00
  0.00000000E+00  0.00000000E+00  0.00000000E+00
  0.00000000E+00  0.00000000E+00  0.00000000E+00
  0.00000000E+00  0.00000000E+00  0.00000000E+00
  0.00000000E+00  0.00000000E+00  0.00000000E+00
  0.00000000E+00  0.00000000E+00  0.00000000E+00
  0.00000000E+00  0.00000000E+00  0.00000000E+00
  0.00000000E+00  0.00000000E+00  0.00000000E+00
  0.00000000E+00  0.00000000E+00  0.00000000E+00
  0.00000000E+00  0.00000000E+00  0.00000000E+00
  0.00000000E+00  0.00000000E+00  0.00000000E+00
  0.00000000E+00  0.00000000E+00  0.00000000E+00
  0.00000000E+00  0.00000000E+00  0.00000000E+00
  0.00000000E+00  0.00000000E+00  0.00000000E+00
  0.00000000E+00  0.00000000E+00  0.00000000E+00
  0.00000000E+00  0.00000000E+00  0.00000000E+00
  0.00000000E+00  0.00000000E+00  0.00000000E+00
  0.00000000E+00  0.00000000E+00  0.00000000E+00
  0.00000000E+00  0.00000000E+00  0.00000000E+00
  0.00000000E+00  0.00000000E+00  0.00000000E+00
  0.00000000E+00  0.00000000E+00  0.00000000E+00
  0.00000000E+00  0.00000000E+00  0.00000000E+00
  0.00000000E+00  0.00000000E+00  0.00000000E+00
  0.00000000E+00  0.00000000E+00  0.00000000E+00
  0.00000000E+00  0.00000000E+00  0.00000000E+00
  0.00000000E+00  0.00000000E+00  0.00000000E+00
  0.00000000E+00  0.00000000E+00  0.00000000E+00
  0.00000000E+00  0.00000000E+00  0.00000000E+00
  0.00000000E+00  0.00000000E+00  0.00000000E+00
  0.00000000E+00  0.00000000E+00  0.00000000E+00
  0.00000000E+00  0.00000000E+00  0.00000000E+00
  0.00000000E+00  0.00000000E+00  0.00000000E+00
  0.00000000E+00  0.00000000E+00  0.00000000E+00
  0.00000000E+00  0.00000000E+00  0.00000000E+00
  0.00000000E+00  0.00000000E+00  0.00000000E+00
  0.00000000E+00  0.00000000E+00  0.00000000E+00
  0.00000000E+00  0.00000000E+00  0.00000000E+00
  0.00000000E+00  0.00000000E+00  0.00000000E+00
  0.00000000E+00  0.00000000E+00  0.00000000E+00
  0.00000000E+00  0.00000000E+00  0.00000000E+00
  0.00000000E+00  0.00000000E+00  0.00000000E+00
  0.00000000E+00  0.00000000E+00  0.00000000E+00
