Sc   Al   N                             
   1.00000000000000     
    -9.9290743583645380   -0.0135644938819130   -0.0102070724560917
    -4.9487392317790819    8.5941364192120915   -0.0119807988828755
    -0.0707241427293351    0.0474794133470858  -10.0581501100885635
   Sc   Al   N 
    10    26    36
Direct
  0.0933637316963853  0.1060285876439693  0.3703076845301467
  0.4547826504127954  0.0960796417770240  0.3354818800718604
  0.1025291646289901  0.1034423506533386  0.8742210617023645
  0.2202209644791111  0.2157842949471700  0.6141242534950280
  0.4560207096329236  0.0928355542381283  0.8333909750267168
  0.8822636721306836  0.5417965618454517  0.6124395138198935
  0.1050600491625531  0.7522646376447994  0.3605926734728371
  0.4561023635456181  0.7517806079390894  0.3430799302628671
  0.2187552334159264  0.8670883604626596  0.6109245625915634
  0.4576350065160639  0.7507803685508208  0.8487651019454887
  0.2185362093604510  0.2122076462831401  0.1335029245287274
  0.7777937539094211  0.0908162001251114  0.8226386310638958
  0.8737033763652562  0.2140640773946387  0.6367782329325635
  0.5607695730165716  0.2035738641736842  0.0667642433045401
  0.7680893203914465  0.0993657579353311  0.3143606504627670
  0.8817375319522398  0.2117333173221141  0.1283283350206190
  0.5661215812291189  0.2046778316204367  0.5712579922245169
  0.1124457026525221  0.4335190624921452  0.3764192024758373
  0.2299912104151289  0.5283428711383209  0.1295575139628724
  0.7778356439150187  0.4282018680267754  0.8849322222088958
  0.4442019132593700  0.4300200525254994  0.3848619562652758
  0.5588285617019153  0.5276223747171542  0.1292248532147937
  0.1052656721478300  0.4356373662267004  0.8853397680658759
  0.2190475548996105  0.5435416481090627  0.6361435965753444
  0.7693736560856621  0.4218954574195450  0.3795670802244828
  0.8902670075333177  0.5343007298911573  0.1347080326154426
  0.4450336366689314  0.4293892298713331  0.8811637212368666
  0.5586808786885200  0.5270926843103183  0.6347800663249146
  0.2239513418238985  0.8696233279759582  0.1023932864202166
  0.7878851721127518  0.7620537316004174  0.8229050270545528
  0.8759143288546625  0.8830614773384369  0.5682915788579166
  0.5655148281516489  0.8687175530495352  0.0735562030844079
  0.1117192155903410  0.7528107806681206  0.8864371048102058
  0.7796790388678190  0.7642906083105814  0.3202751335452021
  0.8817954768491489  0.8747252601795594  0.0720042852973606
  0.5689591085511481  0.8694112818494020  0.5728696079436517
  0.2115262094864647  0.2250515606120516  0.3274932476691248
  0.1094507520871275  0.0953443241202478  0.0954305171331526
  0.8695919240876364  0.2191945764766032  0.8304688122624455
  0.7752828166834220  0.0922904899499599  0.6305075944418661
  0.5689804931172375  0.2144355313833088  0.3813891090105557
  0.4464053468763822  0.0946710084303959  0.1108155630519860
  0.2134916189079021  0.2292874804871090  0.8270462531728953
  0.0835546257527255  0.1111148051600068  0.5881979460807258
  0.8650073535726719  0.2199997006549168  0.3155069952586871
  0.7741100861860204  0.0909456375682609  0.1207243062374914
  0.5703612633300281  0.2098606524036981  0.8776591428901028
  0.4649864313906846  0.0870927135796364  0.6095095094209100
  0.2401459461451410  0.5129405985964652  0.3155060731349124
  0.1081958902783668  0.4299503569470247  0.0780168350404793
  0.8902704066965086  0.5364037340178456  0.8329495032208030
  0.7623470217877184  0.4167229723186949  0.5673605497889938
  0.5641943946557859  0.5142182662676618  0.3171919035661972
  0.4425573665028750  0.4310390292226671  0.0730714663856489
  0.2218576240495338  0.5387027252107259  0.8309901775338986
  0.1162909400562171  0.4466235008438986  0.5627200616572381
  0.8890476049553797  0.5348375841031938  0.3347284909279793
  0.7775682142261076  0.4300447601490660  0.0757965766001405
  0.5695020134136826  0.5125820356208877  0.8251106023878592
  0.4359105081595729  0.4372910056942558  0.5806167115607721
  0.2229420807010172  0.8700796914006972  0.3612981371781956
  0.1127692524983033  0.7559283661009815  0.0921838728261406
  0.8896591812798178  0.8726853968604047  0.8813517522912520
  0.7719083107331883  0.7833191001088338  0.6342125203238993
  0.5799819287740817  0.8604794119245724  0.3843274728662252
  0.4473942254455352  0.7587509578760461  0.1052443576366784
  0.2143381975347225  0.8621219572245948  0.8465547896402370
  0.0956411718919696  0.7524036642165157  0.5809174998316706
  0.8611915259656868  0.8912659773015221  0.3751333692133016
  0.7804329832302628  0.7614700517693080  0.1298867908802990
  0.5855865193671193  0.8593523413293198  0.8886026894442765
  0.4699287826537528  0.7496787030709697  0.6152338454137194
 
  0.00000000E+00  0.00000000E+00  0.00000000E+00
  0.00000000E+00  0.00000000E+00  0.00000000E+00
  0.00000000E+00  0.00000000E+00  0.00000000E+00
  0.00000000E+00  0.00000000E+00  0.00000000E+00
  0.00000000E+00  0.00000000E+00  0.00000000E+00
  0.00000000E+00  0.00000000E+00  0.00000000E+00
  0.00000000E+00  0.00000000E+00  0.00000000E+00
  0.00000000E+00  0.00000000E+00  0.00000000E+00
  0.00000000E+00  0.00000000E+00  0.00000000E+00
  0.00000000E+00  0.00000000E+00  0.00000000E+00
  0.00000000E+00  0.00000000E+00  0.00000000E+00
  0.00000000E+00  0.00000000E+00  0.00000000E+00
  0.00000000E+00  0.00000000E+00  0.00000000E+00
  0.00000000E+00  0.00000000E+00  0.00000000E+00
  0.00000000E+00  0.00000000E+00  0.00000000E+00
  0.00000000E+00  0.00000000E+00  0.00000000E+00
  0.00000000E+00  0.00000000E+00  0.00000000E+00
  0.00000000E+00  0.00000000E+00  0.00000000E+00
  0.00000000E+00  0.00000000E+00  0.00000000E+00
  0.00000000E+00  0.00000000E+00  0.00000000E+00
  0.00000000E+00  0.00000000E+00  0.00000000E+00
  0.00000000E+00  0.00000000E+00  0.00000000E+00
  0.00000000E+00  0.00000000E+00  0.00000000E+00
  0.00000000E+00  0.00000000E+00  0.00000000E+00
  0.00000000E+00  0.00000000E+00  0.00000000E+00
  0.00000000E+00  0.00000000E+00  0.00000000E+00
  0.00000000E+00  0.00000000E+00  0.00000000E+00
  0.00000000E+00  0.00000000E+00  0.00000000E+00
  0.00000000E+00  0.00000000E+00  0.00000000E+00
  0.00000000E+00  0.00000000E+00  0.00000000E+00
  0.00000000E+00  0.00000000E+00  0.00000000E+00
  0.00000000E+00  0.00000000E+00  0.00000000E+00
  0.00000000E+00  0.00000000E+00  0.00000000E+00
  0.00000000E+00  0.00000000E+00  0.00000000E+00
  0.00000000E+00  0.00000000E+00  0.00000000E+00
  0.00000000E+00  0.00000000E+00  0.00000000E+00
  0.00000000E+00  0.00000000E+00  0.00000000E+00
  0.00000000E+00  0.00000000E+00  0.00000000E+00
  0.00000000E+00  0.00000000E+00  0.00000000E+00
  0.00000000E+00  0.00000000E+00  0.00000000E+00
  0.00000000E+00  0.00000000E+00  0.00000000E+00
  0.00000000E+00  0.00000000E+00  0.00000000E+00
  0.00000000E+00  0.00000000E+00  0.00000000E+00
  0.00000000E+00  0.00000000E+00  0.00000000E+00
  0.00000000E+00  0.00000000E+00  0.00000000E+00
  0.00000000E+00  0.00000000E+00  0.00000000E+00
  0.00000000E+00  0.00000000E+00  0.00000000E+00
  0.00000000E+00  0.00000000E+00  0.00000000E+00
  0.00000000E+00  0.00000000E+00  0.00000000E+00
  0.00000000E+00  0.00000000E+00  0.00000000E+00
  0.00000000E+00  0.00000000E+00  0.00000000E+00
  0.00000000E+00  0.00000000E+00  0.00000000E+00
  0.00000000E+00  0.00000000E+00  0.00000000E+00
  0.00000000E+00  0.00000000E+00  0.00000000E+00
  0.00000000E+00  0.00000000E+00  0.00000000E+00
  0.00000000E+00  0.00000000E+00  0.00000000E+00
  0.00000000E+00  0.00000000E+00  0.00000000E+00
  0.00000000E+00  0.00000000E+00  0.00000000E+00
  0.00000000E+00  0.00000000E+00  0.00000000E+00
  0.00000000E+00  0.00000000E+00  0.00000000E+00
  0.00000000E+00  0.00000000E+00  0.00000000E+00
  0.00000000E+00  0.00000000E+00  0.00000000E+00
  0.00000000E+00  0.00000000E+00  0.00000000E+00
  0.00000000E+00  0.00000000E+00  0.00000000E+00
  0.00000000E+00  0.00000000E+00  0.00000000E+00
  0.00000000E+00  0.00000000E+00  0.00000000E+00
  0.00000000E+00  0.00000000E+00  0.00000000E+00
  0.00000000E+00  0.00000000E+00  0.00000000E+00
  0.00000000E+00  0.00000000E+00  0.00000000E+00
  0.00000000E+00  0.00000000E+00  0.00000000E+00
  0.00000000E+00  0.00000000E+00  0.00000000E+00
  0.00000000E+00  0.00000000E+00  0.00000000E+00
