Sc   Al   N                             
   1.00000000000000     
    -9.8515382106851241   -0.0042264672575647    0.0012011321667067
    -4.9277978685093471    8.5069978077263908    0.0036526756200661
    -0.0327795991810869    0.1566902326110011  -10.3482039104353518
   Sc   Al   N 
    10    26    36
Direct
  0.1023334971286900  0.0988632926512238  0.3072021313186113
  0.4495114803228972  0.1001788997633497  0.3207654648343095
  0.0986197749711408  0.1038950980093247  0.8330566683524694
  0.2175983078476236  0.2140394570879707  0.5690709287574478
  0.4524119184252982  0.0975314208930698  0.8211725001022572
  0.8832335955548345  0.5487033044014495  0.5770039382966274
  0.1045277629973071  0.7571625717152131  0.3298641747843476
  0.4514090948145011  0.7583899473263784  0.3204713668389516
  0.2235960213878840  0.8701184299574649  0.5836810173684697
  0.4561816041760522  0.7531759926486075  0.8386889415498686
  0.2214287933181183  0.2113668017136092  0.0610759368142197
  0.7757563678555996  0.0976617338870014  0.8162162680204261
  0.8790833907773248  0.2013515638417900  0.5635505535428464
  0.5636396470579825  0.1996106341707602  0.0637904396850999
  0.7728094565100747  0.0970189956481633  0.3170393347126392
  0.8823438715435969  0.2014516142473255  0.0649303419318130
  0.5642749470948516  0.2033525465252453  0.5652331905611945
  0.1036828089002952  0.4273930119082792  0.3051931557787313
  0.2314959600199131  0.5319720998298010  0.1274394128791840
  0.7716273306377701  0.4292581126149244  0.8862164580042773
  0.4447949188585056  0.4302042417258107  0.3839373780040916
  0.5621757339697666  0.5253696118948241  0.1295438869681078
  0.1074954159908472  0.4362728005156740  0.8239036604481740
  0.2304693956942785  0.5378089213508375  0.6421654679304112
  0.7704062984534517  0.4263280693955949  0.3791246062668350
  0.8893334652337970  0.5440624975727033  0.0658960352511073
  0.4450853074658738  0.4310721000000441  0.8868418193801588
  0.5612267632268697  0.5264787489461256  0.6355002997952965
  0.2202788997484930  0.8645574067308246  0.0583670473568318
  0.7836057926482525  0.7658394398002173  0.8207048230197174
  0.8770612673092941  0.8814576541197638  0.5708212569735451
  0.5637593748136496  0.8706127470169847  0.0668724094483366
  0.1007633971799464  0.7628718669795944  0.8204854181217058
  0.7812441151912353  0.7597334495130923  0.3151101633240856
  0.8899381320410242  0.8718212288423572  0.0656290556763537
  0.5661703663890592  0.8712049573477856  0.5683086468516336
  0.2099307185659569  0.2217588003993427  0.3660991314365063
  0.1102937428242967  0.0922497063589560  0.0959785267548980
  0.8667773056782337  0.2101185574834119  0.8817307818803641
  0.7749876440182817  0.0966486738407966  0.6300499382095310
  0.5690649878187699  0.2107883566400659  0.3809314291735717
  0.4457402284065282  0.0949966800852238  0.1096208221483437
  0.2161021100172817  0.2268050457020649  0.8786658169359995
  0.0856942312242452  0.1094863026369879  0.6263076518832733
  0.8750532823078814  0.2036828162799580  0.3742520489219459
  0.7780978694890734  0.0906729272580051  0.1288456097356985
  0.5697697990049519  0.2086546292857534  0.8795409258058271
  0.4605752301221173  0.0898404749304760  0.6113207415511610
  0.2406006685729025  0.5116259192147581  0.3164917069147819
  0.1063700397522638  0.4279059367954829  0.1166961621248461
  0.8886482608129072  0.5446858013181597  0.8724972172948924
  0.7620776537961476  0.4223803819042828  0.5681541798000822
  0.5656240477997088  0.5145378431412055  0.3136853108448250
  0.4449804102345070  0.4296291782864614  0.0729377067074211
  0.2306919269023453  0.5386340979408644  0.8334206351983227
  0.1137709586544986  0.4378736933018104  0.6384791366512630
  0.8903127855690087  0.5393206935234218  0.3633301641493887
  0.7753097351281610  0.4302986731449394  0.0763485443748166
  0.5694012269873170  0.5108151062097193  0.8204243815463883
  0.4373528043842114  0.4380798759474587  0.5739892771417772
  0.2226669630645262  0.8713685694222022  0.3807594442533428
  0.1086204859574593  0.7617603837000217  0.1174275068974566
  0.8881767220734247  0.8757673451109795  0.8788491870575257
  0.7696512231548098  0.7833863620475654  0.6378195206212069
  0.5776840876968450  0.8614637727955738  0.3828937067115206
  0.4456083944845730  0.7597921747932261  0.1027926396869034
  0.2138627170430851  0.8595792353377547  0.8720947613932140
  0.0923178833085458  0.7597524785506238  0.6272086682546956
  0.8663516505803130  0.8836241084360523  0.3831297084484007
  0.7815985190583135  0.7613468732480086  0.1272902188656460
  0.5809591711192823  0.8645190123867152  0.8872484312605522
  0.4686383709178941  0.7535489920415728  0.6239423219633622
 
  0.00000000E+00  0.00000000E+00  0.00000000E+00
  0.00000000E+00  0.00000000E+00  0.00000000E+00
  0.00000000E+00  0.00000000E+00  0.00000000E+00
  0.00000000E+00  0.00000000E+00  0.00000000E+00
  0.00000000E+00  0.00000000E+00  0.00000000E+00
  0.00000000E+00  0.00000000E+00  0.00000000E+00
  0.00000000E+00  0.00000000E+00  0.00000000E+00
  0.00000000E+00  0.00000000E+00  0.00000000E+00
  0.00000000E+00  0.00000000E+00  0.00000000E+00
  0.00000000E+00  0.00000000E+00  0.00000000E+00
  0.00000000E+00  0.00000000E+00  0.00000000E+00
  0.00000000E+00  0.00000000E+00  0.00000000E+00
  0.00000000E+00  0.00000000E+00  0.00000000E+00
  0.00000000E+00  0.00000000E+00  0.00000000E+00
  0.00000000E+00  0.00000000E+00  0.00000000E+00
  0.00000000E+00  0.00000000E+00  0.00000000E+00
  0.00000000E+00  0.00000000E+00  0.00000000E+00
  0.00000000E+00  0.00000000E+00  0.00000000E+00
  0.00000000E+00  0.00000000E+00  0.00000000E+00
  0.00000000E+00  0.00000000E+00  0.00000000E+00
  0.00000000E+00  0.00000000E+00  0.00000000E+00
  0.00000000E+00  0.00000000E+00  0.00000000E+00
  0.00000000E+00  0.00000000E+00  0.00000000E+00
  0.00000000E+00  0.00000000E+00  0.00000000E+00
  0.00000000E+00  0.00000000E+00  0.00000000E+00
  0.00000000E+00  0.00000000E+00  0.00000000E+00
  0.00000000E+00  0.00000000E+00  0.00000000E+00
  0.00000000E+00  0.00000000E+00  0.00000000E+00
  0.00000000E+00  0.00000000E+00  0.00000000E+00
  0.00000000E+00  0.00000000E+00  0.00000000E+00
  0.00000000E+00  0.00000000E+00  0.00000000E+00
  0.00000000E+00  0.00000000E+00  0.00000000E+00
  0.00000000E+00  0.00000000E+00  0.00000000E+00
  0.00000000E+00  0.00000000E+00  0.00000000E+00
  0.00000000E+00  0.00000000E+00  0.00000000E+00
  0.00000000E+00  0.00000000E+00  0.00000000E+00
  0.00000000E+00  0.00000000E+00  0.00000000E+00
  0.00000000E+00  0.00000000E+00  0.00000000E+00
  0.00000000E+00  0.00000000E+00  0.00000000E+00
  0.00000000E+00  0.00000000E+00  0.00000000E+00
  0.00000000E+00  0.00000000E+00  0.00000000E+00
  0.00000000E+00  0.00000000E+00  0.00000000E+00
  0.00000000E+00  0.00000000E+00  0.00000000E+00
  0.00000000E+00  0.00000000E+00  0.00000000E+00
  0.00000000E+00  0.00000000E+00  0.00000000E+00
  0.00000000E+00  0.00000000E+00  0.00000000E+00
  0.00000000E+00  0.00000000E+00  0.00000000E+00
  0.00000000E+00  0.00000000E+00  0.00000000E+00
  0.00000000E+00  0.00000000E+00  0.00000000E+00
  0.00000000E+00  0.00000000E+00  0.00000000E+00
  0.00000000E+00  0.00000000E+00  0.00000000E+00
  0.00000000E+00  0.00000000E+00  0.00000000E+00
  0.00000000E+00  0.00000000E+00  0.00000000E+00
  0.00000000E+00  0.00000000E+00  0.00000000E+00
  0.00000000E+00  0.00000000E+00  0.00000000E+00
  0.00000000E+00  0.00000000E+00  0.00000000E+00
  0.00000000E+00  0.00000000E+00  0.00000000E+00
  0.00000000E+00  0.00000000E+00  0.00000000E+00
  0.00000000E+00  0.00000000E+00  0.00000000E+00
  0.00000000E+00  0.00000000E+00  0.00000000E+00
  0.00000000E+00  0.00000000E+00  0.00000000E+00
  0.00000000E+00  0.00000000E+00  0.00000000E+00
  0.00000000E+00  0.00000000E+00  0.00000000E+00
  0.00000000E+00  0.00000000E+00  0.00000000E+00
  0.00000000E+00  0.00000000E+00  0.00000000E+00
  0.00000000E+00  0.00000000E+00  0.00000000E+00
  0.00000000E+00  0.00000000E+00  0.00000000E+00
  0.00000000E+00  0.00000000E+00  0.00000000E+00
  0.00000000E+00  0.00000000E+00  0.00000000E+00
  0.00000000E+00  0.00000000E+00  0.00000000E+00
  0.00000000E+00  0.00000000E+00  0.00000000E+00
  0.00000000E+00  0.00000000E+00  0.00000000E+00
