Sc   Al   N                             
   1.00000000000000     
    -9.9222761590749879   -0.0127210742785176   -0.0076896498627185
    -4.9456134033668997    8.5743639243448886   -0.0088503606477883
    -0.0608653126235001    0.0452610707610393  -10.1065390973681826
   Sc   Al   N 
    10    26    36
Direct
  0.0938829869811144  0.1050811296025458  0.3718691915620198
  0.4553693138627608  0.0955013959789639  0.3372858365529225
  0.1011038263145849  0.1079864050764527  0.8705187833085617
  0.2203307296184533  0.2171642373690474  0.6130147272067958
  0.4578795542963263  0.0919321479886008  0.8291367603782476
  0.8821420094885042  0.5414945835383307  0.6133443817253976
  0.1057805892961454  0.7560788366658784  0.3495837191402842
  0.4504600158282912  0.7577457357528203  0.3266306410159174
  0.2237180137469892  0.8668334447236390  0.6020893652165782
  0.4603879700704852  0.7497699815708572  0.8477689050830364
  0.2188524237485510  0.2102935878073993  0.1342280948406938
  0.7762660962278858  0.0922083772707438  0.8227748557948189
  0.8721286428303898  0.2152296607373003  0.6370529778270893
  0.5608408884084426  0.2018367972379451  0.0679660180951061
  0.7689380014545009  0.0983815408083260  0.3141929228613591
  0.8838549415133343  0.2097647715613391  0.1286246435582470
  0.5664134124334055  0.2053616462488108  0.5694521421398235
  0.1120229249913223  0.4339918675887802  0.3759975883204874
  0.2282441809073887  0.5305244852500763  0.1303625490707603
  0.7775625278886764  0.4279157881514237  0.8860368245866113
  0.4443885527993956  0.4317924036706060  0.3846707273825629
  0.5594044403736262  0.5258688979628658  0.1277003978482654
  0.1062213727831463  0.4350469631245701  0.8867047320637127
  0.2209295626725805  0.5408373486446649  0.6355841340111184
  0.7682725659421550  0.4234890226073560  0.3791886570887826
  0.8905249064877552  0.5339099571583503  0.1352088455826959
  0.4447805244351244  0.4287496272757068  0.8834531223384374
  0.5585846585175531  0.5277635819200341  0.6364816370241115
  0.2208920354070543  0.8660652774658075  0.0686844260449462
  0.7868273809852795  0.7616368054164013  0.8227000129687738
  0.8761857283886343  0.8829150354583319  0.5709325205084568
  0.5660470735776642  0.8697948838253566  0.0729803040203265
  0.1055886393409082  0.7546223419135742  0.8527547206779929
  0.7799146077490420  0.7635763974005982  0.3207615584641346
  0.8868114799836135  0.8715448720019268  0.0713244669951933
  0.5685046558700364  0.8675560827220465  0.5721841221132777
  0.2115407046760467  0.2240783474536912  0.3281815232595306
  0.1099279831076529  0.0947862032791065  0.0926439642842993
  0.8685150394167849  0.2197514707097383  0.8297365598376629
  0.7736897511158176  0.0933802288071846  0.6315891069184900
  0.5696632991791191  0.2150611450258779  0.3808930766247656
  0.4467582210524057  0.0938023851278160  0.1139336874391859
  0.2156566588334101  0.2297783171106431  0.8252741224701765
  0.0827923946471358  0.1131942343314165  0.5920909692866942
  0.8657798573498425  0.2197127304528550  0.3155680643123873
  0.7750514890284848  0.0893336465024888  0.1214889642182513
  0.5701686813564066  0.2089133743730116  0.8797427457628118
  0.4653103905760716  0.0872107586325086  0.6066471111510054
  0.2398962826799291  0.5137426961706808  0.3171145816624943
  0.1087137864256604  0.4290956552432021  0.0784236878196509
  0.8907789787080773  0.5355054650111981  0.8331271408167993
  0.7610170694761749  0.4177894111103484  0.5664596928078751
  0.5628530741868687  0.5173897485132457  0.3158517100448677
  0.4416321209996283  0.4305635321241184  0.0739116979151078
  0.2239843428070429  0.5349995621661918  0.8300490986511875
  0.1154945703667138  0.4482325160935616  0.5610359397612257
  0.8893974561100961  0.5340633757617681  0.3339786962653903
  0.7780719941971697  0.4290631719048648  0.0757531220193997
  0.5696651121931566  0.5106941394415969  0.8263224594597531
  0.4361785324970242  0.4383535352382850  0.5794167933825918
  0.2260141482966560  0.8677221504902093  0.3871666538570864
  0.1095928822222731  0.7581531440437388  0.1083015822152191
  0.8889882807091496  0.8725906867077384  0.8808993380957446
  0.7709225146313941  0.7833479097276737  0.6349438568819394
  0.5793245432164866  0.8572342415290137  0.3847677195343593
  0.4454839445252290  0.7593153071878618  0.1023186429534348
  0.2148053952338742  0.8613070377245862  0.8678504835646166
  0.0930694113838086  0.7561935800493202  0.6046059014131870
  0.8629251313965085  0.8896465468855652  0.3793392415570835
  0.7807237362161530  0.7616625461488553  0.1306911668020589
  0.5860864442261260  0.8601330006024668  0.8898212798747167
  0.4717531931686807  0.7506879079526101  0.6267625869278461
 
  0.00000000E+00  0.00000000E+00  0.00000000E+00
  0.00000000E+00  0.00000000E+00  0.00000000E+00
  0.00000000E+00  0.00000000E+00  0.00000000E+00
  0.00000000E+00  0.00000000E+00  0.00000000E+00
  0.00000000E+00  0.00000000E+00  0.00000000E+00
  0.00000000E+00  0.00000000E+00  0.00000000E+00
  0.00000000E+00  0.00000000E+00  0.00000000E+00
  0.00000000E+00  0.00000000E+00  0.00000000E+00
  0.00000000E+00  0.00000000E+00  0.00000000E+00
  0.00000000E+00  0.00000000E+00  0.00000000E+00
  0.00000000E+00  0.00000000E+00  0.00000000E+00
  0.00000000E+00  0.00000000E+00  0.00000000E+00
  0.00000000E+00  0.00000000E+00  0.00000000E+00
  0.00000000E+00  0.00000000E+00  0.00000000E+00
  0.00000000E+00  0.00000000E+00  0.00000000E+00
  0.00000000E+00  0.00000000E+00  0.00000000E+00
  0.00000000E+00  0.00000000E+00  0.00000000E+00
  0.00000000E+00  0.00000000E+00  0.00000000E+00
  0.00000000E+00  0.00000000E+00  0.00000000E+00
  0.00000000E+00  0.00000000E+00  0.00000000E+00
  0.00000000E+00  0.00000000E+00  0.00000000E+00
  0.00000000E+00  0.00000000E+00  0.00000000E+00
  0.00000000E+00  0.00000000E+00  0.00000000E+00
  0.00000000E+00  0.00000000E+00  0.00000000E+00
  0.00000000E+00  0.00000000E+00  0.00000000E+00
  0.00000000E+00  0.00000000E+00  0.00000000E+00
  0.00000000E+00  0.00000000E+00  0.00000000E+00
  0.00000000E+00  0.00000000E+00  0.00000000E+00
  0.00000000E+00  0.00000000E+00  0.00000000E+00
  0.00000000E+00  0.00000000E+00  0.00000000E+00
  0.00000000E+00  0.00000000E+00  0.00000000E+00
  0.00000000E+00  0.00000000E+00  0.00000000E+00
  0.00000000E+00  0.00000000E+00  0.00000000E+00
  0.00000000E+00  0.00000000E+00  0.00000000E+00
  0.00000000E+00  0.00000000E+00  0.00000000E+00
  0.00000000E+00  0.00000000E+00  0.00000000E+00
  0.00000000E+00  0.00000000E+00  0.00000000E+00
  0.00000000E+00  0.00000000E+00  0.00000000E+00
  0.00000000E+00  0.00000000E+00  0.00000000E+00
  0.00000000E+00  0.00000000E+00  0.00000000E+00
  0.00000000E+00  0.00000000E+00  0.00000000E+00
  0.00000000E+00  0.00000000E+00  0.00000000E+00
  0.00000000E+00  0.00000000E+00  0.00000000E+00
  0.00000000E+00  0.00000000E+00  0.00000000E+00
  0.00000000E+00  0.00000000E+00  0.00000000E+00
  0.00000000E+00  0.00000000E+00  0.00000000E+00
  0.00000000E+00  0.00000000E+00  0.00000000E+00
  0.00000000E+00  0.00000000E+00  0.00000000E+00
  0.00000000E+00  0.00000000E+00  0.00000000E+00
  0.00000000E+00  0.00000000E+00  0.00000000E+00
  0.00000000E+00  0.00000000E+00  0.00000000E+00
  0.00000000E+00  0.00000000E+00  0.00000000E+00
  0.00000000E+00  0.00000000E+00  0.00000000E+00
  0.00000000E+00  0.00000000E+00  0.00000000E+00
  0.00000000E+00  0.00000000E+00  0.00000000E+00
  0.00000000E+00  0.00000000E+00  0.00000000E+00
  0.00000000E+00  0.00000000E+00  0.00000000E+00
  0.00000000E+00  0.00000000E+00  0.00000000E+00
  0.00000000E+00  0.00000000E+00  0.00000000E+00
  0.00000000E+00  0.00000000E+00  0.00000000E+00
  0.00000000E+00  0.00000000E+00  0.00000000E+00
  0.00000000E+00  0.00000000E+00  0.00000000E+00
  0.00000000E+00  0.00000000E+00  0.00000000E+00
  0.00000000E+00  0.00000000E+00  0.00000000E+00
  0.00000000E+00  0.00000000E+00  0.00000000E+00
  0.00000000E+00  0.00000000E+00  0.00000000E+00
  0.00000000E+00  0.00000000E+00  0.00000000E+00
  0.00000000E+00  0.00000000E+00  0.00000000E+00
  0.00000000E+00  0.00000000E+00  0.00000000E+00
  0.00000000E+00  0.00000000E+00  0.00000000E+00
  0.00000000E+00  0.00000000E+00  0.00000000E+00
  0.00000000E+00  0.00000000E+00  0.00000000E+00
