Al   Sc   N                             
   1.00000000000000     
    -9.5000294561136887   -0.0018817974791231    0.0019008574409897
    -4.7493111644617452    8.2248728009589520    0.0000000222234057
     0.0019454737608395    0.0011331948576873   -9.9912808709889855
   Al   Sc   N 
    34     2    36
Direct
  0.1111874908765458  0.0940673797679352  0.4094059708942979
  0.2181252839533414  0.2054828992010016  0.1597615656914044
  0.7840060855266771  0.0914451335743891  0.9059035828905166
  0.8896363092584849  0.2061388385556384  0.6588374030275759
  0.4408613319896659  0.1001286656535072  0.4102030162175012
  0.1106696628672665  0.0948796527099205  0.9094589506498281
  0.2181255566749343  0.2097244946807919  0.6597614456090568
  0.7788069847077779  0.0940256824897432  0.4129543308340118
  0.8928974776645759  0.2044244678732099  0.1597775019748937
  0.4408611434337004  0.0923435112183455  0.9102027608625036
  0.5543984526190755  0.2091307392700230  0.6617207833972998
  0.1106696582786881  0.4277844418574119  0.4094590084665839
  0.2194081712816214  0.5429192224317134  0.1599795534065365
  0.7778819204721756  0.4277240606141675  0.9089183418985698
  0.8928976501506725  0.5360114638802713  0.6597774442244670
  0.4442749397281034  0.4285524846558246  0.4133541440234652
  0.5548974706646277  0.5416250833714500  0.1593988415018046
  0.1111875064680277  0.4280788188223568  0.9094058763758568
  0.2206843833414567  0.5395744007866909  0.6583008424812746
  0.7778818683442381  0.4277281671990139  0.4089183999350254
  0.8896362349034916  0.5375584701518932  0.1588373322547980
  0.4407404002266517  0.4343008862720836  0.9061297381047737
  0.5548971525563431  0.5368101587518979  0.6593988972276250
  0.1111438956001294  0.7617132905996300  0.4096688591699191
  0.2206842691868403  0.8730740245575888  0.1583007272151207
  0.7788068019219523  0.7605014532350438  0.9129541659419544
  0.8936368958909995  0.8695240385029024  0.6594833570831824
  0.4407400823214900  0.7582922309597748  0.4061296916048676
  0.5543980875582264  0.8698035183943347  0.1617207576375748
  0.1111439579739724  0.7604763854962115  0.9096689580731194
  0.2194078009040652  0.8710055052342156  0.6599795669513497
  0.7840060122785317  0.7578829915245464  0.4059035492579852
  0.8936370052859104  0.8701723803090644  0.1594832312959511
  0.4442748312264513  0.7605060768424607  0.9133541280971329
  0.5565119315565781  0.2067625053945008  0.1499656578323112
  0.5565120163799477  0.8700569134738103  0.6499654958879830
  0.2203380526051930  0.2064569865790062  0.3513760131705510
  0.1107885558629249  0.0948170532437089  0.1012399121734333
  0.8898736823302826  0.2067536954464728  0.8497530921585437
  0.7784069928690371  0.0935237633752877  0.6058800763827179
  0.5568127096830793  0.2065069999979983  0.3625099380434307
  0.4333915593925965  0.0852438303088832  0.1001044274284766
  0.2203379007802937  0.2065372849072347  0.8513756625409599
  0.1119246274865020  0.0935617293909701  0.6019666745297272
  0.8888998845679836  0.2053808370641477  0.3528986110358474
  0.7998565541632630  0.0838315776795966  0.0952410027403019
  0.5553852898471590  0.2056790693024482  0.8593632517974328
  0.4333922389840339  0.1146981166382801  0.6001048879194713
  0.2224118151606618  0.5388763656098945  0.3530970456202880
  0.1119245711232537  0.4278482433394331  0.1019666254903910
  0.8888998831189099  0.5390519664478788  0.8528984328779146
  0.7774977444519422  0.4287532112832579  0.6016604418620517
  0.5564544130419193  0.5366282502359709  0.3509288197917186
  0.4329104003513748  0.4500171264860100  0.0953201933983649
  0.2199285155115049  0.5399254511037199  0.8497010040690753
  0.1107887010103710  0.4277287983970908  0.6012399230605965
  0.8898736550761299  0.5367053298046613  0.3497530752778459
  0.7774979652249101  0.4270842252988558  0.1016603441544035
  0.5564543542605520  0.5402493557902304  0.8509288916252302
  0.4437181727933250  0.4285149887731592  0.6054029612625911
  0.2199282182652240  0.8734783425654484  0.3497008427597166
  0.1113641703275690  0.7608081550835806  0.1012999267571928
  0.8898287944752852  0.8698766073863879  0.8509968134295107
  0.7998565490155372  0.7496470996015816  0.5952409738496272
  0.5553851696223973  0.8722676823356750  0.3593633039592916
  0.4437181145481048  0.7611009514899294  0.1054029193524286
  0.2224116721195557  0.8720440334356567  0.8530971469984365
  0.1113640148069308  0.7611620329121749  0.6012999645623438
  0.8898287541406589  0.8736272020367721  0.3509966150438544
  0.7784066308816620  0.7614046109277979  0.1058799787498117
  0.5568126247156471  0.8700121716047136  0.8625096510582608
  0.4329096599901376  0.7504066351696892  0.5953199083951759
 
  0.00000000E+00  0.00000000E+00  0.00000000E+00
  0.00000000E+00  0.00000000E+00  0.00000000E+00
  0.00000000E+00  0.00000000E+00  0.00000000E+00
  0.00000000E+00  0.00000000E+00  0.00000000E+00
  0.00000000E+00  0.00000000E+00  0.00000000E+00
  0.00000000E+00  0.00000000E+00  0.00000000E+00
  0.00000000E+00  0.00000000E+00  0.00000000E+00
  0.00000000E+00  0.00000000E+00  0.00000000E+00
  0.00000000E+00  0.00000000E+00  0.00000000E+00
  0.00000000E+00  0.00000000E+00  0.00000000E+00
  0.00000000E+00  0.00000000E+00  0.00000000E+00
  0.00000000E+00  0.00000000E+00  0.00000000E+00
  0.00000000E+00  0.00000000E+00  0.00000000E+00
  0.00000000E+00  0.00000000E+00  0.00000000E+00
  0.00000000E+00  0.00000000E+00  0.00000000E+00
  0.00000000E+00  0.00000000E+00  0.00000000E+00
  0.00000000E+00  0.00000000E+00  0.00000000E+00
  0.00000000E+00  0.00000000E+00  0.00000000E+00
  0.00000000E+00  0.00000000E+00  0.00000000E+00
  0.00000000E+00  0.00000000E+00  0.00000000E+00
  0.00000000E+00  0.00000000E+00  0.00000000E+00
  0.00000000E+00  0.00000000E+00  0.00000000E+00
  0.00000000E+00  0.00000000E+00  0.00000000E+00
  0.00000000E+00  0.00000000E+00  0.00000000E+00
  0.00000000E+00  0.00000000E+00  0.00000000E+00
  0.00000000E+00  0.00000000E+00  0.00000000E+00
  0.00000000E+00  0.00000000E+00  0.00000000E+00
  0.00000000E+00  0.00000000E+00  0.00000000E+00
  0.00000000E+00  0.00000000E+00  0.00000000E+00
  0.00000000E+00  0.00000000E+00  0.00000000E+00
  0.00000000E+00  0.00000000E+00  0.00000000E+00
  0.00000000E+00  0.00000000E+00  0.00000000E+00
  0.00000000E+00  0.00000000E+00  0.00000000E+00
  0.00000000E+00  0.00000000E+00  0.00000000E+00
  0.00000000E+00  0.00000000E+00  0.00000000E+00
  0.00000000E+00  0.00000000E+00  0.00000000E+00
  0.00000000E+00  0.00000000E+00  0.00000000E+00
  0.00000000E+00  0.00000000E+00  0.00000000E+00
  0.00000000E+00  0.00000000E+00  0.00000000E+00
  0.00000000E+00  0.00000000E+00  0.00000000E+00
  0.00000000E+00  0.00000000E+00  0.00000000E+00
  0.00000000E+00  0.00000000E+00  0.00000000E+00
  0.00000000E+00  0.00000000E+00  0.00000000E+00
  0.00000000E+00  0.00000000E+00  0.00000000E+00
  0.00000000E+00  0.00000000E+00  0.00000000E+00
  0.00000000E+00  0.00000000E+00  0.00000000E+00
  0.00000000E+00  0.00000000E+00  0.00000000E+00
  0.00000000E+00  0.00000000E+00  0.00000000E+00
  0.00000000E+00  0.00000000E+00  0.00000000E+00
  0.00000000E+00  0.00000000E+00  0.00000000E+00
  0.00000000E+00  0.00000000E+00  0.00000000E+00
  0.00000000E+00  0.00000000E+00  0.00000000E+00
  0.00000000E+00  0.00000000E+00  0.00000000E+00
  0.00000000E+00  0.00000000E+00  0.00000000E+00
  0.00000000E+00  0.00000000E+00  0.00000000E+00
  0.00000000E+00  0.00000000E+00  0.00000000E+00
  0.00000000E+00  0.00000000E+00  0.00000000E+00
  0.00000000E+00  0.00000000E+00  0.00000000E+00
  0.00000000E+00  0.00000000E+00  0.00000000E+00
  0.00000000E+00  0.00000000E+00  0.00000000E+00
  0.00000000E+00  0.00000000E+00  0.00000000E+00
  0.00000000E+00  0.00000000E+00  0.00000000E+00
  0.00000000E+00  0.00000000E+00  0.00000000E+00
  0.00000000E+00  0.00000000E+00  0.00000000E+00
  0.00000000E+00  0.00000000E+00  0.00000000E+00
  0.00000000E+00  0.00000000E+00  0.00000000E+00
  0.00000000E+00  0.00000000E+00  0.00000000E+00
  0.00000000E+00  0.00000000E+00  0.00000000E+00
  0.00000000E+00  0.00000000E+00  0.00000000E+00
  0.00000000E+00  0.00000000E+00  0.00000000E+00
  0.00000000E+00  0.00000000E+00  0.00000000E+00
  0.00000000E+00  0.00000000E+00  0.00000000E+00
