Sc   Al   N                             
   1.00000000000000     
    -9.8789516643543376    0.0028307984445492   -0.0046284295420145
    -4.9203381508413058    8.5148912570209436   -0.0083102372073443
     0.0099175859163872    0.1179964021085692  -10.2789418768343861
   Sc   Al   N 
    10    26    36
Direct
  0.1011950861991338  0.0983995260700397  0.3172360591425942
  0.4524454854471571  0.0970088150006632  0.3314015065663725
  0.0971684460048934  0.1040944518499387  0.8336431841679541
  0.2200175647179563  0.2119405659737978  0.5871149603117303
  0.4576164657514425  0.0927427467686499  0.8199810732034152
  0.8832604865762690  0.5403816714103655  0.6235746058764846
  0.1031724648528112  0.7581050398503848  0.3312285465479121
  0.4497561316978462  0.7581728812793216  0.3217171834905130
  0.2234812704445091  0.8686049934562377  0.5882187435377517
  0.4560676445734231  0.7522035686821766  0.8443127754703568
  0.2251593658802307  0.2062268549424857  0.0874056300025856
  0.7759249620675348  0.0990554509697645  0.8195910494944627
  0.8751616049296302  0.2039631009422109  0.5638559084034753
  0.5626458081385692  0.2010504719029385  0.0664001783559343
  0.7717405339906946  0.0985539246172706  0.3180993416388560
  0.8821468224506361  0.2029332910735775  0.0688515731418988
  0.5645392840601886  0.2060409678822026  0.5668692660170791
  0.1106386736744582  0.4355357576322945  0.3789746074506297
  0.2295075556117681  0.5296346850708602  0.1300479786956714
  0.7750124413779673  0.4324740521918642  0.8900695598130426
  0.4448775815251551  0.4318200879709622  0.3844108549185350
  0.5605511168417507  0.5260565241357114  0.1289250741123311
  0.1067380203544204  0.4380068532055788  0.8859636575016339
  0.2240919955132412  0.5375168616620556  0.6378664353725725
  0.7697007413423194  0.4290287760545297  0.3802206027180191
  0.8915955446694781  0.5341880028782739  0.1360220969379426
  0.4438206927731017  0.4298102396252972  0.8847909094212270
  0.5598355141369495  0.5280419865335588  0.6376224465624176
  0.2195763071427592  0.8642737272548047  0.0605408626266666
  0.7838272109095499  0.7656613404440762  0.8243809572812282
  0.8766245649396396  0.8821669057395169  0.5737083994665682
  0.5660319843665818  0.8690710235003465  0.0705441496417905
  0.0999763445846042  0.7612993572005990  0.8210245851601243
  0.7800238872074203  0.7636849073313172  0.3201203192947233
  0.8894864588065587  0.8715308521518068  0.0680101145722389
  0.5684139189333877  0.8674143960605250  0.5703735173737030
  0.2134647941036860  0.2184467846800615  0.3627352371287529
  0.1113154372143939  0.0936805612398004  0.1009954610457768
  0.8664876764952325  0.2120278109011835  0.8857060019131637
  0.7737906300185031  0.0988505260315691  0.6325541374469381
  0.5691849984452020  0.2133388088290857  0.3815409260427032
  0.4469992333260606  0.0943854416749161  0.1145267236595231
  0.2178147874201386  0.2260187962303419  0.8432811576734096
  0.0814719289306041  0.1099756970099008  0.6237821035783071
  0.8717000693759900  0.2065235848832288  0.3745188301996052
  0.7777835706795599  0.0917585537849916  0.1300095898306708
  0.5698608725070855  0.2079127026177119  0.8812776788136176
  0.4650070556628805  0.0880696906340006  0.6070512784724329
  0.2401087018474044  0.5114975149175294  0.3151729113883235
  0.1092792826990561  0.4310985417578266  0.0762350863002794
  0.8897353393773813  0.5366698042835054  0.8362190050367033
  0.7596321202427916  0.4263624691309573  0.5666525547345671
  0.5650474806910850  0.5153963665966330  0.3138478732624606
  0.4422793536269793  0.4313068489423415  0.0727114920279845
  0.2257531746628061  0.5335929763574896  0.8280990818196372
  0.1129234217013177  0.4531166228903842  0.5624746539805230
  0.8916138278082499  0.5323929105572844  0.3287388117989920
  0.7769832803419305  0.4331760685856665  0.0800952692276979
  0.5704225724222312  0.5097841371259477  0.8241363391361247
  0.4361064379212110  0.4406170121639050  0.5760412970308408
  0.2230556788357845  0.8682819577940535  0.3841594416568981
  0.1081993091258227  0.7617378588101786  0.1189761878174096
  0.8884446845042930  0.8749713458993256  0.8810192149003910
  0.7693816113448975  0.7851545081400531  0.6388299051600086
  0.5795398553260966  0.8557668912196590  0.3856546116256325
  0.4449042820260658  0.7603184664900837  0.1031639370227424
  0.2129402237191371  0.8584644958442453  0.8736321727350926
  0.0905916944387499  0.7615868971195141  0.6301437770402742
  0.8656997303802427  0.8854863051607111  0.3856837265081907
  0.7808180975422658  0.7650054364426282  0.1317597970636157
  0.5832961158006000  0.8613525264181376  0.8908757140651176
  0.4682323909543271  0.7546312991884960  0.6285174733746643
 
  0.00000000E+00  0.00000000E+00  0.00000000E+00
  0.00000000E+00  0.00000000E+00  0.00000000E+00
  0.00000000E+00  0.00000000E+00  0.00000000E+00
  0.00000000E+00  0.00000000E+00  0.00000000E+00
  0.00000000E+00  0.00000000E+00  0.00000000E+00
  0.00000000E+00  0.00000000E+00  0.00000000E+00
  0.00000000E+00  0.00000000E+00  0.00000000E+00
  0.00000000E+00  0.00000000E+00  0.00000000E+00
  0.00000000E+00  0.00000000E+00  0.00000000E+00
  0.00000000E+00  0.00000000E+00  0.00000000E+00
  0.00000000E+00  0.00000000E+00  0.00000000E+00
  0.00000000E+00  0.00000000E+00  0.00000000E+00
  0.00000000E+00  0.00000000E+00  0.00000000E+00
  0.00000000E+00  0.00000000E+00  0.00000000E+00
  0.00000000E+00  0.00000000E+00  0.00000000E+00
  0.00000000E+00  0.00000000E+00  0.00000000E+00
  0.00000000E+00  0.00000000E+00  0.00000000E+00
  0.00000000E+00  0.00000000E+00  0.00000000E+00
  0.00000000E+00  0.00000000E+00  0.00000000E+00
  0.00000000E+00  0.00000000E+00  0.00000000E+00
  0.00000000E+00  0.00000000E+00  0.00000000E+00
  0.00000000E+00  0.00000000E+00  0.00000000E+00
  0.00000000E+00  0.00000000E+00  0.00000000E+00
  0.00000000E+00  0.00000000E+00  0.00000000E+00
  0.00000000E+00  0.00000000E+00  0.00000000E+00
  0.00000000E+00  0.00000000E+00  0.00000000E+00
  0.00000000E+00  0.00000000E+00  0.00000000E+00
  0.00000000E+00  0.00000000E+00  0.00000000E+00
  0.00000000E+00  0.00000000E+00  0.00000000E+00
  0.00000000E+00  0.00000000E+00  0.00000000E+00
  0.00000000E+00  0.00000000E+00  0.00000000E+00
  0.00000000E+00  0.00000000E+00  0.00000000E+00
  0.00000000E+00  0.00000000E+00  0.00000000E+00
  0.00000000E+00  0.00000000E+00  0.00000000E+00
  0.00000000E+00  0.00000000E+00  0.00000000E+00
  0.00000000E+00  0.00000000E+00  0.00000000E+00
  0.00000000E+00  0.00000000E+00  0.00000000E+00
  0.00000000E+00  0.00000000E+00  0.00000000E+00
  0.00000000E+00  0.00000000E+00  0.00000000E+00
  0.00000000E+00  0.00000000E+00  0.00000000E+00
  0.00000000E+00  0.00000000E+00  0.00000000E+00
  0.00000000E+00  0.00000000E+00  0.00000000E+00
  0.00000000E+00  0.00000000E+00  0.00000000E+00
  0.00000000E+00  0.00000000E+00  0.00000000E+00
  0.00000000E+00  0.00000000E+00  0.00000000E+00
  0.00000000E+00  0.00000000E+00  0.00000000E+00
  0.00000000E+00  0.00000000E+00  0.00000000E+00
  0.00000000E+00  0.00000000E+00  0.00000000E+00
  0.00000000E+00  0.00000000E+00  0.00000000E+00
  0.00000000E+00  0.00000000E+00  0.00000000E+00
  0.00000000E+00  0.00000000E+00  0.00000000E+00
  0.00000000E+00  0.00000000E+00  0.00000000E+00
  0.00000000E+00  0.00000000E+00  0.00000000E+00
  0.00000000E+00  0.00000000E+00  0.00000000E+00
  0.00000000E+00  0.00000000E+00  0.00000000E+00
  0.00000000E+00  0.00000000E+00  0.00000000E+00
  0.00000000E+00  0.00000000E+00  0.00000000E+00
  0.00000000E+00  0.00000000E+00  0.00000000E+00
  0.00000000E+00  0.00000000E+00  0.00000000E+00
  0.00000000E+00  0.00000000E+00  0.00000000E+00
  0.00000000E+00  0.00000000E+00  0.00000000E+00
  0.00000000E+00  0.00000000E+00  0.00000000E+00
  0.00000000E+00  0.00000000E+00  0.00000000E+00
  0.00000000E+00  0.00000000E+00  0.00000000E+00
  0.00000000E+00  0.00000000E+00  0.00000000E+00
  0.00000000E+00  0.00000000E+00  0.00000000E+00
  0.00000000E+00  0.00000000E+00  0.00000000E+00
  0.00000000E+00  0.00000000E+00  0.00000000E+00
  0.00000000E+00  0.00000000E+00  0.00000000E+00
  0.00000000E+00  0.00000000E+00  0.00000000E+00
  0.00000000E+00  0.00000000E+00  0.00000000E+00
  0.00000000E+00  0.00000000E+00  0.00000000E+00
