Sc   Al   N                             
   1.00000000000000     
    -9.8905979062090683   -0.0166919877078736    0.0087804877804335
    -4.9120591632865507    8.5213699359870159    0.0081540557357401
     0.0006177614344020    0.0943687429598232  -10.2219642396867343
   Sc   Al   N 
    10    26    36
Direct
  0.0984129665757649  0.1013871483366700  0.3172061683880685
  0.4488560291234620  0.0974726600652502  0.3275273168121444
  0.0987660890161379  0.1034026002840633  0.8393810261298782
  0.2187988037641730  0.2132092384967166  0.5771222227337560
  0.4537370888530674  0.0968014612117827  0.8276239330342250
  0.8834401501140690  0.5441800489836126  0.5773074405340424
  0.1041661476747393  0.7523057428546664  0.3624227660569730
  0.4508287839971956  0.7557962856243918  0.3223598864097923
  0.2203446573686918  0.8688144663199466  0.5918441582365261
  0.4572626776261970  0.7545050861323688  0.8433403096117686
  0.2220604510061435  0.2122338892880009  0.0667677648573317
  0.7786010714966878  0.0948176471692008  0.8219600506210938
  0.8751276744557615  0.2086275079754145  0.5724091576100321
  0.5632269820459115  0.2010044553460304  0.0705679183047465
  0.7697359534506134  0.1026771384562792  0.3232217541104205
  0.8798972395476525  0.2088312986464942  0.0691244455981135
  0.5649529921582186  0.2013834573630362  0.5721226909007413
  0.1040812680880592  0.4271098096807435  0.3104139334804685
  0.2319733311332328  0.5304189681049891  0.1358953580529345
  0.7765579149911446  0.4229454335368814  0.8272534744704316
  0.4441449646601541  0.4284403599754754  0.3869681690876448
  0.5617389953205176  0.5316593952749216  0.0889592382882824
  0.1060846656487584  0.4362005041100971  0.8290249758147326
  0.2236117442341268  0.5452566366875118  0.6454053406600124
  0.7771795146251677  0.4253792745542526  0.3154316620980211
  0.8889092963471867  0.5391535489790584  0.0688966118134218
  0.4434445713895414  0.4295023728774368  0.8929547974996908
  0.5572974312888235  0.5327312527440426  0.6057401894050329
  0.2241842752611944  0.8713814743740826  0.0673313921321039
  0.7866095786155043  0.7630300546802857  0.8251566418497660
  0.8760173379205867  0.8801118847886613  0.5704718294843758
  0.5652350886727007  0.8715727328105771  0.0706503540482757
  0.1090902090622521  0.7516674497803066  0.8947398638512425
  0.7790269948126181  0.7604825309622925  0.3183352773137855
  0.8818837855360826  0.8766586754788932  0.0768197803900463
  0.5682157469894236  0.8683026574881083  0.5726186959166384
  0.2096592304578238  0.2226012680127241  0.3715636778468792
  0.1094471740127503  0.0949781948940185  0.1019959155510222
  0.8659911082447493  0.2141859159087147  0.8866859126518563
  0.7770950458629358  0.0937257028823595  0.6334700503834654
  0.5665337975640554  0.2108326208263023  0.3855048890528678
  0.4465593442660492  0.0947797776959405  0.1131110112023421
  0.2172727404111754  0.2263930231261213  0.8815163968046633
  0.0849659296737570  0.1093930829989205  0.6296087660430345
  0.8672968509881542  0.2167354799006844  0.3839670823706243
  0.7776988608424062  0.0949491021363684  0.1335809008380480
  0.5714694834156901  0.2092815220172284  0.8825141479025547
  0.4620069449689979  0.0865452973129166  0.6156646944997348
  0.2393050265127670  0.5121007398818449  0.3221524072357198
  0.1061583395812491  0.4283092515318785  0.1199257672107450
  0.8875478995182817  0.5404209107324291  0.8773398505861394
  0.7692391928090814  0.4164683724419902  0.6388398672255207
  0.5636477454726929  0.5190264282579733  0.3429813532947961
  0.4420205633484215  0.4261202298300901  0.0829125436101492
  0.2275733728374121  0.5425742478996867  0.8387347879219078
  0.1116693260203050  0.4392328803427361  0.6429340933142882
  0.8895650703572500  0.5387574313363288  0.3654343914028857
  0.7848791017708834  0.4241932294898589  0.1257287601535424
  0.5694395967670260  0.5201733601538123  0.8812810252150172
  0.4370844113905150  0.4343127907886668  0.5847284305244358
  0.2223712332673955  0.8745419061134854  0.3824596523134574
  0.1118802730568333  0.7563749302306633  0.0975558048985334
  0.8876861746545615  0.8753025360835096  0.8863642272637620
  0.7726651635850672  0.7789678973497232  0.6399476064405221
  0.5775532298848134  0.8592953029098780  0.3864544220892796
  0.4465917533799200  0.7629985294282875  0.1050722292262094
  0.2158426153340969  0.8613034359464038  0.8759252377595246
  0.0965423603880780  0.7488690123062796  0.5808974502120776
  0.8594737915766544  0.8896994675364454  0.3792797162685986
  0.7806903042864022  0.7596684777107541  0.1302539508481075
  0.5838124494111980  0.8647295405029780  0.8893103535423279
  0.4694765107343954  0.7494671109051367  0.6274421929200997
 
  0.00000000E+00  0.00000000E+00  0.00000000E+00
  0.00000000E+00  0.00000000E+00  0.00000000E+00
  0.00000000E+00  0.00000000E+00  0.00000000E+00
  0.00000000E+00  0.00000000E+00  0.00000000E+00
  0.00000000E+00  0.00000000E+00  0.00000000E+00
  0.00000000E+00  0.00000000E+00  0.00000000E+00
  0.00000000E+00  0.00000000E+00  0.00000000E+00
  0.00000000E+00  0.00000000E+00  0.00000000E+00
  0.00000000E+00  0.00000000E+00  0.00000000E+00
  0.00000000E+00  0.00000000E+00  0.00000000E+00
  0.00000000E+00  0.00000000E+00  0.00000000E+00
  0.00000000E+00  0.00000000E+00  0.00000000E+00
  0.00000000E+00  0.00000000E+00  0.00000000E+00
  0.00000000E+00  0.00000000E+00  0.00000000E+00
  0.00000000E+00  0.00000000E+00  0.00000000E+00
  0.00000000E+00  0.00000000E+00  0.00000000E+00
  0.00000000E+00  0.00000000E+00  0.00000000E+00
  0.00000000E+00  0.00000000E+00  0.00000000E+00
  0.00000000E+00  0.00000000E+00  0.00000000E+00
  0.00000000E+00  0.00000000E+00  0.00000000E+00
  0.00000000E+00  0.00000000E+00  0.00000000E+00
  0.00000000E+00  0.00000000E+00  0.00000000E+00
  0.00000000E+00  0.00000000E+00  0.00000000E+00
  0.00000000E+00  0.00000000E+00  0.00000000E+00
  0.00000000E+00  0.00000000E+00  0.00000000E+00
  0.00000000E+00  0.00000000E+00  0.00000000E+00
  0.00000000E+00  0.00000000E+00  0.00000000E+00
  0.00000000E+00  0.00000000E+00  0.00000000E+00
  0.00000000E+00  0.00000000E+00  0.00000000E+00
  0.00000000E+00  0.00000000E+00  0.00000000E+00
  0.00000000E+00  0.00000000E+00  0.00000000E+00
  0.00000000E+00  0.00000000E+00  0.00000000E+00
  0.00000000E+00  0.00000000E+00  0.00000000E+00
  0.00000000E+00  0.00000000E+00  0.00000000E+00
  0.00000000E+00  0.00000000E+00  0.00000000E+00
  0.00000000E+00  0.00000000E+00  0.00000000E+00
  0.00000000E+00  0.00000000E+00  0.00000000E+00
  0.00000000E+00  0.00000000E+00  0.00000000E+00
  0.00000000E+00  0.00000000E+00  0.00000000E+00
  0.00000000E+00  0.00000000E+00  0.00000000E+00
  0.00000000E+00  0.00000000E+00  0.00000000E+00
  0.00000000E+00  0.00000000E+00  0.00000000E+00
  0.00000000E+00  0.00000000E+00  0.00000000E+00
  0.00000000E+00  0.00000000E+00  0.00000000E+00
  0.00000000E+00  0.00000000E+00  0.00000000E+00
  0.00000000E+00  0.00000000E+00  0.00000000E+00
  0.00000000E+00  0.00000000E+00  0.00000000E+00
  0.00000000E+00  0.00000000E+00  0.00000000E+00
  0.00000000E+00  0.00000000E+00  0.00000000E+00
  0.00000000E+00  0.00000000E+00  0.00000000E+00
  0.00000000E+00  0.00000000E+00  0.00000000E+00
  0.00000000E+00  0.00000000E+00  0.00000000E+00
  0.00000000E+00  0.00000000E+00  0.00000000E+00
  0.00000000E+00  0.00000000E+00  0.00000000E+00
  0.00000000E+00  0.00000000E+00  0.00000000E+00
  0.00000000E+00  0.00000000E+00  0.00000000E+00
  0.00000000E+00  0.00000000E+00  0.00000000E+00
  0.00000000E+00  0.00000000E+00  0.00000000E+00
  0.00000000E+00  0.00000000E+00  0.00000000E+00
  0.00000000E+00  0.00000000E+00  0.00000000E+00
  0.00000000E+00  0.00000000E+00  0.00000000E+00
  0.00000000E+00  0.00000000E+00  0.00000000E+00
  0.00000000E+00  0.00000000E+00  0.00000000E+00
  0.00000000E+00  0.00000000E+00  0.00000000E+00
  0.00000000E+00  0.00000000E+00  0.00000000E+00
  0.00000000E+00  0.00000000E+00  0.00000000E+00
  0.00000000E+00  0.00000000E+00  0.00000000E+00
  0.00000000E+00  0.00000000E+00  0.00000000E+00
  0.00000000E+00  0.00000000E+00  0.00000000E+00
  0.00000000E+00  0.00000000E+00  0.00000000E+00
  0.00000000E+00  0.00000000E+00  0.00000000E+00
  0.00000000E+00  0.00000000E+00  0.00000000E+00
