Sc   Al   N                             
   1.00000000000000     
    -9.8822217271009301   -0.0132146997188391    0.0046580013096168
    -4.9120701341146393    8.5196494936615483    0.0048870583138103
    -0.0077481021598100    0.0530173812253981  -10.1870949345724373
   Sc   Al   N 
    10    26    36
Direct
  0.0992628396864106  0.1008222883883576  0.3051498366018421
  0.4482320925478618  0.0979066104806847  0.3169217777931408
  0.0984960452017845  0.1023205628743469  0.8293920452659123
  0.2181267972113687  0.2139822011697419  0.5671164744857435
  0.4538279459169914  0.0957289848047367  0.8169400041874866
  0.8833460676309102  0.5450599445049207  0.5674460630373872
  0.1045700680303057  0.7514404532176613  0.3511503386395063
  0.4528274480160164  0.7527714499821840  0.3144160741434945
  0.2206387766716134  0.8687663570188775  0.5795062688227191
  0.4593129723258613  0.7511375179711735  0.8212208307560473
  0.2220801774181282  0.2116045505799491  0.0549647365498203
  0.7783600262343171  0.0951395964143344  0.8111720611511046
  0.8753370161421472  0.2087641886729941  0.5618454778244839
  0.5613937136667033  0.2064991025640097  0.0590623129261161
  0.7705980434607866  0.1013244517449081  0.3129458399383864
  0.8775630152696436  0.2105420235565489  0.0595198909321226
  0.5605233072867719  0.2096405139978046  0.5626276326393054
  0.1035167341074796  0.4274956805106953  0.2985325310658169
  0.2292185694701629  0.5322721784707056  0.1186611400738116
  0.7745861638517582  0.4234161955722442  0.8117604511429164
  0.4541632972625536  0.4204685787444475  0.3159807718330043
  0.5624210693830349  0.5311947321022288  0.0599022007077323
  0.1044819177326417  0.4362201745784375  0.8207472924030483
  0.2214010518213740  0.5461094568929070  0.6368409865618716
  0.7765410290555081  0.4261853318697746  0.3099174130837739
  0.8859931616752803  0.5398411556170331  0.0588920909465713
  0.4521543031981778  0.4248760534477327  0.8260256435222360
  0.5595629571954817  0.5288392774233017  0.5625189285576795
  0.2270709353465108  0.8695836562703718  0.0562542571048539
  0.7855799987785375  0.7632214336104823  0.8145540813340517
  0.8753295109251269  0.8810690227450237  0.5602320657554785
  0.5635929958581087  0.8706979096282552  0.0597911668065336
  0.1088538749865435  0.7526317299373844  0.8844994106116673
  0.7791533772233237  0.7607510600826259  0.3065657947444151
  0.8807285490117849  0.8779434205546366  0.0658919435988992
  0.5676666500877232  0.8694538521384416  0.5598997359542395
  0.2088507942648334  0.2234052584899331  0.3602790220469601
  0.1091311921107732  0.0948943734910586  0.0894853345579278
  0.8643280878837700  0.2161912167854751  0.8760281343950140
  0.7759752798442250  0.0948251935086830  0.6222357175295983
  0.5648019838626581  0.2150125691400788  0.3752106762586678
  0.4460414215255497  0.0957639490153639  0.1012464532697521
  0.2170562144168997  0.2252560117378835  0.8691627991648758
  0.0851836793172041  0.1088282517764512  0.6188486290413167
  0.8681975723328463  0.2154963939782277  0.3722077255708811
  0.7769823209431976  0.0951269526148693  0.1227937199385778
  0.5697373311644398  0.2116031252320028  0.8734490614362045
  0.4618456831648814  0.0877077272524929  0.6034603534284244
  0.2361174232227512  0.5135666846182545  0.3101952766132783
  0.1048121836852545  0.4282445029172735  0.1070773884523959
  0.8847241139708188  0.5405129639917376  0.8666292350040621
  0.7680221658470714  0.4180947583372827  0.6250209569686902
  0.5670061868940621  0.5181878229039540  0.3729417326248097
  0.4536248871070327  0.4233023092900083  0.1100103024450547
  0.2247155393015916  0.5420522823662566  0.8359718419849287
  0.1108417795920360  0.4399307137048751  0.6339517924599534
  0.8891092832026644  0.5397091008993797  0.3546611499132197
  0.7786563983241734  0.4276207212645957  0.1198773563175237
  0.5690824764200855  0.5189325219666756  0.8756138153068704
  0.4450863401972072  0.4280679384808295  0.6221273198201018
  0.2231357536761038  0.8738742586461683  0.3691828686315048
  0.1112256578550088  0.7581324022829037  0.0861931963857359
  0.8867036527699383  0.8762721213029963  0.8750525928503734
  0.7715071409576666  0.7803215271077732  0.6289909610993263
  0.5768534726880787  0.8602755680989489  0.3729528005071714
  0.4483818050872372  0.7591657910042784  0.0981903843085519
  0.2192346350156242  0.8589792072711688  0.8634244061947740
  0.0968681274559486  0.7483780761920826  0.5705468083084071
  0.8592923716451608  0.8895154938583687  0.3685434857834053
  0.7800676318899633  0.7602304068808223  0.1183076617615413
  0.5813493183914815  0.8630615551945127  0.8774791476409263
  0.4702640925720303  0.7478731029574561  0.6087239745181492
 
  0.00000000E+00  0.00000000E+00  0.00000000E+00
  0.00000000E+00  0.00000000E+00  0.00000000E+00
  0.00000000E+00  0.00000000E+00  0.00000000E+00
  0.00000000E+00  0.00000000E+00  0.00000000E+00
  0.00000000E+00  0.00000000E+00  0.00000000E+00
  0.00000000E+00  0.00000000E+00  0.00000000E+00
  0.00000000E+00  0.00000000E+00  0.00000000E+00
  0.00000000E+00  0.00000000E+00  0.00000000E+00
  0.00000000E+00  0.00000000E+00  0.00000000E+00
  0.00000000E+00  0.00000000E+00  0.00000000E+00
  0.00000000E+00  0.00000000E+00  0.00000000E+00
  0.00000000E+00  0.00000000E+00  0.00000000E+00
  0.00000000E+00  0.00000000E+00  0.00000000E+00
  0.00000000E+00  0.00000000E+00  0.00000000E+00
  0.00000000E+00  0.00000000E+00  0.00000000E+00
  0.00000000E+00  0.00000000E+00  0.00000000E+00
  0.00000000E+00  0.00000000E+00  0.00000000E+00
  0.00000000E+00  0.00000000E+00  0.00000000E+00
  0.00000000E+00  0.00000000E+00  0.00000000E+00
  0.00000000E+00  0.00000000E+00  0.00000000E+00
  0.00000000E+00  0.00000000E+00  0.00000000E+00
  0.00000000E+00  0.00000000E+00  0.00000000E+00
  0.00000000E+00  0.00000000E+00  0.00000000E+00
  0.00000000E+00  0.00000000E+00  0.00000000E+00
  0.00000000E+00  0.00000000E+00  0.00000000E+00
  0.00000000E+00  0.00000000E+00  0.00000000E+00
  0.00000000E+00  0.00000000E+00  0.00000000E+00
  0.00000000E+00  0.00000000E+00  0.00000000E+00
  0.00000000E+00  0.00000000E+00  0.00000000E+00
  0.00000000E+00  0.00000000E+00  0.00000000E+00
  0.00000000E+00  0.00000000E+00  0.00000000E+00
  0.00000000E+00  0.00000000E+00  0.00000000E+00
  0.00000000E+00  0.00000000E+00  0.00000000E+00
  0.00000000E+00  0.00000000E+00  0.00000000E+00
  0.00000000E+00  0.00000000E+00  0.00000000E+00
  0.00000000E+00  0.00000000E+00  0.00000000E+00
  0.00000000E+00  0.00000000E+00  0.00000000E+00
  0.00000000E+00  0.00000000E+00  0.00000000E+00
  0.00000000E+00  0.00000000E+00  0.00000000E+00
  0.00000000E+00  0.00000000E+00  0.00000000E+00
  0.00000000E+00  0.00000000E+00  0.00000000E+00
  0.00000000E+00  0.00000000E+00  0.00000000E+00
  0.00000000E+00  0.00000000E+00  0.00000000E+00
  0.00000000E+00  0.00000000E+00  0.00000000E+00
  0.00000000E+00  0.00000000E+00  0.00000000E+00
  0.00000000E+00  0.00000000E+00  0.00000000E+00
  0.00000000E+00  0.00000000E+00  0.00000000E+00
  0.00000000E+00  0.00000000E+00  0.00000000E+00
  0.00000000E+00  0.00000000E+00  0.00000000E+00
  0.00000000E+00  0.00000000E+00  0.00000000E+00
  0.00000000E+00  0.00000000E+00  0.00000000E+00
  0.00000000E+00  0.00000000E+00  0.00000000E+00
  0.00000000E+00  0.00000000E+00  0.00000000E+00
  0.00000000E+00  0.00000000E+00  0.00000000E+00
  0.00000000E+00  0.00000000E+00  0.00000000E+00
  0.00000000E+00  0.00000000E+00  0.00000000E+00
  0.00000000E+00  0.00000000E+00  0.00000000E+00
  0.00000000E+00  0.00000000E+00  0.00000000E+00
  0.00000000E+00  0.00000000E+00  0.00000000E+00
  0.00000000E+00  0.00000000E+00  0.00000000E+00
  0.00000000E+00  0.00000000E+00  0.00000000E+00
  0.00000000E+00  0.00000000E+00  0.00000000E+00
  0.00000000E+00  0.00000000E+00  0.00000000E+00
  0.00000000E+00  0.00000000E+00  0.00000000E+00
  0.00000000E+00  0.00000000E+00  0.00000000E+00
  0.00000000E+00  0.00000000E+00  0.00000000E+00
  0.00000000E+00  0.00000000E+00  0.00000000E+00
  0.00000000E+00  0.00000000E+00  0.00000000E+00
  0.00000000E+00  0.00000000E+00  0.00000000E+00
  0.00000000E+00  0.00000000E+00  0.00000000E+00
  0.00000000E+00  0.00000000E+00  0.00000000E+00
  0.00000000E+00  0.00000000E+00  0.00000000E+00
