Sc   Al   N                             
   1.00000000000000     
    -9.8829165316869449   -0.0135747018103469    0.0046185110269500
    -4.9126620456208538    8.5233824149208228    0.0046891950289605
    -0.0057185828138225    0.0541944757571018  -10.1888725644106071
   Sc   Al   N 
    10    26    36
Direct
  0.0993187827961748  0.1008318291995280  0.3051401665594895
  0.4482124655731567  0.0975468644851318  0.3165826387271551
  0.0985648184093080  0.1023345450754647  0.8293368935079144
  0.2181605391046517  0.2141022135971227  0.5670862668686709
  0.4537493049799437  0.0955032847992641  0.8164799276255152
  0.8836667259799924  0.5451098036041557  0.5673545477979189
  0.1042694385252432  0.7517445891502774  0.3511096040079167
  0.4526982261644577  0.7531277666178156  0.3141616204787994
  0.2205571813886991  0.8685797847006214  0.5794510236967056
  0.4592343749036516  0.7514552301197170  0.8207114591637961
  0.2220142386795700  0.2117669049055522  0.0549488177395716
  0.7785564215318033  0.0950427281240493  0.8107512404665940
  0.8754291819389906  0.2087379346364244  0.5617349594477119
  0.5616330002139449  0.2051969797210162  0.0591955537892446
  0.7709658818213327  0.1011578920010550  0.3125417997886331
  0.8775420295442160  0.2105577994727028  0.0593295521026960
  0.5608539133997468  0.2088714735843169  0.5632383857171490
  0.1035577285718645  0.4273331138023195  0.2982535670950099
  0.2301970324284355  0.5318415113482615  0.1188707186535609
  0.7748455106734511  0.4232920330122596  0.8112945571648211
  0.4512113074136153  0.4220691858952819  0.3323548224339277
  0.5625933160477956  0.5320782786935183  0.0600162375112916
  0.1043160030875967  0.4362611851848044  0.8202830776318280
  0.2232855285781099  0.5450716122203403  0.6368599175012690
  0.7769452655225138  0.4260142550543549  0.3095501060819004
  0.8861607477045226  0.5398517230581987  0.0587322858813195
  0.4492567039424173  0.4262171355219451  0.8436571759269711
  0.5597923804343523  0.5292712465838818  0.5631378386691637
  0.2269700376340467  0.8695490970612383  0.0562387530718880
  0.7855728191048144  0.7632201133374892  0.8144679834940973
  0.8756137701564342  0.8808313712909239  0.5602049998992129
  0.5636082674721408  0.8706218688776843  0.0596280724816012
  0.1085373093355599  0.7529385089108303  0.8843622399291462
  0.7792013908812550  0.7607479640615935  0.3064381689770315
  0.8808479443206920  0.8778057165906930  0.0657731735904079
  0.5677515936833615  0.8693868071915389  0.5597790698928975
  0.2089314916229554  0.2235201952845927  0.3602100829799042
  0.1091081097344926  0.0949178665247956  0.0895127201269972
  0.8643653621421379  0.2161952398534766  0.8758763100992866
  0.7763928289911775  0.0945371454186557  0.6220223844151462
  0.5658183121537661  0.2131079411442158  0.3748538654697597
  0.4459799273562339  0.0953580654485506  0.1013021964005318
  0.2170361419408735  0.2254993807779968  0.8692254538146997
  0.0853322865225437  0.1087099811726233  0.6187942990345547
  0.8682349150761723  0.2155217261231428  0.3720519360237020
  0.7770451154249827  0.0950925628837638  0.1226531476775179
  0.5706620346597475  0.2097670187111547  0.8728377023384937
  0.4618335805742078  0.0873187565250575  0.6033650055263564
  0.2369935433603629  0.5133145032266953  0.3094411928226606
  0.1048058350480048  0.4283806560836680  0.1072509407228281
  0.8849163501462627  0.5405346018969794  0.8665527034718039
  0.7684184699775187  0.4179992292201717  0.6247570898856267
  0.5679539477662416  0.5189035684734122  0.3724811248446329
  0.4502293128895687  0.4247534056191924  0.0962934620718912
  0.2242723494204668  0.5426011327364435  0.8349655380262817
  0.1109932129254148  0.4399465359739523  0.6338364521757995
  0.8894009627003143  0.5397441256011035  0.3545200103331041
  0.7787111446652020  0.4275449105227125  0.1197705566842089
  0.5701603053204281  0.5199567059001708  0.8750313276134705
  0.4431754890127380  0.4288527395526671  0.6115636314444473
  0.2230246339294197  0.8738155640356950  0.3690798400376352
  0.1111134356652173  0.7580455758755136  0.0862228784994059
  0.8867118045368088  0.8762550934897178  0.8749512871133192
  0.7715317562917932  0.7803228915329754  0.6289121360073295
  0.5769768357883933  0.8601916104594949  0.3728425932932566
  0.4482786299988035  0.7594498364986393  0.0983064488222922
  0.2192009800570460  0.8589709836295754  0.8635061001499267
  0.0969890138160210  0.7480106051718494  0.5703566904216828
  0.8594179225496532  0.8894723181012552  0.3683715558044511
  0.7800458556638219  0.7602200033947142  0.1182196565408589
  0.5813763392244837  0.8630432063225584  0.8774039519166834
  0.4701970793878729  0.7481885180225376  0.6085401580585028
 
  0.00000000E+00  0.00000000E+00  0.00000000E+00
  0.00000000E+00  0.00000000E+00  0.00000000E+00
  0.00000000E+00  0.00000000E+00  0.00000000E+00
  0.00000000E+00  0.00000000E+00  0.00000000E+00
  0.00000000E+00  0.00000000E+00  0.00000000E+00
  0.00000000E+00  0.00000000E+00  0.00000000E+00
  0.00000000E+00  0.00000000E+00  0.00000000E+00
  0.00000000E+00  0.00000000E+00  0.00000000E+00
  0.00000000E+00  0.00000000E+00  0.00000000E+00
  0.00000000E+00  0.00000000E+00  0.00000000E+00
  0.00000000E+00  0.00000000E+00  0.00000000E+00
  0.00000000E+00  0.00000000E+00  0.00000000E+00
  0.00000000E+00  0.00000000E+00  0.00000000E+00
  0.00000000E+00  0.00000000E+00  0.00000000E+00
  0.00000000E+00  0.00000000E+00  0.00000000E+00
  0.00000000E+00  0.00000000E+00  0.00000000E+00
  0.00000000E+00  0.00000000E+00  0.00000000E+00
  0.00000000E+00  0.00000000E+00  0.00000000E+00
  0.00000000E+00  0.00000000E+00  0.00000000E+00
  0.00000000E+00  0.00000000E+00  0.00000000E+00
  0.00000000E+00  0.00000000E+00  0.00000000E+00
  0.00000000E+00  0.00000000E+00  0.00000000E+00
  0.00000000E+00  0.00000000E+00  0.00000000E+00
  0.00000000E+00  0.00000000E+00  0.00000000E+00
  0.00000000E+00  0.00000000E+00  0.00000000E+00
  0.00000000E+00  0.00000000E+00  0.00000000E+00
  0.00000000E+00  0.00000000E+00  0.00000000E+00
  0.00000000E+00  0.00000000E+00  0.00000000E+00
  0.00000000E+00  0.00000000E+00  0.00000000E+00
  0.00000000E+00  0.00000000E+00  0.00000000E+00
  0.00000000E+00  0.00000000E+00  0.00000000E+00
  0.00000000E+00  0.00000000E+00  0.00000000E+00
  0.00000000E+00  0.00000000E+00  0.00000000E+00
  0.00000000E+00  0.00000000E+00  0.00000000E+00
  0.00000000E+00  0.00000000E+00  0.00000000E+00
  0.00000000E+00  0.00000000E+00  0.00000000E+00
  0.00000000E+00  0.00000000E+00  0.00000000E+00
  0.00000000E+00  0.00000000E+00  0.00000000E+00
  0.00000000E+00  0.00000000E+00  0.00000000E+00
  0.00000000E+00  0.00000000E+00  0.00000000E+00
  0.00000000E+00  0.00000000E+00  0.00000000E+00
  0.00000000E+00  0.00000000E+00  0.00000000E+00
  0.00000000E+00  0.00000000E+00  0.00000000E+00
  0.00000000E+00  0.00000000E+00  0.00000000E+00
  0.00000000E+00  0.00000000E+00  0.00000000E+00
  0.00000000E+00  0.00000000E+00  0.00000000E+00
  0.00000000E+00  0.00000000E+00  0.00000000E+00
  0.00000000E+00  0.00000000E+00  0.00000000E+00
  0.00000000E+00  0.00000000E+00  0.00000000E+00
  0.00000000E+00  0.00000000E+00  0.00000000E+00
  0.00000000E+00  0.00000000E+00  0.00000000E+00
  0.00000000E+00  0.00000000E+00  0.00000000E+00
  0.00000000E+00  0.00000000E+00  0.00000000E+00
  0.00000000E+00  0.00000000E+00  0.00000000E+00
  0.00000000E+00  0.00000000E+00  0.00000000E+00
  0.00000000E+00  0.00000000E+00  0.00000000E+00
  0.00000000E+00  0.00000000E+00  0.00000000E+00
  0.00000000E+00  0.00000000E+00  0.00000000E+00
  0.00000000E+00  0.00000000E+00  0.00000000E+00
  0.00000000E+00  0.00000000E+00  0.00000000E+00
  0.00000000E+00  0.00000000E+00  0.00000000E+00
  0.00000000E+00  0.00000000E+00  0.00000000E+00
  0.00000000E+00  0.00000000E+00  0.00000000E+00
  0.00000000E+00  0.00000000E+00  0.00000000E+00
  0.00000000E+00  0.00000000E+00  0.00000000E+00
  0.00000000E+00  0.00000000E+00  0.00000000E+00
  0.00000000E+00  0.00000000E+00  0.00000000E+00
  0.00000000E+00  0.00000000E+00  0.00000000E+00
  0.00000000E+00  0.00000000E+00  0.00000000E+00
  0.00000000E+00  0.00000000E+00  0.00000000E+00
  0.00000000E+00  0.00000000E+00  0.00000000E+00
  0.00000000E+00  0.00000000E+00  0.00000000E+00
