Sc   Al   N                             
   1.00000000000000     
    -9.9395059509604629   -0.0190420546878838   -0.0070006644596893
    -4.9590730787324686    8.5959707434243366   -0.0027676218946823
    -0.0173005663656667    0.0509015549437814  -10.0226516660969658
   Sc   Al   N 
    10    26    36
Direct
  0.0944643884281078  0.1070456180156185  0.3707387923282042
  0.4518672752901267  0.0964908260622650  0.3607939109464837
  0.1027196601834390  0.0997070134142248  0.8784589235129232
  0.2237798468426817  0.2130671632838599  0.6226709041269558
  0.4476881507933825  0.1009120292454639  0.8777846081080369
  0.8846901942507444  0.5411230611306976  0.6106254695927191
  0.1042268953958825  0.7517917868592363  0.3580279131651949
  0.4556493326265780  0.7473262462853398  0.3595440715261020
  0.2159109418565066  0.8678194858322783  0.6197857279589414
  0.4536315346911195  0.7521008100392663  0.8587310008768441
  0.2181214272943066  0.2123496925861517  0.1350533714182305
  0.7799826299657013  0.0900444013641533  0.8238861598356166
  0.8755837819416357  0.2131618335068453  0.6355859832898147
  0.5530249026298648  0.2139910112957253  0.1289791972152941
  0.7735277541625649  0.0961954016463906  0.3126225227097734
  0.8826603203305368  0.2117155288934853  0.1261116853818294
  0.5577252059153750  0.2099007733385321  0.6324380097654654
  0.1147563866658601  0.4320062418414850  0.3767065598373307
  0.2294313366293892  0.5296831720762256  0.1276781286079540
  0.7777637605168621  0.4295288449020518  0.8839307717342635
  0.4480394291905156  0.4230711736478199  0.3822808010014214
  0.5590187395809849  0.5298683778888815  0.1292826837099028
  0.1037559165880637  0.4378188139469472  0.8851961195010176
  0.2208395816902566  0.5424785282373392  0.6338410051229673
  0.7707403159898902  0.4216735430062641  0.3788766335264953
  0.8918789000377885  0.5335307803854903  0.1342018450762055
  0.4472148085155752  0.4267690740169243  0.8799100737353598
  0.5597231231242077  0.5267950675219097  0.6331743933981144
  0.2236535161482394  0.8708979649469910  0.1319553873768839
  0.7860418066451516  0.7634136616697944  0.8217989564478572
  0.8756457105847204  0.8835870059078346  0.5661673206473878
  0.5675067003874972  0.8635104764884716  0.0783017352583073
  0.1134700905732302  0.7533269221064813  0.8874612030414895
  0.7804767859829767  0.7628529364487875  0.3187243657258207
  0.8824658367400033  0.8750362711960165  0.0692916729653277
  0.5698923605648716  0.8687116271137185  0.5723461290631278
  0.2115347510850611  0.2251219559626421  0.3256906989270547
  0.1093428529881280  0.0961533332446436  0.0961178042992685
  0.8697667595105969  0.2195840948040839  0.8309803508366471
  0.7795900056692773  0.0910208253593154  0.6249781713191211
  0.5606362210472327  0.2207205092166404  0.3202634133126310
  0.4445487836970159  0.0952579874663471  0.1024859043883453
  0.2116511243072665  0.2283439286260460  0.8326885266311805
  0.0863206321653536  0.1099517178331766  0.5870718953059040
  0.8662790652732468  0.2193768676706540  0.3155753332945821
  0.7776826620324471  0.0909201615691444  0.1120209065084552
  0.5607258227476564  0.2183153901922665  0.8263184362820866
  0.4639872706840293  0.0891520319358889  0.5876669618081038
  0.2402896681854330  0.5136228520510713  0.3150634189547858
  0.1084753095419373  0.4307350812154809  0.0779151172430232
  0.8897182259745406  0.5374871904130245  0.8319483353534523
  0.7641621157715903  0.4169263028768881  0.5677220998230155
  0.5650281171788478  0.5137689314896932  0.3178162185576454
  0.4448311356939172  0.4279258921360523  0.0696940336520058
  0.2223640886887281  0.5391035535917510  0.8296463330367629
  0.1196962080530497  0.4426017035424010  0.5640930345163753
  0.8910070152127929  0.5340277270884144  0.3354763519217343
  0.7778695310639492  0.4308997295265655  0.0757741309866304
  0.5683662598908867  0.5157179234729767  0.8240975612946713
  0.4407126659732583  0.4306167248958275  0.5761808282659899
  0.2197953684942249  0.8725555207152240  0.3297856699248385
  0.1140559391885461  0.7560977658965697  0.0901721061309360
  0.8902669105460745  0.8720026741539684  0.8785845531645080
  0.7721187795173989  0.7833501428216820  0.6325523419446455
  0.5816074938923350  0.8558539271800143  0.3798081902662531
  0.4477106391648462  0.7569193871099813  0.1009212193951612
  0.2123697325834257  0.8618900496528781  0.8337709382626883
  0.0978845486649931  0.7509526515041287  0.5751009685774946
  0.8604746046787497  0.8910006940298700  0.3732637849465164
  0.7829397303416954  0.7601156760747401  0.1283322045989053
  0.5842751544614231  0.8602608737805824  0.8881824377351393
  0.4666682396077775  0.7491854926723605  0.6030790476476966
 
  0.00000000E+00  0.00000000E+00  0.00000000E+00
  0.00000000E+00  0.00000000E+00  0.00000000E+00
  0.00000000E+00  0.00000000E+00  0.00000000E+00
  0.00000000E+00  0.00000000E+00  0.00000000E+00
  0.00000000E+00  0.00000000E+00  0.00000000E+00
  0.00000000E+00  0.00000000E+00  0.00000000E+00
  0.00000000E+00  0.00000000E+00  0.00000000E+00
  0.00000000E+00  0.00000000E+00  0.00000000E+00
  0.00000000E+00  0.00000000E+00  0.00000000E+00
  0.00000000E+00  0.00000000E+00  0.00000000E+00
  0.00000000E+00  0.00000000E+00  0.00000000E+00
  0.00000000E+00  0.00000000E+00  0.00000000E+00
  0.00000000E+00  0.00000000E+00  0.00000000E+00
  0.00000000E+00  0.00000000E+00  0.00000000E+00
  0.00000000E+00  0.00000000E+00  0.00000000E+00
  0.00000000E+00  0.00000000E+00  0.00000000E+00
  0.00000000E+00  0.00000000E+00  0.00000000E+00
  0.00000000E+00  0.00000000E+00  0.00000000E+00
  0.00000000E+00  0.00000000E+00  0.00000000E+00
  0.00000000E+00  0.00000000E+00  0.00000000E+00
  0.00000000E+00  0.00000000E+00  0.00000000E+00
  0.00000000E+00  0.00000000E+00  0.00000000E+00
  0.00000000E+00  0.00000000E+00  0.00000000E+00
  0.00000000E+00  0.00000000E+00  0.00000000E+00
  0.00000000E+00  0.00000000E+00  0.00000000E+00
  0.00000000E+00  0.00000000E+00  0.00000000E+00
  0.00000000E+00  0.00000000E+00  0.00000000E+00
  0.00000000E+00  0.00000000E+00  0.00000000E+00
  0.00000000E+00  0.00000000E+00  0.00000000E+00
  0.00000000E+00  0.00000000E+00  0.00000000E+00
  0.00000000E+00  0.00000000E+00  0.00000000E+00
  0.00000000E+00  0.00000000E+00  0.00000000E+00
  0.00000000E+00  0.00000000E+00  0.00000000E+00
  0.00000000E+00  0.00000000E+00  0.00000000E+00
  0.00000000E+00  0.00000000E+00  0.00000000E+00
  0.00000000E+00  0.00000000E+00  0.00000000E+00
  0.00000000E+00  0.00000000E+00  0.00000000E+00
  0.00000000E+00  0.00000000E+00  0.00000000E+00
  0.00000000E+00  0.00000000E+00  0.00000000E+00
  0.00000000E+00  0.00000000E+00  0.00000000E+00
  0.00000000E+00  0.00000000E+00  0.00000000E+00
  0.00000000E+00  0.00000000E+00  0.00000000E+00
  0.00000000E+00  0.00000000E+00  0.00000000E+00
  0.00000000E+00  0.00000000E+00  0.00000000E+00
  0.00000000E+00  0.00000000E+00  0.00000000E+00
  0.00000000E+00  0.00000000E+00  0.00000000E+00
  0.00000000E+00  0.00000000E+00  0.00000000E+00
  0.00000000E+00  0.00000000E+00  0.00000000E+00
  0.00000000E+00  0.00000000E+00  0.00000000E+00
  0.00000000E+00  0.00000000E+00  0.00000000E+00
  0.00000000E+00  0.00000000E+00  0.00000000E+00
  0.00000000E+00  0.00000000E+00  0.00000000E+00
  0.00000000E+00  0.00000000E+00  0.00000000E+00
  0.00000000E+00  0.00000000E+00  0.00000000E+00
  0.00000000E+00  0.00000000E+00  0.00000000E+00
  0.00000000E+00  0.00000000E+00  0.00000000E+00
  0.00000000E+00  0.00000000E+00  0.00000000E+00
  0.00000000E+00  0.00000000E+00  0.00000000E+00
  0.00000000E+00  0.00000000E+00  0.00000000E+00
  0.00000000E+00  0.00000000E+00  0.00000000E+00
  0.00000000E+00  0.00000000E+00  0.00000000E+00
  0.00000000E+00  0.00000000E+00  0.00000000E+00
  0.00000000E+00  0.00000000E+00  0.00000000E+00
  0.00000000E+00  0.00000000E+00  0.00000000E+00
  0.00000000E+00  0.00000000E+00  0.00000000E+00
  0.00000000E+00  0.00000000E+00  0.00000000E+00
  0.00000000E+00  0.00000000E+00  0.00000000E+00
  0.00000000E+00  0.00000000E+00  0.00000000E+00
  0.00000000E+00  0.00000000E+00  0.00000000E+00
  0.00000000E+00  0.00000000E+00  0.00000000E+00
  0.00000000E+00  0.00000000E+00  0.00000000E+00
  0.00000000E+00  0.00000000E+00  0.00000000E+00
