Sc   Al   N                             
   1.00000000000000     
    -9.8738030566450341   -0.0154698276425225    0.0122012432501028
    -4.9086599766786927    8.5093099830681513    0.0124105761683940
    -0.0038718337604345    0.1257859240791307  -10.2791345021576905
   Sc   Al   N 
    10    26    36
Direct
  0.0991601142339462  0.1005302329824147  0.3097732648253952
  0.4488848717301863  0.0997299589790188  0.3224004715346425
  0.0990058325576939  0.1025713082039630  0.8354421383680233
  0.2178443450749299  0.2128953212992499  0.5712669178600009
  0.4531427479438221  0.0968116197690634  0.8219218912115309
  0.8826019976711947  0.5467630450452532  0.5702893783490950
  0.1049028790177999  0.7517652278473506  0.3571542487204908
  0.4513031939039465  0.7579181847547787  0.3261171718938556
  0.2214059240879749  0.8686424555795185  0.5873408677261907
  0.4574280583328161  0.7535517661995641  0.8415159894719793
  0.2220051569147827  0.2120727851045743  0.0615166846929682
  0.7773023755171167  0.0962526410627973  0.8167091162046844
  0.8768003650703591  0.2087199087550218  0.5667584724058585
  0.5636266406054560  0.2005234151882576  0.0646846448938305
  0.7707170075312533  0.1021075447036566  0.3180840359729160
  0.8790020642484038  0.2097802406001463  0.0637290953292435
  0.5650475229936660  0.2024715405800421  0.5665252727378913
  0.1050535139344220  0.4267283979664285  0.3042332272649801
  0.2312971748848582  0.5316648483842172  0.1298532281614087
  0.7803948374970844  0.4206913545520621  0.8174451120449433
  0.4452287229271974  0.4298509848249097  0.3849190599231846
  0.5567716452143827  0.5287613753654483  0.1274562689221597
  0.1051717451067447  0.4356640470510129  0.8230031953110810
  0.2242620858946793  0.5436443583975858  0.6397411396429931
  0.7820120713212262  0.4232970672534364  0.3119162229711563
  0.8876968620197374  0.5392999872931625  0.0636512858852569
  0.4441266220411180  0.4301459352771815  0.8868056197692056
  0.5551241611778508  0.5291886484756034  0.6373907225204860
  0.2238731313029660  0.8689287711649101  0.0634006669793621
  0.7852374771152881  0.7636179838391115  0.8204513439157424
  0.8760391690006557  0.8810729513588242  0.5667531523464575
  0.5647162105546641  0.8709921750312191  0.0672603518010106
  0.1080853743491019  0.7522039938857716  0.8818950255045195
  0.7797268456806137  0.7616537728602708  0.3126520139795232
  0.8835926707695521  0.8759498429697601  0.0710769796459161
  0.5674023263371240  0.8701164254589884  0.5689597799894486
  0.2091284145396344  0.2221900115383946  0.3663661779347294
  0.1096100940824698  0.0940973913542464  0.0962742596452131
  0.8647662232907507  0.2154801626506995  0.8823870676849239
  0.7769103757157012  0.0952657146855955  0.6291139563849555
  0.5678319158255860  0.2116129717479325  0.3809817555567747
  0.4462451937420226  0.0952523091173134  0.1094659156303308
  0.2168947287865564  0.2261852798414878  0.8774806119022713
  0.0859487372292023  0.1081422595710038  0.6273025449347998
  0.8689192930656091  0.2156963562415370  0.3790321159675827
  0.7778563398266840  0.0948298435205217  0.1289859167924661
  0.5708872416911888  0.2083299914528567  0.8790013189760302
  0.4613074449559633  0.0887505908841248  0.6111023484915634
  0.2414008028842147  0.5109183637172521  0.3157748605493182
  0.1061238632064772  0.4283645878167377  0.1149025917936584
  0.8859264163027945  0.5405347888256742  0.8728291690996457
  0.7747643411812390  0.4159328132500306  0.6282748899629880
  0.5622629259385619  0.5165408358948298  0.3163244577377071
  0.4432884793447158  0.4292578122243285  0.0734695746657934
  0.2269529989827745  0.5411970191070807  0.8328486969284441
  0.1112254323788449  0.4384330095163165  0.6379403123986762
  0.8899931764980309  0.5393873402810812  0.3594494263625378
  0.7847394805174659  0.4240258714581842  0.1205491359194326
  0.5621236051525642  0.5155536950786086  0.8272638557523635
  0.4373636880111960  0.4363561675156333  0.5763028455077546
  0.2218715065635806  0.8749961425422725  0.3789017458078590
  0.1108159529237867  0.7573040194262077  0.0964865818960803
  0.8873006235451228  0.8757485532765443  0.8811730798486792
  0.7717463632977939  0.7809388805571942  0.6366245153332599
  0.5788634488093649  0.8613433193749245  0.3827761364578706
  0.4471812975217446  0.7604125778356945  0.1033604448794634
  0.2166029919920192  0.8600188699239482  0.8730636449252458
  0.0963562419949682  0.7493043621827482  0.5793618649166490
  0.8606900401014386  0.8894176932306692  0.3760110499458520
  0.7809503346937134  0.7600972703416033  0.1256372858726564
  0.5830485119672986  0.8647360653786080  0.8865919083880840
  0.4688339783838273  0.7523797843838622  0.6214503142144920
 
  0.00000000E+00  0.00000000E+00  0.00000000E+00
  0.00000000E+00  0.00000000E+00  0.00000000E+00
  0.00000000E+00  0.00000000E+00  0.00000000E+00
  0.00000000E+00  0.00000000E+00  0.00000000E+00
  0.00000000E+00  0.00000000E+00  0.00000000E+00
  0.00000000E+00  0.00000000E+00  0.00000000E+00
  0.00000000E+00  0.00000000E+00  0.00000000E+00
  0.00000000E+00  0.00000000E+00  0.00000000E+00
  0.00000000E+00  0.00000000E+00  0.00000000E+00
  0.00000000E+00  0.00000000E+00  0.00000000E+00
  0.00000000E+00  0.00000000E+00  0.00000000E+00
  0.00000000E+00  0.00000000E+00  0.00000000E+00
  0.00000000E+00  0.00000000E+00  0.00000000E+00
  0.00000000E+00  0.00000000E+00  0.00000000E+00
  0.00000000E+00  0.00000000E+00  0.00000000E+00
  0.00000000E+00  0.00000000E+00  0.00000000E+00
  0.00000000E+00  0.00000000E+00  0.00000000E+00
  0.00000000E+00  0.00000000E+00  0.00000000E+00
  0.00000000E+00  0.00000000E+00  0.00000000E+00
  0.00000000E+00  0.00000000E+00  0.00000000E+00
  0.00000000E+00  0.00000000E+00  0.00000000E+00
  0.00000000E+00  0.00000000E+00  0.00000000E+00
  0.00000000E+00  0.00000000E+00  0.00000000E+00
  0.00000000E+00  0.00000000E+00  0.00000000E+00
  0.00000000E+00  0.00000000E+00  0.00000000E+00
  0.00000000E+00  0.00000000E+00  0.00000000E+00
  0.00000000E+00  0.00000000E+00  0.00000000E+00
  0.00000000E+00  0.00000000E+00  0.00000000E+00
  0.00000000E+00  0.00000000E+00  0.00000000E+00
  0.00000000E+00  0.00000000E+00  0.00000000E+00
  0.00000000E+00  0.00000000E+00  0.00000000E+00
  0.00000000E+00  0.00000000E+00  0.00000000E+00
  0.00000000E+00  0.00000000E+00  0.00000000E+00
  0.00000000E+00  0.00000000E+00  0.00000000E+00
  0.00000000E+00  0.00000000E+00  0.00000000E+00
  0.00000000E+00  0.00000000E+00  0.00000000E+00
  0.00000000E+00  0.00000000E+00  0.00000000E+00
  0.00000000E+00  0.00000000E+00  0.00000000E+00
  0.00000000E+00  0.00000000E+00  0.00000000E+00
  0.00000000E+00  0.00000000E+00  0.00000000E+00
  0.00000000E+00  0.00000000E+00  0.00000000E+00
  0.00000000E+00  0.00000000E+00  0.00000000E+00
  0.00000000E+00  0.00000000E+00  0.00000000E+00
  0.00000000E+00  0.00000000E+00  0.00000000E+00
  0.00000000E+00  0.00000000E+00  0.00000000E+00
  0.00000000E+00  0.00000000E+00  0.00000000E+00
  0.00000000E+00  0.00000000E+00  0.00000000E+00
  0.00000000E+00  0.00000000E+00  0.00000000E+00
  0.00000000E+00  0.00000000E+00  0.00000000E+00
  0.00000000E+00  0.00000000E+00  0.00000000E+00
  0.00000000E+00  0.00000000E+00  0.00000000E+00
  0.00000000E+00  0.00000000E+00  0.00000000E+00
  0.00000000E+00  0.00000000E+00  0.00000000E+00
  0.00000000E+00  0.00000000E+00  0.00000000E+00
  0.00000000E+00  0.00000000E+00  0.00000000E+00
  0.00000000E+00  0.00000000E+00  0.00000000E+00
  0.00000000E+00  0.00000000E+00  0.00000000E+00
  0.00000000E+00  0.00000000E+00  0.00000000E+00
  0.00000000E+00  0.00000000E+00  0.00000000E+00
  0.00000000E+00  0.00000000E+00  0.00000000E+00
  0.00000000E+00  0.00000000E+00  0.00000000E+00
  0.00000000E+00  0.00000000E+00  0.00000000E+00
  0.00000000E+00  0.00000000E+00  0.00000000E+00
  0.00000000E+00  0.00000000E+00  0.00000000E+00
  0.00000000E+00  0.00000000E+00  0.00000000E+00
  0.00000000E+00  0.00000000E+00  0.00000000E+00
  0.00000000E+00  0.00000000E+00  0.00000000E+00
  0.00000000E+00  0.00000000E+00  0.00000000E+00
  0.00000000E+00  0.00000000E+00  0.00000000E+00
  0.00000000E+00  0.00000000E+00  0.00000000E+00
  0.00000000E+00  0.00000000E+00  0.00000000E+00
  0.00000000E+00  0.00000000E+00  0.00000000E+00
