Sc   Al   N                             
   1.00000000000000     
    -9.9583435959258111   -0.0194924664149620   -0.0072272625338152
    -4.9685018187313705    8.6033554548216351   -0.0019157789208761
    -0.0129196160236014    0.0469741990068455   -9.9969198119619431
   Sc   Al   N 
    10    26    36
Direct
  0.0945609676632486  0.1072377538759639  0.3720552109283162
  0.4526377595150208  0.0958160852639907  0.3611091659946624
  0.0997000300275985  0.1060136505174398  0.8703357216360672
  0.2248381655892047  0.2139784256382455  0.6216957848502744
  0.4481037277595732  0.1006932057192884  0.8773395258099583
  0.8846142447688550  0.5409580674998153  0.6096992709844642
  0.1056086169348447  0.7541331981959374  0.3568767632916661
  0.4522439776155593  0.7520956850535114  0.3413751010212849
  0.2184140318574990  0.8670940954975208  0.6053834622955634
  0.4590912814475487  0.7516831427897515  0.8454101303387773
  0.2184719599506835  0.2112181494727920  0.1348718806850897
  0.7788331758305347  0.0904121710517884  0.8242992366766586
  0.8733988726205979  0.2143096648058673  0.6356958475358923
  0.5529862229493503  0.2137080162472742  0.1291864228169146
  0.7734382765702676  0.0963065957762055  0.3132832853579188
  0.8835112157192739  0.2103477327472376  0.1253948980120398
  0.5575610643036839  0.2098125060321294  0.6321599698872475
  0.1149525780078946  0.4323164291767441  0.3762206961603454
  0.2293356968557276  0.5291100298399201  0.1283502433889367
  0.7770001278816565  0.4299159175187768  0.8843861243294455
  0.4478126023875362  0.4239762633610056  0.3824158416698467
  0.5598022848203996  0.5275828476964435  0.1279337623461814
  0.1036639405387874  0.4380582223184533  0.8854151624249980
  0.2203243844364096  0.5423267304067707  0.6337336226682169
  0.7698496733425984  0.4221773250243430  0.3782048285533008
  0.8919184084200751  0.5333759376470297  0.1346756005639165
  0.4470240133365877  0.4266116203048540  0.8800186350576453
  0.5600557025181132  0.5262375125141858  0.6329458852202450
  0.2244424015358035  0.8686676081220241  0.0790243870069034
  0.7860420571694533  0.7630768309490890  0.8213616427350985
  0.8757222025386255  0.8831669878642288  0.5670681073365387
  0.5680484879919376  0.8637050261037373  0.0777922958877753
  0.1104692619752328  0.7510547064385733  0.8831854737609675
  0.7807581192952711  0.7626221131411981  0.3199043149893157
  0.8818928796167498  0.8748332420300002  0.0698926712771879
  0.5695202010508496  0.8675441321804342  0.5721903639358743
  0.2122046027279225  0.2246019014749123  0.3261458424121386
  0.1100903110369416  0.0947760104490030  0.0937584002271095
  0.8668217106366427  0.2206669043240836  0.8317264287629555
  0.7788772126824739  0.0913101326639918  0.6249055936264796
  0.5606253018464855  0.2208383613512481  0.3208093456468220
  0.4446457719211168  0.0950308054579665  0.1027423795469815
  0.2131798189043721  0.2300222859883689  0.8322829414602850
  0.0849593471546228  0.1128775932974690  0.5947926828625896
  0.8665665596111438  0.2189006537319997  0.3154324893565672
  0.7774015692300367  0.0907379283464991  0.1117475051238941
  0.5603053064937100  0.2182298780744745  0.8266111248466146
  0.4647442396096721  0.0885075875879693  0.5878367851427839
  0.2402065766089194  0.5144563344727473  0.3158663153893713
  0.1084275813058326  0.4302965058674033  0.0784919801835926
  0.8896425664056267  0.5371174941606895  0.8321445536862910
  0.7634382560041431  0.4172760094175771  0.5672971609300319
  0.5643575308215745  0.5143614641325129  0.3176482903210314
  0.4443367445882274  0.4276547188955035  0.0699862777291713
  0.2225944212518485  0.5381093726983721  0.8298140499593956
  0.1194074908617822  0.4428863155311547  0.5637447111829061
  0.8911531894216509  0.5336625536382087  0.3358274815271187
  0.7782125064379599  0.4304712388474101  0.0762747686705794
  0.5687373563816465  0.5139873227467220  0.8254173713759627
  0.4403935637053493  0.4309478386431067  0.5766363717216905
  0.2220536199027521  0.8716878563024295  0.3776591364631514
  0.1126562078244859  0.7552115353343467  0.0920519791845251
  0.8895708809532437  0.8719016925204954  0.8783912113890295
  0.7717888362699838  0.7830839965935610  0.6321099641246164
  0.5815026632549234  0.8545136094971966  0.3805432161187454
  0.4468146966786222  0.7578288341330008  0.1049356333096938
  0.2153611344356889  0.8615271045193396  0.8599811806892177
  0.0954602092062800  0.7511517671659504  0.5819257296102833
  0.8611928689970370  0.8907076547080379  0.3734492015083575
  0.7828599963722880  0.7598284554258043  0.1288162897705547
  0.5856015282409572  0.8602144102585001  0.8892937128513054
  0.4694819897033895  0.7492786808413001  0.6158139225024399
 
  0.00000000E+00  0.00000000E+00  0.00000000E+00
  0.00000000E+00  0.00000000E+00  0.00000000E+00
  0.00000000E+00  0.00000000E+00  0.00000000E+00
  0.00000000E+00  0.00000000E+00  0.00000000E+00
  0.00000000E+00  0.00000000E+00  0.00000000E+00
  0.00000000E+00  0.00000000E+00  0.00000000E+00
  0.00000000E+00  0.00000000E+00  0.00000000E+00
  0.00000000E+00  0.00000000E+00  0.00000000E+00
  0.00000000E+00  0.00000000E+00  0.00000000E+00
  0.00000000E+00  0.00000000E+00  0.00000000E+00
  0.00000000E+00  0.00000000E+00  0.00000000E+00
  0.00000000E+00  0.00000000E+00  0.00000000E+00
  0.00000000E+00  0.00000000E+00  0.00000000E+00
  0.00000000E+00  0.00000000E+00  0.00000000E+00
  0.00000000E+00  0.00000000E+00  0.00000000E+00
  0.00000000E+00  0.00000000E+00  0.00000000E+00
  0.00000000E+00  0.00000000E+00  0.00000000E+00
  0.00000000E+00  0.00000000E+00  0.00000000E+00
  0.00000000E+00  0.00000000E+00  0.00000000E+00
  0.00000000E+00  0.00000000E+00  0.00000000E+00
  0.00000000E+00  0.00000000E+00  0.00000000E+00
  0.00000000E+00  0.00000000E+00  0.00000000E+00
  0.00000000E+00  0.00000000E+00  0.00000000E+00
  0.00000000E+00  0.00000000E+00  0.00000000E+00
  0.00000000E+00  0.00000000E+00  0.00000000E+00
  0.00000000E+00  0.00000000E+00  0.00000000E+00
  0.00000000E+00  0.00000000E+00  0.00000000E+00
  0.00000000E+00  0.00000000E+00  0.00000000E+00
  0.00000000E+00  0.00000000E+00  0.00000000E+00
  0.00000000E+00  0.00000000E+00  0.00000000E+00
  0.00000000E+00  0.00000000E+00  0.00000000E+00
  0.00000000E+00  0.00000000E+00  0.00000000E+00
  0.00000000E+00  0.00000000E+00  0.00000000E+00
  0.00000000E+00  0.00000000E+00  0.00000000E+00
  0.00000000E+00  0.00000000E+00  0.00000000E+00
  0.00000000E+00  0.00000000E+00  0.00000000E+00
  0.00000000E+00  0.00000000E+00  0.00000000E+00
  0.00000000E+00  0.00000000E+00  0.00000000E+00
  0.00000000E+00  0.00000000E+00  0.00000000E+00
  0.00000000E+00  0.00000000E+00  0.00000000E+00
  0.00000000E+00  0.00000000E+00  0.00000000E+00
  0.00000000E+00  0.00000000E+00  0.00000000E+00
  0.00000000E+00  0.00000000E+00  0.00000000E+00
  0.00000000E+00  0.00000000E+00  0.00000000E+00
  0.00000000E+00  0.00000000E+00  0.00000000E+00
  0.00000000E+00  0.00000000E+00  0.00000000E+00
  0.00000000E+00  0.00000000E+00  0.00000000E+00
  0.00000000E+00  0.00000000E+00  0.00000000E+00
  0.00000000E+00  0.00000000E+00  0.00000000E+00
  0.00000000E+00  0.00000000E+00  0.00000000E+00
  0.00000000E+00  0.00000000E+00  0.00000000E+00
  0.00000000E+00  0.00000000E+00  0.00000000E+00
  0.00000000E+00  0.00000000E+00  0.00000000E+00
  0.00000000E+00  0.00000000E+00  0.00000000E+00
  0.00000000E+00  0.00000000E+00  0.00000000E+00
  0.00000000E+00  0.00000000E+00  0.00000000E+00
  0.00000000E+00  0.00000000E+00  0.00000000E+00
  0.00000000E+00  0.00000000E+00  0.00000000E+00
  0.00000000E+00  0.00000000E+00  0.00000000E+00
  0.00000000E+00  0.00000000E+00  0.00000000E+00
  0.00000000E+00  0.00000000E+00  0.00000000E+00
  0.00000000E+00  0.00000000E+00  0.00000000E+00
  0.00000000E+00  0.00000000E+00  0.00000000E+00
  0.00000000E+00  0.00000000E+00  0.00000000E+00
  0.00000000E+00  0.00000000E+00  0.00000000E+00
  0.00000000E+00  0.00000000E+00  0.00000000E+00
  0.00000000E+00  0.00000000E+00  0.00000000E+00
  0.00000000E+00  0.00000000E+00  0.00000000E+00
  0.00000000E+00  0.00000000E+00  0.00000000E+00
  0.00000000E+00  0.00000000E+00  0.00000000E+00
  0.00000000E+00  0.00000000E+00  0.00000000E+00
  0.00000000E+00  0.00000000E+00  0.00000000E+00
