supercell of icsd_608626.cif            
   1.16147713676526     
     9.4241174267563146    0.4974723445121236    0.0401565549989998
    -4.2976027314131198    7.9816614615565928    0.0563592779231890
     0.0458689188551907    0.0922124152273603    9.1087361349258646
   La   Al   N 
    18    18    36
Direct
  0.2850734721863688  0.1730997104664027  0.1736587933508247
  0.0655620732945366  0.1529361452790710  0.4673951936305301
  0.4212062005216382  0.2469843219212606  0.4795659262208218
  0.5886107376708409  0.1281447683799470  0.7106699232631541
  0.9052840719441448  0.4401446264255142  0.7543963397861901
  0.4118307242683841  0.5942525191417474  0.5019422581648740
  0.2038696800864983  0.3640962625248534  0.7309010091989308
  0.8733179319274171  0.4547729314562190  0.2032749889309997
  0.7729114290042816  0.5533514319779229  0.4611075701120626
  0.5571627634930536  0.4535805131381778  0.7549066174488459
  0.3919820357954862  0.5594496465358816  0.0080835843248579
  0.0944338684846073  0.8494362963222386  0.4666270127947527
  0.8967130922256175  0.8033961101022911  0.7225425298497328
  0.6317137736811702  0.8443175100623534  0.2376314809827136
  0.4242349155670198  0.9301366134858498  0.4304708906686514
  0.2581230978680082  0.7404116126525011  0.7476142626173328
  0.0806802827787436  0.8422289993732619  0.0046863033326119
  0.4587479850419243  0.9426236509464658  0.0001558626474605
  0.8779394003432230  0.0937780528989194  0.7448153381417768
  0.8018004309229809  0.2252743775147223  0.0001520662677663
  0.6149157557366109  0.1620410040879392  0.2608997466221297
  0.1935906985338036  0.0745288459026483  0.7764057370503750
  0.0746654120491996  0.2014514616716880  0.0025799236203170
  0.8947769430591919  0.1163834866149216  0.2344626461872394
  0.8009074389526845  0.2297332133858134  0.4816981024613796
  0.5992192230646793  0.3304035224729063  0.0261342338907653
  0.1932946883785220  0.3999313710200951  0.2568848838078353
  0.0934640814467187  0.4984502723796780  0.4850382308588550
  0.7041670512031430  0.6569606684192877  0.0251821311184983
  0.5478950523748267  0.4694958864376915  0.2506210908359066
  0.1046696054493736  0.5127355055500331  0.0120971276329129
  0.1526630421579256  0.6787153517338993  0.2655798229697339
  0.8139196215953248  0.9274805328538562  0.9958324063173549
  0.8759657913201622  0.7910100772675435  0.2579727678966108
  0.7487285162490949  0.9086126617868189  0.5054516347695142
  0.5812598530572899  0.8023908857844404  0.7847987141955102
  0.2333614236875690  0.0628033215561032  0.3845751405830171
  0.0806974697427876  0.2180129852650623  0.1917921826270472
  0.8863815892096625  0.1139997170642673  0.9306349941132837
  0.8203144066549228  0.2170601860489185  0.6619531267880348
  0.6123613260048302  0.1789852187523735  0.4466115304536586
  0.5629547144035385  0.3009661849323777  0.1962500461995731
  0.1761142740134218  0.0921826131954759  0.9644217446483552
  0.0516378173320078  0.1118042586698351  0.6971476921498052
  0.8395842833413454  0.0832410851141603  0.4105886466490603
  0.7751693340968870  0.1876457902139066  0.1750450484908086
  0.6311709001884864  0.2054949231457215  0.9295355128124640
  0.3607842337653793  0.2217797237219088  0.6988216999623020
  0.1931892035420262  0.3952169938019026  0.4371405769371464
  0.1302971147783936  0.5225741355355566  0.1867765826495784
  0.9166342642569489  0.4233543648820657  0.9891803294564809
  0.7790406921421535  0.5574764481492807  0.6737428486423198
  0.5427118097091679  0.4800090420993897  0.4324526178647332
  0.3714159993122692  0.4344106711985489  0.2025803565444448
  0.1727382757945648  0.3906463180290487  0.9428922086506617
  0.1177034071460952  0.5192106306639417  0.6585665334004460
  0.9140414543200563  0.4184983495622561  0.4311480172995061
  0.7147615852077891  0.6292432888261246  0.2022301336032299
  0.5800324724791253  0.4843718748039905  0.9712955740250635
  0.4566606180146024  0.6114828931948182  0.7420806389195960
  0.2146314791954040  0.6996937316302692  0.4271793435644327
  0.0220760710157251  0.7417880819081404  0.2412519425444444
  0.8589140235293513  0.7806976042127189  0.9407800621613163
  0.7441841933429600  0.9118308673935402  0.6904024714359167
  0.5673703176555307  0.8224535651551150  0.4510870854576510
  0.4900562000324626  0.9724039551990415  0.2261418132139568
  0.2275117803086530  0.7109734007739803  0.9689444315204199
  0.1371001766923357  0.8802235879820088  0.7498879442729773
  0.8644682040494658  0.8193596535203369  0.4406623072300135
  0.8592452619389164  0.9372234981543528  0.1676367065334077
  0.6157980136671668  0.8006316876948105  0.9871331310911913
  0.4835848676935157  0.9095084999738106  0.7871918255338315
 
  0.00000000E+00  0.00000000E+00  0.00000000E+00
  0.00000000E+00  0.00000000E+00  0.00000000E+00
  0.00000000E+00  0.00000000E+00  0.00000000E+00
  0.00000000E+00  0.00000000E+00  0.00000000E+00
  0.00000000E+00  0.00000000E+00  0.00000000E+00
  0.00000000E+00  0.00000000E+00  0.00000000E+00
  0.00000000E+00  0.00000000E+00  0.00000000E+00
  0.00000000E+00  0.00000000E+00  0.00000000E+00
  0.00000000E+00  0.00000000E+00  0.00000000E+00
  0.00000000E+00  0.00000000E+00  0.00000000E+00
  0.00000000E+00  0.00000000E+00  0.00000000E+00
  0.00000000E+00  0.00000000E+00  0.00000000E+00
  0.00000000E+00  0.00000000E+00  0.00000000E+00
  0.00000000E+00  0.00000000E+00  0.00000000E+00
  0.00000000E+00  0.00000000E+00  0.00000000E+00
  0.00000000E+00  0.00000000E+00  0.00000000E+00
  0.00000000E+00  0.00000000E+00  0.00000000E+00
  0.00000000E+00  0.00000000E+00  0.00000000E+00
  0.00000000E+00  0.00000000E+00  0.00000000E+00
  0.00000000E+00  0.00000000E+00  0.00000000E+00
  0.00000000E+00  0.00000000E+00  0.00000000E+00
  0.00000000E+00  0.00000000E+00  0.00000000E+00
  0.00000000E+00  0.00000000E+00  0.00000000E+00
  0.00000000E+00  0.00000000E+00  0.00000000E+00
  0.00000000E+00  0.00000000E+00  0.00000000E+00
  0.00000000E+00  0.00000000E+00  0.00000000E+00
  0.00000000E+00  0.00000000E+00  0.00000000E+00
  0.00000000E+00  0.00000000E+00  0.00000000E+00
  0.00000000E+00  0.00000000E+00  0.00000000E+00
  0.00000000E+00  0.00000000E+00  0.00000000E+00
  0.00000000E+00  0.00000000E+00  0.00000000E+00
  0.00000000E+00  0.00000000E+00  0.00000000E+00
  0.00000000E+00  0.00000000E+00  0.00000000E+00
  0.00000000E+00  0.00000000E+00  0.00000000E+00
  0.00000000E+00  0.00000000E+00  0.00000000E+00
  0.00000000E+00  0.00000000E+00  0.00000000E+00
  0.00000000E+00  0.00000000E+00  0.00000000E+00
  0.00000000E+00  0.00000000E+00  0.00000000E+00
  0.00000000E+00  0.00000000E+00  0.00000000E+00
  0.00000000E+00  0.00000000E+00  0.00000000E+00
  0.00000000E+00  0.00000000E+00  0.00000000E+00
  0.00000000E+00  0.00000000E+00  0.00000000E+00
  0.00000000E+00  0.00000000E+00  0.00000000E+00
  0.00000000E+00  0.00000000E+00  0.00000000E+00
  0.00000000E+00  0.00000000E+00  0.00000000E+00
  0.00000000E+00  0.00000000E+00  0.00000000E+00
  0.00000000E+00  0.00000000E+00  0.00000000E+00
  0.00000000E+00  0.00000000E+00  0.00000000E+00
  0.00000000E+00  0.00000000E+00  0.00000000E+00
  0.00000000E+00  0.00000000E+00  0.00000000E+00
  0.00000000E+00  0.00000000E+00  0.00000000E+00
  0.00000000E+00  0.00000000E+00  0.00000000E+00
  0.00000000E+00  0.00000000E+00  0.00000000E+00
  0.00000000E+00  0.00000000E+00  0.00000000E+00
  0.00000000E+00  0.00000000E+00  0.00000000E+00
  0.00000000E+00  0.00000000E+00  0.00000000E+00
  0.00000000E+00  0.00000000E+00  0.00000000E+00
  0.00000000E+00  0.00000000E+00  0.00000000E+00
  0.00000000E+00  0.00000000E+00  0.00000000E+00
  0.00000000E+00  0.00000000E+00  0.00000000E+00
  0.00000000E+00  0.00000000E+00  0.00000000E+00
  0.00000000E+00  0.00000000E+00  0.00000000E+00
  0.00000000E+00  0.00000000E+00  0.00000000E+00
  0.00000000E+00  0.00000000E+00  0.00000000E+00
  0.00000000E+00  0.00000000E+00  0.00000000E+00
  0.00000000E+00  0.00000000E+00  0.00000000E+00
  0.00000000E+00  0.00000000E+00  0.00000000E+00
  0.00000000E+00  0.00000000E+00  0.00000000E+00
  0.00000000E+00  0.00000000E+00  0.00000000E+00
  0.00000000E+00  0.00000000E+00  0.00000000E+00
  0.00000000E+00  0.00000000E+00  0.00000000E+00
  0.00000000E+00  0.00000000E+00  0.00000000E+00
