supercell of icsd_191774.cif            
   1.00000000000000     
    11.5588528858490918   -0.0475028365561872    0.0216172148663258
    -5.8206955231044200   10.0814274075809553   -0.0284004248496330
     0.0224629293348475   -0.0222274393140979   11.5281213752888210
   N    La   In
    36    20    16
Direct
  0.2120396255923325  0.1090351606099205  0.4591704100936482
  0.0980264694929360  0.2200725871228997  0.1865752555405535
  0.8597838144315233  0.0967729920494946  0.9447998068636849
  0.7857486718813362  0.2380012719242828  0.6853349594611515
  0.5473535528693176  0.0933420839941306  0.4489691265616429
  0.4400273159380319  0.2239946262076842  0.2051458380567581
  0.2304183836413927  0.1093312717001922  0.9596909352048613
  0.1096541213789024  0.2254454305669782  0.7012443002199689
  0.9077692058845415  0.1183617756209046  0.4431374632336826
  0.7885920917185842  0.2167287701506453  0.2031948336853873
  0.5594419392225234  0.1258898053187281  0.9738623050948192
  0.4531410647524297  0.2365885797458489  0.6914866728277573
  0.2198154681837252  0.4404708465220679  0.4661563636879293
  0.1165537590929588  0.5607118618307041  0.1814531487139845
  0.8799740211077989  0.4242445634969414  0.9496923352756852
  0.7791627407872355  0.5574980554634763  0.7294074463179072
  0.5658483986464233  0.4693588044310957  0.4426014654984911
  0.4307580691956829  0.5511150720608455  0.1812112915959290
  0.2386965569999262  0.4485496547086072  0.9305036769702539
  0.1013424255844555  0.5338352716551640  0.7064569766885782
  0.9096427372858713  0.4642628693509039  0.4412661169506435
  0.7880472377080494  0.5764281820337374  0.1765367684969306
  0.5384361597949976  0.4329148515785732  0.9494436915653779
  0.4349792957204599  0.5300774637890200  0.6899312895868874
  0.2237195192431400  0.7749745182981229  0.4809531623175261
  0.1025392036897301  0.8783582097188400  0.1818091543771700
  0.9046849873986815  0.8115047205618851  0.9389953867847112
  0.7825908641255381  0.8742724895660459  0.6751925153332863
  0.5344820511769015  0.7638970087846531  0.4546034057097970
  0.4304764911093528  0.8763273658874340  0.1818696984655475
  0.2129799845808904  0.7902702160682296  0.9275218858896821
  0.0900673587270120  0.8861441773252068  0.6839873451946659
  0.9122824835848959  0.7828072372286812  0.4240576145056778
  0.7942828520043079  0.8970226521747406  0.2017815979060273
  0.5683196604934935  0.7660450894675748  0.9561229698922560
  0.4576401537638191  0.8962082190420375  0.7089883450117611
  0.2017485684242502  0.1003546191218376  0.2425053415961216
  0.8769671713647043  0.1035074826602482  0.7380270113895051
  0.5497600826930125  0.1000475630225282  0.2323829529964385
  0.4476601583141786  0.2313320307167643  0.4871289201152607
  0.2245266793349288  0.1116325314028970  0.7450445656493372
  0.1026085883532133  0.2190842023070090  0.9853000237724956
  0.7892472699799313  0.2311468015191807  0.4797518799807676
  0.5672341876691647  0.1315430928515013  0.7559572620874135
  0.2124482111137596  0.4410275409016222  0.2543156973570788
  0.7797704279586029  0.5672485341432676  0.9666405597560868
  0.5593421629954491  0.4589204606127382  0.2320212523423137
  0.1183327062888537  0.5599284146632684  0.9742268740960043
  0.8940973984702723  0.4553391320871043  0.2292898136914445
  0.7945170487947664  0.5714080750177288  0.5115339881761187
  0.2126521770835836  0.7727449435067371  0.2605096036082841
  0.5485862902086325  0.7725820692944367  0.2365854165578796
  0.2120994779332008  0.7747288109840156  0.7176184957101981
  0.7846549570079162  0.8843363276239700  0.4703404013580581
  0.5588755111089299  0.7598641513571636  0.7410418266469492
  0.4421092443463479  0.8864150754541100  0.9782954825027730
  0.1129664322645496  0.2237362296628831  0.5076653244294107
  0.7759609711263948  0.2164954231120717  0.0081341725546551
  0.8943751995210292  0.1116295165174748  0.2452177357016012
  0.4410758056319324  0.2234060234905186  0.0092495926446929
  0.1101599290002184  0.5464551644254740  0.5123449040424219
  0.8864778463345360  0.4348948895801925  0.7559244142811750
  0.4400558349733572  0.5506330693693258  0.5018677125295383
  0.2240424015482390  0.4367552853481627  0.7398149501837494
  0.5462438679361838  0.4374938069192282  0.7545748972778767
  0.4420762708996264  0.5496923785738304  0.9929065493082447
  0.1080784922003346  0.8928683739749488  0.4991539297955683
  0.8912013753747274  0.7890612689546899  0.7517333913678357
  0.7816404925349829  0.8921945842666403  0.0054560969361646
  0.4486042305496127  0.8873782833894879  0.5100596463334028
  0.1144247945829520  0.8933146561529171  0.9940279556153300
  0.8960589992684973  0.7799354309577140  0.2339957980271805
 
  0.00000000E+00  0.00000000E+00  0.00000000E+00
  0.00000000E+00  0.00000000E+00  0.00000000E+00
  0.00000000E+00  0.00000000E+00  0.00000000E+00
  0.00000000E+00  0.00000000E+00  0.00000000E+00
  0.00000000E+00  0.00000000E+00  0.00000000E+00
  0.00000000E+00  0.00000000E+00  0.00000000E+00
  0.00000000E+00  0.00000000E+00  0.00000000E+00
  0.00000000E+00  0.00000000E+00  0.00000000E+00
  0.00000000E+00  0.00000000E+00  0.00000000E+00
  0.00000000E+00  0.00000000E+00  0.00000000E+00
  0.00000000E+00  0.00000000E+00  0.00000000E+00
  0.00000000E+00  0.00000000E+00  0.00000000E+00
  0.00000000E+00  0.00000000E+00  0.00000000E+00
  0.00000000E+00  0.00000000E+00  0.00000000E+00
  0.00000000E+00  0.00000000E+00  0.00000000E+00
  0.00000000E+00  0.00000000E+00  0.00000000E+00
  0.00000000E+00  0.00000000E+00  0.00000000E+00
  0.00000000E+00  0.00000000E+00  0.00000000E+00
  0.00000000E+00  0.00000000E+00  0.00000000E+00
  0.00000000E+00  0.00000000E+00  0.00000000E+00
  0.00000000E+00  0.00000000E+00  0.00000000E+00
  0.00000000E+00  0.00000000E+00  0.00000000E+00
  0.00000000E+00  0.00000000E+00  0.00000000E+00
  0.00000000E+00  0.00000000E+00  0.00000000E+00
  0.00000000E+00  0.00000000E+00  0.00000000E+00
  0.00000000E+00  0.00000000E+00  0.00000000E+00
  0.00000000E+00  0.00000000E+00  0.00000000E+00
  0.00000000E+00  0.00000000E+00  0.00000000E+00
  0.00000000E+00  0.00000000E+00  0.00000000E+00
  0.00000000E+00  0.00000000E+00  0.00000000E+00
  0.00000000E+00  0.00000000E+00  0.00000000E+00
  0.00000000E+00  0.00000000E+00  0.00000000E+00
  0.00000000E+00  0.00000000E+00  0.00000000E+00
  0.00000000E+00  0.00000000E+00  0.00000000E+00
  0.00000000E+00  0.00000000E+00  0.00000000E+00
  0.00000000E+00  0.00000000E+00  0.00000000E+00
  0.00000000E+00  0.00000000E+00  0.00000000E+00
  0.00000000E+00  0.00000000E+00  0.00000000E+00
  0.00000000E+00  0.00000000E+00  0.00000000E+00
  0.00000000E+00  0.00000000E+00  0.00000000E+00
  0.00000000E+00  0.00000000E+00  0.00000000E+00
  0.00000000E+00  0.00000000E+00  0.00000000E+00
  0.00000000E+00  0.00000000E+00  0.00000000E+00
  0.00000000E+00  0.00000000E+00  0.00000000E+00
  0.00000000E+00  0.00000000E+00  0.00000000E+00
  0.00000000E+00  0.00000000E+00  0.00000000E+00
  0.00000000E+00  0.00000000E+00  0.00000000E+00
  0.00000000E+00  0.00000000E+00  0.00000000E+00
  0.00000000E+00  0.00000000E+00  0.00000000E+00
  0.00000000E+00  0.00000000E+00  0.00000000E+00
  0.00000000E+00  0.00000000E+00  0.00000000E+00
  0.00000000E+00  0.00000000E+00  0.00000000E+00
  0.00000000E+00  0.00000000E+00  0.00000000E+00
  0.00000000E+00  0.00000000E+00  0.00000000E+00
  0.00000000E+00  0.00000000E+00  0.00000000E+00
  0.00000000E+00  0.00000000E+00  0.00000000E+00
  0.00000000E+00  0.00000000E+00  0.00000000E+00
  0.00000000E+00  0.00000000E+00  0.00000000E+00
  0.00000000E+00  0.00000000E+00  0.00000000E+00
  0.00000000E+00  0.00000000E+00  0.00000000E+00
  0.00000000E+00  0.00000000E+00  0.00000000E+00
  0.00000000E+00  0.00000000E+00  0.00000000E+00
  0.00000000E+00  0.00000000E+00  0.00000000E+00
  0.00000000E+00  0.00000000E+00  0.00000000E+00
  0.00000000E+00  0.00000000E+00  0.00000000E+00
  0.00000000E+00  0.00000000E+00  0.00000000E+00
  0.00000000E+00  0.00000000E+00  0.00000000E+00
  0.00000000E+00  0.00000000E+00  0.00000000E+00
  0.00000000E+00  0.00000000E+00  0.00000000E+00
  0.00000000E+00  0.00000000E+00  0.00000000E+00
  0.00000000E+00  0.00000000E+00  0.00000000E+00
  0.00000000E+00  0.00000000E+00  0.00000000E+00
