generated by phonopy                    
   1.00000000000000     
    10.0351470768999995   -0.0000022330999784   -0.0000001056124209
    -5.0175765436399997    8.6906901959899994    0.0000001395531216
    -0.0000001735893656    0.0000001431815548   14.9533752540999991
   Pb   P    O 
    21    12    49
Direct
  0.0121143201950389  0.8047629875101734  0.1384470259278032
  0.0046183692324320  0.7745633191007855  0.6140506276240743
  0.9988062016332933  0.2351789881124517  0.3715124101361482
  0.9899113597715825  0.2675677326071124  0.8673381651046412
  0.2376994701645074  0.2427237771807711  0.1324821893903589
  0.2204891071983397  0.2216628249551249  0.6175139931375284
  0.7610616800414789  0.7614156492401776  0.3673091976598144
  0.8406062879315712  0.8602967977891254  0.8129393777365337
  0.7767407457394668  0.0056702079458120  0.1244887795527561
  0.7808708526857018  0.0054707630119069  0.6087578166220311
  0.2378143375722459  0.9982837171360615  0.3740733819564142
  0.2475373301453203  0.0039447571052733  0.8734562059325839
  0.6705276210659008  0.3430602113810082  0.9988410189920316
  0.6614680868886964  0.3281820151436392  0.4992858379450453
  0.3316305752868018  0.6611997139396877  0.0068513506445314
  0.3278369540880348  0.6646255763075501  0.5024546340572158
  0.3265400456459133  0.6704953801036737  0.2528139808434133
  0.3683913642400469  0.6798006008211814  0.7441011804432875
  0.6710112174679281  0.3346031931459166  0.2465462500118534
  0.6640174534811223  0.3472612832189839  0.7519465866777040
  0.7926291658703661  0.6956388961615190  0.9788024508430908
  0.6156249051285769  0.6066384176286874  0.1259049673659760
  0.6328191000339700  0.5964640801266938  0.6153163628491143
  0.3659065686041458  0.3956753434010309  0.3785117648606047
  0.3499419971120261  0.3748018219956464  0.8735925194059746
  0.3987676109740121  0.0250395306532383  0.1313812506594729
  0.4017927194806177  0.0339685365147844  0.6263275036778069
  0.6022804382792586  0.9720591121459776  0.3763303040075314
  0.5812626482054881  0.9732958516194046  0.8752558213004136
  0.9692099553064253  0.3772508266878063  0.1309623976192924
  0.9709148707602395  0.3726612018499154  0.6251098995148254
  0.0281501227751946  0.6246367847942835  0.3826274299353045
  0.0438828490550591  0.6111272350965677  0.8717863637367742
  0.4756605737878061  0.6330327297670806  0.1427762440181652
  0.5262274665690967  0.6668714277365027  0.6118780408259639
  0.4708557906418562  0.3228932181164907  0.3781290229230265
  0.4517910387533774  0.2961756848789108  0.8833743112458592
  0.3509480540117380  0.8511976421748528  0.1320159841548971
  0.3484771937682467  0.8604816938190609  0.6186380647898631
  0.6764647648998121  0.1498157714205206  0.3753783309456793
  0.6576573352828916  0.1497463702302113  0.8629575295244152
  0.1458678741437538  0.4931509512182188  0.1316286282676842
  0.1455956371582658  0.4907645312938982  0.6207514157764891
  0.8503762936388455  0.5302159541491420  0.3791064674310221
  0.8797139598958523  0.4638124988645274  0.8715054434818441
  0.7466888949107897  0.6511521987811975  0.5341089361488969
  0.2551699051255838  0.3418300675507453  0.4614416029905684
  0.2685267876285877  0.3702878845627993  0.9638975705965578
  0.3289676247263600  0.0613738905313781  0.0475728655386760
  0.3520933614793265  0.0913093375044340  0.5413143625728623
  0.6632254464987284  0.9187625615067390  0.4577567859148886
  0.6139619582857065  0.9270221975893662  0.9667915950244819
  0.9256722978365133  0.2671767941417613  0.0483745513311931
  0.9152198579282924  0.2654585445820103  0.5399027915083465
  0.0898253520285124  0.7315045546193701  0.4673641477177810
  0.1003017439840121  0.6850810904528046  0.9652475424236187
  0.2559603053984461  0.3411714148457321  0.2947593387494436
  0.2186287874829915  0.2738427219620405  0.8048582399874249
  0.7380750271248147  0.6809109597255087  0.2052057586309175
  0.7338015315431079  0.6477173822169817  0.7024489143957098
  0.6444501480187057  0.9108046431350942  0.2908869914659888
  0.6329210875950295  0.9044245991916426  0.7960333060256062
  0.3357861000045119  0.0705345339429968  0.2156974674010641
  0.3242733974485859  0.0658341217730438  0.7086073845706125
  0.0954283721466922  0.7357038923105321  0.3006938977335025
  0.0563812289833123  0.7342913994018758  0.8041347687896092
  0.9182934443052488  0.2737638432690161  0.2173266619412360
  0.9332862139231253  0.2612964722380582  0.7067539243632410
  0.5527428177541935  0.4258289163318167  0.1318889475483687
  0.5375258836196508  0.4169193990003990  0.6156319261169259
  0.4633721697309525  0.5755854753697989  0.3787078561672743
  0.4502014111604637  0.5426806436117246  0.8409949873455602
  0.5781417271882532  0.1272844614072000  0.1338559440517031
  0.5811698360285078  0.1331950270868347  0.6345789905260304
  0.4224654352269610  0.8927294328837831  0.3835248214763141
  0.4006811052845336  0.8920402260259763  0.8619468692887580
  0.8744889048628437  0.4622751137222849  0.1292008935505109
  0.8735123963916465  0.4547470140298486  0.6313769944054783
  0.0999049766604259  0.5169639235333179  0.3841882464355919
  0.1494106204927377  0.5409800294002522  0.8444665729575433
  0.0085504993891306  0.0282452982695887  0.1599185983586935
  0.0013393058010038  0.9985426752428594  0.5785100916162094
 
  0.00000000E+00  0.00000000E+00  0.00000000E+00
  0.00000000E+00  0.00000000E+00  0.00000000E+00
  0.00000000E+00  0.00000000E+00  0.00000000E+00
  0.00000000E+00  0.00000000E+00  0.00000000E+00
  0.00000000E+00  0.00000000E+00  0.00000000E+00
  0.00000000E+00  0.00000000E+00  0.00000000E+00
  0.00000000E+00  0.00000000E+00  0.00000000E+00
  0.00000000E+00  0.00000000E+00  0.00000000E+00
  0.00000000E+00  0.00000000E+00  0.00000000E+00
  0.00000000E+00  0.00000000E+00  0.00000000E+00
  0.00000000E+00  0.00000000E+00  0.00000000E+00
  0.00000000E+00  0.00000000E+00  0.00000000E+00
  0.00000000E+00  0.00000000E+00  0.00000000E+00
  0.00000000E+00  0.00000000E+00  0.00000000E+00
  0.00000000E+00  0.00000000E+00  0.00000000E+00
  0.00000000E+00  0.00000000E+00  0.00000000E+00
  0.00000000E+00  0.00000000E+00  0.00000000E+00
  0.00000000E+00  0.00000000E+00  0.00000000E+00
  0.00000000E+00  0.00000000E+00  0.00000000E+00
  0.00000000E+00  0.00000000E+00  0.00000000E+00
  0.00000000E+00  0.00000000E+00  0.00000000E+00
  0.00000000E+00  0.00000000E+00  0.00000000E+00
  0.00000000E+00  0.00000000E+00  0.00000000E+00
  0.00000000E+00  0.00000000E+00  0.00000000E+00
  0.00000000E+00  0.00000000E+00  0.00000000E+00
  0.00000000E+00  0.00000000E+00  0.00000000E+00
  0.00000000E+00  0.00000000E+00  0.00000000E+00
  0.00000000E+00  0.00000000E+00  0.00000000E+00
  0.00000000E+00  0.00000000E+00  0.00000000E+00
  0.00000000E+00  0.00000000E+00  0.00000000E+00
  0.00000000E+00  0.00000000E+00  0.00000000E+00
  0.00000000E+00  0.00000000E+00  0.00000000E+00
  0.00000000E+00  0.00000000E+00  0.00000000E+00
  0.00000000E+00  0.00000000E+00  0.00000000E+00
  0.00000000E+00  0.00000000E+00  0.00000000E+00
  0.00000000E+00  0.00000000E+00  0.00000000E+00
  0.00000000E+00  0.00000000E+00  0.00000000E+00
  0.00000000E+00  0.00000000E+00  0.00000000E+00
  0.00000000E+00  0.00000000E+00  0.00000000E+00
  0.00000000E+00  0.00000000E+00  0.00000000E+00
  0.00000000E+00  0.00000000E+00  0.00000000E+00
  0.00000000E+00  0.00000000E+00  0.00000000E+00
  0.00000000E+00  0.00000000E+00  0.00000000E+00
  0.00000000E+00  0.00000000E+00  0.00000000E+00
  0.00000000E+00  0.00000000E+00  0.00000000E+00
  0.00000000E+00  0.00000000E+00  0.00000000E+00
  0.00000000E+00  0.00000000E+00  0.00000000E+00
  0.00000000E+00  0.00000000E+00  0.00000000E+00
  0.00000000E+00  0.00000000E+00  0.00000000E+00
  0.00000000E+00  0.00000000E+00  0.00000000E+00
  0.00000000E+00  0.00000000E+00  0.00000000E+00
  0.00000000E+00  0.00000000E+00  0.00000000E+00
  0.00000000E+00  0.00000000E+00  0.00000000E+00
  0.00000000E+00  0.00000000E+00  0.00000000E+00
  0.00000000E+00  0.00000000E+00  0.00000000E+00
  0.00000000E+00  0.00000000E+00  0.00000000E+00
  0.00000000E+00  0.00000000E+00  0.00000000E+00
  0.00000000E+00  0.00000000E+00  0.00000000E+00
  0.00000000E+00  0.00000000E+00  0.00000000E+00
  0.00000000E+00  0.00000000E+00  0.00000000E+00
  0.00000000E+00  0.00000000E+00  0.00000000E+00
  0.00000000E+00  0.00000000E+00  0.00000000E+00
  0.00000000E+00  0.00000000E+00  0.00000000E+00
  0.00000000E+00  0.00000000E+00  0.00000000E+00
  0.00000000E+00  0.00000000E+00  0.00000000E+00
  0.00000000E+00  0.00000000E+00  0.00000000E+00
  0.00000000E+00  0.00000000E+00  0.00000000E+00
  0.00000000E+00  0.00000000E+00  0.00000000E+00
  0.00000000E+00  0.00000000E+00  0.00000000E+00
  0.00000000E+00  0.00000000E+00  0.00000000E+00
  0.00000000E+00  0.00000000E+00  0.00000000E+00
  0.00000000E+00  0.00000000E+00  0.00000000E+00
  0.00000000E+00  0.00000000E+00  0.00000000E+00
  0.00000000E+00  0.00000000E+00  0.00000000E+00
  0.00000000E+00  0.00000000E+00  0.00000000E+00
  0.00000000E+00  0.00000000E+00  0.00000000E+00
  0.00000000E+00  0.00000000E+00  0.00000000E+00
  0.00000000E+00  0.00000000E+00  0.00000000E+00
  0.00000000E+00  0.00000000E+00  0.00000000E+00
  0.00000000E+00  0.00000000E+00  0.00000000E+00
  0.00000000E+00  0.00000000E+00  0.00000000E+00
  0.00000000E+00  0.00000000E+00  0.00000000E+00
