supercell of POSCAR                     
   1.01800000000000     
     3.1310994802600001   -5.4896946145000003   10.0244832682999991
    -9.4821132118399998   -5.5089477087900001    0.0170740616273000
     6.3359946057599998  -11.0114127993000004  -10.0652216442999993
   Al   Gd   N 
    84    11    96
Direct
  0.0900930834847102  0.5865730463448315  0.3333731147526748
  0.4990667789405592  0.3260956416511078  0.2542012180752664
  0.0872583454304419  0.0841965095470556  0.3336809503664497
  0.2518000850361730  0.5789041911013371  0.4937567112470234
  0.3327218768703943  0.3222205574566033  0.0787199125720690
  0.4154737919861375  0.0827412743687788  0.1685061476026775
  0.0060882149474253  0.8438635580305984  0.2561417683187344
  0.1691878910472226  0.3327325239773984  0.4107597054895393
  0.2478839527815708  0.0868608276485361  0.4952140988123830
  0.1632518870532920  0.8372648882725002  0.4146234726294722
  0.3372374792059389  0.6734736457304322  0.3384858918201274
  0.1555297007197396  0.6823550468030604  0.1613416453064858
  0.2540661733545662  0.4079214860431932  0.2499499304363795
  0.3344577429725248  0.1642604024129923  0.3321637381516069
  0.0065531783372350  0.6730716224917472  0.4941035960684346
  0.1683365648014359  0.1599823337373323  0.1694653883748458
  0.2551827528969639  0.9174912671044098  0.2497490266189786
  0.4135091750410069  0.4147431906529278  0.4145762089787155
  0.4984202863943494  0.1611512008892859  0.4962597673266629
  0.0908623113755951  0.9191316226972361  0.0826886738434780
  0.4193604430942486  0.9198044673742629  0.4099418313365533
  0.0880524040247650  0.5832197117288089  0.8336388522208864
  0.4995026842877408  0.3215765690395429  0.7556093533218231
  0.0871345159843742  0.0832278391101724  0.8360555354735411
  0.2508672479137601  0.5842075909235760  0.9932349596589631
  0.3320205444825746  0.3176389214077844  0.5778105741575175
  0.4167897065373012  0.0863344253367515  0.6710711165202881
  0.0079581425215665  0.8421731041651555  0.7562140160781752
  0.1685781720180728  0.3309839901007052  0.9133610340370950
  0.2524505994363651  0.0835433133431565  0.9998220534416333
  0.1665112605448016  0.8327400195032979  0.9193543122883980
  0.3369178409592735  0.6726459332700188  0.8396083716933092
  0.1544354414345435  0.6743702413621335  0.6653056870893934
  0.2497300623561642  0.4007757009250952  0.7520428792803528
  0.3341223290920112  0.1632112171129378  0.8348194270392071
  0.0065684721323720  0.6728170961442004  0.9942794989931230
  0.1669523668610466  0.1580099332027061  0.6695942709357041
  0.2525805671571888  0.9190842088300784  0.7561340294785168
  0.4119343588406394  0.4144669594467203  0.9153495294554759
  0.4986506856861865  0.1611784175088857  0.9974787752895722
  0.0832083204188123  0.9230319186487677  0.5795349216333747
  0.4153202221697398  0.9188532574362043  0.9149961215574294
  0.5887435304978013  0.5844287192762181  0.3335420642547007
  0.0018083893159400  0.3230452205735901  0.2550576207590041
  0.5845220901218511  0.0861743084631783  0.3331862071250953
  0.7512548686555789  0.5785534967445685  0.4945452324770585
  0.8322519154545560  0.3180021995601479  0.0785726920012380
  0.9186595025603097  0.0863192218673632  0.1713191082228818
  0.5056868287726743  0.8437880809221667  0.2527438036302883
  0.6683731258955845  0.3319125702396590  0.4120344331314882
  0.7473248623129294  0.0865995433490880  0.4957696951242667
  0.6611340291999355  0.8367629269585990  0.4156642481862605
  0.8362289749093108  0.6733286389335689  0.3404257686970666
  0.6572743633283835  0.6751544134363172  0.1657637371932239
  0.7515712436849782  0.4021002619507996  0.2522579224109407
  0.8350059806017995  0.1641004159430679  0.3339278032364135
  0.5063194654772971  0.6728877035182279  0.4936394658165071
  0.6670321825840944  0.1590501144045220  0.1699957782063564
  0.7520886764692705  0.9201979448074695  0.2565780168199296
  0.9135558745430146  0.4148463344696154  0.4152604390898134
  0.9990616086782396  0.1612479371116251  0.4965447579120905
  0.5757535608379598  0.9226070881678297  0.0841861678280438
  0.9197933800447657  0.9196876798326201  0.4122625390812757
  0.5883466213232893  0.5844937530175471  0.8351723246594815
  0.9995719400522844  0.3208931126121968  0.7558653426866826
  0.5846021980942524  0.0837166027161373  0.8355392760060383
  0.7507551137157051  0.5792512278319890  0.9957033902921353
  0.8321431170004985  0.3172777977600632  0.5785230120909404
  0.9174419292230525  0.0859954486672336  0.6717946428356925
  0.5061579119442143  0.8428180284786464  0.7559627113377090
  0.6675621832996228  0.3321145330742752  0.9131535383766476
  0.7455587825801899  0.0859363298070690  0.9969731507073121
  0.6610001035419018  0.8358427226415444  0.9171719808828698
  0.8360558414307633  0.6725142112319844  0.8403331480763114
  0.6538363876460309  0.6746215512702918  0.6659669242004966
  0.7497515283649889  0.4007877502592123  0.7526463067715810
  0.8339936631425076  0.1625825223573045  0.8353640663813522
  0.5031842135593934  0.6727069835378572  0.9957405343188910
  0.6666702226282624  0.1579000077914472  0.6699105442274202
  0.7528000780726103  0.9192500897931382  0.7569249529310156
  0.9123832764186801  0.4136906150034534  0.9158479626504956
  0.9996178128332005  0.1592648940879400  0.9983851167251458
  0.5826343218651999  0.9233494825581303  0.5795514052625066
  0.9220715052963513  0.9184849634097532  0.9129717413722318
  0.3944333181144586  0.6010359083156160  0.1701656764566906
  0.0825853075024341  0.4195335206247108  0.0845318653221554
  0.3973323329252381  0.5785781658221296  0.6778576572861610
  0.3320958157197893  0.8362240058230412  0.5827870458294768
  0.0826875848073669  0.4182284494147908  0.5845014416015317
  0.8998388996053919  0.5802572951692113  0.1788404944109487
  0.8318272411652217  0.8402521038518529  0.0834818345575883
  0.5798834215104307  0.4169627791130424  0.0862720494246787
  0.8972181396226873  0.5782473883352637  0.6777951125349588
  0.8315013588606917  0.8366136723492090  0.5840801008804206
  0.5818361875457185  0.4182063079959448  0.5847686659200662
  0.2184956050526452  0.5843672956966444  0.2647350586200403
  0.0331264197025334  0.6108183392640640  0.1002043480096262
  0.1325867704374204  0.3194014443991691  0.2003295820739410
  0.2130593254736439  0.0812569878762233  0.2712480276073492
  0.3820745866775610  0.5836559536957679  0.4365218034091569
  0.4482469091097343  0.3188502579942565  0.0095552818760112
  0.0425062480592757  0.0838323793558828  0.1043859155562217
  0.1271315015133681  0.8433702157155594  0.1884721533665186
  0.2971604591433064  0.3312324051298532  0.3502995302478382
  0.3766238800878625  0.0810213387212002  0.4342291839132386
  0.4784131408223189  0.8377360240679508  0.0084139858339256
  0.2928807292451623  0.8351537547447592  0.3545520281186683
  0.4723058768136639  0.6848440363146935  0.2863126888710710
  0.2595656068488452  0.6699285451527075  0.0879808199093688
  0.3781436009722938  0.3954628348349658  0.1829541615181824
  0.4611452909745637  0.1648846580651480  0.2720450762228026
  0.1345279042736607  0.6659787487217699  0.4327150953929930
  0.2247848068564906  0.4147346242054581  0.0089470645826779
  0.2909513088296336  0.1617832755254085  0.1027606909111540
  0.3864664521580679  0.9265077428682957  0.1990528614546037
  0.0435423407277113  0.4205251521432771  0.3517957063407167
  0.1273758629826744  0.1714240619823499  0.4340237665485063
  0.1995789946739492  0.9290219221500138  0.0110227369295117
  0.0478105920385516  0.9244679086730585  0.3536260821049311
  0.2176048672987960  0.5798762724108499  0.7657632262405087
  0.0328268791805186  0.6101535011113981  0.6002965189311595
  0.1292661019748493  0.3162524811173952  0.7000745507532997
  0.2123208342333953  0.0817508264355311  0.7724668651516353
  0.3818494991335868  0.5828636724602489  0.9362585252411719
  0.4487547721863763  0.3189516740785834  0.5100866542913423
  0.0403705645467056  0.0849087394898405  0.6038132043653235
  0.1319697404016509  0.8418057573684834  0.6858785645032341
  0.2956502153122997  0.3286937305637565  0.8521108795242469
  0.3772106331597627  0.0808364827039298  0.9355471576544332
  0.4756524899176569  0.8378732908092417  0.5070816651816870
  0.2928395601910267  0.8334918485832503  0.8559125041344799
  0.4709502077425398  0.6837818568770970  0.7858087935108671
  0.2634155047075595  0.6551693631405655  0.5944630493734380
  0.3738297307846778  0.3810397822255922  0.6851478808014235
  0.4614192678232527  0.1617545878084670  0.7742423374283689
  0.1317936736513730  0.6640559149223648  0.9306064181742713
  0.2247164142370579  0.4117554197486726  0.5086001869518810
  0.2897114890610908  0.1567693024304972  0.6018388321127262
  0.3841023667381123  0.9271835776813049  0.7017477956550806
  0.0425924528923431  0.4176440649400703  0.8521211138689893
  0.1287206179042286  0.1680657649322015  0.9366058879974659
  0.1965805414474886  0.9316587162716132  0.5097254019467528
  0.0510724495981236  0.9216741475870904  0.8542180379865840
  0.7190928853211034  0.5809201733721068  0.2666789034540429
  0.5389903250647308  0.6088208387786622  0.0995271273259988
  0.6313931810298286  0.3172451834281063  0.2014137576312649
  0.7123784620884379  0.0829506253353571  0.2727567220410592
  0.8819335562530028  0.5832688184958243  0.4377640035369197
  0.9492640461252932  0.3177970116948856  0.0105755886296066
  0.5411970998008258  0.0875130193763667  0.1040131428592872
  0.6332923384880189  0.8417874999466548  0.1869588190305151
  0.7971401758133325  0.3295684569886603  0.3525871426551603
  0.8766548013738316  0.0807514617308271  0.4353887629239281
  0.9781678657367863  0.8376171109590445  0.0093345827442803
  0.7924271197499309  0.8349754106775649  0.3571635241159754
  0.9701834482607836  0.6854547580480386  0.2878148103197233
  0.7672827312396393  0.6582861099221873  0.0953521145547356
  0.8754774499134612  0.3822789619574749  0.1853442940004655
  0.9630426245518535  0.1632451752967583  0.2740796046545100
  0.6342306893542329  0.6649870684661323  0.4327102611434910
  0.7237585165081555  0.4119957045718010  0.0102460664202155
  0.7905686127241296  0.1566380236457690  0.1025286062826183
  0.8833863731606115  0.9285970884260735  0.2032167437595334
  0.5440643660181408  0.4193205434692260  0.3526189344536022
  0.6266641513830180  0.1707449505961449  0.4344266178436200
  0.6910131359093299  0.9310225046007901  0.0116352223727105
  0.5482802499937378  0.9243737506370380  0.3515751887157137
  0.7173398939875781  0.5803026537770890  0.7667320761878500
  0.5325201938261301  0.6107409573360130  0.6001010718327251
  0.6294765096248369  0.3164060667668807  0.7002897699374060
  0.7114158268742088  0.0814634707388961  0.7730671642985669
  0.8811655126059534  0.5827222395916962  0.9373379231562566
  0.9490874727628125  0.3188630154986996  0.5106337942624535
  0.5400321076206680  0.0852314444150650  0.6036337096850914
  0.6317299027779839  0.8423515678930187  0.6864220288637242
  0.7956757458762880  0.3284514562421421  0.8528016575942630
  0.8761597723311709  0.0786619485984801  0.9364428069792510
  0.9751693966836399  0.8374336192527849  0.5087165908857472
  0.7927255924948611  0.8343774137821285  0.8576974795106622
  0.9697511943967214  0.6836254529812464  0.7857902947502069
  0.7629314153251343  0.6554183542833698  0.5950906563278409
  0.8737418048333154  0.3806312677037482  0.6858660786796165
  0.9621173787954405  0.1609984062137215  0.7753227416129391
  0.6328198917929484  0.6653861469027760  0.9336147100319252
  0.7244951626585916  0.4113151160548583  0.5096914287994636
  0.7898855079154998  0.1561759026158072  0.6025375855400412
  0.8848348012668126  0.9271085500107858  0.7032916905742610
  0.5425167035063581  0.4188600779484091  0.8518876001461848
  0.6265171443790010  0.1707704625549908  0.9348297285249600
  0.6961864712336236  0.9314697827548670  0.5102246652437117
  0.5463155743380881  0.9223987794795150  0.8542062822811332
 
  0.00000000E+00  0.00000000E+00  0.00000000E+00
  0.00000000E+00  0.00000000E+00  0.00000000E+00
  0.00000000E+00  0.00000000E+00  0.00000000E+00
  0.00000000E+00  0.00000000E+00  0.00000000E+00
  0.00000000E+00  0.00000000E+00  0.00000000E+00
  0.00000000E+00  0.00000000E+00  0.00000000E+00
  0.00000000E+00  0.00000000E+00  0.00000000E+00
  0.00000000E+00  0.00000000E+00  0.00000000E+00
  0.00000000E+00  0.00000000E+00  0.00000000E+00
  0.00000000E+00  0.00000000E+00  0.00000000E+00
  0.00000000E+00  0.00000000E+00  0.00000000E+00
  0.00000000E+00  0.00000000E+00  0.00000000E+00
  0.00000000E+00  0.00000000E+00  0.00000000E+00
  0.00000000E+00  0.00000000E+00  0.00000000E+00
  0.00000000E+00  0.00000000E+00  0.00000000E+00
  0.00000000E+00  0.00000000E+00  0.00000000E+00
  0.00000000E+00  0.00000000E+00  0.00000000E+00
  0.00000000E+00  0.00000000E+00  0.00000000E+00
  0.00000000E+00  0.00000000E+00  0.00000000E+00
  0.00000000E+00  0.00000000E+00  0.00000000E+00
  0.00000000E+00  0.00000000E+00  0.00000000E+00
  0.00000000E+00  0.00000000E+00  0.00000000E+00
  0.00000000E+00  0.00000000E+00  0.00000000E+00
  0.00000000E+00  0.00000000E+00  0.00000000E+00
  0.00000000E+00  0.00000000E+00  0.00000000E+00
  0.00000000E+00  0.00000000E+00  0.00000000E+00
  0.00000000E+00  0.00000000E+00  0.00000000E+00
  0.00000000E+00  0.00000000E+00  0.00000000E+00
  0.00000000E+00  0.00000000E+00  0.00000000E+00
  0.00000000E+00  0.00000000E+00  0.00000000E+00
  0.00000000E+00  0.00000000E+00  0.00000000E+00
  0.00000000E+00  0.00000000E+00  0.00000000E+00
  0.00000000E+00  0.00000000E+00  0.00000000E+00
  0.00000000E+00  0.00000000E+00  0.00000000E+00
  0.00000000E+00  0.00000000E+00  0.00000000E+00
  0.00000000E+00  0.00000000E+00  0.00000000E+00
  0.00000000E+00  0.00000000E+00  0.00000000E+00
  0.00000000E+00  0.00000000E+00  0.00000000E+00
  0.00000000E+00  0.00000000E+00  0.00000000E+00
  0.00000000E+00  0.00000000E+00  0.00000000E+00
  0.00000000E+00  0.00000000E+00  0.00000000E+00
  0.00000000E+00  0.00000000E+00  0.00000000E+00
  0.00000000E+00  0.00000000E+00  0.00000000E+00
  0.00000000E+00  0.00000000E+00  0.00000000E+00
  0.00000000E+00  0.00000000E+00  0.00000000E+00
  0.00000000E+00  0.00000000E+00  0.00000000E+00
  0.00000000E+00  0.00000000E+00  0.00000000E+00
  0.00000000E+00  0.00000000E+00  0.00000000E+00
  0.00000000E+00  0.00000000E+00  0.00000000E+00
  0.00000000E+00  0.00000000E+00  0.00000000E+00
  0.00000000E+00  0.00000000E+00  0.00000000E+00
  0.00000000E+00  0.00000000E+00  0.00000000E+00
  0.00000000E+00  0.00000000E+00  0.00000000E+00
  0.00000000E+00  0.00000000E+00  0.00000000E+00
  0.00000000E+00  0.00000000E+00  0.00000000E+00
  0.00000000E+00  0.00000000E+00  0.00000000E+00
  0.00000000E+00  0.00000000E+00  0.00000000E+00
  0.00000000E+00  0.00000000E+00  0.00000000E+00
  0.00000000E+00  0.00000000E+00  0.00000000E+00
  0.00000000E+00  0.00000000E+00  0.00000000E+00
  0.00000000E+00  0.00000000E+00  0.00000000E+00
  0.00000000E+00  0.00000000E+00  0.00000000E+00
  0.00000000E+00  0.00000000E+00  0.00000000E+00
  0.00000000E+00  0.00000000E+00  0.00000000E+00
  0.00000000E+00  0.00000000E+00  0.00000000E+00
  0.00000000E+00  0.00000000E+00  0.00000000E+00
  0.00000000E+00  0.00000000E+00  0.00000000E+00
  0.00000000E+00  0.00000000E+00  0.00000000E+00
  0.00000000E+00  0.00000000E+00  0.00000000E+00
  0.00000000E+00  0.00000000E+00  0.00000000E+00
  0.00000000E+00  0.00000000E+00  0.00000000E+00
  0.00000000E+00  0.00000000E+00  0.00000000E+00
  0.00000000E+00  0.00000000E+00  0.00000000E+00
  0.00000000E+00  0.00000000E+00  0.00000000E+00
  0.00000000E+00  0.00000000E+00  0.00000000E+00
  0.00000000E+00  0.00000000E+00  0.00000000E+00
  0.00000000E+00  0.00000000E+00  0.00000000E+00
  0.00000000E+00  0.00000000E+00  0.00000000E+00
  0.00000000E+00  0.00000000E+00  0.00000000E+00
  0.00000000E+00  0.00000000E+00  0.00000000E+00
  0.00000000E+00  0.00000000E+00  0.00000000E+00
  0.00000000E+00  0.00000000E+00  0.00000000E+00
  0.00000000E+00  0.00000000E+00  0.00000000E+00
  0.00000000E+00  0.00000000E+00  0.00000000E+00
  0.00000000E+00  0.00000000E+00  0.00000000E+00
  0.00000000E+00  0.00000000E+00  0.00000000E+00
  0.00000000E+00  0.00000000E+00  0.00000000E+00
  0.00000000E+00  0.00000000E+00  0.00000000E+00
  0.00000000E+00  0.00000000E+00  0.00000000E+00
  0.00000000E+00  0.00000000E+00  0.00000000E+00
  0.00000000E+00  0.00000000E+00  0.00000000E+00
  0.00000000E+00  0.00000000E+00  0.00000000E+00
  0.00000000E+00  0.00000000E+00  0.00000000E+00
  0.00000000E+00  0.00000000E+00  0.00000000E+00
  0.00000000E+00  0.00000000E+00  0.00000000E+00
  0.00000000E+00  0.00000000E+00  0.00000000E+00
  0.00000000E+00  0.00000000E+00  0.00000000E+00
  0.00000000E+00  0.00000000E+00  0.00000000E+00
  0.00000000E+00  0.00000000E+00  0.00000000E+00
  0.00000000E+00  0.00000000E+00  0.00000000E+00
  0.00000000E+00  0.00000000E+00  0.00000000E+00
  0.00000000E+00  0.00000000E+00  0.00000000E+00
  0.00000000E+00  0.00000000E+00  0.00000000E+00
  0.00000000E+00  0.00000000E+00  0.00000000E+00
  0.00000000E+00  0.00000000E+00  0.00000000E+00
  0.00000000E+00  0.00000000E+00  0.00000000E+00
  0.00000000E+00  0.00000000E+00  0.00000000E+00
  0.00000000E+00  0.00000000E+00  0.00000000E+00
  0.00000000E+00  0.00000000E+00  0.00000000E+00
  0.00000000E+00  0.00000000E+00  0.00000000E+00
  0.00000000E+00  0.00000000E+00  0.00000000E+00
  0.00000000E+00  0.00000000E+00  0.00000000E+00
  0.00000000E+00  0.00000000E+00  0.00000000E+00
  0.00000000E+00  0.00000000E+00  0.00000000E+00
  0.00000000E+00  0.00000000E+00  0.00000000E+00
  0.00000000E+00  0.00000000E+00  0.00000000E+00
  0.00000000E+00  0.00000000E+00  0.00000000E+00
  0.00000000E+00  0.00000000E+00  0.00000000E+00
  0.00000000E+00  0.00000000E+00  0.00000000E+00
  0.00000000E+00  0.00000000E+00  0.00000000E+00
  0.00000000E+00  0.00000000E+00  0.00000000E+00
  0.00000000E+00  0.00000000E+00  0.00000000E+00
  0.00000000E+00  0.00000000E+00  0.00000000E+00
  0.00000000E+00  0.00000000E+00  0.00000000E+00
  0.00000000E+00  0.00000000E+00  0.00000000E+00
  0.00000000E+00  0.00000000E+00  0.00000000E+00
  0.00000000E+00  0.00000000E+00  0.00000000E+00
  0.00000000E+00  0.00000000E+00  0.00000000E+00
  0.00000000E+00  0.00000000E+00  0.00000000E+00
  0.00000000E+00  0.00000000E+00  0.00000000E+00
  0.00000000E+00  0.00000000E+00  0.00000000E+00
  0.00000000E+00  0.00000000E+00  0.00000000E+00
  0.00000000E+00  0.00000000E+00  0.00000000E+00
  0.00000000E+00  0.00000000E+00  0.00000000E+00
  0.00000000E+00  0.00000000E+00  0.00000000E+00
  0.00000000E+00  0.00000000E+00  0.00000000E+00
  0.00000000E+00  0.00000000E+00  0.00000000E+00
  0.00000000E+00  0.00000000E+00  0.00000000E+00
  0.00000000E+00  0.00000000E+00  0.00000000E+00
  0.00000000E+00  0.00000000E+00  0.00000000E+00
  0.00000000E+00  0.00000000E+00  0.00000000E+00
  0.00000000E+00  0.00000000E+00  0.00000000E+00
  0.00000000E+00  0.00000000E+00  0.00000000E+00
  0.00000000E+00  0.00000000E+00  0.00000000E+00
  0.00000000E+00  0.00000000E+00  0.00000000E+00
  0.00000000E+00  0.00000000E+00  0.00000000E+00
  0.00000000E+00  0.00000000E+00  0.00000000E+00
  0.00000000E+00  0.00000000E+00  0.00000000E+00
  0.00000000E+00  0.00000000E+00  0.00000000E+00
  0.00000000E+00  0.00000000E+00  0.00000000E+00
  0.00000000E+00  0.00000000E+00  0.00000000E+00
  0.00000000E+00  0.00000000E+00  0.00000000E+00
  0.00000000E+00  0.00000000E+00  0.00000000E+00
  0.00000000E+00  0.00000000E+00  0.00000000E+00
  0.00000000E+00  0.00000000E+00  0.00000000E+00
  0.00000000E+00  0.00000000E+00  0.00000000E+00
  0.00000000E+00  0.00000000E+00  0.00000000E+00
  0.00000000E+00  0.00000000E+00  0.00000000E+00
  0.00000000E+00  0.00000000E+00  0.00000000E+00
  0.00000000E+00  0.00000000E+00  0.00000000E+00
  0.00000000E+00  0.00000000E+00  0.00000000E+00
  0.00000000E+00  0.00000000E+00  0.00000000E+00
  0.00000000E+00  0.00000000E+00  0.00000000E+00
  0.00000000E+00  0.00000000E+00  0.00000000E+00
  0.00000000E+00  0.00000000E+00  0.00000000E+00
  0.00000000E+00  0.00000000E+00  0.00000000E+00
  0.00000000E+00  0.00000000E+00  0.00000000E+00
  0.00000000E+00  0.00000000E+00  0.00000000E+00
  0.00000000E+00  0.00000000E+00  0.00000000E+00
  0.00000000E+00  0.00000000E+00  0.00000000E+00
  0.00000000E+00  0.00000000E+00  0.00000000E+00
  0.00000000E+00  0.00000000E+00  0.00000000E+00
  0.00000000E+00  0.00000000E+00  0.00000000E+00
  0.00000000E+00  0.00000000E+00  0.00000000E+00
  0.00000000E+00  0.00000000E+00  0.00000000E+00
  0.00000000E+00  0.00000000E+00  0.00000000E+00
  0.00000000E+00  0.00000000E+00  0.00000000E+00
  0.00000000E+00  0.00000000E+00  0.00000000E+00
  0.00000000E+00  0.00000000E+00  0.00000000E+00
  0.00000000E+00  0.00000000E+00  0.00000000E+00
  0.00000000E+00  0.00000000E+00  0.00000000E+00
  0.00000000E+00  0.00000000E+00  0.00000000E+00
  0.00000000E+00  0.00000000E+00  0.00000000E+00
  0.00000000E+00  0.00000000E+00  0.00000000E+00
  0.00000000E+00  0.00000000E+00  0.00000000E+00
  0.00000000E+00  0.00000000E+00  0.00000000E+00
  0.00000000E+00  0.00000000E+00  0.00000000E+00
  0.00000000E+00  0.00000000E+00  0.00000000E+00
  0.00000000E+00  0.00000000E+00  0.00000000E+00
  0.00000000E+00  0.00000000E+00  0.00000000E+00
  0.00000000E+00  0.00000000E+00  0.00000000E+00
