supercell of 100% icsd_608626.cif, 0% i 
   1.00000000000000     
    -9.2983934308592193    0.0067394564604941   -0.0107900967012200
    -4.6550224244020963    8.0583842349283561   -0.0109265196392946
    -0.0115504443236120    0.0068630451554725   -9.9765197041995997
   Al   Ge   Be   N 
    26     5     5    36
Direct
  0.1057098546267454  0.0944526914096002  0.2955370699326423
  0.8816380342490859  0.2038572959610221  0.5504366767560853
  0.4484176144946233  0.0936927160981824  0.2988183209753856
  0.5686704602484340  0.2024442751756794  0.0386643229150181
  0.2195652760330944  0.2094964710653855  0.5489291291584735
  0.7818605573409769  0.0911734647594429  0.2962065185053646
  0.4530700141059043  0.0947702884973580  0.7914923515733321
  0.5655169068115171  0.1988655122400544  0.5501436666356767
  0.2197267695321301  0.5469253014474731  0.0370707496997795
  0.7855512809039524  0.4227822642674681  0.7907135488908494
  0.4463421576024871  0.4255664323970976  0.2995047350935849
  0.1045686591033714  0.4387872462739679  0.7887666341979056
  0.2117087260551855  0.5468197523949243  0.5537747209422221
  0.7800529537465053  0.4240874211852130  0.2986715838991216
  0.8837859030445827  0.5429638142009949  0.0436324887553567
  0.4406975483758870  0.4244537723102866  0.7909662075962771
  0.5614466632498889  0.5341579365315496  0.5456787084448180
  0.1039603624253189  0.7662301538229102  0.2999954073803224
  0.2160006801489018  0.8729424628667033  0.0458754859585966
  0.7914258463459802  0.7625330329737565  0.7835413578949471
  0.4437826320873342  0.7619698508977848  0.2984778728470445
  0.5623829073738449  0.8700762383640992  0.0458519599001548
  0.2125023038535403  0.8689726830379172  0.5485421006853599
  0.7818202039735525  0.7638326441472998  0.3032241418100483
  0.8898411594131446  0.8792065761575714  0.0369780388025447
  0.5676818011067439  0.8680078947283221  0.5453271162998661
  0.2206472428020376  0.2029982865995308  0.0446351836326286
  0.0989361914195541  0.0941265578116770  0.7965734005241671
  0.1072248649982583  0.4304308777751658  0.3028105023175840
  0.5604064128832462  0.5351803993797617  0.0477326751028500
  0.4426607271792804  0.7647506091058887  0.7920862864618741
  0.7861392279261636  0.0810195783895011  0.7862855087751441
  0.8831729523068717  0.2021590842608205  0.0396215176568120
  0.8871626527135916  0.5434851085027077  0.5494103579958818
  0.8895000421731893  0.8715156353524023  0.5497606022567325
  0.0933253705600663  0.7637044387110237  0.7831523801026634
  0.2211389448835348  0.2056235039642687  0.3543615393414754
  0.1063994559574866  0.0980544831937706  0.1031704449227391
  0.8851390704114053  0.2030015771893900  0.8598935336045983
  0.7827617586236926  0.0846837203396689  0.6096903595892016
  0.5561573389973589  0.2052653216395939  0.3555220169374564
  0.4435646530011681  0.0966899488820161  0.1040856866005484
  0.2210708627661049  0.2054549811834008  0.8542401968613973
  0.1114231493494700  0.0936813581787916  0.6080449589908525
  0.8895366349980804  0.2052305159901522  0.3588047769900911
  0.7840638898110512  0.0986585867049072  0.1052526865657342
  0.5608180684927149  0.2041402474419982  0.8519036021144899
  0.4433357297355514  0.0929377759705474  0.6034795457661275
  0.2211029932643314  0.5380780450299909  0.3559747005764322
  0.1129735089730843  0.4265111417442711  0.1064995921066867
  0.8874202340311257  0.5404497012164882  0.8565600487874647
  0.7814390886299236  0.4302030757841067  0.6031387299012962
  0.5550224049342773  0.5398662425031446  0.3541112209011743
  0.4442506486769702  0.4289437566085184  0.1043300237105100
  0.2182848736636345  0.5449180004631984  0.8504639162303533
  0.1032465584878537  0.4296221204841331  0.6017763313231654
  0.8893902560241571  0.5374298790617260  0.3569760592376028
  0.7802143576965861  0.4218384855732609  0.1039057447941190
  0.5543512508315089  0.5408752572586621  0.8553988369585142
  0.4432181822580574  0.4285538757474470  0.6020539583624256
  0.2221959146319250  0.8731120100674872  0.3563179813812383
  0.1112405542327153  0.7609588889295296  0.1084114956714970
  0.8939589982781371  0.8756534273053802  0.8502397328959646
  0.7869656639515412  0.7532677833127579  0.5971684286843768
  0.5543193701602362  0.8721776447378247  0.3539091374520993
  0.4447740474743895  0.7604298494840691  0.1037690662736210
  0.2220199960418725  0.8710224224708583  0.8547893221273029
  0.1016285552288068  0.7652357461752928  0.6089483797746666
  0.8885836829262672  0.8742463849663338  0.3613416227998201
  0.7803312149608246  0.7625953093133688  0.1077844206028331
  0.5574117047394509  0.8705120296628479  0.8540433375324312
  0.4433434216597263  0.7616381323202859  0.6047492332525053
 
  0.00000000E+00  0.00000000E+00  0.00000000E+00
  0.00000000E+00  0.00000000E+00  0.00000000E+00
  0.00000000E+00  0.00000000E+00  0.00000000E+00
  0.00000000E+00  0.00000000E+00  0.00000000E+00
  0.00000000E+00  0.00000000E+00  0.00000000E+00
  0.00000000E+00  0.00000000E+00  0.00000000E+00
  0.00000000E+00  0.00000000E+00  0.00000000E+00
  0.00000000E+00  0.00000000E+00  0.00000000E+00
  0.00000000E+00  0.00000000E+00  0.00000000E+00
  0.00000000E+00  0.00000000E+00  0.00000000E+00
  0.00000000E+00  0.00000000E+00  0.00000000E+00
  0.00000000E+00  0.00000000E+00  0.00000000E+00
  0.00000000E+00  0.00000000E+00  0.00000000E+00
  0.00000000E+00  0.00000000E+00  0.00000000E+00
  0.00000000E+00  0.00000000E+00  0.00000000E+00
  0.00000000E+00  0.00000000E+00  0.00000000E+00
  0.00000000E+00  0.00000000E+00  0.00000000E+00
  0.00000000E+00  0.00000000E+00  0.00000000E+00
  0.00000000E+00  0.00000000E+00  0.00000000E+00
  0.00000000E+00  0.00000000E+00  0.00000000E+00
  0.00000000E+00  0.00000000E+00  0.00000000E+00
  0.00000000E+00  0.00000000E+00  0.00000000E+00
  0.00000000E+00  0.00000000E+00  0.00000000E+00
  0.00000000E+00  0.00000000E+00  0.00000000E+00
  0.00000000E+00  0.00000000E+00  0.00000000E+00
  0.00000000E+00  0.00000000E+00  0.00000000E+00
  0.00000000E+00  0.00000000E+00  0.00000000E+00
  0.00000000E+00  0.00000000E+00  0.00000000E+00
  0.00000000E+00  0.00000000E+00  0.00000000E+00
  0.00000000E+00  0.00000000E+00  0.00000000E+00
  0.00000000E+00  0.00000000E+00  0.00000000E+00
  0.00000000E+00  0.00000000E+00  0.00000000E+00
  0.00000000E+00  0.00000000E+00  0.00000000E+00
  0.00000000E+00  0.00000000E+00  0.00000000E+00
  0.00000000E+00  0.00000000E+00  0.00000000E+00
  0.00000000E+00  0.00000000E+00  0.00000000E+00
  0.00000000E+00  0.00000000E+00  0.00000000E+00
  0.00000000E+00  0.00000000E+00  0.00000000E+00
  0.00000000E+00  0.00000000E+00  0.00000000E+00
  0.00000000E+00  0.00000000E+00  0.00000000E+00
  0.00000000E+00  0.00000000E+00  0.00000000E+00
  0.00000000E+00  0.00000000E+00  0.00000000E+00
  0.00000000E+00  0.00000000E+00  0.00000000E+00
  0.00000000E+00  0.00000000E+00  0.00000000E+00
  0.00000000E+00  0.00000000E+00  0.00000000E+00
  0.00000000E+00  0.00000000E+00  0.00000000E+00
  0.00000000E+00  0.00000000E+00  0.00000000E+00
  0.00000000E+00  0.00000000E+00  0.00000000E+00
  0.00000000E+00  0.00000000E+00  0.00000000E+00
  0.00000000E+00  0.00000000E+00  0.00000000E+00
  0.00000000E+00  0.00000000E+00  0.00000000E+00
  0.00000000E+00  0.00000000E+00  0.00000000E+00
  0.00000000E+00  0.00000000E+00  0.00000000E+00
  0.00000000E+00  0.00000000E+00  0.00000000E+00
  0.00000000E+00  0.00000000E+00  0.00000000E+00
  0.00000000E+00  0.00000000E+00  0.00000000E+00
  0.00000000E+00  0.00000000E+00  0.00000000E+00
  0.00000000E+00  0.00000000E+00  0.00000000E+00
  0.00000000E+00  0.00000000E+00  0.00000000E+00
  0.00000000E+00  0.00000000E+00  0.00000000E+00
  0.00000000E+00  0.00000000E+00  0.00000000E+00
  0.00000000E+00  0.00000000E+00  0.00000000E+00
  0.00000000E+00  0.00000000E+00  0.00000000E+00
  0.00000000E+00  0.00000000E+00  0.00000000E+00
  0.00000000E+00  0.00000000E+00  0.00000000E+00
  0.00000000E+00  0.00000000E+00  0.00000000E+00
  0.00000000E+00  0.00000000E+00  0.00000000E+00
  0.00000000E+00  0.00000000E+00  0.00000000E+00
  0.00000000E+00  0.00000000E+00  0.00000000E+00
  0.00000000E+00  0.00000000E+00  0.00000000E+00
  0.00000000E+00  0.00000000E+00  0.00000000E+00
  0.00000000E+00  0.00000000E+00  0.00000000E+00
