supercell of icsd_181358.cif            
   1.00000000000000     
     9.9470145093806259    0.0171956272334784   -0.0201889893001627
    -4.9585253810251126    8.6775548124262265    0.0172110539873903
    -0.0222571611899362    0.0088973812677547   10.5250021867738273
   N    Ga   Y 
    36    28     8
Direct
  0.2334845148705824  0.1443012971161579  0.4340996448009804
  0.1103544815028528  0.2278294033546970  0.1863988358744351
  0.8882125416552142  0.1151077977442228  0.9426808773472430
  0.7600433130871167  0.1867568197357414  0.6726542241226809
  0.5522594088808361  0.1041705904140784  0.4361923843235687
  0.4467834237600030  0.2228890520871403  0.1955903093221352
  0.2226214159744018  0.1099228617441241  0.9627197700057053
  0.0932045430082908  0.2408673412209055  0.6839258796517527
  0.9050838461545609  0.1409520802905533  0.4267294389268343
  0.7733367669074767  0.2210602391130507  0.1911553830777919
  0.5721704284356974  0.1467535951233430  0.9274061276932102
  0.4522267311448402  0.2063991042686979  0.6708716198102351
  0.2254312936057730  0.4482825091629010  0.4346507912412818
  0.1124282441408226  0.5558140058320262  0.1907325671730220
  0.8876029132858747  0.4449746388713578  0.9581263706554282
  0.7861813611576238  0.5495774841016541  0.6724616247443294
  0.5541433032427960  0.4442453974545799  0.4419044396817640
  0.4276346647254954  0.5255298685536260  0.1872127759135083
  0.2207014128156572  0.4456876887308070  0.9373974778947698
  0.1362959957918477  0.5716089352452229  0.6774791564173910
  0.8914069727159699  0.4418300554595049  0.4397416877418365
  0.7737778902245438  0.5501525826944942  0.2003105229242692
  0.5572558646399486  0.4441421597310651  0.9586435260561856
  0.4364213003811486  0.5650591833946663  0.6854287189218198
  0.2381581654686755  0.7616358753846910  0.4297996505105743
  0.1147776690095625  0.8919889144602351  0.2092710077174829
  0.8894395927898699  0.7759244741288640  0.9792651056912121
  0.7724823690646119  0.8906108418646141  0.7110765301987385
  0.5380433224268444  0.7681162797077405  0.4483182858200010
  0.4317716272574259  0.9034709759106718  0.1821673079790429
  0.1854095759403052  0.7610243701648756  0.9333561903771184
  0.1249961980498284  0.8847265890740132  0.6810252200321543
  0.8717212239176320  0.7548681713760530  0.4284017525936434
  0.7998701618597082  0.9061988306479734  0.1942450592968825
  0.5648714808803064  0.7631450900483401  0.9492591030265061
  0.4438574888879856  0.8858805320184260  0.7062628057187226
  0.2265754592600757  0.1256277865208375  0.2463988595023423
  0.1105291390232495  0.2262669887934763  0.0026549625453924
  0.8796446321657072  0.1071985197067420  0.7543673594964559
  0.7761719950066066  0.2208021206253008  0.4896536791270023
  0.5510482001042476  0.1099092699362387  0.2501325368603915
  0.4494086566975781  0.2288202133767783  0.0099327327934020
  0.1128240180089861  0.2404317274010026  0.4950071561925498
  0.8965929594212412  0.1226439216912780  0.2451532597356163
  0.7775072208839191  0.2285864202272094  0.0056070265556514
  0.5582630924782350  0.1096213107604456  0.7394006216863218
  0.4486885644369281  0.2246196367968807  0.4895884740969763
  0.2181603758148185  0.4395392149677235  0.2492324159368735
  0.1048225219215624  0.5535272377143130  0.0045657841426845
  0.7763250339460299  0.5486809270120929  0.4893429502589015
  0.5513286874356140  0.4379489597513881  0.2533664052995093
  0.4404405287225330  0.5440732106710584  0.0036036035443558
  0.2250856120381641  0.4553205461262948  0.7480147822967211
  0.1196287420579409  0.5552678457403104  0.4930024554902062
  0.8889137199610673  0.4420720245591596  0.2512314886869973
  0.7753344694628694  0.5505497231928018  0.0174979194905447
  0.4381532051593027  0.5550178242484520  0.4988090631504605
  0.2257676884544182  0.7753292149033584  0.2470531810268142
  0.1088460008164347  0.8887404430198487  0.0190495950582061
  0.2195835138003090  0.7734578809017094  0.7443465135915019
  0.8865358989833965  0.7737074402707833  0.2441398495369285
  0.7848551254957954  0.8930068574007421  0.0067167859429702
  0.5553752138490253  0.7737296336315964  0.7545305238496809
  0.4423604610536742  0.8830314117214257  0.5055134370182515
  0.2202858489078565  0.1164257252926291  0.7461959501026172
  0.8977750389409636  0.4258525967806719  0.7436752059896676
  0.5559232701869803  0.4394867735621020  0.7455173987177446
  0.8975412602302058  0.7705392502894313  0.7665041059186919
  0.7791414196293829  0.8994621867854136  0.4986282060311353
  0.5475485393408306  0.7730047314805191  0.2368495461827251
  0.4387029458712135  0.8958525533724071  0.9714541517513098
  0.1198494327707209  0.8903422345364476  0.4702998391081721
 
  0.00000000E+00  0.00000000E+00  0.00000000E+00
  0.00000000E+00  0.00000000E+00  0.00000000E+00
  0.00000000E+00  0.00000000E+00  0.00000000E+00
  0.00000000E+00  0.00000000E+00  0.00000000E+00
  0.00000000E+00  0.00000000E+00  0.00000000E+00
  0.00000000E+00  0.00000000E+00  0.00000000E+00
  0.00000000E+00  0.00000000E+00  0.00000000E+00
  0.00000000E+00  0.00000000E+00  0.00000000E+00
  0.00000000E+00  0.00000000E+00  0.00000000E+00
  0.00000000E+00  0.00000000E+00  0.00000000E+00
  0.00000000E+00  0.00000000E+00  0.00000000E+00
  0.00000000E+00  0.00000000E+00  0.00000000E+00
  0.00000000E+00  0.00000000E+00  0.00000000E+00
  0.00000000E+00  0.00000000E+00  0.00000000E+00
  0.00000000E+00  0.00000000E+00  0.00000000E+00
  0.00000000E+00  0.00000000E+00  0.00000000E+00
  0.00000000E+00  0.00000000E+00  0.00000000E+00
  0.00000000E+00  0.00000000E+00  0.00000000E+00
  0.00000000E+00  0.00000000E+00  0.00000000E+00
  0.00000000E+00  0.00000000E+00  0.00000000E+00
  0.00000000E+00  0.00000000E+00  0.00000000E+00
  0.00000000E+00  0.00000000E+00  0.00000000E+00
  0.00000000E+00  0.00000000E+00  0.00000000E+00
  0.00000000E+00  0.00000000E+00  0.00000000E+00
  0.00000000E+00  0.00000000E+00  0.00000000E+00
  0.00000000E+00  0.00000000E+00  0.00000000E+00
  0.00000000E+00  0.00000000E+00  0.00000000E+00
  0.00000000E+00  0.00000000E+00  0.00000000E+00
  0.00000000E+00  0.00000000E+00  0.00000000E+00
  0.00000000E+00  0.00000000E+00  0.00000000E+00
  0.00000000E+00  0.00000000E+00  0.00000000E+00
  0.00000000E+00  0.00000000E+00  0.00000000E+00
  0.00000000E+00  0.00000000E+00  0.00000000E+00
  0.00000000E+00  0.00000000E+00  0.00000000E+00
  0.00000000E+00  0.00000000E+00  0.00000000E+00
  0.00000000E+00  0.00000000E+00  0.00000000E+00
  0.00000000E+00  0.00000000E+00  0.00000000E+00
  0.00000000E+00  0.00000000E+00  0.00000000E+00
  0.00000000E+00  0.00000000E+00  0.00000000E+00
  0.00000000E+00  0.00000000E+00  0.00000000E+00
  0.00000000E+00  0.00000000E+00  0.00000000E+00
  0.00000000E+00  0.00000000E+00  0.00000000E+00
  0.00000000E+00  0.00000000E+00  0.00000000E+00
  0.00000000E+00  0.00000000E+00  0.00000000E+00
  0.00000000E+00  0.00000000E+00  0.00000000E+00
  0.00000000E+00  0.00000000E+00  0.00000000E+00
  0.00000000E+00  0.00000000E+00  0.00000000E+00
  0.00000000E+00  0.00000000E+00  0.00000000E+00
  0.00000000E+00  0.00000000E+00  0.00000000E+00
  0.00000000E+00  0.00000000E+00  0.00000000E+00
  0.00000000E+00  0.00000000E+00  0.00000000E+00
  0.00000000E+00  0.00000000E+00  0.00000000E+00
  0.00000000E+00  0.00000000E+00  0.00000000E+00
  0.00000000E+00  0.00000000E+00  0.00000000E+00
  0.00000000E+00  0.00000000E+00  0.00000000E+00
  0.00000000E+00  0.00000000E+00  0.00000000E+00
  0.00000000E+00  0.00000000E+00  0.00000000E+00
  0.00000000E+00  0.00000000E+00  0.00000000E+00
  0.00000000E+00  0.00000000E+00  0.00000000E+00
  0.00000000E+00  0.00000000E+00  0.00000000E+00
  0.00000000E+00  0.00000000E+00  0.00000000E+00
  0.00000000E+00  0.00000000E+00  0.00000000E+00
  0.00000000E+00  0.00000000E+00  0.00000000E+00
  0.00000000E+00  0.00000000E+00  0.00000000E+00
  0.00000000E+00  0.00000000E+00  0.00000000E+00
  0.00000000E+00  0.00000000E+00  0.00000000E+00
  0.00000000E+00  0.00000000E+00  0.00000000E+00
  0.00000000E+00  0.00000000E+00  0.00000000E+00
  0.00000000E+00  0.00000000E+00  0.00000000E+00
  0.00000000E+00  0.00000000E+00  0.00000000E+00
  0.00000000E+00  0.00000000E+00  0.00000000E+00
  0.00000000E+00  0.00000000E+00  0.00000000E+00
