supercell of icsd_608626.cif
1.0
  9.38609321402 9.61583646e-08 1.57590936e-08
  -3.12869768249 5.41857563574 5.8364812e-09
  1.6841493e-08 2.0608554e-08 10.027846636
 Al Gd  N 
23 1 24 
direct
    0.2222251468269781   0.1666754438092168   0.2498387516238169
    0.1111081904326544   0.3333245591597092   0.9998387820117133
    0.8888918134936448   0.6666754438092166   0.7498387516238171
    0.7777748570993210   0.8333245591597092   0.4998387820117134
    0.5555584801603114   0.1666754438092166   0.2498387516238170
    0.4444415237659879   0.3333245591597094   0.9998387820117134
    0.2222251468269782   0.6666754438092168   0.7498387516238170
    0.1111081904326545   0.8333245591597092   0.4998387820117134
    0.8888918134936451   0.1666754438092171   0.2498387516238167
    0.7777748570993216   0.3333245591597089   0.9998387820117137
    0.5555584801603115   0.6666754438092162   0.7498387516238170
    0.4444415237659881   0.8333245591597089   0.4998387820117131
    0.2222251468269781   0.1666754438092168   0.7498387516238171
    0.1111081904326544   0.3333245591597093   0.4998387820117132
    0.8888918134936448   0.6666754438092166   0.2498387516238169
    0.7777748570993211   0.8333245591597093   0.9998387820117134
    0.5555584801603115   0.1666754438092166   0.7498387516238170
    0.4444415237659878   0.3333245591597091   0.4998387820117135
    0.2222251468269783   0.6666754438092167   0.2498387516238170
    0.1111081904326545   0.8333245591597092   0.9998387820117133
    0.8888918134936449   0.1666754438092166   0.7498387516238170
    0.7777748570993215   0.3333245591597089   0.4998387820117134
    0.5555584801603115   0.6666754438092166   0.2498387516238165
    0.4444415237659879   0.8333245591597083   0.9998387820117132
    0.2222251091170291   0.1666753437818763   0.4406612767126162
    0.1111082202900051   0.3333246532491976   0.1906611896518537
    0.8888917757836958   0.6666753437818763   0.9406612767126163
    0.7777748869566719   0.8333246532491976   0.6906611896518537
    0.5555584424503626   0.1666753437818762   0.4406612767126164
    0.4444415536233384   0.3333246532491977   0.1906611896518536
    0.2222251091170291   0.6666753437818762   0.9406612767126163
    0.1111082202900050   0.8333246532491976   0.6906611896518540
    0.8888917757836962   0.1666753437818760   0.4406612767126163
    0.7777748869566716   0.3333246532491971   0.1906611896518537
    0.5555584424503628   0.6666753437818755   0.9406612767126162
    0.4444415536233388   0.8333246532491971   0.6906611896518537
    0.2222251091170291   0.1666753437818762   0.9406612767126162
    0.1111082202900051   0.3333246532491977   0.6906611896518537
    0.8888917757836958   0.6666753437818763   0.4406612767126162
    0.7777748869566719   0.8333246532491976   0.1906611896518538
    0.5555584424503625   0.1666753437818764   0.9406612767126163
    0.4444415536233383   0.3333246532491978   0.6906611896518537
    0.2222251091170292   0.6666753437818760   0.4406612767126165
    0.1111082202900050   0.8333246532491976   0.1906611896518537
    0.8888917757836954   0.1666753437818764   0.9406612767126163
    0.7777748869566717   0.3333246532491975   0.6906611896518540
    0.5555584424503626   0.6666753437818754   0.4406612767126161
    0.4444415536233382   0.8333246532491967   0.1906611896518535
