generated by phonopy                    
   1.00000000000000     
    10.0351470768999995   -0.0000022330999784   -0.0000001056124209
    -5.0175765436399997    8.6906901959899994    0.0000001395531216
    -0.0000001735893656    0.0000001431815548   14.9533752540999991
   Pb   O    P 
    20    51    11
Direct
  0.9901146998230104  0.7622133757489564  0.1429074446178191
  0.9960281402833502  0.7669929528494137  0.6202129430480525
  0.9924865045603539  0.2574228015790112  0.3707444903069899
  0.9949926207823481  0.2526079458789141  0.8705747163601814
  0.2692706435707066  0.2312336102302197  0.1212002182411211
  0.2243146460542462  0.2191635741779479  0.6204765701054740
  0.7393262394877880  0.7402014568097783  0.3716325684458965
  0.7280943783926759  0.7397007746790507  0.8651779098529957
  0.7820295163598487  0.0264861088283084  0.1223706997705349
  0.7729648919704815  0.0007678578894712  0.6214853726817751
  0.2692201155949263  0.0009604199022064  0.3744985623648986
  0.2533111291165042  0.9902880324128631  0.8698197694243461
  0.6478321945508867  0.3132678070529309  0.0004130848252899
  0.6681430963067498  0.3292518257398669  0.5002861483024290
  0.3083540217763172  0.6655839679006519  0.9989789597181655
  0.3476476235585508  0.6731159082440925  0.5027681940422255
  0.3190140350615138  0.6559716276156635  0.2474351420988299
  0.3278686376874944  0.6600210355830853  0.7423172347441351
  0.6673483293185143  0.3784239166544126  0.2412404007666566
  0.6650302497189600  0.3356168834505269  0.7469792744353256
  0.6351477469354592  0.6527228102354670  0.1104191536658448
  0.5411600891656576  0.7168189453501981  0.1182009579030776
  0.4988424465266874  0.6445228633877704  0.6250928404767890
  0.4721176759537471  0.3169033495750497  0.3667028423698611
  0.4641647289806556  0.3073608443308444  0.8792615307520109
  0.3369047393595679  0.8357814980376688  0.1234378676665884
  0.3542835367225763  0.8508231383300711  0.6246998092825820
  0.6829152385007902  0.1516465014897079  0.3831200179413656
  0.6723824205963425  0.1511383058377618  0.8658641592947021
  0.1448323818783237  0.4955647188953947  0.1210679762977023
  0.1481391255505144  0.4954565770581283  0.6239256099735968
  0.8548962500642077  0.5267313209572748  0.3793250549839300
  0.8423908377014016  0.5306774785034847  0.8817583107699747
  0.7563601334217367  0.7367882468696010  0.0503705943413166
  0.7317221274694035  0.6545560795368885  0.5448160026698190
  0.2492212785183341  0.3288094192043474  0.4437252589365670
  0.2593440278182584  0.3376105256232549  0.9695532518595726
  0.3487107134976242  0.0642439891317892  0.0360715596679952
  0.3471257281160476  0.0702141690680023  0.5379924199412329
  0.6258969364673419  0.8989333901775325  0.4636940464192847
  0.6619976555131615  0.9291855463520093  0.9570697253489655
  0.9076479162466597  0.2777199477306382  0.0394549266051030
  0.9276326842268361  0.2671220140211616  0.5387191310621375
  0.0975299277206716  0.7444459993878141  0.4553017460098445
  0.0968600193221718  0.7260689198320875  0.9621211158845639
  0.2700174943939899  0.3497840018927931  0.2748917397807205
  0.2488898998355253  0.3335602612141741  0.8014330319166518
  0.7607129158569066  0.6553425200638756  0.2324294270627334
  0.7227817039128794  0.6502053951164086  0.7131267819950438
  0.6816999324091455  0.9282068759072288  0.2978574345139506
  0.6429525972875823  0.9036765823090533  0.7900139880442083
  0.3334260657713131  0.0592066195116345  0.2035450025621230
  0.3348039888169438  0.0663550161762103  0.7068619015105000
  0.0933424697296985  0.7279241070610141  0.2876131141623191
  0.0786724836013377  0.7366038426533521  0.7943623524020467
  0.9145376870300339  0.2860789933529233  0.2087489680554100
  0.9315440681018288  0.2624292289241836  0.7074274135553793
  0.5009339382478615  0.3703201591036347  0.1165911116894094
  0.5381793638640389  0.4104635432155774  0.6257041301979882
  0.4683523048507112  0.5707537686397686  0.3712944885697880
  0.4674182357945256  0.5651997169528471  0.8795907689228741
  0.5815064687750890  0.1037245038168706  0.1244676148214339
  0.5847620379447349  0.1278691521913373  0.6281099096088312
  0.4284505894948651  0.8971899333800692  0.3587758364498370
  0.4200671404821250  0.8930014821756700  0.8760448465672965
  0.8835254699303334  0.4862039360940074  0.1199191284106789
  0.8719472698310256  0.4508391005636341  0.6264692032253123
  0.1095770832674887  0.5243954022271566  0.3761326722353715
  0.0915816253678514  0.5147875555934505  0.8684944072755485
  0.0448959755524569  0.0714135654435140  0.1244606807102500
  0.9991426840540569  0.9950612457310299  0.6184550962995985
  0.6202419643448565  0.5902817453744404  0.6264925953586413
  0.3655348589656882  0.3887776758914967  0.3644188099081092
  0.3621414832258267  0.3840179336483587  0.8829122227068851
  0.4018459766053013  0.0131573179958693  0.1225427871199329
  0.4049574040556223  0.0255876838224438  0.6246187728442507
  0.6084985382920109  0.9747095913321928  0.3759511205213926
  0.6025723528890836  0.9737835891411066  0.8730511300601052
  0.9662589473483862  0.3876743662762294  0.1228408102755481
  0.9733771983335444  0.3721481688455270  0.6242679067482584
  0.0319694537506834  0.6288225863498340  0.3756310549825344
  0.0203153138241561  0.6248667106017933  0.8765361253827564
 
  0.00000000E+00  0.00000000E+00  0.00000000E+00
  0.00000000E+00  0.00000000E+00  0.00000000E+00
  0.00000000E+00  0.00000000E+00  0.00000000E+00
  0.00000000E+00  0.00000000E+00  0.00000000E+00
  0.00000000E+00  0.00000000E+00  0.00000000E+00
  0.00000000E+00  0.00000000E+00  0.00000000E+00
  0.00000000E+00  0.00000000E+00  0.00000000E+00
  0.00000000E+00  0.00000000E+00  0.00000000E+00
  0.00000000E+00  0.00000000E+00  0.00000000E+00
  0.00000000E+00  0.00000000E+00  0.00000000E+00
  0.00000000E+00  0.00000000E+00  0.00000000E+00
  0.00000000E+00  0.00000000E+00  0.00000000E+00
  0.00000000E+00  0.00000000E+00  0.00000000E+00
  0.00000000E+00  0.00000000E+00  0.00000000E+00
  0.00000000E+00  0.00000000E+00  0.00000000E+00
  0.00000000E+00  0.00000000E+00  0.00000000E+00
  0.00000000E+00  0.00000000E+00  0.00000000E+00
  0.00000000E+00  0.00000000E+00  0.00000000E+00
  0.00000000E+00  0.00000000E+00  0.00000000E+00
  0.00000000E+00  0.00000000E+00  0.00000000E+00
  0.00000000E+00  0.00000000E+00  0.00000000E+00
  0.00000000E+00  0.00000000E+00  0.00000000E+00
  0.00000000E+00  0.00000000E+00  0.00000000E+00
  0.00000000E+00  0.00000000E+00  0.00000000E+00
  0.00000000E+00  0.00000000E+00  0.00000000E+00
  0.00000000E+00  0.00000000E+00  0.00000000E+00
  0.00000000E+00  0.00000000E+00  0.00000000E+00
  0.00000000E+00  0.00000000E+00  0.00000000E+00
  0.00000000E+00  0.00000000E+00  0.00000000E+00
  0.00000000E+00  0.00000000E+00  0.00000000E+00
  0.00000000E+00  0.00000000E+00  0.00000000E+00
  0.00000000E+00  0.00000000E+00  0.00000000E+00
  0.00000000E+00  0.00000000E+00  0.00000000E+00
  0.00000000E+00  0.00000000E+00  0.00000000E+00
  0.00000000E+00  0.00000000E+00  0.00000000E+00
  0.00000000E+00  0.00000000E+00  0.00000000E+00
  0.00000000E+00  0.00000000E+00  0.00000000E+00
  0.00000000E+00  0.00000000E+00  0.00000000E+00
  0.00000000E+00  0.00000000E+00  0.00000000E+00
  0.00000000E+00  0.00000000E+00  0.00000000E+00
  0.00000000E+00  0.00000000E+00  0.00000000E+00
  0.00000000E+00  0.00000000E+00  0.00000000E+00
  0.00000000E+00  0.00000000E+00  0.00000000E+00
  0.00000000E+00  0.00000000E+00  0.00000000E+00
  0.00000000E+00  0.00000000E+00  0.00000000E+00
  0.00000000E+00  0.00000000E+00  0.00000000E+00
  0.00000000E+00  0.00000000E+00  0.00000000E+00
  0.00000000E+00  0.00000000E+00  0.00000000E+00
  0.00000000E+00  0.00000000E+00  0.00000000E+00
  0.00000000E+00  0.00000000E+00  0.00000000E+00
  0.00000000E+00  0.00000000E+00  0.00000000E+00
  0.00000000E+00  0.00000000E+00  0.00000000E+00
  0.00000000E+00  0.00000000E+00  0.00000000E+00
  0.00000000E+00  0.00000000E+00  0.00000000E+00
  0.00000000E+00  0.00000000E+00  0.00000000E+00
  0.00000000E+00  0.00000000E+00  0.00000000E+00
  0.00000000E+00  0.00000000E+00  0.00000000E+00
  0.00000000E+00  0.00000000E+00  0.00000000E+00
  0.00000000E+00  0.00000000E+00  0.00000000E+00
  0.00000000E+00  0.00000000E+00  0.00000000E+00
  0.00000000E+00  0.00000000E+00  0.00000000E+00
  0.00000000E+00  0.00000000E+00  0.00000000E+00
  0.00000000E+00  0.00000000E+00  0.00000000E+00
  0.00000000E+00  0.00000000E+00  0.00000000E+00
  0.00000000E+00  0.00000000E+00  0.00000000E+00
  0.00000000E+00  0.00000000E+00  0.00000000E+00
  0.00000000E+00  0.00000000E+00  0.00000000E+00
  0.00000000E+00  0.00000000E+00  0.00000000E+00
  0.00000000E+00  0.00000000E+00  0.00000000E+00
  0.00000000E+00  0.00000000E+00  0.00000000E+00
  0.00000000E+00  0.00000000E+00  0.00000000E+00
  0.00000000E+00  0.00000000E+00  0.00000000E+00
  0.00000000E+00  0.00000000E+00  0.00000000E+00
  0.00000000E+00  0.00000000E+00  0.00000000E+00
  0.00000000E+00  0.00000000E+00  0.00000000E+00
  0.00000000E+00  0.00000000E+00  0.00000000E+00
  0.00000000E+00  0.00000000E+00  0.00000000E+00
  0.00000000E+00  0.00000000E+00  0.00000000E+00
  0.00000000E+00  0.00000000E+00  0.00000000E+00
  0.00000000E+00  0.00000000E+00  0.00000000E+00
  0.00000000E+00  0.00000000E+00  0.00000000E+00
  0.00000000E+00  0.00000000E+00  0.00000000E+00
