S    Ga   Li                            
   1.00000000000000     
     0.0003527321358491   -0.0000043898512425    6.2988974589200000
     6.6203607434077965   -0.0021529377610098   -0.0000011357345386
    -0.0028921483948694    7.9913421245114051   -0.0926808149870752
   S    Ga   Li
     8     4     4
Direct
  0.1421692714855851  0.0756142738020031  0.1295259265054653
  0.1351603326931468  0.5873568532876945  0.8785115527418768
  0.1305742595122865  0.1003083829467997  0.6341026760780508
  0.6225498536806242  0.9381374179646400  0.8991548477242119
  0.1480281426711798  0.5695356564785996  0.3965191613942949
  0.6266526382386033  0.4094687365560290  0.1556719704865159
  0.6245977202701454  0.9116768220566627  0.3805270153807356
  0.6497811351457230  0.4416805805045740  0.6318747163764797
  0.1071710843957234  0.9290880197140226  0.8770507235721041
  0.5132888035740351  0.0764591201430775  0.1395416104264058
  0.0138400711810647  0.4342632580360259  0.6360359580161230
  0.5163547558147243  0.5800697451594417  0.3889443470053138
  0.0101079205970223  0.4213026446567980  0.1370059620110311
  0.0093313340847274  0.9100975316692370  0.3822604663909601
  0.5287817172985996  0.5876529697121384  0.8970449089767101
  0.5250038464049211  0.0946065226176600  0.6368846847313918
 
             NaN             NaN             NaN
             NaN             NaN             NaN
             NaN             NaN             NaN
             NaN             NaN             NaN
             NaN             NaN             NaN
             NaN             NaN             NaN
             NaN             NaN             NaN
             NaN             NaN             NaN
             NaN             NaN             NaN
             NaN             NaN             NaN
             NaN             NaN             NaN
             NaN             NaN             NaN
             NaN             NaN             NaN
             NaN             NaN             NaN
             NaN             NaN             NaN
             NaN             NaN             NaN
