S    Ga   Li                            
   1.00000000000000     
     0.0062610217006027   -0.0000043898512444    6.2988974589200000
     6.6470482709817738   -0.0008113309194814   -0.0000011357345483
    -0.0003472287737729    8.1253443915821784   -0.0303419564779310
   S    Ga   Li
     8     4     4
Direct
  0.0160048111444198  0.0644171386069274  0.1268526624962263
  0.0462941632657490  0.6025421408244114  0.8813065267347113
  0.0456283647143039  0.0930255631884833  0.6485511529974772
  0.5167128492260176  0.9408094694268385  0.8984728521922918
  0.1209627130646993  0.5724944470667026  0.4023105092627688
  0.5462916042664361  0.4066559928554128  0.1408585525918156
  0.5463031336305804  0.9140547513948931  0.3759226743251531
  0.6197112541107117  0.4360853754490961  0.6235056201091140
  0.1498744508466032  0.9367779453901193  0.8865073026964865
  0.6482524247097672  0.0721217633902782  0.1386566557914293
  0.9894399834023417  0.4384722740277738  0.6367802319460765
  0.4918533288130362  0.5678525111192201  0.3857901014711800
  0.1088524846091303  0.4140338456418036  0.1318337145539630
  0.1556321950930553  0.9377977879570807  0.3900588224323016
  0.6474885509825725  0.6007252838370363  0.8974654290346109
  0.6540905751643038  0.0694522451291206  0.6357837191819442
 
             NaN             NaN             NaN
             NaN             NaN             NaN
             NaN             NaN             NaN
             NaN             NaN             NaN
             NaN             NaN             NaN
             NaN             NaN             NaN
             NaN             NaN             NaN
             NaN             NaN             NaN
             NaN             NaN             NaN
             NaN             NaN             NaN
             NaN             NaN             NaN
             NaN             NaN             NaN
             NaN             NaN             NaN
             NaN             NaN             NaN
             NaN             NaN             NaN
             NaN             NaN             NaN
