S    Ga   Li
   1.00000000000000     
  -0.0000011009557111  -0.0000043898512422   6.2988974589200000
   6.5920253179500001  -0.0000003762590994  -0.0000011357345373
  -0.0000003393192859   7.9341773420299999  -0.0000051727342563
S    Ga   Li
8  4  4  
Direct
  0.1586462869824388  0.0705834554692188  0.1293381840754222  
  0.1394920234253476  0.5982046759009307  0.8769028071189737  
  0.1394917386453898  0.0982065500299569  0.6482602567272124  
  0.6586440975178789  0.9379133732770342  0.8958265532920748  
  0.1586439493542073  0.5705829536558511  0.3958266723550921  
  0.6394915523243228  0.4102894044710723  0.1482602198842073  
  0.6394917975167118  0.9102912249177706  0.3769029457177879  
  0.6586463182811357  0.4379129108432025  0.6293383106239219  
  0.0252351382654723  0.9307782814044360  0.8866199886843233  
  0.5252346926763991  0.0777171269837496  0.1385442284568299  
  0.0252348073094453  0.4307787206930698  0.6385441211196223  
  0.5252350643309427  0.5777176102177819  0.3866199851888723  
  0.0283238534233021  0.4179627417683491  0.1351237690256823  
  0.0283251111964020  0.9179631768129256  0.3900405536237344  
  0.5283252262764364  0.5905338941391989  0.8900406040761197  
  0.5283239480190645  0.0905342970779017  0.6351238488161002  
