S    Ga   Li                            
   1.00000000000000     
    -0.0088035405607303   -0.0000043898512427    6.2988974589200000
     6.6400739931019102   -0.0078162701775891   -0.0000011357345399
    -0.0095553880291378    8.0577803829723500   -0.1306026315293035
   S    Ga   Li
     8     4     4
Direct
  0.1330777814978248  0.0754856669679498  0.1309615314526837
  0.1226971126974377  0.5917296936942691  0.8779419510495075
  0.1207054176922639  0.0995242286636326  0.6363256789824376
  0.5704779517097265  0.9361802588111772  0.8998852483060631
  0.1468188175500629  0.5688189875793128  0.3964836472760354
  0.6273766660628510  0.4106973099358626  0.1555582597632537
  0.6288449565935963  0.9086816664329262  0.3811815938680212
  0.6506116809625340  0.4426172604948704  0.6281766127474810
  0.1982980685942053  0.9333518574392912  0.8785828429433380
  0.5075253386947551  0.0824114878470681  0.1526008490139006
  0.0183658116015053  0.4343711015426095  0.6371995645804773
  0.5130833314262730  0.5782758405428083  0.3884873586791855
  0.0158798774227691  0.4224633181791901  0.1337102080010482
  0.0177219797900534  0.9111301056234282  0.3845077989313666
  0.5145367858503604  0.5692888213158653  0.8931183944158647
  0.5173713089007563  0.1022909302350854  0.6259349878069571
 
             NaN             NaN             NaN
             NaN             NaN             NaN
             NaN             NaN             NaN
             NaN             NaN             NaN
             NaN             NaN             NaN
             NaN             NaN             NaN
             NaN             NaN             NaN
             NaN             NaN             NaN
             NaN             NaN             NaN
             NaN             NaN             NaN
             NaN             NaN             NaN
             NaN             NaN             NaN
             NaN             NaN             NaN
             NaN             NaN             NaN
             NaN             NaN             NaN
             NaN             NaN             NaN
