S    Ga   Li                            
   1.00000000000000     
    -0.0024135722317371   -0.0000043898512435    6.2988974589200000
     6.6425335422194856    0.0007305447466782   -0.0000011357345438
     0.0034133503224559    8.1334040216685768   -0.0033859352330988
   S    Ga   Li
     8     4     4
Direct
  0.0386643146986714  0.0695809845382129  0.1231477288302614
  0.1179627974298469  0.5926918871139790  0.8761196230583010
  0.0653009811350245  0.0942479742069082  0.6464244412162898
  0.5351372036746653  0.9430784485885084  0.8992538868609614
  0.1430038613007625  0.5642144578722252  0.3979640102566435
  0.6172686351619916  0.4185536439777806  0.1487209006916075
  0.6032627812626643  0.9106851293519256  0.3795450589410478
  0.6420555162221930  0.4493862325809062  0.6269117687849857
  0.1665063620973797  0.9406908299865648  0.8844710825246196
  0.6684708943964708  0.0720741534014024  0.1361436209226952
  0.0101827026818171  0.4396302785676482  0.6390046179585980
  0.5099336970489716  0.5735059074470641  0.3858891749788782
  0.0092271274208215  0.4356491713891515  0.1349745725881206
  0.0127305791805625  0.9038933152968909  0.3919480334905003
  0.5085481180964777  0.5748014805563031  0.8900086057943639
  0.6551373152391804  0.0846346404299538  0.6401294009198111
 
             NaN             NaN             NaN
             NaN             NaN             NaN
             NaN             NaN             NaN
             NaN             NaN             NaN
             NaN             NaN             NaN
             NaN             NaN             NaN
             NaN             NaN             NaN
             NaN             NaN             NaN
             NaN             NaN             NaN
             NaN             NaN             NaN
             NaN             NaN             NaN
             NaN             NaN             NaN
             NaN             NaN             NaN
             NaN             NaN             NaN
             NaN             NaN             NaN
             NaN             NaN             NaN
