supercell of 100% icsd_608626.cif, 0% i 
   1.00000000000000     
    -9.3689470281962954   -0.0002081109076198   -0.0002349164492872
    -4.6842932846000238    8.1133162756798729   -0.0001142721152817
    -0.0002514720423845   -0.0000038003399694  -10.0158511893380062
   Al   Ge   Be   N 
    34     1     1    36
Direct
  0.1116857992858513  0.0944268902749101  0.2967392991186628
  0.2215919802240904  0.2066996490534052  0.0448187161100577
  0.7778457444814251  0.0938425648116663  0.7937973597821610
  0.8891736087540778  0.2049234232152060  0.5456145248171111
  0.4438538031157933  0.0950939153113097  0.2964750750805365
  0.5567073017803850  0.2034943710002750  0.0445457426332894
  0.1115719060767191  0.0944297074159053  0.7939336464153186
  0.2217480414526420  0.2096842756678470  0.5459104556816925
  0.7776802465430634  0.0939916760708783  0.2964037592017874
  0.8903300623669708  0.2024140988785277  0.0444204666415686
  0.4439118178247128  0.0950512185124097  0.7944063221791211
  0.5525445726308362  0.2088810524262854  0.5458635464569639
  0.1129514602525816  0.4291894248696764  0.3004068408652785
  0.2190052945872196  0.5406085548430539  0.0461844616093359
  0.7812135957019635  0.4263381055460869  0.7928377224178504
  0.8933435274624060  0.5387659623196157  0.5458177183489923
  0.4407095630374300  0.4295033805261070  0.3036767308321302
  0.1128538406919191  0.4291402425907478  0.7902654014276891
  0.7778445501676714  0.4280503030615179  0.2995982602077092
  0.8914288296524120  0.5400000423369420  0.0445793924761659
  0.4393494823962811  0.4276115824587450  0.7891261114488799
  0.5521429793350876  0.5383509166843794  0.5457589052966512
  0.1124646372892144  0.7578605345319218  0.3000777134488430
  0.2184432631433495  0.8731218386936490  0.0445761232688326
  0.7784401348243790  0.7611341559841946  0.7942671985497967
  0.8930766052849251  0.8685387499876001  0.5456927531980256
  0.4440641011249227  0.7612145134227433  0.2992824921831883
  0.5572563597861944  0.8736276719340523  0.0445131537799597
  0.1122968251464798  0.7580141712519861  0.7901067969243769
  0.2211651322147077  0.8687758007353281  0.5458408906270833
  0.7783496700240704  0.7610607568608430  0.2961538944016837
  0.8900040156776541  0.8716928767125580  0.0452803927863812
  0.4424579596848019  0.7644372546152027  0.7933321200094312
  0.5559431534035326  0.8724318005379175  0.5453139664573285
  0.5549833420968753  0.5382146530192742  0.0446716557024374
  0.2211676828521973  0.5395794692275473  0.5427701837424621
  0.2224501938356269  0.2051184142912845  0.3546429178702439
  0.1113298839411954  0.0945850841755345  0.1048159202281198
  0.8887061968729455  0.2057194595737073  0.8546527382092606
  0.7775784848174538  0.0939715715796368  0.6037709663755493
  0.5556756430325009  0.2052185424606208  0.3542438738236839
  0.4440171862166977  0.0947040861585791  0.1047531589672630
  0.2218121807073459  0.2063910262267754  0.8542889216866172
  0.1118046953715606  0.0940033828559237  0.6038848070323937
  0.8888793213393740  0.2056211453832262  0.3541240449604146
  0.7776516596802310  0.0945632716632900  0.1046183096273339
  0.5551176234572068  0.2065712157169841  0.8545465744235941
  0.4447983287030581  0.0939062151605867  0.6045637406435560
  0.2219369045949549  0.5390355706510306  0.3594439683720765
  0.1112379981972680  0.4273850065787741  0.1069479071409845
  0.8895059017883185  0.5385827552257609  0.8546011100273319
  0.7771409274876220  0.4286352499157431  0.6037709955342194
  0.5557403696048979  0.5391738227964495  0.3544330761641916
  0.4453175534332701  0.4285642001253720  0.1067047572611486
  0.2223967509244886  0.5388933824667816  0.8573939791162815
  0.1146240543863470  0.4313483169157948  0.6018760478605074
  0.8883969702961991  0.5391204463860930  0.3542729540316429
  0.7760342039050556  0.4286469705378906  0.1046781371814305
  0.5552063250215440  0.5385955458370688  0.8551532860807924
  0.4382736407277008  0.4311266486916026  0.6016764247804289
  0.2224971661556410  0.8724492012598262  0.3542694172310235
  0.1111734542305527  0.7610928081565405  0.1067712845540996
  0.8897200272912968  0.8717944927771271  0.8545506706216202
  0.7773271989298607  0.7613388034006050  0.6044419288159659
  0.5554842986884196  0.8722409821007844  0.3538447346078470
  0.4452476927184819  0.7593318336827153  0.1045895318774157
  0.2219767521041334  0.8716205675393311  0.8545772783203560
  0.1146639556462503  0.7539781412634454  0.6017042687325329
  0.8883645565995053  0.8724993389838005  0.3543862343340791
  0.7777932449059008  0.7609980817979505  0.1045748462589984
  0.5555737405613925  0.8720751657462955  0.8549093201929523
  0.4449440234508373  0.7609036465268204  0.6044620729252017
 
  0.00000000E+00  0.00000000E+00  0.00000000E+00
  0.00000000E+00  0.00000000E+00  0.00000000E+00
  0.00000000E+00  0.00000000E+00  0.00000000E+00
  0.00000000E+00  0.00000000E+00  0.00000000E+00
  0.00000000E+00  0.00000000E+00  0.00000000E+00
  0.00000000E+00  0.00000000E+00  0.00000000E+00
  0.00000000E+00  0.00000000E+00  0.00000000E+00
  0.00000000E+00  0.00000000E+00  0.00000000E+00
  0.00000000E+00  0.00000000E+00  0.00000000E+00
  0.00000000E+00  0.00000000E+00  0.00000000E+00
  0.00000000E+00  0.00000000E+00  0.00000000E+00
  0.00000000E+00  0.00000000E+00  0.00000000E+00
  0.00000000E+00  0.00000000E+00  0.00000000E+00
  0.00000000E+00  0.00000000E+00  0.00000000E+00
  0.00000000E+00  0.00000000E+00  0.00000000E+00
  0.00000000E+00  0.00000000E+00  0.00000000E+00
  0.00000000E+00  0.00000000E+00  0.00000000E+00
  0.00000000E+00  0.00000000E+00  0.00000000E+00
  0.00000000E+00  0.00000000E+00  0.00000000E+00
  0.00000000E+00  0.00000000E+00  0.00000000E+00
  0.00000000E+00  0.00000000E+00  0.00000000E+00
  0.00000000E+00  0.00000000E+00  0.00000000E+00
  0.00000000E+00  0.00000000E+00  0.00000000E+00
  0.00000000E+00  0.00000000E+00  0.00000000E+00
  0.00000000E+00  0.00000000E+00  0.00000000E+00
  0.00000000E+00  0.00000000E+00  0.00000000E+00
  0.00000000E+00  0.00000000E+00  0.00000000E+00
  0.00000000E+00  0.00000000E+00  0.00000000E+00
  0.00000000E+00  0.00000000E+00  0.00000000E+00
  0.00000000E+00  0.00000000E+00  0.00000000E+00
  0.00000000E+00  0.00000000E+00  0.00000000E+00
  0.00000000E+00  0.00000000E+00  0.00000000E+00
  0.00000000E+00  0.00000000E+00  0.00000000E+00
  0.00000000E+00  0.00000000E+00  0.00000000E+00
  0.00000000E+00  0.00000000E+00  0.00000000E+00
  0.00000000E+00  0.00000000E+00  0.00000000E+00
  0.00000000E+00  0.00000000E+00  0.00000000E+00
  0.00000000E+00  0.00000000E+00  0.00000000E+00
  0.00000000E+00  0.00000000E+00  0.00000000E+00
  0.00000000E+00  0.00000000E+00  0.00000000E+00
  0.00000000E+00  0.00000000E+00  0.00000000E+00
  0.00000000E+00  0.00000000E+00  0.00000000E+00
  0.00000000E+00  0.00000000E+00  0.00000000E+00
  0.00000000E+00  0.00000000E+00  0.00000000E+00
  0.00000000E+00  0.00000000E+00  0.00000000E+00
  0.00000000E+00  0.00000000E+00  0.00000000E+00
  0.00000000E+00  0.00000000E+00  0.00000000E+00
  0.00000000E+00  0.00000000E+00  0.00000000E+00
  0.00000000E+00  0.00000000E+00  0.00000000E+00
  0.00000000E+00  0.00000000E+00  0.00000000E+00
  0.00000000E+00  0.00000000E+00  0.00000000E+00
  0.00000000E+00  0.00000000E+00  0.00000000E+00
  0.00000000E+00  0.00000000E+00  0.00000000E+00
  0.00000000E+00  0.00000000E+00  0.00000000E+00
  0.00000000E+00  0.00000000E+00  0.00000000E+00
  0.00000000E+00  0.00000000E+00  0.00000000E+00
  0.00000000E+00  0.00000000E+00  0.00000000E+00
  0.00000000E+00  0.00000000E+00  0.00000000E+00
  0.00000000E+00  0.00000000E+00  0.00000000E+00
  0.00000000E+00  0.00000000E+00  0.00000000E+00
  0.00000000E+00  0.00000000E+00  0.00000000E+00
  0.00000000E+00  0.00000000E+00  0.00000000E+00
  0.00000000E+00  0.00000000E+00  0.00000000E+00
  0.00000000E+00  0.00000000E+00  0.00000000E+00
  0.00000000E+00  0.00000000E+00  0.00000000E+00
  0.00000000E+00  0.00000000E+00  0.00000000E+00
  0.00000000E+00  0.00000000E+00  0.00000000E+00
  0.00000000E+00  0.00000000E+00  0.00000000E+00
  0.00000000E+00  0.00000000E+00  0.00000000E+00
  0.00000000E+00  0.00000000E+00  0.00000000E+00
  0.00000000E+00  0.00000000E+00  0.00000000E+00
  0.00000000E+00  0.00000000E+00  0.00000000E+00
