supercell of POSCAR                     
   1.01800000000000     
     3.1310994802600001   -5.4896946145000003   10.0244832682999991
    -9.4821132118399998   -5.5089477087900001    0.0170740616273000
     6.3359946057599998  -11.0114127993000004  -10.0652216442999993
   Al   Gd   N    O 
    84    12    95     1
Direct
  0.0900997404929598  0.5846733820347652  0.3343041144626113
  0.5002286304468626  0.3227341444238903  0.2555570111580963
  0.0866459694766419  0.0851871620536286  0.3345138645753067
  0.2522538118566544  0.5787807025943863  0.4945785281303117
  0.3312430248895311  0.3184112345200134  0.0786789352485542
  0.4185281773926448  0.0864806428720399  0.1713450084151305
  0.0075850176713743  0.8432377087065390  0.2551032829230166
  0.1684645283005466  0.3320603734544463  0.4123871691848251
  0.2483729758876763  0.0866557498241463  0.4960558278008662
  0.1628796795061263  0.8364681587765901  0.4161404614372444
  0.3375332939079101  0.6733653706442126  0.3400902320456183
  0.1561831534540872  0.6754794671259532  0.1658325488451808
  0.2505590262993067  0.4018498800286139  0.2521866584151482
  0.3350235519646105  0.1640965083778951  0.3344217593882632
  0.0071515026355584  0.6730227054706930  0.4942581849893344
  0.1670739236339216  0.1586491945379862  0.1700576800622287
  0.2541169691551985  0.9199556666128004  0.2561128539053712
  0.4132286827940490  0.4147523766250245  0.4154616670922877
  0.4991136092727899  0.1615496127135430  0.4970311955671249
  0.0775221483428936  0.9245224790738718  0.0825057600125874
  0.4208439440596834  0.9198182034514772  0.4117871399280517
  0.0890647364851205  0.5843142056511326  0.8342000276672792
  0.4993740161097051  0.3227860335133599  0.7553032023349004
  0.0851779804536505  0.0862077601126288  0.8333468691335213
  0.2519844176349153  0.5796133886561776  0.9950238375355411
  0.3320664702284972  0.3182838974754247  0.5784083735943923
  0.4173119571813402  0.0867941070806495  0.6708840018116504
  0.0069155308672535  0.8435131371141651  0.7545421792662310
  0.1670601831864715  0.3333130351660571  0.9124133345044925
  0.2473039578733349  0.0929690117827846  0.9949354218103394
  0.1583834580654013  0.8334499647060909  0.9127126242553700
  0.3362996466276940  0.6730232774338418  0.8403213013453978
  0.1549043013123494  0.6750222610209775  0.6661161069614749
  0.2496496064894984  0.4016588141396369  0.7523158144426745
  0.3337549435464950  0.1638144343323233  0.8337359656110550
  0.0059721797016792  0.6723013632376649  0.9946962360133895
  0.1669907405203972  0.1589588543277500  0.6689726341608662
  0.2526338993109150  0.9201183100125192  0.7558035236510960
  0.4122760998285173  0.4144041384028228  0.9152335097635103
  0.4983707154728947  0.1609253578581828  0.9972553525716137
  0.0836508335956836  0.9237487001154250  0.5796214583801103
  0.4210200542021525  0.9190148961575346  0.9115550177678244
  0.5901497303335859  0.5839716591622874  0.3344877219710085
  0.0000338761456007  0.3228084838826391  0.2556408796877605
  0.5867933182968130  0.0848358355504573  0.3344142633554270
  0.7522480472973356  0.5787602610004043  0.4944684499625751
  0.8309157702198888  0.3185815249130712  0.0783547263764035
  0.9167052365846260  0.0874645015357913  0.1709357195563683
  0.5086641745951610  0.8420794723189360  0.2549165409129941
  0.6685201185955592  0.3318029837531427  0.4123158426939000
  0.7483159971097280  0.0866821325940492  0.4959516432199251
  0.6629114963669025  0.8364752804540316  0.4159762606827897
  0.8373536347049537  0.6734663409410118  0.3400227365230890
  0.6555629731621408  0.6738388489728777  0.1663635484445010
  0.7505563204405092  0.4018501166896726  0.2522175571791720
  0.8349413803782824  0.1638597560613988  0.3342011407190100
  0.5071146085693812  0.6730013738269633  0.4942675799593630
  0.6674604520582150  0.1586265521287018  0.1695247109082629
  0.7537871541631489  0.9194916197862355  0.2556105038792467
  0.9132008107760754  0.4148574462944197  0.4153724980960902
  0.9991144600116542  0.1617019054204860  0.4969521341619227
  0.5831148229368921  0.9232095271466534  0.0803450045782483
  0.9207811210281989  0.9199168593035694  0.4117506352097635
  0.5888199434333501  0.5848105069611833  0.8345355085827819
  0.9990855303610360  0.3231777161753726  0.7550701684187828
  0.5858981392728779  0.0852478057478834  0.8341608900067499
  0.7507287395452167  0.5785596355430656  0.9946264687743849
  0.8320514668420032  0.3184621330840542  0.5782208957064583
  0.9171296874839499  0.0870958395551327  0.6704976749062439
  0.5074652572905691  0.8430894493009404  0.7548692703607074
  0.6671299481627244  0.3320609721977092  0.9122571282369236
  0.7468161822001420  0.0867711766079964  0.9960084406895078
  0.6621341035612289  0.8363020307905913  0.9158843025637822
  0.8361957441159689  0.6735142360292556  0.8400523437519993
  0.6548636987211225  0.6748920649462207  0.6660025635941906
  0.7494529108791141  0.4020965732401933  0.7521625650181178
  0.8335120432064684  0.1642952907466650  0.8337565771067972
  0.5059544324300589  0.6723593003204584  0.9948765516694635
  0.6669943654669197  0.1588303345050264  0.6690901935407751
  0.7526817891545221  0.9199322281284381  0.7555405804658406
  0.9116958794541929  0.4151463771786155  0.9152006390249952
  0.9965387551862719  0.1624119305335725  0.9965645879729763
  0.5836312967451107  0.9236092727660434  0.5796044738453503
  0.9188707162225001  0.9205367250505816  0.9114739877029550
  0.3984751044076305  0.5803767450594961  0.1786691184562557
  0.3302403771004379  0.8420627512854466  0.0820892277512542
  0.0805298608907563  0.4181227524915485  0.0853954070763479
  0.3984242952312442  0.5793377500551244  0.6790395656075958
  0.3329538307710678  0.8359494256537872  0.5836896425142939
  0.0823381008867514  0.4195880152144937  0.5849714624999081
  0.8990215611431012  0.5797272740125052  0.1788780455246908
  0.8308999321607402  0.8357288177461797  0.0828631651982334
  0.5809184467489530  0.4177705693666240  0.0850073257972923
  0.8983727977182596  0.5796879935912926  0.6790489010516225
  0.8328040341148650  0.8358843847819628  0.5833110614683079
  0.5823935702273175  0.4194448614105042  0.5848922288545495
  0.2191421467859058  0.5813540968243487  0.2658897405887828
  0.0348078531922198  0.6114985930048036  0.1006380787076466
  0.1302844405363999  0.3164927434314677  0.2003328313991162
  0.2132861017046892  0.0821800997187836  0.2722390889643123
  0.3826458042642287  0.5836484581383701  0.4373047921150643
  0.4472173563193635  0.3179181462224463  0.0103215802441738
  0.0408584573998922  0.0861472697594081  0.1029342013261996
  0.1336737949347935  0.8443212572898986  0.1843003409200108
  0.2966763984632479  0.3292524410961732  0.3522588821672770
  0.3773732362377231  0.0805197806053073  0.4351583928503402
  0.4744545736017400  0.8374877197745860  0.0088938112028885
  0.2934855832909875  0.8351185660127527  0.3562289134981285
  0.4722302154603000  0.6843805140281489  0.2866550338341298
  0.2659807077831289  0.6614246572512670  0.0941963518141691
  0.3742276350755276  0.3818573694973466  0.1850128919506133
  0.4622556965931395  0.1622622739275030  0.2739322210732666
  0.1350737152861541  0.6654618043008398  0.4328837770597858
  0.2232719723527339  0.4127416906423989  0.0100025073024881
  0.2893072781361568  0.1542342299707045  0.1017028519926484
  0.3855713831191068  0.9262312602424103  0.2010519418415129
  0.0434498447619589  0.4194193475549639  0.3520563665876466
  0.1273898680970120  0.1706328882340173  0.4346134536644755
  0.0495282595764692  0.9239637739011712  0.3522650476164060
  0.2180598753939833  0.5810612523905618  0.7672351444327816
  0.0328107219036653  0.6119244520599167  0.6007412118594218
  0.1293318635443228  0.3168701358014658  0.7002868524264159
  0.2118427009403518  0.0825014897292675  0.7722545289769869
  0.3817073965016107  0.5832290821932702  0.9376038365055734
  0.4491997411612232  0.3191489120061988  0.5107119525154786
  0.0406707050481216  0.0854543360086026  0.6035937980458570
  0.1322051713120516  0.8428975116210253  0.6862164332877896
  0.2952134083805191  0.3286795277553978  0.8527401595867374
  0.3747315506707238  0.0785436064527403  0.9359437330088198
  0.4764207418589379  0.8377877231784083  0.5078049687781032
  0.2914073448876806  0.8357302264026742  0.8585202669983119
  0.4705272878928568  0.6857550536185713  0.7873810899637377
  0.2638822406495649  0.6549854168719307  0.5952677382363518
  0.3732703684915037  0.3818804742329576  0.6856282976603723
  0.4613754516271484  0.1625257513215104  0.7743936681284040
  0.1339856982625207  0.6661383392551770  0.9335081693638330
  0.2246025420313629  0.4119811012428229  0.5092301390339316
  0.2902288293810287  0.1570320005068950  0.6021184171838314
  0.3843732637818249  0.9278853961695219  0.7026475434031241
  0.0421568541876098  0.4195420848449061  0.8523696976001816
  0.1255648172606243  0.1703770272338545  0.9346950713044819
  0.1974738960756923  0.9313732109745985  0.5102925199414656
  0.0481990663378298  0.9251206553810505  0.8528486935083919
  0.7192864757334050  0.5805903807138790  0.2667144230427283
  0.5336993207049829  0.6104846050794492  0.1008369321875406
  0.6302476970866024  0.3166459506437462  0.2002797531781439
  0.7132083516060703  0.0820099442012676  0.2720667347401431
  0.8827775792430614  0.5837547568801043  0.4372746525144393
  0.9476578266215512  0.3193957332454858  0.0102607762498721
  0.5406131690834073  0.0852822668522251  0.1037379945028434
  0.6333792905378743  0.8421230640768158  0.1855938005072915
  0.7968114715057411  0.3290108848901596  0.3522418550053814
  0.8774403540743876  0.0805860361877251  0.4351141582924853
  0.9783154095733053  0.8388704642108280  0.0078121512686948
  0.7936790041450053  0.8352558996746495  0.3562637742488803
  0.9723907703221215  0.6853946315355870  0.2866122268472751
  0.7643648535612684  0.6547435457050383  0.0951167899880900
  0.8745635578217517  0.3821178940320493  0.1850916488434464
  0.9624440544153572  0.1624177949902332  0.2737999801993922
  0.6349709564085444  0.6654505988802484  0.4328910617343169
  0.7232286012590521  0.4118559840901455  0.0092624630022584
  0.7900258162940759  0.1569847287394310  0.1018572346526554
  0.8856218723535179  0.9275761644632396  0.2008453497630143
  0.5433267186206621  0.4189277055646841  0.3522189500901263
  0.6272898548663619  0.1704496923527969  0.4345610861265712
  0.6956360147475706  0.9314511340299418  0.0100403048603681
  0.5492296073819176  0.9236419507108309  0.3521881013263553
  0.7180006719877028  0.5811715086454114  0.7669978584602788
  0.5327456651102125  0.6117185041721740  0.6006813751380946
  0.6293145591210987  0.3168070586490970  0.7001942407099406
  0.7119532144774539  0.0823675428242154  0.7721407025798115
  0.8816308239334916  0.5841340894882165  0.9376887393016133
  0.9493269146111132  0.3193178440152522  0.5106251222392615
  0.5405697222667314  0.0852623766147005  0.6037048521228101
  0.6321029069126993  0.8427000827442441  0.6859088935860953
  0.7953437957076019  0.3292720967813381  0.8523593161281156
  0.8758316668629220  0.0806933813201312  0.9350340472098040
  0.9766497935153993  0.8378728822841595  0.5077429676779417
  0.7926788433261152  0.8353767676144415  0.8566905309018509
  0.9715111018293996  0.6858852436860445  0.7874642848627502
  0.7638784782171157  0.6549183732989690  0.5951598489743759
  0.8732845009803611  0.3823466743256247  0.6853264670523487
  0.9611280353662579  0.1630339477250402  0.7738744489054881
  0.6336362368628627  0.6658550930643088  0.9332484661250646
  0.7245991387246065  0.4119758613432722  0.5090720463064997
  0.7901115846069118  0.1572585969631888  0.6019372115632891
  0.8845044424647739  0.9281874031070103  0.7020336180863040
  0.5421462131071166  0.4193537769955213  0.8522259423550693
  0.6258114355334570  0.1704757781062654  0.9346609151525200
  0.6972945685497294  0.9314352255860499  0.5101512029639821
  0.5484936929200543  0.9239325571667649  0.8527049253505012
  0.1899783471912002  0.9362764219122965  0.0079294249313620
 
  0.00000000E+00  0.00000000E+00  0.00000000E+00
  0.00000000E+00  0.00000000E+00  0.00000000E+00
  0.00000000E+00  0.00000000E+00  0.00000000E+00
  0.00000000E+00  0.00000000E+00  0.00000000E+00
  0.00000000E+00  0.00000000E+00  0.00000000E+00
  0.00000000E+00  0.00000000E+00  0.00000000E+00
  0.00000000E+00  0.00000000E+00  0.00000000E+00
  0.00000000E+00  0.00000000E+00  0.00000000E+00
  0.00000000E+00  0.00000000E+00  0.00000000E+00
  0.00000000E+00  0.00000000E+00  0.00000000E+00
  0.00000000E+00  0.00000000E+00  0.00000000E+00
  0.00000000E+00  0.00000000E+00  0.00000000E+00
  0.00000000E+00  0.00000000E+00  0.00000000E+00
  0.00000000E+00  0.00000000E+00  0.00000000E+00
  0.00000000E+00  0.00000000E+00  0.00000000E+00
  0.00000000E+00  0.00000000E+00  0.00000000E+00
  0.00000000E+00  0.00000000E+00  0.00000000E+00
  0.00000000E+00  0.00000000E+00  0.00000000E+00
  0.00000000E+00  0.00000000E+00  0.00000000E+00
  0.00000000E+00  0.00000000E+00  0.00000000E+00
  0.00000000E+00  0.00000000E+00  0.00000000E+00
  0.00000000E+00  0.00000000E+00  0.00000000E+00
  0.00000000E+00  0.00000000E+00  0.00000000E+00
  0.00000000E+00  0.00000000E+00  0.00000000E+00
  0.00000000E+00  0.00000000E+00  0.00000000E+00
  0.00000000E+00  0.00000000E+00  0.00000000E+00
  0.00000000E+00  0.00000000E+00  0.00000000E+00
  0.00000000E+00  0.00000000E+00  0.00000000E+00
  0.00000000E+00  0.00000000E+00  0.00000000E+00
  0.00000000E+00  0.00000000E+00  0.00000000E+00
  0.00000000E+00  0.00000000E+00  0.00000000E+00
  0.00000000E+00  0.00000000E+00  0.00000000E+00
  0.00000000E+00  0.00000000E+00  0.00000000E+00
  0.00000000E+00  0.00000000E+00  0.00000000E+00
  0.00000000E+00  0.00000000E+00  0.00000000E+00
  0.00000000E+00  0.00000000E+00  0.00000000E+00
  0.00000000E+00  0.00000000E+00  0.00000000E+00
  0.00000000E+00  0.00000000E+00  0.00000000E+00
  0.00000000E+00  0.00000000E+00  0.00000000E+00
  0.00000000E+00  0.00000000E+00  0.00000000E+00
  0.00000000E+00  0.00000000E+00  0.00000000E+00
  0.00000000E+00  0.00000000E+00  0.00000000E+00
  0.00000000E+00  0.00000000E+00  0.00000000E+00
  0.00000000E+00  0.00000000E+00  0.00000000E+00
  0.00000000E+00  0.00000000E+00  0.00000000E+00
  0.00000000E+00  0.00000000E+00  0.00000000E+00
  0.00000000E+00  0.00000000E+00  0.00000000E+00
  0.00000000E+00  0.00000000E+00  0.00000000E+00
  0.00000000E+00  0.00000000E+00  0.00000000E+00
  0.00000000E+00  0.00000000E+00  0.00000000E+00
  0.00000000E+00  0.00000000E+00  0.00000000E+00
  0.00000000E+00  0.00000000E+00  0.00000000E+00
  0.00000000E+00  0.00000000E+00  0.00000000E+00
  0.00000000E+00  0.00000000E+00  0.00000000E+00
  0.00000000E+00  0.00000000E+00  0.00000000E+00
  0.00000000E+00  0.00000000E+00  0.00000000E+00
  0.00000000E+00  0.00000000E+00  0.00000000E+00
  0.00000000E+00  0.00000000E+00  0.00000000E+00
  0.00000000E+00  0.00000000E+00  0.00000000E+00
  0.00000000E+00  0.00000000E+00  0.00000000E+00
  0.00000000E+00  0.00000000E+00  0.00000000E+00
  0.00000000E+00  0.00000000E+00  0.00000000E+00
  0.00000000E+00  0.00000000E+00  0.00000000E+00
  0.00000000E+00  0.00000000E+00  0.00000000E+00
  0.00000000E+00  0.00000000E+00  0.00000000E+00
  0.00000000E+00  0.00000000E+00  0.00000000E+00
  0.00000000E+00  0.00000000E+00  0.00000000E+00
  0.00000000E+00  0.00000000E+00  0.00000000E+00
  0.00000000E+00  0.00000000E+00  0.00000000E+00
  0.00000000E+00  0.00000000E+00  0.00000000E+00
  0.00000000E+00  0.00000000E+00  0.00000000E+00
  0.00000000E+00  0.00000000E+00  0.00000000E+00
  0.00000000E+00  0.00000000E+00  0.00000000E+00
  0.00000000E+00  0.00000000E+00  0.00000000E+00
  0.00000000E+00  0.00000000E+00  0.00000000E+00
  0.00000000E+00  0.00000000E+00  0.00000000E+00
  0.00000000E+00  0.00000000E+00  0.00000000E+00
  0.00000000E+00  0.00000000E+00  0.00000000E+00
  0.00000000E+00  0.00000000E+00  0.00000000E+00
  0.00000000E+00  0.00000000E+00  0.00000000E+00
  0.00000000E+00  0.00000000E+00  0.00000000E+00
  0.00000000E+00  0.00000000E+00  0.00000000E+00
  0.00000000E+00  0.00000000E+00  0.00000000E+00
  0.00000000E+00  0.00000000E+00  0.00000000E+00
  0.00000000E+00  0.00000000E+00  0.00000000E+00
  0.00000000E+00  0.00000000E+00  0.00000000E+00
  0.00000000E+00  0.00000000E+00  0.00000000E+00
  0.00000000E+00  0.00000000E+00  0.00000000E+00
  0.00000000E+00  0.00000000E+00  0.00000000E+00
  0.00000000E+00  0.00000000E+00  0.00000000E+00
  0.00000000E+00  0.00000000E+00  0.00000000E+00
  0.00000000E+00  0.00000000E+00  0.00000000E+00
  0.00000000E+00  0.00000000E+00  0.00000000E+00
  0.00000000E+00  0.00000000E+00  0.00000000E+00
  0.00000000E+00  0.00000000E+00  0.00000000E+00
  0.00000000E+00  0.00000000E+00  0.00000000E+00
  0.00000000E+00  0.00000000E+00  0.00000000E+00
  0.00000000E+00  0.00000000E+00  0.00000000E+00
  0.00000000E+00  0.00000000E+00  0.00000000E+00
  0.00000000E+00  0.00000000E+00  0.00000000E+00
  0.00000000E+00  0.00000000E+00  0.00000000E+00
  0.00000000E+00  0.00000000E+00  0.00000000E+00
  0.00000000E+00  0.00000000E+00  0.00000000E+00
  0.00000000E+00  0.00000000E+00  0.00000000E+00
  0.00000000E+00  0.00000000E+00  0.00000000E+00
  0.00000000E+00  0.00000000E+00  0.00000000E+00
  0.00000000E+00  0.00000000E+00  0.00000000E+00
  0.00000000E+00  0.00000000E+00  0.00000000E+00
  0.00000000E+00  0.00000000E+00  0.00000000E+00
  0.00000000E+00  0.00000000E+00  0.00000000E+00
  0.00000000E+00  0.00000000E+00  0.00000000E+00
  0.00000000E+00  0.00000000E+00  0.00000000E+00
  0.00000000E+00  0.00000000E+00  0.00000000E+00
  0.00000000E+00  0.00000000E+00  0.00000000E+00
  0.00000000E+00  0.00000000E+00  0.00000000E+00
  0.00000000E+00  0.00000000E+00  0.00000000E+00
  0.00000000E+00  0.00000000E+00  0.00000000E+00
  0.00000000E+00  0.00000000E+00  0.00000000E+00
  0.00000000E+00  0.00000000E+00  0.00000000E+00
  0.00000000E+00  0.00000000E+00  0.00000000E+00
  0.00000000E+00  0.00000000E+00  0.00000000E+00
  0.00000000E+00  0.00000000E+00  0.00000000E+00
  0.00000000E+00  0.00000000E+00  0.00000000E+00
  0.00000000E+00  0.00000000E+00  0.00000000E+00
  0.00000000E+00  0.00000000E+00  0.00000000E+00
  0.00000000E+00  0.00000000E+00  0.00000000E+00
  0.00000000E+00  0.00000000E+00  0.00000000E+00
  0.00000000E+00  0.00000000E+00  0.00000000E+00
  0.00000000E+00  0.00000000E+00  0.00000000E+00
  0.00000000E+00  0.00000000E+00  0.00000000E+00
  0.00000000E+00  0.00000000E+00  0.00000000E+00
  0.00000000E+00  0.00000000E+00  0.00000000E+00
  0.00000000E+00  0.00000000E+00  0.00000000E+00
  0.00000000E+00  0.00000000E+00  0.00000000E+00
  0.00000000E+00  0.00000000E+00  0.00000000E+00
  0.00000000E+00  0.00000000E+00  0.00000000E+00
  0.00000000E+00  0.00000000E+00  0.00000000E+00
  0.00000000E+00  0.00000000E+00  0.00000000E+00
  0.00000000E+00  0.00000000E+00  0.00000000E+00
  0.00000000E+00  0.00000000E+00  0.00000000E+00
  0.00000000E+00  0.00000000E+00  0.00000000E+00
  0.00000000E+00  0.00000000E+00  0.00000000E+00
  0.00000000E+00  0.00000000E+00  0.00000000E+00
  0.00000000E+00  0.00000000E+00  0.00000000E+00
  0.00000000E+00  0.00000000E+00  0.00000000E+00
  0.00000000E+00  0.00000000E+00  0.00000000E+00
  0.00000000E+00  0.00000000E+00  0.00000000E+00
  0.00000000E+00  0.00000000E+00  0.00000000E+00
  0.00000000E+00  0.00000000E+00  0.00000000E+00
  0.00000000E+00  0.00000000E+00  0.00000000E+00
  0.00000000E+00  0.00000000E+00  0.00000000E+00
  0.00000000E+00  0.00000000E+00  0.00000000E+00
  0.00000000E+00  0.00000000E+00  0.00000000E+00
  0.00000000E+00  0.00000000E+00  0.00000000E+00
  0.00000000E+00  0.00000000E+00  0.00000000E+00
  0.00000000E+00  0.00000000E+00  0.00000000E+00
  0.00000000E+00  0.00000000E+00  0.00000000E+00
  0.00000000E+00  0.00000000E+00  0.00000000E+00
  0.00000000E+00  0.00000000E+00  0.00000000E+00
  0.00000000E+00  0.00000000E+00  0.00000000E+00
  0.00000000E+00  0.00000000E+00  0.00000000E+00
  0.00000000E+00  0.00000000E+00  0.00000000E+00
  0.00000000E+00  0.00000000E+00  0.00000000E+00
  0.00000000E+00  0.00000000E+00  0.00000000E+00
  0.00000000E+00  0.00000000E+00  0.00000000E+00
  0.00000000E+00  0.00000000E+00  0.00000000E+00
  0.00000000E+00  0.00000000E+00  0.00000000E+00
  0.00000000E+00  0.00000000E+00  0.00000000E+00
  0.00000000E+00  0.00000000E+00  0.00000000E+00
  0.00000000E+00  0.00000000E+00  0.00000000E+00
  0.00000000E+00  0.00000000E+00  0.00000000E+00
  0.00000000E+00  0.00000000E+00  0.00000000E+00
  0.00000000E+00  0.00000000E+00  0.00000000E+00
  0.00000000E+00  0.00000000E+00  0.00000000E+00
  0.00000000E+00  0.00000000E+00  0.00000000E+00
  0.00000000E+00  0.00000000E+00  0.00000000E+00
  0.00000000E+00  0.00000000E+00  0.00000000E+00
  0.00000000E+00  0.00000000E+00  0.00000000E+00
  0.00000000E+00  0.00000000E+00  0.00000000E+00
  0.00000000E+00  0.00000000E+00  0.00000000E+00
  0.00000000E+00  0.00000000E+00  0.00000000E+00
  0.00000000E+00  0.00000000E+00  0.00000000E+00
  0.00000000E+00  0.00000000E+00  0.00000000E+00
  0.00000000E+00  0.00000000E+00  0.00000000E+00
  0.00000000E+00  0.00000000E+00  0.00000000E+00
  0.00000000E+00  0.00000000E+00  0.00000000E+00
  0.00000000E+00  0.00000000E+00  0.00000000E+00
  0.00000000E+00  0.00000000E+00  0.00000000E+00
  0.00000000E+00  0.00000000E+00  0.00000000E+00
  0.00000000E+00  0.00000000E+00  0.00000000E+00
  0.00000000E+00  0.00000000E+00  0.00000000E+00
  0.00000000E+00  0.00000000E+00  0.00000000E+00
