generated by phonopy                    
   1.00000000000000     
    11.7777700938999992   -0.0000006592896312    0.0000118211769744
    -0.0000006477562692   11.7777479613999994   -0.0000130806483528
     0.0000177256125076   -0.0000204342245446   17.8544012557999991
   Li   Bi   Cu   Se   O 
     1    35    36    36    36
Direct
  0.9999792182144915  0.1668456536131870  0.4635531120775624
  0.3265095457035727  0.1668316312117355  0.4288847986082871
  0.6734510069701471  0.1668412115973439  0.4288860924587894
  0.9999783321665632  0.4933566776443570  0.4288961334922732
  0.3326933606399507  0.4995427964302053  0.4275015072703496
  0.6672693201619424  0.4995501249395602  0.4275009242175400
  0.9999846177438272  0.8403101915770961  0.4288843870613945
  0.3326929340138420  0.8341227059575260  0.4274953876247736
  0.6672710880392572  0.8341330533063456  0.4274969043203214
  0.0000062127026936  0.1667081203561906  0.9290459024498361
  0.3333791093635838  0.1667052540621512  0.9290680753211262
  0.6666356457090572  0.1667092292364032  0.9290692592144012
  0.0000058762434421  0.5000792622946122  0.9290674829808410
  0.3334289739157512  0.5001308455670426  0.9290547838325054
  0.6665843022144884  0.5001322851193422  0.9290558558559496
  0.0000075106769515  0.8333381907344162  0.9290743115001732
  0.3334289334309446  0.8332820337346192  0.9290621175389049
  0.6665878937279643  0.8332848809968212  0.9290617433712853
  0.1666687944114287  0.0000467695955493  0.0715095252596853
  0.5000091034643432  0.0001405368839329  0.0714991454208800
  0.8333482704051320  0.0000516628633278  0.0715104323979148
  0.1666672356336036  0.3333662469527496  0.0715032035332541
  0.5000049987001205  0.3332793704707697  0.0714940673633606
  0.8333461775348141  0.3333722305058799  0.0715051131479569
  0.1665727783354569  0.6667005528294823  0.0714983847423980
  0.5000078936857051  0.6667076432626970  0.0714896930317011
  0.8334408997423068  0.6667065703970039  0.0714995778018448
  0.1635410263589776  0.0032769117989702  0.5680727326880657
  0.4999819413781452  0.0014015051302323  0.5686807370566171
  0.8364266684962161  0.0032806824745109  0.5680686263626242
  0.1635408066872657  0.3303953351560907  0.5680781345074450
  0.4999796463218118  0.3322705993998980  0.5686818338631028
  0.8364142983433709  0.3303991332003733  0.5680815956430436
  0.1654183220991499  0.6668362137200106  0.5686814410376044
  0.4999814978705999  0.6668420443447118  0.5693124206457014
  0.8345440124334900  0.6668414804091896  0.5686812359534699
  0.0000008938299061  0.0025526670713774  0.2515674640006793
  0.3307233081541696  0.9982020436377965  0.2512036147360064
  0.6692881891148303  0.9982253899012505  0.2512117377334064
  0.9999859048596775  0.3309123264483560  0.2515785093002592
  0.3306865537250587  0.3352583485774687  0.2512241709987677
  0.6692772325534406  0.3352807904155100  0.2512200401979214
  0.9999879712183741  0.6667149662275946  0.2504101835497323
  0.3321456214085643  0.6667181154320403  0.2497170572160243
  0.6678362732730392  0.6667413888375648  0.2497179899169950
  0.9999987584105057  0.9987581835096648  0.7497928976399919
  0.3341917496381868  0.9992983137997555  0.7492673785985389
  0.6658072115838181  0.9993008693200665  0.7492672144191985
  0.9999968539762278  0.3348770254708811  0.7497912153403377
  0.3341836097724808  0.3343115263097332  0.7492656776933799
  0.6658036314395872  0.3343163726749765  0.7492637816684891
  0.9999981586556785  0.6668184433805209  0.7506037646212533
  0.3341216991420524  0.6668078169693317  0.7492095984312286
  0.6658724286755913  0.6668125421247595  0.7492092766154883
  0.1641964757874135  0.1667896730210927  0.2515731487118700
  0.5000040332382341  0.1668193264612512  0.2504037270783357
  0.8358093596838572  0.1668058865861823  0.2515746562553574
  0.1685276663142119  0.4974819717104779  0.2512215910204105
  0.4999959932088487  0.4989466648518786  0.2497200062076601
  0.8314628580961951  0.4975111716637741  0.2512147915499128
  0.1685364599950390  0.8360523177342216  0.2512056296197258
  0.5000076393807404  0.8346494618189055  0.2497213919789019
  0.8314787217862758  0.8360881298097738  0.2512163702121128
  0.1680401218215408  0.1667411843440689  0.7497936696918259
  0.4999824104751340  0.1667405336390004  0.7505999699107591
  0.8319273184848086  0.1667486062260721  0.7497916075240809
  0.1674933479429370  0.5009449353340614  0.7492692453084970
  0.4999849098235103  0.5008823765403463  0.7492108952961658
  0.8324714388432497  0.5009517278658535  0.7492672064971941
  0.1674990562927618  0.8325586477534870  0.7492657180752431
  0.4999861658543736  0.8326209731742011  0.7492088746104741
  0.8324809432965026  0.8325653464598659  0.7492645539847729
  0.1658136778834489  0.3326243901470676  0.3376666808667466
  0.4999860785762920  0.3338153372283799  0.3358884595268066
  0.8341518086555766  0.3326483218042497  0.3376620879477343
  0.1669989217258561  0.6667852669913543  0.3358827690881512
  0.4999883349663392  0.6668003043629440  0.3353779410873514
  0.8329778096598588  0.6668025625121530  0.3358827726930471
  0.1658445717964696  0.0009416642868985  0.3376444967169689
  0.4999932337885369  0.9997955026854939  0.3358797175269643
  0.8341549431632913  0.0009669584751464  0.3376543171319568
  0.1668673118309556  0.3336143836894365  0.8371701344391127
  0.4999953538920465  0.3341974703423247  0.8380609040002653
  0.8331230199944173  0.3336173492415000  0.8371693668715920
  0.1674541004618888  0.6667489663676207  0.8380646280293362
  0.4999983800688099  0.6667474329865613  0.8384475954677058
  0.8325438411833375  0.6667503200635636  0.8380636767304779
  0.1668728220319622  0.9998687449749326  0.8371742525051289
  0.5000004587247062  0.9992855123808084  0.8380661686682274
  0.8331270740866898  0.9998721829171728  0.8371730660188135
  0.3325446605205045  0.1667359952122496  0.1633842094428246
  0.6674631457964324  0.1667512607705817  0.1633806618559888
  0.0000049202837715  0.1667386179923440  0.1617619713764071
  0.3337564672752649  0.5004768226720131  0.1611018539430376
  0.6662388016181211  0.5004987561333039  0.1610998333132940
  0.0000001282487787  0.4992661818266555  0.1633857953995843
  0.3337656034762730  0.8329631747834512  0.1610994740309977
  0.6662443937429856  0.8329863162761555  0.1611026673914253
  0.0000022292536244  0.8341909900127433  0.1633827896190070
  0.3347028813232811  0.1667987949127081  0.6638641391947218
  0.6652654021290729  0.1668086379989688  0.6638631299158533
  0.9999853153264553  0.1668157661524035  0.6638128678237862
  0.3337766669667346  0.5005966945702554  0.6628141671262071
  0.6661919018662559  0.5006037424635394  0.6628139801127944
  0.9999871912522522  0.5015414173711505  0.6638642442583915
  0.3337804327852538  0.8330165303927615  0.6628125292607479
  0.6661938265522238  0.8330208732145721  0.6628133534275449
  0.9999855830994946  0.8320997201511844  0.6638606147967963
  0.1682103614919228  0.1668284656999148  0.5009677428787001
  0.4999845308044897  0.1668293531775333  0.4990339736865792
  0.8317536836853350  0.1668348776128283  0.5009704259612633
  0.1675061995587654  0.5001934292346562  0.4987389589201712
  0.4999838559428227  0.5002292563472182  0.4987214261090216
  0.8324514643033822  0.5001952287516076  0.4987388055259956
  0.1675088715781641  0.8334607601752708  0.4987323604716423
  0.4999851590945283  0.8334270565804331  0.4987175749599260
  0.8324656836402653  0.8334602948764669  0.4987317073078259
  0.1665477295632982  0.1667161051596153  0.9999645688643781
  0.5000043469847029  0.1667194116497939  0.9999982066970290
  0.8334626777436043  0.1667203020979642  0.9999651582193465
  0.1663857098843309  0.4999205716265180  0.0001873176985825
  0.5000038092069516  0.4997322598722178  0.0000463993421036
  0.8336215423326934  0.4999245649565083  0.0001885166897253
  0.1663875286945213  0.8335126447701242  0.0001945768871963
  0.5000054966749090  0.8337043463811895  0.0000530971310368
  0.8336231037410400  0.8335153940661684  0.0001949812774100
  0.0000054388811321  0.0001783702090350  0.9999685257946354
  0.3332097459327130  0.0003365234422361  0.0001929908167355
  0.6668031688831420  0.0003383634320713  0.0001930918258992
  0.0000044621441404  0.3332628010369376  0.9999632372977558
  0.3332073126535562  0.3331023946510285  0.0001865800385445
  0.6668020432273920  0.3331056783191286  0.0001874378300641
  0.0000048238400012  0.6667160618780130  0.9999998749931152
  0.3330187254236918  0.6667145792400859  0.0000510250797063
  0.6669912702832477  0.6667193275010419  0.0000514240016258
  0.9999848490422920  0.9986302194304102  0.5009514125159100
  0.3333551356073627  0.9992958967996373  0.4987329910837275
  0.6666170569744310  0.9992992445033479  0.4987345534772558
  0.9999793808993971  0.3350371004786084  0.5009700503229126
  0.3333500425149154  0.3343507776267884  0.4987379530397078
  0.6666103268554977  0.3343526120378542  0.4987380494899440
  0.9999834204889879  0.6668222480254542  0.4990447631655499
  0.3333862505466172  0.6668283060273836  0.4987144586795864
  0.6665787372731344  0.6668320925369784  0.4987140471579750
 
  0.00000000E+00  0.00000000E+00  0.00000000E+00
  0.00000000E+00  0.00000000E+00  0.00000000E+00
  0.00000000E+00  0.00000000E+00  0.00000000E+00
  0.00000000E+00  0.00000000E+00  0.00000000E+00
  0.00000000E+00  0.00000000E+00  0.00000000E+00
  0.00000000E+00  0.00000000E+00  0.00000000E+00
  0.00000000E+00  0.00000000E+00  0.00000000E+00
  0.00000000E+00  0.00000000E+00  0.00000000E+00
  0.00000000E+00  0.00000000E+00  0.00000000E+00
  0.00000000E+00  0.00000000E+00  0.00000000E+00
  0.00000000E+00  0.00000000E+00  0.00000000E+00
  0.00000000E+00  0.00000000E+00  0.00000000E+00
  0.00000000E+00  0.00000000E+00  0.00000000E+00
  0.00000000E+00  0.00000000E+00  0.00000000E+00
  0.00000000E+00  0.00000000E+00  0.00000000E+00
  0.00000000E+00  0.00000000E+00  0.00000000E+00
  0.00000000E+00  0.00000000E+00  0.00000000E+00
  0.00000000E+00  0.00000000E+00  0.00000000E+00
  0.00000000E+00  0.00000000E+00  0.00000000E+00
  0.00000000E+00  0.00000000E+00  0.00000000E+00
  0.00000000E+00  0.00000000E+00  0.00000000E+00
  0.00000000E+00  0.00000000E+00  0.00000000E+00
  0.00000000E+00  0.00000000E+00  0.00000000E+00
  0.00000000E+00  0.00000000E+00  0.00000000E+00
  0.00000000E+00  0.00000000E+00  0.00000000E+00
  0.00000000E+00  0.00000000E+00  0.00000000E+00
  0.00000000E+00  0.00000000E+00  0.00000000E+00
  0.00000000E+00  0.00000000E+00  0.00000000E+00
  0.00000000E+00  0.00000000E+00  0.00000000E+00
  0.00000000E+00  0.00000000E+00  0.00000000E+00
  0.00000000E+00  0.00000000E+00  0.00000000E+00
  0.00000000E+00  0.00000000E+00  0.00000000E+00
  0.00000000E+00  0.00000000E+00  0.00000000E+00
  0.00000000E+00  0.00000000E+00  0.00000000E+00
  0.00000000E+00  0.00000000E+00  0.00000000E+00
  0.00000000E+00  0.00000000E+00  0.00000000E+00
  0.00000000E+00  0.00000000E+00  0.00000000E+00
  0.00000000E+00  0.00000000E+00  0.00000000E+00
  0.00000000E+00  0.00000000E+00  0.00000000E+00
  0.00000000E+00  0.00000000E+00  0.00000000E+00
  0.00000000E+00  0.00000000E+00  0.00000000E+00
  0.00000000E+00  0.00000000E+00  0.00000000E+00
  0.00000000E+00  0.00000000E+00  0.00000000E+00
  0.00000000E+00  0.00000000E+00  0.00000000E+00
  0.00000000E+00  0.00000000E+00  0.00000000E+00
  0.00000000E+00  0.00000000E+00  0.00000000E+00
  0.00000000E+00  0.00000000E+00  0.00000000E+00
  0.00000000E+00  0.00000000E+00  0.00000000E+00
  0.00000000E+00  0.00000000E+00  0.00000000E+00
  0.00000000E+00  0.00000000E+00  0.00000000E+00
  0.00000000E+00  0.00000000E+00  0.00000000E+00
  0.00000000E+00  0.00000000E+00  0.00000000E+00
  0.00000000E+00  0.00000000E+00  0.00000000E+00
  0.00000000E+00  0.00000000E+00  0.00000000E+00
  0.00000000E+00  0.00000000E+00  0.00000000E+00
  0.00000000E+00  0.00000000E+00  0.00000000E+00
  0.00000000E+00  0.00000000E+00  0.00000000E+00
  0.00000000E+00  0.00000000E+00  0.00000000E+00
  0.00000000E+00  0.00000000E+00  0.00000000E+00
  0.00000000E+00  0.00000000E+00  0.00000000E+00
  0.00000000E+00  0.00000000E+00  0.00000000E+00
  0.00000000E+00  0.00000000E+00  0.00000000E+00
  0.00000000E+00  0.00000000E+00  0.00000000E+00
  0.00000000E+00  0.00000000E+00  0.00000000E+00
  0.00000000E+00  0.00000000E+00  0.00000000E+00
  0.00000000E+00  0.00000000E+00  0.00000000E+00
  0.00000000E+00  0.00000000E+00  0.00000000E+00
  0.00000000E+00  0.00000000E+00  0.00000000E+00
  0.00000000E+00  0.00000000E+00  0.00000000E+00
  0.00000000E+00  0.00000000E+00  0.00000000E+00
  0.00000000E+00  0.00000000E+00  0.00000000E+00
  0.00000000E+00  0.00000000E+00  0.00000000E+00
  0.00000000E+00  0.00000000E+00  0.00000000E+00
  0.00000000E+00  0.00000000E+00  0.00000000E+00
  0.00000000E+00  0.00000000E+00  0.00000000E+00
  0.00000000E+00  0.00000000E+00  0.00000000E+00
  0.00000000E+00  0.00000000E+00  0.00000000E+00
  0.00000000E+00  0.00000000E+00  0.00000000E+00
  0.00000000E+00  0.00000000E+00  0.00000000E+00
  0.00000000E+00  0.00000000E+00  0.00000000E+00
  0.00000000E+00  0.00000000E+00  0.00000000E+00
  0.00000000E+00  0.00000000E+00  0.00000000E+00
  0.00000000E+00  0.00000000E+00  0.00000000E+00
  0.00000000E+00  0.00000000E+00  0.00000000E+00
  0.00000000E+00  0.00000000E+00  0.00000000E+00
  0.00000000E+00  0.00000000E+00  0.00000000E+00
  0.00000000E+00  0.00000000E+00  0.00000000E+00
  0.00000000E+00  0.00000000E+00  0.00000000E+00
  0.00000000E+00  0.00000000E+00  0.00000000E+00
  0.00000000E+00  0.00000000E+00  0.00000000E+00
  0.00000000E+00  0.00000000E+00  0.00000000E+00
  0.00000000E+00  0.00000000E+00  0.00000000E+00
  0.00000000E+00  0.00000000E+00  0.00000000E+00
  0.00000000E+00  0.00000000E+00  0.00000000E+00
  0.00000000E+00  0.00000000E+00  0.00000000E+00
  0.00000000E+00  0.00000000E+00  0.00000000E+00
  0.00000000E+00  0.00000000E+00  0.00000000E+00
  0.00000000E+00  0.00000000E+00  0.00000000E+00
  0.00000000E+00  0.00000000E+00  0.00000000E+00
  0.00000000E+00  0.00000000E+00  0.00000000E+00
  0.00000000E+00  0.00000000E+00  0.00000000E+00
  0.00000000E+00  0.00000000E+00  0.00000000E+00
  0.00000000E+00  0.00000000E+00  0.00000000E+00
  0.00000000E+00  0.00000000E+00  0.00000000E+00
  0.00000000E+00  0.00000000E+00  0.00000000E+00
  0.00000000E+00  0.00000000E+00  0.00000000E+00
  0.00000000E+00  0.00000000E+00  0.00000000E+00
  0.00000000E+00  0.00000000E+00  0.00000000E+00
  0.00000000E+00  0.00000000E+00  0.00000000E+00
  0.00000000E+00  0.00000000E+00  0.00000000E+00
  0.00000000E+00  0.00000000E+00  0.00000000E+00
  0.00000000E+00  0.00000000E+00  0.00000000E+00
  0.00000000E+00  0.00000000E+00  0.00000000E+00
  0.00000000E+00  0.00000000E+00  0.00000000E+00
  0.00000000E+00  0.00000000E+00  0.00000000E+00
  0.00000000E+00  0.00000000E+00  0.00000000E+00
  0.00000000E+00  0.00000000E+00  0.00000000E+00
  0.00000000E+00  0.00000000E+00  0.00000000E+00
  0.00000000E+00  0.00000000E+00  0.00000000E+00
  0.00000000E+00  0.00000000E+00  0.00000000E+00
  0.00000000E+00  0.00000000E+00  0.00000000E+00
  0.00000000E+00  0.00000000E+00  0.00000000E+00
  0.00000000E+00  0.00000000E+00  0.00000000E+00
  0.00000000E+00  0.00000000E+00  0.00000000E+00
  0.00000000E+00  0.00000000E+00  0.00000000E+00
  0.00000000E+00  0.00000000E+00  0.00000000E+00
  0.00000000E+00  0.00000000E+00  0.00000000E+00
  0.00000000E+00  0.00000000E+00  0.00000000E+00
  0.00000000E+00  0.00000000E+00  0.00000000E+00
  0.00000000E+00  0.00000000E+00  0.00000000E+00
  0.00000000E+00  0.00000000E+00  0.00000000E+00
  0.00000000E+00  0.00000000E+00  0.00000000E+00
  0.00000000E+00  0.00000000E+00  0.00000000E+00
  0.00000000E+00  0.00000000E+00  0.00000000E+00
  0.00000000E+00  0.00000000E+00  0.00000000E+00
  0.00000000E+00  0.00000000E+00  0.00000000E+00
  0.00000000E+00  0.00000000E+00  0.00000000E+00
  0.00000000E+00  0.00000000E+00  0.00000000E+00
  0.00000000E+00  0.00000000E+00  0.00000000E+00
  0.00000000E+00  0.00000000E+00  0.00000000E+00
  0.00000000E+00  0.00000000E+00  0.00000000E+00
  0.00000000E+00  0.00000000E+00  0.00000000E+00
  0.00000000E+00  0.00000000E+00  0.00000000E+00
  0.00000000E+00  0.00000000E+00  0.00000000E+00
