supercell of icsd_181358.cif            
   1.00000000000000     
    10.0445579913867000   -0.0136972635028946    0.0074268270069657
    -5.0341544720586811    8.7332249197842469   -0.0126941043209595
     0.0079644891362373   -0.0111345388426724   10.5618745188661585
   N    Ga   Sc
    36    24    12
Direct
  0.2284764048147991  0.1232534573258306  0.4382514616536355
  0.1024429628470571  0.2053555524399684  0.1886899075290884
  0.8947204622823506  0.1269176214864700  0.9413896883942954
  0.7701229215419829  0.2339744935101464  0.6844112638610156
  0.5624255173213939  0.1275415666519919  0.4331757282127313
  0.4445908469153466  0.2233731533404040  0.1919687638154599
  0.2231241939753943  0.1110402458235242  0.9494563550846919
  0.1203090700582763  0.2380373844409078  0.6843378612916666
  0.8957579484165947  0.1297957534489171  0.4432930817798919
  0.7784291988560241  0.2223436731540858  0.1883029297516501
  0.5632693940381870  0.1286245329015188  0.9388917701373458
  0.4481456919653724  0.2157121257429822  0.6803428674812082
  0.2290216465552533  0.4398145162415901  0.4335718428904229
  0.1007637020216521  0.5608358125391248  0.1879250033281465
  0.8874588542622561  0.4435098634929915  0.9388309652122189
  0.7935147822298916  0.5616993284388414  0.6871472836258903
  0.5568748534157351  0.4450655583508407  0.4422231641793246
  0.4630901505122083  0.5629800532254166  0.1895647914143268
  0.2229676371953246  0.4440194467491665  0.9504271562893720
  0.1122791503894618  0.5541353998291143  0.7020973933177643
  0.8764928087155681  0.4402309975903052  0.4340105041699474
  0.7667634704821467  0.5336047994931761  0.1851057976774229
  0.5538340935560839  0.4425939396733227  0.9447046805318706
  0.4288379574240366  0.5439072156324514  0.6843417439413031
  0.2189043942133111  0.7720490661239268  0.4317719761384140
  0.1277870071759537  0.8972834601752240  0.1909133187132710
  0.8926160415315110  0.7681670184674871  0.9502441310453165
  0.7884484561528993  0.8828129189581801  0.6947136687308273
  0.5458789834211260  0.7618243944189445  0.4443463088239810
  0.4471707502172535  0.8899642726120831  0.2028382299792426
  0.2091349755537735  0.7701515713127236  0.9421453068965704
  0.1057790780266217  0.8756246972406245  0.6962820819691515
  0.8821546666510258  0.7599318623153479  0.4333637244811683
  0.7731929612407811  0.8969114031246477  0.2045823631207710
  0.5481004176753856  0.7657722778321698  0.9422890283809906
  0.4373856424424574  0.8971444538519648  0.6986929963763444
  0.2254488186229793  0.1126017741662153  0.2486786457593126
  0.1097920449233456  0.2200312642239837  0.0022448934828248
  0.7745640332335455  0.2312993183070091  0.4971104222300156
  0.5590652334295072  0.1174018134655270  0.2485377084976363
  0.4461375428364605  0.2270545722189041  0.0043824743818064
  0.1190914841665602  0.2316092528788616  0.4965611414136788
  0.8880135575144550  0.1160508321697904  0.2527723041781798
  0.7809135717381963  0.2299075578797130  0.0000375043985699
  0.5563062287053455  0.1182074284063006  0.7497811677086261
  0.4482253133643113  0.2271874368347682  0.4945166794835743
  0.1036606242922602  0.5549488770385693  0.9992420561033271
  0.8908337182192270  0.4477383735685692  0.7511405386952887
  0.7767309064471277  0.5513003193339543  0.4982943172595640
  0.5573388079455128  0.4415996129677993  0.2514102872440418
  0.4490007224862822  0.5539419191704766  0.0023586433239799
  0.2211277908702129  0.4457428875385858  0.7559637906418430
  0.8817157950667323  0.4391407710625685  0.2480161015444295
  0.7739307750192452  0.5452041350253012  0.0000670231347044
  0.4389088353673074  0.5456653955959538  0.4971376789260873
  0.2230218873337293  0.7782743329137034  0.2470899635877686
  0.1144091072880968  0.8888834278386426  0.0026281733426217
  0.8935407386682144  0.7714750943422928  0.7554162285725923
  0.5549729282234281  0.7763603743493732  0.2541510895577233
  0.2159942225130820  0.7732723676933944  0.7551032383156624
  0.8901410457688925  0.1203459571677570  0.7403778444568800
  0.2222505166734337  0.1098642083888208  0.7477629874702529
  0.2238755719008765  0.4434655536659591  0.2347895619525673
  0.1076688847541547  0.5476683628058865  0.4985942006217670
  0.5586728371784844  0.4430956685766390  0.7428222080706419
  0.7807430180012958  0.8869112787463962  0.4888394265280382
  0.4423863709538480  0.8918526519074490  0.9982413989343542
  0.1093285841912035  0.8865498721212575  0.4949533853593309
  0.8878006956882203  0.7687337322299683  0.2360628799457345
  0.7791849598910261  0.8932181387633662  0.9990578333528219
  0.5503809137376265  0.7725286915830907  0.7426328298224476
  0.4445548188912909  0.8948628570967401  0.4925782314746172
 
  0.00000000E+00  0.00000000E+00  0.00000000E+00
  0.00000000E+00  0.00000000E+00  0.00000000E+00
  0.00000000E+00  0.00000000E+00  0.00000000E+00
  0.00000000E+00  0.00000000E+00  0.00000000E+00
  0.00000000E+00  0.00000000E+00  0.00000000E+00
  0.00000000E+00  0.00000000E+00  0.00000000E+00
  0.00000000E+00  0.00000000E+00  0.00000000E+00
  0.00000000E+00  0.00000000E+00  0.00000000E+00
  0.00000000E+00  0.00000000E+00  0.00000000E+00
  0.00000000E+00  0.00000000E+00  0.00000000E+00
  0.00000000E+00  0.00000000E+00  0.00000000E+00
  0.00000000E+00  0.00000000E+00  0.00000000E+00
  0.00000000E+00  0.00000000E+00  0.00000000E+00
  0.00000000E+00  0.00000000E+00  0.00000000E+00
  0.00000000E+00  0.00000000E+00  0.00000000E+00
  0.00000000E+00  0.00000000E+00  0.00000000E+00
  0.00000000E+00  0.00000000E+00  0.00000000E+00
  0.00000000E+00  0.00000000E+00  0.00000000E+00
  0.00000000E+00  0.00000000E+00  0.00000000E+00
  0.00000000E+00  0.00000000E+00  0.00000000E+00
  0.00000000E+00  0.00000000E+00  0.00000000E+00
  0.00000000E+00  0.00000000E+00  0.00000000E+00
  0.00000000E+00  0.00000000E+00  0.00000000E+00
  0.00000000E+00  0.00000000E+00  0.00000000E+00
  0.00000000E+00  0.00000000E+00  0.00000000E+00
  0.00000000E+00  0.00000000E+00  0.00000000E+00
  0.00000000E+00  0.00000000E+00  0.00000000E+00
  0.00000000E+00  0.00000000E+00  0.00000000E+00
  0.00000000E+00  0.00000000E+00  0.00000000E+00
  0.00000000E+00  0.00000000E+00  0.00000000E+00
  0.00000000E+00  0.00000000E+00  0.00000000E+00
  0.00000000E+00  0.00000000E+00  0.00000000E+00
  0.00000000E+00  0.00000000E+00  0.00000000E+00
  0.00000000E+00  0.00000000E+00  0.00000000E+00
  0.00000000E+00  0.00000000E+00  0.00000000E+00
  0.00000000E+00  0.00000000E+00  0.00000000E+00
  0.00000000E+00  0.00000000E+00  0.00000000E+00
  0.00000000E+00  0.00000000E+00  0.00000000E+00
  0.00000000E+00  0.00000000E+00  0.00000000E+00
  0.00000000E+00  0.00000000E+00  0.00000000E+00
  0.00000000E+00  0.00000000E+00  0.00000000E+00
  0.00000000E+00  0.00000000E+00  0.00000000E+00
  0.00000000E+00  0.00000000E+00  0.00000000E+00
  0.00000000E+00  0.00000000E+00  0.00000000E+00
  0.00000000E+00  0.00000000E+00  0.00000000E+00
  0.00000000E+00  0.00000000E+00  0.00000000E+00
  0.00000000E+00  0.00000000E+00  0.00000000E+00
  0.00000000E+00  0.00000000E+00  0.00000000E+00
  0.00000000E+00  0.00000000E+00  0.00000000E+00
  0.00000000E+00  0.00000000E+00  0.00000000E+00
  0.00000000E+00  0.00000000E+00  0.00000000E+00
  0.00000000E+00  0.00000000E+00  0.00000000E+00
  0.00000000E+00  0.00000000E+00  0.00000000E+00
  0.00000000E+00  0.00000000E+00  0.00000000E+00
  0.00000000E+00  0.00000000E+00  0.00000000E+00
  0.00000000E+00  0.00000000E+00  0.00000000E+00
  0.00000000E+00  0.00000000E+00  0.00000000E+00
  0.00000000E+00  0.00000000E+00  0.00000000E+00
  0.00000000E+00  0.00000000E+00  0.00000000E+00
  0.00000000E+00  0.00000000E+00  0.00000000E+00
  0.00000000E+00  0.00000000E+00  0.00000000E+00
  0.00000000E+00  0.00000000E+00  0.00000000E+00
  0.00000000E+00  0.00000000E+00  0.00000000E+00
  0.00000000E+00  0.00000000E+00  0.00000000E+00
  0.00000000E+00  0.00000000E+00  0.00000000E+00
  0.00000000E+00  0.00000000E+00  0.00000000E+00
  0.00000000E+00  0.00000000E+00  0.00000000E+00
  0.00000000E+00  0.00000000E+00  0.00000000E+00
  0.00000000E+00  0.00000000E+00  0.00000000E+00
  0.00000000E+00  0.00000000E+00  0.00000000E+00
  0.00000000E+00  0.00000000E+00  0.00000000E+00
  0.00000000E+00  0.00000000E+00  0.00000000E+00
