supercell of 100% icsd_608626.cif, 0% i 
   1.00000000000000     
    -9.5686833458665816   -0.0038238330381080   -0.0089325567062200
    -4.7810253619007996    8.2813838078397950    0.0031735996982202
    -0.0095076822975818   -0.0093936327758731  -10.1812107426206957
   Al   Sr   Ti   N 
    32     2     2    36
Direct
  0.1133912886908064  0.0933891430570668  0.2957778008632772
  0.2256949105417192  0.2046536637110634  0.0534140159606125
  0.8889531523642731  0.2041236416037719  0.5336559954538558
  0.4426868084624331  0.0927283055990671  0.2934510515717719
  0.5489379425593270  0.2093031072254803  0.0577193649956556
  0.1091720615939451  0.1040853978456440  0.7986591502175600
  0.2218640387524573  0.2034787567163789  0.5417340413231386
  0.7790609943253415  0.0947186702347338  0.2955575393076018
  0.8881510424712644  0.2102760921379598  0.0554385676812075
  0.5554380287029872  0.2078354094238648  0.5337565265342903
  0.1146574473225996  0.4260012984725137  0.3021792280510027
  0.2284030010505873  0.5333258176640641  0.0530840149086771
  0.7788060909994599  0.4280393636084341  0.7821800465909874
  0.8889647467689770  0.5381975260967167  0.5571679094486015
  0.4432676617502338  0.4314343299433077  0.2938472445512446
  0.5542978969407031  0.5353698958859638  0.0498851183068467
  0.1135412280645767  0.4259220093320977  0.7799139395881127
  0.2261767795042644  0.5369708932070978  0.5416464808220169
  0.7744515980738385  0.4286816054089968  0.3015324163965118
  0.4412541107730377  0.4322026221171598  0.7950034530204491
  0.5526894785797367  0.5394294617661046  0.5442479439638461
  0.1146914237127703  0.7594462850495347  0.2950699651052560
  0.2235582602899910  0.8740878833241297  0.0509072316887895
  0.7781085544039428  0.7574526963114039  0.7798747626727689
  0.8864881191503784  0.8755047231239956  0.5317475905857947
  0.4440033473166665  0.7605520445942417  0.2968410036002638
  0.5556464414226809  0.8732415886209992  0.0535036038519152
  0.2220977344859350  0.8743298265084292  0.5463460710173678
  0.7754827682280379  0.7619573351225597  0.3014690974671055
  0.8876819997130809  0.8696405860840031  0.0602052552461387
  0.4472776148356914  0.7578446351974435  0.7970655789265280
  0.5525814762520653  0.8731913225787125  0.5424710422343821
  0.7822783705721577  0.0951105701821220  0.8014863018902858
  0.8903489309728627  0.5358708174686839  0.0285368638705847
  0.4397869190997028  0.0957203026229507  0.8006594653041148
  0.1136523907966236  0.7543376689986658  0.8030166985667506
  0.2243914989374076  0.2008993042296368  0.3568001454438772
  0.1144332722568251  0.0932889910532282  0.1079805017211726
  0.9075844972463258  0.2361483042060115  0.8726693586157950
  0.7760692032535488  0.0954259209608352  0.5683260194996009
  0.5508538383708625  0.2079352797658416  0.3450618419966460
  0.4430237478667038  0.0911362735326477  0.1046734055416465
  0.2169221378138957  0.2130632061806850  0.8573270635475367
  0.1088076888203418  0.0958172368241677  0.6072701511603924
  0.8942778192463479  0.2033535115743916  0.3487663730393820
  0.7781547657249703  0.0943132526293056  0.0984606030569353
  0.5142808304347639  0.2279246097563927  0.8700947849215481
  0.4442864816545296  0.0966158127363599  0.6038451247573775
  0.2243161145614891  0.5415581418073074  0.3566668659104337
  0.1480406513598425  0.4092493093036680  0.1207057704772936
  0.8905695182395732  0.5384052393946206  0.7905565329145361
  0.7727969856358428  0.4216958388546388  0.5945125124527806
  0.5499721655876044  0.5426089542537724  0.3586850335375402
  0.4429694949118641  0.4313813768563861  0.1068092739369604
  0.2241481140062973  0.5308796751493006  0.8564576072863090
  0.1219354218828954  0.4222780355086755  0.5941976828862607
  0.8894775036264946  0.5383924738676669  0.3590892802981003
  0.7553458741178787  0.4143921785459526  0.1228391729525384
  0.5573306597510950  0.5369957535253604  0.8542597503786027
  0.4448231824892446  0.4266423052064141  0.6056161864644025
  0.2223359115380674  0.8721174037560502  0.3569395663489772
  0.1156401443426205  0.7591330916787555  0.1046626112992470
  0.9065308112162214  0.8240202632423319  0.8723905705468837
  0.7721372716609665  0.7728540183309249  0.5935827596707668
  0.5500903838109892  0.8740275454665962  0.3572648349630470
  0.4443796906928554  0.7603669239794542  0.1054438020805648
  0.2235551177926638  0.8786565864995382  0.8582662014218769
  0.1081072495136013  0.7619571697098166  0.6055451456766932
  0.8946200133906785  0.8691222387267743  0.3470031288576791
  0.7577749319483189  0.7938929350825106  0.1224739755150281
  0.5632235818414060  0.8628696391694533  0.8577531940030099
  0.4432487649098462  0.7621259017891617  0.6079507852331645
 
  0.00000000E+00  0.00000000E+00  0.00000000E+00
  0.00000000E+00  0.00000000E+00  0.00000000E+00
  0.00000000E+00  0.00000000E+00  0.00000000E+00
  0.00000000E+00  0.00000000E+00  0.00000000E+00
  0.00000000E+00  0.00000000E+00  0.00000000E+00
  0.00000000E+00  0.00000000E+00  0.00000000E+00
  0.00000000E+00  0.00000000E+00  0.00000000E+00
  0.00000000E+00  0.00000000E+00  0.00000000E+00
  0.00000000E+00  0.00000000E+00  0.00000000E+00
  0.00000000E+00  0.00000000E+00  0.00000000E+00
  0.00000000E+00  0.00000000E+00  0.00000000E+00
  0.00000000E+00  0.00000000E+00  0.00000000E+00
  0.00000000E+00  0.00000000E+00  0.00000000E+00
  0.00000000E+00  0.00000000E+00  0.00000000E+00
  0.00000000E+00  0.00000000E+00  0.00000000E+00
  0.00000000E+00  0.00000000E+00  0.00000000E+00
  0.00000000E+00  0.00000000E+00  0.00000000E+00
  0.00000000E+00  0.00000000E+00  0.00000000E+00
  0.00000000E+00  0.00000000E+00  0.00000000E+00
  0.00000000E+00  0.00000000E+00  0.00000000E+00
  0.00000000E+00  0.00000000E+00  0.00000000E+00
  0.00000000E+00  0.00000000E+00  0.00000000E+00
  0.00000000E+00  0.00000000E+00  0.00000000E+00
  0.00000000E+00  0.00000000E+00  0.00000000E+00
  0.00000000E+00  0.00000000E+00  0.00000000E+00
  0.00000000E+00  0.00000000E+00  0.00000000E+00
  0.00000000E+00  0.00000000E+00  0.00000000E+00
  0.00000000E+00  0.00000000E+00  0.00000000E+00
  0.00000000E+00  0.00000000E+00  0.00000000E+00
  0.00000000E+00  0.00000000E+00  0.00000000E+00
  0.00000000E+00  0.00000000E+00  0.00000000E+00
  0.00000000E+00  0.00000000E+00  0.00000000E+00
  0.00000000E+00  0.00000000E+00  0.00000000E+00
  0.00000000E+00  0.00000000E+00  0.00000000E+00
  0.00000000E+00  0.00000000E+00  0.00000000E+00
  0.00000000E+00  0.00000000E+00  0.00000000E+00
  0.00000000E+00  0.00000000E+00  0.00000000E+00
  0.00000000E+00  0.00000000E+00  0.00000000E+00
  0.00000000E+00  0.00000000E+00  0.00000000E+00
  0.00000000E+00  0.00000000E+00  0.00000000E+00
  0.00000000E+00  0.00000000E+00  0.00000000E+00
  0.00000000E+00  0.00000000E+00  0.00000000E+00
  0.00000000E+00  0.00000000E+00  0.00000000E+00
  0.00000000E+00  0.00000000E+00  0.00000000E+00
  0.00000000E+00  0.00000000E+00  0.00000000E+00
  0.00000000E+00  0.00000000E+00  0.00000000E+00
  0.00000000E+00  0.00000000E+00  0.00000000E+00
  0.00000000E+00  0.00000000E+00  0.00000000E+00
  0.00000000E+00  0.00000000E+00  0.00000000E+00
  0.00000000E+00  0.00000000E+00  0.00000000E+00
  0.00000000E+00  0.00000000E+00  0.00000000E+00
  0.00000000E+00  0.00000000E+00  0.00000000E+00
  0.00000000E+00  0.00000000E+00  0.00000000E+00
  0.00000000E+00  0.00000000E+00  0.00000000E+00
  0.00000000E+00  0.00000000E+00  0.00000000E+00
  0.00000000E+00  0.00000000E+00  0.00000000E+00
  0.00000000E+00  0.00000000E+00  0.00000000E+00
  0.00000000E+00  0.00000000E+00  0.00000000E+00
  0.00000000E+00  0.00000000E+00  0.00000000E+00
  0.00000000E+00  0.00000000E+00  0.00000000E+00
  0.00000000E+00  0.00000000E+00  0.00000000E+00
  0.00000000E+00  0.00000000E+00  0.00000000E+00
  0.00000000E+00  0.00000000E+00  0.00000000E+00
  0.00000000E+00  0.00000000E+00  0.00000000E+00
  0.00000000E+00  0.00000000E+00  0.00000000E+00
  0.00000000E+00  0.00000000E+00  0.00000000E+00
  0.00000000E+00  0.00000000E+00  0.00000000E+00
  0.00000000E+00  0.00000000E+00  0.00000000E+00
  0.00000000E+00  0.00000000E+00  0.00000000E+00
  0.00000000E+00  0.00000000E+00  0.00000000E+00
  0.00000000E+00  0.00000000E+00  0.00000000E+00
  0.00000000E+00  0.00000000E+00  0.00000000E+00
