supercell of 100% icsd_608626.cif, 0% i 
   1.00000000000000     
    -9.5658567463711215    0.0077361057622145   -0.0071648197200499
    -4.7896280475899493    8.2804080374773541   -0.0071643947671298
    -0.0075804741397136    0.0043760595011588  -10.1822969239412444
   Al   Ti   Sr   N 
    32     2     2    36
Direct
  0.1105238164488753  0.1029026567867461  0.2968271348285327
  0.2188004907466450  0.2059836525593326  0.0479448058019969
  0.8921444196694921  0.2088121653017723  0.5508956741250515
  0.4386976337976591  0.1006207052396917  0.2982107009757655
  0.5526910302506423  0.2059273106104982  0.0349514986996127
  0.1182416227410883  0.0931841324666962  0.7936515795348242
  0.2232722024005867  0.2033916979290424  0.5433268595617236
  0.8950403989388533  0.2117063880843943  0.0336986218580577
  0.4381184161174261  0.0930963171860526  0.7945069898965329
  0.5523403351611762  0.2044772883246821  0.5510362214050346
  0.1078911721090847  0.4245564097654864  0.3009666448339985
  0.7765170757204629  0.4349085123433412  0.7936516638651838
  0.8867256284366434  0.5399386798621180  0.5433266998662134
  0.4470530625837412  0.4200947721384267  0.3052057903999028
  0.5661860099010596  0.5270899085605549  0.0486138537523644
  0.1101638576238457  0.4268302131629369  0.7865137112994276
  0.2221048713265503  0.5387726204656218  0.5457523928223367
  0.7862366089243977  0.4271901599049883  0.2968269551039597
  0.8893182966115631  0.5354659395830268  0.0479447237595778
  0.4403604426899648  0.4326263884745103  0.7830913890925828
  0.5585789362177493  0.5380440253106542  0.5485429239374611
  0.1034281040453564  0.7637187663701468  0.3052053736442701
  0.2104232847623919  0.8828521305504111  0.0486141084679304
  0.7764299234959751  0.7547845479687965  0.7945067326193040
  0.8878100157714215  0.8690079460671143  0.5510361155471628
  0.5561842096575234  0.8728499157136724  0.0460631640702758
  0.1159578806208685  0.7570291457730463  0.7830916732497997
  0.2213765273698129  0.8752462335842068  0.5485425503170021
  0.7839544619773378  0.7553634381419982  0.2982107202130138
  0.8892602351137882  0.8693576509415308  0.0349510734605119
  0.4431990259797800  0.7598666105567560  0.7984643834765848
  0.5557451724334115  0.8724115683753482  0.5501010963870030
  0.7782135646494126  0.0948817839376730  0.8165557281523377
  0.4436397097840228  0.7603062548750543  0.2998617228622322
  0.7793344018171808  0.0960004305166891  0.2728123435162573
  0.2270227287215150  0.5436886482556389  0.0508666951083399
  0.2247442233254233  0.2017916301623970  0.3566537771943104
  0.1093809347538581  0.0977080290582322  0.1050813648061180
  0.8979047751081382  0.2145716126312678  0.8461985374001486
  0.7784074454806458  0.0950751840879818  0.6105875201599673
  0.5239587531303656  0.2156942044842296  0.3725602179675889
  0.4460410875076306  0.0941201462971364  0.1047322752129531
  0.2212198329176118  0.2069602459388165  0.8564454307278950
  0.1154346998602662  0.0927323517171317  0.6079914176682095
  0.9070177314962251  0.2236842561648018  0.3693996101542254
  0.7791239834022008  0.0957906593273705  0.0306772338517405
  0.5377131343104224  0.2145750883615136  0.8462318620974827
  0.4424720108655293  0.0909782169665760  0.6087769729185339
  0.2227946997944699  0.5394607628475754  0.3501432002463929
  0.0933103651675466  0.4099756514974118  0.1183661658608131
  0.8902940093218135  0.5378859368661040  0.8564453787919177
  0.7760652090844076  0.4321022479424457  0.6079914777584960
  0.5608038201354830  0.5353409562654434  0.3586079781278499
  0.4961593317608504  0.3950159059802658  0.1243983249250178
  0.2211056329216348  0.5377744803859699  0.8172790880381768
  0.1086356807008855  0.4253018608221240  0.5969026161759672
  0.8851262267909945  0.5414099374029817  0.3566535965879538
  0.7810421465279518  0.4260470039777715  0.1050811600977610
  0.5543758882399601  0.5367858985967189  0.8566626290056405
  0.4480018128116612  0.4291538837463520  0.5984185728290967
  0.2186742338051104  0.8774697724744840  0.3586076463615342
  0.0783490013742920  0.8128253158187206  0.1243979198889775
  0.8979065470781578  0.8543814352458128  0.8462314628595564
  0.7743119380201406  0.7591384969563322  0.6087767460727633
  0.5569351632743889  0.8736014648422099  0.3559870618569789
  0.4419857326667653  0.7586521069041936  0.1040685433689035
  0.2201184191167371  0.8710434237053022  0.8566628838013628
  0.1124862180002921  0.7646696500084644  0.5984187752755048
  0.8990276335075009  0.8406248624881556  0.3725601839355974
  0.7774543545635098  0.7627065767353329  0.1047322384503246
  0.5544610508677579  0.8711274379704150  0.8569517146257084
  0.4441706976920372  0.7608382896333339  0.6059480983863281
 
  0.00000000E+00  0.00000000E+00  0.00000000E+00
  0.00000000E+00  0.00000000E+00  0.00000000E+00
  0.00000000E+00  0.00000000E+00  0.00000000E+00
  0.00000000E+00  0.00000000E+00  0.00000000E+00
  0.00000000E+00  0.00000000E+00  0.00000000E+00
  0.00000000E+00  0.00000000E+00  0.00000000E+00
  0.00000000E+00  0.00000000E+00  0.00000000E+00
  0.00000000E+00  0.00000000E+00  0.00000000E+00
  0.00000000E+00  0.00000000E+00  0.00000000E+00
  0.00000000E+00  0.00000000E+00  0.00000000E+00
  0.00000000E+00  0.00000000E+00  0.00000000E+00
  0.00000000E+00  0.00000000E+00  0.00000000E+00
  0.00000000E+00  0.00000000E+00  0.00000000E+00
  0.00000000E+00  0.00000000E+00  0.00000000E+00
  0.00000000E+00  0.00000000E+00  0.00000000E+00
  0.00000000E+00  0.00000000E+00  0.00000000E+00
  0.00000000E+00  0.00000000E+00  0.00000000E+00
  0.00000000E+00  0.00000000E+00  0.00000000E+00
  0.00000000E+00  0.00000000E+00  0.00000000E+00
  0.00000000E+00  0.00000000E+00  0.00000000E+00
  0.00000000E+00  0.00000000E+00  0.00000000E+00
  0.00000000E+00  0.00000000E+00  0.00000000E+00
  0.00000000E+00  0.00000000E+00  0.00000000E+00
  0.00000000E+00  0.00000000E+00  0.00000000E+00
  0.00000000E+00  0.00000000E+00  0.00000000E+00
  0.00000000E+00  0.00000000E+00  0.00000000E+00
  0.00000000E+00  0.00000000E+00  0.00000000E+00
  0.00000000E+00  0.00000000E+00  0.00000000E+00
  0.00000000E+00  0.00000000E+00  0.00000000E+00
  0.00000000E+00  0.00000000E+00  0.00000000E+00
  0.00000000E+00  0.00000000E+00  0.00000000E+00
  0.00000000E+00  0.00000000E+00  0.00000000E+00
  0.00000000E+00  0.00000000E+00  0.00000000E+00
  0.00000000E+00  0.00000000E+00  0.00000000E+00
  0.00000000E+00  0.00000000E+00  0.00000000E+00
  0.00000000E+00  0.00000000E+00  0.00000000E+00
  0.00000000E+00  0.00000000E+00  0.00000000E+00
  0.00000000E+00  0.00000000E+00  0.00000000E+00
  0.00000000E+00  0.00000000E+00  0.00000000E+00
  0.00000000E+00  0.00000000E+00  0.00000000E+00
  0.00000000E+00  0.00000000E+00  0.00000000E+00
  0.00000000E+00  0.00000000E+00  0.00000000E+00
  0.00000000E+00  0.00000000E+00  0.00000000E+00
  0.00000000E+00  0.00000000E+00  0.00000000E+00
  0.00000000E+00  0.00000000E+00  0.00000000E+00
  0.00000000E+00  0.00000000E+00  0.00000000E+00
  0.00000000E+00  0.00000000E+00  0.00000000E+00
  0.00000000E+00  0.00000000E+00  0.00000000E+00
  0.00000000E+00  0.00000000E+00  0.00000000E+00
  0.00000000E+00  0.00000000E+00  0.00000000E+00
  0.00000000E+00  0.00000000E+00  0.00000000E+00
  0.00000000E+00  0.00000000E+00  0.00000000E+00
  0.00000000E+00  0.00000000E+00  0.00000000E+00
  0.00000000E+00  0.00000000E+00  0.00000000E+00
  0.00000000E+00  0.00000000E+00  0.00000000E+00
  0.00000000E+00  0.00000000E+00  0.00000000E+00
  0.00000000E+00  0.00000000E+00  0.00000000E+00
  0.00000000E+00  0.00000000E+00  0.00000000E+00
  0.00000000E+00  0.00000000E+00  0.00000000E+00
  0.00000000E+00  0.00000000E+00  0.00000000E+00
  0.00000000E+00  0.00000000E+00  0.00000000E+00
  0.00000000E+00  0.00000000E+00  0.00000000E+00
  0.00000000E+00  0.00000000E+00  0.00000000E+00
  0.00000000E+00  0.00000000E+00  0.00000000E+00
  0.00000000E+00  0.00000000E+00  0.00000000E+00
  0.00000000E+00  0.00000000E+00  0.00000000E+00
  0.00000000E+00  0.00000000E+00  0.00000000E+00
  0.00000000E+00  0.00000000E+00  0.00000000E+00
  0.00000000E+00  0.00000000E+00  0.00000000E+00
  0.00000000E+00  0.00000000E+00  0.00000000E+00
  0.00000000E+00  0.00000000E+00  0.00000000E+00
  0.00000000E+00  0.00000000E+00  0.00000000E+00
